    1C
    1U plate.inp                                                        
    1UUSER                                                              
    1UDATE              31.august.2021                                  
    1UTIME              12:18:58                                        
    1UHOST                                                              
    1UPGM               CalculiX                                        
    1UVERSION           Version 2.17                             
    1UCOMPILETIME       Thu Jul 23 21:43:50 CEST 2020                    
    1UDIR                                                               
    1UDBN                                                               
    1UMAT    1STEEL                                                     
    2C                         12618                                     1
 -1         1 2.50000E+00 2.50000E+00 0.00000E+00
 -1         2 2.50000E+00-2.50000E+00 0.00000E+00
 -1         3-2.50000E+00-2.50000E+00 0.00000E+00
 -1         4-2.50000E+00 2.50000E+00 0.00000E+00
 -1         5 8.00000E+00 8.00000E+00 0.00000E+00
 -1         6 8.00000E+00-8.00000E+00 0.00000E+00
 -1         7-8.00000E+00-8.00000E+00 0.00000E+00
 -1         8-8.00000E+00 8.00000E+00 0.00000E+00
 -1         9 2.50000E+01 3.75000E+01 0.00000E+00
 -1        10 2.50000E+01 8.00000E+00 0.00000E+00
 -1        11 2.50000E+01-8.00000E+00 0.00000E+00
 -1        12 2.50000E+01-3.75000E+01 0.00000E+00
 -1        13 8.00000E+00-3.75000E+01 0.00000E+00
 -1        14-8.00000E+00-3.75000E+01 0.00000E+00
 -1        15-2.50000E+01-3.75000E+01 0.00000E+00
 -1        16-2.50000E+01-8.00000E+00 0.00000E+00
 -1        17-2.50000E+01 8.00000E+00 0.00000E+00
 -1        18-2.50000E+01 3.75000E+01 0.00000E+00
 -1        19-8.00000E+00 3.75000E+01 0.00000E+00
 -1        20 8.00000E+00 3.75000E+01 0.00000E+00
 -1        21 7.30740E+00 7.30740E+00 0.00000E+00
 -1        22 6.68406E+00 6.68406E+00 0.00000E+00
 -1        23 6.12305E+00 6.12305E+00 0.00000E+00
 -1        24 5.61815E+00 5.61815E+00 0.00000E+00
 -1        25 5.16373E+00 5.16373E+00 0.00000E+00
 -1        26 4.75476E+00 4.75476E+00 0.00000E+00
 -1        27 4.38668E+00 4.38668E+00 0.00000E+00
 -1        28 4.05541E+00 4.05541E+00 0.00000E+00
 -1        29 3.75727E+00 3.75727E+00 0.00000E+00
 -1        30 3.48895E+00 3.48895E+00 0.00000E+00
 -1        31 3.24745E+00 3.24745E+00 0.00000E+00
 -1        32 3.03011E+00 3.03011E+00 0.00000E+00
 -1        33 2.83449E+00 2.83449E+00 0.00000E+00
 -1        34 2.65844E+00 2.65844E+00 0.00000E+00
 -1        35 7.65370E+00 7.65370E+00 0.00000E+00
 -1        36 6.99573E+00 6.99573E+00 0.00000E+00
 -1        37 6.40356E+00 6.40356E+00 0.00000E+00
 -1        38 5.87060E+00 5.87060E+00 0.00000E+00
 -1        39 5.39094E+00 5.39094E+00 0.00000E+00
 -1        40 4.95925E+00 4.95925E+00 0.00000E+00
 -1        41 4.57072E+00 4.57072E+00 0.00000E+00
 -1        42 4.22105E+00 4.22105E+00 0.00000E+00
 -1        43 3.90634E+00 3.90634E+00 0.00000E+00
 -1        44 3.62311E+00 3.62311E+00 0.00000E+00
 -1        45 3.36820E+00 3.36820E+00 0.00000E+00
 -1        46 3.13878E+00 3.13878E+00 0.00000E+00
 -1        47 2.93230E+00 2.93230E+00 0.00000E+00
 -1        48 2.74647E+00 2.74647E+00 0.00000E+00
 -1        49 2.57922E+00 2.57922E+00 0.00000E+00
 -1        50 7.30740E+00-7.30740E+00 0.00000E+00
 -1        51 6.68406E+00-6.68406E+00 0.00000E+00
 -1        52 6.12305E+00-6.12305E+00 0.00000E+00
 -1        53 5.61815E+00-5.61815E+00 0.00000E+00
 -1        54 5.16373E+00-5.16373E+00 0.00000E+00
 -1        55 4.75476E+00-4.75476E+00 0.00000E+00
 -1        56 4.38668E+00-4.38668E+00 0.00000E+00
 -1        57 4.05541E+00-4.05541E+00 0.00000E+00
 -1        58 3.75727E+00-3.75727E+00 0.00000E+00
 -1        59 3.48895E+00-3.48895E+00 0.00000E+00
 -1        60 3.24745E+00-3.24745E+00 0.00000E+00
 -1        61 3.03011E+00-3.03011E+00 0.00000E+00
 -1        62 2.83449E+00-2.83449E+00 0.00000E+00
 -1        63 2.65844E+00-2.65844E+00 0.00000E+00
 -1        64 7.65370E+00-7.65370E+00 0.00000E+00
 -1        65 6.99573E+00-6.99573E+00 0.00000E+00
 -1        66 6.40356E+00-6.40356E+00 0.00000E+00
 -1        67 5.87060E+00-5.87060E+00 0.00000E+00
 -1        68 5.39094E+00-5.39094E+00 0.00000E+00
 -1        69 4.95925E+00-4.95925E+00 0.00000E+00
 -1        70 4.57072E+00-4.57072E+00 0.00000E+00
 -1        71 4.22105E+00-4.22105E+00 0.00000E+00
 -1        72 3.90634E+00-3.90634E+00 0.00000E+00
 -1        73 3.62311E+00-3.62311E+00 0.00000E+00
 -1        74 3.36820E+00-3.36820E+00 0.00000E+00
 -1        75 3.13878E+00-3.13878E+00 0.00000E+00
 -1        76 2.93230E+00-2.93230E+00 0.00000E+00
 -1        77 2.74647E+00-2.74647E+00 0.00000E+00
 -1        78 2.57922E+00-2.57922E+00 0.00000E+00
 -1        79-7.30740E+00-7.30740E+00 0.00000E+00
 -1        80-6.68406E+00-6.68406E+00 0.00000E+00
 -1        81-6.12305E+00-6.12305E+00 0.00000E+00
 -1        82-5.61815E+00-5.61815E+00 0.00000E+00
 -1        83-5.16373E+00-5.16373E+00 0.00000E+00
 -1        84-4.75476E+00-4.75476E+00 0.00000E+00
 -1        85-4.38668E+00-4.38668E+00 0.00000E+00
 -1        86-4.05541E+00-4.05541E+00 0.00000E+00
 -1        87-3.75727E+00-3.75727E+00 0.00000E+00
 -1        88-3.48895E+00-3.48895E+00 0.00000E+00
 -1        89-3.24745E+00-3.24745E+00 0.00000E+00
 -1        90-3.03011E+00-3.03011E+00 0.00000E+00
 -1        91-2.83449E+00-2.83449E+00 0.00000E+00
 -1        92-2.65844E+00-2.65844E+00 0.00000E+00
 -1        93-7.65370E+00-7.65370E+00 0.00000E+00
 -1        94-6.99573E+00-6.99573E+00 0.00000E+00
 -1        95-6.40356E+00-6.40356E+00 0.00000E+00
 -1        96-5.87060E+00-5.87060E+00 0.00000E+00
 -1        97-5.39094E+00-5.39094E+00 0.00000E+00
 -1        98-4.95925E+00-4.95925E+00 0.00000E+00
 -1        99-4.57072E+00-4.57072E+00 0.00000E+00
 -1       100-4.22105E+00-4.22105E+00 0.00000E+00
 -1       101-3.90634E+00-3.90634E+00 0.00000E+00
 -1       102-3.62311E+00-3.62311E+00 0.00000E+00
 -1       103-3.36820E+00-3.36820E+00 0.00000E+00
 -1       104-3.13878E+00-3.13878E+00 0.00000E+00
 -1       105-2.93230E+00-2.93230E+00 0.00000E+00
 -1       106-2.74647E+00-2.74647E+00 0.00000E+00
 -1       107-2.57922E+00-2.57922E+00 0.00000E+00
 -1       108-7.30740E+00 7.30740E+00 0.00000E+00
 -1       109-6.68406E+00 6.68406E+00 0.00000E+00
 -1       110-6.12305E+00 6.12305E+00 0.00000E+00
 -1       111-5.61815E+00 5.61815E+00 0.00000E+00
 -1       112-5.16373E+00 5.16373E+00 0.00000E+00
 -1       113-4.75476E+00 4.75476E+00 0.00000E+00
 -1       114-4.38668E+00 4.38668E+00 0.00000E+00
 -1       115-4.05541E+00 4.05541E+00 0.00000E+00
 -1       116-3.75727E+00 3.75727E+00 0.00000E+00
 -1       117-3.48895E+00 3.48895E+00 0.00000E+00
 -1       118-3.24745E+00 3.24745E+00 0.00000E+00
 -1       119-3.03011E+00 3.03011E+00 0.00000E+00
 -1       120-2.83449E+00 2.83449E+00 0.00000E+00
 -1       121-2.65844E+00 2.65844E+00 0.00000E+00
 -1       122-7.65370E+00 7.65370E+00 0.00000E+00
 -1       123-6.99573E+00 6.99573E+00 0.00000E+00
 -1       124-6.40356E+00 6.40356E+00 0.00000E+00
 -1       125-5.87060E+00 5.87060E+00 0.00000E+00
 -1       126-5.39094E+00 5.39094E+00 0.00000E+00
 -1       127-4.95925E+00 4.95925E+00 0.00000E+00
 -1       128-4.57072E+00 4.57072E+00 0.00000E+00
 -1       129-4.22105E+00 4.22105E+00 0.00000E+00
 -1       130-3.90634E+00 3.90634E+00 0.00000E+00
 -1       131-3.62311E+00 3.62311E+00 0.00000E+00
 -1       132-3.36820E+00 3.36820E+00 0.00000E+00
 -1       133-3.13878E+00 3.13878E+00 0.00000E+00
 -1       134-2.93230E+00 2.93230E+00 0.00000E+00
 -1       135-2.74647E+00 2.74647E+00 0.00000E+00
 -1       136-2.57922E+00 2.57922E+00 0.00000E+00
 -1       137 2.74763E+00 2.22498E+00 0.00000E+00
 -1       138 2.96515E+00 1.92559E+00 0.00000E+00
 -1       139 3.15018E+00 1.60510E+00 0.00000E+00
 -1       140 3.30071E+00 1.26702E+00 0.00000E+00
 -1       141 3.41506E+00 9.15064E-01 0.00000E+00
 -1       142 3.49201E+00 5.53079E-01 0.00000E+00
 -1       143 3.53069E+00 1.85036E-01 0.00000E+00
 -1       144 3.53069E+00-1.85036E-01 0.00000E+00
 -1       145 3.49201E+00-5.53079E-01 0.00000E+00
 -1       146 3.41506E+00-9.15064E-01 0.00000E+00
 -1       147 3.30071E+00-1.26702E+00 0.00000E+00
 -1       148 3.15018E+00-1.60510E+00 0.00000E+00
 -1       149 2.96515E+00-1.92559E+00 0.00000E+00
 -1       150 2.74763E+00-2.22498E+00 0.00000E+00
 -1       151 2.62741E+00 2.36573E+00 0.00000E+00
 -1       152 2.86031E+00 2.07813E+00 0.00000E+00
 -1       153 3.06186E+00 1.76777E+00 0.00000E+00
 -1       154 3.22987E+00 1.43803E+00 0.00000E+00
 -1       155 3.36249E+00 1.09254E+00 0.00000E+00
 -1       156 3.45827E+00 7.35079E-01 0.00000E+00
 -1       157 3.51617E+00 3.69564E-01 0.00000E+00
 -1       158 3.53553E+00-7.28188E-09 0.00000E+00
 -1       159 3.51617E+00-3.69564E-01 0.00000E+00
 -1       160 3.45827E+00-7.35079E-01 0.00000E+00
 -1       161 3.36249E+00-1.09254E+00 0.00000E+00
 -1       162 3.22987E+00-1.43803E+00 0.00000E+00
 -1       163 3.06186E+00-1.76777E+00 0.00000E+00
 -1       164 2.86031E+00-2.07813E+00 0.00000E+00
 -1       165 2.62741E+00-2.36573E+00 0.00000E+00
 -1       166 2.22498E+00-2.74763E+00 0.00000E+00
 -1       167 1.92559E+00-2.96515E+00 0.00000E+00
 -1       168 1.60510E+00-3.15018E+00 0.00000E+00
 -1       169 1.26702E+00-3.30071E+00 0.00000E+00
 -1       170 9.15064E-01-3.41506E+00 0.00000E+00
 -1       171 5.53079E-01-3.49201E+00 0.00000E+00
 -1       172 1.85036E-01-3.53069E+00 0.00000E+00
 -1       173-1.85036E-01-3.53069E+00 0.00000E+00
 -1       174-5.53079E-01-3.49201E+00 0.00000E+00
 -1       175-9.15064E-01-3.41506E+00 0.00000E+00
 -1       176-1.26702E+00-3.30071E+00 0.00000E+00
 -1       177-1.60510E+00-3.15018E+00 0.00000E+00
 -1       178-1.92559E+00-2.96515E+00 0.00000E+00
 -1       179-2.22498E+00-2.74763E+00 0.00000E+00
 -1       180 2.36573E+00-2.62741E+00 0.00000E+00
 -1       181 2.07813E+00-2.86031E+00 0.00000E+00
 -1       182 1.76777E+00-3.06186E+00 0.00000E+00
 -1       183 1.43803E+00-3.22987E+00 0.00000E+00
 -1       184 1.09254E+00-3.36249E+00 0.00000E+00
 -1       185 7.35079E-01-3.45827E+00 0.00000E+00
 -1       186 3.69564E-01-3.51617E+00 0.00000E+00
 -1       187-7.28188E-09-3.53553E+00 0.00000E+00
 -1       188-3.69564E-01-3.51617E+00 0.00000E+00
 -1       189-7.35079E-01-3.45827E+00 0.00000E+00
 -1       190-1.09254E+00-3.36249E+00 0.00000E+00
 -1       191-1.43803E+00-3.22987E+00 0.00000E+00
 -1       192-1.76777E+00-3.06186E+00 0.00000E+00
 -1       193-2.07813E+00-2.86031E+00 0.00000E+00
 -1       194-2.36573E+00-2.62741E+00 0.00000E+00
 -1       195-2.74763E+00-2.22498E+00 0.00000E+00
 -1       196-2.96515E+00-1.92559E+00 0.00000E+00
 -1       197-3.15018E+00-1.60510E+00 0.00000E+00
 -1       198-3.30071E+00-1.26702E+00 0.00000E+00
 -1       199-3.41506E+00-9.15064E-01 0.00000E+00
 -1       200-3.49201E+00-5.53079E-01 0.00000E+00
 -1       201-3.53069E+00-1.85036E-01 0.00000E+00
 -1       202-3.53069E+00 1.85036E-01 0.00000E+00
 -1       203-3.49201E+00 5.53079E-01 0.00000E+00
 -1       204-3.41506E+00 9.15064E-01 0.00000E+00
 -1       205-3.30071E+00 1.26702E+00 0.00000E+00
 -1       206-3.15018E+00 1.60510E+00 0.00000E+00
 -1       207-2.96515E+00 1.92559E+00 0.00000E+00
 -1       208-2.74763E+00 2.22498E+00 0.00000E+00
 -1       209-2.62741E+00-2.36573E+00 0.00000E+00
 -1       210-2.86031E+00-2.07813E+00 0.00000E+00
 -1       211-3.06186E+00-1.76777E+00 0.00000E+00
 -1       212-3.22987E+00-1.43803E+00 0.00000E+00
 -1       213-3.36249E+00-1.09254E+00 0.00000E+00
 -1       214-3.45827E+00-7.35079E-01 0.00000E+00
 -1       215-3.51617E+00-3.69564E-01 0.00000E+00
 -1       216-3.53553E+00 7.28188E-09 0.00000E+00
 -1       217-3.51617E+00 3.69564E-01 0.00000E+00
 -1       218-3.45827E+00 7.35079E-01 0.00000E+00
 -1       219-3.36249E+00 1.09254E+00 0.00000E+00
 -1       220-3.22987E+00 1.43803E+00 0.00000E+00
 -1       221-3.06186E+00 1.76777E+00 0.00000E+00
 -1       222-2.86031E+00 2.07813E+00 0.00000E+00
 -1       223-2.62741E+00 2.36573E+00 0.00000E+00
 -1       224-2.22498E+00 2.74763E+00 0.00000E+00
 -1       225-1.92559E+00 2.96515E+00 0.00000E+00
 -1       226-1.60510E+00 3.15018E+00 0.00000E+00
 -1       227-1.26702E+00 3.30071E+00 0.00000E+00
 -1       228-9.15064E-01 3.41506E+00 0.00000E+00
 -1       229-5.53079E-01 3.49201E+00 0.00000E+00
 -1       230-1.85036E-01 3.53069E+00 0.00000E+00
 -1       231 1.85036E-01 3.53069E+00 0.00000E+00
 -1       232 5.53079E-01 3.49201E+00 0.00000E+00
 -1       233 9.15064E-01 3.41506E+00 0.00000E+00
 -1       234 1.26702E+00 3.30071E+00 0.00000E+00
 -1       235 1.60510E+00 3.15018E+00 0.00000E+00
 -1       236 1.92559E+00 2.96515E+00 0.00000E+00
 -1       237 2.22498E+00 2.74763E+00 0.00000E+00
 -1       238-2.36573E+00 2.62741E+00 0.00000E+00
 -1       239-2.07813E+00 2.86031E+00 0.00000E+00
 -1       240-1.76777E+00 3.06186E+00 0.00000E+00
 -1       241-1.43803E+00 3.22987E+00 0.00000E+00
 -1       242-1.09254E+00 3.36249E+00 0.00000E+00
 -1       243-7.35079E-01 3.45827E+00 0.00000E+00
 -1       244-3.69564E-01 3.51617E+00 0.00000E+00
 -1       245 7.28188E-09 3.53553E+00 0.00000E+00
 -1       246 3.69564E-01 3.51617E+00 0.00000E+00
 -1       247 7.35079E-01 3.45827E+00 0.00000E+00
 -1       248 1.09254E+00 3.36249E+00 0.00000E+00
 -1       249 1.43803E+00 3.22987E+00 0.00000E+00
 -1       250 1.76777E+00 3.06186E+00 0.00000E+00
 -1       251 2.07813E+00 2.86031E+00 0.00000E+00
 -1       252 2.36573E+00 2.62741E+00 0.00000E+00
 -1       253 8.00000E+00 6.93333E+00 0.00000E+00
 -1       254 8.00000E+00 5.86667E+00 0.00000E+00
 -1       255 8.00000E+00 4.80000E+00 0.00000E+00
 -1       256 8.00000E+00 3.73333E+00 0.00000E+00
 -1       257 8.00000E+00 2.66667E+00 0.00000E+00
 -1       258 8.00000E+00 1.60000E+00 0.00000E+00
 -1       259 8.00000E+00 5.33333E-01 0.00000E+00
 -1       260 8.00000E+00-5.33333E-01 0.00000E+00
 -1       261 8.00000E+00-1.60000E+00 0.00000E+00
 -1       262 8.00000E+00-2.66667E+00 0.00000E+00
 -1       263 8.00000E+00-3.73333E+00 0.00000E+00
 -1       264 8.00000E+00-4.80000E+00 0.00000E+00
 -1       265 8.00000E+00-5.86667E+00 0.00000E+00
 -1       266 8.00000E+00-6.93333E+00 0.00000E+00
 -1       267 8.00000E+00 7.46667E+00 0.00000E+00
 -1       268 8.00000E+00 6.40000E+00 0.00000E+00
 -1       269 8.00000E+00 5.33333E+00 0.00000E+00
 -1       270 8.00000E+00 4.26667E+00 0.00000E+00
 -1       271 8.00000E+00 3.20000E+00 0.00000E+00
 -1       272 8.00000E+00 2.13333E+00 0.00000E+00
 -1       273 8.00000E+00 1.06667E+00 0.00000E+00
 -1       274 8.00000E+00 2.21778E-11 0.00000E+00
 -1       275 8.00000E+00-1.06667E+00 0.00000E+00
 -1       276 8.00000E+00-2.13333E+00 0.00000E+00
 -1       277 8.00000E+00-3.20000E+00 0.00000E+00
 -1       278 8.00000E+00-4.26667E+00 0.00000E+00
 -1       279 8.00000E+00-5.33333E+00 0.00000E+00
 -1       280 8.00000E+00-6.40000E+00 0.00000E+00
 -1       281 8.00000E+00-7.46667E+00 0.00000E+00
 -1       282 6.93333E+00-8.00000E+00 0.00000E+00
 -1       283 5.86667E+00-8.00000E+00 0.00000E+00
 -1       284 4.80000E+00-8.00000E+00 0.00000E+00
 -1       285 3.73333E+00-8.00000E+00 0.00000E+00
 -1       286 2.66667E+00-8.00000E+00 0.00000E+00
 -1       287 1.60000E+00-8.00000E+00 0.00000E+00
 -1       288 5.33333E-01-8.00000E+00 0.00000E+00
 -1       289-5.33333E-01-8.00000E+00 0.00000E+00
 -1       290-1.60000E+00-8.00000E+00 0.00000E+00
 -1       291-2.66667E+00-8.00000E+00 0.00000E+00
 -1       292-3.73333E+00-8.00000E+00 0.00000E+00
 -1       293-4.80000E+00-8.00000E+00 0.00000E+00
 -1       294-5.86667E+00-8.00000E+00 0.00000E+00
 -1       295-6.93333E+00-8.00000E+00 0.00000E+00
 -1       296 7.46667E+00-8.00000E+00 0.00000E+00
 -1       297 6.40000E+00-8.00000E+00 0.00000E+00
 -1       298 5.33333E+00-8.00000E+00 0.00000E+00
 -1       299 4.26667E+00-8.00000E+00 0.00000E+00
 -1       300 3.20000E+00-8.00000E+00 0.00000E+00
 -1       301 2.13333E+00-8.00000E+00 0.00000E+00
 -1       302 1.06667E+00-8.00000E+00 0.00000E+00
 -1       303 2.21778E-11-8.00000E+00 0.00000E+00
 -1       304-1.06667E+00-8.00000E+00 0.00000E+00
 -1       305-2.13333E+00-8.00000E+00 0.00000E+00
 -1       306-3.20000E+00-8.00000E+00 0.00000E+00
 -1       307-4.26667E+00-8.00000E+00 0.00000E+00
 -1       308-5.33333E+00-8.00000E+00 0.00000E+00
 -1       309-6.40000E+00-8.00000E+00 0.00000E+00
 -1       310-7.46667E+00-8.00000E+00 0.00000E+00
 -1       311-8.00000E+00-6.93333E+00 0.00000E+00
 -1       312-8.00000E+00-5.86667E+00 0.00000E+00
 -1       313-8.00000E+00-4.80000E+00 0.00000E+00
 -1       314-8.00000E+00-3.73333E+00 0.00000E+00
 -1       315-8.00000E+00-2.66667E+00 0.00000E+00
 -1       316-8.00000E+00-1.60000E+00 0.00000E+00
 -1       317-8.00000E+00-5.33333E-01 0.00000E+00
 -1       318-8.00000E+00 5.33333E-01 0.00000E+00
 -1       319-8.00000E+00 1.60000E+00 0.00000E+00
 -1       320-8.00000E+00 2.66667E+00 0.00000E+00
 -1       321-8.00000E+00 3.73333E+00 0.00000E+00
 -1       322-8.00000E+00 4.80000E+00 0.00000E+00
 -1       323-8.00000E+00 5.86667E+00 0.00000E+00
 -1       324-8.00000E+00 6.93333E+00 0.00000E+00
 -1       325-8.00000E+00-7.46667E+00 0.00000E+00
 -1       326-8.00000E+00-6.40000E+00 0.00000E+00
 -1       327-8.00000E+00-5.33333E+00 0.00000E+00
 -1       328-8.00000E+00-4.26667E+00 0.00000E+00
 -1       329-8.00000E+00-3.20000E+00 0.00000E+00
 -1       330-8.00000E+00-2.13333E+00 0.00000E+00
 -1       331-8.00000E+00-1.06667E+00 0.00000E+00
 -1       332-8.00000E+00-2.21778E-11 0.00000E+00
 -1       333-8.00000E+00 1.06667E+00 0.00000E+00
 -1       334-8.00000E+00 2.13333E+00 0.00000E+00
 -1       335-8.00000E+00 3.20000E+00 0.00000E+00
 -1       336-8.00000E+00 4.26667E+00 0.00000E+00
 -1       337-8.00000E+00 5.33333E+00 0.00000E+00
 -1       338-8.00000E+00 6.40000E+00 0.00000E+00
 -1       339-8.00000E+00 7.46667E+00 0.00000E+00
 -1       340-6.93333E+00 8.00000E+00 0.00000E+00
 -1       341-5.86667E+00 8.00000E+00 0.00000E+00
 -1       342-4.80000E+00 8.00000E+00 0.00000E+00
 -1       343-3.73333E+00 8.00000E+00 0.00000E+00
 -1       344-2.66667E+00 8.00000E+00 0.00000E+00
 -1       345-1.60000E+00 8.00000E+00 0.00000E+00
 -1       346-5.33333E-01 8.00000E+00 0.00000E+00
 -1       347 5.33333E-01 8.00000E+00 0.00000E+00
 -1       348 1.60000E+00 8.00000E+00 0.00000E+00
 -1       349 2.66667E+00 8.00000E+00 0.00000E+00
 -1       350 3.73333E+00 8.00000E+00 0.00000E+00
 -1       351 4.80000E+00 8.00000E+00 0.00000E+00
 -1       352 5.86667E+00 8.00000E+00 0.00000E+00
 -1       353 6.93333E+00 8.00000E+00 0.00000E+00
 -1       354-7.46667E+00 8.00000E+00 0.00000E+00
 -1       355-6.40000E+00 8.00000E+00 0.00000E+00
 -1       356-5.33333E+00 8.00000E+00 0.00000E+00
 -1       357-4.26667E+00 8.00000E+00 0.00000E+00
 -1       358-3.20000E+00 8.00000E+00 0.00000E+00
 -1       359-2.13333E+00 8.00000E+00 0.00000E+00
 -1       360-1.06667E+00 8.00000E+00 0.00000E+00
 -1       361-2.21778E-11 8.00000E+00 0.00000E+00
 -1       362 1.06667E+00 8.00000E+00 0.00000E+00
 -1       363 2.13333E+00 8.00000E+00 0.00000E+00
 -1       364 3.20000E+00 8.00000E+00 0.00000E+00
 -1       365 4.26667E+00 8.00000E+00 0.00000E+00
 -1       366 5.33333E+00 8.00000E+00 0.00000E+00
 -1       367 6.40000E+00 8.00000E+00 0.00000E+00
 -1       368 7.46667E+00 8.00000E+00 0.00000E+00
 -1       369 2.50000E+01 3.64828E+01 0.00000E+00
 -1       370 2.50000E+01 3.54655E+01 0.00000E+00
 -1       371 2.50000E+01 3.44483E+01 0.00000E+00
 -1       372 2.50000E+01 3.34310E+01 0.00000E+00
 -1       373 2.50000E+01 3.24138E+01 0.00000E+00
 -1       374 2.50000E+01 3.13966E+01 0.00000E+00
 -1       375 2.50000E+01 3.03793E+01 0.00000E+00
 -1       376 2.50000E+01 2.93621E+01 0.00000E+00
 -1       377 2.50000E+01 2.83448E+01 0.00000E+00
 -1       378 2.50000E+01 2.73276E+01 0.00000E+00
 -1       379 2.50000E+01 2.63103E+01 0.00000E+00
 -1       380 2.50000E+01 2.52931E+01 0.00000E+00
 -1       381 2.50000E+01 2.42759E+01 0.00000E+00
 -1       382 2.50000E+01 2.32586E+01 0.00000E+00
 -1       383 2.50000E+01 2.22414E+01 0.00000E+00
 -1       384 2.50000E+01 2.12241E+01 0.00000E+00
 -1       385 2.50000E+01 2.02069E+01 0.00000E+00
 -1       386 2.50000E+01 1.91897E+01 0.00000E+00
 -1       387 2.50000E+01 1.81724E+01 0.00000E+00
 -1       388 2.50000E+01 1.71552E+01 0.00000E+00
 -1       389 2.50000E+01 1.61379E+01 0.00000E+00
 -1       390 2.50000E+01 1.51207E+01 0.00000E+00
 -1       391 2.50000E+01 1.41034E+01 0.00000E+00
 -1       392 2.50000E+01 1.30862E+01 0.00000E+00
 -1       393 2.50000E+01 1.20690E+01 0.00000E+00
 -1       394 2.50000E+01 1.10517E+01 0.00000E+00
 -1       395 2.50000E+01 1.00345E+01 0.00000E+00
 -1       396 2.50000E+01 9.01724E+00 0.00000E+00
 -1       397 2.50000E+01 3.69914E+01 0.00000E+00
 -1       398 2.50000E+01 3.59741E+01 0.00000E+00
 -1       399 2.50000E+01 3.49569E+01 0.00000E+00
 -1       400 2.50000E+01 3.39397E+01 0.00000E+00
 -1       401 2.50000E+01 3.29224E+01 0.00000E+00
 -1       402 2.50000E+01 3.19052E+01 0.00000E+00
 -1       403 2.50000E+01 3.08879E+01 0.00000E+00
 -1       404 2.50000E+01 2.98707E+01 0.00000E+00
 -1       405 2.50000E+01 2.88534E+01 0.00000E+00
 -1       406 2.50000E+01 2.78362E+01 0.00000E+00
 -1       407 2.50000E+01 2.68190E+01 0.00000E+00
 -1       408 2.50000E+01 2.58017E+01 0.00000E+00
 -1       409 2.50000E+01 2.47845E+01 0.00000E+00
 -1       410 2.50000E+01 2.37672E+01 0.00000E+00
 -1       411 2.50000E+01 2.27500E+01 0.00000E+00
 -1       412 2.50000E+01 2.17328E+01 0.00000E+00
 -1       413 2.50000E+01 2.07155E+01 0.00000E+00
 -1       414 2.50000E+01 1.96983E+01 0.00000E+00
 -1       415 2.50000E+01 1.86810E+01 0.00000E+00
 -1       416 2.50000E+01 1.76638E+01 0.00000E+00
 -1       417 2.50000E+01 1.66466E+01 0.00000E+00
 -1       418 2.50000E+01 1.56293E+01 0.00000E+00
 -1       419 2.50000E+01 1.46121E+01 0.00000E+00
 -1       420 2.50000E+01 1.35948E+01 0.00000E+00
 -1       421 2.50000E+01 1.25776E+01 0.00000E+00
 -1       422 2.50000E+01 1.15603E+01 0.00000E+00
 -1       423 2.50000E+01 1.05431E+01 0.00000E+00
 -1       424 2.50000E+01 9.52586E+00 0.00000E+00
 -1       425 2.50000E+01 8.50862E+00 0.00000E+00
 -1       426 2.50000E+01 6.93333E+00 0.00000E+00
 -1       427 2.50000E+01 5.86667E+00 0.00000E+00
 -1       428 2.50000E+01 4.80000E+00 0.00000E+00
 -1       429 2.50000E+01 3.73333E+00 0.00000E+00
 -1       430 2.50000E+01 2.66667E+00 0.00000E+00
 -1       431 2.50000E+01 1.60000E+00 0.00000E+00
 -1       432 2.50000E+01 5.33333E-01 0.00000E+00
 -1       433 2.50000E+01-5.33333E-01 0.00000E+00
 -1       434 2.50000E+01-1.60000E+00 0.00000E+00
 -1       435 2.50000E+01-2.66667E+00 0.00000E+00
 -1       436 2.50000E+01-3.73333E+00 0.00000E+00
 -1       437 2.50000E+01-4.80000E+00 0.00000E+00
 -1       438 2.50000E+01-5.86667E+00 0.00000E+00
 -1       439 2.50000E+01-6.93333E+00 0.00000E+00
 -1       440 2.50000E+01 7.46667E+00 0.00000E+00
 -1       441 2.50000E+01 6.40000E+00 0.00000E+00
 -1       442 2.50000E+01 5.33333E+00 0.00000E+00
 -1       443 2.50000E+01 4.26667E+00 0.00000E+00
 -1       444 2.50000E+01 3.20000E+00 0.00000E+00
 -1       445 2.50000E+01 2.13333E+00 0.00000E+00
 -1       446 2.50000E+01 1.06667E+00 0.00000E+00
 -1       447 2.50000E+01 2.21778E-11 0.00000E+00
 -1       448 2.50000E+01-1.06667E+00 0.00000E+00
 -1       449 2.50000E+01-2.13333E+00 0.00000E+00
 -1       450 2.50000E+01-3.20000E+00 0.00000E+00
 -1       451 2.50000E+01-4.26667E+00 0.00000E+00
 -1       452 2.50000E+01-5.33333E+00 0.00000E+00
 -1       453 2.50000E+01-6.40000E+00 0.00000E+00
 -1       454 2.50000E+01-7.46667E+00 0.00000E+00
 -1       455 2.50000E+01-9.01724E+00 0.00000E+00
 -1       456 2.50000E+01-1.00345E+01 0.00000E+00
 -1       457 2.50000E+01-1.10517E+01 0.00000E+00
 -1       458 2.50000E+01-1.20690E+01 0.00000E+00
 -1       459 2.50000E+01-1.30862E+01 0.00000E+00
 -1       460 2.50000E+01-1.41034E+01 0.00000E+00
 -1       461 2.50000E+01-1.51207E+01 0.00000E+00
 -1       462 2.50000E+01-1.61379E+01 0.00000E+00
 -1       463 2.50000E+01-1.71552E+01 0.00000E+00
 -1       464 2.50000E+01-1.81724E+01 0.00000E+00
 -1       465 2.50000E+01-1.91897E+01 0.00000E+00
 -1       466 2.50000E+01-2.02069E+01 0.00000E+00
 -1       467 2.50000E+01-2.12241E+01 0.00000E+00
 -1       468 2.50000E+01-2.22414E+01 0.00000E+00
 -1       469 2.50000E+01-2.32586E+01 0.00000E+00
 -1       470 2.50000E+01-2.42759E+01 0.00000E+00
 -1       471 2.50000E+01-2.52931E+01 0.00000E+00
 -1       472 2.50000E+01-2.63103E+01 0.00000E+00
 -1       473 2.50000E+01-2.73276E+01 0.00000E+00
 -1       474 2.50000E+01-2.83448E+01 0.00000E+00
 -1       475 2.50000E+01-2.93621E+01 0.00000E+00
 -1       476 2.50000E+01-3.03793E+01 0.00000E+00
 -1       477 2.50000E+01-3.13966E+01 0.00000E+00
 -1       478 2.50000E+01-3.24138E+01 0.00000E+00
 -1       479 2.50000E+01-3.34310E+01 0.00000E+00
 -1       480 2.50000E+01-3.44483E+01 0.00000E+00
 -1       481 2.50000E+01-3.54655E+01 0.00000E+00
 -1       482 2.50000E+01-3.64828E+01 0.00000E+00
 -1       483 2.50000E+01-8.50862E+00 0.00000E+00
 -1       484 2.50000E+01-9.52586E+00 0.00000E+00
 -1       485 2.50000E+01-1.05431E+01 0.00000E+00
 -1       486 2.50000E+01-1.15603E+01 0.00000E+00
 -1       487 2.50000E+01-1.25776E+01 0.00000E+00
 -1       488 2.50000E+01-1.35948E+01 0.00000E+00
 -1       489 2.50000E+01-1.46121E+01 0.00000E+00
 -1       490 2.50000E+01-1.56293E+01 0.00000E+00
 -1       491 2.50000E+01-1.66466E+01 0.00000E+00
 -1       492 2.50000E+01-1.76638E+01 0.00000E+00
 -1       493 2.50000E+01-1.86810E+01 0.00000E+00
 -1       494 2.50000E+01-1.96983E+01 0.00000E+00
 -1       495 2.50000E+01-2.07155E+01 0.00000E+00
 -1       496 2.50000E+01-2.17328E+01 0.00000E+00
 -1       497 2.50000E+01-2.27500E+01 0.00000E+00
 -1       498 2.50000E+01-2.37672E+01 0.00000E+00
 -1       499 2.50000E+01-2.47845E+01 0.00000E+00
 -1       500 2.50000E+01-2.58017E+01 0.00000E+00
 -1       501 2.50000E+01-2.68190E+01 0.00000E+00
 -1       502 2.50000E+01-2.78362E+01 0.00000E+00
 -1       503 2.50000E+01-2.88534E+01 0.00000E+00
 -1       504 2.50000E+01-2.98707E+01 0.00000E+00
 -1       505 2.50000E+01-3.08879E+01 0.00000E+00
 -1       506 2.50000E+01-3.19052E+01 0.00000E+00
 -1       507 2.50000E+01-3.29224E+01 0.00000E+00
 -1       508 2.50000E+01-3.39397E+01 0.00000E+00
 -1       509 2.50000E+01-3.49569E+01 0.00000E+00
 -1       510 2.50000E+01-3.59741E+01 0.00000E+00
 -1       511 2.50000E+01-3.69914E+01 0.00000E+00
 -1       512 2.39375E+01-3.75000E+01 0.00000E+00
 -1       513 2.28750E+01-3.75000E+01 0.00000E+00
 -1       514 2.18125E+01-3.75000E+01 0.00000E+00
 -1       515 2.07500E+01-3.75000E+01 0.00000E+00
 -1       516 1.96875E+01-3.75000E+01 0.00000E+00
 -1       517 1.86250E+01-3.75000E+01 0.00000E+00
 -1       518 1.75625E+01-3.75000E+01 0.00000E+00
 -1       519 1.65000E+01-3.75000E+01 0.00000E+00
 -1       520 1.54375E+01-3.75000E+01 0.00000E+00
 -1       521 1.43750E+01-3.75000E+01 0.00000E+00
 -1       522 1.33125E+01-3.75000E+01 0.00000E+00
 -1       523 1.22500E+01-3.75000E+01 0.00000E+00
 -1       524 1.11875E+01-3.75000E+01 0.00000E+00
 -1       525 1.01250E+01-3.75000E+01 0.00000E+00
 -1       526 9.06250E+00-3.75000E+01 0.00000E+00
 -1       527 2.44688E+01-3.75000E+01 0.00000E+00
 -1       528 2.34062E+01-3.75000E+01 0.00000E+00
 -1       529 2.23438E+01-3.75000E+01 0.00000E+00
 -1       530 2.12812E+01-3.75000E+01 0.00000E+00
 -1       531 2.02188E+01-3.75000E+01 0.00000E+00
 -1       532 1.91562E+01-3.75000E+01 0.00000E+00
 -1       533 1.80938E+01-3.75000E+01 0.00000E+00
 -1       534 1.70312E+01-3.75000E+01 0.00000E+00
 -1       535 1.59688E+01-3.75000E+01 0.00000E+00
 -1       536 1.49062E+01-3.75000E+01 0.00000E+00
 -1       537 1.38438E+01-3.75000E+01 0.00000E+00
 -1       538 1.27812E+01-3.75000E+01 0.00000E+00
 -1       539 1.17188E+01-3.75000E+01 0.00000E+00
 -1       540 1.06562E+01-3.75000E+01 0.00000E+00
 -1       541 9.59375E+00-3.75000E+01 0.00000E+00
 -1       542 8.53125E+00-3.75000E+01 0.00000E+00
 -1       543 6.93333E+00-3.75000E+01 0.00000E+00
 -1       544 5.86667E+00-3.75000E+01 0.00000E+00
 -1       545 4.80000E+00-3.75000E+01 0.00000E+00
 -1       546 3.73333E+00-3.75000E+01 0.00000E+00
 -1       547 2.66667E+00-3.75000E+01 0.00000E+00
 -1       548 1.60000E+00-3.75000E+01 0.00000E+00
 -1       549 5.33333E-01-3.75000E+01 0.00000E+00
 -1       550-5.33333E-01-3.75000E+01 0.00000E+00
 -1       551-1.60000E+00-3.75000E+01 0.00000E+00
 -1       552-2.66667E+00-3.75000E+01 0.00000E+00
 -1       553-3.73333E+00-3.75000E+01 0.00000E+00
 -1       554-4.80000E+00-3.75000E+01 0.00000E+00
 -1       555-5.86667E+00-3.75000E+01 0.00000E+00
 -1       556-6.93333E+00-3.75000E+01 0.00000E+00
 -1       557 7.46667E+00-3.75000E+01 0.00000E+00
 -1       558 6.40000E+00-3.75000E+01 0.00000E+00
 -1       559 5.33333E+00-3.75000E+01 0.00000E+00
 -1       560 4.26667E+00-3.75000E+01 0.00000E+00
 -1       561 3.20000E+00-3.75000E+01 0.00000E+00
 -1       562 2.13333E+00-3.75000E+01 0.00000E+00
 -1       563 1.06667E+00-3.75000E+01 0.00000E+00
 -1       564 2.21778E-11-3.75000E+01 0.00000E+00
 -1       565-1.06667E+00-3.75000E+01 0.00000E+00
 -1       566-2.13333E+00-3.75000E+01 0.00000E+00
 -1       567-3.20000E+00-3.75000E+01 0.00000E+00
 -1       568-4.26667E+00-3.75000E+01 0.00000E+00
 -1       569-5.33333E+00-3.75000E+01 0.00000E+00
 -1       570-6.40000E+00-3.75000E+01 0.00000E+00
 -1       571-7.46667E+00-3.75000E+01 0.00000E+00
 -1       572-9.06250E+00-3.75000E+01 0.00000E+00
 -1       573-1.01250E+01-3.75000E+01 0.00000E+00
 -1       574-1.11875E+01-3.75000E+01 0.00000E+00
 -1       575-1.22500E+01-3.75000E+01 0.00000E+00
 -1       576-1.33125E+01-3.75000E+01 0.00000E+00
 -1       577-1.43750E+01-3.75000E+01 0.00000E+00
 -1       578-1.54375E+01-3.75000E+01 0.00000E+00
 -1       579-1.65000E+01-3.75000E+01 0.00000E+00
 -1       580-1.75625E+01-3.75000E+01 0.00000E+00
 -1       581-1.86250E+01-3.75000E+01 0.00000E+00
 -1       582-1.96875E+01-3.75000E+01 0.00000E+00
 -1       583-2.07500E+01-3.75000E+01 0.00000E+00
 -1       584-2.18125E+01-3.75000E+01 0.00000E+00
 -1       585-2.28750E+01-3.75000E+01 0.00000E+00
 -1       586-2.39375E+01-3.75000E+01 0.00000E+00
 -1       587-8.53125E+00-3.75000E+01 0.00000E+00
 -1       588-9.59375E+00-3.75000E+01 0.00000E+00
 -1       589-1.06562E+01-3.75000E+01 0.00000E+00
 -1       590-1.17188E+01-3.75000E+01 0.00000E+00
 -1       591-1.27812E+01-3.75000E+01 0.00000E+00
 -1       592-1.38438E+01-3.75000E+01 0.00000E+00
 -1       593-1.49062E+01-3.75000E+01 0.00000E+00
 -1       594-1.59688E+01-3.75000E+01 0.00000E+00
 -1       595-1.70312E+01-3.75000E+01 0.00000E+00
 -1       596-1.80938E+01-3.75000E+01 0.00000E+00
 -1       597-1.91562E+01-3.75000E+01 0.00000E+00
 -1       598-2.02188E+01-3.75000E+01 0.00000E+00
 -1       599-2.12812E+01-3.75000E+01 0.00000E+00
 -1       600-2.23438E+01-3.75000E+01 0.00000E+00
 -1       601-2.34062E+01-3.75000E+01 0.00000E+00
 -1       602-2.44688E+01-3.75000E+01 0.00000E+00
 -1       603-2.50000E+01-3.64828E+01 0.00000E+00
 -1       604-2.50000E+01-3.54655E+01 0.00000E+00
 -1       605-2.50000E+01-3.44483E+01 0.00000E+00
 -1       606-2.50000E+01-3.34310E+01 0.00000E+00
 -1       607-2.50000E+01-3.24138E+01 0.00000E+00
 -1       608-2.50000E+01-3.13966E+01 0.00000E+00
 -1       609-2.50000E+01-3.03793E+01 0.00000E+00
 -1       610-2.50000E+01-2.93621E+01 0.00000E+00
 -1       611-2.50000E+01-2.83448E+01 0.00000E+00
 -1       612-2.50000E+01-2.73276E+01 0.00000E+00
 -1       613-2.50000E+01-2.63103E+01 0.00000E+00
 -1       614-2.50000E+01-2.52931E+01 0.00000E+00
 -1       615-2.50000E+01-2.42759E+01 0.00000E+00
 -1       616-2.50000E+01-2.32586E+01 0.00000E+00
 -1       617-2.50000E+01-2.22414E+01 0.00000E+00
 -1       618-2.50000E+01-2.12241E+01 0.00000E+00
 -1       619-2.50000E+01-2.02069E+01 0.00000E+00
 -1       620-2.50000E+01-1.91897E+01 0.00000E+00
 -1       621-2.50000E+01-1.81724E+01 0.00000E+00
 -1       622-2.50000E+01-1.71552E+01 0.00000E+00
 -1       623-2.50000E+01-1.61379E+01 0.00000E+00
 -1       624-2.50000E+01-1.51207E+01 0.00000E+00
 -1       625-2.50000E+01-1.41034E+01 0.00000E+00
 -1       626-2.50000E+01-1.30862E+01 0.00000E+00
 -1       627-2.50000E+01-1.20690E+01 0.00000E+00
 -1       628-2.50000E+01-1.10517E+01 0.00000E+00
 -1       629-2.50000E+01-1.00345E+01 0.00000E+00
 -1       630-2.50000E+01-9.01724E+00 0.00000E+00
 -1       631-2.50000E+01-3.69914E+01 0.00000E+00
 -1       632-2.50000E+01-3.59741E+01 0.00000E+00
 -1       633-2.50000E+01-3.49569E+01 0.00000E+00
 -1       634-2.50000E+01-3.39397E+01 0.00000E+00
 -1       635-2.50000E+01-3.29224E+01 0.00000E+00
 -1       636-2.50000E+01-3.19052E+01 0.00000E+00
 -1       637-2.50000E+01-3.08879E+01 0.00000E+00
 -1       638-2.50000E+01-2.98707E+01 0.00000E+00
 -1       639-2.50000E+01-2.88534E+01 0.00000E+00
 -1       640-2.50000E+01-2.78362E+01 0.00000E+00
 -1       641-2.50000E+01-2.68190E+01 0.00000E+00
 -1       642-2.50000E+01-2.58017E+01 0.00000E+00
 -1       643-2.50000E+01-2.47845E+01 0.00000E+00
 -1       644-2.50000E+01-2.37672E+01 0.00000E+00
 -1       645-2.50000E+01-2.27500E+01 0.00000E+00
 -1       646-2.50000E+01-2.17328E+01 0.00000E+00
 -1       647-2.50000E+01-2.07155E+01 0.00000E+00
 -1       648-2.50000E+01-1.96983E+01 0.00000E+00
 -1       649-2.50000E+01-1.86810E+01 0.00000E+00
 -1       650-2.50000E+01-1.76638E+01 0.00000E+00
 -1       651-2.50000E+01-1.66466E+01 0.00000E+00
 -1       652-2.50000E+01-1.56293E+01 0.00000E+00
 -1       653-2.50000E+01-1.46121E+01 0.00000E+00
 -1       654-2.50000E+01-1.35948E+01 0.00000E+00
 -1       655-2.50000E+01-1.25776E+01 0.00000E+00
 -1       656-2.50000E+01-1.15603E+01 0.00000E+00
 -1       657-2.50000E+01-1.05431E+01 0.00000E+00
 -1       658-2.50000E+01-9.52586E+00 0.00000E+00
 -1       659-2.50000E+01-8.50862E+00 0.00000E+00
 -1       660-2.50000E+01-6.93333E+00 0.00000E+00
 -1       661-2.50000E+01-5.86667E+00 0.00000E+00
 -1       662-2.50000E+01-4.80000E+00 0.00000E+00
 -1       663-2.50000E+01-3.73333E+00 0.00000E+00
 -1       664-2.50000E+01-2.66667E+00 0.00000E+00
 -1       665-2.50000E+01-1.60000E+00 0.00000E+00
 -1       666-2.50000E+01-5.33333E-01 0.00000E+00
 -1       667-2.50000E+01 5.33333E-01 0.00000E+00
 -1       668-2.50000E+01 1.60000E+00 0.00000E+00
 -1       669-2.50000E+01 2.66667E+00 0.00000E+00
 -1       670-2.50000E+01 3.73333E+00 0.00000E+00
 -1       671-2.50000E+01 4.80000E+00 0.00000E+00
 -1       672-2.50000E+01 5.86667E+00 0.00000E+00
 -1       673-2.50000E+01 6.93333E+00 0.00000E+00
 -1       674-2.50000E+01-7.46667E+00 0.00000E+00
 -1       675-2.50000E+01-6.40000E+00 0.00000E+00
 -1       676-2.50000E+01-5.33333E+00 0.00000E+00
 -1       677-2.50000E+01-4.26667E+00 0.00000E+00
 -1       678-2.50000E+01-3.20000E+00 0.00000E+00
 -1       679-2.50000E+01-2.13333E+00 0.00000E+00
 -1       680-2.50000E+01-1.06667E+00 0.00000E+00
 -1       681-2.50000E+01-2.21778E-11 0.00000E+00
 -1       682-2.50000E+01 1.06667E+00 0.00000E+00
 -1       683-2.50000E+01 2.13333E+00 0.00000E+00
 -1       684-2.50000E+01 3.20000E+00 0.00000E+00
 -1       685-2.50000E+01 4.26667E+00 0.00000E+00
 -1       686-2.50000E+01 5.33333E+00 0.00000E+00
 -1       687-2.50000E+01 6.40000E+00 0.00000E+00
 -1       688-2.50000E+01 7.46667E+00 0.00000E+00
 -1       689-2.50000E+01 9.01724E+00 0.00000E+00
 -1       690-2.50000E+01 1.00345E+01 0.00000E+00
 -1       691-2.50000E+01 1.10517E+01 0.00000E+00
 -1       692-2.50000E+01 1.20690E+01 0.00000E+00
 -1       693-2.50000E+01 1.30862E+01 0.00000E+00
 -1       694-2.50000E+01 1.41034E+01 0.00000E+00
 -1       695-2.50000E+01 1.51207E+01 0.00000E+00
 -1       696-2.50000E+01 1.61379E+01 0.00000E+00
 -1       697-2.50000E+01 1.71552E+01 0.00000E+00
 -1       698-2.50000E+01 1.81724E+01 0.00000E+00
 -1       699-2.50000E+01 1.91897E+01 0.00000E+00
 -1       700-2.50000E+01 2.02069E+01 0.00000E+00
 -1       701-2.50000E+01 2.12241E+01 0.00000E+00
 -1       702-2.50000E+01 2.22414E+01 0.00000E+00
 -1       703-2.50000E+01 2.32586E+01 0.00000E+00
 -1       704-2.50000E+01 2.42759E+01 0.00000E+00
 -1       705-2.50000E+01 2.52931E+01 0.00000E+00
 -1       706-2.50000E+01 2.63103E+01 0.00000E+00
 -1       707-2.50000E+01 2.73276E+01 0.00000E+00
 -1       708-2.50000E+01 2.83448E+01 0.00000E+00
 -1       709-2.50000E+01 2.93621E+01 0.00000E+00
 -1       710-2.50000E+01 3.03793E+01 0.00000E+00
 -1       711-2.50000E+01 3.13966E+01 0.00000E+00
 -1       712-2.50000E+01 3.24138E+01 0.00000E+00
 -1       713-2.50000E+01 3.34310E+01 0.00000E+00
 -1       714-2.50000E+01 3.44483E+01 0.00000E+00
 -1       715-2.50000E+01 3.54655E+01 0.00000E+00
 -1       716-2.50000E+01 3.64828E+01 0.00000E+00
 -1       717-2.50000E+01 8.50862E+00 0.00000E+00
 -1       718-2.50000E+01 9.52586E+00 0.00000E+00
 -1       719-2.50000E+01 1.05431E+01 0.00000E+00
 -1       720-2.50000E+01 1.15603E+01 0.00000E+00
 -1       721-2.50000E+01 1.25776E+01 0.00000E+00
 -1       722-2.50000E+01 1.35948E+01 0.00000E+00
 -1       723-2.50000E+01 1.46121E+01 0.00000E+00
 -1       724-2.50000E+01 1.56293E+01 0.00000E+00
 -1       725-2.50000E+01 1.66466E+01 0.00000E+00
 -1       726-2.50000E+01 1.76638E+01 0.00000E+00
 -1       727-2.50000E+01 1.86810E+01 0.00000E+00
 -1       728-2.50000E+01 1.96983E+01 0.00000E+00
 -1       729-2.50000E+01 2.07155E+01 0.00000E+00
 -1       730-2.50000E+01 2.17328E+01 0.00000E+00
 -1       731-2.50000E+01 2.27500E+01 0.00000E+00
 -1       732-2.50000E+01 2.37672E+01 0.00000E+00
 -1       733-2.50000E+01 2.47845E+01 0.00000E+00
 -1       734-2.50000E+01 2.58017E+01 0.00000E+00
 -1       735-2.50000E+01 2.68190E+01 0.00000E+00
 -1       736-2.50000E+01 2.78362E+01 0.00000E+00
 -1       737-2.50000E+01 2.88534E+01 0.00000E+00
 -1       738-2.50000E+01 2.98707E+01 0.00000E+00
 -1       739-2.50000E+01 3.08879E+01 0.00000E+00
 -1       740-2.50000E+01 3.19052E+01 0.00000E+00
 -1       741-2.50000E+01 3.29224E+01 0.00000E+00
 -1       742-2.50000E+01 3.39397E+01 0.00000E+00
 -1       743-2.50000E+01 3.49569E+01 0.00000E+00
 -1       744-2.50000E+01 3.59741E+01 0.00000E+00
 -1       745-2.50000E+01 3.69914E+01 0.00000E+00
 -1       746-2.39375E+01 3.75000E+01 0.00000E+00
 -1       747-2.28750E+01 3.75000E+01 0.00000E+00
 -1       748-2.18125E+01 3.75000E+01 0.00000E+00
 -1       749-2.07500E+01 3.75000E+01 0.00000E+00
 -1       750-1.96875E+01 3.75000E+01 0.00000E+00
 -1       751-1.86250E+01 3.75000E+01 0.00000E+00
 -1       752-1.75625E+01 3.75000E+01 0.00000E+00
 -1       753-1.65000E+01 3.75000E+01 0.00000E+00
 -1       754-1.54375E+01 3.75000E+01 0.00000E+00
 -1       755-1.43750E+01 3.75000E+01 0.00000E+00
 -1       756-1.33125E+01 3.75000E+01 0.00000E+00
 -1       757-1.22500E+01 3.75000E+01 0.00000E+00
 -1       758-1.11875E+01 3.75000E+01 0.00000E+00
 -1       759-1.01250E+01 3.75000E+01 0.00000E+00
 -1       760-9.06250E+00 3.75000E+01 0.00000E+00
 -1       761-2.44688E+01 3.75000E+01 0.00000E+00
 -1       762-2.34062E+01 3.75000E+01 0.00000E+00
 -1       763-2.23438E+01 3.75000E+01 0.00000E+00
 -1       764-2.12812E+01 3.75000E+01 0.00000E+00
 -1       765-2.02188E+01 3.75000E+01 0.00000E+00
 -1       766-1.91562E+01 3.75000E+01 0.00000E+00
 -1       767-1.80938E+01 3.75000E+01 0.00000E+00
 -1       768-1.70312E+01 3.75000E+01 0.00000E+00
 -1       769-1.59688E+01 3.75000E+01 0.00000E+00
 -1       770-1.49062E+01 3.75000E+01 0.00000E+00
 -1       771-1.38438E+01 3.75000E+01 0.00000E+00
 -1       772-1.27812E+01 3.75000E+01 0.00000E+00
 -1       773-1.17188E+01 3.75000E+01 0.00000E+00
 -1       774-1.06562E+01 3.75000E+01 0.00000E+00
 -1       775-9.59375E+00 3.75000E+01 0.00000E+00
 -1       776-8.53125E+00 3.75000E+01 0.00000E+00
 -1       777-6.93333E+00 3.75000E+01 0.00000E+00
 -1       778-5.86667E+00 3.75000E+01 0.00000E+00
 -1       779-4.80000E+00 3.75000E+01 0.00000E+00
 -1       780-3.73333E+00 3.75000E+01 0.00000E+00
 -1       781-2.66667E+00 3.75000E+01 0.00000E+00
 -1       782-1.60000E+00 3.75000E+01 0.00000E+00
 -1       783-5.33333E-01 3.75000E+01 0.00000E+00
 -1       784 5.33333E-01 3.75000E+01 0.00000E+00
 -1       785 1.60000E+00 3.75000E+01 0.00000E+00
 -1       786 2.66667E+00 3.75000E+01 0.00000E+00
 -1       787 3.73333E+00 3.75000E+01 0.00000E+00
 -1       788 4.80000E+00 3.75000E+01 0.00000E+00
 -1       789 5.86667E+00 3.75000E+01 0.00000E+00
 -1       790 6.93333E+00 3.75000E+01 0.00000E+00
 -1       791-7.46667E+00 3.75000E+01 0.00000E+00
 -1       792-6.40000E+00 3.75000E+01 0.00000E+00
 -1       793-5.33333E+00 3.75000E+01 0.00000E+00
 -1       794-4.26667E+00 3.75000E+01 0.00000E+00
 -1       795-3.20000E+00 3.75000E+01 0.00000E+00
 -1       796-2.13333E+00 3.75000E+01 0.00000E+00
 -1       797-1.06667E+00 3.75000E+01 0.00000E+00
 -1       798-2.21778E-11 3.75000E+01 0.00000E+00
 -1       799 1.06667E+00 3.75000E+01 0.00000E+00
 -1       800 2.13333E+00 3.75000E+01 0.00000E+00
 -1       801 3.20000E+00 3.75000E+01 0.00000E+00
 -1       802 4.26667E+00 3.75000E+01 0.00000E+00
 -1       803 5.33333E+00 3.75000E+01 0.00000E+00
 -1       804 6.40000E+00 3.75000E+01 0.00000E+00
 -1       805 7.46667E+00 3.75000E+01 0.00000E+00
 -1       806 9.06250E+00 3.75000E+01 0.00000E+00
 -1       807 1.01250E+01 3.75000E+01 0.00000E+00
 -1       808 1.11875E+01 3.75000E+01 0.00000E+00
 -1       809 1.22500E+01 3.75000E+01 0.00000E+00
 -1       810 1.33125E+01 3.75000E+01 0.00000E+00
 -1       811 1.43750E+01 3.75000E+01 0.00000E+00
 -1       812 1.54375E+01 3.75000E+01 0.00000E+00
 -1       813 1.65000E+01 3.75000E+01 0.00000E+00
 -1       814 1.75625E+01 3.75000E+01 0.00000E+00
 -1       815 1.86250E+01 3.75000E+01 0.00000E+00
 -1       816 1.96875E+01 3.75000E+01 0.00000E+00
 -1       817 2.07500E+01 3.75000E+01 0.00000E+00
 -1       818 2.18125E+01 3.75000E+01 0.00000E+00
 -1       819 2.28750E+01 3.75000E+01 0.00000E+00
 -1       820 2.39375E+01 3.75000E+01 0.00000E+00
 -1       821 8.53125E+00 3.75000E+01 0.00000E+00
 -1       822 9.59375E+00 3.75000E+01 0.00000E+00
 -1       823 1.06562E+01 3.75000E+01 0.00000E+00
 -1       824 1.17188E+01 3.75000E+01 0.00000E+00
 -1       825 1.27812E+01 3.75000E+01 0.00000E+00
 -1       826 1.38438E+01 3.75000E+01 0.00000E+00
 -1       827 1.49062E+01 3.75000E+01 0.00000E+00
 -1       828 1.59688E+01 3.75000E+01 0.00000E+00
 -1       829 1.70312E+01 3.75000E+01 0.00000E+00
 -1       830 1.80938E+01 3.75000E+01 0.00000E+00
 -1       831 1.91562E+01 3.75000E+01 0.00000E+00
 -1       832 2.02188E+01 3.75000E+01 0.00000E+00
 -1       833 2.12812E+01 3.75000E+01 0.00000E+00
 -1       834 2.23438E+01 3.75000E+01 0.00000E+00
 -1       835 2.34062E+01 3.75000E+01 0.00000E+00
 -1       836 2.44688E+01 3.75000E+01 0.00000E+00
 -1       837 9.06250E+00 8.00000E+00 0.00000E+00
 -1       838 1.01250E+01 8.00000E+00 0.00000E+00
 -1       839 1.11875E+01 8.00000E+00 0.00000E+00
 -1       840 1.22500E+01 8.00000E+00 0.00000E+00
 -1       841 1.33125E+01 8.00000E+00 0.00000E+00
 -1       842 1.43750E+01 8.00000E+00 0.00000E+00
 -1       843 1.54375E+01 8.00000E+00 0.00000E+00
 -1       844 1.65000E+01 8.00000E+00 0.00000E+00
 -1       845 1.75625E+01 8.00000E+00 0.00000E+00
 -1       846 1.86250E+01 8.00000E+00 0.00000E+00
 -1       847 1.96875E+01 8.00000E+00 0.00000E+00
 -1       848 2.07500E+01 8.00000E+00 0.00000E+00
 -1       849 2.18125E+01 8.00000E+00 0.00000E+00
 -1       850 2.28750E+01 8.00000E+00 0.00000E+00
 -1       851 2.39375E+01 8.00000E+00 0.00000E+00
 -1       852 8.53125E+00 8.00000E+00 0.00000E+00
 -1       853 9.59375E+00 8.00000E+00 0.00000E+00
 -1       854 1.06562E+01 8.00000E+00 0.00000E+00
 -1       855 1.17188E+01 8.00000E+00 0.00000E+00
 -1       856 1.27812E+01 8.00000E+00 0.00000E+00
 -1       857 1.38438E+01 8.00000E+00 0.00000E+00
 -1       858 1.49062E+01 8.00000E+00 0.00000E+00
 -1       859 1.59688E+01 8.00000E+00 0.00000E+00
 -1       860 1.70312E+01 8.00000E+00 0.00000E+00
 -1       861 1.80938E+01 8.00000E+00 0.00000E+00
 -1       862 1.91562E+01 8.00000E+00 0.00000E+00
 -1       863 2.02188E+01 8.00000E+00 0.00000E+00
 -1       864 2.12812E+01 8.00000E+00 0.00000E+00
 -1       865 2.23438E+01 8.00000E+00 0.00000E+00
 -1       866 2.34062E+01 8.00000E+00 0.00000E+00
 -1       867 2.44688E+01 8.00000E+00 0.00000E+00
 -1       868 9.06250E+00-8.00000E+00 0.00000E+00
 -1       869 1.01250E+01-8.00000E+00 0.00000E+00
 -1       870 1.11875E+01-8.00000E+00 0.00000E+00
 -1       871 1.22500E+01-8.00000E+00 0.00000E+00
 -1       872 1.33125E+01-8.00000E+00 0.00000E+00
 -1       873 1.43750E+01-8.00000E+00 0.00000E+00
 -1       874 1.54375E+01-8.00000E+00 0.00000E+00
 -1       875 1.65000E+01-8.00000E+00 0.00000E+00
 -1       876 1.75625E+01-8.00000E+00 0.00000E+00
 -1       877 1.86250E+01-8.00000E+00 0.00000E+00
 -1       878 1.96875E+01-8.00000E+00 0.00000E+00
 -1       879 2.07500E+01-8.00000E+00 0.00000E+00
 -1       880 2.18125E+01-8.00000E+00 0.00000E+00
 -1       881 2.28750E+01-8.00000E+00 0.00000E+00
 -1       882 2.39375E+01-8.00000E+00 0.00000E+00
 -1       883 8.53125E+00-8.00000E+00 0.00000E+00
 -1       884 9.59375E+00-8.00000E+00 0.00000E+00
 -1       885 1.06562E+01-8.00000E+00 0.00000E+00
 -1       886 1.17188E+01-8.00000E+00 0.00000E+00
 -1       887 1.27812E+01-8.00000E+00 0.00000E+00
 -1       888 1.38438E+01-8.00000E+00 0.00000E+00
 -1       889 1.49062E+01-8.00000E+00 0.00000E+00
 -1       890 1.59688E+01-8.00000E+00 0.00000E+00
 -1       891 1.70312E+01-8.00000E+00 0.00000E+00
 -1       892 1.80938E+01-8.00000E+00 0.00000E+00
 -1       893 1.91562E+01-8.00000E+00 0.00000E+00
 -1       894 2.02188E+01-8.00000E+00 0.00000E+00
 -1       895 2.12812E+01-8.00000E+00 0.00000E+00
 -1       896 2.23438E+01-8.00000E+00 0.00000E+00
 -1       897 2.34062E+01-8.00000E+00 0.00000E+00
 -1       898 2.44688E+01-8.00000E+00 0.00000E+00
 -1       899 8.00000E+00-9.01724E+00 0.00000E+00
 -1       900 8.00000E+00-1.00345E+01 0.00000E+00
 -1       901 8.00000E+00-1.10517E+01 0.00000E+00
 -1       902 8.00000E+00-1.20690E+01 0.00000E+00
 -1       903 8.00000E+00-1.30862E+01 0.00000E+00
 -1       904 8.00000E+00-1.41034E+01 0.00000E+00
 -1       905 8.00000E+00-1.51207E+01 0.00000E+00
 -1       906 8.00000E+00-1.61379E+01 0.00000E+00
 -1       907 8.00000E+00-1.71552E+01 0.00000E+00
 -1       908 8.00000E+00-1.81724E+01 0.00000E+00
 -1       909 8.00000E+00-1.91897E+01 0.00000E+00
 -1       910 8.00000E+00-2.02069E+01 0.00000E+00
 -1       911 8.00000E+00-2.12241E+01 0.00000E+00
 -1       912 8.00000E+00-2.22414E+01 0.00000E+00
 -1       913 8.00000E+00-2.32586E+01 0.00000E+00
 -1       914 8.00000E+00-2.42759E+01 0.00000E+00
 -1       915 8.00000E+00-2.52931E+01 0.00000E+00
 -1       916 8.00000E+00-2.63103E+01 0.00000E+00
 -1       917 8.00000E+00-2.73276E+01 0.00000E+00
 -1       918 8.00000E+00-2.83448E+01 0.00000E+00
 -1       919 8.00000E+00-2.93621E+01 0.00000E+00
 -1       920 8.00000E+00-3.03793E+01 0.00000E+00
 -1       921 8.00000E+00-3.13966E+01 0.00000E+00
 -1       922 8.00000E+00-3.24138E+01 0.00000E+00
 -1       923 8.00000E+00-3.34310E+01 0.00000E+00
 -1       924 8.00000E+00-3.44483E+01 0.00000E+00
 -1       925 8.00000E+00-3.54655E+01 0.00000E+00
 -1       926 8.00000E+00-3.64828E+01 0.00000E+00
 -1       927 8.00000E+00-8.50862E+00 0.00000E+00
 -1       928 8.00000E+00-9.52586E+00 0.00000E+00
 -1       929 8.00000E+00-1.05431E+01 0.00000E+00
 -1       930 8.00000E+00-1.15603E+01 0.00000E+00
 -1       931 8.00000E+00-1.25776E+01 0.00000E+00
 -1       932 8.00000E+00-1.35948E+01 0.00000E+00
 -1       933 8.00000E+00-1.46121E+01 0.00000E+00
 -1       934 8.00000E+00-1.56293E+01 0.00000E+00
 -1       935 8.00000E+00-1.66466E+01 0.00000E+00
 -1       936 8.00000E+00-1.76638E+01 0.00000E+00
 -1       937 8.00000E+00-1.86810E+01 0.00000E+00
 -1       938 8.00000E+00-1.96983E+01 0.00000E+00
 -1       939 8.00000E+00-2.07155E+01 0.00000E+00
 -1       940 8.00000E+00-2.17328E+01 0.00000E+00
 -1       941 8.00000E+00-2.27500E+01 0.00000E+00
 -1       942 8.00000E+00-2.37672E+01 0.00000E+00
 -1       943 8.00000E+00-2.47845E+01 0.00000E+00
 -1       944 8.00000E+00-2.58017E+01 0.00000E+00
 -1       945 8.00000E+00-2.68190E+01 0.00000E+00
 -1       946 8.00000E+00-2.78362E+01 0.00000E+00
 -1       947 8.00000E+00-2.88534E+01 0.00000E+00
 -1       948 8.00000E+00-2.98707E+01 0.00000E+00
 -1       949 8.00000E+00-3.08879E+01 0.00000E+00
 -1       950 8.00000E+00-3.19052E+01 0.00000E+00
 -1       951 8.00000E+00-3.29224E+01 0.00000E+00
 -1       952 8.00000E+00-3.39397E+01 0.00000E+00
 -1       953 8.00000E+00-3.49569E+01 0.00000E+00
 -1       954 8.00000E+00-3.59741E+01 0.00000E+00
 -1       955 8.00000E+00-3.69914E+01 0.00000E+00
 -1       956-8.00000E+00-9.01724E+00 0.00000E+00
 -1       957-8.00000E+00-1.00345E+01 0.00000E+00
 -1       958-8.00000E+00-1.10517E+01 0.00000E+00
 -1       959-8.00000E+00-1.20690E+01 0.00000E+00
 -1       960-8.00000E+00-1.30862E+01 0.00000E+00
 -1       961-8.00000E+00-1.41034E+01 0.00000E+00
 -1       962-8.00000E+00-1.51207E+01 0.00000E+00
 -1       963-8.00000E+00-1.61379E+01 0.00000E+00
 -1       964-8.00000E+00-1.71552E+01 0.00000E+00
 -1       965-8.00000E+00-1.81724E+01 0.00000E+00
 -1       966-8.00000E+00-1.91897E+01 0.00000E+00
 -1       967-8.00000E+00-2.02069E+01 0.00000E+00
 -1       968-8.00000E+00-2.12241E+01 0.00000E+00
 -1       969-8.00000E+00-2.22414E+01 0.00000E+00
 -1       970-8.00000E+00-2.32586E+01 0.00000E+00
 -1       971-8.00000E+00-2.42759E+01 0.00000E+00
 -1       972-8.00000E+00-2.52931E+01 0.00000E+00
 -1       973-8.00000E+00-2.63103E+01 0.00000E+00
 -1       974-8.00000E+00-2.73276E+01 0.00000E+00
 -1       975-8.00000E+00-2.83448E+01 0.00000E+00
 -1       976-8.00000E+00-2.93621E+01 0.00000E+00
 -1       977-8.00000E+00-3.03793E+01 0.00000E+00
 -1       978-8.00000E+00-3.13966E+01 0.00000E+00
 -1       979-8.00000E+00-3.24138E+01 0.00000E+00
 -1       980-8.00000E+00-3.34310E+01 0.00000E+00
 -1       981-8.00000E+00-3.44483E+01 0.00000E+00
 -1       982-8.00000E+00-3.54655E+01 0.00000E+00
 -1       983-8.00000E+00-3.64828E+01 0.00000E+00
 -1       984-8.00000E+00-8.50862E+00 0.00000E+00
 -1       985-8.00000E+00-9.52586E+00 0.00000E+00
 -1       986-8.00000E+00-1.05431E+01 0.00000E+00
 -1       987-8.00000E+00-1.15603E+01 0.00000E+00
 -1       988-8.00000E+00-1.25776E+01 0.00000E+00
 -1       989-8.00000E+00-1.35948E+01 0.00000E+00
 -1       990-8.00000E+00-1.46121E+01 0.00000E+00
 -1       991-8.00000E+00-1.56293E+01 0.00000E+00
 -1       992-8.00000E+00-1.66466E+01 0.00000E+00
 -1       993-8.00000E+00-1.76638E+01 0.00000E+00
 -1       994-8.00000E+00-1.86810E+01 0.00000E+00
 -1       995-8.00000E+00-1.96983E+01 0.00000E+00
 -1       996-8.00000E+00-2.07155E+01 0.00000E+00
 -1       997-8.00000E+00-2.17328E+01 0.00000E+00
 -1       998-8.00000E+00-2.27500E+01 0.00000E+00
 -1       999-8.00000E+00-2.37672E+01 0.00000E+00
 -1      1000-8.00000E+00-2.47845E+01 0.00000E+00
 -1      1001-8.00000E+00-2.58017E+01 0.00000E+00
 -1      1002-8.00000E+00-2.68190E+01 0.00000E+00
 -1      1003-8.00000E+00-2.78362E+01 0.00000E+00
 -1      1004-8.00000E+00-2.88534E+01 0.00000E+00
 -1      1005-8.00000E+00-2.98707E+01 0.00000E+00
 -1      1006-8.00000E+00-3.08879E+01 0.00000E+00
 -1      1007-8.00000E+00-3.19052E+01 0.00000E+00
 -1      1008-8.00000E+00-3.29224E+01 0.00000E+00
 -1      1009-8.00000E+00-3.39397E+01 0.00000E+00
 -1      1010-8.00000E+00-3.49569E+01 0.00000E+00
 -1      1011-8.00000E+00-3.59741E+01 0.00000E+00
 -1      1012-8.00000E+00-3.69914E+01 0.00000E+00
 -1      1013-9.06250E+00-8.00000E+00 0.00000E+00
 -1      1014-1.01250E+01-8.00000E+00 0.00000E+00
 -1      1015-1.11875E+01-8.00000E+00 0.00000E+00
 -1      1016-1.22500E+01-8.00000E+00 0.00000E+00
 -1      1017-1.33125E+01-8.00000E+00 0.00000E+00
 -1      1018-1.43750E+01-8.00000E+00 0.00000E+00
 -1      1019-1.54375E+01-8.00000E+00 0.00000E+00
 -1      1020-1.65000E+01-8.00000E+00 0.00000E+00
 -1      1021-1.75625E+01-8.00000E+00 0.00000E+00
 -1      1022-1.86250E+01-8.00000E+00 0.00000E+00
 -1      1023-1.96875E+01-8.00000E+00 0.00000E+00
 -1      1024-2.07500E+01-8.00000E+00 0.00000E+00
 -1      1025-2.18125E+01-8.00000E+00 0.00000E+00
 -1      1026-2.28750E+01-8.00000E+00 0.00000E+00
 -1      1027-2.39375E+01-8.00000E+00 0.00000E+00
 -1      1028-8.53125E+00-8.00000E+00 0.00000E+00
 -1      1029-9.59375E+00-8.00000E+00 0.00000E+00
 -1      1030-1.06562E+01-8.00000E+00 0.00000E+00
 -1      1031-1.17188E+01-8.00000E+00 0.00000E+00
 -1      1032-1.27812E+01-8.00000E+00 0.00000E+00
 -1      1033-1.38438E+01-8.00000E+00 0.00000E+00
 -1      1034-1.49062E+01-8.00000E+00 0.00000E+00
 -1      1035-1.59688E+01-8.00000E+00 0.00000E+00
 -1      1036-1.70312E+01-8.00000E+00 0.00000E+00
 -1      1037-1.80938E+01-8.00000E+00 0.00000E+00
 -1      1038-1.91562E+01-8.00000E+00 0.00000E+00
 -1      1039-2.02188E+01-8.00000E+00 0.00000E+00
 -1      1040-2.12812E+01-8.00000E+00 0.00000E+00
 -1      1041-2.23438E+01-8.00000E+00 0.00000E+00
 -1      1042-2.34062E+01-8.00000E+00 0.00000E+00
 -1      1043-2.44688E+01-8.00000E+00 0.00000E+00
 -1      1044-9.06250E+00 8.00000E+00 0.00000E+00
 -1      1045-1.01250E+01 8.00000E+00 0.00000E+00
 -1      1046-1.11875E+01 8.00000E+00 0.00000E+00
 -1      1047-1.22500E+01 8.00000E+00 0.00000E+00
 -1      1048-1.33125E+01 8.00000E+00 0.00000E+00
 -1      1049-1.43750E+01 8.00000E+00 0.00000E+00
 -1      1050-1.54375E+01 8.00000E+00 0.00000E+00
 -1      1051-1.65000E+01 8.00000E+00 0.00000E+00
 -1      1052-1.75625E+01 8.00000E+00 0.00000E+00
 -1      1053-1.86250E+01 8.00000E+00 0.00000E+00
 -1      1054-1.96875E+01 8.00000E+00 0.00000E+00
 -1      1055-2.07500E+01 8.00000E+00 0.00000E+00
 -1      1056-2.18125E+01 8.00000E+00 0.00000E+00
 -1      1057-2.28750E+01 8.00000E+00 0.00000E+00
 -1      1058-2.39375E+01 8.00000E+00 0.00000E+00
 -1      1059-8.53125E+00 8.00000E+00 0.00000E+00
 -1      1060-9.59375E+00 8.00000E+00 0.00000E+00
 -1      1061-1.06562E+01 8.00000E+00 0.00000E+00
 -1      1062-1.17188E+01 8.00000E+00 0.00000E+00
 -1      1063-1.27812E+01 8.00000E+00 0.00000E+00
 -1      1064-1.38438E+01 8.00000E+00 0.00000E+00
 -1      1065-1.49062E+01 8.00000E+00 0.00000E+00
 -1      1066-1.59688E+01 8.00000E+00 0.00000E+00
 -1      1067-1.70312E+01 8.00000E+00 0.00000E+00
 -1      1068-1.80938E+01 8.00000E+00 0.00000E+00
 -1      1069-1.91562E+01 8.00000E+00 0.00000E+00
 -1      1070-2.02188E+01 8.00000E+00 0.00000E+00
 -1      1071-2.12812E+01 8.00000E+00 0.00000E+00
 -1      1072-2.23438E+01 8.00000E+00 0.00000E+00
 -1      1073-2.34062E+01 8.00000E+00 0.00000E+00
 -1      1074-2.44688E+01 8.00000E+00 0.00000E+00
 -1      1075-8.00000E+00 9.01724E+00 0.00000E+00
 -1      1076-8.00000E+00 1.00345E+01 0.00000E+00
 -1      1077-8.00000E+00 1.10517E+01 0.00000E+00
 -1      1078-8.00000E+00 1.20690E+01 0.00000E+00
 -1      1079-8.00000E+00 1.30862E+01 0.00000E+00
 -1      1080-8.00000E+00 1.41034E+01 0.00000E+00
 -1      1081-8.00000E+00 1.51207E+01 0.00000E+00
 -1      1082-8.00000E+00 1.61379E+01 0.00000E+00
 -1      1083-8.00000E+00 1.71552E+01 0.00000E+00
 -1      1084-8.00000E+00 1.81724E+01 0.00000E+00
 -1      1085-8.00000E+00 1.91897E+01 0.00000E+00
 -1      1086-8.00000E+00 2.02069E+01 0.00000E+00
 -1      1087-8.00000E+00 2.12241E+01 0.00000E+00
 -1      1088-8.00000E+00 2.22414E+01 0.00000E+00
 -1      1089-8.00000E+00 2.32586E+01 0.00000E+00
 -1      1090-8.00000E+00 2.42759E+01 0.00000E+00
 -1      1091-8.00000E+00 2.52931E+01 0.00000E+00
 -1      1092-8.00000E+00 2.63103E+01 0.00000E+00
 -1      1093-8.00000E+00 2.73276E+01 0.00000E+00
 -1      1094-8.00000E+00 2.83448E+01 0.00000E+00
 -1      1095-8.00000E+00 2.93621E+01 0.00000E+00
 -1      1096-8.00000E+00 3.03793E+01 0.00000E+00
 -1      1097-8.00000E+00 3.13966E+01 0.00000E+00
 -1      1098-8.00000E+00 3.24138E+01 0.00000E+00
 -1      1099-8.00000E+00 3.34310E+01 0.00000E+00
 -1      1100-8.00000E+00 3.44483E+01 0.00000E+00
 -1      1101-8.00000E+00 3.54655E+01 0.00000E+00
 -1      1102-8.00000E+00 3.64828E+01 0.00000E+00
 -1      1103-8.00000E+00 8.50862E+00 0.00000E+00
 -1      1104-8.00000E+00 9.52586E+00 0.00000E+00
 -1      1105-8.00000E+00 1.05431E+01 0.00000E+00
 -1      1106-8.00000E+00 1.15603E+01 0.00000E+00
 -1      1107-8.00000E+00 1.25776E+01 0.00000E+00
 -1      1108-8.00000E+00 1.35948E+01 0.00000E+00
 -1      1109-8.00000E+00 1.46121E+01 0.00000E+00
 -1      1110-8.00000E+00 1.56293E+01 0.00000E+00
 -1      1111-8.00000E+00 1.66466E+01 0.00000E+00
 -1      1112-8.00000E+00 1.76638E+01 0.00000E+00
 -1      1113-8.00000E+00 1.86810E+01 0.00000E+00
 -1      1114-8.00000E+00 1.96983E+01 0.00000E+00
 -1      1115-8.00000E+00 2.07155E+01 0.00000E+00
 -1      1116-8.00000E+00 2.17328E+01 0.00000E+00
 -1      1117-8.00000E+00 2.27500E+01 0.00000E+00
 -1      1118-8.00000E+00 2.37672E+01 0.00000E+00
 -1      1119-8.00000E+00 2.47845E+01 0.00000E+00
 -1      1120-8.00000E+00 2.58017E+01 0.00000E+00
 -1      1121-8.00000E+00 2.68190E+01 0.00000E+00
 -1      1122-8.00000E+00 2.78362E+01 0.00000E+00
 -1      1123-8.00000E+00 2.88534E+01 0.00000E+00
 -1      1124-8.00000E+00 2.98707E+01 0.00000E+00
 -1      1125-8.00000E+00 3.08879E+01 0.00000E+00
 -1      1126-8.00000E+00 3.19052E+01 0.00000E+00
 -1      1127-8.00000E+00 3.29224E+01 0.00000E+00
 -1      1128-8.00000E+00 3.39397E+01 0.00000E+00
 -1      1129-8.00000E+00 3.49569E+01 0.00000E+00
 -1      1130-8.00000E+00 3.59741E+01 0.00000E+00
 -1      1131-8.00000E+00 3.69914E+01 0.00000E+00
 -1      1132 8.00000E+00 9.01724E+00 0.00000E+00
 -1      1133 8.00000E+00 1.00345E+01 0.00000E+00
 -1      1134 8.00000E+00 1.10517E+01 0.00000E+00
 -1      1135 8.00000E+00 1.20690E+01 0.00000E+00
 -1      1136 8.00000E+00 1.30862E+01 0.00000E+00
 -1      1137 8.00000E+00 1.41034E+01 0.00000E+00
 -1      1138 8.00000E+00 1.51207E+01 0.00000E+00
 -1      1139 8.00000E+00 1.61379E+01 0.00000E+00
 -1      1140 8.00000E+00 1.71552E+01 0.00000E+00
 -1      1141 8.00000E+00 1.81724E+01 0.00000E+00
 -1      1142 8.00000E+00 1.91897E+01 0.00000E+00
 -1      1143 8.00000E+00 2.02069E+01 0.00000E+00
 -1      1144 8.00000E+00 2.12241E+01 0.00000E+00
 -1      1145 8.00000E+00 2.22414E+01 0.00000E+00
 -1      1146 8.00000E+00 2.32586E+01 0.00000E+00
 -1      1147 8.00000E+00 2.42759E+01 0.00000E+00
 -1      1148 8.00000E+00 2.52931E+01 0.00000E+00
 -1      1149 8.00000E+00 2.63103E+01 0.00000E+00
 -1      1150 8.00000E+00 2.73276E+01 0.00000E+00
 -1      1151 8.00000E+00 2.83448E+01 0.00000E+00
 -1      1152 8.00000E+00 2.93621E+01 0.00000E+00
 -1      1153 8.00000E+00 3.03793E+01 0.00000E+00
 -1      1154 8.00000E+00 3.13966E+01 0.00000E+00
 -1      1155 8.00000E+00 3.24138E+01 0.00000E+00
 -1      1156 8.00000E+00 3.34310E+01 0.00000E+00
 -1      1157 8.00000E+00 3.44483E+01 0.00000E+00
 -1      1158 8.00000E+00 3.54655E+01 0.00000E+00
 -1      1159 8.00000E+00 3.64828E+01 0.00000E+00
 -1      1160 8.00000E+00 8.50862E+00 0.00000E+00
 -1      1161 8.00000E+00 9.52586E+00 0.00000E+00
 -1      1162 8.00000E+00 1.05431E+01 0.00000E+00
 -1      1163 8.00000E+00 1.15603E+01 0.00000E+00
 -1      1164 8.00000E+00 1.25776E+01 0.00000E+00
 -1      1165 8.00000E+00 1.35948E+01 0.00000E+00
 -1      1166 8.00000E+00 1.46121E+01 0.00000E+00
 -1      1167 8.00000E+00 1.56293E+01 0.00000E+00
 -1      1168 8.00000E+00 1.66466E+01 0.00000E+00
 -1      1169 8.00000E+00 1.76638E+01 0.00000E+00
 -1      1170 8.00000E+00 1.86810E+01 0.00000E+00
 -1      1171 8.00000E+00 1.96983E+01 0.00000E+00
 -1      1172 8.00000E+00 2.07155E+01 0.00000E+00
 -1      1173 8.00000E+00 2.17328E+01 0.00000E+00
 -1      1174 8.00000E+00 2.27500E+01 0.00000E+00
 -1      1175 8.00000E+00 2.37672E+01 0.00000E+00
 -1      1176 8.00000E+00 2.47845E+01 0.00000E+00
 -1      1177 8.00000E+00 2.58017E+01 0.00000E+00
 -1      1178 8.00000E+00 2.68190E+01 0.00000E+00
 -1      1179 8.00000E+00 2.78362E+01 0.00000E+00
 -1      1180 8.00000E+00 2.88534E+01 0.00000E+00
 -1      1181 8.00000E+00 2.98707E+01 0.00000E+00
 -1      1182 8.00000E+00 3.08879E+01 0.00000E+00
 -1      1183 8.00000E+00 3.19052E+01 0.00000E+00
 -1      1184 8.00000E+00 3.29224E+01 0.00000E+00
 -1      1185 8.00000E+00 3.39397E+01 0.00000E+00
 -1      1186 8.00000E+00 3.49569E+01 0.00000E+00
 -1      1187 8.00000E+00 3.59741E+01 0.00000E+00
 -1      1188 8.00000E+00 3.69914E+01 0.00000E+00
 -1      1189 2.89894E+00 2.36062E+00 0.00000E+00
 -1      1190 3.11019E+00 2.03912E+00 0.00000E+00
 -1      1191 3.28990E+00 1.69714E+00 0.00000E+00
 -1      1192 3.43608E+00 1.33807E+00 0.00000E+00
 -1      1193 3.54715E+00 9.65524E-01 0.00000E+00
 -1      1194 3.62187E+00 5.83239E-01 0.00000E+00
 -1      1195 3.65944E+00 1.95069E-01 0.00000E+00
 -1      1196 3.65944E+00-1.95069E-01 0.00000E+00
 -1      1197 3.62187E+00-5.83239E-01 0.00000E+00
 -1      1198 3.54715E+00-9.65524E-01 0.00000E+00
 -1      1199 3.43608E+00-1.33807E+00 0.00000E+00
 -1      1200 3.28990E+00-1.69714E+00 0.00000E+00
 -1      1201 3.11019E+00-2.03912E+00 0.00000E+00
 -1      1202 2.89894E+00-2.36062E+00 0.00000E+00
 -1      1203 3.06706E+00 2.51133E+00 0.00000E+00
 -1      1204 3.27135E+00 2.16527E+00 0.00000E+00
 -1      1205 3.44514E+00 1.79940E+00 0.00000E+00
 -1      1206 3.58650E+00 1.41702E+00 0.00000E+00
 -1      1207 3.69391E+00 1.02159E+00 0.00000E+00
 -1      1208 3.76617E+00 6.16750E-01 0.00000E+00
 -1      1209 3.80250E+00 2.06218E-01 0.00000E+00
 -1      1210 3.80250E+00-2.06218E-01 0.00000E+00
 -1      1211 3.76617E+00-6.16750E-01 0.00000E+00
 -1      1212 3.69391E+00-1.02159E+00 0.00000E+00
 -1      1213 3.58650E+00-1.41702E+00 0.00000E+00
 -1      1214 3.44514E+00-1.79940E+00 0.00000E+00
 -1      1215 3.27135E+00-2.16527E+00 0.00000E+00
 -1      1216 3.06706E+00-2.51133E+00 0.00000E+00
 -1      1217 3.25386E+00 2.67879E+00 0.00000E+00
 -1      1218 3.45042E+00 2.30544E+00 0.00000E+00
 -1      1219 3.61762E+00 1.91303E+00 0.00000E+00
 -1      1220 3.75364E+00 1.50473E+00 0.00000E+00
 -1      1221 3.85697E+00 1.08389E+00 0.00000E+00
 -1      1222 3.92650E+00 6.53984E-01 0.00000E+00
 -1      1223 3.96145E+00 2.18605E-01 0.00000E+00
 -1      1224 3.96145E+00-2.18605E-01 0.00000E+00
 -1      1225 3.92650E+00-6.53984E-01 0.00000E+00
 -1      1226 3.85697E+00-1.08389E+00 0.00000E+00
 -1      1227 3.75364E+00-1.50473E+00 0.00000E+00
 -1      1228 3.61762E+00-1.91303E+00 0.00000E+00
 -1      1229 3.45042E+00-2.30544E+00 0.00000E+00
 -1      1230 3.25386E+00-2.67879E+00 0.00000E+00
 -1      1231 3.46142E+00 2.86485E+00 0.00000E+00
 -1      1232 3.64938E+00 2.46118E+00 0.00000E+00
 -1      1233 3.80927E+00 2.03929E+00 0.00000E+00
 -1      1234 3.93934E+00 1.60219E+00 0.00000E+00
 -1      1235 4.03816E+00 1.15311E+00 0.00000E+00
 -1      1236 4.10464E+00 6.95356E-01 0.00000E+00
 -1      1237 4.13807E+00 2.32369E-01 0.00000E+00
 -1      1238 4.13807E+00-2.32369E-01 0.00000E+00
 -1      1239 4.10464E+00-6.95356E-01 0.00000E+00
 -1      1240 4.03816E+00-1.15311E+00 0.00000E+00
 -1      1241 3.93934E+00-1.60219E+00 0.00000E+00
 -1      1242 3.80927E+00-2.03929E+00 0.00000E+00
 -1      1243 3.64938E+00-2.46118E+00 0.00000E+00
 -1      1244 3.46142E+00-2.86485E+00 0.00000E+00
 -1      1245 3.69205E+00 3.07158E+00 0.00000E+00
 -1      1246 3.87046E+00 2.63423E+00 0.00000E+00
 -1      1247 4.02222E+00 2.17957E+00 0.00000E+00
 -1      1248 4.14568E+00 1.71049E+00 0.00000E+00
 -1      1249 4.23947E+00 1.23002E+00 0.00000E+00
 -1      1250 4.30258E+00 7.41324E-01 0.00000E+00
 -1      1251 4.33431E+00 2.47662E-01 0.00000E+00
 -1      1252 4.33431E+00-2.47662E-01 0.00000E+00
 -1      1253 4.30258E+00-7.41324E-01 0.00000E+00
 -1      1254 4.23947E+00-1.23002E+00 0.00000E+00
 -1      1255 4.14568E+00-1.71049E+00 0.00000E+00
 -1      1256 4.02222E+00-2.17957E+00 0.00000E+00
 -1      1257 3.87046E+00-2.63423E+00 0.00000E+00
 -1      1258 3.69205E+00-3.07158E+00 0.00000E+00
 -1      1259 3.94829E+00 3.30129E+00 0.00000E+00
 -1      1260 4.11609E+00 2.82650E+00 0.00000E+00
 -1      1261 4.25883E+00 2.33544E+00 0.00000E+00
 -1      1262 4.37494E+00 1.83081E+00 0.00000E+00
 -1      1263 4.46316E+00 1.31547E+00 0.00000E+00
 -1      1264 4.52251E+00 7.92400E-01 0.00000E+00
 -1      1265 4.55235E+00 2.64655E-01 0.00000E+00
 -1      1266 4.55235E+00-2.64655E-01 0.00000E+00
 -1      1267 4.52251E+00-7.92400E-01 0.00000E+00
 -1      1268 4.46316E+00-1.31547E+00 0.00000E+00
 -1      1269 4.37494E+00-1.83081E+00 0.00000E+00
 -1      1270 4.25883E+00-2.33544E+00 0.00000E+00
 -1      1271 4.11609E+00-2.82650E+00 0.00000E+00
 -1      1272 3.94829E+00-3.30129E+00 0.00000E+00
 -1      1273 4.23301E+00 3.55652E+00 0.00000E+00
 -1      1274 4.38902E+00 3.04014E+00 0.00000E+00
 -1      1275 4.52172E+00 2.50863E+00 0.00000E+00
 -1      1276 4.62968E+00 1.96450E+00 0.00000E+00
 -1      1277 4.71170E+00 1.41042E+00 0.00000E+00
 -1      1278 4.76688E+00 8.49151E-01 0.00000E+00
 -1      1279 4.79462E+00 2.83535E-01 0.00000E+00
 -1      1280 4.79462E+00-2.83535E-01 0.00000E+00
 -1      1281 4.76688E+00-8.49151E-01 0.00000E+00
 -1      1282 4.71170E+00-1.41042E+00 0.00000E+00
 -1      1283 4.62968E+00-1.96450E+00 0.00000E+00
 -1      1284 4.52172E+00-2.50863E+00 0.00000E+00
 -1      1285 4.38902E+00-3.04014E+00 0.00000E+00
 -1      1286 4.23301E+00-3.55652E+00 0.00000E+00
 -1      1287 4.54937E+00 3.84010E+00 0.00000E+00
 -1      1288 4.69227E+00 3.27751E+00 0.00000E+00
 -1      1289 4.81383E+00 2.70106E+00 0.00000E+00
 -1      1290 4.91272E+00 2.11305E+00 0.00000E+00
 -1      1291 4.98785E+00 1.51592E+00 0.00000E+00
 -1      1292 5.03840E+00 9.12208E-01 0.00000E+00
 -1      1293 5.06381E+00 3.04513E-01 0.00000E+00
 -1      1294 5.06381E+00-3.04513E-01 0.00000E+00
 -1      1295 5.03840E+00-9.12208E-01 0.00000E+00
 -1      1296 4.98785E+00-1.51592E+00 0.00000E+00
 -1      1297 4.91272E+00-2.11305E+00 0.00000E+00
 -1      1298 4.81383E+00-2.70106E+00 0.00000E+00
 -1      1299 4.69227E+00-3.27751E+00 0.00000E+00
 -1      1300 4.54937E+00-3.84010E+00 0.00000E+00
 -1      1301 4.90087E+00 4.15520E+00 0.00000E+00
 -1      1302 5.02922E+00 3.54126E+00 0.00000E+00
 -1      1303 5.13840E+00 2.91487E+00 0.00000E+00
 -1      1304 5.22721E+00 2.27810E+00 0.00000E+00
 -1      1305 5.29469E+00 1.63314E+00 0.00000E+00
 -1      1306 5.34009E+00 9.82271E-01 0.00000E+00
 -1      1307 5.36291E+00 3.27822E-01 0.00000E+00
 -1      1308 5.36291E+00-3.27822E-01 0.00000E+00
 -1      1309 5.34009E+00-9.82271E-01 0.00000E+00
 -1      1310 5.29469E+00-1.63314E+00 0.00000E+00
 -1      1311 5.22721E+00-2.27810E+00 0.00000E+00
 -1      1312 5.13840E+00-2.91487E+00 0.00000E+00
 -1      1313 5.02922E+00-3.54126E+00 0.00000E+00
 -1      1314 4.90087E+00-4.15520E+00 0.00000E+00
 -1      1315 5.29143E+00 4.50531E+00 0.00000E+00
 -1      1316 5.40360E+00 3.83431E+00 0.00000E+00
 -1      1317 5.49902E+00 3.15244E+00 0.00000E+00
 -1      1318 5.57664E+00 2.46149E+00 0.00000E+00
 -1      1319 5.63562E+00 1.76339E+00 0.00000E+00
 -1      1320 5.67529E+00 1.06012E+00 0.00000E+00
 -1      1321 5.69524E+00 3.53721E-01 0.00000E+00
 -1      1322 5.69524E+00-3.53721E-01 0.00000E+00
 -1      1323 5.67529E+00-1.06012E+00 0.00000E+00
 -1      1324 5.63562E+00-1.76339E+00 0.00000E+00
 -1      1325 5.57664E+00-2.46149E+00 0.00000E+00
 -1      1326 5.49902E+00-3.15244E+00 0.00000E+00
 -1      1327 5.40360E+00-3.83431E+00 0.00000E+00
 -1      1328 5.29143E+00-4.50531E+00 0.00000E+00
 -1      1329 5.72539E+00 4.89432E+00 0.00000E+00
 -1      1330 5.81959E+00 4.15993E+00 0.00000E+00
 -1      1331 5.89972E+00 3.41640E+00 0.00000E+00
 -1      1332 5.96490E+00 2.66526E+00 0.00000E+00
 -1      1333 6.01443E+00 1.90811E+00 0.00000E+00
 -1      1334 6.04775E+00 1.14662E+00 0.00000E+00
 -1      1335 6.06450E+00 3.82498E-01 0.00000E+00
 -1      1336 6.06450E+00-3.82498E-01 0.00000E+00
 -1      1337 6.04775E+00-1.14662E+00 0.00000E+00
 -1      1338 6.01443E+00-1.90811E+00 0.00000E+00
 -1      1339 5.96490E+00-2.66526E+00 0.00000E+00
 -1      1340 5.89972E+00-3.41640E+00 0.00000E+00
 -1      1341 5.81959E+00-4.15993E+00 0.00000E+00
 -1      1342 5.72539E+00-4.89432E+00 0.00000E+00
 -1      1343 6.20756E+00 5.32655E+00 0.00000E+00
 -1      1344 6.28179E+00 4.52172E+00 0.00000E+00
 -1      1345 6.34494E+00 3.70970E+00 0.00000E+00
 -1      1346 6.39630E+00 2.89167E+00 0.00000E+00
 -1      1347 6.43533E+00 2.06891E+00 0.00000E+00
 -1      1348 6.46159E+00 1.24272E+00 0.00000E+00
 -1      1349 6.47479E+00 4.14472E-01 0.00000E+00
 -1      1350 6.47479E+00-4.14472E-01 0.00000E+00
 -1      1351 6.46159E+00-1.24272E+00 0.00000E+00
 -1      1352 6.43533E+00-2.06891E+00 0.00000E+00
 -1      1353 6.39630E+00-2.89167E+00 0.00000E+00
 -1      1354 6.34494E+00-3.70970E+00 0.00000E+00
 -1      1355 6.28179E+00-4.52172E+00 0.00000E+00
 -1      1356 6.20756E+00-5.32655E+00 0.00000E+00
 -1      1357 6.74331E+00 5.80680E+00 0.00000E+00
 -1      1358 6.79535E+00 4.92372E+00 0.00000E+00
 -1      1359 6.83962E+00 4.03558E+00 0.00000E+00
 -1      1360 6.87564E+00 3.14324E+00 0.00000E+00
 -1      1361 6.90300E+00 2.24757E+00 0.00000E+00
 -1      1362 6.92141E+00 1.34951E+00 0.00000E+00
 -1      1363 6.93066E+00 4.49999E-01 0.00000E+00
 -1      1364 6.93066E+00-4.49999E-01 0.00000E+00
 -1      1365 6.92141E+00-1.34951E+00 0.00000E+00
 -1      1366 6.90300E+00-2.24757E+00 0.00000E+00
 -1      1367 6.87564E+00-3.14324E+00 0.00000E+00
 -1      1368 6.83962E+00-4.03558E+00 0.00000E+00
 -1      1369 6.79535E+00-4.92372E+00 0.00000E+00
 -1      1370 6.74331E+00-5.80680E+00 0.00000E+00
 -1      1371 7.33858E+00 6.34042E+00 0.00000E+00
 -1      1372 7.36597E+00 5.37038E+00 0.00000E+00
 -1      1373 7.38928E+00 4.39767E+00 0.00000E+00
 -1      1374 7.40823E+00 3.42276E+00 0.00000E+00
 -1      1375 7.42263E+00 2.44609E+00 0.00000E+00
 -1      1376 7.43232E+00 1.46816E+00 0.00000E+00
 -1      1377 7.43719E+00 4.89473E-01 0.00000E+00
 -1      1378 7.43719E+00-4.89473E-01 0.00000E+00
 -1      1379 7.43232E+00-1.46816E+00 0.00000E+00
 -1      1380 7.42263E+00-2.44609E+00 0.00000E+00
 -1      1381 7.40823E+00-3.42276E+00 0.00000E+00
 -1      1382 7.38928E+00-4.39767E+00 0.00000E+00
 -1      1383 7.36597E+00-5.37038E+00 0.00000E+00
 -1      1384 7.33858E+00-6.34042E+00 0.00000E+00
 -1      1385 2.82328E+00 2.29280E+00 0.00000E+00
 -1      1386 2.77869E+00 2.50953E+00 0.00000E+00
 -1      1387 3.03767E+00 1.98236E+00 0.00000E+00
 -1      1388 3.00457E+00 2.19987E+00 0.00000E+00
 -1      1389 3.22004E+00 1.65112E+00 0.00000E+00
 -1      1390 3.20005E+00 1.86813E+00 0.00000E+00
 -1      1391 3.36839E+00 1.30255E+00 0.00000E+00
 -1      1392 3.36299E+00 1.51760E+00 0.00000E+00
 -1      1393 3.48111E+00 9.40294E-01 0.00000E+00
 -1      1394 3.49162E+00 1.15180E+00 0.00000E+00
 -1      1395 3.55694E+00 5.68159E-01 0.00000E+00
 -1      1396 3.58451E+00 7.74382E-01 0.00000E+00
 -1      1397 3.59506E+00 1.90052E-01 0.00000E+00
 -1      1398 3.64066E+00 3.89154E-01 0.00000E+00
 -1      1399 3.59506E+00-1.90052E-01 0.00000E+00
 -1      1400 3.65944E+00-6.74261E-09 0.00000E+00
 -1      1401 3.55694E+00-5.68159E-01 0.00000E+00
 -1      1402 3.64066E+00-3.89154E-01 0.00000E+00
 -1      1403 3.48111E+00-9.40294E-01 0.00000E+00
 -1      1404 3.58451E+00-7.74382E-01 0.00000E+00
 -1      1405 3.36839E+00-1.30255E+00 0.00000E+00
 -1      1406 3.49162E+00-1.15180E+00 0.00000E+00
 -1      1407 3.22004E+00-1.65112E+00 0.00000E+00
 -1      1408 3.36299E+00-1.51760E+00 0.00000E+00
 -1      1409 3.03767E+00-1.98236E+00 0.00000E+00
 -1      1410 3.20005E+00-1.86813E+00 0.00000E+00
 -1      1411 2.82328E+00-2.29280E+00 0.00000E+00
 -1      1412 3.00457E+00-2.19987E+00 0.00000E+00
 -1      1413 2.77869E+00-2.50953E+00 0.00000E+00
 -1      1414 2.98300E+00 2.43598E+00 0.00000E+00
 -1      1415 2.95078E+00 2.67291E+00 0.00000E+00
 -1      1416 3.19077E+00 2.10220E+00 0.00000E+00
 -1      1417 3.16921E+00 2.33830E+00 0.00000E+00
 -1      1418 3.36752E+00 1.74827E+00 0.00000E+00
 -1      1419 3.35824E+00 1.98234E+00 0.00000E+00
 -1      1420 3.51129E+00 1.37754E+00 0.00000E+00
 -1      1421 3.51582E+00 1.60821E+00 0.00000E+00
 -1      1422 3.62053E+00 9.93557E-01 0.00000E+00
 -1      1423 3.64020E+00 1.21930E+00 0.00000E+00
 -1      1424 3.69402E+00 5.99995E-01 0.00000E+00
 -1      1425 3.73004E+00 8.19171E-01 0.00000E+00
 -1      1426 3.73097E+00 2.00644E-01 0.00000E+00
 -1      1427 3.78433E+00 4.11484E-01 0.00000E+00
 -1      1428 3.73097E+00-2.00644E-01 0.00000E+00
 -1      1429 3.80250E+00-6.51970E-09 0.00000E+00
 -1      1430 3.69402E+00-5.99995E-01 0.00000E+00
 -1      1431 3.78433E+00-4.11484E-01 0.00000E+00
 -1      1432 3.62053E+00-9.93558E-01 0.00000E+00
 -1      1433 3.73004E+00-8.19171E-01 0.00000E+00
 -1      1434 3.51129E+00-1.37754E+00 0.00000E+00
 -1      1435 3.64020E+00-1.21930E+00 0.00000E+00
 -1      1436 3.36752E+00-1.74827E+00 0.00000E+00
 -1      1437 3.51582E+00-1.60821E+00 0.00000E+00
 -1      1438 3.19077E+00-2.10220E+00 0.00000E+00
 -1      1439 3.35824E+00-1.98234E+00 0.00000E+00
 -1      1440 2.98300E+00-2.43598E+00 0.00000E+00
 -1      1441 3.16921E+00-2.33830E+00 0.00000E+00
 -1      1442 2.95078E+00-2.67291E+00 0.00000E+00
 -1      1443 3.16046E+00 2.59506E+00 0.00000E+00
 -1      1444 3.14198E+00 2.85445E+00 0.00000E+00
 -1      1445 3.36089E+00 2.23536E+00 0.00000E+00
 -1      1446 3.35214E+00 2.49211E+00 0.00000E+00
 -1      1447 3.53138E+00 1.85622E+00 0.00000E+00
 -1      1448 3.53402E+00 2.10924E+00 0.00000E+00
 -1      1449 3.67007E+00 1.46087E+00 0.00000E+00
 -1      1450 3.68563E+00 1.70888E+00 0.00000E+00
 -1      1451 3.77544E+00 1.05274E+00 0.00000E+00
 -1      1452 3.80530E+00 1.29431E+00 0.00000E+00
 -1      1453 3.84633E+00 6.35367E-01 0.00000E+00
 -1      1454 3.89174E+00 8.68936E-01 0.00000E+00
 -1      1455 3.88198E+00 2.12412E-01 0.00000E+00
 -1      1456 3.94398E+00 4.36295E-01 0.00000E+00
 -1      1457 3.88198E+00-2.12412E-01 0.00000E+00
 -1      1458 3.96145E+00-6.27202E-09 0.00000E+00
 -1      1459 3.84633E+00-6.35367E-01 0.00000E+00
 -1      1460 3.94398E+00-4.36295E-01 0.00000E+00
 -1      1461 3.77544E+00-1.05274E+00 0.00000E+00
 -1      1462 3.89174E+00-8.68936E-01 0.00000E+00
 -1      1463 3.67007E+00-1.46087E+00 0.00000E+00
 -1      1464 3.80530E+00-1.29431E+00 0.00000E+00
 -1      1465 3.53138E+00-1.85622E+00 0.00000E+00
 -1      1466 3.68563E+00-1.70888E+00 0.00000E+00
 -1      1467 3.36089E+00-2.23536E+00 0.00000E+00
 -1      1468 3.53402E+00-2.10924E+00 0.00000E+00
 -1      1469 3.16046E+00-2.59506E+00 0.00000E+00
 -1      1470 3.35214E+00-2.49211E+00 0.00000E+00
 -1      1471 3.14198E+00-2.85445E+00 0.00000E+00
 -1      1472 3.35764E+00 2.77182E+00 0.00000E+00
 -1      1473 3.35444E+00 3.05615E+00 0.00000E+00
 -1      1474 3.54990E+00 2.38331E+00 0.00000E+00
 -1      1475 3.55540E+00 2.66302E+00 0.00000E+00
 -1      1476 3.71345E+00 1.97616E+00 0.00000E+00
 -1      1477 3.72933E+00 2.25023E+00 0.00000E+00
 -1      1478 3.84649E+00 1.55346E+00 0.00000E+00
 -1      1479 3.87431E+00 1.82074E+00 0.00000E+00
 -1      1480 3.94756E+00 1.11850E+00 0.00000E+00
 -1      1481 3.98875E+00 1.37765E+00 0.00000E+00
 -1      1482 4.01557E+00 6.74670E-01 0.00000E+00
 -1      1483 4.07140E+00 9.24231E-01 0.00000E+00
 -1      1484 4.04976E+00 2.25487E-01 0.00000E+00
 -1      1485 4.12136E+00 4.63863E-01 0.00000E+00
 -1      1486 4.04976E+00-2.25487E-01 0.00000E+00
 -1      1487 4.13807E+00-5.99683E-09 0.00000E+00
 -1      1488 4.01557E+00-6.74670E-01 0.00000E+00
 -1      1489 4.12136E+00-4.63863E-01 0.00000E+00
 -1      1490 3.94756E+00-1.11850E+00 0.00000E+00
 -1      1491 4.07140E+00-9.24231E-01 0.00000E+00
 -1      1492 3.84649E+00-1.55346E+00 0.00000E+00
 -1      1493 3.98875E+00-1.37765E+00 0.00000E+00
 -1      1494 3.71345E+00-1.97616E+00 0.00000E+00
 -1      1495 3.87431E+00-1.82074E+00 0.00000E+00
 -1      1496 3.54990E+00-2.38331E+00 0.00000E+00
 -1      1497 3.72933E+00-2.25023E+00 0.00000E+00
 -1      1498 3.35764E+00-2.77182E+00 0.00000E+00
 -1      1499 3.55540E+00-2.66302E+00 0.00000E+00
 -1      1500 3.35444E+00-3.05615E+00 0.00000E+00
 -1      1501 3.57674E+00 2.96822E+00 0.00000E+00
 -1      1502 3.59050E+00 3.28026E+00 0.00000E+00
 -1      1503 3.75992E+00 2.54771E+00 0.00000E+00
 -1      1504 3.78125E+00 2.85291E+00 0.00000E+00
 -1      1505 3.91575E+00 2.10943E+00 0.00000E+00
 -1      1506 3.94634E+00 2.40690E+00 0.00000E+00
 -1      1507 4.04251E+00 1.65634E+00 0.00000E+00
 -1      1508 4.08395E+00 1.94503E+00 0.00000E+00
 -1      1509 4.13881E+00 1.19156E+00 0.00000E+00
 -1      1510 4.19257E+00 1.47025E+00 0.00000E+00
 -1      1511 4.20361E+00 7.18340E-01 0.00000E+00
 -1      1512 4.27103E+00 9.85670E-01 0.00000E+00
 -1      1513 4.23619E+00 2.40016E-01 0.00000E+00
 -1      1514 4.31844E+00 4.94493E-01 0.00000E+00
 -1      1515 4.23619E+00-2.40016E-01 0.00000E+00
 -1      1516 4.33431E+00-5.69105E-09 0.00000E+00
 -1      1517 4.20361E+00-7.18340E-01 0.00000E+00
 -1      1518 4.31844E+00-4.94493E-01 0.00000E+00
 -1      1519 4.13881E+00-1.19156E+00 0.00000E+00
 -1      1520 4.27103E+00-9.85670E-01 0.00000E+00
 -1      1521 4.04251E+00-1.65634E+00 0.00000E+00
 -1      1522 4.19257E+00-1.47025E+00 0.00000E+00
 -1      1523 3.91575E+00-2.10943E+00 0.00000E+00
 -1      1524 4.08395E+00-1.94503E+00 0.00000E+00
 -1      1525 3.75992E+00-2.54771E+00 0.00000E+00
 -1      1526 3.94634E+00-2.40690E+00 0.00000E+00
 -1      1527 3.57674E+00-2.96822E+00 0.00000E+00
 -1      1528 3.78125E+00-2.85291E+00 0.00000E+00
 -1      1529 3.59050E+00-3.28026E+00 0.00000E+00
 -1      1530 3.82017E+00 3.18644E+00 0.00000E+00
 -1      1531 3.85278E+00 3.52928E+00 0.00000E+00
 -1      1532 3.99327E+00 2.73036E+00 0.00000E+00
 -1      1533 4.03219E+00 3.06389E+00 0.00000E+00
 -1      1534 4.14052E+00 2.25750E+00 0.00000E+00
 -1      1535 4.18746E+00 2.58097E+00 0.00000E+00
 -1      1536 4.26031E+00 1.77065E+00 0.00000E+00
 -1      1537 4.31688E+00 2.08312E+00 0.00000E+00
 -1      1538 4.35132E+00 1.27274E+00 0.00000E+00
 -1      1539 4.41905E+00 1.57314E+00 0.00000E+00
 -1      1540 4.41255E+00 7.66862E-01 0.00000E+00
 -1      1541 4.49283E+00 1.05394E+00 0.00000E+00
 -1      1542 4.44333E+00 2.56159E-01 0.00000E+00
 -1      1543 4.53743E+00 5.28527E-01 0.00000E+00
 -1      1544 4.44333E+00-2.56159E-01 0.00000E+00
 -1      1545 4.55235E+00-5.35131E-09 0.00000E+00
 -1      1546 4.41255E+00-7.66862E-01 0.00000E+00
 -1      1547 4.53743E+00-5.28527E-01 0.00000E+00
 -1      1548 4.35132E+00-1.27274E+00 0.00000E+00
 -1      1549 4.49283E+00-1.05394E+00 0.00000E+00
 -1      1550 4.26031E+00-1.77065E+00 0.00000E+00
 -1      1551 4.41905E+00-1.57314E+00 0.00000E+00
 -1      1552 4.14052E+00-2.25750E+00 0.00000E+00
 -1      1553 4.31688E+00-2.08312E+00 0.00000E+00
 -1      1554 3.99327E+00-2.73036E+00 0.00000E+00
 -1      1555 4.18746E+00-2.58097E+00 0.00000E+00
 -1      1556 3.82017E+00-3.18644E+00 0.00000E+00
 -1      1557 4.03219E+00-3.06389E+00 0.00000E+00
 -1      1558 3.85278E+00-3.52928E+00 0.00000E+00
 -1      1559 4.09065E+00 3.42890E+00 0.00000E+00
 -1      1560 4.14421E+00 3.80597E+00 0.00000E+00
 -1      1561 4.25255E+00 2.93332E+00 0.00000E+00
 -1      1562 4.31101E+00 3.29833E+00 0.00000E+00
 -1      1563 4.39028E+00 2.42203E+00 0.00000E+00
 -1      1564 4.45537E+00 2.77438E+00 0.00000E+00
 -1      1565 4.50231E+00 1.89766E+00 0.00000E+00
 -1      1566 4.57570E+00 2.23656E+00 0.00000E+00
 -1      1567 4.58743E+00 1.36295E+00 0.00000E+00
 -1      1568 4.67069E+00 1.68746E+00 0.00000E+00
 -1      1569 4.64469E+00 8.20776E-01 0.00000E+00
 -1      1570 4.73929E+00 1.12979E+00 0.00000E+00
 -1      1571 4.67349E+00 2.74095E-01 0.00000E+00
 -1      1572 4.78075E+00 5.66343E-01 0.00000E+00
 -1      1573 4.67349E+00-2.74095E-01 0.00000E+00
 -1      1574 4.79462E+00-4.97381E-09 0.00000E+00
 -1      1575 4.64469E+00-8.20776E-01 0.00000E+00
 -1      1576 4.78075E+00-5.66343E-01 0.00000E+00
 -1      1577 4.58743E+00-1.36295E+00 0.00000E+00
 -1      1578 4.73929E+00-1.12979E+00 0.00000E+00
 -1      1579 4.50231E+00-1.89766E+00 0.00000E+00
 -1      1580 4.67069E+00-1.68746E+00 0.00000E+00
 -1      1581 4.39028E+00-2.42203E+00 0.00000E+00
 -1      1582 4.57570E+00-2.23656E+00 0.00000E+00
 -1      1583 4.25255E+00-2.93332E+00 0.00000E+00
 -1      1584 4.45537E+00-2.77438E+00 0.00000E+00
 -1      1585 4.09065E+00-3.42890E+00 0.00000E+00
 -1      1586 4.31101E+00-3.29833E+00 0.00000E+00
 -1      1587 4.14421E+00-3.80597E+00 0.00000E+00
 -1      1588 4.39119E+00 3.69831E+00 0.00000E+00
 -1      1589 4.46802E+00 4.11339E+00 0.00000E+00
 -1      1590 4.54064E+00 3.15882E+00 0.00000E+00
 -1      1591 4.62082E+00 3.55881E+00 0.00000E+00
 -1      1592 4.66778E+00 2.60484E+00 0.00000E+00
 -1      1593 4.75305E+00 2.98928E+00 0.00000E+00
 -1      1594 4.77120E+00 2.03878E+00 0.00000E+00
 -1      1595 4.86328E+00 2.40705E+00 0.00000E+00
 -1      1596 4.84977E+00 1.46317E+00 0.00000E+00
 -1      1597 4.95028E+00 1.81449E+00 0.00000E+00
 -1      1598 4.90264E+00 8.80680E-01 0.00000E+00
 -1      1599 5.01312E+00 1.21406E+00 0.00000E+00
 -1      1600 4.92922E+00 2.94024E-01 0.00000E+00
 -1      1601 5.05110E+00 6.08361E-01 0.00000E+00
 -1      1602 4.92922E+00-2.94024E-01 0.00000E+00
 -1      1603 5.06381E+00-4.55437E-09 0.00000E+00
 -1      1604 4.90264E+00-8.80680E-01 0.00000E+00
 -1      1605 5.05110E+00-6.08361E-01 0.00000E+00
 -1      1606 4.84977E+00-1.46317E+00 0.00000E+00
 -1      1607 5.01312E+00-1.21406E+00 0.00000E+00
 -1      1608 4.77120E+00-2.03878E+00 0.00000E+00
 -1      1609 4.95028E+00-1.81449E+00 0.00000E+00
 -1      1610 4.66778E+00-2.60484E+00 0.00000E+00
 -1      1611 4.86328E+00-2.40705E+00 0.00000E+00
 -1      1612 4.54064E+00-3.15882E+00 0.00000E+00
 -1      1613 4.75305E+00-2.98928E+00 0.00000E+00
 -1      1614 4.39119E+00-3.69831E+00 0.00000E+00
 -1      1615 4.62082E+00-3.55881E+00 0.00000E+00
 -1      1616 4.46802E+00-4.11339E+00 0.00000E+00
 -1      1617 4.72512E+00 3.99765E+00 0.00000E+00
 -1      1618 4.82781E+00 4.45498E+00 0.00000E+00
 -1      1619 4.86074E+00 3.40938E+00 0.00000E+00
 -1      1620 4.96504E+00 3.84823E+00 0.00000E+00
 -1      1621 4.97611E+00 2.80796E+00 0.00000E+00
 -1      1622 5.08381E+00 3.22806E+00 0.00000E+00
 -1      1623 5.06996E+00 2.19558E+00 0.00000E+00
 -1      1624 5.18280E+00 2.59649E+00 0.00000E+00
 -1      1625 5.14127E+00 1.57453E+00 0.00000E+00
 -1      1626 5.26095E+00 1.95562E+00 0.00000E+00
 -1      1627 5.18924E+00 9.47239E-01 0.00000E+00
 -1      1628 5.31739E+00 1.30771E+00 0.00000E+00
 -1      1629 5.21336E+00 3.16168E-01 0.00000E+00
 -1      1630 5.35150E+00 6.55047E-01 0.00000E+00
 -1      1631 5.21336E+00-3.16168E-01 0.00000E+00
 -1      1632 5.36291E+00-4.08832E-09 0.00000E+00
 -1      1633 5.18924E+00-9.47239E-01 0.00000E+00
 -1      1634 5.35150E+00-6.55047E-01 0.00000E+00
 -1      1635 5.14127E+00-1.57453E+00 0.00000E+00
 -1      1636 5.31739E+00-1.30771E+00 0.00000E+00
 -1      1637 5.06996E+00-2.19558E+00 0.00000E+00
 -1      1638 5.26095E+00-1.95562E+00 0.00000E+00
 -1      1639 4.97611E+00-2.80796E+00 0.00000E+00
 -1      1640 5.18280E+00-2.59649E+00 0.00000E+00
 -1      1641 4.86074E+00-3.40938E+00 0.00000E+00
 -1      1642 5.08381E+00-3.22806E+00 0.00000E+00
 -1      1643 4.72512E+00-3.99765E+00 0.00000E+00
 -1      1644 4.96504E+00-3.84823E+00 0.00000E+00
 -1      1645 4.82781E+00-4.45498E+00 0.00000E+00
 -1      1646 5.09615E+00 4.33025E+00 0.00000E+00
 -1      1647 5.22758E+00 4.83452E+00 0.00000E+00
 -1      1648 5.21641E+00 3.68779E+00 0.00000E+00
 -1      1649 5.34752E+00 4.16981E+00 0.00000E+00
 -1      1650 5.31871E+00 3.03365E+00 0.00000E+00
 -1      1651 5.45131E+00 3.49338E+00 0.00000E+00
 -1      1652 5.40193E+00 2.36980E+00 0.00000E+00
 -1      1653 5.53783E+00 2.80697E+00 0.00000E+00
 -1      1654 5.46515E+00 1.69827E+00 0.00000E+00
 -1      1655 5.60613E+00 2.11244E+00 0.00000E+00
 -1      1656 5.50769E+00 1.02119E+00 0.00000E+00
 -1      1657 5.65546E+00 1.41175E+00 0.00000E+00
 -1      1658 5.52908E+00 3.40772E-01 0.00000E+00
 -1      1659 5.68527E+00 7.06920E-01 0.00000E+00
 -1      1660 5.52908E+00-3.40772E-01 0.00000E+00
 -1      1661 5.69524E+00-3.57049E-09 0.00000E+00
 -1      1662 5.50769E+00-1.02119E+00 0.00000E+00
 -1      1663 5.68527E+00-7.06920E-01 0.00000E+00
 -1      1664 5.46515E+00-1.69827E+00 0.00000E+00
 -1      1665 5.65546E+00-1.41175E+00 0.00000E+00
 -1      1666 5.40193E+00-2.36980E+00 0.00000E+00
 -1      1667 5.60613E+00-2.11244E+00 0.00000E+00
 -1      1668 5.31871E+00-3.03365E+00 0.00000E+00
 -1      1669 5.53783E+00-2.80697E+00 0.00000E+00
 -1      1670 5.21641E+00-3.68779E+00 0.00000E+00
 -1      1671 5.45131E+00-3.49338E+00 0.00000E+00
 -1      1672 5.09615E+00-4.33025E+00 0.00000E+00
 -1      1673 5.34752E+00-4.16981E+00 0.00000E+00
 -1      1674 5.22758E+00-4.83452E+00 0.00000E+00
 -1      1675 5.50841E+00 4.69981E+00 0.00000E+00
 -1      1676 5.67177E+00 5.25623E+00 0.00000E+00
 -1      1677 5.61159E+00 3.99712E+00 0.00000E+00
 -1      1678 5.77249E+00 4.52712E+00 0.00000E+00
 -1      1679 5.69937E+00 3.28442E+00 0.00000E+00
 -1      1680 5.85965E+00 3.78817E+00 0.00000E+00
 -1      1681 5.77077E+00 2.56338E+00 0.00000E+00
 -1      1682 5.93231E+00 3.04083E+00 0.00000E+00
 -1      1683 5.82502E+00 1.83575E+00 0.00000E+00
 -1      1684 5.98967E+00 2.28669E+00 0.00000E+00
 -1      1685 5.86152E+00 1.10337E+00 0.00000E+00
 -1      1686 6.03109E+00 1.52736E+00 0.00000E+00
 -1      1687 5.87987E+00 3.68110E-01 0.00000E+00
 -1      1688 6.05613E+00 7.64557E-01 0.00000E+00
 -1      1689 5.87987E+00-3.68110E-01 0.00000E+00
 -1      1690 6.06450E+00-2.99513E-09 0.00000E+00
 -1      1691 5.86152E+00-1.10337E+00 0.00000E+00
 -1      1692 6.05613E+00-7.64557E-01 0.00000E+00
 -1      1693 5.82502E+00-1.83575E+00 0.00000E+00
 -1      1694 6.03109E+00-1.52736E+00 0.00000E+00
 -1      1695 5.77077E+00-2.56338E+00 0.00000E+00
 -1      1696 5.98967E+00-2.28669E+00 0.00000E+00
 -1      1697 5.69937E+00-3.28442E+00 0.00000E+00
 -1      1698 5.93231E+00-3.04083E+00 0.00000E+00
 -1      1699 5.61159E+00-3.99712E+00 0.00000E+00
 -1      1700 5.85965E+00-3.78817E+00 0.00000E+00
 -1      1701 5.50841E+00-4.69981E+00 0.00000E+00
 -1      1702 5.77249E+00-4.52712E+00 0.00000E+00
 -1      1703 5.67177E+00-5.25623E+00 0.00000E+00
 -1      1704 5.96647E+00 5.11043E+00 0.00000E+00
 -1      1705 6.16531E+00 5.72480E+00 0.00000E+00
 -1      1706 6.05069E+00 4.34083E+00 0.00000E+00
 -1      1707 6.24468E+00 4.92414E+00 0.00000E+00
 -1      1708 6.12233E+00 3.56305E+00 0.00000E+00
 -1      1709 6.31336E+00 4.11571E+00 0.00000E+00
 -1      1710 6.18060E+00 2.77847E+00 0.00000E+00
 -1      1711 6.37062E+00 3.30069E+00 0.00000E+00
 -1      1712 6.22488E+00 1.98851E+00 0.00000E+00
 -1      1713 6.41582E+00 2.48029E+00 0.00000E+00
 -1      1714 6.25467E+00 1.19467E+00 0.00000E+00
 -1      1715 6.44846E+00 1.65582E+00 0.00000E+00
 -1      1716 6.26965E+00 3.98485E-01 0.00000E+00
 -1      1717 6.46819E+00 8.28598E-01 0.00000E+00
 -1      1718 6.26965E+00-3.98485E-01 0.00000E+00
 -1      1719 6.47479E+00-2.35583E-09 0.00000E+00
 -1      1720 6.25467E+00-1.19467E+00 0.00000E+00
 -1      1721 6.46819E+00-8.28598E-01 0.00000E+00
 -1      1722 6.22488E+00-1.98851E+00 0.00000E+00
 -1      1723 6.44846E+00-1.65582E+00 0.00000E+00
 -1      1724 6.18060E+00-2.77847E+00 0.00000E+00
 -1      1725 6.41582E+00-2.48029E+00 0.00000E+00
 -1      1726 6.12233E+00-3.56305E+00 0.00000E+00
 -1      1727 6.37062E+00-3.30069E+00 0.00000E+00
 -1      1728 6.05069E+00-4.34083E+00 0.00000E+00
 -1      1729 6.31336E+00-4.11571E+00 0.00000E+00
 -1      1730 5.96647E+00-5.11043E+00 0.00000E+00
 -1      1731 6.24468E+00-4.92414E+00 0.00000E+00
 -1      1732 6.16531E+00-5.72480E+00 0.00000E+00
 -1      1733 6.47543E+00 5.56668E+00 0.00000E+00
 -1      1734 6.71368E+00 6.24543E+00 0.00000E+00
 -1      1735 6.53857E+00 4.72272E+00 0.00000E+00
 -1      1736 6.76933E+00 5.36526E+00 0.00000E+00
 -1      1737 6.59228E+00 3.87264E+00 0.00000E+00
 -1      1738 6.81749E+00 4.47965E+00 0.00000E+00
 -1      1739 6.63597E+00 3.01746E+00 0.00000E+00
 -1      1740 6.85763E+00 3.58941E+00 0.00000E+00
 -1      1741 6.66917E+00 2.15824E+00 0.00000E+00
 -1      1742 6.88932E+00 2.69541E+00 0.00000E+00
 -1      1743 6.69150E+00 1.29612E+00 0.00000E+00
 -1      1744 6.91220E+00 1.79854E+00 0.00000E+00
 -1      1745 6.70273E+00 4.32236E-01 0.00000E+00
 -1      1746 6.92604E+00 8.99755E-01 0.00000E+00
 -1      1747 6.70273E+00-4.32236E-01 0.00000E+00
 -1      1748 6.93066E+00-1.64550E-09 0.00000E+00
 -1      1749 6.69150E+00-1.29612E+00 0.00000E+00
 -1      1750 6.92604E+00-8.99755E-01 0.00000E+00
 -1      1751 6.66917E+00-2.15824E+00 0.00000E+00
 -1      1752 6.91220E+00-1.79854E+00 0.00000E+00
 -1      1753 6.63597E+00-3.01746E+00 0.00000E+00
 -1      1754 6.88932E+00-2.69541E+00 0.00000E+00
 -1      1755 6.59228E+00-3.87264E+00 0.00000E+00
 -1      1756 6.85763E+00-3.58941E+00 0.00000E+00
 -1      1757 6.53857E+00-4.72272E+00 0.00000E+00
 -1      1758 6.81749E+00-4.47965E+00 0.00000E+00
 -1      1759 6.47543E+00-5.56668E+00 0.00000E+00
 -1      1760 6.76933E+00-5.36526E+00 0.00000E+00
 -1      1761 6.71368E+00-6.24543E+00 0.00000E+00
 -1      1762 7.04094E+00 6.07361E+00 0.00000E+00
 -1      1763 7.32299E+00 6.82391E+00 0.00000E+00
 -1      1764 7.08066E+00 5.14705E+00 0.00000E+00
 -1      1765 7.35228E+00 5.85540E+00 0.00000E+00
 -1      1766 7.11445E+00 4.21663E+00 0.00000E+00
 -1      1767 7.37762E+00 4.88403E+00 0.00000E+00
 -1      1768 7.14193E+00 3.28300E+00 0.00000E+00
 -1      1769 7.39875E+00 3.91022E+00 0.00000E+00
 -1      1770 7.16282E+00 2.34683E+00 0.00000E+00
 -1      1771 7.41543E+00 2.93442E+00 0.00000E+00
 -1      1772 7.17686E+00 1.40884E+00 0.00000E+00
 -1      1773 7.42748E+00 1.95713E+00 0.00000E+00
 -1      1774 7.18393E+00 4.69736E-01 0.00000E+00
 -1      1775 7.43476E+00 9.78819E-01 0.00000E+00
 -1      1776 7.18393E+00-4.69736E-01 0.00000E+00
 -1      1777 7.43719E+00-8.56250E-10 0.00000E+00
 -1      1778 7.17686E+00-1.40884E+00 0.00000E+00
 -1      1779 7.43476E+00-9.78819E-01 0.00000E+00
 -1      1780 7.16282E+00-2.34683E+00 0.00000E+00
 -1      1781 7.42748E+00-1.95713E+00 0.00000E+00
 -1      1782 7.14193E+00-3.28300E+00 0.00000E+00
 -1      1783 7.41543E+00-2.93442E+00 0.00000E+00
 -1      1784 7.11445E+00-4.21663E+00 0.00000E+00
 -1      1785 7.39875E+00-3.91022E+00 0.00000E+00
 -1      1786 7.08066E+00-5.14705E+00 0.00000E+00
 -1      1787 7.37762E+00-4.88403E+00 0.00000E+00
 -1      1788 7.04094E+00-6.07361E+00 0.00000E+00
 -1      1789 7.35228E+00-5.85540E+00 0.00000E+00
 -1      1790 7.32299E+00-6.82391E+00 0.00000E+00
 -1      1791 7.66929E+00 6.63688E+00 0.00000E+00
 -1      1792 7.68299E+00 5.61852E+00 0.00000E+00
 -1      1793 7.69464E+00 4.59884E+00 0.00000E+00
 -1      1794 7.70412E+00 3.57805E+00 0.00000E+00
 -1      1795 7.71132E+00 2.55638E+00 0.00000E+00
 -1      1796 7.71616E+00 1.53408E+00 0.00000E+00
 -1      1797 7.71860E+00 5.11403E-01 0.00000E+00
 -1      1798 7.71860E+00-5.11403E-01 0.00000E+00
 -1      1799 7.71616E+00-1.53408E+00 0.00000E+00
 -1      1800 7.71132E+00-2.55638E+00 0.00000E+00
 -1      1801 7.70412E+00-3.57805E+00 0.00000E+00
 -1      1802 7.69464E+00-4.59884E+00 0.00000E+00
 -1      1803 7.68299E+00-5.61852E+00 0.00000E+00
 -1      1804 7.66929E+00-6.63688E+00 0.00000E+00
 -1      1805 2.36062E+00-2.89894E+00 0.00000E+00
 -1      1806 2.03912E+00-3.11019E+00 0.00000E+00
 -1      1807 1.69714E+00-3.28990E+00 0.00000E+00
 -1      1808 1.33807E+00-3.43608E+00 0.00000E+00
 -1      1809 9.65524E-01-3.54715E+00 0.00000E+00
 -1      1810 5.83239E-01-3.62187E+00 0.00000E+00
 -1      1811 1.95069E-01-3.65944E+00 0.00000E+00
 -1      1812-1.95069E-01-3.65944E+00 0.00000E+00
 -1      1813-5.83239E-01-3.62187E+00 0.00000E+00
 -1      1814-9.65524E-01-3.54715E+00 0.00000E+00
 -1      1815-1.33807E+00-3.43608E+00 0.00000E+00
 -1      1816-1.69714E+00-3.28990E+00 0.00000E+00
 -1      1817-2.03912E+00-3.11019E+00 0.00000E+00
 -1      1818-2.36062E+00-2.89894E+00 0.00000E+00
 -1      1819 2.51133E+00-3.06706E+00 0.00000E+00
 -1      1820 2.16527E+00-3.27135E+00 0.00000E+00
 -1      1821 1.79940E+00-3.44514E+00 0.00000E+00
 -1      1822 1.41702E+00-3.58650E+00 0.00000E+00
 -1      1823 1.02159E+00-3.69391E+00 0.00000E+00
 -1      1824 6.16750E-01-3.76617E+00 0.00000E+00
 -1      1825 2.06218E-01-3.80250E+00 0.00000E+00
 -1      1826-2.06218E-01-3.80250E+00 0.00000E+00
 -1      1827-6.16750E-01-3.76617E+00 0.00000E+00
 -1      1828-1.02159E+00-3.69391E+00 0.00000E+00
 -1      1829-1.41702E+00-3.58650E+00 0.00000E+00
 -1      1830-1.79940E+00-3.44514E+00 0.00000E+00
 -1      1831-2.16527E+00-3.27135E+00 0.00000E+00
 -1      1832-2.51133E+00-3.06706E+00 0.00000E+00
 -1      1833 2.67879E+00-3.25386E+00 0.00000E+00
 -1      1834 2.30544E+00-3.45042E+00 0.00000E+00
 -1      1835 1.91303E+00-3.61762E+00 0.00000E+00
 -1      1836 1.50473E+00-3.75364E+00 0.00000E+00
 -1      1837 1.08389E+00-3.85697E+00 0.00000E+00
 -1      1838 6.53984E-01-3.92650E+00 0.00000E+00
 -1      1839 2.18605E-01-3.96145E+00 0.00000E+00
 -1      1840-2.18605E-01-3.96145E+00 0.00000E+00
 -1      1841-6.53984E-01-3.92650E+00 0.00000E+00
 -1      1842-1.08389E+00-3.85697E+00 0.00000E+00
 -1      1843-1.50473E+00-3.75364E+00 0.00000E+00
 -1      1844-1.91303E+00-3.61762E+00 0.00000E+00
 -1      1845-2.30544E+00-3.45042E+00 0.00000E+00
 -1      1846-2.67879E+00-3.25386E+00 0.00000E+00
 -1      1847 2.86485E+00-3.46142E+00 0.00000E+00
 -1      1848 2.46118E+00-3.64938E+00 0.00000E+00
 -1      1849 2.03929E+00-3.80927E+00 0.00000E+00
 -1      1850 1.60219E+00-3.93934E+00 0.00000E+00
 -1      1851 1.15311E+00-4.03816E+00 0.00000E+00
 -1      1852 6.95356E-01-4.10464E+00 0.00000E+00
 -1      1853 2.32369E-01-4.13807E+00 0.00000E+00
 -1      1854-2.32369E-01-4.13807E+00 0.00000E+00
 -1      1855-6.95356E-01-4.10464E+00 0.00000E+00
 -1      1856-1.15311E+00-4.03816E+00 0.00000E+00
 -1      1857-1.60219E+00-3.93934E+00 0.00000E+00
 -1      1858-2.03929E+00-3.80927E+00 0.00000E+00
 -1      1859-2.46118E+00-3.64938E+00 0.00000E+00
 -1      1860-2.86485E+00-3.46142E+00 0.00000E+00
 -1      1861 3.07158E+00-3.69205E+00 0.00000E+00
 -1      1862 2.63423E+00-3.87046E+00 0.00000E+00
 -1      1863 2.17957E+00-4.02222E+00 0.00000E+00
 -1      1864 1.71049E+00-4.14568E+00 0.00000E+00
 -1      1865 1.23002E+00-4.23947E+00 0.00000E+00
 -1      1866 7.41324E-01-4.30258E+00 0.00000E+00
 -1      1867 2.47662E-01-4.33431E+00 0.00000E+00
 -1      1868-2.47662E-01-4.33431E+00 0.00000E+00
 -1      1869-7.41324E-01-4.30258E+00 0.00000E+00
 -1      1870-1.23002E+00-4.23947E+00 0.00000E+00
 -1      1871-1.71049E+00-4.14568E+00 0.00000E+00
 -1      1872-2.17957E+00-4.02222E+00 0.00000E+00
 -1      1873-2.63423E+00-3.87046E+00 0.00000E+00
 -1      1874-3.07158E+00-3.69205E+00 0.00000E+00
 -1      1875 3.30129E+00-3.94829E+00 0.00000E+00
 -1      1876 2.82650E+00-4.11609E+00 0.00000E+00
 -1      1877 2.33544E+00-4.25883E+00 0.00000E+00
 -1      1878 1.83081E+00-4.37494E+00 0.00000E+00
 -1      1879 1.31547E+00-4.46316E+00 0.00000E+00
 -1      1880 7.92400E-01-4.52251E+00 0.00000E+00
 -1      1881 2.64655E-01-4.55235E+00 0.00000E+00
 -1      1882-2.64655E-01-4.55235E+00 0.00000E+00
 -1      1883-7.92400E-01-4.52251E+00 0.00000E+00
 -1      1884-1.31547E+00-4.46316E+00 0.00000E+00
 -1      1885-1.83081E+00-4.37494E+00 0.00000E+00
 -1      1886-2.33544E+00-4.25883E+00 0.00000E+00
 -1      1887-2.82650E+00-4.11609E+00 0.00000E+00
 -1      1888-3.30129E+00-3.94829E+00 0.00000E+00
 -1      1889 3.55652E+00-4.23301E+00 0.00000E+00
 -1      1890 3.04014E+00-4.38902E+00 0.00000E+00
 -1      1891 2.50863E+00-4.52172E+00 0.00000E+00
 -1      1892 1.96450E+00-4.62968E+00 0.00000E+00
 -1      1893 1.41042E+00-4.71170E+00 0.00000E+00
 -1      1894 8.49151E-01-4.76688E+00 0.00000E+00
 -1      1895 2.83535E-01-4.79462E+00 0.00000E+00
 -1      1896-2.83535E-01-4.79462E+00 0.00000E+00
 -1      1897-8.49151E-01-4.76688E+00 0.00000E+00
 -1      1898-1.41042E+00-4.71170E+00 0.00000E+00
 -1      1899-1.96450E+00-4.62968E+00 0.00000E+00
 -1      1900-2.50863E+00-4.52172E+00 0.00000E+00
 -1      1901-3.04014E+00-4.38902E+00 0.00000E+00
 -1      1902-3.55652E+00-4.23301E+00 0.00000E+00
 -1      1903 3.84010E+00-4.54937E+00 0.00000E+00
 -1      1904 3.27751E+00-4.69227E+00 0.00000E+00
 -1      1905 2.70106E+00-4.81383E+00 0.00000E+00
 -1      1906 2.11305E+00-4.91272E+00 0.00000E+00
 -1      1907 1.51592E+00-4.98785E+00 0.00000E+00
 -1      1908 9.12208E-01-5.03840E+00 0.00000E+00
 -1      1909 3.04513E-01-5.06381E+00 0.00000E+00
 -1      1910-3.04513E-01-5.06381E+00 0.00000E+00
 -1      1911-9.12208E-01-5.03840E+00 0.00000E+00
 -1      1912-1.51592E+00-4.98785E+00 0.00000E+00
 -1      1913-2.11305E+00-4.91272E+00 0.00000E+00
 -1      1914-2.70106E+00-4.81383E+00 0.00000E+00
 -1      1915-3.27751E+00-4.69227E+00 0.00000E+00
 -1      1916-3.84010E+00-4.54937E+00 0.00000E+00
 -1      1917 4.15520E+00-4.90087E+00 0.00000E+00
 -1      1918 3.54126E+00-5.02922E+00 0.00000E+00
 -1      1919 2.91487E+00-5.13840E+00 0.00000E+00
 -1      1920 2.27810E+00-5.22721E+00 0.00000E+00
 -1      1921 1.63314E+00-5.29469E+00 0.00000E+00
 -1      1922 9.82271E-01-5.34009E+00 0.00000E+00
 -1      1923 3.27822E-01-5.36291E+00 0.00000E+00
 -1      1924-3.27822E-01-5.36291E+00 0.00000E+00
 -1      1925-9.82271E-01-5.34009E+00 0.00000E+00
 -1      1926-1.63314E+00-5.29469E+00 0.00000E+00
 -1      1927-2.27810E+00-5.22721E+00 0.00000E+00
 -1      1928-2.91487E+00-5.13840E+00 0.00000E+00
 -1      1929-3.54126E+00-5.02922E+00 0.00000E+00
 -1      1930-4.15520E+00-4.90087E+00 0.00000E+00
 -1      1931 4.50531E+00-5.29143E+00 0.00000E+00
 -1      1932 3.83431E+00-5.40360E+00 0.00000E+00
 -1      1933 3.15244E+00-5.49902E+00 0.00000E+00
 -1      1934 2.46149E+00-5.57664E+00 0.00000E+00
 -1      1935 1.76339E+00-5.63562E+00 0.00000E+00
 -1      1936 1.06012E+00-5.67529E+00 0.00000E+00
 -1      1937 3.53721E-01-5.69524E+00 0.00000E+00
 -1      1938-3.53721E-01-5.69524E+00 0.00000E+00
 -1      1939-1.06012E+00-5.67529E+00 0.00000E+00
 -1      1940-1.76339E+00-5.63562E+00 0.00000E+00
 -1      1941-2.46149E+00-5.57664E+00 0.00000E+00
 -1      1942-3.15244E+00-5.49902E+00 0.00000E+00
 -1      1943-3.83431E+00-5.40360E+00 0.00000E+00
 -1      1944-4.50531E+00-5.29143E+00 0.00000E+00
 -1      1945 4.89432E+00-5.72539E+00 0.00000E+00
 -1      1946 4.15993E+00-5.81959E+00 0.00000E+00
 -1      1947 3.41640E+00-5.89972E+00 0.00000E+00
 -1      1948 2.66526E+00-5.96490E+00 0.00000E+00
 -1      1949 1.90811E+00-6.01443E+00 0.00000E+00
 -1      1950 1.14662E+00-6.04775E+00 0.00000E+00
 -1      1951 3.82498E-01-6.06450E+00 0.00000E+00
 -1      1952-3.82498E-01-6.06450E+00 0.00000E+00
 -1      1953-1.14662E+00-6.04775E+00 0.00000E+00
 -1      1954-1.90811E+00-6.01443E+00 0.00000E+00
 -1      1955-2.66526E+00-5.96490E+00 0.00000E+00
 -1      1956-3.41640E+00-5.89972E+00 0.00000E+00
 -1      1957-4.15993E+00-5.81959E+00 0.00000E+00
 -1      1958-4.89432E+00-5.72539E+00 0.00000E+00
 -1      1959 5.32655E+00-6.20756E+00 0.00000E+00
 -1      1960 4.52172E+00-6.28179E+00 0.00000E+00
 -1      1961 3.70970E+00-6.34494E+00 0.00000E+00
 -1      1962 2.89167E+00-6.39630E+00 0.00000E+00
 -1      1963 2.06891E+00-6.43533E+00 0.00000E+00
 -1      1964 1.24272E+00-6.46159E+00 0.00000E+00
 -1      1965 4.14472E-01-6.47479E+00 0.00000E+00
 -1      1966-4.14472E-01-6.47479E+00 0.00000E+00
 -1      1967-1.24272E+00-6.46159E+00 0.00000E+00
 -1      1968-2.06891E+00-6.43533E+00 0.00000E+00
 -1      1969-2.89167E+00-6.39630E+00 0.00000E+00
 -1      1970-3.70970E+00-6.34494E+00 0.00000E+00
 -1      1971-4.52172E+00-6.28179E+00 0.00000E+00
 -1      1972-5.32655E+00-6.20756E+00 0.00000E+00
 -1      1973 5.80680E+00-6.74331E+00 0.00000E+00
 -1      1974 4.92372E+00-6.79535E+00 0.00000E+00
 -1      1975 4.03558E+00-6.83962E+00 0.00000E+00
 -1      1976 3.14324E+00-6.87564E+00 0.00000E+00
 -1      1977 2.24757E+00-6.90300E+00 0.00000E+00
 -1      1978 1.34951E+00-6.92141E+00 0.00000E+00
 -1      1979 4.49999E-01-6.93066E+00 0.00000E+00
 -1      1980-4.49999E-01-6.93066E+00 0.00000E+00
 -1      1981-1.34951E+00-6.92141E+00 0.00000E+00
 -1      1982-2.24757E+00-6.90300E+00 0.00000E+00
 -1      1983-3.14324E+00-6.87564E+00 0.00000E+00
 -1      1984-4.03558E+00-6.83962E+00 0.00000E+00
 -1      1985-4.92372E+00-6.79535E+00 0.00000E+00
 -1      1986-5.80680E+00-6.74331E+00 0.00000E+00
 -1      1987 6.34042E+00-7.33858E+00 0.00000E+00
 -1      1988 5.37038E+00-7.36597E+00 0.00000E+00
 -1      1989 4.39767E+00-7.38928E+00 0.00000E+00
 -1      1990 3.42276E+00-7.40823E+00 0.00000E+00
 -1      1991 2.44609E+00-7.42263E+00 0.00000E+00
 -1      1992 1.46816E+00-7.43232E+00 0.00000E+00
 -1      1993 4.89473E-01-7.43719E+00 0.00000E+00
 -1      1994-4.89473E-01-7.43719E+00 0.00000E+00
 -1      1995-1.46816E+00-7.43232E+00 0.00000E+00
 -1      1996-2.44609E+00-7.42263E+00 0.00000E+00
 -1      1997-3.42276E+00-7.40823E+00 0.00000E+00
 -1      1998-4.39767E+00-7.38928E+00 0.00000E+00
 -1      1999-5.37038E+00-7.36597E+00 0.00000E+00
 -1      2000-6.34042E+00-7.33858E+00 0.00000E+00
 -1      2001 2.29280E+00-2.82328E+00 0.00000E+00
 -1      2002 2.50953E+00-2.77869E+00 0.00000E+00
 -1      2003 1.98236E+00-3.03767E+00 0.00000E+00
 -1      2004 2.19987E+00-3.00457E+00 0.00000E+00
 -1      2005 1.65112E+00-3.22004E+00 0.00000E+00
 -1      2006 1.86813E+00-3.20005E+00 0.00000E+00
 -1      2007 1.30255E+00-3.36839E+00 0.00000E+00
 -1      2008 1.51760E+00-3.36299E+00 0.00000E+00
 -1      2009 9.40294E-01-3.48111E+00 0.00000E+00
 -1      2010 1.15180E+00-3.49162E+00 0.00000E+00
 -1      2011 5.68159E-01-3.55694E+00 0.00000E+00
 -1      2012 7.74382E-01-3.58451E+00 0.00000E+00
 -1      2013 1.90052E-01-3.59506E+00 0.00000E+00
 -1      2014 3.89154E-01-3.64066E+00 0.00000E+00
 -1      2015-1.90052E-01-3.59506E+00 0.00000E+00
 -1      2016-6.74261E-09-3.65944E+00 0.00000E+00
 -1      2017-5.68159E-01-3.55694E+00 0.00000E+00
 -1      2018-3.89154E-01-3.64066E+00 0.00000E+00
 -1      2019-9.40294E-01-3.48111E+00 0.00000E+00
 -1      2020-7.74382E-01-3.58451E+00 0.00000E+00
 -1      2021-1.30255E+00-3.36839E+00 0.00000E+00
 -1      2022-1.15180E+00-3.49162E+00 0.00000E+00
 -1      2023-1.65112E+00-3.22004E+00 0.00000E+00
 -1      2024-1.51760E+00-3.36299E+00 0.00000E+00
 -1      2025-1.98236E+00-3.03767E+00 0.00000E+00
 -1      2026-1.86813E+00-3.20005E+00 0.00000E+00
 -1      2027-2.29280E+00-2.82328E+00 0.00000E+00
 -1      2028-2.19987E+00-3.00457E+00 0.00000E+00
 -1      2029-2.50953E+00-2.77869E+00 0.00000E+00
 -1      2030 2.43598E+00-2.98300E+00 0.00000E+00
 -1      2031 2.67291E+00-2.95078E+00 0.00000E+00
 -1      2032 2.10220E+00-3.19077E+00 0.00000E+00
 -1      2033 2.33830E+00-3.16921E+00 0.00000E+00
 -1      2034 1.74827E+00-3.36752E+00 0.00000E+00
 -1      2035 1.98234E+00-3.35824E+00 0.00000E+00
 -1      2036 1.37754E+00-3.51129E+00 0.00000E+00
 -1      2037 1.60821E+00-3.51582E+00 0.00000E+00
 -1      2038 9.93557E-01-3.62053E+00 0.00000E+00
 -1      2039 1.21930E+00-3.64020E+00 0.00000E+00
 -1      2040 5.99995E-01-3.69402E+00 0.00000E+00
 -1      2041 8.19171E-01-3.73004E+00 0.00000E+00
 -1      2042 2.00644E-01-3.73097E+00 0.00000E+00
 -1      2043 4.11484E-01-3.78433E+00 0.00000E+00
 -1      2044-2.00644E-01-3.73097E+00 0.00000E+00
 -1      2045-6.51970E-09-3.80250E+00 0.00000E+00
 -1      2046-5.99995E-01-3.69402E+00 0.00000E+00
 -1      2047-4.11484E-01-3.78433E+00 0.00000E+00
 -1      2048-9.93558E-01-3.62053E+00 0.00000E+00
 -1      2049-8.19171E-01-3.73004E+00 0.00000E+00
 -1      2050-1.37754E+00-3.51129E+00 0.00000E+00
 -1      2051-1.21930E+00-3.64020E+00 0.00000E+00
 -1      2052-1.74827E+00-3.36752E+00 0.00000E+00
 -1      2053-1.60821E+00-3.51582E+00 0.00000E+00
 -1      2054-2.10220E+00-3.19077E+00 0.00000E+00
 -1      2055-1.98234E+00-3.35824E+00 0.00000E+00
 -1      2056-2.43598E+00-2.98300E+00 0.00000E+00
 -1      2057-2.33830E+00-3.16921E+00 0.00000E+00
 -1      2058-2.67291E+00-2.95078E+00 0.00000E+00
 -1      2059 2.59506E+00-3.16046E+00 0.00000E+00
 -1      2060 2.85445E+00-3.14198E+00 0.00000E+00
 -1      2061 2.23536E+00-3.36089E+00 0.00000E+00
 -1      2062 2.49211E+00-3.35214E+00 0.00000E+00
 -1      2063 1.85622E+00-3.53138E+00 0.00000E+00
 -1      2064 2.10924E+00-3.53402E+00 0.00000E+00
 -1      2065 1.46087E+00-3.67007E+00 0.00000E+00
 -1      2066 1.70888E+00-3.68563E+00 0.00000E+00
 -1      2067 1.05274E+00-3.77544E+00 0.00000E+00
 -1      2068 1.29431E+00-3.80530E+00 0.00000E+00
 -1      2069 6.35367E-01-3.84633E+00 0.00000E+00
 -1      2070 8.68936E-01-3.89174E+00 0.00000E+00
 -1      2071 2.12412E-01-3.88198E+00 0.00000E+00
 -1      2072 4.36295E-01-3.94398E+00 0.00000E+00
 -1      2073-2.12412E-01-3.88198E+00 0.00000E+00
 -1      2074-6.27202E-09-3.96145E+00 0.00000E+00
 -1      2075-6.35367E-01-3.84633E+00 0.00000E+00
 -1      2076-4.36295E-01-3.94398E+00 0.00000E+00
 -1      2077-1.05274E+00-3.77544E+00 0.00000E+00
 -1      2078-8.68936E-01-3.89174E+00 0.00000E+00
 -1      2079-1.46087E+00-3.67007E+00 0.00000E+00
 -1      2080-1.29431E+00-3.80530E+00 0.00000E+00
 -1      2081-1.85622E+00-3.53138E+00 0.00000E+00
 -1      2082-1.70888E+00-3.68563E+00 0.00000E+00
 -1      2083-2.23536E+00-3.36089E+00 0.00000E+00
 -1      2084-2.10924E+00-3.53402E+00 0.00000E+00
 -1      2085-2.59506E+00-3.16046E+00 0.00000E+00
 -1      2086-2.49211E+00-3.35214E+00 0.00000E+00
 -1      2087-2.85445E+00-3.14198E+00 0.00000E+00
 -1      2088 2.77182E+00-3.35764E+00 0.00000E+00
 -1      2089 3.05615E+00-3.35444E+00 0.00000E+00
 -1      2090 2.38331E+00-3.54990E+00 0.00000E+00
 -1      2091 2.66302E+00-3.55540E+00 0.00000E+00
 -1      2092 1.97616E+00-3.71345E+00 0.00000E+00
 -1      2093 2.25023E+00-3.72933E+00 0.00000E+00
 -1      2094 1.55346E+00-3.84649E+00 0.00000E+00
 -1      2095 1.82074E+00-3.87431E+00 0.00000E+00
 -1      2096 1.11850E+00-3.94756E+00 0.00000E+00
 -1      2097 1.37765E+00-3.98875E+00 0.00000E+00
 -1      2098 6.74670E-01-4.01557E+00 0.00000E+00
 -1      2099 9.24231E-01-4.07140E+00 0.00000E+00
 -1      2100 2.25487E-01-4.04976E+00 0.00000E+00
 -1      2101 4.63863E-01-4.12136E+00 0.00000E+00
 -1      2102-2.25487E-01-4.04976E+00 0.00000E+00
 -1      2103-5.99683E-09-4.13807E+00 0.00000E+00
 -1      2104-6.74670E-01-4.01557E+00 0.00000E+00
 -1      2105-4.63863E-01-4.12136E+00 0.00000E+00
 -1      2106-1.11850E+00-3.94756E+00 0.00000E+00
 -1      2107-9.24231E-01-4.07140E+00 0.00000E+00
 -1      2108-1.55346E+00-3.84649E+00 0.00000E+00
 -1      2109-1.37765E+00-3.98875E+00 0.00000E+00
 -1      2110-1.97616E+00-3.71345E+00 0.00000E+00
 -1      2111-1.82074E+00-3.87431E+00 0.00000E+00
 -1      2112-2.38331E+00-3.54990E+00 0.00000E+00
 -1      2113-2.25023E+00-3.72933E+00 0.00000E+00
 -1      2114-2.77182E+00-3.35764E+00 0.00000E+00
 -1      2115-2.66302E+00-3.55540E+00 0.00000E+00
 -1      2116-3.05615E+00-3.35444E+00 0.00000E+00
 -1      2117 2.96822E+00-3.57674E+00 0.00000E+00
 -1      2118 3.28026E+00-3.59050E+00 0.00000E+00
 -1      2119 2.54771E+00-3.75992E+00 0.00000E+00
 -1      2120 2.85291E+00-3.78125E+00 0.00000E+00
 -1      2121 2.10943E+00-3.91575E+00 0.00000E+00
 -1      2122 2.40690E+00-3.94634E+00 0.00000E+00
 -1      2123 1.65634E+00-4.04251E+00 0.00000E+00
 -1      2124 1.94503E+00-4.08395E+00 0.00000E+00
 -1      2125 1.19156E+00-4.13881E+00 0.00000E+00
 -1      2126 1.47025E+00-4.19257E+00 0.00000E+00
 -1      2127 7.18340E-01-4.20361E+00 0.00000E+00
 -1      2128 9.85670E-01-4.27103E+00 0.00000E+00
 -1      2129 2.40016E-01-4.23619E+00 0.00000E+00
 -1      2130 4.94493E-01-4.31844E+00 0.00000E+00
 -1      2131-2.40016E-01-4.23619E+00 0.00000E+00
 -1      2132-5.69105E-09-4.33431E+00 0.00000E+00
 -1      2133-7.18340E-01-4.20361E+00 0.00000E+00
 -1      2134-4.94493E-01-4.31844E+00 0.00000E+00
 -1      2135-1.19156E+00-4.13881E+00 0.00000E+00
 -1      2136-9.85670E-01-4.27103E+00 0.00000E+00
 -1      2137-1.65634E+00-4.04251E+00 0.00000E+00
 -1      2138-1.47025E+00-4.19257E+00 0.00000E+00
 -1      2139-2.10943E+00-3.91575E+00 0.00000E+00
 -1      2140-1.94503E+00-4.08395E+00 0.00000E+00
 -1      2141-2.54771E+00-3.75992E+00 0.00000E+00
 -1      2142-2.40690E+00-3.94634E+00 0.00000E+00
 -1      2143-2.96822E+00-3.57674E+00 0.00000E+00
 -1      2144-2.85291E+00-3.78125E+00 0.00000E+00
 -1      2145-3.28026E+00-3.59050E+00 0.00000E+00
 -1      2146 3.18644E+00-3.82017E+00 0.00000E+00
 -1      2147 3.52928E+00-3.85278E+00 0.00000E+00
 -1      2148 2.73036E+00-3.99327E+00 0.00000E+00
 -1      2149 3.06389E+00-4.03219E+00 0.00000E+00
 -1      2150 2.25750E+00-4.14052E+00 0.00000E+00
 -1      2151 2.58097E+00-4.18746E+00 0.00000E+00
 -1      2152 1.77065E+00-4.26031E+00 0.00000E+00
 -1      2153 2.08312E+00-4.31688E+00 0.00000E+00
 -1      2154 1.27274E+00-4.35132E+00 0.00000E+00
 -1      2155 1.57314E+00-4.41905E+00 0.00000E+00
 -1      2156 7.66862E-01-4.41255E+00 0.00000E+00
 -1      2157 1.05394E+00-4.49283E+00 0.00000E+00
 -1      2158 2.56159E-01-4.44333E+00 0.00000E+00
 -1      2159 5.28527E-01-4.53743E+00 0.00000E+00
 -1      2160-2.56159E-01-4.44333E+00 0.00000E+00
 -1      2161-5.35131E-09-4.55235E+00 0.00000E+00
 -1      2162-7.66862E-01-4.41255E+00 0.00000E+00
 -1      2163-5.28527E-01-4.53743E+00 0.00000E+00
 -1      2164-1.27274E+00-4.35132E+00 0.00000E+00
 -1      2165-1.05394E+00-4.49283E+00 0.00000E+00
 -1      2166-1.77065E+00-4.26031E+00 0.00000E+00
 -1      2167-1.57314E+00-4.41905E+00 0.00000E+00
 -1      2168-2.25750E+00-4.14052E+00 0.00000E+00
 -1      2169-2.08312E+00-4.31688E+00 0.00000E+00
 -1      2170-2.73036E+00-3.99327E+00 0.00000E+00
 -1      2171-2.58097E+00-4.18746E+00 0.00000E+00
 -1      2172-3.18644E+00-3.82017E+00 0.00000E+00
 -1      2173-3.06389E+00-4.03219E+00 0.00000E+00
 -1      2174-3.52928E+00-3.85278E+00 0.00000E+00
 -1      2175 3.42890E+00-4.09065E+00 0.00000E+00
 -1      2176 3.80597E+00-4.14421E+00 0.00000E+00
 -1      2177 2.93332E+00-4.25255E+00 0.00000E+00
 -1      2178 3.29833E+00-4.31101E+00 0.00000E+00
 -1      2179 2.42203E+00-4.39028E+00 0.00000E+00
 -1      2180 2.77438E+00-4.45537E+00 0.00000E+00
 -1      2181 1.89766E+00-4.50231E+00 0.00000E+00
 -1      2182 2.23656E+00-4.57570E+00 0.00000E+00
 -1      2183 1.36295E+00-4.58743E+00 0.00000E+00
 -1      2184 1.68746E+00-4.67069E+00 0.00000E+00
 -1      2185 8.20776E-01-4.64469E+00 0.00000E+00
 -1      2186 1.12979E+00-4.73929E+00 0.00000E+00
 -1      2187 2.74095E-01-4.67349E+00 0.00000E+00
 -1      2188 5.66343E-01-4.78075E+00 0.00000E+00
 -1      2189-2.74095E-01-4.67349E+00 0.00000E+00
 -1      2190-4.97381E-09-4.79462E+00 0.00000E+00
 -1      2191-8.20776E-01-4.64469E+00 0.00000E+00
 -1      2192-5.66343E-01-4.78075E+00 0.00000E+00
 -1      2193-1.36295E+00-4.58743E+00 0.00000E+00
 -1      2194-1.12979E+00-4.73929E+00 0.00000E+00
 -1      2195-1.89766E+00-4.50231E+00 0.00000E+00
 -1      2196-1.68746E+00-4.67069E+00 0.00000E+00
 -1      2197-2.42203E+00-4.39028E+00 0.00000E+00
 -1      2198-2.23656E+00-4.57570E+00 0.00000E+00
 -1      2199-2.93332E+00-4.25255E+00 0.00000E+00
 -1      2200-2.77438E+00-4.45537E+00 0.00000E+00
 -1      2201-3.42890E+00-4.09065E+00 0.00000E+00
 -1      2202-3.29833E+00-4.31101E+00 0.00000E+00
 -1      2203-3.80597E+00-4.14421E+00 0.00000E+00
 -1      2204 3.69831E+00-4.39119E+00 0.00000E+00
 -1      2205 4.11339E+00-4.46802E+00 0.00000E+00
 -1      2206 3.15882E+00-4.54064E+00 0.00000E+00
 -1      2207 3.55881E+00-4.62082E+00 0.00000E+00
 -1      2208 2.60484E+00-4.66778E+00 0.00000E+00
 -1      2209 2.98928E+00-4.75305E+00 0.00000E+00
 -1      2210 2.03878E+00-4.77120E+00 0.00000E+00
 -1      2211 2.40705E+00-4.86328E+00 0.00000E+00
 -1      2212 1.46317E+00-4.84977E+00 0.00000E+00
 -1      2213 1.81449E+00-4.95028E+00 0.00000E+00
 -1      2214 8.80680E-01-4.90264E+00 0.00000E+00
 -1      2215 1.21406E+00-5.01312E+00 0.00000E+00
 -1      2216 2.94024E-01-4.92922E+00 0.00000E+00
 -1      2217 6.08361E-01-5.05110E+00 0.00000E+00
 -1      2218-2.94024E-01-4.92922E+00 0.00000E+00
 -1      2219-4.55437E-09-5.06381E+00 0.00000E+00
 -1      2220-8.80680E-01-4.90264E+00 0.00000E+00
 -1      2221-6.08361E-01-5.05110E+00 0.00000E+00
 -1      2222-1.46317E+00-4.84977E+00 0.00000E+00
 -1      2223-1.21406E+00-5.01312E+00 0.00000E+00
 -1      2224-2.03878E+00-4.77120E+00 0.00000E+00
 -1      2225-1.81449E+00-4.95028E+00 0.00000E+00
 -1      2226-2.60484E+00-4.66778E+00 0.00000E+00
 -1      2227-2.40705E+00-4.86328E+00 0.00000E+00
 -1      2228-3.15882E+00-4.54064E+00 0.00000E+00
 -1      2229-2.98928E+00-4.75305E+00 0.00000E+00
 -1      2230-3.69831E+00-4.39119E+00 0.00000E+00
 -1      2231-3.55881E+00-4.62082E+00 0.00000E+00
 -1      2232-4.11339E+00-4.46802E+00 0.00000E+00
 -1      2233 3.99765E+00-4.72512E+00 0.00000E+00
 -1      2234 4.45498E+00-4.82781E+00 0.00000E+00
 -1      2235 3.40938E+00-4.86074E+00 0.00000E+00
 -1      2236 3.84823E+00-4.96504E+00 0.00000E+00
 -1      2237 2.80796E+00-4.97611E+00 0.00000E+00
 -1      2238 3.22806E+00-5.08381E+00 0.00000E+00
 -1      2239 2.19558E+00-5.06996E+00 0.00000E+00
 -1      2240 2.59649E+00-5.18280E+00 0.00000E+00
 -1      2241 1.57453E+00-5.14127E+00 0.00000E+00
 -1      2242 1.95562E+00-5.26095E+00 0.00000E+00
 -1      2243 9.47239E-01-5.18924E+00 0.00000E+00
 -1      2244 1.30771E+00-5.31739E+00 0.00000E+00
 -1      2245 3.16168E-01-5.21336E+00 0.00000E+00
 -1      2246 6.55047E-01-5.35150E+00 0.00000E+00
 -1      2247-3.16168E-01-5.21336E+00 0.00000E+00
 -1      2248-4.08832E-09-5.36291E+00 0.00000E+00
 -1      2249-9.47239E-01-5.18924E+00 0.00000E+00
 -1      2250-6.55047E-01-5.35150E+00 0.00000E+00
 -1      2251-1.57453E+00-5.14127E+00 0.00000E+00
 -1      2252-1.30771E+00-5.31739E+00 0.00000E+00
 -1      2253-2.19558E+00-5.06996E+00 0.00000E+00
 -1      2254-1.95562E+00-5.26095E+00 0.00000E+00
 -1      2255-2.80796E+00-4.97611E+00 0.00000E+00
 -1      2256-2.59649E+00-5.18280E+00 0.00000E+00
 -1      2257-3.40938E+00-4.86074E+00 0.00000E+00
 -1      2258-3.22806E+00-5.08381E+00 0.00000E+00
 -1      2259-3.99765E+00-4.72512E+00 0.00000E+00
 -1      2260-3.84823E+00-4.96504E+00 0.00000E+00
 -1      2261-4.45498E+00-4.82781E+00 0.00000E+00
 -1      2262 4.33025E+00-5.09615E+00 0.00000E+00
 -1      2263 4.83452E+00-5.22758E+00 0.00000E+00
 -1      2264 3.68779E+00-5.21641E+00 0.00000E+00
 -1      2265 4.16981E+00-5.34752E+00 0.00000E+00
 -1      2266 3.03365E+00-5.31871E+00 0.00000E+00
 -1      2267 3.49338E+00-5.45131E+00 0.00000E+00
 -1      2268 2.36980E+00-5.40193E+00 0.00000E+00
 -1      2269 2.80697E+00-5.53783E+00 0.00000E+00
 -1      2270 1.69827E+00-5.46515E+00 0.00000E+00
 -1      2271 2.11244E+00-5.60613E+00 0.00000E+00
 -1      2272 1.02119E+00-5.50769E+00 0.00000E+00
 -1      2273 1.41175E+00-5.65546E+00 0.00000E+00
 -1      2274 3.40772E-01-5.52908E+00 0.00000E+00
 -1      2275 7.06920E-01-5.68527E+00 0.00000E+00
 -1      2276-3.40772E-01-5.52908E+00 0.00000E+00
 -1      2277-3.57049E-09-5.69524E+00 0.00000E+00
 -1      2278-1.02119E+00-5.50769E+00 0.00000E+00
 -1      2279-7.06920E-01-5.68527E+00 0.00000E+00
 -1      2280-1.69827E+00-5.46515E+00 0.00000E+00
 -1      2281-1.41175E+00-5.65546E+00 0.00000E+00
 -1      2282-2.36980E+00-5.40193E+00 0.00000E+00
 -1      2283-2.11244E+00-5.60613E+00 0.00000E+00
 -1      2284-3.03365E+00-5.31871E+00 0.00000E+00
 -1      2285-2.80697E+00-5.53783E+00 0.00000E+00
 -1      2286-3.68779E+00-5.21641E+00 0.00000E+00
 -1      2287-3.49338E+00-5.45131E+00 0.00000E+00
 -1      2288-4.33025E+00-5.09615E+00 0.00000E+00
 -1      2289-4.16981E+00-5.34752E+00 0.00000E+00
 -1      2290-4.83452E+00-5.22758E+00 0.00000E+00
 -1      2291 4.69981E+00-5.50841E+00 0.00000E+00
 -1      2292 5.25623E+00-5.67177E+00 0.00000E+00
 -1      2293 3.99712E+00-5.61159E+00 0.00000E+00
 -1      2294 4.52712E+00-5.77249E+00 0.00000E+00
 -1      2295 3.28442E+00-5.69937E+00 0.00000E+00
 -1      2296 3.78817E+00-5.85965E+00 0.00000E+00
 -1      2297 2.56338E+00-5.77077E+00 0.00000E+00
 -1      2298 3.04083E+00-5.93231E+00 0.00000E+00
 -1      2299 1.83575E+00-5.82502E+00 0.00000E+00
 -1      2300 2.28669E+00-5.98967E+00 0.00000E+00
 -1      2301 1.10337E+00-5.86152E+00 0.00000E+00
 -1      2302 1.52736E+00-6.03109E+00 0.00000E+00
 -1      2303 3.68110E-01-5.87987E+00 0.00000E+00
 -1      2304 7.64557E-01-6.05613E+00 0.00000E+00
 -1      2305-3.68110E-01-5.87987E+00 0.00000E+00
 -1      2306-2.99513E-09-6.06450E+00 0.00000E+00
 -1      2307-1.10337E+00-5.86152E+00 0.00000E+00
 -1      2308-7.64557E-01-6.05613E+00 0.00000E+00
 -1      2309-1.83575E+00-5.82502E+00 0.00000E+00
 -1      2310-1.52736E+00-6.03109E+00 0.00000E+00
 -1      2311-2.56338E+00-5.77077E+00 0.00000E+00
 -1      2312-2.28669E+00-5.98967E+00 0.00000E+00
 -1      2313-3.28442E+00-5.69937E+00 0.00000E+00
 -1      2314-3.04083E+00-5.93231E+00 0.00000E+00
 -1      2315-3.99712E+00-5.61159E+00 0.00000E+00
 -1      2316-3.78817E+00-5.85965E+00 0.00000E+00
 -1      2317-4.69981E+00-5.50841E+00 0.00000E+00
 -1      2318-4.52712E+00-5.77249E+00 0.00000E+00
 -1      2319-5.25623E+00-5.67177E+00 0.00000E+00
 -1      2320 5.11043E+00-5.96647E+00 0.00000E+00
 -1      2321 5.72480E+00-6.16531E+00 0.00000E+00
 -1      2322 4.34083E+00-6.05069E+00 0.00000E+00
 -1      2323 4.92414E+00-6.24468E+00 0.00000E+00
 -1      2324 3.56305E+00-6.12233E+00 0.00000E+00
 -1      2325 4.11571E+00-6.31336E+00 0.00000E+00
 -1      2326 2.77847E+00-6.18060E+00 0.00000E+00
 -1      2327 3.30069E+00-6.37062E+00 0.00000E+00
 -1      2328 1.98851E+00-6.22488E+00 0.00000E+00
 -1      2329 2.48029E+00-6.41582E+00 0.00000E+00
 -1      2330 1.19467E+00-6.25467E+00 0.00000E+00
 -1      2331 1.65582E+00-6.44846E+00 0.00000E+00
 -1      2332 3.98485E-01-6.26965E+00 0.00000E+00
 -1      2333 8.28598E-01-6.46819E+00 0.00000E+00
 -1      2334-3.98485E-01-6.26965E+00 0.00000E+00
 -1      2335-2.35583E-09-6.47479E+00 0.00000E+00
 -1      2336-1.19467E+00-6.25467E+00 0.00000E+00
 -1      2337-8.28598E-01-6.46819E+00 0.00000E+00
 -1      2338-1.98851E+00-6.22488E+00 0.00000E+00
 -1      2339-1.65582E+00-6.44846E+00 0.00000E+00
 -1      2340-2.77847E+00-6.18060E+00 0.00000E+00
 -1      2341-2.48029E+00-6.41582E+00 0.00000E+00
 -1      2342-3.56305E+00-6.12233E+00 0.00000E+00
 -1      2343-3.30069E+00-6.37062E+00 0.00000E+00
 -1      2344-4.34083E+00-6.05069E+00 0.00000E+00
 -1      2345-4.11571E+00-6.31336E+00 0.00000E+00
 -1      2346-5.11043E+00-5.96647E+00 0.00000E+00
 -1      2347-4.92414E+00-6.24468E+00 0.00000E+00
 -1      2348-5.72480E+00-6.16531E+00 0.00000E+00
 -1      2349 5.56668E+00-6.47543E+00 0.00000E+00
 -1      2350 6.24543E+00-6.71368E+00 0.00000E+00
 -1      2351 4.72272E+00-6.53857E+00 0.00000E+00
 -1      2352 5.36526E+00-6.76933E+00 0.00000E+00
 -1      2353 3.87264E+00-6.59228E+00 0.00000E+00
 -1      2354 4.47965E+00-6.81749E+00 0.00000E+00
 -1      2355 3.01746E+00-6.63597E+00 0.00000E+00
 -1      2356 3.58941E+00-6.85763E+00 0.00000E+00
 -1      2357 2.15824E+00-6.66917E+00 0.00000E+00
 -1      2358 2.69541E+00-6.88932E+00 0.00000E+00
 -1      2359 1.29612E+00-6.69150E+00 0.00000E+00
 -1      2360 1.79854E+00-6.91220E+00 0.00000E+00
 -1      2361 4.32236E-01-6.70273E+00 0.00000E+00
 -1      2362 8.99755E-01-6.92604E+00 0.00000E+00
 -1      2363-4.32236E-01-6.70273E+00 0.00000E+00
 -1      2364-1.64550E-09-6.93066E+00 0.00000E+00
 -1      2365-1.29612E+00-6.69150E+00 0.00000E+00
 -1      2366-8.99755E-01-6.92604E+00 0.00000E+00
 -1      2367-2.15824E+00-6.66917E+00 0.00000E+00
 -1      2368-1.79854E+00-6.91220E+00 0.00000E+00
 -1      2369-3.01746E+00-6.63597E+00 0.00000E+00
 -1      2370-2.69541E+00-6.88932E+00 0.00000E+00
 -1      2371-3.87264E+00-6.59228E+00 0.00000E+00
 -1      2372-3.58941E+00-6.85763E+00 0.00000E+00
 -1      2373-4.72272E+00-6.53857E+00 0.00000E+00
 -1      2374-4.47965E+00-6.81749E+00 0.00000E+00
 -1      2375-5.56668E+00-6.47543E+00 0.00000E+00
 -1      2376-5.36526E+00-6.76933E+00 0.00000E+00
 -1      2377-6.24543E+00-6.71368E+00 0.00000E+00
 -1      2378 6.07361E+00-7.04094E+00 0.00000E+00
 -1      2379 6.82391E+00-7.32299E+00 0.00000E+00
 -1      2380 5.14705E+00-7.08066E+00 0.00000E+00
 -1      2381 5.85540E+00-7.35228E+00 0.00000E+00
 -1      2382 4.21663E+00-7.11445E+00 0.00000E+00
 -1      2383 4.88403E+00-7.37762E+00 0.00000E+00
 -1      2384 3.28300E+00-7.14193E+00 0.00000E+00
 -1      2385 3.91022E+00-7.39875E+00 0.00000E+00
 -1      2386 2.34683E+00-7.16282E+00 0.00000E+00
 -1      2387 2.93442E+00-7.41543E+00 0.00000E+00
 -1      2388 1.40884E+00-7.17686E+00 0.00000E+00
 -1      2389 1.95713E+00-7.42748E+00 0.00000E+00
 -1      2390 4.69736E-01-7.18393E+00 0.00000E+00
 -1      2391 9.78819E-01-7.43476E+00 0.00000E+00
 -1      2392-4.69736E-01-7.18393E+00 0.00000E+00
 -1      2393-8.56250E-10-7.43719E+00 0.00000E+00
 -1      2394-1.40884E+00-7.17686E+00 0.00000E+00
 -1      2395-9.78819E-01-7.43476E+00 0.00000E+00
 -1      2396-2.34683E+00-7.16282E+00 0.00000E+00
 -1      2397-1.95713E+00-7.42748E+00 0.00000E+00
 -1      2398-3.28300E+00-7.14193E+00 0.00000E+00
 -1      2399-2.93442E+00-7.41543E+00 0.00000E+00
 -1      2400-4.21663E+00-7.11445E+00 0.00000E+00
 -1      2401-3.91022E+00-7.39875E+00 0.00000E+00
 -1      2402-5.14705E+00-7.08066E+00 0.00000E+00
 -1      2403-4.88403E+00-7.37762E+00 0.00000E+00
 -1      2404-6.07361E+00-7.04094E+00 0.00000E+00
 -1      2405-5.85540E+00-7.35228E+00 0.00000E+00
 -1      2406-6.82391E+00-7.32299E+00 0.00000E+00
 -1      2407 6.63688E+00-7.66929E+00 0.00000E+00
 -1      2408 5.61852E+00-7.68299E+00 0.00000E+00
 -1      2409 4.59884E+00-7.69464E+00 0.00000E+00
 -1      2410 3.57805E+00-7.70412E+00 0.00000E+00
 -1      2411 2.55638E+00-7.71132E+00 0.00000E+00
 -1      2412 1.53408E+00-7.71616E+00 0.00000E+00
 -1      2413 5.11403E-01-7.71860E+00 0.00000E+00
 -1      2414-5.11403E-01-7.71860E+00 0.00000E+00
 -1      2415-1.53408E+00-7.71616E+00 0.00000E+00
 -1      2416-2.55638E+00-7.71132E+00 0.00000E+00
 -1      2417-3.57805E+00-7.70412E+00 0.00000E+00
 -1      2418-4.59884E+00-7.69464E+00 0.00000E+00
 -1      2419-5.61852E+00-7.68299E+00 0.00000E+00
 -1      2420-6.63688E+00-7.66929E+00 0.00000E+00
 -1      2421-2.89894E+00-2.36062E+00 0.00000E+00
 -1      2422-3.11019E+00-2.03912E+00 0.00000E+00
 -1      2423-3.28990E+00-1.69714E+00 0.00000E+00
 -1      2424-3.43608E+00-1.33807E+00 0.00000E+00
 -1      2425-3.54715E+00-9.65524E-01 0.00000E+00
 -1      2426-3.62187E+00-5.83239E-01 0.00000E+00
 -1      2427-3.65944E+00-1.95069E-01 0.00000E+00
 -1      2428-3.65944E+00 1.95069E-01 0.00000E+00
 -1      2429-3.62187E+00 5.83239E-01 0.00000E+00
 -1      2430-3.54715E+00 9.65524E-01 0.00000E+00
 -1      2431-3.43608E+00 1.33807E+00 0.00000E+00
 -1      2432-3.28990E+00 1.69714E+00 0.00000E+00
 -1      2433-3.11019E+00 2.03912E+00 0.00000E+00
 -1      2434-2.89894E+00 2.36062E+00 0.00000E+00
 -1      2435-3.06706E+00-2.51133E+00 0.00000E+00
 -1      2436-3.27135E+00-2.16527E+00 0.00000E+00
 -1      2437-3.44514E+00-1.79940E+00 0.00000E+00
 -1      2438-3.58650E+00-1.41702E+00 0.00000E+00
 -1      2439-3.69391E+00-1.02159E+00 0.00000E+00
 -1      2440-3.76617E+00-6.16750E-01 0.00000E+00
 -1      2441-3.80250E+00-2.06218E-01 0.00000E+00
 -1      2442-3.80250E+00 2.06218E-01 0.00000E+00
 -1      2443-3.76617E+00 6.16750E-01 0.00000E+00
 -1      2444-3.69391E+00 1.02159E+00 0.00000E+00
 -1      2445-3.58650E+00 1.41702E+00 0.00000E+00
 -1      2446-3.44514E+00 1.79940E+00 0.00000E+00
 -1      2447-3.27135E+00 2.16527E+00 0.00000E+00
 -1      2448-3.06706E+00 2.51133E+00 0.00000E+00
 -1      2449-3.25386E+00-2.67879E+00 0.00000E+00
 -1      2450-3.45042E+00-2.30544E+00 0.00000E+00
 -1      2451-3.61762E+00-1.91303E+00 0.00000E+00
 -1      2452-3.75364E+00-1.50473E+00 0.00000E+00
 -1      2453-3.85697E+00-1.08389E+00 0.00000E+00
 -1      2454-3.92650E+00-6.53984E-01 0.00000E+00
 -1      2455-3.96145E+00-2.18605E-01 0.00000E+00
 -1      2456-3.96145E+00 2.18605E-01 0.00000E+00
 -1      2457-3.92650E+00 6.53984E-01 0.00000E+00
 -1      2458-3.85697E+00 1.08389E+00 0.00000E+00
 -1      2459-3.75364E+00 1.50473E+00 0.00000E+00
 -1      2460-3.61762E+00 1.91303E+00 0.00000E+00
 -1      2461-3.45042E+00 2.30544E+00 0.00000E+00
 -1      2462-3.25386E+00 2.67879E+00 0.00000E+00
 -1      2463-3.46142E+00-2.86485E+00 0.00000E+00
 -1      2464-3.64938E+00-2.46118E+00 0.00000E+00
 -1      2465-3.80927E+00-2.03929E+00 0.00000E+00
 -1      2466-3.93934E+00-1.60219E+00 0.00000E+00
 -1      2467-4.03816E+00-1.15311E+00 0.00000E+00
 -1      2468-4.10464E+00-6.95356E-01 0.00000E+00
 -1      2469-4.13807E+00-2.32369E-01 0.00000E+00
 -1      2470-4.13807E+00 2.32369E-01 0.00000E+00
 -1      2471-4.10464E+00 6.95356E-01 0.00000E+00
 -1      2472-4.03816E+00 1.15311E+00 0.00000E+00
 -1      2473-3.93934E+00 1.60219E+00 0.00000E+00
 -1      2474-3.80927E+00 2.03929E+00 0.00000E+00
 -1      2475-3.64938E+00 2.46118E+00 0.00000E+00
 -1      2476-3.46142E+00 2.86485E+00 0.00000E+00
 -1      2477-3.69205E+00-3.07158E+00 0.00000E+00
 -1      2478-3.87046E+00-2.63423E+00 0.00000E+00
 -1      2479-4.02222E+00-2.17957E+00 0.00000E+00
 -1      2480-4.14568E+00-1.71049E+00 0.00000E+00
 -1      2481-4.23947E+00-1.23002E+00 0.00000E+00
 -1      2482-4.30258E+00-7.41324E-01 0.00000E+00
 -1      2483-4.33431E+00-2.47662E-01 0.00000E+00
 -1      2484-4.33431E+00 2.47662E-01 0.00000E+00
 -1      2485-4.30258E+00 7.41324E-01 0.00000E+00
 -1      2486-4.23947E+00 1.23002E+00 0.00000E+00
 -1      2487-4.14568E+00 1.71049E+00 0.00000E+00
 -1      2488-4.02222E+00 2.17957E+00 0.00000E+00
 -1      2489-3.87046E+00 2.63423E+00 0.00000E+00
 -1      2490-3.69205E+00 3.07158E+00 0.00000E+00
 -1      2491-3.94829E+00-3.30129E+00 0.00000E+00
 -1      2492-4.11609E+00-2.82650E+00 0.00000E+00
 -1      2493-4.25883E+00-2.33544E+00 0.00000E+00
 -1      2494-4.37494E+00-1.83081E+00 0.00000E+00
 -1      2495-4.46316E+00-1.31547E+00 0.00000E+00
 -1      2496-4.52251E+00-7.92400E-01 0.00000E+00
 -1      2497-4.55235E+00-2.64655E-01 0.00000E+00
 -1      2498-4.55235E+00 2.64655E-01 0.00000E+00
 -1      2499-4.52251E+00 7.92400E-01 0.00000E+00
 -1      2500-4.46316E+00 1.31547E+00 0.00000E+00
 -1      2501-4.37494E+00 1.83081E+00 0.00000E+00
 -1      2502-4.25883E+00 2.33544E+00 0.00000E+00
 -1      2503-4.11609E+00 2.82650E+00 0.00000E+00
 -1      2504-3.94829E+00 3.30129E+00 0.00000E+00
 -1      2505-4.23301E+00-3.55652E+00 0.00000E+00
 -1      2506-4.38902E+00-3.04014E+00 0.00000E+00
 -1      2507-4.52172E+00-2.50863E+00 0.00000E+00
 -1      2508-4.62968E+00-1.96450E+00 0.00000E+00
 -1      2509-4.71170E+00-1.41042E+00 0.00000E+00
 -1      2510-4.76688E+00-8.49151E-01 0.00000E+00
 -1      2511-4.79462E+00-2.83535E-01 0.00000E+00
 -1      2512-4.79462E+00 2.83535E-01 0.00000E+00
 -1      2513-4.76688E+00 8.49151E-01 0.00000E+00
 -1      2514-4.71170E+00 1.41042E+00 0.00000E+00
 -1      2515-4.62968E+00 1.96450E+00 0.00000E+00
 -1      2516-4.52172E+00 2.50863E+00 0.00000E+00
 -1      2517-4.38902E+00 3.04014E+00 0.00000E+00
 -1      2518-4.23301E+00 3.55652E+00 0.00000E+00
 -1      2519-4.54937E+00-3.84010E+00 0.00000E+00
 -1      2520-4.69227E+00-3.27751E+00 0.00000E+00
 -1      2521-4.81383E+00-2.70106E+00 0.00000E+00
 -1      2522-4.91272E+00-2.11305E+00 0.00000E+00
 -1      2523-4.98785E+00-1.51592E+00 0.00000E+00
 -1      2524-5.03840E+00-9.12208E-01 0.00000E+00
 -1      2525-5.06381E+00-3.04513E-01 0.00000E+00
 -1      2526-5.06381E+00 3.04513E-01 0.00000E+00
 -1      2527-5.03840E+00 9.12208E-01 0.00000E+00
 -1      2528-4.98785E+00 1.51592E+00 0.00000E+00
 -1      2529-4.91272E+00 2.11305E+00 0.00000E+00
 -1      2530-4.81383E+00 2.70106E+00 0.00000E+00
 -1      2531-4.69227E+00 3.27751E+00 0.00000E+00
 -1      2532-4.54937E+00 3.84010E+00 0.00000E+00
 -1      2533-4.90087E+00-4.15520E+00 0.00000E+00
 -1      2534-5.02922E+00-3.54126E+00 0.00000E+00
 -1      2535-5.13840E+00-2.91487E+00 0.00000E+00
 -1      2536-5.22721E+00-2.27810E+00 0.00000E+00
 -1      2537-5.29469E+00-1.63314E+00 0.00000E+00
 -1      2538-5.34009E+00-9.82271E-01 0.00000E+00
 -1      2539-5.36291E+00-3.27822E-01 0.00000E+00
 -1      2540-5.36291E+00 3.27822E-01 0.00000E+00
 -1      2541-5.34009E+00 9.82271E-01 0.00000E+00
 -1      2542-5.29469E+00 1.63314E+00 0.00000E+00
 -1      2543-5.22721E+00 2.27810E+00 0.00000E+00
 -1      2544-5.13840E+00 2.91487E+00 0.00000E+00
 -1      2545-5.02922E+00 3.54126E+00 0.00000E+00
 -1      2546-4.90087E+00 4.15520E+00 0.00000E+00
 -1      2547-5.29143E+00-4.50531E+00 0.00000E+00
 -1      2548-5.40360E+00-3.83431E+00 0.00000E+00
 -1      2549-5.49902E+00-3.15244E+00 0.00000E+00
 -1      2550-5.57664E+00-2.46149E+00 0.00000E+00
 -1      2551-5.63562E+00-1.76339E+00 0.00000E+00
 -1      2552-5.67529E+00-1.06012E+00 0.00000E+00
 -1      2553-5.69524E+00-3.53721E-01 0.00000E+00
 -1      2554-5.69524E+00 3.53721E-01 0.00000E+00
 -1      2555-5.67529E+00 1.06012E+00 0.00000E+00
 -1      2556-5.63562E+00 1.76339E+00 0.00000E+00
 -1      2557-5.57664E+00 2.46149E+00 0.00000E+00
 -1      2558-5.49902E+00 3.15244E+00 0.00000E+00
 -1      2559-5.40360E+00 3.83431E+00 0.00000E+00
 -1      2560-5.29143E+00 4.50531E+00 0.00000E+00
 -1      2561-5.72539E+00-4.89432E+00 0.00000E+00
 -1      2562-5.81959E+00-4.15993E+00 0.00000E+00
 -1      2563-5.89972E+00-3.41640E+00 0.00000E+00
 -1      2564-5.96490E+00-2.66526E+00 0.00000E+00
 -1      2565-6.01443E+00-1.90811E+00 0.00000E+00
 -1      2566-6.04775E+00-1.14662E+00 0.00000E+00
 -1      2567-6.06450E+00-3.82498E-01 0.00000E+00
 -1      2568-6.06450E+00 3.82498E-01 0.00000E+00
 -1      2569-6.04775E+00 1.14662E+00 0.00000E+00
 -1      2570-6.01443E+00 1.90811E+00 0.00000E+00
 -1      2571-5.96490E+00 2.66526E+00 0.00000E+00
 -1      2572-5.89972E+00 3.41640E+00 0.00000E+00
 -1      2573-5.81959E+00 4.15993E+00 0.00000E+00
 -1      2574-5.72539E+00 4.89432E+00 0.00000E+00
 -1      2575-6.20756E+00-5.32655E+00 0.00000E+00
 -1      2576-6.28179E+00-4.52172E+00 0.00000E+00
 -1      2577-6.34494E+00-3.70970E+00 0.00000E+00
 -1      2578-6.39630E+00-2.89167E+00 0.00000E+00
 -1      2579-6.43533E+00-2.06891E+00 0.00000E+00
 -1      2580-6.46159E+00-1.24272E+00 0.00000E+00
 -1      2581-6.47479E+00-4.14472E-01 0.00000E+00
 -1      2582-6.47479E+00 4.14472E-01 0.00000E+00
 -1      2583-6.46159E+00 1.24272E+00 0.00000E+00
 -1      2584-6.43533E+00 2.06891E+00 0.00000E+00
 -1      2585-6.39630E+00 2.89167E+00 0.00000E+00
 -1      2586-6.34494E+00 3.70970E+00 0.00000E+00
 -1      2587-6.28179E+00 4.52172E+00 0.00000E+00
 -1      2588-6.20756E+00 5.32655E+00 0.00000E+00
 -1      2589-6.74331E+00-5.80680E+00 0.00000E+00
 -1      2590-6.79535E+00-4.92372E+00 0.00000E+00
 -1      2591-6.83962E+00-4.03558E+00 0.00000E+00
 -1      2592-6.87564E+00-3.14324E+00 0.00000E+00
 -1      2593-6.90300E+00-2.24757E+00 0.00000E+00
 -1      2594-6.92141E+00-1.34951E+00 0.00000E+00
 -1      2595-6.93066E+00-4.49999E-01 0.00000E+00
 -1      2596-6.93066E+00 4.49999E-01 0.00000E+00
 -1      2597-6.92141E+00 1.34951E+00 0.00000E+00
 -1      2598-6.90300E+00 2.24757E+00 0.00000E+00
 -1      2599-6.87564E+00 3.14324E+00 0.00000E+00
 -1      2600-6.83962E+00 4.03558E+00 0.00000E+00
 -1      2601-6.79535E+00 4.92372E+00 0.00000E+00
 -1      2602-6.74331E+00 5.80680E+00 0.00000E+00
 -1      2603-7.33858E+00-6.34042E+00 0.00000E+00
 -1      2604-7.36597E+00-5.37038E+00 0.00000E+00
 -1      2605-7.38928E+00-4.39767E+00 0.00000E+00
 -1      2606-7.40823E+00-3.42276E+00 0.00000E+00
 -1      2607-7.42263E+00-2.44609E+00 0.00000E+00
 -1      2608-7.43232E+00-1.46816E+00 0.00000E+00
 -1      2609-7.43719E+00-4.89473E-01 0.00000E+00
 -1      2610-7.43719E+00 4.89473E-01 0.00000E+00
 -1      2611-7.43232E+00 1.46816E+00 0.00000E+00
 -1      2612-7.42263E+00 2.44609E+00 0.00000E+00
 -1      2613-7.40823E+00 3.42276E+00 0.00000E+00
 -1      2614-7.38928E+00 4.39767E+00 0.00000E+00
 -1      2615-7.36597E+00 5.37038E+00 0.00000E+00
 -1      2616-7.33858E+00 6.34042E+00 0.00000E+00
 -1      2617-2.82328E+00-2.29280E+00 0.00000E+00
 -1      2618-2.77869E+00-2.50953E+00 0.00000E+00
 -1      2619-3.03767E+00-1.98236E+00 0.00000E+00
 -1      2620-3.00457E+00-2.19987E+00 0.00000E+00
 -1      2621-3.22004E+00-1.65112E+00 0.00000E+00
 -1      2622-3.20005E+00-1.86813E+00 0.00000E+00
 -1      2623-3.36839E+00-1.30255E+00 0.00000E+00
 -1      2624-3.36299E+00-1.51760E+00 0.00000E+00
 -1      2625-3.48111E+00-9.40294E-01 0.00000E+00
 -1      2626-3.49162E+00-1.15180E+00 0.00000E+00
 -1      2627-3.55694E+00-5.68159E-01 0.00000E+00
 -1      2628-3.58451E+00-7.74382E-01 0.00000E+00
 -1      2629-3.59506E+00-1.90052E-01 0.00000E+00
 -1      2630-3.64066E+00-3.89154E-01 0.00000E+00
 -1      2631-3.59506E+00 1.90052E-01 0.00000E+00
 -1      2632-3.65944E+00 6.74261E-09 0.00000E+00
 -1      2633-3.55694E+00 5.68159E-01 0.00000E+00
 -1      2634-3.64066E+00 3.89154E-01 0.00000E+00
 -1      2635-3.48111E+00 9.40294E-01 0.00000E+00
 -1      2636-3.58451E+00 7.74382E-01 0.00000E+00
 -1      2637-3.36839E+00 1.30255E+00 0.00000E+00
 -1      2638-3.49162E+00 1.15180E+00 0.00000E+00
 -1      2639-3.22004E+00 1.65112E+00 0.00000E+00
 -1      2640-3.36299E+00 1.51760E+00 0.00000E+00
 -1      2641-3.03767E+00 1.98236E+00 0.00000E+00
 -1      2642-3.20005E+00 1.86813E+00 0.00000E+00
 -1      2643-2.82328E+00 2.29280E+00 0.00000E+00
 -1      2644-3.00457E+00 2.19987E+00 0.00000E+00
 -1      2645-2.77869E+00 2.50953E+00 0.00000E+00
 -1      2646-2.98300E+00-2.43598E+00 0.00000E+00
 -1      2647-2.95078E+00-2.67291E+00 0.00000E+00
 -1      2648-3.19077E+00-2.10220E+00 0.00000E+00
 -1      2649-3.16921E+00-2.33830E+00 0.00000E+00
 -1      2650-3.36752E+00-1.74827E+00 0.00000E+00
 -1      2651-3.35824E+00-1.98234E+00 0.00000E+00
 -1      2652-3.51129E+00-1.37754E+00 0.00000E+00
 -1      2653-3.51582E+00-1.60821E+00 0.00000E+00
 -1      2654-3.62053E+00-9.93557E-01 0.00000E+00
 -1      2655-3.64020E+00-1.21930E+00 0.00000E+00
 -1      2656-3.69402E+00-5.99995E-01 0.00000E+00
 -1      2657-3.73004E+00-8.19171E-01 0.00000E+00
 -1      2658-3.73097E+00-2.00644E-01 0.00000E+00
 -1      2659-3.78433E+00-4.11484E-01 0.00000E+00
 -1      2660-3.73097E+00 2.00644E-01 0.00000E+00
 -1      2661-3.80250E+00 6.51970E-09 0.00000E+00
 -1      2662-3.69402E+00 5.99995E-01 0.00000E+00
 -1      2663-3.78433E+00 4.11484E-01 0.00000E+00
 -1      2664-3.62053E+00 9.93558E-01 0.00000E+00
 -1      2665-3.73004E+00 8.19171E-01 0.00000E+00
 -1      2666-3.51129E+00 1.37754E+00 0.00000E+00
 -1      2667-3.64020E+00 1.21930E+00 0.00000E+00
 -1      2668-3.36752E+00 1.74827E+00 0.00000E+00
 -1      2669-3.51582E+00 1.60821E+00 0.00000E+00
 -1      2670-3.19077E+00 2.10220E+00 0.00000E+00
 -1      2671-3.35824E+00 1.98234E+00 0.00000E+00
 -1      2672-2.98300E+00 2.43598E+00 0.00000E+00
 -1      2673-3.16921E+00 2.33830E+00 0.00000E+00
 -1      2674-2.95078E+00 2.67291E+00 0.00000E+00
 -1      2675-3.16046E+00-2.59506E+00 0.00000E+00
 -1      2676-3.14198E+00-2.85445E+00 0.00000E+00
 -1      2677-3.36089E+00-2.23536E+00 0.00000E+00
 -1      2678-3.35214E+00-2.49211E+00 0.00000E+00
 -1      2679-3.53138E+00-1.85622E+00 0.00000E+00
 -1      2680-3.53402E+00-2.10924E+00 0.00000E+00
 -1      2681-3.67007E+00-1.46087E+00 0.00000E+00
 -1      2682-3.68563E+00-1.70888E+00 0.00000E+00
 -1      2683-3.77544E+00-1.05274E+00 0.00000E+00
 -1      2684-3.80530E+00-1.29431E+00 0.00000E+00
 -1      2685-3.84633E+00-6.35367E-01 0.00000E+00
 -1      2686-3.89174E+00-8.68936E-01 0.00000E+00
 -1      2687-3.88198E+00-2.12412E-01 0.00000E+00
 -1      2688-3.94398E+00-4.36295E-01 0.00000E+00
 -1      2689-3.88198E+00 2.12412E-01 0.00000E+00
 -1      2690-3.96145E+00 6.27202E-09 0.00000E+00
 -1      2691-3.84633E+00 6.35367E-01 0.00000E+00
 -1      2692-3.94398E+00 4.36295E-01 0.00000E+00
 -1      2693-3.77544E+00 1.05274E+00 0.00000E+00
 -1      2694-3.89174E+00 8.68936E-01 0.00000E+00
 -1      2695-3.67007E+00 1.46087E+00 0.00000E+00
 -1      2696-3.80530E+00 1.29431E+00 0.00000E+00
 -1      2697-3.53138E+00 1.85622E+00 0.00000E+00
 -1      2698-3.68563E+00 1.70888E+00 0.00000E+00
 -1      2699-3.36089E+00 2.23536E+00 0.00000E+00
 -1      2700-3.53402E+00 2.10924E+00 0.00000E+00
 -1      2701-3.16046E+00 2.59506E+00 0.00000E+00
 -1      2702-3.35214E+00 2.49211E+00 0.00000E+00
 -1      2703-3.14198E+00 2.85445E+00 0.00000E+00
 -1      2704-3.35764E+00-2.77182E+00 0.00000E+00
 -1      2705-3.35444E+00-3.05615E+00 0.00000E+00
 -1      2706-3.54990E+00-2.38331E+00 0.00000E+00
 -1      2707-3.55540E+00-2.66302E+00 0.00000E+00
 -1      2708-3.71345E+00-1.97616E+00 0.00000E+00
 -1      2709-3.72933E+00-2.25023E+00 0.00000E+00
 -1      2710-3.84649E+00-1.55346E+00 0.00000E+00
 -1      2711-3.87431E+00-1.82074E+00 0.00000E+00
 -1      2712-3.94756E+00-1.11850E+00 0.00000E+00
 -1      2713-3.98875E+00-1.37765E+00 0.00000E+00
 -1      2714-4.01557E+00-6.74670E-01 0.00000E+00
 -1      2715-4.07140E+00-9.24231E-01 0.00000E+00
 -1      2716-4.04976E+00-2.25487E-01 0.00000E+00
 -1      2717-4.12136E+00-4.63863E-01 0.00000E+00
 -1      2718-4.04976E+00 2.25487E-01 0.00000E+00
 -1      2719-4.13807E+00 5.99683E-09 0.00000E+00
 -1      2720-4.01557E+00 6.74670E-01 0.00000E+00
 -1      2721-4.12136E+00 4.63863E-01 0.00000E+00
 -1      2722-3.94756E+00 1.11850E+00 0.00000E+00
 -1      2723-4.07140E+00 9.24231E-01 0.00000E+00
 -1      2724-3.84649E+00 1.55346E+00 0.00000E+00
 -1      2725-3.98875E+00 1.37765E+00 0.00000E+00
 -1      2726-3.71345E+00 1.97616E+00 0.00000E+00
 -1      2727-3.87431E+00 1.82074E+00 0.00000E+00
 -1      2728-3.54990E+00 2.38331E+00 0.00000E+00
 -1      2729-3.72933E+00 2.25023E+00 0.00000E+00
 -1      2730-3.35764E+00 2.77182E+00 0.00000E+00
 -1      2731-3.55540E+00 2.66302E+00 0.00000E+00
 -1      2732-3.35444E+00 3.05615E+00 0.00000E+00
 -1      2733-3.57674E+00-2.96822E+00 0.00000E+00
 -1      2734-3.59050E+00-3.28026E+00 0.00000E+00
 -1      2735-3.75992E+00-2.54771E+00 0.00000E+00
 -1      2736-3.78125E+00-2.85291E+00 0.00000E+00
 -1      2737-3.91575E+00-2.10943E+00 0.00000E+00
 -1      2738-3.94634E+00-2.40690E+00 0.00000E+00
 -1      2739-4.04251E+00-1.65634E+00 0.00000E+00
 -1      2740-4.08395E+00-1.94503E+00 0.00000E+00
 -1      2741-4.13881E+00-1.19156E+00 0.00000E+00
 -1      2742-4.19257E+00-1.47025E+00 0.00000E+00
 -1      2743-4.20361E+00-7.18340E-01 0.00000E+00
 -1      2744-4.27103E+00-9.85670E-01 0.00000E+00
 -1      2745-4.23619E+00-2.40016E-01 0.00000E+00
 -1      2746-4.31844E+00-4.94493E-01 0.00000E+00
 -1      2747-4.23619E+00 2.40016E-01 0.00000E+00
 -1      2748-4.33431E+00 5.69105E-09 0.00000E+00
 -1      2749-4.20361E+00 7.18340E-01 0.00000E+00
 -1      2750-4.31844E+00 4.94493E-01 0.00000E+00
 -1      2751-4.13881E+00 1.19156E+00 0.00000E+00
 -1      2752-4.27103E+00 9.85670E-01 0.00000E+00
 -1      2753-4.04251E+00 1.65634E+00 0.00000E+00
 -1      2754-4.19257E+00 1.47025E+00 0.00000E+00
 -1      2755-3.91575E+00 2.10943E+00 0.00000E+00
 -1      2756-4.08395E+00 1.94503E+00 0.00000E+00
 -1      2757-3.75992E+00 2.54771E+00 0.00000E+00
 -1      2758-3.94634E+00 2.40690E+00 0.00000E+00
 -1      2759-3.57674E+00 2.96822E+00 0.00000E+00
 -1      2760-3.78125E+00 2.85291E+00 0.00000E+00
 -1      2761-3.59050E+00 3.28026E+00 0.00000E+00
 -1      2762-3.82017E+00-3.18644E+00 0.00000E+00
 -1      2763-3.85278E+00-3.52928E+00 0.00000E+00
 -1      2764-3.99327E+00-2.73036E+00 0.00000E+00
 -1      2765-4.03219E+00-3.06389E+00 0.00000E+00
 -1      2766-4.14052E+00-2.25750E+00 0.00000E+00
 -1      2767-4.18746E+00-2.58097E+00 0.00000E+00
 -1      2768-4.26031E+00-1.77065E+00 0.00000E+00
 -1      2769-4.31688E+00-2.08312E+00 0.00000E+00
 -1      2770-4.35132E+00-1.27274E+00 0.00000E+00
 -1      2771-4.41905E+00-1.57314E+00 0.00000E+00
 -1      2772-4.41255E+00-7.66862E-01 0.00000E+00
 -1      2773-4.49283E+00-1.05394E+00 0.00000E+00
 -1      2774-4.44333E+00-2.56159E-01 0.00000E+00
 -1      2775-4.53743E+00-5.28527E-01 0.00000E+00
 -1      2776-4.44333E+00 2.56159E-01 0.00000E+00
 -1      2777-4.55235E+00 5.35131E-09 0.00000E+00
 -1      2778-4.41255E+00 7.66862E-01 0.00000E+00
 -1      2779-4.53743E+00 5.28527E-01 0.00000E+00
 -1      2780-4.35132E+00 1.27274E+00 0.00000E+00
 -1      2781-4.49283E+00 1.05394E+00 0.00000E+00
 -1      2782-4.26031E+00 1.77065E+00 0.00000E+00
 -1      2783-4.41905E+00 1.57314E+00 0.00000E+00
 -1      2784-4.14052E+00 2.25750E+00 0.00000E+00
 -1      2785-4.31688E+00 2.08312E+00 0.00000E+00
 -1      2786-3.99327E+00 2.73036E+00 0.00000E+00
 -1      2787-4.18746E+00 2.58097E+00 0.00000E+00
 -1      2788-3.82017E+00 3.18644E+00 0.00000E+00
 -1      2789-4.03219E+00 3.06389E+00 0.00000E+00
 -1      2790-3.85278E+00 3.52928E+00 0.00000E+00
 -1      2791-4.09065E+00-3.42890E+00 0.00000E+00
 -1      2792-4.14421E+00-3.80597E+00 0.00000E+00
 -1      2793-4.25255E+00-2.93332E+00 0.00000E+00
 -1      2794-4.31101E+00-3.29833E+00 0.00000E+00
 -1      2795-4.39028E+00-2.42203E+00 0.00000E+00
 -1      2796-4.45537E+00-2.77438E+00 0.00000E+00
 -1      2797-4.50231E+00-1.89766E+00 0.00000E+00
 -1      2798-4.57570E+00-2.23656E+00 0.00000E+00
 -1      2799-4.58743E+00-1.36295E+00 0.00000E+00
 -1      2800-4.67069E+00-1.68746E+00 0.00000E+00
 -1      2801-4.64469E+00-8.20776E-01 0.00000E+00
 -1      2802-4.73929E+00-1.12979E+00 0.00000E+00
 -1      2803-4.67349E+00-2.74095E-01 0.00000E+00
 -1      2804-4.78075E+00-5.66343E-01 0.00000E+00
 -1      2805-4.67349E+00 2.74095E-01 0.00000E+00
 -1      2806-4.79462E+00 4.97381E-09 0.00000E+00
 -1      2807-4.64469E+00 8.20776E-01 0.00000E+00
 -1      2808-4.78075E+00 5.66343E-01 0.00000E+00
 -1      2809-4.58743E+00 1.36295E+00 0.00000E+00
 -1      2810-4.73929E+00 1.12979E+00 0.00000E+00
 -1      2811-4.50231E+00 1.89766E+00 0.00000E+00
 -1      2812-4.67069E+00 1.68746E+00 0.00000E+00
 -1      2813-4.39028E+00 2.42203E+00 0.00000E+00
 -1      2814-4.57570E+00 2.23656E+00 0.00000E+00
 -1      2815-4.25255E+00 2.93332E+00 0.00000E+00
 -1      2816-4.45537E+00 2.77438E+00 0.00000E+00
 -1      2817-4.09065E+00 3.42890E+00 0.00000E+00
 -1      2818-4.31101E+00 3.29833E+00 0.00000E+00
 -1      2819-4.14421E+00 3.80597E+00 0.00000E+00
 -1      2820-4.39119E+00-3.69831E+00 0.00000E+00
 -1      2821-4.46802E+00-4.11339E+00 0.00000E+00
 -1      2822-4.54064E+00-3.15882E+00 0.00000E+00
 -1      2823-4.62082E+00-3.55881E+00 0.00000E+00
 -1      2824-4.66778E+00-2.60484E+00 0.00000E+00
 -1      2825-4.75305E+00-2.98928E+00 0.00000E+00
 -1      2826-4.77120E+00-2.03878E+00 0.00000E+00
 -1      2827-4.86328E+00-2.40705E+00 0.00000E+00
 -1      2828-4.84977E+00-1.46317E+00 0.00000E+00
 -1      2829-4.95028E+00-1.81449E+00 0.00000E+00
 -1      2830-4.90264E+00-8.80680E-01 0.00000E+00
 -1      2831-5.01312E+00-1.21406E+00 0.00000E+00
 -1      2832-4.92922E+00-2.94024E-01 0.00000E+00
 -1      2833-5.05110E+00-6.08361E-01 0.00000E+00
 -1      2834-4.92922E+00 2.94024E-01 0.00000E+00
 -1      2835-5.06381E+00 4.55437E-09 0.00000E+00
 -1      2836-4.90264E+00 8.80680E-01 0.00000E+00
 -1      2837-5.05110E+00 6.08361E-01 0.00000E+00
 -1      2838-4.84977E+00 1.46317E+00 0.00000E+00
 -1      2839-5.01312E+00 1.21406E+00 0.00000E+00
 -1      2840-4.77120E+00 2.03878E+00 0.00000E+00
 -1      2841-4.95028E+00 1.81449E+00 0.00000E+00
 -1      2842-4.66778E+00 2.60484E+00 0.00000E+00
 -1      2843-4.86328E+00 2.40705E+00 0.00000E+00
 -1      2844-4.54064E+00 3.15882E+00 0.00000E+00
 -1      2845-4.75305E+00 2.98928E+00 0.00000E+00
 -1      2846-4.39119E+00 3.69831E+00 0.00000E+00
 -1      2847-4.62082E+00 3.55881E+00 0.00000E+00
 -1      2848-4.46802E+00 4.11339E+00 0.00000E+00
 -1      2849-4.72512E+00-3.99765E+00 0.00000E+00
 -1      2850-4.82781E+00-4.45498E+00 0.00000E+00
 -1      2851-4.86074E+00-3.40938E+00 0.00000E+00
 -1      2852-4.96504E+00-3.84823E+00 0.00000E+00
 -1      2853-4.97611E+00-2.80796E+00 0.00000E+00
 -1      2854-5.08381E+00-3.22806E+00 0.00000E+00
 -1      2855-5.06996E+00-2.19558E+00 0.00000E+00
 -1      2856-5.18280E+00-2.59649E+00 0.00000E+00
 -1      2857-5.14127E+00-1.57453E+00 0.00000E+00
 -1      2858-5.26095E+00-1.95562E+00 0.00000E+00
 -1      2859-5.18924E+00-9.47239E-01 0.00000E+00
 -1      2860-5.31739E+00-1.30771E+00 0.00000E+00
 -1      2861-5.21336E+00-3.16168E-01 0.00000E+00
 -1      2862-5.35150E+00-6.55047E-01 0.00000E+00
 -1      2863-5.21336E+00 3.16168E-01 0.00000E+00
 -1      2864-5.36291E+00 4.08832E-09 0.00000E+00
 -1      2865-5.18924E+00 9.47239E-01 0.00000E+00
 -1      2866-5.35150E+00 6.55047E-01 0.00000E+00
 -1      2867-5.14127E+00 1.57453E+00 0.00000E+00
 -1      2868-5.31739E+00 1.30771E+00 0.00000E+00
 -1      2869-5.06996E+00 2.19558E+00 0.00000E+00
 -1      2870-5.26095E+00 1.95562E+00 0.00000E+00
 -1      2871-4.97611E+00 2.80796E+00 0.00000E+00
 -1      2872-5.18280E+00 2.59649E+00 0.00000E+00
 -1      2873-4.86074E+00 3.40938E+00 0.00000E+00
 -1      2874-5.08381E+00 3.22806E+00 0.00000E+00
 -1      2875-4.72512E+00 3.99765E+00 0.00000E+00
 -1      2876-4.96504E+00 3.84823E+00 0.00000E+00
 -1      2877-4.82781E+00 4.45498E+00 0.00000E+00
 -1      2878-5.09615E+00-4.33025E+00 0.00000E+00
 -1      2879-5.22758E+00-4.83452E+00 0.00000E+00
 -1      2880-5.21641E+00-3.68779E+00 0.00000E+00
 -1      2881-5.34752E+00-4.16981E+00 0.00000E+00
 -1      2882-5.31871E+00-3.03365E+00 0.00000E+00
 -1      2883-5.45131E+00-3.49338E+00 0.00000E+00
 -1      2884-5.40193E+00-2.36980E+00 0.00000E+00
 -1      2885-5.53783E+00-2.80697E+00 0.00000E+00
 -1      2886-5.46515E+00-1.69827E+00 0.00000E+00
 -1      2887-5.60613E+00-2.11244E+00 0.00000E+00
 -1      2888-5.50769E+00-1.02119E+00 0.00000E+00
 -1      2889-5.65546E+00-1.41175E+00 0.00000E+00
 -1      2890-5.52908E+00-3.40772E-01 0.00000E+00
 -1      2891-5.68527E+00-7.06920E-01 0.00000E+00
 -1      2892-5.52908E+00 3.40772E-01 0.00000E+00
 -1      2893-5.69524E+00 3.57049E-09 0.00000E+00
 -1      2894-5.50769E+00 1.02119E+00 0.00000E+00
 -1      2895-5.68527E+00 7.06920E-01 0.00000E+00
 -1      2896-5.46515E+00 1.69827E+00 0.00000E+00
 -1      2897-5.65546E+00 1.41175E+00 0.00000E+00
 -1      2898-5.40193E+00 2.36980E+00 0.00000E+00
 -1      2899-5.60613E+00 2.11244E+00 0.00000E+00
 -1      2900-5.31871E+00 3.03365E+00 0.00000E+00
 -1      2901-5.53783E+00 2.80697E+00 0.00000E+00
 -1      2902-5.21641E+00 3.68779E+00 0.00000E+00
 -1      2903-5.45131E+00 3.49338E+00 0.00000E+00
 -1      2904-5.09615E+00 4.33025E+00 0.00000E+00
 -1      2905-5.34752E+00 4.16981E+00 0.00000E+00
 -1      2906-5.22758E+00 4.83452E+00 0.00000E+00
 -1      2907-5.50841E+00-4.69981E+00 0.00000E+00
 -1      2908-5.67177E+00-5.25623E+00 0.00000E+00
 -1      2909-5.61159E+00-3.99712E+00 0.00000E+00
 -1      2910-5.77249E+00-4.52712E+00 0.00000E+00
 -1      2911-5.69937E+00-3.28442E+00 0.00000E+00
 -1      2912-5.85965E+00-3.78817E+00 0.00000E+00
 -1      2913-5.77077E+00-2.56338E+00 0.00000E+00
 -1      2914-5.93231E+00-3.04083E+00 0.00000E+00
 -1      2915-5.82502E+00-1.83575E+00 0.00000E+00
 -1      2916-5.98967E+00-2.28669E+00 0.00000E+00
 -1      2917-5.86152E+00-1.10337E+00 0.00000E+00
 -1      2918-6.03109E+00-1.52736E+00 0.00000E+00
 -1      2919-5.87987E+00-3.68110E-01 0.00000E+00
 -1      2920-6.05613E+00-7.64557E-01 0.00000E+00
 -1      2921-5.87987E+00 3.68110E-01 0.00000E+00
 -1      2922-6.06450E+00 2.99513E-09 0.00000E+00
 -1      2923-5.86152E+00 1.10337E+00 0.00000E+00
 -1      2924-6.05613E+00 7.64557E-01 0.00000E+00
 -1      2925-5.82502E+00 1.83575E+00 0.00000E+00
 -1      2926-6.03109E+00 1.52736E+00 0.00000E+00
 -1      2927-5.77077E+00 2.56338E+00 0.00000E+00
 -1      2928-5.98967E+00 2.28669E+00 0.00000E+00
 -1      2929-5.69937E+00 3.28442E+00 0.00000E+00
 -1      2930-5.93231E+00 3.04083E+00 0.00000E+00
 -1      2931-5.61159E+00 3.99712E+00 0.00000E+00
 -1      2932-5.85965E+00 3.78817E+00 0.00000E+00
 -1      2933-5.50841E+00 4.69981E+00 0.00000E+00
 -1      2934-5.77249E+00 4.52712E+00 0.00000E+00
 -1      2935-5.67177E+00 5.25623E+00 0.00000E+00
 -1      2936-5.96647E+00-5.11043E+00 0.00000E+00
 -1      2937-6.16531E+00-5.72480E+00 0.00000E+00
 -1      2938-6.05069E+00-4.34083E+00 0.00000E+00
 -1      2939-6.24468E+00-4.92414E+00 0.00000E+00
 -1      2940-6.12233E+00-3.56305E+00 0.00000E+00
 -1      2941-6.31336E+00-4.11571E+00 0.00000E+00
 -1      2942-6.18060E+00-2.77847E+00 0.00000E+00
 -1      2943-6.37062E+00-3.30069E+00 0.00000E+00
 -1      2944-6.22488E+00-1.98851E+00 0.00000E+00
 -1      2945-6.41582E+00-2.48029E+00 0.00000E+00
 -1      2946-6.25467E+00-1.19467E+00 0.00000E+00
 -1      2947-6.44846E+00-1.65582E+00 0.00000E+00
 -1      2948-6.26965E+00-3.98485E-01 0.00000E+00
 -1      2949-6.46819E+00-8.28598E-01 0.00000E+00
 -1      2950-6.26965E+00 3.98485E-01 0.00000E+00
 -1      2951-6.47479E+00 2.35583E-09 0.00000E+00
 -1      2952-6.25467E+00 1.19467E+00 0.00000E+00
 -1      2953-6.46819E+00 8.28598E-01 0.00000E+00
 -1      2954-6.22488E+00 1.98851E+00 0.00000E+00
 -1      2955-6.44846E+00 1.65582E+00 0.00000E+00
 -1      2956-6.18060E+00 2.77847E+00 0.00000E+00
 -1      2957-6.41582E+00 2.48029E+00 0.00000E+00
 -1      2958-6.12233E+00 3.56305E+00 0.00000E+00
 -1      2959-6.37062E+00 3.30069E+00 0.00000E+00
 -1      2960-6.05069E+00 4.34083E+00 0.00000E+00
 -1      2961-6.31336E+00 4.11571E+00 0.00000E+00
 -1      2962-5.96647E+00 5.11043E+00 0.00000E+00
 -1      2963-6.24468E+00 4.92414E+00 0.00000E+00
 -1      2964-6.16531E+00 5.72480E+00 0.00000E+00
 -1      2965-6.47543E+00-5.56668E+00 0.00000E+00
 -1      2966-6.71368E+00-6.24543E+00 0.00000E+00
 -1      2967-6.53857E+00-4.72272E+00 0.00000E+00
 -1      2968-6.76933E+00-5.36526E+00 0.00000E+00
 -1      2969-6.59228E+00-3.87264E+00 0.00000E+00
 -1      2970-6.81749E+00-4.47965E+00 0.00000E+00
 -1      2971-6.63597E+00-3.01746E+00 0.00000E+00
 -1      2972-6.85763E+00-3.58941E+00 0.00000E+00
 -1      2973-6.66917E+00-2.15824E+00 0.00000E+00
 -1      2974-6.88932E+00-2.69541E+00 0.00000E+00
 -1      2975-6.69150E+00-1.29612E+00 0.00000E+00
 -1      2976-6.91220E+00-1.79854E+00 0.00000E+00
 -1      2977-6.70273E+00-4.32236E-01 0.00000E+00
 -1      2978-6.92604E+00-8.99755E-01 0.00000E+00
 -1      2979-6.70273E+00 4.32236E-01 0.00000E+00
 -1      2980-6.93066E+00 1.64550E-09 0.00000E+00
 -1      2981-6.69150E+00 1.29612E+00 0.00000E+00
 -1      2982-6.92604E+00 8.99755E-01 0.00000E+00
 -1      2983-6.66917E+00 2.15824E+00 0.00000E+00
 -1      2984-6.91220E+00 1.79854E+00 0.00000E+00
 -1      2985-6.63597E+00 3.01746E+00 0.00000E+00
 -1      2986-6.88932E+00 2.69541E+00 0.00000E+00
 -1      2987-6.59228E+00 3.87264E+00 0.00000E+00
 -1      2988-6.85763E+00 3.58941E+00 0.00000E+00
 -1      2989-6.53857E+00 4.72272E+00 0.00000E+00
 -1      2990-6.81749E+00 4.47965E+00 0.00000E+00
 -1      2991-6.47543E+00 5.56668E+00 0.00000E+00
 -1      2992-6.76933E+00 5.36526E+00 0.00000E+00
 -1      2993-6.71368E+00 6.24543E+00 0.00000E+00
 -1      2994-7.04094E+00-6.07361E+00 0.00000E+00
 -1      2995-7.32299E+00-6.82391E+00 0.00000E+00
 -1      2996-7.08066E+00-5.14705E+00 0.00000E+00
 -1      2997-7.35228E+00-5.85540E+00 0.00000E+00
 -1      2998-7.11445E+00-4.21663E+00 0.00000E+00
 -1      2999-7.37762E+00-4.88403E+00 0.00000E+00
 -1      3000-7.14193E+00-3.28300E+00 0.00000E+00
 -1      3001-7.39875E+00-3.91022E+00 0.00000E+00
 -1      3002-7.16282E+00-2.34683E+00 0.00000E+00
 -1      3003-7.41543E+00-2.93442E+00 0.00000E+00
 -1      3004-7.17686E+00-1.40884E+00 0.00000E+00
 -1      3005-7.42748E+00-1.95713E+00 0.00000E+00
 -1      3006-7.18393E+00-4.69736E-01 0.00000E+00
 -1      3007-7.43476E+00-9.78819E-01 0.00000E+00
 -1      3008-7.18393E+00 4.69736E-01 0.00000E+00
 -1      3009-7.43719E+00 8.56250E-10 0.00000E+00
 -1      3010-7.17686E+00 1.40884E+00 0.00000E+00
 -1      3011-7.43476E+00 9.78819E-01 0.00000E+00
 -1      3012-7.16282E+00 2.34683E+00 0.00000E+00
 -1      3013-7.42748E+00 1.95713E+00 0.00000E+00
 -1      3014-7.14193E+00 3.28300E+00 0.00000E+00
 -1      3015-7.41543E+00 2.93442E+00 0.00000E+00
 -1      3016-7.11445E+00 4.21663E+00 0.00000E+00
 -1      3017-7.39875E+00 3.91022E+00 0.00000E+00
 -1      3018-7.08066E+00 5.14705E+00 0.00000E+00
 -1      3019-7.37762E+00 4.88403E+00 0.00000E+00
 -1      3020-7.04094E+00 6.07361E+00 0.00000E+00
 -1      3021-7.35228E+00 5.85540E+00 0.00000E+00
 -1      3022-7.32299E+00 6.82391E+00 0.00000E+00
 -1      3023-7.66929E+00-6.63688E+00 0.00000E+00
 -1      3024-7.68299E+00-5.61852E+00 0.00000E+00
 -1      3025-7.69464E+00-4.59884E+00 0.00000E+00
 -1      3026-7.70412E+00-3.57805E+00 0.00000E+00
 -1      3027-7.71132E+00-2.55638E+00 0.00000E+00
 -1      3028-7.71616E+00-1.53408E+00 0.00000E+00
 -1      3029-7.71860E+00-5.11403E-01 0.00000E+00
 -1      3030-7.71860E+00 5.11403E-01 0.00000E+00
 -1      3031-7.71616E+00 1.53408E+00 0.00000E+00
 -1      3032-7.71132E+00 2.55638E+00 0.00000E+00
 -1      3033-7.70412E+00 3.57805E+00 0.00000E+00
 -1      3034-7.69464E+00 4.59884E+00 0.00000E+00
 -1      3035-7.68299E+00 5.61852E+00 0.00000E+00
 -1      3036-7.66929E+00 6.63688E+00 0.00000E+00
 -1      3037-2.36062E+00 2.89894E+00 0.00000E+00
 -1      3038-2.03912E+00 3.11019E+00 0.00000E+00
 -1      3039-1.69714E+00 3.28990E+00 0.00000E+00
 -1      3040-1.33807E+00 3.43608E+00 0.00000E+00
 -1      3041-9.65524E-01 3.54715E+00 0.00000E+00
 -1      3042-5.83239E-01 3.62187E+00 0.00000E+00
 -1      3043-1.95069E-01 3.65944E+00 0.00000E+00
 -1      3044 1.95069E-01 3.65944E+00 0.00000E+00
 -1      3045 5.83239E-01 3.62187E+00 0.00000E+00
 -1      3046 9.65524E-01 3.54715E+00 0.00000E+00
 -1      3047 1.33807E+00 3.43608E+00 0.00000E+00
 -1      3048 1.69714E+00 3.28990E+00 0.00000E+00
 -1      3049 2.03912E+00 3.11019E+00 0.00000E+00
 -1      3050 2.36062E+00 2.89894E+00 0.00000E+00
 -1      3051-2.51133E+00 3.06706E+00 0.00000E+00
 -1      3052-2.16527E+00 3.27135E+00 0.00000E+00
 -1      3053-1.79940E+00 3.44514E+00 0.00000E+00
 -1      3054-1.41702E+00 3.58650E+00 0.00000E+00
 -1      3055-1.02159E+00 3.69391E+00 0.00000E+00
 -1      3056-6.16750E-01 3.76617E+00 0.00000E+00
 -1      3057-2.06218E-01 3.80250E+00 0.00000E+00
 -1      3058 2.06218E-01 3.80250E+00 0.00000E+00
 -1      3059 6.16750E-01 3.76617E+00 0.00000E+00
 -1      3060 1.02159E+00 3.69391E+00 0.00000E+00
 -1      3061 1.41702E+00 3.58650E+00 0.00000E+00
 -1      3062 1.79940E+00 3.44514E+00 0.00000E+00
 -1      3063 2.16527E+00 3.27135E+00 0.00000E+00
 -1      3064 2.51133E+00 3.06706E+00 0.00000E+00
 -1      3065-2.67879E+00 3.25386E+00 0.00000E+00
 -1      3066-2.30544E+00 3.45042E+00 0.00000E+00
 -1      3067-1.91303E+00 3.61762E+00 0.00000E+00
 -1      3068-1.50473E+00 3.75364E+00 0.00000E+00
 -1      3069-1.08389E+00 3.85697E+00 0.00000E+00
 -1      3070-6.53984E-01 3.92650E+00 0.00000E+00
 -1      3071-2.18605E-01 3.96145E+00 0.00000E+00
 -1      3072 2.18605E-01 3.96145E+00 0.00000E+00
 -1      3073 6.53984E-01 3.92650E+00 0.00000E+00
 -1      3074 1.08389E+00 3.85697E+00 0.00000E+00
 -1      3075 1.50473E+00 3.75364E+00 0.00000E+00
 -1      3076 1.91303E+00 3.61762E+00 0.00000E+00
 -1      3077 2.30544E+00 3.45042E+00 0.00000E+00
 -1      3078 2.67879E+00 3.25386E+00 0.00000E+00
 -1      3079-2.86485E+00 3.46142E+00 0.00000E+00
 -1      3080-2.46118E+00 3.64938E+00 0.00000E+00
 -1      3081-2.03929E+00 3.80927E+00 0.00000E+00
 -1      3082-1.60219E+00 3.93934E+00 0.00000E+00
 -1      3083-1.15311E+00 4.03816E+00 0.00000E+00
 -1      3084-6.95356E-01 4.10464E+00 0.00000E+00
 -1      3085-2.32369E-01 4.13807E+00 0.00000E+00
 -1      3086 2.32369E-01 4.13807E+00 0.00000E+00
 -1      3087 6.95356E-01 4.10464E+00 0.00000E+00
 -1      3088 1.15311E+00 4.03816E+00 0.00000E+00
 -1      3089 1.60219E+00 3.93934E+00 0.00000E+00
 -1      3090 2.03929E+00 3.80927E+00 0.00000E+00
 -1      3091 2.46118E+00 3.64938E+00 0.00000E+00
 -1      3092 2.86485E+00 3.46142E+00 0.00000E+00
 -1      3093-3.07158E+00 3.69205E+00 0.00000E+00
 -1      3094-2.63423E+00 3.87046E+00 0.00000E+00
 -1      3095-2.17957E+00 4.02222E+00 0.00000E+00
 -1      3096-1.71049E+00 4.14568E+00 0.00000E+00
 -1      3097-1.23002E+00 4.23947E+00 0.00000E+00
 -1      3098-7.41324E-01 4.30258E+00 0.00000E+00
 -1      3099-2.47662E-01 4.33431E+00 0.00000E+00
 -1      3100 2.47662E-01 4.33431E+00 0.00000E+00
 -1      3101 7.41324E-01 4.30258E+00 0.00000E+00
 -1      3102 1.23002E+00 4.23947E+00 0.00000E+00
 -1      3103 1.71049E+00 4.14568E+00 0.00000E+00
 -1      3104 2.17957E+00 4.02222E+00 0.00000E+00
 -1      3105 2.63423E+00 3.87046E+00 0.00000E+00
 -1      3106 3.07158E+00 3.69205E+00 0.00000E+00
 -1      3107-3.30129E+00 3.94829E+00 0.00000E+00
 -1      3108-2.82650E+00 4.11609E+00 0.00000E+00
 -1      3109-2.33544E+00 4.25883E+00 0.00000E+00
 -1      3110-1.83081E+00 4.37494E+00 0.00000E+00
 -1      3111-1.31547E+00 4.46316E+00 0.00000E+00
 -1      3112-7.92400E-01 4.52251E+00 0.00000E+00
 -1      3113-2.64655E-01 4.55235E+00 0.00000E+00
 -1      3114 2.64655E-01 4.55235E+00 0.00000E+00
 -1      3115 7.92400E-01 4.52251E+00 0.00000E+00
 -1      3116 1.31547E+00 4.46316E+00 0.00000E+00
 -1      3117 1.83081E+00 4.37494E+00 0.00000E+00
 -1      3118 2.33544E+00 4.25883E+00 0.00000E+00
 -1      3119 2.82650E+00 4.11609E+00 0.00000E+00
 -1      3120 3.30129E+00 3.94829E+00 0.00000E+00
 -1      3121-3.55652E+00 4.23301E+00 0.00000E+00
 -1      3122-3.04014E+00 4.38902E+00 0.00000E+00
 -1      3123-2.50863E+00 4.52172E+00 0.00000E+00
 -1      3124-1.96450E+00 4.62968E+00 0.00000E+00
 -1      3125-1.41042E+00 4.71170E+00 0.00000E+00
 -1      3126-8.49151E-01 4.76688E+00 0.00000E+00
 -1      3127-2.83535E-01 4.79462E+00 0.00000E+00
 -1      3128 2.83535E-01 4.79462E+00 0.00000E+00
 -1      3129 8.49151E-01 4.76688E+00 0.00000E+00
 -1      3130 1.41042E+00 4.71170E+00 0.00000E+00
 -1      3131 1.96450E+00 4.62968E+00 0.00000E+00
 -1      3132 2.50863E+00 4.52172E+00 0.00000E+00
 -1      3133 3.04014E+00 4.38902E+00 0.00000E+00
 -1      3134 3.55652E+00 4.23301E+00 0.00000E+00
 -1      3135-3.84010E+00 4.54937E+00 0.00000E+00
 -1      3136-3.27751E+00 4.69227E+00 0.00000E+00
 -1      3137-2.70106E+00 4.81383E+00 0.00000E+00
 -1      3138-2.11305E+00 4.91272E+00 0.00000E+00
 -1      3139-1.51592E+00 4.98785E+00 0.00000E+00
 -1      3140-9.12208E-01 5.03840E+00 0.00000E+00
 -1      3141-3.04513E-01 5.06381E+00 0.00000E+00
 -1      3142 3.04513E-01 5.06381E+00 0.00000E+00
 -1      3143 9.12208E-01 5.03840E+00 0.00000E+00
 -1      3144 1.51592E+00 4.98785E+00 0.00000E+00
 -1      3145 2.11305E+00 4.91272E+00 0.00000E+00
 -1      3146 2.70106E+00 4.81383E+00 0.00000E+00
 -1      3147 3.27751E+00 4.69227E+00 0.00000E+00
 -1      3148 3.84010E+00 4.54937E+00 0.00000E+00
 -1      3149-4.15520E+00 4.90087E+00 0.00000E+00
 -1      3150-3.54126E+00 5.02922E+00 0.00000E+00
 -1      3151-2.91487E+00 5.13840E+00 0.00000E+00
 -1      3152-2.27810E+00 5.22721E+00 0.00000E+00
 -1      3153-1.63314E+00 5.29469E+00 0.00000E+00
 -1      3154-9.82271E-01 5.34009E+00 0.00000E+00
 -1      3155-3.27822E-01 5.36291E+00 0.00000E+00
 -1      3156 3.27822E-01 5.36291E+00 0.00000E+00
 -1      3157 9.82271E-01 5.34009E+00 0.00000E+00
 -1      3158 1.63314E+00 5.29469E+00 0.00000E+00
 -1      3159 2.27810E+00 5.22721E+00 0.00000E+00
 -1      3160 2.91487E+00 5.13840E+00 0.00000E+00
 -1      3161 3.54126E+00 5.02922E+00 0.00000E+00
 -1      3162 4.15520E+00 4.90087E+00 0.00000E+00
 -1      3163-4.50531E+00 5.29143E+00 0.00000E+00
 -1      3164-3.83431E+00 5.40360E+00 0.00000E+00
 -1      3165-3.15244E+00 5.49902E+00 0.00000E+00
 -1      3166-2.46149E+00 5.57664E+00 0.00000E+00
 -1      3167-1.76339E+00 5.63562E+00 0.00000E+00
 -1      3168-1.06012E+00 5.67529E+00 0.00000E+00
 -1      3169-3.53721E-01 5.69524E+00 0.00000E+00
 -1      3170 3.53721E-01 5.69524E+00 0.00000E+00
 -1      3171 1.06012E+00 5.67529E+00 0.00000E+00
 -1      3172 1.76339E+00 5.63562E+00 0.00000E+00
 -1      3173 2.46149E+00 5.57664E+00 0.00000E+00
 -1      3174 3.15244E+00 5.49902E+00 0.00000E+00
 -1      3175 3.83431E+00 5.40360E+00 0.00000E+00
 -1      3176 4.50531E+00 5.29143E+00 0.00000E+00
 -1      3177-4.89432E+00 5.72539E+00 0.00000E+00
 -1      3178-4.15993E+00 5.81959E+00 0.00000E+00
 -1      3179-3.41640E+00 5.89972E+00 0.00000E+00
 -1      3180-2.66526E+00 5.96490E+00 0.00000E+00
 -1      3181-1.90811E+00 6.01443E+00 0.00000E+00
 -1      3182-1.14662E+00 6.04775E+00 0.00000E+00
 -1      3183-3.82498E-01 6.06450E+00 0.00000E+00
 -1      3184 3.82498E-01 6.06450E+00 0.00000E+00
 -1      3185 1.14662E+00 6.04775E+00 0.00000E+00
 -1      3186 1.90811E+00 6.01443E+00 0.00000E+00
 -1      3187 2.66526E+00 5.96490E+00 0.00000E+00
 -1      3188 3.41640E+00 5.89972E+00 0.00000E+00
 -1      3189 4.15993E+00 5.81959E+00 0.00000E+00
 -1      3190 4.89432E+00 5.72539E+00 0.00000E+00
 -1      3191-5.32655E+00 6.20756E+00 0.00000E+00
 -1      3192-4.52172E+00 6.28179E+00 0.00000E+00
 -1      3193-3.70970E+00 6.34494E+00 0.00000E+00
 -1      3194-2.89167E+00 6.39630E+00 0.00000E+00
 -1      3195-2.06891E+00 6.43533E+00 0.00000E+00
 -1      3196-1.24272E+00 6.46159E+00 0.00000E+00
 -1      3197-4.14472E-01 6.47479E+00 0.00000E+00
 -1      3198 4.14472E-01 6.47479E+00 0.00000E+00
 -1      3199 1.24272E+00 6.46159E+00 0.00000E+00
 -1      3200 2.06891E+00 6.43533E+00 0.00000E+00
 -1      3201 2.89167E+00 6.39630E+00 0.00000E+00
 -1      3202 3.70970E+00 6.34494E+00 0.00000E+00
 -1      3203 4.52172E+00 6.28179E+00 0.00000E+00
 -1      3204 5.32655E+00 6.20756E+00 0.00000E+00
 -1      3205-5.80680E+00 6.74331E+00 0.00000E+00
 -1      3206-4.92372E+00 6.79535E+00 0.00000E+00
 -1      3207-4.03558E+00 6.83962E+00 0.00000E+00
 -1      3208-3.14324E+00 6.87564E+00 0.00000E+00
 -1      3209-2.24757E+00 6.90300E+00 0.00000E+00
 -1      3210-1.34951E+00 6.92141E+00 0.00000E+00
 -1      3211-4.49999E-01 6.93066E+00 0.00000E+00
 -1      3212 4.49999E-01 6.93066E+00 0.00000E+00
 -1      3213 1.34951E+00 6.92141E+00 0.00000E+00
 -1      3214 2.24757E+00 6.90300E+00 0.00000E+00
 -1      3215 3.14324E+00 6.87564E+00 0.00000E+00
 -1      3216 4.03558E+00 6.83962E+00 0.00000E+00
 -1      3217 4.92372E+00 6.79535E+00 0.00000E+00
 -1      3218 5.80680E+00 6.74331E+00 0.00000E+00
 -1      3219-6.34042E+00 7.33858E+00 0.00000E+00
 -1      3220-5.37038E+00 7.36597E+00 0.00000E+00
 -1      3221-4.39767E+00 7.38928E+00 0.00000E+00
 -1      3222-3.42276E+00 7.40823E+00 0.00000E+00
 -1      3223-2.44609E+00 7.42263E+00 0.00000E+00
 -1      3224-1.46816E+00 7.43232E+00 0.00000E+00
 -1      3225-4.89473E-01 7.43719E+00 0.00000E+00
 -1      3226 4.89473E-01 7.43719E+00 0.00000E+00
 -1      3227 1.46816E+00 7.43232E+00 0.00000E+00
 -1      3228 2.44609E+00 7.42263E+00 0.00000E+00
 -1      3229 3.42276E+00 7.40823E+00 0.00000E+00
 -1      3230 4.39767E+00 7.38928E+00 0.00000E+00
 -1      3231 5.37038E+00 7.36597E+00 0.00000E+00
 -1      3232 6.34042E+00 7.33858E+00 0.00000E+00
 -1      3233-2.29280E+00 2.82328E+00 0.00000E+00
 -1      3234-2.50953E+00 2.77869E+00 0.00000E+00
 -1      3235-1.98236E+00 3.03767E+00 0.00000E+00
 -1      3236-2.19987E+00 3.00457E+00 0.00000E+00
 -1      3237-1.65112E+00 3.22004E+00 0.00000E+00
 -1      3238-1.86813E+00 3.20005E+00 0.00000E+00
 -1      3239-1.30255E+00 3.36839E+00 0.00000E+00
 -1      3240-1.51760E+00 3.36299E+00 0.00000E+00
 -1      3241-9.40294E-01 3.48111E+00 0.00000E+00
 -1      3242-1.15180E+00 3.49162E+00 0.00000E+00
 -1      3243-5.68159E-01 3.55694E+00 0.00000E+00
 -1      3244-7.74382E-01 3.58451E+00 0.00000E+00
 -1      3245-1.90052E-01 3.59506E+00 0.00000E+00
 -1      3246-3.89154E-01 3.64066E+00 0.00000E+00
 -1      3247 1.90052E-01 3.59506E+00 0.00000E+00
 -1      3248 6.74261E-09 3.65944E+00 0.00000E+00
 -1      3249 5.68159E-01 3.55694E+00 0.00000E+00
 -1      3250 3.89154E-01 3.64066E+00 0.00000E+00
 -1      3251 9.40294E-01 3.48111E+00 0.00000E+00
 -1      3252 7.74382E-01 3.58451E+00 0.00000E+00
 -1      3253 1.30255E+00 3.36839E+00 0.00000E+00
 -1      3254 1.15180E+00 3.49162E+00 0.00000E+00
 -1      3255 1.65112E+00 3.22004E+00 0.00000E+00
 -1      3256 1.51760E+00 3.36299E+00 0.00000E+00
 -1      3257 1.98236E+00 3.03767E+00 0.00000E+00
 -1      3258 1.86813E+00 3.20005E+00 0.00000E+00
 -1      3259 2.29280E+00 2.82328E+00 0.00000E+00
 -1      3260 2.19987E+00 3.00457E+00 0.00000E+00
 -1      3261 2.50953E+00 2.77869E+00 0.00000E+00
 -1      3262-2.43598E+00 2.98300E+00 0.00000E+00
 -1      3263-2.67291E+00 2.95078E+00 0.00000E+00
 -1      3264-2.10220E+00 3.19077E+00 0.00000E+00
 -1      3265-2.33830E+00 3.16921E+00 0.00000E+00
 -1      3266-1.74827E+00 3.36752E+00 0.00000E+00
 -1      3267-1.98234E+00 3.35824E+00 0.00000E+00
 -1      3268-1.37754E+00 3.51129E+00 0.00000E+00
 -1      3269-1.60821E+00 3.51582E+00 0.00000E+00
 -1      3270-9.93557E-01 3.62053E+00 0.00000E+00
 -1      3271-1.21930E+00 3.64020E+00 0.00000E+00
 -1      3272-5.99995E-01 3.69402E+00 0.00000E+00
 -1      3273-8.19171E-01 3.73004E+00 0.00000E+00
 -1      3274-2.00644E-01 3.73097E+00 0.00000E+00
 -1      3275-4.11484E-01 3.78433E+00 0.00000E+00
 -1      3276 2.00644E-01 3.73097E+00 0.00000E+00
 -1      3277 6.51970E-09 3.80250E+00 0.00000E+00
 -1      3278 5.99995E-01 3.69402E+00 0.00000E+00
 -1      3279 4.11484E-01 3.78433E+00 0.00000E+00
 -1      3280 9.93558E-01 3.62053E+00 0.00000E+00
 -1      3281 8.19171E-01 3.73004E+00 0.00000E+00
 -1      3282 1.37754E+00 3.51129E+00 0.00000E+00
 -1      3283 1.21930E+00 3.64020E+00 0.00000E+00
 -1      3284 1.74827E+00 3.36752E+00 0.00000E+00
 -1      3285 1.60821E+00 3.51582E+00 0.00000E+00
 -1      3286 2.10220E+00 3.19077E+00 0.00000E+00
 -1      3287 1.98234E+00 3.35824E+00 0.00000E+00
 -1      3288 2.43598E+00 2.98300E+00 0.00000E+00
 -1      3289 2.33830E+00 3.16921E+00 0.00000E+00
 -1      3290 2.67291E+00 2.95078E+00 0.00000E+00
 -1      3291-2.59506E+00 3.16046E+00 0.00000E+00
 -1      3292-2.85445E+00 3.14198E+00 0.00000E+00
 -1      3293-2.23536E+00 3.36089E+00 0.00000E+00
 -1      3294-2.49211E+00 3.35214E+00 0.00000E+00
 -1      3295-1.85622E+00 3.53138E+00 0.00000E+00
 -1      3296-2.10924E+00 3.53402E+00 0.00000E+00
 -1      3297-1.46087E+00 3.67007E+00 0.00000E+00
 -1      3298-1.70888E+00 3.68563E+00 0.00000E+00
 -1      3299-1.05274E+00 3.77544E+00 0.00000E+00
 -1      3300-1.29431E+00 3.80530E+00 0.00000E+00
 -1      3301-6.35367E-01 3.84633E+00 0.00000E+00
 -1      3302-8.68936E-01 3.89174E+00 0.00000E+00
 -1      3303-2.12412E-01 3.88198E+00 0.00000E+00
 -1      3304-4.36295E-01 3.94398E+00 0.00000E+00
 -1      3305 2.12412E-01 3.88198E+00 0.00000E+00
 -1      3306 6.27202E-09 3.96145E+00 0.00000E+00
 -1      3307 6.35367E-01 3.84633E+00 0.00000E+00
 -1      3308 4.36295E-01 3.94398E+00 0.00000E+00
 -1      3309 1.05274E+00 3.77544E+00 0.00000E+00
 -1      3310 8.68936E-01 3.89174E+00 0.00000E+00
 -1      3311 1.46087E+00 3.67007E+00 0.00000E+00
 -1      3312 1.29431E+00 3.80530E+00 0.00000E+00
 -1      3313 1.85622E+00 3.53138E+00 0.00000E+00
 -1      3314 1.70888E+00 3.68563E+00 0.00000E+00
 -1      3315 2.23536E+00 3.36089E+00 0.00000E+00
 -1      3316 2.10924E+00 3.53402E+00 0.00000E+00
 -1      3317 2.59506E+00 3.16046E+00 0.00000E+00
 -1      3318 2.49211E+00 3.35214E+00 0.00000E+00
 -1      3319 2.85445E+00 3.14198E+00 0.00000E+00
 -1      3320-2.77182E+00 3.35764E+00 0.00000E+00
 -1      3321-3.05615E+00 3.35444E+00 0.00000E+00
 -1      3322-2.38331E+00 3.54990E+00 0.00000E+00
 -1      3323-2.66302E+00 3.55540E+00 0.00000E+00
 -1      3324-1.97616E+00 3.71345E+00 0.00000E+00
 -1      3325-2.25023E+00 3.72933E+00 0.00000E+00
 -1      3326-1.55346E+00 3.84649E+00 0.00000E+00
 -1      3327-1.82074E+00 3.87431E+00 0.00000E+00
 -1      3328-1.11850E+00 3.94756E+00 0.00000E+00
 -1      3329-1.37765E+00 3.98875E+00 0.00000E+00
 -1      3330-6.74670E-01 4.01557E+00 0.00000E+00
 -1      3331-9.24231E-01 4.07140E+00 0.00000E+00
 -1      3332-2.25487E-01 4.04976E+00 0.00000E+00
 -1      3333-4.63863E-01 4.12136E+00 0.00000E+00
 -1      3334 2.25487E-01 4.04976E+00 0.00000E+00
 -1      3335 5.99683E-09 4.13807E+00 0.00000E+00
 -1      3336 6.74670E-01 4.01557E+00 0.00000E+00
 -1      3337 4.63863E-01 4.12136E+00 0.00000E+00
 -1      3338 1.11850E+00 3.94756E+00 0.00000E+00
 -1      3339 9.24231E-01 4.07140E+00 0.00000E+00
 -1      3340 1.55346E+00 3.84649E+00 0.00000E+00
 -1      3341 1.37765E+00 3.98875E+00 0.00000E+00
 -1      3342 1.97616E+00 3.71345E+00 0.00000E+00
 -1      3343 1.82074E+00 3.87431E+00 0.00000E+00
 -1      3344 2.38331E+00 3.54990E+00 0.00000E+00
 -1      3345 2.25023E+00 3.72933E+00 0.00000E+00
 -1      3346 2.77182E+00 3.35764E+00 0.00000E+00
 -1      3347 2.66302E+00 3.55540E+00 0.00000E+00
 -1      3348 3.05615E+00 3.35444E+00 0.00000E+00
 -1      3349-2.96822E+00 3.57674E+00 0.00000E+00
 -1      3350-3.28026E+00 3.59050E+00 0.00000E+00
 -1      3351-2.54771E+00 3.75992E+00 0.00000E+00
 -1      3352-2.85291E+00 3.78125E+00 0.00000E+00
 -1      3353-2.10943E+00 3.91575E+00 0.00000E+00
 -1      3354-2.40690E+00 3.94634E+00 0.00000E+00
 -1      3355-1.65634E+00 4.04251E+00 0.00000E+00
 -1      3356-1.94503E+00 4.08395E+00 0.00000E+00
 -1      3357-1.19156E+00 4.13881E+00 0.00000E+00
 -1      3358-1.47025E+00 4.19257E+00 0.00000E+00
 -1      3359-7.18340E-01 4.20361E+00 0.00000E+00
 -1      3360-9.85670E-01 4.27103E+00 0.00000E+00
 -1      3361-2.40016E-01 4.23619E+00 0.00000E+00
 -1      3362-4.94493E-01 4.31844E+00 0.00000E+00
 -1      3363 2.40016E-01 4.23619E+00 0.00000E+00
 -1      3364 5.69105E-09 4.33431E+00 0.00000E+00
 -1      3365 7.18340E-01 4.20361E+00 0.00000E+00
 -1      3366 4.94493E-01 4.31844E+00 0.00000E+00
 -1      3367 1.19156E+00 4.13881E+00 0.00000E+00
 -1      3368 9.85670E-01 4.27103E+00 0.00000E+00
 -1      3369 1.65634E+00 4.04251E+00 0.00000E+00
 -1      3370 1.47025E+00 4.19257E+00 0.00000E+00
 -1      3371 2.10943E+00 3.91575E+00 0.00000E+00
 -1      3372 1.94503E+00 4.08395E+00 0.00000E+00
 -1      3373 2.54771E+00 3.75992E+00 0.00000E+00
 -1      3374 2.40690E+00 3.94634E+00 0.00000E+00
 -1      3375 2.96822E+00 3.57674E+00 0.00000E+00
 -1      3376 2.85291E+00 3.78125E+00 0.00000E+00
 -1      3377 3.28026E+00 3.59050E+00 0.00000E+00
 -1      3378-3.18644E+00 3.82017E+00 0.00000E+00
 -1      3379-3.52928E+00 3.85278E+00 0.00000E+00
 -1      3380-2.73036E+00 3.99327E+00 0.00000E+00
 -1      3381-3.06389E+00 4.03219E+00 0.00000E+00
 -1      3382-2.25750E+00 4.14052E+00 0.00000E+00
 -1      3383-2.58097E+00 4.18746E+00 0.00000E+00
 -1      3384-1.77065E+00 4.26031E+00 0.00000E+00
 -1      3385-2.08312E+00 4.31688E+00 0.00000E+00
 -1      3386-1.27274E+00 4.35132E+00 0.00000E+00
 -1      3387-1.57314E+00 4.41905E+00 0.00000E+00
 -1      3388-7.66862E-01 4.41255E+00 0.00000E+00
 -1      3389-1.05394E+00 4.49283E+00 0.00000E+00
 -1      3390-2.56159E-01 4.44333E+00 0.00000E+00
 -1      3391-5.28527E-01 4.53743E+00 0.00000E+00
 -1      3392 2.56159E-01 4.44333E+00 0.00000E+00
 -1      3393 5.35131E-09 4.55235E+00 0.00000E+00
 -1      3394 7.66862E-01 4.41255E+00 0.00000E+00
 -1      3395 5.28527E-01 4.53743E+00 0.00000E+00
 -1      3396 1.27274E+00 4.35132E+00 0.00000E+00
 -1      3397 1.05394E+00 4.49283E+00 0.00000E+00
 -1      3398 1.77065E+00 4.26031E+00 0.00000E+00
 -1      3399 1.57314E+00 4.41905E+00 0.00000E+00
 -1      3400 2.25750E+00 4.14052E+00 0.00000E+00
 -1      3401 2.08312E+00 4.31688E+00 0.00000E+00
 -1      3402 2.73036E+00 3.99327E+00 0.00000E+00
 -1      3403 2.58097E+00 4.18746E+00 0.00000E+00
 -1      3404 3.18644E+00 3.82017E+00 0.00000E+00
 -1      3405 3.06389E+00 4.03219E+00 0.00000E+00
 -1      3406 3.52928E+00 3.85278E+00 0.00000E+00
 -1      3407-3.42890E+00 4.09065E+00 0.00000E+00
 -1      3408-3.80597E+00 4.14421E+00 0.00000E+00
 -1      3409-2.93332E+00 4.25255E+00 0.00000E+00
 -1      3410-3.29833E+00 4.31101E+00 0.00000E+00
 -1      3411-2.42203E+00 4.39028E+00 0.00000E+00
 -1      3412-2.77438E+00 4.45537E+00 0.00000E+00
 -1      3413-1.89766E+00 4.50231E+00 0.00000E+00
 -1      3414-2.23656E+00 4.57570E+00 0.00000E+00
 -1      3415-1.36295E+00 4.58743E+00 0.00000E+00
 -1      3416-1.68746E+00 4.67069E+00 0.00000E+00
 -1      3417-8.20776E-01 4.64469E+00 0.00000E+00
 -1      3418-1.12979E+00 4.73929E+00 0.00000E+00
 -1      3419-2.74095E-01 4.67349E+00 0.00000E+00
 -1      3420-5.66343E-01 4.78075E+00 0.00000E+00
 -1      3421 2.74095E-01 4.67349E+00 0.00000E+00
 -1      3422 4.97381E-09 4.79462E+00 0.00000E+00
 -1      3423 8.20776E-01 4.64469E+00 0.00000E+00
 -1      3424 5.66343E-01 4.78075E+00 0.00000E+00
 -1      3425 1.36295E+00 4.58743E+00 0.00000E+00
 -1      3426 1.12979E+00 4.73929E+00 0.00000E+00
 -1      3427 1.89766E+00 4.50231E+00 0.00000E+00
 -1      3428 1.68746E+00 4.67069E+00 0.00000E+00
 -1      3429 2.42203E+00 4.39028E+00 0.00000E+00
 -1      3430 2.23656E+00 4.57570E+00 0.00000E+00
 -1      3431 2.93332E+00 4.25255E+00 0.00000E+00
 -1      3432 2.77438E+00 4.45537E+00 0.00000E+00
 -1      3433 3.42890E+00 4.09065E+00 0.00000E+00
 -1      3434 3.29833E+00 4.31101E+00 0.00000E+00
 -1      3435 3.80597E+00 4.14421E+00 0.00000E+00
 -1      3436-3.69831E+00 4.39119E+00 0.00000E+00
 -1      3437-4.11339E+00 4.46802E+00 0.00000E+00
 -1      3438-3.15882E+00 4.54064E+00 0.00000E+00
 -1      3439-3.55881E+00 4.62082E+00 0.00000E+00
 -1      3440-2.60484E+00 4.66778E+00 0.00000E+00
 -1      3441-2.98928E+00 4.75305E+00 0.00000E+00
 -1      3442-2.03878E+00 4.77120E+00 0.00000E+00
 -1      3443-2.40705E+00 4.86328E+00 0.00000E+00
 -1      3444-1.46317E+00 4.84977E+00 0.00000E+00
 -1      3445-1.81449E+00 4.95028E+00 0.00000E+00
 -1      3446-8.80680E-01 4.90264E+00 0.00000E+00
 -1      3447-1.21406E+00 5.01312E+00 0.00000E+00
 -1      3448-2.94024E-01 4.92922E+00 0.00000E+00
 -1      3449-6.08361E-01 5.05110E+00 0.00000E+00
 -1      3450 2.94024E-01 4.92922E+00 0.00000E+00
 -1      3451 4.55437E-09 5.06381E+00 0.00000E+00
 -1      3452 8.80680E-01 4.90264E+00 0.00000E+00
 -1      3453 6.08361E-01 5.05110E+00 0.00000E+00
 -1      3454 1.46317E+00 4.84977E+00 0.00000E+00
 -1      3455 1.21406E+00 5.01312E+00 0.00000E+00
 -1      3456 2.03878E+00 4.77120E+00 0.00000E+00
 -1      3457 1.81449E+00 4.95028E+00 0.00000E+00
 -1      3458 2.60484E+00 4.66778E+00 0.00000E+00
 -1      3459 2.40705E+00 4.86328E+00 0.00000E+00
 -1      3460 3.15882E+00 4.54064E+00 0.00000E+00
 -1      3461 2.98928E+00 4.75305E+00 0.00000E+00
 -1      3462 3.69831E+00 4.39119E+00 0.00000E+00
 -1      3463 3.55881E+00 4.62082E+00 0.00000E+00
 -1      3464 4.11339E+00 4.46802E+00 0.00000E+00
 -1      3465-3.99765E+00 4.72512E+00 0.00000E+00
 -1      3466-4.45498E+00 4.82781E+00 0.00000E+00
 -1      3467-3.40938E+00 4.86074E+00 0.00000E+00
 -1      3468-3.84823E+00 4.96504E+00 0.00000E+00
 -1      3469-2.80796E+00 4.97611E+00 0.00000E+00
 -1      3470-3.22806E+00 5.08381E+00 0.00000E+00
 -1      3471-2.19558E+00 5.06996E+00 0.00000E+00
 -1      3472-2.59649E+00 5.18280E+00 0.00000E+00
 -1      3473-1.57453E+00 5.14127E+00 0.00000E+00
 -1      3474-1.95562E+00 5.26095E+00 0.00000E+00
 -1      3475-9.47239E-01 5.18924E+00 0.00000E+00
 -1      3476-1.30771E+00 5.31739E+00 0.00000E+00
 -1      3477-3.16168E-01 5.21336E+00 0.00000E+00
 -1      3478-6.55047E-01 5.35150E+00 0.00000E+00
 -1      3479 3.16168E-01 5.21336E+00 0.00000E+00
 -1      3480 4.08832E-09 5.36291E+00 0.00000E+00
 -1      3481 9.47239E-01 5.18924E+00 0.00000E+00
 -1      3482 6.55047E-01 5.35150E+00 0.00000E+00
 -1      3483 1.57453E+00 5.14127E+00 0.00000E+00
 -1      3484 1.30771E+00 5.31739E+00 0.00000E+00
 -1      3485 2.19558E+00 5.06996E+00 0.00000E+00
 -1      3486 1.95562E+00 5.26095E+00 0.00000E+00
 -1      3487 2.80796E+00 4.97611E+00 0.00000E+00
 -1      3488 2.59649E+00 5.18280E+00 0.00000E+00
 -1      3489 3.40938E+00 4.86074E+00 0.00000E+00
 -1      3490 3.22806E+00 5.08381E+00 0.00000E+00
 -1      3491 3.99765E+00 4.72512E+00 0.00000E+00
 -1      3492 3.84823E+00 4.96504E+00 0.00000E+00
 -1      3493 4.45498E+00 4.82781E+00 0.00000E+00
 -1      3494-4.33025E+00 5.09615E+00 0.00000E+00
 -1      3495-4.83452E+00 5.22758E+00 0.00000E+00
 -1      3496-3.68779E+00 5.21641E+00 0.00000E+00
 -1      3497-4.16981E+00 5.34752E+00 0.00000E+00
 -1      3498-3.03365E+00 5.31871E+00 0.00000E+00
 -1      3499-3.49338E+00 5.45131E+00 0.00000E+00
 -1      3500-2.36980E+00 5.40193E+00 0.00000E+00
 -1      3501-2.80697E+00 5.53783E+00 0.00000E+00
 -1      3502-1.69827E+00 5.46515E+00 0.00000E+00
 -1      3503-2.11244E+00 5.60613E+00 0.00000E+00
 -1      3504-1.02119E+00 5.50769E+00 0.00000E+00
 -1      3505-1.41175E+00 5.65546E+00 0.00000E+00
 -1      3506-3.40772E-01 5.52908E+00 0.00000E+00
 -1      3507-7.06920E-01 5.68527E+00 0.00000E+00
 -1      3508 3.40772E-01 5.52908E+00 0.00000E+00
 -1      3509 3.57049E-09 5.69524E+00 0.00000E+00
 -1      3510 1.02119E+00 5.50769E+00 0.00000E+00
 -1      3511 7.06920E-01 5.68527E+00 0.00000E+00
 -1      3512 1.69827E+00 5.46515E+00 0.00000E+00
 -1      3513 1.41175E+00 5.65546E+00 0.00000E+00
 -1      3514 2.36980E+00 5.40193E+00 0.00000E+00
 -1      3515 2.11244E+00 5.60613E+00 0.00000E+00
 -1      3516 3.03365E+00 5.31871E+00 0.00000E+00
 -1      3517 2.80697E+00 5.53783E+00 0.00000E+00
 -1      3518 3.68779E+00 5.21641E+00 0.00000E+00
 -1      3519 3.49338E+00 5.45131E+00 0.00000E+00
 -1      3520 4.33025E+00 5.09615E+00 0.00000E+00
 -1      3521 4.16981E+00 5.34752E+00 0.00000E+00
 -1      3522 4.83452E+00 5.22758E+00 0.00000E+00
 -1      3523-4.69981E+00 5.50841E+00 0.00000E+00
 -1      3524-5.25623E+00 5.67177E+00 0.00000E+00
 -1      3525-3.99712E+00 5.61159E+00 0.00000E+00
 -1      3526-4.52712E+00 5.77249E+00 0.00000E+00
 -1      3527-3.28442E+00 5.69937E+00 0.00000E+00
 -1      3528-3.78817E+00 5.85965E+00 0.00000E+00
 -1      3529-2.56338E+00 5.77077E+00 0.00000E+00
 -1      3530-3.04083E+00 5.93231E+00 0.00000E+00
 -1      3531-1.83575E+00 5.82502E+00 0.00000E+00
 -1      3532-2.28669E+00 5.98967E+00 0.00000E+00
 -1      3533-1.10337E+00 5.86152E+00 0.00000E+00
 -1      3534-1.52736E+00 6.03109E+00 0.00000E+00
 -1      3535-3.68110E-01 5.87987E+00 0.00000E+00
 -1      3536-7.64557E-01 6.05613E+00 0.00000E+00
 -1      3537 3.68110E-01 5.87987E+00 0.00000E+00
 -1      3538 2.99513E-09 6.06450E+00 0.00000E+00
 -1      3539 1.10337E+00 5.86152E+00 0.00000E+00
 -1      3540 7.64557E-01 6.05613E+00 0.00000E+00
 -1      3541 1.83575E+00 5.82502E+00 0.00000E+00
 -1      3542 1.52736E+00 6.03109E+00 0.00000E+00
 -1      3543 2.56338E+00 5.77077E+00 0.00000E+00
 -1      3544 2.28669E+00 5.98967E+00 0.00000E+00
 -1      3545 3.28442E+00 5.69937E+00 0.00000E+00
 -1      3546 3.04083E+00 5.93231E+00 0.00000E+00
 -1      3547 3.99712E+00 5.61159E+00 0.00000E+00
 -1      3548 3.78817E+00 5.85965E+00 0.00000E+00
 -1      3549 4.69981E+00 5.50841E+00 0.00000E+00
 -1      3550 4.52712E+00 5.77249E+00 0.00000E+00
 -1      3551 5.25623E+00 5.67177E+00 0.00000E+00
 -1      3552-5.11043E+00 5.96647E+00 0.00000E+00
 -1      3553-5.72480E+00 6.16531E+00 0.00000E+00
 -1      3554-4.34083E+00 6.05069E+00 0.00000E+00
 -1      3555-4.92414E+00 6.24468E+00 0.00000E+00
 -1      3556-3.56305E+00 6.12233E+00 0.00000E+00
 -1      3557-4.11571E+00 6.31336E+00 0.00000E+00
 -1      3558-2.77847E+00 6.18060E+00 0.00000E+00
 -1      3559-3.30069E+00 6.37062E+00 0.00000E+00
 -1      3560-1.98851E+00 6.22488E+00 0.00000E+00
 -1      3561-2.48029E+00 6.41582E+00 0.00000E+00
 -1      3562-1.19467E+00 6.25467E+00 0.00000E+00
 -1      3563-1.65582E+00 6.44846E+00 0.00000E+00
 -1      3564-3.98485E-01 6.26965E+00 0.00000E+00
 -1      3565-8.28598E-01 6.46819E+00 0.00000E+00
 -1      3566 3.98485E-01 6.26965E+00 0.00000E+00
 -1      3567 2.35583E-09 6.47479E+00 0.00000E+00
 -1      3568 1.19467E+00 6.25467E+00 0.00000E+00
 -1      3569 8.28598E-01 6.46819E+00 0.00000E+00
 -1      3570 1.98851E+00 6.22488E+00 0.00000E+00
 -1      3571 1.65582E+00 6.44846E+00 0.00000E+00
 -1      3572 2.77847E+00 6.18060E+00 0.00000E+00
 -1      3573 2.48029E+00 6.41582E+00 0.00000E+00
 -1      3574 3.56305E+00 6.12233E+00 0.00000E+00
 -1      3575 3.30069E+00 6.37062E+00 0.00000E+00
 -1      3576 4.34083E+00 6.05069E+00 0.00000E+00
 -1      3577 4.11571E+00 6.31336E+00 0.00000E+00
 -1      3578 5.11043E+00 5.96647E+00 0.00000E+00
 -1      3579 4.92414E+00 6.24468E+00 0.00000E+00
 -1      3580 5.72480E+00 6.16531E+00 0.00000E+00
 -1      3581-5.56668E+00 6.47543E+00 0.00000E+00
 -1      3582-6.24543E+00 6.71368E+00 0.00000E+00
 -1      3583-4.72272E+00 6.53857E+00 0.00000E+00
 -1      3584-5.36526E+00 6.76933E+00 0.00000E+00
 -1      3585-3.87264E+00 6.59228E+00 0.00000E+00
 -1      3586-4.47965E+00 6.81749E+00 0.00000E+00
 -1      3587-3.01746E+00 6.63597E+00 0.00000E+00
 -1      3588-3.58941E+00 6.85763E+00 0.00000E+00
 -1      3589-2.15824E+00 6.66917E+00 0.00000E+00
 -1      3590-2.69541E+00 6.88932E+00 0.00000E+00
 -1      3591-1.29612E+00 6.69150E+00 0.00000E+00
 -1      3592-1.79854E+00 6.91220E+00 0.00000E+00
 -1      3593-4.32236E-01 6.70273E+00 0.00000E+00
 -1      3594-8.99755E-01 6.92604E+00 0.00000E+00
 -1      3595 4.32236E-01 6.70273E+00 0.00000E+00
 -1      3596 1.64550E-09 6.93066E+00 0.00000E+00
 -1      3597 1.29612E+00 6.69150E+00 0.00000E+00
 -1      3598 8.99755E-01 6.92604E+00 0.00000E+00
 -1      3599 2.15824E+00 6.66917E+00 0.00000E+00
 -1      3600 1.79854E+00 6.91220E+00 0.00000E+00
 -1      3601 3.01746E+00 6.63597E+00 0.00000E+00
 -1      3602 2.69541E+00 6.88932E+00 0.00000E+00
 -1      3603 3.87264E+00 6.59228E+00 0.00000E+00
 -1      3604 3.58941E+00 6.85763E+00 0.00000E+00
 -1      3605 4.72272E+00 6.53857E+00 0.00000E+00
 -1      3606 4.47965E+00 6.81749E+00 0.00000E+00
 -1      3607 5.56668E+00 6.47543E+00 0.00000E+00
 -1      3608 5.36526E+00 6.76933E+00 0.00000E+00
 -1      3609 6.24543E+00 6.71368E+00 0.00000E+00
 -1      3610-6.07361E+00 7.04094E+00 0.00000E+00
 -1      3611-6.82391E+00 7.32299E+00 0.00000E+00
 -1      3612-5.14705E+00 7.08066E+00 0.00000E+00
 -1      3613-5.85540E+00 7.35228E+00 0.00000E+00
 -1      3614-4.21663E+00 7.11445E+00 0.00000E+00
 -1      3615-4.88403E+00 7.37762E+00 0.00000E+00
 -1      3616-3.28300E+00 7.14193E+00 0.00000E+00
 -1      3617-3.91022E+00 7.39875E+00 0.00000E+00
 -1      3618-2.34683E+00 7.16282E+00 0.00000E+00
 -1      3619-2.93442E+00 7.41543E+00 0.00000E+00
 -1      3620-1.40884E+00 7.17686E+00 0.00000E+00
 -1      3621-1.95713E+00 7.42748E+00 0.00000E+00
 -1      3622-4.69736E-01 7.18393E+00 0.00000E+00
 -1      3623-9.78819E-01 7.43476E+00 0.00000E+00
 -1      3624 4.69736E-01 7.18393E+00 0.00000E+00
 -1      3625 8.56250E-10 7.43719E+00 0.00000E+00
 -1      3626 1.40884E+00 7.17686E+00 0.00000E+00
 -1      3627 9.78819E-01 7.43476E+00 0.00000E+00
 -1      3628 2.34683E+00 7.16282E+00 0.00000E+00
 -1      3629 1.95713E+00 7.42748E+00 0.00000E+00
 -1      3630 3.28300E+00 7.14193E+00 0.00000E+00
 -1      3631 2.93442E+00 7.41543E+00 0.00000E+00
 -1      3632 4.21663E+00 7.11445E+00 0.00000E+00
 -1      3633 3.91022E+00 7.39875E+00 0.00000E+00
 -1      3634 5.14705E+00 7.08066E+00 0.00000E+00
 -1      3635 4.88403E+00 7.37762E+00 0.00000E+00
 -1      3636 6.07361E+00 7.04094E+00 0.00000E+00
 -1      3637 5.85540E+00 7.35228E+00 0.00000E+00
 -1      3638 6.82391E+00 7.32299E+00 0.00000E+00
 -1      3639-6.63688E+00 7.66929E+00 0.00000E+00
 -1      3640-5.61852E+00 7.68299E+00 0.00000E+00
 -1      3641-4.59884E+00 7.69464E+00 0.00000E+00
 -1      3642-3.57805E+00 7.70412E+00 0.00000E+00
 -1      3643-2.55638E+00 7.71132E+00 0.00000E+00
 -1      3644-1.53408E+00 7.71616E+00 0.00000E+00
 -1      3645-5.11403E-01 7.71860E+00 0.00000E+00
 -1      3646 5.11403E-01 7.71860E+00 0.00000E+00
 -1      3647 1.53408E+00 7.71616E+00 0.00000E+00
 -1      3648 2.55638E+00 7.71132E+00 0.00000E+00
 -1      3649 3.57805E+00 7.70412E+00 0.00000E+00
 -1      3650 4.59884E+00 7.69464E+00 0.00000E+00
 -1      3651 5.61852E+00 7.68299E+00 0.00000E+00
 -1      3652 6.63688E+00 7.66929E+00 0.00000E+00
 -1      3653 2.39375E+01 3.64828E+01 0.00000E+00
 -1      3654 2.28750E+01 3.64828E+01 0.00000E+00
 -1      3655 2.18125E+01 3.64828E+01 0.00000E+00
 -1      3656 2.07500E+01 3.64828E+01 0.00000E+00
 -1      3657 1.96875E+01 3.64828E+01 0.00000E+00
 -1      3658 1.86250E+01 3.64828E+01 0.00000E+00
 -1      3659 1.75625E+01 3.64828E+01 0.00000E+00
 -1      3660 1.65000E+01 3.64828E+01 0.00000E+00
 -1      3661 1.54375E+01 3.64828E+01 0.00000E+00
 -1      3662 1.43750E+01 3.64828E+01 0.00000E+00
 -1      3663 1.33125E+01 3.64828E+01 0.00000E+00
 -1      3664 1.22500E+01 3.64828E+01 0.00000E+00
 -1      3665 1.11875E+01 3.64828E+01 0.00000E+00
 -1      3666 1.01250E+01 3.64828E+01 0.00000E+00
 -1      3667 9.06250E+00 3.64828E+01 0.00000E+00
 -1      3668 2.39375E+01 3.54655E+01 0.00000E+00
 -1      3669 2.28750E+01 3.54655E+01 0.00000E+00
 -1      3670 2.18125E+01 3.54655E+01 0.00000E+00
 -1      3671 2.07500E+01 3.54655E+01 0.00000E+00
 -1      3672 1.96875E+01 3.54655E+01 0.00000E+00
 -1      3673 1.86250E+01 3.54655E+01 0.00000E+00
 -1      3674 1.75625E+01 3.54655E+01 0.00000E+00
 -1      3675 1.65000E+01 3.54655E+01 0.00000E+00
 -1      3676 1.54375E+01 3.54655E+01 0.00000E+00
 -1      3677 1.43750E+01 3.54655E+01 0.00000E+00
 -1      3678 1.33125E+01 3.54655E+01 0.00000E+00
 -1      3679 1.22500E+01 3.54655E+01 0.00000E+00
 -1      3680 1.11875E+01 3.54655E+01 0.00000E+00
 -1      3681 1.01250E+01 3.54655E+01 0.00000E+00
 -1      3682 9.06250E+00 3.54655E+01 0.00000E+00
 -1      3683 2.39375E+01 3.44483E+01 0.00000E+00
 -1      3684 2.28750E+01 3.44483E+01 0.00000E+00
 -1      3685 2.18125E+01 3.44483E+01 0.00000E+00
 -1      3686 2.07500E+01 3.44483E+01 0.00000E+00
 -1      3687 1.96875E+01 3.44483E+01 0.00000E+00
 -1      3688 1.86250E+01 3.44483E+01 0.00000E+00
 -1      3689 1.75625E+01 3.44483E+01 0.00000E+00
 -1      3690 1.65000E+01 3.44483E+01 0.00000E+00
 -1      3691 1.54375E+01 3.44483E+01 0.00000E+00
 -1      3692 1.43750E+01 3.44483E+01 0.00000E+00
 -1      3693 1.33125E+01 3.44483E+01 0.00000E+00
 -1      3694 1.22500E+01 3.44483E+01 0.00000E+00
 -1      3695 1.11875E+01 3.44483E+01 0.00000E+00
 -1      3696 1.01250E+01 3.44483E+01 0.00000E+00
 -1      3697 9.06250E+00 3.44483E+01 0.00000E+00
 -1      3698 2.39375E+01 3.34310E+01 0.00000E+00
 -1      3699 2.28750E+01 3.34310E+01 0.00000E+00
 -1      3700 2.18125E+01 3.34310E+01 0.00000E+00
 -1      3701 2.07500E+01 3.34310E+01 0.00000E+00
 -1      3702 1.96875E+01 3.34310E+01 0.00000E+00
 -1      3703 1.86250E+01 3.34310E+01 0.00000E+00
 -1      3704 1.75625E+01 3.34310E+01 0.00000E+00
 -1      3705 1.65000E+01 3.34310E+01 0.00000E+00
 -1      3706 1.54375E+01 3.34310E+01 0.00000E+00
 -1      3707 1.43750E+01 3.34310E+01 0.00000E+00
 -1      3708 1.33125E+01 3.34310E+01 0.00000E+00
 -1      3709 1.22500E+01 3.34310E+01 0.00000E+00
 -1      3710 1.11875E+01 3.34310E+01 0.00000E+00
 -1      3711 1.01250E+01 3.34310E+01 0.00000E+00
 -1      3712 9.06250E+00 3.34310E+01 0.00000E+00
 -1      3713 2.39375E+01 3.24138E+01 0.00000E+00
 -1      3714 2.28750E+01 3.24138E+01 0.00000E+00
 -1      3715 2.18125E+01 3.24138E+01 0.00000E+00
 -1      3716 2.07500E+01 3.24138E+01 0.00000E+00
 -1      3717 1.96875E+01 3.24138E+01 0.00000E+00
 -1      3718 1.86250E+01 3.24138E+01 0.00000E+00
 -1      3719 1.75625E+01 3.24138E+01 0.00000E+00
 -1      3720 1.65000E+01 3.24138E+01 0.00000E+00
 -1      3721 1.54375E+01 3.24138E+01 0.00000E+00
 -1      3722 1.43750E+01 3.24138E+01 0.00000E+00
 -1      3723 1.33125E+01 3.24138E+01 0.00000E+00
 -1      3724 1.22500E+01 3.24138E+01 0.00000E+00
 -1      3725 1.11875E+01 3.24138E+01 0.00000E+00
 -1      3726 1.01250E+01 3.24138E+01 0.00000E+00
 -1      3727 9.06250E+00 3.24138E+01 0.00000E+00
 -1      3728 2.39375E+01 3.13966E+01 0.00000E+00
 -1      3729 2.28750E+01 3.13966E+01 0.00000E+00
 -1      3730 2.18125E+01 3.13966E+01 0.00000E+00
 -1      3731 2.07500E+01 3.13966E+01 0.00000E+00
 -1      3732 1.96875E+01 3.13966E+01 0.00000E+00
 -1      3733 1.86250E+01 3.13966E+01 0.00000E+00
 -1      3734 1.75625E+01 3.13966E+01 0.00000E+00
 -1      3735 1.65000E+01 3.13966E+01 0.00000E+00
 -1      3736 1.54375E+01 3.13966E+01 0.00000E+00
 -1      3737 1.43750E+01 3.13966E+01 0.00000E+00
 -1      3738 1.33125E+01 3.13966E+01 0.00000E+00
 -1      3739 1.22500E+01 3.13966E+01 0.00000E+00
 -1      3740 1.11875E+01 3.13966E+01 0.00000E+00
 -1      3741 1.01250E+01 3.13966E+01 0.00000E+00
 -1      3742 9.06250E+00 3.13966E+01 0.00000E+00
 -1      3743 2.39375E+01 3.03793E+01 0.00000E+00
 -1      3744 2.28750E+01 3.03793E+01 0.00000E+00
 -1      3745 2.18125E+01 3.03793E+01 0.00000E+00
 -1      3746 2.07500E+01 3.03793E+01 0.00000E+00
 -1      3747 1.96875E+01 3.03793E+01 0.00000E+00
 -1      3748 1.86250E+01 3.03793E+01 0.00000E+00
 -1      3749 1.75625E+01 3.03793E+01 0.00000E+00
 -1      3750 1.65000E+01 3.03793E+01 0.00000E+00
 -1      3751 1.54375E+01 3.03793E+01 0.00000E+00
 -1      3752 1.43750E+01 3.03793E+01 0.00000E+00
 -1      3753 1.33125E+01 3.03793E+01 0.00000E+00
 -1      3754 1.22500E+01 3.03793E+01 0.00000E+00
 -1      3755 1.11875E+01 3.03793E+01 0.00000E+00
 -1      3756 1.01250E+01 3.03793E+01 0.00000E+00
 -1      3757 9.06250E+00 3.03793E+01 0.00000E+00
 -1      3758 2.39375E+01 2.93621E+01 0.00000E+00
 -1      3759 2.28750E+01 2.93621E+01 0.00000E+00
 -1      3760 2.18125E+01 2.93621E+01 0.00000E+00
 -1      3761 2.07500E+01 2.93621E+01 0.00000E+00
 -1      3762 1.96875E+01 2.93621E+01 0.00000E+00
 -1      3763 1.86250E+01 2.93621E+01 0.00000E+00
 -1      3764 1.75625E+01 2.93621E+01 0.00000E+00
 -1      3765 1.65000E+01 2.93621E+01 0.00000E+00
 -1      3766 1.54375E+01 2.93621E+01 0.00000E+00
 -1      3767 1.43750E+01 2.93621E+01 0.00000E+00
 -1      3768 1.33125E+01 2.93621E+01 0.00000E+00
 -1      3769 1.22500E+01 2.93621E+01 0.00000E+00
 -1      3770 1.11875E+01 2.93621E+01 0.00000E+00
 -1      3771 1.01250E+01 2.93621E+01 0.00000E+00
 -1      3772 9.06250E+00 2.93621E+01 0.00000E+00
 -1      3773 2.39375E+01 2.83448E+01 0.00000E+00
 -1      3774 2.28750E+01 2.83448E+01 0.00000E+00
 -1      3775 2.18125E+01 2.83448E+01 0.00000E+00
 -1      3776 2.07500E+01 2.83448E+01 0.00000E+00
 -1      3777 1.96875E+01 2.83448E+01 0.00000E+00
 -1      3778 1.86250E+01 2.83448E+01 0.00000E+00
 -1      3779 1.75625E+01 2.83448E+01 0.00000E+00
 -1      3780 1.65000E+01 2.83448E+01 0.00000E+00
 -1      3781 1.54375E+01 2.83448E+01 0.00000E+00
 -1      3782 1.43750E+01 2.83448E+01 0.00000E+00
 -1      3783 1.33125E+01 2.83448E+01 0.00000E+00
 -1      3784 1.22500E+01 2.83448E+01 0.00000E+00
 -1      3785 1.11875E+01 2.83448E+01 0.00000E+00
 -1      3786 1.01250E+01 2.83448E+01 0.00000E+00
 -1      3787 9.06250E+00 2.83448E+01 0.00000E+00
 -1      3788 2.39375E+01 2.73276E+01 0.00000E+00
 -1      3789 2.28750E+01 2.73276E+01 0.00000E+00
 -1      3790 2.18125E+01 2.73276E+01 0.00000E+00
 -1      3791 2.07500E+01 2.73276E+01 0.00000E+00
 -1      3792 1.96875E+01 2.73276E+01 0.00000E+00
 -1      3793 1.86250E+01 2.73276E+01 0.00000E+00
 -1      3794 1.75625E+01 2.73276E+01 0.00000E+00
 -1      3795 1.65000E+01 2.73276E+01 0.00000E+00
 -1      3796 1.54375E+01 2.73276E+01 0.00000E+00
 -1      3797 1.43750E+01 2.73276E+01 0.00000E+00
 -1      3798 1.33125E+01 2.73276E+01 0.00000E+00
 -1      3799 1.22500E+01 2.73276E+01 0.00000E+00
 -1      3800 1.11875E+01 2.73276E+01 0.00000E+00
 -1      3801 1.01250E+01 2.73276E+01 0.00000E+00
 -1      3802 9.06250E+00 2.73276E+01 0.00000E+00
 -1      3803 2.39375E+01 2.63103E+01 0.00000E+00
 -1      3804 2.28750E+01 2.63103E+01 0.00000E+00
 -1      3805 2.18125E+01 2.63103E+01 0.00000E+00
 -1      3806 2.07500E+01 2.63103E+01 0.00000E+00
 -1      3807 1.96875E+01 2.63103E+01 0.00000E+00
 -1      3808 1.86250E+01 2.63103E+01 0.00000E+00
 -1      3809 1.75625E+01 2.63103E+01 0.00000E+00
 -1      3810 1.65000E+01 2.63103E+01 0.00000E+00
 -1      3811 1.54375E+01 2.63103E+01 0.00000E+00
 -1      3812 1.43750E+01 2.63103E+01 0.00000E+00
 -1      3813 1.33125E+01 2.63103E+01 0.00000E+00
 -1      3814 1.22500E+01 2.63103E+01 0.00000E+00
 -1      3815 1.11875E+01 2.63103E+01 0.00000E+00
 -1      3816 1.01250E+01 2.63103E+01 0.00000E+00
 -1      3817 9.06250E+00 2.63103E+01 0.00000E+00
 -1      3818 2.39375E+01 2.52931E+01 0.00000E+00
 -1      3819 2.28750E+01 2.52931E+01 0.00000E+00
 -1      3820 2.18125E+01 2.52931E+01 0.00000E+00
 -1      3821 2.07500E+01 2.52931E+01 0.00000E+00
 -1      3822 1.96875E+01 2.52931E+01 0.00000E+00
 -1      3823 1.86250E+01 2.52931E+01 0.00000E+00
 -1      3824 1.75625E+01 2.52931E+01 0.00000E+00
 -1      3825 1.65000E+01 2.52931E+01 0.00000E+00
 -1      3826 1.54375E+01 2.52931E+01 0.00000E+00
 -1      3827 1.43750E+01 2.52931E+01 0.00000E+00
 -1      3828 1.33125E+01 2.52931E+01 0.00000E+00
 -1      3829 1.22500E+01 2.52931E+01 0.00000E+00
 -1      3830 1.11875E+01 2.52931E+01 0.00000E+00
 -1      3831 1.01250E+01 2.52931E+01 0.00000E+00
 -1      3832 9.06250E+00 2.52931E+01 0.00000E+00
 -1      3833 2.39375E+01 2.42759E+01 0.00000E+00
 -1      3834 2.28750E+01 2.42759E+01 0.00000E+00
 -1      3835 2.18125E+01 2.42759E+01 0.00000E+00
 -1      3836 2.07500E+01 2.42759E+01 0.00000E+00
 -1      3837 1.96875E+01 2.42759E+01 0.00000E+00
 -1      3838 1.86250E+01 2.42759E+01 0.00000E+00
 -1      3839 1.75625E+01 2.42759E+01 0.00000E+00
 -1      3840 1.65000E+01 2.42759E+01 0.00000E+00
 -1      3841 1.54375E+01 2.42759E+01 0.00000E+00
 -1      3842 1.43750E+01 2.42759E+01 0.00000E+00
 -1      3843 1.33125E+01 2.42759E+01 0.00000E+00
 -1      3844 1.22500E+01 2.42759E+01 0.00000E+00
 -1      3845 1.11875E+01 2.42759E+01 0.00000E+00
 -1      3846 1.01250E+01 2.42759E+01 0.00000E+00
 -1      3847 9.06250E+00 2.42759E+01 0.00000E+00
 -1      3848 2.39375E+01 2.32586E+01 0.00000E+00
 -1      3849 2.28750E+01 2.32586E+01 0.00000E+00
 -1      3850 2.18125E+01 2.32586E+01 0.00000E+00
 -1      3851 2.07500E+01 2.32586E+01 0.00000E+00
 -1      3852 1.96875E+01 2.32586E+01 0.00000E+00
 -1      3853 1.86250E+01 2.32586E+01 0.00000E+00
 -1      3854 1.75625E+01 2.32586E+01 0.00000E+00
 -1      3855 1.65000E+01 2.32586E+01 0.00000E+00
 -1      3856 1.54375E+01 2.32586E+01 0.00000E+00
 -1      3857 1.43750E+01 2.32586E+01 0.00000E+00
 -1      3858 1.33125E+01 2.32586E+01 0.00000E+00
 -1      3859 1.22500E+01 2.32586E+01 0.00000E+00
 -1      3860 1.11875E+01 2.32586E+01 0.00000E+00
 -1      3861 1.01250E+01 2.32586E+01 0.00000E+00
 -1      3862 9.06250E+00 2.32586E+01 0.00000E+00
 -1      3863 2.39375E+01 2.22414E+01 0.00000E+00
 -1      3864 2.28750E+01 2.22414E+01 0.00000E+00
 -1      3865 2.18125E+01 2.22414E+01 0.00000E+00
 -1      3866 2.07500E+01 2.22414E+01 0.00000E+00
 -1      3867 1.96875E+01 2.22414E+01 0.00000E+00
 -1      3868 1.86250E+01 2.22414E+01 0.00000E+00
 -1      3869 1.75625E+01 2.22414E+01 0.00000E+00
 -1      3870 1.65000E+01 2.22414E+01 0.00000E+00
 -1      3871 1.54375E+01 2.22414E+01 0.00000E+00
 -1      3872 1.43750E+01 2.22414E+01 0.00000E+00
 -1      3873 1.33125E+01 2.22414E+01 0.00000E+00
 -1      3874 1.22500E+01 2.22414E+01 0.00000E+00
 -1      3875 1.11875E+01 2.22414E+01 0.00000E+00
 -1      3876 1.01250E+01 2.22414E+01 0.00000E+00
 -1      3877 9.06250E+00 2.22414E+01 0.00000E+00
 -1      3878 2.39375E+01 2.12241E+01 0.00000E+00
 -1      3879 2.28750E+01 2.12241E+01 0.00000E+00
 -1      3880 2.18125E+01 2.12241E+01 0.00000E+00
 -1      3881 2.07500E+01 2.12241E+01 0.00000E+00
 -1      3882 1.96875E+01 2.12241E+01 0.00000E+00
 -1      3883 1.86250E+01 2.12241E+01 0.00000E+00
 -1      3884 1.75625E+01 2.12241E+01 0.00000E+00
 -1      3885 1.65000E+01 2.12241E+01 0.00000E+00
 -1      3886 1.54375E+01 2.12241E+01 0.00000E+00
 -1      3887 1.43750E+01 2.12241E+01 0.00000E+00
 -1      3888 1.33125E+01 2.12241E+01 0.00000E+00
 -1      3889 1.22500E+01 2.12241E+01 0.00000E+00
 -1      3890 1.11875E+01 2.12241E+01 0.00000E+00
 -1      3891 1.01250E+01 2.12241E+01 0.00000E+00
 -1      3892 9.06250E+00 2.12241E+01 0.00000E+00
 -1      3893 2.39375E+01 2.02069E+01 0.00000E+00
 -1      3894 2.28750E+01 2.02069E+01 0.00000E+00
 -1      3895 2.18125E+01 2.02069E+01 0.00000E+00
 -1      3896 2.07500E+01 2.02069E+01 0.00000E+00
 -1      3897 1.96875E+01 2.02069E+01 0.00000E+00
 -1      3898 1.86250E+01 2.02069E+01 0.00000E+00
 -1      3899 1.75625E+01 2.02069E+01 0.00000E+00
 -1      3900 1.65000E+01 2.02069E+01 0.00000E+00
 -1      3901 1.54375E+01 2.02069E+01 0.00000E+00
 -1      3902 1.43750E+01 2.02069E+01 0.00000E+00
 -1      3903 1.33125E+01 2.02069E+01 0.00000E+00
 -1      3904 1.22500E+01 2.02069E+01 0.00000E+00
 -1      3905 1.11875E+01 2.02069E+01 0.00000E+00
 -1      3906 1.01250E+01 2.02069E+01 0.00000E+00
 -1      3907 9.06250E+00 2.02069E+01 0.00000E+00
 -1      3908 2.39375E+01 1.91897E+01 0.00000E+00
 -1      3909 2.28750E+01 1.91897E+01 0.00000E+00
 -1      3910 2.18125E+01 1.91897E+01 0.00000E+00
 -1      3911 2.07500E+01 1.91897E+01 0.00000E+00
 -1      3912 1.96875E+01 1.91897E+01 0.00000E+00
 -1      3913 1.86250E+01 1.91897E+01 0.00000E+00
 -1      3914 1.75625E+01 1.91897E+01 0.00000E+00
 -1      3915 1.65000E+01 1.91897E+01 0.00000E+00
 -1      3916 1.54375E+01 1.91897E+01 0.00000E+00
 -1      3917 1.43750E+01 1.91897E+01 0.00000E+00
 -1      3918 1.33125E+01 1.91897E+01 0.00000E+00
 -1      3919 1.22500E+01 1.91897E+01 0.00000E+00
 -1      3920 1.11875E+01 1.91897E+01 0.00000E+00
 -1      3921 1.01250E+01 1.91897E+01 0.00000E+00
 -1      3922 9.06250E+00 1.91897E+01 0.00000E+00
 -1      3923 2.39375E+01 1.81724E+01 0.00000E+00
 -1      3924 2.28750E+01 1.81724E+01 0.00000E+00
 -1      3925 2.18125E+01 1.81724E+01 0.00000E+00
 -1      3926 2.07500E+01 1.81724E+01 0.00000E+00
 -1      3927 1.96875E+01 1.81724E+01 0.00000E+00
 -1      3928 1.86250E+01 1.81724E+01 0.00000E+00
 -1      3929 1.75625E+01 1.81724E+01 0.00000E+00
 -1      3930 1.65000E+01 1.81724E+01 0.00000E+00
 -1      3931 1.54375E+01 1.81724E+01 0.00000E+00
 -1      3932 1.43750E+01 1.81724E+01 0.00000E+00
 -1      3933 1.33125E+01 1.81724E+01 0.00000E+00
 -1      3934 1.22500E+01 1.81724E+01 0.00000E+00
 -1      3935 1.11875E+01 1.81724E+01 0.00000E+00
 -1      3936 1.01250E+01 1.81724E+01 0.00000E+00
 -1      3937 9.06250E+00 1.81724E+01 0.00000E+00
 -1      3938 2.39375E+01 1.71552E+01 0.00000E+00
 -1      3939 2.28750E+01 1.71552E+01 0.00000E+00
 -1      3940 2.18125E+01 1.71552E+01 0.00000E+00
 -1      3941 2.07500E+01 1.71552E+01 0.00000E+00
 -1      3942 1.96875E+01 1.71552E+01 0.00000E+00
 -1      3943 1.86250E+01 1.71552E+01 0.00000E+00
 -1      3944 1.75625E+01 1.71552E+01 0.00000E+00
 -1      3945 1.65000E+01 1.71552E+01 0.00000E+00
 -1      3946 1.54375E+01 1.71552E+01 0.00000E+00
 -1      3947 1.43750E+01 1.71552E+01 0.00000E+00
 -1      3948 1.33125E+01 1.71552E+01 0.00000E+00
 -1      3949 1.22500E+01 1.71552E+01 0.00000E+00
 -1      3950 1.11875E+01 1.71552E+01 0.00000E+00
 -1      3951 1.01250E+01 1.71552E+01 0.00000E+00
 -1      3952 9.06250E+00 1.71552E+01 0.00000E+00
 -1      3953 2.39375E+01 1.61379E+01 0.00000E+00
 -1      3954 2.28750E+01 1.61379E+01 0.00000E+00
 -1      3955 2.18125E+01 1.61379E+01 0.00000E+00
 -1      3956 2.07500E+01 1.61379E+01 0.00000E+00
 -1      3957 1.96875E+01 1.61379E+01 0.00000E+00
 -1      3958 1.86250E+01 1.61379E+01 0.00000E+00
 -1      3959 1.75625E+01 1.61379E+01 0.00000E+00
 -1      3960 1.65000E+01 1.61379E+01 0.00000E+00
 -1      3961 1.54375E+01 1.61379E+01 0.00000E+00
 -1      3962 1.43750E+01 1.61379E+01 0.00000E+00
 -1      3963 1.33125E+01 1.61379E+01 0.00000E+00
 -1      3964 1.22500E+01 1.61379E+01 0.00000E+00
 -1      3965 1.11875E+01 1.61379E+01 0.00000E+00
 -1      3966 1.01250E+01 1.61379E+01 0.00000E+00
 -1      3967 9.06250E+00 1.61379E+01 0.00000E+00
 -1      3968 2.39375E+01 1.51207E+01 0.00000E+00
 -1      3969 2.28750E+01 1.51207E+01 0.00000E+00
 -1      3970 2.18125E+01 1.51207E+01 0.00000E+00
 -1      3971 2.07500E+01 1.51207E+01 0.00000E+00
 -1      3972 1.96875E+01 1.51207E+01 0.00000E+00
 -1      3973 1.86250E+01 1.51207E+01 0.00000E+00
 -1      3974 1.75625E+01 1.51207E+01 0.00000E+00
 -1      3975 1.65000E+01 1.51207E+01 0.00000E+00
 -1      3976 1.54375E+01 1.51207E+01 0.00000E+00
 -1      3977 1.43750E+01 1.51207E+01 0.00000E+00
 -1      3978 1.33125E+01 1.51207E+01 0.00000E+00
 -1      3979 1.22500E+01 1.51207E+01 0.00000E+00
 -1      3980 1.11875E+01 1.51207E+01 0.00000E+00
 -1      3981 1.01250E+01 1.51207E+01 0.00000E+00
 -1      3982 9.06250E+00 1.51207E+01 0.00000E+00
 -1      3983 2.39375E+01 1.41034E+01 0.00000E+00
 -1      3984 2.28750E+01 1.41034E+01 0.00000E+00
 -1      3985 2.18125E+01 1.41034E+01 0.00000E+00
 -1      3986 2.07500E+01 1.41034E+01 0.00000E+00
 -1      3987 1.96875E+01 1.41034E+01 0.00000E+00
 -1      3988 1.86250E+01 1.41034E+01 0.00000E+00
 -1      3989 1.75625E+01 1.41034E+01 0.00000E+00
 -1      3990 1.65000E+01 1.41034E+01 0.00000E+00
 -1      3991 1.54375E+01 1.41034E+01 0.00000E+00
 -1      3992 1.43750E+01 1.41034E+01 0.00000E+00
 -1      3993 1.33125E+01 1.41034E+01 0.00000E+00
 -1      3994 1.22500E+01 1.41034E+01 0.00000E+00
 -1      3995 1.11875E+01 1.41034E+01 0.00000E+00
 -1      3996 1.01250E+01 1.41034E+01 0.00000E+00
 -1      3997 9.06250E+00 1.41034E+01 0.00000E+00
 -1      3998 2.39375E+01 1.30862E+01 0.00000E+00
 -1      3999 2.28750E+01 1.30862E+01 0.00000E+00
 -1      4000 2.18125E+01 1.30862E+01 0.00000E+00
 -1      4001 2.07500E+01 1.30862E+01 0.00000E+00
 -1      4002 1.96875E+01 1.30862E+01 0.00000E+00
 -1      4003 1.86250E+01 1.30862E+01 0.00000E+00
 -1      4004 1.75625E+01 1.30862E+01 0.00000E+00
 -1      4005 1.65000E+01 1.30862E+01 0.00000E+00
 -1      4006 1.54375E+01 1.30862E+01 0.00000E+00
 -1      4007 1.43750E+01 1.30862E+01 0.00000E+00
 -1      4008 1.33125E+01 1.30862E+01 0.00000E+00
 -1      4009 1.22500E+01 1.30862E+01 0.00000E+00
 -1      4010 1.11875E+01 1.30862E+01 0.00000E+00
 -1      4011 1.01250E+01 1.30862E+01 0.00000E+00
 -1      4012 9.06250E+00 1.30862E+01 0.00000E+00
 -1      4013 2.39375E+01 1.20690E+01 0.00000E+00
 -1      4014 2.28750E+01 1.20690E+01 0.00000E+00
 -1      4015 2.18125E+01 1.20690E+01 0.00000E+00
 -1      4016 2.07500E+01 1.20690E+01 0.00000E+00
 -1      4017 1.96875E+01 1.20690E+01 0.00000E+00
 -1      4018 1.86250E+01 1.20690E+01 0.00000E+00
 -1      4019 1.75625E+01 1.20690E+01 0.00000E+00
 -1      4020 1.65000E+01 1.20690E+01 0.00000E+00
 -1      4021 1.54375E+01 1.20690E+01 0.00000E+00
 -1      4022 1.43750E+01 1.20690E+01 0.00000E+00
 -1      4023 1.33125E+01 1.20690E+01 0.00000E+00
 -1      4024 1.22500E+01 1.20690E+01 0.00000E+00
 -1      4025 1.11875E+01 1.20690E+01 0.00000E+00
 -1      4026 1.01250E+01 1.20690E+01 0.00000E+00
 -1      4027 9.06250E+00 1.20690E+01 0.00000E+00
 -1      4028 2.39375E+01 1.10517E+01 0.00000E+00
 -1      4029 2.28750E+01 1.10517E+01 0.00000E+00
 -1      4030 2.18125E+01 1.10517E+01 0.00000E+00
 -1      4031 2.07500E+01 1.10517E+01 0.00000E+00
 -1      4032 1.96875E+01 1.10517E+01 0.00000E+00
 -1      4033 1.86250E+01 1.10517E+01 0.00000E+00
 -1      4034 1.75625E+01 1.10517E+01 0.00000E+00
 -1      4035 1.65000E+01 1.10517E+01 0.00000E+00
 -1      4036 1.54375E+01 1.10517E+01 0.00000E+00
 -1      4037 1.43750E+01 1.10517E+01 0.00000E+00
 -1      4038 1.33125E+01 1.10517E+01 0.00000E+00
 -1      4039 1.22500E+01 1.10517E+01 0.00000E+00
 -1      4040 1.11875E+01 1.10517E+01 0.00000E+00
 -1      4041 1.01250E+01 1.10517E+01 0.00000E+00
 -1      4042 9.06250E+00 1.10517E+01 0.00000E+00
 -1      4043 2.39375E+01 1.00345E+01 0.00000E+00
 -1      4044 2.28750E+01 1.00345E+01 0.00000E+00
 -1      4045 2.18125E+01 1.00345E+01 0.00000E+00
 -1      4046 2.07500E+01 1.00345E+01 0.00000E+00
 -1      4047 1.96875E+01 1.00345E+01 0.00000E+00
 -1      4048 1.86250E+01 1.00345E+01 0.00000E+00
 -1      4049 1.75625E+01 1.00345E+01 0.00000E+00
 -1      4050 1.65000E+01 1.00345E+01 0.00000E+00
 -1      4051 1.54375E+01 1.00345E+01 0.00000E+00
 -1      4052 1.43750E+01 1.00345E+01 0.00000E+00
 -1      4053 1.33125E+01 1.00345E+01 0.00000E+00
 -1      4054 1.22500E+01 1.00345E+01 0.00000E+00
 -1      4055 1.11875E+01 1.00345E+01 0.00000E+00
 -1      4056 1.01250E+01 1.00345E+01 0.00000E+00
 -1      4057 9.06250E+00 1.00345E+01 0.00000E+00
 -1      4058 2.39375E+01 9.01724E+00 0.00000E+00
 -1      4059 2.28750E+01 9.01724E+00 0.00000E+00
 -1      4060 2.18125E+01 9.01724E+00 0.00000E+00
 -1      4061 2.07500E+01 9.01724E+00 0.00000E+00
 -1      4062 1.96875E+01 9.01724E+00 0.00000E+00
 -1      4063 1.86250E+01 9.01724E+00 0.00000E+00
 -1      4064 1.75625E+01 9.01724E+00 0.00000E+00
 -1      4065 1.65000E+01 9.01724E+00 0.00000E+00
 -1      4066 1.54375E+01 9.01724E+00 0.00000E+00
 -1      4067 1.43750E+01 9.01724E+00 0.00000E+00
 -1      4068 1.33125E+01 9.01724E+00 0.00000E+00
 -1      4069 1.22500E+01 9.01724E+00 0.00000E+00
 -1      4070 1.11875E+01 9.01724E+00 0.00000E+00
 -1      4071 1.01250E+01 9.01724E+00 0.00000E+00
 -1      4072 9.06250E+00 9.01724E+00 0.00000E+00
 -1      4073 2.39375E+01 3.69914E+01 0.00000E+00
 -1      4074 2.44688E+01 3.64828E+01 0.00000E+00
 -1      4075 2.28750E+01 3.69914E+01 0.00000E+00
 -1      4076 2.34062E+01 3.64828E+01 0.00000E+00
 -1      4077 2.18125E+01 3.69914E+01 0.00000E+00
 -1      4078 2.23438E+01 3.64828E+01 0.00000E+00
 -1      4079 2.07500E+01 3.69914E+01 0.00000E+00
 -1      4080 2.12812E+01 3.64828E+01 0.00000E+00
 -1      4081 1.96875E+01 3.69914E+01 0.00000E+00
 -1      4082 2.02188E+01 3.64828E+01 0.00000E+00
 -1      4083 1.86250E+01 3.69914E+01 0.00000E+00
 -1      4084 1.91562E+01 3.64828E+01 0.00000E+00
 -1      4085 1.75625E+01 3.69914E+01 0.00000E+00
 -1      4086 1.80938E+01 3.64828E+01 0.00000E+00
 -1      4087 1.65000E+01 3.69914E+01 0.00000E+00
 -1      4088 1.70312E+01 3.64828E+01 0.00000E+00
 -1      4089 1.54375E+01 3.69914E+01 0.00000E+00
 -1      4090 1.59688E+01 3.64828E+01 0.00000E+00
 -1      4091 1.43750E+01 3.69914E+01 0.00000E+00
 -1      4092 1.49062E+01 3.64828E+01 0.00000E+00
 -1      4093 1.33125E+01 3.69914E+01 0.00000E+00
 -1      4094 1.38438E+01 3.64828E+01 0.00000E+00
 -1      4095 1.22500E+01 3.69914E+01 0.00000E+00
 -1      4096 1.27812E+01 3.64828E+01 0.00000E+00
 -1      4097 1.11875E+01 3.69914E+01 0.00000E+00
 -1      4098 1.17188E+01 3.64828E+01 0.00000E+00
 -1      4099 1.01250E+01 3.69914E+01 0.00000E+00
 -1      4100 1.06562E+01 3.64828E+01 0.00000E+00
 -1      4101 9.06250E+00 3.69914E+01 0.00000E+00
 -1      4102 9.59375E+00 3.64828E+01 0.00000E+00
 -1      4103 8.53125E+00 3.64828E+01 0.00000E+00
 -1      4104 2.39375E+01 3.59741E+01 0.00000E+00
 -1      4105 2.44688E+01 3.54655E+01 0.00000E+00
 -1      4106 2.28750E+01 3.59741E+01 0.00000E+00
 -1      4107 2.34062E+01 3.54655E+01 0.00000E+00
 -1      4108 2.18125E+01 3.59741E+01 0.00000E+00
 -1      4109 2.23438E+01 3.54655E+01 0.00000E+00
 -1      4110 2.07500E+01 3.59741E+01 0.00000E+00
 -1      4111 2.12812E+01 3.54655E+01 0.00000E+00
 -1      4112 1.96875E+01 3.59741E+01 0.00000E+00
 -1      4113 2.02188E+01 3.54655E+01 0.00000E+00
 -1      4114 1.86250E+01 3.59741E+01 0.00000E+00
 -1      4115 1.91562E+01 3.54655E+01 0.00000E+00
 -1      4116 1.75625E+01 3.59741E+01 0.00000E+00
 -1      4117 1.80938E+01 3.54655E+01 0.00000E+00
 -1      4118 1.65000E+01 3.59741E+01 0.00000E+00
 -1      4119 1.70312E+01 3.54655E+01 0.00000E+00
 -1      4120 1.54375E+01 3.59741E+01 0.00000E+00
 -1      4121 1.59688E+01 3.54655E+01 0.00000E+00
 -1      4122 1.43750E+01 3.59741E+01 0.00000E+00
 -1      4123 1.49062E+01 3.54655E+01 0.00000E+00
 -1      4124 1.33125E+01 3.59741E+01 0.00000E+00
 -1      4125 1.38438E+01 3.54655E+01 0.00000E+00
 -1      4126 1.22500E+01 3.59741E+01 0.00000E+00
 -1      4127 1.27812E+01 3.54655E+01 0.00000E+00
 -1      4128 1.11875E+01 3.59741E+01 0.00000E+00
 -1      4129 1.17188E+01 3.54655E+01 0.00000E+00
 -1      4130 1.01250E+01 3.59741E+01 0.00000E+00
 -1      4131 1.06562E+01 3.54655E+01 0.00000E+00
 -1      4132 9.06250E+00 3.59741E+01 0.00000E+00
 -1      4133 9.59375E+00 3.54655E+01 0.00000E+00
 -1      4134 8.53125E+00 3.54655E+01 0.00000E+00
 -1      4135 2.39375E+01 3.49569E+01 0.00000E+00
 -1      4136 2.44688E+01 3.44483E+01 0.00000E+00
 -1      4137 2.28750E+01 3.49569E+01 0.00000E+00
 -1      4138 2.34062E+01 3.44483E+01 0.00000E+00
 -1      4139 2.18125E+01 3.49569E+01 0.00000E+00
 -1      4140 2.23438E+01 3.44483E+01 0.00000E+00
 -1      4141 2.07500E+01 3.49569E+01 0.00000E+00
 -1      4142 2.12812E+01 3.44483E+01 0.00000E+00
 -1      4143 1.96875E+01 3.49569E+01 0.00000E+00
 -1      4144 2.02188E+01 3.44483E+01 0.00000E+00
 -1      4145 1.86250E+01 3.49569E+01 0.00000E+00
 -1      4146 1.91562E+01 3.44483E+01 0.00000E+00
 -1      4147 1.75625E+01 3.49569E+01 0.00000E+00
 -1      4148 1.80938E+01 3.44483E+01 0.00000E+00
 -1      4149 1.65000E+01 3.49569E+01 0.00000E+00
 -1      4150 1.70312E+01 3.44483E+01 0.00000E+00
 -1      4151 1.54375E+01 3.49569E+01 0.00000E+00
 -1      4152 1.59688E+01 3.44483E+01 0.00000E+00
 -1      4153 1.43750E+01 3.49569E+01 0.00000E+00
 -1      4154 1.49062E+01 3.44483E+01 0.00000E+00
 -1      4155 1.33125E+01 3.49569E+01 0.00000E+00
 -1      4156 1.38438E+01 3.44483E+01 0.00000E+00
 -1      4157 1.22500E+01 3.49569E+01 0.00000E+00
 -1      4158 1.27812E+01 3.44483E+01 0.00000E+00
 -1      4159 1.11875E+01 3.49569E+01 0.00000E+00
 -1      4160 1.17188E+01 3.44483E+01 0.00000E+00
 -1      4161 1.01250E+01 3.49569E+01 0.00000E+00
 -1      4162 1.06562E+01 3.44483E+01 0.00000E+00
 -1      4163 9.06250E+00 3.49569E+01 0.00000E+00
 -1      4164 9.59375E+00 3.44483E+01 0.00000E+00
 -1      4165 8.53125E+00 3.44483E+01 0.00000E+00
 -1      4166 2.39375E+01 3.39397E+01 0.00000E+00
 -1      4167 2.44688E+01 3.34310E+01 0.00000E+00
 -1      4168 2.28750E+01 3.39397E+01 0.00000E+00
 -1      4169 2.34062E+01 3.34310E+01 0.00000E+00
 -1      4170 2.18125E+01 3.39397E+01 0.00000E+00
 -1      4171 2.23438E+01 3.34310E+01 0.00000E+00
 -1      4172 2.07500E+01 3.39397E+01 0.00000E+00
 -1      4173 2.12812E+01 3.34310E+01 0.00000E+00
 -1      4174 1.96875E+01 3.39397E+01 0.00000E+00
 -1      4175 2.02188E+01 3.34310E+01 0.00000E+00
 -1      4176 1.86250E+01 3.39397E+01 0.00000E+00
 -1      4177 1.91562E+01 3.34310E+01 0.00000E+00
 -1      4178 1.75625E+01 3.39397E+01 0.00000E+00
 -1      4179 1.80938E+01 3.34310E+01 0.00000E+00
 -1      4180 1.65000E+01 3.39397E+01 0.00000E+00
 -1      4181 1.70312E+01 3.34310E+01 0.00000E+00
 -1      4182 1.54375E+01 3.39397E+01 0.00000E+00
 -1      4183 1.59688E+01 3.34310E+01 0.00000E+00
 -1      4184 1.43750E+01 3.39397E+01 0.00000E+00
 -1      4185 1.49062E+01 3.34310E+01 0.00000E+00
 -1      4186 1.33125E+01 3.39397E+01 0.00000E+00
 -1      4187 1.38438E+01 3.34310E+01 0.00000E+00
 -1      4188 1.22500E+01 3.39397E+01 0.00000E+00
 -1      4189 1.27812E+01 3.34310E+01 0.00000E+00
 -1      4190 1.11875E+01 3.39397E+01 0.00000E+00
 -1      4191 1.17188E+01 3.34310E+01 0.00000E+00
 -1      4192 1.01250E+01 3.39397E+01 0.00000E+00
 -1      4193 1.06562E+01 3.34310E+01 0.00000E+00
 -1      4194 9.06250E+00 3.39397E+01 0.00000E+00
 -1      4195 9.59375E+00 3.34310E+01 0.00000E+00
 -1      4196 8.53125E+00 3.34310E+01 0.00000E+00
 -1      4197 2.39375E+01 3.29224E+01 0.00000E+00
 -1      4198 2.44688E+01 3.24138E+01 0.00000E+00
 -1      4199 2.28750E+01 3.29224E+01 0.00000E+00
 -1      4200 2.34062E+01 3.24138E+01 0.00000E+00
 -1      4201 2.18125E+01 3.29224E+01 0.00000E+00
 -1      4202 2.23438E+01 3.24138E+01 0.00000E+00
 -1      4203 2.07500E+01 3.29224E+01 0.00000E+00
 -1      4204 2.12812E+01 3.24138E+01 0.00000E+00
 -1      4205 1.96875E+01 3.29224E+01 0.00000E+00
 -1      4206 2.02188E+01 3.24138E+01 0.00000E+00
 -1      4207 1.86250E+01 3.29224E+01 0.00000E+00
 -1      4208 1.91562E+01 3.24138E+01 0.00000E+00
 -1      4209 1.75625E+01 3.29224E+01 0.00000E+00
 -1      4210 1.80938E+01 3.24138E+01 0.00000E+00
 -1      4211 1.65000E+01 3.29224E+01 0.00000E+00
 -1      4212 1.70312E+01 3.24138E+01 0.00000E+00
 -1      4213 1.54375E+01 3.29224E+01 0.00000E+00
 -1      4214 1.59688E+01 3.24138E+01 0.00000E+00
 -1      4215 1.43750E+01 3.29224E+01 0.00000E+00
 -1      4216 1.49062E+01 3.24138E+01 0.00000E+00
 -1      4217 1.33125E+01 3.29224E+01 0.00000E+00
 -1      4218 1.38438E+01 3.24138E+01 0.00000E+00
 -1      4219 1.22500E+01 3.29224E+01 0.00000E+00
 -1      4220 1.27812E+01 3.24138E+01 0.00000E+00
 -1      4221 1.11875E+01 3.29224E+01 0.00000E+00
 -1      4222 1.17188E+01 3.24138E+01 0.00000E+00
 -1      4223 1.01250E+01 3.29224E+01 0.00000E+00
 -1      4224 1.06562E+01 3.24138E+01 0.00000E+00
 -1      4225 9.06250E+00 3.29224E+01 0.00000E+00
 -1      4226 9.59375E+00 3.24138E+01 0.00000E+00
 -1      4227 8.53125E+00 3.24138E+01 0.00000E+00
 -1      4228 2.39375E+01 3.19052E+01 0.00000E+00
 -1      4229 2.44688E+01 3.13966E+01 0.00000E+00
 -1      4230 2.28750E+01 3.19052E+01 0.00000E+00
 -1      4231 2.34062E+01 3.13966E+01 0.00000E+00
 -1      4232 2.18125E+01 3.19052E+01 0.00000E+00
 -1      4233 2.23438E+01 3.13966E+01 0.00000E+00
 -1      4234 2.07500E+01 3.19052E+01 0.00000E+00
 -1      4235 2.12812E+01 3.13966E+01 0.00000E+00
 -1      4236 1.96875E+01 3.19052E+01 0.00000E+00
 -1      4237 2.02188E+01 3.13966E+01 0.00000E+00
 -1      4238 1.86250E+01 3.19052E+01 0.00000E+00
 -1      4239 1.91562E+01 3.13966E+01 0.00000E+00
 -1      4240 1.75625E+01 3.19052E+01 0.00000E+00
 -1      4241 1.80938E+01 3.13966E+01 0.00000E+00
 -1      4242 1.65000E+01 3.19052E+01 0.00000E+00
 -1      4243 1.70312E+01 3.13966E+01 0.00000E+00
 -1      4244 1.54375E+01 3.19052E+01 0.00000E+00
 -1      4245 1.59688E+01 3.13966E+01 0.00000E+00
 -1      4246 1.43750E+01 3.19052E+01 0.00000E+00
 -1      4247 1.49062E+01 3.13966E+01 0.00000E+00
 -1      4248 1.33125E+01 3.19052E+01 0.00000E+00
 -1      4249 1.38438E+01 3.13966E+01 0.00000E+00
 -1      4250 1.22500E+01 3.19052E+01 0.00000E+00
 -1      4251 1.27812E+01 3.13966E+01 0.00000E+00
 -1      4252 1.11875E+01 3.19052E+01 0.00000E+00
 -1      4253 1.17188E+01 3.13966E+01 0.00000E+00
 -1      4254 1.01250E+01 3.19052E+01 0.00000E+00
 -1      4255 1.06562E+01 3.13966E+01 0.00000E+00
 -1      4256 9.06250E+00 3.19052E+01 0.00000E+00
 -1      4257 9.59375E+00 3.13966E+01 0.00000E+00
 -1      4258 8.53125E+00 3.13966E+01 0.00000E+00
 -1      4259 2.39375E+01 3.08879E+01 0.00000E+00
 -1      4260 2.44688E+01 3.03793E+01 0.00000E+00
 -1      4261 2.28750E+01 3.08879E+01 0.00000E+00
 -1      4262 2.34062E+01 3.03793E+01 0.00000E+00
 -1      4263 2.18125E+01 3.08879E+01 0.00000E+00
 -1      4264 2.23438E+01 3.03793E+01 0.00000E+00
 -1      4265 2.07500E+01 3.08879E+01 0.00000E+00
 -1      4266 2.12812E+01 3.03793E+01 0.00000E+00
 -1      4267 1.96875E+01 3.08879E+01 0.00000E+00
 -1      4268 2.02188E+01 3.03793E+01 0.00000E+00
 -1      4269 1.86250E+01 3.08879E+01 0.00000E+00
 -1      4270 1.91562E+01 3.03793E+01 0.00000E+00
 -1      4271 1.75625E+01 3.08879E+01 0.00000E+00
 -1      4272 1.80938E+01 3.03793E+01 0.00000E+00
 -1      4273 1.65000E+01 3.08879E+01 0.00000E+00
 -1      4274 1.70312E+01 3.03793E+01 0.00000E+00
 -1      4275 1.54375E+01 3.08879E+01 0.00000E+00
 -1      4276 1.59688E+01 3.03793E+01 0.00000E+00
 -1      4277 1.43750E+01 3.08879E+01 0.00000E+00
 -1      4278 1.49062E+01 3.03793E+01 0.00000E+00
 -1      4279 1.33125E+01 3.08879E+01 0.00000E+00
 -1      4280 1.38438E+01 3.03793E+01 0.00000E+00
 -1      4281 1.22500E+01 3.08879E+01 0.00000E+00
 -1      4282 1.27812E+01 3.03793E+01 0.00000E+00
 -1      4283 1.11875E+01 3.08879E+01 0.00000E+00
 -1      4284 1.17188E+01 3.03793E+01 0.00000E+00
 -1      4285 1.01250E+01 3.08879E+01 0.00000E+00
 -1      4286 1.06562E+01 3.03793E+01 0.00000E+00
 -1      4287 9.06250E+00 3.08879E+01 0.00000E+00
 -1      4288 9.59375E+00 3.03793E+01 0.00000E+00
 -1      4289 8.53125E+00 3.03793E+01 0.00000E+00
 -1      4290 2.39375E+01 2.98707E+01 0.00000E+00
 -1      4291 2.44688E+01 2.93621E+01 0.00000E+00
 -1      4292 2.28750E+01 2.98707E+01 0.00000E+00
 -1      4293 2.34062E+01 2.93621E+01 0.00000E+00
 -1      4294 2.18125E+01 2.98707E+01 0.00000E+00
 -1      4295 2.23438E+01 2.93621E+01 0.00000E+00
 -1      4296 2.07500E+01 2.98707E+01 0.00000E+00
 -1      4297 2.12812E+01 2.93621E+01 0.00000E+00
 -1      4298 1.96875E+01 2.98707E+01 0.00000E+00
 -1      4299 2.02188E+01 2.93621E+01 0.00000E+00
 -1      4300 1.86250E+01 2.98707E+01 0.00000E+00
 -1      4301 1.91562E+01 2.93621E+01 0.00000E+00
 -1      4302 1.75625E+01 2.98707E+01 0.00000E+00
 -1      4303 1.80938E+01 2.93621E+01 0.00000E+00
 -1      4304 1.65000E+01 2.98707E+01 0.00000E+00
 -1      4305 1.70312E+01 2.93621E+01 0.00000E+00
 -1      4306 1.54375E+01 2.98707E+01 0.00000E+00
 -1      4307 1.59688E+01 2.93621E+01 0.00000E+00
 -1      4308 1.43750E+01 2.98707E+01 0.00000E+00
 -1      4309 1.49062E+01 2.93621E+01 0.00000E+00
 -1      4310 1.33125E+01 2.98707E+01 0.00000E+00
 -1      4311 1.38438E+01 2.93621E+01 0.00000E+00
 -1      4312 1.22500E+01 2.98707E+01 0.00000E+00
 -1      4313 1.27812E+01 2.93621E+01 0.00000E+00
 -1      4314 1.11875E+01 2.98707E+01 0.00000E+00
 -1      4315 1.17188E+01 2.93621E+01 0.00000E+00
 -1      4316 1.01250E+01 2.98707E+01 0.00000E+00
 -1      4317 1.06562E+01 2.93621E+01 0.00000E+00
 -1      4318 9.06250E+00 2.98707E+01 0.00000E+00
 -1      4319 9.59375E+00 2.93621E+01 0.00000E+00
 -1      4320 8.53125E+00 2.93621E+01 0.00000E+00
 -1      4321 2.39375E+01 2.88534E+01 0.00000E+00
 -1      4322 2.44688E+01 2.83448E+01 0.00000E+00
 -1      4323 2.28750E+01 2.88534E+01 0.00000E+00
 -1      4324 2.34062E+01 2.83448E+01 0.00000E+00
 -1      4325 2.18125E+01 2.88534E+01 0.00000E+00
 -1      4326 2.23438E+01 2.83448E+01 0.00000E+00
 -1      4327 2.07500E+01 2.88534E+01 0.00000E+00
 -1      4328 2.12812E+01 2.83448E+01 0.00000E+00
 -1      4329 1.96875E+01 2.88534E+01 0.00000E+00
 -1      4330 2.02188E+01 2.83448E+01 0.00000E+00
 -1      4331 1.86250E+01 2.88534E+01 0.00000E+00
 -1      4332 1.91562E+01 2.83448E+01 0.00000E+00
 -1      4333 1.75625E+01 2.88534E+01 0.00000E+00
 -1      4334 1.80938E+01 2.83448E+01 0.00000E+00
 -1      4335 1.65000E+01 2.88534E+01 0.00000E+00
 -1      4336 1.70312E+01 2.83448E+01 0.00000E+00
 -1      4337 1.54375E+01 2.88534E+01 0.00000E+00
 -1      4338 1.59688E+01 2.83448E+01 0.00000E+00
 -1      4339 1.43750E+01 2.88534E+01 0.00000E+00
 -1      4340 1.49062E+01 2.83448E+01 0.00000E+00
 -1      4341 1.33125E+01 2.88534E+01 0.00000E+00
 -1      4342 1.38438E+01 2.83448E+01 0.00000E+00
 -1      4343 1.22500E+01 2.88534E+01 0.00000E+00
 -1      4344 1.27812E+01 2.83448E+01 0.00000E+00
 -1      4345 1.11875E+01 2.88534E+01 0.00000E+00
 -1      4346 1.17188E+01 2.83448E+01 0.00000E+00
 -1      4347 1.01250E+01 2.88534E+01 0.00000E+00
 -1      4348 1.06562E+01 2.83448E+01 0.00000E+00
 -1      4349 9.06250E+00 2.88534E+01 0.00000E+00
 -1      4350 9.59375E+00 2.83448E+01 0.00000E+00
 -1      4351 8.53125E+00 2.83448E+01 0.00000E+00
 -1      4352 2.39375E+01 2.78362E+01 0.00000E+00
 -1      4353 2.44688E+01 2.73276E+01 0.00000E+00
 -1      4354 2.28750E+01 2.78362E+01 0.00000E+00
 -1      4355 2.34062E+01 2.73276E+01 0.00000E+00
 -1      4356 2.18125E+01 2.78362E+01 0.00000E+00
 -1      4357 2.23438E+01 2.73276E+01 0.00000E+00
 -1      4358 2.07500E+01 2.78362E+01 0.00000E+00
 -1      4359 2.12812E+01 2.73276E+01 0.00000E+00
 -1      4360 1.96875E+01 2.78362E+01 0.00000E+00
 -1      4361 2.02188E+01 2.73276E+01 0.00000E+00
 -1      4362 1.86250E+01 2.78362E+01 0.00000E+00
 -1      4363 1.91562E+01 2.73276E+01 0.00000E+00
 -1      4364 1.75625E+01 2.78362E+01 0.00000E+00
 -1      4365 1.80938E+01 2.73276E+01 0.00000E+00
 -1      4366 1.65000E+01 2.78362E+01 0.00000E+00
 -1      4367 1.70312E+01 2.73276E+01 0.00000E+00
 -1      4368 1.54375E+01 2.78362E+01 0.00000E+00
 -1      4369 1.59688E+01 2.73276E+01 0.00000E+00
 -1      4370 1.43750E+01 2.78362E+01 0.00000E+00
 -1      4371 1.49062E+01 2.73276E+01 0.00000E+00
 -1      4372 1.33125E+01 2.78362E+01 0.00000E+00
 -1      4373 1.38438E+01 2.73276E+01 0.00000E+00
 -1      4374 1.22500E+01 2.78362E+01 0.00000E+00
 -1      4375 1.27812E+01 2.73276E+01 0.00000E+00
 -1      4376 1.11875E+01 2.78362E+01 0.00000E+00
 -1      4377 1.17188E+01 2.73276E+01 0.00000E+00
 -1      4378 1.01250E+01 2.78362E+01 0.00000E+00
 -1      4379 1.06562E+01 2.73276E+01 0.00000E+00
 -1      4380 9.06250E+00 2.78362E+01 0.00000E+00
 -1      4381 9.59375E+00 2.73276E+01 0.00000E+00
 -1      4382 8.53125E+00 2.73276E+01 0.00000E+00
 -1      4383 2.39375E+01 2.68190E+01 0.00000E+00
 -1      4384 2.44688E+01 2.63103E+01 0.00000E+00
 -1      4385 2.28750E+01 2.68190E+01 0.00000E+00
 -1      4386 2.34062E+01 2.63103E+01 0.00000E+00
 -1      4387 2.18125E+01 2.68190E+01 0.00000E+00
 -1      4388 2.23438E+01 2.63103E+01 0.00000E+00
 -1      4389 2.07500E+01 2.68190E+01 0.00000E+00
 -1      4390 2.12812E+01 2.63103E+01 0.00000E+00
 -1      4391 1.96875E+01 2.68190E+01 0.00000E+00
 -1      4392 2.02188E+01 2.63103E+01 0.00000E+00
 -1      4393 1.86250E+01 2.68190E+01 0.00000E+00
 -1      4394 1.91562E+01 2.63103E+01 0.00000E+00
 -1      4395 1.75625E+01 2.68190E+01 0.00000E+00
 -1      4396 1.80938E+01 2.63103E+01 0.00000E+00
 -1      4397 1.65000E+01 2.68190E+01 0.00000E+00
 -1      4398 1.70312E+01 2.63103E+01 0.00000E+00
 -1      4399 1.54375E+01 2.68190E+01 0.00000E+00
 -1      4400 1.59688E+01 2.63103E+01 0.00000E+00
 -1      4401 1.43750E+01 2.68190E+01 0.00000E+00
 -1      4402 1.49062E+01 2.63103E+01 0.00000E+00
 -1      4403 1.33125E+01 2.68190E+01 0.00000E+00
 -1      4404 1.38438E+01 2.63103E+01 0.00000E+00
 -1      4405 1.22500E+01 2.68190E+01 0.00000E+00
 -1      4406 1.27812E+01 2.63103E+01 0.00000E+00
 -1      4407 1.11875E+01 2.68190E+01 0.00000E+00
 -1      4408 1.17188E+01 2.63103E+01 0.00000E+00
 -1      4409 1.01250E+01 2.68190E+01 0.00000E+00
 -1      4410 1.06562E+01 2.63103E+01 0.00000E+00
 -1      4411 9.06250E+00 2.68190E+01 0.00000E+00
 -1      4412 9.59375E+00 2.63103E+01 0.00000E+00
 -1      4413 8.53125E+00 2.63103E+01 0.00000E+00
 -1      4414 2.39375E+01 2.58017E+01 0.00000E+00
 -1      4415 2.44688E+01 2.52931E+01 0.00000E+00
 -1      4416 2.28750E+01 2.58017E+01 0.00000E+00
 -1      4417 2.34062E+01 2.52931E+01 0.00000E+00
 -1      4418 2.18125E+01 2.58017E+01 0.00000E+00
 -1      4419 2.23438E+01 2.52931E+01 0.00000E+00
 -1      4420 2.07500E+01 2.58017E+01 0.00000E+00
 -1      4421 2.12812E+01 2.52931E+01 0.00000E+00
 -1      4422 1.96875E+01 2.58017E+01 0.00000E+00
 -1      4423 2.02188E+01 2.52931E+01 0.00000E+00
 -1      4424 1.86250E+01 2.58017E+01 0.00000E+00
 -1      4425 1.91562E+01 2.52931E+01 0.00000E+00
 -1      4426 1.75625E+01 2.58017E+01 0.00000E+00
 -1      4427 1.80938E+01 2.52931E+01 0.00000E+00
 -1      4428 1.65000E+01 2.58017E+01 0.00000E+00
 -1      4429 1.70312E+01 2.52931E+01 0.00000E+00
 -1      4430 1.54375E+01 2.58017E+01 0.00000E+00
 -1      4431 1.59688E+01 2.52931E+01 0.00000E+00
 -1      4432 1.43750E+01 2.58017E+01 0.00000E+00
 -1      4433 1.49062E+01 2.52931E+01 0.00000E+00
 -1      4434 1.33125E+01 2.58017E+01 0.00000E+00
 -1      4435 1.38438E+01 2.52931E+01 0.00000E+00
 -1      4436 1.22500E+01 2.58017E+01 0.00000E+00
 -1      4437 1.27812E+01 2.52931E+01 0.00000E+00
 -1      4438 1.11875E+01 2.58017E+01 0.00000E+00
 -1      4439 1.17188E+01 2.52931E+01 0.00000E+00
 -1      4440 1.01250E+01 2.58017E+01 0.00000E+00
 -1      4441 1.06562E+01 2.52931E+01 0.00000E+00
 -1      4442 9.06250E+00 2.58017E+01 0.00000E+00
 -1      4443 9.59375E+00 2.52931E+01 0.00000E+00
 -1      4444 8.53125E+00 2.52931E+01 0.00000E+00
 -1      4445 2.39375E+01 2.47845E+01 0.00000E+00
 -1      4446 2.44688E+01 2.42759E+01 0.00000E+00
 -1      4447 2.28750E+01 2.47845E+01 0.00000E+00
 -1      4448 2.34062E+01 2.42759E+01 0.00000E+00
 -1      4449 2.18125E+01 2.47845E+01 0.00000E+00
 -1      4450 2.23438E+01 2.42759E+01 0.00000E+00
 -1      4451 2.07500E+01 2.47845E+01 0.00000E+00
 -1      4452 2.12812E+01 2.42759E+01 0.00000E+00
 -1      4453 1.96875E+01 2.47845E+01 0.00000E+00
 -1      4454 2.02188E+01 2.42759E+01 0.00000E+00
 -1      4455 1.86250E+01 2.47845E+01 0.00000E+00
 -1      4456 1.91562E+01 2.42759E+01 0.00000E+00
 -1      4457 1.75625E+01 2.47845E+01 0.00000E+00
 -1      4458 1.80938E+01 2.42759E+01 0.00000E+00
 -1      4459 1.65000E+01 2.47845E+01 0.00000E+00
 -1      4460 1.70312E+01 2.42759E+01 0.00000E+00
 -1      4461 1.54375E+01 2.47845E+01 0.00000E+00
 -1      4462 1.59688E+01 2.42759E+01 0.00000E+00
 -1      4463 1.43750E+01 2.47845E+01 0.00000E+00
 -1      4464 1.49062E+01 2.42759E+01 0.00000E+00
 -1      4465 1.33125E+01 2.47845E+01 0.00000E+00
 -1      4466 1.38438E+01 2.42759E+01 0.00000E+00
 -1      4467 1.22500E+01 2.47845E+01 0.00000E+00
 -1      4468 1.27812E+01 2.42759E+01 0.00000E+00
 -1      4469 1.11875E+01 2.47845E+01 0.00000E+00
 -1      4470 1.17188E+01 2.42759E+01 0.00000E+00
 -1      4471 1.01250E+01 2.47845E+01 0.00000E+00
 -1      4472 1.06562E+01 2.42759E+01 0.00000E+00
 -1      4473 9.06250E+00 2.47845E+01 0.00000E+00
 -1      4474 9.59375E+00 2.42759E+01 0.00000E+00
 -1      4475 8.53125E+00 2.42759E+01 0.00000E+00
 -1      4476 2.39375E+01 2.37672E+01 0.00000E+00
 -1      4477 2.44688E+01 2.32586E+01 0.00000E+00
 -1      4478 2.28750E+01 2.37672E+01 0.00000E+00
 -1      4479 2.34062E+01 2.32586E+01 0.00000E+00
 -1      4480 2.18125E+01 2.37672E+01 0.00000E+00
 -1      4481 2.23438E+01 2.32586E+01 0.00000E+00
 -1      4482 2.07500E+01 2.37672E+01 0.00000E+00
 -1      4483 2.12812E+01 2.32586E+01 0.00000E+00
 -1      4484 1.96875E+01 2.37672E+01 0.00000E+00
 -1      4485 2.02188E+01 2.32586E+01 0.00000E+00
 -1      4486 1.86250E+01 2.37672E+01 0.00000E+00
 -1      4487 1.91562E+01 2.32586E+01 0.00000E+00
 -1      4488 1.75625E+01 2.37672E+01 0.00000E+00
 -1      4489 1.80938E+01 2.32586E+01 0.00000E+00
 -1      4490 1.65000E+01 2.37672E+01 0.00000E+00
 -1      4491 1.70312E+01 2.32586E+01 0.00000E+00
 -1      4492 1.54375E+01 2.37672E+01 0.00000E+00
 -1      4493 1.59688E+01 2.32586E+01 0.00000E+00
 -1      4494 1.43750E+01 2.37672E+01 0.00000E+00
 -1      4495 1.49062E+01 2.32586E+01 0.00000E+00
 -1      4496 1.33125E+01 2.37672E+01 0.00000E+00
 -1      4497 1.38438E+01 2.32586E+01 0.00000E+00
 -1      4498 1.22500E+01 2.37672E+01 0.00000E+00
 -1      4499 1.27812E+01 2.32586E+01 0.00000E+00
 -1      4500 1.11875E+01 2.37672E+01 0.00000E+00
 -1      4501 1.17188E+01 2.32586E+01 0.00000E+00
 -1      4502 1.01250E+01 2.37672E+01 0.00000E+00
 -1      4503 1.06562E+01 2.32586E+01 0.00000E+00
 -1      4504 9.06250E+00 2.37672E+01 0.00000E+00
 -1      4505 9.59375E+00 2.32586E+01 0.00000E+00
 -1      4506 8.53125E+00 2.32586E+01 0.00000E+00
 -1      4507 2.39375E+01 2.27500E+01 0.00000E+00
 -1      4508 2.44688E+01 2.22414E+01 0.00000E+00
 -1      4509 2.28750E+01 2.27500E+01 0.00000E+00
 -1      4510 2.34062E+01 2.22414E+01 0.00000E+00
 -1      4511 2.18125E+01 2.27500E+01 0.00000E+00
 -1      4512 2.23438E+01 2.22414E+01 0.00000E+00
 -1      4513 2.07500E+01 2.27500E+01 0.00000E+00
 -1      4514 2.12812E+01 2.22414E+01 0.00000E+00
 -1      4515 1.96875E+01 2.27500E+01 0.00000E+00
 -1      4516 2.02188E+01 2.22414E+01 0.00000E+00
 -1      4517 1.86250E+01 2.27500E+01 0.00000E+00
 -1      4518 1.91562E+01 2.22414E+01 0.00000E+00
 -1      4519 1.75625E+01 2.27500E+01 0.00000E+00
 -1      4520 1.80938E+01 2.22414E+01 0.00000E+00
 -1      4521 1.65000E+01 2.27500E+01 0.00000E+00
 -1      4522 1.70312E+01 2.22414E+01 0.00000E+00
 -1      4523 1.54375E+01 2.27500E+01 0.00000E+00
 -1      4524 1.59688E+01 2.22414E+01 0.00000E+00
 -1      4525 1.43750E+01 2.27500E+01 0.00000E+00
 -1      4526 1.49062E+01 2.22414E+01 0.00000E+00
 -1      4527 1.33125E+01 2.27500E+01 0.00000E+00
 -1      4528 1.38438E+01 2.22414E+01 0.00000E+00
 -1      4529 1.22500E+01 2.27500E+01 0.00000E+00
 -1      4530 1.27812E+01 2.22414E+01 0.00000E+00
 -1      4531 1.11875E+01 2.27500E+01 0.00000E+00
 -1      4532 1.17188E+01 2.22414E+01 0.00000E+00
 -1      4533 1.01250E+01 2.27500E+01 0.00000E+00
 -1      4534 1.06562E+01 2.22414E+01 0.00000E+00
 -1      4535 9.06250E+00 2.27500E+01 0.00000E+00
 -1      4536 9.59375E+00 2.22414E+01 0.00000E+00
 -1      4537 8.53125E+00 2.22414E+01 0.00000E+00
 -1      4538 2.39375E+01 2.17328E+01 0.00000E+00
 -1      4539 2.44688E+01 2.12241E+01 0.00000E+00
 -1      4540 2.28750E+01 2.17328E+01 0.00000E+00
 -1      4541 2.34062E+01 2.12241E+01 0.00000E+00
 -1      4542 2.18125E+01 2.17328E+01 0.00000E+00
 -1      4543 2.23438E+01 2.12241E+01 0.00000E+00
 -1      4544 2.07500E+01 2.17328E+01 0.00000E+00
 -1      4545 2.12812E+01 2.12241E+01 0.00000E+00
 -1      4546 1.96875E+01 2.17328E+01 0.00000E+00
 -1      4547 2.02188E+01 2.12241E+01 0.00000E+00
 -1      4548 1.86250E+01 2.17328E+01 0.00000E+00
 -1      4549 1.91562E+01 2.12241E+01 0.00000E+00
 -1      4550 1.75625E+01 2.17328E+01 0.00000E+00
 -1      4551 1.80938E+01 2.12241E+01 0.00000E+00
 -1      4552 1.65000E+01 2.17328E+01 0.00000E+00
 -1      4553 1.70312E+01 2.12241E+01 0.00000E+00
 -1      4554 1.54375E+01 2.17328E+01 0.00000E+00
 -1      4555 1.59688E+01 2.12241E+01 0.00000E+00
 -1      4556 1.43750E+01 2.17328E+01 0.00000E+00
 -1      4557 1.49062E+01 2.12241E+01 0.00000E+00
 -1      4558 1.33125E+01 2.17328E+01 0.00000E+00
 -1      4559 1.38438E+01 2.12241E+01 0.00000E+00
 -1      4560 1.22500E+01 2.17328E+01 0.00000E+00
 -1      4561 1.27812E+01 2.12241E+01 0.00000E+00
 -1      4562 1.11875E+01 2.17328E+01 0.00000E+00
 -1      4563 1.17188E+01 2.12241E+01 0.00000E+00
 -1      4564 1.01250E+01 2.17328E+01 0.00000E+00
 -1      4565 1.06562E+01 2.12241E+01 0.00000E+00
 -1      4566 9.06250E+00 2.17328E+01 0.00000E+00
 -1      4567 9.59375E+00 2.12241E+01 0.00000E+00
 -1      4568 8.53125E+00 2.12241E+01 0.00000E+00
 -1      4569 2.39375E+01 2.07155E+01 0.00000E+00
 -1      4570 2.44688E+01 2.02069E+01 0.00000E+00
 -1      4571 2.28750E+01 2.07155E+01 0.00000E+00
 -1      4572 2.34062E+01 2.02069E+01 0.00000E+00
 -1      4573 2.18125E+01 2.07155E+01 0.00000E+00
 -1      4574 2.23438E+01 2.02069E+01 0.00000E+00
 -1      4575 2.07500E+01 2.07155E+01 0.00000E+00
 -1      4576 2.12812E+01 2.02069E+01 0.00000E+00
 -1      4577 1.96875E+01 2.07155E+01 0.00000E+00
 -1      4578 2.02188E+01 2.02069E+01 0.00000E+00
 -1      4579 1.86250E+01 2.07155E+01 0.00000E+00
 -1      4580 1.91562E+01 2.02069E+01 0.00000E+00
 -1      4581 1.75625E+01 2.07155E+01 0.00000E+00
 -1      4582 1.80938E+01 2.02069E+01 0.00000E+00
 -1      4583 1.65000E+01 2.07155E+01 0.00000E+00
 -1      4584 1.70312E+01 2.02069E+01 0.00000E+00
 -1      4585 1.54375E+01 2.07155E+01 0.00000E+00
 -1      4586 1.59688E+01 2.02069E+01 0.00000E+00
 -1      4587 1.43750E+01 2.07155E+01 0.00000E+00
 -1      4588 1.49062E+01 2.02069E+01 0.00000E+00
 -1      4589 1.33125E+01 2.07155E+01 0.00000E+00
 -1      4590 1.38438E+01 2.02069E+01 0.00000E+00
 -1      4591 1.22500E+01 2.07155E+01 0.00000E+00
 -1      4592 1.27812E+01 2.02069E+01 0.00000E+00
 -1      4593 1.11875E+01 2.07155E+01 0.00000E+00
 -1      4594 1.17188E+01 2.02069E+01 0.00000E+00
 -1      4595 1.01250E+01 2.07155E+01 0.00000E+00
 -1      4596 1.06562E+01 2.02069E+01 0.00000E+00
 -1      4597 9.06250E+00 2.07155E+01 0.00000E+00
 -1      4598 9.59375E+00 2.02069E+01 0.00000E+00
 -1      4599 8.53125E+00 2.02069E+01 0.00000E+00
 -1      4600 2.39375E+01 1.96983E+01 0.00000E+00
 -1      4601 2.44688E+01 1.91897E+01 0.00000E+00
 -1      4602 2.28750E+01 1.96983E+01 0.00000E+00
 -1      4603 2.34062E+01 1.91897E+01 0.00000E+00
 -1      4604 2.18125E+01 1.96983E+01 0.00000E+00
 -1      4605 2.23438E+01 1.91897E+01 0.00000E+00
 -1      4606 2.07500E+01 1.96983E+01 0.00000E+00
 -1      4607 2.12812E+01 1.91897E+01 0.00000E+00
 -1      4608 1.96875E+01 1.96983E+01 0.00000E+00
 -1      4609 2.02188E+01 1.91897E+01 0.00000E+00
 -1      4610 1.86250E+01 1.96983E+01 0.00000E+00
 -1      4611 1.91562E+01 1.91897E+01 0.00000E+00
 -1      4612 1.75625E+01 1.96983E+01 0.00000E+00
 -1      4613 1.80938E+01 1.91897E+01 0.00000E+00
 -1      4614 1.65000E+01 1.96983E+01 0.00000E+00
 -1      4615 1.70312E+01 1.91897E+01 0.00000E+00
 -1      4616 1.54375E+01 1.96983E+01 0.00000E+00
 -1      4617 1.59688E+01 1.91897E+01 0.00000E+00
 -1      4618 1.43750E+01 1.96983E+01 0.00000E+00
 -1      4619 1.49062E+01 1.91897E+01 0.00000E+00
 -1      4620 1.33125E+01 1.96983E+01 0.00000E+00
 -1      4621 1.38438E+01 1.91897E+01 0.00000E+00
 -1      4622 1.22500E+01 1.96983E+01 0.00000E+00
 -1      4623 1.27812E+01 1.91897E+01 0.00000E+00
 -1      4624 1.11875E+01 1.96983E+01 0.00000E+00
 -1      4625 1.17188E+01 1.91897E+01 0.00000E+00
 -1      4626 1.01250E+01 1.96983E+01 0.00000E+00
 -1      4627 1.06562E+01 1.91897E+01 0.00000E+00
 -1      4628 9.06250E+00 1.96983E+01 0.00000E+00
 -1      4629 9.59375E+00 1.91897E+01 0.00000E+00
 -1      4630 8.53125E+00 1.91897E+01 0.00000E+00
 -1      4631 2.39375E+01 1.86810E+01 0.00000E+00
 -1      4632 2.44688E+01 1.81724E+01 0.00000E+00
 -1      4633 2.28750E+01 1.86810E+01 0.00000E+00
 -1      4634 2.34062E+01 1.81724E+01 0.00000E+00
 -1      4635 2.18125E+01 1.86810E+01 0.00000E+00
 -1      4636 2.23438E+01 1.81724E+01 0.00000E+00
 -1      4637 2.07500E+01 1.86810E+01 0.00000E+00
 -1      4638 2.12812E+01 1.81724E+01 0.00000E+00
 -1      4639 1.96875E+01 1.86810E+01 0.00000E+00
 -1      4640 2.02188E+01 1.81724E+01 0.00000E+00
 -1      4641 1.86250E+01 1.86810E+01 0.00000E+00
 -1      4642 1.91562E+01 1.81724E+01 0.00000E+00
 -1      4643 1.75625E+01 1.86810E+01 0.00000E+00
 -1      4644 1.80938E+01 1.81724E+01 0.00000E+00
 -1      4645 1.65000E+01 1.86810E+01 0.00000E+00
 -1      4646 1.70312E+01 1.81724E+01 0.00000E+00
 -1      4647 1.54375E+01 1.86810E+01 0.00000E+00
 -1      4648 1.59688E+01 1.81724E+01 0.00000E+00
 -1      4649 1.43750E+01 1.86810E+01 0.00000E+00
 -1      4650 1.49062E+01 1.81724E+01 0.00000E+00
 -1      4651 1.33125E+01 1.86810E+01 0.00000E+00
 -1      4652 1.38438E+01 1.81724E+01 0.00000E+00
 -1      4653 1.22500E+01 1.86810E+01 0.00000E+00
 -1      4654 1.27812E+01 1.81724E+01 0.00000E+00
 -1      4655 1.11875E+01 1.86810E+01 0.00000E+00
 -1      4656 1.17188E+01 1.81724E+01 0.00000E+00
 -1      4657 1.01250E+01 1.86810E+01 0.00000E+00
 -1      4658 1.06562E+01 1.81724E+01 0.00000E+00
 -1      4659 9.06250E+00 1.86810E+01 0.00000E+00
 -1      4660 9.59375E+00 1.81724E+01 0.00000E+00
 -1      4661 8.53125E+00 1.81724E+01 0.00000E+00
 -1      4662 2.39375E+01 1.76638E+01 0.00000E+00
 -1      4663 2.44688E+01 1.71552E+01 0.00000E+00
 -1      4664 2.28750E+01 1.76638E+01 0.00000E+00
 -1      4665 2.34062E+01 1.71552E+01 0.00000E+00
 -1      4666 2.18125E+01 1.76638E+01 0.00000E+00
 -1      4667 2.23438E+01 1.71552E+01 0.00000E+00
 -1      4668 2.07500E+01 1.76638E+01 0.00000E+00
 -1      4669 2.12812E+01 1.71552E+01 0.00000E+00
 -1      4670 1.96875E+01 1.76638E+01 0.00000E+00
 -1      4671 2.02188E+01 1.71552E+01 0.00000E+00
 -1      4672 1.86250E+01 1.76638E+01 0.00000E+00
 -1      4673 1.91562E+01 1.71552E+01 0.00000E+00
 -1      4674 1.75625E+01 1.76638E+01 0.00000E+00
 -1      4675 1.80938E+01 1.71552E+01 0.00000E+00
 -1      4676 1.65000E+01 1.76638E+01 0.00000E+00
 -1      4677 1.70312E+01 1.71552E+01 0.00000E+00
 -1      4678 1.54375E+01 1.76638E+01 0.00000E+00
 -1      4679 1.59688E+01 1.71552E+01 0.00000E+00
 -1      4680 1.43750E+01 1.76638E+01 0.00000E+00
 -1      4681 1.49062E+01 1.71552E+01 0.00000E+00
 -1      4682 1.33125E+01 1.76638E+01 0.00000E+00
 -1      4683 1.38438E+01 1.71552E+01 0.00000E+00
 -1      4684 1.22500E+01 1.76638E+01 0.00000E+00
 -1      4685 1.27812E+01 1.71552E+01 0.00000E+00
 -1      4686 1.11875E+01 1.76638E+01 0.00000E+00
 -1      4687 1.17188E+01 1.71552E+01 0.00000E+00
 -1      4688 1.01250E+01 1.76638E+01 0.00000E+00
 -1      4689 1.06562E+01 1.71552E+01 0.00000E+00
 -1      4690 9.06250E+00 1.76638E+01 0.00000E+00
 -1      4691 9.59375E+00 1.71552E+01 0.00000E+00
 -1      4692 8.53125E+00 1.71552E+01 0.00000E+00
 -1      4693 2.39375E+01 1.66466E+01 0.00000E+00
 -1      4694 2.44688E+01 1.61379E+01 0.00000E+00
 -1      4695 2.28750E+01 1.66466E+01 0.00000E+00
 -1      4696 2.34062E+01 1.61379E+01 0.00000E+00
 -1      4697 2.18125E+01 1.66466E+01 0.00000E+00
 -1      4698 2.23438E+01 1.61379E+01 0.00000E+00
 -1      4699 2.07500E+01 1.66466E+01 0.00000E+00
 -1      4700 2.12812E+01 1.61379E+01 0.00000E+00
 -1      4701 1.96875E+01 1.66466E+01 0.00000E+00
 -1      4702 2.02188E+01 1.61379E+01 0.00000E+00
 -1      4703 1.86250E+01 1.66466E+01 0.00000E+00
 -1      4704 1.91562E+01 1.61379E+01 0.00000E+00
 -1      4705 1.75625E+01 1.66466E+01 0.00000E+00
 -1      4706 1.80938E+01 1.61379E+01 0.00000E+00
 -1      4707 1.65000E+01 1.66466E+01 0.00000E+00
 -1      4708 1.70312E+01 1.61379E+01 0.00000E+00
 -1      4709 1.54375E+01 1.66466E+01 0.00000E+00
 -1      4710 1.59688E+01 1.61379E+01 0.00000E+00
 -1      4711 1.43750E+01 1.66466E+01 0.00000E+00
 -1      4712 1.49062E+01 1.61379E+01 0.00000E+00
 -1      4713 1.33125E+01 1.66466E+01 0.00000E+00
 -1      4714 1.38438E+01 1.61379E+01 0.00000E+00
 -1      4715 1.22500E+01 1.66466E+01 0.00000E+00
 -1      4716 1.27812E+01 1.61379E+01 0.00000E+00
 -1      4717 1.11875E+01 1.66466E+01 0.00000E+00
 -1      4718 1.17188E+01 1.61379E+01 0.00000E+00
 -1      4719 1.01250E+01 1.66466E+01 0.00000E+00
 -1      4720 1.06562E+01 1.61379E+01 0.00000E+00
 -1      4721 9.06250E+00 1.66466E+01 0.00000E+00
 -1      4722 9.59375E+00 1.61379E+01 0.00000E+00
 -1      4723 8.53125E+00 1.61379E+01 0.00000E+00
 -1      4724 2.39375E+01 1.56293E+01 0.00000E+00
 -1      4725 2.44688E+01 1.51207E+01 0.00000E+00
 -1      4726 2.28750E+01 1.56293E+01 0.00000E+00
 -1      4727 2.34062E+01 1.51207E+01 0.00000E+00
 -1      4728 2.18125E+01 1.56293E+01 0.00000E+00
 -1      4729 2.23438E+01 1.51207E+01 0.00000E+00
 -1      4730 2.07500E+01 1.56293E+01 0.00000E+00
 -1      4731 2.12812E+01 1.51207E+01 0.00000E+00
 -1      4732 1.96875E+01 1.56293E+01 0.00000E+00
 -1      4733 2.02188E+01 1.51207E+01 0.00000E+00
 -1      4734 1.86250E+01 1.56293E+01 0.00000E+00
 -1      4735 1.91562E+01 1.51207E+01 0.00000E+00
 -1      4736 1.75625E+01 1.56293E+01 0.00000E+00
 -1      4737 1.80938E+01 1.51207E+01 0.00000E+00
 -1      4738 1.65000E+01 1.56293E+01 0.00000E+00
 -1      4739 1.70312E+01 1.51207E+01 0.00000E+00
 -1      4740 1.54375E+01 1.56293E+01 0.00000E+00
 -1      4741 1.59688E+01 1.51207E+01 0.00000E+00
 -1      4742 1.43750E+01 1.56293E+01 0.00000E+00
 -1      4743 1.49062E+01 1.51207E+01 0.00000E+00
 -1      4744 1.33125E+01 1.56293E+01 0.00000E+00
 -1      4745 1.38438E+01 1.51207E+01 0.00000E+00
 -1      4746 1.22500E+01 1.56293E+01 0.00000E+00
 -1      4747 1.27812E+01 1.51207E+01 0.00000E+00
 -1      4748 1.11875E+01 1.56293E+01 0.00000E+00
 -1      4749 1.17188E+01 1.51207E+01 0.00000E+00
 -1      4750 1.01250E+01 1.56293E+01 0.00000E+00
 -1      4751 1.06562E+01 1.51207E+01 0.00000E+00
 -1      4752 9.06250E+00 1.56293E+01 0.00000E+00
 -1      4753 9.59375E+00 1.51207E+01 0.00000E+00
 -1      4754 8.53125E+00 1.51207E+01 0.00000E+00
 -1      4755 2.39375E+01 1.46121E+01 0.00000E+00
 -1      4756 2.44688E+01 1.41034E+01 0.00000E+00
 -1      4757 2.28750E+01 1.46121E+01 0.00000E+00
 -1      4758 2.34062E+01 1.41034E+01 0.00000E+00
 -1      4759 2.18125E+01 1.46121E+01 0.00000E+00
 -1      4760 2.23438E+01 1.41034E+01 0.00000E+00
 -1      4761 2.07500E+01 1.46121E+01 0.00000E+00
 -1      4762 2.12812E+01 1.41034E+01 0.00000E+00
 -1      4763 1.96875E+01 1.46121E+01 0.00000E+00
 -1      4764 2.02188E+01 1.41034E+01 0.00000E+00
 -1      4765 1.86250E+01 1.46121E+01 0.00000E+00
 -1      4766 1.91562E+01 1.41034E+01 0.00000E+00
 -1      4767 1.75625E+01 1.46121E+01 0.00000E+00
 -1      4768 1.80938E+01 1.41034E+01 0.00000E+00
 -1      4769 1.65000E+01 1.46121E+01 0.00000E+00
 -1      4770 1.70312E+01 1.41034E+01 0.00000E+00
 -1      4771 1.54375E+01 1.46121E+01 0.00000E+00
 -1      4772 1.59688E+01 1.41034E+01 0.00000E+00
 -1      4773 1.43750E+01 1.46121E+01 0.00000E+00
 -1      4774 1.49062E+01 1.41034E+01 0.00000E+00
 -1      4775 1.33125E+01 1.46121E+01 0.00000E+00
 -1      4776 1.38438E+01 1.41034E+01 0.00000E+00
 -1      4777 1.22500E+01 1.46121E+01 0.00000E+00
 -1      4778 1.27812E+01 1.41034E+01 0.00000E+00
 -1      4779 1.11875E+01 1.46121E+01 0.00000E+00
 -1      4780 1.17188E+01 1.41034E+01 0.00000E+00
 -1      4781 1.01250E+01 1.46121E+01 0.00000E+00
 -1      4782 1.06562E+01 1.41034E+01 0.00000E+00
 -1      4783 9.06250E+00 1.46121E+01 0.00000E+00
 -1      4784 9.59375E+00 1.41034E+01 0.00000E+00
 -1      4785 8.53125E+00 1.41034E+01 0.00000E+00
 -1      4786 2.39375E+01 1.35948E+01 0.00000E+00
 -1      4787 2.44688E+01 1.30862E+01 0.00000E+00
 -1      4788 2.28750E+01 1.35948E+01 0.00000E+00
 -1      4789 2.34062E+01 1.30862E+01 0.00000E+00
 -1      4790 2.18125E+01 1.35948E+01 0.00000E+00
 -1      4791 2.23438E+01 1.30862E+01 0.00000E+00
 -1      4792 2.07500E+01 1.35948E+01 0.00000E+00
 -1      4793 2.12812E+01 1.30862E+01 0.00000E+00
 -1      4794 1.96875E+01 1.35948E+01 0.00000E+00
 -1      4795 2.02188E+01 1.30862E+01 0.00000E+00
 -1      4796 1.86250E+01 1.35948E+01 0.00000E+00
 -1      4797 1.91562E+01 1.30862E+01 0.00000E+00
 -1      4798 1.75625E+01 1.35948E+01 0.00000E+00
 -1      4799 1.80938E+01 1.30862E+01 0.00000E+00
 -1      4800 1.65000E+01 1.35948E+01 0.00000E+00
 -1      4801 1.70312E+01 1.30862E+01 0.00000E+00
 -1      4802 1.54375E+01 1.35948E+01 0.00000E+00
 -1      4803 1.59688E+01 1.30862E+01 0.00000E+00
 -1      4804 1.43750E+01 1.35948E+01 0.00000E+00
 -1      4805 1.49062E+01 1.30862E+01 0.00000E+00
 -1      4806 1.33125E+01 1.35948E+01 0.00000E+00
 -1      4807 1.38438E+01 1.30862E+01 0.00000E+00
 -1      4808 1.22500E+01 1.35948E+01 0.00000E+00
 -1      4809 1.27812E+01 1.30862E+01 0.00000E+00
 -1      4810 1.11875E+01 1.35948E+01 0.00000E+00
 -1      4811 1.17188E+01 1.30862E+01 0.00000E+00
 -1      4812 1.01250E+01 1.35948E+01 0.00000E+00
 -1      4813 1.06562E+01 1.30862E+01 0.00000E+00
 -1      4814 9.06250E+00 1.35948E+01 0.00000E+00
 -1      4815 9.59375E+00 1.30862E+01 0.00000E+00
 -1      4816 8.53125E+00 1.30862E+01 0.00000E+00
 -1      4817 2.39375E+01 1.25776E+01 0.00000E+00
 -1      4818 2.44688E+01 1.20690E+01 0.00000E+00
 -1      4819 2.28750E+01 1.25776E+01 0.00000E+00
 -1      4820 2.34062E+01 1.20690E+01 0.00000E+00
 -1      4821 2.18125E+01 1.25776E+01 0.00000E+00
 -1      4822 2.23438E+01 1.20690E+01 0.00000E+00
 -1      4823 2.07500E+01 1.25776E+01 0.00000E+00
 -1      4824 2.12812E+01 1.20690E+01 0.00000E+00
 -1      4825 1.96875E+01 1.25776E+01 0.00000E+00
 -1      4826 2.02188E+01 1.20690E+01 0.00000E+00
 -1      4827 1.86250E+01 1.25776E+01 0.00000E+00
 -1      4828 1.91562E+01 1.20690E+01 0.00000E+00
 -1      4829 1.75625E+01 1.25776E+01 0.00000E+00
 -1      4830 1.80938E+01 1.20690E+01 0.00000E+00
 -1      4831 1.65000E+01 1.25776E+01 0.00000E+00
 -1      4832 1.70312E+01 1.20690E+01 0.00000E+00
 -1      4833 1.54375E+01 1.25776E+01 0.00000E+00
 -1      4834 1.59688E+01 1.20690E+01 0.00000E+00
 -1      4835 1.43750E+01 1.25776E+01 0.00000E+00
 -1      4836 1.49062E+01 1.20690E+01 0.00000E+00
 -1      4837 1.33125E+01 1.25776E+01 0.00000E+00
 -1      4838 1.38438E+01 1.20690E+01 0.00000E+00
 -1      4839 1.22500E+01 1.25776E+01 0.00000E+00
 -1      4840 1.27812E+01 1.20690E+01 0.00000E+00
 -1      4841 1.11875E+01 1.25776E+01 0.00000E+00
 -1      4842 1.17188E+01 1.20690E+01 0.00000E+00
 -1      4843 1.01250E+01 1.25776E+01 0.00000E+00
 -1      4844 1.06562E+01 1.20690E+01 0.00000E+00
 -1      4845 9.06250E+00 1.25776E+01 0.00000E+00
 -1      4846 9.59375E+00 1.20690E+01 0.00000E+00
 -1      4847 8.53125E+00 1.20690E+01 0.00000E+00
 -1      4848 2.39375E+01 1.15603E+01 0.00000E+00
 -1      4849 2.44688E+01 1.10517E+01 0.00000E+00
 -1      4850 2.28750E+01 1.15603E+01 0.00000E+00
 -1      4851 2.34062E+01 1.10517E+01 0.00000E+00
 -1      4852 2.18125E+01 1.15603E+01 0.00000E+00
 -1      4853 2.23438E+01 1.10517E+01 0.00000E+00
 -1      4854 2.07500E+01 1.15603E+01 0.00000E+00
 -1      4855 2.12812E+01 1.10517E+01 0.00000E+00
 -1      4856 1.96875E+01 1.15603E+01 0.00000E+00
 -1      4857 2.02188E+01 1.10517E+01 0.00000E+00
 -1      4858 1.86250E+01 1.15603E+01 0.00000E+00
 -1      4859 1.91562E+01 1.10517E+01 0.00000E+00
 -1      4860 1.75625E+01 1.15603E+01 0.00000E+00
 -1      4861 1.80938E+01 1.10517E+01 0.00000E+00
 -1      4862 1.65000E+01 1.15603E+01 0.00000E+00
 -1      4863 1.70312E+01 1.10517E+01 0.00000E+00
 -1      4864 1.54375E+01 1.15603E+01 0.00000E+00
 -1      4865 1.59688E+01 1.10517E+01 0.00000E+00
 -1      4866 1.43750E+01 1.15603E+01 0.00000E+00
 -1      4867 1.49062E+01 1.10517E+01 0.00000E+00
 -1      4868 1.33125E+01 1.15603E+01 0.00000E+00
 -1      4869 1.38438E+01 1.10517E+01 0.00000E+00
 -1      4870 1.22500E+01 1.15603E+01 0.00000E+00
 -1      4871 1.27812E+01 1.10517E+01 0.00000E+00
 -1      4872 1.11875E+01 1.15603E+01 0.00000E+00
 -1      4873 1.17188E+01 1.10517E+01 0.00000E+00
 -1      4874 1.01250E+01 1.15603E+01 0.00000E+00
 -1      4875 1.06562E+01 1.10517E+01 0.00000E+00
 -1      4876 9.06250E+00 1.15603E+01 0.00000E+00
 -1      4877 9.59375E+00 1.10517E+01 0.00000E+00
 -1      4878 8.53125E+00 1.10517E+01 0.00000E+00
 -1      4879 2.39375E+01 1.05431E+01 0.00000E+00
 -1      4880 2.44688E+01 1.00345E+01 0.00000E+00
 -1      4881 2.28750E+01 1.05431E+01 0.00000E+00
 -1      4882 2.34062E+01 1.00345E+01 0.00000E+00
 -1      4883 2.18125E+01 1.05431E+01 0.00000E+00
 -1      4884 2.23438E+01 1.00345E+01 0.00000E+00
 -1      4885 2.07500E+01 1.05431E+01 0.00000E+00
 -1      4886 2.12812E+01 1.00345E+01 0.00000E+00
 -1      4887 1.96875E+01 1.05431E+01 0.00000E+00
 -1      4888 2.02188E+01 1.00345E+01 0.00000E+00
 -1      4889 1.86250E+01 1.05431E+01 0.00000E+00
 -1      4890 1.91562E+01 1.00345E+01 0.00000E+00
 -1      4891 1.75625E+01 1.05431E+01 0.00000E+00
 -1      4892 1.80938E+01 1.00345E+01 0.00000E+00
 -1      4893 1.65000E+01 1.05431E+01 0.00000E+00
 -1      4894 1.70312E+01 1.00345E+01 0.00000E+00
 -1      4895 1.54375E+01 1.05431E+01 0.00000E+00
 -1      4896 1.59688E+01 1.00345E+01 0.00000E+00
 -1      4897 1.43750E+01 1.05431E+01 0.00000E+00
 -1      4898 1.49062E+01 1.00345E+01 0.00000E+00
 -1      4899 1.33125E+01 1.05431E+01 0.00000E+00
 -1      4900 1.38438E+01 1.00345E+01 0.00000E+00
 -1      4901 1.22500E+01 1.05431E+01 0.00000E+00
 -1      4902 1.27812E+01 1.00345E+01 0.00000E+00
 -1      4903 1.11875E+01 1.05431E+01 0.00000E+00
 -1      4904 1.17188E+01 1.00345E+01 0.00000E+00
 -1      4905 1.01250E+01 1.05431E+01 0.00000E+00
 -1      4906 1.06562E+01 1.00345E+01 0.00000E+00
 -1      4907 9.06250E+00 1.05431E+01 0.00000E+00
 -1      4908 9.59375E+00 1.00345E+01 0.00000E+00
 -1      4909 8.53125E+00 1.00345E+01 0.00000E+00
 -1      4910 2.39375E+01 9.52586E+00 0.00000E+00
 -1      4911 2.44688E+01 9.01724E+00 0.00000E+00
 -1      4912 2.28750E+01 9.52586E+00 0.00000E+00
 -1      4913 2.34062E+01 9.01724E+00 0.00000E+00
 -1      4914 2.18125E+01 9.52586E+00 0.00000E+00
 -1      4915 2.23438E+01 9.01724E+00 0.00000E+00
 -1      4916 2.07500E+01 9.52586E+00 0.00000E+00
 -1      4917 2.12812E+01 9.01724E+00 0.00000E+00
 -1      4918 1.96875E+01 9.52586E+00 0.00000E+00
 -1      4919 2.02188E+01 9.01724E+00 0.00000E+00
 -1      4920 1.86250E+01 9.52586E+00 0.00000E+00
 -1      4921 1.91562E+01 9.01724E+00 0.00000E+00
 -1      4922 1.75625E+01 9.52586E+00 0.00000E+00
 -1      4923 1.80938E+01 9.01724E+00 0.00000E+00
 -1      4924 1.65000E+01 9.52586E+00 0.00000E+00
 -1      4925 1.70312E+01 9.01724E+00 0.00000E+00
 -1      4926 1.54375E+01 9.52586E+00 0.00000E+00
 -1      4927 1.59688E+01 9.01724E+00 0.00000E+00
 -1      4928 1.43750E+01 9.52586E+00 0.00000E+00
 -1      4929 1.49062E+01 9.01724E+00 0.00000E+00
 -1      4930 1.33125E+01 9.52586E+00 0.00000E+00
 -1      4931 1.38438E+01 9.01724E+00 0.00000E+00
 -1      4932 1.22500E+01 9.52586E+00 0.00000E+00
 -1      4933 1.27812E+01 9.01724E+00 0.00000E+00
 -1      4934 1.11875E+01 9.52586E+00 0.00000E+00
 -1      4935 1.17188E+01 9.01724E+00 0.00000E+00
 -1      4936 1.01250E+01 9.52586E+00 0.00000E+00
 -1      4937 1.06562E+01 9.01724E+00 0.00000E+00
 -1      4938 9.06250E+00 9.52586E+00 0.00000E+00
 -1      4939 9.59375E+00 9.01724E+00 0.00000E+00
 -1      4940 8.53125E+00 9.01724E+00 0.00000E+00
 -1      4941 2.39375E+01 8.50862E+00 0.00000E+00
 -1      4942 2.28750E+01 8.50862E+00 0.00000E+00
 -1      4943 2.18125E+01 8.50862E+00 0.00000E+00
 -1      4944 2.07500E+01 8.50862E+00 0.00000E+00
 -1      4945 1.96875E+01 8.50862E+00 0.00000E+00
 -1      4946 1.86250E+01 8.50862E+00 0.00000E+00
 -1      4947 1.75625E+01 8.50862E+00 0.00000E+00
 -1      4948 1.65000E+01 8.50862E+00 0.00000E+00
 -1      4949 1.54375E+01 8.50862E+00 0.00000E+00
 -1      4950 1.43750E+01 8.50862E+00 0.00000E+00
 -1      4951 1.33125E+01 8.50862E+00 0.00000E+00
 -1      4952 1.22500E+01 8.50862E+00 0.00000E+00
 -1      4953 1.11875E+01 8.50862E+00 0.00000E+00
 -1      4954 1.01250E+01 8.50862E+00 0.00000E+00
 -1      4955 9.06250E+00 8.50862E+00 0.00000E+00
 -1      4956 2.39375E+01 6.93333E+00 0.00000E+00
 -1      4957 2.28750E+01 6.93333E+00 0.00000E+00
 -1      4958 2.18125E+01 6.93333E+00 0.00000E+00
 -1      4959 2.07500E+01 6.93333E+00 0.00000E+00
 -1      4960 1.96875E+01 6.93333E+00 0.00000E+00
 -1      4961 1.86250E+01 6.93333E+00 0.00000E+00
 -1      4962 1.75625E+01 6.93333E+00 0.00000E+00
 -1      4963 1.65000E+01 6.93333E+00 0.00000E+00
 -1      4964 1.54375E+01 6.93333E+00 0.00000E+00
 -1      4965 1.43750E+01 6.93333E+00 0.00000E+00
 -1      4966 1.33125E+01 6.93333E+00 0.00000E+00
 -1      4967 1.22500E+01 6.93333E+00 0.00000E+00
 -1      4968 1.11875E+01 6.93333E+00 0.00000E+00
 -1      4969 1.01250E+01 6.93333E+00 0.00000E+00
 -1      4970 9.06250E+00 6.93333E+00 0.00000E+00
 -1      4971 2.39375E+01 5.86667E+00 0.00000E+00
 -1      4972 2.28750E+01 5.86667E+00 0.00000E+00
 -1      4973 2.18125E+01 5.86667E+00 0.00000E+00
 -1      4974 2.07500E+01 5.86667E+00 0.00000E+00
 -1      4975 1.96875E+01 5.86667E+00 0.00000E+00
 -1      4976 1.86250E+01 5.86667E+00 0.00000E+00
 -1      4977 1.75625E+01 5.86667E+00 0.00000E+00
 -1      4978 1.65000E+01 5.86667E+00 0.00000E+00
 -1      4979 1.54375E+01 5.86667E+00 0.00000E+00
 -1      4980 1.43750E+01 5.86667E+00 0.00000E+00
 -1      4981 1.33125E+01 5.86667E+00 0.00000E+00
 -1      4982 1.22500E+01 5.86667E+00 0.00000E+00
 -1      4983 1.11875E+01 5.86667E+00 0.00000E+00
 -1      4984 1.01250E+01 5.86667E+00 0.00000E+00
 -1      4985 9.06250E+00 5.86667E+00 0.00000E+00
 -1      4986 2.39375E+01 4.80000E+00 0.00000E+00
 -1      4987 2.28750E+01 4.80000E+00 0.00000E+00
 -1      4988 2.18125E+01 4.80000E+00 0.00000E+00
 -1      4989 2.07500E+01 4.80000E+00 0.00000E+00
 -1      4990 1.96875E+01 4.80000E+00 0.00000E+00
 -1      4991 1.86250E+01 4.80000E+00 0.00000E+00
 -1      4992 1.75625E+01 4.80000E+00 0.00000E+00
 -1      4993 1.65000E+01 4.80000E+00 0.00000E+00
 -1      4994 1.54375E+01 4.80000E+00 0.00000E+00
 -1      4995 1.43750E+01 4.80000E+00 0.00000E+00
 -1      4996 1.33125E+01 4.80000E+00 0.00000E+00
 -1      4997 1.22500E+01 4.80000E+00 0.00000E+00
 -1      4998 1.11875E+01 4.80000E+00 0.00000E+00
 -1      4999 1.01250E+01 4.80000E+00 0.00000E+00
 -1      5000 9.06250E+00 4.80000E+00 0.00000E+00
 -1      5001 2.39375E+01 3.73333E+00 0.00000E+00
 -1      5002 2.28750E+01 3.73333E+00 0.00000E+00
 -1      5003 2.18125E+01 3.73333E+00 0.00000E+00
 -1      5004 2.07500E+01 3.73333E+00 0.00000E+00
 -1      5005 1.96875E+01 3.73333E+00 0.00000E+00
 -1      5006 1.86250E+01 3.73333E+00 0.00000E+00
 -1      5007 1.75625E+01 3.73333E+00 0.00000E+00
 -1      5008 1.65000E+01 3.73333E+00 0.00000E+00
 -1      5009 1.54375E+01 3.73333E+00 0.00000E+00
 -1      5010 1.43750E+01 3.73333E+00 0.00000E+00
 -1      5011 1.33125E+01 3.73333E+00 0.00000E+00
 -1      5012 1.22500E+01 3.73333E+00 0.00000E+00
 -1      5013 1.11875E+01 3.73333E+00 0.00000E+00
 -1      5014 1.01250E+01 3.73333E+00 0.00000E+00
 -1      5015 9.06250E+00 3.73333E+00 0.00000E+00
 -1      5016 2.39375E+01 2.66667E+00 0.00000E+00
 -1      5017 2.28750E+01 2.66667E+00 0.00000E+00
 -1      5018 2.18125E+01 2.66667E+00 0.00000E+00
 -1      5019 2.07500E+01 2.66667E+00 0.00000E+00
 -1      5020 1.96875E+01 2.66667E+00 0.00000E+00
 -1      5021 1.86250E+01 2.66667E+00 0.00000E+00
 -1      5022 1.75625E+01 2.66667E+00 0.00000E+00
 -1      5023 1.65000E+01 2.66667E+00 0.00000E+00
 -1      5024 1.54375E+01 2.66667E+00 0.00000E+00
 -1      5025 1.43750E+01 2.66667E+00 0.00000E+00
 -1      5026 1.33125E+01 2.66667E+00 0.00000E+00
 -1      5027 1.22500E+01 2.66667E+00 0.00000E+00
 -1      5028 1.11875E+01 2.66667E+00 0.00000E+00
 -1      5029 1.01250E+01 2.66667E+00 0.00000E+00
 -1      5030 9.06250E+00 2.66667E+00 0.00000E+00
 -1      5031 2.39375E+01 1.60000E+00 0.00000E+00
 -1      5032 2.28750E+01 1.60000E+00 0.00000E+00
 -1      5033 2.18125E+01 1.60000E+00 0.00000E+00
 -1      5034 2.07500E+01 1.60000E+00 0.00000E+00
 -1      5035 1.96875E+01 1.60000E+00 0.00000E+00
 -1      5036 1.86250E+01 1.60000E+00 0.00000E+00
 -1      5037 1.75625E+01 1.60000E+00 0.00000E+00
 -1      5038 1.65000E+01 1.60000E+00 0.00000E+00
 -1      5039 1.54375E+01 1.60000E+00 0.00000E+00
 -1      5040 1.43750E+01 1.60000E+00 0.00000E+00
 -1      5041 1.33125E+01 1.60000E+00 0.00000E+00
 -1      5042 1.22500E+01 1.60000E+00 0.00000E+00
 -1      5043 1.11875E+01 1.60000E+00 0.00000E+00
 -1      5044 1.01250E+01 1.60000E+00 0.00000E+00
 -1      5045 9.06250E+00 1.60000E+00 0.00000E+00
 -1      5046 2.39375E+01 5.33333E-01 0.00000E+00
 -1      5047 2.28750E+01 5.33333E-01 0.00000E+00
 -1      5048 2.18125E+01 5.33333E-01 0.00000E+00
 -1      5049 2.07500E+01 5.33333E-01 0.00000E+00
 -1      5050 1.96875E+01 5.33333E-01 0.00000E+00
 -1      5051 1.86250E+01 5.33333E-01 0.00000E+00
 -1      5052 1.75625E+01 5.33333E-01 0.00000E+00
 -1      5053 1.65000E+01 5.33333E-01 0.00000E+00
 -1      5054 1.54375E+01 5.33333E-01 0.00000E+00
 -1      5055 1.43750E+01 5.33333E-01 0.00000E+00
 -1      5056 1.33125E+01 5.33333E-01 0.00000E+00
 -1      5057 1.22500E+01 5.33333E-01 0.00000E+00
 -1      5058 1.11875E+01 5.33333E-01 0.00000E+00
 -1      5059 1.01250E+01 5.33333E-01 0.00000E+00
 -1      5060 9.06250E+00 5.33333E-01 0.00000E+00
 -1      5061 2.39375E+01-5.33333E-01 0.00000E+00
 -1      5062 2.28750E+01-5.33333E-01 0.00000E+00
 -1      5063 2.18125E+01-5.33333E-01 0.00000E+00
 -1      5064 2.07500E+01-5.33333E-01 0.00000E+00
 -1      5065 1.96875E+01-5.33333E-01 0.00000E+00
 -1      5066 1.86250E+01-5.33333E-01 0.00000E+00
 -1      5067 1.75625E+01-5.33333E-01 0.00000E+00
 -1      5068 1.65000E+01-5.33333E-01 0.00000E+00
 -1      5069 1.54375E+01-5.33333E-01 0.00000E+00
 -1      5070 1.43750E+01-5.33333E-01 0.00000E+00
 -1      5071 1.33125E+01-5.33333E-01 0.00000E+00
 -1      5072 1.22500E+01-5.33333E-01 0.00000E+00
 -1      5073 1.11875E+01-5.33333E-01 0.00000E+00
 -1      5074 1.01250E+01-5.33333E-01 0.00000E+00
 -1      5075 9.06250E+00-5.33333E-01 0.00000E+00
 -1      5076 2.39375E+01-1.60000E+00 0.00000E+00
 -1      5077 2.28750E+01-1.60000E+00 0.00000E+00
 -1      5078 2.18125E+01-1.60000E+00 0.00000E+00
 -1      5079 2.07500E+01-1.60000E+00 0.00000E+00
 -1      5080 1.96875E+01-1.60000E+00 0.00000E+00
 -1      5081 1.86250E+01-1.60000E+00 0.00000E+00
 -1      5082 1.75625E+01-1.60000E+00 0.00000E+00
 -1      5083 1.65000E+01-1.60000E+00 0.00000E+00
 -1      5084 1.54375E+01-1.60000E+00 0.00000E+00
 -1      5085 1.43750E+01-1.60000E+00 0.00000E+00
 -1      5086 1.33125E+01-1.60000E+00 0.00000E+00
 -1      5087 1.22500E+01-1.60000E+00 0.00000E+00
 -1      5088 1.11875E+01-1.60000E+00 0.00000E+00
 -1      5089 1.01250E+01-1.60000E+00 0.00000E+00
 -1      5090 9.06250E+00-1.60000E+00 0.00000E+00
 -1      5091 2.39375E+01-2.66667E+00 0.00000E+00
 -1      5092 2.28750E+01-2.66667E+00 0.00000E+00
 -1      5093 2.18125E+01-2.66667E+00 0.00000E+00
 -1      5094 2.07500E+01-2.66667E+00 0.00000E+00
 -1      5095 1.96875E+01-2.66667E+00 0.00000E+00
 -1      5096 1.86250E+01-2.66667E+00 0.00000E+00
 -1      5097 1.75625E+01-2.66667E+00 0.00000E+00
 -1      5098 1.65000E+01-2.66667E+00 0.00000E+00
 -1      5099 1.54375E+01-2.66667E+00 0.00000E+00
 -1      5100 1.43750E+01-2.66667E+00 0.00000E+00
 -1      5101 1.33125E+01-2.66667E+00 0.00000E+00
 -1      5102 1.22500E+01-2.66667E+00 0.00000E+00
 -1      5103 1.11875E+01-2.66667E+00 0.00000E+00
 -1      5104 1.01250E+01-2.66667E+00 0.00000E+00
 -1      5105 9.06250E+00-2.66667E+00 0.00000E+00
 -1      5106 2.39375E+01-3.73333E+00 0.00000E+00
 -1      5107 2.28750E+01-3.73333E+00 0.00000E+00
 -1      5108 2.18125E+01-3.73333E+00 0.00000E+00
 -1      5109 2.07500E+01-3.73333E+00 0.00000E+00
 -1      5110 1.96875E+01-3.73333E+00 0.00000E+00
 -1      5111 1.86250E+01-3.73333E+00 0.00000E+00
 -1      5112 1.75625E+01-3.73333E+00 0.00000E+00
 -1      5113 1.65000E+01-3.73333E+00 0.00000E+00
 -1      5114 1.54375E+01-3.73333E+00 0.00000E+00
 -1      5115 1.43750E+01-3.73333E+00 0.00000E+00
 -1      5116 1.33125E+01-3.73333E+00 0.00000E+00
 -1      5117 1.22500E+01-3.73333E+00 0.00000E+00
 -1      5118 1.11875E+01-3.73333E+00 0.00000E+00
 -1      5119 1.01250E+01-3.73333E+00 0.00000E+00
 -1      5120 9.06250E+00-3.73333E+00 0.00000E+00
 -1      5121 2.39375E+01-4.80000E+00 0.00000E+00
 -1      5122 2.28750E+01-4.80000E+00 0.00000E+00
 -1      5123 2.18125E+01-4.80000E+00 0.00000E+00
 -1      5124 2.07500E+01-4.80000E+00 0.00000E+00
 -1      5125 1.96875E+01-4.80000E+00 0.00000E+00
 -1      5126 1.86250E+01-4.80000E+00 0.00000E+00
 -1      5127 1.75625E+01-4.80000E+00 0.00000E+00
 -1      5128 1.65000E+01-4.80000E+00 0.00000E+00
 -1      5129 1.54375E+01-4.80000E+00 0.00000E+00
 -1      5130 1.43750E+01-4.80000E+00 0.00000E+00
 -1      5131 1.33125E+01-4.80000E+00 0.00000E+00
 -1      5132 1.22500E+01-4.80000E+00 0.00000E+00
 -1      5133 1.11875E+01-4.80000E+00 0.00000E+00
 -1      5134 1.01250E+01-4.80000E+00 0.00000E+00
 -1      5135 9.06250E+00-4.80000E+00 0.00000E+00
 -1      5136 2.39375E+01-5.86667E+00 0.00000E+00
 -1      5137 2.28750E+01-5.86667E+00 0.00000E+00
 -1      5138 2.18125E+01-5.86667E+00 0.00000E+00
 -1      5139 2.07500E+01-5.86667E+00 0.00000E+00
 -1      5140 1.96875E+01-5.86667E+00 0.00000E+00
 -1      5141 1.86250E+01-5.86667E+00 0.00000E+00
 -1      5142 1.75625E+01-5.86667E+00 0.00000E+00
 -1      5143 1.65000E+01-5.86667E+00 0.00000E+00
 -1      5144 1.54375E+01-5.86667E+00 0.00000E+00
 -1      5145 1.43750E+01-5.86667E+00 0.00000E+00
 -1      5146 1.33125E+01-5.86667E+00 0.00000E+00
 -1      5147 1.22500E+01-5.86667E+00 0.00000E+00
 -1      5148 1.11875E+01-5.86667E+00 0.00000E+00
 -1      5149 1.01250E+01-5.86667E+00 0.00000E+00
 -1      5150 9.06250E+00-5.86667E+00 0.00000E+00
 -1      5151 2.39375E+01-6.93333E+00 0.00000E+00
 -1      5152 2.28750E+01-6.93333E+00 0.00000E+00
 -1      5153 2.18125E+01-6.93333E+00 0.00000E+00
 -1      5154 2.07500E+01-6.93333E+00 0.00000E+00
 -1      5155 1.96875E+01-6.93333E+00 0.00000E+00
 -1      5156 1.86250E+01-6.93333E+00 0.00000E+00
 -1      5157 1.75625E+01-6.93333E+00 0.00000E+00
 -1      5158 1.65000E+01-6.93333E+00 0.00000E+00
 -1      5159 1.54375E+01-6.93333E+00 0.00000E+00
 -1      5160 1.43750E+01-6.93333E+00 0.00000E+00
 -1      5161 1.33125E+01-6.93333E+00 0.00000E+00
 -1      5162 1.22500E+01-6.93333E+00 0.00000E+00
 -1      5163 1.11875E+01-6.93333E+00 0.00000E+00
 -1      5164 1.01250E+01-6.93333E+00 0.00000E+00
 -1      5165 9.06250E+00-6.93333E+00 0.00000E+00
 -1      5166 2.39375E+01 7.46667E+00 0.00000E+00
 -1      5167 2.44688E+01 6.93333E+00 0.00000E+00
 -1      5168 2.28750E+01 7.46667E+00 0.00000E+00
 -1      5169 2.34062E+01 6.93333E+00 0.00000E+00
 -1      5170 2.18125E+01 7.46667E+00 0.00000E+00
 -1      5171 2.23438E+01 6.93333E+00 0.00000E+00
 -1      5172 2.07500E+01 7.46667E+00 0.00000E+00
 -1      5173 2.12812E+01 6.93333E+00 0.00000E+00
 -1      5174 1.96875E+01 7.46667E+00 0.00000E+00
 -1      5175 2.02188E+01 6.93333E+00 0.00000E+00
 -1      5176 1.86250E+01 7.46667E+00 0.00000E+00
 -1      5177 1.91562E+01 6.93333E+00 0.00000E+00
 -1      5178 1.75625E+01 7.46667E+00 0.00000E+00
 -1      5179 1.80938E+01 6.93333E+00 0.00000E+00
 -1      5180 1.65000E+01 7.46667E+00 0.00000E+00
 -1      5181 1.70312E+01 6.93333E+00 0.00000E+00
 -1      5182 1.54375E+01 7.46667E+00 0.00000E+00
 -1      5183 1.59688E+01 6.93333E+00 0.00000E+00
 -1      5184 1.43750E+01 7.46667E+00 0.00000E+00
 -1      5185 1.49062E+01 6.93333E+00 0.00000E+00
 -1      5186 1.33125E+01 7.46667E+00 0.00000E+00
 -1      5187 1.38438E+01 6.93333E+00 0.00000E+00
 -1      5188 1.22500E+01 7.46667E+00 0.00000E+00
 -1      5189 1.27812E+01 6.93333E+00 0.00000E+00
 -1      5190 1.11875E+01 7.46667E+00 0.00000E+00
 -1      5191 1.17188E+01 6.93333E+00 0.00000E+00
 -1      5192 1.01250E+01 7.46667E+00 0.00000E+00
 -1      5193 1.06562E+01 6.93333E+00 0.00000E+00
 -1      5194 9.06250E+00 7.46667E+00 0.00000E+00
 -1      5195 9.59375E+00 6.93333E+00 0.00000E+00
 -1      5196 8.53125E+00 6.93333E+00 0.00000E+00
 -1      5197 2.39375E+01 6.40000E+00 0.00000E+00
 -1      5198 2.44688E+01 5.86667E+00 0.00000E+00
 -1      5199 2.28750E+01 6.40000E+00 0.00000E+00
 -1      5200 2.34062E+01 5.86667E+00 0.00000E+00
 -1      5201 2.18125E+01 6.40000E+00 0.00000E+00
 -1      5202 2.23438E+01 5.86667E+00 0.00000E+00
 -1      5203 2.07500E+01 6.40000E+00 0.00000E+00
 -1      5204 2.12812E+01 5.86667E+00 0.00000E+00
 -1      5205 1.96875E+01 6.40000E+00 0.00000E+00
 -1      5206 2.02188E+01 5.86667E+00 0.00000E+00
 -1      5207 1.86250E+01 6.40000E+00 0.00000E+00
 -1      5208 1.91562E+01 5.86667E+00 0.00000E+00
 -1      5209 1.75625E+01 6.40000E+00 0.00000E+00
 -1      5210 1.80938E+01 5.86667E+00 0.00000E+00
 -1      5211 1.65000E+01 6.40000E+00 0.00000E+00
 -1      5212 1.70312E+01 5.86667E+00 0.00000E+00
 -1      5213 1.54375E+01 6.40000E+00 0.00000E+00
 -1      5214 1.59688E+01 5.86667E+00 0.00000E+00
 -1      5215 1.43750E+01 6.40000E+00 0.00000E+00
 -1      5216 1.49062E+01 5.86667E+00 0.00000E+00
 -1      5217 1.33125E+01 6.40000E+00 0.00000E+00
 -1      5218 1.38438E+01 5.86667E+00 0.00000E+00
 -1      5219 1.22500E+01 6.40000E+00 0.00000E+00
 -1      5220 1.27812E+01 5.86667E+00 0.00000E+00
 -1      5221 1.11875E+01 6.40000E+00 0.00000E+00
 -1      5222 1.17188E+01 5.86667E+00 0.00000E+00
 -1      5223 1.01250E+01 6.40000E+00 0.00000E+00
 -1      5224 1.06562E+01 5.86667E+00 0.00000E+00
 -1      5225 9.06250E+00 6.40000E+00 0.00000E+00
 -1      5226 9.59375E+00 5.86667E+00 0.00000E+00
 -1      5227 8.53125E+00 5.86667E+00 0.00000E+00
 -1      5228 2.39375E+01 5.33333E+00 0.00000E+00
 -1      5229 2.44688E+01 4.80000E+00 0.00000E+00
 -1      5230 2.28750E+01 5.33333E+00 0.00000E+00
 -1      5231 2.34062E+01 4.80000E+00 0.00000E+00
 -1      5232 2.18125E+01 5.33333E+00 0.00000E+00
 -1      5233 2.23438E+01 4.80000E+00 0.00000E+00
 -1      5234 2.07500E+01 5.33333E+00 0.00000E+00
 -1      5235 2.12812E+01 4.80000E+00 0.00000E+00
 -1      5236 1.96875E+01 5.33333E+00 0.00000E+00
 -1      5237 2.02188E+01 4.80000E+00 0.00000E+00
 -1      5238 1.86250E+01 5.33333E+00 0.00000E+00
 -1      5239 1.91562E+01 4.80000E+00 0.00000E+00
 -1      5240 1.75625E+01 5.33333E+00 0.00000E+00
 -1      5241 1.80938E+01 4.80000E+00 0.00000E+00
 -1      5242 1.65000E+01 5.33333E+00 0.00000E+00
 -1      5243 1.70312E+01 4.80000E+00 0.00000E+00
 -1      5244 1.54375E+01 5.33333E+00 0.00000E+00
 -1      5245 1.59688E+01 4.80000E+00 0.00000E+00
 -1      5246 1.43750E+01 5.33333E+00 0.00000E+00
 -1      5247 1.49062E+01 4.80000E+00 0.00000E+00
 -1      5248 1.33125E+01 5.33333E+00 0.00000E+00
 -1      5249 1.38438E+01 4.80000E+00 0.00000E+00
 -1      5250 1.22500E+01 5.33333E+00 0.00000E+00
 -1      5251 1.27812E+01 4.80000E+00 0.00000E+00
 -1      5252 1.11875E+01 5.33333E+00 0.00000E+00
 -1      5253 1.17188E+01 4.80000E+00 0.00000E+00
 -1      5254 1.01250E+01 5.33333E+00 0.00000E+00
 -1      5255 1.06562E+01 4.80000E+00 0.00000E+00
 -1      5256 9.06250E+00 5.33333E+00 0.00000E+00
 -1      5257 9.59375E+00 4.80000E+00 0.00000E+00
 -1      5258 8.53125E+00 4.80000E+00 0.00000E+00
 -1      5259 2.39375E+01 4.26667E+00 0.00000E+00
 -1      5260 2.44688E+01 3.73333E+00 0.00000E+00
 -1      5261 2.28750E+01 4.26667E+00 0.00000E+00
 -1      5262 2.34062E+01 3.73333E+00 0.00000E+00
 -1      5263 2.18125E+01 4.26667E+00 0.00000E+00
 -1      5264 2.23438E+01 3.73333E+00 0.00000E+00
 -1      5265 2.07500E+01 4.26667E+00 0.00000E+00
 -1      5266 2.12812E+01 3.73333E+00 0.00000E+00
 -1      5267 1.96875E+01 4.26667E+00 0.00000E+00
 -1      5268 2.02188E+01 3.73333E+00 0.00000E+00
 -1      5269 1.86250E+01 4.26667E+00 0.00000E+00
 -1      5270 1.91562E+01 3.73333E+00 0.00000E+00
 -1      5271 1.75625E+01 4.26667E+00 0.00000E+00
 -1      5272 1.80938E+01 3.73333E+00 0.00000E+00
 -1      5273 1.65000E+01 4.26667E+00 0.00000E+00
 -1      5274 1.70312E+01 3.73333E+00 0.00000E+00
 -1      5275 1.54375E+01 4.26667E+00 0.00000E+00
 -1      5276 1.59688E+01 3.73333E+00 0.00000E+00
 -1      5277 1.43750E+01 4.26667E+00 0.00000E+00
 -1      5278 1.49062E+01 3.73333E+00 0.00000E+00
 -1      5279 1.33125E+01 4.26667E+00 0.00000E+00
 -1      5280 1.38438E+01 3.73333E+00 0.00000E+00
 -1      5281 1.22500E+01 4.26667E+00 0.00000E+00
 -1      5282 1.27812E+01 3.73333E+00 0.00000E+00
 -1      5283 1.11875E+01 4.26667E+00 0.00000E+00
 -1      5284 1.17188E+01 3.73333E+00 0.00000E+00
 -1      5285 1.01250E+01 4.26667E+00 0.00000E+00
 -1      5286 1.06562E+01 3.73333E+00 0.00000E+00
 -1      5287 9.06250E+00 4.26667E+00 0.00000E+00
 -1      5288 9.59375E+00 3.73333E+00 0.00000E+00
 -1      5289 8.53125E+00 3.73333E+00 0.00000E+00
 -1      5290 2.39375E+01 3.20000E+00 0.00000E+00
 -1      5291 2.44688E+01 2.66667E+00 0.00000E+00
 -1      5292 2.28750E+01 3.20000E+00 0.00000E+00
 -1      5293 2.34062E+01 2.66667E+00 0.00000E+00
 -1      5294 2.18125E+01 3.20000E+00 0.00000E+00
 -1      5295 2.23438E+01 2.66667E+00 0.00000E+00
 -1      5296 2.07500E+01 3.20000E+00 0.00000E+00
 -1      5297 2.12812E+01 2.66667E+00 0.00000E+00
 -1      5298 1.96875E+01 3.20000E+00 0.00000E+00
 -1      5299 2.02188E+01 2.66667E+00 0.00000E+00
 -1      5300 1.86250E+01 3.20000E+00 0.00000E+00
 -1      5301 1.91562E+01 2.66667E+00 0.00000E+00
 -1      5302 1.75625E+01 3.20000E+00 0.00000E+00
 -1      5303 1.80938E+01 2.66667E+00 0.00000E+00
 -1      5304 1.65000E+01 3.20000E+00 0.00000E+00
 -1      5305 1.70312E+01 2.66667E+00 0.00000E+00
 -1      5306 1.54375E+01 3.20000E+00 0.00000E+00
 -1      5307 1.59688E+01 2.66667E+00 0.00000E+00
 -1      5308 1.43750E+01 3.20000E+00 0.00000E+00
 -1      5309 1.49062E+01 2.66667E+00 0.00000E+00
 -1      5310 1.33125E+01 3.20000E+00 0.00000E+00
 -1      5311 1.38438E+01 2.66667E+00 0.00000E+00
 -1      5312 1.22500E+01 3.20000E+00 0.00000E+00
 -1      5313 1.27812E+01 2.66667E+00 0.00000E+00
 -1      5314 1.11875E+01 3.20000E+00 0.00000E+00
 -1      5315 1.17188E+01 2.66667E+00 0.00000E+00
 -1      5316 1.01250E+01 3.20000E+00 0.00000E+00
 -1      5317 1.06562E+01 2.66667E+00 0.00000E+00
 -1      5318 9.06250E+00 3.20000E+00 0.00000E+00
 -1      5319 9.59375E+00 2.66667E+00 0.00000E+00
 -1      5320 8.53125E+00 2.66667E+00 0.00000E+00
 -1      5321 2.39375E+01 2.13333E+00 0.00000E+00
 -1      5322 2.44688E+01 1.60000E+00 0.00000E+00
 -1      5323 2.28750E+01 2.13333E+00 0.00000E+00
 -1      5324 2.34062E+01 1.60000E+00 0.00000E+00
 -1      5325 2.18125E+01 2.13333E+00 0.00000E+00
 -1      5326 2.23438E+01 1.60000E+00 0.00000E+00
 -1      5327 2.07500E+01 2.13333E+00 0.00000E+00
 -1      5328 2.12812E+01 1.60000E+00 0.00000E+00
 -1      5329 1.96875E+01 2.13333E+00 0.00000E+00
 -1      5330 2.02188E+01 1.60000E+00 0.00000E+00
 -1      5331 1.86250E+01 2.13333E+00 0.00000E+00
 -1      5332 1.91562E+01 1.60000E+00 0.00000E+00
 -1      5333 1.75625E+01 2.13333E+00 0.00000E+00
 -1      5334 1.80938E+01 1.60000E+00 0.00000E+00
 -1      5335 1.65000E+01 2.13333E+00 0.00000E+00
 -1      5336 1.70312E+01 1.60000E+00 0.00000E+00
 -1      5337 1.54375E+01 2.13333E+00 0.00000E+00
 -1      5338 1.59688E+01 1.60000E+00 0.00000E+00
 -1      5339 1.43750E+01 2.13333E+00 0.00000E+00
 -1      5340 1.49062E+01 1.60000E+00 0.00000E+00
 -1      5341 1.33125E+01 2.13333E+00 0.00000E+00
 -1      5342 1.38438E+01 1.60000E+00 0.00000E+00
 -1      5343 1.22500E+01 2.13333E+00 0.00000E+00
 -1      5344 1.27812E+01 1.60000E+00 0.00000E+00
 -1      5345 1.11875E+01 2.13333E+00 0.00000E+00
 -1      5346 1.17188E+01 1.60000E+00 0.00000E+00
 -1      5347 1.01250E+01 2.13333E+00 0.00000E+00
 -1      5348 1.06562E+01 1.60000E+00 0.00000E+00
 -1      5349 9.06250E+00 2.13333E+00 0.00000E+00
 -1      5350 9.59375E+00 1.60000E+00 0.00000E+00
 -1      5351 8.53125E+00 1.60000E+00 0.00000E+00
 -1      5352 2.39375E+01 1.06667E+00 0.00000E+00
 -1      5353 2.44688E+01 5.33333E-01 0.00000E+00
 -1      5354 2.28750E+01 1.06667E+00 0.00000E+00
 -1      5355 2.34062E+01 5.33333E-01 0.00000E+00
 -1      5356 2.18125E+01 1.06667E+00 0.00000E+00
 -1      5357 2.23438E+01 5.33333E-01 0.00000E+00
 -1      5358 2.07500E+01 1.06667E+00 0.00000E+00
 -1      5359 2.12812E+01 5.33333E-01 0.00000E+00
 -1      5360 1.96875E+01 1.06667E+00 0.00000E+00
 -1      5361 2.02188E+01 5.33333E-01 0.00000E+00
 -1      5362 1.86250E+01 1.06667E+00 0.00000E+00
 -1      5363 1.91562E+01 5.33333E-01 0.00000E+00
 -1      5364 1.75625E+01 1.06667E+00 0.00000E+00
 -1      5365 1.80938E+01 5.33333E-01 0.00000E+00
 -1      5366 1.65000E+01 1.06667E+00 0.00000E+00
 -1      5367 1.70312E+01 5.33333E-01 0.00000E+00
 -1      5368 1.54375E+01 1.06667E+00 0.00000E+00
 -1      5369 1.59688E+01 5.33333E-01 0.00000E+00
 -1      5370 1.43750E+01 1.06667E+00 0.00000E+00
 -1      5371 1.49062E+01 5.33333E-01 0.00000E+00
 -1      5372 1.33125E+01 1.06667E+00 0.00000E+00
 -1      5373 1.38438E+01 5.33333E-01 0.00000E+00
 -1      5374 1.22500E+01 1.06667E+00 0.00000E+00
 -1      5375 1.27812E+01 5.33333E-01 0.00000E+00
 -1      5376 1.11875E+01 1.06667E+00 0.00000E+00
 -1      5377 1.17188E+01 5.33333E-01 0.00000E+00
 -1      5378 1.01250E+01 1.06667E+00 0.00000E+00
 -1      5379 1.06562E+01 5.33333E-01 0.00000E+00
 -1      5380 9.06250E+00 1.06667E+00 0.00000E+00
 -1      5381 9.59375E+00 5.33333E-01 0.00000E+00
 -1      5382 8.53125E+00 5.33333E-01 0.00000E+00
 -1      5383 2.39375E+01 2.06978E-11 0.00000E+00
 -1      5384 2.44688E+01-5.33333E-01 0.00000E+00
 -1      5385 2.28750E+01 2.06977E-11 0.00000E+00
 -1      5386 2.34062E+01-5.33333E-01 0.00000E+00
 -1      5387 2.18125E+01 2.06978E-11 0.00000E+00
 -1      5388 2.23438E+01-5.33333E-01 0.00000E+00
 -1      5389 2.07500E+01 2.06974E-11 0.00000E+00
 -1      5390 2.12812E+01-5.33333E-01 0.00000E+00
 -1      5391 1.96875E+01 2.06976E-11 0.00000E+00
 -1      5392 2.02188E+01-5.33333E-01 0.00000E+00
 -1      5393 1.86250E+01 2.06977E-11 0.00000E+00
 -1      5394 1.91562E+01-5.33333E-01 0.00000E+00
 -1      5395 1.75625E+01 2.06976E-11 0.00000E+00
 -1      5396 1.80938E+01-5.33333E-01 0.00000E+00
 -1      5397 1.65000E+01 2.06977E-11 0.00000E+00
 -1      5398 1.70312E+01-5.33333E-01 0.00000E+00
 -1      5399 1.54375E+01 2.06976E-11 0.00000E+00
 -1      5400 1.59688E+01-5.33333E-01 0.00000E+00
 -1      5401 1.43750E+01 2.06977E-11 0.00000E+00
 -1      5402 1.49062E+01-5.33333E-01 0.00000E+00
 -1      5403 1.33125E+01 2.06977E-11 0.00000E+00
 -1      5404 1.38438E+01-5.33333E-01 0.00000E+00
 -1      5405 1.22500E+01 2.06977E-11 0.00000E+00
 -1      5406 1.27812E+01-5.33333E-01 0.00000E+00
 -1      5407 1.11875E+01 2.06977E-11 0.00000E+00
 -1      5408 1.17188E+01-5.33333E-01 0.00000E+00
 -1      5409 1.01250E+01 2.06977E-11 0.00000E+00
 -1      5410 1.06562E+01-5.33333E-01 0.00000E+00
 -1      5411 9.06250E+00 2.06977E-11 0.00000E+00
 -1      5412 9.59375E+00-5.33333E-01 0.00000E+00
 -1      5413 8.53125E+00-5.33333E-01 0.00000E+00
 -1      5414 2.39375E+01-1.06667E+00 0.00000E+00
 -1      5415 2.44688E+01-1.60000E+00 0.00000E+00
 -1      5416 2.28750E+01-1.06667E+00 0.00000E+00
 -1      5417 2.34062E+01-1.60000E+00 0.00000E+00
 -1      5418 2.18125E+01-1.06667E+00 0.00000E+00
 -1      5419 2.23438E+01-1.60000E+00 0.00000E+00
 -1      5420 2.07500E+01-1.06667E+00 0.00000E+00
 -1      5421 2.12812E+01-1.60000E+00 0.00000E+00
 -1      5422 1.96875E+01-1.06667E+00 0.00000E+00
 -1      5423 2.02188E+01-1.60000E+00 0.00000E+00
 -1      5424 1.86250E+01-1.06667E+00 0.00000E+00
 -1      5425 1.91562E+01-1.60000E+00 0.00000E+00
 -1      5426 1.75625E+01-1.06667E+00 0.00000E+00
 -1      5427 1.80938E+01-1.60000E+00 0.00000E+00
 -1      5428 1.65000E+01-1.06667E+00 0.00000E+00
 -1      5429 1.70312E+01-1.60000E+00 0.00000E+00
 -1      5430 1.54375E+01-1.06667E+00 0.00000E+00
 -1      5431 1.59688E+01-1.60000E+00 0.00000E+00
 -1      5432 1.43750E+01-1.06667E+00 0.00000E+00
 -1      5433 1.49062E+01-1.60000E+00 0.00000E+00
 -1      5434 1.33125E+01-1.06667E+00 0.00000E+00
 -1      5435 1.38438E+01-1.60000E+00 0.00000E+00
 -1      5436 1.22500E+01-1.06667E+00 0.00000E+00
 -1      5437 1.27812E+01-1.60000E+00 0.00000E+00
 -1      5438 1.11875E+01-1.06667E+00 0.00000E+00
 -1      5439 1.17188E+01-1.60000E+00 0.00000E+00
 -1      5440 1.01250E+01-1.06667E+00 0.00000E+00
 -1      5441 1.06562E+01-1.60000E+00 0.00000E+00
 -1      5442 9.06250E+00-1.06667E+00 0.00000E+00
 -1      5443 9.59375E+00-1.60000E+00 0.00000E+00
 -1      5444 8.53125E+00-1.60000E+00 0.00000E+00
 -1      5445 2.39375E+01-2.13333E+00 0.00000E+00
 -1      5446 2.44688E+01-2.66667E+00 0.00000E+00
 -1      5447 2.28750E+01-2.13333E+00 0.00000E+00
 -1      5448 2.34062E+01-2.66667E+00 0.00000E+00
 -1      5449 2.18125E+01-2.13333E+00 0.00000E+00
 -1      5450 2.23438E+01-2.66667E+00 0.00000E+00
 -1      5451 2.07500E+01-2.13333E+00 0.00000E+00
 -1      5452 2.12812E+01-2.66667E+00 0.00000E+00
 -1      5453 1.96875E+01-2.13333E+00 0.00000E+00
 -1      5454 2.02188E+01-2.66667E+00 0.00000E+00
 -1      5455 1.86250E+01-2.13333E+00 0.00000E+00
 -1      5456 1.91562E+01-2.66667E+00 0.00000E+00
 -1      5457 1.75625E+01-2.13333E+00 0.00000E+00
 -1      5458 1.80938E+01-2.66667E+00 0.00000E+00
 -1      5459 1.65000E+01-2.13333E+00 0.00000E+00
 -1      5460 1.70312E+01-2.66667E+00 0.00000E+00
 -1      5461 1.54375E+01-2.13333E+00 0.00000E+00
 -1      5462 1.59688E+01-2.66667E+00 0.00000E+00
 -1      5463 1.43750E+01-2.13333E+00 0.00000E+00
 -1      5464 1.49062E+01-2.66667E+00 0.00000E+00
 -1      5465 1.33125E+01-2.13333E+00 0.00000E+00
 -1      5466 1.38438E+01-2.66667E+00 0.00000E+00
 -1      5467 1.22500E+01-2.13333E+00 0.00000E+00
 -1      5468 1.27812E+01-2.66667E+00 0.00000E+00
 -1      5469 1.11875E+01-2.13333E+00 0.00000E+00
 -1      5470 1.17188E+01-2.66667E+00 0.00000E+00
 -1      5471 1.01250E+01-2.13333E+00 0.00000E+00
 -1      5472 1.06562E+01-2.66667E+00 0.00000E+00
 -1      5473 9.06250E+00-2.13333E+00 0.00000E+00
 -1      5474 9.59375E+00-2.66667E+00 0.00000E+00
 -1      5475 8.53125E+00-2.66667E+00 0.00000E+00
 -1      5476 2.39375E+01-3.20000E+00 0.00000E+00
 -1      5477 2.44688E+01-3.73333E+00 0.00000E+00
 -1      5478 2.28750E+01-3.20000E+00 0.00000E+00
 -1      5479 2.34062E+01-3.73333E+00 0.00000E+00
 -1      5480 2.18125E+01-3.20000E+00 0.00000E+00
 -1      5481 2.23438E+01-3.73333E+00 0.00000E+00
 -1      5482 2.07500E+01-3.20000E+00 0.00000E+00
 -1      5483 2.12812E+01-3.73333E+00 0.00000E+00
 -1      5484 1.96875E+01-3.20000E+00 0.00000E+00
 -1      5485 2.02188E+01-3.73333E+00 0.00000E+00
 -1      5486 1.86250E+01-3.20000E+00 0.00000E+00
 -1      5487 1.91562E+01-3.73333E+00 0.00000E+00
 -1      5488 1.75625E+01-3.20000E+00 0.00000E+00
 -1      5489 1.80938E+01-3.73333E+00 0.00000E+00
 -1      5490 1.65000E+01-3.20000E+00 0.00000E+00
 -1      5491 1.70312E+01-3.73333E+00 0.00000E+00
 -1      5492 1.54375E+01-3.20000E+00 0.00000E+00
 -1      5493 1.59688E+01-3.73333E+00 0.00000E+00
 -1      5494 1.43750E+01-3.20000E+00 0.00000E+00
 -1      5495 1.49062E+01-3.73333E+00 0.00000E+00
 -1      5496 1.33125E+01-3.20000E+00 0.00000E+00
 -1      5497 1.38438E+01-3.73333E+00 0.00000E+00
 -1      5498 1.22500E+01-3.20000E+00 0.00000E+00
 -1      5499 1.27812E+01-3.73333E+00 0.00000E+00
 -1      5500 1.11875E+01-3.20000E+00 0.00000E+00
 -1      5501 1.17188E+01-3.73333E+00 0.00000E+00
 -1      5502 1.01250E+01-3.20000E+00 0.00000E+00
 -1      5503 1.06562E+01-3.73333E+00 0.00000E+00
 -1      5504 9.06250E+00-3.20000E+00 0.00000E+00
 -1      5505 9.59375E+00-3.73333E+00 0.00000E+00
 -1      5506 8.53125E+00-3.73333E+00 0.00000E+00
 -1      5507 2.39375E+01-4.26667E+00 0.00000E+00
 -1      5508 2.44688E+01-4.80000E+00 0.00000E+00
 -1      5509 2.28750E+01-4.26667E+00 0.00000E+00
 -1      5510 2.34062E+01-4.80000E+00 0.00000E+00
 -1      5511 2.18125E+01-4.26667E+00 0.00000E+00
 -1      5512 2.23438E+01-4.80000E+00 0.00000E+00
 -1      5513 2.07500E+01-4.26667E+00 0.00000E+00
 -1      5514 2.12812E+01-4.80000E+00 0.00000E+00
 -1      5515 1.96875E+01-4.26667E+00 0.00000E+00
 -1      5516 2.02188E+01-4.80000E+00 0.00000E+00
 -1      5517 1.86250E+01-4.26667E+00 0.00000E+00
 -1      5518 1.91562E+01-4.80000E+00 0.00000E+00
 -1      5519 1.75625E+01-4.26667E+00 0.00000E+00
 -1      5520 1.80938E+01-4.80000E+00 0.00000E+00
 -1      5521 1.65000E+01-4.26667E+00 0.00000E+00
 -1      5522 1.70312E+01-4.80000E+00 0.00000E+00
 -1      5523 1.54375E+01-4.26667E+00 0.00000E+00
 -1      5524 1.59688E+01-4.80000E+00 0.00000E+00
 -1      5525 1.43750E+01-4.26667E+00 0.00000E+00
 -1      5526 1.49062E+01-4.80000E+00 0.00000E+00
 -1      5527 1.33125E+01-4.26667E+00 0.00000E+00
 -1      5528 1.38438E+01-4.80000E+00 0.00000E+00
 -1      5529 1.22500E+01-4.26667E+00 0.00000E+00
 -1      5530 1.27812E+01-4.80000E+00 0.00000E+00
 -1      5531 1.11875E+01-4.26667E+00 0.00000E+00
 -1      5532 1.17188E+01-4.80000E+00 0.00000E+00
 -1      5533 1.01250E+01-4.26667E+00 0.00000E+00
 -1      5534 1.06562E+01-4.80000E+00 0.00000E+00
 -1      5535 9.06250E+00-4.26667E+00 0.00000E+00
 -1      5536 9.59375E+00-4.80000E+00 0.00000E+00
 -1      5537 8.53125E+00-4.80000E+00 0.00000E+00
 -1      5538 2.39375E+01-5.33333E+00 0.00000E+00
 -1      5539 2.44688E+01-5.86667E+00 0.00000E+00
 -1      5540 2.28750E+01-5.33333E+00 0.00000E+00
 -1      5541 2.34062E+01-5.86667E+00 0.00000E+00
 -1      5542 2.18125E+01-5.33333E+00 0.00000E+00
 -1      5543 2.23438E+01-5.86667E+00 0.00000E+00
 -1      5544 2.07500E+01-5.33333E+00 0.00000E+00
 -1      5545 2.12812E+01-5.86667E+00 0.00000E+00
 -1      5546 1.96875E+01-5.33333E+00 0.00000E+00
 -1      5547 2.02188E+01-5.86667E+00 0.00000E+00
 -1      5548 1.86250E+01-5.33333E+00 0.00000E+00
 -1      5549 1.91562E+01-5.86667E+00 0.00000E+00
 -1      5550 1.75625E+01-5.33333E+00 0.00000E+00
 -1      5551 1.80938E+01-5.86667E+00 0.00000E+00
 -1      5552 1.65000E+01-5.33333E+00 0.00000E+00
 -1      5553 1.70312E+01-5.86667E+00 0.00000E+00
 -1      5554 1.54375E+01-5.33333E+00 0.00000E+00
 -1      5555 1.59688E+01-5.86667E+00 0.00000E+00
 -1      5556 1.43750E+01-5.33333E+00 0.00000E+00
 -1      5557 1.49062E+01-5.86667E+00 0.00000E+00
 -1      5558 1.33125E+01-5.33333E+00 0.00000E+00
 -1      5559 1.38438E+01-5.86667E+00 0.00000E+00
 -1      5560 1.22500E+01-5.33333E+00 0.00000E+00
 -1      5561 1.27812E+01-5.86667E+00 0.00000E+00
 -1      5562 1.11875E+01-5.33333E+00 0.00000E+00
 -1      5563 1.17188E+01-5.86667E+00 0.00000E+00
 -1      5564 1.01250E+01-5.33333E+00 0.00000E+00
 -1      5565 1.06562E+01-5.86667E+00 0.00000E+00
 -1      5566 9.06250E+00-5.33333E+00 0.00000E+00
 -1      5567 9.59375E+00-5.86667E+00 0.00000E+00
 -1      5568 8.53125E+00-5.86667E+00 0.00000E+00
 -1      5569 2.39375E+01-6.40000E+00 0.00000E+00
 -1      5570 2.44688E+01-6.93333E+00 0.00000E+00
 -1      5571 2.28750E+01-6.40000E+00 0.00000E+00
 -1      5572 2.34062E+01-6.93333E+00 0.00000E+00
 -1      5573 2.18125E+01-6.40000E+00 0.00000E+00
 -1      5574 2.23438E+01-6.93333E+00 0.00000E+00
 -1      5575 2.07500E+01-6.40000E+00 0.00000E+00
 -1      5576 2.12812E+01-6.93333E+00 0.00000E+00
 -1      5577 1.96875E+01-6.40000E+00 0.00000E+00
 -1      5578 2.02188E+01-6.93333E+00 0.00000E+00
 -1      5579 1.86250E+01-6.40000E+00 0.00000E+00
 -1      5580 1.91562E+01-6.93333E+00 0.00000E+00
 -1      5581 1.75625E+01-6.40000E+00 0.00000E+00
 -1      5582 1.80938E+01-6.93333E+00 0.00000E+00
 -1      5583 1.65000E+01-6.40000E+00 0.00000E+00
 -1      5584 1.70312E+01-6.93333E+00 0.00000E+00
 -1      5585 1.54375E+01-6.40000E+00 0.00000E+00
 -1      5586 1.59688E+01-6.93333E+00 0.00000E+00
 -1      5587 1.43750E+01-6.40000E+00 0.00000E+00
 -1      5588 1.49062E+01-6.93333E+00 0.00000E+00
 -1      5589 1.33125E+01-6.40000E+00 0.00000E+00
 -1      5590 1.38438E+01-6.93333E+00 0.00000E+00
 -1      5591 1.22500E+01-6.40000E+00 0.00000E+00
 -1      5592 1.27812E+01-6.93333E+00 0.00000E+00
 -1      5593 1.11875E+01-6.40000E+00 0.00000E+00
 -1      5594 1.17188E+01-6.93333E+00 0.00000E+00
 -1      5595 1.01250E+01-6.40000E+00 0.00000E+00
 -1      5596 1.06562E+01-6.93333E+00 0.00000E+00
 -1      5597 9.06250E+00-6.40000E+00 0.00000E+00
 -1      5598 9.59375E+00-6.93333E+00 0.00000E+00
 -1      5599 8.53125E+00-6.93333E+00 0.00000E+00
 -1      5600 2.39375E+01-7.46667E+00 0.00000E+00
 -1      5601 2.28750E+01-7.46667E+00 0.00000E+00
 -1      5602 2.18125E+01-7.46667E+00 0.00000E+00
 -1      5603 2.07500E+01-7.46667E+00 0.00000E+00
 -1      5604 1.96875E+01-7.46667E+00 0.00000E+00
 -1      5605 1.86250E+01-7.46667E+00 0.00000E+00
 -1      5606 1.75625E+01-7.46667E+00 0.00000E+00
 -1      5607 1.65000E+01-7.46667E+00 0.00000E+00
 -1      5608 1.54375E+01-7.46667E+00 0.00000E+00
 -1      5609 1.43750E+01-7.46667E+00 0.00000E+00
 -1      5610 1.33125E+01-7.46667E+00 0.00000E+00
 -1      5611 1.22500E+01-7.46667E+00 0.00000E+00
 -1      5612 1.11875E+01-7.46667E+00 0.00000E+00
 -1      5613 1.01250E+01-7.46667E+00 0.00000E+00
 -1      5614 9.06250E+00-7.46667E+00 0.00000E+00
 -1      5615 2.39375E+01-9.01724E+00 0.00000E+00
 -1      5616 2.28750E+01-9.01724E+00 0.00000E+00
 -1      5617 2.18125E+01-9.01724E+00 0.00000E+00
 -1      5618 2.07500E+01-9.01724E+00 0.00000E+00
 -1      5619 1.96875E+01-9.01724E+00 0.00000E+00
 -1      5620 1.86250E+01-9.01724E+00 0.00000E+00
 -1      5621 1.75625E+01-9.01724E+00 0.00000E+00
 -1      5622 1.65000E+01-9.01724E+00 0.00000E+00
 -1      5623 1.54375E+01-9.01724E+00 0.00000E+00
 -1      5624 1.43750E+01-9.01724E+00 0.00000E+00
 -1      5625 1.33125E+01-9.01724E+00 0.00000E+00
 -1      5626 1.22500E+01-9.01724E+00 0.00000E+00
 -1      5627 1.11875E+01-9.01724E+00 0.00000E+00
 -1      5628 1.01250E+01-9.01724E+00 0.00000E+00
 -1      5629 9.06250E+00-9.01724E+00 0.00000E+00
 -1      5630 2.39375E+01-1.00345E+01 0.00000E+00
 -1      5631 2.28750E+01-1.00345E+01 0.00000E+00
 -1      5632 2.18125E+01-1.00345E+01 0.00000E+00
 -1      5633 2.07500E+01-1.00345E+01 0.00000E+00
 -1      5634 1.96875E+01-1.00345E+01 0.00000E+00
 -1      5635 1.86250E+01-1.00345E+01 0.00000E+00
 -1      5636 1.75625E+01-1.00345E+01 0.00000E+00
 -1      5637 1.65000E+01-1.00345E+01 0.00000E+00
 -1      5638 1.54375E+01-1.00345E+01 0.00000E+00
 -1      5639 1.43750E+01-1.00345E+01 0.00000E+00
 -1      5640 1.33125E+01-1.00345E+01 0.00000E+00
 -1      5641 1.22500E+01-1.00345E+01 0.00000E+00
 -1      5642 1.11875E+01-1.00345E+01 0.00000E+00
 -1      5643 1.01250E+01-1.00345E+01 0.00000E+00
 -1      5644 9.06250E+00-1.00345E+01 0.00000E+00
 -1      5645 2.39375E+01-1.10517E+01 0.00000E+00
 -1      5646 2.28750E+01-1.10517E+01 0.00000E+00
 -1      5647 2.18125E+01-1.10517E+01 0.00000E+00
 -1      5648 2.07500E+01-1.10517E+01 0.00000E+00
 -1      5649 1.96875E+01-1.10517E+01 0.00000E+00
 -1      5650 1.86250E+01-1.10517E+01 0.00000E+00
 -1      5651 1.75625E+01-1.10517E+01 0.00000E+00
 -1      5652 1.65000E+01-1.10517E+01 0.00000E+00
 -1      5653 1.54375E+01-1.10517E+01 0.00000E+00
 -1      5654 1.43750E+01-1.10517E+01 0.00000E+00
 -1      5655 1.33125E+01-1.10517E+01 0.00000E+00
 -1      5656 1.22500E+01-1.10517E+01 0.00000E+00
 -1      5657 1.11875E+01-1.10517E+01 0.00000E+00
 -1      5658 1.01250E+01-1.10517E+01 0.00000E+00
 -1      5659 9.06250E+00-1.10517E+01 0.00000E+00
 -1      5660 2.39375E+01-1.20690E+01 0.00000E+00
 -1      5661 2.28750E+01-1.20690E+01 0.00000E+00
 -1      5662 2.18125E+01-1.20690E+01 0.00000E+00
 -1      5663 2.07500E+01-1.20690E+01 0.00000E+00
 -1      5664 1.96875E+01-1.20690E+01 0.00000E+00
 -1      5665 1.86250E+01-1.20690E+01 0.00000E+00
 -1      5666 1.75625E+01-1.20690E+01 0.00000E+00
 -1      5667 1.65000E+01-1.20690E+01 0.00000E+00
 -1      5668 1.54375E+01-1.20690E+01 0.00000E+00
 -1      5669 1.43750E+01-1.20690E+01 0.00000E+00
 -1      5670 1.33125E+01-1.20690E+01 0.00000E+00
 -1      5671 1.22500E+01-1.20690E+01 0.00000E+00
 -1      5672 1.11875E+01-1.20690E+01 0.00000E+00
 -1      5673 1.01250E+01-1.20690E+01 0.00000E+00
 -1      5674 9.06250E+00-1.20690E+01 0.00000E+00
 -1      5675 2.39375E+01-1.30862E+01 0.00000E+00
 -1      5676 2.28750E+01-1.30862E+01 0.00000E+00
 -1      5677 2.18125E+01-1.30862E+01 0.00000E+00
 -1      5678 2.07500E+01-1.30862E+01 0.00000E+00
 -1      5679 1.96875E+01-1.30862E+01 0.00000E+00
 -1      5680 1.86250E+01-1.30862E+01 0.00000E+00
 -1      5681 1.75625E+01-1.30862E+01 0.00000E+00
 -1      5682 1.65000E+01-1.30862E+01 0.00000E+00
 -1      5683 1.54375E+01-1.30862E+01 0.00000E+00
 -1      5684 1.43750E+01-1.30862E+01 0.00000E+00
 -1      5685 1.33125E+01-1.30862E+01 0.00000E+00
 -1      5686 1.22500E+01-1.30862E+01 0.00000E+00
 -1      5687 1.11875E+01-1.30862E+01 0.00000E+00
 -1      5688 1.01250E+01-1.30862E+01 0.00000E+00
 -1      5689 9.06250E+00-1.30862E+01 0.00000E+00
 -1      5690 2.39375E+01-1.41034E+01 0.00000E+00
 -1      5691 2.28750E+01-1.41034E+01 0.00000E+00
 -1      5692 2.18125E+01-1.41034E+01 0.00000E+00
 -1      5693 2.07500E+01-1.41034E+01 0.00000E+00
 -1      5694 1.96875E+01-1.41034E+01 0.00000E+00
 -1      5695 1.86250E+01-1.41034E+01 0.00000E+00
 -1      5696 1.75625E+01-1.41034E+01 0.00000E+00
 -1      5697 1.65000E+01-1.41034E+01 0.00000E+00
 -1      5698 1.54375E+01-1.41034E+01 0.00000E+00
 -1      5699 1.43750E+01-1.41034E+01 0.00000E+00
 -1      5700 1.33125E+01-1.41034E+01 0.00000E+00
 -1      5701 1.22500E+01-1.41034E+01 0.00000E+00
 -1      5702 1.11875E+01-1.41034E+01 0.00000E+00
 -1      5703 1.01250E+01-1.41034E+01 0.00000E+00
 -1      5704 9.06250E+00-1.41034E+01 0.00000E+00
 -1      5705 2.39375E+01-1.51207E+01 0.00000E+00
 -1      5706 2.28750E+01-1.51207E+01 0.00000E+00
 -1      5707 2.18125E+01-1.51207E+01 0.00000E+00
 -1      5708 2.07500E+01-1.51207E+01 0.00000E+00
 -1      5709 1.96875E+01-1.51207E+01 0.00000E+00
 -1      5710 1.86250E+01-1.51207E+01 0.00000E+00
 -1      5711 1.75625E+01-1.51207E+01 0.00000E+00
 -1      5712 1.65000E+01-1.51207E+01 0.00000E+00
 -1      5713 1.54375E+01-1.51207E+01 0.00000E+00
 -1      5714 1.43750E+01-1.51207E+01 0.00000E+00
 -1      5715 1.33125E+01-1.51207E+01 0.00000E+00
 -1      5716 1.22500E+01-1.51207E+01 0.00000E+00
 -1      5717 1.11875E+01-1.51207E+01 0.00000E+00
 -1      5718 1.01250E+01-1.51207E+01 0.00000E+00
 -1      5719 9.06250E+00-1.51207E+01 0.00000E+00
 -1      5720 2.39375E+01-1.61379E+01 0.00000E+00
 -1      5721 2.28750E+01-1.61379E+01 0.00000E+00
 -1      5722 2.18125E+01-1.61379E+01 0.00000E+00
 -1      5723 2.07500E+01-1.61379E+01 0.00000E+00
 -1      5724 1.96875E+01-1.61379E+01 0.00000E+00
 -1      5725 1.86250E+01-1.61379E+01 0.00000E+00
 -1      5726 1.75625E+01-1.61379E+01 0.00000E+00
 -1      5727 1.65000E+01-1.61379E+01 0.00000E+00
 -1      5728 1.54375E+01-1.61379E+01 0.00000E+00
 -1      5729 1.43750E+01-1.61379E+01 0.00000E+00
 -1      5730 1.33125E+01-1.61379E+01 0.00000E+00
 -1      5731 1.22500E+01-1.61379E+01 0.00000E+00
 -1      5732 1.11875E+01-1.61379E+01 0.00000E+00
 -1      5733 1.01250E+01-1.61379E+01 0.00000E+00
 -1      5734 9.06250E+00-1.61379E+01 0.00000E+00
 -1      5735 2.39375E+01-1.71552E+01 0.00000E+00
 -1      5736 2.28750E+01-1.71552E+01 0.00000E+00
 -1      5737 2.18125E+01-1.71552E+01 0.00000E+00
 -1      5738 2.07500E+01-1.71552E+01 0.00000E+00
 -1      5739 1.96875E+01-1.71552E+01 0.00000E+00
 -1      5740 1.86250E+01-1.71552E+01 0.00000E+00
 -1      5741 1.75625E+01-1.71552E+01 0.00000E+00
 -1      5742 1.65000E+01-1.71552E+01 0.00000E+00
 -1      5743 1.54375E+01-1.71552E+01 0.00000E+00
 -1      5744 1.43750E+01-1.71552E+01 0.00000E+00
 -1      5745 1.33125E+01-1.71552E+01 0.00000E+00
 -1      5746 1.22500E+01-1.71552E+01 0.00000E+00
 -1      5747 1.11875E+01-1.71552E+01 0.00000E+00
 -1      5748 1.01250E+01-1.71552E+01 0.00000E+00
 -1      5749 9.06250E+00-1.71552E+01 0.00000E+00
 -1      5750 2.39375E+01-1.81724E+01 0.00000E+00
 -1      5751 2.28750E+01-1.81724E+01 0.00000E+00
 -1      5752 2.18125E+01-1.81724E+01 0.00000E+00
 -1      5753 2.07500E+01-1.81724E+01 0.00000E+00
 -1      5754 1.96875E+01-1.81724E+01 0.00000E+00
 -1      5755 1.86250E+01-1.81724E+01 0.00000E+00
 -1      5756 1.75625E+01-1.81724E+01 0.00000E+00
 -1      5757 1.65000E+01-1.81724E+01 0.00000E+00
 -1      5758 1.54375E+01-1.81724E+01 0.00000E+00
 -1      5759 1.43750E+01-1.81724E+01 0.00000E+00
 -1      5760 1.33125E+01-1.81724E+01 0.00000E+00
 -1      5761 1.22500E+01-1.81724E+01 0.00000E+00
 -1      5762 1.11875E+01-1.81724E+01 0.00000E+00
 -1      5763 1.01250E+01-1.81724E+01 0.00000E+00
 -1      5764 9.06250E+00-1.81724E+01 0.00000E+00
 -1      5765 2.39375E+01-1.91897E+01 0.00000E+00
 -1      5766 2.28750E+01-1.91897E+01 0.00000E+00
 -1      5767 2.18125E+01-1.91897E+01 0.00000E+00
 -1      5768 2.07500E+01-1.91897E+01 0.00000E+00
 -1      5769 1.96875E+01-1.91897E+01 0.00000E+00
 -1      5770 1.86250E+01-1.91897E+01 0.00000E+00
 -1      5771 1.75625E+01-1.91897E+01 0.00000E+00
 -1      5772 1.65000E+01-1.91897E+01 0.00000E+00
 -1      5773 1.54375E+01-1.91897E+01 0.00000E+00
 -1      5774 1.43750E+01-1.91897E+01 0.00000E+00
 -1      5775 1.33125E+01-1.91897E+01 0.00000E+00
 -1      5776 1.22500E+01-1.91897E+01 0.00000E+00
 -1      5777 1.11875E+01-1.91897E+01 0.00000E+00
 -1      5778 1.01250E+01-1.91897E+01 0.00000E+00
 -1      5779 9.06250E+00-1.91897E+01 0.00000E+00
 -1      5780 2.39375E+01-2.02069E+01 0.00000E+00
 -1      5781 2.28750E+01-2.02069E+01 0.00000E+00
 -1      5782 2.18125E+01-2.02069E+01 0.00000E+00
 -1      5783 2.07500E+01-2.02069E+01 0.00000E+00
 -1      5784 1.96875E+01-2.02069E+01 0.00000E+00
 -1      5785 1.86250E+01-2.02069E+01 0.00000E+00
 -1      5786 1.75625E+01-2.02069E+01 0.00000E+00
 -1      5787 1.65000E+01-2.02069E+01 0.00000E+00
 -1      5788 1.54375E+01-2.02069E+01 0.00000E+00
 -1      5789 1.43750E+01-2.02069E+01 0.00000E+00
 -1      5790 1.33125E+01-2.02069E+01 0.00000E+00
 -1      5791 1.22500E+01-2.02069E+01 0.00000E+00
 -1      5792 1.11875E+01-2.02069E+01 0.00000E+00
 -1      5793 1.01250E+01-2.02069E+01 0.00000E+00
 -1      5794 9.06250E+00-2.02069E+01 0.00000E+00
 -1      5795 2.39375E+01-2.12241E+01 0.00000E+00
 -1      5796 2.28750E+01-2.12241E+01 0.00000E+00
 -1      5797 2.18125E+01-2.12241E+01 0.00000E+00
 -1      5798 2.07500E+01-2.12241E+01 0.00000E+00
 -1      5799 1.96875E+01-2.12241E+01 0.00000E+00
 -1      5800 1.86250E+01-2.12241E+01 0.00000E+00
 -1      5801 1.75625E+01-2.12241E+01 0.00000E+00
 -1      5802 1.65000E+01-2.12241E+01 0.00000E+00
 -1      5803 1.54375E+01-2.12241E+01 0.00000E+00
 -1      5804 1.43750E+01-2.12241E+01 0.00000E+00
 -1      5805 1.33125E+01-2.12241E+01 0.00000E+00
 -1      5806 1.22500E+01-2.12241E+01 0.00000E+00
 -1      5807 1.11875E+01-2.12241E+01 0.00000E+00
 -1      5808 1.01250E+01-2.12241E+01 0.00000E+00
 -1      5809 9.06250E+00-2.12241E+01 0.00000E+00
 -1      5810 2.39375E+01-2.22414E+01 0.00000E+00
 -1      5811 2.28750E+01-2.22414E+01 0.00000E+00
 -1      5812 2.18125E+01-2.22414E+01 0.00000E+00
 -1      5813 2.07500E+01-2.22414E+01 0.00000E+00
 -1      5814 1.96875E+01-2.22414E+01 0.00000E+00
 -1      5815 1.86250E+01-2.22414E+01 0.00000E+00
 -1      5816 1.75625E+01-2.22414E+01 0.00000E+00
 -1      5817 1.65000E+01-2.22414E+01 0.00000E+00
 -1      5818 1.54375E+01-2.22414E+01 0.00000E+00
 -1      5819 1.43750E+01-2.22414E+01 0.00000E+00
 -1      5820 1.33125E+01-2.22414E+01 0.00000E+00
 -1      5821 1.22500E+01-2.22414E+01 0.00000E+00
 -1      5822 1.11875E+01-2.22414E+01 0.00000E+00
 -1      5823 1.01250E+01-2.22414E+01 0.00000E+00
 -1      5824 9.06250E+00-2.22414E+01 0.00000E+00
 -1      5825 2.39375E+01-2.32586E+01 0.00000E+00
 -1      5826 2.28750E+01-2.32586E+01 0.00000E+00
 -1      5827 2.18125E+01-2.32586E+01 0.00000E+00
 -1      5828 2.07500E+01-2.32586E+01 0.00000E+00
 -1      5829 1.96875E+01-2.32586E+01 0.00000E+00
 -1      5830 1.86250E+01-2.32586E+01 0.00000E+00
 -1      5831 1.75625E+01-2.32586E+01 0.00000E+00
 -1      5832 1.65000E+01-2.32586E+01 0.00000E+00
 -1      5833 1.54375E+01-2.32586E+01 0.00000E+00
 -1      5834 1.43750E+01-2.32586E+01 0.00000E+00
 -1      5835 1.33125E+01-2.32586E+01 0.00000E+00
 -1      5836 1.22500E+01-2.32586E+01 0.00000E+00
 -1      5837 1.11875E+01-2.32586E+01 0.00000E+00
 -1      5838 1.01250E+01-2.32586E+01 0.00000E+00
 -1      5839 9.06250E+00-2.32586E+01 0.00000E+00
 -1      5840 2.39375E+01-2.42759E+01 0.00000E+00
 -1      5841 2.28750E+01-2.42759E+01 0.00000E+00
 -1      5842 2.18125E+01-2.42759E+01 0.00000E+00
 -1      5843 2.07500E+01-2.42759E+01 0.00000E+00
 -1      5844 1.96875E+01-2.42759E+01 0.00000E+00
 -1      5845 1.86250E+01-2.42759E+01 0.00000E+00
 -1      5846 1.75625E+01-2.42759E+01 0.00000E+00
 -1      5847 1.65000E+01-2.42759E+01 0.00000E+00
 -1      5848 1.54375E+01-2.42759E+01 0.00000E+00
 -1      5849 1.43750E+01-2.42759E+01 0.00000E+00
 -1      5850 1.33125E+01-2.42759E+01 0.00000E+00
 -1      5851 1.22500E+01-2.42759E+01 0.00000E+00
 -1      5852 1.11875E+01-2.42759E+01 0.00000E+00
 -1      5853 1.01250E+01-2.42759E+01 0.00000E+00
 -1      5854 9.06250E+00-2.42759E+01 0.00000E+00
 -1      5855 2.39375E+01-2.52931E+01 0.00000E+00
 -1      5856 2.28750E+01-2.52931E+01 0.00000E+00
 -1      5857 2.18125E+01-2.52931E+01 0.00000E+00
 -1      5858 2.07500E+01-2.52931E+01 0.00000E+00
 -1      5859 1.96875E+01-2.52931E+01 0.00000E+00
 -1      5860 1.86250E+01-2.52931E+01 0.00000E+00
 -1      5861 1.75625E+01-2.52931E+01 0.00000E+00
 -1      5862 1.65000E+01-2.52931E+01 0.00000E+00
 -1      5863 1.54375E+01-2.52931E+01 0.00000E+00
 -1      5864 1.43750E+01-2.52931E+01 0.00000E+00
 -1      5865 1.33125E+01-2.52931E+01 0.00000E+00
 -1      5866 1.22500E+01-2.52931E+01 0.00000E+00
 -1      5867 1.11875E+01-2.52931E+01 0.00000E+00
 -1      5868 1.01250E+01-2.52931E+01 0.00000E+00
 -1      5869 9.06250E+00-2.52931E+01 0.00000E+00
 -1      5870 2.39375E+01-2.63103E+01 0.00000E+00
 -1      5871 2.28750E+01-2.63103E+01 0.00000E+00
 -1      5872 2.18125E+01-2.63103E+01 0.00000E+00
 -1      5873 2.07500E+01-2.63103E+01 0.00000E+00
 -1      5874 1.96875E+01-2.63103E+01 0.00000E+00
 -1      5875 1.86250E+01-2.63103E+01 0.00000E+00
 -1      5876 1.75625E+01-2.63103E+01 0.00000E+00
 -1      5877 1.65000E+01-2.63103E+01 0.00000E+00
 -1      5878 1.54375E+01-2.63103E+01 0.00000E+00
 -1      5879 1.43750E+01-2.63103E+01 0.00000E+00
 -1      5880 1.33125E+01-2.63103E+01 0.00000E+00
 -1      5881 1.22500E+01-2.63103E+01 0.00000E+00
 -1      5882 1.11875E+01-2.63103E+01 0.00000E+00
 -1      5883 1.01250E+01-2.63103E+01 0.00000E+00
 -1      5884 9.06250E+00-2.63103E+01 0.00000E+00
 -1      5885 2.39375E+01-2.73276E+01 0.00000E+00
 -1      5886 2.28750E+01-2.73276E+01 0.00000E+00
 -1      5887 2.18125E+01-2.73276E+01 0.00000E+00
 -1      5888 2.07500E+01-2.73276E+01 0.00000E+00
 -1      5889 1.96875E+01-2.73276E+01 0.00000E+00
 -1      5890 1.86250E+01-2.73276E+01 0.00000E+00
 -1      5891 1.75625E+01-2.73276E+01 0.00000E+00
 -1      5892 1.65000E+01-2.73276E+01 0.00000E+00
 -1      5893 1.54375E+01-2.73276E+01 0.00000E+00
 -1      5894 1.43750E+01-2.73276E+01 0.00000E+00
 -1      5895 1.33125E+01-2.73276E+01 0.00000E+00
 -1      5896 1.22500E+01-2.73276E+01 0.00000E+00
 -1      5897 1.11875E+01-2.73276E+01 0.00000E+00
 -1      5898 1.01250E+01-2.73276E+01 0.00000E+00
 -1      5899 9.06250E+00-2.73276E+01 0.00000E+00
 -1      5900 2.39375E+01-2.83448E+01 0.00000E+00
 -1      5901 2.28750E+01-2.83448E+01 0.00000E+00
 -1      5902 2.18125E+01-2.83448E+01 0.00000E+00
 -1      5903 2.07500E+01-2.83448E+01 0.00000E+00
 -1      5904 1.96875E+01-2.83448E+01 0.00000E+00
 -1      5905 1.86250E+01-2.83448E+01 0.00000E+00
 -1      5906 1.75625E+01-2.83448E+01 0.00000E+00
 -1      5907 1.65000E+01-2.83448E+01 0.00000E+00
 -1      5908 1.54375E+01-2.83448E+01 0.00000E+00
 -1      5909 1.43750E+01-2.83448E+01 0.00000E+00
 -1      5910 1.33125E+01-2.83448E+01 0.00000E+00
 -1      5911 1.22500E+01-2.83448E+01 0.00000E+00
 -1      5912 1.11875E+01-2.83448E+01 0.00000E+00
 -1      5913 1.01250E+01-2.83448E+01 0.00000E+00
 -1      5914 9.06250E+00-2.83448E+01 0.00000E+00
 -1      5915 2.39375E+01-2.93621E+01 0.00000E+00
 -1      5916 2.28750E+01-2.93621E+01 0.00000E+00
 -1      5917 2.18125E+01-2.93621E+01 0.00000E+00
 -1      5918 2.07500E+01-2.93621E+01 0.00000E+00
 -1      5919 1.96875E+01-2.93621E+01 0.00000E+00
 -1      5920 1.86250E+01-2.93621E+01 0.00000E+00
 -1      5921 1.75625E+01-2.93621E+01 0.00000E+00
 -1      5922 1.65000E+01-2.93621E+01 0.00000E+00
 -1      5923 1.54375E+01-2.93621E+01 0.00000E+00
 -1      5924 1.43750E+01-2.93621E+01 0.00000E+00
 -1      5925 1.33125E+01-2.93621E+01 0.00000E+00
 -1      5926 1.22500E+01-2.93621E+01 0.00000E+00
 -1      5927 1.11875E+01-2.93621E+01 0.00000E+00
 -1      5928 1.01250E+01-2.93621E+01 0.00000E+00
 -1      5929 9.06250E+00-2.93621E+01 0.00000E+00
 -1      5930 2.39375E+01-3.03793E+01 0.00000E+00
 -1      5931 2.28750E+01-3.03793E+01 0.00000E+00
 -1      5932 2.18125E+01-3.03793E+01 0.00000E+00
 -1      5933 2.07500E+01-3.03793E+01 0.00000E+00
 -1      5934 1.96875E+01-3.03793E+01 0.00000E+00
 -1      5935 1.86250E+01-3.03793E+01 0.00000E+00
 -1      5936 1.75625E+01-3.03793E+01 0.00000E+00
 -1      5937 1.65000E+01-3.03793E+01 0.00000E+00
 -1      5938 1.54375E+01-3.03793E+01 0.00000E+00
 -1      5939 1.43750E+01-3.03793E+01 0.00000E+00
 -1      5940 1.33125E+01-3.03793E+01 0.00000E+00
 -1      5941 1.22500E+01-3.03793E+01 0.00000E+00
 -1      5942 1.11875E+01-3.03793E+01 0.00000E+00
 -1      5943 1.01250E+01-3.03793E+01 0.00000E+00
 -1      5944 9.06250E+00-3.03793E+01 0.00000E+00
 -1      5945 2.39375E+01-3.13966E+01 0.00000E+00
 -1      5946 2.28750E+01-3.13966E+01 0.00000E+00
 -1      5947 2.18125E+01-3.13966E+01 0.00000E+00
 -1      5948 2.07500E+01-3.13966E+01 0.00000E+00
 -1      5949 1.96875E+01-3.13966E+01 0.00000E+00
 -1      5950 1.86250E+01-3.13966E+01 0.00000E+00
 -1      5951 1.75625E+01-3.13966E+01 0.00000E+00
 -1      5952 1.65000E+01-3.13966E+01 0.00000E+00
 -1      5953 1.54375E+01-3.13966E+01 0.00000E+00
 -1      5954 1.43750E+01-3.13966E+01 0.00000E+00
 -1      5955 1.33125E+01-3.13966E+01 0.00000E+00
 -1      5956 1.22500E+01-3.13966E+01 0.00000E+00
 -1      5957 1.11875E+01-3.13966E+01 0.00000E+00
 -1      5958 1.01250E+01-3.13966E+01 0.00000E+00
 -1      5959 9.06250E+00-3.13966E+01 0.00000E+00
 -1      5960 2.39375E+01-3.24138E+01 0.00000E+00
 -1      5961 2.28750E+01-3.24138E+01 0.00000E+00
 -1      5962 2.18125E+01-3.24138E+01 0.00000E+00
 -1      5963 2.07500E+01-3.24138E+01 0.00000E+00
 -1      5964 1.96875E+01-3.24138E+01 0.00000E+00
 -1      5965 1.86250E+01-3.24138E+01 0.00000E+00
 -1      5966 1.75625E+01-3.24138E+01 0.00000E+00
 -1      5967 1.65000E+01-3.24138E+01 0.00000E+00
 -1      5968 1.54375E+01-3.24138E+01 0.00000E+00
 -1      5969 1.43750E+01-3.24138E+01 0.00000E+00
 -1      5970 1.33125E+01-3.24138E+01 0.00000E+00
 -1      5971 1.22500E+01-3.24138E+01 0.00000E+00
 -1      5972 1.11875E+01-3.24138E+01 0.00000E+00
 -1      5973 1.01250E+01-3.24138E+01 0.00000E+00
 -1      5974 9.06250E+00-3.24138E+01 0.00000E+00
 -1      5975 2.39375E+01-3.34310E+01 0.00000E+00
 -1      5976 2.28750E+01-3.34310E+01 0.00000E+00
 -1      5977 2.18125E+01-3.34310E+01 0.00000E+00
 -1      5978 2.07500E+01-3.34310E+01 0.00000E+00
 -1      5979 1.96875E+01-3.34310E+01 0.00000E+00
 -1      5980 1.86250E+01-3.34310E+01 0.00000E+00
 -1      5981 1.75625E+01-3.34310E+01 0.00000E+00
 -1      5982 1.65000E+01-3.34310E+01 0.00000E+00
 -1      5983 1.54375E+01-3.34310E+01 0.00000E+00
 -1      5984 1.43750E+01-3.34310E+01 0.00000E+00
 -1      5985 1.33125E+01-3.34310E+01 0.00000E+00
 -1      5986 1.22500E+01-3.34310E+01 0.00000E+00
 -1      5987 1.11875E+01-3.34310E+01 0.00000E+00
 -1      5988 1.01250E+01-3.34310E+01 0.00000E+00
 -1      5989 9.06250E+00-3.34310E+01 0.00000E+00
 -1      5990 2.39375E+01-3.44483E+01 0.00000E+00
 -1      5991 2.28750E+01-3.44483E+01 0.00000E+00
 -1      5992 2.18125E+01-3.44483E+01 0.00000E+00
 -1      5993 2.07500E+01-3.44483E+01 0.00000E+00
 -1      5994 1.96875E+01-3.44483E+01 0.00000E+00
 -1      5995 1.86250E+01-3.44483E+01 0.00000E+00
 -1      5996 1.75625E+01-3.44483E+01 0.00000E+00
 -1      5997 1.65000E+01-3.44483E+01 0.00000E+00
 -1      5998 1.54375E+01-3.44483E+01 0.00000E+00
 -1      5999 1.43750E+01-3.44483E+01 0.00000E+00
 -1      6000 1.33125E+01-3.44483E+01 0.00000E+00
 -1      6001 1.22500E+01-3.44483E+01 0.00000E+00
 -1      6002 1.11875E+01-3.44483E+01 0.00000E+00
 -1      6003 1.01250E+01-3.44483E+01 0.00000E+00
 -1      6004 9.06250E+00-3.44483E+01 0.00000E+00
 -1      6005 2.39375E+01-3.54655E+01 0.00000E+00
 -1      6006 2.28750E+01-3.54655E+01 0.00000E+00
 -1      6007 2.18125E+01-3.54655E+01 0.00000E+00
 -1      6008 2.07500E+01-3.54655E+01 0.00000E+00
 -1      6009 1.96875E+01-3.54655E+01 0.00000E+00
 -1      6010 1.86250E+01-3.54655E+01 0.00000E+00
 -1      6011 1.75625E+01-3.54655E+01 0.00000E+00
 -1      6012 1.65000E+01-3.54655E+01 0.00000E+00
 -1      6013 1.54375E+01-3.54655E+01 0.00000E+00
 -1      6014 1.43750E+01-3.54655E+01 0.00000E+00
 -1      6015 1.33125E+01-3.54655E+01 0.00000E+00
 -1      6016 1.22500E+01-3.54655E+01 0.00000E+00
 -1      6017 1.11875E+01-3.54655E+01 0.00000E+00
 -1      6018 1.01250E+01-3.54655E+01 0.00000E+00
 -1      6019 9.06250E+00-3.54655E+01 0.00000E+00
 -1      6020 2.39375E+01-3.64828E+01 0.00000E+00
 -1      6021 2.28750E+01-3.64828E+01 0.00000E+00
 -1      6022 2.18125E+01-3.64828E+01 0.00000E+00
 -1      6023 2.07500E+01-3.64828E+01 0.00000E+00
 -1      6024 1.96875E+01-3.64828E+01 0.00000E+00
 -1      6025 1.86250E+01-3.64828E+01 0.00000E+00
 -1      6026 1.75625E+01-3.64828E+01 0.00000E+00
 -1      6027 1.65000E+01-3.64828E+01 0.00000E+00
 -1      6028 1.54375E+01-3.64828E+01 0.00000E+00
 -1      6029 1.43750E+01-3.64828E+01 0.00000E+00
 -1      6030 1.33125E+01-3.64828E+01 0.00000E+00
 -1      6031 1.22500E+01-3.64828E+01 0.00000E+00
 -1      6032 1.11875E+01-3.64828E+01 0.00000E+00
 -1      6033 1.01250E+01-3.64828E+01 0.00000E+00
 -1      6034 9.06250E+00-3.64828E+01 0.00000E+00
 -1      6035 2.39375E+01-8.50862E+00 0.00000E+00
 -1      6036 2.44688E+01-9.01724E+00 0.00000E+00
 -1      6037 2.28750E+01-8.50862E+00 0.00000E+00
 -1      6038 2.34062E+01-9.01724E+00 0.00000E+00
 -1      6039 2.18125E+01-8.50862E+00 0.00000E+00
 -1      6040 2.23438E+01-9.01724E+00 0.00000E+00
 -1      6041 2.07500E+01-8.50862E+00 0.00000E+00
 -1      6042 2.12812E+01-9.01724E+00 0.00000E+00
 -1      6043 1.96875E+01-8.50862E+00 0.00000E+00
 -1      6044 2.02188E+01-9.01724E+00 0.00000E+00
 -1      6045 1.86250E+01-8.50862E+00 0.00000E+00
 -1      6046 1.91562E+01-9.01724E+00 0.00000E+00
 -1      6047 1.75625E+01-8.50862E+00 0.00000E+00
 -1      6048 1.80938E+01-9.01724E+00 0.00000E+00
 -1      6049 1.65000E+01-8.50862E+00 0.00000E+00
 -1      6050 1.70312E+01-9.01724E+00 0.00000E+00
 -1      6051 1.54375E+01-8.50862E+00 0.00000E+00
 -1      6052 1.59688E+01-9.01724E+00 0.00000E+00
 -1      6053 1.43750E+01-8.50862E+00 0.00000E+00
 -1      6054 1.49062E+01-9.01724E+00 0.00000E+00
 -1      6055 1.33125E+01-8.50862E+00 0.00000E+00
 -1      6056 1.38438E+01-9.01724E+00 0.00000E+00
 -1      6057 1.22500E+01-8.50862E+00 0.00000E+00
 -1      6058 1.27812E+01-9.01724E+00 0.00000E+00
 -1      6059 1.11875E+01-8.50862E+00 0.00000E+00
 -1      6060 1.17188E+01-9.01724E+00 0.00000E+00
 -1      6061 1.01250E+01-8.50862E+00 0.00000E+00
 -1      6062 1.06562E+01-9.01724E+00 0.00000E+00
 -1      6063 9.06250E+00-8.50862E+00 0.00000E+00
 -1      6064 9.59375E+00-9.01724E+00 0.00000E+00
 -1      6065 8.53125E+00-9.01724E+00 0.00000E+00
 -1      6066 2.39375E+01-9.52586E+00 0.00000E+00
 -1      6067 2.44688E+01-1.00345E+01 0.00000E+00
 -1      6068 2.28750E+01-9.52586E+00 0.00000E+00
 -1      6069 2.34062E+01-1.00345E+01 0.00000E+00
 -1      6070 2.18125E+01-9.52586E+00 0.00000E+00
 -1      6071 2.23438E+01-1.00345E+01 0.00000E+00
 -1      6072 2.07500E+01-9.52586E+00 0.00000E+00
 -1      6073 2.12812E+01-1.00345E+01 0.00000E+00
 -1      6074 1.96875E+01-9.52586E+00 0.00000E+00
 -1      6075 2.02188E+01-1.00345E+01 0.00000E+00
 -1      6076 1.86250E+01-9.52586E+00 0.00000E+00
 -1      6077 1.91562E+01-1.00345E+01 0.00000E+00
 -1      6078 1.75625E+01-9.52586E+00 0.00000E+00
 -1      6079 1.80938E+01-1.00345E+01 0.00000E+00
 -1      6080 1.65000E+01-9.52586E+00 0.00000E+00
 -1      6081 1.70312E+01-1.00345E+01 0.00000E+00
 -1      6082 1.54375E+01-9.52586E+00 0.00000E+00
 -1      6083 1.59688E+01-1.00345E+01 0.00000E+00
 -1      6084 1.43750E+01-9.52586E+00 0.00000E+00
 -1      6085 1.49062E+01-1.00345E+01 0.00000E+00
 -1      6086 1.33125E+01-9.52586E+00 0.00000E+00
 -1      6087 1.38438E+01-1.00345E+01 0.00000E+00
 -1      6088 1.22500E+01-9.52586E+00 0.00000E+00
 -1      6089 1.27812E+01-1.00345E+01 0.00000E+00
 -1      6090 1.11875E+01-9.52586E+00 0.00000E+00
 -1      6091 1.17188E+01-1.00345E+01 0.00000E+00
 -1      6092 1.01250E+01-9.52586E+00 0.00000E+00
 -1      6093 1.06562E+01-1.00345E+01 0.00000E+00
 -1      6094 9.06250E+00-9.52586E+00 0.00000E+00
 -1      6095 9.59375E+00-1.00345E+01 0.00000E+00
 -1      6096 8.53125E+00-1.00345E+01 0.00000E+00
 -1      6097 2.39375E+01-1.05431E+01 0.00000E+00
 -1      6098 2.44688E+01-1.10517E+01 0.00000E+00
 -1      6099 2.28750E+01-1.05431E+01 0.00000E+00
 -1      6100 2.34062E+01-1.10517E+01 0.00000E+00
 -1      6101 2.18125E+01-1.05431E+01 0.00000E+00
 -1      6102 2.23438E+01-1.10517E+01 0.00000E+00
 -1      6103 2.07500E+01-1.05431E+01 0.00000E+00
 -1      6104 2.12812E+01-1.10517E+01 0.00000E+00
 -1      6105 1.96875E+01-1.05431E+01 0.00000E+00
 -1      6106 2.02188E+01-1.10517E+01 0.00000E+00
 -1      6107 1.86250E+01-1.05431E+01 0.00000E+00
 -1      6108 1.91562E+01-1.10517E+01 0.00000E+00
 -1      6109 1.75625E+01-1.05431E+01 0.00000E+00
 -1      6110 1.80938E+01-1.10517E+01 0.00000E+00
 -1      6111 1.65000E+01-1.05431E+01 0.00000E+00
 -1      6112 1.70312E+01-1.10517E+01 0.00000E+00
 -1      6113 1.54375E+01-1.05431E+01 0.00000E+00
 -1      6114 1.59688E+01-1.10517E+01 0.00000E+00
 -1      6115 1.43750E+01-1.05431E+01 0.00000E+00
 -1      6116 1.49062E+01-1.10517E+01 0.00000E+00
 -1      6117 1.33125E+01-1.05431E+01 0.00000E+00
 -1      6118 1.38438E+01-1.10517E+01 0.00000E+00
 -1      6119 1.22500E+01-1.05431E+01 0.00000E+00
 -1      6120 1.27812E+01-1.10517E+01 0.00000E+00
 -1      6121 1.11875E+01-1.05431E+01 0.00000E+00
 -1      6122 1.17188E+01-1.10517E+01 0.00000E+00
 -1      6123 1.01250E+01-1.05431E+01 0.00000E+00
 -1      6124 1.06562E+01-1.10517E+01 0.00000E+00
 -1      6125 9.06250E+00-1.05431E+01 0.00000E+00
 -1      6126 9.59375E+00-1.10517E+01 0.00000E+00
 -1      6127 8.53125E+00-1.10517E+01 0.00000E+00
 -1      6128 2.39375E+01-1.15603E+01 0.00000E+00
 -1      6129 2.44688E+01-1.20690E+01 0.00000E+00
 -1      6130 2.28750E+01-1.15603E+01 0.00000E+00
 -1      6131 2.34062E+01-1.20690E+01 0.00000E+00
 -1      6132 2.18125E+01-1.15603E+01 0.00000E+00
 -1      6133 2.23438E+01-1.20690E+01 0.00000E+00
 -1      6134 2.07500E+01-1.15603E+01 0.00000E+00
 -1      6135 2.12812E+01-1.20690E+01 0.00000E+00
 -1      6136 1.96875E+01-1.15603E+01 0.00000E+00
 -1      6137 2.02188E+01-1.20690E+01 0.00000E+00
 -1      6138 1.86250E+01-1.15603E+01 0.00000E+00
 -1      6139 1.91562E+01-1.20690E+01 0.00000E+00
 -1      6140 1.75625E+01-1.15603E+01 0.00000E+00
 -1      6141 1.80938E+01-1.20690E+01 0.00000E+00
 -1      6142 1.65000E+01-1.15603E+01 0.00000E+00
 -1      6143 1.70312E+01-1.20690E+01 0.00000E+00
 -1      6144 1.54375E+01-1.15603E+01 0.00000E+00
 -1      6145 1.59688E+01-1.20690E+01 0.00000E+00
 -1      6146 1.43750E+01-1.15603E+01 0.00000E+00
 -1      6147 1.49062E+01-1.20690E+01 0.00000E+00
 -1      6148 1.33125E+01-1.15603E+01 0.00000E+00
 -1      6149 1.38438E+01-1.20690E+01 0.00000E+00
 -1      6150 1.22500E+01-1.15603E+01 0.00000E+00
 -1      6151 1.27812E+01-1.20690E+01 0.00000E+00
 -1      6152 1.11875E+01-1.15603E+01 0.00000E+00
 -1      6153 1.17188E+01-1.20690E+01 0.00000E+00
 -1      6154 1.01250E+01-1.15603E+01 0.00000E+00
 -1      6155 1.06562E+01-1.20690E+01 0.00000E+00
 -1      6156 9.06250E+00-1.15603E+01 0.00000E+00
 -1      6157 9.59375E+00-1.20690E+01 0.00000E+00
 -1      6158 8.53125E+00-1.20690E+01 0.00000E+00
 -1      6159 2.39375E+01-1.25776E+01 0.00000E+00
 -1      6160 2.44688E+01-1.30862E+01 0.00000E+00
 -1      6161 2.28750E+01-1.25776E+01 0.00000E+00
 -1      6162 2.34062E+01-1.30862E+01 0.00000E+00
 -1      6163 2.18125E+01-1.25776E+01 0.00000E+00
 -1      6164 2.23438E+01-1.30862E+01 0.00000E+00
 -1      6165 2.07500E+01-1.25776E+01 0.00000E+00
 -1      6166 2.12812E+01-1.30862E+01 0.00000E+00
 -1      6167 1.96875E+01-1.25776E+01 0.00000E+00
 -1      6168 2.02188E+01-1.30862E+01 0.00000E+00
 -1      6169 1.86250E+01-1.25776E+01 0.00000E+00
 -1      6170 1.91562E+01-1.30862E+01 0.00000E+00
 -1      6171 1.75625E+01-1.25776E+01 0.00000E+00
 -1      6172 1.80938E+01-1.30862E+01 0.00000E+00
 -1      6173 1.65000E+01-1.25776E+01 0.00000E+00
 -1      6174 1.70312E+01-1.30862E+01 0.00000E+00
 -1      6175 1.54375E+01-1.25776E+01 0.00000E+00
 -1      6176 1.59688E+01-1.30862E+01 0.00000E+00
 -1      6177 1.43750E+01-1.25776E+01 0.00000E+00
 -1      6178 1.49062E+01-1.30862E+01 0.00000E+00
 -1      6179 1.33125E+01-1.25776E+01 0.00000E+00
 -1      6180 1.38438E+01-1.30862E+01 0.00000E+00
 -1      6181 1.22500E+01-1.25776E+01 0.00000E+00
 -1      6182 1.27812E+01-1.30862E+01 0.00000E+00
 -1      6183 1.11875E+01-1.25776E+01 0.00000E+00
 -1      6184 1.17188E+01-1.30862E+01 0.00000E+00
 -1      6185 1.01250E+01-1.25776E+01 0.00000E+00
 -1      6186 1.06562E+01-1.30862E+01 0.00000E+00
 -1      6187 9.06250E+00-1.25776E+01 0.00000E+00
 -1      6188 9.59375E+00-1.30862E+01 0.00000E+00
 -1      6189 8.53125E+00-1.30862E+01 0.00000E+00
 -1      6190 2.39375E+01-1.35948E+01 0.00000E+00
 -1      6191 2.44688E+01-1.41034E+01 0.00000E+00
 -1      6192 2.28750E+01-1.35948E+01 0.00000E+00
 -1      6193 2.34062E+01-1.41034E+01 0.00000E+00
 -1      6194 2.18125E+01-1.35948E+01 0.00000E+00
 -1      6195 2.23438E+01-1.41034E+01 0.00000E+00
 -1      6196 2.07500E+01-1.35948E+01 0.00000E+00
 -1      6197 2.12812E+01-1.41034E+01 0.00000E+00
 -1      6198 1.96875E+01-1.35948E+01 0.00000E+00
 -1      6199 2.02188E+01-1.41034E+01 0.00000E+00
 -1      6200 1.86250E+01-1.35948E+01 0.00000E+00
 -1      6201 1.91562E+01-1.41034E+01 0.00000E+00
 -1      6202 1.75625E+01-1.35948E+01 0.00000E+00
 -1      6203 1.80938E+01-1.41034E+01 0.00000E+00
 -1      6204 1.65000E+01-1.35948E+01 0.00000E+00
 -1      6205 1.70312E+01-1.41034E+01 0.00000E+00
 -1      6206 1.54375E+01-1.35948E+01 0.00000E+00
 -1      6207 1.59688E+01-1.41034E+01 0.00000E+00
 -1      6208 1.43750E+01-1.35948E+01 0.00000E+00
 -1      6209 1.49062E+01-1.41034E+01 0.00000E+00
 -1      6210 1.33125E+01-1.35948E+01 0.00000E+00
 -1      6211 1.38438E+01-1.41034E+01 0.00000E+00
 -1      6212 1.22500E+01-1.35948E+01 0.00000E+00
 -1      6213 1.27812E+01-1.41034E+01 0.00000E+00
 -1      6214 1.11875E+01-1.35948E+01 0.00000E+00
 -1      6215 1.17188E+01-1.41034E+01 0.00000E+00
 -1      6216 1.01250E+01-1.35948E+01 0.00000E+00
 -1      6217 1.06562E+01-1.41034E+01 0.00000E+00
 -1      6218 9.06250E+00-1.35948E+01 0.00000E+00
 -1      6219 9.59375E+00-1.41034E+01 0.00000E+00
 -1      6220 8.53125E+00-1.41034E+01 0.00000E+00
 -1      6221 2.39375E+01-1.46121E+01 0.00000E+00
 -1      6222 2.44688E+01-1.51207E+01 0.00000E+00
 -1      6223 2.28750E+01-1.46121E+01 0.00000E+00
 -1      6224 2.34062E+01-1.51207E+01 0.00000E+00
 -1      6225 2.18125E+01-1.46121E+01 0.00000E+00
 -1      6226 2.23438E+01-1.51207E+01 0.00000E+00
 -1      6227 2.07500E+01-1.46121E+01 0.00000E+00
 -1      6228 2.12812E+01-1.51207E+01 0.00000E+00
 -1      6229 1.96875E+01-1.46121E+01 0.00000E+00
 -1      6230 2.02188E+01-1.51207E+01 0.00000E+00
 -1      6231 1.86250E+01-1.46121E+01 0.00000E+00
 -1      6232 1.91562E+01-1.51207E+01 0.00000E+00
 -1      6233 1.75625E+01-1.46121E+01 0.00000E+00
 -1      6234 1.80938E+01-1.51207E+01 0.00000E+00
 -1      6235 1.65000E+01-1.46121E+01 0.00000E+00
 -1      6236 1.70312E+01-1.51207E+01 0.00000E+00
 -1      6237 1.54375E+01-1.46121E+01 0.00000E+00
 -1      6238 1.59688E+01-1.51207E+01 0.00000E+00
 -1      6239 1.43750E+01-1.46121E+01 0.00000E+00
 -1      6240 1.49062E+01-1.51207E+01 0.00000E+00
 -1      6241 1.33125E+01-1.46121E+01 0.00000E+00
 -1      6242 1.38438E+01-1.51207E+01 0.00000E+00
 -1      6243 1.22500E+01-1.46121E+01 0.00000E+00
 -1      6244 1.27812E+01-1.51207E+01 0.00000E+00
 -1      6245 1.11875E+01-1.46121E+01 0.00000E+00
 -1      6246 1.17188E+01-1.51207E+01 0.00000E+00
 -1      6247 1.01250E+01-1.46121E+01 0.00000E+00
 -1      6248 1.06562E+01-1.51207E+01 0.00000E+00
 -1      6249 9.06250E+00-1.46121E+01 0.00000E+00
 -1      6250 9.59375E+00-1.51207E+01 0.00000E+00
 -1      6251 8.53125E+00-1.51207E+01 0.00000E+00
 -1      6252 2.39375E+01-1.56293E+01 0.00000E+00
 -1      6253 2.44688E+01-1.61379E+01 0.00000E+00
 -1      6254 2.28750E+01-1.56293E+01 0.00000E+00
 -1      6255 2.34062E+01-1.61379E+01 0.00000E+00
 -1      6256 2.18125E+01-1.56293E+01 0.00000E+00
 -1      6257 2.23438E+01-1.61379E+01 0.00000E+00
 -1      6258 2.07500E+01-1.56293E+01 0.00000E+00
 -1      6259 2.12812E+01-1.61379E+01 0.00000E+00
 -1      6260 1.96875E+01-1.56293E+01 0.00000E+00
 -1      6261 2.02188E+01-1.61379E+01 0.00000E+00
 -1      6262 1.86250E+01-1.56293E+01 0.00000E+00
 -1      6263 1.91562E+01-1.61379E+01 0.00000E+00
 -1      6264 1.75625E+01-1.56293E+01 0.00000E+00
 -1      6265 1.80938E+01-1.61379E+01 0.00000E+00
 -1      6266 1.65000E+01-1.56293E+01 0.00000E+00
 -1      6267 1.70312E+01-1.61379E+01 0.00000E+00
 -1      6268 1.54375E+01-1.56293E+01 0.00000E+00
 -1      6269 1.59688E+01-1.61379E+01 0.00000E+00
 -1      6270 1.43750E+01-1.56293E+01 0.00000E+00
 -1      6271 1.49062E+01-1.61379E+01 0.00000E+00
 -1      6272 1.33125E+01-1.56293E+01 0.00000E+00
 -1      6273 1.38438E+01-1.61379E+01 0.00000E+00
 -1      6274 1.22500E+01-1.56293E+01 0.00000E+00
 -1      6275 1.27812E+01-1.61379E+01 0.00000E+00
 -1      6276 1.11875E+01-1.56293E+01 0.00000E+00
 -1      6277 1.17188E+01-1.61379E+01 0.00000E+00
 -1      6278 1.01250E+01-1.56293E+01 0.00000E+00
 -1      6279 1.06562E+01-1.61379E+01 0.00000E+00
 -1      6280 9.06250E+00-1.56293E+01 0.00000E+00
 -1      6281 9.59375E+00-1.61379E+01 0.00000E+00
 -1      6282 8.53125E+00-1.61379E+01 0.00000E+00
 -1      6283 2.39375E+01-1.66466E+01 0.00000E+00
 -1      6284 2.44688E+01-1.71552E+01 0.00000E+00
 -1      6285 2.28750E+01-1.66466E+01 0.00000E+00
 -1      6286 2.34062E+01-1.71552E+01 0.00000E+00
 -1      6287 2.18125E+01-1.66466E+01 0.00000E+00
 -1      6288 2.23438E+01-1.71552E+01 0.00000E+00
 -1      6289 2.07500E+01-1.66466E+01 0.00000E+00
 -1      6290 2.12812E+01-1.71552E+01 0.00000E+00
 -1      6291 1.96875E+01-1.66466E+01 0.00000E+00
 -1      6292 2.02188E+01-1.71552E+01 0.00000E+00
 -1      6293 1.86250E+01-1.66466E+01 0.00000E+00
 -1      6294 1.91562E+01-1.71552E+01 0.00000E+00
 -1      6295 1.75625E+01-1.66466E+01 0.00000E+00
 -1      6296 1.80938E+01-1.71552E+01 0.00000E+00
 -1      6297 1.65000E+01-1.66466E+01 0.00000E+00
 -1      6298 1.70312E+01-1.71552E+01 0.00000E+00
 -1      6299 1.54375E+01-1.66466E+01 0.00000E+00
 -1      6300 1.59688E+01-1.71552E+01 0.00000E+00
 -1      6301 1.43750E+01-1.66466E+01 0.00000E+00
 -1      6302 1.49062E+01-1.71552E+01 0.00000E+00
 -1      6303 1.33125E+01-1.66466E+01 0.00000E+00
 -1      6304 1.38438E+01-1.71552E+01 0.00000E+00
 -1      6305 1.22500E+01-1.66466E+01 0.00000E+00
 -1      6306 1.27812E+01-1.71552E+01 0.00000E+00
 -1      6307 1.11875E+01-1.66466E+01 0.00000E+00
 -1      6308 1.17188E+01-1.71552E+01 0.00000E+00
 -1      6309 1.01250E+01-1.66466E+01 0.00000E+00
 -1      6310 1.06562E+01-1.71552E+01 0.00000E+00
 -1      6311 9.06250E+00-1.66466E+01 0.00000E+00
 -1      6312 9.59375E+00-1.71552E+01 0.00000E+00
 -1      6313 8.53125E+00-1.71552E+01 0.00000E+00
 -1      6314 2.39375E+01-1.76638E+01 0.00000E+00
 -1      6315 2.44688E+01-1.81724E+01 0.00000E+00
 -1      6316 2.28750E+01-1.76638E+01 0.00000E+00
 -1      6317 2.34062E+01-1.81724E+01 0.00000E+00
 -1      6318 2.18125E+01-1.76638E+01 0.00000E+00
 -1      6319 2.23438E+01-1.81724E+01 0.00000E+00
 -1      6320 2.07500E+01-1.76638E+01 0.00000E+00
 -1      6321 2.12812E+01-1.81724E+01 0.00000E+00
 -1      6322 1.96875E+01-1.76638E+01 0.00000E+00
 -1      6323 2.02188E+01-1.81724E+01 0.00000E+00
 -1      6324 1.86250E+01-1.76638E+01 0.00000E+00
 -1      6325 1.91562E+01-1.81724E+01 0.00000E+00
 -1      6326 1.75625E+01-1.76638E+01 0.00000E+00
 -1      6327 1.80938E+01-1.81724E+01 0.00000E+00
 -1      6328 1.65000E+01-1.76638E+01 0.00000E+00
 -1      6329 1.70312E+01-1.81724E+01 0.00000E+00
 -1      6330 1.54375E+01-1.76638E+01 0.00000E+00
 -1      6331 1.59688E+01-1.81724E+01 0.00000E+00
 -1      6332 1.43750E+01-1.76638E+01 0.00000E+00
 -1      6333 1.49062E+01-1.81724E+01 0.00000E+00
 -1      6334 1.33125E+01-1.76638E+01 0.00000E+00
 -1      6335 1.38438E+01-1.81724E+01 0.00000E+00
 -1      6336 1.22500E+01-1.76638E+01 0.00000E+00
 -1      6337 1.27812E+01-1.81724E+01 0.00000E+00
 -1      6338 1.11875E+01-1.76638E+01 0.00000E+00
 -1      6339 1.17188E+01-1.81724E+01 0.00000E+00
 -1      6340 1.01250E+01-1.76638E+01 0.00000E+00
 -1      6341 1.06562E+01-1.81724E+01 0.00000E+00
 -1      6342 9.06250E+00-1.76638E+01 0.00000E+00
 -1      6343 9.59375E+00-1.81724E+01 0.00000E+00
 -1      6344 8.53125E+00-1.81724E+01 0.00000E+00
 -1      6345 2.39375E+01-1.86810E+01 0.00000E+00
 -1      6346 2.44688E+01-1.91897E+01 0.00000E+00
 -1      6347 2.28750E+01-1.86810E+01 0.00000E+00
 -1      6348 2.34062E+01-1.91897E+01 0.00000E+00
 -1      6349 2.18125E+01-1.86810E+01 0.00000E+00
 -1      6350 2.23438E+01-1.91897E+01 0.00000E+00
 -1      6351 2.07500E+01-1.86810E+01 0.00000E+00
 -1      6352 2.12812E+01-1.91897E+01 0.00000E+00
 -1      6353 1.96875E+01-1.86810E+01 0.00000E+00
 -1      6354 2.02188E+01-1.91897E+01 0.00000E+00
 -1      6355 1.86250E+01-1.86810E+01 0.00000E+00
 -1      6356 1.91562E+01-1.91897E+01 0.00000E+00
 -1      6357 1.75625E+01-1.86810E+01 0.00000E+00
 -1      6358 1.80938E+01-1.91897E+01 0.00000E+00
 -1      6359 1.65000E+01-1.86810E+01 0.00000E+00
 -1      6360 1.70312E+01-1.91897E+01 0.00000E+00
 -1      6361 1.54375E+01-1.86810E+01 0.00000E+00
 -1      6362 1.59688E+01-1.91897E+01 0.00000E+00
 -1      6363 1.43750E+01-1.86810E+01 0.00000E+00
 -1      6364 1.49062E+01-1.91897E+01 0.00000E+00
 -1      6365 1.33125E+01-1.86810E+01 0.00000E+00
 -1      6366 1.38438E+01-1.91897E+01 0.00000E+00
 -1      6367 1.22500E+01-1.86810E+01 0.00000E+00
 -1      6368 1.27812E+01-1.91897E+01 0.00000E+00
 -1      6369 1.11875E+01-1.86810E+01 0.00000E+00
 -1      6370 1.17188E+01-1.91897E+01 0.00000E+00
 -1      6371 1.01250E+01-1.86810E+01 0.00000E+00
 -1      6372 1.06562E+01-1.91897E+01 0.00000E+00
 -1      6373 9.06250E+00-1.86810E+01 0.00000E+00
 -1      6374 9.59375E+00-1.91897E+01 0.00000E+00
 -1      6375 8.53125E+00-1.91897E+01 0.00000E+00
 -1      6376 2.39375E+01-1.96983E+01 0.00000E+00
 -1      6377 2.44688E+01-2.02069E+01 0.00000E+00
 -1      6378 2.28750E+01-1.96983E+01 0.00000E+00
 -1      6379 2.34062E+01-2.02069E+01 0.00000E+00
 -1      6380 2.18125E+01-1.96983E+01 0.00000E+00
 -1      6381 2.23438E+01-2.02069E+01 0.00000E+00
 -1      6382 2.07500E+01-1.96983E+01 0.00000E+00
 -1      6383 2.12812E+01-2.02069E+01 0.00000E+00
 -1      6384 1.96875E+01-1.96983E+01 0.00000E+00
 -1      6385 2.02188E+01-2.02069E+01 0.00000E+00
 -1      6386 1.86250E+01-1.96983E+01 0.00000E+00
 -1      6387 1.91562E+01-2.02069E+01 0.00000E+00
 -1      6388 1.75625E+01-1.96983E+01 0.00000E+00
 -1      6389 1.80938E+01-2.02069E+01 0.00000E+00
 -1      6390 1.65000E+01-1.96983E+01 0.00000E+00
 -1      6391 1.70312E+01-2.02069E+01 0.00000E+00
 -1      6392 1.54375E+01-1.96983E+01 0.00000E+00
 -1      6393 1.59688E+01-2.02069E+01 0.00000E+00
 -1      6394 1.43750E+01-1.96983E+01 0.00000E+00
 -1      6395 1.49062E+01-2.02069E+01 0.00000E+00
 -1      6396 1.33125E+01-1.96983E+01 0.00000E+00
 -1      6397 1.38438E+01-2.02069E+01 0.00000E+00
 -1      6398 1.22500E+01-1.96983E+01 0.00000E+00
 -1      6399 1.27812E+01-2.02069E+01 0.00000E+00
 -1      6400 1.11875E+01-1.96983E+01 0.00000E+00
 -1      6401 1.17188E+01-2.02069E+01 0.00000E+00
 -1      6402 1.01250E+01-1.96983E+01 0.00000E+00
 -1      6403 1.06562E+01-2.02069E+01 0.00000E+00
 -1      6404 9.06250E+00-1.96983E+01 0.00000E+00
 -1      6405 9.59375E+00-2.02069E+01 0.00000E+00
 -1      6406 8.53125E+00-2.02069E+01 0.00000E+00
 -1      6407 2.39375E+01-2.07155E+01 0.00000E+00
 -1      6408 2.44688E+01-2.12241E+01 0.00000E+00
 -1      6409 2.28750E+01-2.07155E+01 0.00000E+00
 -1      6410 2.34062E+01-2.12241E+01 0.00000E+00
 -1      6411 2.18125E+01-2.07155E+01 0.00000E+00
 -1      6412 2.23438E+01-2.12241E+01 0.00000E+00
 -1      6413 2.07500E+01-2.07155E+01 0.00000E+00
 -1      6414 2.12812E+01-2.12241E+01 0.00000E+00
 -1      6415 1.96875E+01-2.07155E+01 0.00000E+00
 -1      6416 2.02188E+01-2.12241E+01 0.00000E+00
 -1      6417 1.86250E+01-2.07155E+01 0.00000E+00
 -1      6418 1.91562E+01-2.12241E+01 0.00000E+00
 -1      6419 1.75625E+01-2.07155E+01 0.00000E+00
 -1      6420 1.80938E+01-2.12241E+01 0.00000E+00
 -1      6421 1.65000E+01-2.07155E+01 0.00000E+00
 -1      6422 1.70312E+01-2.12241E+01 0.00000E+00
 -1      6423 1.54375E+01-2.07155E+01 0.00000E+00
 -1      6424 1.59688E+01-2.12241E+01 0.00000E+00
 -1      6425 1.43750E+01-2.07155E+01 0.00000E+00
 -1      6426 1.49062E+01-2.12241E+01 0.00000E+00
 -1      6427 1.33125E+01-2.07155E+01 0.00000E+00
 -1      6428 1.38438E+01-2.12241E+01 0.00000E+00
 -1      6429 1.22500E+01-2.07155E+01 0.00000E+00
 -1      6430 1.27812E+01-2.12241E+01 0.00000E+00
 -1      6431 1.11875E+01-2.07155E+01 0.00000E+00
 -1      6432 1.17188E+01-2.12241E+01 0.00000E+00
 -1      6433 1.01250E+01-2.07155E+01 0.00000E+00
 -1      6434 1.06562E+01-2.12241E+01 0.00000E+00
 -1      6435 9.06250E+00-2.07155E+01 0.00000E+00
 -1      6436 9.59375E+00-2.12241E+01 0.00000E+00
 -1      6437 8.53125E+00-2.12241E+01 0.00000E+00
 -1      6438 2.39375E+01-2.17328E+01 0.00000E+00
 -1      6439 2.44688E+01-2.22414E+01 0.00000E+00
 -1      6440 2.28750E+01-2.17328E+01 0.00000E+00
 -1      6441 2.34062E+01-2.22414E+01 0.00000E+00
 -1      6442 2.18125E+01-2.17328E+01 0.00000E+00
 -1      6443 2.23438E+01-2.22414E+01 0.00000E+00
 -1      6444 2.07500E+01-2.17328E+01 0.00000E+00
 -1      6445 2.12812E+01-2.22414E+01 0.00000E+00
 -1      6446 1.96875E+01-2.17328E+01 0.00000E+00
 -1      6447 2.02188E+01-2.22414E+01 0.00000E+00
 -1      6448 1.86250E+01-2.17328E+01 0.00000E+00
 -1      6449 1.91562E+01-2.22414E+01 0.00000E+00
 -1      6450 1.75625E+01-2.17328E+01 0.00000E+00
 -1      6451 1.80938E+01-2.22414E+01 0.00000E+00
 -1      6452 1.65000E+01-2.17328E+01 0.00000E+00
 -1      6453 1.70312E+01-2.22414E+01 0.00000E+00
 -1      6454 1.54375E+01-2.17328E+01 0.00000E+00
 -1      6455 1.59688E+01-2.22414E+01 0.00000E+00
 -1      6456 1.43750E+01-2.17328E+01 0.00000E+00
 -1      6457 1.49062E+01-2.22414E+01 0.00000E+00
 -1      6458 1.33125E+01-2.17328E+01 0.00000E+00
 -1      6459 1.38438E+01-2.22414E+01 0.00000E+00
 -1      6460 1.22500E+01-2.17328E+01 0.00000E+00
 -1      6461 1.27812E+01-2.22414E+01 0.00000E+00
 -1      6462 1.11875E+01-2.17328E+01 0.00000E+00
 -1      6463 1.17188E+01-2.22414E+01 0.00000E+00
 -1      6464 1.01250E+01-2.17328E+01 0.00000E+00
 -1      6465 1.06562E+01-2.22414E+01 0.00000E+00
 -1      6466 9.06250E+00-2.17328E+01 0.00000E+00
 -1      6467 9.59375E+00-2.22414E+01 0.00000E+00
 -1      6468 8.53125E+00-2.22414E+01 0.00000E+00
 -1      6469 2.39375E+01-2.27500E+01 0.00000E+00
 -1      6470 2.44688E+01-2.32586E+01 0.00000E+00
 -1      6471 2.28750E+01-2.27500E+01 0.00000E+00
 -1      6472 2.34062E+01-2.32586E+01 0.00000E+00
 -1      6473 2.18125E+01-2.27500E+01 0.00000E+00
 -1      6474 2.23438E+01-2.32586E+01 0.00000E+00
 -1      6475 2.07500E+01-2.27500E+01 0.00000E+00
 -1      6476 2.12812E+01-2.32586E+01 0.00000E+00
 -1      6477 1.96875E+01-2.27500E+01 0.00000E+00
 -1      6478 2.02188E+01-2.32586E+01 0.00000E+00
 -1      6479 1.86250E+01-2.27500E+01 0.00000E+00
 -1      6480 1.91562E+01-2.32586E+01 0.00000E+00
 -1      6481 1.75625E+01-2.27500E+01 0.00000E+00
 -1      6482 1.80938E+01-2.32586E+01 0.00000E+00
 -1      6483 1.65000E+01-2.27500E+01 0.00000E+00
 -1      6484 1.70312E+01-2.32586E+01 0.00000E+00
 -1      6485 1.54375E+01-2.27500E+01 0.00000E+00
 -1      6486 1.59688E+01-2.32586E+01 0.00000E+00
 -1      6487 1.43750E+01-2.27500E+01 0.00000E+00
 -1      6488 1.49062E+01-2.32586E+01 0.00000E+00
 -1      6489 1.33125E+01-2.27500E+01 0.00000E+00
 -1      6490 1.38438E+01-2.32586E+01 0.00000E+00
 -1      6491 1.22500E+01-2.27500E+01 0.00000E+00
 -1      6492 1.27812E+01-2.32586E+01 0.00000E+00
 -1      6493 1.11875E+01-2.27500E+01 0.00000E+00
 -1      6494 1.17188E+01-2.32586E+01 0.00000E+00
 -1      6495 1.01250E+01-2.27500E+01 0.00000E+00
 -1      6496 1.06562E+01-2.32586E+01 0.00000E+00
 -1      6497 9.06250E+00-2.27500E+01 0.00000E+00
 -1      6498 9.59375E+00-2.32586E+01 0.00000E+00
 -1      6499 8.53125E+00-2.32586E+01 0.00000E+00
 -1      6500 2.39375E+01-2.37672E+01 0.00000E+00
 -1      6501 2.44688E+01-2.42759E+01 0.00000E+00
 -1      6502 2.28750E+01-2.37672E+01 0.00000E+00
 -1      6503 2.34062E+01-2.42759E+01 0.00000E+00
 -1      6504 2.18125E+01-2.37672E+01 0.00000E+00
 -1      6505 2.23438E+01-2.42759E+01 0.00000E+00
 -1      6506 2.07500E+01-2.37672E+01 0.00000E+00
 -1      6507 2.12812E+01-2.42759E+01 0.00000E+00
 -1      6508 1.96875E+01-2.37672E+01 0.00000E+00
 -1      6509 2.02188E+01-2.42759E+01 0.00000E+00
 -1      6510 1.86250E+01-2.37672E+01 0.00000E+00
 -1      6511 1.91562E+01-2.42759E+01 0.00000E+00
 -1      6512 1.75625E+01-2.37672E+01 0.00000E+00
 -1      6513 1.80938E+01-2.42759E+01 0.00000E+00
 -1      6514 1.65000E+01-2.37672E+01 0.00000E+00
 -1      6515 1.70312E+01-2.42759E+01 0.00000E+00
 -1      6516 1.54375E+01-2.37672E+01 0.00000E+00
 -1      6517 1.59688E+01-2.42759E+01 0.00000E+00
 -1      6518 1.43750E+01-2.37672E+01 0.00000E+00
 -1      6519 1.49062E+01-2.42759E+01 0.00000E+00
 -1      6520 1.33125E+01-2.37672E+01 0.00000E+00
 -1      6521 1.38438E+01-2.42759E+01 0.00000E+00
 -1      6522 1.22500E+01-2.37672E+01 0.00000E+00
 -1      6523 1.27812E+01-2.42759E+01 0.00000E+00
 -1      6524 1.11875E+01-2.37672E+01 0.00000E+00
 -1      6525 1.17188E+01-2.42759E+01 0.00000E+00
 -1      6526 1.01250E+01-2.37672E+01 0.00000E+00
 -1      6527 1.06562E+01-2.42759E+01 0.00000E+00
 -1      6528 9.06250E+00-2.37672E+01 0.00000E+00
 -1      6529 9.59375E+00-2.42759E+01 0.00000E+00
 -1      6530 8.53125E+00-2.42759E+01 0.00000E+00
 -1      6531 2.39375E+01-2.47845E+01 0.00000E+00
 -1      6532 2.44688E+01-2.52931E+01 0.00000E+00
 -1      6533 2.28750E+01-2.47845E+01 0.00000E+00
 -1      6534 2.34062E+01-2.52931E+01 0.00000E+00
 -1      6535 2.18125E+01-2.47845E+01 0.00000E+00
 -1      6536 2.23438E+01-2.52931E+01 0.00000E+00
 -1      6537 2.07500E+01-2.47845E+01 0.00000E+00
 -1      6538 2.12812E+01-2.52931E+01 0.00000E+00
 -1      6539 1.96875E+01-2.47845E+01 0.00000E+00
 -1      6540 2.02188E+01-2.52931E+01 0.00000E+00
 -1      6541 1.86250E+01-2.47845E+01 0.00000E+00
 -1      6542 1.91562E+01-2.52931E+01 0.00000E+00
 -1      6543 1.75625E+01-2.47845E+01 0.00000E+00
 -1      6544 1.80938E+01-2.52931E+01 0.00000E+00
 -1      6545 1.65000E+01-2.47845E+01 0.00000E+00
 -1      6546 1.70312E+01-2.52931E+01 0.00000E+00
 -1      6547 1.54375E+01-2.47845E+01 0.00000E+00
 -1      6548 1.59688E+01-2.52931E+01 0.00000E+00
 -1      6549 1.43750E+01-2.47845E+01 0.00000E+00
 -1      6550 1.49062E+01-2.52931E+01 0.00000E+00
 -1      6551 1.33125E+01-2.47845E+01 0.00000E+00
 -1      6552 1.38438E+01-2.52931E+01 0.00000E+00
 -1      6553 1.22500E+01-2.47845E+01 0.00000E+00
 -1      6554 1.27812E+01-2.52931E+01 0.00000E+00
 -1      6555 1.11875E+01-2.47845E+01 0.00000E+00
 -1      6556 1.17188E+01-2.52931E+01 0.00000E+00
 -1      6557 1.01250E+01-2.47845E+01 0.00000E+00
 -1      6558 1.06562E+01-2.52931E+01 0.00000E+00
 -1      6559 9.06250E+00-2.47845E+01 0.00000E+00
 -1      6560 9.59375E+00-2.52931E+01 0.00000E+00
 -1      6561 8.53125E+00-2.52931E+01 0.00000E+00
 -1      6562 2.39375E+01-2.58017E+01 0.00000E+00
 -1      6563 2.44688E+01-2.63103E+01 0.00000E+00
 -1      6564 2.28750E+01-2.58017E+01 0.00000E+00
 -1      6565 2.34062E+01-2.63103E+01 0.00000E+00
 -1      6566 2.18125E+01-2.58017E+01 0.00000E+00
 -1      6567 2.23438E+01-2.63103E+01 0.00000E+00
 -1      6568 2.07500E+01-2.58017E+01 0.00000E+00
 -1      6569 2.12812E+01-2.63103E+01 0.00000E+00
 -1      6570 1.96875E+01-2.58017E+01 0.00000E+00
 -1      6571 2.02188E+01-2.63103E+01 0.00000E+00
 -1      6572 1.86250E+01-2.58017E+01 0.00000E+00
 -1      6573 1.91562E+01-2.63103E+01 0.00000E+00
 -1      6574 1.75625E+01-2.58017E+01 0.00000E+00
 -1      6575 1.80938E+01-2.63103E+01 0.00000E+00
 -1      6576 1.65000E+01-2.58017E+01 0.00000E+00
 -1      6577 1.70312E+01-2.63103E+01 0.00000E+00
 -1      6578 1.54375E+01-2.58017E+01 0.00000E+00
 -1      6579 1.59688E+01-2.63103E+01 0.00000E+00
 -1      6580 1.43750E+01-2.58017E+01 0.00000E+00
 -1      6581 1.49062E+01-2.63103E+01 0.00000E+00
 -1      6582 1.33125E+01-2.58017E+01 0.00000E+00
 -1      6583 1.38438E+01-2.63103E+01 0.00000E+00
 -1      6584 1.22500E+01-2.58017E+01 0.00000E+00
 -1      6585 1.27812E+01-2.63103E+01 0.00000E+00
 -1      6586 1.11875E+01-2.58017E+01 0.00000E+00
 -1      6587 1.17188E+01-2.63103E+01 0.00000E+00
 -1      6588 1.01250E+01-2.58017E+01 0.00000E+00
 -1      6589 1.06562E+01-2.63103E+01 0.00000E+00
 -1      6590 9.06250E+00-2.58017E+01 0.00000E+00
 -1      6591 9.59375E+00-2.63103E+01 0.00000E+00
 -1      6592 8.53125E+00-2.63103E+01 0.00000E+00
 -1      6593 2.39375E+01-2.68190E+01 0.00000E+00
 -1      6594 2.44688E+01-2.73276E+01 0.00000E+00
 -1      6595 2.28750E+01-2.68190E+01 0.00000E+00
 -1      6596 2.34062E+01-2.73276E+01 0.00000E+00
 -1      6597 2.18125E+01-2.68190E+01 0.00000E+00
 -1      6598 2.23438E+01-2.73276E+01 0.00000E+00
 -1      6599 2.07500E+01-2.68190E+01 0.00000E+00
 -1      6600 2.12812E+01-2.73276E+01 0.00000E+00
 -1      6601 1.96875E+01-2.68190E+01 0.00000E+00
 -1      6602 2.02188E+01-2.73276E+01 0.00000E+00
 -1      6603 1.86250E+01-2.68190E+01 0.00000E+00
 -1      6604 1.91562E+01-2.73276E+01 0.00000E+00
 -1      6605 1.75625E+01-2.68190E+01 0.00000E+00
 -1      6606 1.80938E+01-2.73276E+01 0.00000E+00
 -1      6607 1.65000E+01-2.68190E+01 0.00000E+00
 -1      6608 1.70312E+01-2.73276E+01 0.00000E+00
 -1      6609 1.54375E+01-2.68190E+01 0.00000E+00
 -1      6610 1.59688E+01-2.73276E+01 0.00000E+00
 -1      6611 1.43750E+01-2.68190E+01 0.00000E+00
 -1      6612 1.49062E+01-2.73276E+01 0.00000E+00
 -1      6613 1.33125E+01-2.68190E+01 0.00000E+00
 -1      6614 1.38438E+01-2.73276E+01 0.00000E+00
 -1      6615 1.22500E+01-2.68190E+01 0.00000E+00
 -1      6616 1.27812E+01-2.73276E+01 0.00000E+00
 -1      6617 1.11875E+01-2.68190E+01 0.00000E+00
 -1      6618 1.17188E+01-2.73276E+01 0.00000E+00
 -1      6619 1.01250E+01-2.68190E+01 0.00000E+00
 -1      6620 1.06562E+01-2.73276E+01 0.00000E+00
 -1      6621 9.06250E+00-2.68190E+01 0.00000E+00
 -1      6622 9.59375E+00-2.73276E+01 0.00000E+00
 -1      6623 8.53125E+00-2.73276E+01 0.00000E+00
 -1      6624 2.39375E+01-2.78362E+01 0.00000E+00
 -1      6625 2.44688E+01-2.83448E+01 0.00000E+00
 -1      6626 2.28750E+01-2.78362E+01 0.00000E+00
 -1      6627 2.34062E+01-2.83448E+01 0.00000E+00
 -1      6628 2.18125E+01-2.78362E+01 0.00000E+00
 -1      6629 2.23438E+01-2.83448E+01 0.00000E+00
 -1      6630 2.07500E+01-2.78362E+01 0.00000E+00
 -1      6631 2.12812E+01-2.83448E+01 0.00000E+00
 -1      6632 1.96875E+01-2.78362E+01 0.00000E+00
 -1      6633 2.02188E+01-2.83448E+01 0.00000E+00
 -1      6634 1.86250E+01-2.78362E+01 0.00000E+00
 -1      6635 1.91562E+01-2.83448E+01 0.00000E+00
 -1      6636 1.75625E+01-2.78362E+01 0.00000E+00
 -1      6637 1.80938E+01-2.83448E+01 0.00000E+00
 -1      6638 1.65000E+01-2.78362E+01 0.00000E+00
 -1      6639 1.70312E+01-2.83448E+01 0.00000E+00
 -1      6640 1.54375E+01-2.78362E+01 0.00000E+00
 -1      6641 1.59688E+01-2.83448E+01 0.00000E+00
 -1      6642 1.43750E+01-2.78362E+01 0.00000E+00
 -1      6643 1.49062E+01-2.83448E+01 0.00000E+00
 -1      6644 1.33125E+01-2.78362E+01 0.00000E+00
 -1      6645 1.38438E+01-2.83448E+01 0.00000E+00
 -1      6646 1.22500E+01-2.78362E+01 0.00000E+00
 -1      6647 1.27812E+01-2.83448E+01 0.00000E+00
 -1      6648 1.11875E+01-2.78362E+01 0.00000E+00
 -1      6649 1.17188E+01-2.83448E+01 0.00000E+00
 -1      6650 1.01250E+01-2.78362E+01 0.00000E+00
 -1      6651 1.06562E+01-2.83448E+01 0.00000E+00
 -1      6652 9.06250E+00-2.78362E+01 0.00000E+00
 -1      6653 9.59375E+00-2.83448E+01 0.00000E+00
 -1      6654 8.53125E+00-2.83448E+01 0.00000E+00
 -1      6655 2.39375E+01-2.88534E+01 0.00000E+00
 -1      6656 2.44688E+01-2.93621E+01 0.00000E+00
 -1      6657 2.28750E+01-2.88534E+01 0.00000E+00
 -1      6658 2.34062E+01-2.93621E+01 0.00000E+00
 -1      6659 2.18125E+01-2.88534E+01 0.00000E+00
 -1      6660 2.23438E+01-2.93621E+01 0.00000E+00
 -1      6661 2.07500E+01-2.88534E+01 0.00000E+00
 -1      6662 2.12812E+01-2.93621E+01 0.00000E+00
 -1      6663 1.96875E+01-2.88534E+01 0.00000E+00
 -1      6664 2.02188E+01-2.93621E+01 0.00000E+00
 -1      6665 1.86250E+01-2.88534E+01 0.00000E+00
 -1      6666 1.91562E+01-2.93621E+01 0.00000E+00
 -1      6667 1.75625E+01-2.88534E+01 0.00000E+00
 -1      6668 1.80938E+01-2.93621E+01 0.00000E+00
 -1      6669 1.65000E+01-2.88534E+01 0.00000E+00
 -1      6670 1.70312E+01-2.93621E+01 0.00000E+00
 -1      6671 1.54375E+01-2.88534E+01 0.00000E+00
 -1      6672 1.59688E+01-2.93621E+01 0.00000E+00
 -1      6673 1.43750E+01-2.88534E+01 0.00000E+00
 -1      6674 1.49062E+01-2.93621E+01 0.00000E+00
 -1      6675 1.33125E+01-2.88534E+01 0.00000E+00
 -1      6676 1.38438E+01-2.93621E+01 0.00000E+00
 -1      6677 1.22500E+01-2.88534E+01 0.00000E+00
 -1      6678 1.27812E+01-2.93621E+01 0.00000E+00
 -1      6679 1.11875E+01-2.88534E+01 0.00000E+00
 -1      6680 1.17188E+01-2.93621E+01 0.00000E+00
 -1      6681 1.01250E+01-2.88534E+01 0.00000E+00
 -1      6682 1.06562E+01-2.93621E+01 0.00000E+00
 -1      6683 9.06250E+00-2.88534E+01 0.00000E+00
 -1      6684 9.59375E+00-2.93621E+01 0.00000E+00
 -1      6685 8.53125E+00-2.93621E+01 0.00000E+00
 -1      6686 2.39375E+01-2.98707E+01 0.00000E+00
 -1      6687 2.44688E+01-3.03793E+01 0.00000E+00
 -1      6688 2.28750E+01-2.98707E+01 0.00000E+00
 -1      6689 2.34062E+01-3.03793E+01 0.00000E+00
 -1      6690 2.18125E+01-2.98707E+01 0.00000E+00
 -1      6691 2.23438E+01-3.03793E+01 0.00000E+00
 -1      6692 2.07500E+01-2.98707E+01 0.00000E+00
 -1      6693 2.12812E+01-3.03793E+01 0.00000E+00
 -1      6694 1.96875E+01-2.98707E+01 0.00000E+00
 -1      6695 2.02188E+01-3.03793E+01 0.00000E+00
 -1      6696 1.86250E+01-2.98707E+01 0.00000E+00
 -1      6697 1.91562E+01-3.03793E+01 0.00000E+00
 -1      6698 1.75625E+01-2.98707E+01 0.00000E+00
 -1      6699 1.80938E+01-3.03793E+01 0.00000E+00
 -1      6700 1.65000E+01-2.98707E+01 0.00000E+00
 -1      6701 1.70312E+01-3.03793E+01 0.00000E+00
 -1      6702 1.54375E+01-2.98707E+01 0.00000E+00
 -1      6703 1.59688E+01-3.03793E+01 0.00000E+00
 -1      6704 1.43750E+01-2.98707E+01 0.00000E+00
 -1      6705 1.49062E+01-3.03793E+01 0.00000E+00
 -1      6706 1.33125E+01-2.98707E+01 0.00000E+00
 -1      6707 1.38438E+01-3.03793E+01 0.00000E+00
 -1      6708 1.22500E+01-2.98707E+01 0.00000E+00
 -1      6709 1.27812E+01-3.03793E+01 0.00000E+00
 -1      6710 1.11875E+01-2.98707E+01 0.00000E+00
 -1      6711 1.17188E+01-3.03793E+01 0.00000E+00
 -1      6712 1.01250E+01-2.98707E+01 0.00000E+00
 -1      6713 1.06562E+01-3.03793E+01 0.00000E+00
 -1      6714 9.06250E+00-2.98707E+01 0.00000E+00
 -1      6715 9.59375E+00-3.03793E+01 0.00000E+00
 -1      6716 8.53125E+00-3.03793E+01 0.00000E+00
 -1      6717 2.39375E+01-3.08879E+01 0.00000E+00
 -1      6718 2.44688E+01-3.13966E+01 0.00000E+00
 -1      6719 2.28750E+01-3.08879E+01 0.00000E+00
 -1      6720 2.34062E+01-3.13966E+01 0.00000E+00
 -1      6721 2.18125E+01-3.08879E+01 0.00000E+00
 -1      6722 2.23438E+01-3.13966E+01 0.00000E+00
 -1      6723 2.07500E+01-3.08879E+01 0.00000E+00
 -1      6724 2.12812E+01-3.13966E+01 0.00000E+00
 -1      6725 1.96875E+01-3.08879E+01 0.00000E+00
 -1      6726 2.02188E+01-3.13966E+01 0.00000E+00
 -1      6727 1.86250E+01-3.08879E+01 0.00000E+00
 -1      6728 1.91562E+01-3.13966E+01 0.00000E+00
 -1      6729 1.75625E+01-3.08879E+01 0.00000E+00
 -1      6730 1.80938E+01-3.13966E+01 0.00000E+00
 -1      6731 1.65000E+01-3.08879E+01 0.00000E+00
 -1      6732 1.70312E+01-3.13966E+01 0.00000E+00
 -1      6733 1.54375E+01-3.08879E+01 0.00000E+00
 -1      6734 1.59688E+01-3.13966E+01 0.00000E+00
 -1      6735 1.43750E+01-3.08879E+01 0.00000E+00
 -1      6736 1.49062E+01-3.13966E+01 0.00000E+00
 -1      6737 1.33125E+01-3.08879E+01 0.00000E+00
 -1      6738 1.38438E+01-3.13966E+01 0.00000E+00
 -1      6739 1.22500E+01-3.08879E+01 0.00000E+00
 -1      6740 1.27812E+01-3.13966E+01 0.00000E+00
 -1      6741 1.11875E+01-3.08879E+01 0.00000E+00
 -1      6742 1.17188E+01-3.13966E+01 0.00000E+00
 -1      6743 1.01250E+01-3.08879E+01 0.00000E+00
 -1      6744 1.06562E+01-3.13966E+01 0.00000E+00
 -1      6745 9.06250E+00-3.08879E+01 0.00000E+00
 -1      6746 9.59375E+00-3.13966E+01 0.00000E+00
 -1      6747 8.53125E+00-3.13966E+01 0.00000E+00
 -1      6748 2.39375E+01-3.19052E+01 0.00000E+00
 -1      6749 2.44688E+01-3.24138E+01 0.00000E+00
 -1      6750 2.28750E+01-3.19052E+01 0.00000E+00
 -1      6751 2.34062E+01-3.24138E+01 0.00000E+00
 -1      6752 2.18125E+01-3.19052E+01 0.00000E+00
 -1      6753 2.23438E+01-3.24138E+01 0.00000E+00
 -1      6754 2.07500E+01-3.19052E+01 0.00000E+00
 -1      6755 2.12812E+01-3.24138E+01 0.00000E+00
 -1      6756 1.96875E+01-3.19052E+01 0.00000E+00
 -1      6757 2.02188E+01-3.24138E+01 0.00000E+00
 -1      6758 1.86250E+01-3.19052E+01 0.00000E+00
 -1      6759 1.91562E+01-3.24138E+01 0.00000E+00
 -1      6760 1.75625E+01-3.19052E+01 0.00000E+00
 -1      6761 1.80938E+01-3.24138E+01 0.00000E+00
 -1      6762 1.65000E+01-3.19052E+01 0.00000E+00
 -1      6763 1.70312E+01-3.24138E+01 0.00000E+00
 -1      6764 1.54375E+01-3.19052E+01 0.00000E+00
 -1      6765 1.59688E+01-3.24138E+01 0.00000E+00
 -1      6766 1.43750E+01-3.19052E+01 0.00000E+00
 -1      6767 1.49062E+01-3.24138E+01 0.00000E+00
 -1      6768 1.33125E+01-3.19052E+01 0.00000E+00
 -1      6769 1.38438E+01-3.24138E+01 0.00000E+00
 -1      6770 1.22500E+01-3.19052E+01 0.00000E+00
 -1      6771 1.27812E+01-3.24138E+01 0.00000E+00
 -1      6772 1.11875E+01-3.19052E+01 0.00000E+00
 -1      6773 1.17188E+01-3.24138E+01 0.00000E+00
 -1      6774 1.01250E+01-3.19052E+01 0.00000E+00
 -1      6775 1.06562E+01-3.24138E+01 0.00000E+00
 -1      6776 9.06250E+00-3.19052E+01 0.00000E+00
 -1      6777 9.59375E+00-3.24138E+01 0.00000E+00
 -1      6778 8.53125E+00-3.24138E+01 0.00000E+00
 -1      6779 2.39375E+01-3.29224E+01 0.00000E+00
 -1      6780 2.44688E+01-3.34310E+01 0.00000E+00
 -1      6781 2.28750E+01-3.29224E+01 0.00000E+00
 -1      6782 2.34062E+01-3.34310E+01 0.00000E+00
 -1      6783 2.18125E+01-3.29224E+01 0.00000E+00
 -1      6784 2.23438E+01-3.34310E+01 0.00000E+00
 -1      6785 2.07500E+01-3.29224E+01 0.00000E+00
 -1      6786 2.12812E+01-3.34310E+01 0.00000E+00
 -1      6787 1.96875E+01-3.29224E+01 0.00000E+00
 -1      6788 2.02188E+01-3.34310E+01 0.00000E+00
 -1      6789 1.86250E+01-3.29224E+01 0.00000E+00
 -1      6790 1.91562E+01-3.34310E+01 0.00000E+00
 -1      6791 1.75625E+01-3.29224E+01 0.00000E+00
 -1      6792 1.80938E+01-3.34310E+01 0.00000E+00
 -1      6793 1.65000E+01-3.29224E+01 0.00000E+00
 -1      6794 1.70312E+01-3.34310E+01 0.00000E+00
 -1      6795 1.54375E+01-3.29224E+01 0.00000E+00
 -1      6796 1.59688E+01-3.34310E+01 0.00000E+00
 -1      6797 1.43750E+01-3.29224E+01 0.00000E+00
 -1      6798 1.49062E+01-3.34310E+01 0.00000E+00
 -1      6799 1.33125E+01-3.29224E+01 0.00000E+00
 -1      6800 1.38438E+01-3.34310E+01 0.00000E+00
 -1      6801 1.22500E+01-3.29224E+01 0.00000E+00
 -1      6802 1.27812E+01-3.34310E+01 0.00000E+00
 -1      6803 1.11875E+01-3.29224E+01 0.00000E+00
 -1      6804 1.17188E+01-3.34310E+01 0.00000E+00
 -1      6805 1.01250E+01-3.29224E+01 0.00000E+00
 -1      6806 1.06562E+01-3.34310E+01 0.00000E+00
 -1      6807 9.06250E+00-3.29224E+01 0.00000E+00
 -1      6808 9.59375E+00-3.34310E+01 0.00000E+00
 -1      6809 8.53125E+00-3.34310E+01 0.00000E+00
 -1      6810 2.39375E+01-3.39397E+01 0.00000E+00
 -1      6811 2.44688E+01-3.44483E+01 0.00000E+00
 -1      6812 2.28750E+01-3.39397E+01 0.00000E+00
 -1      6813 2.34062E+01-3.44483E+01 0.00000E+00
 -1      6814 2.18125E+01-3.39397E+01 0.00000E+00
 -1      6815 2.23438E+01-3.44483E+01 0.00000E+00
 -1      6816 2.07500E+01-3.39397E+01 0.00000E+00
 -1      6817 2.12812E+01-3.44483E+01 0.00000E+00
 -1      6818 1.96875E+01-3.39397E+01 0.00000E+00
 -1      6819 2.02188E+01-3.44483E+01 0.00000E+00
 -1      6820 1.86250E+01-3.39397E+01 0.00000E+00
 -1      6821 1.91562E+01-3.44483E+01 0.00000E+00
 -1      6822 1.75625E+01-3.39397E+01 0.00000E+00
 -1      6823 1.80938E+01-3.44483E+01 0.00000E+00
 -1      6824 1.65000E+01-3.39397E+01 0.00000E+00
 -1      6825 1.70312E+01-3.44483E+01 0.00000E+00
 -1      6826 1.54375E+01-3.39397E+01 0.00000E+00
 -1      6827 1.59688E+01-3.44483E+01 0.00000E+00
 -1      6828 1.43750E+01-3.39397E+01 0.00000E+00
 -1      6829 1.49062E+01-3.44483E+01 0.00000E+00
 -1      6830 1.33125E+01-3.39397E+01 0.00000E+00
 -1      6831 1.38438E+01-3.44483E+01 0.00000E+00
 -1      6832 1.22500E+01-3.39397E+01 0.00000E+00
 -1      6833 1.27812E+01-3.44483E+01 0.00000E+00
 -1      6834 1.11875E+01-3.39397E+01 0.00000E+00
 -1      6835 1.17188E+01-3.44483E+01 0.00000E+00
 -1      6836 1.01250E+01-3.39397E+01 0.00000E+00
 -1      6837 1.06562E+01-3.44483E+01 0.00000E+00
 -1      6838 9.06250E+00-3.39397E+01 0.00000E+00
 -1      6839 9.59375E+00-3.44483E+01 0.00000E+00
 -1      6840 8.53125E+00-3.44483E+01 0.00000E+00
 -1      6841 2.39375E+01-3.49569E+01 0.00000E+00
 -1      6842 2.44688E+01-3.54655E+01 0.00000E+00
 -1      6843 2.28750E+01-3.49569E+01 0.00000E+00
 -1      6844 2.34062E+01-3.54655E+01 0.00000E+00
 -1      6845 2.18125E+01-3.49569E+01 0.00000E+00
 -1      6846 2.23438E+01-3.54655E+01 0.00000E+00
 -1      6847 2.07500E+01-3.49569E+01 0.00000E+00
 -1      6848 2.12812E+01-3.54655E+01 0.00000E+00
 -1      6849 1.96875E+01-3.49569E+01 0.00000E+00
 -1      6850 2.02188E+01-3.54655E+01 0.00000E+00
 -1      6851 1.86250E+01-3.49569E+01 0.00000E+00
 -1      6852 1.91562E+01-3.54655E+01 0.00000E+00
 -1      6853 1.75625E+01-3.49569E+01 0.00000E+00
 -1      6854 1.80938E+01-3.54655E+01 0.00000E+00
 -1      6855 1.65000E+01-3.49569E+01 0.00000E+00
 -1      6856 1.70312E+01-3.54655E+01 0.00000E+00
 -1      6857 1.54375E+01-3.49569E+01 0.00000E+00
 -1      6858 1.59688E+01-3.54655E+01 0.00000E+00
 -1      6859 1.43750E+01-3.49569E+01 0.00000E+00
 -1      6860 1.49062E+01-3.54655E+01 0.00000E+00
 -1      6861 1.33125E+01-3.49569E+01 0.00000E+00
 -1      6862 1.38438E+01-3.54655E+01 0.00000E+00
 -1      6863 1.22500E+01-3.49569E+01 0.00000E+00
 -1      6864 1.27812E+01-3.54655E+01 0.00000E+00
 -1      6865 1.11875E+01-3.49569E+01 0.00000E+00
 -1      6866 1.17188E+01-3.54655E+01 0.00000E+00
 -1      6867 1.01250E+01-3.49569E+01 0.00000E+00
 -1      6868 1.06562E+01-3.54655E+01 0.00000E+00
 -1      6869 9.06250E+00-3.49569E+01 0.00000E+00
 -1      6870 9.59375E+00-3.54655E+01 0.00000E+00
 -1      6871 8.53125E+00-3.54655E+01 0.00000E+00
 -1      6872 2.39375E+01-3.59741E+01 0.00000E+00
 -1      6873 2.44688E+01-3.64828E+01 0.00000E+00
 -1      6874 2.28750E+01-3.59741E+01 0.00000E+00
 -1      6875 2.34062E+01-3.64828E+01 0.00000E+00
 -1      6876 2.18125E+01-3.59741E+01 0.00000E+00
 -1      6877 2.23438E+01-3.64828E+01 0.00000E+00
 -1      6878 2.07500E+01-3.59741E+01 0.00000E+00
 -1      6879 2.12812E+01-3.64828E+01 0.00000E+00
 -1      6880 1.96875E+01-3.59741E+01 0.00000E+00
 -1      6881 2.02188E+01-3.64828E+01 0.00000E+00
 -1      6882 1.86250E+01-3.59741E+01 0.00000E+00
 -1      6883 1.91562E+01-3.64828E+01 0.00000E+00
 -1      6884 1.75625E+01-3.59741E+01 0.00000E+00
 -1      6885 1.80938E+01-3.64828E+01 0.00000E+00
 -1      6886 1.65000E+01-3.59741E+01 0.00000E+00
 -1      6887 1.70312E+01-3.64828E+01 0.00000E+00
 -1      6888 1.54375E+01-3.59741E+01 0.00000E+00
 -1      6889 1.59688E+01-3.64828E+01 0.00000E+00
 -1      6890 1.43750E+01-3.59741E+01 0.00000E+00
 -1      6891 1.49062E+01-3.64828E+01 0.00000E+00
 -1      6892 1.33125E+01-3.59741E+01 0.00000E+00
 -1      6893 1.38438E+01-3.64828E+01 0.00000E+00
 -1      6894 1.22500E+01-3.59741E+01 0.00000E+00
 -1      6895 1.27812E+01-3.64828E+01 0.00000E+00
 -1      6896 1.11875E+01-3.59741E+01 0.00000E+00
 -1      6897 1.17188E+01-3.64828E+01 0.00000E+00
 -1      6898 1.01250E+01-3.59741E+01 0.00000E+00
 -1      6899 1.06562E+01-3.64828E+01 0.00000E+00
 -1      6900 9.06250E+00-3.59741E+01 0.00000E+00
 -1      6901 9.59375E+00-3.64828E+01 0.00000E+00
 -1      6902 8.53125E+00-3.64828E+01 0.00000E+00
 -1      6903 2.39375E+01-3.69914E+01 0.00000E+00
 -1      6904 2.28750E+01-3.69914E+01 0.00000E+00
 -1      6905 2.18125E+01-3.69914E+01 0.00000E+00
 -1      6906 2.07500E+01-3.69914E+01 0.00000E+00
 -1      6907 1.96875E+01-3.69914E+01 0.00000E+00
 -1      6908 1.86250E+01-3.69914E+01 0.00000E+00
 -1      6909 1.75625E+01-3.69914E+01 0.00000E+00
 -1      6910 1.65000E+01-3.69914E+01 0.00000E+00
 -1      6911 1.54375E+01-3.69914E+01 0.00000E+00
 -1      6912 1.43750E+01-3.69914E+01 0.00000E+00
 -1      6913 1.33125E+01-3.69914E+01 0.00000E+00
 -1      6914 1.22500E+01-3.69914E+01 0.00000E+00
 -1      6915 1.11875E+01-3.69914E+01 0.00000E+00
 -1      6916 1.01250E+01-3.69914E+01 0.00000E+00
 -1      6917 9.06250E+00-3.69914E+01 0.00000E+00
 -1      6918 6.93333E+00-3.64828E+01 0.00000E+00
 -1      6919 6.93333E+00-3.54655E+01 0.00000E+00
 -1      6920 6.93333E+00-3.44483E+01 0.00000E+00
 -1      6921 6.93333E+00-3.34310E+01 0.00000E+00
 -1      6922 6.93333E+00-3.24138E+01 0.00000E+00
 -1      6923 6.93333E+00-3.13966E+01 0.00000E+00
 -1      6924 6.93333E+00-3.03793E+01 0.00000E+00
 -1      6925 6.93333E+00-2.93621E+01 0.00000E+00
 -1      6926 6.93333E+00-2.83448E+01 0.00000E+00
 -1      6927 6.93333E+00-2.73276E+01 0.00000E+00
 -1      6928 6.93333E+00-2.63103E+01 0.00000E+00
 -1      6929 6.93333E+00-2.52931E+01 0.00000E+00
 -1      6930 6.93333E+00-2.42759E+01 0.00000E+00
 -1      6931 6.93333E+00-2.32586E+01 0.00000E+00
 -1      6932 6.93333E+00-2.22414E+01 0.00000E+00
 -1      6933 6.93333E+00-2.12241E+01 0.00000E+00
 -1      6934 6.93333E+00-2.02069E+01 0.00000E+00
 -1      6935 6.93333E+00-1.91897E+01 0.00000E+00
 -1      6936 6.93333E+00-1.81724E+01 0.00000E+00
 -1      6937 6.93333E+00-1.71552E+01 0.00000E+00
 -1      6938 6.93333E+00-1.61379E+01 0.00000E+00
 -1      6939 6.93333E+00-1.51207E+01 0.00000E+00
 -1      6940 6.93333E+00-1.41034E+01 0.00000E+00
 -1      6941 6.93333E+00-1.30862E+01 0.00000E+00
 -1      6942 6.93333E+00-1.20690E+01 0.00000E+00
 -1      6943 6.93333E+00-1.10517E+01 0.00000E+00
 -1      6944 6.93333E+00-1.00345E+01 0.00000E+00
 -1      6945 6.93333E+00-9.01724E+00 0.00000E+00
 -1      6946 5.86667E+00-3.64828E+01 0.00000E+00
 -1      6947 5.86667E+00-3.54655E+01 0.00000E+00
 -1      6948 5.86667E+00-3.44483E+01 0.00000E+00
 -1      6949 5.86667E+00-3.34310E+01 0.00000E+00
 -1      6950 5.86667E+00-3.24138E+01 0.00000E+00
 -1      6951 5.86667E+00-3.13966E+01 0.00000E+00
 -1      6952 5.86667E+00-3.03793E+01 0.00000E+00
 -1      6953 5.86667E+00-2.93621E+01 0.00000E+00
 -1      6954 5.86667E+00-2.83448E+01 0.00000E+00
 -1      6955 5.86667E+00-2.73276E+01 0.00000E+00
 -1      6956 5.86667E+00-2.63103E+01 0.00000E+00
 -1      6957 5.86667E+00-2.52931E+01 0.00000E+00
 -1      6958 5.86667E+00-2.42759E+01 0.00000E+00
 -1      6959 5.86667E+00-2.32586E+01 0.00000E+00
 -1      6960 5.86667E+00-2.22414E+01 0.00000E+00
 -1      6961 5.86667E+00-2.12241E+01 0.00000E+00
 -1      6962 5.86667E+00-2.02069E+01 0.00000E+00
 -1      6963 5.86667E+00-1.91897E+01 0.00000E+00
 -1      6964 5.86667E+00-1.81724E+01 0.00000E+00
 -1      6965 5.86667E+00-1.71552E+01 0.00000E+00
 -1      6966 5.86667E+00-1.61379E+01 0.00000E+00
 -1      6967 5.86667E+00-1.51207E+01 0.00000E+00
 -1      6968 5.86667E+00-1.41034E+01 0.00000E+00
 -1      6969 5.86667E+00-1.30862E+01 0.00000E+00
 -1      6970 5.86667E+00-1.20690E+01 0.00000E+00
 -1      6971 5.86667E+00-1.10517E+01 0.00000E+00
 -1      6972 5.86667E+00-1.00345E+01 0.00000E+00
 -1      6973 5.86667E+00-9.01724E+00 0.00000E+00
 -1      6974 4.80000E+00-3.64828E+01 0.00000E+00
 -1      6975 4.80000E+00-3.54655E+01 0.00000E+00
 -1      6976 4.80000E+00-3.44483E+01 0.00000E+00
 -1      6977 4.80000E+00-3.34310E+01 0.00000E+00
 -1      6978 4.80000E+00-3.24138E+01 0.00000E+00
 -1      6979 4.80000E+00-3.13966E+01 0.00000E+00
 -1      6980 4.80000E+00-3.03793E+01 0.00000E+00
 -1      6981 4.80000E+00-2.93621E+01 0.00000E+00
 -1      6982 4.80000E+00-2.83448E+01 0.00000E+00
 -1      6983 4.80000E+00-2.73276E+01 0.00000E+00
 -1      6984 4.80000E+00-2.63103E+01 0.00000E+00
 -1      6985 4.80000E+00-2.52931E+01 0.00000E+00
 -1      6986 4.80000E+00-2.42759E+01 0.00000E+00
 -1      6987 4.80000E+00-2.32586E+01 0.00000E+00
 -1      6988 4.80000E+00-2.22414E+01 0.00000E+00
 -1      6989 4.80000E+00-2.12241E+01 0.00000E+00
 -1      6990 4.80000E+00-2.02069E+01 0.00000E+00
 -1      6991 4.80000E+00-1.91897E+01 0.00000E+00
 -1      6992 4.80000E+00-1.81724E+01 0.00000E+00
 -1      6993 4.80000E+00-1.71552E+01 0.00000E+00
 -1      6994 4.80000E+00-1.61379E+01 0.00000E+00
 -1      6995 4.80000E+00-1.51207E+01 0.00000E+00
 -1      6996 4.80000E+00-1.41034E+01 0.00000E+00
 -1      6997 4.80000E+00-1.30862E+01 0.00000E+00
 -1      6998 4.80000E+00-1.20690E+01 0.00000E+00
 -1      6999 4.80000E+00-1.10517E+01 0.00000E+00
 -1      7000 4.80000E+00-1.00345E+01 0.00000E+00
 -1      7001 4.80000E+00-9.01724E+00 0.00000E+00
 -1      7002 3.73333E+00-3.64828E+01 0.00000E+00
 -1      7003 3.73333E+00-3.54655E+01 0.00000E+00
 -1      7004 3.73333E+00-3.44483E+01 0.00000E+00
 -1      7005 3.73333E+00-3.34310E+01 0.00000E+00
 -1      7006 3.73333E+00-3.24138E+01 0.00000E+00
 -1      7007 3.73333E+00-3.13966E+01 0.00000E+00
 -1      7008 3.73333E+00-3.03793E+01 0.00000E+00
 -1      7009 3.73333E+00-2.93621E+01 0.00000E+00
 -1      7010 3.73333E+00-2.83448E+01 0.00000E+00
 -1      7011 3.73333E+00-2.73276E+01 0.00000E+00
 -1      7012 3.73333E+00-2.63103E+01 0.00000E+00
 -1      7013 3.73333E+00-2.52931E+01 0.00000E+00
 -1      7014 3.73333E+00-2.42759E+01 0.00000E+00
 -1      7015 3.73333E+00-2.32586E+01 0.00000E+00
 -1      7016 3.73333E+00-2.22414E+01 0.00000E+00
 -1      7017 3.73333E+00-2.12241E+01 0.00000E+00
 -1      7018 3.73333E+00-2.02069E+01 0.00000E+00
 -1      7019 3.73333E+00-1.91897E+01 0.00000E+00
 -1      7020 3.73333E+00-1.81724E+01 0.00000E+00
 -1      7021 3.73333E+00-1.71552E+01 0.00000E+00
 -1      7022 3.73333E+00-1.61379E+01 0.00000E+00
 -1      7023 3.73333E+00-1.51207E+01 0.00000E+00
 -1      7024 3.73333E+00-1.41034E+01 0.00000E+00
 -1      7025 3.73333E+00-1.30862E+01 0.00000E+00
 -1      7026 3.73333E+00-1.20690E+01 0.00000E+00
 -1      7027 3.73333E+00-1.10517E+01 0.00000E+00
 -1      7028 3.73333E+00-1.00345E+01 0.00000E+00
 -1      7029 3.73333E+00-9.01724E+00 0.00000E+00
 -1      7030 2.66667E+00-3.64828E+01 0.00000E+00
 -1      7031 2.66667E+00-3.54655E+01 0.00000E+00
 -1      7032 2.66667E+00-3.44483E+01 0.00000E+00
 -1      7033 2.66667E+00-3.34310E+01 0.00000E+00
 -1      7034 2.66667E+00-3.24138E+01 0.00000E+00
 -1      7035 2.66667E+00-3.13966E+01 0.00000E+00
 -1      7036 2.66667E+00-3.03793E+01 0.00000E+00
 -1      7037 2.66667E+00-2.93621E+01 0.00000E+00
 -1      7038 2.66667E+00-2.83448E+01 0.00000E+00
 -1      7039 2.66667E+00-2.73276E+01 0.00000E+00
 -1      7040 2.66667E+00-2.63103E+01 0.00000E+00
 -1      7041 2.66667E+00-2.52931E+01 0.00000E+00
 -1      7042 2.66667E+00-2.42759E+01 0.00000E+00
 -1      7043 2.66667E+00-2.32586E+01 0.00000E+00
 -1      7044 2.66667E+00-2.22414E+01 0.00000E+00
 -1      7045 2.66667E+00-2.12241E+01 0.00000E+00
 -1      7046 2.66667E+00-2.02069E+01 0.00000E+00
 -1      7047 2.66667E+00-1.91897E+01 0.00000E+00
 -1      7048 2.66667E+00-1.81724E+01 0.00000E+00
 -1      7049 2.66667E+00-1.71552E+01 0.00000E+00
 -1      7050 2.66667E+00-1.61379E+01 0.00000E+00
 -1      7051 2.66667E+00-1.51207E+01 0.00000E+00
 -1      7052 2.66667E+00-1.41034E+01 0.00000E+00
 -1      7053 2.66667E+00-1.30862E+01 0.00000E+00
 -1      7054 2.66667E+00-1.20690E+01 0.00000E+00
 -1      7055 2.66667E+00-1.10517E+01 0.00000E+00
 -1      7056 2.66667E+00-1.00345E+01 0.00000E+00
 -1      7057 2.66667E+00-9.01724E+00 0.00000E+00
 -1      7058 1.60000E+00-3.64828E+01 0.00000E+00
 -1      7059 1.60000E+00-3.54655E+01 0.00000E+00
 -1      7060 1.60000E+00-3.44483E+01 0.00000E+00
 -1      7061 1.60000E+00-3.34310E+01 0.00000E+00
 -1      7062 1.60000E+00-3.24138E+01 0.00000E+00
 -1      7063 1.60000E+00-3.13966E+01 0.00000E+00
 -1      7064 1.60000E+00-3.03793E+01 0.00000E+00
 -1      7065 1.60000E+00-2.93621E+01 0.00000E+00
 -1      7066 1.60000E+00-2.83448E+01 0.00000E+00
 -1      7067 1.60000E+00-2.73276E+01 0.00000E+00
 -1      7068 1.60000E+00-2.63103E+01 0.00000E+00
 -1      7069 1.60000E+00-2.52931E+01 0.00000E+00
 -1      7070 1.60000E+00-2.42759E+01 0.00000E+00
 -1      7071 1.60000E+00-2.32586E+01 0.00000E+00
 -1      7072 1.60000E+00-2.22414E+01 0.00000E+00
 -1      7073 1.60000E+00-2.12241E+01 0.00000E+00
 -1      7074 1.60000E+00-2.02069E+01 0.00000E+00
 -1      7075 1.60000E+00-1.91897E+01 0.00000E+00
 -1      7076 1.60000E+00-1.81724E+01 0.00000E+00
 -1      7077 1.60000E+00-1.71552E+01 0.00000E+00
 -1      7078 1.60000E+00-1.61379E+01 0.00000E+00
 -1      7079 1.60000E+00-1.51207E+01 0.00000E+00
 -1      7080 1.60000E+00-1.41034E+01 0.00000E+00
 -1      7081 1.60000E+00-1.30862E+01 0.00000E+00
 -1      7082 1.60000E+00-1.20690E+01 0.00000E+00
 -1      7083 1.60000E+00-1.10517E+01 0.00000E+00
 -1      7084 1.60000E+00-1.00345E+01 0.00000E+00
 -1      7085 1.60000E+00-9.01724E+00 0.00000E+00
 -1      7086 5.33333E-01-3.64828E+01 0.00000E+00
 -1      7087 5.33333E-01-3.54655E+01 0.00000E+00
 -1      7088 5.33333E-01-3.44483E+01 0.00000E+00
 -1      7089 5.33333E-01-3.34310E+01 0.00000E+00
 -1      7090 5.33333E-01-3.24138E+01 0.00000E+00
 -1      7091 5.33333E-01-3.13966E+01 0.00000E+00
 -1      7092 5.33333E-01-3.03793E+01 0.00000E+00
 -1      7093 5.33333E-01-2.93621E+01 0.00000E+00
 -1      7094 5.33333E-01-2.83448E+01 0.00000E+00
 -1      7095 5.33333E-01-2.73276E+01 0.00000E+00
 -1      7096 5.33333E-01-2.63103E+01 0.00000E+00
 -1      7097 5.33333E-01-2.52931E+01 0.00000E+00
 -1      7098 5.33333E-01-2.42759E+01 0.00000E+00
 -1      7099 5.33333E-01-2.32586E+01 0.00000E+00
 -1      7100 5.33333E-01-2.22414E+01 0.00000E+00
 -1      7101 5.33333E-01-2.12241E+01 0.00000E+00
 -1      7102 5.33333E-01-2.02069E+01 0.00000E+00
 -1      7103 5.33333E-01-1.91897E+01 0.00000E+00
 -1      7104 5.33333E-01-1.81724E+01 0.00000E+00
 -1      7105 5.33333E-01-1.71552E+01 0.00000E+00
 -1      7106 5.33333E-01-1.61379E+01 0.00000E+00
 -1      7107 5.33333E-01-1.51207E+01 0.00000E+00
 -1      7108 5.33333E-01-1.41034E+01 0.00000E+00
 -1      7109 5.33333E-01-1.30862E+01 0.00000E+00
 -1      7110 5.33333E-01-1.20690E+01 0.00000E+00
 -1      7111 5.33333E-01-1.10517E+01 0.00000E+00
 -1      7112 5.33333E-01-1.00345E+01 0.00000E+00
 -1      7113 5.33333E-01-9.01724E+00 0.00000E+00
 -1      7114-5.33333E-01-3.64828E+01 0.00000E+00
 -1      7115-5.33333E-01-3.54655E+01 0.00000E+00
 -1      7116-5.33333E-01-3.44483E+01 0.00000E+00
 -1      7117-5.33333E-01-3.34310E+01 0.00000E+00
 -1      7118-5.33333E-01-3.24138E+01 0.00000E+00
 -1      7119-5.33333E-01-3.13966E+01 0.00000E+00
 -1      7120-5.33333E-01-3.03793E+01 0.00000E+00
 -1      7121-5.33333E-01-2.93621E+01 0.00000E+00
 -1      7122-5.33333E-01-2.83448E+01 0.00000E+00
 -1      7123-5.33333E-01-2.73276E+01 0.00000E+00
 -1      7124-5.33333E-01-2.63103E+01 0.00000E+00
 -1      7125-5.33333E-01-2.52931E+01 0.00000E+00
 -1      7126-5.33333E-01-2.42759E+01 0.00000E+00
 -1      7127-5.33333E-01-2.32586E+01 0.00000E+00
 -1      7128-5.33333E-01-2.22414E+01 0.00000E+00
 -1      7129-5.33333E-01-2.12241E+01 0.00000E+00
 -1      7130-5.33333E-01-2.02069E+01 0.00000E+00
 -1      7131-5.33333E-01-1.91897E+01 0.00000E+00
 -1      7132-5.33333E-01-1.81724E+01 0.00000E+00
 -1      7133-5.33333E-01-1.71552E+01 0.00000E+00
 -1      7134-5.33333E-01-1.61379E+01 0.00000E+00
 -1      7135-5.33333E-01-1.51207E+01 0.00000E+00
 -1      7136-5.33333E-01-1.41034E+01 0.00000E+00
 -1      7137-5.33333E-01-1.30862E+01 0.00000E+00
 -1      7138-5.33333E-01-1.20690E+01 0.00000E+00
 -1      7139-5.33333E-01-1.10517E+01 0.00000E+00
 -1      7140-5.33333E-01-1.00345E+01 0.00000E+00
 -1      7141-5.33333E-01-9.01724E+00 0.00000E+00
 -1      7142-1.60000E+00-3.64828E+01 0.00000E+00
 -1      7143-1.60000E+00-3.54655E+01 0.00000E+00
 -1      7144-1.60000E+00-3.44483E+01 0.00000E+00
 -1      7145-1.60000E+00-3.34310E+01 0.00000E+00
 -1      7146-1.60000E+00-3.24138E+01 0.00000E+00
 -1      7147-1.60000E+00-3.13966E+01 0.00000E+00
 -1      7148-1.60000E+00-3.03793E+01 0.00000E+00
 -1      7149-1.60000E+00-2.93621E+01 0.00000E+00
 -1      7150-1.60000E+00-2.83448E+01 0.00000E+00
 -1      7151-1.60000E+00-2.73276E+01 0.00000E+00
 -1      7152-1.60000E+00-2.63103E+01 0.00000E+00
 -1      7153-1.60000E+00-2.52931E+01 0.00000E+00
 -1      7154-1.60000E+00-2.42759E+01 0.00000E+00
 -1      7155-1.60000E+00-2.32586E+01 0.00000E+00
 -1      7156-1.60000E+00-2.22414E+01 0.00000E+00
 -1      7157-1.60000E+00-2.12241E+01 0.00000E+00
 -1      7158-1.60000E+00-2.02069E+01 0.00000E+00
 -1      7159-1.60000E+00-1.91897E+01 0.00000E+00
 -1      7160-1.60000E+00-1.81724E+01 0.00000E+00
 -1      7161-1.60000E+00-1.71552E+01 0.00000E+00
 -1      7162-1.60000E+00-1.61379E+01 0.00000E+00
 -1      7163-1.60000E+00-1.51207E+01 0.00000E+00
 -1      7164-1.60000E+00-1.41034E+01 0.00000E+00
 -1      7165-1.60000E+00-1.30862E+01 0.00000E+00
 -1      7166-1.60000E+00-1.20690E+01 0.00000E+00
 -1      7167-1.60000E+00-1.10517E+01 0.00000E+00
 -1      7168-1.60000E+00-1.00345E+01 0.00000E+00
 -1      7169-1.60000E+00-9.01724E+00 0.00000E+00
 -1      7170-2.66667E+00-3.64828E+01 0.00000E+00
 -1      7171-2.66667E+00-3.54655E+01 0.00000E+00
 -1      7172-2.66667E+00-3.44483E+01 0.00000E+00
 -1      7173-2.66667E+00-3.34310E+01 0.00000E+00
 -1      7174-2.66667E+00-3.24138E+01 0.00000E+00
 -1      7175-2.66667E+00-3.13966E+01 0.00000E+00
 -1      7176-2.66667E+00-3.03793E+01 0.00000E+00
 -1      7177-2.66667E+00-2.93621E+01 0.00000E+00
 -1      7178-2.66667E+00-2.83448E+01 0.00000E+00
 -1      7179-2.66667E+00-2.73276E+01 0.00000E+00
 -1      7180-2.66667E+00-2.63103E+01 0.00000E+00
 -1      7181-2.66667E+00-2.52931E+01 0.00000E+00
 -1      7182-2.66667E+00-2.42759E+01 0.00000E+00
 -1      7183-2.66667E+00-2.32586E+01 0.00000E+00
 -1      7184-2.66667E+00-2.22414E+01 0.00000E+00
 -1      7185-2.66667E+00-2.12241E+01 0.00000E+00
 -1      7186-2.66667E+00-2.02069E+01 0.00000E+00
 -1      7187-2.66667E+00-1.91897E+01 0.00000E+00
 -1      7188-2.66667E+00-1.81724E+01 0.00000E+00
 -1      7189-2.66667E+00-1.71552E+01 0.00000E+00
 -1      7190-2.66667E+00-1.61379E+01 0.00000E+00
 -1      7191-2.66667E+00-1.51207E+01 0.00000E+00
 -1      7192-2.66667E+00-1.41034E+01 0.00000E+00
 -1      7193-2.66667E+00-1.30862E+01 0.00000E+00
 -1      7194-2.66667E+00-1.20690E+01 0.00000E+00
 -1      7195-2.66667E+00-1.10517E+01 0.00000E+00
 -1      7196-2.66667E+00-1.00345E+01 0.00000E+00
 -1      7197-2.66667E+00-9.01724E+00 0.00000E+00
 -1      7198-3.73333E+00-3.64828E+01 0.00000E+00
 -1      7199-3.73333E+00-3.54655E+01 0.00000E+00
 -1      7200-3.73333E+00-3.44483E+01 0.00000E+00
 -1      7201-3.73333E+00-3.34310E+01 0.00000E+00
 -1      7202-3.73333E+00-3.24138E+01 0.00000E+00
 -1      7203-3.73333E+00-3.13966E+01 0.00000E+00
 -1      7204-3.73333E+00-3.03793E+01 0.00000E+00
 -1      7205-3.73333E+00-2.93621E+01 0.00000E+00
 -1      7206-3.73333E+00-2.83448E+01 0.00000E+00
 -1      7207-3.73333E+00-2.73276E+01 0.00000E+00
 -1      7208-3.73333E+00-2.63103E+01 0.00000E+00
 -1      7209-3.73333E+00-2.52931E+01 0.00000E+00
 -1      7210-3.73333E+00-2.42759E+01 0.00000E+00
 -1      7211-3.73333E+00-2.32586E+01 0.00000E+00
 -1      7212-3.73333E+00-2.22414E+01 0.00000E+00
 -1      7213-3.73333E+00-2.12241E+01 0.00000E+00
 -1      7214-3.73333E+00-2.02069E+01 0.00000E+00
 -1      7215-3.73333E+00-1.91897E+01 0.00000E+00
 -1      7216-3.73333E+00-1.81724E+01 0.00000E+00
 -1      7217-3.73333E+00-1.71552E+01 0.00000E+00
 -1      7218-3.73333E+00-1.61379E+01 0.00000E+00
 -1      7219-3.73333E+00-1.51207E+01 0.00000E+00
 -1      7220-3.73333E+00-1.41034E+01 0.00000E+00
 -1      7221-3.73333E+00-1.30862E+01 0.00000E+00
 -1      7222-3.73333E+00-1.20690E+01 0.00000E+00
 -1      7223-3.73333E+00-1.10517E+01 0.00000E+00
 -1      7224-3.73333E+00-1.00345E+01 0.00000E+00
 -1      7225-3.73333E+00-9.01724E+00 0.00000E+00
 -1      7226-4.80000E+00-3.64828E+01 0.00000E+00
 -1      7227-4.80000E+00-3.54655E+01 0.00000E+00
 -1      7228-4.80000E+00-3.44483E+01 0.00000E+00
 -1      7229-4.80000E+00-3.34310E+01 0.00000E+00
 -1      7230-4.80000E+00-3.24138E+01 0.00000E+00
 -1      7231-4.80000E+00-3.13966E+01 0.00000E+00
 -1      7232-4.80000E+00-3.03793E+01 0.00000E+00
 -1      7233-4.80000E+00-2.93621E+01 0.00000E+00
 -1      7234-4.80000E+00-2.83448E+01 0.00000E+00
 -1      7235-4.80000E+00-2.73276E+01 0.00000E+00
 -1      7236-4.80000E+00-2.63103E+01 0.00000E+00
 -1      7237-4.80000E+00-2.52931E+01 0.00000E+00
 -1      7238-4.80000E+00-2.42759E+01 0.00000E+00
 -1      7239-4.80000E+00-2.32586E+01 0.00000E+00
 -1      7240-4.80000E+00-2.22414E+01 0.00000E+00
 -1      7241-4.80000E+00-2.12241E+01 0.00000E+00
 -1      7242-4.80000E+00-2.02069E+01 0.00000E+00
 -1      7243-4.80000E+00-1.91897E+01 0.00000E+00
 -1      7244-4.80000E+00-1.81724E+01 0.00000E+00
 -1      7245-4.80000E+00-1.71552E+01 0.00000E+00
 -1      7246-4.80000E+00-1.61379E+01 0.00000E+00
 -1      7247-4.80000E+00-1.51207E+01 0.00000E+00
 -1      7248-4.80000E+00-1.41034E+01 0.00000E+00
 -1      7249-4.80000E+00-1.30862E+01 0.00000E+00
 -1      7250-4.80000E+00-1.20690E+01 0.00000E+00
 -1      7251-4.80000E+00-1.10517E+01 0.00000E+00
 -1      7252-4.80000E+00-1.00345E+01 0.00000E+00
 -1      7253-4.80000E+00-9.01724E+00 0.00000E+00
 -1      7254-5.86667E+00-3.64828E+01 0.00000E+00
 -1      7255-5.86667E+00-3.54655E+01 0.00000E+00
 -1      7256-5.86667E+00-3.44483E+01 0.00000E+00
 -1      7257-5.86667E+00-3.34310E+01 0.00000E+00
 -1      7258-5.86667E+00-3.24138E+01 0.00000E+00
 -1      7259-5.86667E+00-3.13966E+01 0.00000E+00
 -1      7260-5.86667E+00-3.03793E+01 0.00000E+00
 -1      7261-5.86667E+00-2.93621E+01 0.00000E+00
 -1      7262-5.86667E+00-2.83448E+01 0.00000E+00
 -1      7263-5.86667E+00-2.73276E+01 0.00000E+00
 -1      7264-5.86667E+00-2.63103E+01 0.00000E+00
 -1      7265-5.86667E+00-2.52931E+01 0.00000E+00
 -1      7266-5.86667E+00-2.42759E+01 0.00000E+00
 -1      7267-5.86667E+00-2.32586E+01 0.00000E+00
 -1      7268-5.86667E+00-2.22414E+01 0.00000E+00
 -1      7269-5.86667E+00-2.12241E+01 0.00000E+00
 -1      7270-5.86667E+00-2.02069E+01 0.00000E+00
 -1      7271-5.86667E+00-1.91897E+01 0.00000E+00
 -1      7272-5.86667E+00-1.81724E+01 0.00000E+00
 -1      7273-5.86667E+00-1.71552E+01 0.00000E+00
 -1      7274-5.86667E+00-1.61379E+01 0.00000E+00
 -1      7275-5.86667E+00-1.51207E+01 0.00000E+00
 -1      7276-5.86667E+00-1.41034E+01 0.00000E+00
 -1      7277-5.86667E+00-1.30862E+01 0.00000E+00
 -1      7278-5.86667E+00-1.20690E+01 0.00000E+00
 -1      7279-5.86667E+00-1.10517E+01 0.00000E+00
 -1      7280-5.86667E+00-1.00345E+01 0.00000E+00
 -1      7281-5.86667E+00-9.01724E+00 0.00000E+00
 -1      7282-6.93333E+00-3.64828E+01 0.00000E+00
 -1      7283-6.93333E+00-3.54655E+01 0.00000E+00
 -1      7284-6.93333E+00-3.44483E+01 0.00000E+00
 -1      7285-6.93333E+00-3.34310E+01 0.00000E+00
 -1      7286-6.93333E+00-3.24138E+01 0.00000E+00
 -1      7287-6.93333E+00-3.13966E+01 0.00000E+00
 -1      7288-6.93333E+00-3.03793E+01 0.00000E+00
 -1      7289-6.93333E+00-2.93621E+01 0.00000E+00
 -1      7290-6.93333E+00-2.83448E+01 0.00000E+00
 -1      7291-6.93333E+00-2.73276E+01 0.00000E+00
 -1      7292-6.93333E+00-2.63103E+01 0.00000E+00
 -1      7293-6.93333E+00-2.52931E+01 0.00000E+00
 -1      7294-6.93333E+00-2.42759E+01 0.00000E+00
 -1      7295-6.93333E+00-2.32586E+01 0.00000E+00
 -1      7296-6.93333E+00-2.22414E+01 0.00000E+00
 -1      7297-6.93333E+00-2.12241E+01 0.00000E+00
 -1      7298-6.93333E+00-2.02069E+01 0.00000E+00
 -1      7299-6.93333E+00-1.91897E+01 0.00000E+00
 -1      7300-6.93333E+00-1.81724E+01 0.00000E+00
 -1      7301-6.93333E+00-1.71552E+01 0.00000E+00
 -1      7302-6.93333E+00-1.61379E+01 0.00000E+00
 -1      7303-6.93333E+00-1.51207E+01 0.00000E+00
 -1      7304-6.93333E+00-1.41034E+01 0.00000E+00
 -1      7305-6.93333E+00-1.30862E+01 0.00000E+00
 -1      7306-6.93333E+00-1.20690E+01 0.00000E+00
 -1      7307-6.93333E+00-1.10517E+01 0.00000E+00
 -1      7308-6.93333E+00-1.00345E+01 0.00000E+00
 -1      7309-6.93333E+00-9.01724E+00 0.00000E+00
 -1      7310 7.46667E+00-3.64828E+01 0.00000E+00
 -1      7311 6.93333E+00-3.69914E+01 0.00000E+00
 -1      7312 7.46667E+00-3.54655E+01 0.00000E+00
 -1      7313 6.93333E+00-3.59741E+01 0.00000E+00
 -1      7314 7.46667E+00-3.44483E+01 0.00000E+00
 -1      7315 6.93333E+00-3.49569E+01 0.00000E+00
 -1      7316 7.46667E+00-3.34310E+01 0.00000E+00
 -1      7317 6.93333E+00-3.39397E+01 0.00000E+00
 -1      7318 7.46667E+00-3.24138E+01 0.00000E+00
 -1      7319 6.93333E+00-3.29224E+01 0.00000E+00
 -1      7320 7.46667E+00-3.13966E+01 0.00000E+00
 -1      7321 6.93333E+00-3.19052E+01 0.00000E+00
 -1      7322 7.46667E+00-3.03793E+01 0.00000E+00
 -1      7323 6.93333E+00-3.08879E+01 0.00000E+00
 -1      7324 7.46667E+00-2.93621E+01 0.00000E+00
 -1      7325 6.93333E+00-2.98707E+01 0.00000E+00
 -1      7326 7.46667E+00-2.83448E+01 0.00000E+00
 -1      7327 6.93333E+00-2.88534E+01 0.00000E+00
 -1      7328 7.46667E+00-2.73276E+01 0.00000E+00
 -1      7329 6.93333E+00-2.78362E+01 0.00000E+00
 -1      7330 7.46667E+00-2.63103E+01 0.00000E+00
 -1      7331 6.93333E+00-2.68190E+01 0.00000E+00
 -1      7332 7.46667E+00-2.52931E+01 0.00000E+00
 -1      7333 6.93333E+00-2.58017E+01 0.00000E+00
 -1      7334 7.46667E+00-2.42759E+01 0.00000E+00
 -1      7335 6.93333E+00-2.47845E+01 0.00000E+00
 -1      7336 7.46667E+00-2.32586E+01 0.00000E+00
 -1      7337 6.93333E+00-2.37672E+01 0.00000E+00
 -1      7338 7.46667E+00-2.22414E+01 0.00000E+00
 -1      7339 6.93333E+00-2.27500E+01 0.00000E+00
 -1      7340 7.46667E+00-2.12241E+01 0.00000E+00
 -1      7341 6.93333E+00-2.17328E+01 0.00000E+00
 -1      7342 7.46667E+00-2.02069E+01 0.00000E+00
 -1      7343 6.93333E+00-2.07155E+01 0.00000E+00
 -1      7344 7.46667E+00-1.91897E+01 0.00000E+00
 -1      7345 6.93333E+00-1.96983E+01 0.00000E+00
 -1      7346 7.46667E+00-1.81724E+01 0.00000E+00
 -1      7347 6.93333E+00-1.86810E+01 0.00000E+00
 -1      7348 7.46667E+00-1.71552E+01 0.00000E+00
 -1      7349 6.93333E+00-1.76638E+01 0.00000E+00
 -1      7350 7.46667E+00-1.61379E+01 0.00000E+00
 -1      7351 6.93333E+00-1.66466E+01 0.00000E+00
 -1      7352 7.46667E+00-1.51207E+01 0.00000E+00
 -1      7353 6.93333E+00-1.56293E+01 0.00000E+00
 -1      7354 7.46667E+00-1.41034E+01 0.00000E+00
 -1      7355 6.93333E+00-1.46121E+01 0.00000E+00
 -1      7356 7.46667E+00-1.30862E+01 0.00000E+00
 -1      7357 6.93333E+00-1.35948E+01 0.00000E+00
 -1      7358 7.46667E+00-1.20690E+01 0.00000E+00
 -1      7359 6.93333E+00-1.25776E+01 0.00000E+00
 -1      7360 7.46667E+00-1.10517E+01 0.00000E+00
 -1      7361 6.93333E+00-1.15603E+01 0.00000E+00
 -1      7362 7.46667E+00-1.00345E+01 0.00000E+00
 -1      7363 6.93333E+00-1.05431E+01 0.00000E+00
 -1      7364 7.46667E+00-9.01724E+00 0.00000E+00
 -1      7365 6.93333E+00-9.52586E+00 0.00000E+00
 -1      7366 6.93333E+00-8.50862E+00 0.00000E+00
 -1      7367 6.40000E+00-3.64828E+01 0.00000E+00
 -1      7368 5.86667E+00-3.69914E+01 0.00000E+00
 -1      7369 6.40000E+00-3.54655E+01 0.00000E+00
 -1      7370 5.86667E+00-3.59741E+01 0.00000E+00
 -1      7371 6.40000E+00-3.44483E+01 0.00000E+00
 -1      7372 5.86667E+00-3.49569E+01 0.00000E+00
 -1      7373 6.40000E+00-3.34310E+01 0.00000E+00
 -1      7374 5.86667E+00-3.39397E+01 0.00000E+00
 -1      7375 6.40000E+00-3.24138E+01 0.00000E+00
 -1      7376 5.86667E+00-3.29224E+01 0.00000E+00
 -1      7377 6.40000E+00-3.13966E+01 0.00000E+00
 -1      7378 5.86667E+00-3.19052E+01 0.00000E+00
 -1      7379 6.40000E+00-3.03793E+01 0.00000E+00
 -1      7380 5.86667E+00-3.08879E+01 0.00000E+00
 -1      7381 6.40000E+00-2.93621E+01 0.00000E+00
 -1      7382 5.86667E+00-2.98707E+01 0.00000E+00
 -1      7383 6.40000E+00-2.83448E+01 0.00000E+00
 -1      7384 5.86667E+00-2.88534E+01 0.00000E+00
 -1      7385 6.40000E+00-2.73276E+01 0.00000E+00
 -1      7386 5.86667E+00-2.78362E+01 0.00000E+00
 -1      7387 6.40000E+00-2.63103E+01 0.00000E+00
 -1      7388 5.86667E+00-2.68190E+01 0.00000E+00
 -1      7389 6.40000E+00-2.52931E+01 0.00000E+00
 -1      7390 5.86667E+00-2.58017E+01 0.00000E+00
 -1      7391 6.40000E+00-2.42759E+01 0.00000E+00
 -1      7392 5.86667E+00-2.47845E+01 0.00000E+00
 -1      7393 6.40000E+00-2.32586E+01 0.00000E+00
 -1      7394 5.86667E+00-2.37672E+01 0.00000E+00
 -1      7395 6.40000E+00-2.22414E+01 0.00000E+00
 -1      7396 5.86667E+00-2.27500E+01 0.00000E+00
 -1      7397 6.40000E+00-2.12241E+01 0.00000E+00
 -1      7398 5.86667E+00-2.17328E+01 0.00000E+00
 -1      7399 6.40000E+00-2.02069E+01 0.00000E+00
 -1      7400 5.86667E+00-2.07155E+01 0.00000E+00
 -1      7401 6.40000E+00-1.91897E+01 0.00000E+00
 -1      7402 5.86667E+00-1.96983E+01 0.00000E+00
 -1      7403 6.40000E+00-1.81724E+01 0.00000E+00
 -1      7404 5.86667E+00-1.86810E+01 0.00000E+00
 -1      7405 6.40000E+00-1.71552E+01 0.00000E+00
 -1      7406 5.86667E+00-1.76638E+01 0.00000E+00
 -1      7407 6.40000E+00-1.61379E+01 0.00000E+00
 -1      7408 5.86667E+00-1.66466E+01 0.00000E+00
 -1      7409 6.40000E+00-1.51207E+01 0.00000E+00
 -1      7410 5.86667E+00-1.56293E+01 0.00000E+00
 -1      7411 6.40000E+00-1.41034E+01 0.00000E+00
 -1      7412 5.86667E+00-1.46121E+01 0.00000E+00
 -1      7413 6.40000E+00-1.30862E+01 0.00000E+00
 -1      7414 5.86667E+00-1.35948E+01 0.00000E+00
 -1      7415 6.40000E+00-1.20690E+01 0.00000E+00
 -1      7416 5.86667E+00-1.25776E+01 0.00000E+00
 -1      7417 6.40000E+00-1.10517E+01 0.00000E+00
 -1      7418 5.86667E+00-1.15603E+01 0.00000E+00
 -1      7419 6.40000E+00-1.00345E+01 0.00000E+00
 -1      7420 5.86667E+00-1.05431E+01 0.00000E+00
 -1      7421 6.40000E+00-9.01724E+00 0.00000E+00
 -1      7422 5.86667E+00-9.52586E+00 0.00000E+00
 -1      7423 5.86667E+00-8.50862E+00 0.00000E+00
 -1      7424 5.33333E+00-3.64828E+01 0.00000E+00
 -1      7425 4.80000E+00-3.69914E+01 0.00000E+00
 -1      7426 5.33333E+00-3.54655E+01 0.00000E+00
 -1      7427 4.80000E+00-3.59741E+01 0.00000E+00
 -1      7428 5.33333E+00-3.44483E+01 0.00000E+00
 -1      7429 4.80000E+00-3.49569E+01 0.00000E+00
 -1      7430 5.33333E+00-3.34310E+01 0.00000E+00
 -1      7431 4.80000E+00-3.39397E+01 0.00000E+00
 -1      7432 5.33333E+00-3.24138E+01 0.00000E+00
 -1      7433 4.80000E+00-3.29224E+01 0.00000E+00
 -1      7434 5.33333E+00-3.13966E+01 0.00000E+00
 -1      7435 4.80000E+00-3.19052E+01 0.00000E+00
 -1      7436 5.33333E+00-3.03793E+01 0.00000E+00
 -1      7437 4.80000E+00-3.08879E+01 0.00000E+00
 -1      7438 5.33333E+00-2.93621E+01 0.00000E+00
 -1      7439 4.80000E+00-2.98707E+01 0.00000E+00
 -1      7440 5.33333E+00-2.83448E+01 0.00000E+00
 -1      7441 4.80000E+00-2.88534E+01 0.00000E+00
 -1      7442 5.33333E+00-2.73276E+01 0.00000E+00
 -1      7443 4.80000E+00-2.78362E+01 0.00000E+00
 -1      7444 5.33333E+00-2.63103E+01 0.00000E+00
 -1      7445 4.80000E+00-2.68190E+01 0.00000E+00
 -1      7446 5.33333E+00-2.52931E+01 0.00000E+00
 -1      7447 4.80000E+00-2.58017E+01 0.00000E+00
 -1      7448 5.33333E+00-2.42759E+01 0.00000E+00
 -1      7449 4.80000E+00-2.47845E+01 0.00000E+00
 -1      7450 5.33333E+00-2.32586E+01 0.00000E+00
 -1      7451 4.80000E+00-2.37672E+01 0.00000E+00
 -1      7452 5.33333E+00-2.22414E+01 0.00000E+00
 -1      7453 4.80000E+00-2.27500E+01 0.00000E+00
 -1      7454 5.33333E+00-2.12241E+01 0.00000E+00
 -1      7455 4.80000E+00-2.17328E+01 0.00000E+00
 -1      7456 5.33333E+00-2.02069E+01 0.00000E+00
 -1      7457 4.80000E+00-2.07155E+01 0.00000E+00
 -1      7458 5.33333E+00-1.91897E+01 0.00000E+00
 -1      7459 4.80000E+00-1.96983E+01 0.00000E+00
 -1      7460 5.33333E+00-1.81724E+01 0.00000E+00
 -1      7461 4.80000E+00-1.86810E+01 0.00000E+00
 -1      7462 5.33333E+00-1.71552E+01 0.00000E+00
 -1      7463 4.80000E+00-1.76638E+01 0.00000E+00
 -1      7464 5.33333E+00-1.61379E+01 0.00000E+00
 -1      7465 4.80000E+00-1.66466E+01 0.00000E+00
 -1      7466 5.33333E+00-1.51207E+01 0.00000E+00
 -1      7467 4.80000E+00-1.56293E+01 0.00000E+00
 -1      7468 5.33333E+00-1.41034E+01 0.00000E+00
 -1      7469 4.80000E+00-1.46121E+01 0.00000E+00
 -1      7470 5.33333E+00-1.30862E+01 0.00000E+00
 -1      7471 4.80000E+00-1.35948E+01 0.00000E+00
 -1      7472 5.33333E+00-1.20690E+01 0.00000E+00
 -1      7473 4.80000E+00-1.25776E+01 0.00000E+00
 -1      7474 5.33333E+00-1.10517E+01 0.00000E+00
 -1      7475 4.80000E+00-1.15603E+01 0.00000E+00
 -1      7476 5.33333E+00-1.00345E+01 0.00000E+00
 -1      7477 4.80000E+00-1.05431E+01 0.00000E+00
 -1      7478 5.33333E+00-9.01724E+00 0.00000E+00
 -1      7479 4.80000E+00-9.52586E+00 0.00000E+00
 -1      7480 4.80000E+00-8.50862E+00 0.00000E+00
 -1      7481 4.26667E+00-3.64828E+01 0.00000E+00
 -1      7482 3.73333E+00-3.69914E+01 0.00000E+00
 -1      7483 4.26667E+00-3.54655E+01 0.00000E+00
 -1      7484 3.73333E+00-3.59741E+01 0.00000E+00
 -1      7485 4.26667E+00-3.44483E+01 0.00000E+00
 -1      7486 3.73333E+00-3.49569E+01 0.00000E+00
 -1      7487 4.26667E+00-3.34310E+01 0.00000E+00
 -1      7488 3.73333E+00-3.39397E+01 0.00000E+00
 -1      7489 4.26667E+00-3.24138E+01 0.00000E+00
 -1      7490 3.73333E+00-3.29224E+01 0.00000E+00
 -1      7491 4.26667E+00-3.13966E+01 0.00000E+00
 -1      7492 3.73333E+00-3.19052E+01 0.00000E+00
 -1      7493 4.26667E+00-3.03793E+01 0.00000E+00
 -1      7494 3.73333E+00-3.08879E+01 0.00000E+00
 -1      7495 4.26667E+00-2.93621E+01 0.00000E+00
 -1      7496 3.73333E+00-2.98707E+01 0.00000E+00
 -1      7497 4.26667E+00-2.83448E+01 0.00000E+00
 -1      7498 3.73333E+00-2.88534E+01 0.00000E+00
 -1      7499 4.26667E+00-2.73276E+01 0.00000E+00
 -1      7500 3.73333E+00-2.78362E+01 0.00000E+00
 -1      7501 4.26667E+00-2.63103E+01 0.00000E+00
 -1      7502 3.73333E+00-2.68190E+01 0.00000E+00
 -1      7503 4.26667E+00-2.52931E+01 0.00000E+00
 -1      7504 3.73333E+00-2.58017E+01 0.00000E+00
 -1      7505 4.26667E+00-2.42759E+01 0.00000E+00
 -1      7506 3.73333E+00-2.47845E+01 0.00000E+00
 -1      7507 4.26667E+00-2.32586E+01 0.00000E+00
 -1      7508 3.73333E+00-2.37672E+01 0.00000E+00
 -1      7509 4.26667E+00-2.22414E+01 0.00000E+00
 -1      7510 3.73333E+00-2.27500E+01 0.00000E+00
 -1      7511 4.26667E+00-2.12241E+01 0.00000E+00
 -1      7512 3.73333E+00-2.17328E+01 0.00000E+00
 -1      7513 4.26667E+00-2.02069E+01 0.00000E+00
 -1      7514 3.73333E+00-2.07155E+01 0.00000E+00
 -1      7515 4.26667E+00-1.91897E+01 0.00000E+00
 -1      7516 3.73333E+00-1.96983E+01 0.00000E+00
 -1      7517 4.26667E+00-1.81724E+01 0.00000E+00
 -1      7518 3.73333E+00-1.86810E+01 0.00000E+00
 -1      7519 4.26667E+00-1.71552E+01 0.00000E+00
 -1      7520 3.73333E+00-1.76638E+01 0.00000E+00
 -1      7521 4.26667E+00-1.61379E+01 0.00000E+00
 -1      7522 3.73333E+00-1.66466E+01 0.00000E+00
 -1      7523 4.26667E+00-1.51207E+01 0.00000E+00
 -1      7524 3.73333E+00-1.56293E+01 0.00000E+00
 -1      7525 4.26667E+00-1.41034E+01 0.00000E+00
 -1      7526 3.73333E+00-1.46121E+01 0.00000E+00
 -1      7527 4.26667E+00-1.30862E+01 0.00000E+00
 -1      7528 3.73333E+00-1.35948E+01 0.00000E+00
 -1      7529 4.26667E+00-1.20690E+01 0.00000E+00
 -1      7530 3.73333E+00-1.25776E+01 0.00000E+00
 -1      7531 4.26667E+00-1.10517E+01 0.00000E+00
 -1      7532 3.73333E+00-1.15603E+01 0.00000E+00
 -1      7533 4.26667E+00-1.00345E+01 0.00000E+00
 -1      7534 3.73333E+00-1.05431E+01 0.00000E+00
 -1      7535 4.26667E+00-9.01724E+00 0.00000E+00
 -1      7536 3.73333E+00-9.52586E+00 0.00000E+00
 -1      7537 3.73333E+00-8.50862E+00 0.00000E+00
 -1      7538 3.20000E+00-3.64828E+01 0.00000E+00
 -1      7539 2.66667E+00-3.69914E+01 0.00000E+00
 -1      7540 3.20000E+00-3.54655E+01 0.00000E+00
 -1      7541 2.66667E+00-3.59741E+01 0.00000E+00
 -1      7542 3.20000E+00-3.44483E+01 0.00000E+00
 -1      7543 2.66667E+00-3.49569E+01 0.00000E+00
 -1      7544 3.20000E+00-3.34310E+01 0.00000E+00
 -1      7545 2.66667E+00-3.39397E+01 0.00000E+00
 -1      7546 3.20000E+00-3.24138E+01 0.00000E+00
 -1      7547 2.66667E+00-3.29224E+01 0.00000E+00
 -1      7548 3.20000E+00-3.13966E+01 0.00000E+00
 -1      7549 2.66667E+00-3.19052E+01 0.00000E+00
 -1      7550 3.20000E+00-3.03793E+01 0.00000E+00
 -1      7551 2.66667E+00-3.08879E+01 0.00000E+00
 -1      7552 3.20000E+00-2.93621E+01 0.00000E+00
 -1      7553 2.66667E+00-2.98707E+01 0.00000E+00
 -1      7554 3.20000E+00-2.83448E+01 0.00000E+00
 -1      7555 2.66667E+00-2.88534E+01 0.00000E+00
 -1      7556 3.20000E+00-2.73276E+01 0.00000E+00
 -1      7557 2.66667E+00-2.78362E+01 0.00000E+00
 -1      7558 3.20000E+00-2.63103E+01 0.00000E+00
 -1      7559 2.66667E+00-2.68190E+01 0.00000E+00
 -1      7560 3.20000E+00-2.52931E+01 0.00000E+00
 -1      7561 2.66667E+00-2.58017E+01 0.00000E+00
 -1      7562 3.20000E+00-2.42759E+01 0.00000E+00
 -1      7563 2.66667E+00-2.47845E+01 0.00000E+00
 -1      7564 3.20000E+00-2.32586E+01 0.00000E+00
 -1      7565 2.66667E+00-2.37672E+01 0.00000E+00
 -1      7566 3.20000E+00-2.22414E+01 0.00000E+00
 -1      7567 2.66667E+00-2.27500E+01 0.00000E+00
 -1      7568 3.20000E+00-2.12241E+01 0.00000E+00
 -1      7569 2.66667E+00-2.17328E+01 0.00000E+00
 -1      7570 3.20000E+00-2.02069E+01 0.00000E+00
 -1      7571 2.66667E+00-2.07155E+01 0.00000E+00
 -1      7572 3.20000E+00-1.91897E+01 0.00000E+00
 -1      7573 2.66667E+00-1.96983E+01 0.00000E+00
 -1      7574 3.20000E+00-1.81724E+01 0.00000E+00
 -1      7575 2.66667E+00-1.86810E+01 0.00000E+00
 -1      7576 3.20000E+00-1.71552E+01 0.00000E+00
 -1      7577 2.66667E+00-1.76638E+01 0.00000E+00
 -1      7578 3.20000E+00-1.61379E+01 0.00000E+00
 -1      7579 2.66667E+00-1.66466E+01 0.00000E+00
 -1      7580 3.20000E+00-1.51207E+01 0.00000E+00
 -1      7581 2.66667E+00-1.56293E+01 0.00000E+00
 -1      7582 3.20000E+00-1.41034E+01 0.00000E+00
 -1      7583 2.66667E+00-1.46121E+01 0.00000E+00
 -1      7584 3.20000E+00-1.30862E+01 0.00000E+00
 -1      7585 2.66667E+00-1.35948E+01 0.00000E+00
 -1      7586 3.20000E+00-1.20690E+01 0.00000E+00
 -1      7587 2.66667E+00-1.25776E+01 0.00000E+00
 -1      7588 3.20000E+00-1.10517E+01 0.00000E+00
 -1      7589 2.66667E+00-1.15603E+01 0.00000E+00
 -1      7590 3.20000E+00-1.00345E+01 0.00000E+00
 -1      7591 2.66667E+00-1.05431E+01 0.00000E+00
 -1      7592 3.20000E+00-9.01724E+00 0.00000E+00
 -1      7593 2.66667E+00-9.52586E+00 0.00000E+00
 -1      7594 2.66667E+00-8.50862E+00 0.00000E+00
 -1      7595 2.13333E+00-3.64828E+01 0.00000E+00
 -1      7596 1.60000E+00-3.69914E+01 0.00000E+00
 -1      7597 2.13333E+00-3.54655E+01 0.00000E+00
 -1      7598 1.60000E+00-3.59741E+01 0.00000E+00
 -1      7599 2.13333E+00-3.44483E+01 0.00000E+00
 -1      7600 1.60000E+00-3.49569E+01 0.00000E+00
 -1      7601 2.13333E+00-3.34310E+01 0.00000E+00
 -1      7602 1.60000E+00-3.39397E+01 0.00000E+00
 -1      7603 2.13333E+00-3.24138E+01 0.00000E+00
 -1      7604 1.60000E+00-3.29224E+01 0.00000E+00
 -1      7605 2.13333E+00-3.13966E+01 0.00000E+00
 -1      7606 1.60000E+00-3.19052E+01 0.00000E+00
 -1      7607 2.13333E+00-3.03793E+01 0.00000E+00
 -1      7608 1.60000E+00-3.08879E+01 0.00000E+00
 -1      7609 2.13333E+00-2.93621E+01 0.00000E+00
 -1      7610 1.60000E+00-2.98707E+01 0.00000E+00
 -1      7611 2.13333E+00-2.83448E+01 0.00000E+00
 -1      7612 1.60000E+00-2.88534E+01 0.00000E+00
 -1      7613 2.13333E+00-2.73276E+01 0.00000E+00
 -1      7614 1.60000E+00-2.78362E+01 0.00000E+00
 -1      7615 2.13333E+00-2.63103E+01 0.00000E+00
 -1      7616 1.60000E+00-2.68190E+01 0.00000E+00
 -1      7617 2.13333E+00-2.52931E+01 0.00000E+00
 -1      7618 1.60000E+00-2.58017E+01 0.00000E+00
 -1      7619 2.13333E+00-2.42759E+01 0.00000E+00
 -1      7620 1.60000E+00-2.47845E+01 0.00000E+00
 -1      7621 2.13333E+00-2.32586E+01 0.00000E+00
 -1      7622 1.60000E+00-2.37672E+01 0.00000E+00
 -1      7623 2.13333E+00-2.22414E+01 0.00000E+00
 -1      7624 1.60000E+00-2.27500E+01 0.00000E+00
 -1      7625 2.13333E+00-2.12241E+01 0.00000E+00
 -1      7626 1.60000E+00-2.17328E+01 0.00000E+00
 -1      7627 2.13333E+00-2.02069E+01 0.00000E+00
 -1      7628 1.60000E+00-2.07155E+01 0.00000E+00
 -1      7629 2.13333E+00-1.91897E+01 0.00000E+00
 -1      7630 1.60000E+00-1.96983E+01 0.00000E+00
 -1      7631 2.13333E+00-1.81724E+01 0.00000E+00
 -1      7632 1.60000E+00-1.86810E+01 0.00000E+00
 -1      7633 2.13333E+00-1.71552E+01 0.00000E+00
 -1      7634 1.60000E+00-1.76638E+01 0.00000E+00
 -1      7635 2.13333E+00-1.61379E+01 0.00000E+00
 -1      7636 1.60000E+00-1.66466E+01 0.00000E+00
 -1      7637 2.13333E+00-1.51207E+01 0.00000E+00
 -1      7638 1.60000E+00-1.56293E+01 0.00000E+00
 -1      7639 2.13333E+00-1.41034E+01 0.00000E+00
 -1      7640 1.60000E+00-1.46121E+01 0.00000E+00
 -1      7641 2.13333E+00-1.30862E+01 0.00000E+00
 -1      7642 1.60000E+00-1.35948E+01 0.00000E+00
 -1      7643 2.13333E+00-1.20690E+01 0.00000E+00
 -1      7644 1.60000E+00-1.25776E+01 0.00000E+00
 -1      7645 2.13333E+00-1.10517E+01 0.00000E+00
 -1      7646 1.60000E+00-1.15603E+01 0.00000E+00
 -1      7647 2.13333E+00-1.00345E+01 0.00000E+00
 -1      7648 1.60000E+00-1.05431E+01 0.00000E+00
 -1      7649 2.13333E+00-9.01724E+00 0.00000E+00
 -1      7650 1.60000E+00-9.52586E+00 0.00000E+00
 -1      7651 1.60000E+00-8.50862E+00 0.00000E+00
 -1      7652 1.06667E+00-3.64828E+01 0.00000E+00
 -1      7653 5.33333E-01-3.69914E+01 0.00000E+00
 -1      7654 1.06667E+00-3.54655E+01 0.00000E+00
 -1      7655 5.33333E-01-3.59741E+01 0.00000E+00
 -1      7656 1.06667E+00-3.44483E+01 0.00000E+00
 -1      7657 5.33333E-01-3.49569E+01 0.00000E+00
 -1      7658 1.06667E+00-3.34310E+01 0.00000E+00
 -1      7659 5.33333E-01-3.39397E+01 0.00000E+00
 -1      7660 1.06667E+00-3.24138E+01 0.00000E+00
 -1      7661 5.33333E-01-3.29224E+01 0.00000E+00
 -1      7662 1.06667E+00-3.13966E+01 0.00000E+00
 -1      7663 5.33333E-01-3.19052E+01 0.00000E+00
 -1      7664 1.06667E+00-3.03793E+01 0.00000E+00
 -1      7665 5.33333E-01-3.08879E+01 0.00000E+00
 -1      7666 1.06667E+00-2.93621E+01 0.00000E+00
 -1      7667 5.33333E-01-2.98707E+01 0.00000E+00
 -1      7668 1.06667E+00-2.83448E+01 0.00000E+00
 -1      7669 5.33333E-01-2.88534E+01 0.00000E+00
 -1      7670 1.06667E+00-2.73276E+01 0.00000E+00
 -1      7671 5.33333E-01-2.78362E+01 0.00000E+00
 -1      7672 1.06667E+00-2.63103E+01 0.00000E+00
 -1      7673 5.33333E-01-2.68190E+01 0.00000E+00
 -1      7674 1.06667E+00-2.52931E+01 0.00000E+00
 -1      7675 5.33333E-01-2.58017E+01 0.00000E+00
 -1      7676 1.06667E+00-2.42759E+01 0.00000E+00
 -1      7677 5.33333E-01-2.47845E+01 0.00000E+00
 -1      7678 1.06667E+00-2.32586E+01 0.00000E+00
 -1      7679 5.33333E-01-2.37672E+01 0.00000E+00
 -1      7680 1.06667E+00-2.22414E+01 0.00000E+00
 -1      7681 5.33333E-01-2.27500E+01 0.00000E+00
 -1      7682 1.06667E+00-2.12241E+01 0.00000E+00
 -1      7683 5.33333E-01-2.17328E+01 0.00000E+00
 -1      7684 1.06667E+00-2.02069E+01 0.00000E+00
 -1      7685 5.33333E-01-2.07155E+01 0.00000E+00
 -1      7686 1.06667E+00-1.91897E+01 0.00000E+00
 -1      7687 5.33333E-01-1.96983E+01 0.00000E+00
 -1      7688 1.06667E+00-1.81724E+01 0.00000E+00
 -1      7689 5.33333E-01-1.86810E+01 0.00000E+00
 -1      7690 1.06667E+00-1.71552E+01 0.00000E+00
 -1      7691 5.33333E-01-1.76638E+01 0.00000E+00
 -1      7692 1.06667E+00-1.61379E+01 0.00000E+00
 -1      7693 5.33333E-01-1.66466E+01 0.00000E+00
 -1      7694 1.06667E+00-1.51207E+01 0.00000E+00
 -1      7695 5.33333E-01-1.56293E+01 0.00000E+00
 -1      7696 1.06667E+00-1.41034E+01 0.00000E+00
 -1      7697 5.33333E-01-1.46121E+01 0.00000E+00
 -1      7698 1.06667E+00-1.30862E+01 0.00000E+00
 -1      7699 5.33333E-01-1.35948E+01 0.00000E+00
 -1      7700 1.06667E+00-1.20690E+01 0.00000E+00
 -1      7701 5.33333E-01-1.25776E+01 0.00000E+00
 -1      7702 1.06667E+00-1.10517E+01 0.00000E+00
 -1      7703 5.33333E-01-1.15603E+01 0.00000E+00
 -1      7704 1.06667E+00-1.00345E+01 0.00000E+00
 -1      7705 5.33333E-01-1.05431E+01 0.00000E+00
 -1      7706 1.06667E+00-9.01724E+00 0.00000E+00
 -1      7707 5.33333E-01-9.52586E+00 0.00000E+00
 -1      7708 5.33333E-01-8.50862E+00 0.00000E+00
 -1      7709 2.06978E-11-3.64828E+01 0.00000E+00
 -1      7710-5.33333E-01-3.69914E+01 0.00000E+00
 -1      7711 2.06976E-11-3.54655E+01 0.00000E+00
 -1      7712-5.33333E-01-3.59741E+01 0.00000E+00
 -1      7713 2.06979E-11-3.44483E+01 0.00000E+00
 -1      7714-5.33333E-01-3.49569E+01 0.00000E+00
 -1      7715 2.06977E-11-3.34310E+01 0.00000E+00
 -1      7716-5.33333E-01-3.39397E+01 0.00000E+00
 -1      7717 2.06979E-11-3.24138E+01 0.00000E+00
 -1      7718-5.33333E-01-3.29224E+01 0.00000E+00
 -1      7719 2.06980E-11-3.13966E+01 0.00000E+00
 -1      7720-5.33333E-01-3.19052E+01 0.00000E+00
 -1      7721 2.06977E-11-3.03793E+01 0.00000E+00
 -1      7722-5.33333E-01-3.08879E+01 0.00000E+00
 -1      7723 2.06976E-11-2.93621E+01 0.00000E+00
 -1      7724-5.33333E-01-2.98707E+01 0.00000E+00
 -1      7725 2.06977E-11-2.83448E+01 0.00000E+00
 -1      7726-5.33333E-01-2.88534E+01 0.00000E+00
 -1      7727 2.06980E-11-2.73276E+01 0.00000E+00
 -1      7728-5.33333E-01-2.78362E+01 0.00000E+00
 -1      7729 2.06976E-11-2.63103E+01 0.00000E+00
 -1      7730-5.33333E-01-2.68190E+01 0.00000E+00
 -1      7731 2.06977E-11-2.52931E+01 0.00000E+00
 -1      7732-5.33333E-01-2.58017E+01 0.00000E+00
 -1      7733 2.06976E-11-2.42759E+01 0.00000E+00
 -1      7734-5.33333E-01-2.47845E+01 0.00000E+00
 -1      7735 2.06977E-11-2.32586E+01 0.00000E+00
 -1      7736-5.33333E-01-2.37672E+01 0.00000E+00
 -1      7737 2.06977E-11-2.22414E+01 0.00000E+00
 -1      7738-5.33333E-01-2.27500E+01 0.00000E+00
 -1      7739 2.06980E-11-2.12241E+01 0.00000E+00
 -1      7740-5.33333E-01-2.17328E+01 0.00000E+00
 -1      7741 2.06974E-11-2.02069E+01 0.00000E+00
 -1      7742-5.33333E-01-2.07155E+01 0.00000E+00
 -1      7743 2.06974E-11-1.91897E+01 0.00000E+00
 -1      7744-5.33333E-01-1.96983E+01 0.00000E+00
 -1      7745 2.06977E-11-1.81724E+01 0.00000E+00
 -1      7746-5.33333E-01-1.86810E+01 0.00000E+00
 -1      7747 2.06979E-11-1.71552E+01 0.00000E+00
 -1      7748-5.33333E-01-1.76638E+01 0.00000E+00
 -1      7749 2.06977E-11-1.61379E+01 0.00000E+00
 -1      7750-5.33333E-01-1.66466E+01 0.00000E+00
 -1      7751 2.06977E-11-1.51207E+01 0.00000E+00
 -1      7752-5.33333E-01-1.56293E+01 0.00000E+00
 -1      7753 2.06979E-11-1.41034E+01 0.00000E+00
 -1      7754-5.33333E-01-1.46121E+01 0.00000E+00
 -1      7755 2.06972E-11-1.30862E+01 0.00000E+00
 -1      7756-5.33333E-01-1.35948E+01 0.00000E+00
 -1      7757 2.06977E-11-1.20690E+01 0.00000E+00
 -1      7758-5.33333E-01-1.25776E+01 0.00000E+00
 -1      7759 2.06979E-11-1.10517E+01 0.00000E+00
 -1      7760-5.33333E-01-1.15603E+01 0.00000E+00
 -1      7761 2.06974E-11-1.00345E+01 0.00000E+00
 -1      7762-5.33333E-01-1.05431E+01 0.00000E+00
 -1      7763 2.06974E-11-9.01724E+00 0.00000E+00
 -1      7764-5.33333E-01-9.52586E+00 0.00000E+00
 -1      7765-5.33333E-01-8.50862E+00 0.00000E+00
 -1      7766-1.06667E+00-3.64828E+01 0.00000E+00
 -1      7767-1.60000E+00-3.69914E+01 0.00000E+00
 -1      7768-1.06667E+00-3.54655E+01 0.00000E+00
 -1      7769-1.60000E+00-3.59741E+01 0.00000E+00
 -1      7770-1.06667E+00-3.44483E+01 0.00000E+00
 -1      7771-1.60000E+00-3.49569E+01 0.00000E+00
 -1      7772-1.06667E+00-3.34310E+01 0.00000E+00
 -1      7773-1.60000E+00-3.39397E+01 0.00000E+00
 -1      7774-1.06667E+00-3.24138E+01 0.00000E+00
 -1      7775-1.60000E+00-3.29224E+01 0.00000E+00
 -1      7776-1.06667E+00-3.13966E+01 0.00000E+00
 -1      7777-1.60000E+00-3.19052E+01 0.00000E+00
 -1      7778-1.06667E+00-3.03793E+01 0.00000E+00
 -1      7779-1.60000E+00-3.08879E+01 0.00000E+00
 -1      7780-1.06667E+00-2.93621E+01 0.00000E+00
 -1      7781-1.60000E+00-2.98707E+01 0.00000E+00
 -1      7782-1.06667E+00-2.83448E+01 0.00000E+00
 -1      7783-1.60000E+00-2.88534E+01 0.00000E+00
 -1      7784-1.06667E+00-2.73276E+01 0.00000E+00
 -1      7785-1.60000E+00-2.78362E+01 0.00000E+00
 -1      7786-1.06667E+00-2.63103E+01 0.00000E+00
 -1      7787-1.60000E+00-2.68190E+01 0.00000E+00
 -1      7788-1.06667E+00-2.52931E+01 0.00000E+00
 -1      7789-1.60000E+00-2.58017E+01 0.00000E+00
 -1      7790-1.06667E+00-2.42759E+01 0.00000E+00
 -1      7791-1.60000E+00-2.47845E+01 0.00000E+00
 -1      7792-1.06667E+00-2.32586E+01 0.00000E+00
 -1      7793-1.60000E+00-2.37672E+01 0.00000E+00
 -1      7794-1.06667E+00-2.22414E+01 0.00000E+00
 -1      7795-1.60000E+00-2.27500E+01 0.00000E+00
 -1      7796-1.06667E+00-2.12241E+01 0.00000E+00
 -1      7797-1.60000E+00-2.17328E+01 0.00000E+00
 -1      7798-1.06667E+00-2.02069E+01 0.00000E+00
 -1      7799-1.60000E+00-2.07155E+01 0.00000E+00
 -1      7800-1.06667E+00-1.91897E+01 0.00000E+00
 -1      7801-1.60000E+00-1.96983E+01 0.00000E+00
 -1      7802-1.06667E+00-1.81724E+01 0.00000E+00
 -1      7803-1.60000E+00-1.86810E+01 0.00000E+00
 -1      7804-1.06667E+00-1.71552E+01 0.00000E+00
 -1      7805-1.60000E+00-1.76638E+01 0.00000E+00
 -1      7806-1.06667E+00-1.61379E+01 0.00000E+00
 -1      7807-1.60000E+00-1.66466E+01 0.00000E+00
 -1      7808-1.06667E+00-1.51207E+01 0.00000E+00
 -1      7809-1.60000E+00-1.56293E+01 0.00000E+00
 -1      7810-1.06667E+00-1.41034E+01 0.00000E+00
 -1      7811-1.60000E+00-1.46121E+01 0.00000E+00
 -1      7812-1.06667E+00-1.30862E+01 0.00000E+00
 -1      7813-1.60000E+00-1.35948E+01 0.00000E+00
 -1      7814-1.06667E+00-1.20690E+01 0.00000E+00
 -1      7815-1.60000E+00-1.25776E+01 0.00000E+00
 -1      7816-1.06667E+00-1.10517E+01 0.00000E+00
 -1      7817-1.60000E+00-1.15603E+01 0.00000E+00
 -1      7818-1.06667E+00-1.00345E+01 0.00000E+00
 -1      7819-1.60000E+00-1.05431E+01 0.00000E+00
 -1      7820-1.06667E+00-9.01724E+00 0.00000E+00
 -1      7821-1.60000E+00-9.52586E+00 0.00000E+00
 -1      7822-1.60000E+00-8.50862E+00 0.00000E+00
 -1      7823-2.13333E+00-3.64828E+01 0.00000E+00
 -1      7824-2.66667E+00-3.69914E+01 0.00000E+00
 -1      7825-2.13333E+00-3.54655E+01 0.00000E+00
 -1      7826-2.66667E+00-3.59741E+01 0.00000E+00
 -1      7827-2.13333E+00-3.44483E+01 0.00000E+00
 -1      7828-2.66667E+00-3.49569E+01 0.00000E+00
 -1      7829-2.13333E+00-3.34310E+01 0.00000E+00
 -1      7830-2.66667E+00-3.39397E+01 0.00000E+00
 -1      7831-2.13333E+00-3.24138E+01 0.00000E+00
 -1      7832-2.66667E+00-3.29224E+01 0.00000E+00
 -1      7833-2.13333E+00-3.13966E+01 0.00000E+00
 -1      7834-2.66667E+00-3.19052E+01 0.00000E+00
 -1      7835-2.13333E+00-3.03793E+01 0.00000E+00
 -1      7836-2.66667E+00-3.08879E+01 0.00000E+00
 -1      7837-2.13333E+00-2.93621E+01 0.00000E+00
 -1      7838-2.66667E+00-2.98707E+01 0.00000E+00
 -1      7839-2.13333E+00-2.83448E+01 0.00000E+00
 -1      7840-2.66667E+00-2.88534E+01 0.00000E+00
 -1      7841-2.13333E+00-2.73276E+01 0.00000E+00
 -1      7842-2.66667E+00-2.78362E+01 0.00000E+00
 -1      7843-2.13333E+00-2.63103E+01 0.00000E+00
 -1      7844-2.66667E+00-2.68190E+01 0.00000E+00
 -1      7845-2.13333E+00-2.52931E+01 0.00000E+00
 -1      7846-2.66667E+00-2.58017E+01 0.00000E+00
 -1      7847-2.13333E+00-2.42759E+01 0.00000E+00
 -1      7848-2.66667E+00-2.47845E+01 0.00000E+00
 -1      7849-2.13333E+00-2.32586E+01 0.00000E+00
 -1      7850-2.66667E+00-2.37672E+01 0.00000E+00
 -1      7851-2.13333E+00-2.22414E+01 0.00000E+00
 -1      7852-2.66667E+00-2.27500E+01 0.00000E+00
 -1      7853-2.13333E+00-2.12241E+01 0.00000E+00
 -1      7854-2.66667E+00-2.17328E+01 0.00000E+00
 -1      7855-2.13333E+00-2.02069E+01 0.00000E+00
 -1      7856-2.66667E+00-2.07155E+01 0.00000E+00
 -1      7857-2.13333E+00-1.91897E+01 0.00000E+00
 -1      7858-2.66667E+00-1.96983E+01 0.00000E+00
 -1      7859-2.13333E+00-1.81724E+01 0.00000E+00
 -1      7860-2.66667E+00-1.86810E+01 0.00000E+00
 -1      7861-2.13333E+00-1.71552E+01 0.00000E+00
 -1      7862-2.66667E+00-1.76638E+01 0.00000E+00
 -1      7863-2.13333E+00-1.61379E+01 0.00000E+00
 -1      7864-2.66667E+00-1.66466E+01 0.00000E+00
 -1      7865-2.13333E+00-1.51207E+01 0.00000E+00
 -1      7866-2.66667E+00-1.56293E+01 0.00000E+00
 -1      7867-2.13333E+00-1.41034E+01 0.00000E+00
 -1      7868-2.66667E+00-1.46121E+01 0.00000E+00
 -1      7869-2.13333E+00-1.30862E+01 0.00000E+00
 -1      7870-2.66667E+00-1.35948E+01 0.00000E+00
 -1      7871-2.13333E+00-1.20690E+01 0.00000E+00
 -1      7872-2.66667E+00-1.25776E+01 0.00000E+00
 -1      7873-2.13333E+00-1.10517E+01 0.00000E+00
 -1      7874-2.66667E+00-1.15603E+01 0.00000E+00
 -1      7875-2.13333E+00-1.00345E+01 0.00000E+00
 -1      7876-2.66667E+00-1.05431E+01 0.00000E+00
 -1      7877-2.13333E+00-9.01724E+00 0.00000E+00
 -1      7878-2.66667E+00-9.52586E+00 0.00000E+00
 -1      7879-2.66667E+00-8.50862E+00 0.00000E+00
 -1      7880-3.20000E+00-3.64828E+01 0.00000E+00
 -1      7881-3.73333E+00-3.69914E+01 0.00000E+00
 -1      7882-3.20000E+00-3.54655E+01 0.00000E+00
 -1      7883-3.73333E+00-3.59741E+01 0.00000E+00
 -1      7884-3.20000E+00-3.44483E+01 0.00000E+00
 -1      7885-3.73333E+00-3.49569E+01 0.00000E+00
 -1      7886-3.20000E+00-3.34310E+01 0.00000E+00
 -1      7887-3.73333E+00-3.39397E+01 0.00000E+00
 -1      7888-3.20000E+00-3.24138E+01 0.00000E+00
 -1      7889-3.73333E+00-3.29224E+01 0.00000E+00
 -1      7890-3.20000E+00-3.13966E+01 0.00000E+00
 -1      7891-3.73333E+00-3.19052E+01 0.00000E+00
 -1      7892-3.20000E+00-3.03793E+01 0.00000E+00
 -1      7893-3.73333E+00-3.08879E+01 0.00000E+00
 -1      7894-3.20000E+00-2.93621E+01 0.00000E+00
 -1      7895-3.73333E+00-2.98707E+01 0.00000E+00
 -1      7896-3.20000E+00-2.83448E+01 0.00000E+00
 -1      7897-3.73333E+00-2.88534E+01 0.00000E+00
 -1      7898-3.20000E+00-2.73276E+01 0.00000E+00
 -1      7899-3.73333E+00-2.78362E+01 0.00000E+00
 -1      7900-3.20000E+00-2.63103E+01 0.00000E+00
 -1      7901-3.73333E+00-2.68190E+01 0.00000E+00
 -1      7902-3.20000E+00-2.52931E+01 0.00000E+00
 -1      7903-3.73333E+00-2.58017E+01 0.00000E+00
 -1      7904-3.20000E+00-2.42759E+01 0.00000E+00
 -1      7905-3.73333E+00-2.47845E+01 0.00000E+00
 -1      7906-3.20000E+00-2.32586E+01 0.00000E+00
 -1      7907-3.73333E+00-2.37672E+01 0.00000E+00
 -1      7908-3.20000E+00-2.22414E+01 0.00000E+00
 -1      7909-3.73333E+00-2.27500E+01 0.00000E+00
 -1      7910-3.20000E+00-2.12241E+01 0.00000E+00
 -1      7911-3.73333E+00-2.17328E+01 0.00000E+00
 -1      7912-3.20000E+00-2.02069E+01 0.00000E+00
 -1      7913-3.73333E+00-2.07155E+01 0.00000E+00
 -1      7914-3.20000E+00-1.91897E+01 0.00000E+00
 -1      7915-3.73333E+00-1.96983E+01 0.00000E+00
 -1      7916-3.20000E+00-1.81724E+01 0.00000E+00
 -1      7917-3.73333E+00-1.86810E+01 0.00000E+00
 -1      7918-3.20000E+00-1.71552E+01 0.00000E+00
 -1      7919-3.73333E+00-1.76638E+01 0.00000E+00
 -1      7920-3.20000E+00-1.61379E+01 0.00000E+00
 -1      7921-3.73333E+00-1.66466E+01 0.00000E+00
 -1      7922-3.20000E+00-1.51207E+01 0.00000E+00
 -1      7923-3.73333E+00-1.56293E+01 0.00000E+00
 -1      7924-3.20000E+00-1.41034E+01 0.00000E+00
 -1      7925-3.73333E+00-1.46121E+01 0.00000E+00
 -1      7926-3.20000E+00-1.30862E+01 0.00000E+00
 -1      7927-3.73333E+00-1.35948E+01 0.00000E+00
 -1      7928-3.20000E+00-1.20690E+01 0.00000E+00
 -1      7929-3.73333E+00-1.25776E+01 0.00000E+00
 -1      7930-3.20000E+00-1.10517E+01 0.00000E+00
 -1      7931-3.73333E+00-1.15603E+01 0.00000E+00
 -1      7932-3.20000E+00-1.00345E+01 0.00000E+00
 -1      7933-3.73333E+00-1.05431E+01 0.00000E+00
 -1      7934-3.20000E+00-9.01724E+00 0.00000E+00
 -1      7935-3.73333E+00-9.52586E+00 0.00000E+00
 -1      7936-3.73333E+00-8.50862E+00 0.00000E+00
 -1      7937-4.26667E+00-3.64828E+01 0.00000E+00
 -1      7938-4.80000E+00-3.69914E+01 0.00000E+00
 -1      7939-4.26667E+00-3.54655E+01 0.00000E+00
 -1      7940-4.80000E+00-3.59741E+01 0.00000E+00
 -1      7941-4.26667E+00-3.44483E+01 0.00000E+00
 -1      7942-4.80000E+00-3.49569E+01 0.00000E+00
 -1      7943-4.26667E+00-3.34310E+01 0.00000E+00
 -1      7944-4.80000E+00-3.39397E+01 0.00000E+00
 -1      7945-4.26667E+00-3.24138E+01 0.00000E+00
 -1      7946-4.80000E+00-3.29224E+01 0.00000E+00
 -1      7947-4.26667E+00-3.13966E+01 0.00000E+00
 -1      7948-4.80000E+00-3.19052E+01 0.00000E+00
 -1      7949-4.26667E+00-3.03793E+01 0.00000E+00
 -1      7950-4.80000E+00-3.08879E+01 0.00000E+00
 -1      7951-4.26667E+00-2.93621E+01 0.00000E+00
 -1      7952-4.80000E+00-2.98707E+01 0.00000E+00
 -1      7953-4.26667E+00-2.83448E+01 0.00000E+00
 -1      7954-4.80000E+00-2.88534E+01 0.00000E+00
 -1      7955-4.26667E+00-2.73276E+01 0.00000E+00
 -1      7956-4.80000E+00-2.78362E+01 0.00000E+00
 -1      7957-4.26667E+00-2.63103E+01 0.00000E+00
 -1      7958-4.80000E+00-2.68190E+01 0.00000E+00
 -1      7959-4.26667E+00-2.52931E+01 0.00000E+00
 -1      7960-4.80000E+00-2.58017E+01 0.00000E+00
 -1      7961-4.26667E+00-2.42759E+01 0.00000E+00
 -1      7962-4.80000E+00-2.47845E+01 0.00000E+00
 -1      7963-4.26667E+00-2.32586E+01 0.00000E+00
 -1      7964-4.80000E+00-2.37672E+01 0.00000E+00
 -1      7965-4.26667E+00-2.22414E+01 0.00000E+00
 -1      7966-4.80000E+00-2.27500E+01 0.00000E+00
 -1      7967-4.26667E+00-2.12241E+01 0.00000E+00
 -1      7968-4.80000E+00-2.17328E+01 0.00000E+00
 -1      7969-4.26667E+00-2.02069E+01 0.00000E+00
 -1      7970-4.80000E+00-2.07155E+01 0.00000E+00
 -1      7971-4.26667E+00-1.91897E+01 0.00000E+00
 -1      7972-4.80000E+00-1.96983E+01 0.00000E+00
 -1      7973-4.26667E+00-1.81724E+01 0.00000E+00
 -1      7974-4.80000E+00-1.86810E+01 0.00000E+00
 -1      7975-4.26667E+00-1.71552E+01 0.00000E+00
 -1      7976-4.80000E+00-1.76638E+01 0.00000E+00
 -1      7977-4.26667E+00-1.61379E+01 0.00000E+00
 -1      7978-4.80000E+00-1.66466E+01 0.00000E+00
 -1      7979-4.26667E+00-1.51207E+01 0.00000E+00
 -1      7980-4.80000E+00-1.56293E+01 0.00000E+00
 -1      7981-4.26667E+00-1.41034E+01 0.00000E+00
 -1      7982-4.80000E+00-1.46121E+01 0.00000E+00
 -1      7983-4.26667E+00-1.30862E+01 0.00000E+00
 -1      7984-4.80000E+00-1.35948E+01 0.00000E+00
 -1      7985-4.26667E+00-1.20690E+01 0.00000E+00
 -1      7986-4.80000E+00-1.25776E+01 0.00000E+00
 -1      7987-4.26667E+00-1.10517E+01 0.00000E+00
 -1      7988-4.80000E+00-1.15603E+01 0.00000E+00
 -1      7989-4.26667E+00-1.00345E+01 0.00000E+00
 -1      7990-4.80000E+00-1.05431E+01 0.00000E+00
 -1      7991-4.26667E+00-9.01724E+00 0.00000E+00
 -1      7992-4.80000E+00-9.52586E+00 0.00000E+00
 -1      7993-4.80000E+00-8.50862E+00 0.00000E+00
 -1      7994-5.33333E+00-3.64828E+01 0.00000E+00
 -1      7995-5.86667E+00-3.69914E+01 0.00000E+00
 -1      7996-5.33333E+00-3.54655E+01 0.00000E+00
 -1      7997-5.86667E+00-3.59741E+01 0.00000E+00
 -1      7998-5.33333E+00-3.44483E+01 0.00000E+00
 -1      7999-5.86667E+00-3.49569E+01 0.00000E+00
 -1      8000-5.33333E+00-3.34310E+01 0.00000E+00
 -1      8001-5.86667E+00-3.39397E+01 0.00000E+00
 -1      8002-5.33333E+00-3.24138E+01 0.00000E+00
 -1      8003-5.86667E+00-3.29224E+01 0.00000E+00
 -1      8004-5.33333E+00-3.13966E+01 0.00000E+00
 -1      8005-5.86667E+00-3.19052E+01 0.00000E+00
 -1      8006-5.33333E+00-3.03793E+01 0.00000E+00
 -1      8007-5.86667E+00-3.08879E+01 0.00000E+00
 -1      8008-5.33333E+00-2.93621E+01 0.00000E+00
 -1      8009-5.86667E+00-2.98707E+01 0.00000E+00
 -1      8010-5.33333E+00-2.83448E+01 0.00000E+00
 -1      8011-5.86667E+00-2.88534E+01 0.00000E+00
 -1      8012-5.33333E+00-2.73276E+01 0.00000E+00
 -1      8013-5.86667E+00-2.78362E+01 0.00000E+00
 -1      8014-5.33333E+00-2.63103E+01 0.00000E+00
 -1      8015-5.86667E+00-2.68190E+01 0.00000E+00
 -1      8016-5.33333E+00-2.52931E+01 0.00000E+00
 -1      8017-5.86667E+00-2.58017E+01 0.00000E+00
 -1      8018-5.33333E+00-2.42759E+01 0.00000E+00
 -1      8019-5.86667E+00-2.47845E+01 0.00000E+00
 -1      8020-5.33333E+00-2.32586E+01 0.00000E+00
 -1      8021-5.86667E+00-2.37672E+01 0.00000E+00
 -1      8022-5.33333E+00-2.22414E+01 0.00000E+00
 -1      8023-5.86667E+00-2.27500E+01 0.00000E+00
 -1      8024-5.33333E+00-2.12241E+01 0.00000E+00
 -1      8025-5.86667E+00-2.17328E+01 0.00000E+00
 -1      8026-5.33333E+00-2.02069E+01 0.00000E+00
 -1      8027-5.86667E+00-2.07155E+01 0.00000E+00
 -1      8028-5.33333E+00-1.91897E+01 0.00000E+00
 -1      8029-5.86667E+00-1.96983E+01 0.00000E+00
 -1      8030-5.33333E+00-1.81724E+01 0.00000E+00
 -1      8031-5.86667E+00-1.86810E+01 0.00000E+00
 -1      8032-5.33333E+00-1.71552E+01 0.00000E+00
 -1      8033-5.86667E+00-1.76638E+01 0.00000E+00
 -1      8034-5.33333E+00-1.61379E+01 0.00000E+00
 -1      8035-5.86667E+00-1.66466E+01 0.00000E+00
 -1      8036-5.33333E+00-1.51207E+01 0.00000E+00
 -1      8037-5.86667E+00-1.56293E+01 0.00000E+00
 -1      8038-5.33333E+00-1.41034E+01 0.00000E+00
 -1      8039-5.86667E+00-1.46121E+01 0.00000E+00
 -1      8040-5.33333E+00-1.30862E+01 0.00000E+00
 -1      8041-5.86667E+00-1.35948E+01 0.00000E+00
 -1      8042-5.33333E+00-1.20690E+01 0.00000E+00
 -1      8043-5.86667E+00-1.25776E+01 0.00000E+00
 -1      8044-5.33333E+00-1.10517E+01 0.00000E+00
 -1      8045-5.86667E+00-1.15603E+01 0.00000E+00
 -1      8046-5.33333E+00-1.00345E+01 0.00000E+00
 -1      8047-5.86667E+00-1.05431E+01 0.00000E+00
 -1      8048-5.33333E+00-9.01724E+00 0.00000E+00
 -1      8049-5.86667E+00-9.52586E+00 0.00000E+00
 -1      8050-5.86667E+00-8.50862E+00 0.00000E+00
 -1      8051-6.40000E+00-3.64828E+01 0.00000E+00
 -1      8052-6.93333E+00-3.69914E+01 0.00000E+00
 -1      8053-6.40000E+00-3.54655E+01 0.00000E+00
 -1      8054-6.93333E+00-3.59741E+01 0.00000E+00
 -1      8055-6.40000E+00-3.44483E+01 0.00000E+00
 -1      8056-6.93333E+00-3.49569E+01 0.00000E+00
 -1      8057-6.40000E+00-3.34310E+01 0.00000E+00
 -1      8058-6.93333E+00-3.39397E+01 0.00000E+00
 -1      8059-6.40000E+00-3.24138E+01 0.00000E+00
 -1      8060-6.93333E+00-3.29224E+01 0.00000E+00
 -1      8061-6.40000E+00-3.13966E+01 0.00000E+00
 -1      8062-6.93333E+00-3.19052E+01 0.00000E+00
 -1      8063-6.40000E+00-3.03793E+01 0.00000E+00
 -1      8064-6.93333E+00-3.08879E+01 0.00000E+00
 -1      8065-6.40000E+00-2.93621E+01 0.00000E+00
 -1      8066-6.93333E+00-2.98707E+01 0.00000E+00
 -1      8067-6.40000E+00-2.83448E+01 0.00000E+00
 -1      8068-6.93333E+00-2.88534E+01 0.00000E+00
 -1      8069-6.40000E+00-2.73276E+01 0.00000E+00
 -1      8070-6.93333E+00-2.78362E+01 0.00000E+00
 -1      8071-6.40000E+00-2.63103E+01 0.00000E+00
 -1      8072-6.93333E+00-2.68190E+01 0.00000E+00
 -1      8073-6.40000E+00-2.52931E+01 0.00000E+00
 -1      8074-6.93333E+00-2.58017E+01 0.00000E+00
 -1      8075-6.40000E+00-2.42759E+01 0.00000E+00
 -1      8076-6.93333E+00-2.47845E+01 0.00000E+00
 -1      8077-6.40000E+00-2.32586E+01 0.00000E+00
 -1      8078-6.93333E+00-2.37672E+01 0.00000E+00
 -1      8079-6.40000E+00-2.22414E+01 0.00000E+00
 -1      8080-6.93333E+00-2.27500E+01 0.00000E+00
 -1      8081-6.40000E+00-2.12241E+01 0.00000E+00
 -1      8082-6.93333E+00-2.17328E+01 0.00000E+00
 -1      8083-6.40000E+00-2.02069E+01 0.00000E+00
 -1      8084-6.93333E+00-2.07155E+01 0.00000E+00
 -1      8085-6.40000E+00-1.91897E+01 0.00000E+00
 -1      8086-6.93333E+00-1.96983E+01 0.00000E+00
 -1      8087-6.40000E+00-1.81724E+01 0.00000E+00
 -1      8088-6.93333E+00-1.86810E+01 0.00000E+00
 -1      8089-6.40000E+00-1.71552E+01 0.00000E+00
 -1      8090-6.93333E+00-1.76638E+01 0.00000E+00
 -1      8091-6.40000E+00-1.61379E+01 0.00000E+00
 -1      8092-6.93333E+00-1.66466E+01 0.00000E+00
 -1      8093-6.40000E+00-1.51207E+01 0.00000E+00
 -1      8094-6.93333E+00-1.56293E+01 0.00000E+00
 -1      8095-6.40000E+00-1.41034E+01 0.00000E+00
 -1      8096-6.93333E+00-1.46121E+01 0.00000E+00
 -1      8097-6.40000E+00-1.30862E+01 0.00000E+00
 -1      8098-6.93333E+00-1.35948E+01 0.00000E+00
 -1      8099-6.40000E+00-1.20690E+01 0.00000E+00
 -1      8100-6.93333E+00-1.25776E+01 0.00000E+00
 -1      8101-6.40000E+00-1.10517E+01 0.00000E+00
 -1      8102-6.93333E+00-1.15603E+01 0.00000E+00
 -1      8103-6.40000E+00-1.00345E+01 0.00000E+00
 -1      8104-6.93333E+00-1.05431E+01 0.00000E+00
 -1      8105-6.40000E+00-9.01724E+00 0.00000E+00
 -1      8106-6.93333E+00-9.52586E+00 0.00000E+00
 -1      8107-6.93333E+00-8.50862E+00 0.00000E+00
 -1      8108-7.46667E+00-3.64828E+01 0.00000E+00
 -1      8109-7.46667E+00-3.54655E+01 0.00000E+00
 -1      8110-7.46667E+00-3.44483E+01 0.00000E+00
 -1      8111-7.46667E+00-3.34310E+01 0.00000E+00
 -1      8112-7.46667E+00-3.24138E+01 0.00000E+00
 -1      8113-7.46667E+00-3.13966E+01 0.00000E+00
 -1      8114-7.46667E+00-3.03793E+01 0.00000E+00
 -1      8115-7.46667E+00-2.93621E+01 0.00000E+00
 -1      8116-7.46667E+00-2.83448E+01 0.00000E+00
 -1      8117-7.46667E+00-2.73276E+01 0.00000E+00
 -1      8118-7.46667E+00-2.63103E+01 0.00000E+00
 -1      8119-7.46667E+00-2.52931E+01 0.00000E+00
 -1      8120-7.46667E+00-2.42759E+01 0.00000E+00
 -1      8121-7.46667E+00-2.32586E+01 0.00000E+00
 -1      8122-7.46667E+00-2.22414E+01 0.00000E+00
 -1      8123-7.46667E+00-2.12241E+01 0.00000E+00
 -1      8124-7.46667E+00-2.02069E+01 0.00000E+00
 -1      8125-7.46667E+00-1.91897E+01 0.00000E+00
 -1      8126-7.46667E+00-1.81724E+01 0.00000E+00
 -1      8127-7.46667E+00-1.71552E+01 0.00000E+00
 -1      8128-7.46667E+00-1.61379E+01 0.00000E+00
 -1      8129-7.46667E+00-1.51207E+01 0.00000E+00
 -1      8130-7.46667E+00-1.41034E+01 0.00000E+00
 -1      8131-7.46667E+00-1.30862E+01 0.00000E+00
 -1      8132-7.46667E+00-1.20690E+01 0.00000E+00
 -1      8133-7.46667E+00-1.10517E+01 0.00000E+00
 -1      8134-7.46667E+00-1.00345E+01 0.00000E+00
 -1      8135-7.46667E+00-9.01724E+00 0.00000E+00
 -1      8136-9.06250E+00-3.64828E+01 0.00000E+00
 -1      8137-9.06250E+00-3.54655E+01 0.00000E+00
 -1      8138-9.06250E+00-3.44483E+01 0.00000E+00
 -1      8139-9.06250E+00-3.34310E+01 0.00000E+00
 -1      8140-9.06250E+00-3.24138E+01 0.00000E+00
 -1      8141-9.06250E+00-3.13966E+01 0.00000E+00
 -1      8142-9.06250E+00-3.03793E+01 0.00000E+00
 -1      8143-9.06250E+00-2.93621E+01 0.00000E+00
 -1      8144-9.06250E+00-2.83448E+01 0.00000E+00
 -1      8145-9.06250E+00-2.73276E+01 0.00000E+00
 -1      8146-9.06250E+00-2.63103E+01 0.00000E+00
 -1      8147-9.06250E+00-2.52931E+01 0.00000E+00
 -1      8148-9.06250E+00-2.42759E+01 0.00000E+00
 -1      8149-9.06250E+00-2.32586E+01 0.00000E+00
 -1      8150-9.06250E+00-2.22414E+01 0.00000E+00
 -1      8151-9.06250E+00-2.12241E+01 0.00000E+00
 -1      8152-9.06250E+00-2.02069E+01 0.00000E+00
 -1      8153-9.06250E+00-1.91897E+01 0.00000E+00
 -1      8154-9.06250E+00-1.81724E+01 0.00000E+00
 -1      8155-9.06250E+00-1.71552E+01 0.00000E+00
 -1      8156-9.06250E+00-1.61379E+01 0.00000E+00
 -1      8157-9.06250E+00-1.51207E+01 0.00000E+00
 -1      8158-9.06250E+00-1.41034E+01 0.00000E+00
 -1      8159-9.06250E+00-1.30862E+01 0.00000E+00
 -1      8160-9.06250E+00-1.20690E+01 0.00000E+00
 -1      8161-9.06250E+00-1.10517E+01 0.00000E+00
 -1      8162-9.06250E+00-1.00345E+01 0.00000E+00
 -1      8163-9.06250E+00-9.01724E+00 0.00000E+00
 -1      8164-1.01250E+01-3.64828E+01 0.00000E+00
 -1      8165-1.01250E+01-3.54655E+01 0.00000E+00
 -1      8166-1.01250E+01-3.44483E+01 0.00000E+00
 -1      8167-1.01250E+01-3.34310E+01 0.00000E+00
 -1      8168-1.01250E+01-3.24138E+01 0.00000E+00
 -1      8169-1.01250E+01-3.13966E+01 0.00000E+00
 -1      8170-1.01250E+01-3.03793E+01 0.00000E+00
 -1      8171-1.01250E+01-2.93621E+01 0.00000E+00
 -1      8172-1.01250E+01-2.83448E+01 0.00000E+00
 -1      8173-1.01250E+01-2.73276E+01 0.00000E+00
 -1      8174-1.01250E+01-2.63103E+01 0.00000E+00
 -1      8175-1.01250E+01-2.52931E+01 0.00000E+00
 -1      8176-1.01250E+01-2.42759E+01 0.00000E+00
 -1      8177-1.01250E+01-2.32586E+01 0.00000E+00
 -1      8178-1.01250E+01-2.22414E+01 0.00000E+00
 -1      8179-1.01250E+01-2.12241E+01 0.00000E+00
 -1      8180-1.01250E+01-2.02069E+01 0.00000E+00
 -1      8181-1.01250E+01-1.91897E+01 0.00000E+00
 -1      8182-1.01250E+01-1.81724E+01 0.00000E+00
 -1      8183-1.01250E+01-1.71552E+01 0.00000E+00
 -1      8184-1.01250E+01-1.61379E+01 0.00000E+00
 -1      8185-1.01250E+01-1.51207E+01 0.00000E+00
 -1      8186-1.01250E+01-1.41034E+01 0.00000E+00
 -1      8187-1.01250E+01-1.30862E+01 0.00000E+00
 -1      8188-1.01250E+01-1.20690E+01 0.00000E+00
 -1      8189-1.01250E+01-1.10517E+01 0.00000E+00
 -1      8190-1.01250E+01-1.00345E+01 0.00000E+00
 -1      8191-1.01250E+01-9.01724E+00 0.00000E+00
 -1      8192-1.11875E+01-3.64828E+01 0.00000E+00
 -1      8193-1.11875E+01-3.54655E+01 0.00000E+00
 -1      8194-1.11875E+01-3.44483E+01 0.00000E+00
 -1      8195-1.11875E+01-3.34310E+01 0.00000E+00
 -1      8196-1.11875E+01-3.24138E+01 0.00000E+00
 -1      8197-1.11875E+01-3.13966E+01 0.00000E+00
 -1      8198-1.11875E+01-3.03793E+01 0.00000E+00
 -1      8199-1.11875E+01-2.93621E+01 0.00000E+00
 -1      8200-1.11875E+01-2.83448E+01 0.00000E+00
 -1      8201-1.11875E+01-2.73276E+01 0.00000E+00
 -1      8202-1.11875E+01-2.63103E+01 0.00000E+00
 -1      8203-1.11875E+01-2.52931E+01 0.00000E+00
 -1      8204-1.11875E+01-2.42759E+01 0.00000E+00
 -1      8205-1.11875E+01-2.32586E+01 0.00000E+00
 -1      8206-1.11875E+01-2.22414E+01 0.00000E+00
 -1      8207-1.11875E+01-2.12241E+01 0.00000E+00
 -1      8208-1.11875E+01-2.02069E+01 0.00000E+00
 -1      8209-1.11875E+01-1.91897E+01 0.00000E+00
 -1      8210-1.11875E+01-1.81724E+01 0.00000E+00
 -1      8211-1.11875E+01-1.71552E+01 0.00000E+00
 -1      8212-1.11875E+01-1.61379E+01 0.00000E+00
 -1      8213-1.11875E+01-1.51207E+01 0.00000E+00
 -1      8214-1.11875E+01-1.41034E+01 0.00000E+00
 -1      8215-1.11875E+01-1.30862E+01 0.00000E+00
 -1      8216-1.11875E+01-1.20690E+01 0.00000E+00
 -1      8217-1.11875E+01-1.10517E+01 0.00000E+00
 -1      8218-1.11875E+01-1.00345E+01 0.00000E+00
 -1      8219-1.11875E+01-9.01724E+00 0.00000E+00
 -1      8220-1.22500E+01-3.64828E+01 0.00000E+00
 -1      8221-1.22500E+01-3.54655E+01 0.00000E+00
 -1      8222-1.22500E+01-3.44483E+01 0.00000E+00
 -1      8223-1.22500E+01-3.34310E+01 0.00000E+00
 -1      8224-1.22500E+01-3.24138E+01 0.00000E+00
 -1      8225-1.22500E+01-3.13966E+01 0.00000E+00
 -1      8226-1.22500E+01-3.03793E+01 0.00000E+00
 -1      8227-1.22500E+01-2.93621E+01 0.00000E+00
 -1      8228-1.22500E+01-2.83448E+01 0.00000E+00
 -1      8229-1.22500E+01-2.73276E+01 0.00000E+00
 -1      8230-1.22500E+01-2.63103E+01 0.00000E+00
 -1      8231-1.22500E+01-2.52931E+01 0.00000E+00
 -1      8232-1.22500E+01-2.42759E+01 0.00000E+00
 -1      8233-1.22500E+01-2.32586E+01 0.00000E+00
 -1      8234-1.22500E+01-2.22414E+01 0.00000E+00
 -1      8235-1.22500E+01-2.12241E+01 0.00000E+00
 -1      8236-1.22500E+01-2.02069E+01 0.00000E+00
 -1      8237-1.22500E+01-1.91897E+01 0.00000E+00
 -1      8238-1.22500E+01-1.81724E+01 0.00000E+00
 -1      8239-1.22500E+01-1.71552E+01 0.00000E+00
 -1      8240-1.22500E+01-1.61379E+01 0.00000E+00
 -1      8241-1.22500E+01-1.51207E+01 0.00000E+00
 -1      8242-1.22500E+01-1.41034E+01 0.00000E+00
 -1      8243-1.22500E+01-1.30862E+01 0.00000E+00
 -1      8244-1.22500E+01-1.20690E+01 0.00000E+00
 -1      8245-1.22500E+01-1.10517E+01 0.00000E+00
 -1      8246-1.22500E+01-1.00345E+01 0.00000E+00
 -1      8247-1.22500E+01-9.01724E+00 0.00000E+00
 -1      8248-1.33125E+01-3.64828E+01 0.00000E+00
 -1      8249-1.33125E+01-3.54655E+01 0.00000E+00
 -1      8250-1.33125E+01-3.44483E+01 0.00000E+00
 -1      8251-1.33125E+01-3.34310E+01 0.00000E+00
 -1      8252-1.33125E+01-3.24138E+01 0.00000E+00
 -1      8253-1.33125E+01-3.13966E+01 0.00000E+00
 -1      8254-1.33125E+01-3.03793E+01 0.00000E+00
 -1      8255-1.33125E+01-2.93621E+01 0.00000E+00
 -1      8256-1.33125E+01-2.83448E+01 0.00000E+00
 -1      8257-1.33125E+01-2.73276E+01 0.00000E+00
 -1      8258-1.33125E+01-2.63103E+01 0.00000E+00
 -1      8259-1.33125E+01-2.52931E+01 0.00000E+00
 -1      8260-1.33125E+01-2.42759E+01 0.00000E+00
 -1      8261-1.33125E+01-2.32586E+01 0.00000E+00
 -1      8262-1.33125E+01-2.22414E+01 0.00000E+00
 -1      8263-1.33125E+01-2.12241E+01 0.00000E+00
 -1      8264-1.33125E+01-2.02069E+01 0.00000E+00
 -1      8265-1.33125E+01-1.91897E+01 0.00000E+00
 -1      8266-1.33125E+01-1.81724E+01 0.00000E+00
 -1      8267-1.33125E+01-1.71552E+01 0.00000E+00
 -1      8268-1.33125E+01-1.61379E+01 0.00000E+00
 -1      8269-1.33125E+01-1.51207E+01 0.00000E+00
 -1      8270-1.33125E+01-1.41034E+01 0.00000E+00
 -1      8271-1.33125E+01-1.30862E+01 0.00000E+00
 -1      8272-1.33125E+01-1.20690E+01 0.00000E+00
 -1      8273-1.33125E+01-1.10517E+01 0.00000E+00
 -1      8274-1.33125E+01-1.00345E+01 0.00000E+00
 -1      8275-1.33125E+01-9.01724E+00 0.00000E+00
 -1      8276-1.43750E+01-3.64828E+01 0.00000E+00
 -1      8277-1.43750E+01-3.54655E+01 0.00000E+00
 -1      8278-1.43750E+01-3.44483E+01 0.00000E+00
 -1      8279-1.43750E+01-3.34310E+01 0.00000E+00
 -1      8280-1.43750E+01-3.24138E+01 0.00000E+00
 -1      8281-1.43750E+01-3.13966E+01 0.00000E+00
 -1      8282-1.43750E+01-3.03793E+01 0.00000E+00
 -1      8283-1.43750E+01-2.93621E+01 0.00000E+00
 -1      8284-1.43750E+01-2.83448E+01 0.00000E+00
 -1      8285-1.43750E+01-2.73276E+01 0.00000E+00
 -1      8286-1.43750E+01-2.63103E+01 0.00000E+00
 -1      8287-1.43750E+01-2.52931E+01 0.00000E+00
 -1      8288-1.43750E+01-2.42759E+01 0.00000E+00
 -1      8289-1.43750E+01-2.32586E+01 0.00000E+00
 -1      8290-1.43750E+01-2.22414E+01 0.00000E+00
 -1      8291-1.43750E+01-2.12241E+01 0.00000E+00
 -1      8292-1.43750E+01-2.02069E+01 0.00000E+00
 -1      8293-1.43750E+01-1.91897E+01 0.00000E+00
 -1      8294-1.43750E+01-1.81724E+01 0.00000E+00
 -1      8295-1.43750E+01-1.71552E+01 0.00000E+00
 -1      8296-1.43750E+01-1.61379E+01 0.00000E+00
 -1      8297-1.43750E+01-1.51207E+01 0.00000E+00
 -1      8298-1.43750E+01-1.41034E+01 0.00000E+00
 -1      8299-1.43750E+01-1.30862E+01 0.00000E+00
 -1      8300-1.43750E+01-1.20690E+01 0.00000E+00
 -1      8301-1.43750E+01-1.10517E+01 0.00000E+00
 -1      8302-1.43750E+01-1.00345E+01 0.00000E+00
 -1      8303-1.43750E+01-9.01724E+00 0.00000E+00
 -1      8304-1.54375E+01-3.64828E+01 0.00000E+00
 -1      8305-1.54375E+01-3.54655E+01 0.00000E+00
 -1      8306-1.54375E+01-3.44483E+01 0.00000E+00
 -1      8307-1.54375E+01-3.34310E+01 0.00000E+00
 -1      8308-1.54375E+01-3.24138E+01 0.00000E+00
 -1      8309-1.54375E+01-3.13966E+01 0.00000E+00
 -1      8310-1.54375E+01-3.03793E+01 0.00000E+00
 -1      8311-1.54375E+01-2.93621E+01 0.00000E+00
 -1      8312-1.54375E+01-2.83448E+01 0.00000E+00
 -1      8313-1.54375E+01-2.73276E+01 0.00000E+00
 -1      8314-1.54375E+01-2.63103E+01 0.00000E+00
 -1      8315-1.54375E+01-2.52931E+01 0.00000E+00
 -1      8316-1.54375E+01-2.42759E+01 0.00000E+00
 -1      8317-1.54375E+01-2.32586E+01 0.00000E+00
 -1      8318-1.54375E+01-2.22414E+01 0.00000E+00
 -1      8319-1.54375E+01-2.12241E+01 0.00000E+00
 -1      8320-1.54375E+01-2.02069E+01 0.00000E+00
 -1      8321-1.54375E+01-1.91897E+01 0.00000E+00
 -1      8322-1.54375E+01-1.81724E+01 0.00000E+00
 -1      8323-1.54375E+01-1.71552E+01 0.00000E+00
 -1      8324-1.54375E+01-1.61379E+01 0.00000E+00
 -1      8325-1.54375E+01-1.51207E+01 0.00000E+00
 -1      8326-1.54375E+01-1.41034E+01 0.00000E+00
 -1      8327-1.54375E+01-1.30862E+01 0.00000E+00
 -1      8328-1.54375E+01-1.20690E+01 0.00000E+00
 -1      8329-1.54375E+01-1.10517E+01 0.00000E+00
 -1      8330-1.54375E+01-1.00345E+01 0.00000E+00
 -1      8331-1.54375E+01-9.01724E+00 0.00000E+00
 -1      8332-1.65000E+01-3.64828E+01 0.00000E+00
 -1      8333-1.65000E+01-3.54655E+01 0.00000E+00
 -1      8334-1.65000E+01-3.44483E+01 0.00000E+00
 -1      8335-1.65000E+01-3.34310E+01 0.00000E+00
 -1      8336-1.65000E+01-3.24138E+01 0.00000E+00
 -1      8337-1.65000E+01-3.13966E+01 0.00000E+00
 -1      8338-1.65000E+01-3.03793E+01 0.00000E+00
 -1      8339-1.65000E+01-2.93621E+01 0.00000E+00
 -1      8340-1.65000E+01-2.83448E+01 0.00000E+00
 -1      8341-1.65000E+01-2.73276E+01 0.00000E+00
 -1      8342-1.65000E+01-2.63103E+01 0.00000E+00
 -1      8343-1.65000E+01-2.52931E+01 0.00000E+00
 -1      8344-1.65000E+01-2.42759E+01 0.00000E+00
 -1      8345-1.65000E+01-2.32586E+01 0.00000E+00
 -1      8346-1.65000E+01-2.22414E+01 0.00000E+00
 -1      8347-1.65000E+01-2.12241E+01 0.00000E+00
 -1      8348-1.65000E+01-2.02069E+01 0.00000E+00
 -1      8349-1.65000E+01-1.91897E+01 0.00000E+00
 -1      8350-1.65000E+01-1.81724E+01 0.00000E+00
 -1      8351-1.65000E+01-1.71552E+01 0.00000E+00
 -1      8352-1.65000E+01-1.61379E+01 0.00000E+00
 -1      8353-1.65000E+01-1.51207E+01 0.00000E+00
 -1      8354-1.65000E+01-1.41034E+01 0.00000E+00
 -1      8355-1.65000E+01-1.30862E+01 0.00000E+00
 -1      8356-1.65000E+01-1.20690E+01 0.00000E+00
 -1      8357-1.65000E+01-1.10517E+01 0.00000E+00
 -1      8358-1.65000E+01-1.00345E+01 0.00000E+00
 -1      8359-1.65000E+01-9.01724E+00 0.00000E+00
 -1      8360-1.75625E+01-3.64828E+01 0.00000E+00
 -1      8361-1.75625E+01-3.54655E+01 0.00000E+00
 -1      8362-1.75625E+01-3.44483E+01 0.00000E+00
 -1      8363-1.75625E+01-3.34310E+01 0.00000E+00
 -1      8364-1.75625E+01-3.24138E+01 0.00000E+00
 -1      8365-1.75625E+01-3.13966E+01 0.00000E+00
 -1      8366-1.75625E+01-3.03793E+01 0.00000E+00
 -1      8367-1.75625E+01-2.93621E+01 0.00000E+00
 -1      8368-1.75625E+01-2.83448E+01 0.00000E+00
 -1      8369-1.75625E+01-2.73276E+01 0.00000E+00
 -1      8370-1.75625E+01-2.63103E+01 0.00000E+00
 -1      8371-1.75625E+01-2.52931E+01 0.00000E+00
 -1      8372-1.75625E+01-2.42759E+01 0.00000E+00
 -1      8373-1.75625E+01-2.32586E+01 0.00000E+00
 -1      8374-1.75625E+01-2.22414E+01 0.00000E+00
 -1      8375-1.75625E+01-2.12241E+01 0.00000E+00
 -1      8376-1.75625E+01-2.02069E+01 0.00000E+00
 -1      8377-1.75625E+01-1.91897E+01 0.00000E+00
 -1      8378-1.75625E+01-1.81724E+01 0.00000E+00
 -1      8379-1.75625E+01-1.71552E+01 0.00000E+00
 -1      8380-1.75625E+01-1.61379E+01 0.00000E+00
 -1      8381-1.75625E+01-1.51207E+01 0.00000E+00
 -1      8382-1.75625E+01-1.41034E+01 0.00000E+00
 -1      8383-1.75625E+01-1.30862E+01 0.00000E+00
 -1      8384-1.75625E+01-1.20690E+01 0.00000E+00
 -1      8385-1.75625E+01-1.10517E+01 0.00000E+00
 -1      8386-1.75625E+01-1.00345E+01 0.00000E+00
 -1      8387-1.75625E+01-9.01724E+00 0.00000E+00
 -1      8388-1.86250E+01-3.64828E+01 0.00000E+00
 -1      8389-1.86250E+01-3.54655E+01 0.00000E+00
 -1      8390-1.86250E+01-3.44483E+01 0.00000E+00
 -1      8391-1.86250E+01-3.34310E+01 0.00000E+00
 -1      8392-1.86250E+01-3.24138E+01 0.00000E+00
 -1      8393-1.86250E+01-3.13966E+01 0.00000E+00
 -1      8394-1.86250E+01-3.03793E+01 0.00000E+00
 -1      8395-1.86250E+01-2.93621E+01 0.00000E+00
 -1      8396-1.86250E+01-2.83448E+01 0.00000E+00
 -1      8397-1.86250E+01-2.73276E+01 0.00000E+00
 -1      8398-1.86250E+01-2.63103E+01 0.00000E+00
 -1      8399-1.86250E+01-2.52931E+01 0.00000E+00
 -1      8400-1.86250E+01-2.42759E+01 0.00000E+00
 -1      8401-1.86250E+01-2.32586E+01 0.00000E+00
 -1      8402-1.86250E+01-2.22414E+01 0.00000E+00
 -1      8403-1.86250E+01-2.12241E+01 0.00000E+00
 -1      8404-1.86250E+01-2.02069E+01 0.00000E+00
 -1      8405-1.86250E+01-1.91897E+01 0.00000E+00
 -1      8406-1.86250E+01-1.81724E+01 0.00000E+00
 -1      8407-1.86250E+01-1.71552E+01 0.00000E+00
 -1      8408-1.86250E+01-1.61379E+01 0.00000E+00
 -1      8409-1.86250E+01-1.51207E+01 0.00000E+00
 -1      8410-1.86250E+01-1.41034E+01 0.00000E+00
 -1      8411-1.86250E+01-1.30862E+01 0.00000E+00
 -1      8412-1.86250E+01-1.20690E+01 0.00000E+00
 -1      8413-1.86250E+01-1.10517E+01 0.00000E+00
 -1      8414-1.86250E+01-1.00345E+01 0.00000E+00
 -1      8415-1.86250E+01-9.01724E+00 0.00000E+00
 -1      8416-1.96875E+01-3.64828E+01 0.00000E+00
 -1      8417-1.96875E+01-3.54655E+01 0.00000E+00
 -1      8418-1.96875E+01-3.44483E+01 0.00000E+00
 -1      8419-1.96875E+01-3.34310E+01 0.00000E+00
 -1      8420-1.96875E+01-3.24138E+01 0.00000E+00
 -1      8421-1.96875E+01-3.13966E+01 0.00000E+00
 -1      8422-1.96875E+01-3.03793E+01 0.00000E+00
 -1      8423-1.96875E+01-2.93621E+01 0.00000E+00
 -1      8424-1.96875E+01-2.83448E+01 0.00000E+00
 -1      8425-1.96875E+01-2.73276E+01 0.00000E+00
 -1      8426-1.96875E+01-2.63103E+01 0.00000E+00
 -1      8427-1.96875E+01-2.52931E+01 0.00000E+00
 -1      8428-1.96875E+01-2.42759E+01 0.00000E+00
 -1      8429-1.96875E+01-2.32586E+01 0.00000E+00
 -1      8430-1.96875E+01-2.22414E+01 0.00000E+00
 -1      8431-1.96875E+01-2.12241E+01 0.00000E+00
 -1      8432-1.96875E+01-2.02069E+01 0.00000E+00
 -1      8433-1.96875E+01-1.91897E+01 0.00000E+00
 -1      8434-1.96875E+01-1.81724E+01 0.00000E+00
 -1      8435-1.96875E+01-1.71552E+01 0.00000E+00
 -1      8436-1.96875E+01-1.61379E+01 0.00000E+00
 -1      8437-1.96875E+01-1.51207E+01 0.00000E+00
 -1      8438-1.96875E+01-1.41034E+01 0.00000E+00
 -1      8439-1.96875E+01-1.30862E+01 0.00000E+00
 -1      8440-1.96875E+01-1.20690E+01 0.00000E+00
 -1      8441-1.96875E+01-1.10517E+01 0.00000E+00
 -1      8442-1.96875E+01-1.00345E+01 0.00000E+00
 -1      8443-1.96875E+01-9.01724E+00 0.00000E+00
 -1      8444-2.07500E+01-3.64828E+01 0.00000E+00
 -1      8445-2.07500E+01-3.54655E+01 0.00000E+00
 -1      8446-2.07500E+01-3.44483E+01 0.00000E+00
 -1      8447-2.07500E+01-3.34310E+01 0.00000E+00
 -1      8448-2.07500E+01-3.24138E+01 0.00000E+00
 -1      8449-2.07500E+01-3.13966E+01 0.00000E+00
 -1      8450-2.07500E+01-3.03793E+01 0.00000E+00
 -1      8451-2.07500E+01-2.93621E+01 0.00000E+00
 -1      8452-2.07500E+01-2.83448E+01 0.00000E+00
 -1      8453-2.07500E+01-2.73276E+01 0.00000E+00
 -1      8454-2.07500E+01-2.63103E+01 0.00000E+00
 -1      8455-2.07500E+01-2.52931E+01 0.00000E+00
 -1      8456-2.07500E+01-2.42759E+01 0.00000E+00
 -1      8457-2.07500E+01-2.32586E+01 0.00000E+00
 -1      8458-2.07500E+01-2.22414E+01 0.00000E+00
 -1      8459-2.07500E+01-2.12241E+01 0.00000E+00
 -1      8460-2.07500E+01-2.02069E+01 0.00000E+00
 -1      8461-2.07500E+01-1.91897E+01 0.00000E+00
 -1      8462-2.07500E+01-1.81724E+01 0.00000E+00
 -1      8463-2.07500E+01-1.71552E+01 0.00000E+00
 -1      8464-2.07500E+01-1.61379E+01 0.00000E+00
 -1      8465-2.07500E+01-1.51207E+01 0.00000E+00
 -1      8466-2.07500E+01-1.41034E+01 0.00000E+00
 -1      8467-2.07500E+01-1.30862E+01 0.00000E+00
 -1      8468-2.07500E+01-1.20690E+01 0.00000E+00
 -1      8469-2.07500E+01-1.10517E+01 0.00000E+00
 -1      8470-2.07500E+01-1.00345E+01 0.00000E+00
 -1      8471-2.07500E+01-9.01724E+00 0.00000E+00
 -1      8472-2.18125E+01-3.64828E+01 0.00000E+00
 -1      8473-2.18125E+01-3.54655E+01 0.00000E+00
 -1      8474-2.18125E+01-3.44483E+01 0.00000E+00
 -1      8475-2.18125E+01-3.34310E+01 0.00000E+00
 -1      8476-2.18125E+01-3.24138E+01 0.00000E+00
 -1      8477-2.18125E+01-3.13966E+01 0.00000E+00
 -1      8478-2.18125E+01-3.03793E+01 0.00000E+00
 -1      8479-2.18125E+01-2.93621E+01 0.00000E+00
 -1      8480-2.18125E+01-2.83448E+01 0.00000E+00
 -1      8481-2.18125E+01-2.73276E+01 0.00000E+00
 -1      8482-2.18125E+01-2.63103E+01 0.00000E+00
 -1      8483-2.18125E+01-2.52931E+01 0.00000E+00
 -1      8484-2.18125E+01-2.42759E+01 0.00000E+00
 -1      8485-2.18125E+01-2.32586E+01 0.00000E+00
 -1      8486-2.18125E+01-2.22414E+01 0.00000E+00
 -1      8487-2.18125E+01-2.12241E+01 0.00000E+00
 -1      8488-2.18125E+01-2.02069E+01 0.00000E+00
 -1      8489-2.18125E+01-1.91897E+01 0.00000E+00
 -1      8490-2.18125E+01-1.81724E+01 0.00000E+00
 -1      8491-2.18125E+01-1.71552E+01 0.00000E+00
 -1      8492-2.18125E+01-1.61379E+01 0.00000E+00
 -1      8493-2.18125E+01-1.51207E+01 0.00000E+00
 -1      8494-2.18125E+01-1.41034E+01 0.00000E+00
 -1      8495-2.18125E+01-1.30862E+01 0.00000E+00
 -1      8496-2.18125E+01-1.20690E+01 0.00000E+00
 -1      8497-2.18125E+01-1.10517E+01 0.00000E+00
 -1      8498-2.18125E+01-1.00345E+01 0.00000E+00
 -1      8499-2.18125E+01-9.01724E+00 0.00000E+00
 -1      8500-2.28750E+01-3.64828E+01 0.00000E+00
 -1      8501-2.28750E+01-3.54655E+01 0.00000E+00
 -1      8502-2.28750E+01-3.44483E+01 0.00000E+00
 -1      8503-2.28750E+01-3.34310E+01 0.00000E+00
 -1      8504-2.28750E+01-3.24138E+01 0.00000E+00
 -1      8505-2.28750E+01-3.13966E+01 0.00000E+00
 -1      8506-2.28750E+01-3.03793E+01 0.00000E+00
 -1      8507-2.28750E+01-2.93621E+01 0.00000E+00
 -1      8508-2.28750E+01-2.83448E+01 0.00000E+00
 -1      8509-2.28750E+01-2.73276E+01 0.00000E+00
 -1      8510-2.28750E+01-2.63103E+01 0.00000E+00
 -1      8511-2.28750E+01-2.52931E+01 0.00000E+00
 -1      8512-2.28750E+01-2.42759E+01 0.00000E+00
 -1      8513-2.28750E+01-2.32586E+01 0.00000E+00
 -1      8514-2.28750E+01-2.22414E+01 0.00000E+00
 -1      8515-2.28750E+01-2.12241E+01 0.00000E+00
 -1      8516-2.28750E+01-2.02069E+01 0.00000E+00
 -1      8517-2.28750E+01-1.91897E+01 0.00000E+00
 -1      8518-2.28750E+01-1.81724E+01 0.00000E+00
 -1      8519-2.28750E+01-1.71552E+01 0.00000E+00
 -1      8520-2.28750E+01-1.61379E+01 0.00000E+00
 -1      8521-2.28750E+01-1.51207E+01 0.00000E+00
 -1      8522-2.28750E+01-1.41034E+01 0.00000E+00
 -1      8523-2.28750E+01-1.30862E+01 0.00000E+00
 -1      8524-2.28750E+01-1.20690E+01 0.00000E+00
 -1      8525-2.28750E+01-1.10517E+01 0.00000E+00
 -1      8526-2.28750E+01-1.00345E+01 0.00000E+00
 -1      8527-2.28750E+01-9.01724E+00 0.00000E+00
 -1      8528-2.39375E+01-3.64828E+01 0.00000E+00
 -1      8529-2.39375E+01-3.54655E+01 0.00000E+00
 -1      8530-2.39375E+01-3.44483E+01 0.00000E+00
 -1      8531-2.39375E+01-3.34310E+01 0.00000E+00
 -1      8532-2.39375E+01-3.24138E+01 0.00000E+00
 -1      8533-2.39375E+01-3.13966E+01 0.00000E+00
 -1      8534-2.39375E+01-3.03793E+01 0.00000E+00
 -1      8535-2.39375E+01-2.93621E+01 0.00000E+00
 -1      8536-2.39375E+01-2.83448E+01 0.00000E+00
 -1      8537-2.39375E+01-2.73276E+01 0.00000E+00
 -1      8538-2.39375E+01-2.63103E+01 0.00000E+00
 -1      8539-2.39375E+01-2.52931E+01 0.00000E+00
 -1      8540-2.39375E+01-2.42759E+01 0.00000E+00
 -1      8541-2.39375E+01-2.32586E+01 0.00000E+00
 -1      8542-2.39375E+01-2.22414E+01 0.00000E+00
 -1      8543-2.39375E+01-2.12241E+01 0.00000E+00
 -1      8544-2.39375E+01-2.02069E+01 0.00000E+00
 -1      8545-2.39375E+01-1.91897E+01 0.00000E+00
 -1      8546-2.39375E+01-1.81724E+01 0.00000E+00
 -1      8547-2.39375E+01-1.71552E+01 0.00000E+00
 -1      8548-2.39375E+01-1.61379E+01 0.00000E+00
 -1      8549-2.39375E+01-1.51207E+01 0.00000E+00
 -1      8550-2.39375E+01-1.41034E+01 0.00000E+00
 -1      8551-2.39375E+01-1.30862E+01 0.00000E+00
 -1      8552-2.39375E+01-1.20690E+01 0.00000E+00
 -1      8553-2.39375E+01-1.10517E+01 0.00000E+00
 -1      8554-2.39375E+01-1.00345E+01 0.00000E+00
 -1      8555-2.39375E+01-9.01724E+00 0.00000E+00
 -1      8556-8.53125E+00-3.64828E+01 0.00000E+00
 -1      8557-9.06250E+00-3.69914E+01 0.00000E+00
 -1      8558-8.53125E+00-3.54655E+01 0.00000E+00
 -1      8559-9.06250E+00-3.59741E+01 0.00000E+00
 -1      8560-8.53125E+00-3.44483E+01 0.00000E+00
 -1      8561-9.06250E+00-3.49569E+01 0.00000E+00
 -1      8562-8.53125E+00-3.34310E+01 0.00000E+00
 -1      8563-9.06250E+00-3.39397E+01 0.00000E+00
 -1      8564-8.53125E+00-3.24138E+01 0.00000E+00
 -1      8565-9.06250E+00-3.29224E+01 0.00000E+00
 -1      8566-8.53125E+00-3.13966E+01 0.00000E+00
 -1      8567-9.06250E+00-3.19052E+01 0.00000E+00
 -1      8568-8.53125E+00-3.03793E+01 0.00000E+00
 -1      8569-9.06250E+00-3.08879E+01 0.00000E+00
 -1      8570-8.53125E+00-2.93621E+01 0.00000E+00
 -1      8571-9.06250E+00-2.98707E+01 0.00000E+00
 -1      8572-8.53125E+00-2.83448E+01 0.00000E+00
 -1      8573-9.06250E+00-2.88534E+01 0.00000E+00
 -1      8574-8.53125E+00-2.73276E+01 0.00000E+00
 -1      8575-9.06250E+00-2.78362E+01 0.00000E+00
 -1      8576-8.53125E+00-2.63103E+01 0.00000E+00
 -1      8577-9.06250E+00-2.68190E+01 0.00000E+00
 -1      8578-8.53125E+00-2.52931E+01 0.00000E+00
 -1      8579-9.06250E+00-2.58017E+01 0.00000E+00
 -1      8580-8.53125E+00-2.42759E+01 0.00000E+00
 -1      8581-9.06250E+00-2.47845E+01 0.00000E+00
 -1      8582-8.53125E+00-2.32586E+01 0.00000E+00
 -1      8583-9.06250E+00-2.37672E+01 0.00000E+00
 -1      8584-8.53125E+00-2.22414E+01 0.00000E+00
 -1      8585-9.06250E+00-2.27500E+01 0.00000E+00
 -1      8586-8.53125E+00-2.12241E+01 0.00000E+00
 -1      8587-9.06250E+00-2.17328E+01 0.00000E+00
 -1      8588-8.53125E+00-2.02069E+01 0.00000E+00
 -1      8589-9.06250E+00-2.07155E+01 0.00000E+00
 -1      8590-8.53125E+00-1.91897E+01 0.00000E+00
 -1      8591-9.06250E+00-1.96983E+01 0.00000E+00
 -1      8592-8.53125E+00-1.81724E+01 0.00000E+00
 -1      8593-9.06250E+00-1.86810E+01 0.00000E+00
 -1      8594-8.53125E+00-1.71552E+01 0.00000E+00
 -1      8595-9.06250E+00-1.76638E+01 0.00000E+00
 -1      8596-8.53125E+00-1.61379E+01 0.00000E+00
 -1      8597-9.06250E+00-1.66466E+01 0.00000E+00
 -1      8598-8.53125E+00-1.51207E+01 0.00000E+00
 -1      8599-9.06250E+00-1.56293E+01 0.00000E+00
 -1      8600-8.53125E+00-1.41034E+01 0.00000E+00
 -1      8601-9.06250E+00-1.46121E+01 0.00000E+00
 -1      8602-8.53125E+00-1.30862E+01 0.00000E+00
 -1      8603-9.06250E+00-1.35948E+01 0.00000E+00
 -1      8604-8.53125E+00-1.20690E+01 0.00000E+00
 -1      8605-9.06250E+00-1.25776E+01 0.00000E+00
 -1      8606-8.53125E+00-1.10517E+01 0.00000E+00
 -1      8607-9.06250E+00-1.15603E+01 0.00000E+00
 -1      8608-8.53125E+00-1.00345E+01 0.00000E+00
 -1      8609-9.06250E+00-1.05431E+01 0.00000E+00
 -1      8610-8.53125E+00-9.01724E+00 0.00000E+00
 -1      8611-9.06250E+00-9.52586E+00 0.00000E+00
 -1      8612-9.06250E+00-8.50862E+00 0.00000E+00
 -1      8613-9.59375E+00-3.64828E+01 0.00000E+00
 -1      8614-1.01250E+01-3.69914E+01 0.00000E+00
 -1      8615-9.59375E+00-3.54655E+01 0.00000E+00
 -1      8616-1.01250E+01-3.59741E+01 0.00000E+00
 -1      8617-9.59375E+00-3.44483E+01 0.00000E+00
 -1      8618-1.01250E+01-3.49569E+01 0.00000E+00
 -1      8619-9.59375E+00-3.34310E+01 0.00000E+00
 -1      8620-1.01250E+01-3.39397E+01 0.00000E+00
 -1      8621-9.59375E+00-3.24138E+01 0.00000E+00
 -1      8622-1.01250E+01-3.29224E+01 0.00000E+00
 -1      8623-9.59375E+00-3.13966E+01 0.00000E+00
 -1      8624-1.01250E+01-3.19052E+01 0.00000E+00
 -1      8625-9.59375E+00-3.03793E+01 0.00000E+00
 -1      8626-1.01250E+01-3.08879E+01 0.00000E+00
 -1      8627-9.59375E+00-2.93621E+01 0.00000E+00
 -1      8628-1.01250E+01-2.98707E+01 0.00000E+00
 -1      8629-9.59375E+00-2.83448E+01 0.00000E+00
 -1      8630-1.01250E+01-2.88534E+01 0.00000E+00
 -1      8631-9.59375E+00-2.73276E+01 0.00000E+00
 -1      8632-1.01250E+01-2.78362E+01 0.00000E+00
 -1      8633-9.59375E+00-2.63103E+01 0.00000E+00
 -1      8634-1.01250E+01-2.68190E+01 0.00000E+00
 -1      8635-9.59375E+00-2.52931E+01 0.00000E+00
 -1      8636-1.01250E+01-2.58017E+01 0.00000E+00
 -1      8637-9.59375E+00-2.42759E+01 0.00000E+00
 -1      8638-1.01250E+01-2.47845E+01 0.00000E+00
 -1      8639-9.59375E+00-2.32586E+01 0.00000E+00
 -1      8640-1.01250E+01-2.37672E+01 0.00000E+00
 -1      8641-9.59375E+00-2.22414E+01 0.00000E+00
 -1      8642-1.01250E+01-2.27500E+01 0.00000E+00
 -1      8643-9.59375E+00-2.12241E+01 0.00000E+00
 -1      8644-1.01250E+01-2.17328E+01 0.00000E+00
 -1      8645-9.59375E+00-2.02069E+01 0.00000E+00
 -1      8646-1.01250E+01-2.07155E+01 0.00000E+00
 -1      8647-9.59375E+00-1.91897E+01 0.00000E+00
 -1      8648-1.01250E+01-1.96983E+01 0.00000E+00
 -1      8649-9.59375E+00-1.81724E+01 0.00000E+00
 -1      8650-1.01250E+01-1.86810E+01 0.00000E+00
 -1      8651-9.59375E+00-1.71552E+01 0.00000E+00
 -1      8652-1.01250E+01-1.76638E+01 0.00000E+00
 -1      8653-9.59375E+00-1.61379E+01 0.00000E+00
 -1      8654-1.01250E+01-1.66466E+01 0.00000E+00
 -1      8655-9.59375E+00-1.51207E+01 0.00000E+00
 -1      8656-1.01250E+01-1.56293E+01 0.00000E+00
 -1      8657-9.59375E+00-1.41034E+01 0.00000E+00
 -1      8658-1.01250E+01-1.46121E+01 0.00000E+00
 -1      8659-9.59375E+00-1.30862E+01 0.00000E+00
 -1      8660-1.01250E+01-1.35948E+01 0.00000E+00
 -1      8661-9.59375E+00-1.20690E+01 0.00000E+00
 -1      8662-1.01250E+01-1.25776E+01 0.00000E+00
 -1      8663-9.59375E+00-1.10517E+01 0.00000E+00
 -1      8664-1.01250E+01-1.15603E+01 0.00000E+00
 -1      8665-9.59375E+00-1.00345E+01 0.00000E+00
 -1      8666-1.01250E+01-1.05431E+01 0.00000E+00
 -1      8667-9.59375E+00-9.01724E+00 0.00000E+00
 -1      8668-1.01250E+01-9.52586E+00 0.00000E+00
 -1      8669-1.01250E+01-8.50862E+00 0.00000E+00
 -1      8670-1.06562E+01-3.64828E+01 0.00000E+00
 -1      8671-1.11875E+01-3.69914E+01 0.00000E+00
 -1      8672-1.06562E+01-3.54655E+01 0.00000E+00
 -1      8673-1.11875E+01-3.59741E+01 0.00000E+00
 -1      8674-1.06562E+01-3.44483E+01 0.00000E+00
 -1      8675-1.11875E+01-3.49569E+01 0.00000E+00
 -1      8676-1.06562E+01-3.34310E+01 0.00000E+00
 -1      8677-1.11875E+01-3.39397E+01 0.00000E+00
 -1      8678-1.06562E+01-3.24138E+01 0.00000E+00
 -1      8679-1.11875E+01-3.29224E+01 0.00000E+00
 -1      8680-1.06562E+01-3.13966E+01 0.00000E+00
 -1      8681-1.11875E+01-3.19052E+01 0.00000E+00
 -1      8682-1.06562E+01-3.03793E+01 0.00000E+00
 -1      8683-1.11875E+01-3.08879E+01 0.00000E+00
 -1      8684-1.06562E+01-2.93621E+01 0.00000E+00
 -1      8685-1.11875E+01-2.98707E+01 0.00000E+00
 -1      8686-1.06562E+01-2.83448E+01 0.00000E+00
 -1      8687-1.11875E+01-2.88534E+01 0.00000E+00
 -1      8688-1.06562E+01-2.73276E+01 0.00000E+00
 -1      8689-1.11875E+01-2.78362E+01 0.00000E+00
 -1      8690-1.06562E+01-2.63103E+01 0.00000E+00
 -1      8691-1.11875E+01-2.68190E+01 0.00000E+00
 -1      8692-1.06562E+01-2.52931E+01 0.00000E+00
 -1      8693-1.11875E+01-2.58017E+01 0.00000E+00
 -1      8694-1.06562E+01-2.42759E+01 0.00000E+00
 -1      8695-1.11875E+01-2.47845E+01 0.00000E+00
 -1      8696-1.06562E+01-2.32586E+01 0.00000E+00
 -1      8697-1.11875E+01-2.37672E+01 0.00000E+00
 -1      8698-1.06562E+01-2.22414E+01 0.00000E+00
 -1      8699-1.11875E+01-2.27500E+01 0.00000E+00
 -1      8700-1.06562E+01-2.12241E+01 0.00000E+00
 -1      8701-1.11875E+01-2.17328E+01 0.00000E+00
 -1      8702-1.06562E+01-2.02069E+01 0.00000E+00
 -1      8703-1.11875E+01-2.07155E+01 0.00000E+00
 -1      8704-1.06562E+01-1.91897E+01 0.00000E+00
 -1      8705-1.11875E+01-1.96983E+01 0.00000E+00
 -1      8706-1.06562E+01-1.81724E+01 0.00000E+00
 -1      8707-1.11875E+01-1.86810E+01 0.00000E+00
 -1      8708-1.06562E+01-1.71552E+01 0.00000E+00
 -1      8709-1.11875E+01-1.76638E+01 0.00000E+00
 -1      8710-1.06562E+01-1.61379E+01 0.00000E+00
 -1      8711-1.11875E+01-1.66466E+01 0.00000E+00
 -1      8712-1.06562E+01-1.51207E+01 0.00000E+00
 -1      8713-1.11875E+01-1.56293E+01 0.00000E+00
 -1      8714-1.06562E+01-1.41034E+01 0.00000E+00
 -1      8715-1.11875E+01-1.46121E+01 0.00000E+00
 -1      8716-1.06562E+01-1.30862E+01 0.00000E+00
 -1      8717-1.11875E+01-1.35948E+01 0.00000E+00
 -1      8718-1.06562E+01-1.20690E+01 0.00000E+00
 -1      8719-1.11875E+01-1.25776E+01 0.00000E+00
 -1      8720-1.06562E+01-1.10517E+01 0.00000E+00
 -1      8721-1.11875E+01-1.15603E+01 0.00000E+00
 -1      8722-1.06562E+01-1.00345E+01 0.00000E+00
 -1      8723-1.11875E+01-1.05431E+01 0.00000E+00
 -1      8724-1.06562E+01-9.01724E+00 0.00000E+00
 -1      8725-1.11875E+01-9.52586E+00 0.00000E+00
 -1      8726-1.11875E+01-8.50862E+00 0.00000E+00
 -1      8727-1.17188E+01-3.64828E+01 0.00000E+00
 -1      8728-1.22500E+01-3.69914E+01 0.00000E+00
 -1      8729-1.17188E+01-3.54655E+01 0.00000E+00
 -1      8730-1.22500E+01-3.59741E+01 0.00000E+00
 -1      8731-1.17188E+01-3.44483E+01 0.00000E+00
 -1      8732-1.22500E+01-3.49569E+01 0.00000E+00
 -1      8733-1.17188E+01-3.34310E+01 0.00000E+00
 -1      8734-1.22500E+01-3.39397E+01 0.00000E+00
 -1      8735-1.17188E+01-3.24138E+01 0.00000E+00
 -1      8736-1.22500E+01-3.29224E+01 0.00000E+00
 -1      8737-1.17188E+01-3.13966E+01 0.00000E+00
 -1      8738-1.22500E+01-3.19052E+01 0.00000E+00
 -1      8739-1.17188E+01-3.03793E+01 0.00000E+00
 -1      8740-1.22500E+01-3.08879E+01 0.00000E+00
 -1      8741-1.17188E+01-2.93621E+01 0.00000E+00
 -1      8742-1.22500E+01-2.98707E+01 0.00000E+00
 -1      8743-1.17188E+01-2.83448E+01 0.00000E+00
 -1      8744-1.22500E+01-2.88534E+01 0.00000E+00
 -1      8745-1.17188E+01-2.73276E+01 0.00000E+00
 -1      8746-1.22500E+01-2.78362E+01 0.00000E+00
 -1      8747-1.17188E+01-2.63103E+01 0.00000E+00
 -1      8748-1.22500E+01-2.68190E+01 0.00000E+00
 -1      8749-1.17188E+01-2.52931E+01 0.00000E+00
 -1      8750-1.22500E+01-2.58017E+01 0.00000E+00
 -1      8751-1.17188E+01-2.42759E+01 0.00000E+00
 -1      8752-1.22500E+01-2.47845E+01 0.00000E+00
 -1      8753-1.17188E+01-2.32586E+01 0.00000E+00
 -1      8754-1.22500E+01-2.37672E+01 0.00000E+00
 -1      8755-1.17188E+01-2.22414E+01 0.00000E+00
 -1      8756-1.22500E+01-2.27500E+01 0.00000E+00
 -1      8757-1.17188E+01-2.12241E+01 0.00000E+00
 -1      8758-1.22500E+01-2.17328E+01 0.00000E+00
 -1      8759-1.17188E+01-2.02069E+01 0.00000E+00
 -1      8760-1.22500E+01-2.07155E+01 0.00000E+00
 -1      8761-1.17188E+01-1.91897E+01 0.00000E+00
 -1      8762-1.22500E+01-1.96983E+01 0.00000E+00
 -1      8763-1.17188E+01-1.81724E+01 0.00000E+00
 -1      8764-1.22500E+01-1.86810E+01 0.00000E+00
 -1      8765-1.17188E+01-1.71552E+01 0.00000E+00
 -1      8766-1.22500E+01-1.76638E+01 0.00000E+00
 -1      8767-1.17188E+01-1.61379E+01 0.00000E+00
 -1      8768-1.22500E+01-1.66466E+01 0.00000E+00
 -1      8769-1.17188E+01-1.51207E+01 0.00000E+00
 -1      8770-1.22500E+01-1.56293E+01 0.00000E+00
 -1      8771-1.17188E+01-1.41034E+01 0.00000E+00
 -1      8772-1.22500E+01-1.46121E+01 0.00000E+00
 -1      8773-1.17188E+01-1.30862E+01 0.00000E+00
 -1      8774-1.22500E+01-1.35948E+01 0.00000E+00
 -1      8775-1.17188E+01-1.20690E+01 0.00000E+00
 -1      8776-1.22500E+01-1.25776E+01 0.00000E+00
 -1      8777-1.17188E+01-1.10517E+01 0.00000E+00
 -1      8778-1.22500E+01-1.15603E+01 0.00000E+00
 -1      8779-1.17188E+01-1.00345E+01 0.00000E+00
 -1      8780-1.22500E+01-1.05431E+01 0.00000E+00
 -1      8781-1.17188E+01-9.01724E+00 0.00000E+00
 -1      8782-1.22500E+01-9.52586E+00 0.00000E+00
 -1      8783-1.22500E+01-8.50862E+00 0.00000E+00
 -1      8784-1.27812E+01-3.64828E+01 0.00000E+00
 -1      8785-1.33125E+01-3.69914E+01 0.00000E+00
 -1      8786-1.27812E+01-3.54655E+01 0.00000E+00
 -1      8787-1.33125E+01-3.59741E+01 0.00000E+00
 -1      8788-1.27812E+01-3.44483E+01 0.00000E+00
 -1      8789-1.33125E+01-3.49569E+01 0.00000E+00
 -1      8790-1.27812E+01-3.34310E+01 0.00000E+00
 -1      8791-1.33125E+01-3.39397E+01 0.00000E+00
 -1      8792-1.27812E+01-3.24138E+01 0.00000E+00
 -1      8793-1.33125E+01-3.29224E+01 0.00000E+00
 -1      8794-1.27812E+01-3.13966E+01 0.00000E+00
 -1      8795-1.33125E+01-3.19052E+01 0.00000E+00
 -1      8796-1.27812E+01-3.03793E+01 0.00000E+00
 -1      8797-1.33125E+01-3.08879E+01 0.00000E+00
 -1      8798-1.27812E+01-2.93621E+01 0.00000E+00
 -1      8799-1.33125E+01-2.98707E+01 0.00000E+00
 -1      8800-1.27812E+01-2.83448E+01 0.00000E+00
 -1      8801-1.33125E+01-2.88534E+01 0.00000E+00
 -1      8802-1.27812E+01-2.73276E+01 0.00000E+00
 -1      8803-1.33125E+01-2.78362E+01 0.00000E+00
 -1      8804-1.27812E+01-2.63103E+01 0.00000E+00
 -1      8805-1.33125E+01-2.68190E+01 0.00000E+00
 -1      8806-1.27812E+01-2.52931E+01 0.00000E+00
 -1      8807-1.33125E+01-2.58017E+01 0.00000E+00
 -1      8808-1.27812E+01-2.42759E+01 0.00000E+00
 -1      8809-1.33125E+01-2.47845E+01 0.00000E+00
 -1      8810-1.27812E+01-2.32586E+01 0.00000E+00
 -1      8811-1.33125E+01-2.37672E+01 0.00000E+00
 -1      8812-1.27812E+01-2.22414E+01 0.00000E+00
 -1      8813-1.33125E+01-2.27500E+01 0.00000E+00
 -1      8814-1.27812E+01-2.12241E+01 0.00000E+00
 -1      8815-1.33125E+01-2.17328E+01 0.00000E+00
 -1      8816-1.27812E+01-2.02069E+01 0.00000E+00
 -1      8817-1.33125E+01-2.07155E+01 0.00000E+00
 -1      8818-1.27812E+01-1.91897E+01 0.00000E+00
 -1      8819-1.33125E+01-1.96983E+01 0.00000E+00
 -1      8820-1.27812E+01-1.81724E+01 0.00000E+00
 -1      8821-1.33125E+01-1.86810E+01 0.00000E+00
 -1      8822-1.27812E+01-1.71552E+01 0.00000E+00
 -1      8823-1.33125E+01-1.76638E+01 0.00000E+00
 -1      8824-1.27812E+01-1.61379E+01 0.00000E+00
 -1      8825-1.33125E+01-1.66466E+01 0.00000E+00
 -1      8826-1.27812E+01-1.51207E+01 0.00000E+00
 -1      8827-1.33125E+01-1.56293E+01 0.00000E+00
 -1      8828-1.27812E+01-1.41034E+01 0.00000E+00
 -1      8829-1.33125E+01-1.46121E+01 0.00000E+00
 -1      8830-1.27812E+01-1.30862E+01 0.00000E+00
 -1      8831-1.33125E+01-1.35948E+01 0.00000E+00
 -1      8832-1.27812E+01-1.20690E+01 0.00000E+00
 -1      8833-1.33125E+01-1.25776E+01 0.00000E+00
 -1      8834-1.27812E+01-1.10517E+01 0.00000E+00
 -1      8835-1.33125E+01-1.15603E+01 0.00000E+00
 -1      8836-1.27812E+01-1.00345E+01 0.00000E+00
 -1      8837-1.33125E+01-1.05431E+01 0.00000E+00
 -1      8838-1.27812E+01-9.01724E+00 0.00000E+00
 -1      8839-1.33125E+01-9.52586E+00 0.00000E+00
 -1      8840-1.33125E+01-8.50862E+00 0.00000E+00
 -1      8841-1.38438E+01-3.64828E+01 0.00000E+00
 -1      8842-1.43750E+01-3.69914E+01 0.00000E+00
 -1      8843-1.38438E+01-3.54655E+01 0.00000E+00
 -1      8844-1.43750E+01-3.59741E+01 0.00000E+00
 -1      8845-1.38438E+01-3.44483E+01 0.00000E+00
 -1      8846-1.43750E+01-3.49569E+01 0.00000E+00
 -1      8847-1.38438E+01-3.34310E+01 0.00000E+00
 -1      8848-1.43750E+01-3.39397E+01 0.00000E+00
 -1      8849-1.38438E+01-3.24138E+01 0.00000E+00
 -1      8850-1.43750E+01-3.29224E+01 0.00000E+00
 -1      8851-1.38438E+01-3.13966E+01 0.00000E+00
 -1      8852-1.43750E+01-3.19052E+01 0.00000E+00
 -1      8853-1.38438E+01-3.03793E+01 0.00000E+00
 -1      8854-1.43750E+01-3.08879E+01 0.00000E+00
 -1      8855-1.38438E+01-2.93621E+01 0.00000E+00
 -1      8856-1.43750E+01-2.98707E+01 0.00000E+00
 -1      8857-1.38438E+01-2.83448E+01 0.00000E+00
 -1      8858-1.43750E+01-2.88534E+01 0.00000E+00
 -1      8859-1.38438E+01-2.73276E+01 0.00000E+00
 -1      8860-1.43750E+01-2.78362E+01 0.00000E+00
 -1      8861-1.38438E+01-2.63103E+01 0.00000E+00
 -1      8862-1.43750E+01-2.68190E+01 0.00000E+00
 -1      8863-1.38438E+01-2.52931E+01 0.00000E+00
 -1      8864-1.43750E+01-2.58017E+01 0.00000E+00
 -1      8865-1.38438E+01-2.42759E+01 0.00000E+00
 -1      8866-1.43750E+01-2.47845E+01 0.00000E+00
 -1      8867-1.38438E+01-2.32586E+01 0.00000E+00
 -1      8868-1.43750E+01-2.37672E+01 0.00000E+00
 -1      8869-1.38438E+01-2.22414E+01 0.00000E+00
 -1      8870-1.43750E+01-2.27500E+01 0.00000E+00
 -1      8871-1.38438E+01-2.12241E+01 0.00000E+00
 -1      8872-1.43750E+01-2.17328E+01 0.00000E+00
 -1      8873-1.38438E+01-2.02069E+01 0.00000E+00
 -1      8874-1.43750E+01-2.07155E+01 0.00000E+00
 -1      8875-1.38438E+01-1.91897E+01 0.00000E+00
 -1      8876-1.43750E+01-1.96983E+01 0.00000E+00
 -1      8877-1.38438E+01-1.81724E+01 0.00000E+00
 -1      8878-1.43750E+01-1.86810E+01 0.00000E+00
 -1      8879-1.38438E+01-1.71552E+01 0.00000E+00
 -1      8880-1.43750E+01-1.76638E+01 0.00000E+00
 -1      8881-1.38438E+01-1.61379E+01 0.00000E+00
 -1      8882-1.43750E+01-1.66466E+01 0.00000E+00
 -1      8883-1.38438E+01-1.51207E+01 0.00000E+00
 -1      8884-1.43750E+01-1.56293E+01 0.00000E+00
 -1      8885-1.38438E+01-1.41034E+01 0.00000E+00
 -1      8886-1.43750E+01-1.46121E+01 0.00000E+00
 -1      8887-1.38438E+01-1.30862E+01 0.00000E+00
 -1      8888-1.43750E+01-1.35948E+01 0.00000E+00
 -1      8889-1.38438E+01-1.20690E+01 0.00000E+00
 -1      8890-1.43750E+01-1.25776E+01 0.00000E+00
 -1      8891-1.38438E+01-1.10517E+01 0.00000E+00
 -1      8892-1.43750E+01-1.15603E+01 0.00000E+00
 -1      8893-1.38438E+01-1.00345E+01 0.00000E+00
 -1      8894-1.43750E+01-1.05431E+01 0.00000E+00
 -1      8895-1.38438E+01-9.01724E+00 0.00000E+00
 -1      8896-1.43750E+01-9.52586E+00 0.00000E+00
 -1      8897-1.43750E+01-8.50862E+00 0.00000E+00
 -1      8898-1.49062E+01-3.64828E+01 0.00000E+00
 -1      8899-1.54375E+01-3.69914E+01 0.00000E+00
 -1      8900-1.49062E+01-3.54655E+01 0.00000E+00
 -1      8901-1.54375E+01-3.59741E+01 0.00000E+00
 -1      8902-1.49062E+01-3.44483E+01 0.00000E+00
 -1      8903-1.54375E+01-3.49569E+01 0.00000E+00
 -1      8904-1.49062E+01-3.34310E+01 0.00000E+00
 -1      8905-1.54375E+01-3.39397E+01 0.00000E+00
 -1      8906-1.49062E+01-3.24138E+01 0.00000E+00
 -1      8907-1.54375E+01-3.29224E+01 0.00000E+00
 -1      8908-1.49062E+01-3.13966E+01 0.00000E+00
 -1      8909-1.54375E+01-3.19052E+01 0.00000E+00
 -1      8910-1.49062E+01-3.03793E+01 0.00000E+00
 -1      8911-1.54375E+01-3.08879E+01 0.00000E+00
 -1      8912-1.49062E+01-2.93621E+01 0.00000E+00
 -1      8913-1.54375E+01-2.98707E+01 0.00000E+00
 -1      8914-1.49062E+01-2.83448E+01 0.00000E+00
 -1      8915-1.54375E+01-2.88534E+01 0.00000E+00
 -1      8916-1.49062E+01-2.73276E+01 0.00000E+00
 -1      8917-1.54375E+01-2.78362E+01 0.00000E+00
 -1      8918-1.49062E+01-2.63103E+01 0.00000E+00
 -1      8919-1.54375E+01-2.68190E+01 0.00000E+00
 -1      8920-1.49062E+01-2.52931E+01 0.00000E+00
 -1      8921-1.54375E+01-2.58017E+01 0.00000E+00
 -1      8922-1.49062E+01-2.42759E+01 0.00000E+00
 -1      8923-1.54375E+01-2.47845E+01 0.00000E+00
 -1      8924-1.49062E+01-2.32586E+01 0.00000E+00
 -1      8925-1.54375E+01-2.37672E+01 0.00000E+00
 -1      8926-1.49062E+01-2.22414E+01 0.00000E+00
 -1      8927-1.54375E+01-2.27500E+01 0.00000E+00
 -1      8928-1.49062E+01-2.12241E+01 0.00000E+00
 -1      8929-1.54375E+01-2.17328E+01 0.00000E+00
 -1      8930-1.49062E+01-2.02069E+01 0.00000E+00
 -1      8931-1.54375E+01-2.07155E+01 0.00000E+00
 -1      8932-1.49062E+01-1.91897E+01 0.00000E+00
 -1      8933-1.54375E+01-1.96983E+01 0.00000E+00
 -1      8934-1.49062E+01-1.81724E+01 0.00000E+00
 -1      8935-1.54375E+01-1.86810E+01 0.00000E+00
 -1      8936-1.49062E+01-1.71552E+01 0.00000E+00
 -1      8937-1.54375E+01-1.76638E+01 0.00000E+00
 -1      8938-1.49062E+01-1.61379E+01 0.00000E+00
 -1      8939-1.54375E+01-1.66466E+01 0.00000E+00
 -1      8940-1.49062E+01-1.51207E+01 0.00000E+00
 -1      8941-1.54375E+01-1.56293E+01 0.00000E+00
 -1      8942-1.49062E+01-1.41034E+01 0.00000E+00
 -1      8943-1.54375E+01-1.46121E+01 0.00000E+00
 -1      8944-1.49062E+01-1.30862E+01 0.00000E+00
 -1      8945-1.54375E+01-1.35948E+01 0.00000E+00
 -1      8946-1.49062E+01-1.20690E+01 0.00000E+00
 -1      8947-1.54375E+01-1.25776E+01 0.00000E+00
 -1      8948-1.49062E+01-1.10517E+01 0.00000E+00
 -1      8949-1.54375E+01-1.15603E+01 0.00000E+00
 -1      8950-1.49062E+01-1.00345E+01 0.00000E+00
 -1      8951-1.54375E+01-1.05431E+01 0.00000E+00
 -1      8952-1.49062E+01-9.01724E+00 0.00000E+00
 -1      8953-1.54375E+01-9.52586E+00 0.00000E+00
 -1      8954-1.54375E+01-8.50862E+00 0.00000E+00
 -1      8955-1.59688E+01-3.64828E+01 0.00000E+00
 -1      8956-1.65000E+01-3.69914E+01 0.00000E+00
 -1      8957-1.59688E+01-3.54655E+01 0.00000E+00
 -1      8958-1.65000E+01-3.59741E+01 0.00000E+00
 -1      8959-1.59688E+01-3.44483E+01 0.00000E+00
 -1      8960-1.65000E+01-3.49569E+01 0.00000E+00
 -1      8961-1.59688E+01-3.34310E+01 0.00000E+00
 -1      8962-1.65000E+01-3.39397E+01 0.00000E+00
 -1      8963-1.59688E+01-3.24138E+01 0.00000E+00
 -1      8964-1.65000E+01-3.29224E+01 0.00000E+00
 -1      8965-1.59688E+01-3.13966E+01 0.00000E+00
 -1      8966-1.65000E+01-3.19052E+01 0.00000E+00
 -1      8967-1.59688E+01-3.03793E+01 0.00000E+00
 -1      8968-1.65000E+01-3.08879E+01 0.00000E+00
 -1      8969-1.59688E+01-2.93621E+01 0.00000E+00
 -1      8970-1.65000E+01-2.98707E+01 0.00000E+00
 -1      8971-1.59688E+01-2.83448E+01 0.00000E+00
 -1      8972-1.65000E+01-2.88534E+01 0.00000E+00
 -1      8973-1.59688E+01-2.73276E+01 0.00000E+00
 -1      8974-1.65000E+01-2.78362E+01 0.00000E+00
 -1      8975-1.59688E+01-2.63103E+01 0.00000E+00
 -1      8976-1.65000E+01-2.68190E+01 0.00000E+00
 -1      8977-1.59688E+01-2.52931E+01 0.00000E+00
 -1      8978-1.65000E+01-2.58017E+01 0.00000E+00
 -1      8979-1.59688E+01-2.42759E+01 0.00000E+00
 -1      8980-1.65000E+01-2.47845E+01 0.00000E+00
 -1      8981-1.59688E+01-2.32586E+01 0.00000E+00
 -1      8982-1.65000E+01-2.37672E+01 0.00000E+00
 -1      8983-1.59688E+01-2.22414E+01 0.00000E+00
 -1      8984-1.65000E+01-2.27500E+01 0.00000E+00
 -1      8985-1.59688E+01-2.12241E+01 0.00000E+00
 -1      8986-1.65000E+01-2.17328E+01 0.00000E+00
 -1      8987-1.59688E+01-2.02069E+01 0.00000E+00
 -1      8988-1.65000E+01-2.07155E+01 0.00000E+00
 -1      8989-1.59688E+01-1.91897E+01 0.00000E+00
 -1      8990-1.65000E+01-1.96983E+01 0.00000E+00
 -1      8991-1.59688E+01-1.81724E+01 0.00000E+00
 -1      8992-1.65000E+01-1.86810E+01 0.00000E+00
 -1      8993-1.59688E+01-1.71552E+01 0.00000E+00
 -1      8994-1.65000E+01-1.76638E+01 0.00000E+00
 -1      8995-1.59688E+01-1.61379E+01 0.00000E+00
 -1      8996-1.65000E+01-1.66466E+01 0.00000E+00
 -1      8997-1.59688E+01-1.51207E+01 0.00000E+00
 -1      8998-1.65000E+01-1.56293E+01 0.00000E+00
 -1      8999-1.59688E+01-1.41034E+01 0.00000E+00
 -1      9000-1.65000E+01-1.46121E+01 0.00000E+00
 -1      9001-1.59688E+01-1.30862E+01 0.00000E+00
 -1      9002-1.65000E+01-1.35948E+01 0.00000E+00
 -1      9003-1.59688E+01-1.20690E+01 0.00000E+00
 -1      9004-1.65000E+01-1.25776E+01 0.00000E+00
 -1      9005-1.59688E+01-1.10517E+01 0.00000E+00
 -1      9006-1.65000E+01-1.15603E+01 0.00000E+00
 -1      9007-1.59688E+01-1.00345E+01 0.00000E+00
 -1      9008-1.65000E+01-1.05431E+01 0.00000E+00
 -1      9009-1.59688E+01-9.01724E+00 0.00000E+00
 -1      9010-1.65000E+01-9.52586E+00 0.00000E+00
 -1      9011-1.65000E+01-8.50862E+00 0.00000E+00
 -1      9012-1.70312E+01-3.64828E+01 0.00000E+00
 -1      9013-1.75625E+01-3.69914E+01 0.00000E+00
 -1      9014-1.70312E+01-3.54655E+01 0.00000E+00
 -1      9015-1.75625E+01-3.59741E+01 0.00000E+00
 -1      9016-1.70312E+01-3.44483E+01 0.00000E+00
 -1      9017-1.75625E+01-3.49569E+01 0.00000E+00
 -1      9018-1.70312E+01-3.34310E+01 0.00000E+00
 -1      9019-1.75625E+01-3.39397E+01 0.00000E+00
 -1      9020-1.70312E+01-3.24138E+01 0.00000E+00
 -1      9021-1.75625E+01-3.29224E+01 0.00000E+00
 -1      9022-1.70312E+01-3.13966E+01 0.00000E+00
 -1      9023-1.75625E+01-3.19052E+01 0.00000E+00
 -1      9024-1.70312E+01-3.03793E+01 0.00000E+00
 -1      9025-1.75625E+01-3.08879E+01 0.00000E+00
 -1      9026-1.70312E+01-2.93621E+01 0.00000E+00
 -1      9027-1.75625E+01-2.98707E+01 0.00000E+00
 -1      9028-1.70312E+01-2.83448E+01 0.00000E+00
 -1      9029-1.75625E+01-2.88534E+01 0.00000E+00
 -1      9030-1.70312E+01-2.73276E+01 0.00000E+00
 -1      9031-1.75625E+01-2.78362E+01 0.00000E+00
 -1      9032-1.70312E+01-2.63103E+01 0.00000E+00
 -1      9033-1.75625E+01-2.68190E+01 0.00000E+00
 -1      9034-1.70312E+01-2.52931E+01 0.00000E+00
 -1      9035-1.75625E+01-2.58017E+01 0.00000E+00
 -1      9036-1.70312E+01-2.42759E+01 0.00000E+00
 -1      9037-1.75625E+01-2.47845E+01 0.00000E+00
 -1      9038-1.70312E+01-2.32586E+01 0.00000E+00
 -1      9039-1.75625E+01-2.37672E+01 0.00000E+00
 -1      9040-1.70312E+01-2.22414E+01 0.00000E+00
 -1      9041-1.75625E+01-2.27500E+01 0.00000E+00
 -1      9042-1.70312E+01-2.12241E+01 0.00000E+00
 -1      9043-1.75625E+01-2.17328E+01 0.00000E+00
 -1      9044-1.70312E+01-2.02069E+01 0.00000E+00
 -1      9045-1.75625E+01-2.07155E+01 0.00000E+00
 -1      9046-1.70312E+01-1.91897E+01 0.00000E+00
 -1      9047-1.75625E+01-1.96983E+01 0.00000E+00
 -1      9048-1.70312E+01-1.81724E+01 0.00000E+00
 -1      9049-1.75625E+01-1.86810E+01 0.00000E+00
 -1      9050-1.70312E+01-1.71552E+01 0.00000E+00
 -1      9051-1.75625E+01-1.76638E+01 0.00000E+00
 -1      9052-1.70312E+01-1.61379E+01 0.00000E+00
 -1      9053-1.75625E+01-1.66466E+01 0.00000E+00
 -1      9054-1.70312E+01-1.51207E+01 0.00000E+00
 -1      9055-1.75625E+01-1.56293E+01 0.00000E+00
 -1      9056-1.70312E+01-1.41034E+01 0.00000E+00
 -1      9057-1.75625E+01-1.46121E+01 0.00000E+00
 -1      9058-1.70312E+01-1.30862E+01 0.00000E+00
 -1      9059-1.75625E+01-1.35948E+01 0.00000E+00
 -1      9060-1.70312E+01-1.20690E+01 0.00000E+00
 -1      9061-1.75625E+01-1.25776E+01 0.00000E+00
 -1      9062-1.70312E+01-1.10517E+01 0.00000E+00
 -1      9063-1.75625E+01-1.15603E+01 0.00000E+00
 -1      9064-1.70312E+01-1.00345E+01 0.00000E+00
 -1      9065-1.75625E+01-1.05431E+01 0.00000E+00
 -1      9066-1.70312E+01-9.01724E+00 0.00000E+00
 -1      9067-1.75625E+01-9.52586E+00 0.00000E+00
 -1      9068-1.75625E+01-8.50862E+00 0.00000E+00
 -1      9069-1.80938E+01-3.64828E+01 0.00000E+00
 -1      9070-1.86250E+01-3.69914E+01 0.00000E+00
 -1      9071-1.80938E+01-3.54655E+01 0.00000E+00
 -1      9072-1.86250E+01-3.59741E+01 0.00000E+00
 -1      9073-1.80938E+01-3.44483E+01 0.00000E+00
 -1      9074-1.86250E+01-3.49569E+01 0.00000E+00
 -1      9075-1.80938E+01-3.34310E+01 0.00000E+00
 -1      9076-1.86250E+01-3.39397E+01 0.00000E+00
 -1      9077-1.80938E+01-3.24138E+01 0.00000E+00
 -1      9078-1.86250E+01-3.29224E+01 0.00000E+00
 -1      9079-1.80938E+01-3.13966E+01 0.00000E+00
 -1      9080-1.86250E+01-3.19052E+01 0.00000E+00
 -1      9081-1.80938E+01-3.03793E+01 0.00000E+00
 -1      9082-1.86250E+01-3.08879E+01 0.00000E+00
 -1      9083-1.80938E+01-2.93621E+01 0.00000E+00
 -1      9084-1.86250E+01-2.98707E+01 0.00000E+00
 -1      9085-1.80938E+01-2.83448E+01 0.00000E+00
 -1      9086-1.86250E+01-2.88534E+01 0.00000E+00
 -1      9087-1.80938E+01-2.73276E+01 0.00000E+00
 -1      9088-1.86250E+01-2.78362E+01 0.00000E+00
 -1      9089-1.80938E+01-2.63103E+01 0.00000E+00
 -1      9090-1.86250E+01-2.68190E+01 0.00000E+00
 -1      9091-1.80938E+01-2.52931E+01 0.00000E+00
 -1      9092-1.86250E+01-2.58017E+01 0.00000E+00
 -1      9093-1.80938E+01-2.42759E+01 0.00000E+00
 -1      9094-1.86250E+01-2.47845E+01 0.00000E+00
 -1      9095-1.80938E+01-2.32586E+01 0.00000E+00
 -1      9096-1.86250E+01-2.37672E+01 0.00000E+00
 -1      9097-1.80938E+01-2.22414E+01 0.00000E+00
 -1      9098-1.86250E+01-2.27500E+01 0.00000E+00
 -1      9099-1.80938E+01-2.12241E+01 0.00000E+00
 -1      9100-1.86250E+01-2.17328E+01 0.00000E+00
 -1      9101-1.80938E+01-2.02069E+01 0.00000E+00
 -1      9102-1.86250E+01-2.07155E+01 0.00000E+00
 -1      9103-1.80938E+01-1.91897E+01 0.00000E+00
 -1      9104-1.86250E+01-1.96983E+01 0.00000E+00
 -1      9105-1.80938E+01-1.81724E+01 0.00000E+00
 -1      9106-1.86250E+01-1.86810E+01 0.00000E+00
 -1      9107-1.80938E+01-1.71552E+01 0.00000E+00
 -1      9108-1.86250E+01-1.76638E+01 0.00000E+00
 -1      9109-1.80938E+01-1.61379E+01 0.00000E+00
 -1      9110-1.86250E+01-1.66466E+01 0.00000E+00
 -1      9111-1.80938E+01-1.51207E+01 0.00000E+00
 -1      9112-1.86250E+01-1.56293E+01 0.00000E+00
 -1      9113-1.80938E+01-1.41034E+01 0.00000E+00
 -1      9114-1.86250E+01-1.46121E+01 0.00000E+00
 -1      9115-1.80938E+01-1.30862E+01 0.00000E+00
 -1      9116-1.86250E+01-1.35948E+01 0.00000E+00
 -1      9117-1.80938E+01-1.20690E+01 0.00000E+00
 -1      9118-1.86250E+01-1.25776E+01 0.00000E+00
 -1      9119-1.80938E+01-1.10517E+01 0.00000E+00
 -1      9120-1.86250E+01-1.15603E+01 0.00000E+00
 -1      9121-1.80938E+01-1.00345E+01 0.00000E+00
 -1      9122-1.86250E+01-1.05431E+01 0.00000E+00
 -1      9123-1.80938E+01-9.01724E+00 0.00000E+00
 -1      9124-1.86250E+01-9.52586E+00 0.00000E+00
 -1      9125-1.86250E+01-8.50862E+00 0.00000E+00
 -1      9126-1.91562E+01-3.64828E+01 0.00000E+00
 -1      9127-1.96875E+01-3.69914E+01 0.00000E+00
 -1      9128-1.91562E+01-3.54655E+01 0.00000E+00
 -1      9129-1.96875E+01-3.59741E+01 0.00000E+00
 -1      9130-1.91562E+01-3.44483E+01 0.00000E+00
 -1      9131-1.96875E+01-3.49569E+01 0.00000E+00
 -1      9132-1.91562E+01-3.34310E+01 0.00000E+00
 -1      9133-1.96875E+01-3.39397E+01 0.00000E+00
 -1      9134-1.91562E+01-3.24138E+01 0.00000E+00
 -1      9135-1.96875E+01-3.29224E+01 0.00000E+00
 -1      9136-1.91562E+01-3.13966E+01 0.00000E+00
 -1      9137-1.96875E+01-3.19052E+01 0.00000E+00
 -1      9138-1.91562E+01-3.03793E+01 0.00000E+00
 -1      9139-1.96875E+01-3.08879E+01 0.00000E+00
 -1      9140-1.91562E+01-2.93621E+01 0.00000E+00
 -1      9141-1.96875E+01-2.98707E+01 0.00000E+00
 -1      9142-1.91562E+01-2.83448E+01 0.00000E+00
 -1      9143-1.96875E+01-2.88534E+01 0.00000E+00
 -1      9144-1.91562E+01-2.73276E+01 0.00000E+00
 -1      9145-1.96875E+01-2.78362E+01 0.00000E+00
 -1      9146-1.91562E+01-2.63103E+01 0.00000E+00
 -1      9147-1.96875E+01-2.68190E+01 0.00000E+00
 -1      9148-1.91562E+01-2.52931E+01 0.00000E+00
 -1      9149-1.96875E+01-2.58017E+01 0.00000E+00
 -1      9150-1.91562E+01-2.42759E+01 0.00000E+00
 -1      9151-1.96875E+01-2.47845E+01 0.00000E+00
 -1      9152-1.91562E+01-2.32586E+01 0.00000E+00
 -1      9153-1.96875E+01-2.37672E+01 0.00000E+00
 -1      9154-1.91562E+01-2.22414E+01 0.00000E+00
 -1      9155-1.96875E+01-2.27500E+01 0.00000E+00
 -1      9156-1.91562E+01-2.12241E+01 0.00000E+00
 -1      9157-1.96875E+01-2.17328E+01 0.00000E+00
 -1      9158-1.91562E+01-2.02069E+01 0.00000E+00
 -1      9159-1.96875E+01-2.07155E+01 0.00000E+00
 -1      9160-1.91562E+01-1.91897E+01 0.00000E+00
 -1      9161-1.96875E+01-1.96983E+01 0.00000E+00
 -1      9162-1.91562E+01-1.81724E+01 0.00000E+00
 -1      9163-1.96875E+01-1.86810E+01 0.00000E+00
 -1      9164-1.91562E+01-1.71552E+01 0.00000E+00
 -1      9165-1.96875E+01-1.76638E+01 0.00000E+00
 -1      9166-1.91562E+01-1.61379E+01 0.00000E+00
 -1      9167-1.96875E+01-1.66466E+01 0.00000E+00
 -1      9168-1.91562E+01-1.51207E+01 0.00000E+00
 -1      9169-1.96875E+01-1.56293E+01 0.00000E+00
 -1      9170-1.91562E+01-1.41034E+01 0.00000E+00
 -1      9171-1.96875E+01-1.46121E+01 0.00000E+00
 -1      9172-1.91562E+01-1.30862E+01 0.00000E+00
 -1      9173-1.96875E+01-1.35948E+01 0.00000E+00
 -1      9174-1.91562E+01-1.20690E+01 0.00000E+00
 -1      9175-1.96875E+01-1.25776E+01 0.00000E+00
 -1      9176-1.91562E+01-1.10517E+01 0.00000E+00
 -1      9177-1.96875E+01-1.15603E+01 0.00000E+00
 -1      9178-1.91562E+01-1.00345E+01 0.00000E+00
 -1      9179-1.96875E+01-1.05431E+01 0.00000E+00
 -1      9180-1.91562E+01-9.01724E+00 0.00000E+00
 -1      9181-1.96875E+01-9.52586E+00 0.00000E+00
 -1      9182-1.96875E+01-8.50862E+00 0.00000E+00
 -1      9183-2.02188E+01-3.64828E+01 0.00000E+00
 -1      9184-2.07500E+01-3.69914E+01 0.00000E+00
 -1      9185-2.02188E+01-3.54655E+01 0.00000E+00
 -1      9186-2.07500E+01-3.59741E+01 0.00000E+00
 -1      9187-2.02188E+01-3.44483E+01 0.00000E+00
 -1      9188-2.07500E+01-3.49569E+01 0.00000E+00
 -1      9189-2.02188E+01-3.34310E+01 0.00000E+00
 -1      9190-2.07500E+01-3.39397E+01 0.00000E+00
 -1      9191-2.02188E+01-3.24138E+01 0.00000E+00
 -1      9192-2.07500E+01-3.29224E+01 0.00000E+00
 -1      9193-2.02188E+01-3.13966E+01 0.00000E+00
 -1      9194-2.07500E+01-3.19052E+01 0.00000E+00
 -1      9195-2.02188E+01-3.03793E+01 0.00000E+00
 -1      9196-2.07500E+01-3.08879E+01 0.00000E+00
 -1      9197-2.02188E+01-2.93621E+01 0.00000E+00
 -1      9198-2.07500E+01-2.98707E+01 0.00000E+00
 -1      9199-2.02188E+01-2.83448E+01 0.00000E+00
 -1      9200-2.07500E+01-2.88534E+01 0.00000E+00
 -1      9201-2.02188E+01-2.73276E+01 0.00000E+00
 -1      9202-2.07500E+01-2.78362E+01 0.00000E+00
 -1      9203-2.02188E+01-2.63103E+01 0.00000E+00
 -1      9204-2.07500E+01-2.68190E+01 0.00000E+00
 -1      9205-2.02188E+01-2.52931E+01 0.00000E+00
 -1      9206-2.07500E+01-2.58017E+01 0.00000E+00
 -1      9207-2.02188E+01-2.42759E+01 0.00000E+00
 -1      9208-2.07500E+01-2.47845E+01 0.00000E+00
 -1      9209-2.02188E+01-2.32586E+01 0.00000E+00
 -1      9210-2.07500E+01-2.37672E+01 0.00000E+00
 -1      9211-2.02188E+01-2.22414E+01 0.00000E+00
 -1      9212-2.07500E+01-2.27500E+01 0.00000E+00
 -1      9213-2.02188E+01-2.12241E+01 0.00000E+00
 -1      9214-2.07500E+01-2.17328E+01 0.00000E+00
 -1      9215-2.02188E+01-2.02069E+01 0.00000E+00
 -1      9216-2.07500E+01-2.07155E+01 0.00000E+00
 -1      9217-2.02188E+01-1.91897E+01 0.00000E+00
 -1      9218-2.07500E+01-1.96983E+01 0.00000E+00
 -1      9219-2.02188E+01-1.81724E+01 0.00000E+00
 -1      9220-2.07500E+01-1.86810E+01 0.00000E+00
 -1      9221-2.02188E+01-1.71552E+01 0.00000E+00
 -1      9222-2.07500E+01-1.76638E+01 0.00000E+00
 -1      9223-2.02188E+01-1.61379E+01 0.00000E+00
 -1      9224-2.07500E+01-1.66466E+01 0.00000E+00
 -1      9225-2.02188E+01-1.51207E+01 0.00000E+00
 -1      9226-2.07500E+01-1.56293E+01 0.00000E+00
 -1      9227-2.02188E+01-1.41034E+01 0.00000E+00
 -1      9228-2.07500E+01-1.46121E+01 0.00000E+00
 -1      9229-2.02188E+01-1.30862E+01 0.00000E+00
 -1      9230-2.07500E+01-1.35948E+01 0.00000E+00
 -1      9231-2.02188E+01-1.20690E+01 0.00000E+00
 -1      9232-2.07500E+01-1.25776E+01 0.00000E+00
 -1      9233-2.02188E+01-1.10517E+01 0.00000E+00
 -1      9234-2.07500E+01-1.15603E+01 0.00000E+00
 -1      9235-2.02188E+01-1.00345E+01 0.00000E+00
 -1      9236-2.07500E+01-1.05431E+01 0.00000E+00
 -1      9237-2.02188E+01-9.01724E+00 0.00000E+00
 -1      9238-2.07500E+01-9.52586E+00 0.00000E+00
 -1      9239-2.07500E+01-8.50862E+00 0.00000E+00
 -1      9240-2.12812E+01-3.64828E+01 0.00000E+00
 -1      9241-2.18125E+01-3.69914E+01 0.00000E+00
 -1      9242-2.12812E+01-3.54655E+01 0.00000E+00
 -1      9243-2.18125E+01-3.59741E+01 0.00000E+00
 -1      9244-2.12812E+01-3.44483E+01 0.00000E+00
 -1      9245-2.18125E+01-3.49569E+01 0.00000E+00
 -1      9246-2.12812E+01-3.34310E+01 0.00000E+00
 -1      9247-2.18125E+01-3.39397E+01 0.00000E+00
 -1      9248-2.12812E+01-3.24138E+01 0.00000E+00
 -1      9249-2.18125E+01-3.29224E+01 0.00000E+00
 -1      9250-2.12812E+01-3.13966E+01 0.00000E+00
 -1      9251-2.18125E+01-3.19052E+01 0.00000E+00
 -1      9252-2.12812E+01-3.03793E+01 0.00000E+00
 -1      9253-2.18125E+01-3.08879E+01 0.00000E+00
 -1      9254-2.12812E+01-2.93621E+01 0.00000E+00
 -1      9255-2.18125E+01-2.98707E+01 0.00000E+00
 -1      9256-2.12812E+01-2.83448E+01 0.00000E+00
 -1      9257-2.18125E+01-2.88534E+01 0.00000E+00
 -1      9258-2.12812E+01-2.73276E+01 0.00000E+00
 -1      9259-2.18125E+01-2.78362E+01 0.00000E+00
 -1      9260-2.12812E+01-2.63103E+01 0.00000E+00
 -1      9261-2.18125E+01-2.68190E+01 0.00000E+00
 -1      9262-2.12812E+01-2.52931E+01 0.00000E+00
 -1      9263-2.18125E+01-2.58017E+01 0.00000E+00
 -1      9264-2.12812E+01-2.42759E+01 0.00000E+00
 -1      9265-2.18125E+01-2.47845E+01 0.00000E+00
 -1      9266-2.12812E+01-2.32586E+01 0.00000E+00
 -1      9267-2.18125E+01-2.37672E+01 0.00000E+00
 -1      9268-2.12812E+01-2.22414E+01 0.00000E+00
 -1      9269-2.18125E+01-2.27500E+01 0.00000E+00
 -1      9270-2.12812E+01-2.12241E+01 0.00000E+00
 -1      9271-2.18125E+01-2.17328E+01 0.00000E+00
 -1      9272-2.12812E+01-2.02069E+01 0.00000E+00
 -1      9273-2.18125E+01-2.07155E+01 0.00000E+00
 -1      9274-2.12812E+01-1.91897E+01 0.00000E+00
 -1      9275-2.18125E+01-1.96983E+01 0.00000E+00
 -1      9276-2.12812E+01-1.81724E+01 0.00000E+00
 -1      9277-2.18125E+01-1.86810E+01 0.00000E+00
 -1      9278-2.12812E+01-1.71552E+01 0.00000E+00
 -1      9279-2.18125E+01-1.76638E+01 0.00000E+00
 -1      9280-2.12812E+01-1.61379E+01 0.00000E+00
 -1      9281-2.18125E+01-1.66466E+01 0.00000E+00
 -1      9282-2.12812E+01-1.51207E+01 0.00000E+00
 -1      9283-2.18125E+01-1.56293E+01 0.00000E+00
 -1      9284-2.12812E+01-1.41034E+01 0.00000E+00
 -1      9285-2.18125E+01-1.46121E+01 0.00000E+00
 -1      9286-2.12812E+01-1.30862E+01 0.00000E+00
 -1      9287-2.18125E+01-1.35948E+01 0.00000E+00
 -1      9288-2.12812E+01-1.20690E+01 0.00000E+00
 -1      9289-2.18125E+01-1.25776E+01 0.00000E+00
 -1      9290-2.12812E+01-1.10517E+01 0.00000E+00
 -1      9291-2.18125E+01-1.15603E+01 0.00000E+00
 -1      9292-2.12812E+01-1.00345E+01 0.00000E+00
 -1      9293-2.18125E+01-1.05431E+01 0.00000E+00
 -1      9294-2.12812E+01-9.01724E+00 0.00000E+00
 -1      9295-2.18125E+01-9.52586E+00 0.00000E+00
 -1      9296-2.18125E+01-8.50862E+00 0.00000E+00
 -1      9297-2.23438E+01-3.64828E+01 0.00000E+00
 -1      9298-2.28750E+01-3.69914E+01 0.00000E+00
 -1      9299-2.23438E+01-3.54655E+01 0.00000E+00
 -1      9300-2.28750E+01-3.59741E+01 0.00000E+00
 -1      9301-2.23438E+01-3.44483E+01 0.00000E+00
 -1      9302-2.28750E+01-3.49569E+01 0.00000E+00
 -1      9303-2.23438E+01-3.34310E+01 0.00000E+00
 -1      9304-2.28750E+01-3.39397E+01 0.00000E+00
 -1      9305-2.23438E+01-3.24138E+01 0.00000E+00
 -1      9306-2.28750E+01-3.29224E+01 0.00000E+00
 -1      9307-2.23438E+01-3.13966E+01 0.00000E+00
 -1      9308-2.28750E+01-3.19052E+01 0.00000E+00
 -1      9309-2.23438E+01-3.03793E+01 0.00000E+00
 -1      9310-2.28750E+01-3.08879E+01 0.00000E+00
 -1      9311-2.23438E+01-2.93621E+01 0.00000E+00
 -1      9312-2.28750E+01-2.98707E+01 0.00000E+00
 -1      9313-2.23438E+01-2.83448E+01 0.00000E+00
 -1      9314-2.28750E+01-2.88534E+01 0.00000E+00
 -1      9315-2.23438E+01-2.73276E+01 0.00000E+00
 -1      9316-2.28750E+01-2.78362E+01 0.00000E+00
 -1      9317-2.23438E+01-2.63103E+01 0.00000E+00
 -1      9318-2.28750E+01-2.68190E+01 0.00000E+00
 -1      9319-2.23438E+01-2.52931E+01 0.00000E+00
 -1      9320-2.28750E+01-2.58017E+01 0.00000E+00
 -1      9321-2.23438E+01-2.42759E+01 0.00000E+00
 -1      9322-2.28750E+01-2.47845E+01 0.00000E+00
 -1      9323-2.23438E+01-2.32586E+01 0.00000E+00
 -1      9324-2.28750E+01-2.37672E+01 0.00000E+00
 -1      9325-2.23438E+01-2.22414E+01 0.00000E+00
 -1      9326-2.28750E+01-2.27500E+01 0.00000E+00
 -1      9327-2.23438E+01-2.12241E+01 0.00000E+00
 -1      9328-2.28750E+01-2.17328E+01 0.00000E+00
 -1      9329-2.23438E+01-2.02069E+01 0.00000E+00
 -1      9330-2.28750E+01-2.07155E+01 0.00000E+00
 -1      9331-2.23438E+01-1.91897E+01 0.00000E+00
 -1      9332-2.28750E+01-1.96983E+01 0.00000E+00
 -1      9333-2.23438E+01-1.81724E+01 0.00000E+00
 -1      9334-2.28750E+01-1.86810E+01 0.00000E+00
 -1      9335-2.23438E+01-1.71552E+01 0.00000E+00
 -1      9336-2.28750E+01-1.76638E+01 0.00000E+00
 -1      9337-2.23438E+01-1.61379E+01 0.00000E+00
 -1      9338-2.28750E+01-1.66466E+01 0.00000E+00
 -1      9339-2.23438E+01-1.51207E+01 0.00000E+00
 -1      9340-2.28750E+01-1.56293E+01 0.00000E+00
 -1      9341-2.23438E+01-1.41034E+01 0.00000E+00
 -1      9342-2.28750E+01-1.46121E+01 0.00000E+00
 -1      9343-2.23438E+01-1.30862E+01 0.00000E+00
 -1      9344-2.28750E+01-1.35948E+01 0.00000E+00
 -1      9345-2.23438E+01-1.20690E+01 0.00000E+00
 -1      9346-2.28750E+01-1.25776E+01 0.00000E+00
 -1      9347-2.23438E+01-1.10517E+01 0.00000E+00
 -1      9348-2.28750E+01-1.15603E+01 0.00000E+00
 -1      9349-2.23438E+01-1.00345E+01 0.00000E+00
 -1      9350-2.28750E+01-1.05431E+01 0.00000E+00
 -1      9351-2.23438E+01-9.01724E+00 0.00000E+00
 -1      9352-2.28750E+01-9.52586E+00 0.00000E+00
 -1      9353-2.28750E+01-8.50862E+00 0.00000E+00
 -1      9354-2.34062E+01-3.64828E+01 0.00000E+00
 -1      9355-2.39375E+01-3.69914E+01 0.00000E+00
 -1      9356-2.34062E+01-3.54655E+01 0.00000E+00
 -1      9357-2.39375E+01-3.59741E+01 0.00000E+00
 -1      9358-2.34062E+01-3.44483E+01 0.00000E+00
 -1      9359-2.39375E+01-3.49569E+01 0.00000E+00
 -1      9360-2.34062E+01-3.34310E+01 0.00000E+00
 -1      9361-2.39375E+01-3.39397E+01 0.00000E+00
 -1      9362-2.34062E+01-3.24138E+01 0.00000E+00
 -1      9363-2.39375E+01-3.29224E+01 0.00000E+00
 -1      9364-2.34062E+01-3.13966E+01 0.00000E+00
 -1      9365-2.39375E+01-3.19052E+01 0.00000E+00
 -1      9366-2.34062E+01-3.03793E+01 0.00000E+00
 -1      9367-2.39375E+01-3.08879E+01 0.00000E+00
 -1      9368-2.34062E+01-2.93621E+01 0.00000E+00
 -1      9369-2.39375E+01-2.98707E+01 0.00000E+00
 -1      9370-2.34062E+01-2.83448E+01 0.00000E+00
 -1      9371-2.39375E+01-2.88534E+01 0.00000E+00
 -1      9372-2.34062E+01-2.73276E+01 0.00000E+00
 -1      9373-2.39375E+01-2.78362E+01 0.00000E+00
 -1      9374-2.34062E+01-2.63103E+01 0.00000E+00
 -1      9375-2.39375E+01-2.68190E+01 0.00000E+00
 -1      9376-2.34062E+01-2.52931E+01 0.00000E+00
 -1      9377-2.39375E+01-2.58017E+01 0.00000E+00
 -1      9378-2.34062E+01-2.42759E+01 0.00000E+00
 -1      9379-2.39375E+01-2.47845E+01 0.00000E+00
 -1      9380-2.34062E+01-2.32586E+01 0.00000E+00
 -1      9381-2.39375E+01-2.37672E+01 0.00000E+00
 -1      9382-2.34062E+01-2.22414E+01 0.00000E+00
 -1      9383-2.39375E+01-2.27500E+01 0.00000E+00
 -1      9384-2.34062E+01-2.12241E+01 0.00000E+00
 -1      9385-2.39375E+01-2.17328E+01 0.00000E+00
 -1      9386-2.34062E+01-2.02069E+01 0.00000E+00
 -1      9387-2.39375E+01-2.07155E+01 0.00000E+00
 -1      9388-2.34062E+01-1.91897E+01 0.00000E+00
 -1      9389-2.39375E+01-1.96983E+01 0.00000E+00
 -1      9390-2.34062E+01-1.81724E+01 0.00000E+00
 -1      9391-2.39375E+01-1.86810E+01 0.00000E+00
 -1      9392-2.34062E+01-1.71552E+01 0.00000E+00
 -1      9393-2.39375E+01-1.76638E+01 0.00000E+00
 -1      9394-2.34062E+01-1.61379E+01 0.00000E+00
 -1      9395-2.39375E+01-1.66466E+01 0.00000E+00
 -1      9396-2.34062E+01-1.51207E+01 0.00000E+00
 -1      9397-2.39375E+01-1.56293E+01 0.00000E+00
 -1      9398-2.34062E+01-1.41034E+01 0.00000E+00
 -1      9399-2.39375E+01-1.46121E+01 0.00000E+00
 -1      9400-2.34062E+01-1.30862E+01 0.00000E+00
 -1      9401-2.39375E+01-1.35948E+01 0.00000E+00
 -1      9402-2.34062E+01-1.20690E+01 0.00000E+00
 -1      9403-2.39375E+01-1.25776E+01 0.00000E+00
 -1      9404-2.34062E+01-1.10517E+01 0.00000E+00
 -1      9405-2.39375E+01-1.15603E+01 0.00000E+00
 -1      9406-2.34062E+01-1.00345E+01 0.00000E+00
 -1      9407-2.39375E+01-1.05431E+01 0.00000E+00
 -1      9408-2.34062E+01-9.01724E+00 0.00000E+00
 -1      9409-2.39375E+01-9.52586E+00 0.00000E+00
 -1      9410-2.39375E+01-8.50862E+00 0.00000E+00
 -1      9411-2.44688E+01-3.64828E+01 0.00000E+00
 -1      9412-2.44688E+01-3.54655E+01 0.00000E+00
 -1      9413-2.44688E+01-3.44483E+01 0.00000E+00
 -1      9414-2.44688E+01-3.34310E+01 0.00000E+00
 -1      9415-2.44688E+01-3.24138E+01 0.00000E+00
 -1      9416-2.44688E+01-3.13966E+01 0.00000E+00
 -1      9417-2.44688E+01-3.03793E+01 0.00000E+00
 -1      9418-2.44688E+01-2.93621E+01 0.00000E+00
 -1      9419-2.44688E+01-2.83448E+01 0.00000E+00
 -1      9420-2.44688E+01-2.73276E+01 0.00000E+00
 -1      9421-2.44688E+01-2.63103E+01 0.00000E+00
 -1      9422-2.44688E+01-2.52931E+01 0.00000E+00
 -1      9423-2.44688E+01-2.42759E+01 0.00000E+00
 -1      9424-2.44688E+01-2.32586E+01 0.00000E+00
 -1      9425-2.44688E+01-2.22414E+01 0.00000E+00
 -1      9426-2.44688E+01-2.12241E+01 0.00000E+00
 -1      9427-2.44688E+01-2.02069E+01 0.00000E+00
 -1      9428-2.44688E+01-1.91897E+01 0.00000E+00
 -1      9429-2.44688E+01-1.81724E+01 0.00000E+00
 -1      9430-2.44688E+01-1.71552E+01 0.00000E+00
 -1      9431-2.44688E+01-1.61379E+01 0.00000E+00
 -1      9432-2.44688E+01-1.51207E+01 0.00000E+00
 -1      9433-2.44688E+01-1.41034E+01 0.00000E+00
 -1      9434-2.44688E+01-1.30862E+01 0.00000E+00
 -1      9435-2.44688E+01-1.20690E+01 0.00000E+00
 -1      9436-2.44688E+01-1.10517E+01 0.00000E+00
 -1      9437-2.44688E+01-1.00345E+01 0.00000E+00
 -1      9438-2.44688E+01-9.01724E+00 0.00000E+00
 -1      9439-2.39375E+01-6.93333E+00 0.00000E+00
 -1      9440-2.28750E+01-6.93333E+00 0.00000E+00
 -1      9441-2.18125E+01-6.93333E+00 0.00000E+00
 -1      9442-2.07500E+01-6.93333E+00 0.00000E+00
 -1      9443-1.96875E+01-6.93333E+00 0.00000E+00
 -1      9444-1.86250E+01-6.93333E+00 0.00000E+00
 -1      9445-1.75625E+01-6.93333E+00 0.00000E+00
 -1      9446-1.65000E+01-6.93333E+00 0.00000E+00
 -1      9447-1.54375E+01-6.93333E+00 0.00000E+00
 -1      9448-1.43750E+01-6.93333E+00 0.00000E+00
 -1      9449-1.33125E+01-6.93333E+00 0.00000E+00
 -1      9450-1.22500E+01-6.93333E+00 0.00000E+00
 -1      9451-1.11875E+01-6.93333E+00 0.00000E+00
 -1      9452-1.01250E+01-6.93333E+00 0.00000E+00
 -1      9453-9.06250E+00-6.93333E+00 0.00000E+00
 -1      9454-2.39375E+01-5.86667E+00 0.00000E+00
 -1      9455-2.28750E+01-5.86667E+00 0.00000E+00
 -1      9456-2.18125E+01-5.86667E+00 0.00000E+00
 -1      9457-2.07500E+01-5.86667E+00 0.00000E+00
 -1      9458-1.96875E+01-5.86667E+00 0.00000E+00
 -1      9459-1.86250E+01-5.86667E+00 0.00000E+00
 -1      9460-1.75625E+01-5.86667E+00 0.00000E+00
 -1      9461-1.65000E+01-5.86667E+00 0.00000E+00
 -1      9462-1.54375E+01-5.86667E+00 0.00000E+00
 -1      9463-1.43750E+01-5.86667E+00 0.00000E+00
 -1      9464-1.33125E+01-5.86667E+00 0.00000E+00
 -1      9465-1.22500E+01-5.86667E+00 0.00000E+00
 -1      9466-1.11875E+01-5.86667E+00 0.00000E+00
 -1      9467-1.01250E+01-5.86667E+00 0.00000E+00
 -1      9468-9.06250E+00-5.86667E+00 0.00000E+00
 -1      9469-2.39375E+01-4.80000E+00 0.00000E+00
 -1      9470-2.28750E+01-4.80000E+00 0.00000E+00
 -1      9471-2.18125E+01-4.80000E+00 0.00000E+00
 -1      9472-2.07500E+01-4.80000E+00 0.00000E+00
 -1      9473-1.96875E+01-4.80000E+00 0.00000E+00
 -1      9474-1.86250E+01-4.80000E+00 0.00000E+00
 -1      9475-1.75625E+01-4.80000E+00 0.00000E+00
 -1      9476-1.65000E+01-4.80000E+00 0.00000E+00
 -1      9477-1.54375E+01-4.80000E+00 0.00000E+00
 -1      9478-1.43750E+01-4.80000E+00 0.00000E+00
 -1      9479-1.33125E+01-4.80000E+00 0.00000E+00
 -1      9480-1.22500E+01-4.80000E+00 0.00000E+00
 -1      9481-1.11875E+01-4.80000E+00 0.00000E+00
 -1      9482-1.01250E+01-4.80000E+00 0.00000E+00
 -1      9483-9.06250E+00-4.80000E+00 0.00000E+00
 -1      9484-2.39375E+01-3.73333E+00 0.00000E+00
 -1      9485-2.28750E+01-3.73333E+00 0.00000E+00
 -1      9486-2.18125E+01-3.73333E+00 0.00000E+00
 -1      9487-2.07500E+01-3.73333E+00 0.00000E+00
 -1      9488-1.96875E+01-3.73333E+00 0.00000E+00
 -1      9489-1.86250E+01-3.73333E+00 0.00000E+00
 -1      9490-1.75625E+01-3.73333E+00 0.00000E+00
 -1      9491-1.65000E+01-3.73333E+00 0.00000E+00
 -1      9492-1.54375E+01-3.73333E+00 0.00000E+00
 -1      9493-1.43750E+01-3.73333E+00 0.00000E+00
 -1      9494-1.33125E+01-3.73333E+00 0.00000E+00
 -1      9495-1.22500E+01-3.73333E+00 0.00000E+00
 -1      9496-1.11875E+01-3.73333E+00 0.00000E+00
 -1      9497-1.01250E+01-3.73333E+00 0.00000E+00
 -1      9498-9.06250E+00-3.73333E+00 0.00000E+00
 -1      9499-2.39375E+01-2.66667E+00 0.00000E+00
 -1      9500-2.28750E+01-2.66667E+00 0.00000E+00
 -1      9501-2.18125E+01-2.66667E+00 0.00000E+00
 -1      9502-2.07500E+01-2.66667E+00 0.00000E+00
 -1      9503-1.96875E+01-2.66667E+00 0.00000E+00
 -1      9504-1.86250E+01-2.66667E+00 0.00000E+00
 -1      9505-1.75625E+01-2.66667E+00 0.00000E+00
 -1      9506-1.65000E+01-2.66667E+00 0.00000E+00
 -1      9507-1.54375E+01-2.66667E+00 0.00000E+00
 -1      9508-1.43750E+01-2.66667E+00 0.00000E+00
 -1      9509-1.33125E+01-2.66667E+00 0.00000E+00
 -1      9510-1.22500E+01-2.66667E+00 0.00000E+00
 -1      9511-1.11875E+01-2.66667E+00 0.00000E+00
 -1      9512-1.01250E+01-2.66667E+00 0.00000E+00
 -1      9513-9.06250E+00-2.66667E+00 0.00000E+00
 -1      9514-2.39375E+01-1.60000E+00 0.00000E+00
 -1      9515-2.28750E+01-1.60000E+00 0.00000E+00
 -1      9516-2.18125E+01-1.60000E+00 0.00000E+00
 -1      9517-2.07500E+01-1.60000E+00 0.00000E+00
 -1      9518-1.96875E+01-1.60000E+00 0.00000E+00
 -1      9519-1.86250E+01-1.60000E+00 0.00000E+00
 -1      9520-1.75625E+01-1.60000E+00 0.00000E+00
 -1      9521-1.65000E+01-1.60000E+00 0.00000E+00
 -1      9522-1.54375E+01-1.60000E+00 0.00000E+00
 -1      9523-1.43750E+01-1.60000E+00 0.00000E+00
 -1      9524-1.33125E+01-1.60000E+00 0.00000E+00
 -1      9525-1.22500E+01-1.60000E+00 0.00000E+00
 -1      9526-1.11875E+01-1.60000E+00 0.00000E+00
 -1      9527-1.01250E+01-1.60000E+00 0.00000E+00
 -1      9528-9.06250E+00-1.60000E+00 0.00000E+00
 -1      9529-2.39375E+01-5.33333E-01 0.00000E+00
 -1      9530-2.28750E+01-5.33333E-01 0.00000E+00
 -1      9531-2.18125E+01-5.33333E-01 0.00000E+00
 -1      9532-2.07500E+01-5.33333E-01 0.00000E+00
 -1      9533-1.96875E+01-5.33333E-01 0.00000E+00
 -1      9534-1.86250E+01-5.33333E-01 0.00000E+00
 -1      9535-1.75625E+01-5.33333E-01 0.00000E+00
 -1      9536-1.65000E+01-5.33333E-01 0.00000E+00
 -1      9537-1.54375E+01-5.33333E-01 0.00000E+00
 -1      9538-1.43750E+01-5.33333E-01 0.00000E+00
 -1      9539-1.33125E+01-5.33333E-01 0.00000E+00
 -1      9540-1.22500E+01-5.33333E-01 0.00000E+00
 -1      9541-1.11875E+01-5.33333E-01 0.00000E+00
 -1      9542-1.01250E+01-5.33333E-01 0.00000E+00
 -1      9543-9.06250E+00-5.33333E-01 0.00000E+00
 -1      9544-2.39375E+01 5.33333E-01 0.00000E+00
 -1      9545-2.28750E+01 5.33333E-01 0.00000E+00
 -1      9546-2.18125E+01 5.33333E-01 0.00000E+00
 -1      9547-2.07500E+01 5.33333E-01 0.00000E+00
 -1      9548-1.96875E+01 5.33333E-01 0.00000E+00
 -1      9549-1.86250E+01 5.33333E-01 0.00000E+00
 -1      9550-1.75625E+01 5.33333E-01 0.00000E+00
 -1      9551-1.65000E+01 5.33333E-01 0.00000E+00
 -1      9552-1.54375E+01 5.33333E-01 0.00000E+00
 -1      9553-1.43750E+01 5.33333E-01 0.00000E+00
 -1      9554-1.33125E+01 5.33333E-01 0.00000E+00
 -1      9555-1.22500E+01 5.33333E-01 0.00000E+00
 -1      9556-1.11875E+01 5.33333E-01 0.00000E+00
 -1      9557-1.01250E+01 5.33333E-01 0.00000E+00
 -1      9558-9.06250E+00 5.33333E-01 0.00000E+00
 -1      9559-2.39375E+01 1.60000E+00 0.00000E+00
 -1      9560-2.28750E+01 1.60000E+00 0.00000E+00
 -1      9561-2.18125E+01 1.60000E+00 0.00000E+00
 -1      9562-2.07500E+01 1.60000E+00 0.00000E+00
 -1      9563-1.96875E+01 1.60000E+00 0.00000E+00
 -1      9564-1.86250E+01 1.60000E+00 0.00000E+00
 -1      9565-1.75625E+01 1.60000E+00 0.00000E+00
 -1      9566-1.65000E+01 1.60000E+00 0.00000E+00
 -1      9567-1.54375E+01 1.60000E+00 0.00000E+00
 -1      9568-1.43750E+01 1.60000E+00 0.00000E+00
 -1      9569-1.33125E+01 1.60000E+00 0.00000E+00
 -1      9570-1.22500E+01 1.60000E+00 0.00000E+00
 -1      9571-1.11875E+01 1.60000E+00 0.00000E+00
 -1      9572-1.01250E+01 1.60000E+00 0.00000E+00
 -1      9573-9.06250E+00 1.60000E+00 0.00000E+00
 -1      9574-2.39375E+01 2.66667E+00 0.00000E+00
 -1      9575-2.28750E+01 2.66667E+00 0.00000E+00
 -1      9576-2.18125E+01 2.66667E+00 0.00000E+00
 -1      9577-2.07500E+01 2.66667E+00 0.00000E+00
 -1      9578-1.96875E+01 2.66667E+00 0.00000E+00
 -1      9579-1.86250E+01 2.66667E+00 0.00000E+00
 -1      9580-1.75625E+01 2.66667E+00 0.00000E+00
 -1      9581-1.65000E+01 2.66667E+00 0.00000E+00
 -1      9582-1.54375E+01 2.66667E+00 0.00000E+00
 -1      9583-1.43750E+01 2.66667E+00 0.00000E+00
 -1      9584-1.33125E+01 2.66667E+00 0.00000E+00
 -1      9585-1.22500E+01 2.66667E+00 0.00000E+00
 -1      9586-1.11875E+01 2.66667E+00 0.00000E+00
 -1      9587-1.01250E+01 2.66667E+00 0.00000E+00
 -1      9588-9.06250E+00 2.66667E+00 0.00000E+00
 -1      9589-2.39375E+01 3.73333E+00 0.00000E+00
 -1      9590-2.28750E+01 3.73333E+00 0.00000E+00
 -1      9591-2.18125E+01 3.73333E+00 0.00000E+00
 -1      9592-2.07500E+01 3.73333E+00 0.00000E+00
 -1      9593-1.96875E+01 3.73333E+00 0.00000E+00
 -1      9594-1.86250E+01 3.73333E+00 0.00000E+00
 -1      9595-1.75625E+01 3.73333E+00 0.00000E+00
 -1      9596-1.65000E+01 3.73333E+00 0.00000E+00
 -1      9597-1.54375E+01 3.73333E+00 0.00000E+00
 -1      9598-1.43750E+01 3.73333E+00 0.00000E+00
 -1      9599-1.33125E+01 3.73333E+00 0.00000E+00
 -1      9600-1.22500E+01 3.73333E+00 0.00000E+00
 -1      9601-1.11875E+01 3.73333E+00 0.00000E+00
 -1      9602-1.01250E+01 3.73333E+00 0.00000E+00
 -1      9603-9.06250E+00 3.73333E+00 0.00000E+00
 -1      9604-2.39375E+01 4.80000E+00 0.00000E+00
 -1      9605-2.28750E+01 4.80000E+00 0.00000E+00
 -1      9606-2.18125E+01 4.80000E+00 0.00000E+00
 -1      9607-2.07500E+01 4.80000E+00 0.00000E+00
 -1      9608-1.96875E+01 4.80000E+00 0.00000E+00
 -1      9609-1.86250E+01 4.80000E+00 0.00000E+00
 -1      9610-1.75625E+01 4.80000E+00 0.00000E+00
 -1      9611-1.65000E+01 4.80000E+00 0.00000E+00
 -1      9612-1.54375E+01 4.80000E+00 0.00000E+00
 -1      9613-1.43750E+01 4.80000E+00 0.00000E+00
 -1      9614-1.33125E+01 4.80000E+00 0.00000E+00
 -1      9615-1.22500E+01 4.80000E+00 0.00000E+00
 -1      9616-1.11875E+01 4.80000E+00 0.00000E+00
 -1      9617-1.01250E+01 4.80000E+00 0.00000E+00
 -1      9618-9.06250E+00 4.80000E+00 0.00000E+00
 -1      9619-2.39375E+01 5.86667E+00 0.00000E+00
 -1      9620-2.28750E+01 5.86667E+00 0.00000E+00
 -1      9621-2.18125E+01 5.86667E+00 0.00000E+00
 -1      9622-2.07500E+01 5.86667E+00 0.00000E+00
 -1      9623-1.96875E+01 5.86667E+00 0.00000E+00
 -1      9624-1.86250E+01 5.86667E+00 0.00000E+00
 -1      9625-1.75625E+01 5.86667E+00 0.00000E+00
 -1      9626-1.65000E+01 5.86667E+00 0.00000E+00
 -1      9627-1.54375E+01 5.86667E+00 0.00000E+00
 -1      9628-1.43750E+01 5.86667E+00 0.00000E+00
 -1      9629-1.33125E+01 5.86667E+00 0.00000E+00
 -1      9630-1.22500E+01 5.86667E+00 0.00000E+00
 -1      9631-1.11875E+01 5.86667E+00 0.00000E+00
 -1      9632-1.01250E+01 5.86667E+00 0.00000E+00
 -1      9633-9.06250E+00 5.86667E+00 0.00000E+00
 -1      9634-2.39375E+01 6.93333E+00 0.00000E+00
 -1      9635-2.28750E+01 6.93333E+00 0.00000E+00
 -1      9636-2.18125E+01 6.93333E+00 0.00000E+00
 -1      9637-2.07500E+01 6.93333E+00 0.00000E+00
 -1      9638-1.96875E+01 6.93333E+00 0.00000E+00
 -1      9639-1.86250E+01 6.93333E+00 0.00000E+00
 -1      9640-1.75625E+01 6.93333E+00 0.00000E+00
 -1      9641-1.65000E+01 6.93333E+00 0.00000E+00
 -1      9642-1.54375E+01 6.93333E+00 0.00000E+00
 -1      9643-1.43750E+01 6.93333E+00 0.00000E+00
 -1      9644-1.33125E+01 6.93333E+00 0.00000E+00
 -1      9645-1.22500E+01 6.93333E+00 0.00000E+00
 -1      9646-1.11875E+01 6.93333E+00 0.00000E+00
 -1      9647-1.01250E+01 6.93333E+00 0.00000E+00
 -1      9648-9.06250E+00 6.93333E+00 0.00000E+00
 -1      9649-2.39375E+01-7.46667E+00 0.00000E+00
 -1      9650-2.44688E+01-6.93333E+00 0.00000E+00
 -1      9651-2.28750E+01-7.46667E+00 0.00000E+00
 -1      9652-2.34062E+01-6.93333E+00 0.00000E+00
 -1      9653-2.18125E+01-7.46667E+00 0.00000E+00
 -1      9654-2.23438E+01-6.93333E+00 0.00000E+00
 -1      9655-2.07500E+01-7.46667E+00 0.00000E+00
 -1      9656-2.12812E+01-6.93333E+00 0.00000E+00
 -1      9657-1.96875E+01-7.46667E+00 0.00000E+00
 -1      9658-2.02188E+01-6.93333E+00 0.00000E+00
 -1      9659-1.86250E+01-7.46667E+00 0.00000E+00
 -1      9660-1.91562E+01-6.93333E+00 0.00000E+00
 -1      9661-1.75625E+01-7.46667E+00 0.00000E+00
 -1      9662-1.80938E+01-6.93333E+00 0.00000E+00
 -1      9663-1.65000E+01-7.46667E+00 0.00000E+00
 -1      9664-1.70312E+01-6.93333E+00 0.00000E+00
 -1      9665-1.54375E+01-7.46667E+00 0.00000E+00
 -1      9666-1.59688E+01-6.93333E+00 0.00000E+00
 -1      9667-1.43750E+01-7.46667E+00 0.00000E+00
 -1      9668-1.49062E+01-6.93333E+00 0.00000E+00
 -1      9669-1.33125E+01-7.46667E+00 0.00000E+00
 -1      9670-1.38438E+01-6.93333E+00 0.00000E+00
 -1      9671-1.22500E+01-7.46667E+00 0.00000E+00
 -1      9672-1.27812E+01-6.93333E+00 0.00000E+00
 -1      9673-1.11875E+01-7.46667E+00 0.00000E+00
 -1      9674-1.17188E+01-6.93333E+00 0.00000E+00
 -1      9675-1.01250E+01-7.46667E+00 0.00000E+00
 -1      9676-1.06562E+01-6.93333E+00 0.00000E+00
 -1      9677-9.06250E+00-7.46667E+00 0.00000E+00
 -1      9678-9.59375E+00-6.93333E+00 0.00000E+00
 -1      9679-8.53125E+00-6.93333E+00 0.00000E+00
 -1      9680-2.39375E+01-6.40000E+00 0.00000E+00
 -1      9681-2.44688E+01-5.86667E+00 0.00000E+00
 -1      9682-2.28750E+01-6.40000E+00 0.00000E+00
 -1      9683-2.34062E+01-5.86667E+00 0.00000E+00
 -1      9684-2.18125E+01-6.40000E+00 0.00000E+00
 -1      9685-2.23438E+01-5.86667E+00 0.00000E+00
 -1      9686-2.07500E+01-6.40000E+00 0.00000E+00
 -1      9687-2.12812E+01-5.86667E+00 0.00000E+00
 -1      9688-1.96875E+01-6.40000E+00 0.00000E+00
 -1      9689-2.02188E+01-5.86667E+00 0.00000E+00
 -1      9690-1.86250E+01-6.40000E+00 0.00000E+00
 -1      9691-1.91562E+01-5.86667E+00 0.00000E+00
 -1      9692-1.75625E+01-6.40000E+00 0.00000E+00
 -1      9693-1.80938E+01-5.86667E+00 0.00000E+00
 -1      9694-1.65000E+01-6.40000E+00 0.00000E+00
 -1      9695-1.70312E+01-5.86667E+00 0.00000E+00
 -1      9696-1.54375E+01-6.40000E+00 0.00000E+00
 -1      9697-1.59688E+01-5.86667E+00 0.00000E+00
 -1      9698-1.43750E+01-6.40000E+00 0.00000E+00
 -1      9699-1.49062E+01-5.86667E+00 0.00000E+00
 -1      9700-1.33125E+01-6.40000E+00 0.00000E+00
 -1      9701-1.38438E+01-5.86667E+00 0.00000E+00
 -1      9702-1.22500E+01-6.40000E+00 0.00000E+00
 -1      9703-1.27812E+01-5.86667E+00 0.00000E+00
 -1      9704-1.11875E+01-6.40000E+00 0.00000E+00
 -1      9705-1.17188E+01-5.86667E+00 0.00000E+00
 -1      9706-1.01250E+01-6.40000E+00 0.00000E+00
 -1      9707-1.06562E+01-5.86667E+00 0.00000E+00
 -1      9708-9.06250E+00-6.40000E+00 0.00000E+00
 -1      9709-9.59375E+00-5.86667E+00 0.00000E+00
 -1      9710-8.53125E+00-5.86667E+00 0.00000E+00
 -1      9711-2.39375E+01-5.33333E+00 0.00000E+00
 -1      9712-2.44688E+01-4.80000E+00 0.00000E+00
 -1      9713-2.28750E+01-5.33333E+00 0.00000E+00
 -1      9714-2.34062E+01-4.80000E+00 0.00000E+00
 -1      9715-2.18125E+01-5.33333E+00 0.00000E+00
 -1      9716-2.23438E+01-4.80000E+00 0.00000E+00
 -1      9717-2.07500E+01-5.33333E+00 0.00000E+00
 -1      9718-2.12812E+01-4.80000E+00 0.00000E+00
 -1      9719-1.96875E+01-5.33333E+00 0.00000E+00
 -1      9720-2.02188E+01-4.80000E+00 0.00000E+00
 -1      9721-1.86250E+01-5.33333E+00 0.00000E+00
 -1      9722-1.91562E+01-4.80000E+00 0.00000E+00
 -1      9723-1.75625E+01-5.33333E+00 0.00000E+00
 -1      9724-1.80938E+01-4.80000E+00 0.00000E+00
 -1      9725-1.65000E+01-5.33333E+00 0.00000E+00
 -1      9726-1.70312E+01-4.80000E+00 0.00000E+00
 -1      9727-1.54375E+01-5.33333E+00 0.00000E+00
 -1      9728-1.59688E+01-4.80000E+00 0.00000E+00
 -1      9729-1.43750E+01-5.33333E+00 0.00000E+00
 -1      9730-1.49062E+01-4.80000E+00 0.00000E+00
 -1      9731-1.33125E+01-5.33333E+00 0.00000E+00
 -1      9732-1.38438E+01-4.80000E+00 0.00000E+00
 -1      9733-1.22500E+01-5.33333E+00 0.00000E+00
 -1      9734-1.27812E+01-4.80000E+00 0.00000E+00
 -1      9735-1.11875E+01-5.33333E+00 0.00000E+00
 -1      9736-1.17188E+01-4.80000E+00 0.00000E+00
 -1      9737-1.01250E+01-5.33333E+00 0.00000E+00
 -1      9738-1.06562E+01-4.80000E+00 0.00000E+00
 -1      9739-9.06250E+00-5.33333E+00 0.00000E+00
 -1      9740-9.59375E+00-4.80000E+00 0.00000E+00
 -1      9741-8.53125E+00-4.80000E+00 0.00000E+00
 -1      9742-2.39375E+01-4.26667E+00 0.00000E+00
 -1      9743-2.44688E+01-3.73333E+00 0.00000E+00
 -1      9744-2.28750E+01-4.26667E+00 0.00000E+00
 -1      9745-2.34062E+01-3.73333E+00 0.00000E+00
 -1      9746-2.18125E+01-4.26667E+00 0.00000E+00
 -1      9747-2.23438E+01-3.73333E+00 0.00000E+00
 -1      9748-2.07500E+01-4.26667E+00 0.00000E+00
 -1      9749-2.12812E+01-3.73333E+00 0.00000E+00
 -1      9750-1.96875E+01-4.26667E+00 0.00000E+00
 -1      9751-2.02188E+01-3.73333E+00 0.00000E+00
 -1      9752-1.86250E+01-4.26667E+00 0.00000E+00
 -1      9753-1.91562E+01-3.73333E+00 0.00000E+00
 -1      9754-1.75625E+01-4.26667E+00 0.00000E+00
 -1      9755-1.80938E+01-3.73333E+00 0.00000E+00
 -1      9756-1.65000E+01-4.26667E+00 0.00000E+00
 -1      9757-1.70312E+01-3.73333E+00 0.00000E+00
 -1      9758-1.54375E+01-4.26667E+00 0.00000E+00
 -1      9759-1.59688E+01-3.73333E+00 0.00000E+00
 -1      9760-1.43750E+01-4.26667E+00 0.00000E+00
 -1      9761-1.49062E+01-3.73333E+00 0.00000E+00
 -1      9762-1.33125E+01-4.26667E+00 0.00000E+00
 -1      9763-1.38438E+01-3.73333E+00 0.00000E+00
 -1      9764-1.22500E+01-4.26667E+00 0.00000E+00
 -1      9765-1.27812E+01-3.73333E+00 0.00000E+00
 -1      9766-1.11875E+01-4.26667E+00 0.00000E+00
 -1      9767-1.17188E+01-3.73333E+00 0.00000E+00
 -1      9768-1.01250E+01-4.26667E+00 0.00000E+00
 -1      9769-1.06562E+01-3.73333E+00 0.00000E+00
 -1      9770-9.06250E+00-4.26667E+00 0.00000E+00
 -1      9771-9.59375E+00-3.73333E+00 0.00000E+00
 -1      9772-8.53125E+00-3.73333E+00 0.00000E+00
 -1      9773-2.39375E+01-3.20000E+00 0.00000E+00
 -1      9774-2.44688E+01-2.66667E+00 0.00000E+00
 -1      9775-2.28750E+01-3.20000E+00 0.00000E+00
 -1      9776-2.34062E+01-2.66667E+00 0.00000E+00
 -1      9777-2.18125E+01-3.20000E+00 0.00000E+00
 -1      9778-2.23438E+01-2.66667E+00 0.00000E+00
 -1      9779-2.07500E+01-3.20000E+00 0.00000E+00
 -1      9780-2.12812E+01-2.66667E+00 0.00000E+00
 -1      9781-1.96875E+01-3.20000E+00 0.00000E+00
 -1      9782-2.02188E+01-2.66667E+00 0.00000E+00
 -1      9783-1.86250E+01-3.20000E+00 0.00000E+00
 -1      9784-1.91562E+01-2.66667E+00 0.00000E+00
 -1      9785-1.75625E+01-3.20000E+00 0.00000E+00
 -1      9786-1.80938E+01-2.66667E+00 0.00000E+00
 -1      9787-1.65000E+01-3.20000E+00 0.00000E+00
 -1      9788-1.70312E+01-2.66667E+00 0.00000E+00
 -1      9789-1.54375E+01-3.20000E+00 0.00000E+00
 -1      9790-1.59688E+01-2.66667E+00 0.00000E+00
 -1      9791-1.43750E+01-3.20000E+00 0.00000E+00
 -1      9792-1.49062E+01-2.66667E+00 0.00000E+00
 -1      9793-1.33125E+01-3.20000E+00 0.00000E+00
 -1      9794-1.38438E+01-2.66667E+00 0.00000E+00
 -1      9795-1.22500E+01-3.20000E+00 0.00000E+00
 -1      9796-1.27812E+01-2.66667E+00 0.00000E+00
 -1      9797-1.11875E+01-3.20000E+00 0.00000E+00
 -1      9798-1.17188E+01-2.66667E+00 0.00000E+00
 -1      9799-1.01250E+01-3.20000E+00 0.00000E+00
 -1      9800-1.06562E+01-2.66667E+00 0.00000E+00
 -1      9801-9.06250E+00-3.20000E+00 0.00000E+00
 -1      9802-9.59375E+00-2.66667E+00 0.00000E+00
 -1      9803-8.53125E+00-2.66667E+00 0.00000E+00
 -1      9804-2.39375E+01-2.13333E+00 0.00000E+00
 -1      9805-2.44688E+01-1.60000E+00 0.00000E+00
 -1      9806-2.28750E+01-2.13333E+00 0.00000E+00
 -1      9807-2.34062E+01-1.60000E+00 0.00000E+00
 -1      9808-2.18125E+01-2.13333E+00 0.00000E+00
 -1      9809-2.23438E+01-1.60000E+00 0.00000E+00
 -1      9810-2.07500E+01-2.13333E+00 0.00000E+00
 -1      9811-2.12812E+01-1.60000E+00 0.00000E+00
 -1      9812-1.96875E+01-2.13333E+00 0.00000E+00
 -1      9813-2.02188E+01-1.60000E+00 0.00000E+00
 -1      9814-1.86250E+01-2.13333E+00 0.00000E+00
 -1      9815-1.91562E+01-1.60000E+00 0.00000E+00
 -1      9816-1.75625E+01-2.13333E+00 0.00000E+00
 -1      9817-1.80938E+01-1.60000E+00 0.00000E+00
 -1      9818-1.65000E+01-2.13333E+00 0.00000E+00
 -1      9819-1.70312E+01-1.60000E+00 0.00000E+00
 -1      9820-1.54375E+01-2.13333E+00 0.00000E+00
 -1      9821-1.59688E+01-1.60000E+00 0.00000E+00
 -1      9822-1.43750E+01-2.13333E+00 0.00000E+00
 -1      9823-1.49062E+01-1.60000E+00 0.00000E+00
 -1      9824-1.33125E+01-2.13333E+00 0.00000E+00
 -1      9825-1.38438E+01-1.60000E+00 0.00000E+00
 -1      9826-1.22500E+01-2.13333E+00 0.00000E+00
 -1      9827-1.27812E+01-1.60000E+00 0.00000E+00
 -1      9828-1.11875E+01-2.13333E+00 0.00000E+00
 -1      9829-1.17188E+01-1.60000E+00 0.00000E+00
 -1      9830-1.01250E+01-2.13333E+00 0.00000E+00
 -1      9831-1.06562E+01-1.60000E+00 0.00000E+00
 -1      9832-9.06250E+00-2.13333E+00 0.00000E+00
 -1      9833-9.59375E+00-1.60000E+00 0.00000E+00
 -1      9834-8.53125E+00-1.60000E+00 0.00000E+00
 -1      9835-2.39375E+01-1.06667E+00 0.00000E+00
 -1      9836-2.44688E+01-5.33333E-01 0.00000E+00
 -1      9837-2.28750E+01-1.06667E+00 0.00000E+00
 -1      9838-2.34062E+01-5.33333E-01 0.00000E+00
 -1      9839-2.18125E+01-1.06667E+00 0.00000E+00
 -1      9840-2.23438E+01-5.33333E-01 0.00000E+00
 -1      9841-2.07500E+01-1.06667E+00 0.00000E+00
 -1      9842-2.12812E+01-5.33333E-01 0.00000E+00
 -1      9843-1.96875E+01-1.06667E+00 0.00000E+00
 -1      9844-2.02188E+01-5.33333E-01 0.00000E+00
 -1      9845-1.86250E+01-1.06667E+00 0.00000E+00
 -1      9846-1.91562E+01-5.33333E-01 0.00000E+00
 -1      9847-1.75625E+01-1.06667E+00 0.00000E+00
 -1      9848-1.80938E+01-5.33333E-01 0.00000E+00
 -1      9849-1.65000E+01-1.06667E+00 0.00000E+00
 -1      9850-1.70312E+01-5.33333E-01 0.00000E+00
 -1      9851-1.54375E+01-1.06667E+00 0.00000E+00
 -1      9852-1.59688E+01-5.33333E-01 0.00000E+00
 -1      9853-1.43750E+01-1.06667E+00 0.00000E+00
 -1      9854-1.49062E+01-5.33333E-01 0.00000E+00
 -1      9855-1.33125E+01-1.06667E+00 0.00000E+00
 -1      9856-1.38438E+01-5.33333E-01 0.00000E+00
 -1      9857-1.22500E+01-1.06667E+00 0.00000E+00
 -1      9858-1.27812E+01-5.33333E-01 0.00000E+00
 -1      9859-1.11875E+01-1.06667E+00 0.00000E+00
 -1      9860-1.17188E+01-5.33333E-01 0.00000E+00
 -1      9861-1.01250E+01-1.06667E+00 0.00000E+00
 -1      9862-1.06562E+01-5.33333E-01 0.00000E+00
 -1      9863-9.06250E+00-1.06667E+00 0.00000E+00
 -1      9864-9.59375E+00-5.33333E-01 0.00000E+00
 -1      9865-8.53125E+00-5.33333E-01 0.00000E+00
 -1      9866-2.39375E+01-2.06979E-11 0.00000E+00
 -1      9867-2.44688E+01 5.33333E-01 0.00000E+00
 -1      9868-2.28750E+01-2.06978E-11 0.00000E+00
 -1      9869-2.34062E+01 5.33333E-01 0.00000E+00
 -1      9870-2.18125E+01-2.06976E-11 0.00000E+00
 -1      9871-2.23438E+01 5.33333E-01 0.00000E+00
 -1      9872-2.07500E+01-2.06976E-11 0.00000E+00
 -1      9873-2.12812E+01 5.33333E-01 0.00000E+00
 -1      9874-1.96875E+01-2.06976E-11 0.00000E+00
 -1      9875-2.02188E+01 5.33333E-01 0.00000E+00
 -1      9876-1.86250E+01-2.06977E-11 0.00000E+00
 -1      9877-1.91562E+01 5.33333E-01 0.00000E+00
 -1      9878-1.75625E+01-2.06977E-11 0.00000E+00
 -1      9879-1.80938E+01 5.33333E-01 0.00000E+00
 -1      9880-1.65000E+01-2.06978E-11 0.00000E+00
 -1      9881-1.70312E+01 5.33333E-01 0.00000E+00
 -1      9882-1.54375E+01-2.06974E-11 0.00000E+00
 -1      9883-1.59688E+01 5.33333E-01 0.00000E+00
 -1      9884-1.43750E+01-2.06979E-11 0.00000E+00
 -1      9885-1.49062E+01 5.33333E-01 0.00000E+00
 -1      9886-1.33125E+01-2.06976E-11 0.00000E+00
 -1      9887-1.38438E+01 5.33333E-01 0.00000E+00
 -1      9888-1.22500E+01-2.06979E-11 0.00000E+00
 -1      9889-1.27812E+01 5.33333E-01 0.00000E+00
 -1      9890-1.11875E+01-2.06977E-11 0.00000E+00
 -1      9891-1.17188E+01 5.33333E-01 0.00000E+00
 -1      9892-1.01250E+01-2.06977E-11 0.00000E+00
 -1      9893-1.06562E+01 5.33333E-01 0.00000E+00
 -1      9894-9.06250E+00-2.06977E-11 0.00000E+00
 -1      9895-9.59375E+00 5.33333E-01 0.00000E+00
 -1      9896-8.53125E+00 5.33333E-01 0.00000E+00
 -1      9897-2.39375E+01 1.06667E+00 0.00000E+00
 -1      9898-2.44688E+01 1.60000E+00 0.00000E+00
 -1      9899-2.28750E+01 1.06667E+00 0.00000E+00
 -1      9900-2.34062E+01 1.60000E+00 0.00000E+00
 -1      9901-2.18125E+01 1.06667E+00 0.00000E+00
 -1      9902-2.23438E+01 1.60000E+00 0.00000E+00
 -1      9903-2.07500E+01 1.06667E+00 0.00000E+00
 -1      9904-2.12812E+01 1.60000E+00 0.00000E+00
 -1      9905-1.96875E+01 1.06667E+00 0.00000E+00
 -1      9906-2.02188E+01 1.60000E+00 0.00000E+00
 -1      9907-1.86250E+01 1.06667E+00 0.00000E+00
 -1      9908-1.91562E+01 1.60000E+00 0.00000E+00
 -1      9909-1.75625E+01 1.06667E+00 0.00000E+00
 -1      9910-1.80938E+01 1.60000E+00 0.00000E+00
 -1      9911-1.65000E+01 1.06667E+00 0.00000E+00
 -1      9912-1.70312E+01 1.60000E+00 0.00000E+00
 -1      9913-1.54375E+01 1.06667E+00 0.00000E+00
 -1      9914-1.59688E+01 1.60000E+00 0.00000E+00
 -1      9915-1.43750E+01 1.06667E+00 0.00000E+00
 -1      9916-1.49062E+01 1.60000E+00 0.00000E+00
 -1      9917-1.33125E+01 1.06667E+00 0.00000E+00
 -1      9918-1.38438E+01 1.60000E+00 0.00000E+00
 -1      9919-1.22500E+01 1.06667E+00 0.00000E+00
 -1      9920-1.27812E+01 1.60000E+00 0.00000E+00
 -1      9921-1.11875E+01 1.06667E+00 0.00000E+00
 -1      9922-1.17188E+01 1.60000E+00 0.00000E+00
 -1      9923-1.01250E+01 1.06667E+00 0.00000E+00
 -1      9924-1.06562E+01 1.60000E+00 0.00000E+00
 -1      9925-9.06250E+00 1.06667E+00 0.00000E+00
 -1      9926-9.59375E+00 1.60000E+00 0.00000E+00
 -1      9927-8.53125E+00 1.60000E+00 0.00000E+00
 -1      9928-2.39375E+01 2.13333E+00 0.00000E+00
 -1      9929-2.44688E+01 2.66667E+00 0.00000E+00
 -1      9930-2.28750E+01 2.13333E+00 0.00000E+00
 -1      9931-2.34062E+01 2.66667E+00 0.00000E+00
 -1      9932-2.18125E+01 2.13333E+00 0.00000E+00
 -1      9933-2.23438E+01 2.66667E+00 0.00000E+00
 -1      9934-2.07500E+01 2.13333E+00 0.00000E+00
 -1      9935-2.12812E+01 2.66667E+00 0.00000E+00
 -1      9936-1.96875E+01 2.13333E+00 0.00000E+00
 -1      9937-2.02188E+01 2.66667E+00 0.00000E+00
 -1      9938-1.86250E+01 2.13333E+00 0.00000E+00
 -1      9939-1.91562E+01 2.66667E+00 0.00000E+00
 -1      9940-1.75625E+01 2.13333E+00 0.00000E+00
 -1      9941-1.80938E+01 2.66667E+00 0.00000E+00
 -1      9942-1.65000E+01 2.13333E+00 0.00000E+00
 -1      9943-1.70312E+01 2.66667E+00 0.00000E+00
 -1      9944-1.54375E+01 2.13333E+00 0.00000E+00
 -1      9945-1.59688E+01 2.66667E+00 0.00000E+00
 -1      9946-1.43750E+01 2.13333E+00 0.00000E+00
 -1      9947-1.49062E+01 2.66667E+00 0.00000E+00
 -1      9948-1.33125E+01 2.13333E+00 0.00000E+00
 -1      9949-1.38438E+01 2.66667E+00 0.00000E+00
 -1      9950-1.22500E+01 2.13333E+00 0.00000E+00
 -1      9951-1.27812E+01 2.66667E+00 0.00000E+00
 -1      9952-1.11875E+01 2.13333E+00 0.00000E+00
 -1      9953-1.17188E+01 2.66667E+00 0.00000E+00
 -1      9954-1.01250E+01 2.13333E+00 0.00000E+00
 -1      9955-1.06562E+01 2.66667E+00 0.00000E+00
 -1      9956-9.06250E+00 2.13333E+00 0.00000E+00
 -1      9957-9.59375E+00 2.66667E+00 0.00000E+00
 -1      9958-8.53125E+00 2.66667E+00 0.00000E+00
 -1      9959-2.39375E+01 3.20000E+00 0.00000E+00
 -1      9960-2.44688E+01 3.73333E+00 0.00000E+00
 -1      9961-2.28750E+01 3.20000E+00 0.00000E+00
 -1      9962-2.34062E+01 3.73333E+00 0.00000E+00
 -1      9963-2.18125E+01 3.20000E+00 0.00000E+00
 -1      9964-2.23438E+01 3.73333E+00 0.00000E+00
 -1      9965-2.07500E+01 3.20000E+00 0.00000E+00
 -1      9966-2.12812E+01 3.73333E+00 0.00000E+00
 -1      9967-1.96875E+01 3.20000E+00 0.00000E+00
 -1      9968-2.02188E+01 3.73333E+00 0.00000E+00
 -1      9969-1.86250E+01 3.20000E+00 0.00000E+00
 -1      9970-1.91562E+01 3.73333E+00 0.00000E+00
 -1      9971-1.75625E+01 3.20000E+00 0.00000E+00
 -1      9972-1.80938E+01 3.73333E+00 0.00000E+00
 -1      9973-1.65000E+01 3.20000E+00 0.00000E+00
 -1      9974-1.70312E+01 3.73333E+00 0.00000E+00
 -1      9975-1.54375E+01 3.20000E+00 0.00000E+00
 -1      9976-1.59688E+01 3.73333E+00 0.00000E+00
 -1      9977-1.43750E+01 3.20000E+00 0.00000E+00
 -1      9978-1.49062E+01 3.73333E+00 0.00000E+00
 -1      9979-1.33125E+01 3.20000E+00 0.00000E+00
 -1      9980-1.38438E+01 3.73333E+00 0.00000E+00
 -1      9981-1.22500E+01 3.20000E+00 0.00000E+00
 -1      9982-1.27812E+01 3.73333E+00 0.00000E+00
 -1      9983-1.11875E+01 3.20000E+00 0.00000E+00
 -1      9984-1.17188E+01 3.73333E+00 0.00000E+00
 -1      9985-1.01250E+01 3.20000E+00 0.00000E+00
 -1      9986-1.06562E+01 3.73333E+00 0.00000E+00
 -1      9987-9.06250E+00 3.20000E+00 0.00000E+00
 -1      9988-9.59375E+00 3.73333E+00 0.00000E+00
 -1      9989-8.53125E+00 3.73333E+00 0.00000E+00
 -1      9990-2.39375E+01 4.26667E+00 0.00000E+00
 -1      9991-2.44688E+01 4.80000E+00 0.00000E+00
 -1      9992-2.28750E+01 4.26667E+00 0.00000E+00
 -1      9993-2.34062E+01 4.80000E+00 0.00000E+00
 -1      9994-2.18125E+01 4.26667E+00 0.00000E+00
 -1      9995-2.23438E+01 4.80000E+00 0.00000E+00
 -1      9996-2.07500E+01 4.26667E+00 0.00000E+00
 -1      9997-2.12812E+01 4.80000E+00 0.00000E+00
 -1      9998-1.96875E+01 4.26667E+00 0.00000E+00
 -1      9999-2.02188E+01 4.80000E+00 0.00000E+00
 -1     10000-1.86250E+01 4.26667E+00 0.00000E+00
 -1     10001-1.91562E+01 4.80000E+00 0.00000E+00
 -1     10002-1.75625E+01 4.26667E+00 0.00000E+00
 -1     10003-1.80938E+01 4.80000E+00 0.00000E+00
 -1     10004-1.65000E+01 4.26667E+00 0.00000E+00
 -1     10005-1.70312E+01 4.80000E+00 0.00000E+00
 -1     10006-1.54375E+01 4.26667E+00 0.00000E+00
 -1     10007-1.59688E+01 4.80000E+00 0.00000E+00
 -1     10008-1.43750E+01 4.26667E+00 0.00000E+00
 -1     10009-1.49062E+01 4.80000E+00 0.00000E+00
 -1     10010-1.33125E+01 4.26667E+00 0.00000E+00
 -1     10011-1.38438E+01 4.80000E+00 0.00000E+00
 -1     10012-1.22500E+01 4.26667E+00 0.00000E+00
 -1     10013-1.27812E+01 4.80000E+00 0.00000E+00
 -1     10014-1.11875E+01 4.26667E+00 0.00000E+00
 -1     10015-1.17188E+01 4.80000E+00 0.00000E+00
 -1     10016-1.01250E+01 4.26667E+00 0.00000E+00
 -1     10017-1.06562E+01 4.80000E+00 0.00000E+00
 -1     10018-9.06250E+00 4.26667E+00 0.00000E+00
 -1     10019-9.59375E+00 4.80000E+00 0.00000E+00
 -1     10020-8.53125E+00 4.80000E+00 0.00000E+00
 -1     10021-2.39375E+01 5.33333E+00 0.00000E+00
 -1     10022-2.44688E+01 5.86667E+00 0.00000E+00
 -1     10023-2.28750E+01 5.33333E+00 0.00000E+00
 -1     10024-2.34062E+01 5.86667E+00 0.00000E+00
 -1     10025-2.18125E+01 5.33333E+00 0.00000E+00
 -1     10026-2.23438E+01 5.86667E+00 0.00000E+00
 -1     10027-2.07500E+01 5.33333E+00 0.00000E+00
 -1     10028-2.12812E+01 5.86667E+00 0.00000E+00
 -1     10029-1.96875E+01 5.33333E+00 0.00000E+00
 -1     10030-2.02188E+01 5.86667E+00 0.00000E+00
 -1     10031-1.86250E+01 5.33333E+00 0.00000E+00
 -1     10032-1.91562E+01 5.86667E+00 0.00000E+00
 -1     10033-1.75625E+01 5.33333E+00 0.00000E+00
 -1     10034-1.80938E+01 5.86667E+00 0.00000E+00
 -1     10035-1.65000E+01 5.33333E+00 0.00000E+00
 -1     10036-1.70312E+01 5.86667E+00 0.00000E+00
 -1     10037-1.54375E+01 5.33333E+00 0.00000E+00
 -1     10038-1.59688E+01 5.86667E+00 0.00000E+00
 -1     10039-1.43750E+01 5.33333E+00 0.00000E+00
 -1     10040-1.49062E+01 5.86667E+00 0.00000E+00
 -1     10041-1.33125E+01 5.33333E+00 0.00000E+00
 -1     10042-1.38438E+01 5.86667E+00 0.00000E+00
 -1     10043-1.22500E+01 5.33333E+00 0.00000E+00
 -1     10044-1.27812E+01 5.86667E+00 0.00000E+00
 -1     10045-1.11875E+01 5.33333E+00 0.00000E+00
 -1     10046-1.17188E+01 5.86667E+00 0.00000E+00
 -1     10047-1.01250E+01 5.33333E+00 0.00000E+00
 -1     10048-1.06562E+01 5.86667E+00 0.00000E+00
 -1     10049-9.06250E+00 5.33333E+00 0.00000E+00
 -1     10050-9.59375E+00 5.86667E+00 0.00000E+00
 -1     10051-8.53125E+00 5.86667E+00 0.00000E+00
 -1     10052-2.39375E+01 6.40000E+00 0.00000E+00
 -1     10053-2.44688E+01 6.93333E+00 0.00000E+00
 -1     10054-2.28750E+01 6.40000E+00 0.00000E+00
 -1     10055-2.34062E+01 6.93333E+00 0.00000E+00
 -1     10056-2.18125E+01 6.40000E+00 0.00000E+00
 -1     10057-2.23438E+01 6.93333E+00 0.00000E+00
 -1     10058-2.07500E+01 6.40000E+00 0.00000E+00
 -1     10059-2.12812E+01 6.93333E+00 0.00000E+00
 -1     10060-1.96875E+01 6.40000E+00 0.00000E+00
 -1     10061-2.02188E+01 6.93333E+00 0.00000E+00
 -1     10062-1.86250E+01 6.40000E+00 0.00000E+00
 -1     10063-1.91562E+01 6.93333E+00 0.00000E+00
 -1     10064-1.75625E+01 6.40000E+00 0.00000E+00
 -1     10065-1.80938E+01 6.93333E+00 0.00000E+00
 -1     10066-1.65000E+01 6.40000E+00 0.00000E+00
 -1     10067-1.70312E+01 6.93333E+00 0.00000E+00
 -1     10068-1.54375E+01 6.40000E+00 0.00000E+00
 -1     10069-1.59688E+01 6.93333E+00 0.00000E+00
 -1     10070-1.43750E+01 6.40000E+00 0.00000E+00
 -1     10071-1.49062E+01 6.93333E+00 0.00000E+00
 -1     10072-1.33125E+01 6.40000E+00 0.00000E+00
 -1     10073-1.38438E+01 6.93333E+00 0.00000E+00
 -1     10074-1.22500E+01 6.40000E+00 0.00000E+00
 -1     10075-1.27812E+01 6.93333E+00 0.00000E+00
 -1     10076-1.11875E+01 6.40000E+00 0.00000E+00
 -1     10077-1.17188E+01 6.93333E+00 0.00000E+00
 -1     10078-1.01250E+01 6.40000E+00 0.00000E+00
 -1     10079-1.06562E+01 6.93333E+00 0.00000E+00
 -1     10080-9.06250E+00 6.40000E+00 0.00000E+00
 -1     10081-9.59375E+00 6.93333E+00 0.00000E+00
 -1     10082-8.53125E+00 6.93333E+00 0.00000E+00
 -1     10083-2.39375E+01 7.46667E+00 0.00000E+00
 -1     10084-2.28750E+01 7.46667E+00 0.00000E+00
 -1     10085-2.18125E+01 7.46667E+00 0.00000E+00
 -1     10086-2.07500E+01 7.46667E+00 0.00000E+00
 -1     10087-1.96875E+01 7.46667E+00 0.00000E+00
 -1     10088-1.86250E+01 7.46667E+00 0.00000E+00
 -1     10089-1.75625E+01 7.46667E+00 0.00000E+00
 -1     10090-1.65000E+01 7.46667E+00 0.00000E+00
 -1     10091-1.54375E+01 7.46667E+00 0.00000E+00
 -1     10092-1.43750E+01 7.46667E+00 0.00000E+00
 -1     10093-1.33125E+01 7.46667E+00 0.00000E+00
 -1     10094-1.22500E+01 7.46667E+00 0.00000E+00
 -1     10095-1.11875E+01 7.46667E+00 0.00000E+00
 -1     10096-1.01250E+01 7.46667E+00 0.00000E+00
 -1     10097-9.06250E+00 7.46667E+00 0.00000E+00
 -1     10098-2.39375E+01 9.01724E+00 0.00000E+00
 -1     10099-2.28750E+01 9.01724E+00 0.00000E+00
 -1     10100-2.18125E+01 9.01724E+00 0.00000E+00
 -1     10101-2.07500E+01 9.01724E+00 0.00000E+00
 -1     10102-1.96875E+01 9.01724E+00 0.00000E+00
 -1     10103-1.86250E+01 9.01724E+00 0.00000E+00
 -1     10104-1.75625E+01 9.01724E+00 0.00000E+00
 -1     10105-1.65000E+01 9.01724E+00 0.00000E+00
 -1     10106-1.54375E+01 9.01724E+00 0.00000E+00
 -1     10107-1.43750E+01 9.01724E+00 0.00000E+00
 -1     10108-1.33125E+01 9.01724E+00 0.00000E+00
 -1     10109-1.22500E+01 9.01724E+00 0.00000E+00
 -1     10110-1.11875E+01 9.01724E+00 0.00000E+00
 -1     10111-1.01250E+01 9.01724E+00 0.00000E+00
 -1     10112-9.06250E+00 9.01724E+00 0.00000E+00
 -1     10113-2.39375E+01 1.00345E+01 0.00000E+00
 -1     10114-2.28750E+01 1.00345E+01 0.00000E+00
 -1     10115-2.18125E+01 1.00345E+01 0.00000E+00
 -1     10116-2.07500E+01 1.00345E+01 0.00000E+00
 -1     10117-1.96875E+01 1.00345E+01 0.00000E+00
 -1     10118-1.86250E+01 1.00345E+01 0.00000E+00
 -1     10119-1.75625E+01 1.00345E+01 0.00000E+00
 -1     10120-1.65000E+01 1.00345E+01 0.00000E+00
 -1     10121-1.54375E+01 1.00345E+01 0.00000E+00
 -1     10122-1.43750E+01 1.00345E+01 0.00000E+00
 -1     10123-1.33125E+01 1.00345E+01 0.00000E+00
 -1     10124-1.22500E+01 1.00345E+01 0.00000E+00
 -1     10125-1.11875E+01 1.00345E+01 0.00000E+00
 -1     10126-1.01250E+01 1.00345E+01 0.00000E+00
 -1     10127-9.06250E+00 1.00345E+01 0.00000E+00
 -1     10128-2.39375E+01 1.10517E+01 0.00000E+00
 -1     10129-2.28750E+01 1.10517E+01 0.00000E+00
 -1     10130-2.18125E+01 1.10517E+01 0.00000E+00
 -1     10131-2.07500E+01 1.10517E+01 0.00000E+00
 -1     10132-1.96875E+01 1.10517E+01 0.00000E+00
 -1     10133-1.86250E+01 1.10517E+01 0.00000E+00
 -1     10134-1.75625E+01 1.10517E+01 0.00000E+00
 -1     10135-1.65000E+01 1.10517E+01 0.00000E+00
 -1     10136-1.54375E+01 1.10517E+01 0.00000E+00
 -1     10137-1.43750E+01 1.10517E+01 0.00000E+00
 -1     10138-1.33125E+01 1.10517E+01 0.00000E+00
 -1     10139-1.22500E+01 1.10517E+01 0.00000E+00
 -1     10140-1.11875E+01 1.10517E+01 0.00000E+00
 -1     10141-1.01250E+01 1.10517E+01 0.00000E+00
 -1     10142-9.06250E+00 1.10517E+01 0.00000E+00
 -1     10143-2.39375E+01 1.20690E+01 0.00000E+00
 -1     10144-2.28750E+01 1.20690E+01 0.00000E+00
 -1     10145-2.18125E+01 1.20690E+01 0.00000E+00
 -1     10146-2.07500E+01 1.20690E+01 0.00000E+00
 -1     10147-1.96875E+01 1.20690E+01 0.00000E+00
 -1     10148-1.86250E+01 1.20690E+01 0.00000E+00
 -1     10149-1.75625E+01 1.20690E+01 0.00000E+00
 -1     10150-1.65000E+01 1.20690E+01 0.00000E+00
 -1     10151-1.54375E+01 1.20690E+01 0.00000E+00
 -1     10152-1.43750E+01 1.20690E+01 0.00000E+00
 -1     10153-1.33125E+01 1.20690E+01 0.00000E+00
 -1     10154-1.22500E+01 1.20690E+01 0.00000E+00
 -1     10155-1.11875E+01 1.20690E+01 0.00000E+00
 -1     10156-1.01250E+01 1.20690E+01 0.00000E+00
 -1     10157-9.06250E+00 1.20690E+01 0.00000E+00
 -1     10158-2.39375E+01 1.30862E+01 0.00000E+00
 -1     10159-2.28750E+01 1.30862E+01 0.00000E+00
 -1     10160-2.18125E+01 1.30862E+01 0.00000E+00
 -1     10161-2.07500E+01 1.30862E+01 0.00000E+00
 -1     10162-1.96875E+01 1.30862E+01 0.00000E+00
 -1     10163-1.86250E+01 1.30862E+01 0.00000E+00
 -1     10164-1.75625E+01 1.30862E+01 0.00000E+00
 -1     10165-1.65000E+01 1.30862E+01 0.00000E+00
 -1     10166-1.54375E+01 1.30862E+01 0.00000E+00
 -1     10167-1.43750E+01 1.30862E+01 0.00000E+00
 -1     10168-1.33125E+01 1.30862E+01 0.00000E+00
 -1     10169-1.22500E+01 1.30862E+01 0.00000E+00
 -1     10170-1.11875E+01 1.30862E+01 0.00000E+00
 -1     10171-1.01250E+01 1.30862E+01 0.00000E+00
 -1     10172-9.06250E+00 1.30862E+01 0.00000E+00
 -1     10173-2.39375E+01 1.41034E+01 0.00000E+00
 -1     10174-2.28750E+01 1.41034E+01 0.00000E+00
 -1     10175-2.18125E+01 1.41034E+01 0.00000E+00
 -1     10176-2.07500E+01 1.41034E+01 0.00000E+00
 -1     10177-1.96875E+01 1.41034E+01 0.00000E+00
 -1     10178-1.86250E+01 1.41034E+01 0.00000E+00
 -1     10179-1.75625E+01 1.41034E+01 0.00000E+00
 -1     10180-1.65000E+01 1.41034E+01 0.00000E+00
 -1     10181-1.54375E+01 1.41034E+01 0.00000E+00
 -1     10182-1.43750E+01 1.41034E+01 0.00000E+00
 -1     10183-1.33125E+01 1.41034E+01 0.00000E+00
 -1     10184-1.22500E+01 1.41034E+01 0.00000E+00
 -1     10185-1.11875E+01 1.41034E+01 0.00000E+00
 -1     10186-1.01250E+01 1.41034E+01 0.00000E+00
 -1     10187-9.06250E+00 1.41034E+01 0.00000E+00
 -1     10188-2.39375E+01 1.51207E+01 0.00000E+00
 -1     10189-2.28750E+01 1.51207E+01 0.00000E+00
 -1     10190-2.18125E+01 1.51207E+01 0.00000E+00
 -1     10191-2.07500E+01 1.51207E+01 0.00000E+00
 -1     10192-1.96875E+01 1.51207E+01 0.00000E+00
 -1     10193-1.86250E+01 1.51207E+01 0.00000E+00
 -1     10194-1.75625E+01 1.51207E+01 0.00000E+00
 -1     10195-1.65000E+01 1.51207E+01 0.00000E+00
 -1     10196-1.54375E+01 1.51207E+01 0.00000E+00
 -1     10197-1.43750E+01 1.51207E+01 0.00000E+00
 -1     10198-1.33125E+01 1.51207E+01 0.00000E+00
 -1     10199-1.22500E+01 1.51207E+01 0.00000E+00
 -1     10200-1.11875E+01 1.51207E+01 0.00000E+00
 -1     10201-1.01250E+01 1.51207E+01 0.00000E+00
 -1     10202-9.06250E+00 1.51207E+01 0.00000E+00
 -1     10203-2.39375E+01 1.61379E+01 0.00000E+00
 -1     10204-2.28750E+01 1.61379E+01 0.00000E+00
 -1     10205-2.18125E+01 1.61379E+01 0.00000E+00
 -1     10206-2.07500E+01 1.61379E+01 0.00000E+00
 -1     10207-1.96875E+01 1.61379E+01 0.00000E+00
 -1     10208-1.86250E+01 1.61379E+01 0.00000E+00
 -1     10209-1.75625E+01 1.61379E+01 0.00000E+00
 -1     10210-1.65000E+01 1.61379E+01 0.00000E+00
 -1     10211-1.54375E+01 1.61379E+01 0.00000E+00
 -1     10212-1.43750E+01 1.61379E+01 0.00000E+00
 -1     10213-1.33125E+01 1.61379E+01 0.00000E+00
 -1     10214-1.22500E+01 1.61379E+01 0.00000E+00
 -1     10215-1.11875E+01 1.61379E+01 0.00000E+00
 -1     10216-1.01250E+01 1.61379E+01 0.00000E+00
 -1     10217-9.06250E+00 1.61379E+01 0.00000E+00
 -1     10218-2.39375E+01 1.71552E+01 0.00000E+00
 -1     10219-2.28750E+01 1.71552E+01 0.00000E+00
 -1     10220-2.18125E+01 1.71552E+01 0.00000E+00
 -1     10221-2.07500E+01 1.71552E+01 0.00000E+00
 -1     10222-1.96875E+01 1.71552E+01 0.00000E+00
 -1     10223-1.86250E+01 1.71552E+01 0.00000E+00
 -1     10224-1.75625E+01 1.71552E+01 0.00000E+00
 -1     10225-1.65000E+01 1.71552E+01 0.00000E+00
 -1     10226-1.54375E+01 1.71552E+01 0.00000E+00
 -1     10227-1.43750E+01 1.71552E+01 0.00000E+00
 -1     10228-1.33125E+01 1.71552E+01 0.00000E+00
 -1     10229-1.22500E+01 1.71552E+01 0.00000E+00
 -1     10230-1.11875E+01 1.71552E+01 0.00000E+00
 -1     10231-1.01250E+01 1.71552E+01 0.00000E+00
 -1     10232-9.06250E+00 1.71552E+01 0.00000E+00
 -1     10233-2.39375E+01 1.81724E+01 0.00000E+00
 -1     10234-2.28750E+01 1.81724E+01 0.00000E+00
 -1     10235-2.18125E+01 1.81724E+01 0.00000E+00
 -1     10236-2.07500E+01 1.81724E+01 0.00000E+00
 -1     10237-1.96875E+01 1.81724E+01 0.00000E+00
 -1     10238-1.86250E+01 1.81724E+01 0.00000E+00
 -1     10239-1.75625E+01 1.81724E+01 0.00000E+00
 -1     10240-1.65000E+01 1.81724E+01 0.00000E+00
 -1     10241-1.54375E+01 1.81724E+01 0.00000E+00
 -1     10242-1.43750E+01 1.81724E+01 0.00000E+00
 -1     10243-1.33125E+01 1.81724E+01 0.00000E+00
 -1     10244-1.22500E+01 1.81724E+01 0.00000E+00
 -1     10245-1.11875E+01 1.81724E+01 0.00000E+00
 -1     10246-1.01250E+01 1.81724E+01 0.00000E+00
 -1     10247-9.06250E+00 1.81724E+01 0.00000E+00
 -1     10248-2.39375E+01 1.91897E+01 0.00000E+00
 -1     10249-2.28750E+01 1.91897E+01 0.00000E+00
 -1     10250-2.18125E+01 1.91897E+01 0.00000E+00
 -1     10251-2.07500E+01 1.91897E+01 0.00000E+00
 -1     10252-1.96875E+01 1.91897E+01 0.00000E+00
 -1     10253-1.86250E+01 1.91897E+01 0.00000E+00
 -1     10254-1.75625E+01 1.91897E+01 0.00000E+00
 -1     10255-1.65000E+01 1.91897E+01 0.00000E+00
 -1     10256-1.54375E+01 1.91897E+01 0.00000E+00
 -1     10257-1.43750E+01 1.91897E+01 0.00000E+00
 -1     10258-1.33125E+01 1.91897E+01 0.00000E+00
 -1     10259-1.22500E+01 1.91897E+01 0.00000E+00
 -1     10260-1.11875E+01 1.91897E+01 0.00000E+00
 -1     10261-1.01250E+01 1.91897E+01 0.00000E+00
 -1     10262-9.06250E+00 1.91897E+01 0.00000E+00
 -1     10263-2.39375E+01 2.02069E+01 0.00000E+00
 -1     10264-2.28750E+01 2.02069E+01 0.00000E+00
 -1     10265-2.18125E+01 2.02069E+01 0.00000E+00
 -1     10266-2.07500E+01 2.02069E+01 0.00000E+00
 -1     10267-1.96875E+01 2.02069E+01 0.00000E+00
 -1     10268-1.86250E+01 2.02069E+01 0.00000E+00
 -1     10269-1.75625E+01 2.02069E+01 0.00000E+00
 -1     10270-1.65000E+01 2.02069E+01 0.00000E+00
 -1     10271-1.54375E+01 2.02069E+01 0.00000E+00
 -1     10272-1.43750E+01 2.02069E+01 0.00000E+00
 -1     10273-1.33125E+01 2.02069E+01 0.00000E+00
 -1     10274-1.22500E+01 2.02069E+01 0.00000E+00
 -1     10275-1.11875E+01 2.02069E+01 0.00000E+00
 -1     10276-1.01250E+01 2.02069E+01 0.00000E+00
 -1     10277-9.06250E+00 2.02069E+01 0.00000E+00
 -1     10278-2.39375E+01 2.12241E+01 0.00000E+00
 -1     10279-2.28750E+01 2.12241E+01 0.00000E+00
 -1     10280-2.18125E+01 2.12241E+01 0.00000E+00
 -1     10281-2.07500E+01 2.12241E+01 0.00000E+00
 -1     10282-1.96875E+01 2.12241E+01 0.00000E+00
 -1     10283-1.86250E+01 2.12241E+01 0.00000E+00
 -1     10284-1.75625E+01 2.12241E+01 0.00000E+00
 -1     10285-1.65000E+01 2.12241E+01 0.00000E+00
 -1     10286-1.54375E+01 2.12241E+01 0.00000E+00
 -1     10287-1.43750E+01 2.12241E+01 0.00000E+00
 -1     10288-1.33125E+01 2.12241E+01 0.00000E+00
 -1     10289-1.22500E+01 2.12241E+01 0.00000E+00
 -1     10290-1.11875E+01 2.12241E+01 0.00000E+00
 -1     10291-1.01250E+01 2.12241E+01 0.00000E+00
 -1     10292-9.06250E+00 2.12241E+01 0.00000E+00
 -1     10293-2.39375E+01 2.22414E+01 0.00000E+00
 -1     10294-2.28750E+01 2.22414E+01 0.00000E+00
 -1     10295-2.18125E+01 2.22414E+01 0.00000E+00
 -1     10296-2.07500E+01 2.22414E+01 0.00000E+00
 -1     10297-1.96875E+01 2.22414E+01 0.00000E+00
 -1     10298-1.86250E+01 2.22414E+01 0.00000E+00
 -1     10299-1.75625E+01 2.22414E+01 0.00000E+00
 -1     10300-1.65000E+01 2.22414E+01 0.00000E+00
 -1     10301-1.54375E+01 2.22414E+01 0.00000E+00
 -1     10302-1.43750E+01 2.22414E+01 0.00000E+00
 -1     10303-1.33125E+01 2.22414E+01 0.00000E+00
 -1     10304-1.22500E+01 2.22414E+01 0.00000E+00
 -1     10305-1.11875E+01 2.22414E+01 0.00000E+00
 -1     10306-1.01250E+01 2.22414E+01 0.00000E+00
 -1     10307-9.06250E+00 2.22414E+01 0.00000E+00
 -1     10308-2.39375E+01 2.32586E+01 0.00000E+00
 -1     10309-2.28750E+01 2.32586E+01 0.00000E+00
 -1     10310-2.18125E+01 2.32586E+01 0.00000E+00
 -1     10311-2.07500E+01 2.32586E+01 0.00000E+00
 -1     10312-1.96875E+01 2.32586E+01 0.00000E+00
 -1     10313-1.86250E+01 2.32586E+01 0.00000E+00
 -1     10314-1.75625E+01 2.32586E+01 0.00000E+00
 -1     10315-1.65000E+01 2.32586E+01 0.00000E+00
 -1     10316-1.54375E+01 2.32586E+01 0.00000E+00
 -1     10317-1.43750E+01 2.32586E+01 0.00000E+00
 -1     10318-1.33125E+01 2.32586E+01 0.00000E+00
 -1     10319-1.22500E+01 2.32586E+01 0.00000E+00
 -1     10320-1.11875E+01 2.32586E+01 0.00000E+00
 -1     10321-1.01250E+01 2.32586E+01 0.00000E+00
 -1     10322-9.06250E+00 2.32586E+01 0.00000E+00
 -1     10323-2.39375E+01 2.42759E+01 0.00000E+00
 -1     10324-2.28750E+01 2.42759E+01 0.00000E+00
 -1     10325-2.18125E+01 2.42759E+01 0.00000E+00
 -1     10326-2.07500E+01 2.42759E+01 0.00000E+00
 -1     10327-1.96875E+01 2.42759E+01 0.00000E+00
 -1     10328-1.86250E+01 2.42759E+01 0.00000E+00
 -1     10329-1.75625E+01 2.42759E+01 0.00000E+00
 -1     10330-1.65000E+01 2.42759E+01 0.00000E+00
 -1     10331-1.54375E+01 2.42759E+01 0.00000E+00
 -1     10332-1.43750E+01 2.42759E+01 0.00000E+00
 -1     10333-1.33125E+01 2.42759E+01 0.00000E+00
 -1     10334-1.22500E+01 2.42759E+01 0.00000E+00
 -1     10335-1.11875E+01 2.42759E+01 0.00000E+00
 -1     10336-1.01250E+01 2.42759E+01 0.00000E+00
 -1     10337-9.06250E+00 2.42759E+01 0.00000E+00
 -1     10338-2.39375E+01 2.52931E+01 0.00000E+00
 -1     10339-2.28750E+01 2.52931E+01 0.00000E+00
 -1     10340-2.18125E+01 2.52931E+01 0.00000E+00
 -1     10341-2.07500E+01 2.52931E+01 0.00000E+00
 -1     10342-1.96875E+01 2.52931E+01 0.00000E+00
 -1     10343-1.86250E+01 2.52931E+01 0.00000E+00
 -1     10344-1.75625E+01 2.52931E+01 0.00000E+00
 -1     10345-1.65000E+01 2.52931E+01 0.00000E+00
 -1     10346-1.54375E+01 2.52931E+01 0.00000E+00
 -1     10347-1.43750E+01 2.52931E+01 0.00000E+00
 -1     10348-1.33125E+01 2.52931E+01 0.00000E+00
 -1     10349-1.22500E+01 2.52931E+01 0.00000E+00
 -1     10350-1.11875E+01 2.52931E+01 0.00000E+00
 -1     10351-1.01250E+01 2.52931E+01 0.00000E+00
 -1     10352-9.06250E+00 2.52931E+01 0.00000E+00
 -1     10353-2.39375E+01 2.63103E+01 0.00000E+00
 -1     10354-2.28750E+01 2.63103E+01 0.00000E+00
 -1     10355-2.18125E+01 2.63103E+01 0.00000E+00
 -1     10356-2.07500E+01 2.63103E+01 0.00000E+00
 -1     10357-1.96875E+01 2.63103E+01 0.00000E+00
 -1     10358-1.86250E+01 2.63103E+01 0.00000E+00
 -1     10359-1.75625E+01 2.63103E+01 0.00000E+00
 -1     10360-1.65000E+01 2.63103E+01 0.00000E+00
 -1     10361-1.54375E+01 2.63103E+01 0.00000E+00
 -1     10362-1.43750E+01 2.63103E+01 0.00000E+00
 -1     10363-1.33125E+01 2.63103E+01 0.00000E+00
 -1     10364-1.22500E+01 2.63103E+01 0.00000E+00
 -1     10365-1.11875E+01 2.63103E+01 0.00000E+00
 -1     10366-1.01250E+01 2.63103E+01 0.00000E+00
 -1     10367-9.06250E+00 2.63103E+01 0.00000E+00
 -1     10368-2.39375E+01 2.73276E+01 0.00000E+00
 -1     10369-2.28750E+01 2.73276E+01 0.00000E+00
 -1     10370-2.18125E+01 2.73276E+01 0.00000E+00
 -1     10371-2.07500E+01 2.73276E+01 0.00000E+00
 -1     10372-1.96875E+01 2.73276E+01 0.00000E+00
 -1     10373-1.86250E+01 2.73276E+01 0.00000E+00
 -1     10374-1.75625E+01 2.73276E+01 0.00000E+00
 -1     10375-1.65000E+01 2.73276E+01 0.00000E+00
 -1     10376-1.54375E+01 2.73276E+01 0.00000E+00
 -1     10377-1.43750E+01 2.73276E+01 0.00000E+00
 -1     10378-1.33125E+01 2.73276E+01 0.00000E+00
 -1     10379-1.22500E+01 2.73276E+01 0.00000E+00
 -1     10380-1.11875E+01 2.73276E+01 0.00000E+00
 -1     10381-1.01250E+01 2.73276E+01 0.00000E+00
 -1     10382-9.06250E+00 2.73276E+01 0.00000E+00
 -1     10383-2.39375E+01 2.83448E+01 0.00000E+00
 -1     10384-2.28750E+01 2.83448E+01 0.00000E+00
 -1     10385-2.18125E+01 2.83448E+01 0.00000E+00
 -1     10386-2.07500E+01 2.83448E+01 0.00000E+00
 -1     10387-1.96875E+01 2.83448E+01 0.00000E+00
 -1     10388-1.86250E+01 2.83448E+01 0.00000E+00
 -1     10389-1.75625E+01 2.83448E+01 0.00000E+00
 -1     10390-1.65000E+01 2.83448E+01 0.00000E+00
 -1     10391-1.54375E+01 2.83448E+01 0.00000E+00
 -1     10392-1.43750E+01 2.83448E+01 0.00000E+00
 -1     10393-1.33125E+01 2.83448E+01 0.00000E+00
 -1     10394-1.22500E+01 2.83448E+01 0.00000E+00
 -1     10395-1.11875E+01 2.83448E+01 0.00000E+00
 -1     10396-1.01250E+01 2.83448E+01 0.00000E+00
 -1     10397-9.06250E+00 2.83448E+01 0.00000E+00
 -1     10398-2.39375E+01 2.93621E+01 0.00000E+00
 -1     10399-2.28750E+01 2.93621E+01 0.00000E+00
 -1     10400-2.18125E+01 2.93621E+01 0.00000E+00
 -1     10401-2.07500E+01 2.93621E+01 0.00000E+00
 -1     10402-1.96875E+01 2.93621E+01 0.00000E+00
 -1     10403-1.86250E+01 2.93621E+01 0.00000E+00
 -1     10404-1.75625E+01 2.93621E+01 0.00000E+00
 -1     10405-1.65000E+01 2.93621E+01 0.00000E+00
 -1     10406-1.54375E+01 2.93621E+01 0.00000E+00
 -1     10407-1.43750E+01 2.93621E+01 0.00000E+00
 -1     10408-1.33125E+01 2.93621E+01 0.00000E+00
 -1     10409-1.22500E+01 2.93621E+01 0.00000E+00
 -1     10410-1.11875E+01 2.93621E+01 0.00000E+00
 -1     10411-1.01250E+01 2.93621E+01 0.00000E+00
 -1     10412-9.06250E+00 2.93621E+01 0.00000E+00
 -1     10413-2.39375E+01 3.03793E+01 0.00000E+00
 -1     10414-2.28750E+01 3.03793E+01 0.00000E+00
 -1     10415-2.18125E+01 3.03793E+01 0.00000E+00
 -1     10416-2.07500E+01 3.03793E+01 0.00000E+00
 -1     10417-1.96875E+01 3.03793E+01 0.00000E+00
 -1     10418-1.86250E+01 3.03793E+01 0.00000E+00
 -1     10419-1.75625E+01 3.03793E+01 0.00000E+00
 -1     10420-1.65000E+01 3.03793E+01 0.00000E+00
 -1     10421-1.54375E+01 3.03793E+01 0.00000E+00
 -1     10422-1.43750E+01 3.03793E+01 0.00000E+00
 -1     10423-1.33125E+01 3.03793E+01 0.00000E+00
 -1     10424-1.22500E+01 3.03793E+01 0.00000E+00
 -1     10425-1.11875E+01 3.03793E+01 0.00000E+00
 -1     10426-1.01250E+01 3.03793E+01 0.00000E+00
 -1     10427-9.06250E+00 3.03793E+01 0.00000E+00
 -1     10428-2.39375E+01 3.13966E+01 0.00000E+00
 -1     10429-2.28750E+01 3.13966E+01 0.00000E+00
 -1     10430-2.18125E+01 3.13966E+01 0.00000E+00
 -1     10431-2.07500E+01 3.13966E+01 0.00000E+00
 -1     10432-1.96875E+01 3.13966E+01 0.00000E+00
 -1     10433-1.86250E+01 3.13966E+01 0.00000E+00
 -1     10434-1.75625E+01 3.13966E+01 0.00000E+00
 -1     10435-1.65000E+01 3.13966E+01 0.00000E+00
 -1     10436-1.54375E+01 3.13966E+01 0.00000E+00
 -1     10437-1.43750E+01 3.13966E+01 0.00000E+00
 -1     10438-1.33125E+01 3.13966E+01 0.00000E+00
 -1     10439-1.22500E+01 3.13966E+01 0.00000E+00
 -1     10440-1.11875E+01 3.13966E+01 0.00000E+00
 -1     10441-1.01250E+01 3.13966E+01 0.00000E+00
 -1     10442-9.06250E+00 3.13966E+01 0.00000E+00
 -1     10443-2.39375E+01 3.24138E+01 0.00000E+00
 -1     10444-2.28750E+01 3.24138E+01 0.00000E+00
 -1     10445-2.18125E+01 3.24138E+01 0.00000E+00
 -1     10446-2.07500E+01 3.24138E+01 0.00000E+00
 -1     10447-1.96875E+01 3.24138E+01 0.00000E+00
 -1     10448-1.86250E+01 3.24138E+01 0.00000E+00
 -1     10449-1.75625E+01 3.24138E+01 0.00000E+00
 -1     10450-1.65000E+01 3.24138E+01 0.00000E+00
 -1     10451-1.54375E+01 3.24138E+01 0.00000E+00
 -1     10452-1.43750E+01 3.24138E+01 0.00000E+00
 -1     10453-1.33125E+01 3.24138E+01 0.00000E+00
 -1     10454-1.22500E+01 3.24138E+01 0.00000E+00
 -1     10455-1.11875E+01 3.24138E+01 0.00000E+00
 -1     10456-1.01250E+01 3.24138E+01 0.00000E+00
 -1     10457-9.06250E+00 3.24138E+01 0.00000E+00
 -1     10458-2.39375E+01 3.34310E+01 0.00000E+00
 -1     10459-2.28750E+01 3.34310E+01 0.00000E+00
 -1     10460-2.18125E+01 3.34310E+01 0.00000E+00
 -1     10461-2.07500E+01 3.34310E+01 0.00000E+00
 -1     10462-1.96875E+01 3.34310E+01 0.00000E+00
 -1     10463-1.86250E+01 3.34310E+01 0.00000E+00
 -1     10464-1.75625E+01 3.34310E+01 0.00000E+00
 -1     10465-1.65000E+01 3.34310E+01 0.00000E+00
 -1     10466-1.54375E+01 3.34310E+01 0.00000E+00
 -1     10467-1.43750E+01 3.34310E+01 0.00000E+00
 -1     10468-1.33125E+01 3.34310E+01 0.00000E+00
 -1     10469-1.22500E+01 3.34310E+01 0.00000E+00
 -1     10470-1.11875E+01 3.34310E+01 0.00000E+00
 -1     10471-1.01250E+01 3.34310E+01 0.00000E+00
 -1     10472-9.06250E+00 3.34310E+01 0.00000E+00
 -1     10473-2.39375E+01 3.44483E+01 0.00000E+00
 -1     10474-2.28750E+01 3.44483E+01 0.00000E+00
 -1     10475-2.18125E+01 3.44483E+01 0.00000E+00
 -1     10476-2.07500E+01 3.44483E+01 0.00000E+00
 -1     10477-1.96875E+01 3.44483E+01 0.00000E+00
 -1     10478-1.86250E+01 3.44483E+01 0.00000E+00
 -1     10479-1.75625E+01 3.44483E+01 0.00000E+00
 -1     10480-1.65000E+01 3.44483E+01 0.00000E+00
 -1     10481-1.54375E+01 3.44483E+01 0.00000E+00
 -1     10482-1.43750E+01 3.44483E+01 0.00000E+00
 -1     10483-1.33125E+01 3.44483E+01 0.00000E+00
 -1     10484-1.22500E+01 3.44483E+01 0.00000E+00
 -1     10485-1.11875E+01 3.44483E+01 0.00000E+00
 -1     10486-1.01250E+01 3.44483E+01 0.00000E+00
 -1     10487-9.06250E+00 3.44483E+01 0.00000E+00
 -1     10488-2.39375E+01 3.54655E+01 0.00000E+00
 -1     10489-2.28750E+01 3.54655E+01 0.00000E+00
 -1     10490-2.18125E+01 3.54655E+01 0.00000E+00
 -1     10491-2.07500E+01 3.54655E+01 0.00000E+00
 -1     10492-1.96875E+01 3.54655E+01 0.00000E+00
 -1     10493-1.86250E+01 3.54655E+01 0.00000E+00
 -1     10494-1.75625E+01 3.54655E+01 0.00000E+00
 -1     10495-1.65000E+01 3.54655E+01 0.00000E+00
 -1     10496-1.54375E+01 3.54655E+01 0.00000E+00
 -1     10497-1.43750E+01 3.54655E+01 0.00000E+00
 -1     10498-1.33125E+01 3.54655E+01 0.00000E+00
 -1     10499-1.22500E+01 3.54655E+01 0.00000E+00
 -1     10500-1.11875E+01 3.54655E+01 0.00000E+00
 -1     10501-1.01250E+01 3.54655E+01 0.00000E+00
 -1     10502-9.06250E+00 3.54655E+01 0.00000E+00
 -1     10503-2.39375E+01 3.64828E+01 0.00000E+00
 -1     10504-2.28750E+01 3.64828E+01 0.00000E+00
 -1     10505-2.18125E+01 3.64828E+01 0.00000E+00
 -1     10506-2.07500E+01 3.64828E+01 0.00000E+00
 -1     10507-1.96875E+01 3.64828E+01 0.00000E+00
 -1     10508-1.86250E+01 3.64828E+01 0.00000E+00
 -1     10509-1.75625E+01 3.64828E+01 0.00000E+00
 -1     10510-1.65000E+01 3.64828E+01 0.00000E+00
 -1     10511-1.54375E+01 3.64828E+01 0.00000E+00
 -1     10512-1.43750E+01 3.64828E+01 0.00000E+00
 -1     10513-1.33125E+01 3.64828E+01 0.00000E+00
 -1     10514-1.22500E+01 3.64828E+01 0.00000E+00
 -1     10515-1.11875E+01 3.64828E+01 0.00000E+00
 -1     10516-1.01250E+01 3.64828E+01 0.00000E+00
 -1     10517-9.06250E+00 3.64828E+01 0.00000E+00
 -1     10518-2.39375E+01 8.50862E+00 0.00000E+00
 -1     10519-2.44688E+01 9.01724E+00 0.00000E+00
 -1     10520-2.28750E+01 8.50862E+00 0.00000E+00
 -1     10521-2.34062E+01 9.01724E+00 0.00000E+00
 -1     10522-2.18125E+01 8.50862E+00 0.00000E+00
 -1     10523-2.23438E+01 9.01724E+00 0.00000E+00
 -1     10524-2.07500E+01 8.50862E+00 0.00000E+00
 -1     10525-2.12812E+01 9.01724E+00 0.00000E+00
 -1     10526-1.96875E+01 8.50862E+00 0.00000E+00
 -1     10527-2.02188E+01 9.01724E+00 0.00000E+00
 -1     10528-1.86250E+01 8.50862E+00 0.00000E+00
 -1     10529-1.91562E+01 9.01724E+00 0.00000E+00
 -1     10530-1.75625E+01 8.50862E+00 0.00000E+00
 -1     10531-1.80938E+01 9.01724E+00 0.00000E+00
 -1     10532-1.65000E+01 8.50862E+00 0.00000E+00
 -1     10533-1.70312E+01 9.01724E+00 0.00000E+00
 -1     10534-1.54375E+01 8.50862E+00 0.00000E+00
 -1     10535-1.59688E+01 9.01724E+00 0.00000E+00
 -1     10536-1.43750E+01 8.50862E+00 0.00000E+00
 -1     10537-1.49062E+01 9.01724E+00 0.00000E+00
 -1     10538-1.33125E+01 8.50862E+00 0.00000E+00
 -1     10539-1.38438E+01 9.01724E+00 0.00000E+00
 -1     10540-1.22500E+01 8.50862E+00 0.00000E+00
 -1     10541-1.27812E+01 9.01724E+00 0.00000E+00
 -1     10542-1.11875E+01 8.50862E+00 0.00000E+00
 -1     10543-1.17188E+01 9.01724E+00 0.00000E+00
 -1     10544-1.01250E+01 8.50862E+00 0.00000E+00
 -1     10545-1.06562E+01 9.01724E+00 0.00000E+00
 -1     10546-9.06250E+00 8.50862E+00 0.00000E+00
 -1     10547-9.59375E+00 9.01724E+00 0.00000E+00
 -1     10548-8.53125E+00 9.01724E+00 0.00000E+00
 -1     10549-2.39375E+01 9.52586E+00 0.00000E+00
 -1     10550-2.44688E+01 1.00345E+01 0.00000E+00
 -1     10551-2.28750E+01 9.52586E+00 0.00000E+00
 -1     10552-2.34062E+01 1.00345E+01 0.00000E+00
 -1     10553-2.18125E+01 9.52586E+00 0.00000E+00
 -1     10554-2.23438E+01 1.00345E+01 0.00000E+00
 -1     10555-2.07500E+01 9.52586E+00 0.00000E+00
 -1     10556-2.12812E+01 1.00345E+01 0.00000E+00
 -1     10557-1.96875E+01 9.52586E+00 0.00000E+00
 -1     10558-2.02188E+01 1.00345E+01 0.00000E+00
 -1     10559-1.86250E+01 9.52586E+00 0.00000E+00
 -1     10560-1.91562E+01 1.00345E+01 0.00000E+00
 -1     10561-1.75625E+01 9.52586E+00 0.00000E+00
 -1     10562-1.80938E+01 1.00345E+01 0.00000E+00
 -1     10563-1.65000E+01 9.52586E+00 0.00000E+00
 -1     10564-1.70312E+01 1.00345E+01 0.00000E+00
 -1     10565-1.54375E+01 9.52586E+00 0.00000E+00
 -1     10566-1.59688E+01 1.00345E+01 0.00000E+00
 -1     10567-1.43750E+01 9.52586E+00 0.00000E+00
 -1     10568-1.49062E+01 1.00345E+01 0.00000E+00
 -1     10569-1.33125E+01 9.52586E+00 0.00000E+00
 -1     10570-1.38438E+01 1.00345E+01 0.00000E+00
 -1     10571-1.22500E+01 9.52586E+00 0.00000E+00
 -1     10572-1.27812E+01 1.00345E+01 0.00000E+00
 -1     10573-1.11875E+01 9.52586E+00 0.00000E+00
 -1     10574-1.17188E+01 1.00345E+01 0.00000E+00
 -1     10575-1.01250E+01 9.52586E+00 0.00000E+00
 -1     10576-1.06562E+01 1.00345E+01 0.00000E+00
 -1     10577-9.06250E+00 9.52586E+00 0.00000E+00
 -1     10578-9.59375E+00 1.00345E+01 0.00000E+00
 -1     10579-8.53125E+00 1.00345E+01 0.00000E+00
 -1     10580-2.39375E+01 1.05431E+01 0.00000E+00
 -1     10581-2.44688E+01 1.10517E+01 0.00000E+00
 -1     10582-2.28750E+01 1.05431E+01 0.00000E+00
 -1     10583-2.34062E+01 1.10517E+01 0.00000E+00
 -1     10584-2.18125E+01 1.05431E+01 0.00000E+00
 -1     10585-2.23438E+01 1.10517E+01 0.00000E+00
 -1     10586-2.07500E+01 1.05431E+01 0.00000E+00
 -1     10587-2.12812E+01 1.10517E+01 0.00000E+00
 -1     10588-1.96875E+01 1.05431E+01 0.00000E+00
 -1     10589-2.02188E+01 1.10517E+01 0.00000E+00
 -1     10590-1.86250E+01 1.05431E+01 0.00000E+00
 -1     10591-1.91562E+01 1.10517E+01 0.00000E+00
 -1     10592-1.75625E+01 1.05431E+01 0.00000E+00
 -1     10593-1.80938E+01 1.10517E+01 0.00000E+00
 -1     10594-1.65000E+01 1.05431E+01 0.00000E+00
 -1     10595-1.70312E+01 1.10517E+01 0.00000E+00
 -1     10596-1.54375E+01 1.05431E+01 0.00000E+00
 -1     10597-1.59688E+01 1.10517E+01 0.00000E+00
 -1     10598-1.43750E+01 1.05431E+01 0.00000E+00
 -1     10599-1.49062E+01 1.10517E+01 0.00000E+00
 -1     10600-1.33125E+01 1.05431E+01 0.00000E+00
 -1     10601-1.38438E+01 1.10517E+01 0.00000E+00
 -1     10602-1.22500E+01 1.05431E+01 0.00000E+00
 -1     10603-1.27812E+01 1.10517E+01 0.00000E+00
 -1     10604-1.11875E+01 1.05431E+01 0.00000E+00
 -1     10605-1.17188E+01 1.10517E+01 0.00000E+00
 -1     10606-1.01250E+01 1.05431E+01 0.00000E+00
 -1     10607-1.06562E+01 1.10517E+01 0.00000E+00
 -1     10608-9.06250E+00 1.05431E+01 0.00000E+00
 -1     10609-9.59375E+00 1.10517E+01 0.00000E+00
 -1     10610-8.53125E+00 1.10517E+01 0.00000E+00
 -1     10611-2.39375E+01 1.15603E+01 0.00000E+00
 -1     10612-2.44688E+01 1.20690E+01 0.00000E+00
 -1     10613-2.28750E+01 1.15603E+01 0.00000E+00
 -1     10614-2.34062E+01 1.20690E+01 0.00000E+00
 -1     10615-2.18125E+01 1.15603E+01 0.00000E+00
 -1     10616-2.23438E+01 1.20690E+01 0.00000E+00
 -1     10617-2.07500E+01 1.15603E+01 0.00000E+00
 -1     10618-2.12812E+01 1.20690E+01 0.00000E+00
 -1     10619-1.96875E+01 1.15603E+01 0.00000E+00
 -1     10620-2.02188E+01 1.20690E+01 0.00000E+00
 -1     10621-1.86250E+01 1.15603E+01 0.00000E+00
 -1     10622-1.91562E+01 1.20690E+01 0.00000E+00
 -1     10623-1.75625E+01 1.15603E+01 0.00000E+00
 -1     10624-1.80938E+01 1.20690E+01 0.00000E+00
 -1     10625-1.65000E+01 1.15603E+01 0.00000E+00
 -1     10626-1.70312E+01 1.20690E+01 0.00000E+00
 -1     10627-1.54375E+01 1.15603E+01 0.00000E+00
 -1     10628-1.59688E+01 1.20690E+01 0.00000E+00
 -1     10629-1.43750E+01 1.15603E+01 0.00000E+00
 -1     10630-1.49062E+01 1.20690E+01 0.00000E+00
 -1     10631-1.33125E+01 1.15603E+01 0.00000E+00
 -1     10632-1.38438E+01 1.20690E+01 0.00000E+00
 -1     10633-1.22500E+01 1.15603E+01 0.00000E+00
 -1     10634-1.27812E+01 1.20690E+01 0.00000E+00
 -1     10635-1.11875E+01 1.15603E+01 0.00000E+00
 -1     10636-1.17188E+01 1.20690E+01 0.00000E+00
 -1     10637-1.01250E+01 1.15603E+01 0.00000E+00
 -1     10638-1.06562E+01 1.20690E+01 0.00000E+00
 -1     10639-9.06250E+00 1.15603E+01 0.00000E+00
 -1     10640-9.59375E+00 1.20690E+01 0.00000E+00
 -1     10641-8.53125E+00 1.20690E+01 0.00000E+00
 -1     10642-2.39375E+01 1.25776E+01 0.00000E+00
 -1     10643-2.44688E+01 1.30862E+01 0.00000E+00
 -1     10644-2.28750E+01 1.25776E+01 0.00000E+00
 -1     10645-2.34062E+01 1.30862E+01 0.00000E+00
 -1     10646-2.18125E+01 1.25776E+01 0.00000E+00
 -1     10647-2.23438E+01 1.30862E+01 0.00000E+00
 -1     10648-2.07500E+01 1.25776E+01 0.00000E+00
 -1     10649-2.12812E+01 1.30862E+01 0.00000E+00
 -1     10650-1.96875E+01 1.25776E+01 0.00000E+00
 -1     10651-2.02188E+01 1.30862E+01 0.00000E+00
 -1     10652-1.86250E+01 1.25776E+01 0.00000E+00
 -1     10653-1.91562E+01 1.30862E+01 0.00000E+00
 -1     10654-1.75625E+01 1.25776E+01 0.00000E+00
 -1     10655-1.80938E+01 1.30862E+01 0.00000E+00
 -1     10656-1.65000E+01 1.25776E+01 0.00000E+00
 -1     10657-1.70312E+01 1.30862E+01 0.00000E+00
 -1     10658-1.54375E+01 1.25776E+01 0.00000E+00
 -1     10659-1.59688E+01 1.30862E+01 0.00000E+00
 -1     10660-1.43750E+01 1.25776E+01 0.00000E+00
 -1     10661-1.49062E+01 1.30862E+01 0.00000E+00
 -1     10662-1.33125E+01 1.25776E+01 0.00000E+00
 -1     10663-1.38438E+01 1.30862E+01 0.00000E+00
 -1     10664-1.22500E+01 1.25776E+01 0.00000E+00
 -1     10665-1.27812E+01 1.30862E+01 0.00000E+00
 -1     10666-1.11875E+01 1.25776E+01 0.00000E+00
 -1     10667-1.17188E+01 1.30862E+01 0.00000E+00
 -1     10668-1.01250E+01 1.25776E+01 0.00000E+00
 -1     10669-1.06562E+01 1.30862E+01 0.00000E+00
 -1     10670-9.06250E+00 1.25776E+01 0.00000E+00
 -1     10671-9.59375E+00 1.30862E+01 0.00000E+00
 -1     10672-8.53125E+00 1.30862E+01 0.00000E+00
 -1     10673-2.39375E+01 1.35948E+01 0.00000E+00
 -1     10674-2.44688E+01 1.41034E+01 0.00000E+00
 -1     10675-2.28750E+01 1.35948E+01 0.00000E+00
 -1     10676-2.34062E+01 1.41034E+01 0.00000E+00
 -1     10677-2.18125E+01 1.35948E+01 0.00000E+00
 -1     10678-2.23438E+01 1.41034E+01 0.00000E+00
 -1     10679-2.07500E+01 1.35948E+01 0.00000E+00
 -1     10680-2.12812E+01 1.41034E+01 0.00000E+00
 -1     10681-1.96875E+01 1.35948E+01 0.00000E+00
 -1     10682-2.02188E+01 1.41034E+01 0.00000E+00
 -1     10683-1.86250E+01 1.35948E+01 0.00000E+00
 -1     10684-1.91562E+01 1.41034E+01 0.00000E+00
 -1     10685-1.75625E+01 1.35948E+01 0.00000E+00
 -1     10686-1.80938E+01 1.41034E+01 0.00000E+00
 -1     10687-1.65000E+01 1.35948E+01 0.00000E+00
 -1     10688-1.70312E+01 1.41034E+01 0.00000E+00
 -1     10689-1.54375E+01 1.35948E+01 0.00000E+00
 -1     10690-1.59688E+01 1.41034E+01 0.00000E+00
 -1     10691-1.43750E+01 1.35948E+01 0.00000E+00
 -1     10692-1.49062E+01 1.41034E+01 0.00000E+00
 -1     10693-1.33125E+01 1.35948E+01 0.00000E+00
 -1     10694-1.38438E+01 1.41034E+01 0.00000E+00
 -1     10695-1.22500E+01 1.35948E+01 0.00000E+00
 -1     10696-1.27812E+01 1.41034E+01 0.00000E+00
 -1     10697-1.11875E+01 1.35948E+01 0.00000E+00
 -1     10698-1.17188E+01 1.41034E+01 0.00000E+00
 -1     10699-1.01250E+01 1.35948E+01 0.00000E+00
 -1     10700-1.06562E+01 1.41034E+01 0.00000E+00
 -1     10701-9.06250E+00 1.35948E+01 0.00000E+00
 -1     10702-9.59375E+00 1.41034E+01 0.00000E+00
 -1     10703-8.53125E+00 1.41034E+01 0.00000E+00
 -1     10704-2.39375E+01 1.46121E+01 0.00000E+00
 -1     10705-2.44688E+01 1.51207E+01 0.00000E+00
 -1     10706-2.28750E+01 1.46121E+01 0.00000E+00
 -1     10707-2.34062E+01 1.51207E+01 0.00000E+00
 -1     10708-2.18125E+01 1.46121E+01 0.00000E+00
 -1     10709-2.23438E+01 1.51207E+01 0.00000E+00
 -1     10710-2.07500E+01 1.46121E+01 0.00000E+00
 -1     10711-2.12812E+01 1.51207E+01 0.00000E+00
 -1     10712-1.96875E+01 1.46121E+01 0.00000E+00
 -1     10713-2.02188E+01 1.51207E+01 0.00000E+00
 -1     10714-1.86250E+01 1.46121E+01 0.00000E+00
 -1     10715-1.91562E+01 1.51207E+01 0.00000E+00
 -1     10716-1.75625E+01 1.46121E+01 0.00000E+00
 -1     10717-1.80938E+01 1.51207E+01 0.00000E+00
 -1     10718-1.65000E+01 1.46121E+01 0.00000E+00
 -1     10719-1.70312E+01 1.51207E+01 0.00000E+00
 -1     10720-1.54375E+01 1.46121E+01 0.00000E+00
 -1     10721-1.59688E+01 1.51207E+01 0.00000E+00
 -1     10722-1.43750E+01 1.46121E+01 0.00000E+00
 -1     10723-1.49062E+01 1.51207E+01 0.00000E+00
 -1     10724-1.33125E+01 1.46121E+01 0.00000E+00
 -1     10725-1.38438E+01 1.51207E+01 0.00000E+00
 -1     10726-1.22500E+01 1.46121E+01 0.00000E+00
 -1     10727-1.27812E+01 1.51207E+01 0.00000E+00
 -1     10728-1.11875E+01 1.46121E+01 0.00000E+00
 -1     10729-1.17188E+01 1.51207E+01 0.00000E+00
 -1     10730-1.01250E+01 1.46121E+01 0.00000E+00
 -1     10731-1.06562E+01 1.51207E+01 0.00000E+00
 -1     10732-9.06250E+00 1.46121E+01 0.00000E+00
 -1     10733-9.59375E+00 1.51207E+01 0.00000E+00
 -1     10734-8.53125E+00 1.51207E+01 0.00000E+00
 -1     10735-2.39375E+01 1.56293E+01 0.00000E+00
 -1     10736-2.44688E+01 1.61379E+01 0.00000E+00
 -1     10737-2.28750E+01 1.56293E+01 0.00000E+00
 -1     10738-2.34062E+01 1.61379E+01 0.00000E+00
 -1     10739-2.18125E+01 1.56293E+01 0.00000E+00
 -1     10740-2.23438E+01 1.61379E+01 0.00000E+00
 -1     10741-2.07500E+01 1.56293E+01 0.00000E+00
 -1     10742-2.12812E+01 1.61379E+01 0.00000E+00
 -1     10743-1.96875E+01 1.56293E+01 0.00000E+00
 -1     10744-2.02188E+01 1.61379E+01 0.00000E+00
 -1     10745-1.86250E+01 1.56293E+01 0.00000E+00
 -1     10746-1.91562E+01 1.61379E+01 0.00000E+00
 -1     10747-1.75625E+01 1.56293E+01 0.00000E+00
 -1     10748-1.80938E+01 1.61379E+01 0.00000E+00
 -1     10749-1.65000E+01 1.56293E+01 0.00000E+00
 -1     10750-1.70312E+01 1.61379E+01 0.00000E+00
 -1     10751-1.54375E+01 1.56293E+01 0.00000E+00
 -1     10752-1.59688E+01 1.61379E+01 0.00000E+00
 -1     10753-1.43750E+01 1.56293E+01 0.00000E+00
 -1     10754-1.49062E+01 1.61379E+01 0.00000E+00
 -1     10755-1.33125E+01 1.56293E+01 0.00000E+00
 -1     10756-1.38438E+01 1.61379E+01 0.00000E+00
 -1     10757-1.22500E+01 1.56293E+01 0.00000E+00
 -1     10758-1.27812E+01 1.61379E+01 0.00000E+00
 -1     10759-1.11875E+01 1.56293E+01 0.00000E+00
 -1     10760-1.17188E+01 1.61379E+01 0.00000E+00
 -1     10761-1.01250E+01 1.56293E+01 0.00000E+00
 -1     10762-1.06562E+01 1.61379E+01 0.00000E+00
 -1     10763-9.06250E+00 1.56293E+01 0.00000E+00
 -1     10764-9.59375E+00 1.61379E+01 0.00000E+00
 -1     10765-8.53125E+00 1.61379E+01 0.00000E+00
 -1     10766-2.39375E+01 1.66466E+01 0.00000E+00
 -1     10767-2.44688E+01 1.71552E+01 0.00000E+00
 -1     10768-2.28750E+01 1.66466E+01 0.00000E+00
 -1     10769-2.34062E+01 1.71552E+01 0.00000E+00
 -1     10770-2.18125E+01 1.66466E+01 0.00000E+00
 -1     10771-2.23438E+01 1.71552E+01 0.00000E+00
 -1     10772-2.07500E+01 1.66466E+01 0.00000E+00
 -1     10773-2.12812E+01 1.71552E+01 0.00000E+00
 -1     10774-1.96875E+01 1.66466E+01 0.00000E+00
 -1     10775-2.02188E+01 1.71552E+01 0.00000E+00
 -1     10776-1.86250E+01 1.66466E+01 0.00000E+00
 -1     10777-1.91562E+01 1.71552E+01 0.00000E+00
 -1     10778-1.75625E+01 1.66466E+01 0.00000E+00
 -1     10779-1.80938E+01 1.71552E+01 0.00000E+00
 -1     10780-1.65000E+01 1.66466E+01 0.00000E+00
 -1     10781-1.70312E+01 1.71552E+01 0.00000E+00
 -1     10782-1.54375E+01 1.66466E+01 0.00000E+00
 -1     10783-1.59688E+01 1.71552E+01 0.00000E+00
 -1     10784-1.43750E+01 1.66466E+01 0.00000E+00
 -1     10785-1.49062E+01 1.71552E+01 0.00000E+00
 -1     10786-1.33125E+01 1.66466E+01 0.00000E+00
 -1     10787-1.38438E+01 1.71552E+01 0.00000E+00
 -1     10788-1.22500E+01 1.66466E+01 0.00000E+00
 -1     10789-1.27812E+01 1.71552E+01 0.00000E+00
 -1     10790-1.11875E+01 1.66466E+01 0.00000E+00
 -1     10791-1.17188E+01 1.71552E+01 0.00000E+00
 -1     10792-1.01250E+01 1.66466E+01 0.00000E+00
 -1     10793-1.06562E+01 1.71552E+01 0.00000E+00
 -1     10794-9.06250E+00 1.66466E+01 0.00000E+00
 -1     10795-9.59375E+00 1.71552E+01 0.00000E+00
 -1     10796-8.53125E+00 1.71552E+01 0.00000E+00
 -1     10797-2.39375E+01 1.76638E+01 0.00000E+00
 -1     10798-2.44688E+01 1.81724E+01 0.00000E+00
 -1     10799-2.28750E+01 1.76638E+01 0.00000E+00
 -1     10800-2.34062E+01 1.81724E+01 0.00000E+00
 -1     10801-2.18125E+01 1.76638E+01 0.00000E+00
 -1     10802-2.23438E+01 1.81724E+01 0.00000E+00
 -1     10803-2.07500E+01 1.76638E+01 0.00000E+00
 -1     10804-2.12812E+01 1.81724E+01 0.00000E+00
 -1     10805-1.96875E+01 1.76638E+01 0.00000E+00
 -1     10806-2.02188E+01 1.81724E+01 0.00000E+00
 -1     10807-1.86250E+01 1.76638E+01 0.00000E+00
 -1     10808-1.91562E+01 1.81724E+01 0.00000E+00
 -1     10809-1.75625E+01 1.76638E+01 0.00000E+00
 -1     10810-1.80938E+01 1.81724E+01 0.00000E+00
 -1     10811-1.65000E+01 1.76638E+01 0.00000E+00
 -1     10812-1.70312E+01 1.81724E+01 0.00000E+00
 -1     10813-1.54375E+01 1.76638E+01 0.00000E+00
 -1     10814-1.59688E+01 1.81724E+01 0.00000E+00
 -1     10815-1.43750E+01 1.76638E+01 0.00000E+00
 -1     10816-1.49062E+01 1.81724E+01 0.00000E+00
 -1     10817-1.33125E+01 1.76638E+01 0.00000E+00
 -1     10818-1.38438E+01 1.81724E+01 0.00000E+00
 -1     10819-1.22500E+01 1.76638E+01 0.00000E+00
 -1     10820-1.27812E+01 1.81724E+01 0.00000E+00
 -1     10821-1.11875E+01 1.76638E+01 0.00000E+00
 -1     10822-1.17188E+01 1.81724E+01 0.00000E+00
 -1     10823-1.01250E+01 1.76638E+01 0.00000E+00
 -1     10824-1.06562E+01 1.81724E+01 0.00000E+00
 -1     10825-9.06250E+00 1.76638E+01 0.00000E+00
 -1     10826-9.59375E+00 1.81724E+01 0.00000E+00
 -1     10827-8.53125E+00 1.81724E+01 0.00000E+00
 -1     10828-2.39375E+01 1.86810E+01 0.00000E+00
 -1     10829-2.44688E+01 1.91897E+01 0.00000E+00
 -1     10830-2.28750E+01 1.86810E+01 0.00000E+00
 -1     10831-2.34062E+01 1.91897E+01 0.00000E+00
 -1     10832-2.18125E+01 1.86810E+01 0.00000E+00
 -1     10833-2.23438E+01 1.91897E+01 0.00000E+00
 -1     10834-2.07500E+01 1.86810E+01 0.00000E+00
 -1     10835-2.12812E+01 1.91897E+01 0.00000E+00
 -1     10836-1.96875E+01 1.86810E+01 0.00000E+00
 -1     10837-2.02188E+01 1.91897E+01 0.00000E+00
 -1     10838-1.86250E+01 1.86810E+01 0.00000E+00
 -1     10839-1.91562E+01 1.91897E+01 0.00000E+00
 -1     10840-1.75625E+01 1.86810E+01 0.00000E+00
 -1     10841-1.80938E+01 1.91897E+01 0.00000E+00
 -1     10842-1.65000E+01 1.86810E+01 0.00000E+00
 -1     10843-1.70312E+01 1.91897E+01 0.00000E+00
 -1     10844-1.54375E+01 1.86810E+01 0.00000E+00
 -1     10845-1.59688E+01 1.91897E+01 0.00000E+00
 -1     10846-1.43750E+01 1.86810E+01 0.00000E+00
 -1     10847-1.49062E+01 1.91897E+01 0.00000E+00
 -1     10848-1.33125E+01 1.86810E+01 0.00000E+00
 -1     10849-1.38438E+01 1.91897E+01 0.00000E+00
 -1     10850-1.22500E+01 1.86810E+01 0.00000E+00
 -1     10851-1.27812E+01 1.91897E+01 0.00000E+00
 -1     10852-1.11875E+01 1.86810E+01 0.00000E+00
 -1     10853-1.17188E+01 1.91897E+01 0.00000E+00
 -1     10854-1.01250E+01 1.86810E+01 0.00000E+00
 -1     10855-1.06562E+01 1.91897E+01 0.00000E+00
 -1     10856-9.06250E+00 1.86810E+01 0.00000E+00
 -1     10857-9.59375E+00 1.91897E+01 0.00000E+00
 -1     10858-8.53125E+00 1.91897E+01 0.00000E+00
 -1     10859-2.39375E+01 1.96983E+01 0.00000E+00
 -1     10860-2.44688E+01 2.02069E+01 0.00000E+00
 -1     10861-2.28750E+01 1.96983E+01 0.00000E+00
 -1     10862-2.34062E+01 2.02069E+01 0.00000E+00
 -1     10863-2.18125E+01 1.96983E+01 0.00000E+00
 -1     10864-2.23438E+01 2.02069E+01 0.00000E+00
 -1     10865-2.07500E+01 1.96983E+01 0.00000E+00
 -1     10866-2.12812E+01 2.02069E+01 0.00000E+00
 -1     10867-1.96875E+01 1.96983E+01 0.00000E+00
 -1     10868-2.02188E+01 2.02069E+01 0.00000E+00
 -1     10869-1.86250E+01 1.96983E+01 0.00000E+00
 -1     10870-1.91562E+01 2.02069E+01 0.00000E+00
 -1     10871-1.75625E+01 1.96983E+01 0.00000E+00
 -1     10872-1.80938E+01 2.02069E+01 0.00000E+00
 -1     10873-1.65000E+01 1.96983E+01 0.00000E+00
 -1     10874-1.70312E+01 2.02069E+01 0.00000E+00
 -1     10875-1.54375E+01 1.96983E+01 0.00000E+00
 -1     10876-1.59688E+01 2.02069E+01 0.00000E+00
 -1     10877-1.43750E+01 1.96983E+01 0.00000E+00
 -1     10878-1.49062E+01 2.02069E+01 0.00000E+00
 -1     10879-1.33125E+01 1.96983E+01 0.00000E+00
 -1     10880-1.38438E+01 2.02069E+01 0.00000E+00
 -1     10881-1.22500E+01 1.96983E+01 0.00000E+00
 -1     10882-1.27812E+01 2.02069E+01 0.00000E+00
 -1     10883-1.11875E+01 1.96983E+01 0.00000E+00
 -1     10884-1.17188E+01 2.02069E+01 0.00000E+00
 -1     10885-1.01250E+01 1.96983E+01 0.00000E+00
 -1     10886-1.06562E+01 2.02069E+01 0.00000E+00
 -1     10887-9.06250E+00 1.96983E+01 0.00000E+00
 -1     10888-9.59375E+00 2.02069E+01 0.00000E+00
 -1     10889-8.53125E+00 2.02069E+01 0.00000E+00
 -1     10890-2.39375E+01 2.07155E+01 0.00000E+00
 -1     10891-2.44688E+01 2.12241E+01 0.00000E+00
 -1     10892-2.28750E+01 2.07155E+01 0.00000E+00
 -1     10893-2.34062E+01 2.12241E+01 0.00000E+00
 -1     10894-2.18125E+01 2.07155E+01 0.00000E+00
 -1     10895-2.23438E+01 2.12241E+01 0.00000E+00
 -1     10896-2.07500E+01 2.07155E+01 0.00000E+00
 -1     10897-2.12812E+01 2.12241E+01 0.00000E+00
 -1     10898-1.96875E+01 2.07155E+01 0.00000E+00
 -1     10899-2.02188E+01 2.12241E+01 0.00000E+00
 -1     10900-1.86250E+01 2.07155E+01 0.00000E+00
 -1     10901-1.91562E+01 2.12241E+01 0.00000E+00
 -1     10902-1.75625E+01 2.07155E+01 0.00000E+00
 -1     10903-1.80938E+01 2.12241E+01 0.00000E+00
 -1     10904-1.65000E+01 2.07155E+01 0.00000E+00
 -1     10905-1.70312E+01 2.12241E+01 0.00000E+00
 -1     10906-1.54375E+01 2.07155E+01 0.00000E+00
 -1     10907-1.59688E+01 2.12241E+01 0.00000E+00
 -1     10908-1.43750E+01 2.07155E+01 0.00000E+00
 -1     10909-1.49062E+01 2.12241E+01 0.00000E+00
 -1     10910-1.33125E+01 2.07155E+01 0.00000E+00
 -1     10911-1.38438E+01 2.12241E+01 0.00000E+00
 -1     10912-1.22500E+01 2.07155E+01 0.00000E+00
 -1     10913-1.27812E+01 2.12241E+01 0.00000E+00
 -1     10914-1.11875E+01 2.07155E+01 0.00000E+00
 -1     10915-1.17188E+01 2.12241E+01 0.00000E+00
 -1     10916-1.01250E+01 2.07155E+01 0.00000E+00
 -1     10917-1.06562E+01 2.12241E+01 0.00000E+00
 -1     10918-9.06250E+00 2.07155E+01 0.00000E+00
 -1     10919-9.59375E+00 2.12241E+01 0.00000E+00
 -1     10920-8.53125E+00 2.12241E+01 0.00000E+00
 -1     10921-2.39375E+01 2.17328E+01 0.00000E+00
 -1     10922-2.44688E+01 2.22414E+01 0.00000E+00
 -1     10923-2.28750E+01 2.17328E+01 0.00000E+00
 -1     10924-2.34062E+01 2.22414E+01 0.00000E+00
 -1     10925-2.18125E+01 2.17328E+01 0.00000E+00
 -1     10926-2.23438E+01 2.22414E+01 0.00000E+00
 -1     10927-2.07500E+01 2.17328E+01 0.00000E+00
 -1     10928-2.12812E+01 2.22414E+01 0.00000E+00
 -1     10929-1.96875E+01 2.17328E+01 0.00000E+00
 -1     10930-2.02188E+01 2.22414E+01 0.00000E+00
 -1     10931-1.86250E+01 2.17328E+01 0.00000E+00
 -1     10932-1.91562E+01 2.22414E+01 0.00000E+00
 -1     10933-1.75625E+01 2.17328E+01 0.00000E+00
 -1     10934-1.80938E+01 2.22414E+01 0.00000E+00
 -1     10935-1.65000E+01 2.17328E+01 0.00000E+00
 -1     10936-1.70312E+01 2.22414E+01 0.00000E+00
 -1     10937-1.54375E+01 2.17328E+01 0.00000E+00
 -1     10938-1.59688E+01 2.22414E+01 0.00000E+00
 -1     10939-1.43750E+01 2.17328E+01 0.00000E+00
 -1     10940-1.49062E+01 2.22414E+01 0.00000E+00
 -1     10941-1.33125E+01 2.17328E+01 0.00000E+00
 -1     10942-1.38438E+01 2.22414E+01 0.00000E+00
 -1     10943-1.22500E+01 2.17328E+01 0.00000E+00
 -1     10944-1.27812E+01 2.22414E+01 0.00000E+00
 -1     10945-1.11875E+01 2.17328E+01 0.00000E+00
 -1     10946-1.17188E+01 2.22414E+01 0.00000E+00
 -1     10947-1.01250E+01 2.17328E+01 0.00000E+00
 -1     10948-1.06562E+01 2.22414E+01 0.00000E+00
 -1     10949-9.06250E+00 2.17328E+01 0.00000E+00
 -1     10950-9.59375E+00 2.22414E+01 0.00000E+00
 -1     10951-8.53125E+00 2.22414E+01 0.00000E+00
 -1     10952-2.39375E+01 2.27500E+01 0.00000E+00
 -1     10953-2.44688E+01 2.32586E+01 0.00000E+00
 -1     10954-2.28750E+01 2.27500E+01 0.00000E+00
 -1     10955-2.34062E+01 2.32586E+01 0.00000E+00
 -1     10956-2.18125E+01 2.27500E+01 0.00000E+00
 -1     10957-2.23438E+01 2.32586E+01 0.00000E+00
 -1     10958-2.07500E+01 2.27500E+01 0.00000E+00
 -1     10959-2.12812E+01 2.32586E+01 0.00000E+00
 -1     10960-1.96875E+01 2.27500E+01 0.00000E+00
 -1     10961-2.02188E+01 2.32586E+01 0.00000E+00
 -1     10962-1.86250E+01 2.27500E+01 0.00000E+00
 -1     10963-1.91562E+01 2.32586E+01 0.00000E+00
 -1     10964-1.75625E+01 2.27500E+01 0.00000E+00
 -1     10965-1.80938E+01 2.32586E+01 0.00000E+00
 -1     10966-1.65000E+01 2.27500E+01 0.00000E+00
 -1     10967-1.70312E+01 2.32586E+01 0.00000E+00
 -1     10968-1.54375E+01 2.27500E+01 0.00000E+00
 -1     10969-1.59688E+01 2.32586E+01 0.00000E+00
 -1     10970-1.43750E+01 2.27500E+01 0.00000E+00
 -1     10971-1.49062E+01 2.32586E+01 0.00000E+00
 -1     10972-1.33125E+01 2.27500E+01 0.00000E+00
 -1     10973-1.38438E+01 2.32586E+01 0.00000E+00
 -1     10974-1.22500E+01 2.27500E+01 0.00000E+00
 -1     10975-1.27812E+01 2.32586E+01 0.00000E+00
 -1     10976-1.11875E+01 2.27500E+01 0.00000E+00
 -1     10977-1.17188E+01 2.32586E+01 0.00000E+00
 -1     10978-1.01250E+01 2.27500E+01 0.00000E+00
 -1     10979-1.06562E+01 2.32586E+01 0.00000E+00
 -1     10980-9.06250E+00 2.27500E+01 0.00000E+00
 -1     10981-9.59375E+00 2.32586E+01 0.00000E+00
 -1     10982-8.53125E+00 2.32586E+01 0.00000E+00
 -1     10983-2.39375E+01 2.37672E+01 0.00000E+00
 -1     10984-2.44688E+01 2.42759E+01 0.00000E+00
 -1     10985-2.28750E+01 2.37672E+01 0.00000E+00
 -1     10986-2.34062E+01 2.42759E+01 0.00000E+00
 -1     10987-2.18125E+01 2.37672E+01 0.00000E+00
 -1     10988-2.23438E+01 2.42759E+01 0.00000E+00
 -1     10989-2.07500E+01 2.37672E+01 0.00000E+00
 -1     10990-2.12812E+01 2.42759E+01 0.00000E+00
 -1     10991-1.96875E+01 2.37672E+01 0.00000E+00
 -1     10992-2.02188E+01 2.42759E+01 0.00000E+00
 -1     10993-1.86250E+01 2.37672E+01 0.00000E+00
 -1     10994-1.91562E+01 2.42759E+01 0.00000E+00
 -1     10995-1.75625E+01 2.37672E+01 0.00000E+00
 -1     10996-1.80938E+01 2.42759E+01 0.00000E+00
 -1     10997-1.65000E+01 2.37672E+01 0.00000E+00
 -1     10998-1.70312E+01 2.42759E+01 0.00000E+00
 -1     10999-1.54375E+01 2.37672E+01 0.00000E+00
 -1     11000-1.59688E+01 2.42759E+01 0.00000E+00
 -1     11001-1.43750E+01 2.37672E+01 0.00000E+00
 -1     11002-1.49062E+01 2.42759E+01 0.00000E+00
 -1     11003-1.33125E+01 2.37672E+01 0.00000E+00
 -1     11004-1.38438E+01 2.42759E+01 0.00000E+00
 -1     11005-1.22500E+01 2.37672E+01 0.00000E+00
 -1     11006-1.27812E+01 2.42759E+01 0.00000E+00
 -1     11007-1.11875E+01 2.37672E+01 0.00000E+00
 -1     11008-1.17188E+01 2.42759E+01 0.00000E+00
 -1     11009-1.01250E+01 2.37672E+01 0.00000E+00
 -1     11010-1.06562E+01 2.42759E+01 0.00000E+00
 -1     11011-9.06250E+00 2.37672E+01 0.00000E+00
 -1     11012-9.59375E+00 2.42759E+01 0.00000E+00
 -1     11013-8.53125E+00 2.42759E+01 0.00000E+00
 -1     11014-2.39375E+01 2.47845E+01 0.00000E+00
 -1     11015-2.44688E+01 2.52931E+01 0.00000E+00
 -1     11016-2.28750E+01 2.47845E+01 0.00000E+00
 -1     11017-2.34062E+01 2.52931E+01 0.00000E+00
 -1     11018-2.18125E+01 2.47845E+01 0.00000E+00
 -1     11019-2.23438E+01 2.52931E+01 0.00000E+00
 -1     11020-2.07500E+01 2.47845E+01 0.00000E+00
 -1     11021-2.12812E+01 2.52931E+01 0.00000E+00
 -1     11022-1.96875E+01 2.47845E+01 0.00000E+00
 -1     11023-2.02188E+01 2.52931E+01 0.00000E+00
 -1     11024-1.86250E+01 2.47845E+01 0.00000E+00
 -1     11025-1.91562E+01 2.52931E+01 0.00000E+00
 -1     11026-1.75625E+01 2.47845E+01 0.00000E+00
 -1     11027-1.80938E+01 2.52931E+01 0.00000E+00
 -1     11028-1.65000E+01 2.47845E+01 0.00000E+00
 -1     11029-1.70312E+01 2.52931E+01 0.00000E+00
 -1     11030-1.54375E+01 2.47845E+01 0.00000E+00
 -1     11031-1.59688E+01 2.52931E+01 0.00000E+00
 -1     11032-1.43750E+01 2.47845E+01 0.00000E+00
 -1     11033-1.49062E+01 2.52931E+01 0.00000E+00
 -1     11034-1.33125E+01 2.47845E+01 0.00000E+00
 -1     11035-1.38438E+01 2.52931E+01 0.00000E+00
 -1     11036-1.22500E+01 2.47845E+01 0.00000E+00
 -1     11037-1.27812E+01 2.52931E+01 0.00000E+00
 -1     11038-1.11875E+01 2.47845E+01 0.00000E+00
 -1     11039-1.17188E+01 2.52931E+01 0.00000E+00
 -1     11040-1.01250E+01 2.47845E+01 0.00000E+00
 -1     11041-1.06562E+01 2.52931E+01 0.00000E+00
 -1     11042-9.06250E+00 2.47845E+01 0.00000E+00
 -1     11043-9.59375E+00 2.52931E+01 0.00000E+00
 -1     11044-8.53125E+00 2.52931E+01 0.00000E+00
 -1     11045-2.39375E+01 2.58017E+01 0.00000E+00
 -1     11046-2.44688E+01 2.63103E+01 0.00000E+00
 -1     11047-2.28750E+01 2.58017E+01 0.00000E+00
 -1     11048-2.34062E+01 2.63103E+01 0.00000E+00
 -1     11049-2.18125E+01 2.58017E+01 0.00000E+00
 -1     11050-2.23438E+01 2.63103E+01 0.00000E+00
 -1     11051-2.07500E+01 2.58017E+01 0.00000E+00
 -1     11052-2.12812E+01 2.63103E+01 0.00000E+00
 -1     11053-1.96875E+01 2.58017E+01 0.00000E+00
 -1     11054-2.02188E+01 2.63103E+01 0.00000E+00
 -1     11055-1.86250E+01 2.58017E+01 0.00000E+00
 -1     11056-1.91562E+01 2.63103E+01 0.00000E+00
 -1     11057-1.75625E+01 2.58017E+01 0.00000E+00
 -1     11058-1.80938E+01 2.63103E+01 0.00000E+00
 -1     11059-1.65000E+01 2.58017E+01 0.00000E+00
 -1     11060-1.70312E+01 2.63103E+01 0.00000E+00
 -1     11061-1.54375E+01 2.58017E+01 0.00000E+00
 -1     11062-1.59688E+01 2.63103E+01 0.00000E+00
 -1     11063-1.43750E+01 2.58017E+01 0.00000E+00
 -1     11064-1.49062E+01 2.63103E+01 0.00000E+00
 -1     11065-1.33125E+01 2.58017E+01 0.00000E+00
 -1     11066-1.38438E+01 2.63103E+01 0.00000E+00
 -1     11067-1.22500E+01 2.58017E+01 0.00000E+00
 -1     11068-1.27812E+01 2.63103E+01 0.00000E+00
 -1     11069-1.11875E+01 2.58017E+01 0.00000E+00
 -1     11070-1.17188E+01 2.63103E+01 0.00000E+00
 -1     11071-1.01250E+01 2.58017E+01 0.00000E+00
 -1     11072-1.06562E+01 2.63103E+01 0.00000E+00
 -1     11073-9.06250E+00 2.58017E+01 0.00000E+00
 -1     11074-9.59375E+00 2.63103E+01 0.00000E+00
 -1     11075-8.53125E+00 2.63103E+01 0.00000E+00
 -1     11076-2.39375E+01 2.68190E+01 0.00000E+00
 -1     11077-2.44688E+01 2.73276E+01 0.00000E+00
 -1     11078-2.28750E+01 2.68190E+01 0.00000E+00
 -1     11079-2.34062E+01 2.73276E+01 0.00000E+00
 -1     11080-2.18125E+01 2.68190E+01 0.00000E+00
 -1     11081-2.23438E+01 2.73276E+01 0.00000E+00
 -1     11082-2.07500E+01 2.68190E+01 0.00000E+00
 -1     11083-2.12812E+01 2.73276E+01 0.00000E+00
 -1     11084-1.96875E+01 2.68190E+01 0.00000E+00
 -1     11085-2.02188E+01 2.73276E+01 0.00000E+00
 -1     11086-1.86250E+01 2.68190E+01 0.00000E+00
 -1     11087-1.91562E+01 2.73276E+01 0.00000E+00
 -1     11088-1.75625E+01 2.68190E+01 0.00000E+00
 -1     11089-1.80938E+01 2.73276E+01 0.00000E+00
 -1     11090-1.65000E+01 2.68190E+01 0.00000E+00
 -1     11091-1.70312E+01 2.73276E+01 0.00000E+00
 -1     11092-1.54375E+01 2.68190E+01 0.00000E+00
 -1     11093-1.59688E+01 2.73276E+01 0.00000E+00
 -1     11094-1.43750E+01 2.68190E+01 0.00000E+00
 -1     11095-1.49062E+01 2.73276E+01 0.00000E+00
 -1     11096-1.33125E+01 2.68190E+01 0.00000E+00
 -1     11097-1.38438E+01 2.73276E+01 0.00000E+00
 -1     11098-1.22500E+01 2.68190E+01 0.00000E+00
 -1     11099-1.27812E+01 2.73276E+01 0.00000E+00
 -1     11100-1.11875E+01 2.68190E+01 0.00000E+00
 -1     11101-1.17188E+01 2.73276E+01 0.00000E+00
 -1     11102-1.01250E+01 2.68190E+01 0.00000E+00
 -1     11103-1.06562E+01 2.73276E+01 0.00000E+00
 -1     11104-9.06250E+00 2.68190E+01 0.00000E+00
 -1     11105-9.59375E+00 2.73276E+01 0.00000E+00
 -1     11106-8.53125E+00 2.73276E+01 0.00000E+00
 -1     11107-2.39375E+01 2.78362E+01 0.00000E+00
 -1     11108-2.44688E+01 2.83448E+01 0.00000E+00
 -1     11109-2.28750E+01 2.78362E+01 0.00000E+00
 -1     11110-2.34062E+01 2.83448E+01 0.00000E+00
 -1     11111-2.18125E+01 2.78362E+01 0.00000E+00
 -1     11112-2.23438E+01 2.83448E+01 0.00000E+00
 -1     11113-2.07500E+01 2.78362E+01 0.00000E+00
 -1     11114-2.12812E+01 2.83448E+01 0.00000E+00
 -1     11115-1.96875E+01 2.78362E+01 0.00000E+00
 -1     11116-2.02188E+01 2.83448E+01 0.00000E+00
 -1     11117-1.86250E+01 2.78362E+01 0.00000E+00
 -1     11118-1.91562E+01 2.83448E+01 0.00000E+00
 -1     11119-1.75625E+01 2.78362E+01 0.00000E+00
 -1     11120-1.80938E+01 2.83448E+01 0.00000E+00
 -1     11121-1.65000E+01 2.78362E+01 0.00000E+00
 -1     11122-1.70312E+01 2.83448E+01 0.00000E+00
 -1     11123-1.54375E+01 2.78362E+01 0.00000E+00
 -1     11124-1.59688E+01 2.83448E+01 0.00000E+00
 -1     11125-1.43750E+01 2.78362E+01 0.00000E+00
 -1     11126-1.49062E+01 2.83448E+01 0.00000E+00
 -1     11127-1.33125E+01 2.78362E+01 0.00000E+00
 -1     11128-1.38438E+01 2.83448E+01 0.00000E+00
 -1     11129-1.22500E+01 2.78362E+01 0.00000E+00
 -1     11130-1.27812E+01 2.83448E+01 0.00000E+00
 -1     11131-1.11875E+01 2.78362E+01 0.00000E+00
 -1     11132-1.17188E+01 2.83448E+01 0.00000E+00
 -1     11133-1.01250E+01 2.78362E+01 0.00000E+00
 -1     11134-1.06562E+01 2.83448E+01 0.00000E+00
 -1     11135-9.06250E+00 2.78362E+01 0.00000E+00
 -1     11136-9.59375E+00 2.83448E+01 0.00000E+00
 -1     11137-8.53125E+00 2.83448E+01 0.00000E+00
 -1     11138-2.39375E+01 2.88534E+01 0.00000E+00
 -1     11139-2.44688E+01 2.93621E+01 0.00000E+00
 -1     11140-2.28750E+01 2.88534E+01 0.00000E+00
 -1     11141-2.34062E+01 2.93621E+01 0.00000E+00
 -1     11142-2.18125E+01 2.88534E+01 0.00000E+00
 -1     11143-2.23438E+01 2.93621E+01 0.00000E+00
 -1     11144-2.07500E+01 2.88534E+01 0.00000E+00
 -1     11145-2.12812E+01 2.93621E+01 0.00000E+00
 -1     11146-1.96875E+01 2.88534E+01 0.00000E+00
 -1     11147-2.02188E+01 2.93621E+01 0.00000E+00
 -1     11148-1.86250E+01 2.88534E+01 0.00000E+00
 -1     11149-1.91562E+01 2.93621E+01 0.00000E+00
 -1     11150-1.75625E+01 2.88534E+01 0.00000E+00
 -1     11151-1.80938E+01 2.93621E+01 0.00000E+00
 -1     11152-1.65000E+01 2.88534E+01 0.00000E+00
 -1     11153-1.70312E+01 2.93621E+01 0.00000E+00
 -1     11154-1.54375E+01 2.88534E+01 0.00000E+00
 -1     11155-1.59688E+01 2.93621E+01 0.00000E+00
 -1     11156-1.43750E+01 2.88534E+01 0.00000E+00
 -1     11157-1.49062E+01 2.93621E+01 0.00000E+00
 -1     11158-1.33125E+01 2.88534E+01 0.00000E+00
 -1     11159-1.38438E+01 2.93621E+01 0.00000E+00
 -1     11160-1.22500E+01 2.88534E+01 0.00000E+00
 -1     11161-1.27812E+01 2.93621E+01 0.00000E+00
 -1     11162-1.11875E+01 2.88534E+01 0.00000E+00
 -1     11163-1.17188E+01 2.93621E+01 0.00000E+00
 -1     11164-1.01250E+01 2.88534E+01 0.00000E+00
 -1     11165-1.06562E+01 2.93621E+01 0.00000E+00
 -1     11166-9.06250E+00 2.88534E+01 0.00000E+00
 -1     11167-9.59375E+00 2.93621E+01 0.00000E+00
 -1     11168-8.53125E+00 2.93621E+01 0.00000E+00
 -1     11169-2.39375E+01 2.98707E+01 0.00000E+00
 -1     11170-2.44688E+01 3.03793E+01 0.00000E+00
 -1     11171-2.28750E+01 2.98707E+01 0.00000E+00
 -1     11172-2.34062E+01 3.03793E+01 0.00000E+00
 -1     11173-2.18125E+01 2.98707E+01 0.00000E+00
 -1     11174-2.23438E+01 3.03793E+01 0.00000E+00
 -1     11175-2.07500E+01 2.98707E+01 0.00000E+00
 -1     11176-2.12812E+01 3.03793E+01 0.00000E+00
 -1     11177-1.96875E+01 2.98707E+01 0.00000E+00
 -1     11178-2.02188E+01 3.03793E+01 0.00000E+00
 -1     11179-1.86250E+01 2.98707E+01 0.00000E+00
 -1     11180-1.91562E+01 3.03793E+01 0.00000E+00
 -1     11181-1.75625E+01 2.98707E+01 0.00000E+00
 -1     11182-1.80938E+01 3.03793E+01 0.00000E+00
 -1     11183-1.65000E+01 2.98707E+01 0.00000E+00
 -1     11184-1.70312E+01 3.03793E+01 0.00000E+00
 -1     11185-1.54375E+01 2.98707E+01 0.00000E+00
 -1     11186-1.59688E+01 3.03793E+01 0.00000E+00
 -1     11187-1.43750E+01 2.98707E+01 0.00000E+00
 -1     11188-1.49062E+01 3.03793E+01 0.00000E+00
 -1     11189-1.33125E+01 2.98707E+01 0.00000E+00
 -1     11190-1.38438E+01 3.03793E+01 0.00000E+00
 -1     11191-1.22500E+01 2.98707E+01 0.00000E+00
 -1     11192-1.27812E+01 3.03793E+01 0.00000E+00
 -1     11193-1.11875E+01 2.98707E+01 0.00000E+00
 -1     11194-1.17188E+01 3.03793E+01 0.00000E+00
 -1     11195-1.01250E+01 2.98707E+01 0.00000E+00
 -1     11196-1.06562E+01 3.03793E+01 0.00000E+00
 -1     11197-9.06250E+00 2.98707E+01 0.00000E+00
 -1     11198-9.59375E+00 3.03793E+01 0.00000E+00
 -1     11199-8.53125E+00 3.03793E+01 0.00000E+00
 -1     11200-2.39375E+01 3.08879E+01 0.00000E+00
 -1     11201-2.44688E+01 3.13966E+01 0.00000E+00
 -1     11202-2.28750E+01 3.08879E+01 0.00000E+00
 -1     11203-2.34062E+01 3.13966E+01 0.00000E+00
 -1     11204-2.18125E+01 3.08879E+01 0.00000E+00
 -1     11205-2.23438E+01 3.13966E+01 0.00000E+00
 -1     11206-2.07500E+01 3.08879E+01 0.00000E+00
 -1     11207-2.12812E+01 3.13966E+01 0.00000E+00
 -1     11208-1.96875E+01 3.08879E+01 0.00000E+00
 -1     11209-2.02188E+01 3.13966E+01 0.00000E+00
 -1     11210-1.86250E+01 3.08879E+01 0.00000E+00
 -1     11211-1.91562E+01 3.13966E+01 0.00000E+00
 -1     11212-1.75625E+01 3.08879E+01 0.00000E+00
 -1     11213-1.80938E+01 3.13966E+01 0.00000E+00
 -1     11214-1.65000E+01 3.08879E+01 0.00000E+00
 -1     11215-1.70312E+01 3.13966E+01 0.00000E+00
 -1     11216-1.54375E+01 3.08879E+01 0.00000E+00
 -1     11217-1.59688E+01 3.13966E+01 0.00000E+00
 -1     11218-1.43750E+01 3.08879E+01 0.00000E+00
 -1     11219-1.49062E+01 3.13966E+01 0.00000E+00
 -1     11220-1.33125E+01 3.08879E+01 0.00000E+00
 -1     11221-1.38438E+01 3.13966E+01 0.00000E+00
 -1     11222-1.22500E+01 3.08879E+01 0.00000E+00
 -1     11223-1.27812E+01 3.13966E+01 0.00000E+00
 -1     11224-1.11875E+01 3.08879E+01 0.00000E+00
 -1     11225-1.17188E+01 3.13966E+01 0.00000E+00
 -1     11226-1.01250E+01 3.08879E+01 0.00000E+00
 -1     11227-1.06562E+01 3.13966E+01 0.00000E+00
 -1     11228-9.06250E+00 3.08879E+01 0.00000E+00
 -1     11229-9.59375E+00 3.13966E+01 0.00000E+00
 -1     11230-8.53125E+00 3.13966E+01 0.00000E+00
 -1     11231-2.39375E+01 3.19052E+01 0.00000E+00
 -1     11232-2.44688E+01 3.24138E+01 0.00000E+00
 -1     11233-2.28750E+01 3.19052E+01 0.00000E+00
 -1     11234-2.34062E+01 3.24138E+01 0.00000E+00
 -1     11235-2.18125E+01 3.19052E+01 0.00000E+00
 -1     11236-2.23438E+01 3.24138E+01 0.00000E+00
 -1     11237-2.07500E+01 3.19052E+01 0.00000E+00
 -1     11238-2.12812E+01 3.24138E+01 0.00000E+00
 -1     11239-1.96875E+01 3.19052E+01 0.00000E+00
 -1     11240-2.02188E+01 3.24138E+01 0.00000E+00
 -1     11241-1.86250E+01 3.19052E+01 0.00000E+00
 -1     11242-1.91562E+01 3.24138E+01 0.00000E+00
 -1     11243-1.75625E+01 3.19052E+01 0.00000E+00
 -1     11244-1.80938E+01 3.24138E+01 0.00000E+00
 -1     11245-1.65000E+01 3.19052E+01 0.00000E+00
 -1     11246-1.70312E+01 3.24138E+01 0.00000E+00
 -1     11247-1.54375E+01 3.19052E+01 0.00000E+00
 -1     11248-1.59688E+01 3.24138E+01 0.00000E+00
 -1     11249-1.43750E+01 3.19052E+01 0.00000E+00
 -1     11250-1.49062E+01 3.24138E+01 0.00000E+00
 -1     11251-1.33125E+01 3.19052E+01 0.00000E+00
 -1     11252-1.38438E+01 3.24138E+01 0.00000E+00
 -1     11253-1.22500E+01 3.19052E+01 0.00000E+00
 -1     11254-1.27812E+01 3.24138E+01 0.00000E+00
 -1     11255-1.11875E+01 3.19052E+01 0.00000E+00
 -1     11256-1.17188E+01 3.24138E+01 0.00000E+00
 -1     11257-1.01250E+01 3.19052E+01 0.00000E+00
 -1     11258-1.06562E+01 3.24138E+01 0.00000E+00
 -1     11259-9.06250E+00 3.19052E+01 0.00000E+00
 -1     11260-9.59375E+00 3.24138E+01 0.00000E+00
 -1     11261-8.53125E+00 3.24138E+01 0.00000E+00
 -1     11262-2.39375E+01 3.29224E+01 0.00000E+00
 -1     11263-2.44688E+01 3.34310E+01 0.00000E+00
 -1     11264-2.28750E+01 3.29224E+01 0.00000E+00
 -1     11265-2.34062E+01 3.34310E+01 0.00000E+00
 -1     11266-2.18125E+01 3.29224E+01 0.00000E+00
 -1     11267-2.23438E+01 3.34310E+01 0.00000E+00
 -1     11268-2.07500E+01 3.29224E+01 0.00000E+00
 -1     11269-2.12812E+01 3.34310E+01 0.00000E+00
 -1     11270-1.96875E+01 3.29224E+01 0.00000E+00
 -1     11271-2.02188E+01 3.34310E+01 0.00000E+00
 -1     11272-1.86250E+01 3.29224E+01 0.00000E+00
 -1     11273-1.91562E+01 3.34310E+01 0.00000E+00
 -1     11274-1.75625E+01 3.29224E+01 0.00000E+00
 -1     11275-1.80938E+01 3.34310E+01 0.00000E+00
 -1     11276-1.65000E+01 3.29224E+01 0.00000E+00
 -1     11277-1.70312E+01 3.34310E+01 0.00000E+00
 -1     11278-1.54375E+01 3.29224E+01 0.00000E+00
 -1     11279-1.59688E+01 3.34310E+01 0.00000E+00
 -1     11280-1.43750E+01 3.29224E+01 0.00000E+00
 -1     11281-1.49062E+01 3.34310E+01 0.00000E+00
 -1     11282-1.33125E+01 3.29224E+01 0.00000E+00
 -1     11283-1.38438E+01 3.34310E+01 0.00000E+00
 -1     11284-1.22500E+01 3.29224E+01 0.00000E+00
 -1     11285-1.27812E+01 3.34310E+01 0.00000E+00
 -1     11286-1.11875E+01 3.29224E+01 0.00000E+00
 -1     11287-1.17188E+01 3.34310E+01 0.00000E+00
 -1     11288-1.01250E+01 3.29224E+01 0.00000E+00
 -1     11289-1.06562E+01 3.34310E+01 0.00000E+00
 -1     11290-9.06250E+00 3.29224E+01 0.00000E+00
 -1     11291-9.59375E+00 3.34310E+01 0.00000E+00
 -1     11292-8.53125E+00 3.34310E+01 0.00000E+00
 -1     11293-2.39375E+01 3.39397E+01 0.00000E+00
 -1     11294-2.44688E+01 3.44483E+01 0.00000E+00
 -1     11295-2.28750E+01 3.39397E+01 0.00000E+00
 -1     11296-2.34062E+01 3.44483E+01 0.00000E+00
 -1     11297-2.18125E+01 3.39397E+01 0.00000E+00
 -1     11298-2.23438E+01 3.44483E+01 0.00000E+00
 -1     11299-2.07500E+01 3.39397E+01 0.00000E+00
 -1     11300-2.12812E+01 3.44483E+01 0.00000E+00
 -1     11301-1.96875E+01 3.39397E+01 0.00000E+00
 -1     11302-2.02188E+01 3.44483E+01 0.00000E+00
 -1     11303-1.86250E+01 3.39397E+01 0.00000E+00
 -1     11304-1.91562E+01 3.44483E+01 0.00000E+00
 -1     11305-1.75625E+01 3.39397E+01 0.00000E+00
 -1     11306-1.80938E+01 3.44483E+01 0.00000E+00
 -1     11307-1.65000E+01 3.39397E+01 0.00000E+00
 -1     11308-1.70312E+01 3.44483E+01 0.00000E+00
 -1     11309-1.54375E+01 3.39397E+01 0.00000E+00
 -1     11310-1.59688E+01 3.44483E+01 0.00000E+00
 -1     11311-1.43750E+01 3.39397E+01 0.00000E+00
 -1     11312-1.49062E+01 3.44483E+01 0.00000E+00
 -1     11313-1.33125E+01 3.39397E+01 0.00000E+00
 -1     11314-1.38438E+01 3.44483E+01 0.00000E+00
 -1     11315-1.22500E+01 3.39397E+01 0.00000E+00
 -1     11316-1.27812E+01 3.44483E+01 0.00000E+00
 -1     11317-1.11875E+01 3.39397E+01 0.00000E+00
 -1     11318-1.17188E+01 3.44483E+01 0.00000E+00
 -1     11319-1.01250E+01 3.39397E+01 0.00000E+00
 -1     11320-1.06562E+01 3.44483E+01 0.00000E+00
 -1     11321-9.06250E+00 3.39397E+01 0.00000E+00
 -1     11322-9.59375E+00 3.44483E+01 0.00000E+00
 -1     11323-8.53125E+00 3.44483E+01 0.00000E+00
 -1     11324-2.39375E+01 3.49569E+01 0.00000E+00
 -1     11325-2.44688E+01 3.54655E+01 0.00000E+00
 -1     11326-2.28750E+01 3.49569E+01 0.00000E+00
 -1     11327-2.34062E+01 3.54655E+01 0.00000E+00
 -1     11328-2.18125E+01 3.49569E+01 0.00000E+00
 -1     11329-2.23438E+01 3.54655E+01 0.00000E+00
 -1     11330-2.07500E+01 3.49569E+01 0.00000E+00
 -1     11331-2.12812E+01 3.54655E+01 0.00000E+00
 -1     11332-1.96875E+01 3.49569E+01 0.00000E+00
 -1     11333-2.02188E+01 3.54655E+01 0.00000E+00
 -1     11334-1.86250E+01 3.49569E+01 0.00000E+00
 -1     11335-1.91562E+01 3.54655E+01 0.00000E+00
 -1     11336-1.75625E+01 3.49569E+01 0.00000E+00
 -1     11337-1.80938E+01 3.54655E+01 0.00000E+00
 -1     11338-1.65000E+01 3.49569E+01 0.00000E+00
 -1     11339-1.70312E+01 3.54655E+01 0.00000E+00
 -1     11340-1.54375E+01 3.49569E+01 0.00000E+00
 -1     11341-1.59688E+01 3.54655E+01 0.00000E+00
 -1     11342-1.43750E+01 3.49569E+01 0.00000E+00
 -1     11343-1.49062E+01 3.54655E+01 0.00000E+00
 -1     11344-1.33125E+01 3.49569E+01 0.00000E+00
 -1     11345-1.38438E+01 3.54655E+01 0.00000E+00
 -1     11346-1.22500E+01 3.49569E+01 0.00000E+00
 -1     11347-1.27812E+01 3.54655E+01 0.00000E+00
 -1     11348-1.11875E+01 3.49569E+01 0.00000E+00
 -1     11349-1.17188E+01 3.54655E+01 0.00000E+00
 -1     11350-1.01250E+01 3.49569E+01 0.00000E+00
 -1     11351-1.06562E+01 3.54655E+01 0.00000E+00
 -1     11352-9.06250E+00 3.49569E+01 0.00000E+00
 -1     11353-9.59375E+00 3.54655E+01 0.00000E+00
 -1     11354-8.53125E+00 3.54655E+01 0.00000E+00
 -1     11355-2.39375E+01 3.59741E+01 0.00000E+00
 -1     11356-2.44688E+01 3.64828E+01 0.00000E+00
 -1     11357-2.28750E+01 3.59741E+01 0.00000E+00
 -1     11358-2.34062E+01 3.64828E+01 0.00000E+00
 -1     11359-2.18125E+01 3.59741E+01 0.00000E+00
 -1     11360-2.23438E+01 3.64828E+01 0.00000E+00
 -1     11361-2.07500E+01 3.59741E+01 0.00000E+00
 -1     11362-2.12812E+01 3.64828E+01 0.00000E+00
 -1     11363-1.96875E+01 3.59741E+01 0.00000E+00
 -1     11364-2.02188E+01 3.64828E+01 0.00000E+00
 -1     11365-1.86250E+01 3.59741E+01 0.00000E+00
 -1     11366-1.91562E+01 3.64828E+01 0.00000E+00
 -1     11367-1.75625E+01 3.59741E+01 0.00000E+00
 -1     11368-1.80938E+01 3.64828E+01 0.00000E+00
 -1     11369-1.65000E+01 3.59741E+01 0.00000E+00
 -1     11370-1.70312E+01 3.64828E+01 0.00000E+00
 -1     11371-1.54375E+01 3.59741E+01 0.00000E+00
 -1     11372-1.59688E+01 3.64828E+01 0.00000E+00
 -1     11373-1.43750E+01 3.59741E+01 0.00000E+00
 -1     11374-1.49062E+01 3.64828E+01 0.00000E+00
 -1     11375-1.33125E+01 3.59741E+01 0.00000E+00
 -1     11376-1.38438E+01 3.64828E+01 0.00000E+00
 -1     11377-1.22500E+01 3.59741E+01 0.00000E+00
 -1     11378-1.27812E+01 3.64828E+01 0.00000E+00
 -1     11379-1.11875E+01 3.59741E+01 0.00000E+00
 -1     11380-1.17188E+01 3.64828E+01 0.00000E+00
 -1     11381-1.01250E+01 3.59741E+01 0.00000E+00
 -1     11382-1.06562E+01 3.64828E+01 0.00000E+00
 -1     11383-9.06250E+00 3.59741E+01 0.00000E+00
 -1     11384-9.59375E+00 3.64828E+01 0.00000E+00
 -1     11385-8.53125E+00 3.64828E+01 0.00000E+00
 -1     11386-2.39375E+01 3.69914E+01 0.00000E+00
 -1     11387-2.28750E+01 3.69914E+01 0.00000E+00
 -1     11388-2.18125E+01 3.69914E+01 0.00000E+00
 -1     11389-2.07500E+01 3.69914E+01 0.00000E+00
 -1     11390-1.96875E+01 3.69914E+01 0.00000E+00
 -1     11391-1.86250E+01 3.69914E+01 0.00000E+00
 -1     11392-1.75625E+01 3.69914E+01 0.00000E+00
 -1     11393-1.65000E+01 3.69914E+01 0.00000E+00
 -1     11394-1.54375E+01 3.69914E+01 0.00000E+00
 -1     11395-1.43750E+01 3.69914E+01 0.00000E+00
 -1     11396-1.33125E+01 3.69914E+01 0.00000E+00
 -1     11397-1.22500E+01 3.69914E+01 0.00000E+00
 -1     11398-1.11875E+01 3.69914E+01 0.00000E+00
 -1     11399-1.01250E+01 3.69914E+01 0.00000E+00
 -1     11400-9.06250E+00 3.69914E+01 0.00000E+00
 -1     11401-6.93333E+00 3.64828E+01 0.00000E+00
 -1     11402-6.93333E+00 3.54655E+01 0.00000E+00
 -1     11403-6.93333E+00 3.44483E+01 0.00000E+00
 -1     11404-6.93333E+00 3.34310E+01 0.00000E+00
 -1     11405-6.93333E+00 3.24138E+01 0.00000E+00
 -1     11406-6.93333E+00 3.13966E+01 0.00000E+00
 -1     11407-6.93333E+00 3.03793E+01 0.00000E+00
 -1     11408-6.93333E+00 2.93621E+01 0.00000E+00
 -1     11409-6.93333E+00 2.83448E+01 0.00000E+00
 -1     11410-6.93333E+00 2.73276E+01 0.00000E+00
 -1     11411-6.93333E+00 2.63103E+01 0.00000E+00
 -1     11412-6.93333E+00 2.52931E+01 0.00000E+00
 -1     11413-6.93333E+00 2.42759E+01 0.00000E+00
 -1     11414-6.93333E+00 2.32586E+01 0.00000E+00
 -1     11415-6.93333E+00 2.22414E+01 0.00000E+00
 -1     11416-6.93333E+00 2.12241E+01 0.00000E+00
 -1     11417-6.93333E+00 2.02069E+01 0.00000E+00
 -1     11418-6.93333E+00 1.91897E+01 0.00000E+00
 -1     11419-6.93333E+00 1.81724E+01 0.00000E+00
 -1     11420-6.93333E+00 1.71552E+01 0.00000E+00
 -1     11421-6.93333E+00 1.61379E+01 0.00000E+00
 -1     11422-6.93333E+00 1.51207E+01 0.00000E+00
 -1     11423-6.93333E+00 1.41034E+01 0.00000E+00
 -1     11424-6.93333E+00 1.30862E+01 0.00000E+00
 -1     11425-6.93333E+00 1.20690E+01 0.00000E+00
 -1     11426-6.93333E+00 1.10517E+01 0.00000E+00
 -1     11427-6.93333E+00 1.00345E+01 0.00000E+00
 -1     11428-6.93333E+00 9.01724E+00 0.00000E+00
 -1     11429-5.86667E+00 3.64828E+01 0.00000E+00
 -1     11430-5.86667E+00 3.54655E+01 0.00000E+00
 -1     11431-5.86667E+00 3.44483E+01 0.00000E+00
 -1     11432-5.86667E+00 3.34310E+01 0.00000E+00
 -1     11433-5.86667E+00 3.24138E+01 0.00000E+00
 -1     11434-5.86667E+00 3.13966E+01 0.00000E+00
 -1     11435-5.86667E+00 3.03793E+01 0.00000E+00
 -1     11436-5.86667E+00 2.93621E+01 0.00000E+00
 -1     11437-5.86667E+00 2.83448E+01 0.00000E+00
 -1     11438-5.86667E+00 2.73276E+01 0.00000E+00
 -1     11439-5.86667E+00 2.63103E+01 0.00000E+00
 -1     11440-5.86667E+00 2.52931E+01 0.00000E+00
 -1     11441-5.86667E+00 2.42759E+01 0.00000E+00
 -1     11442-5.86667E+00 2.32586E+01 0.00000E+00
 -1     11443-5.86667E+00 2.22414E+01 0.00000E+00
 -1     11444-5.86667E+00 2.12241E+01 0.00000E+00
 -1     11445-5.86667E+00 2.02069E+01 0.00000E+00
 -1     11446-5.86667E+00 1.91897E+01 0.00000E+00
 -1     11447-5.86667E+00 1.81724E+01 0.00000E+00
 -1     11448-5.86667E+00 1.71552E+01 0.00000E+00
 -1     11449-5.86667E+00 1.61379E+01 0.00000E+00
 -1     11450-5.86667E+00 1.51207E+01 0.00000E+00
 -1     11451-5.86667E+00 1.41034E+01 0.00000E+00
 -1     11452-5.86667E+00 1.30862E+01 0.00000E+00
 -1     11453-5.86667E+00 1.20690E+01 0.00000E+00
 -1     11454-5.86667E+00 1.10517E+01 0.00000E+00
 -1     11455-5.86667E+00 1.00345E+01 0.00000E+00
 -1     11456-5.86667E+00 9.01724E+00 0.00000E+00
 -1     11457-4.80000E+00 3.64828E+01 0.00000E+00
 -1     11458-4.80000E+00 3.54655E+01 0.00000E+00
 -1     11459-4.80000E+00 3.44483E+01 0.00000E+00
 -1     11460-4.80000E+00 3.34310E+01 0.00000E+00
 -1     11461-4.80000E+00 3.24138E+01 0.00000E+00
 -1     11462-4.80000E+00 3.13966E+01 0.00000E+00
 -1     11463-4.80000E+00 3.03793E+01 0.00000E+00
 -1     11464-4.80000E+00 2.93621E+01 0.00000E+00
 -1     11465-4.80000E+00 2.83448E+01 0.00000E+00
 -1     11466-4.80000E+00 2.73276E+01 0.00000E+00
 -1     11467-4.80000E+00 2.63103E+01 0.00000E+00
 -1     11468-4.80000E+00 2.52931E+01 0.00000E+00
 -1     11469-4.80000E+00 2.42759E+01 0.00000E+00
 -1     11470-4.80000E+00 2.32586E+01 0.00000E+00
 -1     11471-4.80000E+00 2.22414E+01 0.00000E+00
 -1     11472-4.80000E+00 2.12241E+01 0.00000E+00
 -1     11473-4.80000E+00 2.02069E+01 0.00000E+00
 -1     11474-4.80000E+00 1.91897E+01 0.00000E+00
 -1     11475-4.80000E+00 1.81724E+01 0.00000E+00
 -1     11476-4.80000E+00 1.71552E+01 0.00000E+00
 -1     11477-4.80000E+00 1.61379E+01 0.00000E+00
 -1     11478-4.80000E+00 1.51207E+01 0.00000E+00
 -1     11479-4.80000E+00 1.41034E+01 0.00000E+00
 -1     11480-4.80000E+00 1.30862E+01 0.00000E+00
 -1     11481-4.80000E+00 1.20690E+01 0.00000E+00
 -1     11482-4.80000E+00 1.10517E+01 0.00000E+00
 -1     11483-4.80000E+00 1.00345E+01 0.00000E+00
 -1     11484-4.80000E+00 9.01724E+00 0.00000E+00
 -1     11485-3.73333E+00 3.64828E+01 0.00000E+00
 -1     11486-3.73333E+00 3.54655E+01 0.00000E+00
 -1     11487-3.73333E+00 3.44483E+01 0.00000E+00
 -1     11488-3.73333E+00 3.34310E+01 0.00000E+00
 -1     11489-3.73333E+00 3.24138E+01 0.00000E+00
 -1     11490-3.73333E+00 3.13966E+01 0.00000E+00
 -1     11491-3.73333E+00 3.03793E+01 0.00000E+00
 -1     11492-3.73333E+00 2.93621E+01 0.00000E+00
 -1     11493-3.73333E+00 2.83448E+01 0.00000E+00
 -1     11494-3.73333E+00 2.73276E+01 0.00000E+00
 -1     11495-3.73333E+00 2.63103E+01 0.00000E+00
 -1     11496-3.73333E+00 2.52931E+01 0.00000E+00
 -1     11497-3.73333E+00 2.42759E+01 0.00000E+00
 -1     11498-3.73333E+00 2.32586E+01 0.00000E+00
 -1     11499-3.73333E+00 2.22414E+01 0.00000E+00
 -1     11500-3.73333E+00 2.12241E+01 0.00000E+00
 -1     11501-3.73333E+00 2.02069E+01 0.00000E+00
 -1     11502-3.73333E+00 1.91897E+01 0.00000E+00
 -1     11503-3.73333E+00 1.81724E+01 0.00000E+00
 -1     11504-3.73333E+00 1.71552E+01 0.00000E+00
 -1     11505-3.73333E+00 1.61379E+01 0.00000E+00
 -1     11506-3.73333E+00 1.51207E+01 0.00000E+00
 -1     11507-3.73333E+00 1.41034E+01 0.00000E+00
 -1     11508-3.73333E+00 1.30862E+01 0.00000E+00
 -1     11509-3.73333E+00 1.20690E+01 0.00000E+00
 -1     11510-3.73333E+00 1.10517E+01 0.00000E+00
 -1     11511-3.73333E+00 1.00345E+01 0.00000E+00
 -1     11512-3.73333E+00 9.01724E+00 0.00000E+00
 -1     11513-2.66667E+00 3.64828E+01 0.00000E+00
 -1     11514-2.66667E+00 3.54655E+01 0.00000E+00
 -1     11515-2.66667E+00 3.44483E+01 0.00000E+00
 -1     11516-2.66667E+00 3.34310E+01 0.00000E+00
 -1     11517-2.66667E+00 3.24138E+01 0.00000E+00
 -1     11518-2.66667E+00 3.13966E+01 0.00000E+00
 -1     11519-2.66667E+00 3.03793E+01 0.00000E+00
 -1     11520-2.66667E+00 2.93621E+01 0.00000E+00
 -1     11521-2.66667E+00 2.83448E+01 0.00000E+00
 -1     11522-2.66667E+00 2.73276E+01 0.00000E+00
 -1     11523-2.66667E+00 2.63103E+01 0.00000E+00
 -1     11524-2.66667E+00 2.52931E+01 0.00000E+00
 -1     11525-2.66667E+00 2.42759E+01 0.00000E+00
 -1     11526-2.66667E+00 2.32586E+01 0.00000E+00
 -1     11527-2.66667E+00 2.22414E+01 0.00000E+00
 -1     11528-2.66667E+00 2.12241E+01 0.00000E+00
 -1     11529-2.66667E+00 2.02069E+01 0.00000E+00
 -1     11530-2.66667E+00 1.91897E+01 0.00000E+00
 -1     11531-2.66667E+00 1.81724E+01 0.00000E+00
 -1     11532-2.66667E+00 1.71552E+01 0.00000E+00
 -1     11533-2.66667E+00 1.61379E+01 0.00000E+00
 -1     11534-2.66667E+00 1.51207E+01 0.00000E+00
 -1     11535-2.66667E+00 1.41034E+01 0.00000E+00
 -1     11536-2.66667E+00 1.30862E+01 0.00000E+00
 -1     11537-2.66667E+00 1.20690E+01 0.00000E+00
 -1     11538-2.66667E+00 1.10517E+01 0.00000E+00
 -1     11539-2.66667E+00 1.00345E+01 0.00000E+00
 -1     11540-2.66667E+00 9.01724E+00 0.00000E+00
 -1     11541-1.60000E+00 3.64828E+01 0.00000E+00
 -1     11542-1.60000E+00 3.54655E+01 0.00000E+00
 -1     11543-1.60000E+00 3.44483E+01 0.00000E+00
 -1     11544-1.60000E+00 3.34310E+01 0.00000E+00
 -1     11545-1.60000E+00 3.24138E+01 0.00000E+00
 -1     11546-1.60000E+00 3.13966E+01 0.00000E+00
 -1     11547-1.60000E+00 3.03793E+01 0.00000E+00
 -1     11548-1.60000E+00 2.93621E+01 0.00000E+00
 -1     11549-1.60000E+00 2.83448E+01 0.00000E+00
 -1     11550-1.60000E+00 2.73276E+01 0.00000E+00
 -1     11551-1.60000E+00 2.63103E+01 0.00000E+00
 -1     11552-1.60000E+00 2.52931E+01 0.00000E+00
 -1     11553-1.60000E+00 2.42759E+01 0.00000E+00
 -1     11554-1.60000E+00 2.32586E+01 0.00000E+00
 -1     11555-1.60000E+00 2.22414E+01 0.00000E+00
 -1     11556-1.60000E+00 2.12241E+01 0.00000E+00
 -1     11557-1.60000E+00 2.02069E+01 0.00000E+00
 -1     11558-1.60000E+00 1.91897E+01 0.00000E+00
 -1     11559-1.60000E+00 1.81724E+01 0.00000E+00
 -1     11560-1.60000E+00 1.71552E+01 0.00000E+00
 -1     11561-1.60000E+00 1.61379E+01 0.00000E+00
 -1     11562-1.60000E+00 1.51207E+01 0.00000E+00
 -1     11563-1.60000E+00 1.41034E+01 0.00000E+00
 -1     11564-1.60000E+00 1.30862E+01 0.00000E+00
 -1     11565-1.60000E+00 1.20690E+01 0.00000E+00
 -1     11566-1.60000E+00 1.10517E+01 0.00000E+00
 -1     11567-1.60000E+00 1.00345E+01 0.00000E+00
 -1     11568-1.60000E+00 9.01724E+00 0.00000E+00
 -1     11569-5.33333E-01 3.64828E+01 0.00000E+00
 -1     11570-5.33333E-01 3.54655E+01 0.00000E+00
 -1     11571-5.33333E-01 3.44483E+01 0.00000E+00
 -1     11572-5.33333E-01 3.34310E+01 0.00000E+00
 -1     11573-5.33333E-01 3.24138E+01 0.00000E+00
 -1     11574-5.33333E-01 3.13966E+01 0.00000E+00
 -1     11575-5.33333E-01 3.03793E+01 0.00000E+00
 -1     11576-5.33333E-01 2.93621E+01 0.00000E+00
 -1     11577-5.33333E-01 2.83448E+01 0.00000E+00
 -1     11578-5.33333E-01 2.73276E+01 0.00000E+00
 -1     11579-5.33333E-01 2.63103E+01 0.00000E+00
 -1     11580-5.33333E-01 2.52931E+01 0.00000E+00
 -1     11581-5.33333E-01 2.42759E+01 0.00000E+00
 -1     11582-5.33333E-01 2.32586E+01 0.00000E+00
 -1     11583-5.33333E-01 2.22414E+01 0.00000E+00
 -1     11584-5.33333E-01 2.12241E+01 0.00000E+00
 -1     11585-5.33333E-01 2.02069E+01 0.00000E+00
 -1     11586-5.33333E-01 1.91897E+01 0.00000E+00
 -1     11587-5.33333E-01 1.81724E+01 0.00000E+00
 -1     11588-5.33333E-01 1.71552E+01 0.00000E+00
 -1     11589-5.33333E-01 1.61379E+01 0.00000E+00
 -1     11590-5.33333E-01 1.51207E+01 0.00000E+00
 -1     11591-5.33333E-01 1.41034E+01 0.00000E+00
 -1     11592-5.33333E-01 1.30862E+01 0.00000E+00
 -1     11593-5.33333E-01 1.20690E+01 0.00000E+00
 -1     11594-5.33333E-01 1.10517E+01 0.00000E+00
 -1     11595-5.33333E-01 1.00345E+01 0.00000E+00
 -1     11596-5.33333E-01 9.01724E+00 0.00000E+00
 -1     11597 5.33333E-01 3.64828E+01 0.00000E+00
 -1     11598 5.33333E-01 3.54655E+01 0.00000E+00
 -1     11599 5.33333E-01 3.44483E+01 0.00000E+00
 -1     11600 5.33333E-01 3.34310E+01 0.00000E+00
 -1     11601 5.33333E-01 3.24138E+01 0.00000E+00
 -1     11602 5.33333E-01 3.13966E+01 0.00000E+00
 -1     11603 5.33333E-01 3.03793E+01 0.00000E+00
 -1     11604 5.33333E-01 2.93621E+01 0.00000E+00
 -1     11605 5.33333E-01 2.83448E+01 0.00000E+00
 -1     11606 5.33333E-01 2.73276E+01 0.00000E+00
 -1     11607 5.33333E-01 2.63103E+01 0.00000E+00
 -1     11608 5.33333E-01 2.52931E+01 0.00000E+00
 -1     11609 5.33333E-01 2.42759E+01 0.00000E+00
 -1     11610 5.33333E-01 2.32586E+01 0.00000E+00
 -1     11611 5.33333E-01 2.22414E+01 0.00000E+00
 -1     11612 5.33333E-01 2.12241E+01 0.00000E+00
 -1     11613 5.33333E-01 2.02069E+01 0.00000E+00
 -1     11614 5.33333E-01 1.91897E+01 0.00000E+00
 -1     11615 5.33333E-01 1.81724E+01 0.00000E+00
 -1     11616 5.33333E-01 1.71552E+01 0.00000E+00
 -1     11617 5.33333E-01 1.61379E+01 0.00000E+00
 -1     11618 5.33333E-01 1.51207E+01 0.00000E+00
 -1     11619 5.33333E-01 1.41034E+01 0.00000E+00
 -1     11620 5.33333E-01 1.30862E+01 0.00000E+00
 -1     11621 5.33333E-01 1.20690E+01 0.00000E+00
 -1     11622 5.33333E-01 1.10517E+01 0.00000E+00
 -1     11623 5.33333E-01 1.00345E+01 0.00000E+00
 -1     11624 5.33333E-01 9.01724E+00 0.00000E+00
 -1     11625 1.60000E+00 3.64828E+01 0.00000E+00
 -1     11626 1.60000E+00 3.54655E+01 0.00000E+00
 -1     11627 1.60000E+00 3.44483E+01 0.00000E+00
 -1     11628 1.60000E+00 3.34310E+01 0.00000E+00
 -1     11629 1.60000E+00 3.24138E+01 0.00000E+00
 -1     11630 1.60000E+00 3.13966E+01 0.00000E+00
 -1     11631 1.60000E+00 3.03793E+01 0.00000E+00
 -1     11632 1.60000E+00 2.93621E+01 0.00000E+00
 -1     11633 1.60000E+00 2.83448E+01 0.00000E+00
 -1     11634 1.60000E+00 2.73276E+01 0.00000E+00
 -1     11635 1.60000E+00 2.63103E+01 0.00000E+00
 -1     11636 1.60000E+00 2.52931E+01 0.00000E+00
 -1     11637 1.60000E+00 2.42759E+01 0.00000E+00
 -1     11638 1.60000E+00 2.32586E+01 0.00000E+00
 -1     11639 1.60000E+00 2.22414E+01 0.00000E+00
 -1     11640 1.60000E+00 2.12241E+01 0.00000E+00
 -1     11641 1.60000E+00 2.02069E+01 0.00000E+00
 -1     11642 1.60000E+00 1.91897E+01 0.00000E+00
 -1     11643 1.60000E+00 1.81724E+01 0.00000E+00
 -1     11644 1.60000E+00 1.71552E+01 0.00000E+00
 -1     11645 1.60000E+00 1.61379E+01 0.00000E+00
 -1     11646 1.60000E+00 1.51207E+01 0.00000E+00
 -1     11647 1.60000E+00 1.41034E+01 0.00000E+00
 -1     11648 1.60000E+00 1.30862E+01 0.00000E+00
 -1     11649 1.60000E+00 1.20690E+01 0.00000E+00
 -1     11650 1.60000E+00 1.10517E+01 0.00000E+00
 -1     11651 1.60000E+00 1.00345E+01 0.00000E+00
 -1     11652 1.60000E+00 9.01724E+00 0.00000E+00
 -1     11653 2.66667E+00 3.64828E+01 0.00000E+00
 -1     11654 2.66667E+00 3.54655E+01 0.00000E+00
 -1     11655 2.66667E+00 3.44483E+01 0.00000E+00
 -1     11656 2.66667E+00 3.34310E+01 0.00000E+00
 -1     11657 2.66667E+00 3.24138E+01 0.00000E+00
 -1     11658 2.66667E+00 3.13966E+01 0.00000E+00
 -1     11659 2.66667E+00 3.03793E+01 0.00000E+00
 -1     11660 2.66667E+00 2.93621E+01 0.00000E+00
 -1     11661 2.66667E+00 2.83448E+01 0.00000E+00
 -1     11662 2.66667E+00 2.73276E+01 0.00000E+00
 -1     11663 2.66667E+00 2.63103E+01 0.00000E+00
 -1     11664 2.66667E+00 2.52931E+01 0.00000E+00
 -1     11665 2.66667E+00 2.42759E+01 0.00000E+00
 -1     11666 2.66667E+00 2.32586E+01 0.00000E+00
 -1     11667 2.66667E+00 2.22414E+01 0.00000E+00
 -1     11668 2.66667E+00 2.12241E+01 0.00000E+00
 -1     11669 2.66667E+00 2.02069E+01 0.00000E+00
 -1     11670 2.66667E+00 1.91897E+01 0.00000E+00
 -1     11671 2.66667E+00 1.81724E+01 0.00000E+00
 -1     11672 2.66667E+00 1.71552E+01 0.00000E+00
 -1     11673 2.66667E+00 1.61379E+01 0.00000E+00
 -1     11674 2.66667E+00 1.51207E+01 0.00000E+00
 -1     11675 2.66667E+00 1.41034E+01 0.00000E+00
 -1     11676 2.66667E+00 1.30862E+01 0.00000E+00
 -1     11677 2.66667E+00 1.20690E+01 0.00000E+00
 -1     11678 2.66667E+00 1.10517E+01 0.00000E+00
 -1     11679 2.66667E+00 1.00345E+01 0.00000E+00
 -1     11680 2.66667E+00 9.01724E+00 0.00000E+00
 -1     11681 3.73333E+00 3.64828E+01 0.00000E+00
 -1     11682 3.73333E+00 3.54655E+01 0.00000E+00
 -1     11683 3.73333E+00 3.44483E+01 0.00000E+00
 -1     11684 3.73333E+00 3.34310E+01 0.00000E+00
 -1     11685 3.73333E+00 3.24138E+01 0.00000E+00
 -1     11686 3.73333E+00 3.13966E+01 0.00000E+00
 -1     11687 3.73333E+00 3.03793E+01 0.00000E+00
 -1     11688 3.73333E+00 2.93621E+01 0.00000E+00
 -1     11689 3.73333E+00 2.83448E+01 0.00000E+00
 -1     11690 3.73333E+00 2.73276E+01 0.00000E+00
 -1     11691 3.73333E+00 2.63103E+01 0.00000E+00
 -1     11692 3.73333E+00 2.52931E+01 0.00000E+00
 -1     11693 3.73333E+00 2.42759E+01 0.00000E+00
 -1     11694 3.73333E+00 2.32586E+01 0.00000E+00
 -1     11695 3.73333E+00 2.22414E+01 0.00000E+00
 -1     11696 3.73333E+00 2.12241E+01 0.00000E+00
 -1     11697 3.73333E+00 2.02069E+01 0.00000E+00
 -1     11698 3.73333E+00 1.91897E+01 0.00000E+00
 -1     11699 3.73333E+00 1.81724E+01 0.00000E+00
 -1     11700 3.73333E+00 1.71552E+01 0.00000E+00
 -1     11701 3.73333E+00 1.61379E+01 0.00000E+00
 -1     11702 3.73333E+00 1.51207E+01 0.00000E+00
 -1     11703 3.73333E+00 1.41034E+01 0.00000E+00
 -1     11704 3.73333E+00 1.30862E+01 0.00000E+00
 -1     11705 3.73333E+00 1.20690E+01 0.00000E+00
 -1     11706 3.73333E+00 1.10517E+01 0.00000E+00
 -1     11707 3.73333E+00 1.00345E+01 0.00000E+00
 -1     11708 3.73333E+00 9.01724E+00 0.00000E+00
 -1     11709 4.80000E+00 3.64828E+01 0.00000E+00
 -1     11710 4.80000E+00 3.54655E+01 0.00000E+00
 -1     11711 4.80000E+00 3.44483E+01 0.00000E+00
 -1     11712 4.80000E+00 3.34310E+01 0.00000E+00
 -1     11713 4.80000E+00 3.24138E+01 0.00000E+00
 -1     11714 4.80000E+00 3.13966E+01 0.00000E+00
 -1     11715 4.80000E+00 3.03793E+01 0.00000E+00
 -1     11716 4.80000E+00 2.93621E+01 0.00000E+00
 -1     11717 4.80000E+00 2.83448E+01 0.00000E+00
 -1     11718 4.80000E+00 2.73276E+01 0.00000E+00
 -1     11719 4.80000E+00 2.63103E+01 0.00000E+00
 -1     11720 4.80000E+00 2.52931E+01 0.00000E+00
 -1     11721 4.80000E+00 2.42759E+01 0.00000E+00
 -1     11722 4.80000E+00 2.32586E+01 0.00000E+00
 -1     11723 4.80000E+00 2.22414E+01 0.00000E+00
 -1     11724 4.80000E+00 2.12241E+01 0.00000E+00
 -1     11725 4.80000E+00 2.02069E+01 0.00000E+00
 -1     11726 4.80000E+00 1.91897E+01 0.00000E+00
 -1     11727 4.80000E+00 1.81724E+01 0.00000E+00
 -1     11728 4.80000E+00 1.71552E+01 0.00000E+00
 -1     11729 4.80000E+00 1.61379E+01 0.00000E+00
 -1     11730 4.80000E+00 1.51207E+01 0.00000E+00
 -1     11731 4.80000E+00 1.41034E+01 0.00000E+00
 -1     11732 4.80000E+00 1.30862E+01 0.00000E+00
 -1     11733 4.80000E+00 1.20690E+01 0.00000E+00
 -1     11734 4.80000E+00 1.10517E+01 0.00000E+00
 -1     11735 4.80000E+00 1.00345E+01 0.00000E+00
 -1     11736 4.80000E+00 9.01724E+00 0.00000E+00
 -1     11737 5.86667E+00 3.64828E+01 0.00000E+00
 -1     11738 5.86667E+00 3.54655E+01 0.00000E+00
 -1     11739 5.86667E+00 3.44483E+01 0.00000E+00
 -1     11740 5.86667E+00 3.34310E+01 0.00000E+00
 -1     11741 5.86667E+00 3.24138E+01 0.00000E+00
 -1     11742 5.86667E+00 3.13966E+01 0.00000E+00
 -1     11743 5.86667E+00 3.03793E+01 0.00000E+00
 -1     11744 5.86667E+00 2.93621E+01 0.00000E+00
 -1     11745 5.86667E+00 2.83448E+01 0.00000E+00
 -1     11746 5.86667E+00 2.73276E+01 0.00000E+00
 -1     11747 5.86667E+00 2.63103E+01 0.00000E+00
 -1     11748 5.86667E+00 2.52931E+01 0.00000E+00
 -1     11749 5.86667E+00 2.42759E+01 0.00000E+00
 -1     11750 5.86667E+00 2.32586E+01 0.00000E+00
 -1     11751 5.86667E+00 2.22414E+01 0.00000E+00
 -1     11752 5.86667E+00 2.12241E+01 0.00000E+00
 -1     11753 5.86667E+00 2.02069E+01 0.00000E+00
 -1     11754 5.86667E+00 1.91897E+01 0.00000E+00
 -1     11755 5.86667E+00 1.81724E+01 0.00000E+00
 -1     11756 5.86667E+00 1.71552E+01 0.00000E+00
 -1     11757 5.86667E+00 1.61379E+01 0.00000E+00
 -1     11758 5.86667E+00 1.51207E+01 0.00000E+00
 -1     11759 5.86667E+00 1.41034E+01 0.00000E+00
 -1     11760 5.86667E+00 1.30862E+01 0.00000E+00
 -1     11761 5.86667E+00 1.20690E+01 0.00000E+00
 -1     11762 5.86667E+00 1.10517E+01 0.00000E+00
 -1     11763 5.86667E+00 1.00345E+01 0.00000E+00
 -1     11764 5.86667E+00 9.01724E+00 0.00000E+00
 -1     11765 6.93333E+00 3.64828E+01 0.00000E+00
 -1     11766 6.93333E+00 3.54655E+01 0.00000E+00
 -1     11767 6.93333E+00 3.44483E+01 0.00000E+00
 -1     11768 6.93333E+00 3.34310E+01 0.00000E+00
 -1     11769 6.93333E+00 3.24138E+01 0.00000E+00
 -1     11770 6.93333E+00 3.13966E+01 0.00000E+00
 -1     11771 6.93333E+00 3.03793E+01 0.00000E+00
 -1     11772 6.93333E+00 2.93621E+01 0.00000E+00
 -1     11773 6.93333E+00 2.83448E+01 0.00000E+00
 -1     11774 6.93333E+00 2.73276E+01 0.00000E+00
 -1     11775 6.93333E+00 2.63103E+01 0.00000E+00
 -1     11776 6.93333E+00 2.52931E+01 0.00000E+00
 -1     11777 6.93333E+00 2.42759E+01 0.00000E+00
 -1     11778 6.93333E+00 2.32586E+01 0.00000E+00
 -1     11779 6.93333E+00 2.22414E+01 0.00000E+00
 -1     11780 6.93333E+00 2.12241E+01 0.00000E+00
 -1     11781 6.93333E+00 2.02069E+01 0.00000E+00
 -1     11782 6.93333E+00 1.91897E+01 0.00000E+00
 -1     11783 6.93333E+00 1.81724E+01 0.00000E+00
 -1     11784 6.93333E+00 1.71552E+01 0.00000E+00
 -1     11785 6.93333E+00 1.61379E+01 0.00000E+00
 -1     11786 6.93333E+00 1.51207E+01 0.00000E+00
 -1     11787 6.93333E+00 1.41034E+01 0.00000E+00
 -1     11788 6.93333E+00 1.30862E+01 0.00000E+00
 -1     11789 6.93333E+00 1.20690E+01 0.00000E+00
 -1     11790 6.93333E+00 1.10517E+01 0.00000E+00
 -1     11791 6.93333E+00 1.00345E+01 0.00000E+00
 -1     11792 6.93333E+00 9.01724E+00 0.00000E+00
 -1     11793-7.46667E+00 3.64828E+01 0.00000E+00
 -1     11794-6.93333E+00 3.69914E+01 0.00000E+00
 -1     11795-7.46667E+00 3.54655E+01 0.00000E+00
 -1     11796-6.93333E+00 3.59741E+01 0.00000E+00
 -1     11797-7.46667E+00 3.44483E+01 0.00000E+00
 -1     11798-6.93333E+00 3.49569E+01 0.00000E+00
 -1     11799-7.46667E+00 3.34310E+01 0.00000E+00
 -1     11800-6.93333E+00 3.39397E+01 0.00000E+00
 -1     11801-7.46667E+00 3.24138E+01 0.00000E+00
 -1     11802-6.93333E+00 3.29224E+01 0.00000E+00
 -1     11803-7.46667E+00 3.13966E+01 0.00000E+00
 -1     11804-6.93333E+00 3.19052E+01 0.00000E+00
 -1     11805-7.46667E+00 3.03793E+01 0.00000E+00
 -1     11806-6.93333E+00 3.08879E+01 0.00000E+00
 -1     11807-7.46667E+00 2.93621E+01 0.00000E+00
 -1     11808-6.93333E+00 2.98707E+01 0.00000E+00
 -1     11809-7.46667E+00 2.83448E+01 0.00000E+00
 -1     11810-6.93333E+00 2.88534E+01 0.00000E+00
 -1     11811-7.46667E+00 2.73276E+01 0.00000E+00
 -1     11812-6.93333E+00 2.78362E+01 0.00000E+00
 -1     11813-7.46667E+00 2.63103E+01 0.00000E+00
 -1     11814-6.93333E+00 2.68190E+01 0.00000E+00
 -1     11815-7.46667E+00 2.52931E+01 0.00000E+00
 -1     11816-6.93333E+00 2.58017E+01 0.00000E+00
 -1     11817-7.46667E+00 2.42759E+01 0.00000E+00
 -1     11818-6.93333E+00 2.47845E+01 0.00000E+00
 -1     11819-7.46667E+00 2.32586E+01 0.00000E+00
 -1     11820-6.93333E+00 2.37672E+01 0.00000E+00
 -1     11821-7.46667E+00 2.22414E+01 0.00000E+00
 -1     11822-6.93333E+00 2.27500E+01 0.00000E+00
 -1     11823-7.46667E+00 2.12241E+01 0.00000E+00
 -1     11824-6.93333E+00 2.17328E+01 0.00000E+00
 -1     11825-7.46667E+00 2.02069E+01 0.00000E+00
 -1     11826-6.93333E+00 2.07155E+01 0.00000E+00
 -1     11827-7.46667E+00 1.91897E+01 0.00000E+00
 -1     11828-6.93333E+00 1.96983E+01 0.00000E+00
 -1     11829-7.46667E+00 1.81724E+01 0.00000E+00
 -1     11830-6.93333E+00 1.86810E+01 0.00000E+00
 -1     11831-7.46667E+00 1.71552E+01 0.00000E+00
 -1     11832-6.93333E+00 1.76638E+01 0.00000E+00
 -1     11833-7.46667E+00 1.61379E+01 0.00000E+00
 -1     11834-6.93333E+00 1.66466E+01 0.00000E+00
 -1     11835-7.46667E+00 1.51207E+01 0.00000E+00
 -1     11836-6.93333E+00 1.56293E+01 0.00000E+00
 -1     11837-7.46667E+00 1.41034E+01 0.00000E+00
 -1     11838-6.93333E+00 1.46121E+01 0.00000E+00
 -1     11839-7.46667E+00 1.30862E+01 0.00000E+00
 -1     11840-6.93333E+00 1.35948E+01 0.00000E+00
 -1     11841-7.46667E+00 1.20690E+01 0.00000E+00
 -1     11842-6.93333E+00 1.25776E+01 0.00000E+00
 -1     11843-7.46667E+00 1.10517E+01 0.00000E+00
 -1     11844-6.93333E+00 1.15603E+01 0.00000E+00
 -1     11845-7.46667E+00 1.00345E+01 0.00000E+00
 -1     11846-6.93333E+00 1.05431E+01 0.00000E+00
 -1     11847-7.46667E+00 9.01724E+00 0.00000E+00
 -1     11848-6.93333E+00 9.52586E+00 0.00000E+00
 -1     11849-6.93333E+00 8.50862E+00 0.00000E+00
 -1     11850-6.40000E+00 3.64828E+01 0.00000E+00
 -1     11851-5.86667E+00 3.69914E+01 0.00000E+00
 -1     11852-6.40000E+00 3.54655E+01 0.00000E+00
 -1     11853-5.86667E+00 3.59741E+01 0.00000E+00
 -1     11854-6.40000E+00 3.44483E+01 0.00000E+00
 -1     11855-5.86667E+00 3.49569E+01 0.00000E+00
 -1     11856-6.40000E+00 3.34310E+01 0.00000E+00
 -1     11857-5.86667E+00 3.39397E+01 0.00000E+00
 -1     11858-6.40000E+00 3.24138E+01 0.00000E+00
 -1     11859-5.86667E+00 3.29224E+01 0.00000E+00
 -1     11860-6.40000E+00 3.13966E+01 0.00000E+00
 -1     11861-5.86667E+00 3.19052E+01 0.00000E+00
 -1     11862-6.40000E+00 3.03793E+01 0.00000E+00
 -1     11863-5.86667E+00 3.08879E+01 0.00000E+00
 -1     11864-6.40000E+00 2.93621E+01 0.00000E+00
 -1     11865-5.86667E+00 2.98707E+01 0.00000E+00
 -1     11866-6.40000E+00 2.83448E+01 0.00000E+00
 -1     11867-5.86667E+00 2.88534E+01 0.00000E+00
 -1     11868-6.40000E+00 2.73276E+01 0.00000E+00
 -1     11869-5.86667E+00 2.78362E+01 0.00000E+00
 -1     11870-6.40000E+00 2.63103E+01 0.00000E+00
 -1     11871-5.86667E+00 2.68190E+01 0.00000E+00
 -1     11872-6.40000E+00 2.52931E+01 0.00000E+00
 -1     11873-5.86667E+00 2.58017E+01 0.00000E+00
 -1     11874-6.40000E+00 2.42759E+01 0.00000E+00
 -1     11875-5.86667E+00 2.47845E+01 0.00000E+00
 -1     11876-6.40000E+00 2.32586E+01 0.00000E+00
 -1     11877-5.86667E+00 2.37672E+01 0.00000E+00
 -1     11878-6.40000E+00 2.22414E+01 0.00000E+00
 -1     11879-5.86667E+00 2.27500E+01 0.00000E+00
 -1     11880-6.40000E+00 2.12241E+01 0.00000E+00
 -1     11881-5.86667E+00 2.17328E+01 0.00000E+00
 -1     11882-6.40000E+00 2.02069E+01 0.00000E+00
 -1     11883-5.86667E+00 2.07155E+01 0.00000E+00
 -1     11884-6.40000E+00 1.91897E+01 0.00000E+00
 -1     11885-5.86667E+00 1.96983E+01 0.00000E+00
 -1     11886-6.40000E+00 1.81724E+01 0.00000E+00
 -1     11887-5.86667E+00 1.86810E+01 0.00000E+00
 -1     11888-6.40000E+00 1.71552E+01 0.00000E+00
 -1     11889-5.86667E+00 1.76638E+01 0.00000E+00
 -1     11890-6.40000E+00 1.61379E+01 0.00000E+00
 -1     11891-5.86667E+00 1.66466E+01 0.00000E+00
 -1     11892-6.40000E+00 1.51207E+01 0.00000E+00
 -1     11893-5.86667E+00 1.56293E+01 0.00000E+00
 -1     11894-6.40000E+00 1.41034E+01 0.00000E+00
 -1     11895-5.86667E+00 1.46121E+01 0.00000E+00
 -1     11896-6.40000E+00 1.30862E+01 0.00000E+00
 -1     11897-5.86667E+00 1.35948E+01 0.00000E+00
 -1     11898-6.40000E+00 1.20690E+01 0.00000E+00
 -1     11899-5.86667E+00 1.25776E+01 0.00000E+00
 -1     11900-6.40000E+00 1.10517E+01 0.00000E+00
 -1     11901-5.86667E+00 1.15603E+01 0.00000E+00
 -1     11902-6.40000E+00 1.00345E+01 0.00000E+00
 -1     11903-5.86667E+00 1.05431E+01 0.00000E+00
 -1     11904-6.40000E+00 9.01724E+00 0.00000E+00
 -1     11905-5.86667E+00 9.52586E+00 0.00000E+00
 -1     11906-5.86667E+00 8.50862E+00 0.00000E+00
 -1     11907-5.33333E+00 3.64828E+01 0.00000E+00
 -1     11908-4.80000E+00 3.69914E+01 0.00000E+00
 -1     11909-5.33333E+00 3.54655E+01 0.00000E+00
 -1     11910-4.80000E+00 3.59741E+01 0.00000E+00
 -1     11911-5.33333E+00 3.44483E+01 0.00000E+00
 -1     11912-4.80000E+00 3.49569E+01 0.00000E+00
 -1     11913-5.33333E+00 3.34310E+01 0.00000E+00
 -1     11914-4.80000E+00 3.39397E+01 0.00000E+00
 -1     11915-5.33333E+00 3.24138E+01 0.00000E+00
 -1     11916-4.80000E+00 3.29224E+01 0.00000E+00
 -1     11917-5.33333E+00 3.13966E+01 0.00000E+00
 -1     11918-4.80000E+00 3.19052E+01 0.00000E+00
 -1     11919-5.33333E+00 3.03793E+01 0.00000E+00
 -1     11920-4.80000E+00 3.08879E+01 0.00000E+00
 -1     11921-5.33333E+00 2.93621E+01 0.00000E+00
 -1     11922-4.80000E+00 2.98707E+01 0.00000E+00
 -1     11923-5.33333E+00 2.83448E+01 0.00000E+00
 -1     11924-4.80000E+00 2.88534E+01 0.00000E+00
 -1     11925-5.33333E+00 2.73276E+01 0.00000E+00
 -1     11926-4.80000E+00 2.78362E+01 0.00000E+00
 -1     11927-5.33333E+00 2.63103E+01 0.00000E+00
 -1     11928-4.80000E+00 2.68190E+01 0.00000E+00
 -1     11929-5.33333E+00 2.52931E+01 0.00000E+00
 -1     11930-4.80000E+00 2.58017E+01 0.00000E+00
 -1     11931-5.33333E+00 2.42759E+01 0.00000E+00
 -1     11932-4.80000E+00 2.47845E+01 0.00000E+00
 -1     11933-5.33333E+00 2.32586E+01 0.00000E+00
 -1     11934-4.80000E+00 2.37672E+01 0.00000E+00
 -1     11935-5.33333E+00 2.22414E+01 0.00000E+00
 -1     11936-4.80000E+00 2.27500E+01 0.00000E+00
 -1     11937-5.33333E+00 2.12241E+01 0.00000E+00
 -1     11938-4.80000E+00 2.17328E+01 0.00000E+00
 -1     11939-5.33333E+00 2.02069E+01 0.00000E+00
 -1     11940-4.80000E+00 2.07155E+01 0.00000E+00
 -1     11941-5.33333E+00 1.91897E+01 0.00000E+00
 -1     11942-4.80000E+00 1.96983E+01 0.00000E+00
 -1     11943-5.33333E+00 1.81724E+01 0.00000E+00
 -1     11944-4.80000E+00 1.86810E+01 0.00000E+00
 -1     11945-5.33333E+00 1.71552E+01 0.00000E+00
 -1     11946-4.80000E+00 1.76638E+01 0.00000E+00
 -1     11947-5.33333E+00 1.61379E+01 0.00000E+00
 -1     11948-4.80000E+00 1.66466E+01 0.00000E+00
 -1     11949-5.33333E+00 1.51207E+01 0.00000E+00
 -1     11950-4.80000E+00 1.56293E+01 0.00000E+00
 -1     11951-5.33333E+00 1.41034E+01 0.00000E+00
 -1     11952-4.80000E+00 1.46121E+01 0.00000E+00
 -1     11953-5.33333E+00 1.30862E+01 0.00000E+00
 -1     11954-4.80000E+00 1.35948E+01 0.00000E+00
 -1     11955-5.33333E+00 1.20690E+01 0.00000E+00
 -1     11956-4.80000E+00 1.25776E+01 0.00000E+00
 -1     11957-5.33333E+00 1.10517E+01 0.00000E+00
 -1     11958-4.80000E+00 1.15603E+01 0.00000E+00
 -1     11959-5.33333E+00 1.00345E+01 0.00000E+00
 -1     11960-4.80000E+00 1.05431E+01 0.00000E+00
 -1     11961-5.33333E+00 9.01724E+00 0.00000E+00
 -1     11962-4.80000E+00 9.52586E+00 0.00000E+00
 -1     11963-4.80000E+00 8.50862E+00 0.00000E+00
 -1     11964-4.26667E+00 3.64828E+01 0.00000E+00
 -1     11965-3.73333E+00 3.69914E+01 0.00000E+00
 -1     11966-4.26667E+00 3.54655E+01 0.00000E+00
 -1     11967-3.73333E+00 3.59741E+01 0.00000E+00
 -1     11968-4.26667E+00 3.44483E+01 0.00000E+00
 -1     11969-3.73333E+00 3.49569E+01 0.00000E+00
 -1     11970-4.26667E+00 3.34310E+01 0.00000E+00
 -1     11971-3.73333E+00 3.39397E+01 0.00000E+00
 -1     11972-4.26667E+00 3.24138E+01 0.00000E+00
 -1     11973-3.73333E+00 3.29224E+01 0.00000E+00
 -1     11974-4.26667E+00 3.13966E+01 0.00000E+00
 -1     11975-3.73333E+00 3.19052E+01 0.00000E+00
 -1     11976-4.26667E+00 3.03793E+01 0.00000E+00
 -1     11977-3.73333E+00 3.08879E+01 0.00000E+00
 -1     11978-4.26667E+00 2.93621E+01 0.00000E+00
 -1     11979-3.73333E+00 2.98707E+01 0.00000E+00
 -1     11980-4.26667E+00 2.83448E+01 0.00000E+00
 -1     11981-3.73333E+00 2.88534E+01 0.00000E+00
 -1     11982-4.26667E+00 2.73276E+01 0.00000E+00
 -1     11983-3.73333E+00 2.78362E+01 0.00000E+00
 -1     11984-4.26667E+00 2.63103E+01 0.00000E+00
 -1     11985-3.73333E+00 2.68190E+01 0.00000E+00
 -1     11986-4.26667E+00 2.52931E+01 0.00000E+00
 -1     11987-3.73333E+00 2.58017E+01 0.00000E+00
 -1     11988-4.26667E+00 2.42759E+01 0.00000E+00
 -1     11989-3.73333E+00 2.47845E+01 0.00000E+00
 -1     11990-4.26667E+00 2.32586E+01 0.00000E+00
 -1     11991-3.73333E+00 2.37672E+01 0.00000E+00
 -1     11992-4.26667E+00 2.22414E+01 0.00000E+00
 -1     11993-3.73333E+00 2.27500E+01 0.00000E+00
 -1     11994-4.26667E+00 2.12241E+01 0.00000E+00
 -1     11995-3.73333E+00 2.17328E+01 0.00000E+00
 -1     11996-4.26667E+00 2.02069E+01 0.00000E+00
 -1     11997-3.73333E+00 2.07155E+01 0.00000E+00
 -1     11998-4.26667E+00 1.91897E+01 0.00000E+00
 -1     11999-3.73333E+00 1.96983E+01 0.00000E+00
 -1     12000-4.26667E+00 1.81724E+01 0.00000E+00
 -1     12001-3.73333E+00 1.86810E+01 0.00000E+00
 -1     12002-4.26667E+00 1.71552E+01 0.00000E+00
 -1     12003-3.73333E+00 1.76638E+01 0.00000E+00
 -1     12004-4.26667E+00 1.61379E+01 0.00000E+00
 -1     12005-3.73333E+00 1.66466E+01 0.00000E+00
 -1     12006-4.26667E+00 1.51207E+01 0.00000E+00
 -1     12007-3.73333E+00 1.56293E+01 0.00000E+00
 -1     12008-4.26667E+00 1.41034E+01 0.00000E+00
 -1     12009-3.73333E+00 1.46121E+01 0.00000E+00
 -1     12010-4.26667E+00 1.30862E+01 0.00000E+00
 -1     12011-3.73333E+00 1.35948E+01 0.00000E+00
 -1     12012-4.26667E+00 1.20690E+01 0.00000E+00
 -1     12013-3.73333E+00 1.25776E+01 0.00000E+00
 -1     12014-4.26667E+00 1.10517E+01 0.00000E+00
 -1     12015-3.73333E+00 1.15603E+01 0.00000E+00
 -1     12016-4.26667E+00 1.00345E+01 0.00000E+00
 -1     12017-3.73333E+00 1.05431E+01 0.00000E+00
 -1     12018-4.26667E+00 9.01724E+00 0.00000E+00
 -1     12019-3.73333E+00 9.52586E+00 0.00000E+00
 -1     12020-3.73333E+00 8.50862E+00 0.00000E+00
 -1     12021-3.20000E+00 3.64828E+01 0.00000E+00
 -1     12022-2.66667E+00 3.69914E+01 0.00000E+00
 -1     12023-3.20000E+00 3.54655E+01 0.00000E+00
 -1     12024-2.66667E+00 3.59741E+01 0.00000E+00
 -1     12025-3.20000E+00 3.44483E+01 0.00000E+00
 -1     12026-2.66667E+00 3.49569E+01 0.00000E+00
 -1     12027-3.20000E+00 3.34310E+01 0.00000E+00
 -1     12028-2.66667E+00 3.39397E+01 0.00000E+00
 -1     12029-3.20000E+00 3.24138E+01 0.00000E+00
 -1     12030-2.66667E+00 3.29224E+01 0.00000E+00
 -1     12031-3.20000E+00 3.13966E+01 0.00000E+00
 -1     12032-2.66667E+00 3.19052E+01 0.00000E+00
 -1     12033-3.20000E+00 3.03793E+01 0.00000E+00
 -1     12034-2.66667E+00 3.08879E+01 0.00000E+00
 -1     12035-3.20000E+00 2.93621E+01 0.00000E+00
 -1     12036-2.66667E+00 2.98707E+01 0.00000E+00
 -1     12037-3.20000E+00 2.83448E+01 0.00000E+00
 -1     12038-2.66667E+00 2.88534E+01 0.00000E+00
 -1     12039-3.20000E+00 2.73276E+01 0.00000E+00
 -1     12040-2.66667E+00 2.78362E+01 0.00000E+00
 -1     12041-3.20000E+00 2.63103E+01 0.00000E+00
 -1     12042-2.66667E+00 2.68190E+01 0.00000E+00
 -1     12043-3.20000E+00 2.52931E+01 0.00000E+00
 -1     12044-2.66667E+00 2.58017E+01 0.00000E+00
 -1     12045-3.20000E+00 2.42759E+01 0.00000E+00
 -1     12046-2.66667E+00 2.47845E+01 0.00000E+00
 -1     12047-3.20000E+00 2.32586E+01 0.00000E+00
 -1     12048-2.66667E+00 2.37672E+01 0.00000E+00
 -1     12049-3.20000E+00 2.22414E+01 0.00000E+00
 -1     12050-2.66667E+00 2.27500E+01 0.00000E+00
 -1     12051-3.20000E+00 2.12241E+01 0.00000E+00
 -1     12052-2.66667E+00 2.17328E+01 0.00000E+00
 -1     12053-3.20000E+00 2.02069E+01 0.00000E+00
 -1     12054-2.66667E+00 2.07155E+01 0.00000E+00
 -1     12055-3.20000E+00 1.91897E+01 0.00000E+00
 -1     12056-2.66667E+00 1.96983E+01 0.00000E+00
 -1     12057-3.20000E+00 1.81724E+01 0.00000E+00
 -1     12058-2.66667E+00 1.86810E+01 0.00000E+00
 -1     12059-3.20000E+00 1.71552E+01 0.00000E+00
 -1     12060-2.66667E+00 1.76638E+01 0.00000E+00
 -1     12061-3.20000E+00 1.61379E+01 0.00000E+00
 -1     12062-2.66667E+00 1.66466E+01 0.00000E+00
 -1     12063-3.20000E+00 1.51207E+01 0.00000E+00
 -1     12064-2.66667E+00 1.56293E+01 0.00000E+00
 -1     12065-3.20000E+00 1.41034E+01 0.00000E+00
 -1     12066-2.66667E+00 1.46121E+01 0.00000E+00
 -1     12067-3.20000E+00 1.30862E+01 0.00000E+00
 -1     12068-2.66667E+00 1.35948E+01 0.00000E+00
 -1     12069-3.20000E+00 1.20690E+01 0.00000E+00
 -1     12070-2.66667E+00 1.25776E+01 0.00000E+00
 -1     12071-3.20000E+00 1.10517E+01 0.00000E+00
 -1     12072-2.66667E+00 1.15603E+01 0.00000E+00
 -1     12073-3.20000E+00 1.00345E+01 0.00000E+00
 -1     12074-2.66667E+00 1.05431E+01 0.00000E+00
 -1     12075-3.20000E+00 9.01724E+00 0.00000E+00
 -1     12076-2.66667E+00 9.52586E+00 0.00000E+00
 -1     12077-2.66667E+00 8.50862E+00 0.00000E+00
 -1     12078-2.13333E+00 3.64828E+01 0.00000E+00
 -1     12079-1.60000E+00 3.69914E+01 0.00000E+00
 -1     12080-2.13333E+00 3.54655E+01 0.00000E+00
 -1     12081-1.60000E+00 3.59741E+01 0.00000E+00
 -1     12082-2.13333E+00 3.44483E+01 0.00000E+00
 -1     12083-1.60000E+00 3.49569E+01 0.00000E+00
 -1     12084-2.13333E+00 3.34310E+01 0.00000E+00
 -1     12085-1.60000E+00 3.39397E+01 0.00000E+00
 -1     12086-2.13333E+00 3.24138E+01 0.00000E+00
 -1     12087-1.60000E+00 3.29224E+01 0.00000E+00
 -1     12088-2.13333E+00 3.13966E+01 0.00000E+00
 -1     12089-1.60000E+00 3.19052E+01 0.00000E+00
 -1     12090-2.13333E+00 3.03793E+01 0.00000E+00
 -1     12091-1.60000E+00 3.08879E+01 0.00000E+00
 -1     12092-2.13333E+00 2.93621E+01 0.00000E+00
 -1     12093-1.60000E+00 2.98707E+01 0.00000E+00
 -1     12094-2.13333E+00 2.83448E+01 0.00000E+00
 -1     12095-1.60000E+00 2.88534E+01 0.00000E+00
 -1     12096-2.13333E+00 2.73276E+01 0.00000E+00
 -1     12097-1.60000E+00 2.78362E+01 0.00000E+00
 -1     12098-2.13333E+00 2.63103E+01 0.00000E+00
 -1     12099-1.60000E+00 2.68190E+01 0.00000E+00
 -1     12100-2.13333E+00 2.52931E+01 0.00000E+00
 -1     12101-1.60000E+00 2.58017E+01 0.00000E+00
 -1     12102-2.13333E+00 2.42759E+01 0.00000E+00
 -1     12103-1.60000E+00 2.47845E+01 0.00000E+00
 -1     12104-2.13333E+00 2.32586E+01 0.00000E+00
 -1     12105-1.60000E+00 2.37672E+01 0.00000E+00
 -1     12106-2.13333E+00 2.22414E+01 0.00000E+00
 -1     12107-1.60000E+00 2.27500E+01 0.00000E+00
 -1     12108-2.13333E+00 2.12241E+01 0.00000E+00
 -1     12109-1.60000E+00 2.17328E+01 0.00000E+00
 -1     12110-2.13333E+00 2.02069E+01 0.00000E+00
 -1     12111-1.60000E+00 2.07155E+01 0.00000E+00
 -1     12112-2.13333E+00 1.91897E+01 0.00000E+00
 -1     12113-1.60000E+00 1.96983E+01 0.00000E+00
 -1     12114-2.13333E+00 1.81724E+01 0.00000E+00
 -1     12115-1.60000E+00 1.86810E+01 0.00000E+00
 -1     12116-2.13333E+00 1.71552E+01 0.00000E+00
 -1     12117-1.60000E+00 1.76638E+01 0.00000E+00
 -1     12118-2.13333E+00 1.61379E+01 0.00000E+00
 -1     12119-1.60000E+00 1.66466E+01 0.00000E+00
 -1     12120-2.13333E+00 1.51207E+01 0.00000E+00
 -1     12121-1.60000E+00 1.56293E+01 0.00000E+00
 -1     12122-2.13333E+00 1.41034E+01 0.00000E+00
 -1     12123-1.60000E+00 1.46121E+01 0.00000E+00
 -1     12124-2.13333E+00 1.30862E+01 0.00000E+00
 -1     12125-1.60000E+00 1.35948E+01 0.00000E+00
 -1     12126-2.13333E+00 1.20690E+01 0.00000E+00
 -1     12127-1.60000E+00 1.25776E+01 0.00000E+00
 -1     12128-2.13333E+00 1.10517E+01 0.00000E+00
 -1     12129-1.60000E+00 1.15603E+01 0.00000E+00
 -1     12130-2.13333E+00 1.00345E+01 0.00000E+00
 -1     12131-1.60000E+00 1.05431E+01 0.00000E+00
 -1     12132-2.13333E+00 9.01724E+00 0.00000E+00
 -1     12133-1.60000E+00 9.52586E+00 0.00000E+00
 -1     12134-1.60000E+00 8.50862E+00 0.00000E+00
 -1     12135-1.06667E+00 3.64828E+01 0.00000E+00
 -1     12136-5.33333E-01 3.69914E+01 0.00000E+00
 -1     12137-1.06667E+00 3.54655E+01 0.00000E+00
 -1     12138-5.33333E-01 3.59741E+01 0.00000E+00
 -1     12139-1.06667E+00 3.44483E+01 0.00000E+00
 -1     12140-5.33333E-01 3.49569E+01 0.00000E+00
 -1     12141-1.06667E+00 3.34310E+01 0.00000E+00
 -1     12142-5.33333E-01 3.39397E+01 0.00000E+00
 -1     12143-1.06667E+00 3.24138E+01 0.00000E+00
 -1     12144-5.33333E-01 3.29224E+01 0.00000E+00
 -1     12145-1.06667E+00 3.13966E+01 0.00000E+00
 -1     12146-5.33333E-01 3.19052E+01 0.00000E+00
 -1     12147-1.06667E+00 3.03793E+01 0.00000E+00
 -1     12148-5.33333E-01 3.08879E+01 0.00000E+00
 -1     12149-1.06667E+00 2.93621E+01 0.00000E+00
 -1     12150-5.33333E-01 2.98707E+01 0.00000E+00
 -1     12151-1.06667E+00 2.83448E+01 0.00000E+00
 -1     12152-5.33333E-01 2.88534E+01 0.00000E+00
 -1     12153-1.06667E+00 2.73276E+01 0.00000E+00
 -1     12154-5.33333E-01 2.78362E+01 0.00000E+00
 -1     12155-1.06667E+00 2.63103E+01 0.00000E+00
 -1     12156-5.33333E-01 2.68190E+01 0.00000E+00
 -1     12157-1.06667E+00 2.52931E+01 0.00000E+00
 -1     12158-5.33333E-01 2.58017E+01 0.00000E+00
 -1     12159-1.06667E+00 2.42759E+01 0.00000E+00
 -1     12160-5.33333E-01 2.47845E+01 0.00000E+00
 -1     12161-1.06667E+00 2.32586E+01 0.00000E+00
 -1     12162-5.33333E-01 2.37672E+01 0.00000E+00
 -1     12163-1.06667E+00 2.22414E+01 0.00000E+00
 -1     12164-5.33333E-01 2.27500E+01 0.00000E+00
 -1     12165-1.06667E+00 2.12241E+01 0.00000E+00
 -1     12166-5.33333E-01 2.17328E+01 0.00000E+00
 -1     12167-1.06667E+00 2.02069E+01 0.00000E+00
 -1     12168-5.33333E-01 2.07155E+01 0.00000E+00
 -1     12169-1.06667E+00 1.91897E+01 0.00000E+00
 -1     12170-5.33333E-01 1.96983E+01 0.00000E+00
 -1     12171-1.06667E+00 1.81724E+01 0.00000E+00
 -1     12172-5.33333E-01 1.86810E+01 0.00000E+00
 -1     12173-1.06667E+00 1.71552E+01 0.00000E+00
 -1     12174-5.33333E-01 1.76638E+01 0.00000E+00
 -1     12175-1.06667E+00 1.61379E+01 0.00000E+00
 -1     12176-5.33333E-01 1.66466E+01 0.00000E+00
 -1     12177-1.06667E+00 1.51207E+01 0.00000E+00
 -1     12178-5.33333E-01 1.56293E+01 0.00000E+00
 -1     12179-1.06667E+00 1.41034E+01 0.00000E+00
 -1     12180-5.33333E-01 1.46121E+01 0.00000E+00
 -1     12181-1.06667E+00 1.30862E+01 0.00000E+00
 -1     12182-5.33333E-01 1.35948E+01 0.00000E+00
 -1     12183-1.06667E+00 1.20690E+01 0.00000E+00
 -1     12184-5.33333E-01 1.25776E+01 0.00000E+00
 -1     12185-1.06667E+00 1.10517E+01 0.00000E+00
 -1     12186-5.33333E-01 1.15603E+01 0.00000E+00
 -1     12187-1.06667E+00 1.00345E+01 0.00000E+00
 -1     12188-5.33333E-01 1.05431E+01 0.00000E+00
 -1     12189-1.06667E+00 9.01724E+00 0.00000E+00
 -1     12190-5.33333E-01 9.52586E+00 0.00000E+00
 -1     12191-5.33333E-01 8.50862E+00 0.00000E+00
 -1     12192-2.06978E-11 3.64828E+01 0.00000E+00
 -1     12193 5.33333E-01 3.69914E+01 0.00000E+00
 -1     12194-2.06976E-11 3.54655E+01 0.00000E+00
 -1     12195 5.33333E-01 3.59741E+01 0.00000E+00
 -1     12196-2.06979E-11 3.44483E+01 0.00000E+00
 -1     12197 5.33333E-01 3.49569E+01 0.00000E+00
 -1     12198-2.06977E-11 3.34310E+01 0.00000E+00
 -1     12199 5.33333E-01 3.39397E+01 0.00000E+00
 -1     12200-2.06979E-11 3.24138E+01 0.00000E+00
 -1     12201 5.33333E-01 3.29224E+01 0.00000E+00
 -1     12202-2.06980E-11 3.13966E+01 0.00000E+00
 -1     12203 5.33333E-01 3.19052E+01 0.00000E+00
 -1     12204-2.06977E-11 3.03793E+01 0.00000E+00
 -1     12205 5.33333E-01 3.08879E+01 0.00000E+00
 -1     12206-2.06976E-11 2.93621E+01 0.00000E+00
 -1     12207 5.33333E-01 2.98707E+01 0.00000E+00
 -1     12208-2.06977E-11 2.83448E+01 0.00000E+00
 -1     12209 5.33333E-01 2.88534E+01 0.00000E+00
 -1     12210-2.06980E-11 2.73276E+01 0.00000E+00
 -1     12211 5.33333E-01 2.78362E+01 0.00000E+00
 -1     12212-2.06976E-11 2.63103E+01 0.00000E+00
 -1     12213 5.33333E-01 2.68190E+01 0.00000E+00
 -1     12214-2.06977E-11 2.52931E+01 0.00000E+00
 -1     12215 5.33333E-01 2.58017E+01 0.00000E+00
 -1     12216-2.06976E-11 2.42759E+01 0.00000E+00
 -1     12217 5.33333E-01 2.47845E+01 0.00000E+00
 -1     12218-2.06977E-11 2.32586E+01 0.00000E+00
 -1     12219 5.33333E-01 2.37672E+01 0.00000E+00
 -1     12220-2.06977E-11 2.22414E+01 0.00000E+00
 -1     12221 5.33333E-01 2.27500E+01 0.00000E+00
 -1     12222-2.06980E-11 2.12241E+01 0.00000E+00
 -1     12223 5.33333E-01 2.17328E+01 0.00000E+00
 -1     12224-2.06974E-11 2.02069E+01 0.00000E+00
 -1     12225 5.33333E-01 2.07155E+01 0.00000E+00
 -1     12226-2.06974E-11 1.91897E+01 0.00000E+00
 -1     12227 5.33333E-01 1.96983E+01 0.00000E+00
 -1     12228-2.06977E-11 1.81724E+01 0.00000E+00
 -1     12229 5.33333E-01 1.86810E+01 0.00000E+00
 -1     12230-2.06979E-11 1.71552E+01 0.00000E+00
 -1     12231 5.33333E-01 1.76638E+01 0.00000E+00
 -1     12232-2.06977E-11 1.61379E+01 0.00000E+00
 -1     12233 5.33333E-01 1.66466E+01 0.00000E+00
 -1     12234-2.06977E-11 1.51207E+01 0.00000E+00
 -1     12235 5.33333E-01 1.56293E+01 0.00000E+00
 -1     12236-2.06979E-11 1.41034E+01 0.00000E+00
 -1     12237 5.33333E-01 1.46121E+01 0.00000E+00
 -1     12238-2.06972E-11 1.30862E+01 0.00000E+00
 -1     12239 5.33333E-01 1.35948E+01 0.00000E+00
 -1     12240-2.06977E-11 1.20690E+01 0.00000E+00
 -1     12241 5.33333E-01 1.25776E+01 0.00000E+00
 -1     12242-2.06979E-11 1.10517E+01 0.00000E+00
 -1     12243 5.33333E-01 1.15603E+01 0.00000E+00
 -1     12244-2.06974E-11 1.00345E+01 0.00000E+00
 -1     12245 5.33333E-01 1.05431E+01 0.00000E+00
 -1     12246-2.06974E-11 9.01724E+00 0.00000E+00
 -1     12247 5.33333E-01 9.52586E+00 0.00000E+00
 -1     12248 5.33333E-01 8.50862E+00 0.00000E+00
 -1     12249 1.06667E+00 3.64828E+01 0.00000E+00
 -1     12250 1.60000E+00 3.69914E+01 0.00000E+00
 -1     12251 1.06667E+00 3.54655E+01 0.00000E+00
 -1     12252 1.60000E+00 3.59741E+01 0.00000E+00
 -1     12253 1.06667E+00 3.44483E+01 0.00000E+00
 -1     12254 1.60000E+00 3.49569E+01 0.00000E+00
 -1     12255 1.06667E+00 3.34310E+01 0.00000E+00
 -1     12256 1.60000E+00 3.39397E+01 0.00000E+00
 -1     12257 1.06667E+00 3.24138E+01 0.00000E+00
 -1     12258 1.60000E+00 3.29224E+01 0.00000E+00
 -1     12259 1.06667E+00 3.13966E+01 0.00000E+00
 -1     12260 1.60000E+00 3.19052E+01 0.00000E+00
 -1     12261 1.06667E+00 3.03793E+01 0.00000E+00
 -1     12262 1.60000E+00 3.08879E+01 0.00000E+00
 -1     12263 1.06667E+00 2.93621E+01 0.00000E+00
 -1     12264 1.60000E+00 2.98707E+01 0.00000E+00
 -1     12265 1.06667E+00 2.83448E+01 0.00000E+00
 -1     12266 1.60000E+00 2.88534E+01 0.00000E+00
 -1     12267 1.06667E+00 2.73276E+01 0.00000E+00
 -1     12268 1.60000E+00 2.78362E+01 0.00000E+00
 -1     12269 1.06667E+00 2.63103E+01 0.00000E+00
 -1     12270 1.60000E+00 2.68190E+01 0.00000E+00
 -1     12271 1.06667E+00 2.52931E+01 0.00000E+00
 -1     12272 1.60000E+00 2.58017E+01 0.00000E+00
 -1     12273 1.06667E+00 2.42759E+01 0.00000E+00
 -1     12274 1.60000E+00 2.47845E+01 0.00000E+00
 -1     12275 1.06667E+00 2.32586E+01 0.00000E+00
 -1     12276 1.60000E+00 2.37672E+01 0.00000E+00
 -1     12277 1.06667E+00 2.22414E+01 0.00000E+00
 -1     12278 1.60000E+00 2.27500E+01 0.00000E+00
 -1     12279 1.06667E+00 2.12241E+01 0.00000E+00
 -1     12280 1.60000E+00 2.17328E+01 0.00000E+00
 -1     12281 1.06667E+00 2.02069E+01 0.00000E+00
 -1     12282 1.60000E+00 2.07155E+01 0.00000E+00
 -1     12283 1.06667E+00 1.91897E+01 0.00000E+00
 -1     12284 1.60000E+00 1.96983E+01 0.00000E+00
 -1     12285 1.06667E+00 1.81724E+01 0.00000E+00
 -1     12286 1.60000E+00 1.86810E+01 0.00000E+00
 -1     12287 1.06667E+00 1.71552E+01 0.00000E+00
 -1     12288 1.60000E+00 1.76638E+01 0.00000E+00
 -1     12289 1.06667E+00 1.61379E+01 0.00000E+00
 -1     12290 1.60000E+00 1.66466E+01 0.00000E+00
 -1     12291 1.06667E+00 1.51207E+01 0.00000E+00
 -1     12292 1.60000E+00 1.56293E+01 0.00000E+00
 -1     12293 1.06667E+00 1.41034E+01 0.00000E+00
 -1     12294 1.60000E+00 1.46121E+01 0.00000E+00
 -1     12295 1.06667E+00 1.30862E+01 0.00000E+00
 -1     12296 1.60000E+00 1.35948E+01 0.00000E+00
 -1     12297 1.06667E+00 1.20690E+01 0.00000E+00
 -1     12298 1.60000E+00 1.25776E+01 0.00000E+00
 -1     12299 1.06667E+00 1.10517E+01 0.00000E+00
 -1     12300 1.60000E+00 1.15603E+01 0.00000E+00
 -1     12301 1.06667E+00 1.00345E+01 0.00000E+00
 -1     12302 1.60000E+00 1.05431E+01 0.00000E+00
 -1     12303 1.06667E+00 9.01724E+00 0.00000E+00
 -1     12304 1.60000E+00 9.52586E+00 0.00000E+00
 -1     12305 1.60000E+00 8.50862E+00 0.00000E+00
 -1     12306 2.13333E+00 3.64828E+01 0.00000E+00
 -1     12307 2.66667E+00 3.69914E+01 0.00000E+00
 -1     12308 2.13333E+00 3.54655E+01 0.00000E+00
 -1     12309 2.66667E+00 3.59741E+01 0.00000E+00
 -1     12310 2.13333E+00 3.44483E+01 0.00000E+00
 -1     12311 2.66667E+00 3.49569E+01 0.00000E+00
 -1     12312 2.13333E+00 3.34310E+01 0.00000E+00
 -1     12313 2.66667E+00 3.39397E+01 0.00000E+00
 -1     12314 2.13333E+00 3.24138E+01 0.00000E+00
 -1     12315 2.66667E+00 3.29224E+01 0.00000E+00
 -1     12316 2.13333E+00 3.13966E+01 0.00000E+00
 -1     12317 2.66667E+00 3.19052E+01 0.00000E+00
 -1     12318 2.13333E+00 3.03793E+01 0.00000E+00
 -1     12319 2.66667E+00 3.08879E+01 0.00000E+00
 -1     12320 2.13333E+00 2.93621E+01 0.00000E+00
 -1     12321 2.66667E+00 2.98707E+01 0.00000E+00
 -1     12322 2.13333E+00 2.83448E+01 0.00000E+00
 -1     12323 2.66667E+00 2.88534E+01 0.00000E+00
 -1     12324 2.13333E+00 2.73276E+01 0.00000E+00
 -1     12325 2.66667E+00 2.78362E+01 0.00000E+00
 -1     12326 2.13333E+00 2.63103E+01 0.00000E+00
 -1     12327 2.66667E+00 2.68190E+01 0.00000E+00
 -1     12328 2.13333E+00 2.52931E+01 0.00000E+00
 -1     12329 2.66667E+00 2.58017E+01 0.00000E+00
 -1     12330 2.13333E+00 2.42759E+01 0.00000E+00
 -1     12331 2.66667E+00 2.47845E+01 0.00000E+00
 -1     12332 2.13333E+00 2.32586E+01 0.00000E+00
 -1     12333 2.66667E+00 2.37672E+01 0.00000E+00
 -1     12334 2.13333E+00 2.22414E+01 0.00000E+00
 -1     12335 2.66667E+00 2.27500E+01 0.00000E+00
 -1     12336 2.13333E+00 2.12241E+01 0.00000E+00
 -1     12337 2.66667E+00 2.17328E+01 0.00000E+00
 -1     12338 2.13333E+00 2.02069E+01 0.00000E+00
 -1     12339 2.66667E+00 2.07155E+01 0.00000E+00
 -1     12340 2.13333E+00 1.91897E+01 0.00000E+00
 -1     12341 2.66667E+00 1.96983E+01 0.00000E+00
 -1     12342 2.13333E+00 1.81724E+01 0.00000E+00
 -1     12343 2.66667E+00 1.86810E+01 0.00000E+00
 -1     12344 2.13333E+00 1.71552E+01 0.00000E+00
 -1     12345 2.66667E+00 1.76638E+01 0.00000E+00
 -1     12346 2.13333E+00 1.61379E+01 0.00000E+00
 -1     12347 2.66667E+00 1.66466E+01 0.00000E+00
 -1     12348 2.13333E+00 1.51207E+01 0.00000E+00
 -1     12349 2.66667E+00 1.56293E+01 0.00000E+00
 -1     12350 2.13333E+00 1.41034E+01 0.00000E+00
 -1     12351 2.66667E+00 1.46121E+01 0.00000E+00
 -1     12352 2.13333E+00 1.30862E+01 0.00000E+00
 -1     12353 2.66667E+00 1.35948E+01 0.00000E+00
 -1     12354 2.13333E+00 1.20690E+01 0.00000E+00
 -1     12355 2.66667E+00 1.25776E+01 0.00000E+00
 -1     12356 2.13333E+00 1.10517E+01 0.00000E+00
 -1     12357 2.66667E+00 1.15603E+01 0.00000E+00
 -1     12358 2.13333E+00 1.00345E+01 0.00000E+00
 -1     12359 2.66667E+00 1.05431E+01 0.00000E+00
 -1     12360 2.13333E+00 9.01724E+00 0.00000E+00
 -1     12361 2.66667E+00 9.52586E+00 0.00000E+00
 -1     12362 2.66667E+00 8.50862E+00 0.00000E+00
 -1     12363 3.20000E+00 3.64828E+01 0.00000E+00
 -1     12364 3.73333E+00 3.69914E+01 0.00000E+00
 -1     12365 3.20000E+00 3.54655E+01 0.00000E+00
 -1     12366 3.73333E+00 3.59741E+01 0.00000E+00
 -1     12367 3.20000E+00 3.44483E+01 0.00000E+00
 -1     12368 3.73333E+00 3.49569E+01 0.00000E+00
 -1     12369 3.20000E+00 3.34310E+01 0.00000E+00
 -1     12370 3.73333E+00 3.39397E+01 0.00000E+00
 -1     12371 3.20000E+00 3.24138E+01 0.00000E+00
 -1     12372 3.73333E+00 3.29224E+01 0.00000E+00
 -1     12373 3.20000E+00 3.13966E+01 0.00000E+00
 -1     12374 3.73333E+00 3.19052E+01 0.00000E+00
 -1     12375 3.20000E+00 3.03793E+01 0.00000E+00
 -1     12376 3.73333E+00 3.08879E+01 0.00000E+00
 -1     12377 3.20000E+00 2.93621E+01 0.00000E+00
 -1     12378 3.73333E+00 2.98707E+01 0.00000E+00
 -1     12379 3.20000E+00 2.83448E+01 0.00000E+00
 -1     12380 3.73333E+00 2.88534E+01 0.00000E+00
 -1     12381 3.20000E+00 2.73276E+01 0.00000E+00
 -1     12382 3.73333E+00 2.78362E+01 0.00000E+00
 -1     12383 3.20000E+00 2.63103E+01 0.00000E+00
 -1     12384 3.73333E+00 2.68190E+01 0.00000E+00
 -1     12385 3.20000E+00 2.52931E+01 0.00000E+00
 -1     12386 3.73333E+00 2.58017E+01 0.00000E+00
 -1     12387 3.20000E+00 2.42759E+01 0.00000E+00
 -1     12388 3.73333E+00 2.47845E+01 0.00000E+00
 -1     12389 3.20000E+00 2.32586E+01 0.00000E+00
 -1     12390 3.73333E+00 2.37672E+01 0.00000E+00
 -1     12391 3.20000E+00 2.22414E+01 0.00000E+00
 -1     12392 3.73333E+00 2.27500E+01 0.00000E+00
 -1     12393 3.20000E+00 2.12241E+01 0.00000E+00
 -1     12394 3.73333E+00 2.17328E+01 0.00000E+00
 -1     12395 3.20000E+00 2.02069E+01 0.00000E+00
 -1     12396 3.73333E+00 2.07155E+01 0.00000E+00
 -1     12397 3.20000E+00 1.91897E+01 0.00000E+00
 -1     12398 3.73333E+00 1.96983E+01 0.00000E+00
 -1     12399 3.20000E+00 1.81724E+01 0.00000E+00
 -1     12400 3.73333E+00 1.86810E+01 0.00000E+00
 -1     12401 3.20000E+00 1.71552E+01 0.00000E+00
 -1     12402 3.73333E+00 1.76638E+01 0.00000E+00
 -1     12403 3.20000E+00 1.61379E+01 0.00000E+00
 -1     12404 3.73333E+00 1.66466E+01 0.00000E+00
 -1     12405 3.20000E+00 1.51207E+01 0.00000E+00
 -1     12406 3.73333E+00 1.56293E+01 0.00000E+00
 -1     12407 3.20000E+00 1.41034E+01 0.00000E+00
 -1     12408 3.73333E+00 1.46121E+01 0.00000E+00
 -1     12409 3.20000E+00 1.30862E+01 0.00000E+00
 -1     12410 3.73333E+00 1.35948E+01 0.00000E+00
 -1     12411 3.20000E+00 1.20690E+01 0.00000E+00
 -1     12412 3.73333E+00 1.25776E+01 0.00000E+00
 -1     12413 3.20000E+00 1.10517E+01 0.00000E+00
 -1     12414 3.73333E+00 1.15603E+01 0.00000E+00
 -1     12415 3.20000E+00 1.00345E+01 0.00000E+00
 -1     12416 3.73333E+00 1.05431E+01 0.00000E+00
 -1     12417 3.20000E+00 9.01724E+00 0.00000E+00
 -1     12418 3.73333E+00 9.52586E+00 0.00000E+00
 -1     12419 3.73333E+00 8.50862E+00 0.00000E+00
 -1     12420 4.26667E+00 3.64828E+01 0.00000E+00
 -1     12421 4.80000E+00 3.69914E+01 0.00000E+00
 -1     12422 4.26667E+00 3.54655E+01 0.00000E+00
 -1     12423 4.80000E+00 3.59741E+01 0.00000E+00
 -1     12424 4.26667E+00 3.44483E+01 0.00000E+00
 -1     12425 4.80000E+00 3.49569E+01 0.00000E+00
 -1     12426 4.26667E+00 3.34310E+01 0.00000E+00
 -1     12427 4.80000E+00 3.39397E+01 0.00000E+00
 -1     12428 4.26667E+00 3.24138E+01 0.00000E+00
 -1     12429 4.80000E+00 3.29224E+01 0.00000E+00
 -1     12430 4.26667E+00 3.13966E+01 0.00000E+00
 -1     12431 4.80000E+00 3.19052E+01 0.00000E+00
 -1     12432 4.26667E+00 3.03793E+01 0.00000E+00
 -1     12433 4.80000E+00 3.08879E+01 0.00000E+00
 -1     12434 4.26667E+00 2.93621E+01 0.00000E+00
 -1     12435 4.80000E+00 2.98707E+01 0.00000E+00
 -1     12436 4.26667E+00 2.83448E+01 0.00000E+00
 -1     12437 4.80000E+00 2.88534E+01 0.00000E+00
 -1     12438 4.26667E+00 2.73276E+01 0.00000E+00
 -1     12439 4.80000E+00 2.78362E+01 0.00000E+00
 -1     12440 4.26667E+00 2.63103E+01 0.00000E+00
 -1     12441 4.80000E+00 2.68190E+01 0.00000E+00
 -1     12442 4.26667E+00 2.52931E+01 0.00000E+00
 -1     12443 4.80000E+00 2.58017E+01 0.00000E+00
 -1     12444 4.26667E+00 2.42759E+01 0.00000E+00
 -1     12445 4.80000E+00 2.47845E+01 0.00000E+00
 -1     12446 4.26667E+00 2.32586E+01 0.00000E+00
 -1     12447 4.80000E+00 2.37672E+01 0.00000E+00
 -1     12448 4.26667E+00 2.22414E+01 0.00000E+00
 -1     12449 4.80000E+00 2.27500E+01 0.00000E+00
 -1     12450 4.26667E+00 2.12241E+01 0.00000E+00
 -1     12451 4.80000E+00 2.17328E+01 0.00000E+00
 -1     12452 4.26667E+00 2.02069E+01 0.00000E+00
 -1     12453 4.80000E+00 2.07155E+01 0.00000E+00
 -1     12454 4.26667E+00 1.91897E+01 0.00000E+00
 -1     12455 4.80000E+00 1.96983E+01 0.00000E+00
 -1     12456 4.26667E+00 1.81724E+01 0.00000E+00
 -1     12457 4.80000E+00 1.86810E+01 0.00000E+00
 -1     12458 4.26667E+00 1.71552E+01 0.00000E+00
 -1     12459 4.80000E+00 1.76638E+01 0.00000E+00
 -1     12460 4.26667E+00 1.61379E+01 0.00000E+00
 -1     12461 4.80000E+00 1.66466E+01 0.00000E+00
 -1     12462 4.26667E+00 1.51207E+01 0.00000E+00
 -1     12463 4.80000E+00 1.56293E+01 0.00000E+00
 -1     12464 4.26667E+00 1.41034E+01 0.00000E+00
 -1     12465 4.80000E+00 1.46121E+01 0.00000E+00
 -1     12466 4.26667E+00 1.30862E+01 0.00000E+00
 -1     12467 4.80000E+00 1.35948E+01 0.00000E+00
 -1     12468 4.26667E+00 1.20690E+01 0.00000E+00
 -1     12469 4.80000E+00 1.25776E+01 0.00000E+00
 -1     12470 4.26667E+00 1.10517E+01 0.00000E+00
 -1     12471 4.80000E+00 1.15603E+01 0.00000E+00
 -1     12472 4.26667E+00 1.00345E+01 0.00000E+00
 -1     12473 4.80000E+00 1.05431E+01 0.00000E+00
 -1     12474 4.26667E+00 9.01724E+00 0.00000E+00
 -1     12475 4.80000E+00 9.52586E+00 0.00000E+00
 -1     12476 4.80000E+00 8.50862E+00 0.00000E+00
 -1     12477 5.33333E+00 3.64828E+01 0.00000E+00
 -1     12478 5.86667E+00 3.69914E+01 0.00000E+00
 -1     12479 5.33333E+00 3.54655E+01 0.00000E+00
 -1     12480 5.86667E+00 3.59741E+01 0.00000E+00
 -1     12481 5.33333E+00 3.44483E+01 0.00000E+00
 -1     12482 5.86667E+00 3.49569E+01 0.00000E+00
 -1     12483 5.33333E+00 3.34310E+01 0.00000E+00
 -1     12484 5.86667E+00 3.39397E+01 0.00000E+00
 -1     12485 5.33333E+00 3.24138E+01 0.00000E+00
 -1     12486 5.86667E+00 3.29224E+01 0.00000E+00
 -1     12487 5.33333E+00 3.13966E+01 0.00000E+00
 -1     12488 5.86667E+00 3.19052E+01 0.00000E+00
 -1     12489 5.33333E+00 3.03793E+01 0.00000E+00
 -1     12490 5.86667E+00 3.08879E+01 0.00000E+00
 -1     12491 5.33333E+00 2.93621E+01 0.00000E+00
 -1     12492 5.86667E+00 2.98707E+01 0.00000E+00
 -1     12493 5.33333E+00 2.83448E+01 0.00000E+00
 -1     12494 5.86667E+00 2.88534E+01 0.00000E+00
 -1     12495 5.33333E+00 2.73276E+01 0.00000E+00
 -1     12496 5.86667E+00 2.78362E+01 0.00000E+00
 -1     12497 5.33333E+00 2.63103E+01 0.00000E+00
 -1     12498 5.86667E+00 2.68190E+01 0.00000E+00
 -1     12499 5.33333E+00 2.52931E+01 0.00000E+00
 -1     12500 5.86667E+00 2.58017E+01 0.00000E+00
 -1     12501 5.33333E+00 2.42759E+01 0.00000E+00
 -1     12502 5.86667E+00 2.47845E+01 0.00000E+00
 -1     12503 5.33333E+00 2.32586E+01 0.00000E+00
 -1     12504 5.86667E+00 2.37672E+01 0.00000E+00
 -1     12505 5.33333E+00 2.22414E+01 0.00000E+00
 -1     12506 5.86667E+00 2.27500E+01 0.00000E+00
 -1     12507 5.33333E+00 2.12241E+01 0.00000E+00
 -1     12508 5.86667E+00 2.17328E+01 0.00000E+00
 -1     12509 5.33333E+00 2.02069E+01 0.00000E+00
 -1     12510 5.86667E+00 2.07155E+01 0.00000E+00
 -1     12511 5.33333E+00 1.91897E+01 0.00000E+00
 -1     12512 5.86667E+00 1.96983E+01 0.00000E+00
 -1     12513 5.33333E+00 1.81724E+01 0.00000E+00
 -1     12514 5.86667E+00 1.86810E+01 0.00000E+00
 -1     12515 5.33333E+00 1.71552E+01 0.00000E+00
 -1     12516 5.86667E+00 1.76638E+01 0.00000E+00
 -1     12517 5.33333E+00 1.61379E+01 0.00000E+00
 -1     12518 5.86667E+00 1.66466E+01 0.00000E+00
 -1     12519 5.33333E+00 1.51207E+01 0.00000E+00
 -1     12520 5.86667E+00 1.56293E+01 0.00000E+00
 -1     12521 5.33333E+00 1.41034E+01 0.00000E+00
 -1     12522 5.86667E+00 1.46121E+01 0.00000E+00
 -1     12523 5.33333E+00 1.30862E+01 0.00000E+00
 -1     12524 5.86667E+00 1.35948E+01 0.00000E+00
 -1     12525 5.33333E+00 1.20690E+01 0.00000E+00
 -1     12526 5.86667E+00 1.25776E+01 0.00000E+00
 -1     12527 5.33333E+00 1.10517E+01 0.00000E+00
 -1     12528 5.86667E+00 1.15603E+01 0.00000E+00
 -1     12529 5.33333E+00 1.00345E+01 0.00000E+00
 -1     12530 5.86667E+00 1.05431E+01 0.00000E+00
 -1     12531 5.33333E+00 9.01724E+00 0.00000E+00
 -1     12532 5.86667E+00 9.52586E+00 0.00000E+00
 -1     12533 5.86667E+00 8.50862E+00 0.00000E+00
 -1     12534 6.40000E+00 3.64828E+01 0.00000E+00
 -1     12535 6.93333E+00 3.69914E+01 0.00000E+00
 -1     12536 6.40000E+00 3.54655E+01 0.00000E+00
 -1     12537 6.93333E+00 3.59741E+01 0.00000E+00
 -1     12538 6.40000E+00 3.44483E+01 0.00000E+00
 -1     12539 6.93333E+00 3.49569E+01 0.00000E+00
 -1     12540 6.40000E+00 3.34310E+01 0.00000E+00
 -1     12541 6.93333E+00 3.39397E+01 0.00000E+00
 -1     12542 6.40000E+00 3.24138E+01 0.00000E+00
 -1     12543 6.93333E+00 3.29224E+01 0.00000E+00
 -1     12544 6.40000E+00 3.13966E+01 0.00000E+00
 -1     12545 6.93333E+00 3.19052E+01 0.00000E+00
 -1     12546 6.40000E+00 3.03793E+01 0.00000E+00
 -1     12547 6.93333E+00 3.08879E+01 0.00000E+00
 -1     12548 6.40000E+00 2.93621E+01 0.00000E+00
 -1     12549 6.93333E+00 2.98707E+01 0.00000E+00
 -1     12550 6.40000E+00 2.83448E+01 0.00000E+00
 -1     12551 6.93333E+00 2.88534E+01 0.00000E+00
 -1     12552 6.40000E+00 2.73276E+01 0.00000E+00
 -1     12553 6.93333E+00 2.78362E+01 0.00000E+00
 -1     12554 6.40000E+00 2.63103E+01 0.00000E+00
 -1     12555 6.93333E+00 2.68190E+01 0.00000E+00
 -1     12556 6.40000E+00 2.52931E+01 0.00000E+00
 -1     12557 6.93333E+00 2.58017E+01 0.00000E+00
 -1     12558 6.40000E+00 2.42759E+01 0.00000E+00
 -1     12559 6.93333E+00 2.47845E+01 0.00000E+00
 -1     12560 6.40000E+00 2.32586E+01 0.00000E+00
 -1     12561 6.93333E+00 2.37672E+01 0.00000E+00
 -1     12562 6.40000E+00 2.22414E+01 0.00000E+00
 -1     12563 6.93333E+00 2.27500E+01 0.00000E+00
 -1     12564 6.40000E+00 2.12241E+01 0.00000E+00
 -1     12565 6.93333E+00 2.17328E+01 0.00000E+00
 -1     12566 6.40000E+00 2.02069E+01 0.00000E+00
 -1     12567 6.93333E+00 2.07155E+01 0.00000E+00
 -1     12568 6.40000E+00 1.91897E+01 0.00000E+00
 -1     12569 6.93333E+00 1.96983E+01 0.00000E+00
 -1     12570 6.40000E+00 1.81724E+01 0.00000E+00
 -1     12571 6.93333E+00 1.86810E+01 0.00000E+00
 -1     12572 6.40000E+00 1.71552E+01 0.00000E+00
 -1     12573 6.93333E+00 1.76638E+01 0.00000E+00
 -1     12574 6.40000E+00 1.61379E+01 0.00000E+00
 -1     12575 6.93333E+00 1.66466E+01 0.00000E+00
 -1     12576 6.40000E+00 1.51207E+01 0.00000E+00
 -1     12577 6.93333E+00 1.56293E+01 0.00000E+00
 -1     12578 6.40000E+00 1.41034E+01 0.00000E+00
 -1     12579 6.93333E+00 1.46121E+01 0.00000E+00
 -1     12580 6.40000E+00 1.30862E+01 0.00000E+00
 -1     12581 6.93333E+00 1.35948E+01 0.00000E+00
 -1     12582 6.40000E+00 1.20690E+01 0.00000E+00
 -1     12583 6.93333E+00 1.25776E+01 0.00000E+00
 -1     12584 6.40000E+00 1.10517E+01 0.00000E+00
 -1     12585 6.93333E+00 1.15603E+01 0.00000E+00
 -1     12586 6.40000E+00 1.00345E+01 0.00000E+00
 -1     12587 6.93333E+00 1.05431E+01 0.00000E+00
 -1     12588 6.40000E+00 9.01724E+00 0.00000E+00
 -1     12589 6.93333E+00 9.52586E+00 0.00000E+00
 -1     12590 6.93333E+00 8.50862E+00 0.00000E+00
 -1     12591 7.46667E+00 3.64828E+01 0.00000E+00
 -1     12592 7.46667E+00 3.54655E+01 0.00000E+00
 -1     12593 7.46667E+00 3.44483E+01 0.00000E+00
 -1     12594 7.46667E+00 3.34310E+01 0.00000E+00
 -1     12595 7.46667E+00 3.24138E+01 0.00000E+00
 -1     12596 7.46667E+00 3.13966E+01 0.00000E+00
 -1     12597 7.46667E+00 3.03793E+01 0.00000E+00
 -1     12598 7.46667E+00 2.93621E+01 0.00000E+00
 -1     12599 7.46667E+00 2.83448E+01 0.00000E+00
 -1     12600 7.46667E+00 2.73276E+01 0.00000E+00
 -1     12601 7.46667E+00 2.63103E+01 0.00000E+00
 -1     12602 7.46667E+00 2.52931E+01 0.00000E+00
 -1     12603 7.46667E+00 2.42759E+01 0.00000E+00
 -1     12604 7.46667E+00 2.32586E+01 0.00000E+00
 -1     12605 7.46667E+00 2.22414E+01 0.00000E+00
 -1     12606 7.46667E+00 2.12241E+01 0.00000E+00
 -1     12607 7.46667E+00 2.02069E+01 0.00000E+00
 -1     12608 7.46667E+00 1.91897E+01 0.00000E+00
 -1     12609 7.46667E+00 1.81724E+01 0.00000E+00
 -1     12610 7.46667E+00 1.71552E+01 0.00000E+00
 -1     12611 7.46667E+00 1.61379E+01 0.00000E+00
 -1     12612 7.46667E+00 1.51207E+01 0.00000E+00
 -1     12613 7.46667E+00 1.41034E+01 0.00000E+00
 -1     12614 7.46667E+00 1.30862E+01 0.00000E+00
 -1     12615 7.46667E+00 1.20690E+01 0.00000E+00
 -1     12616 7.46667E+00 1.10517E+01 0.00000E+00
 -1     12617 7.46667E+00 1.00345E+01 0.00000E+00
 -1     12618 7.46667E+00 9.01724E+00 0.00000E+00
 -3
    3C                          4106                                     1
 -1       155   10    0    1
 -2         1       137      1189        34       151      1385      1386        49
 -1       156   10    0    1
 -2       137       138      1190      1189       152      1387      1388      1385
 -1       157   10    0    1
 -2       138       139      1191      1190       153      1389      1390      1387
 -1       158   10    0    1
 -2       139       140      1192      1191       154      1391      1392      1389
 -1       159   10    0    1
 -2       140       141      1193      1192       155      1393      1394      1391
 -1       160   10    0    1
 -2       141       142      1194      1193       156      1395      1396      1393
 -1       161   10    0    1
 -2       142       143      1195      1194       157      1397      1398      1395
 -1       162   10    0    1
 -2       143       144      1196      1195       158      1399      1400      1397
 -1       163   10    0    1
 -2       144       145      1197      1196       159      1401      1402      1399
 -1       164   10    0    1
 -2       145       146      1198      1197       160      1403      1404      1401
 -1       165   10    0    1
 -2       146       147      1199      1198       161      1405      1406      1403
 -1       166   10    0    1
 -2       147       148      1200      1199       162      1407      1408      1405
 -1       167   10    0    1
 -2       148       149      1201      1200       163      1409      1410      1407
 -1       168   10    0    1
 -2       149       150      1202      1201       164      1411      1412      1409
 -1       169   10    0    1
 -2       150         2        63      1202       165        78      1413      1411
 -1       170   10    0    1
 -2        34      1189      1203        33      1386      1414      1415        48
 -1       171   10    0    1
 -2      1189      1190      1204      1203      1388      1416      1417      1414
 -1       172   10    0    1
 -2      1190      1191      1205      1204      1390      1418      1419      1416
 -1       173   10    0    1
 -2      1191      1192      1206      1205      1392      1420      1421      1418
 -1       174   10    0    1
 -2      1192      1193      1207      1206      1394      1422      1423      1420
 -1       175   10    0    1
 -2      1193      1194      1208      1207      1396      1424      1425      1422
 -1       176   10    0    1
 -2      1194      1195      1209      1208      1398      1426      1427      1424
 -1       177   10    0    1
 -2      1195      1196      1210      1209      1400      1428      1429      1426
 -1       178   10    0    1
 -2      1196      1197      1211      1210      1402      1430      1431      1428
 -1       179   10    0    1
 -2      1197      1198      1212      1211      1404      1432      1433      1430
 -1       180   10    0    1
 -2      1198      1199      1213      1212      1406      1434      1435      1432
 -1       181   10    0    1
 -2      1199      1200      1214      1213      1408      1436      1437      1434
 -1       182   10    0    1
 -2      1200      1201      1215      1214      1410      1438      1439      1436
 -1       183   10    0    1
 -2      1201      1202      1216      1215      1412      1440      1441      1438
 -1       184   10    0    1
 -2      1202        63        62      1216      1413        77      1442      1440
 -1       185   10    0    1
 -2        33      1203      1217        32      1415      1443      1444        47
 -1       186   10    0    1
 -2      1203      1204      1218      1217      1417      1445      1446      1443
 -1       187   10    0    1
 -2      1204      1205      1219      1218      1419      1447      1448      1445
 -1       188   10    0    1
 -2      1205      1206      1220      1219      1421      1449      1450      1447
 -1       189   10    0    1
 -2      1206      1207      1221      1220      1423      1451      1452      1449
 -1       190   10    0    1
 -2      1207      1208      1222      1221      1425      1453      1454      1451
 -1       191   10    0    1
 -2      1208      1209      1223      1222      1427      1455      1456      1453
 -1       192   10    0    1
 -2      1209      1210      1224      1223      1429      1457      1458      1455
 -1       193   10    0    1
 -2      1210      1211      1225      1224      1431      1459      1460      1457
 -1       194   10    0    1
 -2      1211      1212      1226      1225      1433      1461      1462      1459
 -1       195   10    0    1
 -2      1212      1213      1227      1226      1435      1463      1464      1461
 -1       196   10    0    1
 -2      1213      1214      1228      1227      1437      1465      1466      1463
 -1       197   10    0    1
 -2      1214      1215      1229      1228      1439      1467      1468      1465
 -1       198   10    0    1
 -2      1215      1216      1230      1229      1441      1469      1470      1467
 -1       199   10    0    1
 -2      1216        62        61      1230      1442        76      1471      1469
 -1       200   10    0    1
 -2        32      1217      1231        31      1444      1472      1473        46
 -1       201   10    0    1
 -2      1217      1218      1232      1231      1446      1474      1475      1472
 -1       202   10    0    1
 -2      1218      1219      1233      1232      1448      1476      1477      1474
 -1       203   10    0    1
 -2      1219      1220      1234      1233      1450      1478      1479      1476
 -1       204   10    0    1
 -2      1220      1221      1235      1234      1452      1480      1481      1478
 -1       205   10    0    1
 -2      1221      1222      1236      1235      1454      1482      1483      1480
 -1       206   10    0    1
 -2      1222      1223      1237      1236      1456      1484      1485      1482
 -1       207   10    0    1
 -2      1223      1224      1238      1237      1458      1486      1487      1484
 -1       208   10    0    1
 -2      1224      1225      1239      1238      1460      1488      1489      1486
 -1       209   10    0    1
 -2      1225      1226      1240      1239      1462      1490      1491      1488
 -1       210   10    0    1
 -2      1226      1227      1241      1240      1464      1492      1493      1490
 -1       211   10    0    1
 -2      1227      1228      1242      1241      1466      1494      1495      1492
 -1       212   10    0    1
 -2      1228      1229      1243      1242      1468      1496      1497      1494
 -1       213   10    0    1
 -2      1229      1230      1244      1243      1470      1498      1499      1496
 -1       214   10    0    1
 -2      1230        61        60      1244      1471        75      1500      1498
 -1       215   10    0    1
 -2        31      1231      1245        30      1473      1501      1502        45
 -1       216   10    0    1
 -2      1231      1232      1246      1245      1475      1503      1504      1501
 -1       217   10    0    1
 -2      1232      1233      1247      1246      1477      1505      1506      1503
 -1       218   10    0    1
 -2      1233      1234      1248      1247      1479      1507      1508      1505
 -1       219   10    0    1
 -2      1234      1235      1249      1248      1481      1509      1510      1507
 -1       220   10    0    1
 -2      1235      1236      1250      1249      1483      1511      1512      1509
 -1       221   10    0    1
 -2      1236      1237      1251      1250      1485      1513      1514      1511
 -1       222   10    0    1
 -2      1237      1238      1252      1251      1487      1515      1516      1513
 -1       223   10    0    1
 -2      1238      1239      1253      1252      1489      1517      1518      1515
 -1       224   10    0    1
 -2      1239      1240      1254      1253      1491      1519      1520      1517
 -1       225   10    0    1
 -2      1240      1241      1255      1254      1493      1521      1522      1519
 -1       226   10    0    1
 -2      1241      1242      1256      1255      1495      1523      1524      1521
 -1       227   10    0    1
 -2      1242      1243      1257      1256      1497      1525      1526      1523
 -1       228   10    0    1
 -2      1243      1244      1258      1257      1499      1527      1528      1525
 -1       229   10    0    1
 -2      1244        60        59      1258      1500        74      1529      1527
 -1       230   10    0    1
 -2        30      1245      1259        29      1502      1530      1531        44
 -1       231   10    0    1
 -2      1245      1246      1260      1259      1504      1532      1533      1530
 -1       232   10    0    1
 -2      1246      1247      1261      1260      1506      1534      1535      1532
 -1       233   10    0    1
 -2      1247      1248      1262      1261      1508      1536      1537      1534
 -1       234   10    0    1
 -2      1248      1249      1263      1262      1510      1538      1539      1536
 -1       235   10    0    1
 -2      1249      1250      1264      1263      1512      1540      1541      1538
 -1       236   10    0    1
 -2      1250      1251      1265      1264      1514      1542      1543      1540
 -1       237   10    0    1
 -2      1251      1252      1266      1265      1516      1544      1545      1542
 -1       238   10    0    1
 -2      1252      1253      1267      1266      1518      1546      1547      1544
 -1       239   10    0    1
 -2      1253      1254      1268      1267      1520      1548      1549      1546
 -1       240   10    0    1
 -2      1254      1255      1269      1268      1522      1550      1551      1548
 -1       241   10    0    1
 -2      1255      1256      1270      1269      1524      1552      1553      1550
 -1       242   10    0    1
 -2      1256      1257      1271      1270      1526      1554      1555      1552
 -1       243   10    0    1
 -2      1257      1258      1272      1271      1528      1556      1557      1554
 -1       244   10    0    1
 -2      1258        59        58      1272      1529        73      1558      1556
 -1       245   10    0    1
 -2        29      1259      1273        28      1531      1559      1560        43
 -1       246   10    0    1
 -2      1259      1260      1274      1273      1533      1561      1562      1559
 -1       247   10    0    1
 -2      1260      1261      1275      1274      1535      1563      1564      1561
 -1       248   10    0    1
 -2      1261      1262      1276      1275      1537      1565      1566      1563
 -1       249   10    0    1
 -2      1262      1263      1277      1276      1539      1567      1568      1565
 -1       250   10    0    1
 -2      1263      1264      1278      1277      1541      1569      1570      1567
 -1       251   10    0    1
 -2      1264      1265      1279      1278      1543      1571      1572      1569
 -1       252   10    0    1
 -2      1265      1266      1280      1279      1545      1573      1574      1571
 -1       253   10    0    1
 -2      1266      1267      1281      1280      1547      1575      1576      1573
 -1       254   10    0    1
 -2      1267      1268      1282      1281      1549      1577      1578      1575
 -1       255   10    0    1
 -2      1268      1269      1283      1282      1551      1579      1580      1577
 -1       256   10    0    1
 -2      1269      1270      1284      1283      1553      1581      1582      1579
 -1       257   10    0    1
 -2      1270      1271      1285      1284      1555      1583      1584      1581
 -1       258   10    0    1
 -2      1271      1272      1286      1285      1557      1585      1586      1583
 -1       259   10    0    1
 -2      1272        58        57      1286      1558        72      1587      1585
 -1       260   10    0    1
 -2        28      1273      1287        27      1560      1588      1589        42
 -1       261   10    0    1
 -2      1273      1274      1288      1287      1562      1590      1591      1588
 -1       262   10    0    1
 -2      1274      1275      1289      1288      1564      1592      1593      1590
 -1       263   10    0    1
 -2      1275      1276      1290      1289      1566      1594      1595      1592
 -1       264   10    0    1
 -2      1276      1277      1291      1290      1568      1596      1597      1594
 -1       265   10    0    1
 -2      1277      1278      1292      1291      1570      1598      1599      1596
 -1       266   10    0    1
 -2      1278      1279      1293      1292      1572      1600      1601      1598
 -1       267   10    0    1
 -2      1279      1280      1294      1293      1574      1602      1603      1600
 -1       268   10    0    1
 -2      1280      1281      1295      1294      1576      1604      1605      1602
 -1       269   10    0    1
 -2      1281      1282      1296      1295      1578      1606      1607      1604
 -1       270   10    0    1
 -2      1282      1283      1297      1296      1580      1608      1609      1606
 -1       271   10    0    1
 -2      1283      1284      1298      1297      1582      1610      1611      1608
 -1       272   10    0    1
 -2      1284      1285      1299      1298      1584      1612      1613      1610
 -1       273   10    0    1
 -2      1285      1286      1300      1299      1586      1614      1615      1612
 -1       274   10    0    1
 -2      1286        57        56      1300      1587        71      1616      1614
 -1       275   10    0    1
 -2        27      1287      1301        26      1589      1617      1618        41
 -1       276   10    0    1
 -2      1287      1288      1302      1301      1591      1619      1620      1617
 -1       277   10    0    1
 -2      1288      1289      1303      1302      1593      1621      1622      1619
 -1       278   10    0    1
 -2      1289      1290      1304      1303      1595      1623      1624      1621
 -1       279   10    0    1
 -2      1290      1291      1305      1304      1597      1625      1626      1623
 -1       280   10    0    1
 -2      1291      1292      1306      1305      1599      1627      1628      1625
 -1       281   10    0    1
 -2      1292      1293      1307      1306      1601      1629      1630      1627
 -1       282   10    0    1
 -2      1293      1294      1308      1307      1603      1631      1632      1629
 -1       283   10    0    1
 -2      1294      1295      1309      1308      1605      1633      1634      1631
 -1       284   10    0    1
 -2      1295      1296      1310      1309      1607      1635      1636      1633
 -1       285   10    0    1
 -2      1296      1297      1311      1310      1609      1637      1638      1635
 -1       286   10    0    1
 -2      1297      1298      1312      1311      1611      1639      1640      1637
 -1       287   10    0    1
 -2      1298      1299      1313      1312      1613      1641      1642      1639
 -1       288   10    0    1
 -2      1299      1300      1314      1313      1615      1643      1644      1641
 -1       289   10    0    1
 -2      1300        56        55      1314      1616        70      1645      1643
 -1       290   10    0    1
 -2        26      1301      1315        25      1618      1646      1647        40
 -1       291   10    0    1
 -2      1301      1302      1316      1315      1620      1648      1649      1646
 -1       292   10    0    1
 -2      1302      1303      1317      1316      1622      1650      1651      1648
 -1       293   10    0    1
 -2      1303      1304      1318      1317      1624      1652      1653      1650
 -1       294   10    0    1
 -2      1304      1305      1319      1318      1626      1654      1655      1652
 -1       295   10    0    1
 -2      1305      1306      1320      1319      1628      1656      1657      1654
 -1       296   10    0    1
 -2      1306      1307      1321      1320      1630      1658      1659      1656
 -1       297   10    0    1
 -2      1307      1308      1322      1321      1632      1660      1661      1658
 -1       298   10    0    1
 -2      1308      1309      1323      1322      1634      1662      1663      1660
 -1       299   10    0    1
 -2      1309      1310      1324      1323      1636      1664      1665      1662
 -1       300   10    0    1
 -2      1310      1311      1325      1324      1638      1666      1667      1664
 -1       301   10    0    1
 -2      1311      1312      1326      1325      1640      1668      1669      1666
 -1       302   10    0    1
 -2      1312      1313      1327      1326      1642      1670      1671      1668
 -1       303   10    0    1
 -2      1313      1314      1328      1327      1644      1672      1673      1670
 -1       304   10    0    1
 -2      1314        55        54      1328      1645        69      1674      1672
 -1       305   10    0    1
 -2        25      1315      1329        24      1647      1675      1676        39
 -1       306   10    0    1
 -2      1315      1316      1330      1329      1649      1677      1678      1675
 -1       307   10    0    1
 -2      1316      1317      1331      1330      1651      1679      1680      1677
 -1       308   10    0    1
 -2      1317      1318      1332      1331      1653      1681      1682      1679
 -1       309   10    0    1
 -2      1318      1319      1333      1332      1655      1683      1684      1681
 -1       310   10    0    1
 -2      1319      1320      1334      1333      1657      1685      1686      1683
 -1       311   10    0    1
 -2      1320      1321      1335      1334      1659      1687      1688      1685
 -1       312   10    0    1
 -2      1321      1322      1336      1335      1661      1689      1690      1687
 -1       313   10    0    1
 -2      1322      1323      1337      1336      1663      1691      1692      1689
 -1       314   10    0    1
 -2      1323      1324      1338      1337      1665      1693      1694      1691
 -1       315   10    0    1
 -2      1324      1325      1339      1338      1667      1695      1696      1693
 -1       316   10    0    1
 -2      1325      1326      1340      1339      1669      1697      1698      1695
 -1       317   10    0    1
 -2      1326      1327      1341      1340      1671      1699      1700      1697
 -1       318   10    0    1
 -2      1327      1328      1342      1341      1673      1701      1702      1699
 -1       319   10    0    1
 -2      1328        54        53      1342      1674        68      1703      1701
 -1       320   10    0    1
 -2        24      1329      1343        23      1676      1704      1705        38
 -1       321   10    0    1
 -2      1329      1330      1344      1343      1678      1706      1707      1704
 -1       322   10    0    1
 -2      1330      1331      1345      1344      1680      1708      1709      1706
 -1       323   10    0    1
 -2      1331      1332      1346      1345      1682      1710      1711      1708
 -1       324   10    0    1
 -2      1332      1333      1347      1346      1684      1712      1713      1710
 -1       325   10    0    1
 -2      1333      1334      1348      1347      1686      1714      1715      1712
 -1       326   10    0    1
 -2      1334      1335      1349      1348      1688      1716      1717      1714
 -1       327   10    0    1
 -2      1335      1336      1350      1349      1690      1718      1719      1716
 -1       328   10    0    1
 -2      1336      1337      1351      1350      1692      1720      1721      1718
 -1       329   10    0    1
 -2      1337      1338      1352      1351      1694      1722      1723      1720
 -1       330   10    0    1
 -2      1338      1339      1353      1352      1696      1724      1725      1722
 -1       331   10    0    1
 -2      1339      1340      1354      1353      1698      1726      1727      1724
 -1       332   10    0    1
 -2      1340      1341      1355      1354      1700      1728      1729      1726
 -1       333   10    0    1
 -2      1341      1342      1356      1355      1702      1730      1731      1728
 -1       334   10    0    1
 -2      1342        53        52      1356      1703        67      1732      1730
 -1       335   10    0    1
 -2        23      1343      1357        22      1705      1733      1734        37
 -1       336   10    0    1
 -2      1343      1344      1358      1357      1707      1735      1736      1733
 -1       337   10    0    1
 -2      1344      1345      1359      1358      1709      1737      1738      1735
 -1       338   10    0    1
 -2      1345      1346      1360      1359      1711      1739      1740      1737
 -1       339   10    0    1
 -2      1346      1347      1361      1360      1713      1741      1742      1739
 -1       340   10    0    1
 -2      1347      1348      1362      1361      1715      1743      1744      1741
 -1       341   10    0    1
 -2      1348      1349      1363      1362      1717      1745      1746      1743
 -1       342   10    0    1
 -2      1349      1350      1364      1363      1719      1747      1748      1745
 -1       343   10    0    1
 -2      1350      1351      1365      1364      1721      1749      1750      1747
 -1       344   10    0    1
 -2      1351      1352      1366      1365      1723      1751      1752      1749
 -1       345   10    0    1
 -2      1352      1353      1367      1366      1725      1753      1754      1751
 -1       346   10    0    1
 -2      1353      1354      1368      1367      1727      1755      1756      1753
 -1       347   10    0    1
 -2      1354      1355      1369      1368      1729      1757      1758      1755
 -1       348   10    0    1
 -2      1355      1356      1370      1369      1731      1759      1760      1757
 -1       349   10    0    1
 -2      1356        52        51      1370      1732        66      1761      1759
 -1       350   10    0    1
 -2        22      1357      1371        21      1734      1762      1763        36
 -1       351   10    0    1
 -2      1357      1358      1372      1371      1736      1764      1765      1762
 -1       352   10    0    1
 -2      1358      1359      1373      1372      1738      1766      1767      1764
 -1       353   10    0    1
 -2      1359      1360      1374      1373      1740      1768      1769      1766
 -1       354   10    0    1
 -2      1360      1361      1375      1374      1742      1770      1771      1768
 -1       355   10    0    1
 -2      1361      1362      1376      1375      1744      1772      1773      1770
 -1       356   10    0    1
 -2      1362      1363      1377      1376      1746      1774      1775      1772
 -1       357   10    0    1
 -2      1363      1364      1378      1377      1748      1776      1777      1774
 -1       358   10    0    1
 -2      1364      1365      1379      1378      1750      1778      1779      1776
 -1       359   10    0    1
 -2      1365      1366      1380      1379      1752      1780      1781      1778
 -1       360   10    0    1
 -2      1366      1367      1381      1380      1754      1782      1783      1780
 -1       361   10    0    1
 -2      1367      1368      1382      1381      1756      1784      1785      1782
 -1       362   10    0    1
 -2      1368      1369      1383      1382      1758      1786      1787      1784
 -1       363   10    0    1
 -2      1369      1370      1384      1383      1760      1788      1789      1786
 -1       364   10    0    1
 -2      1370        51        50      1384      1761        65      1790      1788
 -1       365   10    0    1
 -2        21      1371       253         5      1763      1791       267        35
 -1       366   10    0    1
 -2      1371      1372       254       253      1765      1792       268      1791
 -1       367   10    0    1
 -2      1372      1373       255       254      1767      1793       269      1792
 -1       368   10    0    1
 -2      1373      1374       256       255      1769      1794       270      1793
 -1       369   10    0    1
 -2      1374      1375       257       256      1771      1795       271      1794
 -1       370   10    0    1
 -2      1375      1376       258       257      1773      1796       272      1795
 -1       371   10    0    1
 -2      1376      1377       259       258      1775      1797       273      1796
 -1       372   10    0    1
 -2      1377      1378       260       259      1777      1798       274      1797
 -1       373   10    0    1
 -2      1378      1379       261       260      1779      1799       275      1798
 -1       374   10    0    1
 -2      1379      1380       262       261      1781      1800       276      1799
 -1       375   10    0    1
 -2      1380      1381       263       262      1783      1801       277      1800
 -1       376   10    0    1
 -2      1381      1382       264       263      1785      1802       278      1801
 -1       377   10    0    1
 -2      1382      1383       265       264      1787      1803       279      1802
 -1       378   10    0    1
 -2      1383      1384       266       265      1789      1804       280      1803
 -1       379   10    0    1
 -2      1384        50         6       266      1790        64       281      1804
 -1       380   10    0    1
 -2         2       166      1805        63       180      2001      2002        78
 -1       381   10    0    1
 -2       166       167      1806      1805       181      2003      2004      2001
 -1       382   10    0    1
 -2       167       168      1807      1806       182      2005      2006      2003
 -1       383   10    0    1
 -2       168       169      1808      1807       183      2007      2008      2005
 -1       384   10    0    1
 -2       169       170      1809      1808       184      2009      2010      2007
 -1       385   10    0    1
 -2       170       171      1810      1809       185      2011      2012      2009
 -1       386   10    0    1
 -2       171       172      1811      1810       186      2013      2014      2011
 -1       387   10    0    1
 -2       172       173      1812      1811       187      2015      2016      2013
 -1       388   10    0    1
 -2       173       174      1813      1812       188      2017      2018      2015
 -1       389   10    0    1
 -2       174       175      1814      1813       189      2019      2020      2017
 -1       390   10    0    1
 -2       175       176      1815      1814       190      2021      2022      2019
 -1       391   10    0    1
 -2       176       177      1816      1815       191      2023      2024      2021
 -1       392   10    0    1
 -2       177       178      1817      1816       192      2025      2026      2023
 -1       393   10    0    1
 -2       178       179      1818      1817       193      2027      2028      2025
 -1       394   10    0    1
 -2       179         3        92      1818       194       107      2029      2027
 -1       395   10    0    1
 -2        63      1805      1819        62      2002      2030      2031        77
 -1       396   10    0    1
 -2      1805      1806      1820      1819      2004      2032      2033      2030
 -1       397   10    0    1
 -2      1806      1807      1821      1820      2006      2034      2035      2032
 -1       398   10    0    1
 -2      1807      1808      1822      1821      2008      2036      2037      2034
 -1       399   10    0    1
 -2      1808      1809      1823      1822      2010      2038      2039      2036
 -1       400   10    0    1
 -2      1809      1810      1824      1823      2012      2040      2041      2038
 -1       401   10    0    1
 -2      1810      1811      1825      1824      2014      2042      2043      2040
 -1       402   10    0    1
 -2      1811      1812      1826      1825      2016      2044      2045      2042
 -1       403   10    0    1
 -2      1812      1813      1827      1826      2018      2046      2047      2044
 -1       404   10    0    1
 -2      1813      1814      1828      1827      2020      2048      2049      2046
 -1       405   10    0    1
 -2      1814      1815      1829      1828      2022      2050      2051      2048
 -1       406   10    0    1
 -2      1815      1816      1830      1829      2024      2052      2053      2050
 -1       407   10    0    1
 -2      1816      1817      1831      1830      2026      2054      2055      2052
 -1       408   10    0    1
 -2      1817      1818      1832      1831      2028      2056      2057      2054
 -1       409   10    0    1
 -2      1818        92        91      1832      2029       106      2058      2056
 -1       410   10    0    1
 -2        62      1819      1833        61      2031      2059      2060        76
 -1       411   10    0    1
 -2      1819      1820      1834      1833      2033      2061      2062      2059
 -1       412   10    0    1
 -2      1820      1821      1835      1834      2035      2063      2064      2061
 -1       413   10    0    1
 -2      1821      1822      1836      1835      2037      2065      2066      2063
 -1       414   10    0    1
 -2      1822      1823      1837      1836      2039      2067      2068      2065
 -1       415   10    0    1
 -2      1823      1824      1838      1837      2041      2069      2070      2067
 -1       416   10    0    1
 -2      1824      1825      1839      1838      2043      2071      2072      2069
 -1       417   10    0    1
 -2      1825      1826      1840      1839      2045      2073      2074      2071
 -1       418   10    0    1
 -2      1826      1827      1841      1840      2047      2075      2076      2073
 -1       419   10    0    1
 -2      1827      1828      1842      1841      2049      2077      2078      2075
 -1       420   10    0    1
 -2      1828      1829      1843      1842      2051      2079      2080      2077
 -1       421   10    0    1
 -2      1829      1830      1844      1843      2053      2081      2082      2079
 -1       422   10    0    1
 -2      1830      1831      1845      1844      2055      2083      2084      2081
 -1       423   10    0    1
 -2      1831      1832      1846      1845      2057      2085      2086      2083
 -1       424   10    0    1
 -2      1832        91        90      1846      2058       105      2087      2085
 -1       425   10    0    1
 -2        61      1833      1847        60      2060      2088      2089        75
 -1       426   10    0    1
 -2      1833      1834      1848      1847      2062      2090      2091      2088
 -1       427   10    0    1
 -2      1834      1835      1849      1848      2064      2092      2093      2090
 -1       428   10    0    1
 -2      1835      1836      1850      1849      2066      2094      2095      2092
 -1       429   10    0    1
 -2      1836      1837      1851      1850      2068      2096      2097      2094
 -1       430   10    0    1
 -2      1837      1838      1852      1851      2070      2098      2099      2096
 -1       431   10    0    1
 -2      1838      1839      1853      1852      2072      2100      2101      2098
 -1       432   10    0    1
 -2      1839      1840      1854      1853      2074      2102      2103      2100
 -1       433   10    0    1
 -2      1840      1841      1855      1854      2076      2104      2105      2102
 -1       434   10    0    1
 -2      1841      1842      1856      1855      2078      2106      2107      2104
 -1       435   10    0    1
 -2      1842      1843      1857      1856      2080      2108      2109      2106
 -1       436   10    0    1
 -2      1843      1844      1858      1857      2082      2110      2111      2108
 -1       437   10    0    1
 -2      1844      1845      1859      1858      2084      2112      2113      2110
 -1       438   10    0    1
 -2      1845      1846      1860      1859      2086      2114      2115      2112
 -1       439   10    0    1
 -2      1846        90        89      1860      2087       104      2116      2114
 -1       440   10    0    1
 -2        60      1847      1861        59      2089      2117      2118        74
 -1       441   10    0    1
 -2      1847      1848      1862      1861      2091      2119      2120      2117
 -1       442   10    0    1
 -2      1848      1849      1863      1862      2093      2121      2122      2119
 -1       443   10    0    1
 -2      1849      1850      1864      1863      2095      2123      2124      2121
 -1       444   10    0    1
 -2      1850      1851      1865      1864      2097      2125      2126      2123
 -1       445   10    0    1
 -2      1851      1852      1866      1865      2099      2127      2128      2125
 -1       446   10    0    1
 -2      1852      1853      1867      1866      2101      2129      2130      2127
 -1       447   10    0    1
 -2      1853      1854      1868      1867      2103      2131      2132      2129
 -1       448   10    0    1
 -2      1854      1855      1869      1868      2105      2133      2134      2131
 -1       449   10    0    1
 -2      1855      1856      1870      1869      2107      2135      2136      2133
 -1       450   10    0    1
 -2      1856      1857      1871      1870      2109      2137      2138      2135
 -1       451   10    0    1
 -2      1857      1858      1872      1871      2111      2139      2140      2137
 -1       452   10    0    1
 -2      1858      1859      1873      1872      2113      2141      2142      2139
 -1       453   10    0    1
 -2      1859      1860      1874      1873      2115      2143      2144      2141
 -1       454   10    0    1
 -2      1860        89        88      1874      2116       103      2145      2143
 -1       455   10    0    1
 -2        59      1861      1875        58      2118      2146      2147        73
 -1       456   10    0    1
 -2      1861      1862      1876      1875      2120      2148      2149      2146
 -1       457   10    0    1
 -2      1862      1863      1877      1876      2122      2150      2151      2148
 -1       458   10    0    1
 -2      1863      1864      1878      1877      2124      2152      2153      2150
 -1       459   10    0    1
 -2      1864      1865      1879      1878      2126      2154      2155      2152
 -1       460   10    0    1
 -2      1865      1866      1880      1879      2128      2156      2157      2154
 -1       461   10    0    1
 -2      1866      1867      1881      1880      2130      2158      2159      2156
 -1       462   10    0    1
 -2      1867      1868      1882      1881      2132      2160      2161      2158
 -1       463   10    0    1
 -2      1868      1869      1883      1882      2134      2162      2163      2160
 -1       464   10    0    1
 -2      1869      1870      1884      1883      2136      2164      2165      2162
 -1       465   10    0    1
 -2      1870      1871      1885      1884      2138      2166      2167      2164
 -1       466   10    0    1
 -2      1871      1872      1886      1885      2140      2168      2169      2166
 -1       467   10    0    1
 -2      1872      1873      1887      1886      2142      2170      2171      2168
 -1       468   10    0    1
 -2      1873      1874      1888      1887      2144      2172      2173      2170
 -1       469   10    0    1
 -2      1874        88        87      1888      2145       102      2174      2172
 -1       470   10    0    1
 -2        58      1875      1889        57      2147      2175      2176        72
 -1       471   10    0    1
 -2      1875      1876      1890      1889      2149      2177      2178      2175
 -1       472   10    0    1
 -2      1876      1877      1891      1890      2151      2179      2180      2177
 -1       473   10    0    1
 -2      1877      1878      1892      1891      2153      2181      2182      2179
 -1       474   10    0    1
 -2      1878      1879      1893      1892      2155      2183      2184      2181
 -1       475   10    0    1
 -2      1879      1880      1894      1893      2157      2185      2186      2183
 -1       476   10    0    1
 -2      1880      1881      1895      1894      2159      2187      2188      2185
 -1       477   10    0    1
 -2      1881      1882      1896      1895      2161      2189      2190      2187
 -1       478   10    0    1
 -2      1882      1883      1897      1896      2163      2191      2192      2189
 -1       479   10    0    1
 -2      1883      1884      1898      1897      2165      2193      2194      2191
 -1       480   10    0    1
 -2      1884      1885      1899      1898      2167      2195      2196      2193
 -1       481   10    0    1
 -2      1885      1886      1900      1899      2169      2197      2198      2195
 -1       482   10    0    1
 -2      1886      1887      1901      1900      2171      2199      2200      2197
 -1       483   10    0    1
 -2      1887      1888      1902      1901      2173      2201      2202      2199
 -1       484   10    0    1
 -2      1888        87        86      1902      2174       101      2203      2201
 -1       485   10    0    1
 -2        57      1889      1903        56      2176      2204      2205        71
 -1       486   10    0    1
 -2      1889      1890      1904      1903      2178      2206      2207      2204
 -1       487   10    0    1
 -2      1890      1891      1905      1904      2180      2208      2209      2206
 -1       488   10    0    1
 -2      1891      1892      1906      1905      2182      2210      2211      2208
 -1       489   10    0    1
 -2      1892      1893      1907      1906      2184      2212      2213      2210
 -1       490   10    0    1
 -2      1893      1894      1908      1907      2186      2214      2215      2212
 -1       491   10    0    1
 -2      1894      1895      1909      1908      2188      2216      2217      2214
 -1       492   10    0    1
 -2      1895      1896      1910      1909      2190      2218      2219      2216
 -1       493   10    0    1
 -2      1896      1897      1911      1910      2192      2220      2221      2218
 -1       494   10    0    1
 -2      1897      1898      1912      1911      2194      2222      2223      2220
 -1       495   10    0    1
 -2      1898      1899      1913      1912      2196      2224      2225      2222
 -1       496   10    0    1
 -2      1899      1900      1914      1913      2198      2226      2227      2224
 -1       497   10    0    1
 -2      1900      1901      1915      1914      2200      2228      2229      2226
 -1       498   10    0    1
 -2      1901      1902      1916      1915      2202      2230      2231      2228
 -1       499   10    0    1
 -2      1902        86        85      1916      2203       100      2232      2230
 -1       500   10    0    1
 -2        56      1903      1917        55      2205      2233      2234        70
 -1       501   10    0    1
 -2      1903      1904      1918      1917      2207      2235      2236      2233
 -1       502   10    0    1
 -2      1904      1905      1919      1918      2209      2237      2238      2235
 -1       503   10    0    1
 -2      1905      1906      1920      1919      2211      2239      2240      2237
 -1       504   10    0    1
 -2      1906      1907      1921      1920      2213      2241      2242      2239
 -1       505   10    0    1
 -2      1907      1908      1922      1921      2215      2243      2244      2241
 -1       506   10    0    1
 -2      1908      1909      1923      1922      2217      2245      2246      2243
 -1       507   10    0    1
 -2      1909      1910      1924      1923      2219      2247      2248      2245
 -1       508   10    0    1
 -2      1910      1911      1925      1924      2221      2249      2250      2247
 -1       509   10    0    1
 -2      1911      1912      1926      1925      2223      2251      2252      2249
 -1       510   10    0    1
 -2      1912      1913      1927      1926      2225      2253      2254      2251
 -1       511   10    0    1
 -2      1913      1914      1928      1927      2227      2255      2256      2253
 -1       512   10    0    1
 -2      1914      1915      1929      1928      2229      2257      2258      2255
 -1       513   10    0    1
 -2      1915      1916      1930      1929      2231      2259      2260      2257
 -1       514   10    0    1
 -2      1916        85        84      1930      2232        99      2261      2259
 -1       515   10    0    1
 -2        55      1917      1931        54      2234      2262      2263        69
 -1       516   10    0    1
 -2      1917      1918      1932      1931      2236      2264      2265      2262
 -1       517   10    0    1
 -2      1918      1919      1933      1932      2238      2266      2267      2264
 -1       518   10    0    1
 -2      1919      1920      1934      1933      2240      2268      2269      2266
 -1       519   10    0    1
 -2      1920      1921      1935      1934      2242      2270      2271      2268
 -1       520   10    0    1
 -2      1921      1922      1936      1935      2244      2272      2273      2270
 -1       521   10    0    1
 -2      1922      1923      1937      1936      2246      2274      2275      2272
 -1       522   10    0    1
 -2      1923      1924      1938      1937      2248      2276      2277      2274
 -1       523   10    0    1
 -2      1924      1925      1939      1938      2250      2278      2279      2276
 -1       524   10    0    1
 -2      1925      1926      1940      1939      2252      2280      2281      2278
 -1       525   10    0    1
 -2      1926      1927      1941      1940      2254      2282      2283      2280
 -1       526   10    0    1
 -2      1927      1928      1942      1941      2256      2284      2285      2282
 -1       527   10    0    1
 -2      1928      1929      1943      1942      2258      2286      2287      2284
 -1       528   10    0    1
 -2      1929      1930      1944      1943      2260      2288      2289      2286
 -1       529   10    0    1
 -2      1930        84        83      1944      2261        98      2290      2288
 -1       530   10    0    1
 -2        54      1931      1945        53      2263      2291      2292        68
 -1       531   10    0    1
 -2      1931      1932      1946      1945      2265      2293      2294      2291
 -1       532   10    0    1
 -2      1932      1933      1947      1946      2267      2295      2296      2293
 -1       533   10    0    1
 -2      1933      1934      1948      1947      2269      2297      2298      2295
 -1       534   10    0    1
 -2      1934      1935      1949      1948      2271      2299      2300      2297
 -1       535   10    0    1
 -2      1935      1936      1950      1949      2273      2301      2302      2299
 -1       536   10    0    1
 -2      1936      1937      1951      1950      2275      2303      2304      2301
 -1       537   10    0    1
 -2      1937      1938      1952      1951      2277      2305      2306      2303
 -1       538   10    0    1
 -2      1938      1939      1953      1952      2279      2307      2308      2305
 -1       539   10    0    1
 -2      1939      1940      1954      1953      2281      2309      2310      2307
 -1       540   10    0    1
 -2      1940      1941      1955      1954      2283      2311      2312      2309
 -1       541   10    0    1
 -2      1941      1942      1956      1955      2285      2313      2314      2311
 -1       542   10    0    1
 -2      1942      1943      1957      1956      2287      2315      2316      2313
 -1       543   10    0    1
 -2      1943      1944      1958      1957      2289      2317      2318      2315
 -1       544   10    0    1
 -2      1944        83        82      1958      2290        97      2319      2317
 -1       545   10    0    1
 -2        53      1945      1959        52      2292      2320      2321        67
 -1       546   10    0    1
 -2      1945      1946      1960      1959      2294      2322      2323      2320
 -1       547   10    0    1
 -2      1946      1947      1961      1960      2296      2324      2325      2322
 -1       548   10    0    1
 -2      1947      1948      1962      1961      2298      2326      2327      2324
 -1       549   10    0    1
 -2      1948      1949      1963      1962      2300      2328      2329      2326
 -1       550   10    0    1
 -2      1949      1950      1964      1963      2302      2330      2331      2328
 -1       551   10    0    1
 -2      1950      1951      1965      1964      2304      2332      2333      2330
 -1       552   10    0    1
 -2      1951      1952      1966      1965      2306      2334      2335      2332
 -1       553   10    0    1
 -2      1952      1953      1967      1966      2308      2336      2337      2334
 -1       554   10    0    1
 -2      1953      1954      1968      1967      2310      2338      2339      2336
 -1       555   10    0    1
 -2      1954      1955      1969      1968      2312      2340      2341      2338
 -1       556   10    0    1
 -2      1955      1956      1970      1969      2314      2342      2343      2340
 -1       557   10    0    1
 -2      1956      1957      1971      1970      2316      2344      2345      2342
 -1       558   10    0    1
 -2      1957      1958      1972      1971      2318      2346      2347      2344
 -1       559   10    0    1
 -2      1958        82        81      1972      2319        96      2348      2346
 -1       560   10    0    1
 -2        52      1959      1973        51      2321      2349      2350        66
 -1       561   10    0    1
 -2      1959      1960      1974      1973      2323      2351      2352      2349
 -1       562   10    0    1
 -2      1960      1961      1975      1974      2325      2353      2354      2351
 -1       563   10    0    1
 -2      1961      1962      1976      1975      2327      2355      2356      2353
 -1       564   10    0    1
 -2      1962      1963      1977      1976      2329      2357      2358      2355
 -1       565   10    0    1
 -2      1963      1964      1978      1977      2331      2359      2360      2357
 -1       566   10    0    1
 -2      1964      1965      1979      1978      2333      2361      2362      2359
 -1       567   10    0    1
 -2      1965      1966      1980      1979      2335      2363      2364      2361
 -1       568   10    0    1
 -2      1966      1967      1981      1980      2337      2365      2366      2363
 -1       569   10    0    1
 -2      1967      1968      1982      1981      2339      2367      2368      2365
 -1       570   10    0    1
 -2      1968      1969      1983      1982      2341      2369      2370      2367
 -1       571   10    0    1
 -2      1969      1970      1984      1983      2343      2371      2372      2369
 -1       572   10    0    1
 -2      1970      1971      1985      1984      2345      2373      2374      2371
 -1       573   10    0    1
 -2      1971      1972      1986      1985      2347      2375      2376      2373
 -1       574   10    0    1
 -2      1972        81        80      1986      2348        95      2377      2375
 -1       575   10    0    1
 -2        51      1973      1987        50      2350      2378      2379        65
 -1       576   10    0    1
 -2      1973      1974      1988      1987      2352      2380      2381      2378
 -1       577   10    0    1
 -2      1974      1975      1989      1988      2354      2382      2383      2380
 -1       578   10    0    1
 -2      1975      1976      1990      1989      2356      2384      2385      2382
 -1       579   10    0    1
 -2      1976      1977      1991      1990      2358      2386      2387      2384
 -1       580   10    0    1
 -2      1977      1978      1992      1991      2360      2388      2389      2386
 -1       581   10    0    1
 -2      1978      1979      1993      1992      2362      2390      2391      2388
 -1       582   10    0    1
 -2      1979      1980      1994      1993      2364      2392      2393      2390
 -1       583   10    0    1
 -2      1980      1981      1995      1994      2366      2394      2395      2392
 -1       584   10    0    1
 -2      1981      1982      1996      1995      2368      2396      2397      2394
 -1       585   10    0    1
 -2      1982      1983      1997      1996      2370      2398      2399      2396
 -1       586   10    0    1
 -2      1983      1984      1998      1997      2372      2400      2401      2398
 -1       587   10    0    1
 -2      1984      1985      1999      1998      2374      2402      2403      2400
 -1       588   10    0    1
 -2      1985      1986      2000      1999      2376      2404      2405      2402
 -1       589   10    0    1
 -2      1986        80        79      2000      2377        94      2406      2404
 -1       590   10    0    1
 -2        50      1987       282         6      2379      2407       296        64
 -1       591   10    0    1
 -2      1987      1988       283       282      2381      2408       297      2407
 -1       592   10    0    1
 -2      1988      1989       284       283      2383      2409       298      2408
 -1       593   10    0    1
 -2      1989      1990       285       284      2385      2410       299      2409
 -1       594   10    0    1
 -2      1990      1991       286       285      2387      2411       300      2410
 -1       595   10    0    1
 -2      1991      1992       287       286      2389      2412       301      2411
 -1       596   10    0    1
 -2      1992      1993       288       287      2391      2413       302      2412
 -1       597   10    0    1
 -2      1993      1994       289       288      2393      2414       303      2413
 -1       598   10    0    1
 -2      1994      1995       290       289      2395      2415       304      2414
 -1       599   10    0    1
 -2      1995      1996       291       290      2397      2416       305      2415
 -1       600   10    0    1
 -2      1996      1997       292       291      2399      2417       306      2416
 -1       601   10    0    1
 -2      1997      1998       293       292      2401      2418       307      2417
 -1       602   10    0    1
 -2      1998      1999       294       293      2403      2419       308      2418
 -1       603   10    0    1
 -2      1999      2000       295       294      2405      2420       309      2419
 -1       604   10    0    1
 -2      2000        79         7       295      2406        93       310      2420
 -1       605   10    0    1
 -2         3       195      2421        92       209      2617      2618       107
 -1       606   10    0    1
 -2       195       196      2422      2421       210      2619      2620      2617
 -1       607   10    0    1
 -2       196       197      2423      2422       211      2621      2622      2619
 -1       608   10    0    1
 -2       197       198      2424      2423       212      2623      2624      2621
 -1       609   10    0    1
 -2       198       199      2425      2424       213      2625      2626      2623
 -1       610   10    0    1
 -2       199       200      2426      2425       214      2627      2628      2625
 -1       611   10    0    1
 -2       200       201      2427      2426       215      2629      2630      2627
 -1       612   10    0    1
 -2       201       202      2428      2427       216      2631      2632      2629
 -1       613   10    0    1
 -2       202       203      2429      2428       217      2633      2634      2631
 -1       614   10    0    1
 -2       203       204      2430      2429       218      2635      2636      2633
 -1       615   10    0    1
 -2       204       205      2431      2430       219      2637      2638      2635
 -1       616   10    0    1
 -2       205       206      2432      2431       220      2639      2640      2637
 -1       617   10    0    1
 -2       206       207      2433      2432       221      2641      2642      2639
 -1       618   10    0    1
 -2       207       208      2434      2433       222      2643      2644      2641
 -1       619   10    0    1
 -2       208         4       121      2434       223       136      2645      2643
 -1       620   10    0    1
 -2        92      2421      2435        91      2618      2646      2647       106
 -1       621   10    0    1
 -2      2421      2422      2436      2435      2620      2648      2649      2646
 -1       622   10    0    1
 -2      2422      2423      2437      2436      2622      2650      2651      2648
 -1       623   10    0    1
 -2      2423      2424      2438      2437      2624      2652      2653      2650
 -1       624   10    0    1
 -2      2424      2425      2439      2438      2626      2654      2655      2652
 -1       625   10    0    1
 -2      2425      2426      2440      2439      2628      2656      2657      2654
 -1       626   10    0    1
 -2      2426      2427      2441      2440      2630      2658      2659      2656
 -1       627   10    0    1
 -2      2427      2428      2442      2441      2632      2660      2661      2658
 -1       628   10    0    1
 -2      2428      2429      2443      2442      2634      2662      2663      2660
 -1       629   10    0    1
 -2      2429      2430      2444      2443      2636      2664      2665      2662
 -1       630   10    0    1
 -2      2430      2431      2445      2444      2638      2666      2667      2664
 -1       631   10    0    1
 -2      2431      2432      2446      2445      2640      2668      2669      2666
 -1       632   10    0    1
 -2      2432      2433      2447      2446      2642      2670      2671      2668
 -1       633   10    0    1
 -2      2433      2434      2448      2447      2644      2672      2673      2670
 -1       634   10    0    1
 -2      2434       121       120      2448      2645       135      2674      2672
 -1       635   10    0    1
 -2        91      2435      2449        90      2647      2675      2676       105
 -1       636   10    0    1
 -2      2435      2436      2450      2449      2649      2677      2678      2675
 -1       637   10    0    1
 -2      2436      2437      2451      2450      2651      2679      2680      2677
 -1       638   10    0    1
 -2      2437      2438      2452      2451      2653      2681      2682      2679
 -1       639   10    0    1
 -2      2438      2439      2453      2452      2655      2683      2684      2681
 -1       640   10    0    1
 -2      2439      2440      2454      2453      2657      2685      2686      2683
 -1       641   10    0    1
 -2      2440      2441      2455      2454      2659      2687      2688      2685
 -1       642   10    0    1
 -2      2441      2442      2456      2455      2661      2689      2690      2687
 -1       643   10    0    1
 -2      2442      2443      2457      2456      2663      2691      2692      2689
 -1       644   10    0    1
 -2      2443      2444      2458      2457      2665      2693      2694      2691
 -1       645   10    0    1
 -2      2444      2445      2459      2458      2667      2695      2696      2693
 -1       646   10    0    1
 -2      2445      2446      2460      2459      2669      2697      2698      2695
 -1       647   10    0    1
 -2      2446      2447      2461      2460      2671      2699      2700      2697
 -1       648   10    0    1
 -2      2447      2448      2462      2461      2673      2701      2702      2699
 -1       649   10    0    1
 -2      2448       120       119      2462      2674       134      2703      2701
 -1       650   10    0    1
 -2        90      2449      2463        89      2676      2704      2705       104
 -1       651   10    0    1
 -2      2449      2450      2464      2463      2678      2706      2707      2704
 -1       652   10    0    1
 -2      2450      2451      2465      2464      2680      2708      2709      2706
 -1       653   10    0    1
 -2      2451      2452      2466      2465      2682      2710      2711      2708
 -1       654   10    0    1
 -2      2452      2453      2467      2466      2684      2712      2713      2710
 -1       655   10    0    1
 -2      2453      2454      2468      2467      2686      2714      2715      2712
 -1       656   10    0    1
 -2      2454      2455      2469      2468      2688      2716      2717      2714
 -1       657   10    0    1
 -2      2455      2456      2470      2469      2690      2718      2719      2716
 -1       658   10    0    1
 -2      2456      2457      2471      2470      2692      2720      2721      2718
 -1       659   10    0    1
 -2      2457      2458      2472      2471      2694      2722      2723      2720
 -1       660   10    0    1
 -2      2458      2459      2473      2472      2696      2724      2725      2722
 -1       661   10    0    1
 -2      2459      2460      2474      2473      2698      2726      2727      2724
 -1       662   10    0    1
 -2      2460      2461      2475      2474      2700      2728      2729      2726
 -1       663   10    0    1
 -2      2461      2462      2476      2475      2702      2730      2731      2728
 -1       664   10    0    1
 -2      2462       119       118      2476      2703       133      2732      2730
 -1       665   10    0    1
 -2        89      2463      2477        88      2705      2733      2734       103
 -1       666   10    0    1
 -2      2463      2464      2478      2477      2707      2735      2736      2733
 -1       667   10    0    1
 -2      2464      2465      2479      2478      2709      2737      2738      2735
 -1       668   10    0    1
 -2      2465      2466      2480      2479      2711      2739      2740      2737
 -1       669   10    0    1
 -2      2466      2467      2481      2480      2713      2741      2742      2739
 -1       670   10    0    1
 -2      2467      2468      2482      2481      2715      2743      2744      2741
 -1       671   10    0    1
 -2      2468      2469      2483      2482      2717      2745      2746      2743
 -1       672   10    0    1
 -2      2469      2470      2484      2483      2719      2747      2748      2745
 -1       673   10    0    1
 -2      2470      2471      2485      2484      2721      2749      2750      2747
 -1       674   10    0    1
 -2      2471      2472      2486      2485      2723      2751      2752      2749
 -1       675   10    0    1
 -2      2472      2473      2487      2486      2725      2753      2754      2751
 -1       676   10    0    1
 -2      2473      2474      2488      2487      2727      2755      2756      2753
 -1       677   10    0    1
 -2      2474      2475      2489      2488      2729      2757      2758      2755
 -1       678   10    0    1
 -2      2475      2476      2490      2489      2731      2759      2760      2757
 -1       679   10    0    1
 -2      2476       118       117      2490      2732       132      2761      2759
 -1       680   10    0    1
 -2        88      2477      2491        87      2734      2762      2763       102
 -1       681   10    0    1
 -2      2477      2478      2492      2491      2736      2764      2765      2762
 -1       682   10    0    1
 -2      2478      2479      2493      2492      2738      2766      2767      2764
 -1       683   10    0    1
 -2      2479      2480      2494      2493      2740      2768      2769      2766
 -1       684   10    0    1
 -2      2480      2481      2495      2494      2742      2770      2771      2768
 -1       685   10    0    1
 -2      2481      2482      2496      2495      2744      2772      2773      2770
 -1       686   10    0    1
 -2      2482      2483      2497      2496      2746      2774      2775      2772
 -1       687   10    0    1
 -2      2483      2484      2498      2497      2748      2776      2777      2774
 -1       688   10    0    1
 -2      2484      2485      2499      2498      2750      2778      2779      2776
 -1       689   10    0    1
 -2      2485      2486      2500      2499      2752      2780      2781      2778
 -1       690   10    0    1
 -2      2486      2487      2501      2500      2754      2782      2783      2780
 -1       691   10    0    1
 -2      2487      2488      2502      2501      2756      2784      2785      2782
 -1       692   10    0    1
 -2      2488      2489      2503      2502      2758      2786      2787      2784
 -1       693   10    0    1
 -2      2489      2490      2504      2503      2760      2788      2789      2786
 -1       694   10    0    1
 -2      2490       117       116      2504      2761       131      2790      2788
 -1       695   10    0    1
 -2        87      2491      2505        86      2763      2791      2792       101
 -1       696   10    0    1
 -2      2491      2492      2506      2505      2765      2793      2794      2791
 -1       697   10    0    1
 -2      2492      2493      2507      2506      2767      2795      2796      2793
 -1       698   10    0    1
 -2      2493      2494      2508      2507      2769      2797      2798      2795
 -1       699   10    0    1
 -2      2494      2495      2509      2508      2771      2799      2800      2797
 -1       700   10    0    1
 -2      2495      2496      2510      2509      2773      2801      2802      2799
 -1       701   10    0    1
 -2      2496      2497      2511      2510      2775      2803      2804      2801
 -1       702   10    0    1
 -2      2497      2498      2512      2511      2777      2805      2806      2803
 -1       703   10    0    1
 -2      2498      2499      2513      2512      2779      2807      2808      2805
 -1       704   10    0    1
 -2      2499      2500      2514      2513      2781      2809      2810      2807
 -1       705   10    0    1
 -2      2500      2501      2515      2514      2783      2811      2812      2809
 -1       706   10    0    1
 -2      2501      2502      2516      2515      2785      2813      2814      2811
 -1       707   10    0    1
 -2      2502      2503      2517      2516      2787      2815      2816      2813
 -1       708   10    0    1
 -2      2503      2504      2518      2517      2789      2817      2818      2815
 -1       709   10    0    1
 -2      2504       116       115      2518      2790       130      2819      2817
 -1       710   10    0    1
 -2        86      2505      2519        85      2792      2820      2821       100
 -1       711   10    0    1
 -2      2505      2506      2520      2519      2794      2822      2823      2820
 -1       712   10    0    1
 -2      2506      2507      2521      2520      2796      2824      2825      2822
 -1       713   10    0    1
 -2      2507      2508      2522      2521      2798      2826      2827      2824
 -1       714   10    0    1
 -2      2508      2509      2523      2522      2800      2828      2829      2826
 -1       715   10    0    1
 -2      2509      2510      2524      2523      2802      2830      2831      2828
 -1       716   10    0    1
 -2      2510      2511      2525      2524      2804      2832      2833      2830
 -1       717   10    0    1
 -2      2511      2512      2526      2525      2806      2834      2835      2832
 -1       718   10    0    1
 -2      2512      2513      2527      2526      2808      2836      2837      2834
 -1       719   10    0    1
 -2      2513      2514      2528      2527      2810      2838      2839      2836
 -1       720   10    0    1
 -2      2514      2515      2529      2528      2812      2840      2841      2838
 -1       721   10    0    1
 -2      2515      2516      2530      2529      2814      2842      2843      2840
 -1       722   10    0    1
 -2      2516      2517      2531      2530      2816      2844      2845      2842
 -1       723   10    0    1
 -2      2517      2518      2532      2531      2818      2846      2847      2844
 -1       724   10    0    1
 -2      2518       115       114      2532      2819       129      2848      2846
 -1       725   10    0    1
 -2        85      2519      2533        84      2821      2849      2850        99
 -1       726   10    0    1
 -2      2519      2520      2534      2533      2823      2851      2852      2849
 -1       727   10    0    1
 -2      2520      2521      2535      2534      2825      2853      2854      2851
 -1       728   10    0    1
 -2      2521      2522      2536      2535      2827      2855      2856      2853
 -1       729   10    0    1
 -2      2522      2523      2537      2536      2829      2857      2858      2855
 -1       730   10    0    1
 -2      2523      2524      2538      2537      2831      2859      2860      2857
 -1       731   10    0    1
 -2      2524      2525      2539      2538      2833      2861      2862      2859
 -1       732   10    0    1
 -2      2525      2526      2540      2539      2835      2863      2864      2861
 -1       733   10    0    1
 -2      2526      2527      2541      2540      2837      2865      2866      2863
 -1       734   10    0    1
 -2      2527      2528      2542      2541      2839      2867      2868      2865
 -1       735   10    0    1
 -2      2528      2529      2543      2542      2841      2869      2870      2867
 -1       736   10    0    1
 -2      2529      2530      2544      2543      2843      2871      2872      2869
 -1       737   10    0    1
 -2      2530      2531      2545      2544      2845      2873      2874      2871
 -1       738   10    0    1
 -2      2531      2532      2546      2545      2847      2875      2876      2873
 -1       739   10    0    1
 -2      2532       114       113      2546      2848       128      2877      2875
 -1       740   10    0    1
 -2        84      2533      2547        83      2850      2878      2879        98
 -1       741   10    0    1
 -2      2533      2534      2548      2547      2852      2880      2881      2878
 -1       742   10    0    1
 -2      2534      2535      2549      2548      2854      2882      2883      2880
 -1       743   10    0    1
 -2      2535      2536      2550      2549      2856      2884      2885      2882
 -1       744   10    0    1
 -2      2536      2537      2551      2550      2858      2886      2887      2884
 -1       745   10    0    1
 -2      2537      2538      2552      2551      2860      2888      2889      2886
 -1       746   10    0    1
 -2      2538      2539      2553      2552      2862      2890      2891      2888
 -1       747   10    0    1
 -2      2539      2540      2554      2553      2864      2892      2893      2890
 -1       748   10    0    1
 -2      2540      2541      2555      2554      2866      2894      2895      2892
 -1       749   10    0    1
 -2      2541      2542      2556      2555      2868      2896      2897      2894
 -1       750   10    0    1
 -2      2542      2543      2557      2556      2870      2898      2899      2896
 -1       751   10    0    1
 -2      2543      2544      2558      2557      2872      2900      2901      2898
 -1       752   10    0    1
 -2      2544      2545      2559      2558      2874      2902      2903      2900
 -1       753   10    0    1
 -2      2545      2546      2560      2559      2876      2904      2905      2902
 -1       754   10    0    1
 -2      2546       113       112      2560      2877       127      2906      2904
 -1       755   10    0    1
 -2        83      2547      2561        82      2879      2907      2908        97
 -1       756   10    0    1
 -2      2547      2548      2562      2561      2881      2909      2910      2907
 -1       757   10    0    1
 -2      2548      2549      2563      2562      2883      2911      2912      2909
 -1       758   10    0    1
 -2      2549      2550      2564      2563      2885      2913      2914      2911
 -1       759   10    0    1
 -2      2550      2551      2565      2564      2887      2915      2916      2913
 -1       760   10    0    1
 -2      2551      2552      2566      2565      2889      2917      2918      2915
 -1       761   10    0    1
 -2      2552      2553      2567      2566      2891      2919      2920      2917
 -1       762   10    0    1
 -2      2553      2554      2568      2567      2893      2921      2922      2919
 -1       763   10    0    1
 -2      2554      2555      2569      2568      2895      2923      2924      2921
 -1       764   10    0    1
 -2      2555      2556      2570      2569      2897      2925      2926      2923
 -1       765   10    0    1
 -2      2556      2557      2571      2570      2899      2927      2928      2925
 -1       766   10    0    1
 -2      2557      2558      2572      2571      2901      2929      2930      2927
 -1       767   10    0    1
 -2      2558      2559      2573      2572      2903      2931      2932      2929
 -1       768   10    0    1
 -2      2559      2560      2574      2573      2905      2933      2934      2931
 -1       769   10    0    1
 -2      2560       112       111      2574      2906       126      2935      2933
 -1       770   10    0    1
 -2        82      2561      2575        81      2908      2936      2937        96
 -1       771   10    0    1
 -2      2561      2562      2576      2575      2910      2938      2939      2936
 -1       772   10    0    1
 -2      2562      2563      2577      2576      2912      2940      2941      2938
 -1       773   10    0    1
 -2      2563      2564      2578      2577      2914      2942      2943      2940
 -1       774   10    0    1
 -2      2564      2565      2579      2578      2916      2944      2945      2942
 -1       775   10    0    1
 -2      2565      2566      2580      2579      2918      2946      2947      2944
 -1       776   10    0    1
 -2      2566      2567      2581      2580      2920      2948      2949      2946
 -1       777   10    0    1
 -2      2567      2568      2582      2581      2922      2950      2951      2948
 -1       778   10    0    1
 -2      2568      2569      2583      2582      2924      2952      2953      2950
 -1       779   10    0    1
 -2      2569      2570      2584      2583      2926      2954      2955      2952
 -1       780   10    0    1
 -2      2570      2571      2585      2584      2928      2956      2957      2954
 -1       781   10    0    1
 -2      2571      2572      2586      2585      2930      2958      2959      2956
 -1       782   10    0    1
 -2      2572      2573      2587      2586      2932      2960      2961      2958
 -1       783   10    0    1
 -2      2573      2574      2588      2587      2934      2962      2963      2960
 -1       784   10    0    1
 -2      2574       111       110      2588      2935       125      2964      2962
 -1       785   10    0    1
 -2        81      2575      2589        80      2937      2965      2966        95
 -1       786   10    0    1
 -2      2575      2576      2590      2589      2939      2967      2968      2965
 -1       787   10    0    1
 -2      2576      2577      2591      2590      2941      2969      2970      2967
 -1       788   10    0    1
 -2      2577      2578      2592      2591      2943      2971      2972      2969
 -1       789   10    0    1
 -2      2578      2579      2593      2592      2945      2973      2974      2971
 -1       790   10    0    1
 -2      2579      2580      2594      2593      2947      2975      2976      2973
 -1       791   10    0    1
 -2      2580      2581      2595      2594      2949      2977      2978      2975
 -1       792   10    0    1
 -2      2581      2582      2596      2595      2951      2979      2980      2977
 -1       793   10    0    1
 -2      2582      2583      2597      2596      2953      2981      2982      2979
 -1       794   10    0    1
 -2      2583      2584      2598      2597      2955      2983      2984      2981
 -1       795   10    0    1
 -2      2584      2585      2599      2598      2957      2985      2986      2983
 -1       796   10    0    1
 -2      2585      2586      2600      2599      2959      2987      2988      2985
 -1       797   10    0    1
 -2      2586      2587      2601      2600      2961      2989      2990      2987
 -1       798   10    0    1
 -2      2587      2588      2602      2601      2963      2991      2992      2989
 -1       799   10    0    1
 -2      2588       110       109      2602      2964       124      2993      2991
 -1       800   10    0    1
 -2        80      2589      2603        79      2966      2994      2995        94
 -1       801   10    0    1
 -2      2589      2590      2604      2603      2968      2996      2997      2994
 -1       802   10    0    1
 -2      2590      2591      2605      2604      2970      2998      2999      2996
 -1       803   10    0    1
 -2      2591      2592      2606      2605      2972      3000      3001      2998
 -1       804   10    0    1
 -2      2592      2593      2607      2606      2974      3002      3003      3000
 -1       805   10    0    1
 -2      2593      2594      2608      2607      2976      3004      3005      3002
 -1       806   10    0    1
 -2      2594      2595      2609      2608      2978      3006      3007      3004
 -1       807   10    0    1
 -2      2595      2596      2610      2609      2980      3008      3009      3006
 -1       808   10    0    1
 -2      2596      2597      2611      2610      2982      3010      3011      3008
 -1       809   10    0    1
 -2      2597      2598      2612      2611      2984      3012      3013      3010
 -1       810   10    0    1
 -2      2598      2599      2613      2612      2986      3014      3015      3012
 -1       811   10    0    1
 -2      2599      2600      2614      2613      2988      3016      3017      3014
 -1       812   10    0    1
 -2      2600      2601      2615      2614      2990      3018      3019      3016
 -1       813   10    0    1
 -2      2601      2602      2616      2615      2992      3020      3021      3018
 -1       814   10    0    1
 -2      2602       109       108      2616      2993       123      3022      3020
 -1       815   10    0    1
 -2        79      2603       311         7      2995      3023       325        93
 -1       816   10    0    1
 -2      2603      2604       312       311      2997      3024       326      3023
 -1       817   10    0    1
 -2      2604      2605       313       312      2999      3025       327      3024
 -1       818   10    0    1
 -2      2605      2606       314       313      3001      3026       328      3025
 -1       819   10    0    1
 -2      2606      2607       315       314      3003      3027       329      3026
 -1       820   10    0    1
 -2      2607      2608       316       315      3005      3028       330      3027
 -1       821   10    0    1
 -2      2608      2609       317       316      3007      3029       331      3028
 -1       822   10    0    1
 -2      2609      2610       318       317      3009      3030       332      3029
 -1       823   10    0    1
 -2      2610      2611       319       318      3011      3031       333      3030
 -1       824   10    0    1
 -2      2611      2612       320       319      3013      3032       334      3031
 -1       825   10    0    1
 -2      2612      2613       321       320      3015      3033       335      3032
 -1       826   10    0    1
 -2      2613      2614       322       321      3017      3034       336      3033
 -1       827   10    0    1
 -2      2614      2615       323       322      3019      3035       337      3034
 -1       828   10    0    1
 -2      2615      2616       324       323      3021      3036       338      3035
 -1       829   10    0    1
 -2      2616       108         8       324      3022       122       339      3036
 -1       830   10    0    1
 -2         4       224      3037       121       238      3233      3234       136
 -1       831   10    0    1
 -2       224       225      3038      3037       239      3235      3236      3233
 -1       832   10    0    1
 -2       225       226      3039      3038       240      3237      3238      3235
 -1       833   10    0    1
 -2       226       227      3040      3039       241      3239      3240      3237
 -1       834   10    0    1
 -2       227       228      3041      3040       242      3241      3242      3239
 -1       835   10    0    1
 -2       228       229      3042      3041       243      3243      3244      3241
 -1       836   10    0    1
 -2       229       230      3043      3042       244      3245      3246      3243
 -1       837   10    0    1
 -2       230       231      3044      3043       245      3247      3248      3245
 -1       838   10    0    1
 -2       231       232      3045      3044       246      3249      3250      3247
 -1       839   10    0    1
 -2       232       233      3046      3045       247      3251      3252      3249
 -1       840   10    0    1
 -2       233       234      3047      3046       248      3253      3254      3251
 -1       841   10    0    1
 -2       234       235      3048      3047       249      3255      3256      3253
 -1       842   10    0    1
 -2       235       236      3049      3048       250      3257      3258      3255
 -1       843   10    0    1
 -2       236       237      3050      3049       251      3259      3260      3257
 -1       844   10    0    1
 -2       237         1        34      3050       252        49      3261      3259
 -1       845   10    0    1
 -2       121      3037      3051       120      3234      3262      3263       135
 -1       846   10    0    1
 -2      3037      3038      3052      3051      3236      3264      3265      3262
 -1       847   10    0    1
 -2      3038      3039      3053      3052      3238      3266      3267      3264
 -1       848   10    0    1
 -2      3039      3040      3054      3053      3240      3268      3269      3266
 -1       849   10    0    1
 -2      3040      3041      3055      3054      3242      3270      3271      3268
 -1       850   10    0    1
 -2      3041      3042      3056      3055      3244      3272      3273      3270
 -1       851   10    0    1
 -2      3042      3043      3057      3056      3246      3274      3275      3272
 -1       852   10    0    1
 -2      3043      3044      3058      3057      3248      3276      3277      3274
 -1       853   10    0    1
 -2      3044      3045      3059      3058      3250      3278      3279      3276
 -1       854   10    0    1
 -2      3045      3046      3060      3059      3252      3280      3281      3278
 -1       855   10    0    1
 -2      3046      3047      3061      3060      3254      3282      3283      3280
 -1       856   10    0    1
 -2      3047      3048      3062      3061      3256      3284      3285      3282
 -1       857   10    0    1
 -2      3048      3049      3063      3062      3258      3286      3287      3284
 -1       858   10    0    1
 -2      3049      3050      3064      3063      3260      3288      3289      3286
 -1       859   10    0    1
 -2      3050        34        33      3064      3261        48      3290      3288
 -1       860   10    0    1
 -2       120      3051      3065       119      3263      3291      3292       134
 -1       861   10    0    1
 -2      3051      3052      3066      3065      3265      3293      3294      3291
 -1       862   10    0    1
 -2      3052      3053      3067      3066      3267      3295      3296      3293
 -1       863   10    0    1
 -2      3053      3054      3068      3067      3269      3297      3298      3295
 -1       864   10    0    1
 -2      3054      3055      3069      3068      3271      3299      3300      3297
 -1       865   10    0    1
 -2      3055      3056      3070      3069      3273      3301      3302      3299
 -1       866   10    0    1
 -2      3056      3057      3071      3070      3275      3303      3304      3301
 -1       867   10    0    1
 -2      3057      3058      3072      3071      3277      3305      3306      3303
 -1       868   10    0    1
 -2      3058      3059      3073      3072      3279      3307      3308      3305
 -1       869   10    0    1
 -2      3059      3060      3074      3073      3281      3309      3310      3307
 -1       870   10    0    1
 -2      3060      3061      3075      3074      3283      3311      3312      3309
 -1       871   10    0    1
 -2      3061      3062      3076      3075      3285      3313      3314      3311
 -1       872   10    0    1
 -2      3062      3063      3077      3076      3287      3315      3316      3313
 -1       873   10    0    1
 -2      3063      3064      3078      3077      3289      3317      3318      3315
 -1       874   10    0    1
 -2      3064        33        32      3078      3290        47      3319      3317
 -1       875   10    0    1
 -2       119      3065      3079       118      3292      3320      3321       133
 -1       876   10    0    1
 -2      3065      3066      3080      3079      3294      3322      3323      3320
 -1       877   10    0    1
 -2      3066      3067      3081      3080      3296      3324      3325      3322
 -1       878   10    0    1
 -2      3067      3068      3082      3081      3298      3326      3327      3324
 -1       879   10    0    1
 -2      3068      3069      3083      3082      3300      3328      3329      3326
 -1       880   10    0    1
 -2      3069      3070      3084      3083      3302      3330      3331      3328
 -1       881   10    0    1
 -2      3070      3071      3085      3084      3304      3332      3333      3330
 -1       882   10    0    1
 -2      3071      3072      3086      3085      3306      3334      3335      3332
 -1       883   10    0    1
 -2      3072      3073      3087      3086      3308      3336      3337      3334
 -1       884   10    0    1
 -2      3073      3074      3088      3087      3310      3338      3339      3336
 -1       885   10    0    1
 -2      3074      3075      3089      3088      3312      3340      3341      3338
 -1       886   10    0    1
 -2      3075      3076      3090      3089      3314      3342      3343      3340
 -1       887   10    0    1
 -2      3076      3077      3091      3090      3316      3344      3345      3342
 -1       888   10    0    1
 -2      3077      3078      3092      3091      3318      3346      3347      3344
 -1       889   10    0    1
 -2      3078        32        31      3092      3319        46      3348      3346
 -1       890   10    0    1
 -2       118      3079      3093       117      3321      3349      3350       132
 -1       891   10    0    1
 -2      3079      3080      3094      3093      3323      3351      3352      3349
 -1       892   10    0    1
 -2      3080      3081      3095      3094      3325      3353      3354      3351
 -1       893   10    0    1
 -2      3081      3082      3096      3095      3327      3355      3356      3353
 -1       894   10    0    1
 -2      3082      3083      3097      3096      3329      3357      3358      3355
 -1       895   10    0    1
 -2      3083      3084      3098      3097      3331      3359      3360      3357
 -1       896   10    0    1
 -2      3084      3085      3099      3098      3333      3361      3362      3359
 -1       897   10    0    1
 -2      3085      3086      3100      3099      3335      3363      3364      3361
 -1       898   10    0    1
 -2      3086      3087      3101      3100      3337      3365      3366      3363
 -1       899   10    0    1
 -2      3087      3088      3102      3101      3339      3367      3368      3365
 -1       900   10    0    1
 -2      3088      3089      3103      3102      3341      3369      3370      3367
 -1       901   10    0    1
 -2      3089      3090      3104      3103      3343      3371      3372      3369
 -1       902   10    0    1
 -2      3090      3091      3105      3104      3345      3373      3374      3371
 -1       903   10    0    1
 -2      3091      3092      3106      3105      3347      3375      3376      3373
 -1       904   10    0    1
 -2      3092        31        30      3106      3348        45      3377      3375
 -1       905   10    0    1
 -2       117      3093      3107       116      3350      3378      3379       131
 -1       906   10    0    1
 -2      3093      3094      3108      3107      3352      3380      3381      3378
 -1       907   10    0    1
 -2      3094      3095      3109      3108      3354      3382      3383      3380
 -1       908   10    0    1
 -2      3095      3096      3110      3109      3356      3384      3385      3382
 -1       909   10    0    1
 -2      3096      3097      3111      3110      3358      3386      3387      3384
 -1       910   10    0    1
 -2      3097      3098      3112      3111      3360      3388      3389      3386
 -1       911   10    0    1
 -2      3098      3099      3113      3112      3362      3390      3391      3388
 -1       912   10    0    1
 -2      3099      3100      3114      3113      3364      3392      3393      3390
 -1       913   10    0    1
 -2      3100      3101      3115      3114      3366      3394      3395      3392
 -1       914   10    0    1
 -2      3101      3102      3116      3115      3368      3396      3397      3394
 -1       915   10    0    1
 -2      3102      3103      3117      3116      3370      3398      3399      3396
 -1       916   10    0    1
 -2      3103      3104      3118      3117      3372      3400      3401      3398
 -1       917   10    0    1
 -2      3104      3105      3119      3118      3374      3402      3403      3400
 -1       918   10    0    1
 -2      3105      3106      3120      3119      3376      3404      3405      3402
 -1       919   10    0    1
 -2      3106        30        29      3120      3377        44      3406      3404
 -1       920   10    0    1
 -2       116      3107      3121       115      3379      3407      3408       130
 -1       921   10    0    1
 -2      3107      3108      3122      3121      3381      3409      3410      3407
 -1       922   10    0    1
 -2      3108      3109      3123      3122      3383      3411      3412      3409
 -1       923   10    0    1
 -2      3109      3110      3124      3123      3385      3413      3414      3411
 -1       924   10    0    1
 -2      3110      3111      3125      3124      3387      3415      3416      3413
 -1       925   10    0    1
 -2      3111      3112      3126      3125      3389      3417      3418      3415
 -1       926   10    0    1
 -2      3112      3113      3127      3126      3391      3419      3420      3417
 -1       927   10    0    1
 -2      3113      3114      3128      3127      3393      3421      3422      3419
 -1       928   10    0    1
 -2      3114      3115      3129      3128      3395      3423      3424      3421
 -1       929   10    0    1
 -2      3115      3116      3130      3129      3397      3425      3426      3423
 -1       930   10    0    1
 -2      3116      3117      3131      3130      3399      3427      3428      3425
 -1       931   10    0    1
 -2      3117      3118      3132      3131      3401      3429      3430      3427
 -1       932   10    0    1
 -2      3118      3119      3133      3132      3403      3431      3432      3429
 -1       933   10    0    1
 -2      3119      3120      3134      3133      3405      3433      3434      3431
 -1       934   10    0    1
 -2      3120        29        28      3134      3406        43      3435      3433
 -1       935   10    0    1
 -2       115      3121      3135       114      3408      3436      3437       129
 -1       936   10    0    1
 -2      3121      3122      3136      3135      3410      3438      3439      3436
 -1       937   10    0    1
 -2      3122      3123      3137      3136      3412      3440      3441      3438
 -1       938   10    0    1
 -2      3123      3124      3138      3137      3414      3442      3443      3440
 -1       939   10    0    1
 -2      3124      3125      3139      3138      3416      3444      3445      3442
 -1       940   10    0    1
 -2      3125      3126      3140      3139      3418      3446      3447      3444
 -1       941   10    0    1
 -2      3126      3127      3141      3140      3420      3448      3449      3446
 -1       942   10    0    1
 -2      3127      3128      3142      3141      3422      3450      3451      3448
 -1       943   10    0    1
 -2      3128      3129      3143      3142      3424      3452      3453      3450
 -1       944   10    0    1
 -2      3129      3130      3144      3143      3426      3454      3455      3452
 -1       945   10    0    1
 -2      3130      3131      3145      3144      3428      3456      3457      3454
 -1       946   10    0    1
 -2      3131      3132      3146      3145      3430      3458      3459      3456
 -1       947   10    0    1
 -2      3132      3133      3147      3146      3432      3460      3461      3458
 -1       948   10    0    1
 -2      3133      3134      3148      3147      3434      3462      3463      3460
 -1       949   10    0    1
 -2      3134        28        27      3148      3435        42      3464      3462
 -1       950   10    0    1
 -2       114      3135      3149       113      3437      3465      3466       128
 -1       951   10    0    1
 -2      3135      3136      3150      3149      3439      3467      3468      3465
 -1       952   10    0    1
 -2      3136      3137      3151      3150      3441      3469      3470      3467
 -1       953   10    0    1
 -2      3137      3138      3152      3151      3443      3471      3472      3469
 -1       954   10    0    1
 -2      3138      3139      3153      3152      3445      3473      3474      3471
 -1       955   10    0    1
 -2      3139      3140      3154      3153      3447      3475      3476      3473
 -1       956   10    0    1
 -2      3140      3141      3155      3154      3449      3477      3478      3475
 -1       957   10    0    1
 -2      3141      3142      3156      3155      3451      3479      3480      3477
 -1       958   10    0    1
 -2      3142      3143      3157      3156      3453      3481      3482      3479
 -1       959   10    0    1
 -2      3143      3144      3158      3157      3455      3483      3484      3481
 -1       960   10    0    1
 -2      3144      3145      3159      3158      3457      3485      3486      3483
 -1       961   10    0    1
 -2      3145      3146      3160      3159      3459      3487      3488      3485
 -1       962   10    0    1
 -2      3146      3147      3161      3160      3461      3489      3490      3487
 -1       963   10    0    1
 -2      3147      3148      3162      3161      3463      3491      3492      3489
 -1       964   10    0    1
 -2      3148        27        26      3162      3464        41      3493      3491
 -1       965   10    0    1
 -2       113      3149      3163       112      3466      3494      3495       127
 -1       966   10    0    1
 -2      3149      3150      3164      3163      3468      3496      3497      3494
 -1       967   10    0    1
 -2      3150      3151      3165      3164      3470      3498      3499      3496
 -1       968   10    0    1
 -2      3151      3152      3166      3165      3472      3500      3501      3498
 -1       969   10    0    1
 -2      3152      3153      3167      3166      3474      3502      3503      3500
 -1       970   10    0    1
 -2      3153      3154      3168      3167      3476      3504      3505      3502
 -1       971   10    0    1
 -2      3154      3155      3169      3168      3478      3506      3507      3504
 -1       972   10    0    1
 -2      3155      3156      3170      3169      3480      3508      3509      3506
 -1       973   10    0    1
 -2      3156      3157      3171      3170      3482      3510      3511      3508
 -1       974   10    0    1
 -2      3157      3158      3172      3171      3484      3512      3513      3510
 -1       975   10    0    1
 -2      3158      3159      3173      3172      3486      3514      3515      3512
 -1       976   10    0    1
 -2      3159      3160      3174      3173      3488      3516      3517      3514
 -1       977   10    0    1
 -2      3160      3161      3175      3174      3490      3518      3519      3516
 -1       978   10    0    1
 -2      3161      3162      3176      3175      3492      3520      3521      3518
 -1       979   10    0    1
 -2      3162        26        25      3176      3493        40      3522      3520
 -1       980   10    0    1
 -2       112      3163      3177       111      3495      3523      3524       126
 -1       981   10    0    1
 -2      3163      3164      3178      3177      3497      3525      3526      3523
 -1       982   10    0    1
 -2      3164      3165      3179      3178      3499      3527      3528      3525
 -1       983   10    0    1
 -2      3165      3166      3180      3179      3501      3529      3530      3527
 -1       984   10    0    1
 -2      3166      3167      3181      3180      3503      3531      3532      3529
 -1       985   10    0    1
 -2      3167      3168      3182      3181      3505      3533      3534      3531
 -1       986   10    0    1
 -2      3168      3169      3183      3182      3507      3535      3536      3533
 -1       987   10    0    1
 -2      3169      3170      3184      3183      3509      3537      3538      3535
 -1       988   10    0    1
 -2      3170      3171      3185      3184      3511      3539      3540      3537
 -1       989   10    0    1
 -2      3171      3172      3186      3185      3513      3541      3542      3539
 -1       990   10    0    1
 -2      3172      3173      3187      3186      3515      3543      3544      3541
 -1       991   10    0    1
 -2      3173      3174      3188      3187      3517      3545      3546      3543
 -1       992   10    0    1
 -2      3174      3175      3189      3188      3519      3547      3548      3545
 -1       993   10    0    1
 -2      3175      3176      3190      3189      3521      3549      3550      3547
 -1       994   10    0    1
 -2      3176        25        24      3190      3522        39      3551      3549
 -1       995   10    0    1
 -2       111      3177      3191       110      3524      3552      3553       125
 -1       996   10    0    1
 -2      3177      3178      3192      3191      3526      3554      3555      3552
 -1       997   10    0    1
 -2      3178      3179      3193      3192      3528      3556      3557      3554
 -1       998   10    0    1
 -2      3179      3180      3194      3193      3530      3558      3559      3556
 -1       999   10    0    1
 -2      3180      3181      3195      3194      3532      3560      3561      3558
 -1      1000   10    0    1
 -2      3181      3182      3196      3195      3534      3562      3563      3560
 -1      1001   10    0    1
 -2      3182      3183      3197      3196      3536      3564      3565      3562
 -1      1002   10    0    1
 -2      3183      3184      3198      3197      3538      3566      3567      3564
 -1      1003   10    0    1
 -2      3184      3185      3199      3198      3540      3568      3569      3566
 -1      1004   10    0    1
 -2      3185      3186      3200      3199      3542      3570      3571      3568
 -1      1005   10    0    1
 -2      3186      3187      3201      3200      3544      3572      3573      3570
 -1      1006   10    0    1
 -2      3187      3188      3202      3201      3546      3574      3575      3572
 -1      1007   10    0    1
 -2      3188      3189      3203      3202      3548      3576      3577      3574
 -1      1008   10    0    1
 -2      3189      3190      3204      3203      3550      3578      3579      3576
 -1      1009   10    0    1
 -2      3190        24        23      3204      3551        38      3580      3578
 -1      1010   10    0    1
 -2       110      3191      3205       109      3553      3581      3582       124
 -1      1011   10    0    1
 -2      3191      3192      3206      3205      3555      3583      3584      3581
 -1      1012   10    0    1
 -2      3192      3193      3207      3206      3557      3585      3586      3583
 -1      1013   10    0    1
 -2      3193      3194      3208      3207      3559      3587      3588      3585
 -1      1014   10    0    1
 -2      3194      3195      3209      3208      3561      3589      3590      3587
 -1      1015   10    0    1
 -2      3195      3196      3210      3209      3563      3591      3592      3589
 -1      1016   10    0    1
 -2      3196      3197      3211      3210      3565      3593      3594      3591
 -1      1017   10    0    1
 -2      3197      3198      3212      3211      3567      3595      3596      3593
 -1      1018   10    0    1
 -2      3198      3199      3213      3212      3569      3597      3598      3595
 -1      1019   10    0    1
 -2      3199      3200      3214      3213      3571      3599      3600      3597
 -1      1020   10    0    1
 -2      3200      3201      3215      3214      3573      3601      3602      3599
 -1      1021   10    0    1
 -2      3201      3202      3216      3215      3575      3603      3604      3601
 -1      1022   10    0    1
 -2      3202      3203      3217      3216      3577      3605      3606      3603
 -1      1023   10    0    1
 -2      3203      3204      3218      3217      3579      3607      3608      3605
 -1      1024   10    0    1
 -2      3204        23        22      3218      3580        37      3609      3607
 -1      1025   10    0    1
 -2       109      3205      3219       108      3582      3610      3611       123
 -1      1026   10    0    1
 -2      3205      3206      3220      3219      3584      3612      3613      3610
 -1      1027   10    0    1
 -2      3206      3207      3221      3220      3586      3614      3615      3612
 -1      1028   10    0    1
 -2      3207      3208      3222      3221      3588      3616      3617      3614
 -1      1029   10    0    1
 -2      3208      3209      3223      3222      3590      3618      3619      3616
 -1      1030   10    0    1
 -2      3209      3210      3224      3223      3592      3620      3621      3618
 -1      1031   10    0    1
 -2      3210      3211      3225      3224      3594      3622      3623      3620
 -1      1032   10    0    1
 -2      3211      3212      3226      3225      3596      3624      3625      3622
 -1      1033   10    0    1
 -2      3212      3213      3227      3226      3598      3626      3627      3624
 -1      1034   10    0    1
 -2      3213      3214      3228      3227      3600      3628      3629      3626
 -1      1035   10    0    1
 -2      3214      3215      3229      3228      3602      3630      3631      3628
 -1      1036   10    0    1
 -2      3215      3216      3230      3229      3604      3632      3633      3630
 -1      1037   10    0    1
 -2      3216      3217      3231      3230      3606      3634      3635      3632
 -1      1038   10    0    1
 -2      3217      3218      3232      3231      3608      3636      3637      3634
 -1      1039   10    0    1
 -2      3218        22        21      3232      3609        36      3638      3636
 -1      1040   10    0    1
 -2       108      3219       340         8      3611      3639       354       122
 -1      1041   10    0    1
 -2      3219      3220       341       340      3613      3640       355      3639
 -1      1042   10    0    1
 -2      3220      3221       342       341      3615      3641       356      3640
 -1      1043   10    0    1
 -2      3221      3222       343       342      3617      3642       357      3641
 -1      1044   10    0    1
 -2      3222      3223       344       343      3619      3643       358      3642
 -1      1045   10    0    1
 -2      3223      3224       345       344      3621      3644       359      3643
 -1      1046   10    0    1
 -2      3224      3225       346       345      3623      3645       360      3644
 -1      1047   10    0    1
 -2      3225      3226       347       346      3625      3646       361      3645
 -1      1048   10    0    1
 -2      3226      3227       348       347      3627      3647       362      3646
 -1      1049   10    0    1
 -2      3227      3228       349       348      3629      3648       363      3647
 -1      1050   10    0    1
 -2      3228      3229       350       349      3631      3649       364      3648
 -1      1051   10    0    1
 -2      3229      3230       351       350      3633      3650       365      3649
 -1      1052   10    0    1
 -2      3230      3231       352       351      3635      3651       366      3650
 -1      1053   10    0    1
 -2      3231      3232       353       352      3637      3652       367      3651
 -1      1054   10    0    1
 -2      3232        21         5       353      3638        35       368      3652
 -1      1055   10    0    1
 -2         9       820      3653       369       836      4073      4074       397
 -1      1056   10    0    1
 -2       820       819      3654      3653       835      4075      4076      4073
 -1      1057   10    0    1
 -2       819       818      3655      3654       834      4077      4078      4075
 -1      1058   10    0    1
 -2       818       817      3656      3655       833      4079      4080      4077
 -1      1059   10    0    1
 -2       817       816      3657      3656       832      4081      4082      4079
 -1      1060   10    0    1
 -2       816       815      3658      3657       831      4083      4084      4081
 -1      1061   10    0    1
 -2       815       814      3659      3658       830      4085      4086      4083
 -1      1062   10    0    1
 -2       814       813      3660      3659       829      4087      4088      4085
 -1      1063   10    0    1
 -2       813       812      3661      3660       828      4089      4090      4087
 -1      1064   10    0    1
 -2       812       811      3662      3661       827      4091      4092      4089
 -1      1065   10    0    1
 -2       811       810      3663      3662       826      4093      4094      4091
 -1      1066   10    0    1
 -2       810       809      3664      3663       825      4095      4096      4093
 -1      1067   10    0    1
 -2       809       808      3665      3664       824      4097      4098      4095
 -1      1068   10    0    1
 -2       808       807      3666      3665       823      4099      4100      4097
 -1      1069   10    0    1
 -2       807       806      3667      3666       822      4101      4102      4099
 -1      1070   10    0    1
 -2       806        20      1159      3667       821      1188      4103      4101
 -1      1071   10    0    1
 -2       369      3653      3668       370      4074      4104      4105       398
 -1      1072   10    0    1
 -2      3653      3654      3669      3668      4076      4106      4107      4104
 -1      1073   10    0    1
 -2      3654      3655      3670      3669      4078      4108      4109      4106
 -1      1074   10    0    1
 -2      3655      3656      3671      3670      4080      4110      4111      4108
 -1      1075   10    0    1
 -2      3656      3657      3672      3671      4082      4112      4113      4110
 -1      1076   10    0    1
 -2      3657      3658      3673      3672      4084      4114      4115      4112
 -1      1077   10    0    1
 -2      3658      3659      3674      3673      4086      4116      4117      4114
 -1      1078   10    0    1
 -2      3659      3660      3675      3674      4088      4118      4119      4116
 -1      1079   10    0    1
 -2      3660      3661      3676      3675      4090      4120      4121      4118
 -1      1080   10    0    1
 -2      3661      3662      3677      3676      4092      4122      4123      4120
 -1      1081   10    0    1
 -2      3662      3663      3678      3677      4094      4124      4125      4122
 -1      1082   10    0    1
 -2      3663      3664      3679      3678      4096      4126      4127      4124
 -1      1083   10    0    1
 -2      3664      3665      3680      3679      4098      4128      4129      4126
 -1      1084   10    0    1
 -2      3665      3666      3681      3680      4100      4130      4131      4128
 -1      1085   10    0    1
 -2      3666      3667      3682      3681      4102      4132      4133      4130
 -1      1086   10    0    1
 -2      3667      1159      1158      3682      4103      1187      4134      4132
 -1      1087   10    0    1
 -2       370      3668      3683       371      4105      4135      4136       399
 -1      1088   10    0    1
 -2      3668      3669      3684      3683      4107      4137      4138      4135
 -1      1089   10    0    1
 -2      3669      3670      3685      3684      4109      4139      4140      4137
 -1      1090   10    0    1
 -2      3670      3671      3686      3685      4111      4141      4142      4139
 -1      1091   10    0    1
 -2      3671      3672      3687      3686      4113      4143      4144      4141
 -1      1092   10    0    1
 -2      3672      3673      3688      3687      4115      4145      4146      4143
 -1      1093   10    0    1
 -2      3673      3674      3689      3688      4117      4147      4148      4145
 -1      1094   10    0    1
 -2      3674      3675      3690      3689      4119      4149      4150      4147
 -1      1095   10    0    1
 -2      3675      3676      3691      3690      4121      4151      4152      4149
 -1      1096   10    0    1
 -2      3676      3677      3692      3691      4123      4153      4154      4151
 -1      1097   10    0    1
 -2      3677      3678      3693      3692      4125      4155      4156      4153
 -1      1098   10    0    1
 -2      3678      3679      3694      3693      4127      4157      4158      4155
 -1      1099   10    0    1
 -2      3679      3680      3695      3694      4129      4159      4160      4157
 -1      1100   10    0    1
 -2      3680      3681      3696      3695      4131      4161      4162      4159
 -1      1101   10    0    1
 -2      3681      3682      3697      3696      4133      4163      4164      4161
 -1      1102   10    0    1
 -2      3682      1158      1157      3697      4134      1186      4165      4163
 -1      1103   10    0    1
 -2       371      3683      3698       372      4136      4166      4167       400
 -1      1104   10    0    1
 -2      3683      3684      3699      3698      4138      4168      4169      4166
 -1      1105   10    0    1
 -2      3684      3685      3700      3699      4140      4170      4171      4168
 -1      1106   10    0    1
 -2      3685      3686      3701      3700      4142      4172      4173      4170
 -1      1107   10    0    1
 -2      3686      3687      3702      3701      4144      4174      4175      4172
 -1      1108   10    0    1
 -2      3687      3688      3703      3702      4146      4176      4177      4174
 -1      1109   10    0    1
 -2      3688      3689      3704      3703      4148      4178      4179      4176
 -1      1110   10    0    1
 -2      3689      3690      3705      3704      4150      4180      4181      4178
 -1      1111   10    0    1
 -2      3690      3691      3706      3705      4152      4182      4183      4180
 -1      1112   10    0    1
 -2      3691      3692      3707      3706      4154      4184      4185      4182
 -1      1113   10    0    1
 -2      3692      3693      3708      3707      4156      4186      4187      4184
 -1      1114   10    0    1
 -2      3693      3694      3709      3708      4158      4188      4189      4186
 -1      1115   10    0    1
 -2      3694      3695      3710      3709      4160      4190      4191      4188
 -1      1116   10    0    1
 -2      3695      3696      3711      3710      4162      4192      4193      4190
 -1      1117   10    0    1
 -2      3696      3697      3712      3711      4164      4194      4195      4192
 -1      1118   10    0    1
 -2      3697      1157      1156      3712      4165      1185      4196      4194
 -1      1119   10    0    1
 -2       372      3698      3713       373      4167      4197      4198       401
 -1      1120   10    0    1
 -2      3698      3699      3714      3713      4169      4199      4200      4197
 -1      1121   10    0    1
 -2      3699      3700      3715      3714      4171      4201      4202      4199
 -1      1122   10    0    1
 -2      3700      3701      3716      3715      4173      4203      4204      4201
 -1      1123   10    0    1
 -2      3701      3702      3717      3716      4175      4205      4206      4203
 -1      1124   10    0    1
 -2      3702      3703      3718      3717      4177      4207      4208      4205
 -1      1125   10    0    1
 -2      3703      3704      3719      3718      4179      4209      4210      4207
 -1      1126   10    0    1
 -2      3704      3705      3720      3719      4181      4211      4212      4209
 -1      1127   10    0    1
 -2      3705      3706      3721      3720      4183      4213      4214      4211
 -1      1128   10    0    1
 -2      3706      3707      3722      3721      4185      4215      4216      4213
 -1      1129   10    0    1
 -2      3707      3708      3723      3722      4187      4217      4218      4215
 -1      1130   10    0    1
 -2      3708      3709      3724      3723      4189      4219      4220      4217
 -1      1131   10    0    1
 -2      3709      3710      3725      3724      4191      4221      4222      4219
 -1      1132   10    0    1
 -2      3710      3711      3726      3725      4193      4223      4224      4221
 -1      1133   10    0    1
 -2      3711      3712      3727      3726      4195      4225      4226      4223
 -1      1134   10    0    1
 -2      3712      1156      1155      3727      4196      1184      4227      4225
 -1      1135   10    0    1
 -2       373      3713      3728       374      4198      4228      4229       402
 -1      1136   10    0    1
 -2      3713      3714      3729      3728      4200      4230      4231      4228
 -1      1137   10    0    1
 -2      3714      3715      3730      3729      4202      4232      4233      4230
 -1      1138   10    0    1
 -2      3715      3716      3731      3730      4204      4234      4235      4232
 -1      1139   10    0    1
 -2      3716      3717      3732      3731      4206      4236      4237      4234
 -1      1140   10    0    1
 -2      3717      3718      3733      3732      4208      4238      4239      4236
 -1      1141   10    0    1
 -2      3718      3719      3734      3733      4210      4240      4241      4238
 -1      1142   10    0    1
 -2      3719      3720      3735      3734      4212      4242      4243      4240
 -1      1143   10    0    1
 -2      3720      3721      3736      3735      4214      4244      4245      4242
 -1      1144   10    0    1
 -2      3721      3722      3737      3736      4216      4246      4247      4244
 -1      1145   10    0    1
 -2      3722      3723      3738      3737      4218      4248      4249      4246
 -1      1146   10    0    1
 -2      3723      3724      3739      3738      4220      4250      4251      4248
 -1      1147   10    0    1
 -2      3724      3725      3740      3739      4222      4252      4253      4250
 -1      1148   10    0    1
 -2      3725      3726      3741      3740      4224      4254      4255      4252
 -1      1149   10    0    1
 -2      3726      3727      3742      3741      4226      4256      4257      4254
 -1      1150   10    0    1
 -2      3727      1155      1154      3742      4227      1183      4258      4256
 -1      1151   10    0    1
 -2       374      3728      3743       375      4229      4259      4260       403
 -1      1152   10    0    1
 -2      3728      3729      3744      3743      4231      4261      4262      4259
 -1      1153   10    0    1
 -2      3729      3730      3745      3744      4233      4263      4264      4261
 -1      1154   10    0    1
 -2      3730      3731      3746      3745      4235      4265      4266      4263
 -1      1155   10    0    1
 -2      3731      3732      3747      3746      4237      4267      4268      4265
 -1      1156   10    0    1
 -2      3732      3733      3748      3747      4239      4269      4270      4267
 -1      1157   10    0    1
 -2      3733      3734      3749      3748      4241      4271      4272      4269
 -1      1158   10    0    1
 -2      3734      3735      3750      3749      4243      4273      4274      4271
 -1      1159   10    0    1
 -2      3735      3736      3751      3750      4245      4275      4276      4273
 -1      1160   10    0    1
 -2      3736      3737      3752      3751      4247      4277      4278      4275
 -1      1161   10    0    1
 -2      3737      3738      3753      3752      4249      4279      4280      4277
 -1      1162   10    0    1
 -2      3738      3739      3754      3753      4251      4281      4282      4279
 -1      1163   10    0    1
 -2      3739      3740      3755      3754      4253      4283      4284      4281
 -1      1164   10    0    1
 -2      3740      3741      3756      3755      4255      4285      4286      4283
 -1      1165   10    0    1
 -2      3741      3742      3757      3756      4257      4287      4288      4285
 -1      1166   10    0    1
 -2      3742      1154      1153      3757      4258      1182      4289      4287
 -1      1167   10    0    1
 -2       375      3743      3758       376      4260      4290      4291       404
 -1      1168   10    0    1
 -2      3743      3744      3759      3758      4262      4292      4293      4290
 -1      1169   10    0    1
 -2      3744      3745      3760      3759      4264      4294      4295      4292
 -1      1170   10    0    1
 -2      3745      3746      3761      3760      4266      4296      4297      4294
 -1      1171   10    0    1
 -2      3746      3747      3762      3761      4268      4298      4299      4296
 -1      1172   10    0    1
 -2      3747      3748      3763      3762      4270      4300      4301      4298
 -1      1173   10    0    1
 -2      3748      3749      3764      3763      4272      4302      4303      4300
 -1      1174   10    0    1
 -2      3749      3750      3765      3764      4274      4304      4305      4302
 -1      1175   10    0    1
 -2      3750      3751      3766      3765      4276      4306      4307      4304
 -1      1176   10    0    1
 -2      3751      3752      3767      3766      4278      4308      4309      4306
 -1      1177   10    0    1
 -2      3752      3753      3768      3767      4280      4310      4311      4308
 -1      1178   10    0    1
 -2      3753      3754      3769      3768      4282      4312      4313      4310
 -1      1179   10    0    1
 -2      3754      3755      3770      3769      4284      4314      4315      4312
 -1      1180   10    0    1
 -2      3755      3756      3771      3770      4286      4316      4317      4314
 -1      1181   10    0    1
 -2      3756      3757      3772      3771      4288      4318      4319      4316
 -1      1182   10    0    1
 -2      3757      1153      1152      3772      4289      1181      4320      4318
 -1      1183   10    0    1
 -2       376      3758      3773       377      4291      4321      4322       405
 -1      1184   10    0    1
 -2      3758      3759      3774      3773      4293      4323      4324      4321
 -1      1185   10    0    1
 -2      3759      3760      3775      3774      4295      4325      4326      4323
 -1      1186   10    0    1
 -2      3760      3761      3776      3775      4297      4327      4328      4325
 -1      1187   10    0    1
 -2      3761      3762      3777      3776      4299      4329      4330      4327
 -1      1188   10    0    1
 -2      3762      3763      3778      3777      4301      4331      4332      4329
 -1      1189   10    0    1
 -2      3763      3764      3779      3778      4303      4333      4334      4331
 -1      1190   10    0    1
 -2      3764      3765      3780      3779      4305      4335      4336      4333
 -1      1191   10    0    1
 -2      3765      3766      3781      3780      4307      4337      4338      4335
 -1      1192   10    0    1
 -2      3766      3767      3782      3781      4309      4339      4340      4337
 -1      1193   10    0    1
 -2      3767      3768      3783      3782      4311      4341      4342      4339
 -1      1194   10    0    1
 -2      3768      3769      3784      3783      4313      4343      4344      4341
 -1      1195   10    0    1
 -2      3769      3770      3785      3784      4315      4345      4346      4343
 -1      1196   10    0    1
 -2      3770      3771      3786      3785      4317      4347      4348      4345
 -1      1197   10    0    1
 -2      3771      3772      3787      3786      4319      4349      4350      4347
 -1      1198   10    0    1
 -2      3772      1152      1151      3787      4320      1180      4351      4349
 -1      1199   10    0    1
 -2       377      3773      3788       378      4322      4352      4353       406
 -1      1200   10    0    1
 -2      3773      3774      3789      3788      4324      4354      4355      4352
 -1      1201   10    0    1
 -2      3774      3775      3790      3789      4326      4356      4357      4354
 -1      1202   10    0    1
 -2      3775      3776      3791      3790      4328      4358      4359      4356
 -1      1203   10    0    1
 -2      3776      3777      3792      3791      4330      4360      4361      4358
 -1      1204   10    0    1
 -2      3777      3778      3793      3792      4332      4362      4363      4360
 -1      1205   10    0    1
 -2      3778      3779      3794      3793      4334      4364      4365      4362
 -1      1206   10    0    1
 -2      3779      3780      3795      3794      4336      4366      4367      4364
 -1      1207   10    0    1
 -2      3780      3781      3796      3795      4338      4368      4369      4366
 -1      1208   10    0    1
 -2      3781      3782      3797      3796      4340      4370      4371      4368
 -1      1209   10    0    1
 -2      3782      3783      3798      3797      4342      4372      4373      4370
 -1      1210   10    0    1
 -2      3783      3784      3799      3798      4344      4374      4375      4372
 -1      1211   10    0    1
 -2      3784      3785      3800      3799      4346      4376      4377      4374
 -1      1212   10    0    1
 -2      3785      3786      3801      3800      4348      4378      4379      4376
 -1      1213   10    0    1
 -2      3786      3787      3802      3801      4350      4380      4381      4378
 -1      1214   10    0    1
 -2      3787      1151      1150      3802      4351      1179      4382      4380
 -1      1215   10    0    1
 -2       378      3788      3803       379      4353      4383      4384       407
 -1      1216   10    0    1
 -2      3788      3789      3804      3803      4355      4385      4386      4383
 -1      1217   10    0    1
 -2      3789      3790      3805      3804      4357      4387      4388      4385
 -1      1218   10    0    1
 -2      3790      3791      3806      3805      4359      4389      4390      4387
 -1      1219   10    0    1
 -2      3791      3792      3807      3806      4361      4391      4392      4389
 -1      1220   10    0    1
 -2      3792      3793      3808      3807      4363      4393      4394      4391
 -1      1221   10    0    1
 -2      3793      3794      3809      3808      4365      4395      4396      4393
 -1      1222   10    0    1
 -2      3794      3795      3810      3809      4367      4397      4398      4395
 -1      1223   10    0    1
 -2      3795      3796      3811      3810      4369      4399      4400      4397
 -1      1224   10    0    1
 -2      3796      3797      3812      3811      4371      4401      4402      4399
 -1      1225   10    0    1
 -2      3797      3798      3813      3812      4373      4403      4404      4401
 -1      1226   10    0    1
 -2      3798      3799      3814      3813      4375      4405      4406      4403
 -1      1227   10    0    1
 -2      3799      3800      3815      3814      4377      4407      4408      4405
 -1      1228   10    0    1
 -2      3800      3801      3816      3815      4379      4409      4410      4407
 -1      1229   10    0    1
 -2      3801      3802      3817      3816      4381      4411      4412      4409
 -1      1230   10    0    1
 -2      3802      1150      1149      3817      4382      1178      4413      4411
 -1      1231   10    0    1
 -2       379      3803      3818       380      4384      4414      4415       408
 -1      1232   10    0    1
 -2      3803      3804      3819      3818      4386      4416      4417      4414
 -1      1233   10    0    1
 -2      3804      3805      3820      3819      4388      4418      4419      4416
 -1      1234   10    0    1
 -2      3805      3806      3821      3820      4390      4420      4421      4418
 -1      1235   10    0    1
 -2      3806      3807      3822      3821      4392      4422      4423      4420
 -1      1236   10    0    1
 -2      3807      3808      3823      3822      4394      4424      4425      4422
 -1      1237   10    0    1
 -2      3808      3809      3824      3823      4396      4426      4427      4424
 -1      1238   10    0    1
 -2      3809      3810      3825      3824      4398      4428      4429      4426
 -1      1239   10    0    1
 -2      3810      3811      3826      3825      4400      4430      4431      4428
 -1      1240   10    0    1
 -2      3811      3812      3827      3826      4402      4432      4433      4430
 -1      1241   10    0    1
 -2      3812      3813      3828      3827      4404      4434      4435      4432
 -1      1242   10    0    1
 -2      3813      3814      3829      3828      4406      4436      4437      4434
 -1      1243   10    0    1
 -2      3814      3815      3830      3829      4408      4438      4439      4436
 -1      1244   10    0    1
 -2      3815      3816      3831      3830      4410      4440      4441      4438
 -1      1245   10    0    1
 -2      3816      3817      3832      3831      4412      4442      4443      4440
 -1      1246   10    0    1
 -2      3817      1149      1148      3832      4413      1177      4444      4442
 -1      1247   10    0    1
 -2       380      3818      3833       381      4415      4445      4446       409
 -1      1248   10    0    1
 -2      3818      3819      3834      3833      4417      4447      4448      4445
 -1      1249   10    0    1
 -2      3819      3820      3835      3834      4419      4449      4450      4447
 -1      1250   10    0    1
 -2      3820      3821      3836      3835      4421      4451      4452      4449
 -1      1251   10    0    1
 -2      3821      3822      3837      3836      4423      4453      4454      4451
 -1      1252   10    0    1
 -2      3822      3823      3838      3837      4425      4455      4456      4453
 -1      1253   10    0    1
 -2      3823      3824      3839      3838      4427      4457      4458      4455
 -1      1254   10    0    1
 -2      3824      3825      3840      3839      4429      4459      4460      4457
 -1      1255   10    0    1
 -2      3825      3826      3841      3840      4431      4461      4462      4459
 -1      1256   10    0    1
 -2      3826      3827      3842      3841      4433      4463      4464      4461
 -1      1257   10    0    1
 -2      3827      3828      3843      3842      4435      4465      4466      4463
 -1      1258   10    0    1
 -2      3828      3829      3844      3843      4437      4467      4468      4465
 -1      1259   10    0    1
 -2      3829      3830      3845      3844      4439      4469      4470      4467
 -1      1260   10    0    1
 -2      3830      3831      3846      3845      4441      4471      4472      4469
 -1      1261   10    0    1
 -2      3831      3832      3847      3846      4443      4473      4474      4471
 -1      1262   10    0    1
 -2      3832      1148      1147      3847      4444      1176      4475      4473
 -1      1263   10    0    1
 -2       381      3833      3848       382      4446      4476      4477       410
 -1      1264   10    0    1
 -2      3833      3834      3849      3848      4448      4478      4479      4476
 -1      1265   10    0    1
 -2      3834      3835      3850      3849      4450      4480      4481      4478
 -1      1266   10    0    1
 -2      3835      3836      3851      3850      4452      4482      4483      4480
 -1      1267   10    0    1
 -2      3836      3837      3852      3851      4454      4484      4485      4482
 -1      1268   10    0    1
 -2      3837      3838      3853      3852      4456      4486      4487      4484
 -1      1269   10    0    1
 -2      3838      3839      3854      3853      4458      4488      4489      4486
 -1      1270   10    0    1
 -2      3839      3840      3855      3854      4460      4490      4491      4488
 -1      1271   10    0    1
 -2      3840      3841      3856      3855      4462      4492      4493      4490
 -1      1272   10    0    1
 -2      3841      3842      3857      3856      4464      4494      4495      4492
 -1      1273   10    0    1
 -2      3842      3843      3858      3857      4466      4496      4497      4494
 -1      1274   10    0    1
 -2      3843      3844      3859      3858      4468      4498      4499      4496
 -1      1275   10    0    1
 -2      3844      3845      3860      3859      4470      4500      4501      4498
 -1      1276   10    0    1
 -2      3845      3846      3861      3860      4472      4502      4503      4500
 -1      1277   10    0    1
 -2      3846      3847      3862      3861      4474      4504      4505      4502
 -1      1278   10    0    1
 -2      3847      1147      1146      3862      4475      1175      4506      4504
 -1      1279   10    0    1
 -2       382      3848      3863       383      4477      4507      4508       411
 -1      1280   10    0    1
 -2      3848      3849      3864      3863      4479      4509      4510      4507
 -1      1281   10    0    1
 -2      3849      3850      3865      3864      4481      4511      4512      4509
 -1      1282   10    0    1
 -2      3850      3851      3866      3865      4483      4513      4514      4511
 -1      1283   10    0    1
 -2      3851      3852      3867      3866      4485      4515      4516      4513
 -1      1284   10    0    1
 -2      3852      3853      3868      3867      4487      4517      4518      4515
 -1      1285   10    0    1
 -2      3853      3854      3869      3868      4489      4519      4520      4517
 -1      1286   10    0    1
 -2      3854      3855      3870      3869      4491      4521      4522      4519
 -1      1287   10    0    1
 -2      3855      3856      3871      3870      4493      4523      4524      4521
 -1      1288   10    0    1
 -2      3856      3857      3872      3871      4495      4525      4526      4523
 -1      1289   10    0    1
 -2      3857      3858      3873      3872      4497      4527      4528      4525
 -1      1290   10    0    1
 -2      3858      3859      3874      3873      4499      4529      4530      4527
 -1      1291   10    0    1
 -2      3859      3860      3875      3874      4501      4531      4532      4529
 -1      1292   10    0    1
 -2      3860      3861      3876      3875      4503      4533      4534      4531
 -1      1293   10    0    1
 -2      3861      3862      3877      3876      4505      4535      4536      4533
 -1      1294   10    0    1
 -2      3862      1146      1145      3877      4506      1174      4537      4535
 -1      1295   10    0    1
 -2       383      3863      3878       384      4508      4538      4539       412
 -1      1296   10    0    1
 -2      3863      3864      3879      3878      4510      4540      4541      4538
 -1      1297   10    0    1
 -2      3864      3865      3880      3879      4512      4542      4543      4540
 -1      1298   10    0    1
 -2      3865      3866      3881      3880      4514      4544      4545      4542
 -1      1299   10    0    1
 -2      3866      3867      3882      3881      4516      4546      4547      4544
 -1      1300   10    0    1
 -2      3867      3868      3883      3882      4518      4548      4549      4546
 -1      1301   10    0    1
 -2      3868      3869      3884      3883      4520      4550      4551      4548
 -1      1302   10    0    1
 -2      3869      3870      3885      3884      4522      4552      4553      4550
 -1      1303   10    0    1
 -2      3870      3871      3886      3885      4524      4554      4555      4552
 -1      1304   10    0    1
 -2      3871      3872      3887      3886      4526      4556      4557      4554
 -1      1305   10    0    1
 -2      3872      3873      3888      3887      4528      4558      4559      4556
 -1      1306   10    0    1
 -2      3873      3874      3889      3888      4530      4560      4561      4558
 -1      1307   10    0    1
 -2      3874      3875      3890      3889      4532      4562      4563      4560
 -1      1308   10    0    1
 -2      3875      3876      3891      3890      4534      4564      4565      4562
 -1      1309   10    0    1
 -2      3876      3877      3892      3891      4536      4566      4567      4564
 -1      1310   10    0    1
 -2      3877      1145      1144      3892      4537      1173      4568      4566
 -1      1311   10    0    1
 -2       384      3878      3893       385      4539      4569      4570       413
 -1      1312   10    0    1
 -2      3878      3879      3894      3893      4541      4571      4572      4569
 -1      1313   10    0    1
 -2      3879      3880      3895      3894      4543      4573      4574      4571
 -1      1314   10    0    1
 -2      3880      3881      3896      3895      4545      4575      4576      4573
 -1      1315   10    0    1
 -2      3881      3882      3897      3896      4547      4577      4578      4575
 -1      1316   10    0    1
 -2      3882      3883      3898      3897      4549      4579      4580      4577
 -1      1317   10    0    1
 -2      3883      3884      3899      3898      4551      4581      4582      4579
 -1      1318   10    0    1
 -2      3884      3885      3900      3899      4553      4583      4584      4581
 -1      1319   10    0    1
 -2      3885      3886      3901      3900      4555      4585      4586      4583
 -1      1320   10    0    1
 -2      3886      3887      3902      3901      4557      4587      4588      4585
 -1      1321   10    0    1
 -2      3887      3888      3903      3902      4559      4589      4590      4587
 -1      1322   10    0    1
 -2      3888      3889      3904      3903      4561      4591      4592      4589
 -1      1323   10    0    1
 -2      3889      3890      3905      3904      4563      4593      4594      4591
 -1      1324   10    0    1
 -2      3890      3891      3906      3905      4565      4595      4596      4593
 -1      1325   10    0    1
 -2      3891      3892      3907      3906      4567      4597      4598      4595
 -1      1326   10    0    1
 -2      3892      1144      1143      3907      4568      1172      4599      4597
 -1      1327   10    0    1
 -2       385      3893      3908       386      4570      4600      4601       414
 -1      1328   10    0    1
 -2      3893      3894      3909      3908      4572      4602      4603      4600
 -1      1329   10    0    1
 -2      3894      3895      3910      3909      4574      4604      4605      4602
 -1      1330   10    0    1
 -2      3895      3896      3911      3910      4576      4606      4607      4604
 -1      1331   10    0    1
 -2      3896      3897      3912      3911      4578      4608      4609      4606
 -1      1332   10    0    1
 -2      3897      3898      3913      3912      4580      4610      4611      4608
 -1      1333   10    0    1
 -2      3898      3899      3914      3913      4582      4612      4613      4610
 -1      1334   10    0    1
 -2      3899      3900      3915      3914      4584      4614      4615      4612
 -1      1335   10    0    1
 -2      3900      3901      3916      3915      4586      4616      4617      4614
 -1      1336   10    0    1
 -2      3901      3902      3917      3916      4588      4618      4619      4616
 -1      1337   10    0    1
 -2      3902      3903      3918      3917      4590      4620      4621      4618
 -1      1338   10    0    1
 -2      3903      3904      3919      3918      4592      4622      4623      4620
 -1      1339   10    0    1
 -2      3904      3905      3920      3919      4594      4624      4625      4622
 -1      1340   10    0    1
 -2      3905      3906      3921      3920      4596      4626      4627      4624
 -1      1341   10    0    1
 -2      3906      3907      3922      3921      4598      4628      4629      4626
 -1      1342   10    0    1
 -2      3907      1143      1142      3922      4599      1171      4630      4628
 -1      1343   10    0    1
 -2       386      3908      3923       387      4601      4631      4632       415
 -1      1344   10    0    1
 -2      3908      3909      3924      3923      4603      4633      4634      4631
 -1      1345   10    0    1
 -2      3909      3910      3925      3924      4605      4635      4636      4633
 -1      1346   10    0    1
 -2      3910      3911      3926      3925      4607      4637      4638      4635
 -1      1347   10    0    1
 -2      3911      3912      3927      3926      4609      4639      4640      4637
 -1      1348   10    0    1
 -2      3912      3913      3928      3927      4611      4641      4642      4639
 -1      1349   10    0    1
 -2      3913      3914      3929      3928      4613      4643      4644      4641
 -1      1350   10    0    1
 -2      3914      3915      3930      3929      4615      4645      4646      4643
 -1      1351   10    0    1
 -2      3915      3916      3931      3930      4617      4647      4648      4645
 -1      1352   10    0    1
 -2      3916      3917      3932      3931      4619      4649      4650      4647
 -1      1353   10    0    1
 -2      3917      3918      3933      3932      4621      4651      4652      4649
 -1      1354   10    0    1
 -2      3918      3919      3934      3933      4623      4653      4654      4651
 -1      1355   10    0    1
 -2      3919      3920      3935      3934      4625      4655      4656      4653
 -1      1356   10    0    1
 -2      3920      3921      3936      3935      4627      4657      4658      4655
 -1      1357   10    0    1
 -2      3921      3922      3937      3936      4629      4659      4660      4657
 -1      1358   10    0    1
 -2      3922      1142      1141      3937      4630      1170      4661      4659
 -1      1359   10    0    1
 -2       387      3923      3938       388      4632      4662      4663       416
 -1      1360   10    0    1
 -2      3923      3924      3939      3938      4634      4664      4665      4662
 -1      1361   10    0    1
 -2      3924      3925      3940      3939      4636      4666      4667      4664
 -1      1362   10    0    1
 -2      3925      3926      3941      3940      4638      4668      4669      4666
 -1      1363   10    0    1
 -2      3926      3927      3942      3941      4640      4670      4671      4668
 -1      1364   10    0    1
 -2      3927      3928      3943      3942      4642      4672      4673      4670
 -1      1365   10    0    1
 -2      3928      3929      3944      3943      4644      4674      4675      4672
 -1      1366   10    0    1
 -2      3929      3930      3945      3944      4646      4676      4677      4674
 -1      1367   10    0    1
 -2      3930      3931      3946      3945      4648      4678      4679      4676
 -1      1368   10    0    1
 -2      3931      3932      3947      3946      4650      4680      4681      4678
 -1      1369   10    0    1
 -2      3932      3933      3948      3947      4652      4682      4683      4680
 -1      1370   10    0    1
 -2      3933      3934      3949      3948      4654      4684      4685      4682
 -1      1371   10    0    1
 -2      3934      3935      3950      3949      4656      4686      4687      4684
 -1      1372   10    0    1
 -2      3935      3936      3951      3950      4658      4688      4689      4686
 -1      1373   10    0    1
 -2      3936      3937      3952      3951      4660      4690      4691      4688
 -1      1374   10    0    1
 -2      3937      1141      1140      3952      4661      1169      4692      4690
 -1      1375   10    0    1
 -2       388      3938      3953       389      4663      4693      4694       417
 -1      1376   10    0    1
 -2      3938      3939      3954      3953      4665      4695      4696      4693
 -1      1377   10    0    1
 -2      3939      3940      3955      3954      4667      4697      4698      4695
 -1      1378   10    0    1
 -2      3940      3941      3956      3955      4669      4699      4700      4697
 -1      1379   10    0    1
 -2      3941      3942      3957      3956      4671      4701      4702      4699
 -1      1380   10    0    1
 -2      3942      3943      3958      3957      4673      4703      4704      4701
 -1      1381   10    0    1
 -2      3943      3944      3959      3958      4675      4705      4706      4703
 -1      1382   10    0    1
 -2      3944      3945      3960      3959      4677      4707      4708      4705
 -1      1383   10    0    1
 -2      3945      3946      3961      3960      4679      4709      4710      4707
 -1      1384   10    0    1
 -2      3946      3947      3962      3961      4681      4711      4712      4709
 -1      1385   10    0    1
 -2      3947      3948      3963      3962      4683      4713      4714      4711
 -1      1386   10    0    1
 -2      3948      3949      3964      3963      4685      4715      4716      4713
 -1      1387   10    0    1
 -2      3949      3950      3965      3964      4687      4717      4718      4715
 -1      1388   10    0    1
 -2      3950      3951      3966      3965      4689      4719      4720      4717
 -1      1389   10    0    1
 -2      3951      3952      3967      3966      4691      4721      4722      4719
 -1      1390   10    0    1
 -2      3952      1140      1139      3967      4692      1168      4723      4721
 -1      1391   10    0    1
 -2       389      3953      3968       390      4694      4724      4725       418
 -1      1392   10    0    1
 -2      3953      3954      3969      3968      4696      4726      4727      4724
 -1      1393   10    0    1
 -2      3954      3955      3970      3969      4698      4728      4729      4726
 -1      1394   10    0    1
 -2      3955      3956      3971      3970      4700      4730      4731      4728
 -1      1395   10    0    1
 -2      3956      3957      3972      3971      4702      4732      4733      4730
 -1      1396   10    0    1
 -2      3957      3958      3973      3972      4704      4734      4735      4732
 -1      1397   10    0    1
 -2      3958      3959      3974      3973      4706      4736      4737      4734
 -1      1398   10    0    1
 -2      3959      3960      3975      3974      4708      4738      4739      4736
 -1      1399   10    0    1
 -2      3960      3961      3976      3975      4710      4740      4741      4738
 -1      1400   10    0    1
 -2      3961      3962      3977      3976      4712      4742      4743      4740
 -1      1401   10    0    1
 -2      3962      3963      3978      3977      4714      4744      4745      4742
 -1      1402   10    0    1
 -2      3963      3964      3979      3978      4716      4746      4747      4744
 -1      1403   10    0    1
 -2      3964      3965      3980      3979      4718      4748      4749      4746
 -1      1404   10    0    1
 -2      3965      3966      3981      3980      4720      4750      4751      4748
 -1      1405   10    0    1
 -2      3966      3967      3982      3981      4722      4752      4753      4750
 -1      1406   10    0    1
 -2      3967      1139      1138      3982      4723      1167      4754      4752
 -1      1407   10    0    1
 -2       390      3968      3983       391      4725      4755      4756       419
 -1      1408   10    0    1
 -2      3968      3969      3984      3983      4727      4757      4758      4755
 -1      1409   10    0    1
 -2      3969      3970      3985      3984      4729      4759      4760      4757
 -1      1410   10    0    1
 -2      3970      3971      3986      3985      4731      4761      4762      4759
 -1      1411   10    0    1
 -2      3971      3972      3987      3986      4733      4763      4764      4761
 -1      1412   10    0    1
 -2      3972      3973      3988      3987      4735      4765      4766      4763
 -1      1413   10    0    1
 -2      3973      3974      3989      3988      4737      4767      4768      4765
 -1      1414   10    0    1
 -2      3974      3975      3990      3989      4739      4769      4770      4767
 -1      1415   10    0    1
 -2      3975      3976      3991      3990      4741      4771      4772      4769
 -1      1416   10    0    1
 -2      3976      3977      3992      3991      4743      4773      4774      4771
 -1      1417   10    0    1
 -2      3977      3978      3993      3992      4745      4775      4776      4773
 -1      1418   10    0    1
 -2      3978      3979      3994      3993      4747      4777      4778      4775
 -1      1419   10    0    1
 -2      3979      3980      3995      3994      4749      4779      4780      4777
 -1      1420   10    0    1
 -2      3980      3981      3996      3995      4751      4781      4782      4779
 -1      1421   10    0    1
 -2      3981      3982      3997      3996      4753      4783      4784      4781
 -1      1422   10    0    1
 -2      3982      1138      1137      3997      4754      1166      4785      4783
 -1      1423   10    0    1
 -2       391      3983      3998       392      4756      4786      4787       420
 -1      1424   10    0    1
 -2      3983      3984      3999      3998      4758      4788      4789      4786
 -1      1425   10    0    1
 -2      3984      3985      4000      3999      4760      4790      4791      4788
 -1      1426   10    0    1
 -2      3985      3986      4001      4000      4762      4792      4793      4790
 -1      1427   10    0    1
 -2      3986      3987      4002      4001      4764      4794      4795      4792
 -1      1428   10    0    1
 -2      3987      3988      4003      4002      4766      4796      4797      4794
 -1      1429   10    0    1
 -2      3988      3989      4004      4003      4768      4798      4799      4796
 -1      1430   10    0    1
 -2      3989      3990      4005      4004      4770      4800      4801      4798
 -1      1431   10    0    1
 -2      3990      3991      4006      4005      4772      4802      4803      4800
 -1      1432   10    0    1
 -2      3991      3992      4007      4006      4774      4804      4805      4802
 -1      1433   10    0    1
 -2      3992      3993      4008      4007      4776      4806      4807      4804
 -1      1434   10    0    1
 -2      3993      3994      4009      4008      4778      4808      4809      4806
 -1      1435   10    0    1
 -2      3994      3995      4010      4009      4780      4810      4811      4808
 -1      1436   10    0    1
 -2      3995      3996      4011      4010      4782      4812      4813      4810
 -1      1437   10    0    1
 -2      3996      3997      4012      4011      4784      4814      4815      4812
 -1      1438   10    0    1
 -2      3997      1137      1136      4012      4785      1165      4816      4814
 -1      1439   10    0    1
 -2       392      3998      4013       393      4787      4817      4818       421
 -1      1440   10    0    1
 -2      3998      3999      4014      4013      4789      4819      4820      4817
 -1      1441   10    0    1
 -2      3999      4000      4015      4014      4791      4821      4822      4819
 -1      1442   10    0    1
 -2      4000      4001      4016      4015      4793      4823      4824      4821
 -1      1443   10    0    1
 -2      4001      4002      4017      4016      4795      4825      4826      4823
 -1      1444   10    0    1
 -2      4002      4003      4018      4017      4797      4827      4828      4825
 -1      1445   10    0    1
 -2      4003      4004      4019      4018      4799      4829      4830      4827
 -1      1446   10    0    1
 -2      4004      4005      4020      4019      4801      4831      4832      4829
 -1      1447   10    0    1
 -2      4005      4006      4021      4020      4803      4833      4834      4831
 -1      1448   10    0    1
 -2      4006      4007      4022      4021      4805      4835      4836      4833
 -1      1449   10    0    1
 -2      4007      4008      4023      4022      4807      4837      4838      4835
 -1      1450   10    0    1
 -2      4008      4009      4024      4023      4809      4839      4840      4837
 -1      1451   10    0    1
 -2      4009      4010      4025      4024      4811      4841      4842      4839
 -1      1452   10    0    1
 -2      4010      4011      4026      4025      4813      4843      4844      4841
 -1      1453   10    0    1
 -2      4011      4012      4027      4026      4815      4845      4846      4843
 -1      1454   10    0    1
 -2      4012      1136      1135      4027      4816      1164      4847      4845
 -1      1455   10    0    1
 -2       393      4013      4028       394      4818      4848      4849       422
 -1      1456   10    0    1
 -2      4013      4014      4029      4028      4820      4850      4851      4848
 -1      1457   10    0    1
 -2      4014      4015      4030      4029      4822      4852      4853      4850
 -1      1458   10    0    1
 -2      4015      4016      4031      4030      4824      4854      4855      4852
 -1      1459   10    0    1
 -2      4016      4017      4032      4031      4826      4856      4857      4854
 -1      1460   10    0    1
 -2      4017      4018      4033      4032      4828      4858      4859      4856
 -1      1461   10    0    1
 -2      4018      4019      4034      4033      4830      4860      4861      4858
 -1      1462   10    0    1
 -2      4019      4020      4035      4034      4832      4862      4863      4860
 -1      1463   10    0    1
 -2      4020      4021      4036      4035      4834      4864      4865      4862
 -1      1464   10    0    1
 -2      4021      4022      4037      4036      4836      4866      4867      4864
 -1      1465   10    0    1
 -2      4022      4023      4038      4037      4838      4868      4869      4866
 -1      1466   10    0    1
 -2      4023      4024      4039      4038      4840      4870      4871      4868
 -1      1467   10    0    1
 -2      4024      4025      4040      4039      4842      4872      4873      4870
 -1      1468   10    0    1
 -2      4025      4026      4041      4040      4844      4874      4875      4872
 -1      1469   10    0    1
 -2      4026      4027      4042      4041      4846      4876      4877      4874
 -1      1470   10    0    1
 -2      4027      1135      1134      4042      4847      1163      4878      4876
 -1      1471   10    0    1
 -2       394      4028      4043       395      4849      4879      4880       423
 -1      1472   10    0    1
 -2      4028      4029      4044      4043      4851      4881      4882      4879
 -1      1473   10    0    1
 -2      4029      4030      4045      4044      4853      4883      4884      4881
 -1      1474   10    0    1
 -2      4030      4031      4046      4045      4855      4885      4886      4883
 -1      1475   10    0    1
 -2      4031      4032      4047      4046      4857      4887      4888      4885
 -1      1476   10    0    1
 -2      4032      4033      4048      4047      4859      4889      4890      4887
 -1      1477   10    0    1
 -2      4033      4034      4049      4048      4861      4891      4892      4889
 -1      1478   10    0    1
 -2      4034      4035      4050      4049      4863      4893      4894      4891
 -1      1479   10    0    1
 -2      4035      4036      4051      4050      4865      4895      4896      4893
 -1      1480   10    0    1
 -2      4036      4037      4052      4051      4867      4897      4898      4895
 -1      1481   10    0    1
 -2      4037      4038      4053      4052      4869      4899      4900      4897
 -1      1482   10    0    1
 -2      4038      4039      4054      4053      4871      4901      4902      4899
 -1      1483   10    0    1
 -2      4039      4040      4055      4054      4873      4903      4904      4901
 -1      1484   10    0    1
 -2      4040      4041      4056      4055      4875      4905      4906      4903
 -1      1485   10    0    1
 -2      4041      4042      4057      4056      4877      4907      4908      4905
 -1      1486   10    0    1
 -2      4042      1134      1133      4057      4878      1162      4909      4907
 -1      1487   10    0    1
 -2       395      4043      4058       396      4880      4910      4911       424
 -1      1488   10    0    1
 -2      4043      4044      4059      4058      4882      4912      4913      4910
 -1      1489   10    0    1
 -2      4044      4045      4060      4059      4884      4914      4915      4912
 -1      1490   10    0    1
 -2      4045      4046      4061      4060      4886      4916      4917      4914
 -1      1491   10    0    1
 -2      4046      4047      4062      4061      4888      4918      4919      4916
 -1      1492   10    0    1
 -2      4047      4048      4063      4062      4890      4920      4921      4918
 -1      1493   10    0    1
 -2      4048      4049      4064      4063      4892      4922      4923      4920
 -1      1494   10    0    1
 -2      4049      4050      4065      4064      4894      4924      4925      4922
 -1      1495   10    0    1
 -2      4050      4051      4066      4065      4896      4926      4927      4924
 -1      1496   10    0    1
 -2      4051      4052      4067      4066      4898      4928      4929      4926
 -1      1497   10    0    1
 -2      4052      4053      4068      4067      4900      4930      4931      4928
 -1      1498   10    0    1
 -2      4053      4054      4069      4068      4902      4932      4933      4930
 -1      1499   10    0    1
 -2      4054      4055      4070      4069      4904      4934      4935      4932
 -1      1500   10    0    1
 -2      4055      4056      4071      4070      4906      4936      4937      4934
 -1      1501   10    0    1
 -2      4056      4057      4072      4071      4908      4938      4939      4936
 -1      1502   10    0    1
 -2      4057      1133      1132      4072      4909      1161      4940      4938
 -1      1503   10    0    1
 -2       396      4058       851        10      4911      4941       867       425
 -1      1504   10    0    1
 -2      4058      4059       850       851      4913      4942       866      4941
 -1      1505   10    0    1
 -2      4059      4060       849       850      4915      4943       865      4942
 -1      1506   10    0    1
 -2      4060      4061       848       849      4917      4944       864      4943
 -1      1507   10    0    1
 -2      4061      4062       847       848      4919      4945       863      4944
 -1      1508   10    0    1
 -2      4062      4063       846       847      4921      4946       862      4945
 -1      1509   10    0    1
 -2      4063      4064       845       846      4923      4947       861      4946
 -1      1510   10    0    1
 -2      4064      4065       844       845      4925      4948       860      4947
 -1      1511   10    0    1
 -2      4065      4066       843       844      4927      4949       859      4948
 -1      1512   10    0    1
 -2      4066      4067       842       843      4929      4950       858      4949
 -1      1513   10    0    1
 -2      4067      4068       841       842      4931      4951       857      4950
 -1      1514   10    0    1
 -2      4068      4069       840       841      4933      4952       856      4951
 -1      1515   10    0    1
 -2      4069      4070       839       840      4935      4953       855      4952
 -1      1516   10    0    1
 -2      4070      4071       838       839      4937      4954       854      4953
 -1      1517   10    0    1
 -2      4071      4072       837       838      4939      4955       853      4954
 -1      1518   10    0    1
 -2      4072      1132         5       837      4940      1160       852      4955
 -1      1519   10    0    1
 -2        10       851      4956       426       867      5166      5167       440
 -1      1520   10    0    1
 -2       851       850      4957      4956       866      5168      5169      5166
 -1      1521   10    0    1
 -2       850       849      4958      4957       865      5170      5171      5168
 -1      1522   10    0    1
 -2       849       848      4959      4958       864      5172      5173      5170
 -1      1523   10    0    1
 -2       848       847      4960      4959       863      5174      5175      5172
 -1      1524   10    0    1
 -2       847       846      4961      4960       862      5176      5177      5174
 -1      1525   10    0    1
 -2       846       845      4962      4961       861      5178      5179      5176
 -1      1526   10    0    1
 -2       845       844      4963      4962       860      5180      5181      5178
 -1      1527   10    0    1
 -2       844       843      4964      4963       859      5182      5183      5180
 -1      1528   10    0    1
 -2       843       842      4965      4964       858      5184      5185      5182
 -1      1529   10    0    1
 -2       842       841      4966      4965       857      5186      5187      5184
 -1      1530   10    0    1
 -2       841       840      4967      4966       856      5188      5189      5186
 -1      1531   10    0    1
 -2       840       839      4968      4967       855      5190      5191      5188
 -1      1532   10    0    1
 -2       839       838      4969      4968       854      5192      5193      5190
 -1      1533   10    0    1
 -2       838       837      4970      4969       853      5194      5195      5192
 -1      1534   10    0    1
 -2       837         5       253      4970       852       267      5196      5194
 -1      1535   10    0    1
 -2       426      4956      4971       427      5167      5197      5198       441
 -1      1536   10    0    1
 -2      4956      4957      4972      4971      5169      5199      5200      5197
 -1      1537   10    0    1
 -2      4957      4958      4973      4972      5171      5201      5202      5199
 -1      1538   10    0    1
 -2      4958      4959      4974      4973      5173      5203      5204      5201
 -1      1539   10    0    1
 -2      4959      4960      4975      4974      5175      5205      5206      5203
 -1      1540   10    0    1
 -2      4960      4961      4976      4975      5177      5207      5208      5205
 -1      1541   10    0    1
 -2      4961      4962      4977      4976      5179      5209      5210      5207
 -1      1542   10    0    1
 -2      4962      4963      4978      4977      5181      5211      5212      5209
 -1      1543   10    0    1
 -2      4963      4964      4979      4978      5183      5213      5214      5211
 -1      1544   10    0    1
 -2      4964      4965      4980      4979      5185      5215      5216      5213
 -1      1545   10    0    1
 -2      4965      4966      4981      4980      5187      5217      5218      5215
 -1      1546   10    0    1
 -2      4966      4967      4982      4981      5189      5219      5220      5217
 -1      1547   10    0    1
 -2      4967      4968      4983      4982      5191      5221      5222      5219
 -1      1548   10    0    1
 -2      4968      4969      4984      4983      5193      5223      5224      5221
 -1      1549   10    0    1
 -2      4969      4970      4985      4984      5195      5225      5226      5223
 -1      1550   10    0    1
 -2      4970       253       254      4985      5196       268      5227      5225
 -1      1551   10    0    1
 -2       427      4971      4986       428      5198      5228      5229       442
 -1      1552   10    0    1
 -2      4971      4972      4987      4986      5200      5230      5231      5228
 -1      1553   10    0    1
 -2      4972      4973      4988      4987      5202      5232      5233      5230
 -1      1554   10    0    1
 -2      4973      4974      4989      4988      5204      5234      5235      5232
 -1      1555   10    0    1
 -2      4974      4975      4990      4989      5206      5236      5237      5234
 -1      1556   10    0    1
 -2      4975      4976      4991      4990      5208      5238      5239      5236
 -1      1557   10    0    1
 -2      4976      4977      4992      4991      5210      5240      5241      5238
 -1      1558   10    0    1
 -2      4977      4978      4993      4992      5212      5242      5243      5240
 -1      1559   10    0    1
 -2      4978      4979      4994      4993      5214      5244      5245      5242
 -1      1560   10    0    1
 -2      4979      4980      4995      4994      5216      5246      5247      5244
 -1      1561   10    0    1
 -2      4980      4981      4996      4995      5218      5248      5249      5246
 -1      1562   10    0    1
 -2      4981      4982      4997      4996      5220      5250      5251      5248
 -1      1563   10    0    1
 -2      4982      4983      4998      4997      5222      5252      5253      5250
 -1      1564   10    0    1
 -2      4983      4984      4999      4998      5224      5254      5255      5252
 -1      1565   10    0    1
 -2      4984      4985      5000      4999      5226      5256      5257      5254
 -1      1566   10    0    1
 -2      4985       254       255      5000      5227       269      5258      5256
 -1      1567   10    0    1
 -2       428      4986      5001       429      5229      5259      5260       443
 -1      1568   10    0    1
 -2      4986      4987      5002      5001      5231      5261      5262      5259
 -1      1569   10    0    1
 -2      4987      4988      5003      5002      5233      5263      5264      5261
 -1      1570   10    0    1
 -2      4988      4989      5004      5003      5235      5265      5266      5263
 -1      1571   10    0    1
 -2      4989      4990      5005      5004      5237      5267      5268      5265
 -1      1572   10    0    1
 -2      4990      4991      5006      5005      5239      5269      5270      5267
 -1      1573   10    0    1
 -2      4991      4992      5007      5006      5241      5271      5272      5269
 -1      1574   10    0    1
 -2      4992      4993      5008      5007      5243      5273      5274      5271
 -1      1575   10    0    1
 -2      4993      4994      5009      5008      5245      5275      5276      5273
 -1      1576   10    0    1
 -2      4994      4995      5010      5009      5247      5277      5278      5275
 -1      1577   10    0    1
 -2      4995      4996      5011      5010      5249      5279      5280      5277
 -1      1578   10    0    1
 -2      4996      4997      5012      5011      5251      5281      5282      5279
 -1      1579   10    0    1
 -2      4997      4998      5013      5012      5253      5283      5284      5281
 -1      1580   10    0    1
 -2      4998      4999      5014      5013      5255      5285      5286      5283
 -1      1581   10    0    1
 -2      4999      5000      5015      5014      5257      5287      5288      5285
 -1      1582   10    0    1
 -2      5000       255       256      5015      5258       270      5289      5287
 -1      1583   10    0    1
 -2       429      5001      5016       430      5260      5290      5291       444
 -1      1584   10    0    1
 -2      5001      5002      5017      5016      5262      5292      5293      5290
 -1      1585   10    0    1
 -2      5002      5003      5018      5017      5264      5294      5295      5292
 -1      1586   10    0    1
 -2      5003      5004      5019      5018      5266      5296      5297      5294
 -1      1587   10    0    1
 -2      5004      5005      5020      5019      5268      5298      5299      5296
 -1      1588   10    0    1
 -2      5005      5006      5021      5020      5270      5300      5301      5298
 -1      1589   10    0    1
 -2      5006      5007      5022      5021      5272      5302      5303      5300
 -1      1590   10    0    1
 -2      5007      5008      5023      5022      5274      5304      5305      5302
 -1      1591   10    0    1
 -2      5008      5009      5024      5023      5276      5306      5307      5304
 -1      1592   10    0    1
 -2      5009      5010      5025      5024      5278      5308      5309      5306
 -1      1593   10    0    1
 -2      5010      5011      5026      5025      5280      5310      5311      5308
 -1      1594   10    0    1
 -2      5011      5012      5027      5026      5282      5312      5313      5310
 -1      1595   10    0    1
 -2      5012      5013      5028      5027      5284      5314      5315      5312
 -1      1596   10    0    1
 -2      5013      5014      5029      5028      5286      5316      5317      5314
 -1      1597   10    0    1
 -2      5014      5015      5030      5029      5288      5318      5319      5316
 -1      1598   10    0    1
 -2      5015       256       257      5030      5289       271      5320      5318
 -1      1599   10    0    1
 -2       430      5016      5031       431      5291      5321      5322       445
 -1      1600   10    0    1
 -2      5016      5017      5032      5031      5293      5323      5324      5321
 -1      1601   10    0    1
 -2      5017      5018      5033      5032      5295      5325      5326      5323
 -1      1602   10    0    1
 -2      5018      5019      5034      5033      5297      5327      5328      5325
 -1      1603   10    0    1
 -2      5019      5020      5035      5034      5299      5329      5330      5327
 -1      1604   10    0    1
 -2      5020      5021      5036      5035      5301      5331      5332      5329
 -1      1605   10    0    1
 -2      5021      5022      5037      5036      5303      5333      5334      5331
 -1      1606   10    0    1
 -2      5022      5023      5038      5037      5305      5335      5336      5333
 -1      1607   10    0    1
 -2      5023      5024      5039      5038      5307      5337      5338      5335
 -1      1608   10    0    1
 -2      5024      5025      5040      5039      5309      5339      5340      5337
 -1      1609   10    0    1
 -2      5025      5026      5041      5040      5311      5341      5342      5339
 -1      1610   10    0    1
 -2      5026      5027      5042      5041      5313      5343      5344      5341
 -1      1611   10    0    1
 -2      5027      5028      5043      5042      5315      5345      5346      5343
 -1      1612   10    0    1
 -2      5028      5029      5044      5043      5317      5347      5348      5345
 -1      1613   10    0    1
 -2      5029      5030      5045      5044      5319      5349      5350      5347
 -1      1614   10    0    1
 -2      5030       257       258      5045      5320       272      5351      5349
 -1      1615   10    0    1
 -2       431      5031      5046       432      5322      5352      5353       446
 -1      1616   10    0    1
 -2      5031      5032      5047      5046      5324      5354      5355      5352
 -1      1617   10    0    1
 -2      5032      5033      5048      5047      5326      5356      5357      5354
 -1      1618   10    0    1
 -2      5033      5034      5049      5048      5328      5358      5359      5356
 -1      1619   10    0    1
 -2      5034      5035      5050      5049      5330      5360      5361      5358
 -1      1620   10    0    1
 -2      5035      5036      5051      5050      5332      5362      5363      5360
 -1      1621   10    0    1
 -2      5036      5037      5052      5051      5334      5364      5365      5362
 -1      1622   10    0    1
 -2      5037      5038      5053      5052      5336      5366      5367      5364
 -1      1623   10    0    1
 -2      5038      5039      5054      5053      5338      5368      5369      5366
 -1      1624   10    0    1
 -2      5039      5040      5055      5054      5340      5370      5371      5368
 -1      1625   10    0    1
 -2      5040      5041      5056      5055      5342      5372      5373      5370
 -1      1626   10    0    1
 -2      5041      5042      5057      5056      5344      5374      5375      5372
 -1      1627   10    0    1
 -2      5042      5043      5058      5057      5346      5376      5377      5374
 -1      1628   10    0    1
 -2      5043      5044      5059      5058      5348      5378      5379      5376
 -1      1629   10    0    1
 -2      5044      5045      5060      5059      5350      5380      5381      5378
 -1      1630   10    0    1
 -2      5045       258       259      5060      5351       273      5382      5380
 -1      1631   10    0    1
 -2       432      5046      5061       433      5353      5383      5384       447
 -1      1632   10    0    1
 -2      5046      5047      5062      5061      5355      5385      5386      5383
 -1      1633   10    0    1
 -2      5047      5048      5063      5062      5357      5387      5388      5385
 -1      1634   10    0    1
 -2      5048      5049      5064      5063      5359      5389      5390      5387
 -1      1635   10    0    1
 -2      5049      5050      5065      5064      5361      5391      5392      5389
 -1      1636   10    0    1
 -2      5050      5051      5066      5065      5363      5393      5394      5391
 -1      1637   10    0    1
 -2      5051      5052      5067      5066      5365      5395      5396      5393
 -1      1638   10    0    1
 -2      5052      5053      5068      5067      5367      5397      5398      5395
 -1      1639   10    0    1
 -2      5053      5054      5069      5068      5369      5399      5400      5397
 -1      1640   10    0    1
 -2      5054      5055      5070      5069      5371      5401      5402      5399
 -1      1641   10    0    1
 -2      5055      5056      5071      5070      5373      5403      5404      5401
 -1      1642   10    0    1
 -2      5056      5057      5072      5071      5375      5405      5406      5403
 -1      1643   10    0    1
 -2      5057      5058      5073      5072      5377      5407      5408      5405
 -1      1644   10    0    1
 -2      5058      5059      5074      5073      5379      5409      5410      5407
 -1      1645   10    0    1
 -2      5059      5060      5075      5074      5381      5411      5412      5409
 -1      1646   10    0    1
 -2      5060       259       260      5075      5382       274      5413      5411
 -1      1647   10    0    1
 -2       433      5061      5076       434      5384      5414      5415       448
 -1      1648   10    0    1
 -2      5061      5062      5077      5076      5386      5416      5417      5414
 -1      1649   10    0    1
 -2      5062      5063      5078      5077      5388      5418      5419      5416
 -1      1650   10    0    1
 -2      5063      5064      5079      5078      5390      5420      5421      5418
 -1      1651   10    0    1
 -2      5064      5065      5080      5079      5392      5422      5423      5420
 -1      1652   10    0    1
 -2      5065      5066      5081      5080      5394      5424      5425      5422
 -1      1653   10    0    1
 -2      5066      5067      5082      5081      5396      5426      5427      5424
 -1      1654   10    0    1
 -2      5067      5068      5083      5082      5398      5428      5429      5426
 -1      1655   10    0    1
 -2      5068      5069      5084      5083      5400      5430      5431      5428
 -1      1656   10    0    1
 -2      5069      5070      5085      5084      5402      5432      5433      5430
 -1      1657   10    0    1
 -2      5070      5071      5086      5085      5404      5434      5435      5432
 -1      1658   10    0    1
 -2      5071      5072      5087      5086      5406      5436      5437      5434
 -1      1659   10    0    1
 -2      5072      5073      5088      5087      5408      5438      5439      5436
 -1      1660   10    0    1
 -2      5073      5074      5089      5088      5410      5440      5441      5438
 -1      1661   10    0    1
 -2      5074      5075      5090      5089      5412      5442      5443      5440
 -1      1662   10    0    1
 -2      5075       260       261      5090      5413       275      5444      5442
 -1      1663   10    0    1
 -2       434      5076      5091       435      5415      5445      5446       449
 -1      1664   10    0    1
 -2      5076      5077      5092      5091      5417      5447      5448      5445
 -1      1665   10    0    1
 -2      5077      5078      5093      5092      5419      5449      5450      5447
 -1      1666   10    0    1
 -2      5078      5079      5094      5093      5421      5451      5452      5449
 -1      1667   10    0    1
 -2      5079      5080      5095      5094      5423      5453      5454      5451
 -1      1668   10    0    1
 -2      5080      5081      5096      5095      5425      5455      5456      5453
 -1      1669   10    0    1
 -2      5081      5082      5097      5096      5427      5457      5458      5455
 -1      1670   10    0    1
 -2      5082      5083      5098      5097      5429      5459      5460      5457
 -1      1671   10    0    1
 -2      5083      5084      5099      5098      5431      5461      5462      5459
 -1      1672   10    0    1
 -2      5084      5085      5100      5099      5433      5463      5464      5461
 -1      1673   10    0    1
 -2      5085      5086      5101      5100      5435      5465      5466      5463
 -1      1674   10    0    1
 -2      5086      5087      5102      5101      5437      5467      5468      5465
 -1      1675   10    0    1
 -2      5087      5088      5103      5102      5439      5469      5470      5467
 -1      1676   10    0    1
 -2      5088      5089      5104      5103      5441      5471      5472      5469
 -1      1677   10    0    1
 -2      5089      5090      5105      5104      5443      5473      5474      5471
 -1      1678   10    0    1
 -2      5090       261       262      5105      5444       276      5475      5473
 -1      1679   10    0    1
 -2       435      5091      5106       436      5446      5476      5477       450
 -1      1680   10    0    1
 -2      5091      5092      5107      5106      5448      5478      5479      5476
 -1      1681   10    0    1
 -2      5092      5093      5108      5107      5450      5480      5481      5478
 -1      1682   10    0    1
 -2      5093      5094      5109      5108      5452      5482      5483      5480
 -1      1683   10    0    1
 -2      5094      5095      5110      5109      5454      5484      5485      5482
 -1      1684   10    0    1
 -2      5095      5096      5111      5110      5456      5486      5487      5484
 -1      1685   10    0    1
 -2      5096      5097      5112      5111      5458      5488      5489      5486
 -1      1686   10    0    1
 -2      5097      5098      5113      5112      5460      5490      5491      5488
 -1      1687   10    0    1
 -2      5098      5099      5114      5113      5462      5492      5493      5490
 -1      1688   10    0    1
 -2      5099      5100      5115      5114      5464      5494      5495      5492
 -1      1689   10    0    1
 -2      5100      5101      5116      5115      5466      5496      5497      5494
 -1      1690   10    0    1
 -2      5101      5102      5117      5116      5468      5498      5499      5496
 -1      1691   10    0    1
 -2      5102      5103      5118      5117      5470      5500      5501      5498
 -1      1692   10    0    1
 -2      5103      5104      5119      5118      5472      5502      5503      5500
 -1      1693   10    0    1
 -2      5104      5105      5120      5119      5474      5504      5505      5502
 -1      1694   10    0    1
 -2      5105       262       263      5120      5475       277      5506      5504
 -1      1695   10    0    1
 -2       436      5106      5121       437      5477      5507      5508       451
 -1      1696   10    0    1
 -2      5106      5107      5122      5121      5479      5509      5510      5507
 -1      1697   10    0    1
 -2      5107      5108      5123      5122      5481      5511      5512      5509
 -1      1698   10    0    1
 -2      5108      5109      5124      5123      5483      5513      5514      5511
 -1      1699   10    0    1
 -2      5109      5110      5125      5124      5485      5515      5516      5513
 -1      1700   10    0    1
 -2      5110      5111      5126      5125      5487      5517      5518      5515
 -1      1701   10    0    1
 -2      5111      5112      5127      5126      5489      5519      5520      5517
 -1      1702   10    0    1
 -2      5112      5113      5128      5127      5491      5521      5522      5519
 -1      1703   10    0    1
 -2      5113      5114      5129      5128      5493      5523      5524      5521
 -1      1704   10    0    1
 -2      5114      5115      5130      5129      5495      5525      5526      5523
 -1      1705   10    0    1
 -2      5115      5116      5131      5130      5497      5527      5528      5525
 -1      1706   10    0    1
 -2      5116      5117      5132      5131      5499      5529      5530      5527
 -1      1707   10    0    1
 -2      5117      5118      5133      5132      5501      5531      5532      5529
 -1      1708   10    0    1
 -2      5118      5119      5134      5133      5503      5533      5534      5531
 -1      1709   10    0    1
 -2      5119      5120      5135      5134      5505      5535      5536      5533
 -1      1710   10    0    1
 -2      5120       263       264      5135      5506       278      5537      5535
 -1      1711   10    0    1
 -2       437      5121      5136       438      5508      5538      5539       452
 -1      1712   10    0    1
 -2      5121      5122      5137      5136      5510      5540      5541      5538
 -1      1713   10    0    1
 -2      5122      5123      5138      5137      5512      5542      5543      5540
 -1      1714   10    0    1
 -2      5123      5124      5139      5138      5514      5544      5545      5542
 -1      1715   10    0    1
 -2      5124      5125      5140      5139      5516      5546      5547      5544
 -1      1716   10    0    1
 -2      5125      5126      5141      5140      5518      5548      5549      5546
 -1      1717   10    0    1
 -2      5126      5127      5142      5141      5520      5550      5551      5548
 -1      1718   10    0    1
 -2      5127      5128      5143      5142      5522      5552      5553      5550
 -1      1719   10    0    1
 -2      5128      5129      5144      5143      5524      5554      5555      5552
 -1      1720   10    0    1
 -2      5129      5130      5145      5144      5526      5556      5557      5554
 -1      1721   10    0    1
 -2      5130      5131      5146      5145      5528      5558      5559      5556
 -1      1722   10    0    1
 -2      5131      5132      5147      5146      5530      5560      5561      5558
 -1      1723   10    0    1
 -2      5132      5133      5148      5147      5532      5562      5563      5560
 -1      1724   10    0    1
 -2      5133      5134      5149      5148      5534      5564      5565      5562
 -1      1725   10    0    1
 -2      5134      5135      5150      5149      5536      5566      5567      5564
 -1      1726   10    0    1
 -2      5135       264       265      5150      5537       279      5568      5566
 -1      1727   10    0    1
 -2       438      5136      5151       439      5539      5569      5570       453
 -1      1728   10    0    1
 -2      5136      5137      5152      5151      5541      5571      5572      5569
 -1      1729   10    0    1
 -2      5137      5138      5153      5152      5543      5573      5574      5571
 -1      1730   10    0    1
 -2      5138      5139      5154      5153      5545      5575      5576      5573
 -1      1731   10    0    1
 -2      5139      5140      5155      5154      5547      5577      5578      5575
 -1      1732   10    0    1
 -2      5140      5141      5156      5155      5549      5579      5580      5577
 -1      1733   10    0    1
 -2      5141      5142      5157      5156      5551      5581      5582      5579
 -1      1734   10    0    1
 -2      5142      5143      5158      5157      5553      5583      5584      5581
 -1      1735   10    0    1
 -2      5143      5144      5159      5158      5555      5585      5586      5583
 -1      1736   10    0    1
 -2      5144      5145      5160      5159      5557      5587      5588      5585
 -1      1737   10    0    1
 -2      5145      5146      5161      5160      5559      5589      5590      5587
 -1      1738   10    0    1
 -2      5146      5147      5162      5161      5561      5591      5592      5589
 -1      1739   10    0    1
 -2      5147      5148      5163      5162      5563      5593      5594      5591
 -1      1740   10    0    1
 -2      5148      5149      5164      5163      5565      5595      5596      5593
 -1      1741   10    0    1
 -2      5149      5150      5165      5164      5567      5597      5598      5595
 -1      1742   10    0    1
 -2      5150       265       266      5165      5568       280      5599      5597
 -1      1743   10    0    1
 -2       439      5151       882        11      5570      5600       898       454
 -1      1744   10    0    1
 -2      5151      5152       881       882      5572      5601       897      5600
 -1      1745   10    0    1
 -2      5152      5153       880       881      5574      5602       896      5601
 -1      1746   10    0    1
 -2      5153      5154       879       880      5576      5603       895      5602
 -1      1747   10    0    1
 -2      5154      5155       878       879      5578      5604       894      5603
 -1      1748   10    0    1
 -2      5155      5156       877       878      5580      5605       893      5604
 -1      1749   10    0    1
 -2      5156      5157       876       877      5582      5606       892      5605
 -1      1750   10    0    1
 -2      5157      5158       875       876      5584      5607       891      5606
 -1      1751   10    0    1
 -2      5158      5159       874       875      5586      5608       890      5607
 -1      1752   10    0    1
 -2      5159      5160       873       874      5588      5609       889      5608
 -1      1753   10    0    1
 -2      5160      5161       872       873      5590      5610       888      5609
 -1      1754   10    0    1
 -2      5161      5162       871       872      5592      5611       887      5610
 -1      1755   10    0    1
 -2      5162      5163       870       871      5594      5612       886      5611
 -1      1756   10    0    1
 -2      5163      5164       869       870      5596      5613       885      5612
 -1      1757   10    0    1
 -2      5164      5165       868       869      5598      5614       884      5613
 -1      1758   10    0    1
 -2      5165       266         6       868      5599       281       883      5614
 -1      1759   10    0    1
 -2        11       882      5615       455       898      6035      6036       483
 -1      1760   10    0    1
 -2       882       881      5616      5615       897      6037      6038      6035
 -1      1761   10    0    1
 -2       881       880      5617      5616       896      6039      6040      6037
 -1      1762   10    0    1
 -2       880       879      5618      5617       895      6041      6042      6039
 -1      1763   10    0    1
 -2       879       878      5619      5618       894      6043      6044      6041
 -1      1764   10    0    1
 -2       878       877      5620      5619       893      6045      6046      6043
 -1      1765   10    0    1
 -2       877       876      5621      5620       892      6047      6048      6045
 -1      1766   10    0    1
 -2       876       875      5622      5621       891      6049      6050      6047
 -1      1767   10    0    1
 -2       875       874      5623      5622       890      6051      6052      6049
 -1      1768   10    0    1
 -2       874       873      5624      5623       889      6053      6054      6051
 -1      1769   10    0    1
 -2       873       872      5625      5624       888      6055      6056      6053
 -1      1770   10    0    1
 -2       872       871      5626      5625       887      6057      6058      6055
 -1      1771   10    0    1
 -2       871       870      5627      5626       886      6059      6060      6057
 -1      1772   10    0    1
 -2       870       869      5628      5627       885      6061      6062      6059
 -1      1773   10    0    1
 -2       869       868      5629      5628       884      6063      6064      6061
 -1      1774   10    0    1
 -2       868         6       899      5629       883       927      6065      6063
 -1      1775   10    0    1
 -2       455      5615      5630       456      6036      6066      6067       484
 -1      1776   10    0    1
 -2      5615      5616      5631      5630      6038      6068      6069      6066
 -1      1777   10    0    1
 -2      5616      5617      5632      5631      6040      6070      6071      6068
 -1      1778   10    0    1
 -2      5617      5618      5633      5632      6042      6072      6073      6070
 -1      1779   10    0    1
 -2      5618      5619      5634      5633      6044      6074      6075      6072
 -1      1780   10    0    1
 -2      5619      5620      5635      5634      6046      6076      6077      6074
 -1      1781   10    0    1
 -2      5620      5621      5636      5635      6048      6078      6079      6076
 -1      1782   10    0    1
 -2      5621      5622      5637      5636      6050      6080      6081      6078
 -1      1783   10    0    1
 -2      5622      5623      5638      5637      6052      6082      6083      6080
 -1      1784   10    0    1
 -2      5623      5624      5639      5638      6054      6084      6085      6082
 -1      1785   10    0    1
 -2      5624      5625      5640      5639      6056      6086      6087      6084
 -1      1786   10    0    1
 -2      5625      5626      5641      5640      6058      6088      6089      6086
 -1      1787   10    0    1
 -2      5626      5627      5642      5641      6060      6090      6091      6088
 -1      1788   10    0    1
 -2      5627      5628      5643      5642      6062      6092      6093      6090
 -1      1789   10    0    1
 -2      5628      5629      5644      5643      6064      6094      6095      6092
 -1      1790   10    0    1
 -2      5629       899       900      5644      6065       928      6096      6094
 -1      1791   10    0    1
 -2       456      5630      5645       457      6067      6097      6098       485
 -1      1792   10    0    1
 -2      5630      5631      5646      5645      6069      6099      6100      6097
 -1      1793   10    0    1
 -2      5631      5632      5647      5646      6071      6101      6102      6099
 -1      1794   10    0    1
 -2      5632      5633      5648      5647      6073      6103      6104      6101
 -1      1795   10    0    1
 -2      5633      5634      5649      5648      6075      6105      6106      6103
 -1      1796   10    0    1
 -2      5634      5635      5650      5649      6077      6107      6108      6105
 -1      1797   10    0    1
 -2      5635      5636      5651      5650      6079      6109      6110      6107
 -1      1798   10    0    1
 -2      5636      5637      5652      5651      6081      6111      6112      6109
 -1      1799   10    0    1
 -2      5637      5638      5653      5652      6083      6113      6114      6111
 -1      1800   10    0    1
 -2      5638      5639      5654      5653      6085      6115      6116      6113
 -1      1801   10    0    1
 -2      5639      5640      5655      5654      6087      6117      6118      6115
 -1      1802   10    0    1
 -2      5640      5641      5656      5655      6089      6119      6120      6117
 -1      1803   10    0    1
 -2      5641      5642      5657      5656      6091      6121      6122      6119
 -1      1804   10    0    1
 -2      5642      5643      5658      5657      6093      6123      6124      6121
 -1      1805   10    0    1
 -2      5643      5644      5659      5658      6095      6125      6126      6123
 -1      1806   10    0    1
 -2      5644       900       901      5659      6096       929      6127      6125
 -1      1807   10    0    1
 -2       457      5645      5660       458      6098      6128      6129       486
 -1      1808   10    0    1
 -2      5645      5646      5661      5660      6100      6130      6131      6128
 -1      1809   10    0    1
 -2      5646      5647      5662      5661      6102      6132      6133      6130
 -1      1810   10    0    1
 -2      5647      5648      5663      5662      6104      6134      6135      6132
 -1      1811   10    0    1
 -2      5648      5649      5664      5663      6106      6136      6137      6134
 -1      1812   10    0    1
 -2      5649      5650      5665      5664      6108      6138      6139      6136
 -1      1813   10    0    1
 -2      5650      5651      5666      5665      6110      6140      6141      6138
 -1      1814   10    0    1
 -2      5651      5652      5667      5666      6112      6142      6143      6140
 -1      1815   10    0    1
 -2      5652      5653      5668      5667      6114      6144      6145      6142
 -1      1816   10    0    1
 -2      5653      5654      5669      5668      6116      6146      6147      6144
 -1      1817   10    0    1
 -2      5654      5655      5670      5669      6118      6148      6149      6146
 -1      1818   10    0    1
 -2      5655      5656      5671      5670      6120      6150      6151      6148
 -1      1819   10    0    1
 -2      5656      5657      5672      5671      6122      6152      6153      6150
 -1      1820   10    0    1
 -2      5657      5658      5673      5672      6124      6154      6155      6152
 -1      1821   10    0    1
 -2      5658      5659      5674      5673      6126      6156      6157      6154
 -1      1822   10    0    1
 -2      5659       901       902      5674      6127       930      6158      6156
 -1      1823   10    0    1
 -2       458      5660      5675       459      6129      6159      6160       487
 -1      1824   10    0    1
 -2      5660      5661      5676      5675      6131      6161      6162      6159
 -1      1825   10    0    1
 -2      5661      5662      5677      5676      6133      6163      6164      6161
 -1      1826   10    0    1
 -2      5662      5663      5678      5677      6135      6165      6166      6163
 -1      1827   10    0    1
 -2      5663      5664      5679      5678      6137      6167      6168      6165
 -1      1828   10    0    1
 -2      5664      5665      5680      5679      6139      6169      6170      6167
 -1      1829   10    0    1
 -2      5665      5666      5681      5680      6141      6171      6172      6169
 -1      1830   10    0    1
 -2      5666      5667      5682      5681      6143      6173      6174      6171
 -1      1831   10    0    1
 -2      5667      5668      5683      5682      6145      6175      6176      6173
 -1      1832   10    0    1
 -2      5668      5669      5684      5683      6147      6177      6178      6175
 -1      1833   10    0    1
 -2      5669      5670      5685      5684      6149      6179      6180      6177
 -1      1834   10    0    1
 -2      5670      5671      5686      5685      6151      6181      6182      6179
 -1      1835   10    0    1
 -2      5671      5672      5687      5686      6153      6183      6184      6181
 -1      1836   10    0    1
 -2      5672      5673      5688      5687      6155      6185      6186      6183
 -1      1837   10    0    1
 -2      5673      5674      5689      5688      6157      6187      6188      6185
 -1      1838   10    0    1
 -2      5674       902       903      5689      6158       931      6189      6187
 -1      1839   10    0    1
 -2       459      5675      5690       460      6160      6190      6191       488
 -1      1840   10    0    1
 -2      5675      5676      5691      5690      6162      6192      6193      6190
 -1      1841   10    0    1
 -2      5676      5677      5692      5691      6164      6194      6195      6192
 -1      1842   10    0    1
 -2      5677      5678      5693      5692      6166      6196      6197      6194
 -1      1843   10    0    1
 -2      5678      5679      5694      5693      6168      6198      6199      6196
 -1      1844   10    0    1
 -2      5679      5680      5695      5694      6170      6200      6201      6198
 -1      1845   10    0    1
 -2      5680      5681      5696      5695      6172      6202      6203      6200
 -1      1846   10    0    1
 -2      5681      5682      5697      5696      6174      6204      6205      6202
 -1      1847   10    0    1
 -2      5682      5683      5698      5697      6176      6206      6207      6204
 -1      1848   10    0    1
 -2      5683      5684      5699      5698      6178      6208      6209      6206
 -1      1849   10    0    1
 -2      5684      5685      5700      5699      6180      6210      6211      6208
 -1      1850   10    0    1
 -2      5685      5686      5701      5700      6182      6212      6213      6210
 -1      1851   10    0    1
 -2      5686      5687      5702      5701      6184      6214      6215      6212
 -1      1852   10    0    1
 -2      5687      5688      5703      5702      6186      6216      6217      6214
 -1      1853   10    0    1
 -2      5688      5689      5704      5703      6188      6218      6219      6216
 -1      1854   10    0    1
 -2      5689       903       904      5704      6189       932      6220      6218
 -1      1855   10    0    1
 -2       460      5690      5705       461      6191      6221      6222       489
 -1      1856   10    0    1
 -2      5690      5691      5706      5705      6193      6223      6224      6221
 -1      1857   10    0    1
 -2      5691      5692      5707      5706      6195      6225      6226      6223
 -1      1858   10    0    1
 -2      5692      5693      5708      5707      6197      6227      6228      6225
 -1      1859   10    0    1
 -2      5693      5694      5709      5708      6199      6229      6230      6227
 -1      1860   10    0    1
 -2      5694      5695      5710      5709      6201      6231      6232      6229
 -1      1861   10    0    1
 -2      5695      5696      5711      5710      6203      6233      6234      6231
 -1      1862   10    0    1
 -2      5696      5697      5712      5711      6205      6235      6236      6233
 -1      1863   10    0    1
 -2      5697      5698      5713      5712      6207      6237      6238      6235
 -1      1864   10    0    1
 -2      5698      5699      5714      5713      6209      6239      6240      6237
 -1      1865   10    0    1
 -2      5699      5700      5715      5714      6211      6241      6242      6239
 -1      1866   10    0    1
 -2      5700      5701      5716      5715      6213      6243      6244      6241
 -1      1867   10    0    1
 -2      5701      5702      5717      5716      6215      6245      6246      6243
 -1      1868   10    0    1
 -2      5702      5703      5718      5717      6217      6247      6248      6245
 -1      1869   10    0    1
 -2      5703      5704      5719      5718      6219      6249      6250      6247
 -1      1870   10    0    1
 -2      5704       904       905      5719      6220       933      6251      6249
 -1      1871   10    0    1
 -2       461      5705      5720       462      6222      6252      6253       490
 -1      1872   10    0    1
 -2      5705      5706      5721      5720      6224      6254      6255      6252
 -1      1873   10    0    1
 -2      5706      5707      5722      5721      6226      6256      6257      6254
 -1      1874   10    0    1
 -2      5707      5708      5723      5722      6228      6258      6259      6256
 -1      1875   10    0    1
 -2      5708      5709      5724      5723      6230      6260      6261      6258
 -1      1876   10    0    1
 -2      5709      5710      5725      5724      6232      6262      6263      6260
 -1      1877   10    0    1
 -2      5710      5711      5726      5725      6234      6264      6265      6262
 -1      1878   10    0    1
 -2      5711      5712      5727      5726      6236      6266      6267      6264
 -1      1879   10    0    1
 -2      5712      5713      5728      5727      6238      6268      6269      6266
 -1      1880   10    0    1
 -2      5713      5714      5729      5728      6240      6270      6271      6268
 -1      1881   10    0    1
 -2      5714      5715      5730      5729      6242      6272      6273      6270
 -1      1882   10    0    1
 -2      5715      5716      5731      5730      6244      6274      6275      6272
 -1      1883   10    0    1
 -2      5716      5717      5732      5731      6246      6276      6277      6274
 -1      1884   10    0    1
 -2      5717      5718      5733      5732      6248      6278      6279      6276
 -1      1885   10    0    1
 -2      5718      5719      5734      5733      6250      6280      6281      6278
 -1      1886   10    0    1
 -2      5719       905       906      5734      6251       934      6282      6280
 -1      1887   10    0    1
 -2       462      5720      5735       463      6253      6283      6284       491
 -1      1888   10    0    1
 -2      5720      5721      5736      5735      6255      6285      6286      6283
 -1      1889   10    0    1
 -2      5721      5722      5737      5736      6257      6287      6288      6285
 -1      1890   10    0    1
 -2      5722      5723      5738      5737      6259      6289      6290      6287
 -1      1891   10    0    1
 -2      5723      5724      5739      5738      6261      6291      6292      6289
 -1      1892   10    0    1
 -2      5724      5725      5740      5739      6263      6293      6294      6291
 -1      1893   10    0    1
 -2      5725      5726      5741      5740      6265      6295      6296      6293
 -1      1894   10    0    1
 -2      5726      5727      5742      5741      6267      6297      6298      6295
 -1      1895   10    0    1
 -2      5727      5728      5743      5742      6269      6299      6300      6297
 -1      1896   10    0    1
 -2      5728      5729      5744      5743      6271      6301      6302      6299
 -1      1897   10    0    1
 -2      5729      5730      5745      5744      6273      6303      6304      6301
 -1      1898   10    0    1
 -2      5730      5731      5746      5745      6275      6305      6306      6303
 -1      1899   10    0    1
 -2      5731      5732      5747      5746      6277      6307      6308      6305
 -1      1900   10    0    1
 -2      5732      5733      5748      5747      6279      6309      6310      6307
 -1      1901   10    0    1
 -2      5733      5734      5749      5748      6281      6311      6312      6309
 -1      1902   10    0    1
 -2      5734       906       907      5749      6282       935      6313      6311
 -1      1903   10    0    1
 -2       463      5735      5750       464      6284      6314      6315       492
 -1      1904   10    0    1
 -2      5735      5736      5751      5750      6286      6316      6317      6314
 -1      1905   10    0    1
 -2      5736      5737      5752      5751      6288      6318      6319      6316
 -1      1906   10    0    1
 -2      5737      5738      5753      5752      6290      6320      6321      6318
 -1      1907   10    0    1
 -2      5738      5739      5754      5753      6292      6322      6323      6320
 -1      1908   10    0    1
 -2      5739      5740      5755      5754      6294      6324      6325      6322
 -1      1909   10    0    1
 -2      5740      5741      5756      5755      6296      6326      6327      6324
 -1      1910   10    0    1
 -2      5741      5742      5757      5756      6298      6328      6329      6326
 -1      1911   10    0    1
 -2      5742      5743      5758      5757      6300      6330      6331      6328
 -1      1912   10    0    1
 -2      5743      5744      5759      5758      6302      6332      6333      6330
 -1      1913   10    0    1
 -2      5744      5745      5760      5759      6304      6334      6335      6332
 -1      1914   10    0    1
 -2      5745      5746      5761      5760      6306      6336      6337      6334
 -1      1915   10    0    1
 -2      5746      5747      5762      5761      6308      6338      6339      6336
 -1      1916   10    0    1
 -2      5747      5748      5763      5762      6310      6340      6341      6338
 -1      1917   10    0    1
 -2      5748      5749      5764      5763      6312      6342      6343      6340
 -1      1918   10    0    1
 -2      5749       907       908      5764      6313       936      6344      6342
 -1      1919   10    0    1
 -2       464      5750      5765       465      6315      6345      6346       493
 -1      1920   10    0    1
 -2      5750      5751      5766      5765      6317      6347      6348      6345
 -1      1921   10    0    1
 -2      5751      5752      5767      5766      6319      6349      6350      6347
 -1      1922   10    0    1
 -2      5752      5753      5768      5767      6321      6351      6352      6349
 -1      1923   10    0    1
 -2      5753      5754      5769      5768      6323      6353      6354      6351
 -1      1924   10    0    1
 -2      5754      5755      5770      5769      6325      6355      6356      6353
 -1      1925   10    0    1
 -2      5755      5756      5771      5770      6327      6357      6358      6355
 -1      1926   10    0    1
 -2      5756      5757      5772      5771      6329      6359      6360      6357
 -1      1927   10    0    1
 -2      5757      5758      5773      5772      6331      6361      6362      6359
 -1      1928   10    0    1
 -2      5758      5759      5774      5773      6333      6363      6364      6361
 -1      1929   10    0    1
 -2      5759      5760      5775      5774      6335      6365      6366      6363
 -1      1930   10    0    1
 -2      5760      5761      5776      5775      6337      6367      6368      6365
 -1      1931   10    0    1
 -2      5761      5762      5777      5776      6339      6369      6370      6367
 -1      1932   10    0    1
 -2      5762      5763      5778      5777      6341      6371      6372      6369
 -1      1933   10    0    1
 -2      5763      5764      5779      5778      6343      6373      6374      6371
 -1      1934   10    0    1
 -2      5764       908       909      5779      6344       937      6375      6373
 -1      1935   10    0    1
 -2       465      5765      5780       466      6346      6376      6377       494
 -1      1936   10    0    1
 -2      5765      5766      5781      5780      6348      6378      6379      6376
 -1      1937   10    0    1
 -2      5766      5767      5782      5781      6350      6380      6381      6378
 -1      1938   10    0    1
 -2      5767      5768      5783      5782      6352      6382      6383      6380
 -1      1939   10    0    1
 -2      5768      5769      5784      5783      6354      6384      6385      6382
 -1      1940   10    0    1
 -2      5769      5770      5785      5784      6356      6386      6387      6384
 -1      1941   10    0    1
 -2      5770      5771      5786      5785      6358      6388      6389      6386
 -1      1942   10    0    1
 -2      5771      5772      5787      5786      6360      6390      6391      6388
 -1      1943   10    0    1
 -2      5772      5773      5788      5787      6362      6392      6393      6390
 -1      1944   10    0    1
 -2      5773      5774      5789      5788      6364      6394      6395      6392
 -1      1945   10    0    1
 -2      5774      5775      5790      5789      6366      6396      6397      6394
 -1      1946   10    0    1
 -2      5775      5776      5791      5790      6368      6398      6399      6396
 -1      1947   10    0    1
 -2      5776      5777      5792      5791      6370      6400      6401      6398
 -1      1948   10    0    1
 -2      5777      5778      5793      5792      6372      6402      6403      6400
 -1      1949   10    0    1
 -2      5778      5779      5794      5793      6374      6404      6405      6402
 -1      1950   10    0    1
 -2      5779       909       910      5794      6375       938      6406      6404
 -1      1951   10    0    1
 -2       466      5780      5795       467      6377      6407      6408       495
 -1      1952   10    0    1
 -2      5780      5781      5796      5795      6379      6409      6410      6407
 -1      1953   10    0    1
 -2      5781      5782      5797      5796      6381      6411      6412      6409
 -1      1954   10    0    1
 -2      5782      5783      5798      5797      6383      6413      6414      6411
 -1      1955   10    0    1
 -2      5783      5784      5799      5798      6385      6415      6416      6413
 -1      1956   10    0    1
 -2      5784      5785      5800      5799      6387      6417      6418      6415
 -1      1957   10    0    1
 -2      5785      5786      5801      5800      6389      6419      6420      6417
 -1      1958   10    0    1
 -2      5786      5787      5802      5801      6391      6421      6422      6419
 -1      1959   10    0    1
 -2      5787      5788      5803      5802      6393      6423      6424      6421
 -1      1960   10    0    1
 -2      5788      5789      5804      5803      6395      6425      6426      6423
 -1      1961   10    0    1
 -2      5789      5790      5805      5804      6397      6427      6428      6425
 -1      1962   10    0    1
 -2      5790      5791      5806      5805      6399      6429      6430      6427
 -1      1963   10    0    1
 -2      5791      5792      5807      5806      6401      6431      6432      6429
 -1      1964   10    0    1
 -2      5792      5793      5808      5807      6403      6433      6434      6431
 -1      1965   10    0    1
 -2      5793      5794      5809      5808      6405      6435      6436      6433
 -1      1966   10    0    1
 -2      5794       910       911      5809      6406       939      6437      6435
 -1      1967   10    0    1
 -2       467      5795      5810       468      6408      6438      6439       496
 -1      1968   10    0    1
 -2      5795      5796      5811      5810      6410      6440      6441      6438
 -1      1969   10    0    1
 -2      5796      5797      5812      5811      6412      6442      6443      6440
 -1      1970   10    0    1
 -2      5797      5798      5813      5812      6414      6444      6445      6442
 -1      1971   10    0    1
 -2      5798      5799      5814      5813      6416      6446      6447      6444
 -1      1972   10    0    1
 -2      5799      5800      5815      5814      6418      6448      6449      6446
 -1      1973   10    0    1
 -2      5800      5801      5816      5815      6420      6450      6451      6448
 -1      1974   10    0    1
 -2      5801      5802      5817      5816      6422      6452      6453      6450
 -1      1975   10    0    1
 -2      5802      5803      5818      5817      6424      6454      6455      6452
 -1      1976   10    0    1
 -2      5803      5804      5819      5818      6426      6456      6457      6454
 -1      1977   10    0    1
 -2      5804      5805      5820      5819      6428      6458      6459      6456
 -1      1978   10    0    1
 -2      5805      5806      5821      5820      6430      6460      6461      6458
 -1      1979   10    0    1
 -2      5806      5807      5822      5821      6432      6462      6463      6460
 -1      1980   10    0    1
 -2      5807      5808      5823      5822      6434      6464      6465      6462
 -1      1981   10    0    1
 -2      5808      5809      5824      5823      6436      6466      6467      6464
 -1      1982   10    0    1
 -2      5809       911       912      5824      6437       940      6468      6466
 -1      1983   10    0    1
 -2       468      5810      5825       469      6439      6469      6470       497
 -1      1984   10    0    1
 -2      5810      5811      5826      5825      6441      6471      6472      6469
 -1      1985   10    0    1
 -2      5811      5812      5827      5826      6443      6473      6474      6471
 -1      1986   10    0    1
 -2      5812      5813      5828      5827      6445      6475      6476      6473
 -1      1987   10    0    1
 -2      5813      5814      5829      5828      6447      6477      6478      6475
 -1      1988   10    0    1
 -2      5814      5815      5830      5829      6449      6479      6480      6477
 -1      1989   10    0    1
 -2      5815      5816      5831      5830      6451      6481      6482      6479
 -1      1990   10    0    1
 -2      5816      5817      5832      5831      6453      6483      6484      6481
 -1      1991   10    0    1
 -2      5817      5818      5833      5832      6455      6485      6486      6483
 -1      1992   10    0    1
 -2      5818      5819      5834      5833      6457      6487      6488      6485
 -1      1993   10    0    1
 -2      5819      5820      5835      5834      6459      6489      6490      6487
 -1      1994   10    0    1
 -2      5820      5821      5836      5835      6461      6491      6492      6489
 -1      1995   10    0    1
 -2      5821      5822      5837      5836      6463      6493      6494      6491
 -1      1996   10    0    1
 -2      5822      5823      5838      5837      6465      6495      6496      6493
 -1      1997   10    0    1
 -2      5823      5824      5839      5838      6467      6497      6498      6495
 -1      1998   10    0    1
 -2      5824       912       913      5839      6468       941      6499      6497
 -1      1999   10    0    1
 -2       469      5825      5840       470      6470      6500      6501       498
 -1      2000   10    0    1
 -2      5825      5826      5841      5840      6472      6502      6503      6500
 -1      2001   10    0    1
 -2      5826      5827      5842      5841      6474      6504      6505      6502
 -1      2002   10    0    1
 -2      5827      5828      5843      5842      6476      6506      6507      6504
 -1      2003   10    0    1
 -2      5828      5829      5844      5843      6478      6508      6509      6506
 -1      2004   10    0    1
 -2      5829      5830      5845      5844      6480      6510      6511      6508
 -1      2005   10    0    1
 -2      5830      5831      5846      5845      6482      6512      6513      6510
 -1      2006   10    0    1
 -2      5831      5832      5847      5846      6484      6514      6515      6512
 -1      2007   10    0    1
 -2      5832      5833      5848      5847      6486      6516      6517      6514
 -1      2008   10    0    1
 -2      5833      5834      5849      5848      6488      6518      6519      6516
 -1      2009   10    0    1
 -2      5834      5835      5850      5849      6490      6520      6521      6518
 -1      2010   10    0    1
 -2      5835      5836      5851      5850      6492      6522      6523      6520
 -1      2011   10    0    1
 -2      5836      5837      5852      5851      6494      6524      6525      6522
 -1      2012   10    0    1
 -2      5837      5838      5853      5852      6496      6526      6527      6524
 -1      2013   10    0    1
 -2      5838      5839      5854      5853      6498      6528      6529      6526
 -1      2014   10    0    1
 -2      5839       913       914      5854      6499       942      6530      6528
 -1      2015   10    0    1
 -2       470      5840      5855       471      6501      6531      6532       499
 -1      2016   10    0    1
 -2      5840      5841      5856      5855      6503      6533      6534      6531
 -1      2017   10    0    1
 -2      5841      5842      5857      5856      6505      6535      6536      6533
 -1      2018   10    0    1
 -2      5842      5843      5858      5857      6507      6537      6538      6535
 -1      2019   10    0    1
 -2      5843      5844      5859      5858      6509      6539      6540      6537
 -1      2020   10    0    1
 -2      5844      5845      5860      5859      6511      6541      6542      6539
 -1      2021   10    0    1
 -2      5845      5846      5861      5860      6513      6543      6544      6541
 -1      2022   10    0    1
 -2      5846      5847      5862      5861      6515      6545      6546      6543
 -1      2023   10    0    1
 -2      5847      5848      5863      5862      6517      6547      6548      6545
 -1      2024   10    0    1
 -2      5848      5849      5864      5863      6519      6549      6550      6547
 -1      2025   10    0    1
 -2      5849      5850      5865      5864      6521      6551      6552      6549
 -1      2026   10    0    1
 -2      5850      5851      5866      5865      6523      6553      6554      6551
 -1      2027   10    0    1
 -2      5851      5852      5867      5866      6525      6555      6556      6553
 -1      2028   10    0    1
 -2      5852      5853      5868      5867      6527      6557      6558      6555
 -1      2029   10    0    1
 -2      5853      5854      5869      5868      6529      6559      6560      6557
 -1      2030   10    0    1
 -2      5854       914       915      5869      6530       943      6561      6559
 -1      2031   10    0    1
 -2       471      5855      5870       472      6532      6562      6563       500
 -1      2032   10    0    1
 -2      5855      5856      5871      5870      6534      6564      6565      6562
 -1      2033   10    0    1
 -2      5856      5857      5872      5871      6536      6566      6567      6564
 -1      2034   10    0    1
 -2      5857      5858      5873      5872      6538      6568      6569      6566
 -1      2035   10    0    1
 -2      5858      5859      5874      5873      6540      6570      6571      6568
 -1      2036   10    0    1
 -2      5859      5860      5875      5874      6542      6572      6573      6570
 -1      2037   10    0    1
 -2      5860      5861      5876      5875      6544      6574      6575      6572
 -1      2038   10    0    1
 -2      5861      5862      5877      5876      6546      6576      6577      6574
 -1      2039   10    0    1
 -2      5862      5863      5878      5877      6548      6578      6579      6576
 -1      2040   10    0    1
 -2      5863      5864      5879      5878      6550      6580      6581      6578
 -1      2041   10    0    1
 -2      5864      5865      5880      5879      6552      6582      6583      6580
 -1      2042   10    0    1
 -2      5865      5866      5881      5880      6554      6584      6585      6582
 -1      2043   10    0    1
 -2      5866      5867      5882      5881      6556      6586      6587      6584
 -1      2044   10    0    1
 -2      5867      5868      5883      5882      6558      6588      6589      6586
 -1      2045   10    0    1
 -2      5868      5869      5884      5883      6560      6590      6591      6588
 -1      2046   10    0    1
 -2      5869       915       916      5884      6561       944      6592      6590
 -1      2047   10    0    1
 -2       472      5870      5885       473      6563      6593      6594       501
 -1      2048   10    0    1
 -2      5870      5871      5886      5885      6565      6595      6596      6593
 -1      2049   10    0    1
 -2      5871      5872      5887      5886      6567      6597      6598      6595
 -1      2050   10    0    1
 -2      5872      5873      5888      5887      6569      6599      6600      6597
 -1      2051   10    0    1
 -2      5873      5874      5889      5888      6571      6601      6602      6599
 -1      2052   10    0    1
 -2      5874      5875      5890      5889      6573      6603      6604      6601
 -1      2053   10    0    1
 -2      5875      5876      5891      5890      6575      6605      6606      6603
 -1      2054   10    0    1
 -2      5876      5877      5892      5891      6577      6607      6608      6605
 -1      2055   10    0    1
 -2      5877      5878      5893      5892      6579      6609      6610      6607
 -1      2056   10    0    1
 -2      5878      5879      5894      5893      6581      6611      6612      6609
 -1      2057   10    0    1
 -2      5879      5880      5895      5894      6583      6613      6614      6611
 -1      2058   10    0    1
 -2      5880      5881      5896      5895      6585      6615      6616      6613
 -1      2059   10    0    1
 -2      5881      5882      5897      5896      6587      6617      6618      6615
 -1      2060   10    0    1
 -2      5882      5883      5898      5897      6589      6619      6620      6617
 -1      2061   10    0    1
 -2      5883      5884      5899      5898      6591      6621      6622      6619
 -1      2062   10    0    1
 -2      5884       916       917      5899      6592       945      6623      6621
 -1      2063   10    0    1
 -2       473      5885      5900       474      6594      6624      6625       502
 -1      2064   10    0    1
 -2      5885      5886      5901      5900      6596      6626      6627      6624
 -1      2065   10    0    1
 -2      5886      5887      5902      5901      6598      6628      6629      6626
 -1      2066   10    0    1
 -2      5887      5888      5903      5902      6600      6630      6631      6628
 -1      2067   10    0    1
 -2      5888      5889      5904      5903      6602      6632      6633      6630
 -1      2068   10    0    1
 -2      5889      5890      5905      5904      6604      6634      6635      6632
 -1      2069   10    0    1
 -2      5890      5891      5906      5905      6606      6636      6637      6634
 -1      2070   10    0    1
 -2      5891      5892      5907      5906      6608      6638      6639      6636
 -1      2071   10    0    1
 -2      5892      5893      5908      5907      6610      6640      6641      6638
 -1      2072   10    0    1
 -2      5893      5894      5909      5908      6612      6642      6643      6640
 -1      2073   10    0    1
 -2      5894      5895      5910      5909      6614      6644      6645      6642
 -1      2074   10    0    1
 -2      5895      5896      5911      5910      6616      6646      6647      6644
 -1      2075   10    0    1
 -2      5896      5897      5912      5911      6618      6648      6649      6646
 -1      2076   10    0    1
 -2      5897      5898      5913      5912      6620      6650      6651      6648
 -1      2077   10    0    1
 -2      5898      5899      5914      5913      6622      6652      6653      6650
 -1      2078   10    0    1
 -2      5899       917       918      5914      6623       946      6654      6652
 -1      2079   10    0    1
 -2       474      5900      5915       475      6625      6655      6656       503
 -1      2080   10    0    1
 -2      5900      5901      5916      5915      6627      6657      6658      6655
 -1      2081   10    0    1
 -2      5901      5902      5917      5916      6629      6659      6660      6657
 -1      2082   10    0    1
 -2      5902      5903      5918      5917      6631      6661      6662      6659
 -1      2083   10    0    1
 -2      5903      5904      5919      5918      6633      6663      6664      6661
 -1      2084   10    0    1
 -2      5904      5905      5920      5919      6635      6665      6666      6663
 -1      2085   10    0    1
 -2      5905      5906      5921      5920      6637      6667      6668      6665
 -1      2086   10    0    1
 -2      5906      5907      5922      5921      6639      6669      6670      6667
 -1      2087   10    0    1
 -2      5907      5908      5923      5922      6641      6671      6672      6669
 -1      2088   10    0    1
 -2      5908      5909      5924      5923      6643      6673      6674      6671
 -1      2089   10    0    1
 -2      5909      5910      5925      5924      6645      6675      6676      6673
 -1      2090   10    0    1
 -2      5910      5911      5926      5925      6647      6677      6678      6675
 -1      2091   10    0    1
 -2      5911      5912      5927      5926      6649      6679      6680      6677
 -1      2092   10    0    1
 -2      5912      5913      5928      5927      6651      6681      6682      6679
 -1      2093   10    0    1
 -2      5913      5914      5929      5928      6653      6683      6684      6681
 -1      2094   10    0    1
 -2      5914       918       919      5929      6654       947      6685      6683
 -1      2095   10    0    1
 -2       475      5915      5930       476      6656      6686      6687       504
 -1      2096   10    0    1
 -2      5915      5916      5931      5930      6658      6688      6689      6686
 -1      2097   10    0    1
 -2      5916      5917      5932      5931      6660      6690      6691      6688
 -1      2098   10    0    1
 -2      5917      5918      5933      5932      6662      6692      6693      6690
 -1      2099   10    0    1
 -2      5918      5919      5934      5933      6664      6694      6695      6692
 -1      2100   10    0    1
 -2      5919      5920      5935      5934      6666      6696      6697      6694
 -1      2101   10    0    1
 -2      5920      5921      5936      5935      6668      6698      6699      6696
 -1      2102   10    0    1
 -2      5921      5922      5937      5936      6670      6700      6701      6698
 -1      2103   10    0    1
 -2      5922      5923      5938      5937      6672      6702      6703      6700
 -1      2104   10    0    1
 -2      5923      5924      5939      5938      6674      6704      6705      6702
 -1      2105   10    0    1
 -2      5924      5925      5940      5939      6676      6706      6707      6704
 -1      2106   10    0    1
 -2      5925      5926      5941      5940      6678      6708      6709      6706
 -1      2107   10    0    1
 -2      5926      5927      5942      5941      6680      6710      6711      6708
 -1      2108   10    0    1
 -2      5927      5928      5943      5942      6682      6712      6713      6710
 -1      2109   10    0    1
 -2      5928      5929      5944      5943      6684      6714      6715      6712
 -1      2110   10    0    1
 -2      5929       919       920      5944      6685       948      6716      6714
 -1      2111   10    0    1
 -2       476      5930      5945       477      6687      6717      6718       505
 -1      2112   10    0    1
 -2      5930      5931      5946      5945      6689      6719      6720      6717
 -1      2113   10    0    1
 -2      5931      5932      5947      5946      6691      6721      6722      6719
 -1      2114   10    0    1
 -2      5932      5933      5948      5947      6693      6723      6724      6721
 -1      2115   10    0    1
 -2      5933      5934      5949      5948      6695      6725      6726      6723
 -1      2116   10    0    1
 -2      5934      5935      5950      5949      6697      6727      6728      6725
 -1      2117   10    0    1
 -2      5935      5936      5951      5950      6699      6729      6730      6727
 -1      2118   10    0    1
 -2      5936      5937      5952      5951      6701      6731      6732      6729
 -1      2119   10    0    1
 -2      5937      5938      5953      5952      6703      6733      6734      6731
 -1      2120   10    0    1
 -2      5938      5939      5954      5953      6705      6735      6736      6733
 -1      2121   10    0    1
 -2      5939      5940      5955      5954      6707      6737      6738      6735
 -1      2122   10    0    1
 -2      5940      5941      5956      5955      6709      6739      6740      6737
 -1      2123   10    0    1
 -2      5941      5942      5957      5956      6711      6741      6742      6739
 -1      2124   10    0    1
 -2      5942      5943      5958      5957      6713      6743      6744      6741
 -1      2125   10    0    1
 -2      5943      5944      5959      5958      6715      6745      6746      6743
 -1      2126   10    0    1
 -2      5944       920       921      5959      6716       949      6747      6745
 -1      2127   10    0    1
 -2       477      5945      5960       478      6718      6748      6749       506
 -1      2128   10    0    1
 -2      5945      5946      5961      5960      6720      6750      6751      6748
 -1      2129   10    0    1
 -2      5946      5947      5962      5961      6722      6752      6753      6750
 -1      2130   10    0    1
 -2      5947      5948      5963      5962      6724      6754      6755      6752
 -1      2131   10    0    1
 -2      5948      5949      5964      5963      6726      6756      6757      6754
 -1      2132   10    0    1
 -2      5949      5950      5965      5964      6728      6758      6759      6756
 -1      2133   10    0    1
 -2      5950      5951      5966      5965      6730      6760      6761      6758
 -1      2134   10    0    1
 -2      5951      5952      5967      5966      6732      6762      6763      6760
 -1      2135   10    0    1
 -2      5952      5953      5968      5967      6734      6764      6765      6762
 -1      2136   10    0    1
 -2      5953      5954      5969      5968      6736      6766      6767      6764
 -1      2137   10    0    1
 -2      5954      5955      5970      5969      6738      6768      6769      6766
 -1      2138   10    0    1
 -2      5955      5956      5971      5970      6740      6770      6771      6768
 -1      2139   10    0    1
 -2      5956      5957      5972      5971      6742      6772      6773      6770
 -1      2140   10    0    1
 -2      5957      5958      5973      5972      6744      6774      6775      6772
 -1      2141   10    0    1
 -2      5958      5959      5974      5973      6746      6776      6777      6774
 -1      2142   10    0    1
 -2      5959       921       922      5974      6747       950      6778      6776
 -1      2143   10    0    1
 -2       478      5960      5975       479      6749      6779      6780       507
 -1      2144   10    0    1
 -2      5960      5961      5976      5975      6751      6781      6782      6779
 -1      2145   10    0    1
 -2      5961      5962      5977      5976      6753      6783      6784      6781
 -1      2146   10    0    1
 -2      5962      5963      5978      5977      6755      6785      6786      6783
 -1      2147   10    0    1
 -2      5963      5964      5979      5978      6757      6787      6788      6785
 -1      2148   10    0    1
 -2      5964      5965      5980      5979      6759      6789      6790      6787
 -1      2149   10    0    1
 -2      5965      5966      5981      5980      6761      6791      6792      6789
 -1      2150   10    0    1
 -2      5966      5967      5982      5981      6763      6793      6794      6791
 -1      2151   10    0    1
 -2      5967      5968      5983      5982      6765      6795      6796      6793
 -1      2152   10    0    1
 -2      5968      5969      5984      5983      6767      6797      6798      6795
 -1      2153   10    0    1
 -2      5969      5970      5985      5984      6769      6799      6800      6797
 -1      2154   10    0    1
 -2      5970      5971      5986      5985      6771      6801      6802      6799
 -1      2155   10    0    1
 -2      5971      5972      5987      5986      6773      6803      6804      6801
 -1      2156   10    0    1
 -2      5972      5973      5988      5987      6775      6805      6806      6803
 -1      2157   10    0    1
 -2      5973      5974      5989      5988      6777      6807      6808      6805
 -1      2158   10    0    1
 -2      5974       922       923      5989      6778       951      6809      6807
 -1      2159   10    0    1
 -2       479      5975      5990       480      6780      6810      6811       508
 -1      2160   10    0    1
 -2      5975      5976      5991      5990      6782      6812      6813      6810
 -1      2161   10    0    1
 -2      5976      5977      5992      5991      6784      6814      6815      6812
 -1      2162   10    0    1
 -2      5977      5978      5993      5992      6786      6816      6817      6814
 -1      2163   10    0    1
 -2      5978      5979      5994      5993      6788      6818      6819      6816
 -1      2164   10    0    1
 -2      5979      5980      5995      5994      6790      6820      6821      6818
 -1      2165   10    0    1
 -2      5980      5981      5996      5995      6792      6822      6823      6820
 -1      2166   10    0    1
 -2      5981      5982      5997      5996      6794      6824      6825      6822
 -1      2167   10    0    1
 -2      5982      5983      5998      5997      6796      6826      6827      6824
 -1      2168   10    0    1
 -2      5983      5984      5999      5998      6798      6828      6829      6826
 -1      2169   10    0    1
 -2      5984      5985      6000      5999      6800      6830      6831      6828
 -1      2170   10    0    1
 -2      5985      5986      6001      6000      6802      6832      6833      6830
 -1      2171   10    0    1
 -2      5986      5987      6002      6001      6804      6834      6835      6832
 -1      2172   10    0    1
 -2      5987      5988      6003      6002      6806      6836      6837      6834
 -1      2173   10    0    1
 -2      5988      5989      6004      6003      6808      6838      6839      6836
 -1      2174   10    0    1
 -2      5989       923       924      6004      6809       952      6840      6838
 -1      2175   10    0    1
 -2       480      5990      6005       481      6811      6841      6842       509
 -1      2176   10    0    1
 -2      5990      5991      6006      6005      6813      6843      6844      6841
 -1      2177   10    0    1
 -2      5991      5992      6007      6006      6815      6845      6846      6843
 -1      2178   10    0    1
 -2      5992      5993      6008      6007      6817      6847      6848      6845
 -1      2179   10    0    1
 -2      5993      5994      6009      6008      6819      6849      6850      6847
 -1      2180   10    0    1
 -2      5994      5995      6010      6009      6821      6851      6852      6849
 -1      2181   10    0    1
 -2      5995      5996      6011      6010      6823      6853      6854      6851
 -1      2182   10    0    1
 -2      5996      5997      6012      6011      6825      6855      6856      6853
 -1      2183   10    0    1
 -2      5997      5998      6013      6012      6827      6857      6858      6855
 -1      2184   10    0    1
 -2      5998      5999      6014      6013      6829      6859      6860      6857
 -1      2185   10    0    1
 -2      5999      6000      6015      6014      6831      6861      6862      6859
 -1      2186   10    0    1
 -2      6000      6001      6016      6015      6833      6863      6864      6861
 -1      2187   10    0    1
 -2      6001      6002      6017      6016      6835      6865      6866      6863
 -1      2188   10    0    1
 -2      6002      6003      6018      6017      6837      6867      6868      6865
 -1      2189   10    0    1
 -2      6003      6004      6019      6018      6839      6869      6870      6867
 -1      2190   10    0    1
 -2      6004       924       925      6019      6840       953      6871      6869
 -1      2191   10    0    1
 -2       481      6005      6020       482      6842      6872      6873       510
 -1      2192   10    0    1
 -2      6005      6006      6021      6020      6844      6874      6875      6872
 -1      2193   10    0    1
 -2      6006      6007      6022      6021      6846      6876      6877      6874
 -1      2194   10    0    1
 -2      6007      6008      6023      6022      6848      6878      6879      6876
 -1      2195   10    0    1
 -2      6008      6009      6024      6023      6850      6880      6881      6878
 -1      2196   10    0    1
 -2      6009      6010      6025      6024      6852      6882      6883      6880
 -1      2197   10    0    1
 -2      6010      6011      6026      6025      6854      6884      6885      6882
 -1      2198   10    0    1
 -2      6011      6012      6027      6026      6856      6886      6887      6884
 -1      2199   10    0    1
 -2      6012      6013      6028      6027      6858      6888      6889      6886
 -1      2200   10    0    1
 -2      6013      6014      6029      6028      6860      6890      6891      6888
 -1      2201   10    0    1
 -2      6014      6015      6030      6029      6862      6892      6893      6890
 -1      2202   10    0    1
 -2      6015      6016      6031      6030      6864      6894      6895      6892
 -1      2203   10    0    1
 -2      6016      6017      6032      6031      6866      6896      6897      6894
 -1      2204   10    0    1
 -2      6017      6018      6033      6032      6868      6898      6899      6896
 -1      2205   10    0    1
 -2      6018      6019      6034      6033      6870      6900      6901      6898
 -1      2206   10    0    1
 -2      6019       925       926      6034      6871       954      6902      6900
 -1      2207   10    0    1
 -2       482      6020       512        12      6873      6903       527       511
 -1      2208   10    0    1
 -2      6020      6021       513       512      6875      6904       528      6903
 -1      2209   10    0    1
 -2      6021      6022       514       513      6877      6905       529      6904
 -1      2210   10    0    1
 -2      6022      6023       515       514      6879      6906       530      6905
 -1      2211   10    0    1
 -2      6023      6024       516       515      6881      6907       531      6906
 -1      2212   10    0    1
 -2      6024      6025       517       516      6883      6908       532      6907
 -1      2213   10    0    1
 -2      6025      6026       518       517      6885      6909       533      6908
 -1      2214   10    0    1
 -2      6026      6027       519       518      6887      6910       534      6909
 -1      2215   10    0    1
 -2      6027      6028       520       519      6889      6911       535      6910
 -1      2216   10    0    1
 -2      6028      6029       521       520      6891      6912       536      6911
 -1      2217   10    0    1
 -2      6029      6030       522       521      6893      6913       537      6912
 -1      2218   10    0    1
 -2      6030      6031       523       522      6895      6914       538      6913
 -1      2219   10    0    1
 -2      6031      6032       524       523      6897      6915       539      6914
 -1      2220   10    0    1
 -2      6032      6033       525       524      6899      6916       540      6915
 -1      2221   10    0    1
 -2      6033      6034       526       525      6901      6917       541      6916
 -1      2222   10    0    1
 -2      6034       926        13       526      6902       955       542      6917
 -1      2223   10    0    1
 -2        13       926      6918       543       955      7310      7311       557
 -1      2224   10    0    1
 -2       926       925      6919      6918       954      7312      7313      7310
 -1      2225   10    0    1
 -2       925       924      6920      6919       953      7314      7315      7312
 -1      2226   10    0    1
 -2       924       923      6921      6920       952      7316      7317      7314
 -1      2227   10    0    1
 -2       923       922      6922      6921       951      7318      7319      7316
 -1      2228   10    0    1
 -2       922       921      6923      6922       950      7320      7321      7318
 -1      2229   10    0    1
 -2       921       920      6924      6923       949      7322      7323      7320
 -1      2230   10    0    1
 -2       920       919      6925      6924       948      7324      7325      7322
 -1      2231   10    0    1
 -2       919       918      6926      6925       947      7326      7327      7324
 -1      2232   10    0    1
 -2       918       917      6927      6926       946      7328      7329      7326
 -1      2233   10    0    1
 -2       917       916      6928      6927       945      7330      7331      7328
 -1      2234   10    0    1
 -2       916       915      6929      6928       944      7332      7333      7330
 -1      2235   10    0    1
 -2       915       914      6930      6929       943      7334      7335      7332
 -1      2236   10    0    1
 -2       914       913      6931      6930       942      7336      7337      7334
 -1      2237   10    0    1
 -2       913       912      6932      6931       941      7338      7339      7336
 -1      2238   10    0    1
 -2       912       911      6933      6932       940      7340      7341      7338
 -1      2239   10    0    1
 -2       911       910      6934      6933       939      7342      7343      7340
 -1      2240   10    0    1
 -2       910       909      6935      6934       938      7344      7345      7342
 -1      2241   10    0    1
 -2       909       908      6936      6935       937      7346      7347      7344
 -1      2242   10    0    1
 -2       908       907      6937      6936       936      7348      7349      7346
 -1      2243   10    0    1
 -2       907       906      6938      6937       935      7350      7351      7348
 -1      2244   10    0    1
 -2       906       905      6939      6938       934      7352      7353      7350
 -1      2245   10    0    1
 -2       905       904      6940      6939       933      7354      7355      7352
 -1      2246   10    0    1
 -2       904       903      6941      6940       932      7356      7357      7354
 -1      2247   10    0    1
 -2       903       902      6942      6941       931      7358      7359      7356
 -1      2248   10    0    1
 -2       902       901      6943      6942       930      7360      7361      7358
 -1      2249   10    0    1
 -2       901       900      6944      6943       929      7362      7363      7360
 -1      2250   10    0    1
 -2       900       899      6945      6944       928      7364      7365      7362
 -1      2251   10    0    1
 -2       899         6       282      6945       927       296      7366      7364
 -1      2252   10    0    1
 -2       543      6918      6946       544      7311      7367      7368       558
 -1      2253   10    0    1
 -2      6918      6919      6947      6946      7313      7369      7370      7367
 -1      2254   10    0    1
 -2      6919      6920      6948      6947      7315      7371      7372      7369
 -1      2255   10    0    1
 -2      6920      6921      6949      6948      7317      7373      7374      7371
 -1      2256   10    0    1
 -2      6921      6922      6950      6949      7319      7375      7376      7373
 -1      2257   10    0    1
 -2      6922      6923      6951      6950      7321      7377      7378      7375
 -1      2258   10    0    1
 -2      6923      6924      6952      6951      7323      7379      7380      7377
 -1      2259   10    0    1
 -2      6924      6925      6953      6952      7325      7381      7382      7379
 -1      2260   10    0    1
 -2      6925      6926      6954      6953      7327      7383      7384      7381
 -1      2261   10    0    1
 -2      6926      6927      6955      6954      7329      7385      7386      7383
 -1      2262   10    0    1
 -2      6927      6928      6956      6955      7331      7387      7388      7385
 -1      2263   10    0    1
 -2      6928      6929      6957      6956      7333      7389      7390      7387
 -1      2264   10    0    1
 -2      6929      6930      6958      6957      7335      7391      7392      7389
 -1      2265   10    0    1
 -2      6930      6931      6959      6958      7337      7393      7394      7391
 -1      2266   10    0    1
 -2      6931      6932      6960      6959      7339      7395      7396      7393
 -1      2267   10    0    1
 -2      6932      6933      6961      6960      7341      7397      7398      7395
 -1      2268   10    0    1
 -2      6933      6934      6962      6961      7343      7399      7400      7397
 -1      2269   10    0    1
 -2      6934      6935      6963      6962      7345      7401      7402      7399
 -1      2270   10    0    1
 -2      6935      6936      6964      6963      7347      7403      7404      7401
 -1      2271   10    0    1
 -2      6936      6937      6965      6964      7349      7405      7406      7403
 -1      2272   10    0    1
 -2      6937      6938      6966      6965      7351      7407      7408      7405
 -1      2273   10    0    1
 -2      6938      6939      6967      6966      7353      7409      7410      7407
 -1      2274   10    0    1
 -2      6939      6940      6968      6967      7355      7411      7412      7409
 -1      2275   10    0    1
 -2      6940      6941      6969      6968      7357      7413      7414      7411
 -1      2276   10    0    1
 -2      6941      6942      6970      6969      7359      7415      7416      7413
 -1      2277   10    0    1
 -2      6942      6943      6971      6970      7361      7417      7418      7415
 -1      2278   10    0    1
 -2      6943      6944      6972      6971      7363      7419      7420      7417
 -1      2279   10    0    1
 -2      6944      6945      6973      6972      7365      7421      7422      7419
 -1      2280   10    0    1
 -2      6945       282       283      6973      7366       297      7423      7421
 -1      2281   10    0    1
 -2       544      6946      6974       545      7368      7424      7425       559
 -1      2282   10    0    1
 -2      6946      6947      6975      6974      7370      7426      7427      7424
 -1      2283   10    0    1
 -2      6947      6948      6976      6975      7372      7428      7429      7426
 -1      2284   10    0    1
 -2      6948      6949      6977      6976      7374      7430      7431      7428
 -1      2285   10    0    1
 -2      6949      6950      6978      6977      7376      7432      7433      7430
 -1      2286   10    0    1
 -2      6950      6951      6979      6978      7378      7434      7435      7432
 -1      2287   10    0    1
 -2      6951      6952      6980      6979      7380      7436      7437      7434
 -1      2288   10    0    1
 -2      6952      6953      6981      6980      7382      7438      7439      7436
 -1      2289   10    0    1
 -2      6953      6954      6982      6981      7384      7440      7441      7438
 -1      2290   10    0    1
 -2      6954      6955      6983      6982      7386      7442      7443      7440
 -1      2291   10    0    1
 -2      6955      6956      6984      6983      7388      7444      7445      7442
 -1      2292   10    0    1
 -2      6956      6957      6985      6984      7390      7446      7447      7444
 -1      2293   10    0    1
 -2      6957      6958      6986      6985      7392      7448      7449      7446
 -1      2294   10    0    1
 -2      6958      6959      6987      6986      7394      7450      7451      7448
 -1      2295   10    0    1
 -2      6959      6960      6988      6987      7396      7452      7453      7450
 -1      2296   10    0    1
 -2      6960      6961      6989      6988      7398      7454      7455      7452
 -1      2297   10    0    1
 -2      6961      6962      6990      6989      7400      7456      7457      7454
 -1      2298   10    0    1
 -2      6962      6963      6991      6990      7402      7458      7459      7456
 -1      2299   10    0    1
 -2      6963      6964      6992      6991      7404      7460      7461      7458
 -1      2300   10    0    1
 -2      6964      6965      6993      6992      7406      7462      7463      7460
 -1      2301   10    0    1
 -2      6965      6966      6994      6993      7408      7464      7465      7462
 -1      2302   10    0    1
 -2      6966      6967      6995      6994      7410      7466      7467      7464
 -1      2303   10    0    1
 -2      6967      6968      6996      6995      7412      7468      7469      7466
 -1      2304   10    0    1
 -2      6968      6969      6997      6996      7414      7470      7471      7468
 -1      2305   10    0    1
 -2      6969      6970      6998      6997      7416      7472      7473      7470
 -1      2306   10    0    1
 -2      6970      6971      6999      6998      7418      7474      7475      7472
 -1      2307   10    0    1
 -2      6971      6972      7000      6999      7420      7476      7477      7474
 -1      2308   10    0    1
 -2      6972      6973      7001      7000      7422      7478      7479      7476
 -1      2309   10    0    1
 -2      6973       283       284      7001      7423       298      7480      7478
 -1      2310   10    0    1
 -2       545      6974      7002       546      7425      7481      7482       560
 -1      2311   10    0    1
 -2      6974      6975      7003      7002      7427      7483      7484      7481
 -1      2312   10    0    1
 -2      6975      6976      7004      7003      7429      7485      7486      7483
 -1      2313   10    0    1
 -2      6976      6977      7005      7004      7431      7487      7488      7485
 -1      2314   10    0    1
 -2      6977      6978      7006      7005      7433      7489      7490      7487
 -1      2315   10    0    1
 -2      6978      6979      7007      7006      7435      7491      7492      7489
 -1      2316   10    0    1
 -2      6979      6980      7008      7007      7437      7493      7494      7491
 -1      2317   10    0    1
 -2      6980      6981      7009      7008      7439      7495      7496      7493
 -1      2318   10    0    1
 -2      6981      6982      7010      7009      7441      7497      7498      7495
 -1      2319   10    0    1
 -2      6982      6983      7011      7010      7443      7499      7500      7497
 -1      2320   10    0    1
 -2      6983      6984      7012      7011      7445      7501      7502      7499
 -1      2321   10    0    1
 -2      6984      6985      7013      7012      7447      7503      7504      7501
 -1      2322   10    0    1
 -2      6985      6986      7014      7013      7449      7505      7506      7503
 -1      2323   10    0    1
 -2      6986      6987      7015      7014      7451      7507      7508      7505
 -1      2324   10    0    1
 -2      6987      6988      7016      7015      7453      7509      7510      7507
 -1      2325   10    0    1
 -2      6988      6989      7017      7016      7455      7511      7512      7509
 -1      2326   10    0    1
 -2      6989      6990      7018      7017      7457      7513      7514      7511
 -1      2327   10    0    1
 -2      6990      6991      7019      7018      7459      7515      7516      7513
 -1      2328   10    0    1
 -2      6991      6992      7020      7019      7461      7517      7518      7515
 -1      2329   10    0    1
 -2      6992      6993      7021      7020      7463      7519      7520      7517
 -1      2330   10    0    1
 -2      6993      6994      7022      7021      7465      7521      7522      7519
 -1      2331   10    0    1
 -2      6994      6995      7023      7022      7467      7523      7524      7521
 -1      2332   10    0    1
 -2      6995      6996      7024      7023      7469      7525      7526      7523
 -1      2333   10    0    1
 -2      6996      6997      7025      7024      7471      7527      7528      7525
 -1      2334   10    0    1
 -2      6997      6998      7026      7025      7473      7529      7530      7527
 -1      2335   10    0    1
 -2      6998      6999      7027      7026      7475      7531      7532      7529
 -1      2336   10    0    1
 -2      6999      7000      7028      7027      7477      7533      7534      7531
 -1      2337   10    0    1
 -2      7000      7001      7029      7028      7479      7535      7536      7533
 -1      2338   10    0    1
 -2      7001       284       285      7029      7480       299      7537      7535
 -1      2339   10    0    1
 -2       546      7002      7030       547      7482      7538      7539       561
 -1      2340   10    0    1
 -2      7002      7003      7031      7030      7484      7540      7541      7538
 -1      2341   10    0    1
 -2      7003      7004      7032      7031      7486      7542      7543      7540
 -1      2342   10    0    1
 -2      7004      7005      7033      7032      7488      7544      7545      7542
 -1      2343   10    0    1
 -2      7005      7006      7034      7033      7490      7546      7547      7544
 -1      2344   10    0    1
 -2      7006      7007      7035      7034      7492      7548      7549      7546
 -1      2345   10    0    1
 -2      7007      7008      7036      7035      7494      7550      7551      7548
 -1      2346   10    0    1
 -2      7008      7009      7037      7036      7496      7552      7553      7550
 -1      2347   10    0    1
 -2      7009      7010      7038      7037      7498      7554      7555      7552
 -1      2348   10    0    1
 -2      7010      7011      7039      7038      7500      7556      7557      7554
 -1      2349   10    0    1
 -2      7011      7012      7040      7039      7502      7558      7559      7556
 -1      2350   10    0    1
 -2      7012      7013      7041      7040      7504      7560      7561      7558
 -1      2351   10    0    1
 -2      7013      7014      7042      7041      7506      7562      7563      7560
 -1      2352   10    0    1
 -2      7014      7015      7043      7042      7508      7564      7565      7562
 -1      2353   10    0    1
 -2      7015      7016      7044      7043      7510      7566      7567      7564
 -1      2354   10    0    1
 -2      7016      7017      7045      7044      7512      7568      7569      7566
 -1      2355   10    0    1
 -2      7017      7018      7046      7045      7514      7570      7571      7568
 -1      2356   10    0    1
 -2      7018      7019      7047      7046      7516      7572      7573      7570
 -1      2357   10    0    1
 -2      7019      7020      7048      7047      7518      7574      7575      7572
 -1      2358   10    0    1
 -2      7020      7021      7049      7048      7520      7576      7577      7574
 -1      2359   10    0    1
 -2      7021      7022      7050      7049      7522      7578      7579      7576
 -1      2360   10    0    1
 -2      7022      7023      7051      7050      7524      7580      7581      7578
 -1      2361   10    0    1
 -2      7023      7024      7052      7051      7526      7582      7583      7580
 -1      2362   10    0    1
 -2      7024      7025      7053      7052      7528      7584      7585      7582
 -1      2363   10    0    1
 -2      7025      7026      7054      7053      7530      7586      7587      7584
 -1      2364   10    0    1
 -2      7026      7027      7055      7054      7532      7588      7589      7586
 -1      2365   10    0    1
 -2      7027      7028      7056      7055      7534      7590      7591      7588
 -1      2366   10    0    1
 -2      7028      7029      7057      7056      7536      7592      7593      7590
 -1      2367   10    0    1
 -2      7029       285       286      7057      7537       300      7594      7592
 -1      2368   10    0    1
 -2       547      7030      7058       548      7539      7595      7596       562
 -1      2369   10    0    1
 -2      7030      7031      7059      7058      7541      7597      7598      7595
 -1      2370   10    0    1
 -2      7031      7032      7060      7059      7543      7599      7600      7597
 -1      2371   10    0    1
 -2      7032      7033      7061      7060      7545      7601      7602      7599
 -1      2372   10    0    1
 -2      7033      7034      7062      7061      7547      7603      7604      7601
 -1      2373   10    0    1
 -2      7034      7035      7063      7062      7549      7605      7606      7603
 -1      2374   10    0    1
 -2      7035      7036      7064      7063      7551      7607      7608      7605
 -1      2375   10    0    1
 -2      7036      7037      7065      7064      7553      7609      7610      7607
 -1      2376   10    0    1
 -2      7037      7038      7066      7065      7555      7611      7612      7609
 -1      2377   10    0    1
 -2      7038      7039      7067      7066      7557      7613      7614      7611
 -1      2378   10    0    1
 -2      7039      7040      7068      7067      7559      7615      7616      7613
 -1      2379   10    0    1
 -2      7040      7041      7069      7068      7561      7617      7618      7615
 -1      2380   10    0    1
 -2      7041      7042      7070      7069      7563      7619      7620      7617
 -1      2381   10    0    1
 -2      7042      7043      7071      7070      7565      7621      7622      7619
 -1      2382   10    0    1
 -2      7043      7044      7072      7071      7567      7623      7624      7621
 -1      2383   10    0    1
 -2      7044      7045      7073      7072      7569      7625      7626      7623
 -1      2384   10    0    1
 -2      7045      7046      7074      7073      7571      7627      7628      7625
 -1      2385   10    0    1
 -2      7046      7047      7075      7074      7573      7629      7630      7627
 -1      2386   10    0    1
 -2      7047      7048      7076      7075      7575      7631      7632      7629
 -1      2387   10    0    1
 -2      7048      7049      7077      7076      7577      7633      7634      7631
 -1      2388   10    0    1
 -2      7049      7050      7078      7077      7579      7635      7636      7633
 -1      2389   10    0    1
 -2      7050      7051      7079      7078      7581      7637      7638      7635
 -1      2390   10    0    1
 -2      7051      7052      7080      7079      7583      7639      7640      7637
 -1      2391   10    0    1
 -2      7052      7053      7081      7080      7585      7641      7642      7639
 -1      2392   10    0    1
 -2      7053      7054      7082      7081      7587      7643      7644      7641
 -1      2393   10    0    1
 -2      7054      7055      7083      7082      7589      7645      7646      7643
 -1      2394   10    0    1
 -2      7055      7056      7084      7083      7591      7647      7648      7645
 -1      2395   10    0    1
 -2      7056      7057      7085      7084      7593      7649      7650      7647
 -1      2396   10    0    1
 -2      7057       286       287      7085      7594       301      7651      7649
 -1      2397   10    0    1
 -2       548      7058      7086       549      7596      7652      7653       563
 -1      2398   10    0    1
 -2      7058      7059      7087      7086      7598      7654      7655      7652
 -1      2399   10    0    1
 -2      7059      7060      7088      7087      7600      7656      7657      7654
 -1      2400   10    0    1
 -2      7060      7061      7089      7088      7602      7658      7659      7656
 -1      2401   10    0    1
 -2      7061      7062      7090      7089      7604      7660      7661      7658
 -1      2402   10    0    1
 -2      7062      7063      7091      7090      7606      7662      7663      7660
 -1      2403   10    0    1
 -2      7063      7064      7092      7091      7608      7664      7665      7662
 -1      2404   10    0    1
 -2      7064      7065      7093      7092      7610      7666      7667      7664
 -1      2405   10    0    1
 -2      7065      7066      7094      7093      7612      7668      7669      7666
 -1      2406   10    0    1
 -2      7066      7067      7095      7094      7614      7670      7671      7668
 -1      2407   10    0    1
 -2      7067      7068      7096      7095      7616      7672      7673      7670
 -1      2408   10    0    1
 -2      7068      7069      7097      7096      7618      7674      7675      7672
 -1      2409   10    0    1
 -2      7069      7070      7098      7097      7620      7676      7677      7674
 -1      2410   10    0    1
 -2      7070      7071      7099      7098      7622      7678      7679      7676
 -1      2411   10    0    1
 -2      7071      7072      7100      7099      7624      7680      7681      7678
 -1      2412   10    0    1
 -2      7072      7073      7101      7100      7626      7682      7683      7680
 -1      2413   10    0    1
 -2      7073      7074      7102      7101      7628      7684      7685      7682
 -1      2414   10    0    1
 -2      7074      7075      7103      7102      7630      7686      7687      7684
 -1      2415   10    0    1
 -2      7075      7076      7104      7103      7632      7688      7689      7686
 -1      2416   10    0    1
 -2      7076      7077      7105      7104      7634      7690      7691      7688
 -1      2417   10    0    1
 -2      7077      7078      7106      7105      7636      7692      7693      7690
 -1      2418   10    0    1
 -2      7078      7079      7107      7106      7638      7694      7695      7692
 -1      2419   10    0    1
 -2      7079      7080      7108      7107      7640      7696      7697      7694
 -1      2420   10    0    1
 -2      7080      7081      7109      7108      7642      7698      7699      7696
 -1      2421   10    0    1
 -2      7081      7082      7110      7109      7644      7700      7701      7698
 -1      2422   10    0    1
 -2      7082      7083      7111      7110      7646      7702      7703      7700
 -1      2423   10    0    1
 -2      7083      7084      7112      7111      7648      7704      7705      7702
 -1      2424   10    0    1
 -2      7084      7085      7113      7112      7650      7706      7707      7704
 -1      2425   10    0    1
 -2      7085       287       288      7113      7651       302      7708      7706
 -1      2426   10    0    1
 -2       549      7086      7114       550      7653      7709      7710       564
 -1      2427   10    0    1
 -2      7086      7087      7115      7114      7655      7711      7712      7709
 -1      2428   10    0    1
 -2      7087      7088      7116      7115      7657      7713      7714      7711
 -1      2429   10    0    1
 -2      7088      7089      7117      7116      7659      7715      7716      7713
 -1      2430   10    0    1
 -2      7089      7090      7118      7117      7661      7717      7718      7715
 -1      2431   10    0    1
 -2      7090      7091      7119      7118      7663      7719      7720      7717
 -1      2432   10    0    1
 -2      7091      7092      7120      7119      7665      7721      7722      7719
 -1      2433   10    0    1
 -2      7092      7093      7121      7120      7667      7723      7724      7721
 -1      2434   10    0    1
 -2      7093      7094      7122      7121      7669      7725      7726      7723
 -1      2435   10    0    1
 -2      7094      7095      7123      7122      7671      7727      7728      7725
 -1      2436   10    0    1
 -2      7095      7096      7124      7123      7673      7729      7730      7727
 -1      2437   10    0    1
 -2      7096      7097      7125      7124      7675      7731      7732      7729
 -1      2438   10    0    1
 -2      7097      7098      7126      7125      7677      7733      7734      7731
 -1      2439   10    0    1
 -2      7098      7099      7127      7126      7679      7735      7736      7733
 -1      2440   10    0    1
 -2      7099      7100      7128      7127      7681      7737      7738      7735
 -1      2441   10    0    1
 -2      7100      7101      7129      7128      7683      7739      7740      7737
 -1      2442   10    0    1
 -2      7101      7102      7130      7129      7685      7741      7742      7739
 -1      2443   10    0    1
 -2      7102      7103      7131      7130      7687      7743      7744      7741
 -1      2444   10    0    1
 -2      7103      7104      7132      7131      7689      7745      7746      7743
 -1      2445   10    0    1
 -2      7104      7105      7133      7132      7691      7747      7748      7745
 -1      2446   10    0    1
 -2      7105      7106      7134      7133      7693      7749      7750      7747
 -1      2447   10    0    1
 -2      7106      7107      7135      7134      7695      7751      7752      7749
 -1      2448   10    0    1
 -2      7107      7108      7136      7135      7697      7753      7754      7751
 -1      2449   10    0    1
 -2      7108      7109      7137      7136      7699      7755      7756      7753
 -1      2450   10    0    1
 -2      7109      7110      7138      7137      7701      7757      7758      7755
 -1      2451   10    0    1
 -2      7110      7111      7139      7138      7703      7759      7760      7757
 -1      2452   10    0    1
 -2      7111      7112      7140      7139      7705      7761      7762      7759
 -1      2453   10    0    1
 -2      7112      7113      7141      7140      7707      7763      7764      7761
 -1      2454   10    0    1
 -2      7113       288       289      7141      7708       303      7765      7763
 -1      2455   10    0    1
 -2       550      7114      7142       551      7710      7766      7767       565
 -1      2456   10    0    1
 -2      7114      7115      7143      7142      7712      7768      7769      7766
 -1      2457   10    0    1
 -2      7115      7116      7144      7143      7714      7770      7771      7768
 -1      2458   10    0    1
 -2      7116      7117      7145      7144      7716      7772      7773      7770
 -1      2459   10    0    1
 -2      7117      7118      7146      7145      7718      7774      7775      7772
 -1      2460   10    0    1
 -2      7118      7119      7147      7146      7720      7776      7777      7774
 -1      2461   10    0    1
 -2      7119      7120      7148      7147      7722      7778      7779      7776
 -1      2462   10    0    1
 -2      7120      7121      7149      7148      7724      7780      7781      7778
 -1      2463   10    0    1
 -2      7121      7122      7150      7149      7726      7782      7783      7780
 -1      2464   10    0    1
 -2      7122      7123      7151      7150      7728      7784      7785      7782
 -1      2465   10    0    1
 -2      7123      7124      7152      7151      7730      7786      7787      7784
 -1      2466   10    0    1
 -2      7124      7125      7153      7152      7732      7788      7789      7786
 -1      2467   10    0    1
 -2      7125      7126      7154      7153      7734      7790      7791      7788
 -1      2468   10    0    1
 -2      7126      7127      7155      7154      7736      7792      7793      7790
 -1      2469   10    0    1
 -2      7127      7128      7156      7155      7738      7794      7795      7792
 -1      2470   10    0    1
 -2      7128      7129      7157      7156      7740      7796      7797      7794
 -1      2471   10    0    1
 -2      7129      7130      7158      7157      7742      7798      7799      7796
 -1      2472   10    0    1
 -2      7130      7131      7159      7158      7744      7800      7801      7798
 -1      2473   10    0    1
 -2      7131      7132      7160      7159      7746      7802      7803      7800
 -1      2474   10    0    1
 -2      7132      7133      7161      7160      7748      7804      7805      7802
 -1      2475   10    0    1
 -2      7133      7134      7162      7161      7750      7806      7807      7804
 -1      2476   10    0    1
 -2      7134      7135      7163      7162      7752      7808      7809      7806
 -1      2477   10    0    1
 -2      7135      7136      7164      7163      7754      7810      7811      7808
 -1      2478   10    0    1
 -2      7136      7137      7165      7164      7756      7812      7813      7810
 -1      2479   10    0    1
 -2      7137      7138      7166      7165      7758      7814      7815      7812
 -1      2480   10    0    1
 -2      7138      7139      7167      7166      7760      7816      7817      7814
 -1      2481   10    0    1
 -2      7139      7140      7168      7167      7762      7818      7819      7816
 -1      2482   10    0    1
 -2      7140      7141      7169      7168      7764      7820      7821      7818
 -1      2483   10    0    1
 -2      7141       289       290      7169      7765       304      7822      7820
 -1      2484   10    0    1
 -2       551      7142      7170       552      7767      7823      7824       566
 -1      2485   10    0    1
 -2      7142      7143      7171      7170      7769      7825      7826      7823
 -1      2486   10    0    1
 -2      7143      7144      7172      7171      7771      7827      7828      7825
 -1      2487   10    0    1
 -2      7144      7145      7173      7172      7773      7829      7830      7827
 -1      2488   10    0    1
 -2      7145      7146      7174      7173      7775      7831      7832      7829
 -1      2489   10    0    1
 -2      7146      7147      7175      7174      7777      7833      7834      7831
 -1      2490   10    0    1
 -2      7147      7148      7176      7175      7779      7835      7836      7833
 -1      2491   10    0    1
 -2      7148      7149      7177      7176      7781      7837      7838      7835
 -1      2492   10    0    1
 -2      7149      7150      7178      7177      7783      7839      7840      7837
 -1      2493   10    0    1
 -2      7150      7151      7179      7178      7785      7841      7842      7839
 -1      2494   10    0    1
 -2      7151      7152      7180      7179      7787      7843      7844      7841
 -1      2495   10    0    1
 -2      7152      7153      7181      7180      7789      7845      7846      7843
 -1      2496   10    0    1
 -2      7153      7154      7182      7181      7791      7847      7848      7845
 -1      2497   10    0    1
 -2      7154      7155      7183      7182      7793      7849      7850      7847
 -1      2498   10    0    1
 -2      7155      7156      7184      7183      7795      7851      7852      7849
 -1      2499   10    0    1
 -2      7156      7157      7185      7184      7797      7853      7854      7851
 -1      2500   10    0    1
 -2      7157      7158      7186      7185      7799      7855      7856      7853
 -1      2501   10    0    1
 -2      7158      7159      7187      7186      7801      7857      7858      7855
 -1      2502   10    0    1
 -2      7159      7160      7188      7187      7803      7859      7860      7857
 -1      2503   10    0    1
 -2      7160      7161      7189      7188      7805      7861      7862      7859
 -1      2504   10    0    1
 -2      7161      7162      7190      7189      7807      7863      7864      7861
 -1      2505   10    0    1
 -2      7162      7163      7191      7190      7809      7865      7866      7863
 -1      2506   10    0    1
 -2      7163      7164      7192      7191      7811      7867      7868      7865
 -1      2507   10    0    1
 -2      7164      7165      7193      7192      7813      7869      7870      7867
 -1      2508   10    0    1
 -2      7165      7166      7194      7193      7815      7871      7872      7869
 -1      2509   10    0    1
 -2      7166      7167      7195      7194      7817      7873      7874      7871
 -1      2510   10    0    1
 -2      7167      7168      7196      7195      7819      7875      7876      7873
 -1      2511   10    0    1
 -2      7168      7169      7197      7196      7821      7877      7878      7875
 -1      2512   10    0    1
 -2      7169       290       291      7197      7822       305      7879      7877
 -1      2513   10    0    1
 -2       552      7170      7198       553      7824      7880      7881       567
 -1      2514   10    0    1
 -2      7170      7171      7199      7198      7826      7882      7883      7880
 -1      2515   10    0    1
 -2      7171      7172      7200      7199      7828      7884      7885      7882
 -1      2516   10    0    1
 -2      7172      7173      7201      7200      7830      7886      7887      7884
 -1      2517   10    0    1
 -2      7173      7174      7202      7201      7832      7888      7889      7886
 -1      2518   10    0    1
 -2      7174      7175      7203      7202      7834      7890      7891      7888
 -1      2519   10    0    1
 -2      7175      7176      7204      7203      7836      7892      7893      7890
 -1      2520   10    0    1
 -2      7176      7177      7205      7204      7838      7894      7895      7892
 -1      2521   10    0    1
 -2      7177      7178      7206      7205      7840      7896      7897      7894
 -1      2522   10    0    1
 -2      7178      7179      7207      7206      7842      7898      7899      7896
 -1      2523   10    0    1
 -2      7179      7180      7208      7207      7844      7900      7901      7898
 -1      2524   10    0    1
 -2      7180      7181      7209      7208      7846      7902      7903      7900
 -1      2525   10    0    1
 -2      7181      7182      7210      7209      7848      7904      7905      7902
 -1      2526   10    0    1
 -2      7182      7183      7211      7210      7850      7906      7907      7904
 -1      2527   10    0    1
 -2      7183      7184      7212      7211      7852      7908      7909      7906
 -1      2528   10    0    1
 -2      7184      7185      7213      7212      7854      7910      7911      7908
 -1      2529   10    0    1
 -2      7185      7186      7214      7213      7856      7912      7913      7910
 -1      2530   10    0    1
 -2      7186      7187      7215      7214      7858      7914      7915      7912
 -1      2531   10    0    1
 -2      7187      7188      7216      7215      7860      7916      7917      7914
 -1      2532   10    0    1
 -2      7188      7189      7217      7216      7862      7918      7919      7916
 -1      2533   10    0    1
 -2      7189      7190      7218      7217      7864      7920      7921      7918
 -1      2534   10    0    1
 -2      7190      7191      7219      7218      7866      7922      7923      7920
 -1      2535   10    0    1
 -2      7191      7192      7220      7219      7868      7924      7925      7922
 -1      2536   10    0    1
 -2      7192      7193      7221      7220      7870      7926      7927      7924
 -1      2537   10    0    1
 -2      7193      7194      7222      7221      7872      7928      7929      7926
 -1      2538   10    0    1
 -2      7194      7195      7223      7222      7874      7930      7931      7928
 -1      2539   10    0    1
 -2      7195      7196      7224      7223      7876      7932      7933      7930
 -1      2540   10    0    1
 -2      7196      7197      7225      7224      7878      7934      7935      7932
 -1      2541   10    0    1
 -2      7197       291       292      7225      7879       306      7936      7934
 -1      2542   10    0    1
 -2       553      7198      7226       554      7881      7937      7938       568
 -1      2543   10    0    1
 -2      7198      7199      7227      7226      7883      7939      7940      7937
 -1      2544   10    0    1
 -2      7199      7200      7228      7227      7885      7941      7942      7939
 -1      2545   10    0    1
 -2      7200      7201      7229      7228      7887      7943      7944      7941
 -1      2546   10    0    1
 -2      7201      7202      7230      7229      7889      7945      7946      7943
 -1      2547   10    0    1
 -2      7202      7203      7231      7230      7891      7947      7948      7945
 -1      2548   10    0    1
 -2      7203      7204      7232      7231      7893      7949      7950      7947
 -1      2549   10    0    1
 -2      7204      7205      7233      7232      7895      7951      7952      7949
 -1      2550   10    0    1
 -2      7205      7206      7234      7233      7897      7953      7954      7951
 -1      2551   10    0    1
 -2      7206      7207      7235      7234      7899      7955      7956      7953
 -1      2552   10    0    1
 -2      7207      7208      7236      7235      7901      7957      7958      7955
 -1      2553   10    0    1
 -2      7208      7209      7237      7236      7903      7959      7960      7957
 -1      2554   10    0    1
 -2      7209      7210      7238      7237      7905      7961      7962      7959
 -1      2555   10    0    1
 -2      7210      7211      7239      7238      7907      7963      7964      7961
 -1      2556   10    0    1
 -2      7211      7212      7240      7239      7909      7965      7966      7963
 -1      2557   10    0    1
 -2      7212      7213      7241      7240      7911      7967      7968      7965
 -1      2558   10    0    1
 -2      7213      7214      7242      7241      7913      7969      7970      7967
 -1      2559   10    0    1
 -2      7214      7215      7243      7242      7915      7971      7972      7969
 -1      2560   10    0    1
 -2      7215      7216      7244      7243      7917      7973      7974      7971
 -1      2561   10    0    1
 -2      7216      7217      7245      7244      7919      7975      7976      7973
 -1      2562   10    0    1
 -2      7217      7218      7246      7245      7921      7977      7978      7975
 -1      2563   10    0    1
 -2      7218      7219      7247      7246      7923      7979      7980      7977
 -1      2564   10    0    1
 -2      7219      7220      7248      7247      7925      7981      7982      7979
 -1      2565   10    0    1
 -2      7220      7221      7249      7248      7927      7983      7984      7981
 -1      2566   10    0    1
 -2      7221      7222      7250      7249      7929      7985      7986      7983
 -1      2567   10    0    1
 -2      7222      7223      7251      7250      7931      7987      7988      7985
 -1      2568   10    0    1
 -2      7223      7224      7252      7251      7933      7989      7990      7987
 -1      2569   10    0    1
 -2      7224      7225      7253      7252      7935      7991      7992      7989
 -1      2570   10    0    1
 -2      7225       292       293      7253      7936       307      7993      7991
 -1      2571   10    0    1
 -2       554      7226      7254       555      7938      7994      7995       569
 -1      2572   10    0    1
 -2      7226      7227      7255      7254      7940      7996      7997      7994
 -1      2573   10    0    1
 -2      7227      7228      7256      7255      7942      7998      7999      7996
 -1      2574   10    0    1
 -2      7228      7229      7257      7256      7944      8000      8001      7998
 -1      2575   10    0    1
 -2      7229      7230      7258      7257      7946      8002      8003      8000
 -1      2576   10    0    1
 -2      7230      7231      7259      7258      7948      8004      8005      8002
 -1      2577   10    0    1
 -2      7231      7232      7260      7259      7950      8006      8007      8004
 -1      2578   10    0    1
 -2      7232      7233      7261      7260      7952      8008      8009      8006
 -1      2579   10    0    1
 -2      7233      7234      7262      7261      7954      8010      8011      8008
 -1      2580   10    0    1
 -2      7234      7235      7263      7262      7956      8012      8013      8010
 -1      2581   10    0    1
 -2      7235      7236      7264      7263      7958      8014      8015      8012
 -1      2582   10    0    1
 -2      7236      7237      7265      7264      7960      8016      8017      8014
 -1      2583   10    0    1
 -2      7237      7238      7266      7265      7962      8018      8019      8016
 -1      2584   10    0    1
 -2      7238      7239      7267      7266      7964      8020      8021      8018
 -1      2585   10    0    1
 -2      7239      7240      7268      7267      7966      8022      8023      8020
 -1      2586   10    0    1
 -2      7240      7241      7269      7268      7968      8024      8025      8022
 -1      2587   10    0    1
 -2      7241      7242      7270      7269      7970      8026      8027      8024
 -1      2588   10    0    1
 -2      7242      7243      7271      7270      7972      8028      8029      8026
 -1      2589   10    0    1
 -2      7243      7244      7272      7271      7974      8030      8031      8028
 -1      2590   10    0    1
 -2      7244      7245      7273      7272      7976      8032      8033      8030
 -1      2591   10    0    1
 -2      7245      7246      7274      7273      7978      8034      8035      8032
 -1      2592   10    0    1
 -2      7246      7247      7275      7274      7980      8036      8037      8034
 -1      2593   10    0    1
 -2      7247      7248      7276      7275      7982      8038      8039      8036
 -1      2594   10    0    1
 -2      7248      7249      7277      7276      7984      8040      8041      8038
 -1      2595   10    0    1
 -2      7249      7250      7278      7277      7986      8042      8043      8040
 -1      2596   10    0    1
 -2      7250      7251      7279      7278      7988      8044      8045      8042
 -1      2597   10    0    1
 -2      7251      7252      7280      7279      7990      8046      8047      8044
 -1      2598   10    0    1
 -2      7252      7253      7281      7280      7992      8048      8049      8046
 -1      2599   10    0    1
 -2      7253       293       294      7281      7993       308      8050      8048
 -1      2600   10    0    1
 -2       555      7254      7282       556      7995      8051      8052       570
 -1      2601   10    0    1
 -2      7254      7255      7283      7282      7997      8053      8054      8051
 -1      2602   10    0    1
 -2      7255      7256      7284      7283      7999      8055      8056      8053
 -1      2603   10    0    1
 -2      7256      7257      7285      7284      8001      8057      8058      8055
 -1      2604   10    0    1
 -2      7257      7258      7286      7285      8003      8059      8060      8057
 -1      2605   10    0    1
 -2      7258      7259      7287      7286      8005      8061      8062      8059
 -1      2606   10    0    1
 -2      7259      7260      7288      7287      8007      8063      8064      8061
 -1      2607   10    0    1
 -2      7260      7261      7289      7288      8009      8065      8066      8063
 -1      2608   10    0    1
 -2      7261      7262      7290      7289      8011      8067      8068      8065
 -1      2609   10    0    1
 -2      7262      7263      7291      7290      8013      8069      8070      8067
 -1      2610   10    0    1
 -2      7263      7264      7292      7291      8015      8071      8072      8069
 -1      2611   10    0    1
 -2      7264      7265      7293      7292      8017      8073      8074      8071
 -1      2612   10    0    1
 -2      7265      7266      7294      7293      8019      8075      8076      8073
 -1      2613   10    0    1
 -2      7266      7267      7295      7294      8021      8077      8078      8075
 -1      2614   10    0    1
 -2      7267      7268      7296      7295      8023      8079      8080      8077
 -1      2615   10    0    1
 -2      7268      7269      7297      7296      8025      8081      8082      8079
 -1      2616   10    0    1
 -2      7269      7270      7298      7297      8027      8083      8084      8081
 -1      2617   10    0    1
 -2      7270      7271      7299      7298      8029      8085      8086      8083
 -1      2618   10    0    1
 -2      7271      7272      7300      7299      8031      8087      8088      8085
 -1      2619   10    0    1
 -2      7272      7273      7301      7300      8033      8089      8090      8087
 -1      2620   10    0    1
 -2      7273      7274      7302      7301      8035      8091      8092      8089
 -1      2621   10    0    1
 -2      7274      7275      7303      7302      8037      8093      8094      8091
 -1      2622   10    0    1
 -2      7275      7276      7304      7303      8039      8095      8096      8093
 -1      2623   10    0    1
 -2      7276      7277      7305      7304      8041      8097      8098      8095
 -1      2624   10    0    1
 -2      7277      7278      7306      7305      8043      8099      8100      8097
 -1      2625   10    0    1
 -2      7278      7279      7307      7306      8045      8101      8102      8099
 -1      2626   10    0    1
 -2      7279      7280      7308      7307      8047      8103      8104      8101
 -1      2627   10    0    1
 -2      7280      7281      7309      7308      8049      8105      8106      8103
 -1      2628   10    0    1
 -2      7281       294       295      7309      8050       309      8107      8105
 -1      2629   10    0    1
 -2       556      7282       983        14      8052      8108      1012       571
 -1      2630   10    0    1
 -2      7282      7283       982       983      8054      8109      1011      8108
 -1      2631   10    0    1
 -2      7283      7284       981       982      8056      8110      1010      8109
 -1      2632   10    0    1
 -2      7284      7285       980       981      8058      8111      1009      8110
 -1      2633   10    0    1
 -2      7285      7286       979       980      8060      8112      1008      8111
 -1      2634   10    0    1
 -2      7286      7287       978       979      8062      8113      1007      8112
 -1      2635   10    0    1
 -2      7287      7288       977       978      8064      8114      1006      8113
 -1      2636   10    0    1
 -2      7288      7289       976       977      8066      8115      1005      8114
 -1      2637   10    0    1
 -2      7289      7290       975       976      8068      8116      1004      8115
 -1      2638   10    0    1
 -2      7290      7291       974       975      8070      8117      1003      8116
 -1      2639   10    0    1
 -2      7291      7292       973       974      8072      8118      1002      8117
 -1      2640   10    0    1
 -2      7292      7293       972       973      8074      8119      1001      8118
 -1      2641   10    0    1
 -2      7293      7294       971       972      8076      8120      1000      8119
 -1      2642   10    0    1
 -2      7294      7295       970       971      8078      8121       999      8120
 -1      2643   10    0    1
 -2      7295      7296       969       970      8080      8122       998      8121
 -1      2644   10    0    1
 -2      7296      7297       968       969      8082      8123       997      8122
 -1      2645   10    0    1
 -2      7297      7298       967       968      8084      8124       996      8123
 -1      2646   10    0    1
 -2      7298      7299       966       967      8086      8125       995      8124
 -1      2647   10    0    1
 -2      7299      7300       965       966      8088      8126       994      8125
 -1      2648   10    0    1
 -2      7300      7301       964       965      8090      8127       993      8126
 -1      2649   10    0    1
 -2      7301      7302       963       964      8092      8128       992      8127
 -1      2650   10    0    1
 -2      7302      7303       962       963      8094      8129       991      8128
 -1      2651   10    0    1
 -2      7303      7304       961       962      8096      8130       990      8129
 -1      2652   10    0    1
 -2      7304      7305       960       961      8098      8131       989      8130
 -1      2653   10    0    1
 -2      7305      7306       959       960      8100      8132       988      8131
 -1      2654   10    0    1
 -2      7306      7307       958       959      8102      8133       987      8132
 -1      2655   10    0    1
 -2      7307      7308       957       958      8104      8134       986      8133
 -1      2656   10    0    1
 -2      7308      7309       956       957      8106      8135       985      8134
 -1      2657   10    0    1
 -2      7309       295         7       956      8107       310       984      8135
 -1      2658   10    0    1
 -2        14       983      8136       572      1012      8556      8557       587
 -1      2659   10    0    1
 -2       983       982      8137      8136      1011      8558      8559      8556
 -1      2660   10    0    1
 -2       982       981      8138      8137      1010      8560      8561      8558
 -1      2661   10    0    1
 -2       981       980      8139      8138      1009      8562      8563      8560
 -1      2662   10    0    1
 -2       980       979      8140      8139      1008      8564      8565      8562
 -1      2663   10    0    1
 -2       979       978      8141      8140      1007      8566      8567      8564
 -1      2664   10    0    1
 -2       978       977      8142      8141      1006      8568      8569      8566
 -1      2665   10    0    1
 -2       977       976      8143      8142      1005      8570      8571      8568
 -1      2666   10    0    1
 -2       976       975      8144      8143      1004      8572      8573      8570
 -1      2667   10    0    1
 -2       975       974      8145      8144      1003      8574      8575      8572
 -1      2668   10    0    1
 -2       974       973      8146      8145      1002      8576      8577      8574
 -1      2669   10    0    1
 -2       973       972      8147      8146      1001      8578      8579      8576
 -1      2670   10    0    1
 -2       972       971      8148      8147      1000      8580      8581      8578
 -1      2671   10    0    1
 -2       971       970      8149      8148       999      8582      8583      8580
 -1      2672   10    0    1
 -2       970       969      8150      8149       998      8584      8585      8582
 -1      2673   10    0    1
 -2       969       968      8151      8150       997      8586      8587      8584
 -1      2674   10    0    1
 -2       968       967      8152      8151       996      8588      8589      8586
 -1      2675   10    0    1
 -2       967       966      8153      8152       995      8590      8591      8588
 -1      2676   10    0    1
 -2       966       965      8154      8153       994      8592      8593      8590
 -1      2677   10    0    1
 -2       965       964      8155      8154       993      8594      8595      8592
 -1      2678   10    0    1
 -2       964       963      8156      8155       992      8596      8597      8594
 -1      2679   10    0    1
 -2       963       962      8157      8156       991      8598      8599      8596
 -1      2680   10    0    1
 -2       962       961      8158      8157       990      8600      8601      8598
 -1      2681   10    0    1
 -2       961       960      8159      8158       989      8602      8603      8600
 -1      2682   10    0    1
 -2       960       959      8160      8159       988      8604      8605      8602
 -1      2683   10    0    1
 -2       959       958      8161      8160       987      8606      8607      8604
 -1      2684   10    0    1
 -2       958       957      8162      8161       986      8608      8609      8606
 -1      2685   10    0    1
 -2       957       956      8163      8162       985      8610      8611      8608
 -1      2686   10    0    1
 -2       956         7      1013      8163       984      1028      8612      8610
 -1      2687   10    0    1
 -2       572      8136      8164       573      8557      8613      8614       588
 -1      2688   10    0    1
 -2      8136      8137      8165      8164      8559      8615      8616      8613
 -1      2689   10    0    1
 -2      8137      8138      8166      8165      8561      8617      8618      8615
 -1      2690   10    0    1
 -2      8138      8139      8167      8166      8563      8619      8620      8617
 -1      2691   10    0    1
 -2      8139      8140      8168      8167      8565      8621      8622      8619
 -1      2692   10    0    1
 -2      8140      8141      8169      8168      8567      8623      8624      8621
 -1      2693   10    0    1
 -2      8141      8142      8170      8169      8569      8625      8626      8623
 -1      2694   10    0    1
 -2      8142      8143      8171      8170      8571      8627      8628      8625
 -1      2695   10    0    1
 -2      8143      8144      8172      8171      8573      8629      8630      8627
 -1      2696   10    0    1
 -2      8144      8145      8173      8172      8575      8631      8632      8629
 -1      2697   10    0    1
 -2      8145      8146      8174      8173      8577      8633      8634      8631
 -1      2698   10    0    1
 -2      8146      8147      8175      8174      8579      8635      8636      8633
 -1      2699   10    0    1
 -2      8147      8148      8176      8175      8581      8637      8638      8635
 -1      2700   10    0    1
 -2      8148      8149      8177      8176      8583      8639      8640      8637
 -1      2701   10    0    1
 -2      8149      8150      8178      8177      8585      8641      8642      8639
 -1      2702   10    0    1
 -2      8150      8151      8179      8178      8587      8643      8644      8641
 -1      2703   10    0    1
 -2      8151      8152      8180      8179      8589      8645      8646      8643
 -1      2704   10    0    1
 -2      8152      8153      8181      8180      8591      8647      8648      8645
 -1      2705   10    0    1
 -2      8153      8154      8182      8181      8593      8649      8650      8647
 -1      2706   10    0    1
 -2      8154      8155      8183      8182      8595      8651      8652      8649
 -1      2707   10    0    1
 -2      8155      8156      8184      8183      8597      8653      8654      8651
 -1      2708   10    0    1
 -2      8156      8157      8185      8184      8599      8655      8656      8653
 -1      2709   10    0    1
 -2      8157      8158      8186      8185      8601      8657      8658      8655
 -1      2710   10    0    1
 -2      8158      8159      8187      8186      8603      8659      8660      8657
 -1      2711   10    0    1
 -2      8159      8160      8188      8187      8605      8661      8662      8659
 -1      2712   10    0    1
 -2      8160      8161      8189      8188      8607      8663      8664      8661
 -1      2713   10    0    1
 -2      8161      8162      8190      8189      8609      8665      8666      8663
 -1      2714   10    0    1
 -2      8162      8163      8191      8190      8611      8667      8668      8665
 -1      2715   10    0    1
 -2      8163      1013      1014      8191      8612      1029      8669      8667
 -1      2716   10    0    1
 -2       573      8164      8192       574      8614      8670      8671       589
 -1      2717   10    0    1
 -2      8164      8165      8193      8192      8616      8672      8673      8670
 -1      2718   10    0    1
 -2      8165      8166      8194      8193      8618      8674      8675      8672
 -1      2719   10    0    1
 -2      8166      8167      8195      8194      8620      8676      8677      8674
 -1      2720   10    0    1
 -2      8167      8168      8196      8195      8622      8678      8679      8676
 -1      2721   10    0    1
 -2      8168      8169      8197      8196      8624      8680      8681      8678
 -1      2722   10    0    1
 -2      8169      8170      8198      8197      8626      8682      8683      8680
 -1      2723   10    0    1
 -2      8170      8171      8199      8198      8628      8684      8685      8682
 -1      2724   10    0    1
 -2      8171      8172      8200      8199      8630      8686      8687      8684
 -1      2725   10    0    1
 -2      8172      8173      8201      8200      8632      8688      8689      8686
 -1      2726   10    0    1
 -2      8173      8174      8202      8201      8634      8690      8691      8688
 -1      2727   10    0    1
 -2      8174      8175      8203      8202      8636      8692      8693      8690
 -1      2728   10    0    1
 -2      8175      8176      8204      8203      8638      8694      8695      8692
 -1      2729   10    0    1
 -2      8176      8177      8205      8204      8640      8696      8697      8694
 -1      2730   10    0    1
 -2      8177      8178      8206      8205      8642      8698      8699      8696
 -1      2731   10    0    1
 -2      8178      8179      8207      8206      8644      8700      8701      8698
 -1      2732   10    0    1
 -2      8179      8180      8208      8207      8646      8702      8703      8700
 -1      2733   10    0    1
 -2      8180      8181      8209      8208      8648      8704      8705      8702
 -1      2734   10    0    1
 -2      8181      8182      8210      8209      8650      8706      8707      8704
 -1      2735   10    0    1
 -2      8182      8183      8211      8210      8652      8708      8709      8706
 -1      2736   10    0    1
 -2      8183      8184      8212      8211      8654      8710      8711      8708
 -1      2737   10    0    1
 -2      8184      8185      8213      8212      8656      8712      8713      8710
 -1      2738   10    0    1
 -2      8185      8186      8214      8213      8658      8714      8715      8712
 -1      2739   10    0    1
 -2      8186      8187      8215      8214      8660      8716      8717      8714
 -1      2740   10    0    1
 -2      8187      8188      8216      8215      8662      8718      8719      8716
 -1      2741   10    0    1
 -2      8188      8189      8217      8216      8664      8720      8721      8718
 -1      2742   10    0    1
 -2      8189      8190      8218      8217      8666      8722      8723      8720
 -1      2743   10    0    1
 -2      8190      8191      8219      8218      8668      8724      8725      8722
 -1      2744   10    0    1
 -2      8191      1014      1015      8219      8669      1030      8726      8724
 -1      2745   10    0    1
 -2       574      8192      8220       575      8671      8727      8728       590
 -1      2746   10    0    1
 -2      8192      8193      8221      8220      8673      8729      8730      8727
 -1      2747   10    0    1
 -2      8193      8194      8222      8221      8675      8731      8732      8729
 -1      2748   10    0    1
 -2      8194      8195      8223      8222      8677      8733      8734      8731
 -1      2749   10    0    1
 -2      8195      8196      8224      8223      8679      8735      8736      8733
 -1      2750   10    0    1
 -2      8196      8197      8225      8224      8681      8737      8738      8735
 -1      2751   10    0    1
 -2      8197      8198      8226      8225      8683      8739      8740      8737
 -1      2752   10    0    1
 -2      8198      8199      8227      8226      8685      8741      8742      8739
 -1      2753   10    0    1
 -2      8199      8200      8228      8227      8687      8743      8744      8741
 -1      2754   10    0    1
 -2      8200      8201      8229      8228      8689      8745      8746      8743
 -1      2755   10    0    1
 -2      8201      8202      8230      8229      8691      8747      8748      8745
 -1      2756   10    0    1
 -2      8202      8203      8231      8230      8693      8749      8750      8747
 -1      2757   10    0    1
 -2      8203      8204      8232      8231      8695      8751      8752      8749
 -1      2758   10    0    1
 -2      8204      8205      8233      8232      8697      8753      8754      8751
 -1      2759   10    0    1
 -2      8205      8206      8234      8233      8699      8755      8756      8753
 -1      2760   10    0    1
 -2      8206      8207      8235      8234      8701      8757      8758      8755
 -1      2761   10    0    1
 -2      8207      8208      8236      8235      8703      8759      8760      8757
 -1      2762   10    0    1
 -2      8208      8209      8237      8236      8705      8761      8762      8759
 -1      2763   10    0    1
 -2      8209      8210      8238      8237      8707      8763      8764      8761
 -1      2764   10    0    1
 -2      8210      8211      8239      8238      8709      8765      8766      8763
 -1      2765   10    0    1
 -2      8211      8212      8240      8239      8711      8767      8768      8765
 -1      2766   10    0    1
 -2      8212      8213      8241      8240      8713      8769      8770      8767
 -1      2767   10    0    1
 -2      8213      8214      8242      8241      8715      8771      8772      8769
 -1      2768   10    0    1
 -2      8214      8215      8243      8242      8717      8773      8774      8771
 -1      2769   10    0    1
 -2      8215      8216      8244      8243      8719      8775      8776      8773
 -1      2770   10    0    1
 -2      8216      8217      8245      8244      8721      8777      8778      8775
 -1      2771   10    0    1
 -2      8217      8218      8246      8245      8723      8779      8780      8777
 -1      2772   10    0    1
 -2      8218      8219      8247      8246      8725      8781      8782      8779
 -1      2773   10    0    1
 -2      8219      1015      1016      8247      8726      1031      8783      8781
 -1      2774   10    0    1
 -2       575      8220      8248       576      8728      8784      8785       591
 -1      2775   10    0    1
 -2      8220      8221      8249      8248      8730      8786      8787      8784
 -1      2776   10    0    1
 -2      8221      8222      8250      8249      8732      8788      8789      8786
 -1      2777   10    0    1
 -2      8222      8223      8251      8250      8734      8790      8791      8788
 -1      2778   10    0    1
 -2      8223      8224      8252      8251      8736      8792      8793      8790
 -1      2779   10    0    1
 -2      8224      8225      8253      8252      8738      8794      8795      8792
 -1      2780   10    0    1
 -2      8225      8226      8254      8253      8740      8796      8797      8794
 -1      2781   10    0    1
 -2      8226      8227      8255      8254      8742      8798      8799      8796
 -1      2782   10    0    1
 -2      8227      8228      8256      8255      8744      8800      8801      8798
 -1      2783   10    0    1
 -2      8228      8229      8257      8256      8746      8802      8803      8800
 -1      2784   10    0    1
 -2      8229      8230      8258      8257      8748      8804      8805      8802
 -1      2785   10    0    1
 -2      8230      8231      8259      8258      8750      8806      8807      8804
 -1      2786   10    0    1
 -2      8231      8232      8260      8259      8752      8808      8809      8806
 -1      2787   10    0    1
 -2      8232      8233      8261      8260      8754      8810      8811      8808
 -1      2788   10    0    1
 -2      8233      8234      8262      8261      8756      8812      8813      8810
 -1      2789   10    0    1
 -2      8234      8235      8263      8262      8758      8814      8815      8812
 -1      2790   10    0    1
 -2      8235      8236      8264      8263      8760      8816      8817      8814
 -1      2791   10    0    1
 -2      8236      8237      8265      8264      8762      8818      8819      8816
 -1      2792   10    0    1
 -2      8237      8238      8266      8265      8764      8820      8821      8818
 -1      2793   10    0    1
 -2      8238      8239      8267      8266      8766      8822      8823      8820
 -1      2794   10    0    1
 -2      8239      8240      8268      8267      8768      8824      8825      8822
 -1      2795   10    0    1
 -2      8240      8241      8269      8268      8770      8826      8827      8824
 -1      2796   10    0    1
 -2      8241      8242      8270      8269      8772      8828      8829      8826
 -1      2797   10    0    1
 -2      8242      8243      8271      8270      8774      8830      8831      8828
 -1      2798   10    0    1
 -2      8243      8244      8272      8271      8776      8832      8833      8830
 -1      2799   10    0    1
 -2      8244      8245      8273      8272      8778      8834      8835      8832
 -1      2800   10    0    1
 -2      8245      8246      8274      8273      8780      8836      8837      8834
 -1      2801   10    0    1
 -2      8246      8247      8275      8274      8782      8838      8839      8836
 -1      2802   10    0    1
 -2      8247      1016      1017      8275      8783      1032      8840      8838
 -1      2803   10    0    1
 -2       576      8248      8276       577      8785      8841      8842       592
 -1      2804   10    0    1
 -2      8248      8249      8277      8276      8787      8843      8844      8841
 -1      2805   10    0    1
 -2      8249      8250      8278      8277      8789      8845      8846      8843
 -1      2806   10    0    1
 -2      8250      8251      8279      8278      8791      8847      8848      8845
 -1      2807   10    0    1
 -2      8251      8252      8280      8279      8793      8849      8850      8847
 -1      2808   10    0    1
 -2      8252      8253      8281      8280      8795      8851      8852      8849
 -1      2809   10    0    1
 -2      8253      8254      8282      8281      8797      8853      8854      8851
 -1      2810   10    0    1
 -2      8254      8255      8283      8282      8799      8855      8856      8853
 -1      2811   10    0    1
 -2      8255      8256      8284      8283      8801      8857      8858      8855
 -1      2812   10    0    1
 -2      8256      8257      8285      8284      8803      8859      8860      8857
 -1      2813   10    0    1
 -2      8257      8258      8286      8285      8805      8861      8862      8859
 -1      2814   10    0    1
 -2      8258      8259      8287      8286      8807      8863      8864      8861
 -1      2815   10    0    1
 -2      8259      8260      8288      8287      8809      8865      8866      8863
 -1      2816   10    0    1
 -2      8260      8261      8289      8288      8811      8867      8868      8865
 -1      2817   10    0    1
 -2      8261      8262      8290      8289      8813      8869      8870      8867
 -1      2818   10    0    1
 -2      8262      8263      8291      8290      8815      8871      8872      8869
 -1      2819   10    0    1
 -2      8263      8264      8292      8291      8817      8873      8874      8871
 -1      2820   10    0    1
 -2      8264      8265      8293      8292      8819      8875      8876      8873
 -1      2821   10    0    1
 -2      8265      8266      8294      8293      8821      8877      8878      8875
 -1      2822   10    0    1
 -2      8266      8267      8295      8294      8823      8879      8880      8877
 -1      2823   10    0    1
 -2      8267      8268      8296      8295      8825      8881      8882      8879
 -1      2824   10    0    1
 -2      8268      8269      8297      8296      8827      8883      8884      8881
 -1      2825   10    0    1
 -2      8269      8270      8298      8297      8829      8885      8886      8883
 -1      2826   10    0    1
 -2      8270      8271      8299      8298      8831      8887      8888      8885
 -1      2827   10    0    1
 -2      8271      8272      8300      8299      8833      8889      8890      8887
 -1      2828   10    0    1
 -2      8272      8273      8301      8300      8835      8891      8892      8889
 -1      2829   10    0    1
 -2      8273      8274      8302      8301      8837      8893      8894      8891
 -1      2830   10    0    1
 -2      8274      8275      8303      8302      8839      8895      8896      8893
 -1      2831   10    0    1
 -2      8275      1017      1018      8303      8840      1033      8897      8895
 -1      2832   10    0    1
 -2       577      8276      8304       578      8842      8898      8899       593
 -1      2833   10    0    1
 -2      8276      8277      8305      8304      8844      8900      8901      8898
 -1      2834   10    0    1
 -2      8277      8278      8306      8305      8846      8902      8903      8900
 -1      2835   10    0    1
 -2      8278      8279      8307      8306      8848      8904      8905      8902
 -1      2836   10    0    1
 -2      8279      8280      8308      8307      8850      8906      8907      8904
 -1      2837   10    0    1
 -2      8280      8281      8309      8308      8852      8908      8909      8906
 -1      2838   10    0    1
 -2      8281      8282      8310      8309      8854      8910      8911      8908
 -1      2839   10    0    1
 -2      8282      8283      8311      8310      8856      8912      8913      8910
 -1      2840   10    0    1
 -2      8283      8284      8312      8311      8858      8914      8915      8912
 -1      2841   10    0    1
 -2      8284      8285      8313      8312      8860      8916      8917      8914
 -1      2842   10    0    1
 -2      8285      8286      8314      8313      8862      8918      8919      8916
 -1      2843   10    0    1
 -2      8286      8287      8315      8314      8864      8920      8921      8918
 -1      2844   10    0    1
 -2      8287      8288      8316      8315      8866      8922      8923      8920
 -1      2845   10    0    1
 -2      8288      8289      8317      8316      8868      8924      8925      8922
 -1      2846   10    0    1
 -2      8289      8290      8318      8317      8870      8926      8927      8924
 -1      2847   10    0    1
 -2      8290      8291      8319      8318      8872      8928      8929      8926
 -1      2848   10    0    1
 -2      8291      8292      8320      8319      8874      8930      8931      8928
 -1      2849   10    0    1
 -2      8292      8293      8321      8320      8876      8932      8933      8930
 -1      2850   10    0    1
 -2      8293      8294      8322      8321      8878      8934      8935      8932
 -1      2851   10    0    1
 -2      8294      8295      8323      8322      8880      8936      8937      8934
 -1      2852   10    0    1
 -2      8295      8296      8324      8323      8882      8938      8939      8936
 -1      2853   10    0    1
 -2      8296      8297      8325      8324      8884      8940      8941      8938
 -1      2854   10    0    1
 -2      8297      8298      8326      8325      8886      8942      8943      8940
 -1      2855   10    0    1
 -2      8298      8299      8327      8326      8888      8944      8945      8942
 -1      2856   10    0    1
 -2      8299      8300      8328      8327      8890      8946      8947      8944
 -1      2857   10    0    1
 -2      8300      8301      8329      8328      8892      8948      8949      8946
 -1      2858   10    0    1
 -2      8301      8302      8330      8329      8894      8950      8951      8948
 -1      2859   10    0    1
 -2      8302      8303      8331      8330      8896      8952      8953      8950
 -1      2860   10    0    1
 -2      8303      1018      1019      8331      8897      1034      8954      8952
 -1      2861   10    0    1
 -2       578      8304      8332       579      8899      8955      8956       594
 -1      2862   10    0    1
 -2      8304      8305      8333      8332      8901      8957      8958      8955
 -1      2863   10    0    1
 -2      8305      8306      8334      8333      8903      8959      8960      8957
 -1      2864   10    0    1
 -2      8306      8307      8335      8334      8905      8961      8962      8959
 -1      2865   10    0    1
 -2      8307      8308      8336      8335      8907      8963      8964      8961
 -1      2866   10    0    1
 -2      8308      8309      8337      8336      8909      8965      8966      8963
 -1      2867   10    0    1
 -2      8309      8310      8338      8337      8911      8967      8968      8965
 -1      2868   10    0    1
 -2      8310      8311      8339      8338      8913      8969      8970      8967
 -1      2869   10    0    1
 -2      8311      8312      8340      8339      8915      8971      8972      8969
 -1      2870   10    0    1
 -2      8312      8313      8341      8340      8917      8973      8974      8971
 -1      2871   10    0    1
 -2      8313      8314      8342      8341      8919      8975      8976      8973
 -1      2872   10    0    1
 -2      8314      8315      8343      8342      8921      8977      8978      8975
 -1      2873   10    0    1
 -2      8315      8316      8344      8343      8923      8979      8980      8977
 -1      2874   10    0    1
 -2      8316      8317      8345      8344      8925      8981      8982      8979
 -1      2875   10    0    1
 -2      8317      8318      8346      8345      8927      8983      8984      8981
 -1      2876   10    0    1
 -2      8318      8319      8347      8346      8929      8985      8986      8983
 -1      2877   10    0    1
 -2      8319      8320      8348      8347      8931      8987      8988      8985
 -1      2878   10    0    1
 -2      8320      8321      8349      8348      8933      8989      8990      8987
 -1      2879   10    0    1
 -2      8321      8322      8350      8349      8935      8991      8992      8989
 -1      2880   10    0    1
 -2      8322      8323      8351      8350      8937      8993      8994      8991
 -1      2881   10    0    1
 -2      8323      8324      8352      8351      8939      8995      8996      8993
 -1      2882   10    0    1
 -2      8324      8325      8353      8352      8941      8997      8998      8995
 -1      2883   10    0    1
 -2      8325      8326      8354      8353      8943      8999      9000      8997
 -1      2884   10    0    1
 -2      8326      8327      8355      8354      8945      9001      9002      8999
 -1      2885   10    0    1
 -2      8327      8328      8356      8355      8947      9003      9004      9001
 -1      2886   10    0    1
 -2      8328      8329      8357      8356      8949      9005      9006      9003
 -1      2887   10    0    1
 -2      8329      8330      8358      8357      8951      9007      9008      9005
 -1      2888   10    0    1
 -2      8330      8331      8359      8358      8953      9009      9010      9007
 -1      2889   10    0    1
 -2      8331      1019      1020      8359      8954      1035      9011      9009
 -1      2890   10    0    1
 -2       579      8332      8360       580      8956      9012      9013       595
 -1      2891   10    0    1
 -2      8332      8333      8361      8360      8958      9014      9015      9012
 -1      2892   10    0    1
 -2      8333      8334      8362      8361      8960      9016      9017      9014
 -1      2893   10    0    1
 -2      8334      8335      8363      8362      8962      9018      9019      9016
 -1      2894   10    0    1
 -2      8335      8336      8364      8363      8964      9020      9021      9018
 -1      2895   10    0    1
 -2      8336      8337      8365      8364      8966      9022      9023      9020
 -1      2896   10    0    1
 -2      8337      8338      8366      8365      8968      9024      9025      9022
 -1      2897   10    0    1
 -2      8338      8339      8367      8366      8970      9026      9027      9024
 -1      2898   10    0    1
 -2      8339      8340      8368      8367      8972      9028      9029      9026
 -1      2899   10    0    1
 -2      8340      8341      8369      8368      8974      9030      9031      9028
 -1      2900   10    0    1
 -2      8341      8342      8370      8369      8976      9032      9033      9030
 -1      2901   10    0    1
 -2      8342      8343      8371      8370      8978      9034      9035      9032
 -1      2902   10    0    1
 -2      8343      8344      8372      8371      8980      9036      9037      9034
 -1      2903   10    0    1
 -2      8344      8345      8373      8372      8982      9038      9039      9036
 -1      2904   10    0    1
 -2      8345      8346      8374      8373      8984      9040      9041      9038
 -1      2905   10    0    1
 -2      8346      8347      8375      8374      8986      9042      9043      9040
 -1      2906   10    0    1
 -2      8347      8348      8376      8375      8988      9044      9045      9042
 -1      2907   10    0    1
 -2      8348      8349      8377      8376      8990      9046      9047      9044
 -1      2908   10    0    1
 -2      8349      8350      8378      8377      8992      9048      9049      9046
 -1      2909   10    0    1
 -2      8350      8351      8379      8378      8994      9050      9051      9048
 -1      2910   10    0    1
 -2      8351      8352      8380      8379      8996      9052      9053      9050
 -1      2911   10    0    1
 -2      8352      8353      8381      8380      8998      9054      9055      9052
 -1      2912   10    0    1
 -2      8353      8354      8382      8381      9000      9056      9057      9054
 -1      2913   10    0    1
 -2      8354      8355      8383      8382      9002      9058      9059      9056
 -1      2914   10    0    1
 -2      8355      8356      8384      8383      9004      9060      9061      9058
 -1      2915   10    0    1
 -2      8356      8357      8385      8384      9006      9062      9063      9060
 -1      2916   10    0    1
 -2      8357      8358      8386      8385      9008      9064      9065      9062
 -1      2917   10    0    1
 -2      8358      8359      8387      8386      9010      9066      9067      9064
 -1      2918   10    0    1
 -2      8359      1020      1021      8387      9011      1036      9068      9066
 -1      2919   10    0    1
 -2       580      8360      8388       581      9013      9069      9070       596
 -1      2920   10    0    1
 -2      8360      8361      8389      8388      9015      9071      9072      9069
 -1      2921   10    0    1
 -2      8361      8362      8390      8389      9017      9073      9074      9071
 -1      2922   10    0    1
 -2      8362      8363      8391      8390      9019      9075      9076      9073
 -1      2923   10    0    1
 -2      8363      8364      8392      8391      9021      9077      9078      9075
 -1      2924   10    0    1
 -2      8364      8365      8393      8392      9023      9079      9080      9077
 -1      2925   10    0    1
 -2      8365      8366      8394      8393      9025      9081      9082      9079
 -1      2926   10    0    1
 -2      8366      8367      8395      8394      9027      9083      9084      9081
 -1      2927   10    0    1
 -2      8367      8368      8396      8395      9029      9085      9086      9083
 -1      2928   10    0    1
 -2      8368      8369      8397      8396      9031      9087      9088      9085
 -1      2929   10    0    1
 -2      8369      8370      8398      8397      9033      9089      9090      9087
 -1      2930   10    0    1
 -2      8370      8371      8399      8398      9035      9091      9092      9089
 -1      2931   10    0    1
 -2      8371      8372      8400      8399      9037      9093      9094      9091
 -1      2932   10    0    1
 -2      8372      8373      8401      8400      9039      9095      9096      9093
 -1      2933   10    0    1
 -2      8373      8374      8402      8401      9041      9097      9098      9095
 -1      2934   10    0    1
 -2      8374      8375      8403      8402      9043      9099      9100      9097
 -1      2935   10    0    1
 -2      8375      8376      8404      8403      9045      9101      9102      9099
 -1      2936   10    0    1
 -2      8376      8377      8405      8404      9047      9103      9104      9101
 -1      2937   10    0    1
 -2      8377      8378      8406      8405      9049      9105      9106      9103
 -1      2938   10    0    1
 -2      8378      8379      8407      8406      9051      9107      9108      9105
 -1      2939   10    0    1
 -2      8379      8380      8408      8407      9053      9109      9110      9107
 -1      2940   10    0    1
 -2      8380      8381      8409      8408      9055      9111      9112      9109
 -1      2941   10    0    1
 -2      8381      8382      8410      8409      9057      9113      9114      9111
 -1      2942   10    0    1
 -2      8382      8383      8411      8410      9059      9115      9116      9113
 -1      2943   10    0    1
 -2      8383      8384      8412      8411      9061      9117      9118      9115
 -1      2944   10    0    1
 -2      8384      8385      8413      8412      9063      9119      9120      9117
 -1      2945   10    0    1
 -2      8385      8386      8414      8413      9065      9121      9122      9119
 -1      2946   10    0    1
 -2      8386      8387      8415      8414      9067      9123      9124      9121
 -1      2947   10    0    1
 -2      8387      1021      1022      8415      9068      1037      9125      9123
 -1      2948   10    0    1
 -2       581      8388      8416       582      9070      9126      9127       597
 -1      2949   10    0    1
 -2      8388      8389      8417      8416      9072      9128      9129      9126
 -1      2950   10    0    1
 -2      8389      8390      8418      8417      9074      9130      9131      9128
 -1      2951   10    0    1
 -2      8390      8391      8419      8418      9076      9132      9133      9130
 -1      2952   10    0    1
 -2      8391      8392      8420      8419      9078      9134      9135      9132
 -1      2953   10    0    1
 -2      8392      8393      8421      8420      9080      9136      9137      9134
 -1      2954   10    0    1
 -2      8393      8394      8422      8421      9082      9138      9139      9136
 -1      2955   10    0    1
 -2      8394      8395      8423      8422      9084      9140      9141      9138
 -1      2956   10    0    1
 -2      8395      8396      8424      8423      9086      9142      9143      9140
 -1      2957   10    0    1
 -2      8396      8397      8425      8424      9088      9144      9145      9142
 -1      2958   10    0    1
 -2      8397      8398      8426      8425      9090      9146      9147      9144
 -1      2959   10    0    1
 -2      8398      8399      8427      8426      9092      9148      9149      9146
 -1      2960   10    0    1
 -2      8399      8400      8428      8427      9094      9150      9151      9148
 -1      2961   10    0    1
 -2      8400      8401      8429      8428      9096      9152      9153      9150
 -1      2962   10    0    1
 -2      8401      8402      8430      8429      9098      9154      9155      9152
 -1      2963   10    0    1
 -2      8402      8403      8431      8430      9100      9156      9157      9154
 -1      2964   10    0    1
 -2      8403      8404      8432      8431      9102      9158      9159      9156
 -1      2965   10    0    1
 -2      8404      8405      8433      8432      9104      9160      9161      9158
 -1      2966   10    0    1
 -2      8405      8406      8434      8433      9106      9162      9163      9160
 -1      2967   10    0    1
 -2      8406      8407      8435      8434      9108      9164      9165      9162
 -1      2968   10    0    1
 -2      8407      8408      8436      8435      9110      9166      9167      9164
 -1      2969   10    0    1
 -2      8408      8409      8437      8436      9112      9168      9169      9166
 -1      2970   10    0    1
 -2      8409      8410      8438      8437      9114      9170      9171      9168
 -1      2971   10    0    1
 -2      8410      8411      8439      8438      9116      9172      9173      9170
 -1      2972   10    0    1
 -2      8411      8412      8440      8439      9118      9174      9175      9172
 -1      2973   10    0    1
 -2      8412      8413      8441      8440      9120      9176      9177      9174
 -1      2974   10    0    1
 -2      8413      8414      8442      8441      9122      9178      9179      9176
 -1      2975   10    0    1
 -2      8414      8415      8443      8442      9124      9180      9181      9178
 -1      2976   10    0    1
 -2      8415      1022      1023      8443      9125      1038      9182      9180
 -1      2977   10    0    1
 -2       582      8416      8444       583      9127      9183      9184       598
 -1      2978   10    0    1
 -2      8416      8417      8445      8444      9129      9185      9186      9183
 -1      2979   10    0    1
 -2      8417      8418      8446      8445      9131      9187      9188      9185
 -1      2980   10    0    1
 -2      8418      8419      8447      8446      9133      9189      9190      9187
 -1      2981   10    0    1
 -2      8419      8420      8448      8447      9135      9191      9192      9189
 -1      2982   10    0    1
 -2      8420      8421      8449      8448      9137      9193      9194      9191
 -1      2983   10    0    1
 -2      8421      8422      8450      8449      9139      9195      9196      9193
 -1      2984   10    0    1
 -2      8422      8423      8451      8450      9141      9197      9198      9195
 -1      2985   10    0    1
 -2      8423      8424      8452      8451      9143      9199      9200      9197
 -1      2986   10    0    1
 -2      8424      8425      8453      8452      9145      9201      9202      9199
 -1      2987   10    0    1
 -2      8425      8426      8454      8453      9147      9203      9204      9201
 -1      2988   10    0    1
 -2      8426      8427      8455      8454      9149      9205      9206      9203
 -1      2989   10    0    1
 -2      8427      8428      8456      8455      9151      9207      9208      9205
 -1      2990   10    0    1
 -2      8428      8429      8457      8456      9153      9209      9210      9207
 -1      2991   10    0    1
 -2      8429      8430      8458      8457      9155      9211      9212      9209
 -1      2992   10    0    1
 -2      8430      8431      8459      8458      9157      9213      9214      9211
 -1      2993   10    0    1
 -2      8431      8432      8460      8459      9159      9215      9216      9213
 -1      2994   10    0    1
 -2      8432      8433      8461      8460      9161      9217      9218      9215
 -1      2995   10    0    1
 -2      8433      8434      8462      8461      9163      9219      9220      9217
 -1      2996   10    0    1
 -2      8434      8435      8463      8462      9165      9221      9222      9219
 -1      2997   10    0    1
 -2      8435      8436      8464      8463      9167      9223      9224      9221
 -1      2998   10    0    1
 -2      8436      8437      8465      8464      9169      9225      9226      9223
 -1      2999   10    0    1
 -2      8437      8438      8466      8465      9171      9227      9228      9225
 -1      3000   10    0    1
 -2      8438      8439      8467      8466      9173      9229      9230      9227
 -1      3001   10    0    1
 -2      8439      8440      8468      8467      9175      9231      9232      9229
 -1      3002   10    0    1
 -2      8440      8441      8469      8468      9177      9233      9234      9231
 -1      3003   10    0    1
 -2      8441      8442      8470      8469      9179      9235      9236      9233
 -1      3004   10    0    1
 -2      8442      8443      8471      8470      9181      9237      9238      9235
 -1      3005   10    0    1
 -2      8443      1023      1024      8471      9182      1039      9239      9237
 -1      3006   10    0    1
 -2       583      8444      8472       584      9184      9240      9241       599
 -1      3007   10    0    1
 -2      8444      8445      8473      8472      9186      9242      9243      9240
 -1      3008   10    0    1
 -2      8445      8446      8474      8473      9188      9244      9245      9242
 -1      3009   10    0    1
 -2      8446      8447      8475      8474      9190      9246      9247      9244
 -1      3010   10    0    1
 -2      8447      8448      8476      8475      9192      9248      9249      9246
 -1      3011   10    0    1
 -2      8448      8449      8477      8476      9194      9250      9251      9248
 -1      3012   10    0    1
 -2      8449      8450      8478      8477      9196      9252      9253      9250
 -1      3013   10    0    1
 -2      8450      8451      8479      8478      9198      9254      9255      9252
 -1      3014   10    0    1
 -2      8451      8452      8480      8479      9200      9256      9257      9254
 -1      3015   10    0    1
 -2      8452      8453      8481      8480      9202      9258      9259      9256
 -1      3016   10    0    1
 -2      8453      8454      8482      8481      9204      9260      9261      9258
 -1      3017   10    0    1
 -2      8454      8455      8483      8482      9206      9262      9263      9260
 -1      3018   10    0    1
 -2      8455      8456      8484      8483      9208      9264      9265      9262
 -1      3019   10    0    1
 -2      8456      8457      8485      8484      9210      9266      9267      9264
 -1      3020   10    0    1
 -2      8457      8458      8486      8485      9212      9268      9269      9266
 -1      3021   10    0    1
 -2      8458      8459      8487      8486      9214      9270      9271      9268
 -1      3022   10    0    1
 -2      8459      8460      8488      8487      9216      9272      9273      9270
 -1      3023   10    0    1
 -2      8460      8461      8489      8488      9218      9274      9275      9272
 -1      3024   10    0    1
 -2      8461      8462      8490      8489      9220      9276      9277      9274
 -1      3025   10    0    1
 -2      8462      8463      8491      8490      9222      9278      9279      9276
 -1      3026   10    0    1
 -2      8463      8464      8492      8491      9224      9280      9281      9278
 -1      3027   10    0    1
 -2      8464      8465      8493      8492      9226      9282      9283      9280
 -1      3028   10    0    1
 -2      8465      8466      8494      8493      9228      9284      9285      9282
 -1      3029   10    0    1
 -2      8466      8467      8495      8494      9230      9286      9287      9284
 -1      3030   10    0    1
 -2      8467      8468      8496      8495      9232      9288      9289      9286
 -1      3031   10    0    1
 -2      8468      8469      8497      8496      9234      9290      9291      9288
 -1      3032   10    0    1
 -2      8469      8470      8498      8497      9236      9292      9293      9290
 -1      3033   10    0    1
 -2      8470      8471      8499      8498      9238      9294      9295      9292
 -1      3034   10    0    1
 -2      8471      1024      1025      8499      9239      1040      9296      9294
 -1      3035   10    0    1
 -2       584      8472      8500       585      9241      9297      9298       600
 -1      3036   10    0    1
 -2      8472      8473      8501      8500      9243      9299      9300      9297
 -1      3037   10    0    1
 -2      8473      8474      8502      8501      9245      9301      9302      9299
 -1      3038   10    0    1
 -2      8474      8475      8503      8502      9247      9303      9304      9301
 -1      3039   10    0    1
 -2      8475      8476      8504      8503      9249      9305      9306      9303
 -1      3040   10    0    1
 -2      8476      8477      8505      8504      9251      9307      9308      9305
 -1      3041   10    0    1
 -2      8477      8478      8506      8505      9253      9309      9310      9307
 -1      3042   10    0    1
 -2      8478      8479      8507      8506      9255      9311      9312      9309
 -1      3043   10    0    1
 -2      8479      8480      8508      8507      9257      9313      9314      9311
 -1      3044   10    0    1
 -2      8480      8481      8509      8508      9259      9315      9316      9313
 -1      3045   10    0    1
 -2      8481      8482      8510      8509      9261      9317      9318      9315
 -1      3046   10    0    1
 -2      8482      8483      8511      8510      9263      9319      9320      9317
 -1      3047   10    0    1
 -2      8483      8484      8512      8511      9265      9321      9322      9319
 -1      3048   10    0    1
 -2      8484      8485      8513      8512      9267      9323      9324      9321
 -1      3049   10    0    1
 -2      8485      8486      8514      8513      9269      9325      9326      9323
 -1      3050   10    0    1
 -2      8486      8487      8515      8514      9271      9327      9328      9325
 -1      3051   10    0    1
 -2      8487      8488      8516      8515      9273      9329      9330      9327
 -1      3052   10    0    1
 -2      8488      8489      8517      8516      9275      9331      9332      9329
 -1      3053   10    0    1
 -2      8489      8490      8518      8517      9277      9333      9334      9331
 -1      3054   10    0    1
 -2      8490      8491      8519      8518      9279      9335      9336      9333
 -1      3055   10    0    1
 -2      8491      8492      8520      8519      9281      9337      9338      9335
 -1      3056   10    0    1
 -2      8492      8493      8521      8520      9283      9339      9340      9337
 -1      3057   10    0    1
 -2      8493      8494      8522      8521      9285      9341      9342      9339
 -1      3058   10    0    1
 -2      8494      8495      8523      8522      9287      9343      9344      9341
 -1      3059   10    0    1
 -2      8495      8496      8524      8523      9289      9345      9346      9343
 -1      3060   10    0    1
 -2      8496      8497      8525      8524      9291      9347      9348      9345
 -1      3061   10    0    1
 -2      8497      8498      8526      8525      9293      9349      9350      9347
 -1      3062   10    0    1
 -2      8498      8499      8527      8526      9295      9351      9352      9349
 -1      3063   10    0    1
 -2      8499      1025      1026      8527      9296      1041      9353      9351
 -1      3064   10    0    1
 -2       585      8500      8528       586      9298      9354      9355       601
 -1      3065   10    0    1
 -2      8500      8501      8529      8528      9300      9356      9357      9354
 -1      3066   10    0    1
 -2      8501      8502      8530      8529      9302      9358      9359      9356
 -1      3067   10    0    1
 -2      8502      8503      8531      8530      9304      9360      9361      9358
 -1      3068   10    0    1
 -2      8503      8504      8532      8531      9306      9362      9363      9360
 -1      3069   10    0    1
 -2      8504      8505      8533      8532      9308      9364      9365      9362
 -1      3070   10    0    1
 -2      8505      8506      8534      8533      9310      9366      9367      9364
 -1      3071   10    0    1
 -2      8506      8507      8535      8534      9312      9368      9369      9366
 -1      3072   10    0    1
 -2      8507      8508      8536      8535      9314      9370      9371      9368
 -1      3073   10    0    1
 -2      8508      8509      8537      8536      9316      9372      9373      9370
 -1      3074   10    0    1
 -2      8509      8510      8538      8537      9318      9374      9375      9372
 -1      3075   10    0    1
 -2      8510      8511      8539      8538      9320      9376      9377      9374
 -1      3076   10    0    1
 -2      8511      8512      8540      8539      9322      9378      9379      9376
 -1      3077   10    0    1
 -2      8512      8513      8541      8540      9324      9380      9381      9378
 -1      3078   10    0    1
 -2      8513      8514      8542      8541      9326      9382      9383      9380
 -1      3079   10    0    1
 -2      8514      8515      8543      8542      9328      9384      9385      9382
 -1      3080   10    0    1
 -2      8515      8516      8544      8543      9330      9386      9387      9384
 -1      3081   10    0    1
 -2      8516      8517      8545      8544      9332      9388      9389      9386
 -1      3082   10    0    1
 -2      8517      8518      8546      8545      9334      9390      9391      9388
 -1      3083   10    0    1
 -2      8518      8519      8547      8546      9336      9392      9393      9390
 -1      3084   10    0    1
 -2      8519      8520      8548      8547      9338      9394      9395      9392
 -1      3085   10    0    1
 -2      8520      8521      8549      8548      9340      9396      9397      9394
 -1      3086   10    0    1
 -2      8521      8522      8550      8549      9342      9398      9399      9396
 -1      3087   10    0    1
 -2      8522      8523      8551      8550      9344      9400      9401      9398
 -1      3088   10    0    1
 -2      8523      8524      8552      8551      9346      9402      9403      9400
 -1      3089   10    0    1
 -2      8524      8525      8553      8552      9348      9404      9405      9402
 -1      3090   10    0    1
 -2      8525      8526      8554      8553      9350      9406      9407      9404
 -1      3091   10    0    1
 -2      8526      8527      8555      8554      9352      9408      9409      9406
 -1      3092   10    0    1
 -2      8527      1026      1027      8555      9353      1042      9410      9408
 -1      3093   10    0    1
 -2       586      8528       603        15      9355      9411       631       602
 -1      3094   10    0    1
 -2      8528      8529       604       603      9357      9412       632      9411
 -1      3095   10    0    1
 -2      8529      8530       605       604      9359      9413       633      9412
 -1      3096   10    0    1
 -2      8530      8531       606       605      9361      9414       634      9413
 -1      3097   10    0    1
 -2      8531      8532       607       606      9363      9415       635      9414
 -1      3098   10    0    1
 -2      8532      8533       608       607      9365      9416       636      9415
 -1      3099   10    0    1
 -2      8533      8534       609       608      9367      9417       637      9416
 -1      3100   10    0    1
 -2      8534      8535       610       609      9369      9418       638      9417
 -1      3101   10    0    1
 -2      8535      8536       611       610      9371      9419       639      9418
 -1      3102   10    0    1
 -2      8536      8537       612       611      9373      9420       640      9419
 -1      3103   10    0    1
 -2      8537      8538       613       612      9375      9421       641      9420
 -1      3104   10    0    1
 -2      8538      8539       614       613      9377      9422       642      9421
 -1      3105   10    0    1
 -2      8539      8540       615       614      9379      9423       643      9422
 -1      3106   10    0    1
 -2      8540      8541       616       615      9381      9424       644      9423
 -1      3107   10    0    1
 -2      8541      8542       617       616      9383      9425       645      9424
 -1      3108   10    0    1
 -2      8542      8543       618       617      9385      9426       646      9425
 -1      3109   10    0    1
 -2      8543      8544       619       618      9387      9427       647      9426
 -1      3110   10    0    1
 -2      8544      8545       620       619      9389      9428       648      9427
 -1      3111   10    0    1
 -2      8545      8546       621       620      9391      9429       649      9428
 -1      3112   10    0    1
 -2      8546      8547       622       621      9393      9430       650      9429
 -1      3113   10    0    1
 -2      8547      8548       623       622      9395      9431       651      9430
 -1      3114   10    0    1
 -2      8548      8549       624       623      9397      9432       652      9431
 -1      3115   10    0    1
 -2      8549      8550       625       624      9399      9433       653      9432
 -1      3116   10    0    1
 -2      8550      8551       626       625      9401      9434       654      9433
 -1      3117   10    0    1
 -2      8551      8552       627       626      9403      9435       655      9434
 -1      3118   10    0    1
 -2      8552      8553       628       627      9405      9436       656      9435
 -1      3119   10    0    1
 -2      8553      8554       629       628      9407      9437       657      9436
 -1      3120   10    0    1
 -2      8554      8555       630       629      9409      9438       658      9437
 -1      3121   10    0    1
 -2      8555      1027        16       630      9410      1043       659      9438
 -1      3122   10    0    1
 -2        16      1027      9439       660      1043      9649      9650       674
 -1      3123   10    0    1
 -2      1027      1026      9440      9439      1042      9651      9652      9649
 -1      3124   10    0    1
 -2      1026      1025      9441      9440      1041      9653      9654      9651
 -1      3125   10    0    1
 -2      1025      1024      9442      9441      1040      9655      9656      9653
 -1      3126   10    0    1
 -2      1024      1023      9443      9442      1039      9657      9658      9655
 -1      3127   10    0    1
 -2      1023      1022      9444      9443      1038      9659      9660      9657
 -1      3128   10    0    1
 -2      1022      1021      9445      9444      1037      9661      9662      9659
 -1      3129   10    0    1
 -2      1021      1020      9446      9445      1036      9663      9664      9661
 -1      3130   10    0    1
 -2      1020      1019      9447      9446      1035      9665      9666      9663
 -1      3131   10    0    1
 -2      1019      1018      9448      9447      1034      9667      9668      9665
 -1      3132   10    0    1
 -2      1018      1017      9449      9448      1033      9669      9670      9667
 -1      3133   10    0    1
 -2      1017      1016      9450      9449      1032      9671      9672      9669
 -1      3134   10    0    1
 -2      1016      1015      9451      9450      1031      9673      9674      9671
 -1      3135   10    0    1
 -2      1015      1014      9452      9451      1030      9675      9676      9673
 -1      3136   10    0    1
 -2      1014      1013      9453      9452      1029      9677      9678      9675
 -1      3137   10    0    1
 -2      1013         7       311      9453      1028       325      9679      9677
 -1      3138   10    0    1
 -2       660      9439      9454       661      9650      9680      9681       675
 -1      3139   10    0    1
 -2      9439      9440      9455      9454      9652      9682      9683      9680
 -1      3140   10    0    1
 -2      9440      9441      9456      9455      9654      9684      9685      9682
 -1      3141   10    0    1
 -2      9441      9442      9457      9456      9656      9686      9687      9684
 -1      3142   10    0    1
 -2      9442      9443      9458      9457      9658      9688      9689      9686
 -1      3143   10    0    1
 -2      9443      9444      9459      9458      9660      9690      9691      9688
 -1      3144   10    0    1
 -2      9444      9445      9460      9459      9662      9692      9693      9690
 -1      3145   10    0    1
 -2      9445      9446      9461      9460      9664      9694      9695      9692
 -1      3146   10    0    1
 -2      9446      9447      9462      9461      9666      9696      9697      9694
 -1      3147   10    0    1
 -2      9447      9448      9463      9462      9668      9698      9699      9696
 -1      3148   10    0    1
 -2      9448      9449      9464      9463      9670      9700      9701      9698
 -1      3149   10    0    1
 -2      9449      9450      9465      9464      9672      9702      9703      9700
 -1      3150   10    0    1
 -2      9450      9451      9466      9465      9674      9704      9705      9702
 -1      3151   10    0    1
 -2      9451      9452      9467      9466      9676      9706      9707      9704
 -1      3152   10    0    1
 -2      9452      9453      9468      9467      9678      9708      9709      9706
 -1      3153   10    0    1
 -2      9453       311       312      9468      9679       326      9710      9708
 -1      3154   10    0    1
 -2       661      9454      9469       662      9681      9711      9712       676
 -1      3155   10    0    1
 -2      9454      9455      9470      9469      9683      9713      9714      9711
 -1      3156   10    0    1
 -2      9455      9456      9471      9470      9685      9715      9716      9713
 -1      3157   10    0    1
 -2      9456      9457      9472      9471      9687      9717      9718      9715
 -1      3158   10    0    1
 -2      9457      9458      9473      9472      9689      9719      9720      9717
 -1      3159   10    0    1
 -2      9458      9459      9474      9473      9691      9721      9722      9719
 -1      3160   10    0    1
 -2      9459      9460      9475      9474      9693      9723      9724      9721
 -1      3161   10    0    1
 -2      9460      9461      9476      9475      9695      9725      9726      9723
 -1      3162   10    0    1
 -2      9461      9462      9477      9476      9697      9727      9728      9725
 -1      3163   10    0    1
 -2      9462      9463      9478      9477      9699      9729      9730      9727
 -1      3164   10    0    1
 -2      9463      9464      9479      9478      9701      9731      9732      9729
 -1      3165   10    0    1
 -2      9464      9465      9480      9479      9703      9733      9734      9731
 -1      3166   10    0    1
 -2      9465      9466      9481      9480      9705      9735      9736      9733
 -1      3167   10    0    1
 -2      9466      9467      9482      9481      9707      9737      9738      9735
 -1      3168   10    0    1
 -2      9467      9468      9483      9482      9709      9739      9740      9737
 -1      3169   10    0    1
 -2      9468       312       313      9483      9710       327      9741      9739
 -1      3170   10    0    1
 -2       662      9469      9484       663      9712      9742      9743       677
 -1      3171   10    0    1
 -2      9469      9470      9485      9484      9714      9744      9745      9742
 -1      3172   10    0    1
 -2      9470      9471      9486      9485      9716      9746      9747      9744
 -1      3173   10    0    1
 -2      9471      9472      9487      9486      9718      9748      9749      9746
 -1      3174   10    0    1
 -2      9472      9473      9488      9487      9720      9750      9751      9748
 -1      3175   10    0    1
 -2      9473      9474      9489      9488      9722      9752      9753      9750
 -1      3176   10    0    1
 -2      9474      9475      9490      9489      9724      9754      9755      9752
 -1      3177   10    0    1
 -2      9475      9476      9491      9490      9726      9756      9757      9754
 -1      3178   10    0    1
 -2      9476      9477      9492      9491      9728      9758      9759      9756
 -1      3179   10    0    1
 -2      9477      9478      9493      9492      9730      9760      9761      9758
 -1      3180   10    0    1
 -2      9478      9479      9494      9493      9732      9762      9763      9760
 -1      3181   10    0    1
 -2      9479      9480      9495      9494      9734      9764      9765      9762
 -1      3182   10    0    1
 -2      9480      9481      9496      9495      9736      9766      9767      9764
 -1      3183   10    0    1
 -2      9481      9482      9497      9496      9738      9768      9769      9766
 -1      3184   10    0    1
 -2      9482      9483      9498      9497      9740      9770      9771      9768
 -1      3185   10    0    1
 -2      9483       313       314      9498      9741       328      9772      9770
 -1      3186   10    0    1
 -2       663      9484      9499       664      9743      9773      9774       678
 -1      3187   10    0    1
 -2      9484      9485      9500      9499      9745      9775      9776      9773
 -1      3188   10    0    1
 -2      9485      9486      9501      9500      9747      9777      9778      9775
 -1      3189   10    0    1
 -2      9486      9487      9502      9501      9749      9779      9780      9777
 -1      3190   10    0    1
 -2      9487      9488      9503      9502      9751      9781      9782      9779
 -1      3191   10    0    1
 -2      9488      9489      9504      9503      9753      9783      9784      9781
 -1      3192   10    0    1
 -2      9489      9490      9505      9504      9755      9785      9786      9783
 -1      3193   10    0    1
 -2      9490      9491      9506      9505      9757      9787      9788      9785
 -1      3194   10    0    1
 -2      9491      9492      9507      9506      9759      9789      9790      9787
 -1      3195   10    0    1
 -2      9492      9493      9508      9507      9761      9791      9792      9789
 -1      3196   10    0    1
 -2      9493      9494      9509      9508      9763      9793      9794      9791
 -1      3197   10    0    1
 -2      9494      9495      9510      9509      9765      9795      9796      9793
 -1      3198   10    0    1
 -2      9495      9496      9511      9510      9767      9797      9798      9795
 -1      3199   10    0    1
 -2      9496      9497      9512      9511      9769      9799      9800      9797
 -1      3200   10    0    1
 -2      9497      9498      9513      9512      9771      9801      9802      9799
 -1      3201   10    0    1
 -2      9498       314       315      9513      9772       329      9803      9801
 -1      3202   10    0    1
 -2       664      9499      9514       665      9774      9804      9805       679
 -1      3203   10    0    1
 -2      9499      9500      9515      9514      9776      9806      9807      9804
 -1      3204   10    0    1
 -2      9500      9501      9516      9515      9778      9808      9809      9806
 -1      3205   10    0    1
 -2      9501      9502      9517      9516      9780      9810      9811      9808
 -1      3206   10    0    1
 -2      9502      9503      9518      9517      9782      9812      9813      9810
 -1      3207   10    0    1
 -2      9503      9504      9519      9518      9784      9814      9815      9812
 -1      3208   10    0    1
 -2      9504      9505      9520      9519      9786      9816      9817      9814
 -1      3209   10    0    1
 -2      9505      9506      9521      9520      9788      9818      9819      9816
 -1      3210   10    0    1
 -2      9506      9507      9522      9521      9790      9820      9821      9818
 -1      3211   10    0    1
 -2      9507      9508      9523      9522      9792      9822      9823      9820
 -1      3212   10    0    1
 -2      9508      9509      9524      9523      9794      9824      9825      9822
 -1      3213   10    0    1
 -2      9509      9510      9525      9524      9796      9826      9827      9824
 -1      3214   10    0    1
 -2      9510      9511      9526      9525      9798      9828      9829      9826
 -1      3215   10    0    1
 -2      9511      9512      9527      9526      9800      9830      9831      9828
 -1      3216   10    0    1
 -2      9512      9513      9528      9527      9802      9832      9833      9830
 -1      3217   10    0    1
 -2      9513       315       316      9528      9803       330      9834      9832
 -1      3218   10    0    1
 -2       665      9514      9529       666      9805      9835      9836       680
 -1      3219   10    0    1
 -2      9514      9515      9530      9529      9807      9837      9838      9835
 -1      3220   10    0    1
 -2      9515      9516      9531      9530      9809      9839      9840      9837
 -1      3221   10    0    1
 -2      9516      9517      9532      9531      9811      9841      9842      9839
 -1      3222   10    0    1
 -2      9517      9518      9533      9532      9813      9843      9844      9841
 -1      3223   10    0    1
 -2      9518      9519      9534      9533      9815      9845      9846      9843
 -1      3224   10    0    1
 -2      9519      9520      9535      9534      9817      9847      9848      9845
 -1      3225   10    0    1
 -2      9520      9521      9536      9535      9819      9849      9850      9847
 -1      3226   10    0    1
 -2      9521      9522      9537      9536      9821      9851      9852      9849
 -1      3227   10    0    1
 -2      9522      9523      9538      9537      9823      9853      9854      9851
 -1      3228   10    0    1
 -2      9523      9524      9539      9538      9825      9855      9856      9853
 -1      3229   10    0    1
 -2      9524      9525      9540      9539      9827      9857      9858      9855
 -1      3230   10    0    1
 -2      9525      9526      9541      9540      9829      9859      9860      9857
 -1      3231   10    0    1
 -2      9526      9527      9542      9541      9831      9861      9862      9859
 -1      3232   10    0    1
 -2      9527      9528      9543      9542      9833      9863      9864      9861
 -1      3233   10    0    1
 -2      9528       316       317      9543      9834       331      9865      9863
 -1      3234   10    0    1
 -2       666      9529      9544       667      9836      9866      9867       681
 -1      3235   10    0    1
 -2      9529      9530      9545      9544      9838      9868      9869      9866
 -1      3236   10    0    1
 -2      9530      9531      9546      9545      9840      9870      9871      9868
 -1      3237   10    0    1
 -2      9531      9532      9547      9546      9842      9872      9873      9870
 -1      3238   10    0    1
 -2      9532      9533      9548      9547      9844      9874      9875      9872
 -1      3239   10    0    1
 -2      9533      9534      9549      9548      9846      9876      9877      9874
 -1      3240   10    0    1
 -2      9534      9535      9550      9549      9848      9878      9879      9876
 -1      3241   10    0    1
 -2      9535      9536      9551      9550      9850      9880      9881      9878
 -1      3242   10    0    1
 -2      9536      9537      9552      9551      9852      9882      9883      9880
 -1      3243   10    0    1
 -2      9537      9538      9553      9552      9854      9884      9885      9882
 -1      3244   10    0    1
 -2      9538      9539      9554      9553      9856      9886      9887      9884
 -1      3245   10    0    1
 -2      9539      9540      9555      9554      9858      9888      9889      9886
 -1      3246   10    0    1
 -2      9540      9541      9556      9555      9860      9890      9891      9888
 -1      3247   10    0    1
 -2      9541      9542      9557      9556      9862      9892      9893      9890
 -1      3248   10    0    1
 -2      9542      9543      9558      9557      9864      9894      9895      9892
 -1      3249   10    0    1
 -2      9543       317       318      9558      9865       332      9896      9894
 -1      3250   10    0    1
 -2       667      9544      9559       668      9867      9897      9898       682
 -1      3251   10    0    1
 -2      9544      9545      9560      9559      9869      9899      9900      9897
 -1      3252   10    0    1
 -2      9545      9546      9561      9560      9871      9901      9902      9899
 -1      3253   10    0    1
 -2      9546      9547      9562      9561      9873      9903      9904      9901
 -1      3254   10    0    1
 -2      9547      9548      9563      9562      9875      9905      9906      9903
 -1      3255   10    0    1
 -2      9548      9549      9564      9563      9877      9907      9908      9905
 -1      3256   10    0    1
 -2      9549      9550      9565      9564      9879      9909      9910      9907
 -1      3257   10    0    1
 -2      9550      9551      9566      9565      9881      9911      9912      9909
 -1      3258   10    0    1
 -2      9551      9552      9567      9566      9883      9913      9914      9911
 -1      3259   10    0    1
 -2      9552      9553      9568      9567      9885      9915      9916      9913
 -1      3260   10    0    1
 -2      9553      9554      9569      9568      9887      9917      9918      9915
 -1      3261   10    0    1
 -2      9554      9555      9570      9569      9889      9919      9920      9917
 -1      3262   10    0    1
 -2      9555      9556      9571      9570      9891      9921      9922      9919
 -1      3263   10    0    1
 -2      9556      9557      9572      9571      9893      9923      9924      9921
 -1      3264   10    0    1
 -2      9557      9558      9573      9572      9895      9925      9926      9923
 -1      3265   10    0    1
 -2      9558       318       319      9573      9896       333      9927      9925
 -1      3266   10    0    1
 -2       668      9559      9574       669      9898      9928      9929       683
 -1      3267   10    0    1
 -2      9559      9560      9575      9574      9900      9930      9931      9928
 -1      3268   10    0    1
 -2      9560      9561      9576      9575      9902      9932      9933      9930
 -1      3269   10    0    1
 -2      9561      9562      9577      9576      9904      9934      9935      9932
 -1      3270   10    0    1
 -2      9562      9563      9578      9577      9906      9936      9937      9934
 -1      3271   10    0    1
 -2      9563      9564      9579      9578      9908      9938      9939      9936
 -1      3272   10    0    1
 -2      9564      9565      9580      9579      9910      9940      9941      9938
 -1      3273   10    0    1
 -2      9565      9566      9581      9580      9912      9942      9943      9940
 -1      3274   10    0    1
 -2      9566      9567      9582      9581      9914      9944      9945      9942
 -1      3275   10    0    1
 -2      9567      9568      9583      9582      9916      9946      9947      9944
 -1      3276   10    0    1
 -2      9568      9569      9584      9583      9918      9948      9949      9946
 -1      3277   10    0    1
 -2      9569      9570      9585      9584      9920      9950      9951      9948
 -1      3278   10    0    1
 -2      9570      9571      9586      9585      9922      9952      9953      9950
 -1      3279   10    0    1
 -2      9571      9572      9587      9586      9924      9954      9955      9952
 -1      3280   10    0    1
 -2      9572      9573      9588      9587      9926      9956      9957      9954
 -1      3281   10    0    1
 -2      9573       319       320      9588      9927       334      9958      9956
 -1      3282   10    0    1
 -2       669      9574      9589       670      9929      9959      9960       684
 -1      3283   10    0    1
 -2      9574      9575      9590      9589      9931      9961      9962      9959
 -1      3284   10    0    1
 -2      9575      9576      9591      9590      9933      9963      9964      9961
 -1      3285   10    0    1
 -2      9576      9577      9592      9591      9935      9965      9966      9963
 -1      3286   10    0    1
 -2      9577      9578      9593      9592      9937      9967      9968      9965
 -1      3287   10    0    1
 -2      9578      9579      9594      9593      9939      9969      9970      9967
 -1      3288   10    0    1
 -2      9579      9580      9595      9594      9941      9971      9972      9969
 -1      3289   10    0    1
 -2      9580      9581      9596      9595      9943      9973      9974      9971
 -1      3290   10    0    1
 -2      9581      9582      9597      9596      9945      9975      9976      9973
 -1      3291   10    0    1
 -2      9582      9583      9598      9597      9947      9977      9978      9975
 -1      3292   10    0    1
 -2      9583      9584      9599      9598      9949      9979      9980      9977
 -1      3293   10    0    1
 -2      9584      9585      9600      9599      9951      9981      9982      9979
 -1      3294   10    0    1
 -2      9585      9586      9601      9600      9953      9983      9984      9981
 -1      3295   10    0    1
 -2      9586      9587      9602      9601      9955      9985      9986      9983
 -1      3296   10    0    1
 -2      9587      9588      9603      9602      9957      9987      9988      9985
 -1      3297   10    0    1
 -2      9588       320       321      9603      9958       335      9989      9987
 -1      3298   10    0    1
 -2       670      9589      9604       671      9960      9990      9991       685
 -1      3299   10    0    1
 -2      9589      9590      9605      9604      9962      9992      9993      9990
 -1      3300   10    0    1
 -2      9590      9591      9606      9605      9964      9994      9995      9992
 -1      3301   10    0    1
 -2      9591      9592      9607      9606      9966      9996      9997      9994
 -1      3302   10    0    1
 -2      9592      9593      9608      9607      9968      9998      9999      9996
 -1      3303   10    0    1
 -2      9593      9594      9609      9608      9970     10000     10001      9998
 -1      3304   10    0    1
 -2      9594      9595      9610      9609      9972     10002     10003     10000
 -1      3305   10    0    1
 -2      9595      9596      9611      9610      9974     10004     10005     10002
 -1      3306   10    0    1
 -2      9596      9597      9612      9611      9976     10006     10007     10004
 -1      3307   10    0    1
 -2      9597      9598      9613      9612      9978     10008     10009     10006
 -1      3308   10    0    1
 -2      9598      9599      9614      9613      9980     10010     10011     10008
 -1      3309   10    0    1
 -2      9599      9600      9615      9614      9982     10012     10013     10010
 -1      3310   10    0    1
 -2      9600      9601      9616      9615      9984     10014     10015     10012
 -1      3311   10    0    1
 -2      9601      9602      9617      9616      9986     10016     10017     10014
 -1      3312   10    0    1
 -2      9602      9603      9618      9617      9988     10018     10019     10016
 -1      3313   10    0    1
 -2      9603       321       322      9618      9989       336     10020     10018
 -1      3314   10    0    1
 -2       671      9604      9619       672      9991     10021     10022       686
 -1      3315   10    0    1
 -2      9604      9605      9620      9619      9993     10023     10024     10021
 -1      3316   10    0    1
 -2      9605      9606      9621      9620      9995     10025     10026     10023
 -1      3317   10    0    1
 -2      9606      9607      9622      9621      9997     10027     10028     10025
 -1      3318   10    0    1
 -2      9607      9608      9623      9622      9999     10029     10030     10027
 -1      3319   10    0    1
 -2      9608      9609      9624      9623     10001     10031     10032     10029
 -1      3320   10    0    1
 -2      9609      9610      9625      9624     10003     10033     10034     10031
 -1      3321   10    0    1
 -2      9610      9611      9626      9625     10005     10035     10036     10033
 -1      3322   10    0    1
 -2      9611      9612      9627      9626     10007     10037     10038     10035
 -1      3323   10    0    1
 -2      9612      9613      9628      9627     10009     10039     10040     10037
 -1      3324   10    0    1
 -2      9613      9614      9629      9628     10011     10041     10042     10039
 -1      3325   10    0    1
 -2      9614      9615      9630      9629     10013     10043     10044     10041
 -1      3326   10    0    1
 -2      9615      9616      9631      9630     10015     10045     10046     10043
 -1      3327   10    0    1
 -2      9616      9617      9632      9631     10017     10047     10048     10045
 -1      3328   10    0    1
 -2      9617      9618      9633      9632     10019     10049     10050     10047
 -1      3329   10    0    1
 -2      9618       322       323      9633     10020       337     10051     10049
 -1      3330   10    0    1
 -2       672      9619      9634       673     10022     10052     10053       687
 -1      3331   10    0    1
 -2      9619      9620      9635      9634     10024     10054     10055     10052
 -1      3332   10    0    1
 -2      9620      9621      9636      9635     10026     10056     10057     10054
 -1      3333   10    0    1
 -2      9621      9622      9637      9636     10028     10058     10059     10056
 -1      3334   10    0    1
 -2      9622      9623      9638      9637     10030     10060     10061     10058
 -1      3335   10    0    1
 -2      9623      9624      9639      9638     10032     10062     10063     10060
 -1      3336   10    0    1
 -2      9624      9625      9640      9639     10034     10064     10065     10062
 -1      3337   10    0    1
 -2      9625      9626      9641      9640     10036     10066     10067     10064
 -1      3338   10    0    1
 -2      9626      9627      9642      9641     10038     10068     10069     10066
 -1      3339   10    0    1
 -2      9627      9628      9643      9642     10040     10070     10071     10068
 -1      3340   10    0    1
 -2      9628      9629      9644      9643     10042     10072     10073     10070
 -1      3341   10    0    1
 -2      9629      9630      9645      9644     10044     10074     10075     10072
 -1      3342   10    0    1
 -2      9630      9631      9646      9645     10046     10076     10077     10074
 -1      3343   10    0    1
 -2      9631      9632      9647      9646     10048     10078     10079     10076
 -1      3344   10    0    1
 -2      9632      9633      9648      9647     10050     10080     10081     10078
 -1      3345   10    0    1
 -2      9633       323       324      9648     10051       338     10082     10080
 -1      3346   10    0    1
 -2       673      9634      1058        17     10053     10083      1074       688
 -1      3347   10    0    1
 -2      9634      9635      1057      1058     10055     10084      1073     10083
 -1      3348   10    0    1
 -2      9635      9636      1056      1057     10057     10085      1072     10084
 -1      3349   10    0    1
 -2      9636      9637      1055      1056     10059     10086      1071     10085
 -1      3350   10    0    1
 -2      9637      9638      1054      1055     10061     10087      1070     10086
 -1      3351   10    0    1
 -2      9638      9639      1053      1054     10063     10088      1069     10087
 -1      3352   10    0    1
 -2      9639      9640      1052      1053     10065     10089      1068     10088
 -1      3353   10    0    1
 -2      9640      9641      1051      1052     10067     10090      1067     10089
 -1      3354   10    0    1
 -2      9641      9642      1050      1051     10069     10091      1066     10090
 -1      3355   10    0    1
 -2      9642      9643      1049      1050     10071     10092      1065     10091
 -1      3356   10    0    1
 -2      9643      9644      1048      1049     10073     10093      1064     10092
 -1      3357   10    0    1
 -2      9644      9645      1047      1048     10075     10094      1063     10093
 -1      3358   10    0    1
 -2      9645      9646      1046      1047     10077     10095      1062     10094
 -1      3359   10    0    1
 -2      9646      9647      1045      1046     10079     10096      1061     10095
 -1      3360   10    0    1
 -2      9647      9648      1044      1045     10081     10097      1060     10096
 -1      3361   10    0    1
 -2      9648       324         8      1044     10082       339      1059     10097
 -1      3362   10    0    1
 -2        17      1058     10098       689      1074     10518     10519       717
 -1      3363   10    0    1
 -2      1058      1057     10099     10098      1073     10520     10521     10518
 -1      3364   10    0    1
 -2      1057      1056     10100     10099      1072     10522     10523     10520
 -1      3365   10    0    1
 -2      1056      1055     10101     10100      1071     10524     10525     10522
 -1      3366   10    0    1
 -2      1055      1054     10102     10101      1070     10526     10527     10524
 -1      3367   10    0    1
 -2      1054      1053     10103     10102      1069     10528     10529     10526
 -1      3368   10    0    1
 -2      1053      1052     10104     10103      1068     10530     10531     10528
 -1      3369   10    0    1
 -2      1052      1051     10105     10104      1067     10532     10533     10530
 -1      3370   10    0    1
 -2      1051      1050     10106     10105      1066     10534     10535     10532
 -1      3371   10    0    1
 -2      1050      1049     10107     10106      1065     10536     10537     10534
 -1      3372   10    0    1
 -2      1049      1048     10108     10107      1064     10538     10539     10536
 -1      3373   10    0    1
 -2      1048      1047     10109     10108      1063     10540     10541     10538
 -1      3374   10    0    1
 -2      1047      1046     10110     10109      1062     10542     10543     10540
 -1      3375   10    0    1
 -2      1046      1045     10111     10110      1061     10544     10545     10542
 -1      3376   10    0    1
 -2      1045      1044     10112     10111      1060     10546     10547     10544
 -1      3377   10    0    1
 -2      1044         8      1075     10112      1059      1103     10548     10546
 -1      3378   10    0    1
 -2       689     10098     10113       690     10519     10549     10550       718
 -1      3379   10    0    1
 -2     10098     10099     10114     10113     10521     10551     10552     10549
 -1      3380   10    0    1
 -2     10099     10100     10115     10114     10523     10553     10554     10551
 -1      3381   10    0    1
 -2     10100     10101     10116     10115     10525     10555     10556     10553
 -1      3382   10    0    1
 -2     10101     10102     10117     10116     10527     10557     10558     10555
 -1      3383   10    0    1
 -2     10102     10103     10118     10117     10529     10559     10560     10557
 -1      3384   10    0    1
 -2     10103     10104     10119     10118     10531     10561     10562     10559
 -1      3385   10    0    1
 -2     10104     10105     10120     10119     10533     10563     10564     10561
 -1      3386   10    0    1
 -2     10105     10106     10121     10120     10535     10565     10566     10563
 -1      3387   10    0    1
 -2     10106     10107     10122     10121     10537     10567     10568     10565
 -1      3388   10    0    1
 -2     10107     10108     10123     10122     10539     10569     10570     10567
 -1      3389   10    0    1
 -2     10108     10109     10124     10123     10541     10571     10572     10569
 -1      3390   10    0    1
 -2     10109     10110     10125     10124     10543     10573     10574     10571
 -1      3391   10    0    1
 -2     10110     10111     10126     10125     10545     10575     10576     10573
 -1      3392   10    0    1
 -2     10111     10112     10127     10126     10547     10577     10578     10575
 -1      3393   10    0    1
 -2     10112      1075      1076     10127     10548      1104     10579     10577
 -1      3394   10    0    1
 -2       690     10113     10128       691     10550     10580     10581       719
 -1      3395   10    0    1
 -2     10113     10114     10129     10128     10552     10582     10583     10580
 -1      3396   10    0    1
 -2     10114     10115     10130     10129     10554     10584     10585     10582
 -1      3397   10    0    1
 -2     10115     10116     10131     10130     10556     10586     10587     10584
 -1      3398   10    0    1
 -2     10116     10117     10132     10131     10558     10588     10589     10586
 -1      3399   10    0    1
 -2     10117     10118     10133     10132     10560     10590     10591     10588
 -1      3400   10    0    1
 -2     10118     10119     10134     10133     10562     10592     10593     10590
 -1      3401   10    0    1
 -2     10119     10120     10135     10134     10564     10594     10595     10592
 -1      3402   10    0    1
 -2     10120     10121     10136     10135     10566     10596     10597     10594
 -1      3403   10    0    1
 -2     10121     10122     10137     10136     10568     10598     10599     10596
 -1      3404   10    0    1
 -2     10122     10123     10138     10137     10570     10600     10601     10598
 -1      3405   10    0    1
 -2     10123     10124     10139     10138     10572     10602     10603     10600
 -1      3406   10    0    1
 -2     10124     10125     10140     10139     10574     10604     10605     10602
 -1      3407   10    0    1
 -2     10125     10126     10141     10140     10576     10606     10607     10604
 -1      3408   10    0    1
 -2     10126     10127     10142     10141     10578     10608     10609     10606
 -1      3409   10    0    1
 -2     10127      1076      1077     10142     10579      1105     10610     10608
 -1      3410   10    0    1
 -2       691     10128     10143       692     10581     10611     10612       720
 -1      3411   10    0    1
 -2     10128     10129     10144     10143     10583     10613     10614     10611
 -1      3412   10    0    1
 -2     10129     10130     10145     10144     10585     10615     10616     10613
 -1      3413   10    0    1
 -2     10130     10131     10146     10145     10587     10617     10618     10615
 -1      3414   10    0    1
 -2     10131     10132     10147     10146     10589     10619     10620     10617
 -1      3415   10    0    1
 -2     10132     10133     10148     10147     10591     10621     10622     10619
 -1      3416   10    0    1
 -2     10133     10134     10149     10148     10593     10623     10624     10621
 -1      3417   10    0    1
 -2     10134     10135     10150     10149     10595     10625     10626     10623
 -1      3418   10    0    1
 -2     10135     10136     10151     10150     10597     10627     10628     10625
 -1      3419   10    0    1
 -2     10136     10137     10152     10151     10599     10629     10630     10627
 -1      3420   10    0    1
 -2     10137     10138     10153     10152     10601     10631     10632     10629
 -1      3421   10    0    1
 -2     10138     10139     10154     10153     10603     10633     10634     10631
 -1      3422   10    0    1
 -2     10139     10140     10155     10154     10605     10635     10636     10633
 -1      3423   10    0    1
 -2     10140     10141     10156     10155     10607     10637     10638     10635
 -1      3424   10    0    1
 -2     10141     10142     10157     10156     10609     10639     10640     10637
 -1      3425   10    0    1
 -2     10142      1077      1078     10157     10610      1106     10641     10639
 -1      3426   10    0    1
 -2       692     10143     10158       693     10612     10642     10643       721
 -1      3427   10    0    1
 -2     10143     10144     10159     10158     10614     10644     10645     10642
 -1      3428   10    0    1
 -2     10144     10145     10160     10159     10616     10646     10647     10644
 -1      3429   10    0    1
 -2     10145     10146     10161     10160     10618     10648     10649     10646
 -1      3430   10    0    1
 -2     10146     10147     10162     10161     10620     10650     10651     10648
 -1      3431   10    0    1
 -2     10147     10148     10163     10162     10622     10652     10653     10650
 -1      3432   10    0    1
 -2     10148     10149     10164     10163     10624     10654     10655     10652
 -1      3433   10    0    1
 -2     10149     10150     10165     10164     10626     10656     10657     10654
 -1      3434   10    0    1
 -2     10150     10151     10166     10165     10628     10658     10659     10656
 -1      3435   10    0    1
 -2     10151     10152     10167     10166     10630     10660     10661     10658
 -1      3436   10    0    1
 -2     10152     10153     10168     10167     10632     10662     10663     10660
 -1      3437   10    0    1
 -2     10153     10154     10169     10168     10634     10664     10665     10662
 -1      3438   10    0    1
 -2     10154     10155     10170     10169     10636     10666     10667     10664
 -1      3439   10    0    1
 -2     10155     10156     10171     10170     10638     10668     10669     10666
 -1      3440   10    0    1
 -2     10156     10157     10172     10171     10640     10670     10671     10668
 -1      3441   10    0    1
 -2     10157      1078      1079     10172     10641      1107     10672     10670
 -1      3442   10    0    1
 -2       693     10158     10173       694     10643     10673     10674       722
 -1      3443   10    0    1
 -2     10158     10159     10174     10173     10645     10675     10676     10673
 -1      3444   10    0    1
 -2     10159     10160     10175     10174     10647     10677     10678     10675
 -1      3445   10    0    1
 -2     10160     10161     10176     10175     10649     10679     10680     10677
 -1      3446   10    0    1
 -2     10161     10162     10177     10176     10651     10681     10682     10679
 -1      3447   10    0    1
 -2     10162     10163     10178     10177     10653     10683     10684     10681
 -1      3448   10    0    1
 -2     10163     10164     10179     10178     10655     10685     10686     10683
 -1      3449   10    0    1
 -2     10164     10165     10180     10179     10657     10687     10688     10685
 -1      3450   10    0    1
 -2     10165     10166     10181     10180     10659     10689     10690     10687
 -1      3451   10    0    1
 -2     10166     10167     10182     10181     10661     10691     10692     10689
 -1      3452   10    0    1
 -2     10167     10168     10183     10182     10663     10693     10694     10691
 -1      3453   10    0    1
 -2     10168     10169     10184     10183     10665     10695     10696     10693
 -1      3454   10    0    1
 -2     10169     10170     10185     10184     10667     10697     10698     10695
 -1      3455   10    0    1
 -2     10170     10171     10186     10185     10669     10699     10700     10697
 -1      3456   10    0    1
 -2     10171     10172     10187     10186     10671     10701     10702     10699
 -1      3457   10    0    1
 -2     10172      1079      1080     10187     10672      1108     10703     10701
 -1      3458   10    0    1
 -2       694     10173     10188       695     10674     10704     10705       723
 -1      3459   10    0    1
 -2     10173     10174     10189     10188     10676     10706     10707     10704
 -1      3460   10    0    1
 -2     10174     10175     10190     10189     10678     10708     10709     10706
 -1      3461   10    0    1
 -2     10175     10176     10191     10190     10680     10710     10711     10708
 -1      3462   10    0    1
 -2     10176     10177     10192     10191     10682     10712     10713     10710
 -1      3463   10    0    1
 -2     10177     10178     10193     10192     10684     10714     10715     10712
 -1      3464   10    0    1
 -2     10178     10179     10194     10193     10686     10716     10717     10714
 -1      3465   10    0    1
 -2     10179     10180     10195     10194     10688     10718     10719     10716
 -1      3466   10    0    1
 -2     10180     10181     10196     10195     10690     10720     10721     10718
 -1      3467   10    0    1
 -2     10181     10182     10197     10196     10692     10722     10723     10720
 -1      3468   10    0    1
 -2     10182     10183     10198     10197     10694     10724     10725     10722
 -1      3469   10    0    1
 -2     10183     10184     10199     10198     10696     10726     10727     10724
 -1      3470   10    0    1
 -2     10184     10185     10200     10199     10698     10728     10729     10726
 -1      3471   10    0    1
 -2     10185     10186     10201     10200     10700     10730     10731     10728
 -1      3472   10    0    1
 -2     10186     10187     10202     10201     10702     10732     10733     10730
 -1      3473   10    0    1
 -2     10187      1080      1081     10202     10703      1109     10734     10732
 -1      3474   10    0    1
 -2       695     10188     10203       696     10705     10735     10736       724
 -1      3475   10    0    1
 -2     10188     10189     10204     10203     10707     10737     10738     10735
 -1      3476   10    0    1
 -2     10189     10190     10205     10204     10709     10739     10740     10737
 -1      3477   10    0    1
 -2     10190     10191     10206     10205     10711     10741     10742     10739
 -1      3478   10    0    1
 -2     10191     10192     10207     10206     10713     10743     10744     10741
 -1      3479   10    0    1
 -2     10192     10193     10208     10207     10715     10745     10746     10743
 -1      3480   10    0    1
 -2     10193     10194     10209     10208     10717     10747     10748     10745
 -1      3481   10    0    1
 -2     10194     10195     10210     10209     10719     10749     10750     10747
 -1      3482   10    0    1
 -2     10195     10196     10211     10210     10721     10751     10752     10749
 -1      3483   10    0    1
 -2     10196     10197     10212     10211     10723     10753     10754     10751
 -1      3484   10    0    1
 -2     10197     10198     10213     10212     10725     10755     10756     10753
 -1      3485   10    0    1
 -2     10198     10199     10214     10213     10727     10757     10758     10755
 -1      3486   10    0    1
 -2     10199     10200     10215     10214     10729     10759     10760     10757
 -1      3487   10    0    1
 -2     10200     10201     10216     10215     10731     10761     10762     10759
 -1      3488   10    0    1
 -2     10201     10202     10217     10216     10733     10763     10764     10761
 -1      3489   10    0    1
 -2     10202      1081      1082     10217     10734      1110     10765     10763
 -1      3490   10    0    1
 -2       696     10203     10218       697     10736     10766     10767       725
 -1      3491   10    0    1
 -2     10203     10204     10219     10218     10738     10768     10769     10766
 -1      3492   10    0    1
 -2     10204     10205     10220     10219     10740     10770     10771     10768
 -1      3493   10    0    1
 -2     10205     10206     10221     10220     10742     10772     10773     10770
 -1      3494   10    0    1
 -2     10206     10207     10222     10221     10744     10774     10775     10772
 -1      3495   10    0    1
 -2     10207     10208     10223     10222     10746     10776     10777     10774
 -1      3496   10    0    1
 -2     10208     10209     10224     10223     10748     10778     10779     10776
 -1      3497   10    0    1
 -2     10209     10210     10225     10224     10750     10780     10781     10778
 -1      3498   10    0    1
 -2     10210     10211     10226     10225     10752     10782     10783     10780
 -1      3499   10    0    1
 -2     10211     10212     10227     10226     10754     10784     10785     10782
 -1      3500   10    0    1
 -2     10212     10213     10228     10227     10756     10786     10787     10784
 -1      3501   10    0    1
 -2     10213     10214     10229     10228     10758     10788     10789     10786
 -1      3502   10    0    1
 -2     10214     10215     10230     10229     10760     10790     10791     10788
 -1      3503   10    0    1
 -2     10215     10216     10231     10230     10762     10792     10793     10790
 -1      3504   10    0    1
 -2     10216     10217     10232     10231     10764     10794     10795     10792
 -1      3505   10    0    1
 -2     10217      1082      1083     10232     10765      1111     10796     10794
 -1      3506   10    0    1
 -2       697     10218     10233       698     10767     10797     10798       726
 -1      3507   10    0    1
 -2     10218     10219     10234     10233     10769     10799     10800     10797
 -1      3508   10    0    1
 -2     10219     10220     10235     10234     10771     10801     10802     10799
 -1      3509   10    0    1
 -2     10220     10221     10236     10235     10773     10803     10804     10801
 -1      3510   10    0    1
 -2     10221     10222     10237     10236     10775     10805     10806     10803
 -1      3511   10    0    1
 -2     10222     10223     10238     10237     10777     10807     10808     10805
 -1      3512   10    0    1
 -2     10223     10224     10239     10238     10779     10809     10810     10807
 -1      3513   10    0    1
 -2     10224     10225     10240     10239     10781     10811     10812     10809
 -1      3514   10    0    1
 -2     10225     10226     10241     10240     10783     10813     10814     10811
 -1      3515   10    0    1
 -2     10226     10227     10242     10241     10785     10815     10816     10813
 -1      3516   10    0    1
 -2     10227     10228     10243     10242     10787     10817     10818     10815
 -1      3517   10    0    1
 -2     10228     10229     10244     10243     10789     10819     10820     10817
 -1      3518   10    0    1
 -2     10229     10230     10245     10244     10791     10821     10822     10819
 -1      3519   10    0    1
 -2     10230     10231     10246     10245     10793     10823     10824     10821
 -1      3520   10    0    1
 -2     10231     10232     10247     10246     10795     10825     10826     10823
 -1      3521   10    0    1
 -2     10232      1083      1084     10247     10796      1112     10827     10825
 -1      3522   10    0    1
 -2       698     10233     10248       699     10798     10828     10829       727
 -1      3523   10    0    1
 -2     10233     10234     10249     10248     10800     10830     10831     10828
 -1      3524   10    0    1
 -2     10234     10235     10250     10249     10802     10832     10833     10830
 -1      3525   10    0    1
 -2     10235     10236     10251     10250     10804     10834     10835     10832
 -1      3526   10    0    1
 -2     10236     10237     10252     10251     10806     10836     10837     10834
 -1      3527   10    0    1
 -2     10237     10238     10253     10252     10808     10838     10839     10836
 -1      3528   10    0    1
 -2     10238     10239     10254     10253     10810     10840     10841     10838
 -1      3529   10    0    1
 -2     10239     10240     10255     10254     10812     10842     10843     10840
 -1      3530   10    0    1
 -2     10240     10241     10256     10255     10814     10844     10845     10842
 -1      3531   10    0    1
 -2     10241     10242     10257     10256     10816     10846     10847     10844
 -1      3532   10    0    1
 -2     10242     10243     10258     10257     10818     10848     10849     10846
 -1      3533   10    0    1
 -2     10243     10244     10259     10258     10820     10850     10851     10848
 -1      3534   10    0    1
 -2     10244     10245     10260     10259     10822     10852     10853     10850
 -1      3535   10    0    1
 -2     10245     10246     10261     10260     10824     10854     10855     10852
 -1      3536   10    0    1
 -2     10246     10247     10262     10261     10826     10856     10857     10854
 -1      3537   10    0    1
 -2     10247      1084      1085     10262     10827      1113     10858     10856
 -1      3538   10    0    1
 -2       699     10248     10263       700     10829     10859     10860       728
 -1      3539   10    0    1
 -2     10248     10249     10264     10263     10831     10861     10862     10859
 -1      3540   10    0    1
 -2     10249     10250     10265     10264     10833     10863     10864     10861
 -1      3541   10    0    1
 -2     10250     10251     10266     10265     10835     10865     10866     10863
 -1      3542   10    0    1
 -2     10251     10252     10267     10266     10837     10867     10868     10865
 -1      3543   10    0    1
 -2     10252     10253     10268     10267     10839     10869     10870     10867
 -1      3544   10    0    1
 -2     10253     10254     10269     10268     10841     10871     10872     10869
 -1      3545   10    0    1
 -2     10254     10255     10270     10269     10843     10873     10874     10871
 -1      3546   10    0    1
 -2     10255     10256     10271     10270     10845     10875     10876     10873
 -1      3547   10    0    1
 -2     10256     10257     10272     10271     10847     10877     10878     10875
 -1      3548   10    0    1
 -2     10257     10258     10273     10272     10849     10879     10880     10877
 -1      3549   10    0    1
 -2     10258     10259     10274     10273     10851     10881     10882     10879
 -1      3550   10    0    1
 -2     10259     10260     10275     10274     10853     10883     10884     10881
 -1      3551   10    0    1
 -2     10260     10261     10276     10275     10855     10885     10886     10883
 -1      3552   10    0    1
 -2     10261     10262     10277     10276     10857     10887     10888     10885
 -1      3553   10    0    1
 -2     10262      1085      1086     10277     10858      1114     10889     10887
 -1      3554   10    0    1
 -2       700     10263     10278       701     10860     10890     10891       729
 -1      3555   10    0    1
 -2     10263     10264     10279     10278     10862     10892     10893     10890
 -1      3556   10    0    1
 -2     10264     10265     10280     10279     10864     10894     10895     10892
 -1      3557   10    0    1
 -2     10265     10266     10281     10280     10866     10896     10897     10894
 -1      3558   10    0    1
 -2     10266     10267     10282     10281     10868     10898     10899     10896
 -1      3559   10    0    1
 -2     10267     10268     10283     10282     10870     10900     10901     10898
 -1      3560   10    0    1
 -2     10268     10269     10284     10283     10872     10902     10903     10900
 -1      3561   10    0    1
 -2     10269     10270     10285     10284     10874     10904     10905     10902
 -1      3562   10    0    1
 -2     10270     10271     10286     10285     10876     10906     10907     10904
 -1      3563   10    0    1
 -2     10271     10272     10287     10286     10878     10908     10909     10906
 -1      3564   10    0    1
 -2     10272     10273     10288     10287     10880     10910     10911     10908
 -1      3565   10    0    1
 -2     10273     10274     10289     10288     10882     10912     10913     10910
 -1      3566   10    0    1
 -2     10274     10275     10290     10289     10884     10914     10915     10912
 -1      3567   10    0    1
 -2     10275     10276     10291     10290     10886     10916     10917     10914
 -1      3568   10    0    1
 -2     10276     10277     10292     10291     10888     10918     10919     10916
 -1      3569   10    0    1
 -2     10277      1086      1087     10292     10889      1115     10920     10918
 -1      3570   10    0    1
 -2       701     10278     10293       702     10891     10921     10922       730
 -1      3571   10    0    1
 -2     10278     10279     10294     10293     10893     10923     10924     10921
 -1      3572   10    0    1
 -2     10279     10280     10295     10294     10895     10925     10926     10923
 -1      3573   10    0    1
 -2     10280     10281     10296     10295     10897     10927     10928     10925
 -1      3574   10    0    1
 -2     10281     10282     10297     10296     10899     10929     10930     10927
 -1      3575   10    0    1
 -2     10282     10283     10298     10297     10901     10931     10932     10929
 -1      3576   10    0    1
 -2     10283     10284     10299     10298     10903     10933     10934     10931
 -1      3577   10    0    1
 -2     10284     10285     10300     10299     10905     10935     10936     10933
 -1      3578   10    0    1
 -2     10285     10286     10301     10300     10907     10937     10938     10935
 -1      3579   10    0    1
 -2     10286     10287     10302     10301     10909     10939     10940     10937
 -1      3580   10    0    1
 -2     10287     10288     10303     10302     10911     10941     10942     10939
 -1      3581   10    0    1
 -2     10288     10289     10304     10303     10913     10943     10944     10941
 -1      3582   10    0    1
 -2     10289     10290     10305     10304     10915     10945     10946     10943
 -1      3583   10    0    1
 -2     10290     10291     10306     10305     10917     10947     10948     10945
 -1      3584   10    0    1
 -2     10291     10292     10307     10306     10919     10949     10950     10947
 -1      3585   10    0    1
 -2     10292      1087      1088     10307     10920      1116     10951     10949
 -1      3586   10    0    1
 -2       702     10293     10308       703     10922     10952     10953       731
 -1      3587   10    0    1
 -2     10293     10294     10309     10308     10924     10954     10955     10952
 -1      3588   10    0    1
 -2     10294     10295     10310     10309     10926     10956     10957     10954
 -1      3589   10    0    1
 -2     10295     10296     10311     10310     10928     10958     10959     10956
 -1      3590   10    0    1
 -2     10296     10297     10312     10311     10930     10960     10961     10958
 -1      3591   10    0    1
 -2     10297     10298     10313     10312     10932     10962     10963     10960
 -1      3592   10    0    1
 -2     10298     10299     10314     10313     10934     10964     10965     10962
 -1      3593   10    0    1
 -2     10299     10300     10315     10314     10936     10966     10967     10964
 -1      3594   10    0    1
 -2     10300     10301     10316     10315     10938     10968     10969     10966
 -1      3595   10    0    1
 -2     10301     10302     10317     10316     10940     10970     10971     10968
 -1      3596   10    0    1
 -2     10302     10303     10318     10317     10942     10972     10973     10970
 -1      3597   10    0    1
 -2     10303     10304     10319     10318     10944     10974     10975     10972
 -1      3598   10    0    1
 -2     10304     10305     10320     10319     10946     10976     10977     10974
 -1      3599   10    0    1
 -2     10305     10306     10321     10320     10948     10978     10979     10976
 -1      3600   10    0    1
 -2     10306     10307     10322     10321     10950     10980     10981     10978
 -1      3601   10    0    1
 -2     10307      1088      1089     10322     10951      1117     10982     10980
 -1      3602   10    0    1
 -2       703     10308     10323       704     10953     10983     10984       732
 -1      3603   10    0    1
 -2     10308     10309     10324     10323     10955     10985     10986     10983
 -1      3604   10    0    1
 -2     10309     10310     10325     10324     10957     10987     10988     10985
 -1      3605   10    0    1
 -2     10310     10311     10326     10325     10959     10989     10990     10987
 -1      3606   10    0    1
 -2     10311     10312     10327     10326     10961     10991     10992     10989
 -1      3607   10    0    1
 -2     10312     10313     10328     10327     10963     10993     10994     10991
 -1      3608   10    0    1
 -2     10313     10314     10329     10328     10965     10995     10996     10993
 -1      3609   10    0    1
 -2     10314     10315     10330     10329     10967     10997     10998     10995
 -1      3610   10    0    1
 -2     10315     10316     10331     10330     10969     10999     11000     10997
 -1      3611   10    0    1
 -2     10316     10317     10332     10331     10971     11001     11002     10999
 -1      3612   10    0    1
 -2     10317     10318     10333     10332     10973     11003     11004     11001
 -1      3613   10    0    1
 -2     10318     10319     10334     10333     10975     11005     11006     11003
 -1      3614   10    0    1
 -2     10319     10320     10335     10334     10977     11007     11008     11005
 -1      3615   10    0    1
 -2     10320     10321     10336     10335     10979     11009     11010     11007
 -1      3616   10    0    1
 -2     10321     10322     10337     10336     10981     11011     11012     11009
 -1      3617   10    0    1
 -2     10322      1089      1090     10337     10982      1118     11013     11011
 -1      3618   10    0    1
 -2       704     10323     10338       705     10984     11014     11015       733
 -1      3619   10    0    1
 -2     10323     10324     10339     10338     10986     11016     11017     11014
 -1      3620   10    0    1
 -2     10324     10325     10340     10339     10988     11018     11019     11016
 -1      3621   10    0    1
 -2     10325     10326     10341     10340     10990     11020     11021     11018
 -1      3622   10    0    1
 -2     10326     10327     10342     10341     10992     11022     11023     11020
 -1      3623   10    0    1
 -2     10327     10328     10343     10342     10994     11024     11025     11022
 -1      3624   10    0    1
 -2     10328     10329     10344     10343     10996     11026     11027     11024
 -1      3625   10    0    1
 -2     10329     10330     10345     10344     10998     11028     11029     11026
 -1      3626   10    0    1
 -2     10330     10331     10346     10345     11000     11030     11031     11028
 -1      3627   10    0    1
 -2     10331     10332     10347     10346     11002     11032     11033     11030
 -1      3628   10    0    1
 -2     10332     10333     10348     10347     11004     11034     11035     11032
 -1      3629   10    0    1
 -2     10333     10334     10349     10348     11006     11036     11037     11034
 -1      3630   10    0    1
 -2     10334     10335     10350     10349     11008     11038     11039     11036
 -1      3631   10    0    1
 -2     10335     10336     10351     10350     11010     11040     11041     11038
 -1      3632   10    0    1
 -2     10336     10337     10352     10351     11012     11042     11043     11040
 -1      3633   10    0    1
 -2     10337      1090      1091     10352     11013      1119     11044     11042
 -1      3634   10    0    1
 -2       705     10338     10353       706     11015     11045     11046       734
 -1      3635   10    0    1
 -2     10338     10339     10354     10353     11017     11047     11048     11045
 -1      3636   10    0    1
 -2     10339     10340     10355     10354     11019     11049     11050     11047
 -1      3637   10    0    1
 -2     10340     10341     10356     10355     11021     11051     11052     11049
 -1      3638   10    0    1
 -2     10341     10342     10357     10356     11023     11053     11054     11051
 -1      3639   10    0    1
 -2     10342     10343     10358     10357     11025     11055     11056     11053
 -1      3640   10    0    1
 -2     10343     10344     10359     10358     11027     11057     11058     11055
 -1      3641   10    0    1
 -2     10344     10345     10360     10359     11029     11059     11060     11057
 -1      3642   10    0    1
 -2     10345     10346     10361     10360     11031     11061     11062     11059
 -1      3643   10    0    1
 -2     10346     10347     10362     10361     11033     11063     11064     11061
 -1      3644   10    0    1
 -2     10347     10348     10363     10362     11035     11065     11066     11063
 -1      3645   10    0    1
 -2     10348     10349     10364     10363     11037     11067     11068     11065
 -1      3646   10    0    1
 -2     10349     10350     10365     10364     11039     11069     11070     11067
 -1      3647   10    0    1
 -2     10350     10351     10366     10365     11041     11071     11072     11069
 -1      3648   10    0    1
 -2     10351     10352     10367     10366     11043     11073     11074     11071
 -1      3649   10    0    1
 -2     10352      1091      1092     10367     11044      1120     11075     11073
 -1      3650   10    0    1
 -2       706     10353     10368       707     11046     11076     11077       735
 -1      3651   10    0    1
 -2     10353     10354     10369     10368     11048     11078     11079     11076
 -1      3652   10    0    1
 -2     10354     10355     10370     10369     11050     11080     11081     11078
 -1      3653   10    0    1
 -2     10355     10356     10371     10370     11052     11082     11083     11080
 -1      3654   10    0    1
 -2     10356     10357     10372     10371     11054     11084     11085     11082
 -1      3655   10    0    1
 -2     10357     10358     10373     10372     11056     11086     11087     11084
 -1      3656   10    0    1
 -2     10358     10359     10374     10373     11058     11088     11089     11086
 -1      3657   10    0    1
 -2     10359     10360     10375     10374     11060     11090     11091     11088
 -1      3658   10    0    1
 -2     10360     10361     10376     10375     11062     11092     11093     11090
 -1      3659   10    0    1
 -2     10361     10362     10377     10376     11064     11094     11095     11092
 -1      3660   10    0    1
 -2     10362     10363     10378     10377     11066     11096     11097     11094
 -1      3661   10    0    1
 -2     10363     10364     10379     10378     11068     11098     11099     11096
 -1      3662   10    0    1
 -2     10364     10365     10380     10379     11070     11100     11101     11098
 -1      3663   10    0    1
 -2     10365     10366     10381     10380     11072     11102     11103     11100
 -1      3664   10    0    1
 -2     10366     10367     10382     10381     11074     11104     11105     11102
 -1      3665   10    0    1
 -2     10367      1092      1093     10382     11075      1121     11106     11104
 -1      3666   10    0    1
 -2       707     10368     10383       708     11077     11107     11108       736
 -1      3667   10    0    1
 -2     10368     10369     10384     10383     11079     11109     11110     11107
 -1      3668   10    0    1
 -2     10369     10370     10385     10384     11081     11111     11112     11109
 -1      3669   10    0    1
 -2     10370     10371     10386     10385     11083     11113     11114     11111
 -1      3670   10    0    1
 -2     10371     10372     10387     10386     11085     11115     11116     11113
 -1      3671   10    0    1
 -2     10372     10373     10388     10387     11087     11117     11118     11115
 -1      3672   10    0    1
 -2     10373     10374     10389     10388     11089     11119     11120     11117
 -1      3673   10    0    1
 -2     10374     10375     10390     10389     11091     11121     11122     11119
 -1      3674   10    0    1
 -2     10375     10376     10391     10390     11093     11123     11124     11121
 -1      3675   10    0    1
 -2     10376     10377     10392     10391     11095     11125     11126     11123
 -1      3676   10    0    1
 -2     10377     10378     10393     10392     11097     11127     11128     11125
 -1      3677   10    0    1
 -2     10378     10379     10394     10393     11099     11129     11130     11127
 -1      3678   10    0    1
 -2     10379     10380     10395     10394     11101     11131     11132     11129
 -1      3679   10    0    1
 -2     10380     10381     10396     10395     11103     11133     11134     11131
 -1      3680   10    0    1
 -2     10381     10382     10397     10396     11105     11135     11136     11133
 -1      3681   10    0    1
 -2     10382      1093      1094     10397     11106      1122     11137     11135
 -1      3682   10    0    1
 -2       708     10383     10398       709     11108     11138     11139       737
 -1      3683   10    0    1
 -2     10383     10384     10399     10398     11110     11140     11141     11138
 -1      3684   10    0    1
 -2     10384     10385     10400     10399     11112     11142     11143     11140
 -1      3685   10    0    1
 -2     10385     10386     10401     10400     11114     11144     11145     11142
 -1      3686   10    0    1
 -2     10386     10387     10402     10401     11116     11146     11147     11144
 -1      3687   10    0    1
 -2     10387     10388     10403     10402     11118     11148     11149     11146
 -1      3688   10    0    1
 -2     10388     10389     10404     10403     11120     11150     11151     11148
 -1      3689   10    0    1
 -2     10389     10390     10405     10404     11122     11152     11153     11150
 -1      3690   10    0    1
 -2     10390     10391     10406     10405     11124     11154     11155     11152
 -1      3691   10    0    1
 -2     10391     10392     10407     10406     11126     11156     11157     11154
 -1      3692   10    0    1
 -2     10392     10393     10408     10407     11128     11158     11159     11156
 -1      3693   10    0    1
 -2     10393     10394     10409     10408     11130     11160     11161     11158
 -1      3694   10    0    1
 -2     10394     10395     10410     10409     11132     11162     11163     11160
 -1      3695   10    0    1
 -2     10395     10396     10411     10410     11134     11164     11165     11162
 -1      3696   10    0    1
 -2     10396     10397     10412     10411     11136     11166     11167     11164
 -1      3697   10    0    1
 -2     10397      1094      1095     10412     11137      1123     11168     11166
 -1      3698   10    0    1
 -2       709     10398     10413       710     11139     11169     11170       738
 -1      3699   10    0    1
 -2     10398     10399     10414     10413     11141     11171     11172     11169
 -1      3700   10    0    1
 -2     10399     10400     10415     10414     11143     11173     11174     11171
 -1      3701   10    0    1
 -2     10400     10401     10416     10415     11145     11175     11176     11173
 -1      3702   10    0    1
 -2     10401     10402     10417     10416     11147     11177     11178     11175
 -1      3703   10    0    1
 -2     10402     10403     10418     10417     11149     11179     11180     11177
 -1      3704   10    0    1
 -2     10403     10404     10419     10418     11151     11181     11182     11179
 -1      3705   10    0    1
 -2     10404     10405     10420     10419     11153     11183     11184     11181
 -1      3706   10    0    1
 -2     10405     10406     10421     10420     11155     11185     11186     11183
 -1      3707   10    0    1
 -2     10406     10407     10422     10421     11157     11187     11188     11185
 -1      3708   10    0    1
 -2     10407     10408     10423     10422     11159     11189     11190     11187
 -1      3709   10    0    1
 -2     10408     10409     10424     10423     11161     11191     11192     11189
 -1      3710   10    0    1
 -2     10409     10410     10425     10424     11163     11193     11194     11191
 -1      3711   10    0    1
 -2     10410     10411     10426     10425     11165     11195     11196     11193
 -1      3712   10    0    1
 -2     10411     10412     10427     10426     11167     11197     11198     11195
 -1      3713   10    0    1
 -2     10412      1095      1096     10427     11168      1124     11199     11197
 -1      3714   10    0    1
 -2       710     10413     10428       711     11170     11200     11201       739
 -1      3715   10    0    1
 -2     10413     10414     10429     10428     11172     11202     11203     11200
 -1      3716   10    0    1
 -2     10414     10415     10430     10429     11174     11204     11205     11202
 -1      3717   10    0    1
 -2     10415     10416     10431     10430     11176     11206     11207     11204
 -1      3718   10    0    1
 -2     10416     10417     10432     10431     11178     11208     11209     11206
 -1      3719   10    0    1
 -2     10417     10418     10433     10432     11180     11210     11211     11208
 -1      3720   10    0    1
 -2     10418     10419     10434     10433     11182     11212     11213     11210
 -1      3721   10    0    1
 -2     10419     10420     10435     10434     11184     11214     11215     11212
 -1      3722   10    0    1
 -2     10420     10421     10436     10435     11186     11216     11217     11214
 -1      3723   10    0    1
 -2     10421     10422     10437     10436     11188     11218     11219     11216
 -1      3724   10    0    1
 -2     10422     10423     10438     10437     11190     11220     11221     11218
 -1      3725   10    0    1
 -2     10423     10424     10439     10438     11192     11222     11223     11220
 -1      3726   10    0    1
 -2     10424     10425     10440     10439     11194     11224     11225     11222
 -1      3727   10    0    1
 -2     10425     10426     10441     10440     11196     11226     11227     11224
 -1      3728   10    0    1
 -2     10426     10427     10442     10441     11198     11228     11229     11226
 -1      3729   10    0    1
 -2     10427      1096      1097     10442     11199      1125     11230     11228
 -1      3730   10    0    1
 -2       711     10428     10443       712     11201     11231     11232       740
 -1      3731   10    0    1
 -2     10428     10429     10444     10443     11203     11233     11234     11231
 -1      3732   10    0    1
 -2     10429     10430     10445     10444     11205     11235     11236     11233
 -1      3733   10    0    1
 -2     10430     10431     10446     10445     11207     11237     11238     11235
 -1      3734   10    0    1
 -2     10431     10432     10447     10446     11209     11239     11240     11237
 -1      3735   10    0    1
 -2     10432     10433     10448     10447     11211     11241     11242     11239
 -1      3736   10    0    1
 -2     10433     10434     10449     10448     11213     11243     11244     11241
 -1      3737   10    0    1
 -2     10434     10435     10450     10449     11215     11245     11246     11243
 -1      3738   10    0    1
 -2     10435     10436     10451     10450     11217     11247     11248     11245
 -1      3739   10    0    1
 -2     10436     10437     10452     10451     11219     11249     11250     11247
 -1      3740   10    0    1
 -2     10437     10438     10453     10452     11221     11251     11252     11249
 -1      3741   10    0    1
 -2     10438     10439     10454     10453     11223     11253     11254     11251
 -1      3742   10    0    1
 -2     10439     10440     10455     10454     11225     11255     11256     11253
 -1      3743   10    0    1
 -2     10440     10441     10456     10455     11227     11257     11258     11255
 -1      3744   10    0    1
 -2     10441     10442     10457     10456     11229     11259     11260     11257
 -1      3745   10    0    1
 -2     10442      1097      1098     10457     11230      1126     11261     11259
 -1      3746   10    0    1
 -2       712     10443     10458       713     11232     11262     11263       741
 -1      3747   10    0    1
 -2     10443     10444     10459     10458     11234     11264     11265     11262
 -1      3748   10    0    1
 -2     10444     10445     10460     10459     11236     11266     11267     11264
 -1      3749   10    0    1
 -2     10445     10446     10461     10460     11238     11268     11269     11266
 -1      3750   10    0    1
 -2     10446     10447     10462     10461     11240     11270     11271     11268
 -1      3751   10    0    1
 -2     10447     10448     10463     10462     11242     11272     11273     11270
 -1      3752   10    0    1
 -2     10448     10449     10464     10463     11244     11274     11275     11272
 -1      3753   10    0    1
 -2     10449     10450     10465     10464     11246     11276     11277     11274
 -1      3754   10    0    1
 -2     10450     10451     10466     10465     11248     11278     11279     11276
 -1      3755   10    0    1
 -2     10451     10452     10467     10466     11250     11280     11281     11278
 -1      3756   10    0    1
 -2     10452     10453     10468     10467     11252     11282     11283     11280
 -1      3757   10    0    1
 -2     10453     10454     10469     10468     11254     11284     11285     11282
 -1      3758   10    0    1
 -2     10454     10455     10470     10469     11256     11286     11287     11284
 -1      3759   10    0    1
 -2     10455     10456     10471     10470     11258     11288     11289     11286
 -1      3760   10    0    1
 -2     10456     10457     10472     10471     11260     11290     11291     11288
 -1      3761   10    0    1
 -2     10457      1098      1099     10472     11261      1127     11292     11290
 -1      3762   10    0    1
 -2       713     10458     10473       714     11263     11293     11294       742
 -1      3763   10    0    1
 -2     10458     10459     10474     10473     11265     11295     11296     11293
 -1      3764   10    0    1
 -2     10459     10460     10475     10474     11267     11297     11298     11295
 -1      3765   10    0    1
 -2     10460     10461     10476     10475     11269     11299     11300     11297
 -1      3766   10    0    1
 -2     10461     10462     10477     10476     11271     11301     11302     11299
 -1      3767   10    0    1
 -2     10462     10463     10478     10477     11273     11303     11304     11301
 -1      3768   10    0    1
 -2     10463     10464     10479     10478     11275     11305     11306     11303
 -1      3769   10    0    1
 -2     10464     10465     10480     10479     11277     11307     11308     11305
 -1      3770   10    0    1
 -2     10465     10466     10481     10480     11279     11309     11310     11307
 -1      3771   10    0    1
 -2     10466     10467     10482     10481     11281     11311     11312     11309
 -1      3772   10    0    1
 -2     10467     10468     10483     10482     11283     11313     11314     11311
 -1      3773   10    0    1
 -2     10468     10469     10484     10483     11285     11315     11316     11313
 -1      3774   10    0    1
 -2     10469     10470     10485     10484     11287     11317     11318     11315
 -1      3775   10    0    1
 -2     10470     10471     10486     10485     11289     11319     11320     11317
 -1      3776   10    0    1
 -2     10471     10472     10487     10486     11291     11321     11322     11319
 -1      3777   10    0    1
 -2     10472      1099      1100     10487     11292      1128     11323     11321
 -1      3778   10    0    1
 -2       714     10473     10488       715     11294     11324     11325       743
 -1      3779   10    0    1
 -2     10473     10474     10489     10488     11296     11326     11327     11324
 -1      3780   10    0    1
 -2     10474     10475     10490     10489     11298     11328     11329     11326
 -1      3781   10    0    1
 -2     10475     10476     10491     10490     11300     11330     11331     11328
 -1      3782   10    0    1
 -2     10476     10477     10492     10491     11302     11332     11333     11330
 -1      3783   10    0    1
 -2     10477     10478     10493     10492     11304     11334     11335     11332
 -1      3784   10    0    1
 -2     10478     10479     10494     10493     11306     11336     11337     11334
 -1      3785   10    0    1
 -2     10479     10480     10495     10494     11308     11338     11339     11336
 -1      3786   10    0    1
 -2     10480     10481     10496     10495     11310     11340     11341     11338
 -1      3787   10    0    1
 -2     10481     10482     10497     10496     11312     11342     11343     11340
 -1      3788   10    0    1
 -2     10482     10483     10498     10497     11314     11344     11345     11342
 -1      3789   10    0    1
 -2     10483     10484     10499     10498     11316     11346     11347     11344
 -1      3790   10    0    1
 -2     10484     10485     10500     10499     11318     11348     11349     11346
 -1      3791   10    0    1
 -2     10485     10486     10501     10500     11320     11350     11351     11348
 -1      3792   10    0    1
 -2     10486     10487     10502     10501     11322     11352     11353     11350
 -1      3793   10    0    1
 -2     10487      1100      1101     10502     11323      1129     11354     11352
 -1      3794   10    0    1
 -2       715     10488     10503       716     11325     11355     11356       744
 -1      3795   10    0    1
 -2     10488     10489     10504     10503     11327     11357     11358     11355
 -1      3796   10    0    1
 -2     10489     10490     10505     10504     11329     11359     11360     11357
 -1      3797   10    0    1
 -2     10490     10491     10506     10505     11331     11361     11362     11359
 -1      3798   10    0    1
 -2     10491     10492     10507     10506     11333     11363     11364     11361
 -1      3799   10    0    1
 -2     10492     10493     10508     10507     11335     11365     11366     11363
 -1      3800   10    0    1
 -2     10493     10494     10509     10508     11337     11367     11368     11365
 -1      3801   10    0    1
 -2     10494     10495     10510     10509     11339     11369     11370     11367
 -1      3802   10    0    1
 -2     10495     10496     10511     10510     11341     11371     11372     11369
 -1      3803   10    0    1
 -2     10496     10497     10512     10511     11343     11373     11374     11371
 -1      3804   10    0    1
 -2     10497     10498     10513     10512     11345     11375     11376     11373
 -1      3805   10    0    1
 -2     10498     10499     10514     10513     11347     11377     11378     11375
 -1      3806   10    0    1
 -2     10499     10500     10515     10514     11349     11379     11380     11377
 -1      3807   10    0    1
 -2     10500     10501     10516     10515     11351     11381     11382     11379
 -1      3808   10    0    1
 -2     10501     10502     10517     10516     11353     11383     11384     11381
 -1      3809   10    0    1
 -2     10502      1101      1102     10517     11354      1130     11385     11383
 -1      3810   10    0    1
 -2       716     10503       746        18     11356     11386       761       745
 -1      3811   10    0    1
 -2     10503     10504       747       746     11358     11387       762     11386
 -1      3812   10    0    1
 -2     10504     10505       748       747     11360     11388       763     11387
 -1      3813   10    0    1
 -2     10505     10506       749       748     11362     11389       764     11388
 -1      3814   10    0    1
 -2     10506     10507       750       749     11364     11390       765     11389
 -1      3815   10    0    1
 -2     10507     10508       751       750     11366     11391       766     11390
 -1      3816   10    0    1
 -2     10508     10509       752       751     11368     11392       767     11391
 -1      3817   10    0    1
 -2     10509     10510       753       752     11370     11393       768     11392
 -1      3818   10    0    1
 -2     10510     10511       754       753     11372     11394       769     11393
 -1      3819   10    0    1
 -2     10511     10512       755       754     11374     11395       770     11394
 -1      3820   10    0    1
 -2     10512     10513       756       755     11376     11396       771     11395
 -1      3821   10    0    1
 -2     10513     10514       757       756     11378     11397       772     11396
 -1      3822   10    0    1
 -2     10514     10515       758       757     11380     11398       773     11397
 -1      3823   10    0    1
 -2     10515     10516       759       758     11382     11399       774     11398
 -1      3824   10    0    1
 -2     10516     10517       760       759     11384     11400       775     11399
 -1      3825   10    0    1
 -2     10517      1102        19       760     11385      1131       776     11400
 -1      3826   10    0    1
 -2        19      1102     11401       777      1131     11793     11794       791
 -1      3827   10    0    1
 -2      1102      1101     11402     11401      1130     11795     11796     11793
 -1      3828   10    0    1
 -2      1101      1100     11403     11402      1129     11797     11798     11795
 -1      3829   10    0    1
 -2      1100      1099     11404     11403      1128     11799     11800     11797
 -1      3830   10    0    1
 -2      1099      1098     11405     11404      1127     11801     11802     11799
 -1      3831   10    0    1
 -2      1098      1097     11406     11405      1126     11803     11804     11801
 -1      3832   10    0    1
 -2      1097      1096     11407     11406      1125     11805     11806     11803
 -1      3833   10    0    1
 -2      1096      1095     11408     11407      1124     11807     11808     11805
 -1      3834   10    0    1
 -2      1095      1094     11409     11408      1123     11809     11810     11807
 -1      3835   10    0    1
 -2      1094      1093     11410     11409      1122     11811     11812     11809
 -1      3836   10    0    1
 -2      1093      1092     11411     11410      1121     11813     11814     11811
 -1      3837   10    0    1
 -2      1092      1091     11412     11411      1120     11815     11816     11813
 -1      3838   10    0    1
 -2      1091      1090     11413     11412      1119     11817     11818     11815
 -1      3839   10    0    1
 -2      1090      1089     11414     11413      1118     11819     11820     11817
 -1      3840   10    0    1
 -2      1089      1088     11415     11414      1117     11821     11822     11819
 -1      3841   10    0    1
 -2      1088      1087     11416     11415      1116     11823     11824     11821
 -1      3842   10    0    1
 -2      1087      1086     11417     11416      1115     11825     11826     11823
 -1      3843   10    0    1
 -2      1086      1085     11418     11417      1114     11827     11828     11825
 -1      3844   10    0    1
 -2      1085      1084     11419     11418      1113     11829     11830     11827
 -1      3845   10    0    1
 -2      1084      1083     11420     11419      1112     11831     11832     11829
 -1      3846   10    0    1
 -2      1083      1082     11421     11420      1111     11833     11834     11831
 -1      3847   10    0    1
 -2      1082      1081     11422     11421      1110     11835     11836     11833
 -1      3848   10    0    1
 -2      1081      1080     11423     11422      1109     11837     11838     11835
 -1      3849   10    0    1
 -2      1080      1079     11424     11423      1108     11839     11840     11837
 -1      3850   10    0    1
 -2      1079      1078     11425     11424      1107     11841     11842     11839
 -1      3851   10    0    1
 -2      1078      1077     11426     11425      1106     11843     11844     11841
 -1      3852   10    0    1
 -2      1077      1076     11427     11426      1105     11845     11846     11843
 -1      3853   10    0    1
 -2      1076      1075     11428     11427      1104     11847     11848     11845
 -1      3854   10    0    1
 -2      1075         8       340     11428      1103       354     11849     11847
 -1      3855   10    0    1
 -2       777     11401     11429       778     11794     11850     11851       792
 -1      3856   10    0    1
 -2     11401     11402     11430     11429     11796     11852     11853     11850
 -1      3857   10    0    1
 -2     11402     11403     11431     11430     11798     11854     11855     11852
 -1      3858   10    0    1
 -2     11403     11404     11432     11431     11800     11856     11857     11854
 -1      3859   10    0    1
 -2     11404     11405     11433     11432     11802     11858     11859     11856
 -1      3860   10    0    1
 -2     11405     11406     11434     11433     11804     11860     11861     11858
 -1      3861   10    0    1
 -2     11406     11407     11435     11434     11806     11862     11863     11860
 -1      3862   10    0    1
 -2     11407     11408     11436     11435     11808     11864     11865     11862
 -1      3863   10    0    1
 -2     11408     11409     11437     11436     11810     11866     11867     11864
 -1      3864   10    0    1
 -2     11409     11410     11438     11437     11812     11868     11869     11866
 -1      3865   10    0    1
 -2     11410     11411     11439     11438     11814     11870     11871     11868
 -1      3866   10    0    1
 -2     11411     11412     11440     11439     11816     11872     11873     11870
 -1      3867   10    0    1
 -2     11412     11413     11441     11440     11818     11874     11875     11872
 -1      3868   10    0    1
 -2     11413     11414     11442     11441     11820     11876     11877     11874
 -1      3869   10    0    1
 -2     11414     11415     11443     11442     11822     11878     11879     11876
 -1      3870   10    0    1
 -2     11415     11416     11444     11443     11824     11880     11881     11878
 -1      3871   10    0    1
 -2     11416     11417     11445     11444     11826     11882     11883     11880
 -1      3872   10    0    1
 -2     11417     11418     11446     11445     11828     11884     11885     11882
 -1      3873   10    0    1
 -2     11418     11419     11447     11446     11830     11886     11887     11884
 -1      3874   10    0    1
 -2     11419     11420     11448     11447     11832     11888     11889     11886
 -1      3875   10    0    1
 -2     11420     11421     11449     11448     11834     11890     11891     11888
 -1      3876   10    0    1
 -2     11421     11422     11450     11449     11836     11892     11893     11890
 -1      3877   10    0    1
 -2     11422     11423     11451     11450     11838     11894     11895     11892
 -1      3878   10    0    1
 -2     11423     11424     11452     11451     11840     11896     11897     11894
 -1      3879   10    0    1
 -2     11424     11425     11453     11452     11842     11898     11899     11896
 -1      3880   10    0    1
 -2     11425     11426     11454     11453     11844     11900     11901     11898
 -1      3881   10    0    1
 -2     11426     11427     11455     11454     11846     11902     11903     11900
 -1      3882   10    0    1
 -2     11427     11428     11456     11455     11848     11904     11905     11902
 -1      3883   10    0    1
 -2     11428       340       341     11456     11849       355     11906     11904
 -1      3884   10    0    1
 -2       778     11429     11457       779     11851     11907     11908       793
 -1      3885   10    0    1
 -2     11429     11430     11458     11457     11853     11909     11910     11907
 -1      3886   10    0    1
 -2     11430     11431     11459     11458     11855     11911     11912     11909
 -1      3887   10    0    1
 -2     11431     11432     11460     11459     11857     11913     11914     11911
 -1      3888   10    0    1
 -2     11432     11433     11461     11460     11859     11915     11916     11913
 -1      3889   10    0    1
 -2     11433     11434     11462     11461     11861     11917     11918     11915
 -1      3890   10    0    1
 -2     11434     11435     11463     11462     11863     11919     11920     11917
 -1      3891   10    0    1
 -2     11435     11436     11464     11463     11865     11921     11922     11919
 -1      3892   10    0    1
 -2     11436     11437     11465     11464     11867     11923     11924     11921
 -1      3893   10    0    1
 -2     11437     11438     11466     11465     11869     11925     11926     11923
 -1      3894   10    0    1
 -2     11438     11439     11467     11466     11871     11927     11928     11925
 -1      3895   10    0    1
 -2     11439     11440     11468     11467     11873     11929     11930     11927
 -1      3896   10    0    1
 -2     11440     11441     11469     11468     11875     11931     11932     11929
 -1      3897   10    0    1
 -2     11441     11442     11470     11469     11877     11933     11934     11931
 -1      3898   10    0    1
 -2     11442     11443     11471     11470     11879     11935     11936     11933
 -1      3899   10    0    1
 -2     11443     11444     11472     11471     11881     11937     11938     11935
 -1      3900   10    0    1
 -2     11444     11445     11473     11472     11883     11939     11940     11937
 -1      3901   10    0    1
 -2     11445     11446     11474     11473     11885     11941     11942     11939
 -1      3902   10    0    1
 -2     11446     11447     11475     11474     11887     11943     11944     11941
 -1      3903   10    0    1
 -2     11447     11448     11476     11475     11889     11945     11946     11943
 -1      3904   10    0    1
 -2     11448     11449     11477     11476     11891     11947     11948     11945
 -1      3905   10    0    1
 -2     11449     11450     11478     11477     11893     11949     11950     11947
 -1      3906   10    0    1
 -2     11450     11451     11479     11478     11895     11951     11952     11949
 -1      3907   10    0    1
 -2     11451     11452     11480     11479     11897     11953     11954     11951
 -1      3908   10    0    1
 -2     11452     11453     11481     11480     11899     11955     11956     11953
 -1      3909   10    0    1
 -2     11453     11454     11482     11481     11901     11957     11958     11955
 -1      3910   10    0    1
 -2     11454     11455     11483     11482     11903     11959     11960     11957
 -1      3911   10    0    1
 -2     11455     11456     11484     11483     11905     11961     11962     11959
 -1      3912   10    0    1
 -2     11456       341       342     11484     11906       356     11963     11961
 -1      3913   10    0    1
 -2       779     11457     11485       780     11908     11964     11965       794
 -1      3914   10    0    1
 -2     11457     11458     11486     11485     11910     11966     11967     11964
 -1      3915   10    0    1
 -2     11458     11459     11487     11486     11912     11968     11969     11966
 -1      3916   10    0    1
 -2     11459     11460     11488     11487     11914     11970     11971     11968
 -1      3917   10    0    1
 -2     11460     11461     11489     11488     11916     11972     11973     11970
 -1      3918   10    0    1
 -2     11461     11462     11490     11489     11918     11974     11975     11972
 -1      3919   10    0    1
 -2     11462     11463     11491     11490     11920     11976     11977     11974
 -1      3920   10    0    1
 -2     11463     11464     11492     11491     11922     11978     11979     11976
 -1      3921   10    0    1
 -2     11464     11465     11493     11492     11924     11980     11981     11978
 -1      3922   10    0    1
 -2     11465     11466     11494     11493     11926     11982     11983     11980
 -1      3923   10    0    1
 -2     11466     11467     11495     11494     11928     11984     11985     11982
 -1      3924   10    0    1
 -2     11467     11468     11496     11495     11930     11986     11987     11984
 -1      3925   10    0    1
 -2     11468     11469     11497     11496     11932     11988     11989     11986
 -1      3926   10    0    1
 -2     11469     11470     11498     11497     11934     11990     11991     11988
 -1      3927   10    0    1
 -2     11470     11471     11499     11498     11936     11992     11993     11990
 -1      3928   10    0    1
 -2     11471     11472     11500     11499     11938     11994     11995     11992
 -1      3929   10    0    1
 -2     11472     11473     11501     11500     11940     11996     11997     11994
 -1      3930   10    0    1
 -2     11473     11474     11502     11501     11942     11998     11999     11996
 -1      3931   10    0    1
 -2     11474     11475     11503     11502     11944     12000     12001     11998
 -1      3932   10    0    1
 -2     11475     11476     11504     11503     11946     12002     12003     12000
 -1      3933   10    0    1
 -2     11476     11477     11505     11504     11948     12004     12005     12002
 -1      3934   10    0    1
 -2     11477     11478     11506     11505     11950     12006     12007     12004
 -1      3935   10    0    1
 -2     11478     11479     11507     11506     11952     12008     12009     12006
 -1      3936   10    0    1
 -2     11479     11480     11508     11507     11954     12010     12011     12008
 -1      3937   10    0    1
 -2     11480     11481     11509     11508     11956     12012     12013     12010
 -1      3938   10    0    1
 -2     11481     11482     11510     11509     11958     12014     12015     12012
 -1      3939   10    0    1
 -2     11482     11483     11511     11510     11960     12016     12017     12014
 -1      3940   10    0    1
 -2     11483     11484     11512     11511     11962     12018     12019     12016
 -1      3941   10    0    1
 -2     11484       342       343     11512     11963       357     12020     12018
 -1      3942   10    0    1
 -2       780     11485     11513       781     11965     12021     12022       795
 -1      3943   10    0    1
 -2     11485     11486     11514     11513     11967     12023     12024     12021
 -1      3944   10    0    1
 -2     11486     11487     11515     11514     11969     12025     12026     12023
 -1      3945   10    0    1
 -2     11487     11488     11516     11515     11971     12027     12028     12025
 -1      3946   10    0    1
 -2     11488     11489     11517     11516     11973     12029     12030     12027
 -1      3947   10    0    1
 -2     11489     11490     11518     11517     11975     12031     12032     12029
 -1      3948   10    0    1
 -2     11490     11491     11519     11518     11977     12033     12034     12031
 -1      3949   10    0    1
 -2     11491     11492     11520     11519     11979     12035     12036     12033
 -1      3950   10    0    1
 -2     11492     11493     11521     11520     11981     12037     12038     12035
 -1      3951   10    0    1
 -2     11493     11494     11522     11521     11983     12039     12040     12037
 -1      3952   10    0    1
 -2     11494     11495     11523     11522     11985     12041     12042     12039
 -1      3953   10    0    1
 -2     11495     11496     11524     11523     11987     12043     12044     12041
 -1      3954   10    0    1
 -2     11496     11497     11525     11524     11989     12045     12046     12043
 -1      3955   10    0    1
 -2     11497     11498     11526     11525     11991     12047     12048     12045
 -1      3956   10    0    1
 -2     11498     11499     11527     11526     11993     12049     12050     12047
 -1      3957   10    0    1
 -2     11499     11500     11528     11527     11995     12051     12052     12049
 -1      3958   10    0    1
 -2     11500     11501     11529     11528     11997     12053     12054     12051
 -1      3959   10    0    1
 -2     11501     11502     11530     11529     11999     12055     12056     12053
 -1      3960   10    0    1
 -2     11502     11503     11531     11530     12001     12057     12058     12055
 -1      3961   10    0    1
 -2     11503     11504     11532     11531     12003     12059     12060     12057
 -1      3962   10    0    1
 -2     11504     11505     11533     11532     12005     12061     12062     12059
 -1      3963   10    0    1
 -2     11505     11506     11534     11533     12007     12063     12064     12061
 -1      3964   10    0    1
 -2     11506     11507     11535     11534     12009     12065     12066     12063
 -1      3965   10    0    1
 -2     11507     11508     11536     11535     12011     12067     12068     12065
 -1      3966   10    0    1
 -2     11508     11509     11537     11536     12013     12069     12070     12067
 -1      3967   10    0    1
 -2     11509     11510     11538     11537     12015     12071     12072     12069
 -1      3968   10    0    1
 -2     11510     11511     11539     11538     12017     12073     12074     12071
 -1      3969   10    0    1
 -2     11511     11512     11540     11539     12019     12075     12076     12073
 -1      3970   10    0    1
 -2     11512       343       344     11540     12020       358     12077     12075
 -1      3971   10    0    1
 -2       781     11513     11541       782     12022     12078     12079       796
 -1      3972   10    0    1
 -2     11513     11514     11542     11541     12024     12080     12081     12078
 -1      3973   10    0    1
 -2     11514     11515     11543     11542     12026     12082     12083     12080
 -1      3974   10    0    1
 -2     11515     11516     11544     11543     12028     12084     12085     12082
 -1      3975   10    0    1
 -2     11516     11517     11545     11544     12030     12086     12087     12084
 -1      3976   10    0    1
 -2     11517     11518     11546     11545     12032     12088     12089     12086
 -1      3977   10    0    1
 -2     11518     11519     11547     11546     12034     12090     12091     12088
 -1      3978   10    0    1
 -2     11519     11520     11548     11547     12036     12092     12093     12090
 -1      3979   10    0    1
 -2     11520     11521     11549     11548     12038     12094     12095     12092
 -1      3980   10    0    1
 -2     11521     11522     11550     11549     12040     12096     12097     12094
 -1      3981   10    0    1
 -2     11522     11523     11551     11550     12042     12098     12099     12096
 -1      3982   10    0    1
 -2     11523     11524     11552     11551     12044     12100     12101     12098
 -1      3983   10    0    1
 -2     11524     11525     11553     11552     12046     12102     12103     12100
 -1      3984   10    0    1
 -2     11525     11526     11554     11553     12048     12104     12105     12102
 -1      3985   10    0    1
 -2     11526     11527     11555     11554     12050     12106     12107     12104
 -1      3986   10    0    1
 -2     11527     11528     11556     11555     12052     12108     12109     12106
 -1      3987   10    0    1
 -2     11528     11529     11557     11556     12054     12110     12111     12108
 -1      3988   10    0    1
 -2     11529     11530     11558     11557     12056     12112     12113     12110
 -1      3989   10    0    1
 -2     11530     11531     11559     11558     12058     12114     12115     12112
 -1      3990   10    0    1
 -2     11531     11532     11560     11559     12060     12116     12117     12114
 -1      3991   10    0    1
 -2     11532     11533     11561     11560     12062     12118     12119     12116
 -1      3992   10    0    1
 -2     11533     11534     11562     11561     12064     12120     12121     12118
 -1      3993   10    0    1
 -2     11534     11535     11563     11562     12066     12122     12123     12120
 -1      3994   10    0    1
 -2     11535     11536     11564     11563     12068     12124     12125     12122
 -1      3995   10    0    1
 -2     11536     11537     11565     11564     12070     12126     12127     12124
 -1      3996   10    0    1
 -2     11537     11538     11566     11565     12072     12128     12129     12126
 -1      3997   10    0    1
 -2     11538     11539     11567     11566     12074     12130     12131     12128
 -1      3998   10    0    1
 -2     11539     11540     11568     11567     12076     12132     12133     12130
 -1      3999   10    0    1
 -2     11540       344       345     11568     12077       359     12134     12132
 -1      4000   10    0    1
 -2       782     11541     11569       783     12079     12135     12136       797
 -1      4001   10    0    1
 -2     11541     11542     11570     11569     12081     12137     12138     12135
 -1      4002   10    0    1
 -2     11542     11543     11571     11570     12083     12139     12140     12137
 -1      4003   10    0    1
 -2     11543     11544     11572     11571     12085     12141     12142     12139
 -1      4004   10    0    1
 -2     11544     11545     11573     11572     12087     12143     12144     12141
 -1      4005   10    0    1
 -2     11545     11546     11574     11573     12089     12145     12146     12143
 -1      4006   10    0    1
 -2     11546     11547     11575     11574     12091     12147     12148     12145
 -1      4007   10    0    1
 -2     11547     11548     11576     11575     12093     12149     12150     12147
 -1      4008   10    0    1
 -2     11548     11549     11577     11576     12095     12151     12152     12149
 -1      4009   10    0    1
 -2     11549     11550     11578     11577     12097     12153     12154     12151
 -1      4010   10    0    1
 -2     11550     11551     11579     11578     12099     12155     12156     12153
 -1      4011   10    0    1
 -2     11551     11552     11580     11579     12101     12157     12158     12155
 -1      4012   10    0    1
 -2     11552     11553     11581     11580     12103     12159     12160     12157
 -1      4013   10    0    1
 -2     11553     11554     11582     11581     12105     12161     12162     12159
 -1      4014   10    0    1
 -2     11554     11555     11583     11582     12107     12163     12164     12161
 -1      4015   10    0    1
 -2     11555     11556     11584     11583     12109     12165     12166     12163
 -1      4016   10    0    1
 -2     11556     11557     11585     11584     12111     12167     12168     12165
 -1      4017   10    0    1
 -2     11557     11558     11586     11585     12113     12169     12170     12167
 -1      4018   10    0    1
 -2     11558     11559     11587     11586     12115     12171     12172     12169
 -1      4019   10    0    1
 -2     11559     11560     11588     11587     12117     12173     12174     12171
 -1      4020   10    0    1
 -2     11560     11561     11589     11588     12119     12175     12176     12173
 -1      4021   10    0    1
 -2     11561     11562     11590     11589     12121     12177     12178     12175
 -1      4022   10    0    1
 -2     11562     11563     11591     11590     12123     12179     12180     12177
 -1      4023   10    0    1
 -2     11563     11564     11592     11591     12125     12181     12182     12179
 -1      4024   10    0    1
 -2     11564     11565     11593     11592     12127     12183     12184     12181
 -1      4025   10    0    1
 -2     11565     11566     11594     11593     12129     12185     12186     12183
 -1      4026   10    0    1
 -2     11566     11567     11595     11594     12131     12187     12188     12185
 -1      4027   10    0    1
 -2     11567     11568     11596     11595     12133     12189     12190     12187
 -1      4028   10    0    1
 -2     11568       345       346     11596     12134       360     12191     12189
 -1      4029   10    0    1
 -2       783     11569     11597       784     12136     12192     12193       798
 -1      4030   10    0    1
 -2     11569     11570     11598     11597     12138     12194     12195     12192
 -1      4031   10    0    1
 -2     11570     11571     11599     11598     12140     12196     12197     12194
 -1      4032   10    0    1
 -2     11571     11572     11600     11599     12142     12198     12199     12196
 -1      4033   10    0    1
 -2     11572     11573     11601     11600     12144     12200     12201     12198
 -1      4034   10    0    1
 -2     11573     11574     11602     11601     12146     12202     12203     12200
 -1      4035   10    0    1
 -2     11574     11575     11603     11602     12148     12204     12205     12202
 -1      4036   10    0    1
 -2     11575     11576     11604     11603     12150     12206     12207     12204
 -1      4037   10    0    1
 -2     11576     11577     11605     11604     12152     12208     12209     12206
 -1      4038   10    0    1
 -2     11577     11578     11606     11605     12154     12210     12211     12208
 -1      4039   10    0    1
 -2     11578     11579     11607     11606     12156     12212     12213     12210
 -1      4040   10    0    1
 -2     11579     11580     11608     11607     12158     12214     12215     12212
 -1      4041   10    0    1
 -2     11580     11581     11609     11608     12160     12216     12217     12214
 -1      4042   10    0    1
 -2     11581     11582     11610     11609     12162     12218     12219     12216
 -1      4043   10    0    1
 -2     11582     11583     11611     11610     12164     12220     12221     12218
 -1      4044   10    0    1
 -2     11583     11584     11612     11611     12166     12222     12223     12220
 -1      4045   10    0    1
 -2     11584     11585     11613     11612     12168     12224     12225     12222
 -1      4046   10    0    1
 -2     11585     11586     11614     11613     12170     12226     12227     12224
 -1      4047   10    0    1
 -2     11586     11587     11615     11614     12172     12228     12229     12226
 -1      4048   10    0    1
 -2     11587     11588     11616     11615     12174     12230     12231     12228
 -1      4049   10    0    1
 -2     11588     11589     11617     11616     12176     12232     12233     12230
 -1      4050   10    0    1
 -2     11589     11590     11618     11617     12178     12234     12235     12232
 -1      4051   10    0    1
 -2     11590     11591     11619     11618     12180     12236     12237     12234
 -1      4052   10    0    1
 -2     11591     11592     11620     11619     12182     12238     12239     12236
 -1      4053   10    0    1
 -2     11592     11593     11621     11620     12184     12240     12241     12238
 -1      4054   10    0    1
 -2     11593     11594     11622     11621     12186     12242     12243     12240
 -1      4055   10    0    1
 -2     11594     11595     11623     11622     12188     12244     12245     12242
 -1      4056   10    0    1
 -2     11595     11596     11624     11623     12190     12246     12247     12244
 -1      4057   10    0    1
 -2     11596       346       347     11624     12191       361     12248     12246
 -1      4058   10    0    1
 -2       784     11597     11625       785     12193     12249     12250       799
 -1      4059   10    0    1
 -2     11597     11598     11626     11625     12195     12251     12252     12249
 -1      4060   10    0    1
 -2     11598     11599     11627     11626     12197     12253     12254     12251
 -1      4061   10    0    1
 -2     11599     11600     11628     11627     12199     12255     12256     12253
 -1      4062   10    0    1
 -2     11600     11601     11629     11628     12201     12257     12258     12255
 -1      4063   10    0    1
 -2     11601     11602     11630     11629     12203     12259     12260     12257
 -1      4064   10    0    1
 -2     11602     11603     11631     11630     12205     12261     12262     12259
 -1      4065   10    0    1
 -2     11603     11604     11632     11631     12207     12263     12264     12261
 -1      4066   10    0    1
 -2     11604     11605     11633     11632     12209     12265     12266     12263
 -1      4067   10    0    1
 -2     11605     11606     11634     11633     12211     12267     12268     12265
 -1      4068   10    0    1
 -2     11606     11607     11635     11634     12213     12269     12270     12267
 -1      4069   10    0    1
 -2     11607     11608     11636     11635     12215     12271     12272     12269
 -1      4070   10    0    1
 -2     11608     11609     11637     11636     12217     12273     12274     12271
 -1      4071   10    0    1
 -2     11609     11610     11638     11637     12219     12275     12276     12273
 -1      4072   10    0    1
 -2     11610     11611     11639     11638     12221     12277     12278     12275
 -1      4073   10    0    1
 -2     11611     11612     11640     11639     12223     12279     12280     12277
 -1      4074   10    0    1
 -2     11612     11613     11641     11640     12225     12281     12282     12279
 -1      4075   10    0    1
 -2     11613     11614     11642     11641     12227     12283     12284     12281
 -1      4076   10    0    1
 -2     11614     11615     11643     11642     12229     12285     12286     12283
 -1      4077   10    0    1
 -2     11615     11616     11644     11643     12231     12287     12288     12285
 -1      4078   10    0    1
 -2     11616     11617     11645     11644     12233     12289     12290     12287
 -1      4079   10    0    1
 -2     11617     11618     11646     11645     12235     12291     12292     12289
 -1      4080   10    0    1
 -2     11618     11619     11647     11646     12237     12293     12294     12291
 -1      4081   10    0    1
 -2     11619     11620     11648     11647     12239     12295     12296     12293
 -1      4082   10    0    1
 -2     11620     11621     11649     11648     12241     12297     12298     12295
 -1      4083   10    0    1
 -2     11621     11622     11650     11649     12243     12299     12300     12297
 -1      4084   10    0    1
 -2     11622     11623     11651     11650     12245     12301     12302     12299
 -1      4085   10    0    1
 -2     11623     11624     11652     11651     12247     12303     12304     12301
 -1      4086   10    0    1
 -2     11624       347       348     11652     12248       362     12305     12303
 -1      4087   10    0    1
 -2       785     11625     11653       786     12250     12306     12307       800
 -1      4088   10    0    1
 -2     11625     11626     11654     11653     12252     12308     12309     12306
 -1      4089   10    0    1
 -2     11626     11627     11655     11654     12254     12310     12311     12308
 -1      4090   10    0    1
 -2     11627     11628     11656     11655     12256     12312     12313     12310
 -1      4091   10    0    1
 -2     11628     11629     11657     11656     12258     12314     12315     12312
 -1      4092   10    0    1
 -2     11629     11630     11658     11657     12260     12316     12317     12314
 -1      4093   10    0    1
 -2     11630     11631     11659     11658     12262     12318     12319     12316
 -1      4094   10    0    1
 -2     11631     11632     11660     11659     12264     12320     12321     12318
 -1      4095   10    0    1
 -2     11632     11633     11661     11660     12266     12322     12323     12320
 -1      4096   10    0    1
 -2     11633     11634     11662     11661     12268     12324     12325     12322
 -1      4097   10    0    1
 -2     11634     11635     11663     11662     12270     12326     12327     12324
 -1      4098   10    0    1
 -2     11635     11636     11664     11663     12272     12328     12329     12326
 -1      4099   10    0    1
 -2     11636     11637     11665     11664     12274     12330     12331     12328
 -1      4100   10    0    1
 -2     11637     11638     11666     11665     12276     12332     12333     12330
 -1      4101   10    0    1
 -2     11638     11639     11667     11666     12278     12334     12335     12332
 -1      4102   10    0    1
 -2     11639     11640     11668     11667     12280     12336     12337     12334
 -1      4103   10    0    1
 -2     11640     11641     11669     11668     12282     12338     12339     12336
 -1      4104   10    0    1
 -2     11641     11642     11670     11669     12284     12340     12341     12338
 -1      4105   10    0    1
 -2     11642     11643     11671     11670     12286     12342     12343     12340
 -1      4106   10    0    1
 -2     11643     11644     11672     11671     12288     12344     12345     12342
 -1      4107   10    0    1
 -2     11644     11645     11673     11672     12290     12346     12347     12344
 -1      4108   10    0    1
 -2     11645     11646     11674     11673     12292     12348     12349     12346
 -1      4109   10    0    1
 -2     11646     11647     11675     11674     12294     12350     12351     12348
 -1      4110   10    0    1
 -2     11647     11648     11676     11675     12296     12352     12353     12350
 -1      4111   10    0    1
 -2     11648     11649     11677     11676     12298     12354     12355     12352
 -1      4112   10    0    1
 -2     11649     11650     11678     11677     12300     12356     12357     12354
 -1      4113   10    0    1
 -2     11650     11651     11679     11678     12302     12358     12359     12356
 -1      4114   10    0    1
 -2     11651     11652     11680     11679     12304     12360     12361     12358
 -1      4115   10    0    1
 -2     11652       348       349     11680     12305       363     12362     12360
 -1      4116   10    0    1
 -2       786     11653     11681       787     12307     12363     12364       801
 -1      4117   10    0    1
 -2     11653     11654     11682     11681     12309     12365     12366     12363
 -1      4118   10    0    1
 -2     11654     11655     11683     11682     12311     12367     12368     12365
 -1      4119   10    0    1
 -2     11655     11656     11684     11683     12313     12369     12370     12367
 -1      4120   10    0    1
 -2     11656     11657     11685     11684     12315     12371     12372     12369
 -1      4121   10    0    1
 -2     11657     11658     11686     11685     12317     12373     12374     12371
 -1      4122   10    0    1
 -2     11658     11659     11687     11686     12319     12375     12376     12373
 -1      4123   10    0    1
 -2     11659     11660     11688     11687     12321     12377     12378     12375
 -1      4124   10    0    1
 -2     11660     11661     11689     11688     12323     12379     12380     12377
 -1      4125   10    0    1
 -2     11661     11662     11690     11689     12325     12381     12382     12379
 -1      4126   10    0    1
 -2     11662     11663     11691     11690     12327     12383     12384     12381
 -1      4127   10    0    1
 -2     11663     11664     11692     11691     12329     12385     12386     12383
 -1      4128   10    0    1
 -2     11664     11665     11693     11692     12331     12387     12388     12385
 -1      4129   10    0    1
 -2     11665     11666     11694     11693     12333     12389     12390     12387
 -1      4130   10    0    1
 -2     11666     11667     11695     11694     12335     12391     12392     12389
 -1      4131   10    0    1
 -2     11667     11668     11696     11695     12337     12393     12394     12391
 -1      4132   10    0    1
 -2     11668     11669     11697     11696     12339     12395     12396     12393
 -1      4133   10    0    1
 -2     11669     11670     11698     11697     12341     12397     12398     12395
 -1      4134   10    0    1
 -2     11670     11671     11699     11698     12343     12399     12400     12397
 -1      4135   10    0    1
 -2     11671     11672     11700     11699     12345     12401     12402     12399
 -1      4136   10    0    1
 -2     11672     11673     11701     11700     12347     12403     12404     12401
 -1      4137   10    0    1
 -2     11673     11674     11702     11701     12349     12405     12406     12403
 -1      4138   10    0    1
 -2     11674     11675     11703     11702     12351     12407     12408     12405
 -1      4139   10    0    1
 -2     11675     11676     11704     11703     12353     12409     12410     12407
 -1      4140   10    0    1
 -2     11676     11677     11705     11704     12355     12411     12412     12409
 -1      4141   10    0    1
 -2     11677     11678     11706     11705     12357     12413     12414     12411
 -1      4142   10    0    1
 -2     11678     11679     11707     11706     12359     12415     12416     12413
 -1      4143   10    0    1
 -2     11679     11680     11708     11707     12361     12417     12418     12415
 -1      4144   10    0    1
 -2     11680       349       350     11708     12362       364     12419     12417
 -1      4145   10    0    1
 -2       787     11681     11709       788     12364     12420     12421       802
 -1      4146   10    0    1
 -2     11681     11682     11710     11709     12366     12422     12423     12420
 -1      4147   10    0    1
 -2     11682     11683     11711     11710     12368     12424     12425     12422
 -1      4148   10    0    1
 -2     11683     11684     11712     11711     12370     12426     12427     12424
 -1      4149   10    0    1
 -2     11684     11685     11713     11712     12372     12428     12429     12426
 -1      4150   10    0    1
 -2     11685     11686     11714     11713     12374     12430     12431     12428
 -1      4151   10    0    1
 -2     11686     11687     11715     11714     12376     12432     12433     12430
 -1      4152   10    0    1
 -2     11687     11688     11716     11715     12378     12434     12435     12432
 -1      4153   10    0    1
 -2     11688     11689     11717     11716     12380     12436     12437     12434
 -1      4154   10    0    1
 -2     11689     11690     11718     11717     12382     12438     12439     12436
 -1      4155   10    0    1
 -2     11690     11691     11719     11718     12384     12440     12441     12438
 -1      4156   10    0    1
 -2     11691     11692     11720     11719     12386     12442     12443     12440
 -1      4157   10    0    1
 -2     11692     11693     11721     11720     12388     12444     12445     12442
 -1      4158   10    0    1
 -2     11693     11694     11722     11721     12390     12446     12447     12444
 -1      4159   10    0    1
 -2     11694     11695     11723     11722     12392     12448     12449     12446
 -1      4160   10    0    1
 -2     11695     11696     11724     11723     12394     12450     12451     12448
 -1      4161   10    0    1
 -2     11696     11697     11725     11724     12396     12452     12453     12450
 -1      4162   10    0    1
 -2     11697     11698     11726     11725     12398     12454     12455     12452
 -1      4163   10    0    1
 -2     11698     11699     11727     11726     12400     12456     12457     12454
 -1      4164   10    0    1
 -2     11699     11700     11728     11727     12402     12458     12459     12456
 -1      4165   10    0    1
 -2     11700     11701     11729     11728     12404     12460     12461     12458
 -1      4166   10    0    1
 -2     11701     11702     11730     11729     12406     12462     12463     12460
 -1      4167   10    0    1
 -2     11702     11703     11731     11730     12408     12464     12465     12462
 -1      4168   10    0    1
 -2     11703     11704     11732     11731     12410     12466     12467     12464
 -1      4169   10    0    1
 -2     11704     11705     11733     11732     12412     12468     12469     12466
 -1      4170   10    0    1
 -2     11705     11706     11734     11733     12414     12470     12471     12468
 -1      4171   10    0    1
 -2     11706     11707     11735     11734     12416     12472     12473     12470
 -1      4172   10    0    1
 -2     11707     11708     11736     11735     12418     12474     12475     12472
 -1      4173   10    0    1
 -2     11708       350       351     11736     12419       365     12476     12474
 -1      4174   10    0    1
 -2       788     11709     11737       789     12421     12477     12478       803
 -1      4175   10    0    1
 -2     11709     11710     11738     11737     12423     12479     12480     12477
 -1      4176   10    0    1
 -2     11710     11711     11739     11738     12425     12481     12482     12479
 -1      4177   10    0    1
 -2     11711     11712     11740     11739     12427     12483     12484     12481
 -1      4178   10    0    1
 -2     11712     11713     11741     11740     12429     12485     12486     12483
 -1      4179   10    0    1
 -2     11713     11714     11742     11741     12431     12487     12488     12485
 -1      4180   10    0    1
 -2     11714     11715     11743     11742     12433     12489     12490     12487
 -1      4181   10    0    1
 -2     11715     11716     11744     11743     12435     12491     12492     12489
 -1      4182   10    0    1
 -2     11716     11717     11745     11744     12437     12493     12494     12491
 -1      4183   10    0    1
 -2     11717     11718     11746     11745     12439     12495     12496     12493
 -1      4184   10    0    1
 -2     11718     11719     11747     11746     12441     12497     12498     12495
 -1      4185   10    0    1
 -2     11719     11720     11748     11747     12443     12499     12500     12497
 -1      4186   10    0    1
 -2     11720     11721     11749     11748     12445     12501     12502     12499
 -1      4187   10    0    1
 -2     11721     11722     11750     11749     12447     12503     12504     12501
 -1      4188   10    0    1
 -2     11722     11723     11751     11750     12449     12505     12506     12503
 -1      4189   10    0    1
 -2     11723     11724     11752     11751     12451     12507     12508     12505
 -1      4190   10    0    1
 -2     11724     11725     11753     11752     12453     12509     12510     12507
 -1      4191   10    0    1
 -2     11725     11726     11754     11753     12455     12511     12512     12509
 -1      4192   10    0    1
 -2     11726     11727     11755     11754     12457     12513     12514     12511
 -1      4193   10    0    1
 -2     11727     11728     11756     11755     12459     12515     12516     12513
 -1      4194   10    0    1
 -2     11728     11729     11757     11756     12461     12517     12518     12515
 -1      4195   10    0    1
 -2     11729     11730     11758     11757     12463     12519     12520     12517
 -1      4196   10    0    1
 -2     11730     11731     11759     11758     12465     12521     12522     12519
 -1      4197   10    0    1
 -2     11731     11732     11760     11759     12467     12523     12524     12521
 -1      4198   10    0    1
 -2     11732     11733     11761     11760     12469     12525     12526     12523
 -1      4199   10    0    1
 -2     11733     11734     11762     11761     12471     12527     12528     12525
 -1      4200   10    0    1
 -2     11734     11735     11763     11762     12473     12529     12530     12527
 -1      4201   10    0    1
 -2     11735     11736     11764     11763     12475     12531     12532     12529
 -1      4202   10    0    1
 -2     11736       351       352     11764     12476       366     12533     12531
 -1      4203   10    0    1
 -2       789     11737     11765       790     12478     12534     12535       804
 -1      4204   10    0    1
 -2     11737     11738     11766     11765     12480     12536     12537     12534
 -1      4205   10    0    1
 -2     11738     11739     11767     11766     12482     12538     12539     12536
 -1      4206   10    0    1
 -2     11739     11740     11768     11767     12484     12540     12541     12538
 -1      4207   10    0    1
 -2     11740     11741     11769     11768     12486     12542     12543     12540
 -1      4208   10    0    1
 -2     11741     11742     11770     11769     12488     12544     12545     12542
 -1      4209   10    0    1
 -2     11742     11743     11771     11770     12490     12546     12547     12544
 -1      4210   10    0    1
 -2     11743     11744     11772     11771     12492     12548     12549     12546
 -1      4211   10    0    1
 -2     11744     11745     11773     11772     12494     12550     12551     12548
 -1      4212   10    0    1
 -2     11745     11746     11774     11773     12496     12552     12553     12550
 -1      4213   10    0    1
 -2     11746     11747     11775     11774     12498     12554     12555     12552
 -1      4214   10    0    1
 -2     11747     11748     11776     11775     12500     12556     12557     12554
 -1      4215   10    0    1
 -2     11748     11749     11777     11776     12502     12558     12559     12556
 -1      4216   10    0    1
 -2     11749     11750     11778     11777     12504     12560     12561     12558
 -1      4217   10    0    1
 -2     11750     11751     11779     11778     12506     12562     12563     12560
 -1      4218   10    0    1
 -2     11751     11752     11780     11779     12508     12564     12565     12562
 -1      4219   10    0    1
 -2     11752     11753     11781     11780     12510     12566     12567     12564
 -1      4220   10    0    1
 -2     11753     11754     11782     11781     12512     12568     12569     12566
 -1      4221   10    0    1
 -2     11754     11755     11783     11782     12514     12570     12571     12568
 -1      4222   10    0    1
 -2     11755     11756     11784     11783     12516     12572     12573     12570
 -1      4223   10    0    1
 -2     11756     11757     11785     11784     12518     12574     12575     12572
 -1      4224   10    0    1
 -2     11757     11758     11786     11785     12520     12576     12577     12574
 -1      4225   10    0    1
 -2     11758     11759     11787     11786     12522     12578     12579     12576
 -1      4226   10    0    1
 -2     11759     11760     11788     11787     12524     12580     12581     12578
 -1      4227   10    0    1
 -2     11760     11761     11789     11788     12526     12582     12583     12580
 -1      4228   10    0    1
 -2     11761     11762     11790     11789     12528     12584     12585     12582
 -1      4229   10    0    1
 -2     11762     11763     11791     11790     12530     12586     12587     12584
 -1      4230   10    0    1
 -2     11763     11764     11792     11791     12532     12588     12589     12586
 -1      4231   10    0    1
 -2     11764       352       353     11792     12533       367     12590     12588
 -1      4232   10    0    1
 -2       790     11765      1159        20     12535     12591      1188       805
 -1      4233   10    0    1
 -2     11765     11766      1158      1159     12537     12592      1187     12591
 -1      4234   10    0    1
 -2     11766     11767      1157      1158     12539     12593      1186     12592
 -1      4235   10    0    1
 -2     11767     11768      1156      1157     12541     12594      1185     12593
 -1      4236   10    0    1
 -2     11768     11769      1155      1156     12543     12595      1184     12594
 -1      4237   10    0    1
 -2     11769     11770      1154      1155     12545     12596      1183     12595
 -1      4238   10    0    1
 -2     11770     11771      1153      1154     12547     12597      1182     12596
 -1      4239   10    0    1
 -2     11771     11772      1152      1153     12549     12598      1181     12597
 -1      4240   10    0    1
 -2     11772     11773      1151      1152     12551     12599      1180     12598
 -1      4241   10    0    1
 -2     11773     11774      1150      1151     12553     12600      1179     12599
 -1      4242   10    0    1
 -2     11774     11775      1149      1150     12555     12601      1178     12600
 -1      4243   10    0    1
 -2     11775     11776      1148      1149     12557     12602      1177     12601
 -1      4244   10    0    1
 -2     11776     11777      1147      1148     12559     12603      1176     12602
 -1      4245   10    0    1
 -2     11777     11778      1146      1147     12561     12604      1175     12603
 -1      4246   10    0    1
 -2     11778     11779      1145      1146     12563     12605      1174     12604
 -1      4247   10    0    1
 -2     11779     11780      1144      1145     12565     12606      1173     12605
 -1      4248   10    0    1
 -2     11780     11781      1143      1144     12567     12607      1172     12606
 -1      4249   10    0    1
 -2     11781     11782      1142      1143     12569     12608      1171     12607
 -1      4250   10    0    1
 -2     11782     11783      1141      1142     12571     12609      1170     12608
 -1      4251   10    0    1
 -2     11783     11784      1140      1141     12573     12610      1169     12609
 -1      4252   10    0    1
 -2     11784     11785      1139      1140     12575     12611      1168     12610
 -1      4253   10    0    1
 -2     11785     11786      1138      1139     12577     12612      1167     12611
 -1      4254   10    0    1
 -2     11786     11787      1137      1138     12579     12613      1166     12612
 -1      4255   10    0    1
 -2     11787     11788      1136      1137     12581     12614      1165     12613
 -1      4256   10    0    1
 -2     11788     11789      1135      1136     12583     12615      1164     12614
 -1      4257   10    0    1
 -2     11789     11790      1134      1135     12585     12616      1163     12615
 -1      4258   10    0    1
 -2     11790     11791      1133      1134     12587     12617      1162     12616
 -1      4259   10    0    1
 -2     11791     11792      1132      1133     12589     12618      1161     12617
 -1      4260   10    0    1
 -2     11792       353         5      1132     12590       368      1160     12618
 -3
    1PSTEP                         1           1           1          
  100CL  101 1.000000000       12618                     0    1           1
 -4  DISP        4    1
 -5  D1          1    2    1    0
 -5  D2          1    2    2    0
 -5  D3          1    2    3    0
 -5  ALL         1    2    0    0    1ALL
 -1         1 4.18042E-04 1.81184E-02-1.31460E-18
 -1         2 4.21355E-04 1.20883E-02 1.14519E-18
 -1         3 2.51183E-03 1.20883E-02 1.24344E-18
 -1         4 2.51514E-03 1.81184E-02-7.92823E-19
 -1         5 4.41006E-04 1.87333E-02 1.99900E-19
 -1         6 4.28044E-04 1.14391E-02 6.77626E-20
 -1         7 2.50514E-03 1.14391E-02-2.57498E-19
 -1         8 2.49218E-03 1.87333E-02 1.69407E-19
 -1         9 1.46659E-03 2.98487E-02 2.27005E-18
 -1        10-1.79570E-03 1.79538E-02-7.65718E-19
 -1        11-1.83021E-03 1.19443E-02-1.35525E-19
 -1        12-1.33735E-03 0.00000E+00 9.82558E-20
 -1        13 6.19551E-04 0.00000E+00 1.01644E-20
 -1        14 2.31363E-03 0.00000E+00-1.69407E-20
 -1        15 4.27053E-03 0.00000E+00-1.45690E-19
 -1        16 4.76339E-03 1.19443E-02 7.69106E-19
 -1        17 4.72888E-03 1.79538E-02 7.11508E-20
 -1        18 1.46659E-03 2.98487E-02 6.50521E-19
 -1        19 1.46659E-03 2.98487E-02 4.87891E-19
 -1        20 1.46659E-03 2.98487E-02 3.38813E-19
 -1        21 5.12379E-04 1.85078E-02-7.45389E-20
 -1        22 5.74983E-04 1.83136E-02-1.35525E-20
 -1        23 6.28769E-04 1.81487E-02-6.84403E-19
 -1        24 6.73561E-04 1.80115E-02-6.50521E-19
 -1        25 7.09115E-04 1.79007E-02 4.23516E-19
 -1        26 7.35076E-04 1.78153E-02 3.21873E-19
 -1        27 7.50963E-04 1.77544E-02-1.45690E-19
 -1        28 7.56160E-04 1.77176E-02-5.86147E-19
 -1        29 7.49915E-04 1.77043E-02-1.39591E-18
 -1        30 7.31355E-04 1.77144E-02 3.59142E-19
 -1        31 6.99502E-04 1.77480E-02 1.16552E-18
 -1        32 6.53308E-04 1.78050E-02 1.50094E-18
 -1        33 5.91676E-04 1.78857E-02-1.25361E-19
 -1        34 5.13584E-04 1.79901E-02-8.02987E-19
 -1        35 4.76859E-04 1.86195E-02 6.57298E-19
 -1        36 5.43963E-04 1.84095E-02 6.77626E-20
 -1        37 6.02297E-04 1.82297E-02-4.74338E-19
 -1        38 6.51731E-04 1.80785E-02-1.43657E-18
 -1        39 6.92066E-04 1.79543E-02-6.23416E-19
 -1        40 7.23005E-04 1.78560E-02 1.53144E-18
 -1        41 7.44134E-04 1.77826E-02 6.97955E-19
 -1        42 7.54905E-04 1.77335E-02-1.17907E-18
 -1        43 7.54636E-04 1.77081E-02-3.35425E-18
 -1        44 7.42514E-04 1.77063E-02-1.51788E-18
 -1        45 7.17610E-04 1.77278E-02 2.37169E-18
 -1        46 6.78909E-04 1.77728E-02 4.18095E-18
 -1        47 6.25333E-04 1.78413E-02 1.97189E-18
 -1        48 5.55823E-04 1.79335E-02-1.50433E-18
 -1        49 4.69247E-04 1.80497E-02-3.26616E-18
 -1        50 5.02535E-04 1.16709E-02 2.37169E-20
 -1        51 5.67494E-04 1.18702E-02 2.03288E-20
 -1        52 6.23088E-04 1.20393E-02 2.47334E-19
 -1        53 6.69294E-04 1.21799E-02-2.98156E-19
 -1        54 7.05982E-04 1.22934E-02 3.42201E-19
 -1        55 7.32877E-04 1.23810E-02 9.65618E-19
 -1        56 7.49555E-04 1.24437E-02 9.21572E-19
 -1        57 7.55445E-04 1.24821E-02-5.35325E-19
 -1        58 7.49827E-04 1.24966E-02 3.15096E-19
 -1        59 7.31852E-04 1.24876E-02 1.01644E-20
 -1        60 7.00562E-04 1.24550E-02 3.62530E-19
 -1        61 6.54923E-04 1.23988E-02 5.08220E-20
 -1        62 5.93846E-04 1.23191E-02 3.04932E-20
 -1        63 5.16319E-04 1.22156E-02 3.21873E-19
 -1        64 4.65527E-04 1.15561E-02 2.30393E-19
 -1        65 5.35345E-04 1.17719E-02-1.55854E-19
 -1        66 5.95745E-04 1.19563E-02 8.53809E-19
 -1        67 6.46779E-04 1.21113E-02-3.79471E-19
 -1        68 6.88381E-04 1.22385E-02 1.69407E-19
 -1        69 7.20348E-04 1.23393E-02 2.19551E-18
 -1        70 7.42334E-04 1.24147E-02 2.76472E-18
 -1        71 7.53845E-04 1.24654E-02 7.65718E-19
 -1        72 7.54233E-04 1.24922E-02-2.37169E-19
 -1        73 7.42714E-04 1.24952E-02 6.91179E-19
 -1        74 7.18383E-04 1.24747E-02 6.03087E-19
 -1        75 6.80240E-04 1.24306E-02 8.19928E-19
 -1        76 6.27218E-04 1.23630E-02 0.00000E+00
 -1        77 5.58267E-04 1.22717E-02 6.91179E-19
 -1        78 4.72261E-04 1.21565E-02 2.12097E-18
 -1        79 2.43065E-03 1.16709E-02 3.28649E-19
 -1        80 2.36569E-03 1.18702E-02-4.47233E-19
 -1        81 2.31010E-03 1.20393E-02 4.87891E-19
 -1        82 2.26389E-03 1.21799E-02 5.08220E-20
 -1        83 2.22720E-03 1.22934E-02-1.05032E-19
 -1        84 2.20031E-03 1.23810E-02-2.94767E-19
 -1        85 2.18363E-03 1.24437E-02 3.38813E-21
 -1        86 2.17774E-03 1.24821E-02 2.47334E-19
 -1        87 2.18336E-03 1.24966E-02 6.84403E-19
 -1        88 2.20133E-03 1.24876E-02 1.82959E-19
 -1        89 2.23262E-03 1.24550E-02-2.30393E-19
 -1        90 2.27826E-03 1.23988E-02-5.86147E-19
 -1        91 2.33934E-03 1.23191E-02-4.74338E-20
 -1        92 2.41686E-03 1.22156E-02 6.36969E-19
 -1        93 2.46766E-03 1.15561E-02 4.74338E-20
 -1        94 2.39784E-03 1.17719E-02-2.84603E-19
 -1        95 2.33744E-03 1.19563E-02-2.98156E-19
 -1        96 2.28640E-03 1.21113E-02 2.16840E-19
 -1        97 2.24480E-03 1.22385E-02 2.57498E-19
 -1        98 2.21284E-03 1.23393E-02-1.00966E-18
 -1        99 2.19085E-03 1.24147E-02-6.70850E-19
 -1       100 2.17934E-03 1.24654E-02 2.77827E-19
 -1       101 2.17895E-03 1.24922E-02 1.61275E-18
 -1       102 2.19047E-03 1.24952E-02 1.33492E-18
 -1       103 2.21480E-03 1.24747E-02 7.45389E-20
 -1       104 2.25294E-03 1.24306E-02-1.38236E-18
 -1       105 2.30597E-03 1.23630E-02-8.67362E-19
 -1       106 2.37492E-03 1.22717E-02 9.89334E-19
 -1       107 2.46092E-03 1.21565E-02 2.83248E-18
 -1       108 2.42080E-03 1.85078E-02-2.67662E-19
 -1       109 2.35820E-03 1.83136E-02-1.25361E-19
 -1       110 2.30441E-03 1.81487E-02-3.32037E-19
 -1       111 2.25962E-03 1.80115E-02 2.47334E-19
 -1       112 2.22407E-03 1.79007E-02-3.93023E-19
 -1       113 2.19811E-03 1.78153E-02-1.41285E-18
 -1       114 2.18222E-03 1.77544E-02-1.36203E-18
 -1       115 2.17702E-03 1.77176E-02 5.96311E-19
 -1       116 2.18327E-03 1.77043E-02-7.65718E-19
 -1       117 2.20183E-03 1.77144E-02 1.25361E-19
 -1       118 2.23368E-03 1.77480E-02-1.86347E-19
 -1       119 2.27988E-03 1.78050E-02-6.77626E-20
 -1       120 2.34151E-03 1.78857E-02-5.42101E-19
 -1       121 2.41960E-03 1.79901E-02-5.75982E-20
 -1       122 2.45632E-03 1.86195E-02-1.89735E-19
 -1       123 2.38922E-03 1.84095E-02-7.18284E-19
 -1       124 2.33089E-03 1.82297E-02-1.06387E-18
 -1       125 2.28145E-03 1.80785E-02 2.16840E-19
 -1       126 2.24112E-03 1.79543E-02-3.93023E-19
 -1       127 2.21018E-03 1.78560E-02-3.09675E-18
 -1       128 2.18905E-03 1.77826E-02-4.16063E-18
 -1       129 2.17828E-03 1.77335E-02-1.61275E-18
 -1       130 2.17855E-03 1.77081E-02-4.06576E-19
 -1       131 2.19067E-03 1.77063E-02-1.15874E-18
 -1       132 2.21557E-03 1.77278E-02 2.57498E-19
 -1       133 2.25427E-03 1.77728E-02-7.45389E-19
 -1       134 2.30785E-03 1.78413E-02-9.62229E-19
 -1       135 2.37736E-03 1.79335E-02-1.03677E-18
 -1       136 2.46394E-03 1.80497E-02-1.11808E-18
 -1       137 3.13853E-04 1.77854E-02 1.26039E-18
 -1       138 2.22317E-04 1.74230E-02-4.33681E-19
 -1       139 1.44458E-04 1.70352E-02 3.79471E-19
 -1       140 8.11639E-05 1.66264E-02 3.38813E-19
 -1       141 3.31593E-05 1.62011E-02 1.35525E-19
 -1       142 9.86965E-07 1.57639E-02 2.15485E-18
 -1       143-1.49994E-05 1.53196E-02-2.16840E-19
 -1       144-1.46354E-05 1.48732E-02-4.60786E-19
 -1       145 2.06091E-06 1.44296E-02-7.04731E-19
 -1       146 3.48900E-05 1.39936E-02 1.15196E-19
 -1       147 8.34662E-05 1.35699E-02-1.17907E-18
 -1       148 1.47220E-04 1.31633E-02-4.33681E-19
 -1       149 2.25408E-04 1.27781E-02 4.26905E-19
 -1       150 3.17129E-04 1.24184E-02-2.54110E-19
 -1       151 3.64290E-04 1.79559E-02-5.82759E-19
 -1       152 2.66277E-04 1.76077E-02 1.12486E-18
 -1       153 1.81435E-04 1.72321E-02-6.77626E-20
 -1       154 1.10720E-04 1.68332E-02 1.43657E-18
 -1       155 5.49404E-05 1.64155E-02 5.42101E-19
 -1       156 1.47365E-05 1.59836E-02 3.22550E-18
 -1       157-9.42525E-06 1.55423E-02 2.41235E-18
 -1       158-1.72652E-05 1.50964E-02-1.11131E-18
 -1       159-8.70068E-06 1.46508E-02-1.73472E-18
 -1       160 1.61494E-05 1.42103E-02-9.75782E-19
 -1       161 5.69715E-05 1.37799E-02-1.35525E-18
 -1       162 1.13270E-04 1.33642E-02-2.38524E-18
 -1       163 1.84381E-04 1.29677E-02-2.71051E-20
 -1       164 2.69480E-04 1.25947E-02-8.13152E-20
 -1       165 3.67605E-04 1.22493E-02 9.89334E-19
 -1       166 5.36800E-04 1.17912E-02 2.93073E-19
 -1       167 6.62345E-04 1.15303E-02-2.16840E-19
 -1       168 7.96500E-04 1.13085E-02-5.91375E-19
 -1       169 9.37833E-04 1.11282E-02-3.94717E-19
 -1       170 1.08482E-03 1.09912E-02-6.52215E-19
 -1       171 1.23588E-03 1.08991E-02-9.89334E-19
 -1       172 1.38941E-03 1.08528E-02-1.16552E-18
 -1       173 1.54377E-03 1.08528E-02 8.13152E-20
 -1       174 1.69730E-03 1.08991E-02-3.99800E-19
 -1       175 1.84837E-03 1.09912E-02-4.91279E-19
 -1       176 1.99535E-03 1.11282E-02 4.75185E-19
 -1       177 2.13668E-03 1.13085E-02 5.79212E-19
 -1       178 2.27084E-03 1.15303E-02 7.36072E-19
 -1       179 2.39638E-03 1.17912E-02 1.10114E-19
 -1       180 4.77590E-04 1.19353E-02 2.32426E-18
 -1       181 5.98282E-04 1.16560E-02 1.62630E-19
 -1       182 7.28326E-04 1.14143E-02-1.36203E-18
 -1       183 8.66291E-04 1.12129E-02-9.58841E-19
 -1       184 1.01068E-03 1.10540E-02-1.63308E-18
 -1       185 1.15993E-03 1.09393E-02-2.76472E-18
 -1       186 1.31244E-03 1.08699E-02-4.00477E-18
 -1       187 1.46659E-03 1.08468E-02-1.07743E-18
 -1       188 1.62074E-03 1.08699E-02-1.96512E-19
 -1       189 1.77325E-03 1.09393E-02-1.24006E-18
 -1       190 1.92251E-03 1.10540E-02 2.16840E-19
 -1       191 2.06689E-03 1.12129E-02 1.65171E-18
 -1       192 2.20486E-03 1.14143E-02 2.17857E-18
 -1       193 2.33490E-03 1.16560E-02 1.10114E-18
 -1       194 2.45559E-03 1.19353E-02 2.04643E-18
 -1       195 2.61605E-03 1.24184E-02-7.45389E-19
 -1       196 2.70778E-03 1.27781E-02 1.08420E-19
 -1       197 2.78596E-03 1.31633E-02-3.93023E-19
 -1       198 2.84972E-03 1.35699E-02-4.87891E-19
 -1       199 2.89829E-03 1.39936E-02-6.43745E-19
 -1       200 2.93112E-03 1.44296E-02-6.09864E-20
 -1       201 2.94782E-03 1.48732E-02-3.45589E-19
 -1       202 2.94818E-03 1.53196E-02-5.42101E-20
 -1       203 2.93220E-03 1.57639E-02 4.60786E-19
 -1       204 2.90002E-03 1.62011E-02 6.09864E-19
 -1       205 2.85202E-03 1.66264E-02 5.96311E-19
 -1       206 2.78873E-03 1.70352E-02 1.00289E-18
 -1       207 2.71087E-03 1.74230E-02 2.71051E-20
 -1       208 2.61933E-03 1.77854E-02 2.60886E-19
 -1       209 2.56558E-03 1.22493E-02 1.05710E-18
 -1       210 2.66370E-03 1.25947E-02-1.00289E-18
 -1       211 2.74880E-03 1.29677E-02-4.20128E-19
 -1       212 2.81991E-03 1.33642E-02-1.49078E-18
 -1       213 2.87621E-03 1.37799E-02-1.87025E-18
 -1       214 2.91703E-03 1.42103E-02-9.21572E-19
 -1       215 2.94188E-03 1.46508E-02-5.96311E-19
 -1       216 2.95045E-03 1.50964E-02-1.62630E-19
 -1       217 2.94261E-03 1.55423E-02 1.05710E-18
 -1       218 2.91845E-03 1.59836E-02 1.59920E-18
 -1       219 2.87824E-03 1.64155E-02 1.89735E-18
 -1       220 2.82246E-03 1.68332E-02 2.27682E-18
 -1       221 2.75175E-03 1.72321E-02 1.28749E-18
 -1       222 2.66691E-03 1.76077E-02 6.91179E-19
 -1       223 2.56889E-03 1.79559E-02-7.58942E-19
 -1       224 2.39959E-03 1.84184E-02-2.54110E-19
 -1       225 2.27380E-03 1.86821E-02-6.95414E-19
 -1       226 2.13928E-03 1.89064E-02 1.29090E-18
 -1       227 1.99748E-03 1.90889E-02 1.33408E-18
 -1       228 1.84995E-03 1.92276E-02 1.78046E-18
 -1       229 1.69827E-03 1.93209E-02 2.25141E-18
 -1       230 1.54410E-03 1.93678E-02 2.52755E-18
 -1       231 1.38908E-03 1.93678E-02 1.62630E-19
 -1       232 1.23491E-03 1.93209E-02 3.21873E-19
 -1       233 1.08324E-03 1.92276E-02 7.96211E-20
 -1       234 9.35705E-04 1.90889E-02-1.15705E-18
 -1       235 7.93904E-04 1.89064E-02-1.29591E-18
 -1       236 6.59384E-04 1.86821E-02-6.27651E-19
 -1       237 5.33595E-04 1.84184E-02-2.42251E-19
 -1       238 2.45887E-03 1.82729E-02-1.63986E-18
 -1       239 2.33800E-03 1.85551E-02-1.56871E-18
 -1       240 2.20765E-03 1.87994E-02 1.15535E-18
 -1       241 2.06927E-03 1.90031E-02 2.58599E-18
 -1       242 1.92437E-03 1.91640E-02 4.93651E-18
 -1       243 1.77454E-03 1.92802E-02 6.48488E-18
 -1       244 1.62139E-03 1.93504E-02 8.40934E-18
 -1       245 1.46659E-03 1.93739E-02 3.25938E-18
 -1       246 1.31179E-03 1.93504E-02 3.04932E-19
 -1       247 1.15865E-03 1.92802E-02 5.28549E-19
 -1       248 1.00882E-03 1.91640E-02-1.45690E-18
 -1       249 8.63917E-04 1.90031E-02-3.47029E-18
 -1       250 7.25533E-04 1.87994E-02-3.17129E-18
 -1       251 5.95182E-04 1.85551E-02-1.29088E-18
 -1       252 4.74312E-04 1.82729E-02-2.66985E-18
 -1       253 3.62988E-04 1.82523E-02 1.55854E-19
 -1       254 2.62377E-04 1.77596E-02-1.28749E-19
 -1       255 1.38656E-04 1.72590E-02-6.47133E-19
 -1       256-2.33459E-06 1.67571E-02-4.40457E-20
 -1       257-1.45223E-04 1.62623E-02 7.11508E-20
 -1       258-2.65230E-04 1.57806E-02 3.96411E-19
 -1       259-3.34640E-04 1.53120E-02-3.15096E-19
 -1       260-3.34694E-04 1.48489E-02 5.59042E-19
 -1       261-2.65553E-04 1.43806E-02-1.15196E-19
 -1       262-1.46232E-04 1.38996E-02 3.76083E-19
 -1       263-4.56600E-06 1.34060E-02 3.55754E-19
 -1       264 1.34640E-04 1.29058E-02 2.47334E-19
 -1       265 2.56010E-04 1.24073E-02-5.45489E-19
 -1       266 3.53666E-04 1.19172E-02 1.69407E-20
 -1       267 4.04652E-04 1.84944E-02 2.77827E-19
 -1       268 3.15631E-04 1.80072E-02 0.00000E+00
 -1       269 2.03179E-04 1.75099E-02-1.05710E-18
 -1       270 6.95028E-05 1.70076E-02-1.53144E-18
 -1       271-7.50288E-05 1.65083E-02 4.06576E-20
 -1       272-2.09945E-04 1.60196E-02 1.39591E-18
 -1       273-3.07771E-04 1.55450E-02 5.01444E-19
 -1       274-3.43761E-04 1.50804E-02-2.30393E-19
 -1       275-3.07922E-04 1.46160E-02 2.71051E-20
 -1       276-2.10548E-04 1.41419E-02 3.11708E-19
 -1       277-7.65789E-05 1.36541E-02 9.62229E-19
 -1       278 6.64491E-05 1.31563E-02 8.67362E-19
 -1       279 1.98060E-04 1.26559E-02 1.35525E-20
 -1       280 3.07865E-04 1.21609E-02-1.09775E-18
 -1       281 3.93602E-04 1.16765E-02 1.96512E-19
 -1       282 6.09981E-04 1.13167E-02 2.77827E-19
 -1       283 7.93008E-04 1.11638E-02 2.13452E-19
 -1       284 9.69675E-04 1.09816E-02-8.80914E-20
 -1       285 1.12966E-03 1.07798E-02 2.27005E-19
 -1       286 1.26248E-03 1.05799E-02-5.64124E-19
 -1       287 1.36274E-03 1.04148E-02 9.08019E-19
 -1       288 1.43558E-03 1.03203E-02-2.59192E-19
 -1       289 1.49760E-03 1.03203E-02 9.99499E-20
 -1       290 1.57044E-03 1.04148E-02 2.87991E-20
 -1       291 1.67070E-03 1.05799E-02-1.05032E-19
 -1       292 1.80353E-03 1.07798E-02 9.14796E-20
 -1       293 1.96351E-03 1.09816E-02 9.48677E-20
 -1       294 2.14017E-03 1.11638E-02 2.91379E-19
 -1       295 2.32320E-03 1.13167E-02-3.55754E-19
 -1       296 5.18551E-04 1.13816E-02 7.04731E-19
 -1       297 7.01769E-04 1.12441E-02 5.69206E-19
 -1       298 8.82771E-04 1.10759E-02 4.26905E-19
 -1       299 1.05249E-03 1.08819E-02-4.06576E-20
 -1       300 1.20001E-03 1.06776E-02-4.74338E-19
 -1       301 1.31664E-03 1.04906E-02 1.15196E-19
 -1       302 1.40176E-03 1.03568E-02 1.47045E-18
 -1       303 1.46659E-03 1.03080E-02-4.06576E-19
 -1       304 1.53142E-03 1.03568E-02-1.21973E-19
 -1       305 1.61654E-03 1.04906E-02-9.48677E-20
 -1       306 1.73318E-03 1.06776E-02 1.01644E-19
 -1       307 1.88069E-03 1.08819E-02 3.38813E-19
 -1       308 2.05041E-03 1.10759E-02 4.47233E-19
 -1       309 2.23141E-03 1.12441E-02-4.74338E-20
 -1       310 2.41463E-03 1.13816E-02-1.53144E-18
 -1       311 2.57952E-03 1.19172E-02-2.13452E-19
 -1       312 2.67717E-03 1.24073E-02 4.43845E-19
 -1       313 2.79854E-03 1.29058E-02 5.42101E-20
 -1       314 2.93775E-03 1.34060E-02 3.48978E-19
 -1       315 3.07941E-03 1.38996E-02 3.72694E-19
 -1       316 3.19874E-03 1.43806E-02-1.55854E-19
 -1       317 3.26788E-03 1.48489E-02 2.98156E-19
 -1       318 3.26782E-03 1.53120E-02-7.72494E-19
 -1       319 3.19841E-03 1.57806E-02-2.23617E-19
 -1       320 3.07841E-03 1.62623E-02-1.45690E-19
 -1       321 2.93552E-03 1.67571E-02-1.72795E-19
 -1       322 2.79453E-03 1.72590E-02-3.35425E-19
 -1       323 2.67081E-03 1.77596E-02 5.31937E-19
 -1       324 2.57020E-03 1.82523E-02-3.93023E-19
 -1       325 2.53958E-03 1.16765E-02-4.40457E-19
 -1       326 2.62532E-03 1.21609E-02 3.93023E-19
 -1       327 2.73512E-03 1.26559E-02 1.76183E-19
 -1       328 2.86673E-03 1.31563E-02 5.69206E-19
 -1       329 3.00976E-03 1.36541E-02 1.20617E-18
 -1       330 3.14373E-03 1.41419E-02 1.35525E-20
 -1       331 3.24110E-03 1.46160E-02 5.14996E-19
 -1       332 3.27694E-03 1.50804E-02-2.03288E-19
 -1       333 3.24095E-03 1.55450E-02-1.23328E-18
 -1       334 3.14313E-03 1.60196E-02-9.48677E-19
 -1       335 3.00821E-03 1.65083E-02-7.72494E-19
 -1       336 2.86368E-03 1.70076E-02-8.67362E-19
 -1       337 2.73000E-03 1.75099E-02 1.76183E-19
 -1       338 2.61755E-03 1.80072E-02 1.49078E-19
 -1       339 2.52853E-03 1.84944E-02-7.99599E-19
 -1       340 2.31152E-03 1.88682E-02-9.21572E-19
 -1       341 2.12988E-03 1.90323E-02 3.04932E-20
 -1       342 1.95470E-03 1.92241E-02-1.15196E-19
 -1       343 1.79634E-03 1.94339E-02 2.67662E-19
 -1       344 1.66532E-03 1.96400E-02 1.18415E-18
 -1       345 1.56707E-03 1.98095E-02-1.46367E-18
 -1       346 1.49645E-03 1.99063E-02 1.71101E-19
 -1       347 1.43673E-03 1.99063E-02 1.32137E-19
 -1       348 1.36611E-03 1.98095E-02 1.08420E-19
 -1       349 1.26787E-03 1.96400E-02 1.64324E-19
 -1       350 1.13684E-03 1.94339E-02 6.09864E-20
 -1       351 9.78480E-04 1.92241E-02 1.82959E-19
 -1       352 8.03301E-04 1.90323E-02 3.82859E-19
 -1       353 6.21658E-04 1.88682E-02 4.33681E-19
 -1       354 2.40230E-03 1.87972E-02-1.82959E-18
 -1       355 2.22042E-03 1.89466E-02-8.67362E-19
 -1       356 2.04085E-03 1.91252E-02-4.33681E-19
 -1       357 1.87268E-03 1.93279E-02 1.14519E-18
 -1       358 1.72686E-03 1.95394E-02 2.80537E-18
 -1       359 1.61214E-03 1.97317E-02-4.20128E-19
 -1       360 1.52915E-03 1.98689E-02-2.08709E-18
 -1       361 1.46659E-03 1.99189E-02 3.99800E-19
 -1       362 1.40404E-03 1.98689E-02-4.74338E-20
 -1       363 1.32104E-03 1.97317E-02 3.32037E-19
 -1       364 1.20632E-03 1.95394E-02-1.08420E-19
 -1       365 1.06050E-03 1.93279E-02-7.45389E-19
 -1       366 8.92334E-04 1.91252E-02 1.78893E-18
 -1       367 7.12766E-04 1.89466E-02 4.54010E-19
 -1       368 5.30884E-04 1.87972E-02 2.72406E-18
 -1       369 9.88161E-04 2.91346E-02-9.48677E-20
 -1       370 6.68911E-04 2.86324E-02 4.40457E-20
 -1       371 4.13087E-04 2.81817E-02 1.39930E-18
 -1       372 1.99731E-04 2.77556E-02-8.43645E-19
 -1       373 1.46132E-05 2.73456E-02 6.57298E-19
 -1       374-1.47640E-04 2.69455E-02-2.74439E-19
 -1       375-2.91443E-04 2.65518E-02 1.71439E-18
 -1       376-4.19842E-04 2.61621E-02-5.62430E-19
 -1       377-5.35230E-04 2.57750E-02 4.91279E-19
 -1       378-6.39526E-04 2.53893E-02-8.60585E-19
 -1       379-7.34332E-04 2.50040E-02 4.81115E-19
 -1       380-8.21012E-04 2.46186E-02-2.67662E-19
 -1       381-9.00756E-04 2.42326E-02 6.36969E-19
 -1       382-9.74616E-04 2.38456E-02-1.38913E-19
 -1       383-1.04353E-03 2.34575E-02 7.28448E-19
 -1       384-1.10834E-03 2.30680E-02-5.89535E-19
 -1       385-1.16979E-03 2.26772E-02 4.70950E-19
 -1       386-1.22857E-03 2.22850E-02-2.54110E-19
 -1       387-1.28526E-03 2.18916E-02-4.06576E-20
 -1       388-1.34037E-03 2.14971E-02 2.60886E-19
 -1       389-1.39431E-03 2.11019E-02 1.63308E-18
 -1       390-1.44738E-03 2.07061E-02-1.35186E-18
 -1       391-1.49979E-03 2.03102E-02 2.67662E-19
 -1       392-1.55162E-03 1.99145E-02-2.16840E-19
 -1       393-1.60282E-03 1.95195E-02 3.48978E-19
 -1       394-1.65321E-03 1.91255E-02 5.14996E-19
 -1       395-1.70248E-03 1.87330E-02 5.86147E-19
 -1       396-1.75016E-03 1.83423E-02 4.06576E-20
 -1       397 1.19491E-03 2.94662E-02 5.16351E-18
 -1       398 8.13792E-04 2.88698E-02 4.06576E-20
 -1       399 5.34606E-04 2.84026E-02 4.93312E-18
 -1       400 3.02346E-04 2.79658E-02 1.73472E-18
 -1       401 1.03941E-04 2.75490E-02 9.75782E-19
 -1       402-6.90748E-05 2.71445E-02-5.01444E-19
 -1       403-2.21658E-04 2.67480E-02 2.91379E-18
 -1       404-3.57418E-04 2.63565E-02 2.81215E-18
 -1       405-4.79043E-04 2.59683E-02-1.22650E-18
 -1       406-5.88665E-04 2.55820E-02-6.64074E-19
 -1       407-6.88031E-04 2.51966E-02-6.64074E-19
 -1       408-7.78613E-04 2.48114E-02 7.86047E-19
 -1       409-8.61685E-04 2.44257E-02 1.52466E-18
 -1       410-9.38362E-04 2.40392E-02 3.79471E-19
 -1       411-1.00964E-03 2.36517E-02 1.84992E-18
 -1       412-1.07640E-03 2.32629E-02 3.65918E-19
 -1       413-1.13944E-03 2.28728E-02-5.69206E-19
 -1       414-1.19948E-03 2.24812E-02 1.28749E-18
 -1       415-1.25715E-03 2.20884E-02-9.75782E-19
 -1       416-1.31299E-03 2.16945E-02-8.80914E-20
 -1       417-1.36746E-03 2.12996E-02 3.12386E-18
 -1       418-1.42093E-03 2.09040E-02 4.26905E-19
 -1       419-1.47365E-03 2.05081E-02-3.21195E-18
 -1       420-1.52577E-03 2.01123E-02-4.74338E-20
 -1       421-1.57730E-03 1.97169E-02 4.54010E-19
 -1       422-1.62813E-03 1.93223E-02 2.05998E-18
 -1       423-1.67801E-03 1.89290E-02 1.78216E-18
 -1       424-1.72655E-03 1.85374E-02 1.41624E-18
 -1       425-1.77324E-03 1.81478E-02-1.28749E-18
 -1       426-1.84040E-03 1.75489E-02 1.52466E-19
 -1       427-1.88116E-03 1.71467E-02-1.15196E-19
 -1       428-1.91709E-03 1.67470E-02-4.74338E-19
 -1       429-1.94733E-03 1.63497E-02 1.05032E-19
 -1       430-1.97110E-03 1.59542E-02-7.18284E-19
 -1       431-1.98779E-03 1.55599E-02-3.32037E-19
 -1       432-1.99697E-03 1.51662E-02 3.38813E-20
 -1       433-1.99847E-03 1.47722E-02-3.89635E-19
 -1       434-1.99236E-03 1.43770E-02 4.06576E-19
 -1       435-1.97901E-03 1.39799E-02-2.30393E-19
 -1       436-1.95899E-03 1.35801E-02 9.48677E-19
 -1       437-1.93310E-03 1.31770E-02 5.45489E-19
 -1       438-1.90231E-03 1.27702E-02 3.79471E-19
 -1       439-1.86765E-03 1.23593E-02 5.59042E-19
 -1       440-1.81849E-03 1.77511E-02-2.58853E-18
 -1       441-1.86133E-03 1.73475E-02 6.77626E-21
 -1       442-1.89979E-03 1.69466E-02-9.01243E-19
 -1       443-1.93297E-03 1.65481E-02-3.25261E-19
 -1       444-1.96007E-03 1.61517E-02-8.47033E-19
 -1       445-1.98037E-03 1.57569E-02-1.26039E-18
 -1       446-1.99334E-03 1.53630E-02 4.74338E-19
 -1       447-1.99869E-03 1.49693E-02-6.09864E-19
 -1       448-1.99636E-03 1.45748E-02 1.28749E-19
 -1       449-1.98657E-03 1.41788E-02 3.59142E-19
 -1       450-1.96979E-03 1.37804E-02 1.19262E-18
 -1       451-1.94672E-03 1.33790E-02 2.85958E-18
 -1       452-1.91826E-03 1.29741E-02 1.39591E-18
 -1       453-1.88540E-03 1.25652E-02 1.84992E-18
 -1       454-1.84921E-03 1.21523E-02 8.13152E-20
 -1       455-1.79288E-03 1.15448E-02-2.91379E-19
 -1       456-1.75484E-03 1.11418E-02 3.21873E-19
 -1       457-1.71686E-03 1.07356E-02 2.03288E-20
 -1       458-1.67963E-03 1.03266E-02 1.66018E-19
 -1       459-1.64368E-03 9.91512E-03-1.11808E-19
 -1       460-1.60946E-03 9.50166E-03 3.35425E-19
 -1       461-1.57730E-03 9.08664E-03-1.42302E-19
 -1       462-1.54741E-03 8.67045E-03 2.94767E-19
 -1       463-1.51993E-03 8.25348E-03-1.21973E-19
 -1       464-1.49490E-03 7.83608E-03-1.01644E-20
 -1       465-1.47231E-03 7.41855E-03-2.64274E-19
 -1       466-1.45209E-03 7.00114E-03 1.93124E-19
 -1       467-1.43414E-03 6.58406E-03 2.74439E-19
 -1       468-1.41833E-03 6.16748E-03-2.71051E-20
 -1       469-1.40449E-03 5.75154E-03-1.18585E-19
 -1       470-1.39248E-03 5.33631E-03 8.80914E-20
 -1       471-1.38212E-03 4.92186E-03-2.03288E-20
 -1       472-1.37325E-03 4.50821E-03 1.99900E-19
 -1       473-1.36572E-03 4.09536E-03 0.00000E+00
 -1       474-1.35937E-03 3.68329E-03-2.37169E-20
 -1       475-1.35407E-03 3.27197E-03 1.49078E-19
 -1       476-1.34969E-03 2.86135E-03 9.14796E-20
 -1       477-1.34613E-03 2.45136E-03 6.77626E-21
 -1       478-1.34327E-03 2.04192E-03 1.32137E-19
 -1       479-1.34105E-03 1.63295E-03-1.01644E-20
 -1       480-1.33939E-03 1.22437E-03 2.03288E-20
 -1       481-1.33824E-03 8.16083E-04 6.43745E-20
 -1       482-1.33757E-03 4.07992E-04-7.45389E-20
 -1       483-1.81168E-03 1.17450E-02-1.40269E-18
 -1       484-1.77389E-03 1.13437E-02-4.54010E-19
 -1       485-1.73580E-03 1.09391E-02 4.94667E-19
 -1       486-1.69811E-03 1.05314E-02 4.67562E-19
 -1       487-1.66146E-03 1.01211E-02 2.77827E-19
 -1       488-1.62633E-03 9.70861E-03 6.64074E-19
 -1       489-1.59311E-03 9.29432E-03 6.50521E-19
 -1       490-1.56206E-03 8.87867E-03 6.91179E-19
 -1       491-1.53336E-03 8.46204E-03 1.08420E-19
 -1       492-1.50711E-03 8.04482E-03-3.93023E-19
 -1       493-1.48330E-03 7.62732E-03-4.60786E-19
 -1       494-1.46191E-03 7.20981E-03 1.21973E-19
 -1       495-1.44284E-03 6.79255E-03 6.23416E-19
 -1       496-1.42598E-03 6.37570E-03 4.06576E-19
 -1       497-1.41117E-03 5.95943E-03-1.62630E-19
 -1       498-1.39827E-03 5.54383E-03-1.08420E-19
 -1       499-1.38710E-03 5.12899E-03 1.35525E-19
 -1       500-1.37751E-03 4.71493E-03 2.10064E-19
 -1       501-1.36933E-03 4.30168E-03 1.69407E-19
 -1       502-1.36241E-03 3.88923E-03 6.09864E-20
 -1       503-1.35660E-03 3.47754E-03 1.28749E-19
 -1       504-1.35177E-03 3.06658E-03 4.33681E-19
 -1       505-1.34781E-03 2.65628E-03 5.42101E-20
 -1       506-1.34462E-03 2.24657E-03 2.77827E-19
 -1       507-1.34209E-03 1.83738E-03 1.08420E-19
 -1       508-1.34015E-03 1.42862E-03 1.49078E-19
 -1       509-1.33876E-03 1.02020E-03 2.50722E-19
 -1       510-1.33785E-03 6.12019E-04-6.77626E-20
 -1       511-1.33740E-03 2.03990E-04 1.08420E-19
 -1       512-1.20961E-03 0.00000E+00 3.72694E-20
 -1       513-1.08218E-03 0.00000E+00 5.42101E-20
 -1       514-9.55206E-04 0.00000E+00 8.13152E-20
 -1       515-8.28806E-04 0.00000E+00 6.77626E-21
 -1       516-7.03082E-04 0.00000E+00 3.72694E-20
 -1       517-5.78120E-04 0.00000E+00 4.74338E-20
 -1       518-4.53994E-04 0.00000E+00-1.69407E-20
 -1       519-3.30763E-04 0.00000E+00 0.00000E+00
 -1       520-2.08476E-04 0.00000E+00 0.00000E+00
 -1       521-8.71689E-05 0.00000E+00-1.69407E-20
 -1       522 3.31318E-05 0.00000E+00-3.38813E-21
 -1       523 1.52413E-04 0.00000E+00 4.06576E-20
 -1       524 2.70675E-04 0.00000E+00 3.38813E-21
 -1       525 3.87930E-04 0.00000E+00 3.38813E-20
 -1       526 5.04208E-04 0.00000E+00 3.38813E-21
 -1       527-1.27345E-03 0.00000E+00 2.84603E-19
 -1       528-1.14584E-03 0.00000E+00 8.13152E-20
 -1       529-1.01863E-03 0.00000E+00 1.89735E-19
 -1       530-8.91927E-04 0.00000E+00 1.21973E-19
 -1       531-7.65854E-04 0.00000E+00 8.13152E-20
 -1       532-6.40501E-04 0.00000E+00 1.01644E-19
 -1       533-5.15949E-04 0.00000E+00 8.80914E-20
 -1       534-3.92263E-04 0.00000E+00-2.03288E-20
 -1       535-2.69499E-04 0.00000E+00 0.00000E+00
 -1       536-1.47698E-04 0.00000E+00-7.45389E-20
 -1       537-2.68917E-05 0.00000E+00-4.74338E-20
 -1       538 9.29002E-05 0.00000E+00 6.09864E-20
 -1       539 2.11671E-04 0.00000E+00 5.42101E-20
 -1       540 3.29427E-04 0.00000E+00 1.08420E-19
 -1       541 4.46189E-04 0.00000E+00 7.45389E-20
 -1       542 5.61993E-04 0.00000E+00 6.77626E-21
 -1       543 7.34467E-04 0.00000E+00 2.37169E-20
 -1       544 8.48578E-04 0.00000E+00 3.72694E-20
 -1       545 9.61976E-04 0.00000E+00-3.38813E-21
 -1       546 1.07477E-03 0.00000E+00 6.09864E-20
 -1       547 1.18707E-03 0.00000E+00-6.77626E-21
 -1       548 1.29903E-03 0.00000E+00 4.06576E-20
 -1       549 1.41076E-03 0.00000E+00 6.43745E-20
 -1       550 1.52242E-03 0.00000E+00-3.04932E-20
 -1       551 1.63416E-03 0.00000E+00 3.04932E-20
 -1       552 1.74611E-03 0.00000E+00 5.42101E-20
 -1       553 1.85841E-03 0.00000E+00 3.04932E-20
 -1       554 1.97121E-03 0.00000E+00 3.38813E-20
 -1       555 2.08461E-03 0.00000E+00 2.71051E-20
 -1       556 2.19872E-03 0.00000E+00 6.77626E-21
 -1       557 6.77114E-04 0.00000E+00 1.08420E-19
 -1       558 7.91617E-04 0.00000E+00 1.28749E-19
 -1       559 9.05359E-04 0.00000E+00 7.45389E-20
 -1       560 1.01844E-03 0.00000E+00 1.08420E-19
 -1       561 1.13097E-03 0.00000E+00 1.28749E-19
 -1       562 1.24309E-03 0.00000E+00 9.48677E-20
 -1       563 1.35491E-03 0.00000E+00 2.71051E-19
 -1       564 1.46659E-03 0.00000E+00 8.80914E-20
 -1       565 1.57827E-03 0.00000E+00 8.80914E-20
 -1       566 1.69010E-03 0.00000E+00 2.23617E-19
 -1       567 1.80221E-03 0.00000E+00 2.77827E-19
 -1       568 1.91474E-03 0.00000E+00 1.62630E-19
 -1       569 2.02782E-03 0.00000E+00 4.74338E-20
 -1       570 2.14157E-03 0.00000E+00 1.15196E-19
 -1       571 2.25607E-03 0.00000E+00 7.45389E-20
 -1       572 2.42898E-03 0.00000E+00 1.21973E-19
 -1       573 2.54525E-03 0.00000E+00-2.20229E-19
 -1       574 2.66251E-03 0.00000E+00 5.08220E-20
 -1       575 2.78077E-03 0.00000E+00 9.48677E-20
 -1       576 2.90005E-03 0.00000E+00 1.59242E-19
 -1       577 3.02035E-03 0.00000E+00-2.94767E-19
 -1       578 3.14166E-03 0.00000E+00 1.55854E-19
 -1       579 3.26395E-03 0.00000E+00-1.35525E-19
 -1       580 3.38718E-03 0.00000E+00 3.72694E-20
 -1       581 3.51130E-03 0.00000E+00-2.03288E-20
 -1       582 3.63627E-03 0.00000E+00-7.45389E-20
 -1       583 3.76199E-03 0.00000E+00-2.54110E-19
 -1       584 3.88839E-03 0.00000E+00 1.35525E-19
 -1       585 4.01536E-03 0.00000E+00-9.48677E-20
 -1       586 4.14279E-03 0.00000E+00 1.59242E-19
 -1       587 2.37119E-03 0.00000E+00 3.11708E-19
 -1       588 2.48699E-03 0.00000E+00-1.15196E-19
 -1       589 2.60376E-03 0.00000E+00-2.10064E-19
 -1       590 2.72151E-03 0.00000E+00 2.16840E-19
 -1       591 2.84028E-03 0.00000E+00 2.77827E-19
 -1       592 2.96007E-03 0.00000E+00-1.08420E-19
 -1       593 3.08088E-03 0.00000E+00 6.09864E-20
 -1       594 3.20268E-03 0.00000E+00-1.01644E-19
 -1       595 3.32545E-03 0.00000E+00-2.16840E-19
 -1       596 3.44913E-03 0.00000E+00-1.21973E-19
 -1       597 3.57368E-03 0.00000E+00-1.82959E-19
 -1       598 3.69904E-03 0.00000E+00-3.11708E-19
 -1       599 3.82511E-03 0.00000E+00-2.43945E-19
 -1       600 3.95181E-03 0.00000E+00-4.06576E-20
 -1       601 4.07903E-03 0.00000E+00 2.91379E-19
 -1       602 4.20663E-03 0.00000E+00-3.38813E-20
 -1       603 4.27075E-03 4.07992E-04 1.08420E-19
 -1       604 4.27143E-03 8.16083E-04-3.59142E-19
 -1       605 4.27257E-03 1.22437E-03 2.16840E-19
 -1       606 4.27423E-03 1.63295E-03 1.69407E-20
 -1       607 4.27645E-03 2.04192E-03-2.71051E-20
 -1       608 4.27931E-03 2.45136E-03-1.28749E-19
 -1       609 4.28288E-03 2.86135E-03 1.01644E-19
 -1       610 4.28725E-03 3.27197E-03 3.72694E-20
 -1       611 4.29255E-03 3.68329E-03-1.55854E-19
 -1       612 4.29890E-03 4.09536E-03 2.16840E-19
 -1       613 4.30644E-03 4.50821E-03 8.13152E-20
 -1       614 4.31530E-03 4.92186E-03 1.01644E-20
 -1       615 4.32566E-03 5.33631E-03-4.47233E-19
 -1       616 4.33768E-03 5.75154E-03-3.11708E-19
 -1       617 4.35151E-03 6.16748E-03-2.84603E-19
 -1       618 4.36733E-03 6.58406E-03-2.20229E-19
 -1       619 4.38528E-03 7.00114E-03-2.60886E-19
 -1       620 4.40550E-03 7.41855E-03 1.72795E-19
 -1       621 4.42808E-03 7.83608E-03-3.38813E-21
 -1       622 4.45311E-03 8.25348E-03 4.67562E-19
 -1       623 4.48060E-03 8.67045E-03-4.47233E-19
 -1       624 4.51048E-03 9.08664E-03-2.71051E-20
 -1       625 4.54265E-03 9.50166E-03 1.82959E-19
 -1       626 4.57686E-03 9.91512E-03 1.32137E-19
 -1       627 4.61281E-03 1.03266E-02-2.71051E-20
 -1       628 4.65005E-03 1.07356E-02-1.42302E-19
 -1       629 4.68802E-03 1.11418E-02-6.03087E-19
 -1       630 4.72606E-03 1.15448E-02-6.23416E-19
 -1       631 4.27059E-03 2.03990E-04 1.35525E-19
 -1       632 4.27103E-03 6.12019E-04-2.57498E-19
 -1       633 4.27194E-03 1.02020E-03-3.86247E-19
 -1       634 4.27334E-03 1.42862E-03 1.15196E-19
 -1       635 4.27527E-03 1.83738E-03 1.35525E-20
 -1       636 4.27780E-03 2.24657E-03 2.03288E-19
 -1       637 4.28100E-03 2.65628E-03 1.15196E-19
 -1       638 4.28496E-03 3.06658E-03 8.80914E-20
 -1       639 4.28978E-03 3.47754E-03 1.01644E-19
 -1       640 4.29559E-03 3.88923E-03 1.15196E-19
 -1       641 4.30251E-03 4.30168E-03 5.08220E-19
 -1       642 4.31069E-03 4.71493E-03 3.72694E-19
 -1       643 4.32029E-03 5.12899E-03-8.13152E-19
 -1       644 4.33145E-03 5.54383E-03-1.38236E-18
 -1       645 4.34435E-03 5.95943E-03-7.58942E-19
 -1       646 4.35916E-03 6.37570E-03-1.00289E-18
 -1       647 4.37603E-03 6.79255E-03-4.87891E-19
 -1       648 4.39509E-03 7.20981E-03 4.06576E-20
 -1       649 4.41649E-03 7.62732E-03 1.49078E-19
 -1       650 4.44029E-03 8.04482E-03 1.59920E-18
 -1       651 4.46655E-03 8.46204E-03-3.38813E-19
 -1       652 4.49524E-03 8.87867E-03 0.00000E+00
 -1       653 4.52629E-03 9.29432E-03 1.53144E-18
 -1       654 4.55951E-03 9.70861E-03 1.41624E-18
 -1       655 4.59464E-03 1.01211E-02 3.32037E-19
 -1       656 4.63130E-03 1.05314E-02 3.38813E-19
 -1       657 4.66898E-03 1.09391E-02-1.00289E-18
 -1       658 4.70708E-03 1.13437E-02-1.52466E-18
 -1       659 4.74487E-03 1.17450E-02 7.65718E-19
 -1       660 4.80083E-03 1.23593E-02-5.86147E-19
 -1       661 4.83549E-03 1.27702E-02-1.55854E-19
 -1       662 4.86629E-03 1.31770E-02 3.45589E-19
 -1       663 4.89217E-03 1.35801E-02-2.47334E-19
 -1       664 4.91219E-03 1.39799E-02 3.99800E-19
 -1       665 4.92555E-03 1.43770E-02 5.92923E-19
 -1       666 4.93165E-03 1.47722E-02-6.23416E-19
 -1       667 4.93016E-03 1.51662E-02 1.00966E-18
 -1       668 4.92097E-03 1.55599E-02 3.18484E-19
 -1       669 4.90428E-03 1.59542E-02 1.15874E-18
 -1       670 4.88051E-03 1.63497E-02-8.16540E-19
 -1       671 4.85027E-03 1.67470E-02-9.65618E-19
 -1       672 4.81435E-03 1.71467E-02 3.72694E-20
 -1       673 4.77359E-03 1.75489E-02-4.84503E-19
 -1       674 4.78239E-03 1.21523E-02 8.13152E-19
 -1       675 4.81858E-03 1.25652E-02-1.38236E-18
 -1       676 4.85144E-03 1.29741E-02 1.28749E-19
 -1       677 4.87991E-03 1.33790E-02-7.04731E-19
 -1       678 4.90297E-03 1.37804E-02 1.96512E-19
 -1       679 4.91975E-03 1.41788E-02 1.49755E-18
 -1       680 4.92954E-03 1.45748E-02-2.16840E-19
 -1       681 4.93187E-03 1.49693E-02 4.26905E-19
 -1       682 4.92653E-03 1.53630E-02 2.73761E-18
 -1       683 4.91355E-03 1.57569E-02 2.74439E-18
 -1       684 4.89325E-03 1.61517E-02 6.16640E-19
 -1       685 4.86616E-03 1.65481E-02-3.39491E-18
 -1       686 4.83297E-03 1.69466E-02-2.10064E-18
 -1       687 4.79452E-03 1.73475E-02-1.36881E-18
 -1       688 4.75167E-03 1.77511E-02 5.42101E-19
 -1       689 4.68334E-03 1.83423E-02 1.69407E-19
 -1       690 4.63566E-03 1.87330E-02 6.43745E-20
 -1       691 4.58640E-03 1.91255E-02 4.06576E-19
 -1       692 4.53600E-03 1.95195E-02-2.06676E-19
 -1       693 4.48480E-03 1.99145E-02 4.40457E-19
 -1       694 4.43297E-03 2.03102E-02-6.13252E-19
 -1       695 4.38056E-03 2.07061E-02 1.55854E-19
 -1       696 4.32749E-03 2.11019E-02-2.64274E-19
 -1       697 4.27355E-03 2.14971E-02 2.16840E-19
 -1       698 4.21845E-03 2.18916E-02-4.03188E-19
 -1       699 4.16176E-03 2.22850E-02 2.20229E-19
 -1       700 4.10298E-03 2.26772E-02-5.62430E-19
 -1       701 4.04152E-03 2.30680E-02-8.43645E-19
 -1       702 3.97671E-03 2.34575E-02 3.18484E-19
 -1       703 3.90780E-03 2.38456E-02 7.14896E-19
 -1       704 3.83394E-03 2.42326E-02 2.20229E-19
 -1       705 3.75420E-03 2.46186E-02-7.45389E-20
 -1       706 3.66752E-03 2.50040E-02-9.04631E-19
 -1       707 3.57271E-03 2.53893E-02 7.72494E-19
 -1       708 3.46841E-03 2.57750E-02 8.74138E-19
 -1       709 3.35303E-03 2.61621E-02-5.35325E-19
 -1       710 3.22463E-03 2.65518E-02 1.25361E-19
 -1       711 3.08082E-03 2.69455E-02-7.72494E-19
 -1       712 2.91857E-03 2.73456E-02-2.16840E-19
 -1       713 2.73345E-03 2.77556E-02-9.24960E-19
 -1       714 2.52010E-03 2.81817E-02 3.35425E-19
 -1       715 2.26427E-03 2.86324E-02 2.84603E-19
 -1       716 1.94502E-03 2.91346E-02-4.43845E-19
 -1       717 4.70642E-03 1.81478E-02 3.99800E-19
 -1       718 4.65973E-03 1.85374E-02 1.15874E-18
 -1       719 4.61119E-03 1.89290E-02 5.62430E-19
 -1       720 4.56132E-03 1.93223E-02 1.76183E-19
 -1       721 4.51049E-03 1.97169E-02-2.57498E-19
 -1       722 4.45896E-03 2.01123E-02-6.57298E-19
 -1       723 4.40684E-03 2.05081E-02-2.33103E-18
 -1       724 4.35411E-03 2.09040E-02-5.42101E-19
 -1       725 4.30064E-03 2.12996E-02 9.21572E-19
 -1       726 4.24617E-03 2.16945E-02-2.77827E-19
 -1       727 4.19033E-03 2.20884E-02-9.55453E-19
 -1       728 4.13266E-03 2.24812E-02-2.08031E-18
 -1       729 4.07262E-03 2.28728E-02-1.86347E-18
 -1       730 4.00958E-03 2.32629E-02-5.82759E-19
 -1       731 3.94282E-03 2.36517E-02 1.81604E-18
 -1       732 3.87155E-03 2.40392E-02 1.39591E-18
 -1       733 3.79487E-03 2.44257E-02 1.08420E-19
 -1       734 3.71180E-03 2.48114E-02-1.15874E-18
 -1       735 3.62121E-03 2.51966E-02-8.13152E-20
 -1       736 3.52185E-03 2.55820E-02 2.23617E-18
 -1       737 3.41223E-03 2.59683E-02 1.03677E-18
 -1       738 3.29060E-03 2.63565E-02-1.24006E-18
 -1       739 3.15484E-03 2.67480E-02-6.23416E-19
 -1       740 3.00226E-03 2.71445E-02-1.63308E-18
 -1       741 2.82924E-03 2.75490E-02-6.09864E-19
 -1       742 2.63084E-03 2.79658E-02-1.88380E-18
 -1       743 2.39858E-03 2.84026E-02 1.73472E-18
 -1       744 2.11939E-03 2.88698E-02 7.18284E-19
 -1       745 1.73827E-03 2.94662E-02 1.21973E-18
 -1       746 1.46659E-03 2.98487E-02 1.53821E-18
 -1       747 1.46659E-03 2.98487E-02 8.47033E-20
 -1       748 1.46659E-03 2.98487E-02-8.67362E-19
 -1       749 1.46659E-03 2.98487E-02-2.48350E-18
 -1       750 1.46659E-03 2.98487E-02 8.87691E-19
 -1       751 1.46659E-03 2.98487E-02-7.31836E-19
 -1       752 1.46659E-03 2.98487E-02-5.79371E-19
 -1       753 1.46659E-03 2.98487E-02 2.03288E-20
 -1       754 1.46659E-03 2.98487E-02-1.16891E-18
 -1       755 1.46659E-03 2.98487E-02 1.76522E-18
 -1       756 1.46659E-03 2.98487E-02-5.89535E-19
 -1       757 1.46659E-03 2.98487E-02-7.86047E-19
 -1       758 1.46659E-03 2.98487E-02 1.29088E-18
 -1       759 1.46659E-03 2.98487E-02-1.69407E-18
 -1       760 1.46659E-03 2.98487E-02 1.78555E-18
 -1       761 1.46659E-03 2.98487E-02 3.30682E-18
 -1       762 1.46659E-03 2.98487E-02 3.99800E-18
 -1       763 1.46659E-03 2.98487E-02-1.12486E-18
 -1       764 1.46659E-03 2.98487E-02-7.27771E-18
 -1       765 1.46659E-03 2.98487E-02-2.61564E-18
 -1       766 1.46659E-03 2.98487E-02 1.91091E-18
 -1       767 1.46659E-03 2.98487E-02-3.93023E-19
 -1       768 1.46659E-03 2.98487E-02-1.65341E-18
 -1       769 1.46659E-03 2.98487E-02-9.89334E-19
 -1       770 1.46659E-03 2.98487E-02 1.53144E-18
 -1       771 1.46659E-03 2.98487E-02 1.45012E-18
 -1       772 1.46659E-03 2.98487E-02-6.30193E-18
 -1       773 1.46659E-03 2.98487E-02-3.79471E-19
 -1       774 1.46659E-03 2.98487E-02-1.54499E-18
 -1       775 1.46659E-03 2.98487E-02 1.61275E-18
 -1       776 1.46659E-03 2.98487E-02 6.34258E-18
 -1       777 1.46659E-03 2.98487E-02-1.69407E-19
 -1       778 1.46659E-03 2.98487E-02-6.87791E-19
 -1       779 1.46659E-03 2.98487E-02 2.53432E-18
 -1       780 1.46659E-03 2.98487E-02-1.19262E-18
 -1       781 1.46659E-03 2.98487E-02 7.89435E-19
 -1       782 1.46659E-03 2.98487E-02 4.74338E-20
 -1       783 1.46659E-03 2.98487E-02-5.42101E-19
 -1       784 1.46659E-03 2.98487E-02 2.80537E-18
 -1       785 1.46659E-03 2.98487E-02 8.40257E-19
 -1       786 1.46659E-03 2.98487E-02 1.34848E-18
 -1       787 1.46659E-03 2.98487E-02-1.73472E-18
 -1       788 1.46659E-03 2.98487E-02 1.59581E-18
 -1       789 1.46659E-03 2.98487E-02-2.74100E-18
 -1       790 1.46659E-03 2.98487E-02 1.82959E-19
 -1       791 1.46659E-03 2.98487E-02-1.36881E-18
 -1       792 1.46659E-03 2.98487E-02-2.05998E-18
 -1       793 1.46659E-03 2.98487E-02 5.35325E-18
 -1       794 1.46659E-03 2.98487E-02 4.33681E-19
 -1       795 1.46659E-03 2.98487E-02-2.61564E-18
 -1       796 1.46659E-03 2.98487E-02 2.53432E-18
 -1       797 1.46659E-03 2.98487E-02-4.74338E-19
 -1       798 1.46659E-03 2.98487E-02 2.27682E-18
 -1       799 1.46659E-03 2.98487E-02 2.61564E-18
 -1       800 1.46659E-03 2.98487E-02 1.95156E-18
 -1       801 1.46659E-03 2.98487E-02-3.68629E-18
 -1       802 1.46659E-03 2.98487E-02-3.19840E-18
 -1       803 1.46659E-03 2.98487E-02-3.25261E-19
 -1       804 1.46659E-03 2.98487E-02-4.91957E-18
 -1       805 1.46659E-03 2.98487E-02 3.38813E-19
 -1       806 1.46659E-03 2.98487E-02 1.81604E-18
 -1       807 1.46659E-03 2.98487E-02-1.66018E-18
 -1       808 1.46659E-03 2.98487E-02 4.50622E-19
 -1       809 1.46659E-03 2.98487E-02-5.89535E-19
 -1       810 1.46659E-03 2.98487E-02 2.67662E-19
 -1       811 1.46659E-03 2.98487E-02 2.81215E-19
 -1       812 1.46659E-03 2.98487E-02-7.92823E-19
 -1       813 1.46659E-03 2.98487E-02 6.09864E-20
 -1       814 1.46659E-03 2.98487E-02-1.52127E-18
 -1       815 1.46659E-03 2.98487E-02 2.37169E-20
 -1       816 1.46659E-03 2.98487E-02-1.76183E-18
 -1       817 1.46659E-03 2.98487E-02 3.82859E-19
 -1       818 1.46659E-03 2.98487E-02 1.01983E-18
 -1       819 1.46659E-03 2.98487E-02 9.48677E-20
 -1       820 1.46659E-03 2.98487E-02-5.08220E-19
 -1       821 1.46659E-03 2.98487E-02 2.80537E-18
 -1       822 1.46659E-03 2.98487E-02 3.10353E-18
 -1       823 1.46659E-03 2.98487E-02-5.14996E-18
 -1       824 1.46659E-03 2.98487E-02-1.61275E-18
 -1       825 1.46659E-03 2.98487E-02 2.71051E-20
 -1       826 1.46659E-03 2.98487E-02 1.82959E-18
 -1       827 1.46659E-03 2.98487E-02-1.53144E-18
 -1       828 1.46659E-03 2.98487E-02-1.58565E-18
 -1       829 1.46659E-03 2.98487E-02-2.84603E-18
 -1       830 1.46659E-03 2.98487E-02-6.28837E-18
 -1       831 1.46659E-03 2.98487E-02-4.75694E-18
 -1       832 1.46659E-03 2.98487E-02-1.55854E-18
 -1       833 1.46659E-03 2.98487E-02 3.63208E-18
 -1       834 1.46659E-03 2.98487E-02 5.88180E-18
 -1       835 1.46659E-03 2.98487E-02-4.06576E-19
 -1       836 1.46659E-03 2.98487E-02 3.23905E-18
 -1       837 2.66373E-04 1.86246E-02 1.99900E-19
 -1       838 9.87460E-05 1.85370E-02-2.16840E-19
 -1       839-6.16245E-05 1.84658E-02-3.62530E-19
 -1       840-2.15310E-04 1.84070E-02 1.86347E-19
 -1       841-3.63200E-04 1.83572E-02-4.40457E-20
 -1       842-5.06235E-04 1.83138E-02 1.11808E-19
 -1       843-6.45271E-04 1.82750E-02 6.77626E-20
 -1       844-7.81029E-04 1.82393E-02-4.06576E-20
 -1       845-9.14085E-04 1.82055E-02 1.38913E-19
 -1       846-1.04488E-03 1.81727E-02 2.84603E-19
 -1       847-1.17375E-03 1.81402E-02 1.25361E-19
 -1       848-1.30092E-03 1.81072E-02-4.84503E-19
 -1       849-1.42658E-03 1.80729E-02-1.25361E-19
 -1       850-1.55085E-03 1.80367E-02-3.04932E-20
 -1       851-1.67385E-03 1.79974E-02-5.14996E-19
 -1       852 3.52884E-04 1.86760E-02 4.06576E-19
 -1       853 1.81642E-04 1.85785E-02 3.04932E-19
 -1       854 1.76740E-05 1.84996E-02-9.48677E-19
 -1       855-1.39256E-04 1.84351E-02-1.07065E-18
 -1       856-2.89925E-04 1.83811E-02 2.43945E-19
 -1       857-4.35273E-04 1.83348E-02 7.45389E-19
 -1       858-5.76208E-04 1.82940E-02 6.77626E-20
 -1       859-7.13523E-04 1.82569E-02-6.91179E-19
 -1       860-8.47866E-04 1.82222E-02 6.36969E-19
 -1       861-9.79744E-04 1.81891E-02 1.48400E-18
 -1       862-1.10954E-03 1.81565E-02 1.21295E-18
 -1       863-1.23753E-03 1.81238E-02 2.57498E-19
 -1       864-1.36393E-03 1.80902E-02-1.42979E-18
 -1       865-1.48888E-03 1.80551E-02 3.86247E-19
 -1       866-1.61250E-03 1.80175E-02-4.06576E-19
 -1       867-1.73492E-03 1.79762E-02-2.99511E-18
 -1       868 2.52235E-04 1.15336E-02-3.65918E-19
 -1       869 8.35439E-05 1.16058E-02 4.20128E-19
 -1       870-7.77805E-05 1.16602E-02-8.94467E-19
 -1       871-2.32321E-04 1.17012E-02-6.77626E-21
 -1       872-3.80989E-04 1.17322E-02-7.04731E-19
 -1       873-5.24759E-04 1.17559E-02 3.72694E-19
 -1       874-6.64527E-04 1.17746E-02 2.71051E-20
 -1       875-8.01065E-04 1.17900E-02-9.48677E-20
 -1       876-9.35004E-04 1.18034E-02-4.06576E-19
 -1       877-1.06684E-03 1.18162E-02-2.23617E-19
 -1       878-1.19697E-03 1.18295E-02 6.03087E-19
 -1       879-1.32568E-03 1.18443E-02-4.81115E-19
 -1       880-1.45319E-03 1.18618E-02 4.70950E-19
 -1       881-1.57969E-03 1.18833E-02 4.74338E-20
 -1       882-1.70531E-03 1.19102E-02-4.09964E-19
 -1       883 3.39321E-04 1.14895E-02-3.93023E-19
 -1       884 1.66958E-04 1.15722E-02 3.38813E-20
 -1       885 1.98170E-06 1.16349E-02-1.31460E-18
 -1       886-1.55850E-04 1.16822E-02-2.24972E-18
 -1       887-3.07333E-04 1.17178E-02-1.32815E-18
 -1       888-4.53432E-04 1.17448E-02-6.50521E-19
 -1       889-5.95095E-04 1.17658E-02 3.65918E-19
 -1       890-7.33161E-04 1.17826E-02 4.40457E-19
 -1       891-8.68328E-04 1.17969E-02-9.75782E-19
 -1       892-1.00116E-03 1.18098E-02-1.36881E-18
 -1       893-1.13210E-03 1.18227E-02 4.67562E-19
 -1       894-1.26149E-03 1.18366E-02-2.50722E-19
 -1       895-1.38957E-03 1.18526E-02-3.25261E-19
 -1       896-1.51656E-03 1.18720E-02 1.49755E-18
 -1       897-1.64260E-03 1.18960E-02-1.08420E-19
 -1       898-1.76785E-03 1.19262E-02-1.68729E-18
 -1       899 4.80569E-04 1.09954E-02-3.65918E-19
 -1       900 5.18893E-04 1.05632E-02-1.35525E-20
 -1       901 5.46513E-04 1.01410E-02 1.76183E-19
 -1       902 5.66308E-04 9.72731E-03 3.38813E-21
 -1       903 5.80494E-04 9.32042E-03-1.96512E-19
 -1       904 5.90707E-04 8.91894E-03 3.72694E-19
 -1       905 5.98121E-04 8.52166E-03-1.35525E-19
 -1       906 6.03566E-04 8.12760E-03-1.62630E-19
 -1       907 6.07618E-04 7.73598E-03 1.01644E-19
 -1       908 6.10676E-04 7.34616E-03 1.21973E-19
 -1       909 6.13012E-04 6.95767E-03-2.30393E-19
 -1       910 6.14814E-04 6.57013E-03-9.82558E-20
 -1       911 6.16210E-04 6.18325E-03-2.71051E-20
 -1       912 6.17291E-04 5.79681E-03-2.06676E-19
 -1       913 6.18120E-04 5.41063E-03-5.42101E-20
 -1       914 6.18746E-04 5.02460E-03-1.69407E-20
 -1       915 6.19204E-04 4.63862E-03 2.27005E-19
 -1       916 6.19525E-04 4.25262E-03-1.66018E-19
 -1       917 6.19732E-04 3.86655E-03 1.45690E-19
 -1       918 6.19849E-04 3.48038E-03-6.77626E-20
 -1       919 6.19896E-04 3.09410E-03-4.06576E-20
 -1       920 6.19890E-04 2.70769E-03 1.35525E-20
 -1       921 6.19848E-04 2.32115E-03-1.35525E-19
 -1       922 6.19787E-04 1.93449E-03 8.80914E-20
 -1       923 6.19717E-04 1.54773E-03-1.01644E-20
 -1       924 6.19651E-04 1.16088E-03-1.35525E-20
 -1       925 6.19598E-04 7.73961E-04 4.06576E-20
 -1       926 6.19563E-04 3.86992E-04-4.06576E-20
 -1       927 4.56324E-04 1.12158E-02-5.96311E-19
 -1       928 5.01281E-04 1.07780E-02-8.87691E-19
 -1       929 5.33850E-04 1.03510E-02 1.35525E-20
 -1       930 5.57240E-04 9.93322E-03 7.45389E-20
 -1       931 5.73991E-04 9.52310E-03-3.32037E-19
 -1       932 5.86016E-04 9.11908E-03 2.10064E-19
 -1       933 5.94707E-04 8.71983E-03-3.59142E-19
 -1       934 6.01050E-04 8.32428E-03 1.42302E-19
 -1       935 6.05739E-04 7.93152E-03 3.38813E-20
 -1       936 6.09252E-04 7.54087E-03 7.11508E-19
 -1       937 6.11921E-04 7.15177E-03-1.82959E-19
 -1       938 6.13970E-04 6.76380E-03-4.94667E-19
 -1       939 6.15556E-04 6.37662E-03-2.03288E-19
 -1       940 6.16785E-04 5.98998E-03-5.82759E-19
 -1       941 6.17734E-04 5.60369E-03-3.11708E-19
 -1       942 6.18456E-04 5.21761E-03-8.13152E-20
 -1       943 6.18994E-04 4.83161E-03 3.59142E-19
 -1       944 6.19380E-04 4.44563E-03-2.71051E-20
 -1       945 6.19641E-04 4.05960E-03-7.45389E-20
 -1       946 6.19801E-04 3.67348E-03 1.35525E-19
 -1       947 6.19880E-04 3.28726E-03-3.65918E-19
 -1       948 6.19898E-04 2.90091E-03-1.01644E-19
 -1       949 6.19873E-04 2.51443E-03-1.35525E-19
 -1       950 6.19819E-04 2.12784E-03-1.89735E-19
 -1       951 6.19752E-04 1.74113E-03 1.62630E-19
 -1       952 6.19683E-04 1.35432E-03-7.45389E-20
 -1       953 6.19622E-04 9.67428E-04 7.45389E-20
 -1       954 6.19578E-04 5.80481E-04-1.35525E-20
 -1       955 6.19554E-04 1.93498E-04-6.77626E-20
 -1       956 2.45261E-03 1.09954E-02-1.38913E-19
 -1       957 2.41429E-03 1.05632E-02-5.42101E-20
 -1       958 2.38667E-03 1.01410E-02-2.98156E-19
 -1       959 2.36687E-03 9.72731E-03 1.21973E-19
 -1       960 2.35269E-03 9.32042E-03-1.89735E-19
 -1       961 2.34248E-03 8.91894E-03 1.96512E-19
 -1       962 2.33506E-03 8.52166E-03 3.38813E-19
 -1       963 2.32962E-03 8.12760E-03-3.38813E-21
 -1       964 2.32556E-03 7.73598E-03 4.40457E-20
 -1       965 2.32251E-03 7.34616E-03 7.79270E-20
 -1       966 2.32017E-03 6.95767E-03 2.20229E-19
 -1       967 2.31837E-03 6.57013E-03 1.35525E-20
 -1       968 2.31697E-03 6.18325E-03-1.35525E-20
 -1       969 2.31589E-03 5.79681E-03 2.27005E-19
 -1       970 2.31506E-03 5.41063E-03 1.01644E-19
 -1       971 2.31444E-03 5.02460E-03 7.11508E-20
 -1       972 2.31398E-03 4.63862E-03-2.37169E-19
 -1       973 2.31366E-03 4.25262E-03 2.03288E-19
 -1       974 2.31345E-03 3.86655E-03 9.48677E-20
 -1       975 2.31333E-03 3.48038E-03-1.82959E-19
 -1       976 2.31329E-03 3.09410E-03 1.25361E-19
 -1       977 2.31329E-03 2.70769E-03-1.21973E-19
 -1       978 2.31333E-03 2.32115E-03-6.43745E-20
 -1       979 2.31340E-03 1.93449E-03-7.79270E-20
 -1       980 2.31347E-03 1.54773E-03 9.82558E-20
 -1       981 2.31353E-03 1.16088E-03-1.42302E-19
 -1       982 2.31359E-03 7.73961E-04 5.42101E-20
 -1       983 2.31362E-03 3.86992E-04-4.06576E-20
 -1       984 2.47686E-03 1.12158E-02 1.21973E-19
 -1       985 2.43190E-03 1.07780E-02-5.48877E-19
 -1       986 2.39933E-03 1.03510E-02-2.16840E-19
 -1       987 2.37594E-03 9.93322E-03-1.28749E-19
 -1       988 2.35919E-03 9.52310E-03-4.54010E-19
 -1       989 2.34717E-03 9.11908E-03 4.74338E-20
 -1       990 2.33848E-03 8.71983E-03 6.23416E-19
 -1       991 2.33213E-03 8.32428E-03 7.58942E-19
 -1       992 2.32744E-03 7.93152E-03 5.62430E-19
 -1       993 2.32393E-03 7.54087E-03 1.96512E-19
 -1       994 2.32126E-03 7.15177E-03 5.89535E-19
 -1       995 2.31921E-03 6.76380E-03 4.20128E-19
 -1       996 2.31763E-03 6.37662E-03 4.74338E-20
 -1       997 2.31640E-03 5.98998E-03 6.36969E-19
 -1       998 2.31545E-03 5.60369E-03 6.30193E-19
 -1       999 2.31473E-03 5.21761E-03 4.54010E-19
 -1      1000 2.31419E-03 4.83161E-03-2.16840E-19
 -1      1001 2.31380E-03 4.44563E-03 7.45389E-20
 -1      1002 2.31354E-03 4.05960E-03 5.14996E-19
 -1      1003 2.31338E-03 3.67348E-03 8.80914E-20
 -1      1004 2.31330E-03 3.28726E-03 6.77626E-21
 -1      1005 2.31329E-03 2.90091E-03-6.77626E-21
 -1      1006 2.31331E-03 2.51443E-03-2.91379E-19
 -1      1007 2.31336E-03 2.12784E-03-2.71051E-19
 -1      1008 2.31343E-03 1.74113E-03 1.08420E-19
 -1      1009 2.31350E-03 1.35432E-03-6.77626E-20
 -1      1010 2.31356E-03 9.67428E-04-1.62630E-19
 -1      1011 2.31361E-03 5.80481E-04 1.42302E-19
 -1      1012 2.31363E-03 1.93498E-04-1.55854E-19
 -1      1013 2.68095E-03 1.15336E-02-2.47334E-19
 -1      1014 2.84964E-03 1.16058E-02-3.04932E-20
 -1      1015 3.01096E-03 1.16602E-02-3.45589E-19
 -1      1016 3.16550E-03 1.17012E-02 3.08320E-19
 -1      1017 3.31417E-03 1.17322E-02 0.00000E+00
 -1      1018 3.45794E-03 1.17559E-02-6.77626E-21
 -1      1019 3.59771E-03 1.17746E-02 5.75982E-20
 -1      1020 3.73425E-03 1.17900E-02 4.67562E-19
 -1      1021 3.86819E-03 1.18034E-02-3.62530E-19
 -1      1022 4.00003E-03 1.18162E-02 4.26905E-19
 -1      1023 4.13015E-03 1.18295E-02 1.08420E-19
 -1      1024 4.25886E-03 1.18443E-02 8.30092E-19
 -1      1025 4.38638E-03 1.18618E-02-2.91379E-19
 -1      1026 4.51287E-03 1.18833E-02 1.05032E-19
 -1      1027 4.63850E-03 1.19102E-02 5.75982E-20
 -1      1028 2.59386E-03 1.14895E-02-1.15196E-19
 -1      1029 2.76623E-03 1.15722E-02-9.41901E-19
 -1      1030 2.93120E-03 1.16349E-02-3.79471E-19
 -1      1031 3.08903E-03 1.16822E-02 3.25261E-19
 -1      1032 3.24052E-03 1.17178E-02 6.23416E-19
 -1      1033 3.38662E-03 1.17448E-02 1.35525E-20
 -1      1034 3.52828E-03 1.17658E-02 5.42101E-19
 -1      1035 3.66634E-03 1.17826E-02 6.77626E-19
 -1      1036 3.80151E-03 1.17969E-02 3.32037E-19
 -1      1037 3.93434E-03 1.18098E-02-1.21973E-19
 -1      1038 4.06528E-03 1.18227E-02 8.19928E-19
 -1      1039 4.19467E-03 1.18366E-02 2.14130E-18
 -1      1040 4.32276E-03 1.18526E-02 6.43745E-19
 -1      1041 4.44974E-03 1.18720E-02-3.38813E-19
 -1      1042 4.57579E-03 1.18960E-02 4.26905E-19
 -1      1043 4.70103E-03 1.19262E-02 1.79571E-18
 -1      1044 2.66681E-03 1.86246E-02 6.26804E-19
 -1      1045 2.83444E-03 1.85370E-02-4.47233E-19
 -1      1046 2.99481E-03 1.84658E-02 7.45389E-19
 -1      1047 3.14849E-03 1.84070E-02 5.08220E-20
 -1      1048 3.29638E-03 1.83572E-02 8.60585E-19
 -1      1049 3.43942E-03 1.83138E-02-1.01983E-18
 -1      1050 3.57845E-03 1.82750E-02-3.59142E-19
 -1      1051 3.71421E-03 1.82393E-02-4.13352E-19
 -1      1052 3.84727E-03 1.82055E-02 2.23617E-19
 -1      1053 3.97806E-03 1.81727E-02 2.47334E-19
 -1      1054 4.10693E-03 1.81402E-02-6.43745E-19
 -1      1055 4.23410E-03 1.81072E-02 9.96111E-19
 -1      1056 4.35976E-03 1.80729E-02-3.89635E-19
 -1      1057 4.48403E-03 1.80367E-02-1.05032E-19
 -1      1058 4.60703E-03 1.79974E-02 6.53909E-19
 -1      1059 2.58030E-03 1.86760E-02 1.11131E-18
 -1      1060 2.75154E-03 1.85785E-02 1.13164E-18
 -1      1061 2.91551E-03 1.84996E-02 1.04354E-18
 -1      1062 3.07244E-03 1.84351E-02 2.15485E-18
 -1      1063 3.22311E-03 1.83811E-02 1.65341E-18
 -1      1064 3.36846E-03 1.83348E-02-5.96311E-19
 -1      1065 3.50939E-03 1.82940E-02-2.00577E-18
 -1      1066 3.64671E-03 1.82569E-02-2.40557E-18
 -1      1067 3.78105E-03 1.82222E-02 2.98156E-19
 -1      1068 3.91293E-03 1.81891E-02 7.38613E-19
 -1      1069 4.04272E-03 1.81565E-02-4.74338E-20
 -1      1070 4.17072E-03 1.81238E-02 1.66018E-18
 -1      1071 4.29711E-03 1.80902E-02 1.42302E-18
 -1      1072 4.42206E-03 1.80551E-02-1.24006E-18
 -1      1073 4.54568E-03 1.80175E-02 6.03087E-19
 -1      1074 4.66810E-03 1.79762E-02 1.99222E-18
 -1      1075 2.43544E-03 1.91799E-02 6.67462E-19
 -1      1076 2.39206E-03 1.96153E-02-1.99900E-19
 -1      1077 2.35840E-03 2.00407E-02-6.53909E-19
 -1      1078 2.33147E-03 2.04579E-02 2.37169E-19
 -1      1079 2.30889E-03 2.08682E-02-4.06576E-20
 -1      1080 2.28890E-03 2.12730E-02-1.08420E-19
 -1      1081 2.27016E-03 2.16735E-02 6.23416E-19
 -1      1082 2.25171E-03 2.20706E-02-3.04932E-20
 -1      1083 2.23281E-03 2.24649E-02-2.06676E-19
 -1      1084 2.21291E-03 2.28568E-02-8.23316E-19
 -1      1085 2.19159E-03 2.32469E-02 3.52366E-19
 -1      1086 2.16852E-03 2.36351E-02 2.50722E-19
 -1      1087 2.14345E-03 2.40217E-02 7.52165E-19
 -1      1088 2.11616E-03 2.44067E-02 8.91079E-19
 -1      1089 2.08650E-03 2.47900E-02-3.11708E-19
 -1      1090 2.05435E-03 2.51714E-02 7.86047E-19
 -1      1091 2.01965E-03 2.55508E-02-6.23416E-19
 -1      1092 1.98239E-03 2.59279E-02 5.79371E-19
 -1      1093 1.94261E-03 2.63025E-02-5.11608E-19
 -1      1094 1.90043E-03 2.66743E-02-1.05032E-19
 -1      1095 1.85603E-03 2.70430E-02-3.62530E-19
 -1      1096 1.80967E-03 2.74082E-02 2.57498E-19
 -1      1097 1.76168E-03 2.77698E-02 4.33681E-19
 -1      1098 1.71247E-03 2.81273E-02-5.01444E-19
 -1      1099 1.66252E-03 2.84805E-02 5.86147E-19
 -1      1100 1.61238E-03 2.88294E-02 8.02987E-19
 -1      1101 1.56260E-03 2.91737E-02-7.52165E-19
 -1      1102 1.51380E-03 2.95135E-02-2.71051E-20
 -1      1103 2.46189E-03 1.89580E-02 8.06375E-19
 -1      1104 2.41231E-03 1.93989E-02 1.82959E-19
 -1      1105 2.37421E-03 1.98291E-02-5.08220E-19
 -1      1106 2.34425E-03 2.02503E-02-7.79270E-19
 -1      1107 2.31976E-03 2.06638E-02-1.08420E-19
 -1      1108 2.29866E-03 2.10712E-02 7.52165E-19
 -1      1109 2.27944E-03 2.14738E-02 1.87025E-18
 -1      1110 2.26095E-03 2.18725E-02-7.45389E-20
 -1      1111 2.24235E-03 2.22680E-02-1.07065E-18
 -1      1112 2.22301E-03 2.26611E-02-2.77149E-18
 -1      1113 2.20245E-03 2.30521E-02-5.82759E-19
 -1      1114 2.18029E-03 2.34412E-02 8.60585E-19
 -1      1115 2.15625E-03 2.38286E-02 1.48400E-18
 -1      1116 2.13009E-03 2.42144E-02 2.60209E-18
 -1      1117 2.10163E-03 2.45986E-02 1.50433E-18
 -1      1118 2.07074E-03 2.49809E-02 1.26039E-18
 -1      1119 2.03732E-03 2.53614E-02 4.06576E-20
 -1      1120 2.00134E-03 2.57397E-02-6.77626E-20
 -1      1121 1.96281E-03 2.61156E-02 2.98156E-19
 -1      1122 1.92181E-03 2.64888E-02-9.48677E-19
 -1      1123 1.87849E-03 2.68591E-02-6.64074E-19
 -1      1124 1.83307E-03 2.72261E-02 1.21973E-18
 -1      1125 1.78585E-03 2.75895E-02 1.35525E-18
 -1      1126 1.73720E-03 2.79490E-02 1.28749E-18
 -1      1127 1.68756E-03 2.83044E-02-3.52366E-19
 -1      1128 1.63744E-03 2.86555E-02 3.55076E-18
 -1      1129 1.58740E-03 2.90021E-02 4.20128E-19
 -1      1130 1.53804E-03 2.93442E-02-1.35525E-20
 -1      1131 1.48996E-03 2.96817E-02 2.71051E-20
 -1      1132 4.97745E-04 1.91799E-02 3.72694E-19
 -1      1133 5.41128E-04 1.96153E-02 4.06576E-20
 -1      1134 5.74780E-04 2.00407E-02 2.67662E-19
 -1      1135 6.01716E-04 2.04579E-02 7.08120E-19
 -1      1136 6.24291E-04 2.08682E-02-4.74338E-19
 -1      1137 6.44284E-04 2.12730E-02 6.91179E-19
 -1      1138 6.63018E-04 2.16735E-02-3.93023E-19
 -1      1139 6.81473E-04 2.20706E-02 1.66018E-19
 -1      1140 7.00375E-04 2.24649E-02-7.72494E-19
 -1      1141 7.20275E-04 2.28568E-02 7.65718E-19
 -1      1142 7.41593E-04 2.32469E-02-4.94667E-19
 -1      1143 7.64659E-04 2.36351E-02 8.80914E-20
 -1      1144 7.89734E-04 2.40217E-02 4.40457E-19
 -1      1145 8.17024E-04 2.44067E-02-5.25160E-19
 -1      1146 8.46687E-04 2.47900E-02 1.18246E-18
 -1      1147 8.78835E-04 2.51714E-02-3.62530E-19
 -1      1148 9.13534E-04 2.55508E-02 4.91279E-19
 -1      1149 9.50794E-04 2.59279E-02-4.23516E-19
 -1      1150 9.90571E-04 2.63025E-02 7.89435E-19
 -1      1151 1.03275E-03 2.66743E-02 1.69407E-20
 -1      1152 1.07715E-03 2.70430E-02 4.81115E-19
 -1      1153 1.12352E-03 2.74082E-02-7.55553E-19
 -1      1154 1.17151E-03 2.77698E-02 1.57209E-18
 -1      1155 1.22071E-03 2.81273E-02 1.11470E-18
 -1      1156 1.27066E-03 2.84805E-02 4.43845E-19
 -1      1157 1.32081E-03 2.88294E-02 2.94767E-19
 -1      1158 1.37058E-03 2.91737E-02 3.79471E-19
 -1      1159 1.41938E-03 2.95135E-02 1.32815E-18
 -1      1160 4.71295E-04 1.89580E-02 8.13152E-20
 -1      1161 5.20873E-04 1.93989E-02 1.55854E-19
 -1      1162 5.58971E-04 1.98291E-02 7.92823E-19
 -1      1163 5.88930E-04 2.02503E-02 1.49078E-18
 -1      1164 6.13428E-04 2.06638E-02-1.06387E-18
 -1      1165 6.34520E-04 2.10712E-02 9.41901E-19
 -1      1166 6.53742E-04 2.14738E-02-2.57498E-19
 -1      1167 6.72231E-04 2.18725E-02-3.38813E-20
 -1      1168 6.90831E-04 2.22680E-02-2.10064E-18
 -1      1169 7.10172E-04 2.26611E-02-8.33480E-19
 -1      1170 7.30734E-04 2.30521E-02 5.08220E-19
 -1      1171 7.52890E-04 2.34412E-02 1.30782E-18
 -1      1172 7.76932E-04 2.38286E-02-1.76183E-19
 -1      1173 8.03092E-04 2.42144E-02-1.89735E-18
 -1      1174 8.31551E-04 2.45986E-02 1.27394E-18
 -1      1175 8.62445E-04 2.49809E-02 4.74338E-19
 -1      1176 8.95864E-04 2.53614E-02-1.68051E-18
 -1      1177 9.31845E-04 2.57397E-02-4.20128E-19
 -1      1178 9.70374E-04 2.61156E-02 4.87891E-19
 -1      1179 1.01137E-03 2.64888E-02 2.71051E-19
 -1      1180 1.05469E-03 2.68591E-02 9.48677E-19
 -1      1181 1.10011E-03 2.72261E-02-4.06576E-19
 -1      1182 1.14733E-03 2.75895E-02-8.13152E-19
 -1      1183 1.19599E-03 2.79490E-02 4.29615E-18
 -1      1184 1.24563E-03 2.83044E-02 2.22261E-18
 -1      1185 1.29574E-03 2.86555E-02 1.08420E-19
 -1      1186 1.34578E-03 2.90021E-02 6.36969E-19
 -1      1187 1.39514E-03 2.93442E-02 2.39880E-18
 -1      1188 1.44322E-03 2.96817E-02 5.04154E-18
 -1      1189 3.82783E-04 1.76650E-02-8.80914E-20
 -1      1190 2.62799E-04 1.73170E-02-1.01644E-19
 -1      1191 1.58123E-04 1.69480E-02 2.43945E-19
 -1      1192 7.20784E-05 1.65597E-02 1.55854E-19
 -1      1193 6.74888E-06 1.61549E-02 5.28549E-19
 -1      1194-3.68639E-05 1.57370E-02 1.34170E-18
 -1      1195-5.84635E-05 1.53109E-02 4.06576E-20
 -1      1196-5.80497E-05 1.48821E-02-4.47233E-19
 -1      1197-3.56524E-05 1.44566E-02-1.02322E-18
 -1      1198 8.66965E-06 1.40398E-02 2.64274E-19
 -1      1199 7.45657E-05 1.36365E-02-6.36969E-19
 -1      1200 1.60989E-04 1.32502E-02-5.69206E-19
 -1      1201 2.65831E-04 1.28835E-02-5.35325E-19
 -1      1202 3.85763E-04 1.25380E-02-6.50521E-19
 -1      1203 4.42880E-04 1.75662E-02-1.28749E-19
 -1      1204 3.01316E-04 1.72283E-02-4.47233E-19
 -1      1205 1.74262E-04 1.68731E-02 4.54010E-19
 -1      1206 6.76676E-05 1.65010E-02-1.35525E-19
 -1      1207-1.43465E-05 1.61133E-02 3.86247E-19
 -1      1208-6.95183E-05 1.57124E-02 6.50521E-19
 -1      1209-9.69669E-05 1.53028E-02 4.33681E-19
 -1      1210-9.65154E-05 1.48902E-02-4.06576E-20
 -1      1211-6.82066E-05 1.44811E-02-7.31836E-19
 -1      1212-1.23008E-05 1.40812E-02 7.18284E-19
 -1      1213 7.02476E-05 1.36949E-02-4.13352E-19
 -1      1214 1.77124E-04 1.33246E-02-5.69206E-19
 -1      1215 3.04185E-04 1.29715E-02-3.65918E-19
 -1      1216 4.45500E-04 1.26360E-02 2.50722E-19
 -1      1217 4.93769E-04 1.74889E-02 7.11508E-20
 -1      1218 3.36883E-04 1.71574E-02 4.94667E-19
 -1      1219 1.91919E-04 1.68115E-02-1.35525E-20
 -1      1220 6.73277E-05 1.64513E-02 1.42302E-19
 -1      1221-3.03352E-05 1.60771E-02 8.74138E-19
 -1      1222-9.68979E-05 1.56906E-02 6.03087E-19
 -1      1223-1.30292E-04 1.52954E-02-1.01644E-19
 -1      1224-1.29815E-04 1.48974E-02 8.80914E-20
 -1      1225-9.55243E-05 1.45027E-02-6.36969E-19
 -1      1226-2.82295E-05 1.41171E-02 4.87891E-19
 -1      1227 6.99124E-05 1.37442E-02-2.71051E-19
 -1      1228 1.94676E-04 1.33857E-02-8.26704E-19
 -1      1229 3.39500E-04 1.30418E-02-3.38813E-21
 -1      1230 4.95977E-04 1.27125E-02 2.03288E-19
 -1      1231 5.35130E-04 1.74330E-02-4.74338E-20
 -1      1232 3.68453E-04 1.71044E-02 5.38713E-19
 -1      1233 2.09923E-04 1.67637E-02-1.76183E-19
 -1      1234 7.01229E-05 1.64112E-02-2.77827E-19
 -1      1235-4.18140E-05 1.60469E-02 8.80914E-19
 -1      1236-1.19326E-04 1.56719E-02-1.62630E-19
 -1      1237-1.58620E-04 1.52890E-02 2.77827E-19
 -1      1238-1.58130E-04 1.49034E-02-1.49078E-19
 -1      1239-1.17929E-04 1.45209E-02-2.37169E-19
 -1      1240-3.97108E-05 1.41467E-02 2.98156E-19
 -1      1241 7.26310E-05 1.37837E-02-1.89735E-19
 -1      1242 2.12488E-04 1.34327E-02-5.48877E-19
 -1      1243 3.70743E-04 1.30939E-02-3.04932E-19
 -1      1244 5.36883E-04 1.27675E-02 1.72795E-19
 -1      1245 5.66844E-04 1.73985E-02-7.28448E-19
 -1      1246 3.95157E-04 1.70696E-02-6.77626E-20
 -1      1247 2.27166E-04 1.67303E-02 4.20128E-19
 -1      1248 7.50805E-05 1.63815E-02 2.10064E-19
 -1      1249-4.94687E-05 1.60235E-02-3.86247E-19
 -1      1250-1.37229E-04 1.56568E-02-2.43945E-19
 -1      1251-1.82233E-04 1.52836E-02-2.03288E-19
 -1      1252-1.81744E-04 1.49081E-02-3.52366E-19
 -1      1253-1.35845E-04 1.45353E-02-1.82959E-19
 -1      1254-4.74272E-05 1.41694E-02 1.28749E-19
 -1      1255 7.74380E-05 1.38125E-02-4.20128E-19
 -1      1256 2.29463E-04 1.34653E-02-5.89535E-19
 -1      1257 3.97058E-04 1.31278E-02 2.64274E-19
 -1      1258 5.68104E-04 1.28011E-02-1.52466E-19
 -1      1259 5.88882E-04 1.73850E-02 2.81215E-19
 -1      1260 4.16215E-04 1.70530E-02-8.84302E-19
 -1      1261 2.42546E-04 1.67116E-02-2.03288E-19
 -1      1262 8.11395E-05 1.63628E-02 7.72494E-19
 -1      1263-5.41309E-05 1.60074E-02-3.38813E-19
 -1      1264-1.51196E-04 1.56458E-02 2.43945E-19
 -1      1265-2.01583E-04 1.52794E-02-2.71051E-19
 -1      1266-2.01105E-04 1.49113E-02 3.11708E-19
 -1      1267-1.49861E-04 1.45453E-02-2.16840E-19
 -1      1268-5.22062E-05 1.41845E-02 2.23617E-19
 -1      1269 8.32799E-05 1.38302E-02 1.08420E-19
 -1      1270 2.44509E-04 1.34829E-02-6.36969E-19
 -1      1271 4.17670E-04 1.31433E-02 6.77626E-20
 -1      1272 5.89611E-04 1.28134E-02 1.38913E-19
 -1      1273 6.01291E-04 1.73926E-02 7.62330E-19
 -1      1274 4.30945E-04 1.70547E-02-1.32137E-19
 -1      1275 2.54993E-04 1.67080E-02-7.52165E-19
 -1      1276 8.71794E-05 1.63556E-02 5.69206E-19
 -1      1277-5.67614E-05 1.59991E-02-4.06576E-19
 -1      1278-1.61984E-04 1.56392E-02 3.18484E-19
 -1      1279-2.17290E-04 1.52766E-02 1.76183E-19
 -1      1280-2.16837E-04 1.49129E-02 2.43945E-19
 -1      1281-1.60731E-04 1.45507E-02-2.03288E-19
 -1      1282-5.50040E-05 1.41914E-02 6.77626E-21
 -1      1283 8.90431E-05 1.38360E-02 3.59142E-19
 -1      1284 2.56563E-04 1.34851E-02-6.47133E-19
 -1      1285 4.31903E-04 1.31402E-02-7.11508E-20
 -1      1286 6.01445E-04 1.28045E-02-1.42302E-19
 -1      1287 6.04157E-04 1.74213E-02 7.45389E-19
 -1      1288 4.38753E-04 1.70748E-02 3.42201E-19
 -1      1289 2.63486E-04 1.67197E-02-2.43945E-19
 -1      1290 9.20435E-05 1.63602E-02 5.69206E-19
 -1      1291-5.84304E-05 1.59991E-02 2.57498E-19
 -1      1292-1.70497E-04 1.56374E-02 8.19928E-19
 -1      1293-2.30147E-04 1.52751E-02 4.06576E-20
 -1      1294-2.29727E-04 1.49128E-02 7.45389E-19
 -1      1295-1.69357E-04 1.45509E-02-4.20128E-19
 -1      1296-5.68862E-05 1.41898E-02 6.70850E-19
 -1      1297 9.35772E-05 1.38297E-02 2.57498E-19
 -1      1298 2.64609E-04 1.34718E-02-4.94667E-19
 -1      1299 4.39163E-04 1.31186E-02-4.06576E-20
 -1      1300 6.03683E-04 1.27743E-02-1.62630E-19
 -1      1301 5.97585E-04 1.74712E-02-8.13152E-20
 -1      1302 4.39125E-04 1.71134E-02-6.77626E-21
 -1      1303 2.67058E-04 1.67469E-02-4.67562E-19
 -1      1304 9.45632E-05 1.63772E-02 3.32037E-19
 -1      1305-6.02936E-05 1.60078E-02 6.23416E-19
 -1      1306-1.77775E-04 1.56406E-02-1.21973E-19
 -1      1307-2.41097E-04 1.52752E-02 5.48877E-19
 -1      1308-2.40722E-04 1.49106E-02-1.21973E-19
 -1      1309-1.76776E-04 1.45456E-02 0.00000E+00
 -1      1310-5.90040E-05 1.41790E-02 8.13152E-20
 -1      1311 9.57183E-05 1.38108E-02-5.08220E-20
 -1      1312 2.67682E-04 1.34425E-02 2.37169E-20
 -1      1313 4.38930E-04 1.30780E-02-7.45389E-20
 -1      1314 5.96411E-04 1.27224E-02-2.20229E-19
 -1      1315 5.81670E-04 1.75428E-02-4.74338E-20
 -1      1316 4.31609E-04 1.71707E-02-1.59242E-19
 -1      1317 2.64806E-04 1.67900E-02-1.99900E-19
 -1      1318 9.35777E-05 1.64067E-02 2.20229E-19
 -1      1319-6.35677E-05 1.60256E-02 2.10064E-19
 -1      1320-1.84972E-04 1.56492E-02-2.98156E-19
 -1      1321-2.51227E-04 1.52770E-02 8.80914E-20
 -1      1322-2.50906E-04 1.49064E-02 1.21973E-19
 -1      1323-1.84141E-04 1.45345E-02 1.21973E-19
 -1      1324-6.25706E-05 1.41587E-02 4.81115E-19
 -1      1325 9.43081E-05 1.37788E-02 1.35525E-20
 -1      1326 2.64876E-04 1.33970E-02-2.60886E-19
 -1      1327 4.30738E-04 1.30183E-02-1.79571E-19
 -1      1328 5.79700E-04 1.26486E-02-3.93023E-19
 -1      1329 5.56481E-04 1.76365E-02 6.67462E-19
 -1      1330 4.15798E-04 1.72473E-02-1.86347E-19
 -1      1331 2.55889E-04 1.68493E-02-1.12486E-18
 -1      1332 8.79502E-05 1.64492E-02-2.47334E-19
 -1      1333-6.95075E-05 1.60528E-02-2.71051E-20
 -1      1334-1.93334E-04 1.56634E-02-1.76183E-19
 -1      1335-2.61740E-04 1.52804E-02 5.42101E-20
 -1      1336-2.61480E-04 1.49000E-02-3.25261E-19
 -1      1337-1.92692E-04 1.45173E-02 5.28549E-19
 -1      1338-6.88383E-05 1.41285E-02 3.38813E-21
 -1      1339 8.82095E-05 1.37333E-02-1.21973E-19
 -1      1340 2.55345E-04 1.33348E-02-1.82959E-19
 -1      1341 4.14164E-04 1.29388E-02-2.60886E-19
 -1      1342 5.53582E-04 1.25521E-02-3.82859E-19
 -1      1343 5.22050E-04 1.77531E-02 1.52466E-19
 -1      1344 3.91319E-04 1.73435E-02 2.91379E-19
 -1      1345 2.39523E-04 1.69252E-02-7.96211E-19
 -1      1346 7.65783E-05 1.65050E-02 3.38813E-21
 -1      1347-7.93852E-05 1.60897E-02 1.82959E-19
 -1      1348-2.04172E-04 1.56834E-02 1.05032E-19
 -1      1349-2.73935E-04 1.52856E-02 4.40457E-19
 -1      1350-2.73744E-04 1.48912E-02 1.08420E-19
 -1      1351-2.03742E-04 1.44936E-02 7.11508E-20
 -1      1352-7.90782E-05 1.40880E-02-1.21973E-19
 -1      1353 7.63162E-05 1.36739E-02 1.69407E-20
 -1      1354 2.38289E-04 1.32553E-02-1.62630E-19
 -1      1355 3.88804E-04 1.28391E-02 2.37169E-19
 -1      1356 5.18036E-04 1.24320E-02-5.69206E-19
 -1      1357 4.78365E-04 1.78937E-02 5.38713E-19
 -1      1358 3.57817E-04 1.74603E-02-4.67562E-19
 -1      1359 2.14977E-04 1.70182E-02 5.55654E-19
 -1      1360 5.83988E-05 1.65745E-02-2.87991E-19
 -1      1361-9.44740E-05 1.61367E-02-1.62630E-19
 -1      1362-2.18847E-04 1.57095E-02-1.18585E-19
 -1      1363-2.89188E-04 1.52925E-02-5.08220E-20
 -1      1364-2.89073E-04 1.48798E-02-1.01644E-20
 -1      1365-2.18647E-04 1.44632E-02 4.98055E-19
 -1      1366-9.45648E-05 1.40367E-02-2.03288E-19
 -1      1367 5.75575E-05 1.36000E-02 7.75882E-19
 -1      1368 2.12956E-04 1.31580E-02-6.91179E-19
 -1      1369 3.54263E-04 1.27180E-02-9.48677E-20
 -1      1370 4.72981E-04 1.22872E-02 5.55654E-19
 -1      1371 4.25369E-04 1.80596E-02 3.52366E-19
 -1      1372 3.14937E-04 1.75986E-02 2.47334E-19
 -1      1373 1.81546E-04 1.71292E-02 9.48677E-20
 -1      1374 3.23880E-05 1.66584E-02 0.00000E+00
 -1      1375-1.16031E-04 1.61941E-02 3.42201E-19
 -1      1376-2.38741E-04 1.57418E-02-6.87791E-19
 -1      1377-3.08931E-04 1.53013E-02 1.15196E-19
 -1      1378-3.08897E-04 1.48658E-02-7.79270E-20
 -1      1379-2.38793E-04 1.44256E-02 3.04932E-20
 -1      1380-1.16559E-04 1.39741E-02-1.01644E-20
 -1      1381 3.08967E-05 1.35110E-02-2.87991E-19
 -1      1382 1.78612E-04 1.30418E-02-1.01644E-20
 -1      1383 3.10125E-04 1.25746E-02 9.62229E-19
 -1      1384 4.18261E-04 1.21161E-02-3.08320E-19
 -1      1385 3.50213E-04 1.77210E-02 1.77538E-18
 -1      1386 4.45579E-04 1.78330E-02-1.43657E-18
 -1      1387 2.43212E-04 1.73666E-02-6.50521E-19
 -1      1388 3.19982E-04 1.74965E-02-6.91179E-19
 -1      1389 1.51071E-04 1.69890E-02 8.13152E-19
 -1      1390 2.07676E-04 1.71378E-02 1.49078E-19
 -1      1391 7.58805E-05 1.65913E-02 7.04731E-19
 -1      1392 1.12527E-04 1.67587E-02 7.04731E-19
 -1      1393 1.89533E-05 1.61769E-02 9.48677E-19
 -1      1394 3.71697E-05 1.63614E-02 8.40257E-19
 -1      1395-1.90425E-05 1.57499E-02 5.33970E-18
 -1      1396-1.69581E-05 1.59489E-02 2.81893E-18
 -1      1397-3.78643E-05 1.53151E-02-2.71051E-19
 -1      1398-4.93087E-05 1.55255E-02 1.78893E-18
 -1      1399-3.74734E-05 1.48779E-02-1.40946E-18
 -1      1400-5.98061E-05 1.50965E-02-6.77626E-19
 -1      1401-1.78937E-05 1.44437E-02-2.57498E-18
 -1      1402-4.84904E-05 1.46677E-02-1.97867E-18
 -1      1403 2.07892E-05 1.40178E-02 5.42101E-19
 -1      1404-1.53803E-05 1.42452E-02-1.00289E-18
 -1      1405 7.82891E-05 1.36050E-02-2.73761E-18
 -1      1406 3.93918E-05 1.38340E-02-5.96311E-19
 -1      1407 1.53901E-04 1.32093E-02-1.53144E-18
 -1      1408 1.15229E-04 1.34385E-02-1.76183E-18
 -1      1409 2.46287E-04 1.28342E-02-8.13152E-20
 -1      1410 2.10654E-04 1.30615E-02-1.61275E-18
 -1      1411 3.53346E-04 1.24824E-02-1.34170E-18
 -1      1412 3.23019E-04 1.27052E-02-1.38236E-18
 -1      1413 4.48467E-04 1.23713E-02-3.79471E-19
 -1      1414 4.14746E-04 1.76115E-02 0.00000E+00
 -1      1415 5.15795E-04 1.77300E-02-5.01444E-19
 -1      1416 2.82859E-04 1.72693E-02-9.75782E-19
 -1      1417 3.69935E-04 1.74014E-02-7.04731E-19
 -1      1418 1.66133E-04 1.69079E-02 1.00289E-18
 -1      1419 2.35147E-04 1.70549E-02 1.49078E-19
 -1      1420 6.92452E-05 1.65285E-02 5.42101E-20
 -1      1421 1.18101E-04 1.66911E-02 5.01444E-19
 -1      1422-4.74664E-06 1.61329E-02 1.46367E-18
 -1      1423 2.38158E-05 1.63107E-02 1.35525E-19
 -1      1424-5.42886E-05 1.57241E-02 3.00866E-18
 -1      1425-4.46123E-05 1.59156E-02 2.03288E-18
 -1      1426-7.88654E-05 1.53067E-02 7.58942E-19
 -1      1427-8.57452E-05 1.55091E-02 1.51788E-18
 -1      1428-7.84307E-05 1.48864E-02-7.58942E-19
 -1      1429-9.91669E-05 1.50965E-02 4.60786E-19
 -1      1430-5.30209E-05 1.44695E-02-2.65630E-18
 -1      1431-8.48539E-05 1.46842E-02-1.30104E-18
 -1      1432-2.75348E-06 1.40617E-02 1.46367E-18
 -1      1433-4.29145E-05 1.42784E-02-1.35525E-19
 -1      1434 7.17915E-05 1.36675E-02-1.59920E-18
 -1      1435 2.61564E-05 1.38844E-02 2.71051E-19
 -1      1436 1.69010E-04 1.32900E-02-1.73472E-18
 -1      1437 1.20856E-04 1.35057E-02-1.70762E-18
 -1      1438 2.85819E-04 1.29309E-02-1.47723E-18
 -1      1439 2.38048E-04 1.31438E-02-1.27394E-18
 -1      1440 4.17549E-04 1.25911E-02-7.72494E-19
 -1      1441 3.72714E-04 1.27996E-02-8.13152E-20
 -1      1442 5.18219E-04 1.24735E-02 3.25261E-19
 -1      1443 4.70165E-04 1.75238E-02 1.35525E-20
 -1      1444 5.73053E-04 1.76501E-02 2.01933E-18
 -1      1445 3.19995E-04 1.71897E-02 6.77626E-20
 -1      1446 4.13853E-04 1.73263E-02 5.01444E-19
 -1      1447 1.83189E-04 1.68398E-02 4.87891E-19
 -1      1448 2.62033E-04 1.69877E-02 7.72494E-19
 -1      1449 6.70232E-05 1.64743E-02 5.42101E-20
 -1      1450 1.26597E-04 1.66347E-02 1.49078E-19
 -1      1451-2.31692E-05 1.60940E-02 1.78893E-18
 -1      1452 1.51105E-05 1.62672E-02 1.27394E-18
 -1      1453-8.42197E-05 1.57008E-02 1.87025E-18
 -1      1454-6.71043E-05 1.58862E-02 2.19551E-18
 -1      1455-1.14713E-04 1.52989E-02 5.14996E-19
 -1      1456-1.17052E-04 1.54943E-02 7.31836E-19
 -1      1457-1.14247E-04 1.48940E-02 2.71051E-20
 -1      1458-1.33478E-04 1.50964E-02 2.71051E-20
 -1      1459-8.28714E-05 1.44926E-02-2.05998E-18
 -1      1460-1.16113E-04 1.46987E-02-1.00289E-18
 -1      1461-2.10846E-05 1.41004E-02 1.81604E-18
 -1      1462-6.53382E-05 1.43075E-02 0.00000E+00
 -1      1463 6.96164E-05 1.37214E-02-1.00289E-18
 -1      1464 1.74922E-05 1.39276E-02 1.89735E-19
 -1      1465 1.86009E-04 1.33577E-02-2.01933E-18
 -1      1466 1.29309E-04 1.35616E-02-1.59920E-18
 -1      1467 3.22745E-04 1.30098E-02-6.23416E-19
 -1      1468 2.64762E-04 1.32104E-02-1.36881E-18
 -1      1469 4.72580E-04 1.26780E-02 7.45389E-19
 -1      1470 4.16301E-04 1.28739E-02 4.87891E-19
 -1      1471 5.74988E-04 1.25525E-02 4.06576E-19
 -1      1472 5.16193E-04 1.74575E-02 3.38813E-19
 -1      1473 6.17750E-04 1.75930E-02 1.93801E-18
 -1      1474 3.53633E-04 1.71279E-02 1.39591E-18
 -1      1475 4.51087E-04 1.72712E-02 9.75782E-19
 -1      1476 2.01168E-04 1.67852E-02-2.57498E-19
 -1      1477 2.87281E-04 1.69366E-02 5.14996E-19
 -1      1478 6.84102E-05 1.64294E-02-2.98156E-19
 -1      1479 1.37050E-04 1.65900E-02-5.82759E-19
 -1      1480-3.67677E-05 1.60608E-02 2.76472E-18
 -1      1481 1.04084E-05 1.62315E-02 5.69206E-19
 -1      1482-1.09018E-04 1.56805E-02 7.04731E-19
 -1      1483-8.47541E-05 1.58614E-02 1.11131E-18
 -1      1484-1.45452E-04 1.52920E-02 2.43945E-19
 -1      1485-1.43335E-04 1.54816E-02 0.00000E+00
 -1      1486-1.44967E-04 1.49006E-02-5.42101E-20
 -1      1487-1.62772E-04 1.50962E-02 2.43945E-19
 -1      1488-1.07627E-04 1.45125E-02-1.27394E-18
 -1      1489-1.42374E-04 1.47110E-02-6.23416E-19
 -1      1490-3.46555E-05 1.41331E-02 1.16552E-18
 -1      1491-8.29706E-05 1.43318E-02 5.42101E-20
 -1      1492 7.09655E-05 1.37658E-02-6.09864E-19
 -1      1493 1.27578E-05 1.39627E-02 2.71051E-19
 -1      1494 2.03837E-04 1.34116E-02-2.11419E-18
 -1      1495 1.39634E-04 1.36056E-02-1.36881E-18
 -1      1496 3.56091E-04 1.30708E-02-2.84603E-19
 -1      1497 2.89751E-04 1.32608E-02-1.55854E-18
 -1      1498 5.18173E-04 1.27434E-02 5.82759E-19
 -1      1499 4.53141E-04 1.29282E-02-2.03288E-19
 -1      1500 6.19176E-04 1.26087E-02 7.86047E-19
 -1      1501 5.52616E-04 1.74126E-02-9.08019E-19
 -1      1502 6.50323E-04 1.75586E-02-2.71051E-19
 -1      1503 3.82815E-04 1.70842E-02 7.86047E-19
 -1      1504 4.81064E-04 1.72360E-02-1.36881E-18
 -1      1505 2.18926E-04 1.67447E-02 4.47233E-19
 -1      1506 3.09828E-04 1.69018E-02 8.13152E-20
 -1      1507 7.24462E-05 1.63946E-02-1.08420E-19
 -1      1508 1.48380E-04 1.65578E-02 7.31836E-19
 -1      1509-4.61878E-05 1.60340E-02 5.96311E-19
 -1      1510 8.87457E-06 1.62044E-02 1.35525E-20
 -1      1511-1.29061E-04 1.56637E-02-4.60786E-19
 -1      1512-9.80980E-05 1.58417E-02-7.04731E-19
 -1      1513-1.71316E-04 1.52861E-02 2.71051E-20
 -1      1514-1.64916E-04 1.54711E-02-6.23416E-19
 -1      1515-1.70825E-04 1.49060E-02-8.94467E-19
 -1      1516-1.87297E-04 1.50958E-02-4.60786E-19
 -1      1517-1.27666E-04 1.45288E-02-6.77626E-19
 -1      1518-1.63958E-04 1.47208E-02-6.77626E-19
 -1      1519-4.41090E-05 1.41592E-02 7.04731E-19
 -1      1520-9.63461E-05 1.43507E-02-8.13152E-20
 -1      1521 7.48861E-05 1.37998E-02-1.05710E-18
 -1      1522 1.11231E-05 1.39890E-02-3.11708E-19
 -1      1523 2.21363E-04 1.34513E-02-1.61275E-18
 -1      1524 1.50757E-04 1.36370E-02-1.50433E-18
 -1      1525 3.84913E-04 1.31136E-02-1.62630E-19
 -1      1526 3.11969E-04 1.32946E-02-6.91179E-19
 -1      1527 5.54121E-04 1.27874E-02 1.49078E-19
 -1      1528 4.82673E-04 1.29625E-02 1.49078E-19
 -1      1529 6.51216E-04 1.26422E-02 0.00000E+00
 -1      1530 5.79365E-04 1.73889E-02-9.75782E-19
 -1      1531 6.71271E-04 1.75466E-02-1.35525E-18
 -1      1532 4.06717E-04 1.70588E-02-1.42302E-18
 -1      1533 5.03334E-04 1.72206E-02-8.40257E-19
 -1      1534 2.35354E-04 1.67188E-02 3.65918E-19
 -1      1535 3.28681E-04 1.68837E-02-2.08709E-18
 -1      1536 7.81098E-05 1.63705E-02 1.54499E-18
 -1      1537 1.59465E-04 1.65385E-02 7.45389E-19
 -1      1538-5.21924E-05 1.60143E-02-1.19262E-18
 -1      1539 9.54655E-06 1.61864E-02 5.42101E-19
 -1      1540-1.44859E-04 1.56506E-02-5.42101E-20
 -1      1541-1.07843E-04 1.58277E-02-1.62630E-19
 -1      1542-1.92675E-04 1.52813E-02-6.77626E-19
 -1      1543-1.82301E-04 1.54633E-02-2.71051E-19
 -1      1544-1.92190E-04 1.49100E-02-2.71051E-20
 -1      1545-2.07486E-04 1.50954E-02 2.16840E-19
 -1      1546-1.43496E-04 1.45410E-02-5.14996E-19
 -1      1547-1.81370E-04 1.47276E-02-1.62630E-19
 -1      1548-5.02041E-05 1.41781E-02 3.52366E-19
 -1      1549-1.06170E-04 1.43638E-02-2.16840E-19
 -1      1550 8.03639E-05 1.38230E-02-4.06576E-19
 -1      1551 1.16319E-05 1.40060E-02 5.82759E-19
 -1      1552 2.37488E-04 1.34762E-02-1.84314E-18
 -1      1553 1.61567E-04 1.36552E-02-9.75782E-19
 -1      1554 4.08396E-04 1.31381E-02 4.87891E-19
 -1      1555 3.30429E-04 1.33117E-02-5.96311E-19
 -1      1556 5.80358E-04 1.28101E-02-1.08420E-19
 -1      1557 5.04450E-04 1.29767E-02 1.35525E-20
 -1      1558 6.71600E-04 1.26531E-02 7.31836E-19
 -1      1559 5.96453E-04 1.73863E-02 1.72117E-18
 -1      1560 6.81099E-04 1.75569E-02-2.57498E-19
 -1      1561 4.24610E-04 1.70516E-02-1.39591E-18
 -1      1562 5.17545E-04 1.72250E-02 1.24683E-18
 -1      1563 2.49364E-04 1.67078E-02-1.57209E-18
 -1      1564 3.42913E-04 1.68823E-02-1.04354E-18
 -1      1565 8.43057E-05 1.63576E-02 2.01933E-18
 -1      1566 1.69167E-04 1.65326E-02-6.77626E-20
 -1      1567-5.56822E-05 1.60021E-02-1.01644E-18
 -1      1568 1.13602E-05 1.61781E-02 5.01444E-19
 -1      1569-1.57090E-04 1.56418E-02 9.21572E-19
 -1      1570-1.14852E-04 1.58198E-02-1.49078E-19
 -1      1571-2.10067E-04 1.52778E-02-1.08420E-19
 -1      1572-1.96171E-04 1.54583E-02 7.31836E-19
 -1      1573-2.09600E-04 1.49124E-02 8.40257E-19
 -1      1574-2.23948E-04 1.50947E-02 9.75782E-19
 -1      1575-1.55793E-04 1.45487E-02-6.23416E-19
 -1      1576-1.95290E-04 1.47314E-02-2.71051E-20
 -1      1577-5.38372E-05 1.41891E-02 3.11708E-19
 -1      1578-1.13299E-04 1.43704E-02-2.84603E-19
 -1      1579 8.63112E-05 1.38347E-02 6.91179E-19
 -1      1580 1.32258E-05 1.40130E-02 6.77626E-19
 -1      1581 2.51132E-04 1.34860E-02-1.89735E-18
 -1      1582 1.70934E-04 1.36597E-02-6.77626E-19
 -1      1583 4.25816E-04 1.31441E-02-1.35525E-19
 -1      1584 3.44214E-04 1.33116E-02-1.15196E-18
 -1      1585 5.96893E-04 1.28115E-02 0.00000E+00
 -1      1586 5.18121E-04 1.29710E-02-6.77626E-20
 -1      1587 6.80824E-04 1.26415E-02-7.99599E-19
 -1      1588 6.03952E-04 1.74047E-02 2.07354E-18
 -1      1589 6.80296E-04 1.75896E-02 1.24683E-18
 -1      1590 4.35859E-04 1.70627E-02 3.52366E-19
 -1      1591 5.23424E-04 1.72493E-02 1.87025E-18
 -1      1592 2.59910E-04 1.67120E-02-1.53144E-18
 -1      1593 3.51681E-04 1.68980E-02 5.42101E-20
 -1      1594 8.98915E-05 1.63564E-02 1.81604E-18
 -1      1595 1.76358E-04 1.65404E-02 0.00000E+00
 -1      1596-5.76771E-05 1.59981E-02-1.49078E-19
 -1      1597 1.31762E-05 1.61799E-02 1.68051E-18
 -1      1598-1.66587E-04 1.56376E-02 1.78893E-18
 -1      1599-1.20119E-04 1.58184E-02 1.66696E-18
 -1      1600-2.24202E-04 1.52756E-02 3.52366E-19
 -1      1601-2.07369E-04 1.54564E-02 9.62229E-19
 -1      1602-2.23765E-04 1.49131E-02 1.57209E-18
 -1      1603-2.37466E-04 1.50939E-02 1.39591E-18
 -1      1604-1.65389E-04 1.45514E-02-9.89334E-19
 -1      1605-2.06559E-04 1.47317E-02 7.04731E-19
 -1      1606-5.60236E-05 1.41917E-02 9.21572E-19
 -1      1607-1.18727E-04 1.43701E-02 1.35525E-19
 -1      1608 9.15922E-05 1.38344E-02 9.21572E-19
 -1      1609 1.47713E-05 1.40095E-02 1.32815E-18
 -1      1610 2.61257E-04 1.34803E-02-1.73472E-18
 -1      1611 1.77735E-04 1.36503E-02-4.06576E-19
 -1      1612 4.36542E-04 1.31315E-02-2.71051E-19
 -1      1613 3.52481E-04 1.32944E-02-8.40257E-19
 -1      1614 6.03792E-04 1.27917E-02-5.69206E-19
 -1      1615 5.23410E-04 1.29451E-02-4.47233E-19
 -1      1616 6.79359E-04 1.26072E-02 1.07065E-18
 -1      1617 6.01961E-04 1.74443E-02 7.04731E-19
 -1      1618 6.69302E-04 1.76450E-02 2.84603E-19
 -1      1619 4.39912E-04 1.70922E-02 8.40257E-19
 -1      1620 5.20757E-04 1.72935E-02 2.71051E-20
 -1      1621 2.65996E-04 1.67317E-02-1.09775E-18
 -1      1622 3.54214E-04 1.69307E-02-5.42101E-19
 -1      1623 9.37016E-05 1.63674E-02 1.34170E-18
 -1      1624 1.79935E-04 1.65621E-02-1.21973E-19
 -1      1625-5.92945E-05 1.60025E-02 1.51788E-18
 -1      1626 1.38056E-05 1.61923E-02 1.12486E-18
 -1      1627-1.74327E-04 1.56384E-02 9.21572E-19
 -1      1628-1.24755E-04 1.58240E-02 7.99599E-19
 -1      1629-2.35952E-04 1.52750E-02 1.12486E-18
 -1      1630-2.16886E-04 1.54578E-02 8.13152E-19
 -1      1631-2.35555E-04 1.49119E-02 8.53809E-19
 -1      1632-2.48979E-04 1.50929E-02 9.08019E-19
 -1      1633-1.73257E-04 1.45489E-02-6.36969E-19
 -1      1634-2.16168E-04 1.47282E-02 5.42101E-20
 -1      1635-5.78760E-05 1.41854E-02 1.15196E-18
 -1      1636-1.23558E-04 1.43625E-02-1.62630E-19
 -1      1637 9.50469E-05 1.38216E-02 1.62630E-19
 -1      1638 1.50843E-05 1.39950E-02 7.04731E-19
 -1      1639 2.66870E-04 1.34588E-02-7.45389E-19
 -1      1640 1.80871E-04 1.36265E-02-1.76183E-19
 -1      1641 4.40019E-04 1.31001E-02-3.11708E-19
 -1      1642 3.54459E-04 1.32596E-02 0.00000E+00
 -1      1643 6.01139E-04 1.27504E-02-2.43945E-19
 -1      1644 5.20088E-04 1.28990E-02-6.77626E-19
 -1      1645 6.67620E-04 1.25500E-02 1.13841E-18
 -1      1646 5.90583E-04 1.75052E-02-5.14996E-19
 -1      1647 6.48489E-04 1.77234E-02 8.94467E-19
 -1      1648 4.36290E-04 1.71404E-02-1.49078E-19
 -1      1649 5.09363E-04 1.73579E-02 9.48677E-20
 -1      1650 2.66690E-04 1.67670E-02-1.00289E-18
 -1      1651 3.49815E-04 1.69809E-02-9.75782E-19
 -1      1652 9.45690E-05 1.63907E-02 8.94467E-19
 -1      1653 1.78836E-04 1.65982E-02 1.62630E-19
 -1      1654-6.17243E-05 1.60158E-02 1.21973E-18
 -1      1655 1.20331E-05 1.62156E-02 8.80914E-19
 -1      1656-1.81412E-04 1.56443E-02-6.36969E-19
 -1      1657-1.29957E-04 1.58368E-02 3.38813E-19
 -1      1658-2.46338E-04 1.52759E-02 1.08420E-18
 -1      1659-2.25844E-04 1.54627E-02-3.25261E-19
 -1      1660-2.45989E-04 1.49087E-02 8.13152E-20
 -1      1661-2.59567E-04 1.50917E-02 3.79471E-19
 -1      1662-1.80496E-04 1.45406E-02 3.38813E-19
 -1      1663-2.25234E-04 1.47208E-02 1.09775E-18
 -1      1664-6.05803E-05 1.41698E-02 8.94467E-19
 -1      1665-1.28989E-04 1.43472E-02 6.50521E-19
 -1      1666 9.55118E-05 1.37960E-02-1.21973E-19
 -1      1667 1.29530E-05 1.39692E-02 7.86047E-19
 -1      1668 2.67037E-04 1.34212E-02-1.89735E-19
 -1      1669 1.79282E-04 1.35879E-02-4.74338E-19
 -1      1670 4.35758E-04 1.30498E-02-4.74338E-19
 -1      1671 3.49446E-04 1.32071E-02-5.28549E-19
 -1      1672 5.89015E-04 1.26873E-02-9.75782E-19
 -1      1673 5.07960E-04 1.28322E-02-5.96311E-19
 -1      1674 6.45945E-04 1.24693E-02 2.10064E-19
 -1      1675 5.69902E-04 1.75880E-02 1.04354E-18
 -1      1676 6.18150E-04 1.78257E-02 3.65918E-19
 -1      1677 4.24565E-04 1.72076E-02-7.18284E-19
 -1      1678 4.89081E-04 1.74431E-02 6.77626E-19
 -1      1679 2.61120E-04 1.68184E-02-1.80249E-18
 -1      1680 3.37851E-04 1.70488E-02-2.43945E-18
 -1      1681 9.13436E-05 1.64268E-02-3.79471E-19
 -1      1682 1.72049E-04 1.66490E-02-1.82959E-18
 -1      1683-6.62058E-05 1.60384E-02-6.77626E-20
 -1      1684 6.63791E-06 1.62502E-02-8.13152E-20
 -1      1685-1.89045E-04 1.56558E-02-6.23416E-19
 -1      1686-1.36992E-04 1.58571E-02 3.25261E-19
 -1      1687-2.56506E-04 1.52785E-02 2.71051E-20
 -1      1688-2.35470E-04 1.54713E-02-2.84603E-19
 -1      1689-2.56215E-04 1.49034E-02-2.98156E-19
 -1      1690-2.70432E-04 1.50902E-02 8.13152E-20
 -1      1691-1.88308E-04 1.45264E-02 6.91179E-19
 -1      1692-2.34985E-04 1.47092E-02 2.71051E-19
 -1      1693-6.53727E-05 1.41445E-02 7.58942E-19
 -1      1694-1.36283E-04 1.43238E-02 8.94467E-19
 -1      1695 9.18380E-05 1.37571E-02-2.71051E-20
 -1      1696 7.15812E-06 1.39317E-02 2.16840E-19
 -1      1697 2.60884E-04 1.33672E-02-5.69206E-19
 -1      1698 1.71952E-04 1.35342E-02-5.01444E-19
 -1      1699 4.23315E-04 1.29800E-02-6.09864E-19
 -1      1700 3.36793E-04 1.31363E-02-4.20128E-19
 -1      1701 5.67474E-04 1.26020E-02-1.01644E-18
 -1      1702 4.86834E-04 1.27442E-02-1.15196E-18
 -1      1703 6.14579E-04 1.23643E-02-1.05032E-18
 -1      1704 5.39968E-04 1.76934E-02 9.62229E-19
 -1      1705 5.78494E-04 1.79526E-02-1.24683E-18
 -1      1706 4.04350E-04 1.72942E-02 4.33681E-19
 -1      1707 4.59747E-04 1.75496E-02 2.43945E-19
 -1      1708 2.48476E-04 1.68861E-02-3.14419E-18
 -1      1709 3.17737E-04 1.71349E-02-7.45389E-19
 -1      1710 8.29050E-05 1.64761E-02-5.01444E-19
 -1      1711 1.58613E-04 1.67147E-02-1.39591E-18
 -1      1712-7.40051E-05 1.60705E-02 3.11708E-19
 -1      1713-3.58966E-06 1.62963E-02 2.71051E-20
 -1      1714-1.98509E-04 1.56729E-02-2.43945E-19
 -1      1715-1.47169E-04 1.58853E-02 3.52366E-19
 -1      1716-2.67713E-04 1.52828E-02 9.35124E-19
 -1      1717-2.47079E-04 1.54836E-02 7.72494E-19
 -1      1718-2.67488E-04 1.48958E-02-6.23416E-19
 -1      1719-2.82878E-04 1.50883E-02 7.72494E-19
 -1      1720-1.97973E-04 1.45060E-02 1.07065E-18
 -1      1721-2.46733E-04 1.46932E-02 2.57498E-19
 -1      1722-7.35175E-05 1.41091E-02-2.03288E-19
 -1      1723-1.46746E-04 1.42920E-02 4.06576E-19
 -1      1724 8.29033E-05 1.37046E-02-1.62630E-19
 -1      1725-3.51072E-06 1.38820E-02-3.93023E-19
 -1      1726 2.47588E-04 1.32962E-02-8.13152E-19
 -1      1727 1.57911E-04 1.34649E-02-1.08420E-19
 -1      1728 4.02282E-04 1.28902E-02 4.06576E-20
 -1      1729 3.15897E-04 1.30466E-02-8.13152E-20
 -1      1730 5.36523E-04 1.24935E-02-1.36881E-18
 -1      1731 4.56509E-04 1.26343E-02-4.47233E-19
 -1      1732 5.73668E-04 1.22340E-02-5.28549E-19
 -1      1733 5.00791E-04 1.78222E-02 1.58565E-18
 -1      1734 5.29652E-04 1.81053E-02 3.52366E-19
 -1      1735 3.75284E-04 1.74009E-02-4.74338E-19
 -1      1736 4.21188E-04 1.76783E-02 4.47233E-19
 -1      1737 2.28001E-04 1.69708E-02-2.30393E-19
 -1      1738 2.88929E-04 1.72398E-02 6.77626E-20
 -1      1739 6.81708E-05 1.65389E-02-5.14996E-19
 -1      1740 1.37618E-04 1.67960E-02 7.04731E-19
 -1      1741-8.63966E-05 1.61125E-02-2.71051E-20
 -1      1742-1.98359E-05 1.63544E-02-3.38813E-19
 -1      1743-2.11142E-04 1.56960E-02 1.49078E-19
 -1      1744-1.61821E-04 1.59216E-02-7.31836E-19
 -1      1745-2.81300E-04 1.52889E-02 5.55654E-19
 -1      1746-2.62046E-04 1.55000E-02 2.30393E-19
 -1      1747-2.81148E-04 1.48857E-02 4.87891E-19
 -1      1748-2.98285E-04 1.50862E-02 1.62630E-19
 -1      1749-2.10827E-04 1.44789E-02 9.75782E-19
 -1      1750-2.61853E-04 1.46725E-02-2.43945E-19
 -1      1751-8.62893E-05 1.40631E-02-4.47233E-19
 -1      1752-1.61710E-04 1.42514E-02 6.09864E-19
 -1      1753 6.76193E-05 1.36378E-02 1.23328E-18
 -1      1754-2.02436E-05 1.38195E-02 6.36969E-19
 -1      1755 2.26377E-04 1.32076E-02-1.01644E-18
 -1      1756 1.36237E-04 1.33793E-02 2.71051E-20
 -1      1757 3.72259E-04 1.27797E-02-5.42101E-20
 -1      1758 2.86183E-04 1.29374E-02-1.08420E-18
 -1      1759 4.96111E-04 1.23609E-02-2.71051E-20
 -1      1760 4.16755E-04 1.25013E-02 1.04354E-18
 -1      1761 5.23253E-04 1.20770E-02 9.41901E-19
 -1      1762 4.52336E-04 1.79756E-02 1.11131E-18
 -1      1763 4.71693E-04 1.82854E-02 1.30104E-18
 -1      1764 3.37012E-04 1.75286E-02-4.20128E-19
 -1      1765 3.73219E-04 1.78304E-02 8.80914E-19
 -1      1766 1.98979E-04 1.70729E-02 8.94467E-19
 -1      1767 2.50918E-04 1.73645E-02 5.42101E-20
 -1      1768 4.60981E-05 1.66157E-02-3.79471E-19
 -1      1769 1.08205E-04 1.68934E-02-1.35525E-19
 -1      1770-1.04647E-04 1.61648E-02 2.30393E-19
 -1      1771-4.32585E-05 1.64249E-02 6.77626E-19
 -1      1772-2.28318E-04 1.57253E-02-1.34170E-18
 -1      1773-1.82291E-04 1.59662E-02-4.74338E-19
 -1      1774-2.98674E-04 1.52968E-02 2.16840E-19
 -1      1775-2.81793E-04 1.55204E-02-8.94467E-19
 -1      1776-2.98600E-04 1.48730E-02-2.57498E-19
 -1      1777-3.18088E-04 1.50835E-02-6.50521E-19
 -1      1778-2.28246E-04 1.44448E-02 8.67362E-19
 -1      1779-2.81766E-04 1.46469E-02-9.48677E-20
 -1      1780-1.04957E-04 1.40060E-02-2.57498E-19
 -1      1781-1.82522E-04 1.42015E-02 5.14996E-19
 -1      1782 4.49329E-05 1.35563E-02 9.89334E-19
 -1      1783-4.42053E-05 1.37438E-02 2.71051E-19
 -1      1784 1.96508E-04 1.31008E-02-1.36881E-18
 -1      1785 1.06050E-04 1.32767E-02-1.01644E-18
 -1      1786 3.32843E-04 1.26473E-02 1.55854E-18
 -1      1787 2.47099E-04 1.28076E-02 1.59920E-18
 -1      1788 4.46119E-04 1.22028E-02 7.58942E-19
 -1      1789 3.67313E-04 1.23440E-02 1.05710E-18
 -1      1790 4.63276E-04 1.18918E-02-5.75982E-19
 -1      1791 3.94534E-04 1.81551E-02 8.67362E-19
 -1      1792 2.89205E-04 1.76783E-02 1.49078E-19
 -1      1793 1.60772E-04 1.71934E-02-9.08019E-19
 -1      1794 1.57351E-05 1.67071E-02 2.03288E-19
 -1      1795-1.29969E-04 1.62277E-02 6.36969E-19
 -1      1796-2.51420E-04 1.57609E-02-4.33681E-19
 -1      1797-3.21291E-04 1.53066E-02-4.87891E-19
 -1      1798-3.21302E-04 1.48575E-02 1.09775E-18
 -1      1799-2.51608E-04 1.44035E-02-1.35525E-20
 -1      1800-1.30737E-04 1.39374E-02 5.69206E-19
 -1      1801 1.38764E-05 1.34591E-02-8.13152E-20
 -1      1802 1.57307E-04 1.29746E-02 7.58942E-19
 -1      1803 2.83637E-04 1.24918E-02 6.91179E-19
 -1      1804 3.86360E-04 1.20176E-02-6.43745E-19
 -1      1805 6.35579E-04 1.18969E-02-2.18535E-19
 -1      1806 7.56442E-04 1.16092E-02 2.06676E-19
 -1      1807 8.79219E-04 1.13597E-02-3.00485E-19
 -1      1808 1.00464E-03 1.11542E-02-6.56451E-19
 -1      1809 1.13325E-03 1.09971E-02-2.87991E-19
 -1      1810 1.26502E-03 1.08911E-02-1.47045E-18
 -1      1811 1.39911E-03 1.08377E-02-9.70700E-19
 -1      1812 1.53407E-03 1.08377E-02-3.38813E-20
 -1      1813 1.66817E-03 1.08911E-02-5.70900E-19
 -1      1814 1.79993E-03 1.09971E-02-3.47284E-19
 -1      1815 1.92855E-03 1.11542E-02 2.28699E-20
 -1      1816 2.05396E-03 1.13597E-02 7.42848E-19
 -1      1817 2.17674E-03 1.16092E-02 2.68509E-19
 -1      1818 2.29760E-03 1.18969E-02-4.40457E-20
 -1      1819 7.17101E-04 1.19882E-02 5.84453E-19
 -1      1820 8.36058E-04 1.16815E-02 8.47033E-22
 -1      1821 9.51301E-04 1.14096E-02 8.40892E-19
 -1      1822 1.06454E-03 1.11819E-02-5.98005E-19
 -1      1823 1.17775E-03 1.10058E-02 1.21973E-19
 -1      1824 1.29226E-03 1.08861E-02-8.47033E-19
 -1      1825 1.40827E-03 1.08256E-02-6.94567E-19
 -1      1826 1.52492E-03 1.08256E-02 3.72694E-20
 -1      1827 1.64093E-03 1.08861E-02-1.79571E-19
 -1      1828 1.75543E-03 1.10058E-02 8.72444E-20
 -1      1829 1.86864E-03 1.11819E-02 5.16690E-20
 -1      1830 1.98188E-03 1.14096E-02 8.85573E-19
 -1      1831 2.09712E-03 1.16815E-02-3.72694E-19
 -1      1832 2.21608E-03 1.19882E-02-2.10064E-19
 -1      1833 7.82204E-04 1.20637E-02 3.42201E-19
 -1      1834 9.01406E-04 1.17451E-02 1.20617E-18
 -1      1835 1.01242E-03 1.14562E-02 7.58094E-19
 -1      1836 1.11698E-03 1.12098E-02-1.41455E-19
 -1      1837 1.21776E-03 1.10163E-02 7.03884E-19
 -1      1838 1.31722E-03 1.08835E-02-1.52974E-18
 -1      1839 1.41674E-03 1.08160E-02-6.55604E-19
 -1      1840 1.51645E-03 1.08160E-02 2.59192E-19
 -1      1841 1.61596E-03 1.08835E-02-2.71051E-20
 -1      1842 1.71543E-03 1.10163E-02-3.47284E-20
 -1      1843 1.81620E-03 1.12098E-02 3.17637E-20
 -1      1844 1.92076E-03 1.14562E-02-2.37593E-19
 -1      1845 2.03178E-03 1.17451E-02-5.20078E-19
 -1      1846 2.15098E-03 1.20637E-02 1.49078E-19
 -1      1847 8.31758E-04 1.21222E-02-1.03338E-19
 -1      1848 9.52835E-04 1.17981E-02 9.14796E-19
 -1      1849 1.06241E-03 1.14976E-02 6.46286E-19
 -1      1850 1.16148E-03 1.12360E-02-1.47966E-20
 -1      1851 1.25277E-03 1.10273E-02 1.25022E-18
 -1      1852 1.33956E-03 1.08822E-02-8.13152E-19
 -1      1853 1.42440E-03 1.08080E-02-3.91329E-19
 -1      1854 1.50878E-03 1.08080E-02-2.87991E-20
 -1      1855 1.59362E-03 1.08822E-02 5.75982E-20
 -1      1856 1.68041E-03 1.10273E-02 7.70800E-20
 -1      1857 1.77171E-03 1.12360E-02-4.18739E-19
 -1      1858 1.87077E-03 1.14976E-02-4.58245E-19
 -1      1859 1.98035E-03 1.17981E-02-9.48677E-20
 -1      1860 2.10143E-03 1.21222E-02-1.81265E-19
 -1      1861 8.66787E-04 1.21625E-02 3.38813E-21
 -1      1862 9.90919E-04 1.18387E-02 1.91429E-19
 -1      1863 1.10134E-03 1.15316E-02 3.62530E-19
 -1      1864 1.19776E-03 1.12587E-02-7.46236E-19
 -1      1865 1.28241E-03 1.10370E-02 4.48927E-19
 -1      1866 1.35897E-03 1.08809E-02-3.43048E-19
 -1      1867 1.43116E-03 1.08003E-02-2.03288E-19
 -1      1868 1.50203E-03 1.08003E-02 3.27802E-19
 -1      1869 1.57422E-03 1.08809E-02 1.21126E-19
 -1      1870 1.65077E-03 1.10370E-02-1.05032E-19
 -1      1871 1.73542E-03 1.12587E-02 9.65618E-20
 -1      1872 1.83185E-03 1.15316E-02-1.17738E-19
 -1      1873 1.94226E-03 1.18387E-02-1.01644E-20
 -1      1874 2.06640E-03 1.21625E-02 1.15196E-19
 -1      1875 8.88324E-04 1.21835E-02 9.58841E-19
 -1      1876 1.01634E-03 1.18649E-02-1.23667E-19
 -1      1877 1.12941E-03 1.15560E-02 2.98156E-19
 -1      1878 1.22568E-03 1.12756E-02 6.01393E-20
 -1      1879 1.30637E-03 1.10436E-02 2.77827E-19
 -1      1880 1.37518E-03 1.08779E-02-1.85924E-19
 -1      1881 1.43689E-03 1.07916E-02 1.33831E-19
 -1      1882 1.49629E-03 1.07916E-02 2.22770E-19
 -1      1883 1.55800E-03 1.08779E-02-3.30343E-20
 -1      1884 1.62681E-03 1.10436E-02 2.16708E-19
 -1      1885 1.70751E-03 1.12756E-02-5.61583E-19
 -1      1886 1.80377E-03 1.15560E-02 4.70950E-19
 -1      1887 1.91684E-03 1.18649E-02 5.08220E-19
 -1      1888 2.04486E-03 1.21835E-02 2.16840E-19
 -1      1889 8.97384E-04 1.21842E-02 6.16640E-19
 -1      1890 1.02985E-03 1.18749E-02 2.03288E-19
 -1      1891 1.14698E-03 1.15686E-02 9.99499E-20
 -1      1892 1.24522E-03 1.12846E-02 8.09763E-19
 -1      1893 1.32445E-03 1.10451E-02 7.19978E-20
 -1      1894 1.38800E-03 1.08715E-02 1.10506E-18
 -1      1895 1.44153E-03 1.07802E-02-2.38863E-19
 -1      1896 1.49165E-03 1.07802E-02-9.38513E-19
 -1      1897 1.54518E-03 1.08715E-02-1.52042E-19
 -1      1898 1.60873E-03 1.10451E-02 1.16044E-19
 -1      1899 1.68796E-03 1.12846E-02 1.07573E-19
 -1      1900 1.78620E-03 1.15686E-02 3.15096E-19
 -1      1901 1.90333E-03 1.18749E-02-2.52416E-19
 -1      1902 2.03580E-03 1.21842E-02-6.77626E-21
 -1      1903 8.94919E-04 1.21636E-02-3.76083E-19
 -1      1904 1.03224E-03 1.18671E-02 7.79270E-19
 -1      1905 1.15452E-03 1.15672E-02-1.98206E-19
 -1      1906 1.25651E-03 1.12833E-02 1.11893E-18
 -1      1907 1.33656E-03 1.10393E-02 1.93124E-19
 -1      1908 1.39729E-03 1.08596E-02-3.68036E-19
 -1      1909 1.44501E-03 1.07642E-02-6.79426E-19
 -1      1910 1.48818E-03 1.07642E-02 4.42707E-19
 -1      1911 1.53590E-03 1.08596E-02 4.58457E-19
 -1      1912 1.59662E-03 1.10393E-02-8.52115E-19
 -1      1913 1.67667E-03 1.12833E-02-7.03884E-19
 -1      1914 1.77867E-03 1.15672E-02 6.09864E-19
 -1      1915 1.90094E-03 1.18671E-02-2.96462E-19
 -1      1916 2.03826E-03 1.21636E-02 1.86347E-19
 -1      1917 8.81786E-04 1.21206E-02 4.16740E-19
 -1      1918 1.02429E-03 1.18397E-02-4.72644E-19
 -1      1919 1.15254E-03 1.15497E-02-6.94567E-20
 -1      1920 1.25978E-03 1.12694E-02-6.55604E-19
 -1      1921 1.34269E-03 1.10238E-02 5.29396E-19
 -1      1922 1.40295E-03 1.08401E-02 1.51195E-19
 -1      1923 1.44728E-03 1.07415E-02 6.86097E-20
 -1      1924 1.48590E-03 1.07415E-02 1.17229E-18
 -1      1925 1.53023E-03 1.08401E-02 3.32460E-19
 -1      1926 1.59049E-03 1.10238E-02-4.20128E-19
 -1      1927 1.67340E-03 1.12694E-02 3.52366E-19
 -1      1928 1.78065E-03 1.15497E-02 5.87841E-19
 -1      1929 1.90890E-03 1.18397E-02-2.65968E-19
 -1      1930 2.05140E-03 1.21206E-02 8.13152E-20
 -1      1931 8.58716E-04 1.20540E-02 4.60786E-19
 -1      1932 1.00671E-03 1.17910E-02-1.24344E-18
 -1      1933 1.14159E-03 1.15138E-02-6.26804E-20
 -1      1934 1.25533E-03 1.12403E-02-7.11508E-20
 -1      1935 1.34294E-03 1.09961E-02-9.69006E-19
 -1      1936 1.40498E-03 1.08104E-02-5.20078E-19
 -1      1937 1.44833E-03 1.07098E-02-7.78423E-19
 -1      1938 1.48485E-03 1.07098E-02 3.38813E-19
 -1      1939 1.52821E-03 1.08104E-02 7.74188E-19
 -1      1940 1.59024E-03 1.09961E-02-4.43845E-19
 -1      1941 1.67785E-03 1.12403E-02-1.01644E-19
 -1      1942 1.79159E-03 1.15138E-02-6.86097E-19
 -1      1943 1.92647E-03 1.17910E-02 1.72795E-19
 -1      1944 2.07447E-03 1.20540E-02-2.37169E-20
 -1      1945 8.26303E-04 1.19626E-02 3.89635E-19
 -1      1946 9.80151E-04 1.17192E-02 2.91379E-19
 -1      1947 1.12223E-03 1.14575E-02 1.01644E-19
 -1      1948 1.24350E-03 1.11937E-02-5.59042E-19
 -1      1949 1.33746E-03 1.09535E-02-3.91329E-19
 -1      1950 1.40339E-03 1.07681E-02 4.86197E-19
 -1      1951 1.44815E-03 1.06665E-02-3.11708E-19
 -1      1952 1.48503E-03 1.06665E-02 7.28448E-20
 -1      1953 1.52980E-03 1.07681E-02 1.07912E-18
 -1      1954 1.59572E-03 1.09535E-02-4.23516E-19
 -1      1955 1.68968E-03 1.11937E-02-8.91079E-19
 -1      1956 1.81095E-03 1.14575E-02-1.07065E-18
 -1      1957 1.95303E-03 1.17192E-02-9.58841E-19
 -1      1958 2.10688E-03 1.19626E-02-4.43845E-19
 -1      1959 7.84994E-04 1.18449E-02-4.06576E-20
 -1      1960 9.45146E-04 1.16226E-02-8.33480E-19
 -1      1961 1.09496E-03 1.13783E-02 3.52366E-19
 -1      1962 1.22468E-03 1.11269E-02-3.15096E-19
 -1      1963 1.32644E-03 1.08934E-02 3.94717E-19
 -1      1964 1.39825E-03 1.07102E-02-6.86097E-19
 -1      1965 1.44676E-03 1.06088E-02 4.08270E-19
 -1      1966 1.48643E-03 1.06088E-02-5.37019E-19
 -1      1967 1.53493E-03 1.07102E-02 8.43645E-19
 -1      1968 1.60674E-03 1.08934E-02-8.13152E-20
 -1      1969 1.70851E-03 1.11269E-02 2.13452E-19
 -1      1970 1.83822E-03 1.13783E-02-9.58841E-19
 -1      1971 1.98804E-03 1.16226E-02-1.18923E-18
 -1      1972 2.14819E-03 1.18449E-02-4.64174E-19
 -1      1973 7.35087E-04 1.16993E-02 2.37169E-19
 -1      1974 9.02116E-04 1.14993E-02-2.37169E-19
 -1      1975 1.06022E-03 1.12742E-02 2.20229E-19
 -1      1976 1.19922E-03 1.10374E-02 2.11758E-19
 -1      1977 1.31012E-03 1.08131E-02 1.52466E-19
 -1      1978 1.38969E-03 1.06341E-02-9.31736E-20
 -1      1979 1.44417E-03 1.05339E-02-1.30443E-19
 -1      1980 1.48901E-03 1.05339E-02 3.21873E-20
 -1      1981 1.54350E-03 1.06341E-02-1.18585E-19
 -1      1982 1.62307E-03 1.08131E-02-5.67512E-19
 -1      1983 1.73396E-03 1.10374E-02-4.43845E-19
 -1      1984 1.87296E-03 1.12742E-02 3.86247E-19
 -1      1985 2.03107E-03 1.14993E-02 4.98055E-19
 -1      1986 2.19810E-03 1.16993E-02 1.15196E-19
 -1      1987 6.76747E-04 1.15240E-02 1.89735E-19
 -1      1988 8.51358E-04 1.13470E-02 2.64274E-19
 -1      1989 1.01838E-03 1.11428E-02-5.69206E-19
 -1      1990 1.16745E-03 1.09226E-02 1.06726E-19
 -1      1991 1.28871E-03 1.07095E-02 1.91429E-19
 -1      1992 1.37780E-03 1.05367E-02-7.33531E-19
 -1      1993 1.44043E-03 1.04388E-02-4.06576E-20
 -1      1994 1.49275E-03 1.04388E-02 1.37219E-19
 -1      1995 1.55539E-03 1.05367E-02 7.30142E-19
 -1      1996 1.64447E-03 1.07095E-02-3.64224E-19
 -1      1997 1.76574E-03 1.09226E-02 6.23416E-19
 -1      1998 1.91480E-03 1.11428E-02 2.64274E-19
 -1      1999 2.08183E-03 1.13470E-02-5.38713E-19
 -1      2000 2.25644E-03 1.15240E-02 3.45589E-19
 -1      2001 5.89644E-04 1.18470E-02 2.98156E-19
 -1      2002 5.73818E-04 1.20507E-02 5.21772E-19
 -1      2003 7.12367E-04 1.15714E-02-7.79270E-20
 -1      2004 6.93596E-04 1.17469E-02 9.82558E-20
 -1      2005 8.40168E-04 1.13348E-02-1.38553E-18
 -1      2006 8.15231E-04 1.14779E-02-3.03238E-19
 -1      2007 9.72860E-04 1.11412E-02-1.63139E-18
 -1      2008 9.39342E-04 1.12503E-02-9.47830E-19
 -1      2009 1.11007E-03 1.09938E-02-1.38913E-18
 -1      2010 1.06664E-03 1.10690E-02-1.83976E-18
 -1      2011 1.25101E-03 1.08946E-02-3.59142E-18
 -1      2012 1.19740E-03 1.09376E-02-2.67662E-18
 -1      2013 1.39444E-03 1.08447E-02-3.14419E-18
 -1      2014 1.33113E-03 1.08580E-02-4.32326E-18
 -1      2015 1.53874E-03 1.08447E-02 8.80914E-20
 -1      2016 1.46659E-03 1.08314E-02-1.00966E-18
 -1      2017 1.68217E-03 1.08946E-02-1.40946E-18
 -1      2018 1.60205E-03 1.08580E-02-7.79270E-19
 -1      2019 1.82312E-03 1.09938E-02-1.34170E-18
 -1      2020 1.73579E-03 1.09376E-02-1.29427E-18
 -1      2021 1.96032E-03 1.11412E-02 7.38613E-19
 -1      2022 1.86654E-03 1.10690E-02-2.13452E-19
 -1      2023 2.09302E-03 1.13348E-02 1.94563E-18
 -1      2024 1.99384E-03 1.12503E-02 1.46876E-18
 -1      2025 2.22082E-03 1.15714E-02 1.56871E-18
 -1      2026 2.11795E-03 1.14779E-02 1.63986E-18
 -1      2027 2.34354E-03 1.18470E-02 2.10064E-19
 -1      2028 2.23959E-03 1.17469E-02 1.05032E-19
 -1      2029 2.35936E-03 1.20507E-02 8.87691E-19
 -1      2030 6.79576E-04 1.19457E-02 5.28549E-19
 -1      2031 6.54693E-04 1.21499E-02 7.11508E-19
 -1      2032 7.99137E-04 1.16472E-02 3.25261E-19
 -1      2033 7.75566E-04 1.18299E-02 1.19940E-18
 -1      2034 9.17585E-04 1.13855E-02 8.10187E-19
 -1      2035 8.92362E-04 1.15396E-02 9.60535E-19
 -1      2036 1.03629E-03 1.11683E-02-1.87533E-18
 -1      2037 1.00637E-03 1.12891E-02 4.00223E-19
 -1      2038 1.15661E-03 1.10012E-02-2.81215E-19
 -1      2039 1.11957E-03 1.10868E-02-7.65718E-19
 -1      2040 1.27925E-03 1.08882E-02-3.36103E-18
 -1      2041 1.23370E-03 1.09387E-02-1.56532E-18
 -1      2042 1.40389E-03 1.08312E-02-2.56143E-18
 -1      2043 1.34952E-03 1.08486E-02-3.02221E-18
 -1      2044 1.52930E-03 1.08312E-02-8.13152E-20
 -1      2045 1.46659E-03 1.08184E-02-7.99599E-19
 -1      2046 1.65393E-03 1.08882E-02-1.15196E-18
 -1      2047 1.58366E-03 1.08486E-02-4.33681E-19
 -1      2048 1.77657E-03 1.10012E-02-2.87991E-19
 -1      2049 1.69948E-03 1.09387E-02-2.91379E-19
 -1      2050 1.89689E-03 1.11683E-02 2.20229E-20
 -1      2051 1.81361E-03 1.10868E-02-1.38913E-19
 -1      2052 2.01560E-03 1.13855E-02 2.44835E-18
 -1      2053 1.92681E-03 1.12891E-02 1.56701E-18
 -1      2054 2.13405E-03 1.16472E-02-1.25361E-19
 -1      2055 2.04082E-03 1.15396E-02 9.84252E-19
 -1      2056 2.25361E-03 1.19457E-02-4.47233E-19
 -1      2057 2.15762E-03 1.18299E-02-1.06387E-18
 -1      2058 2.27849E-03 1.21499E-02-3.45589E-19
 -1      2059 7.52545E-04 1.20290E-02 1.19940E-18
 -1      2060 7.18598E-04 1.22291E-02 4.13352E-19
 -1      2061 8.71387E-04 1.17153E-02 1.98206E-18
 -1      2062 8.41780E-04 1.19007E-02 2.18196E-18
 -1      2063 9.84069E-04 1.14340E-02 2.49875E-18
 -1      2064 9.56636E-04 1.15955E-02 2.74777E-18
 -1      2065 1.09243E-03 1.11963E-02-1.01475E-18
 -1      2066 1.06410E-03 1.13266E-02 1.28495E-18
 -1      2067 1.19888E-03 1.10110E-02 1.12486E-18
 -1      2068 1.16654E-03 1.11057E-02 6.04782E-19
 -1      2069 1.30537E-03 1.08845E-02-3.46267E-18
 -1      2070 1.26668E-03 1.09421E-02-1.29088E-18
 -1      2071 1.41271E-03 1.08205E-02-2.07354E-18
 -1      2072 1.36648E-03 1.08416E-02-3.44234E-18
 -1      2073 1.52048E-03 1.08205E-02 5.35325E-19
 -1      2074 1.46659E-03 1.08078E-02-3.52366E-19
 -1      2075 1.62781E-03 1.08845E-02-3.96411E-19
 -1      2076 1.56671E-03 1.08416E-02-1.35525E-19
 -1      2077 1.73431E-03 1.10110E-02 6.43745E-20
 -1      2078 1.66650E-03 1.09421E-02 3.72694E-20
 -1      2079 1.84076E-03 1.11963E-02 2.02441E-19
 -1      2080 1.76665E-03 1.11057E-02-7.45389E-20
 -1      2081 1.94911E-03 1.14340E-02 1.16213E-18
 -1      2082 1.86909E-03 1.13266E-02-5.12031E-19
 -1      2083 2.06180E-03 1.17153E-02-1.50772E-18
 -1      2084 1.97655E-03 1.15955E-02-1.35525E-18
 -1      2085 2.18064E-03 1.20290E-02 6.09864E-20
 -1      2086 2.09140E-03 1.19007E-02-5.35325E-19
 -1      2087 2.21458E-03 1.22291E-02-7.38613E-19
 -1      2088 8.09533E-04 1.20959E-02 1.42302E-19
 -1      2089 7.66685E-04 1.22878E-02 5.14996E-19
 -1      2090 9.29527E-04 1.17738E-02 3.40168E-18
 -1      2091 8.92981E-04 1.19577E-02 1.21295E-18
 -1      2092 1.03948E-03 1.14783E-02 1.89227E-18
 -1      2093 1.00820E-03 1.16436E-02 2.71389E-18
 -1      2094 1.14084E-03 1.12236E-02 1.25361E-19
 -1      2095 1.11222E-03 1.13608E-02 1.02237E-18
 -1      2096 1.23638E-03 1.10220E-02 2.94598E-18
 -1      2097 1.20706E-03 1.11242E-02 2.04897E-18
 -1      2098 1.32903E-03 1.08828E-02-3.45928E-18
 -1      2099 1.29590E-03 1.09463E-02 5.18384E-19
 -1      2100 1.42078E-03 1.08118E-02-1.70762E-18
 -1      2101 1.38176E-03 1.08361E-02-2.05660E-18
 -1      2102 1.51240E-03 1.08118E-02 4.50622E-19
 -1      2103 1.46659E-03 1.07988E-02-2.74439E-19
 -1      2104 1.60415E-03 1.08828E-02 8.13152E-20
 -1      2105 1.55143E-03 1.08361E-02-2.60886E-19
 -1      2106 1.69680E-03 1.10220E-02 1.20279E-19
 -1      2107 1.63728E-03 1.09463E-02 3.15096E-19
 -1      2108 1.79235E-03 1.12236E-02-7.17437E-19
 -1      2109 1.72612E-03 1.11242E-02-4.19281E-19
 -1      2110 1.89370E-03 1.14783E-02-9.79170E-19
 -1      2111 1.82096E-03 1.13608E-02-1.24090E-18
 -1      2112 2.00366E-03 1.17738E-02-9.38513E-19
 -1      2113 1.92498E-03 1.16436E-02-1.20279E-18
 -1      2114 2.12365E-03 1.20959E-02-2.03288E-20
 -1      2115 2.04020E-03 1.19577E-02-7.11508E-19
 -1      2116 2.16650E-03 1.22878E-02-6.57298E-19
 -1      2117 8.51495E-04 1.21452E-02 2.03288E-20
 -1      2118 8.00074E-04 1.23255E-02 2.23617E-19
 -1      2119 9.74024E-04 1.18206E-02 1.49755E-18
 -1      2120 9.29993E-04 1.19993E-02 6.09864E-20
 -1      2121 1.08378E-03 1.15161E-02 1.45351E-18
 -1      2122 1.04737E-03 1.16818E-02 1.45690E-18
 -1      2123 1.18115E-03 1.12482E-02-1.01051E-18
 -1      2124 1.15060E-03 1.13897E-02-4.45539E-19
 -1      2125 1.26868E-03 1.10325E-02 2.39033E-18
 -1      2126 1.24076E-03 1.11405E-02 2.94767E-19
 -1      2127 1.34990E-03 1.08816E-02-1.60259E-18
 -1      2128 1.32099E-03 1.09501E-02 3.21873E-20
 -1      2129 1.42799E-03 1.08041E-02-8.30092E-19
 -1      2130 1.39514E-03 1.08309E-02-9.82558E-19
 -1      2131 1.50519E-03 1.08041E-02 2.16840E-19
 -1      2132 1.46659E-03 1.07903E-02 2.16840E-19
 -1      2133 1.58328E-03 1.08816E-02 4.33681E-19
 -1      2134 1.53804E-03 1.08309E-02 3.72694E-19
 -1      2135 1.66450E-03 1.10325E-02-2.10064E-19
 -1      2136 1.61219E-03 1.09501E-02-8.47033E-21
 -1      2137 1.75204E-03 1.12482E-02-4.33257E-19
 -1      2138 1.69242E-03 1.11405E-02 4.80162E-20
 -1      2139 1.84941E-03 1.15161E-02-6.91179E-19
 -1      2140 1.78258E-03 1.13897E-02 1.43996E-19
 -1      2141 1.95916E-03 1.18206E-02-1.15196E-19
 -1      2142 1.88581E-03 1.16818E-02-1.69407E-19
 -1      2143 2.08169E-03 1.21452E-02-3.38813E-20
 -1      2144 2.00319E-03 1.19993E-02 1.35525E-19
 -1      2145 2.13311E-03 1.23255E-02 5.14996E-19
 -1      2146 8.79463E-04 1.21757E-02 1.42302E-18
 -1      2147 8.19879E-04 1.23415E-02 2.07354E-18
 -1      2148 1.00551E-03 1.18540E-02 2.71051E-20
 -1      2149 9.53721E-04 1.20240E-02 1.19940E-18
 -1      2150 1.11709E-03 1.15454E-02 1.06049E-18
 -1      2151 1.07460E-03 1.17081E-02 7.31836E-19
 -1      2152 1.21314E-03 1.12682E-02-1.12147E-18
 -1      2153 1.17925E-03 1.14110E-02 7.79270E-19
 -1      2154 1.29544E-03 1.10409E-02 1.05625E-18
 -1      2155 1.26740E-03 1.11525E-02 4.55704E-19
 -1      2156 1.36770E-03 1.08796E-02-8.14846E-19
 -1      2157 1.34166E-03 1.09517E-02 2.83756E-19
 -1      2158 1.43423E-03 1.07960E-02-9.82558E-20
 -1      2159 1.40644E-03 1.08244E-02-8.13152E-20
 -1      2160 1.49895E-03 1.07960E-02 8.53809E-19
 -1      2161 1.46659E-03 1.07808E-02 6.86097E-19
 -1      2162 1.56548E-03 1.08796E-02 5.08220E-21
 -1      2163 1.52674E-03 1.08244E-02 2.55804E-19
 -1      2164 1.63775E-03 1.10409E-02 2.38863E-19
 -1      2165 1.59153E-03 1.09517E-02 5.09914E-19
 -1      2166 1.72004E-03 1.12682E-02-6.99649E-19
 -1      2167 1.66579E-03 1.11525E-02-7.22519E-19
 -1      2168 1.81609E-03 1.15454E-02 7.04731E-19
 -1      2169 1.75394E-03 1.14110E-02 1.99900E-19
 -1      2170 1.92767E-03 1.18540E-02 5.28549E-19
 -1      2171 1.85859E-03 1.17081E-02 1.54499E-18
 -1      2172 2.05372E-03 1.21757E-02 6.91179E-19
 -1      2173 1.97946E-03 1.20240E-02 1.02999E-18
 -1      2174 2.11330E-03 1.23415E-02 1.40946E-18
 -1      2175 8.94468E-04 1.21865E-02 2.58176E-18
 -1      2176 8.27147E-04 1.23355E-02 2.23617E-19
 -1      2177 1.02472E-03 1.18721E-02 8.80914E-20
 -1      2178 9.65097E-04 1.20304E-02 1.75505E-18
 -1      2179 1.13972E-03 1.15640E-02 7.01343E-19
 -1      2180 1.09045E-03 1.17205E-02 1.55854E-19
 -1      2181 1.23676E-03 1.12813E-02 1.24853E-18
 -1      2182 1.19834E-03 1.14226E-02 1.94479E-18
 -1      2183 1.31640E-03 1.10451E-02 5.49724E-19
 -1      2184 1.28684E-03 1.11581E-02 1.12147E-18
 -1      2185 1.38220E-03 1.08751E-02 1.43572E-18
 -1      2186 1.35768E-03 1.09491E-02 1.95876E-18
 -1      2187 1.43941E-03 1.07862E-02-2.54110E-19
 -1      2188 1.41550E-03 1.08150E-02 1.19093E-18
 -1      2189 1.49377E-03 1.07862E-02-1.19601E-18
 -1      2190 1.46659E-03 1.07688E-02-1.14688E-18
 -1      2191 1.55098E-03 1.08751E-02-3.10014E-19
 -1      2192 1.51768E-03 1.08150E-02-1.29681E-18
 -1      2193 1.61678E-03 1.10451E-02 4.97208E-19
 -1      2194 1.57551E-03 1.09491E-02-1.02067E-19
 -1      2195 1.69643E-03 1.12813E-02-4.57398E-19
 -1      2196 1.64634E-03 1.11581E-02-1.37219E-19
 -1      2197 1.79346E-03 1.15640E-02 1.04354E-18
 -1      2198 1.73485E-03 1.14226E-02 5.35325E-19
 -1      2199 1.90846E-03 1.18721E-02 1.96512E-19
 -1      2200 1.84273E-03 1.17205E-02 9.48677E-20
 -1      2201 2.03872E-03 1.21865E-02 2.71051E-19
 -1      2202 1.96809E-03 1.20304E-02-5.42101E-20
 -1      2203 2.10604E-03 1.23355E-02-1.69407E-19
 -1      2204 8.97497E-04 1.21764E-02 2.30393E-19
 -1      2205 8.22827E-04 1.23066E-02 6.36969E-19
 -1      2206 1.03242E-03 1.18733E-02 1.82959E-18
 -1      2207 9.65032E-04 1.20171E-02 6.23416E-19
 -1      2208 1.15208E-03 1.15698E-02-2.64274E-19
 -1      2209 1.09559E-03 1.17168E-02 9.75782E-19
 -1      2210 1.25204E-03 1.12854E-02 3.13063E-18
 -1      2211 1.20815E-03 1.14221E-02 9.08019E-19
 -1      2212 1.33142E-03 1.10432E-02 4.01494E-19
 -1      2213 1.29910E-03 1.11550E-02 2.28699E-18
 -1      2214 1.39322E-03 1.08662E-02 1.01580E-18
 -1      2215 1.36891E-03 1.09403E-02 1.16891E-19
 -1      2216 1.44346E-03 1.07727E-02-1.35652E-18
 -1      2217 1.42221E-03 1.08007E-02-1.09860E-18
 -1      2218 1.48972E-03 1.07727E-02-1.02322E-18
 -1      2219 1.46659E-03 1.07523E-02-1.53578E-19
 -1      2220 1.53996E-03 1.08662E-02 5.76618E-19
 -1      2221 1.51097E-03 1.08007E-02 1.76395E-18
 -1      2222 1.60176E-03 1.10432E-02-1.34170E-18
 -1      2223 1.56428E-03 1.09403E-02-5.86147E-19
 -1      2224 1.68114E-03 1.12854E-02-1.01983E-18
 -1      2225 1.63409E-03 1.11550E-02-1.69745E-18
 -1      2226 1.78110E-03 1.15698E-02 1.45690E-18
 -1      2227 1.72503E-03 1.14221E-02 8.47033E-20
 -1      2228 1.90076E-03 1.18733E-02-7.38613E-19
 -1      2229 1.83759E-03 1.17168E-02 4.94667E-19
 -1      2230 2.03569E-03 1.21764E-02 2.50722E-19
 -1      2231 1.96815E-03 1.20171E-02 1.01644E-19
 -1      2232 2.11036E-03 1.23066E-02 8.26704E-19
 -1      2233 8.89455E-04 1.21444E-02-2.91379E-19
 -1      2234 8.07741E-04 1.22542E-02 2.35136E-18
 -1      2235 1.02941E-03 1.18556E-02 3.65918E-19
 -1      2236 9.54376E-04 1.19826E-02-2.91379E-19
 -1      2237 1.15466E-03 1.15604E-02-4.74338E-19
 -1      2238 1.09068E-03 1.16952E-02-4.81115E-19
 -1      2239 1.25919E-03 1.12779E-02 8.16540E-19
 -1      2240 1.20908E-03 1.14072E-02-1.34170E-18
 -1      2241 1.34046E-03 1.10327E-02 1.25022E-18
 -1      2242 1.30426E-03 1.11409E-02-5.45489E-19
 -1      2243 1.40065E-03 1.08507E-02-6.01393E-19
 -1      2244 1.37530E-03 1.09229E-02 5.75982E-19
 -1      2245 1.44633E-03 1.07536E-02-1.04143E-18
 -1      2246 1.42650E-03 1.07794E-02 1.54160E-19
 -1      2247 1.48686E-03 1.07536E-02 2.61056E-18
 -1      2248 1.46659E-03 1.07292E-02 1.55007E-18
 -1      2249 1.53253E-03 1.08507E-02 1.02660E-18
 -1      2250 1.50668E-03 1.07794E-02 2.52246E-18
 -1      2251 1.59273E-03 1.10327E-02-1.92785E-18
 -1      2252 1.55788E-03 1.09229E-02 1.86347E-19
 -1      2253 1.67400E-03 1.12779E-02-5.52265E-19
 -1      2254 1.62892E-03 1.11409E-02-5.75982E-20
 -1      2255 1.77852E-03 1.15604E-02 2.06676E-18
 -1      2256 1.72411E-03 1.14072E-02 1.24006E-18
 -1      2257 1.90378E-03 1.18556E-02-6.50521E-19
 -1      2258 1.84251E-03 1.16952E-02 3.99800E-19
 -1      2259 2.04373E-03 1.21444E-02-2.50722E-19
 -1      2260 1.97881E-03 1.19826E-02-7.38613E-19
 -1      2261 2.12544E-03 1.22542E-02 3.93023E-19
 -1      2262 8.71139E-04 1.20895E-02 1.52466E-18
 -1      2263 7.82569E-04 1.21774E-02 1.53821E-18
 -1      2264 1.01643E-03 1.18175E-02-2.90024E-18
 -1      2265 9.33890E-04 1.19255E-02-1.54499E-18
 -1      2266 1.14801E-03 1.15337E-02-9.48677E-20
 -1      2267 1.07638E-03 1.16537E-02-1.24683E-18
 -1      2268 1.25845E-03 1.12565E-02-1.05371E-18
 -1      2269 1.20155E-03 1.13756E-02-7.45389E-20
 -1      2270 1.34356E-03 1.10112E-02-6.13252E-19
 -1      2271 1.30253E-03 1.11131E-02-1.69745E-18
 -1      2272 1.40445E-03 1.08263E-02-6.09864E-19
 -1      2273 1.37687E-03 1.08944E-02-1.80587E-18
 -1      2274 1.44798E-03 1.07265E-02-8.96161E-19
 -1      2275 1.42833E-03 1.07485E-02-1.62122E-18
 -1      2276 1.48521E-03 1.07265E-02 2.21245E-18
 -1      2277 1.46659E-03 1.06972E-02-1.96512E-19
 -1      2278 1.52873E-03 1.08263E-02 1.85161E-18
 -1      2279 1.50485E-03 1.07485E-02 2.37339E-18
 -1      2280 1.58963E-03 1.10112E-02-1.31798E-18
 -1      2281 1.55631E-03 1.08944E-02 5.59042E-19
 -1      2282 1.67473E-03 1.12565E-02 2.54110E-19
 -1      2283 1.63065E-03 1.11131E-02-7.86047E-19
 -1      2284 1.78518E-03 1.15337E-02-1.96512E-19
 -1      2285 1.73164E-03 1.13756E-02-1.47723E-18
 -1      2286 1.91676E-03 1.18175E-02-4.54010E-19
 -1      2287 1.85680E-03 1.16537E-02-1.57887E-18
 -1      2288 2.06204E-03 1.20895E-02 7.45389E-20
 -1      2289 1.99929E-03 1.19255E-02 8.13152E-19
 -1      2290 2.15061E-03 1.21774E-02-4.47233E-19
 -1      2291 8.43210E-04 1.20103E-02 1.60597E-18
 -1      2292 7.47836E-04 1.20751E-02 3.79471E-19
 -1      2293 9.94164E-04 1.17572E-02-1.74828E-18
 -1      2294 9.04214E-04 1.18443E-02 8.53809E-19
 -1      2295 1.13268E-03 1.14876E-02-6.09864E-20
 -1      2296 1.05331E-03 1.15903E-02 1.76183E-19
 -1      2297 1.25016E-03 1.12188E-02-7.11508E-19
 -1      2298 1.18603E-03 1.13248E-02-7.58942E-19
 -1      2299 1.34084E-03 1.09762E-02-2.05998E-18
 -1      2300 1.29415E-03 1.10691E-02-1.29427E-18
 -1      2301 1.40461E-03 1.07904E-02 8.80914E-20
 -1      2302 1.37371E-03 1.08523E-02 1.69407E-20
 -1      2303 1.44839E-03 1.06892E-02-1.92785E-18
 -1      2304 1.42772E-03 1.07056E-02 1.69407E-20
 -1      2305 1.48479E-03 1.06892E-02 8.02987E-19
 -1      2306 1.46659E-03 1.06536E-02 6.77626E-21
 -1      2307 1.52857E-03 1.07904E-02 2.66646E-18
 -1      2308 1.50547E-03 1.07056E-02 1.73811E-18
 -1      2309 1.59234E-03 1.09762E-02-1.35525E-18
 -1      2310 1.55948E-03 1.08523E-02 1.18246E-18
 -1      2311 1.68302E-03 1.12188E-02-1.55176E-18
 -1      2312 1.63903E-03 1.10691E-02-2.03288E-18
 -1      2313 1.80051E-03 1.14876E-02-2.73761E-18
 -1      2314 1.74716E-03 1.13248E-02-2.90024E-18
 -1      2315 1.93902E-03 1.17572E-02-1.11808E-18
 -1      2316 1.87987E-03 1.15903E-02-3.61175E-18
 -1      2317 2.08997E-03 1.20103E-02-1.10453E-18
 -1      2318 2.02897E-03 1.18443E-02-2.24294E-18
 -1      2319 2.18535E-03 1.20751E-02-6.77626E-19
 -1      2320 8.06186E-04 1.19056E-02 3.86247E-19
 -1      2321 7.03914E-04 1.19461E-02 5.21772E-19
 -1      2322 9.63211E-04 1.16729E-02-4.26905E-19
 -1      2323 8.65858E-04 1.17374E-02-1.55854E-18
 -1      2324 1.10919E-03 1.14199E-02 1.49078E-19
 -1      2325 1.02202E-03 1.15029E-02-3.38813E-19
 -1      2326 1.23470E-03 1.11621E-02-1.19262E-18
 -1      2327 1.16297E-03 1.12526E-02 2.77827E-19
 -1      2328 1.33249E-03 1.09250E-02-3.59142E-19
 -1      2329 1.27941E-03 1.10064E-02 3.72694E-19
 -1      2330 1.40119E-03 1.07405E-02 1.38913E-19
 -1      2331 1.36593E-03 1.07938E-02-2.54110E-19
 -1      2332 1.44759E-03 1.06388E-02 1.18585E-19
 -1      2333 1.42469E-03 1.06480E-02-7.79270E-20
 -1      2334 1.48560E-03 1.06388E-02-1.50094E-18
 -1      2335 1.46659E-03 1.05959E-02 2.40557E-19
 -1      2336 1.53199E-03 1.07405E-02 3.57787E-18
 -1      2337 1.50850E-03 1.06480E-02 1.79571E-19
 -1      2338 1.60070E-03 1.09250E-02-6.70850E-19
 -1      2339 1.56725E-03 1.07938E-02 1.39930E-18
 -1      2340 1.69849E-03 1.11621E-02-1.16552E-18
 -1      2341 1.65377E-03 1.10064E-02-7.18284E-19
 -1      2342 1.82399E-03 1.14199E-02-3.51688E-18
 -1      2343 1.77021E-03 1.12526E-02-1.40946E-18
 -1      2344 1.96997E-03 1.16729E-02-3.21195E-18
 -1      2345 1.91116E-03 1.15029E-02-3.36780E-18
 -1      2346 2.12700E-03 1.19056E-02-1.68729E-18
 -1      2347 2.06733E-03 1.17374E-02-2.89346E-18
 -1      2348 2.22927E-03 1.19461E-02 4.67562E-19
 -1      2349 7.60437E-04 1.17738E-02 1.01644E-19
 -1      2350 6.51024E-04 1.17887E-02 1.40269E-18
 -1      2351 9.24043E-04 1.15628E-02-1.93124E-18
 -1      2352 8.19195E-04 1.16031E-02 1.96512E-19
 -1      2353 1.07804E-03 1.13282E-02 9.75782E-19
 -1      2354 9.82958E-04 1.13896E-02-3.99800E-19
 -1      2355 1.21242E-03 1.10840E-02-4.47233E-19
 -1      2356 1.13279E-03 1.11563E-02 5.69206E-19
 -1      2357 1.31872E-03 1.08549E-02 6.23416E-19
 -1      2358 1.25861E-03 1.09221E-02 9.01243E-19
 -1      2359 1.39428E-03 1.06736E-02-1.23667E-18
 -1      2360 1.35371E-03 1.07160E-02 1.35525E-19
 -1      2361 1.44558E-03 1.05727E-02 3.93023E-19
 -1      2362 1.41930E-03 1.05727E-02-5.01444E-19
 -1      2363 1.48761E-03 1.05727E-02-5.96311E-19
 -1      2364 1.46659E-03 1.05211E-02 5.08220E-20
 -1      2365 1.53890E-03 1.06736E-02 1.32137E-18
 -1      2366 1.51388E-03 1.05727E-02-3.04932E-19
 -1      2367 1.61447E-03 1.08549E-02-1.11131E-18
 -1      2368 1.57947E-03 1.07160E-02-7.65718E-19
 -1      2369 1.72076E-03 1.10840E-02-2.98156E-19
 -1      2370 1.67457E-03 1.09221E-02-2.34459E-18
 -1      2371 1.85514E-03 1.13282E-02-5.35325E-19
 -1      2372 1.80039E-03 1.11563E-02 3.45589E-19
 -1      2373 2.00914E-03 1.15628E-02-8.87691E-19
 -1      2374 1.95022E-03 1.13896E-02 1.07743E-18
 -1      2375 2.17275E-03 1.17738E-02-1.21973E-19
 -1      2376 2.11399E-03 1.16031E-02 1.30782E-18
 -1      2377 2.28216E-03 1.17887E-02-4.54010E-19
 -1      2378 7.06192E-04 1.16132E-02 9.01243E-19
 -1      2379 5.89248E-04 1.16012E-02 7.65718E-19
 -1      2380 8.77017E-04 1.14249E-02-1.01644E-19
 -1      2381 7.64458E-04 1.14394E-02 4.33681E-19
 -1      2382 1.03962E-03 1.12104E-02-6.77626E-19
 -1      2383 9.36458E-04 1.12480E-02-9.62229E-19
 -1      2384 1.18368E-03 1.09818E-02 6.57298E-19
 -1      2385 1.09587E-03 1.10337E-02-1.11131E-18
 -1      2386 1.29976E-03 1.07630E-02 6.16640E-19
 -1      2387 1.23206E-03 1.08134E-02 8.87691E-19
 -1      2388 1.38399E-03 1.05869E-02-1.26039E-18
 -1      2389 1.33723E-03 1.06159E-02-8.19928E-19
 -1      2390 1.44239E-03 1.04878E-02-3.42201E-19
 -1      2391 1.41163E-03 1.04767E-02-8.87691E-19
 -1      2392 1.49079E-03 1.04878E-02 2.37169E-19
 -1      2393 1.46659E-03 1.04262E-02 2.37169E-19
 -1      2394 1.54919E-03 1.05869E-02 1.00289E-18
 -1      2395 1.52155E-03 1.04767E-02 2.03288E-18
 -1      2396 1.63343E-03 1.07630E-02-1.47045E-18
 -1      2397 1.59596E-03 1.06159E-02-8.13152E-20
 -1      2398 1.74950E-03 1.09818E-02 8.80914E-20
 -1      2399 1.70112E-03 1.08134E-02-6.77626E-21
 -1      2400 1.89357E-03 1.12104E-02 8.80914E-19
 -1      2401 1.83731E-03 1.10337E-02 1.29427E-18
 -1      2402 2.05617E-03 1.14249E-02-1.08420E-19
 -1      2403 1.99673E-03 1.12480E-02-1.07743E-18
 -1      2404 2.22699E-03 1.16132E-02 6.23416E-19
 -1      2405 2.16873E-03 1.14394E-02-7.58942E-19
 -1      2406 2.34393E-03 1.16012E-02 1.02322E-18
 -1      2407 6.43533E-04 1.14217E-02 7.38613E-19
 -1      2408 8.22351E-04 1.12570E-02 8.80914E-19
 -1      2409 9.94225E-04 1.10639E-02-8.80914E-19
 -1      2410 1.14879E-03 1.08530E-02 4.54010E-19
 -1      2411 1.27585E-03 1.06465E-02-8.33480E-19
 -1      2412 1.37047E-03 1.04774E-02 2.43945E-19
 -1      2413 1.43808E-03 1.03811E-02-3.86247E-19
 -1      2414 1.49510E-03 1.03811E-02 2.57498E-19
 -1      2415 1.56272E-03 1.04774E-02 1.45690E-18
 -1      2416 1.65734E-03 1.06465E-02-4.60786E-19
 -1      2417 1.78439E-03 1.08530E-02 1.37558E-18
 -1      2418 1.93896E-03 1.10639E-02 3.25261E-19
 -1      2419 2.11083E-03 1.12570E-02-4.40457E-19
 -1      2420 2.28965E-03 1.14217E-02-2.03288E-20
 -1      2421 2.54742E-03 1.25380E-02-8.47033E-20
 -1      2422 2.66735E-03 1.28835E-02 3.38813E-19
 -1      2423 2.77219E-03 1.32502E-02-2.71051E-19
 -1      2424 2.85862E-03 1.36365E-02-5.42101E-19
 -1      2425 2.92451E-03 1.40398E-02-1.03677E-18
 -1      2426 2.96884E-03 1.44566E-02-8.13152E-20
 -1      2427 2.99123E-03 1.48821E-02 5.42101E-20
 -1      2428 2.99165E-03 1.53109E-02 4.20128E-19
 -1      2429 2.97005E-03 1.57370E-02 4.81115E-19
 -1      2430 2.92643E-03 1.61549E-02 6.97955E-19
 -1      2431 2.86110E-03 1.65597E-02-6.77626E-20
 -1      2432 2.77506E-03 1.69480E-02 1.40269E-18
 -1      2433 2.67038E-03 1.73170E-02 5.28549E-19
 -1      2434 2.55040E-03 1.76650E-02 9.65618E-19
 -1      2435 2.48768E-03 1.26360E-02 2.43945E-19
 -1      2436 2.62900E-03 1.29715E-02-1.76183E-19
 -1      2437 2.75606E-03 1.33246E-02-2.16840E-19
 -1      2438 2.86294E-03 1.36949E-02-2.77827E-19
 -1      2439 2.94548E-03 1.40812E-02-4.13352E-19
 -1      2440 3.00139E-03 1.44811E-02 1.01644E-19
 -1      2441 3.02970E-03 1.48902E-02 4.06576E-20
 -1      2442 3.03015E-03 1.53028E-02 6.30193E-19
 -1      2443 3.00270E-03 1.57124E-02-5.42101E-20
 -1      2444 2.94753E-03 1.61133E-02 6.09864E-20
 -1      2445 2.86552E-03 1.65010E-02-2.57498E-19
 -1      2446 2.75892E-03 1.68731E-02 3.65918E-19
 -1      2447 2.63187E-03 1.72283E-02 1.76183E-19
 -1      2448 2.49030E-03 1.75662E-02 2.37169E-19
 -1      2449 2.43721E-03 1.27125E-02 1.01644E-19
 -1      2450 2.59368E-03 1.30418E-02-2.47334E-19
 -1      2451 2.73851E-03 1.33857E-02-1.21973E-19
 -1      2452 2.86327E-03 1.37442E-02-1.89735E-19
 -1      2453 2.96141E-03 1.41171E-02-4.60786E-19
 -1      2454 3.02871E-03 1.45027E-02-3.45589E-19
 -1      2455 3.06300E-03 1.48974E-02-1.08420E-19
 -1      2456 3.06348E-03 1.52954E-02 5.01444E-19
 -1      2457 3.03008E-03 1.56906E-02 1.28749E-19
 -1      2458 2.96352E-03 1.60771E-02-2.57498E-19
 -1      2459 2.86586E-03 1.64513E-02-4.74338E-20
 -1      2460 2.74126E-03 1.68115E-02 8.80914E-20
 -1      2461 2.59630E-03 1.71574E-02 5.42101E-20
 -1      2462 2.43941E-03 1.74889E-02-6.77626E-21
 -1      2463 2.39630E-03 1.27675E-02 4.50622E-19
 -1      2464 2.56244E-03 1.30939E-02-2.43945E-19
 -1      2465 2.72070E-03 1.34327E-02 3.38813E-19
 -1      2466 2.86055E-03 1.37837E-02 1.21973E-19
 -1      2467 2.97289E-03 1.41467E-02 3.72694E-19
 -1      2468 3.05111E-03 1.45209E-02-3.38813E-19
 -1      2469 3.09131E-03 1.49034E-02-4.74338E-20
 -1      2470 3.09180E-03 1.52890E-02 3.04932E-19
 -1      2471 3.05251E-03 1.56719E-02 1.89735E-19
 -1      2472 2.97500E-03 1.60469E-02-8.80914E-20
 -1      2473 2.86306E-03 1.64112E-02 2.10064E-19
 -1      2474 2.72326E-03 1.67637E-02 4.06576E-20
 -1      2475 2.56473E-03 1.71044E-02 6.87791E-19
 -1      2476 2.39805E-03 1.74330E-02 1.32137E-19
 -1      2477 2.36508E-03 1.28011E-02 3.96411E-19
 -1      2478 2.53613E-03 1.31278E-02 1.72795E-19
 -1      2479 2.70372E-03 1.34653E-02 4.81115E-19
 -1      2480 2.85575E-03 1.38125E-02-7.25060E-19
 -1      2481 2.98061E-03 1.41694E-02 7.45389E-19
 -1      2482 3.06903E-03 1.45353E-02 3.38813E-20
 -1      2483 3.11493E-03 1.49081E-02 5.08220E-19
 -1      2484 3.11542E-03 1.52836E-02 4.74338E-20
 -1      2485 3.07041E-03 1.56568E-02 4.20128E-19
 -1      2486 2.98265E-03 1.60235E-02 3.38813E-20
 -1      2487 2.85810E-03 1.63815E-02 5.42101E-20
 -1      2488 2.70602E-03 1.67303E-02 2.64274E-19
 -1      2489 2.53803E-03 1.70696E-02 3.48978E-19
 -1      2490 2.36634E-03 1.73985E-02 4.47233E-19
 -1      2491 2.34357E-03 1.28134E-02-2.94767E-19
 -1      2492 2.51551E-03 1.31433E-02 7.72494E-19
 -1      2493 2.68867E-03 1.34829E-02 3.65918E-19
 -1      2494 2.84990E-03 1.38302E-02-2.03288E-19
 -1      2495 2.98539E-03 1.41845E-02 5.42101E-20
 -1      2496 3.08304E-03 1.45453E-02 1.62630E-19
 -1      2497 3.13429E-03 1.49113E-02 3.52366E-19
 -1      2498 3.13477E-03 1.52794E-02-1.62630E-19
 -1      2499 3.08438E-03 1.56458E-02 2.84603E-19
 -1      2500 2.98731E-03 1.60074E-02-6.77626E-21
 -1      2501 2.85204E-03 1.63628E-02-5.08220E-19
 -1      2502 2.69064E-03 1.67116E-02 1.14519E-18
 -1      2503 2.51697E-03 1.70530E-02 1.08420E-19
 -1      2504 2.34430E-03 1.73850E-02-4.06576E-20
 -1      2505 2.33174E-03 1.28045E-02-3.72694E-20
 -1      2506 2.50128E-03 1.31402E-02 4.03188E-19
 -1      2507 2.67662E-03 1.34851E-02 3.86247E-19
 -1      2508 2.84414E-03 1.38360E-02-2.98156E-19
 -1      2509 2.98819E-03 1.41914E-02 2.64274E-19
 -1      2510 3.09391E-03 1.45507E-02-1.82959E-19
 -1      2511 3.15002E-03 1.49129E-02-1.62630E-19
 -1      2512 3.15047E-03 1.52766E-02-6.09864E-19
 -1      2513 3.09517E-03 1.56392E-02 5.08220E-19
 -1      2514 2.98994E-03 1.59991E-02 1.62630E-19
 -1      2515 2.84600E-03 1.63556E-02-4.20128E-19
 -1      2516 2.67819E-03 1.67080E-02 3.82859E-19
 -1      2517 2.50224E-03 1.70547E-02 3.72694E-20
 -1      2518 2.33189E-03 1.73926E-02 1.35525E-19
 -1      2519 2.32950E-03 1.27743E-02-7.65718E-19
 -1      2520 2.49402E-03 1.31186E-02-1.38913E-19
 -1      2521 2.66857E-03 1.34718E-02-8.80914E-20
 -1      2522 2.83961E-03 1.38297E-02-4.74338E-20
 -1      2523 2.99007E-03 1.41898E-02 7.45389E-20
 -1      2524 3.10254E-03 1.45509E-02-3.93023E-19
 -1      2525 3.16291E-03 1.49128E-02 7.45389E-20
 -1      2526 3.16333E-03 1.52751E-02 1.35525E-20
 -1      2527 3.10368E-03 1.56374E-02 6.97955E-19
 -1      2528 2.99161E-03 1.59991E-02-6.03087E-19
 -1      2529 2.84114E-03 1.63602E-02-2.16840E-19
 -1      2530 2.66970E-03 1.67197E-02 1.35525E-19
 -1      2531 2.49443E-03 1.70748E-02 1.15196E-19
 -1      2532 2.32903E-03 1.74213E-02 1.35525E-20
 -1      2533 2.33677E-03 1.27224E-02 2.94767E-19
 -1      2534 2.49425E-03 1.30780E-02 1.93124E-19
 -1      2535 2.66550E-03 1.34425E-02 7.65718E-19
 -1      2536 2.83746E-03 1.38108E-02-3.38813E-20
 -1      2537 2.99219E-03 1.41790E-02-6.43745E-19
 -1      2538 3.10996E-03 1.45456E-02 2.71051E-20
 -1      2539 3.17391E-03 1.49106E-02 2.43945E-19
 -1      2540 3.17428E-03 1.52752E-02 4.20128E-19
 -1      2541 3.11096E-03 1.56406E-02 5.82759E-19
 -1      2542 2.99348E-03 1.60078E-02-5.35325E-19
 -1      2543 2.83862E-03 1.63772E-02 1.69407E-19
 -1      2544 2.66613E-03 1.67469E-02-1.96512E-19
 -1      2545 2.49406E-03 1.71134E-02-2.81215E-19
 -1      2546 2.33560E-03 1.74712E-02 5.99699E-19
 -1      2547 2.35348E-03 1.26486E-02-1.38913E-19
 -1      2548 2.50244E-03 1.30183E-02 2.37169E-19
 -1      2549 2.66831E-03 1.33970E-02-1.15196E-19
 -1      2550 2.83888E-03 1.37788E-02 1.82959E-19
 -1      2551 2.99575E-03 1.41587E-02-2.16840E-19
 -1      2552 3.11732E-03 1.45345E-02-2.03288E-20
 -1      2553 3.18409E-03 1.49064E-02-5.42101E-20
 -1      2554 3.18441E-03 1.52770E-02-8.80914E-20
 -1      2555 3.11816E-03 1.56492E-02 2.57498E-19
 -1      2556 2.99675E-03 1.60256E-02-3.52366E-19
 -1      2557 2.83961E-03 1.64067E-02-2.03288E-19
 -1      2558 2.66838E-03 1.67900E-02-2.16840E-19
 -1      2559 2.50157E-03 1.71707E-02 5.75982E-20
 -1      2560 2.35151E-03 1.75428E-02 3.65918E-19
 -1      2561 2.37960E-03 1.25521E-02-3.79471E-19
 -1      2562 2.51902E-03 1.29388E-02 2.27005E-19
 -1      2563 2.67784E-03 1.33348E-02 9.04631E-19
 -1      2564 2.84497E-03 1.37333E-02-8.80914E-20
 -1      2565 3.00202E-03 1.41285E-02 2.43945E-19
 -1      2566 3.12588E-03 1.45173E-02-1.21973E-19
 -1      2567 3.19466E-03 1.49000E-02 4.06576E-20
 -1      2568 3.19492E-03 1.52804E-02 5.21772E-19
 -1      2569 3.12652E-03 1.56634E-02-6.09864E-20
 -1      2570 3.00269E-03 1.60528E-02-7.11508E-20
 -1      2571 2.84523E-03 1.64492E-02-4.60786E-19
 -1      2572 2.67729E-03 1.68493E-02 2.54110E-19
 -1      2573 2.51739E-03 1.72473E-02 2.81215E-19
 -1      2574 2.37670E-03 1.76365E-02-1.76183E-19
 -1      2575 2.41515E-03 1.24320E-02 1.59242E-19
 -1      2576 2.54438E-03 1.28391E-02-6.97955E-19
 -1      2577 2.69489E-03 1.32553E-02 6.87791E-19
 -1      2578 2.85687E-03 1.36739E-02 2.50722E-19
 -1      2579 3.01226E-03 1.40880E-02-1.69407E-20
 -1      2580 3.13693E-03 1.44936E-02-4.37069E-19
 -1      2581 3.20693E-03 1.48912E-02-5.14996E-19
 -1      2582 3.20712E-03 1.52856E-02-1.15196E-19
 -1      2583 3.13736E-03 1.56834E-02 8.47033E-20
 -1      2584 3.01257E-03 1.60897E-02-3.38813E-20
 -1      2585 2.85660E-03 1.65050E-02 6.13252E-19
 -1      2586 2.69366E-03 1.69252E-02 1.35525E-19
 -1      2587 2.54186E-03 1.73435E-02-4.06576E-19
 -1      2588 2.41113E-03 1.77531E-02 2.64274E-19
 -1      2589 2.46020E-03 1.22872E-02-2.87991E-19
 -1      2590 2.57892E-03 1.27180E-02 1.86347E-19
 -1      2591 2.72023E-03 1.31580E-02-3.25261E-19
 -1      2592 2.87563E-03 1.36000E-02 3.08320E-19
 -1      2593 3.02775E-03 1.40367E-02 2.13452E-19
 -1      2594 3.15183E-03 1.44632E-02 2.16840E-19
 -1      2595 3.22226E-03 1.48798E-02-1.21973E-19
 -1      2596 3.22237E-03 1.52925E-02-1.76183E-19
 -1      2597 3.15203E-03 1.57095E-02-3.93023E-19
 -1      2598 3.02766E-03 1.61367E-02 1.21973E-19
 -1      2599 2.87478E-03 1.65745E-02-8.67362E-19
 -1      2600 2.71821E-03 1.70182E-02 1.03338E-18
 -1      2601 2.57537E-03 1.74603E-02 5.75982E-20
 -1      2602 2.45482E-03 1.78937E-02-6.53909E-19
 -1      2603 2.51492E-03 1.21161E-02 6.09864E-20
 -1      2604 2.62306E-03 1.25746E-02-2.57498E-19
 -1      2605 2.75457E-03 1.30418E-02-1.08420E-19
 -1      2606 2.90229E-03 1.35110E-02 5.25160E-19
 -1      2607 3.04974E-03 1.39741E-02-1.72795E-19
 -1      2608 3.17198E-03 1.44256E-02 2.64274E-19
 -1      2609 3.24208E-03 1.48658E-02 2.03288E-20
 -1      2610 3.24211E-03 1.53013E-02 2.71051E-19
 -1      2611 3.17192E-03 1.57418E-02-2.37169E-19
 -1      2612 3.04921E-03 1.61941E-02-1.42302E-19
 -1      2613 2.90080E-03 1.66584E-02 4.03188E-19
 -1      2614 2.75164E-03 1.71292E-02 3.35425E-19
 -1      2615 2.61825E-03 1.75986E-02-1.45012E-18
 -1      2616 2.50781E-03 1.80596E-02 3.11708E-19
 -1      2617 2.57984E-03 1.24824E-02-1.31460E-18
 -1      2618 2.48472E-03 1.23713E-02 1.24683E-18
 -1      2619 2.68690E-03 1.28342E-02 5.42101E-19
 -1      2620 2.61016E-03 1.27052E-02 4.47233E-19
 -1      2621 2.77928E-03 1.32093E-02-8.94467E-19
 -1      2622 2.72253E-03 1.30615E-02 9.48677E-20
 -1      2623 2.85489E-03 1.36050E-02-1.57209E-18
 -1      2624 2.81795E-03 1.34385E-02-1.30104E-18
 -1      2625 2.91239E-03 1.40178E-02-2.60209E-18
 -1      2626 2.89379E-03 1.38340E-02-2.38524E-18
 -1      2627 2.95108E-03 1.44437E-02-1.89735E-19
 -1      2628 2.94856E-03 1.42452E-02-1.27394E-18
 -1      2629 2.97066E-03 1.48779E-02-4.60786E-19
 -1      2630 2.98167E-03 1.46677E-02-1.89735E-19
 -1      2631 2.97105E-03 1.53151E-02 5.42101E-19
 -1      2632 2.99299E-03 1.50965E-02 7.31836E-19
 -1      2633 2.95223E-03 1.57499E-02 1.40946E-18
 -1      2634 2.98249E-03 1.55255E-02 1.35525E-18
 -1      2635 2.91423E-03 1.61769E-02 2.00577E-18
 -1      2636 2.95014E-03 1.59489E-02 1.78893E-18
 -1      2637 2.85730E-03 1.65913E-02 8.13152E-19
 -1      2638 2.89601E-03 1.63614E-02 1.02999E-18
 -1      2639 2.78211E-03 1.69890E-02 3.60497E-18
 -1      2640 2.82066E-03 1.67587E-02 2.03288E-18
 -1      2641 2.68997E-03 1.73666E-02 8.94467E-19
 -1      2642 2.72551E-03 1.71378E-02 2.64274E-18
 -1      2643 2.58297E-03 1.77210E-02 1.91091E-18
 -1      2644 2.61320E-03 1.74965E-02 1.96512E-18
 -1      2645 2.48760E-03 1.78330E-02 1.09775E-18
 -1      2646 2.51563E-03 1.25911E-02 8.13152E-20
 -1      2647 2.41496E-03 1.24735E-02 3.79471E-19
 -1      2648 2.64736E-03 1.29309E-02 3.25261E-19
 -1      2649 2.56047E-03 1.27996E-02 2.84603E-19
 -1      2650 2.76417E-03 1.32900E-02-7.18284E-19
 -1      2651 2.69513E-03 1.31438E-02-7.45389E-19
 -1      2652 2.86139E-03 1.36675E-02-1.27394E-18
 -1      2653 2.81233E-03 1.35057E-02-8.53809E-19
 -1      2654 2.93594E-03 1.40617E-02-2.11419E-18
 -1      2655 2.90703E-03 1.38844E-02-1.43657E-18
 -1      2656 2.98620E-03 1.44695E-02 0.00000E+00
 -1      2657 2.97610E-03 1.42784E-02-6.77626E-19
 -1      2658 3.01161E-03 1.48864E-02 1.89735E-19
 -1      2659 3.01804E-03 1.46842E-02 2.71051E-20
 -1      2660 3.01205E-03 1.53067E-02 1.62630E-18
 -1      2661 3.03235E-03 1.50965E-02 7.04731E-19
 -1      2662 2.98747E-03 1.57241E-02 6.77626E-19
 -1      2663 3.01893E-03 1.55091E-02 1.05710E-18
 -1      2664 2.93793E-03 1.61329E-02 1.13841E-18
 -1      2665 2.97780E-03 1.59156E-02 3.79471E-19
 -1      2666 2.86394E-03 1.65285E-02-4.33681E-19
 -1      2667 2.90937E-03 1.63107E-02-1.89735E-19
 -1      2668 2.76705E-03 1.69079E-02 2.57498E-18
 -1      2669 2.81508E-03 1.66911E-02 6.64074E-19
 -1      2670 2.65032E-03 1.72693E-02 1.15196E-18
 -1      2671 2.69804E-03 1.70549E-02 1.00289E-18
 -1      2672 2.51844E-03 1.76115E-02 2.07354E-18
 -1      2673 2.56325E-03 1.74014E-02 5.96311E-19
 -1      2674 2.41739E-03 1.77300E-02-1.89735E-19
 -1      2675 2.46060E-03 1.26780E-02 2.98156E-19
 -1      2676 2.35819E-03 1.25525E-02-4.33681E-19
 -1      2677 2.61044E-03 1.30098E-02-6.09864E-19
 -1      2678 2.51688E-03 1.28739E-02 1.08420E-19
 -1      2679 2.74717E-03 1.33577E-02-4.33681E-19
 -1      2680 2.66842E-03 1.32104E-02-7.72494E-19
 -1      2681 2.86357E-03 1.37214E-02-6.77626E-19
 -1      2682 2.80387E-03 1.35616E-02-3.93023E-19
 -1      2683 2.95427E-03 1.41004E-02-1.27394E-18
 -1      2684 2.91569E-03 1.39276E-02-1.02999E-18
 -1      2685 3.01605E-03 1.44926E-02-3.79471E-19
 -1      2686 2.99852E-03 1.43075E-02-1.05710E-18
 -1      2687 3.04743E-03 1.48940E-02-1.35525E-19
 -1      2688 3.04930E-03 1.46987E-02-6.23416E-19
 -1      2689 3.04790E-03 1.52989E-02 1.76183E-18
 -1      2690 3.06666E-03 1.50964E-02 8.40257E-19
 -1      2691 3.01740E-03 1.57008E-02 1.08420E-19
 -1      2692 3.05024E-03 1.54943E-02 8.67362E-19
 -1      2693 2.95635E-03 1.60940E-02-4.06576E-19
 -1      2694 3.00029E-03 1.58862E-02 2.71051E-20
 -1      2695 2.86616E-03 1.64743E-02-5.14996E-19
 -1      2696 2.91807E-03 1.62672E-02-3.25261E-19
 -1      2697 2.74999E-03 1.68398E-02 6.77626E-19
 -1      2698 2.80659E-03 1.66347E-02 2.16840E-19
 -1      2699 2.61319E-03 1.71897E-02 2.98156E-19
 -1      2700 2.67115E-03 1.69877E-02 2.03288E-19
 -1      2701 2.46302E-03 1.75238E-02 3.65918E-19
 -1      2702 2.51933E-03 1.73263E-02 2.43945E-19
 -1      2703 2.36013E-03 1.76501E-02-1.76183E-19
 -1      2704 2.41501E-03 1.27434E-02 6.64074E-19
 -1      2705 2.31401E-03 1.26087E-02 1.08420E-19
 -1      2706 2.57709E-03 1.30708E-02-7.18284E-19
 -1      2707 2.48004E-03 1.29282E-02 2.98156E-19
 -1      2708 2.72935E-03 1.34116E-02 2.98156E-19
 -1      2709 2.64343E-03 1.32608E-02 2.16840E-19
 -1      2710 2.86222E-03 1.37658E-02-6.77626E-20
 -1      2711 2.79355E-03 1.36056E-02 6.23416E-19
 -1      2712 2.96784E-03 1.41331E-02-1.08420E-19
 -1      2713 2.92043E-03 1.39627E-02 6.77626E-19
 -1      2714 3.04081E-03 1.45125E-02-1.13841E-18
 -1      2715 3.01615E-03 1.43318E-02-2.71051E-20
 -1      2716 3.07815E-03 1.49006E-02-2.98156E-19
 -1      2717 3.07556E-03 1.47110E-02-3.25261E-19
 -1      2718 3.07863E-03 1.52920E-02 1.21973E-18
 -1      2719 3.09596E-03 1.50962E-02 7.04731E-19
 -1      2720 3.04220E-03 1.56805E-02 4.87891E-19
 -1      2721 3.07652E-03 1.54816E-02 5.69206E-19
 -1      2722 2.96995E-03 1.60608E-02-5.42101E-19
 -1      2723 3.01794E-03 1.58614E-02 2.43945E-19
 -1      2724 2.86477E-03 1.64294E-02 1.62630E-19
 -1      2725 2.92277E-03 1.62315E-02 2.43945E-19
 -1      2726 2.73202E-03 1.67852E-02 2.43945E-19
 -1      2727 2.79613E-03 1.65900E-02 5.55654E-19
 -1      2728 2.57955E-03 1.71279E-02 9.89334E-19
 -1      2729 2.64590E-03 1.69366E-02 1.17907E-18
 -1      2730 2.41699E-03 1.74575E-02 2.16840E-19
 -1      2731 2.48210E-03 1.72712E-02 1.34170E-18
 -1      2732 2.31543E-03 1.75930E-02-3.11708E-19
 -1      2733 2.37906E-03 1.27874E-02 1.32815E-18
 -1      2734 2.28197E-03 1.26422E-02 9.35124E-19
 -1      2735 2.54827E-03 1.31136E-02-2.16840E-19
 -1      2736 2.45051E-03 1.29625E-02 7.86047E-19
 -1      2737 2.71182E-03 1.34513E-02 1.12486E-18
 -1      2738 2.62121E-03 1.32946E-02 9.35124E-19
 -1      2739 2.85830E-03 1.37998E-02-7.99599E-19
 -1      2740 2.78243E-03 1.36370E-02-4.74338E-19
 -1      2741 2.97729E-03 1.41592E-02 1.68051E-18
 -1      2742 2.92206E-03 1.39890E-02 1.08420E-19
 -1      2743 3.06085E-03 1.45288E-02-5.96311E-19
 -1      2744 3.02953E-03 1.43507E-02 8.67362E-19
 -1      2745 3.10401E-03 1.49060E-02 7.31836E-19
 -1      2746 3.09714E-03 1.47208E-02 1.11131E-18
 -1      2747 3.10450E-03 1.52861E-02 5.14996E-19
 -1      2748 3.12048E-03 1.50958E-02 7.86047E-19
 -1      2749 3.06224E-03 1.56637E-02 9.21572E-19
 -1      2750 3.09810E-03 1.54711E-02 4.87891E-19
 -1      2751 2.97937E-03 1.60340E-02-2.16840E-19
 -1      2752 3.03128E-03 1.58417E-02 5.14996E-19
 -1      2753 2.86074E-03 1.63946E-02 5.01444E-19
 -1      2754 2.92431E-03 1.62044E-02 4.33681E-19
 -1      2755 2.71426E-03 1.67447E-02 4.33681E-19
 -1      2756 2.78480E-03 1.65578E-02 5.55654E-19
 -1      2757 2.55037E-03 1.70842E-02 1.47723E-18
 -1      2758 2.62335E-03 1.69018E-02 9.35124E-19
 -1      2759 2.38057E-03 1.74126E-02 6.91179E-19
 -1      2760 2.45212E-03 1.72360E-02 1.02999E-18
 -1      2761 2.28286E-03 1.75586E-02 6.09864E-19
 -1      2762 2.35283E-03 1.28101E-02 2.57498E-19
 -1      2763 2.26158E-03 1.26531E-02 4.60786E-19
 -1      2764 2.52479E-03 1.31381E-02 1.58565E-18
 -1      2765 2.42873E-03 1.29767E-02 5.01444E-19
 -1      2766 2.69570E-03 1.34762E-02 1.26039E-18
 -1      2767 2.60275E-03 1.33117E-02 1.78893E-18
 -1      2768 2.85282E-03 1.38230E-02-1.47723E-18
 -1      2769 2.77162E-03 1.36552E-02 3.52366E-19
 -1      2770 2.98339E-03 1.41781E-02 1.17907E-18
 -1      2771 2.92155E-03 1.40060E-02-1.21973E-19
 -1      2772 3.07668E-03 1.45410E-02 3.79471E-19
 -1      2773 3.03935E-03 1.43638E-02 8.13152E-20
 -1      2774 3.12537E-03 1.49100E-02 1.35525E-18
 -1      2775 3.11455E-03 1.47276E-02 1.00289E-18
 -1      2776 3.12586E-03 1.52813E-02-2.43945E-19
 -1      2777 3.14067E-03 1.50954E-02 1.62630E-19
 -1      2778 3.07804E-03 1.56506E-02 8.67362E-19
 -1      2779 3.11548E-03 1.54633E-02 1.35525E-19
 -1      2780 2.98538E-03 1.60143E-02 1.35525E-19
 -1      2781 3.04103E-03 1.58277E-02 6.77626E-19
 -1      2782 2.85507E-03 1.63705E-02-8.26704E-19
 -1      2783 2.92364E-03 1.61864E-02-6.91179E-19
 -1      2784 2.69783E-03 1.67188E-02 2.19551E-18
 -1      2785 2.77372E-03 1.65385E-02 1.00289E-18
 -1      2786 2.52647E-03 1.70588E-02 7.45389E-19
 -1      2787 2.60450E-03 1.68837E-02 1.42302E-18
 -1      2788 2.35382E-03 1.73889E-02 8.40257E-19
 -1      2789 2.42985E-03 1.72206E-02 2.71051E-19
 -1      2790 2.26191E-03 1.75466E-02-1.27394E-18
 -1      2791 2.33629E-03 1.28115E-02-5.96311E-19
 -1      2792 2.25236E-03 1.26415E-02 4.20128E-19
 -1      2793 2.50737E-03 1.31441E-02 1.82959E-18
 -1      2794 2.41506E-03 1.29710E-02 4.87891E-19
 -1      2795 2.68205E-03 1.34860E-02 1.12486E-18
 -1      2796 2.58897E-03 1.33116E-02 1.15196E-18
 -1      2797 2.84687E-03 1.38347E-02-8.94467E-19
 -1      2798 2.76225E-03 1.36597E-02 2.43945E-19
 -1      2799 2.98702E-03 1.41891E-02 2.57498E-19
 -1      2800 2.91996E-03 1.40130E-02-8.13152E-20
 -1      2801 3.08898E-03 1.45487E-02-5.42101E-20
 -1      2802 3.04648E-03 1.43704E-02 2.98156E-19
 -1      2803 3.14278E-03 1.49124E-02 3.25261E-19
 -1      2804 3.12847E-03 1.47314E-02-6.50521E-19
 -1      2805 3.14325E-03 1.52778E-02-1.27394E-18
 -1      2806 3.15713E-03 1.50947E-02-1.02999E-18
 -1      2807 3.09027E-03 1.56418E-02 1.24683E-18
 -1      2808 3.12935E-03 1.54583E-02 1.35525E-19
 -1      2809 2.98887E-03 1.60021E-02 8.13152E-20
 -1      2810 3.04804E-03 1.58198E-02 9.35124E-19
 -1      2811 2.84888E-03 1.63576E-02-1.28749E-18
 -1      2812 2.92182E-03 1.61781E-02-6.36969E-19
 -1      2813 2.68382E-03 1.67078E-02 2.18196E-18
 -1      2814 2.76402E-03 1.65326E-02-4.06576E-20
 -1      2815 2.50857E-03 1.70516E-02 4.20128E-19
 -1      2816 2.59027E-03 1.68823E-02 6.91179E-19
 -1      2817 2.33673E-03 1.73863E-02 4.06576E-20
 -1      2818 2.41564E-03 1.72250E-02 5.42101E-20
 -1      2819 2.25208E-03 1.75569E-02 1.12486E-18
 -1      2820 2.32939E-03 1.27917E-02-1.02999E-18
 -1      2821 2.25382E-03 1.26072E-02-1.38236E-18
 -1      2822 2.49664E-03 1.31315E-02 3.38813E-19
 -1      2823 2.40977E-03 1.29451E-02-1.26039E-18
 -1      2824 2.67193E-03 1.34803E-02 3.52366E-19
 -1      2825 2.58070E-03 1.32944E-02-4.06576E-20
 -1      2826 2.84159E-03 1.38344E-02-5.14996E-19
 -1      2827 2.75545E-03 1.36503E-02-4.06576E-20
 -1      2828 2.98921E-03 1.41917E-02 3.93023E-19
 -1      2829 2.91841E-03 1.40095E-02 1.49078E-19
 -1      2830 3.09857E-03 1.45514E-02-1.00289E-18
 -1      2831 3.05191E-03 1.43701E-02-5.14996E-19
 -1      2832 3.15695E-03 1.49131E-02-6.77626E-20
 -1      2833 3.13974E-03 1.47317E-02-4.60786E-19
 -1      2834 3.15739E-03 1.52756E-02-1.07065E-18
 -1      2835 3.17065E-03 1.50939E-02-1.35525E-19
 -1      2836 3.09977E-03 1.56376E-02 1.92446E-18
 -1      2837 3.14055E-03 1.54564E-02 8.80914E-19
 -1      2838 2.99086E-03 1.59981E-02-6.36969E-19
 -1      2839 3.05330E-03 1.58184E-02 2.57498E-19
 -1      2840 2.84329E-03 1.63564E-02-1.04354E-18
 -1      2841 2.92001E-03 1.61799E-02-1.34170E-18
 -1      2842 2.67327E-03 1.67120E-02 8.67362E-19
 -1      2843 2.75683E-03 1.65404E-02-2.84603E-19
 -1      2844 2.49732E-03 1.70627E-02 3.25261E-19
 -1      2845 2.58150E-03 1.68980E-02 2.30393E-19
 -1      2846 2.32923E-03 1.74047E-02 3.38813E-19
 -1      2847 2.40976E-03 1.72493E-02 1.76183E-19
 -1      2848 2.25289E-03 1.75896E-02-1.89735E-18
 -1      2849 2.33204E-03 1.27504E-02-6.91179E-19
 -1      2850 2.26556E-03 1.25500E-02 2.43945E-19
 -1      2851 2.49316E-03 1.31001E-02-4.06576E-20
 -1      2852 2.41309E-03 1.28990E-02 7.31836E-19
 -1      2853 2.66631E-03 1.34588E-02 1.05710E-18
 -1      2854 2.57872E-03 1.32596E-02 1.42302E-18
 -1      2855 2.83814E-03 1.38216E-02-1.89735E-19
 -1      2856 2.75231E-03 1.36265E-02 7.04731E-19
 -1      2857 2.99106E-03 1.41854E-02-9.89334E-19
 -1      2858 2.91810E-03 1.39950E-02-8.67362E-19
 -1      2859 3.10644E-03 1.45489E-02-4.20128E-19
 -1      2860 3.05674E-03 1.43625E-02-1.24683E-18
 -1      2861 3.16874E-03 1.49119E-02 3.65918E-19
 -1      2862 3.14935E-03 1.47282E-02 2.84603E-19
 -1      2863 3.16914E-03 1.52750E-02 7.58942E-19
 -1      2864 3.18216E-03 1.50929E-02 6.64074E-19
 -1      2865 3.10751E-03 1.56384E-02 1.87025E-18
 -1      2866 3.15007E-03 1.54578E-02 1.74828E-18
 -1      2867 2.99248E-03 1.60025E-02-1.77538E-18
 -1      2868 3.05794E-03 1.58240E-02 2.30393E-19
 -1      2869 2.83948E-03 1.63674E-02-2.03288E-19
 -1      2870 2.91938E-03 1.61923E-02-8.13152E-19
 -1      2871 2.66719E-03 1.67317E-02 1.62630E-19
 -1      2872 2.75325E-03 1.65621E-02-1.49078E-19
 -1      2873 2.49327E-03 1.70922E-02-2.16840E-19
 -1      2874 2.57897E-03 1.69307E-02-1.13841E-18
 -1      2875 2.33122E-03 1.74443E-02 5.69206E-19
 -1      2876 2.41243E-03 1.72935E-02 5.55654E-19
 -1      2877 2.26388E-03 1.76450E-02-1.38236E-18
 -1      2878 2.34417E-03 1.26873E-02 2.98156E-19
 -1      2879 2.28724E-03 1.24693E-02-5.21772E-19
 -1      2880 2.49743E-03 1.30498E-02 5.82759E-19
 -1      2881 2.42522E-03 1.28322E-02 1.89735E-19
 -1      2882 2.66615E-03 1.34212E-02 1.01644E-18
 -1      2883 2.58374E-03 1.32071E-02 5.69206E-19
 -1      2884 2.83767E-03 1.37960E-02 8.13152E-20
 -1      2885 2.75390E-03 1.35879E-02 1.49078E-19
 -1      2886 2.99376E-03 1.41698E-02-1.23328E-18
 -1      2887 2.92023E-03 1.39692E-02-2.03288E-19
 -1      2888 3.11368E-03 1.45406E-02-8.13152E-20
 -1      2889 3.06217E-03 1.43472E-02-8.13152E-19
 -1      2890 3.17917E-03 1.49087E-02 2.98156E-19
 -1      2891 3.15842E-03 1.47208E-02-2.71051E-19
 -1      2892 3.17952E-03 1.52759E-02 3.65918E-19
 -1      2893 3.19275E-03 1.50917E-02 1.08420E-19
 -1      2894 3.11460E-03 1.56443E-02 1.28749E-18
 -1      2895 3.15903E-03 1.54627E-02 3.79471E-19
 -1      2896 2.99491E-03 1.60158E-02-1.49078E-18
 -1      2897 3.06314E-03 1.58368E-02 4.06576E-20
 -1      2898 2.83861E-03 1.63907E-02 4.06576E-20
 -1      2899 2.92115E-03 1.62156E-02-6.64074E-19
 -1      2900 2.66649E-03 1.67670E-02-9.08019E-19
 -1      2901 2.75435E-03 1.65982E-02-6.09864E-19
 -1      2902 2.49689E-03 1.71404E-02-2.84603E-19
 -1      2903 2.58337E-03 1.69809E-02-2.43945E-19
 -1      2904 2.34260E-03 1.75052E-02 1.68051E-18
 -1      2905 2.42382E-03 1.73579E-02 7.58942E-19
 -1      2906 2.28469E-03 1.77234E-02-4.33681E-19
 -1      2907 2.36571E-03 1.26020E-02-9.75782E-19
 -1      2908 2.31860E-03 1.23643E-02-1.82959E-19
 -1      2909 2.50987E-03 1.29800E-02 7.04731E-19
 -1      2910 2.44635E-03 1.27442E-02-5.69206E-19
 -1      2911 2.67230E-03 1.33672E-02 1.13841E-18
 -1      2912 2.59639E-03 1.31363E-02 1.77538E-18
 -1      2913 2.84135E-03 1.37571E-02 3.65918E-19
 -1      2914 2.76123E-03 1.35342E-02 7.58942E-19
 -1      2915 2.99856E-03 1.41445E-02 4.20128E-19
 -1      2916 2.92603E-03 1.39317E-02 9.48677E-20
 -1      2917 3.12149E-03 1.45264E-02-3.65918E-19
 -1      2918 3.06947E-03 1.43238E-02-3.25261E-19
 -1      2919 3.18940E-03 1.49034E-02-2.71051E-20
 -1      2920 3.16817E-03 1.47092E-02-3.65918E-19
 -1      2921 3.18969E-03 1.52785E-02 7.45389E-19
 -1      2922 3.20362E-03 1.50902E-02 9.08019E-19
 -1      2923 3.12223E-03 1.56558E-02 3.52366E-19
 -1      2924 3.16865E-03 1.54713E-02 4.74338E-19
 -1      2925 2.99939E-03 1.60384E-02-5.55654E-19
 -1      2926 3.07018E-03 1.58571E-02-5.42101E-20
 -1      2927 2.84184E-03 1.64268E-02-1.19262E-18
 -1      2928 2.92655E-03 1.62502E-02-6.91179E-19
 -1      2929 2.67206E-03 1.68184E-02-1.35525E-20
 -1      2930 2.76113E-03 1.66490E-02-2.43945E-19
 -1      2931 2.50862E-03 1.72076E-02 5.14996E-19
 -1      2932 2.59533E-03 1.70488E-02 2.71051E-19
 -1      2933 2.36328E-03 1.75880E-02-4.06576E-20
 -1      2934 2.44410E-03 1.74431E-02 2.03288E-19
 -1      2935 2.31503E-03 1.78257E-02 0.00000E+00
 -1      2936 2.39666E-03 1.24935E-02-1.89735E-19
 -1      2937 2.35952E-03 1.22340E-02 1.14519E-18
 -1      2938 2.53090E-03 1.28902E-02-8.80914E-19
 -1      2939 2.47667E-03 1.26343E-02-7.99599E-19
 -1      2940 2.68560E-03 1.32962E-02 2.43945E-18
 -1      2941 2.61729E-03 1.30466E-02 5.42101E-20
 -1      2942 2.85028E-03 1.37046E-02 3.52366E-19
 -1      2943 2.77527E-03 1.34649E-02 1.57209E-18
 -1      2944 3.00670E-03 1.41091E-02 2.71051E-19
 -1      2945 2.93669E-03 1.38820E-02 4.74338E-19
 -1      2946 3.13116E-03 1.45060E-02-6.91179E-19
 -1      2947 3.07993E-03 1.42920E-02-5.69206E-19
 -1      2948 3.20067E-03 1.48958E-02-8.94467E-19
 -1      2949 3.17992E-03 1.46932E-02-1.26039E-18
 -1      2950 3.20090E-03 1.52828E-02 7.86047E-19
 -1      2951 3.21606E-03 1.50883E-02-6.91179E-19
 -1      2952 3.13169E-03 1.56729E-02 2.71051E-20
 -1      2953 3.18026E-03 1.54836E-02-2.57498E-19
 -1      2954 3.00719E-03 1.60705E-02-2.16840E-19
 -1      2955 3.08035E-03 1.58853E-02-1.21973E-19
 -1      2956 2.85028E-03 1.64761E-02 4.87891E-19
 -1      2957 2.93677E-03 1.62963E-02 1.35525E-18
 -1      2958 2.68471E-03 1.68861E-02 5.55654E-19
 -1      2959 2.77457E-03 1.67147E-02 1.02999E-18
 -1      2960 2.52883E-03 1.72942E-02 0.00000E+00
 -1      2961 2.61545E-03 1.71349E-02 1.62630E-19
 -1      2962 2.39322E-03 1.76934E-02 9.48677E-20
 -1      2963 2.47344E-03 1.75496E-02-8.13152E-19
 -1      2964 2.35469E-03 1.79526E-02-1.01644E-19
 -1      2965 2.43707E-03 1.23609E-02-6.50521E-19
 -1      2966 2.40993E-03 1.20770E-02-7.52165E-19
 -1      2967 2.56092E-03 1.27797E-02-5.01444E-19
 -1      2968 2.51643E-03 1.25013E-02-6.77626E-19
 -1      2969 2.70681E-03 1.32076E-02 4.33681E-19
 -1      2970 2.64700E-03 1.29374E-02-9.48677E-20
 -1      2971 2.86556E-03 1.36378E-02 8.40257E-19
 -1      2972 2.79695E-03 1.33793E-02-2.30393E-19
 -1      2973 3.01947E-03 1.40631E-02 4.60786E-19
 -1      2974 2.95343E-03 1.38195E-02 6.23416E-19
 -1      2975 3.14401E-03 1.44789E-02-1.89735E-19
 -1      2976 3.09489E-03 1.42514E-02 8.53809E-19
 -1      2977 3.21433E-03 1.48857E-02-1.04354E-18
 -1      2978 3.19504E-03 1.46725E-02 0.00000E+00
 -1      2979 3.21448E-03 1.52889E-02-5.42101E-19
 -1      2980 3.23147E-03 1.50862E-02-3.25261E-19
 -1      2981 3.14432E-03 1.56960E-02-3.52366E-19
 -1      2982 3.19523E-03 1.55000E-02-6.50521E-19
 -1      2983 3.01958E-03 1.61125E-02 5.42101E-20
 -1      2984 3.09500E-03 1.59216E-02-5.28549E-19
 -1      2985 2.86501E-03 1.65389E-02-4.20128E-19
 -1      2986 2.95302E-03 1.63544E-02-7.72494E-19
 -1      2987 2.70518E-03 1.69708E-02 1.78893E-18
 -1      2988 2.79557E-03 1.67960E-02 8.40257E-19
 -1      2989 2.55790E-03 1.74009E-02-4.47233E-19
 -1      2990 2.64425E-03 1.72398E-02 2.05998E-18
 -1      2991 2.43239E-03 1.78222E-02-2.98156E-19
 -1      2992 2.51200E-03 1.76783E-02-1.28749E-18
 -1      2993 2.40353E-03 1.81053E-02-1.50433E-18
 -1      2994 2.48706E-03 1.22028E-02-2.98156E-19
 -1      2995 2.46991E-03 1.18918E-02-1.35525E-19
 -1      2996 2.60034E-03 1.26473E-02-3.25261E-19
 -1      2997 2.56587E-03 1.23440E-02-5.28549E-19
 -1      2998 2.73668E-03 1.31008E-02-5.14996E-19
 -1      2999 2.68608E-03 1.28076E-02-8.13152E-19
 -1      3000 2.88825E-03 1.35563E-02 1.23328E-18
 -1      3001 2.82713E-03 1.32767E-02 1.00289E-18
 -1      3002 3.03814E-03 1.40060E-02 1.62630E-19
 -1      3003 2.97739E-03 1.37438E-02 6.23416E-19
 -1      3004 3.16143E-03 1.44448E-02 8.94467E-19
 -1      3005 3.11571E-03 1.42015E-02 4.06576E-20
 -1      3006 3.23178E-03 1.48730E-02-1.89735E-19
 -1      3007 3.21495E-03 1.46469E-02 1.46367E-18
 -1      3008 3.23186E-03 1.52968E-02 4.20128E-19
 -1      3009 3.25127E-03 1.50835E-02 7.31836E-19
 -1      3010 3.16150E-03 1.57253E-02-1.00289E-18
 -1      3011 3.21498E-03 1.55204E-02 3.79471E-19
 -1      3012 3.03783E-03 1.61648E-02-5.42101E-20
 -1      3013 3.11547E-03 1.59662E-02-1.23328E-18
 -1      3014 2.88709E-03 1.66157E-02-1.02999E-18
 -1      3015 2.97644E-03 1.64249E-02-8.26704E-19
 -1      3016 2.73420E-03 1.70729E-02 2.43945E-18
 -1      3017 2.82498E-03 1.68934E-02 1.58565E-18
 -1      3018 2.59617E-03 1.75286E-02-2.69695E-18
 -1      3019 2.68227E-03 1.73645E-02-2.12775E-18
 -1      3020 2.48085E-03 1.79756E-02-1.09775E-18
 -1      3021 2.55996E-03 1.78304E-02-1.54499E-18
 -1      3022 2.46149E-03 1.82854E-02 9.48677E-20
 -1      3023 2.54682E-03 1.20176E-02 6.77626E-21
 -1      3024 2.64955E-03 1.24918E-02 2.43945E-19
 -1      3025 2.77588E-03 1.29746E-02-5.42101E-20
 -1      3026 2.91931E-03 1.34591E-02 1.49078E-18
 -1      3027 3.06392E-03 1.39374E-02 0.00000E+00
 -1      3028 3.18479E-03 1.44035E-02 0.00000E+00
 -1      3029 3.25449E-03 1.48575E-02 6.23416E-19
 -1      3030 3.25447E-03 1.53066E-02-1.08420E-18
 -1      3031 3.18460E-03 1.57609E-02-1.04354E-18
 -1      3032 3.06315E-03 1.62277E-02-5.28549E-19
 -1      3033 2.91745E-03 1.67071E-02 7.86047E-19
 -1      3034 2.77241E-03 1.71934E-02-2.98156E-19
 -1      3035 2.64398E-03 1.76783E-02-1.51788E-18
 -1      3036 2.53865E-03 1.81551E-02 1.21973E-19
 -1      3037 2.30008E-03 1.83117E-02 2.03288E-19
 -1      3038 2.17891E-03 1.86024E-02-8.94467E-19
 -1      3039 2.05579E-03 1.88546E-02 9.79276E-19
 -1      3040 1.93001E-03 1.90625E-02 1.49417E-18
 -1      3041 1.80100E-03 1.92216E-02 1.01644E-18
 -1      3042 1.66882E-03 1.93289E-02 2.87144E-18
 -1      3043 1.53429E-03 1.93830E-02 2.03966E-18
 -1      3044 1.39889E-03 1.93830E-02 7.30142E-19
 -1      3045 1.26436E-03 1.93289E-02 6.99649E-19
 -1      3046 1.13218E-03 1.92216E-02 1.54160E-19
 -1      3047 1.00318E-03 1.90625E-02-5.61583E-19
 -1      3048 8.77390E-04 1.88546E-02-1.39030E-18
 -1      3049 7.54272E-04 1.86024E-02-1.77877E-20
 -1      3050 6.33101E-04 1.83117E-02-1.91429E-19
 -1      3051 2.21791E-03 1.82195E-02-9.46983E-19
 -1      3052 2.09860E-03 1.85294E-02-3.16790E-19
 -1      3053 1.98303E-03 1.88042E-02-1.48697E-18
 -1      3054 1.86950E-03 1.90344E-02 2.03838E-18
 -1      3055 1.75604E-03 1.92127E-02 1.04185E-19
 -1      3056 1.64129E-03 1.93338E-02 1.67882E-18
 -1      3057 1.52504E-03 1.93951E-02 2.08540E-18
 -1      3058 1.40815E-03 1.93951E-02 2.20229E-19
 -1      3059 1.29190E-03 1.93338E-02 6.92873E-19
 -1      3060 1.17715E-03 1.92127E-02-7.47083E-19
 -1      3061 1.06368E-03 1.90344E-02-2.42675E-19
 -1      3062 9.50149E-04 1.88042E-02-1.66950E-18
 -1      3063 8.34582E-04 1.85294E-02-9.14796E-20
 -1      3064 7.15276E-04 1.82195E-02 5.08220E-21
 -1      3065 2.15221E-03 1.81432E-02-1.16552E-18
 -1      3066 2.03264E-03 1.84650E-02-1.31968E-18
 -1      3067 1.92132E-03 1.87569E-02-4.36645E-19
 -1      3068 1.81653E-03 1.90062E-02 1.32285E-18
 -1      3069 1.71561E-03 1.92019E-02-1.28918E-18
 -1      3070 1.61605E-03 1.93364E-02 1.73811E-18
 -1      3071 1.51647E-03 1.94047E-02 1.71948E-18
 -1      3072 1.41671E-03 1.94047E-02-3.08320E-19
 -1      3073 1.31713E-03 1.93364E-02-1.13502E-19
 -1      3074 1.21758E-03 1.92019E-02 2.02441E-19
 -1      3075 1.11665E-03 1.90062E-02-7.33319E-19
 -1      3076 1.01187E-03 1.87569E-02 1.23667E-19
 -1      3077 9.00544E-04 1.84650E-02-1.38913E-19
 -1      3078 7.80974E-04 1.81432E-02-7.82658E-19
 -1      3079 2.10210E-03 1.80839E-02-3.82859E-19
 -1      3080 1.98066E-03 1.84113E-02-1.01305E-18
 -1      3081 1.87079E-03 1.87150E-02-4.69256E-19
 -1      3082 1.77156E-03 1.89796E-02-1.06011E-19
 -1      3083 1.68021E-03 1.91908E-02-2.56312E-18
 -1      3084 1.59346E-03 1.93376E-02 6.67462E-19
 -1      3085 1.50872E-03 1.94128E-02 1.11470E-18
 -1      3086 1.42447E-03 1.94128E-02 2.15146E-19
 -1      3087 1.33972E-03 1.93376E-02 4.06576E-19
 -1      3088 1.25298E-03 1.91908E-02 4.04035E-19
 -1      3089 1.16163E-03 1.89796E-02-1.23190E-19
 -1      3090 1.06239E-03 1.87150E-02 1.20279E-19
 -1      3091 9.52526E-04 1.84113E-02-4.91279E-19
 -1      3092 8.31086E-04 1.80839E-02 7.36919E-19
 -1      3093 2.06653E-03 1.80429E-02-9.82558E-20
 -1      3094 1.94206E-03 1.83701E-02-6.92873E-19
 -1      3095 1.83139E-03 1.86806E-02-2.32934E-19
 -1      3096 1.73485E-03 1.89566E-02 7.70800E-19
 -1      3097 1.65022E-03 1.91809E-02-8.52750E-19
 -1      3098 1.57383E-03 1.93389E-02-4.82809E-19
 -1      3099 1.50189E-03 1.94205E-02 4.77727E-19
 -1      3100 1.43130E-03 1.94205E-02-9.35124E-19
 -1      3101 1.35935E-03 1.93389E-02 5.59042E-20
 -1      3102 1.28296E-03 1.91809E-02 2.27217E-19
 -1      3103 1.19834E-03 1.89566E-02-1.77453E-19
 -1      3104 1.10179E-03 1.86806E-02-8.47033E-19
 -1      3105 9.91122E-04 1.83701E-02 7.86047E-19
 -1      3106 8.66652E-04 1.80429E-02 0.00000E+00
 -1      3107 2.04446E-03 1.80210E-02-1.25700E-18
 -1      3108 1.91615E-03 1.83433E-02-1.59242E-19
 -1      3109 1.80287E-03 1.86557E-02 2.01594E-19
 -1      3110 1.70653E-03 1.89394E-02-1.82112E-19
 -1      3111 1.62595E-03 1.91741E-02-4.96626E-19
 -1      3112 1.55740E-03 1.93419E-02-9.20301E-19
 -1      3113 1.49608E-03 1.94293E-02-4.39610E-19
 -1      3114 1.43710E-03 1.94293E-02-7.49624E-19
 -1      3115 1.37578E-03 1.93419E-02 4.24364E-19
 -1      3116 1.30724E-03 1.91741E-02 1.05032E-19
 -1      3117 1.22665E-03 1.89394E-02 6.52215E-19
 -1      3118 1.13032E-03 1.86557E-02-1.53652E-18
 -1      3119 1.01703E-03 1.83433E-02-5.42101E-20
 -1      3120 8.88725E-04 1.80210E-02 3.01544E-19
 -1      3121 2.03484E-03 1.80194E-02-1.02322E-18
 -1      3122 1.90214E-03 1.83325E-02-7.52165E-19
 -1      3123 1.78486E-03 1.86426E-02-1.76183E-19
 -1      3124 1.68661E-03 1.89301E-02-1.25784E-18
 -1      3125 1.60756E-03 1.91725E-02-8.72020E-19
 -1      3126 1.54439E-03 1.93483E-02-2.21515E-18
 -1      3127 1.49137E-03 1.94408E-02 2.37169E-19
 -1      3128 1.44181E-03 1.94408E-02 1.02025E-18
 -1      3129 1.38880E-03 1.93483E-02 6.48615E-19
 -1      3130 1.32562E-03 1.91725E-02 1.16467E-19
 -1      3131 1.24657E-03 1.89301E-02-9.14796E-19
 -1      3132 1.14833E-03 1.86426E-02-5.98005E-19
 -1      3133 1.03104E-03 1.83325E-02 7.96211E-20
 -1      3134 8.98345E-04 1.80194E-02-3.52366E-19
 -1      3135 2.03669E-03 1.80389E-02 4.60786E-19
 -1      3136 1.89922E-03 1.83396E-02-1.53144E-18
 -1      3137 1.77687E-03 1.86436E-02 4.43845E-19
 -1      3138 1.67494E-03 1.89312E-02-2.05067E-18
 -1      3139 1.59516E-03 1.91783E-02-9.69006E-19
 -1      3140 1.53491E-03 1.93603E-02-3.93023E-19
 -1      3141 1.48783E-03 1.94569E-02 5.96311E-19
 -1      3142 1.44536E-03 1.94569E-02 1.18055E-20
 -1      3143 1.39827E-03 1.93603E-02-5.93135E-19
 -1      3144 1.33802E-03 1.91783E-02 1.40099E-18
 -1      3145 1.25824E-03 1.89312E-02 5.97158E-19
 -1      3146 1.15631E-03 1.86436E-02-9.84252E-19
 -1      3147 1.03396E-03 1.83396E-02 2.20229E-20
 -1      3148 8.96490E-04 1.80389E-02-7.55553E-19
 -1      3149 2.04914E-03 1.80806E-02-9.48677E-19
 -1      3150 1.90659E-03 1.83662E-02 1.35525E-19
 -1      3151 1.77836E-03 1.86606E-02-3.37119E-19
 -1      3152 1.67127E-03 1.89449E-02-2.13452E-19
 -1      3153 1.58872E-03 1.91939E-02-1.02999E-18
 -1      3154 1.52905E-03 1.93800E-02-4.85773E-19
 -1      3155 1.48549E-03 1.94799E-02-7.69529E-19
 -1      3156 1.44770E-03 1.94799E-02-1.17738E-18
 -1      3157 1.40413E-03 1.93800E-02 2.34628E-19
 -1      3158 1.34446E-03 1.91939E-02-2.65968E-19
 -1      3159 1.26191E-03 1.89449E-02-4.79421E-19
 -1      3160 1.15483E-03 1.86606E-02-4.89585E-19
 -1      3161 1.02660E-03 1.83662E-02 2.30393E-19
 -1      3162 8.84048E-04 1.80806E-02 1.11808E-19
 -1      3163 2.07139E-03 1.81457E-02-1.18923E-18
 -1      3164 1.92347E-03 1.84140E-02 1.08759E-18
 -1      3165 1.78873E-03 1.86960E-02 1.81265E-19
 -1      3166 1.67527E-03 1.89738E-02-1.02660E-18
 -1      3167 1.58814E-03 1.92217E-02 1.92107E-18
 -1      3168 1.52682E-03 1.94100E-02 3.83706E-19
 -1      3169 1.48436E-03 1.95120E-02 1.87533E-18
 -1      3170 1.44882E-03 1.95120E-02-5.67512E-19
 -1      3171 1.40636E-03 1.94100E-02-1.13841E-18
 -1      3172 1.34505E-03 1.92217E-02 5.82759E-19
 -1      3173 1.25791E-03 1.89738E-02-4.94667E-19
 -1      3174 1.14445E-03 1.86960E-02 5.77676E-19
 -1      3175 1.00971E-03 1.84140E-02 2.06676E-19
 -1      3176 8.61793E-04 1.81457E-02 2.71051E-20
 -1      3177 2.10281E-03 1.82352E-02-1.33492E-18
 -1      3178 1.94919E-03 1.84846E-02-1.03677E-18
 -1      3179 1.80741E-03 1.87518E-02 6.45439E-19
 -1      3180 1.68656E-03 1.90203E-02 1.27055E-19
 -1      3181 1.59323E-03 1.92645E-02 1.13502E-19
 -1      3182 1.52817E-03 1.94528E-02-7.94517E-19
 -1      3183 1.48446E-03 1.95559E-02 4.66715E-19
 -1      3184 1.44872E-03 1.95559E-02-3.69306E-19
 -1      3185 1.40501E-03 1.94528E-02-2.82570E-18
 -1      3186 1.33995E-03 1.92645E-02 5.13302E-19
 -1      3187 1.24662E-03 1.90203E-02 1.03846E-18
 -1      3188 1.12577E-03 1.87518E-02 1.59412E-18
 -1      3189 9.83989E-04 1.84846E-02 1.06726E-18
 -1      3190 8.30372E-04 1.82352E-02 3.01544E-19
 -1      3191 2.14288E-03 1.83507E-02-1.35525E-20
 -1      3192 1.98315E-03 1.85799E-02 1.04016E-18
 -1      3193 1.83383E-03 1.88303E-02-1.01644E-19
 -1      3194 1.70473E-03 1.90870E-02 5.42101E-19
 -1      3195 1.60378E-03 1.93248E-02 2.03288E-20
 -1      3196 1.53301E-03 1.95112E-02 1.02830E-18
 -1      3197 1.48576E-03 1.96143E-02-8.21622E-19
 -1      3198 1.44742E-03 1.96143E-02 1.50094E-18
 -1      3199 1.40017E-03 1.95112E-02-2.29377E-18
 -1      3200 1.32940E-03 1.93248E-02 2.84603E-19
 -1      3201 1.22845E-03 1.90870E-02 1.05032E-19
 -1      3202 1.09935E-03 1.88303E-02 1.30612E-18
 -1      3203 9.50033E-04 1.85799E-02 1.32137E-18
 -1      3204 7.90301E-04 1.83507E-02 5.48877E-19
 -1      3205 2.19121E-03 1.84935E-02-1.76183E-19
 -1      3206 2.02484E-03 1.87016E-02-1.08420E-19
 -1      3207 1.86747E-03 1.89336E-02 6.77626E-20
 -1      3208 1.72934E-03 1.91764E-02-7.28448E-19
 -1      3209 1.61950E-03 1.94056E-02-4.98055E-19
 -1      3210 1.54122E-03 1.95881E-02-5.37019E-19
 -1      3211 1.48823E-03 1.96900E-02 3.04932E-20
 -1      3212 1.44496E-03 1.96900E-02-5.08220E-20
 -1      3213 1.39196E-03 1.95881E-02 6.96261E-19
 -1      3214 1.31368E-03 1.94056E-02 1.34001E-18
 -1      3215 1.20384E-03 1.91764E-02 1.52466E-18
 -1      3216 1.06571E-03 1.89336E-02-1.11808E-18
 -1      3217 9.08344E-04 1.87016E-02-3.38813E-20
 -1      3218 7.41976E-04 1.84935E-02 3.11708E-19
 -1      3219 2.24749E-03 1.86654E-02-3.25261E-19
 -1      3220 2.07385E-03 1.88517E-02-7.08120E-19
 -1      3221 1.90789E-03 1.90641E-02 3.93023E-19
 -1      3222 1.76001E-03 1.92912E-02-6.09864E-20
 -1      3223 1.64012E-03 1.95097E-02-5.67512E-19
 -1      3224 1.55264E-03 1.96865E-02 1.48400E-18
 -1      3225 1.49181E-03 1.97863E-02 1.16891E-19
 -1      3226 1.44137E-03 1.97863E-02-1.15027E-18
 -1      3227 1.38054E-03 1.96865E-02-1.45859E-18
 -1      3228 1.29306E-03 1.95097E-02 6.33581E-19
 -1      3229 1.17317E-03 1.92912E-02-1.36881E-18
 -1      3230 1.02529E-03 1.90641E-02-1.31798E-18
 -1      3231 8.59334E-04 1.88517E-02 9.79170E-19
 -1      3232 6.85697E-04 1.86654E-02-5.21772E-19
 -1      3233 2.34636E-03 1.83621E-02-4.20128E-19
 -1      3234 2.36199E-03 1.81564E-02-3.38813E-20
 -1      3235 2.22336E-03 1.86405E-02-2.38863E-18
 -1      3236 2.24193E-03 1.84632E-02-1.21295E-18
 -1      3237 2.09521E-03 1.88798E-02 3.38157E-18
 -1      3238 2.11997E-03 1.87350E-02 3.89635E-20
 -1      3239 1.96210E-03 1.90757E-02 4.34697E-18
 -1      3240 1.99551E-03 1.89653E-02 2.96207E-18
 -1      3241 1.82443E-03 1.92249E-02 4.32326E-18
 -1      3242 1.86783E-03 1.91487E-02 4.56043E-18
 -1      3243 1.68298E-03 1.93254E-02 7.57586E-18
 -1      3244 1.73666E-03 1.92818E-02 6.07831E-18
 -1      3245 1.53902E-03 1.93760E-02 6.76949E-18
 -1      3246 1.60250E-03 1.93624E-02 8.30770E-18
 -1      3247 1.39417E-03 1.93760E-02 1.24006E-18
 -1      3248 1.46659E-03 1.93894E-02 3.42879E-18
 -1      3249 1.25020E-03 1.93254E-02 1.49078E-18
 -1      3250 1.33068E-03 1.93624E-02 1.82281E-18
 -1      3251 1.10875E-03 1.92249E-02 5.11608E-19
 -1      3252 1.19652E-03 1.92818E-02 1.16552E-18
 -1      3253 9.71082E-04 1.90757E-02-2.62072E-18
 -1      3254 1.06535E-03 1.91487E-02-1.03338E-18
 -1      3255 8.37977E-04 1.88798E-02-4.04734E-18
 -1      3256 9.37674E-04 1.89653E-02-3.52027E-18
 -1      3257 7.09825E-04 1.86405E-02-1.03677E-18
 -1      3258 8.13209E-04 1.87350E-02-2.29207E-18
 -1      3259 5.86822E-04 1.83621E-02-7.31836E-19
 -1      3260 6.91250E-04 1.84632E-02-2.33781E-19
 -1      3261 5.71191E-04 1.81564E-02-1.38913E-18
 -1      3262 2.25574E-03 1.82625E-02-1.11808E-18
 -1      3263 2.28050E-03 1.80564E-02-1.89735E-18
 -1      3264 2.13585E-03 1.85639E-02-1.74150E-18
 -1      3265 2.15928E-03 1.83794E-02-2.63597E-18
 -1      3266 2.01707E-03 1.88285E-02-7.08967E-19
 -1      3267 2.04215E-03 1.86727E-02-2.21245E-18
 -1      3268 1.89804E-03 1.90482E-02 5.41423E-18
 -1      3269 1.92783E-03 1.89260E-02 1.08717E-18
 -1      3270 1.77739E-03 1.92173E-02 1.66357E-18
 -1      3271 1.81435E-03 1.91306E-02 3.14757E-18
 -1      3272 1.65443E-03 1.93318E-02 6.72205E-18
 -1      3273 1.69997E-03 1.92805E-02 3.64224E-18
 -1      3274 1.52946E-03 1.93895E-02 6.31548E-18
 -1      3275 1.58391E-03 1.93718E-02 6.34258E-18
 -1      3276 1.40372E-03 1.93895E-02 1.53821E-18
 -1      3277 1.46659E-03 1.94024E-02 3.57787E-18
 -1      3278 1.27876E-03 1.93318E-02 2.20229E-18
 -1      3279 1.34928E-03 1.93718E-02 1.33492E-18
 -1      3280 1.15579E-03 1.92173E-02-1.09437E-18
 -1      3281 1.23321E-03 1.92805E-02-2.33781E-19
 -1      3282 1.03514E-03 1.90482E-02-1.11300E-18
 -1      3283 1.11883E-03 1.91306E-02-9.85946E-19
 -1      3284 9.16115E-04 1.88285E-02-4.50706E-18
 -1      3285 1.00535E-03 1.89260E-02-3.44446E-18
 -1      3286 7.97334E-04 1.85639E-02-1.38913E-19
 -1      3287 8.91037E-04 1.86727E-02-2.71898E-18
 -1      3288 6.77441E-04 1.82625E-02-2.43945E-19
 -1      3289 7.73904E-04 1.83794E-02-9.48677E-20
 -1      3290 6.52682E-04 1.80564E-02-3.11708E-19
 -1      3291 2.18215E-03 1.81783E-02-2.99511E-18
 -1      3292 2.21602E-03 1.79763E-02-1.55176E-18
 -1      3293 2.06295E-03 1.84951E-02-2.67662E-18
 -1      3294 2.09245E-03 1.83078E-02-3.38136E-18
 -1      3295 1.94995E-03 1.87794E-02-2.80537E-18
 -1      3296 1.97726E-03 1.86162E-02-2.65291E-18
 -1      3297 1.84134E-03 1.90198E-02 4.85858E-18
 -1      3298 1.86953E-03 1.88880E-02 6.94991E-19
 -1      3299 1.73469E-03 1.92073E-02-1.58565E-18
 -1      3300 1.76690E-03 1.91115E-02 1.49078E-19
 -1      3301 1.62803E-03 1.93354E-02 4.92973E-18
 -1      3302 1.66664E-03 1.92771E-02 3.96411E-19
 -1      3303 1.52055E-03 1.94003E-02 5.78693E-18
 -1      3304 1.56676E-03 1.93788E-02 5.67851E-18
 -1      3305 1.41263E-03 1.94003E-02-1.82959E-19
 -1      3306 1.46659E-03 1.94130E-02 1.93801E-18
 -1      3307 1.30516E-03 1.93354E-02 9.82558E-19
 -1      3308 1.36642E-03 1.93788E-02-8.47033E-20
 -1      3309 1.19850E-03 1.92073E-02-8.33480E-19
 -1      3310 1.26654E-03 1.92771E-02-3.48978E-19
 -1      3311 1.09185E-03 1.90198E-02-1.62122E-18
 -1      3312 1.16628E-03 1.91115E-02-5.70900E-19
 -1      3313 9.83233E-04 1.87794E-02-2.39372E-18
 -1      3314 1.06365E-03 1.88880E-02-4.03611E-19
 -1      3315 8.70235E-04 1.84951E-02 7.79270E-20
 -1      3316 9.55926E-04 1.86162E-02 1.01644E-20
 -1      3317 7.51031E-04 1.81783E-02-1.27394E-18
 -1      3318 8.40729E-04 1.83078E-02-1.46367E-18
 -1      3319 7.17167E-04 1.79763E-02 1.18585E-18
 -1      3320 2.12459E-03 1.81106E-02-2.08031E-18
 -1      3321 2.16737E-03 1.79167E-02-1.13164E-18
 -1      3322 2.00423E-03 1.84360E-02-3.65918E-18
 -1      3323 2.04069E-03 1.82501E-02-1.99900E-18
 -1      3324 1.89398E-03 1.87346E-02-1.03846E-18
 -1      3325 1.92514E-03 1.85675E-02-2.89346E-18
 -1      3326 1.79242E-03 1.89922E-02 1.55515E-18
 -1      3327 1.82089E-03 1.88534E-02-8.26704E-19
 -1      3328 1.69678E-03 1.91962E-02-5.71408E-18
 -1      3329 1.72594E-03 1.90927E-02-3.66511E-18
 -1      3330 1.60411E-03 1.93371E-02 3.52366E-18
 -1      3331 1.63710E-03 1.92727E-02-2.52755E-18
 -1      3332 1.51238E-03 1.94090E-02 4.46895E-18
 -1      3333 1.55131E-03 1.93843E-02 3.17129E-18
 -1      3334 1.42080E-03 1.94090E-02-2.20229E-19
 -1      3335 1.46659E-03 1.94220E-02 1.22989E-18
 -1      3336 1.32908E-03 1.93371E-02 3.25261E-19
 -1      3337 1.38187E-03 1.93843E-02 9.48677E-19
 -1      3338 1.23640E-03 1.91962E-02 8.72444E-19
 -1      3339 1.29609E-03 1.92727E-02 7.69106E-19
 -1      3340 1.14076E-03 1.89922E-02-9.78747E-19
 -1      3341 1.20724E-03 1.90927E-02 6.86097E-20
 -1      3342 1.03921E-03 1.87346E-02 2.03288E-19
 -1      3343 1.11229E-03 1.88534E-02 1.41455E-19
 -1      3344 9.28955E-04 1.84360E-02-8.26704E-19
 -1      3345 1.00804E-03 1.85675E-02-9.41901E-19
 -1      3346 8.08594E-04 1.81106E-02-1.89735E-19
 -1      3347 8.92489E-04 1.82501E-02 5.35325E-19
 -1      3348 7.65810E-04 1.79167E-02 2.87314E-18
 -1      3349 2.08208E-03 1.80605E-02-9.62229E-19
 -1      3350 2.13343E-03 1.78782E-02-4.33681E-19
 -1      3351 1.95920E-03 1.83885E-02-2.22261E-18
 -1      3352 2.00316E-03 1.82077E-02-9.28348E-19
 -1      3353 1.84918E-03 1.86963E-02-9.79170E-19
 -1      3354 1.88548E-03 1.85287E-02-2.01933E-18
 -1      3355 1.75166E-03 1.89672E-02 7.85200E-19
 -1      3356 1.78206E-03 1.88241E-02 1.35864E-18
 -1      3357 1.66412E-03 1.91855E-02-5.05509E-18
 -1      3358 1.69185E-03 1.90762E-02-9.12341E-19
 -1      3359 1.58300E-03 1.93382E-02 3.32037E-19
 -1      3360 1.61171E-03 1.92689E-02-2.24633E-18
 -1      3361 1.50509E-03 1.94167E-02 2.13791E-18
 -1      3362 1.53777E-03 1.93895E-02 3.38813E-20
 -1      3363 1.42809E-03 1.94167E-02-8.40257E-19
 -1      3364 1.46659E-03 1.94306E-02-9.89334E-19
 -1      3365 1.35018E-03 1.93382E-02 4.87891E-19
 -1      3366 1.39541E-03 1.93895E-02-9.35124E-19
 -1      3367 1.26907E-03 1.91855E-02 1.24006E-18
 -1      3368 1.32147E-03 1.92689E-02 7.28448E-19
 -1      3369 1.18152E-03 1.89672E-02-5.29819E-19
 -1      3370 1.24134E-03 1.90762E-02-5.02039E-19
 -1      3371 1.08400E-03 1.86963E-02-1.33492E-18
 -1      3372 1.15113E-03 1.88241E-02-1.59581E-18
 -1      3373 9.73982E-04 1.83885E-02 3.45589E-19
 -1      3374 1.04771E-03 1.85287E-02-7.25060E-19
 -1      3375 8.51099E-04 1.80605E-02 1.00289E-18
 -1      3376 9.30026E-04 1.82077E-02 9.69006E-19
 -1      3377 7.99750E-04 1.78782E-02 4.67562E-19
 -1      3378 2.05358E-03 1.80292E-02-2.32426E-18
 -1      3379 2.11307E-03 1.78612E-02-2.95445E-18
 -1      3380 1.92721E-03 1.83544E-02-1.12486E-18
 -1      3381 1.97891E-03 1.81823E-02-2.75116E-18
 -1      3382 1.81540E-03 1.86665E-02-4.74338E-20
 -1      3383 1.85778E-03 1.85018E-02-6.57298E-19
 -1      3384 1.71926E-03 1.89469E-02 1.07404E-18
 -1      3385 1.75298E-03 1.88023E-02-3.28649E-19
 -1      3386 1.63703E-03 1.91769E-02-1.90879E-18
 -1      3387 1.66485E-03 1.90640E-02-1.12825E-18
 -1      3388 1.56498E-03 1.93402E-02-2.22431E-18
 -1      3389 1.59078E-03 1.92672E-02-2.40811E-18
 -1      3390 1.49877E-03 1.94248E-02 1.05032E-19
 -1      3391 1.52633E-03 1.93960E-02-1.68898E-18
 -1      3392 1.43441E-03 1.94248E-02-2.66307E-18
 -1      3393 1.46659E-03 1.94402E-02-1.92615E-18
 -1      3394 1.36820E-03 1.93402E-02 9.01243E-19
 -1      3395 1.40686E-03 1.93960E-02-2.10064E-19
 -1      3396 1.29615E-03 1.91769E-02 2.27852E-19
 -1      3397 1.34241E-03 1.92672E-02 5.37866E-19
 -1      3398 1.21393E-03 1.89469E-02 1.10114E-18
 -1      3399 1.26833E-03 1.90640E-02 1.32391E-18
 -1      3400 1.11778E-03 1.86665E-02-3.95395E-18
 -1      3401 1.18020E-03 1.88023E-02-1.88719E-18
 -1      3402 1.00597E-03 1.83544E-02 1.30104E-18
 -1      3403 1.07541E-03 1.85018E-02-2.43945E-18
 -1      3404 8.79602E-04 1.80292E-02 5.42101E-19
 -1      3405 9.54270E-04 1.81823E-02 5.08220E-19
 -1      3406 8.20117E-04 1.78612E-02-1.55176E-18
 -1      3407 2.03803E-03 1.80176E-02-3.73372E-18
 -1      3408 2.10520E-03 1.78662E-02-6.91179E-19
 -1      3409 1.90752E-03 1.83356E-02-5.62430E-19
 -1      3410 1.96701E-03 1.81751E-02-2.94090E-18
 -1      3411 1.79233E-03 1.86474E-02-6.77626E-20
 -1      3412 1.84145E-03 1.84889E-02-1.36203E-18
 -1      3413 1.69526E-03 1.89335E-02-2.25650E-18
 -1      3414 1.73348E-03 1.87904E-02-2.62241E-18
 -1      3415 1.61576E-03 1.91725E-02-2.10742E-18
 -1      3416 1.64506E-03 1.90582E-02-3.22211E-18
 -1      3417 1.55029E-03 1.93447E-02-4.78150E-18
 -1      3418 1.57451E-03 1.92697E-02-5.14149E-18
 -1      3419 1.49352E-03 1.94347E-02-2.64274E-19
 -1      3420 1.51713E-03 1.94055E-02-2.85874E-18
 -1      3421 1.43966E-03 1.94347E-02 5.98005E-19
 -1      3422 1.46659E-03 1.94523E-02 8.18234E-19
 -1      3423 1.38290E-03 1.93447E-02 1.60343E-18
 -1      3424 1.41605E-03 1.94055E-02 1.31629E-18
 -1      3425 1.31742E-03 1.91725E-02 4.13352E-19
 -1      3426 1.35867E-03 1.92697E-02 1.06811E-18
 -1      3427 1.23792E-03 1.89335E-02-7.89435E-19
 -1      3428 1.28812E-03 1.90582E-02-1.74489E-19
 -1      3429 1.14085E-03 1.86474E-02-2.80198E-18
 -1      3430 1.19970E-03 1.87904E-02-2.13113E-18
 -1      3431 1.02567E-03 1.83356E-02 2.64274E-19
 -1      3432 1.09173E-03 1.84889E-02-1.09775E-18
 -1      3433 8.95152E-04 1.80176E-02-1.82959E-19
 -1      3434 9.66174E-04 1.81751E-02 1.08420E-19
 -1      3435 8.27978E-04 1.78662E-02-1.78893E-18
 -1      3436 2.03442E-03 1.80267E-02-8.47033E-19
 -1      3437 2.10887E-03 1.78937E-02-8.74138E-19
 -1      3438 1.89930E-03 1.83338E-02-3.74050E-18
 -1      3439 1.96651E-03 1.81876E-02-1.51111E-18
 -1      3440 1.77953E-03 1.86412E-02 5.96311E-19
 -1      3441 1.83583E-03 1.84920E-02-1.63986E-18
 -1      3442 1.67959E-03 1.89292E-02-5.14318E-18
 -1      3443 1.72325E-03 1.87905E-02-1.87025E-18
 -1      3444 1.60044E-03 1.91744E-02-2.85281E-18
 -1      3445 1.63247E-03 1.90611E-02-5.00427E-18
 -1      3446 1.53907E-03 1.93537E-02-3.66554E-18
 -1      3447 1.56303E-03 1.92786E-02-2.49366E-18
 -1      3448 1.48940E-03 1.94484E-02 1.27351E-18
 -1      3449 1.51029E-03 1.94200E-02 1.73218E-19
 -1      3450 1.44378E-03 1.94484E-02 2.08031E-18
 -1      3451 1.46659E-03 1.94690E-02 4.93344E-19
 -1      3452 1.39411E-03 1.93537E-02-1.72795E-19
 -1      3453 1.42290E-03 1.94200E-02-1.55812E-18
 -1      3454 1.33274E-03 1.91744E-02 2.80029E-18
 -1      3455 1.37015E-03 1.92786E-02 1.28241E-18
 -1      3456 1.25359E-03 1.89292E-02-2.71051E-19
 -1      3457 1.30072E-03 1.90611E-02 1.58903E-18
 -1      3458 1.15365E-03 1.86412E-02-2.35814E-18
 -1      3459 1.20993E-03 1.87905E-02-5.18384E-19
 -1      3460 1.03388E-03 1.83338E-02 7.45389E-20
 -1      3461 1.09736E-03 1.84920E-02-1.57887E-18
 -1      3462 8.98762E-04 1.80267E-02-1.48400E-18
 -1      3463 9.66677E-04 1.81876E-02-1.45690E-18
 -1      3464 8.24310E-04 1.78937E-02-2.41235E-18
 -1      3465 2.04181E-03 1.80575E-02-3.18484E-19
 -1      3466 2.12322E-03 1.79446E-02-4.33003E-18
 -1      3467 1.90176E-03 1.83507E-02-1.89058E-18
 -1      3468 1.97652E-03 1.82210E-02-1.13841E-18
 -1      3469 1.77648E-03 1.86502E-02 2.30393E-19
 -1      3470 1.84020E-03 1.85129E-02-7.86047E-19
 -1      3471 1.67207E-03 1.89365E-02-3.64563E-18
 -1      3472 1.72188E-03 1.88051E-02-1.35525E-20
 -1      3473 1.59111E-03 1.91849E-02-3.44573E-18
 -1      3474 1.62695E-03 1.90752E-02-1.60936E-18
 -1      3475 1.53145E-03 1.93693E-02-1.42810E-18
 -1      3476 1.55638E-03 1.92961E-02-2.20229E-18
 -1      3477 1.48647E-03 1.94677E-02 2.08370E-19
 -1      3478 1.50587E-03 1.94416E-02-1.27055E-18
 -1      3479 1.44671E-03 1.94677E-02-2.08624E-18
 -1      3480 1.46659E-03 1.94924E-02-2.33103E-18
 -1      3481 1.40174E-03 1.93693E-02-1.93124E-19
 -1      3482 1.42732E-03 1.94416E-02-1.53482E-18
 -1      3483 1.34207E-03 1.91849E-02 1.57887E-18
 -1      3484 1.37680E-03 1.92961E-02-1.10623E-18
 -1      3485 1.26112E-03 1.89365E-02 4.50622E-19
 -1      3486 1.30624E-03 1.90752E-02-1.16891E-18
 -1      3487 1.15670E-03 1.86502E-02-2.53432E-18
 -1      3488 1.21130E-03 1.88051E-02-9.41901E-19
 -1      3489 1.03142E-03 1.83507E-02-2.23617E-19
 -1      3490 1.09299E-03 1.85129E-02-7.45389E-19
 -1      3491 8.91368E-04 1.80575E-02-6.84403E-19
 -1      3492 9.56663E-04 1.82210E-02 7.11508E-19
 -1      3493 8.09967E-04 1.79446E-02 6.09864E-19
 -1      3494 2.05938E-03 1.81110E-02-3.57787E-18
 -1      3495 2.14751E-03 1.80195E-02-2.93412E-18
 -1      3496 1.91411E-03 1.83880E-02 2.64274E-18
 -1      3497 1.99625E-03 1.82769E-02-3.38813E-19
 -1      3498 1.78261E-03 1.86763E-02-8.13152E-19
 -1      3499 1.85387E-03 1.85538E-02 1.73472E-18
 -1      3500 1.67238E-03 1.89577E-02-1.70423E-18
 -1      3501 1.72890E-03 1.88365E-02-1.86347E-18
 -1      3502 1.58769E-03 1.92064E-02 1.00966E-18
 -1      3503 1.62829E-03 1.91029E-02 1.13502E-18
 -1      3504 1.52745E-03 1.93940E-02-2.32087E-19
 -1      3505 1.55454E-03 1.93248E-02 2.04643E-18
 -1      3506 1.48476E-03 1.94951E-02 1.64324E-18
 -1      3507 1.50389E-03 1.94728E-02 3.07134E-18
 -1      3508 1.44843E-03 1.94951E-02-2.33951E-18
 -1      3509 1.46659E-03 1.95248E-02 1.27224E-18
 -1      3510 1.40573E-03 1.93940E-02-1.87872E-18
 -1      3511 1.42929E-03 1.94728E-02-3.13402E-18
 -1      3512 1.34549E-03 1.92064E-02 3.28649E-19
 -1      3513 1.37865E-03 1.93248E-02-1.53821E-18
 -1      3514 1.26080E-03 1.89577E-02-1.40946E-18
 -1      3515 1.30490E-03 1.91029E-02 1.04354E-18
 -1      3516 1.15058E-03 1.86763E-02 1.21973E-19
 -1      3517 1.20428E-03 1.88365E-02-9.48677E-20
 -1      3518 1.01908E-03 1.83880E-02 1.14519E-18
 -1      3519 1.07932E-03 1.85538E-02 2.24294E-18
 -1      3520 8.73801E-04 1.81110E-02 6.16640E-19
 -1      3521 9.36929E-04 1.82769E-02-1.28749E-19
 -1      3522 7.85670E-04 1.80195E-02 1.02322E-18
 -1      3523 2.08641E-03 1.81885E-02-3.79471E-18
 -1      3524 2.18118E-03 1.81196E-02-2.14130E-18
 -1      3525 1.93561E-03 1.84472E-02-1.08420E-19
 -1      3526 2.02501E-03 1.83566E-02-4.07931E-18
 -1      3527 1.79732E-03 1.87219E-02 1.11808E-18
 -1      3528 1.87617E-03 1.86164E-02-2.50722E-19
 -1      3529 1.68018E-03 1.89953E-02-1.01644E-18
 -1      3530 1.74381E-03 1.88869E-02 1.52466E-18
 -1      3531 1.59005E-03 1.92416E-02 2.95784E-18
 -1      3532 1.63621E-03 1.91470E-02-2.50722E-19
 -1      3533 1.52706E-03 1.94302E-02-6.94567E-19
 -1      3534 1.55739E-03 1.93672E-02-7.42001E-19
 -1      3535 1.48426E-03 1.95329E-02 3.71678E-18
 -1      3536 1.50435E-03 1.95161E-02 6.77626E-21
 -1      3537 1.44892E-03 1.95329E-02-1.67713E-18
 -1      3538 1.46659E-03 1.95689E-02 3.38813E-20
 -1      3539 1.40612E-03 1.94302E-02-5.81065E-18
 -1      3540 1.42883E-03 1.95161E-02-4.26566E-18
 -1      3541 1.34313E-03 1.92416E-02 1.73134E-18
 -1      3542 1.37579E-03 1.93672E-02-3.13741E-18
 -1      3543 1.25301E-03 1.89953E-02 8.13152E-19
 -1      3544 1.29698E-03 1.91470E-02 2.31071E-18
 -1      3545 1.13587E-03 1.87219E-02 3.63208E-18
 -1      3546 1.18937E-03 1.88869E-02 3.42879E-18
 -1      3547 9.97573E-04 1.84472E-02 2.04643E-18
 -1      3548 1.05701E-03 1.86164E-02 5.27193E-18
 -1      3549 8.46769E-04 1.81885E-02 1.03677E-18
 -1      3550 9.08168E-04 1.83566E-02 2.34459E-18
 -1      3551 7.52002E-04 1.81196E-02-7.92823E-19
 -1      3552 2.12233E-03 1.82911E-02-1.65341E-18
 -1      3553 2.22377E-03 1.82458E-02-8.13152E-19
 -1      3554 1.96563E-03 1.85303E-02-2.71051E-19
 -1      3555 2.06223E-03 1.84617E-02 1.29427E-18
 -1      3556 1.82003E-03 1.87891E-02 1.52466E-18
 -1      3557 1.90651E-03 1.87027E-02 6.77626E-19
 -1      3558 1.69505E-03 1.90518E-02 5.42101E-19
 -1      3559 1.76611E-03 1.89588E-02 6.23416E-19
 -1      3560 1.59797E-03 1.92931E-02 8.26704E-19
 -1      3561 1.65038E-03 1.92099E-02 2.37169E-19
 -1      3562 1.53022E-03 1.94806E-02 2.64274E-19
 -1      3563 1.56478E-03 1.94262E-02-1.72795E-19
 -1      3564 1.48498E-03 1.95839E-02-4.03188E-19
 -1      3565 1.50719E-03 1.95744E-02 8.13152E-20
 -1      3566 1.44820E-03 1.95839E-02 2.26666E-18
 -1      3567 1.46659E-03 1.96274E-02 5.79371E-19
 -1      3568 1.40296E-03 1.94806E-02-8.18573E-18
 -1      3569 1.42600E-03 1.95744E-02-1.35186E-18
 -1      3570 1.33521E-03 1.92931E-02 1.43657E-18
 -1      3571 1.36840E-03 1.94262E-02-3.37797E-18
 -1      3572 1.23813E-03 1.90518E-02 1.55854E-18
 -1      3573 1.28281E-03 1.92099E-02 1.80249E-18
 -1      3574 1.11315E-03 1.87891E-02 5.19739E-18
 -1      3575 1.16707E-03 1.89588E-02 3.41524E-18
 -1      3576 9.67556E-04 1.85303E-02 3.77438E-18
 -1      3577 1.02667E-03 1.87027E-02 3.71339E-18
 -1      3578 8.10853E-04 1.82911E-02 1.50433E-18
 -1      3579 8.70957E-04 1.84617E-02 3.80148E-18
 -1      3580 7.09409E-04 1.82458E-02-4.47233E-19
 -1      3581 2.16668E-03 1.84204E-02-1.43657E-18
 -1      3582 2.27497E-03 1.83997E-02-8.53809E-19
 -1      3583 2.00361E-03 1.86389E-02 2.53432E-18
 -1      3584 2.10742E-03 1.85938E-02-7.31836E-19
 -1      3585 1.85022E-03 1.88800E-02-7.72494E-19
 -1      3586 1.94436E-03 1.88149E-02-2.71051E-20
 -1      3587 1.71658E-03 1.91299E-02 8.80914E-20
 -1      3588 1.79532E-03 1.90546E-02-1.05710E-18
 -1      3589 1.61121E-03 1.93636E-02 2.71051E-20
 -1      3590 1.67045E-03 1.92944E-02-2.09387E-18
 -1      3591 1.53681E-03 1.95481E-02 7.31836E-19
 -1      3592 1.57652E-03 1.95047E-02-1.24683E-18
 -1      3593 1.48688E-03 1.96508E-02-1.41624E-18
 -1      3594 1.51233E-03 1.96506E-02 1.55854E-19
 -1      3595 1.44630E-03 1.96508E-02 2.19212E-18
 -1      3596 1.46659E-03 1.97031E-02-7.45389E-19
 -1      3597 1.39638E-03 1.95481E-02-2.63935E-18
 -1      3598 1.42085E-03 1.96506E-02-9.85946E-19
 -1      3599 1.32197E-03 1.93636E-02 2.30393E-18
 -1      3600 1.35666E-03 1.95047E-02 2.62919E-18
 -1      3601 1.21661E-03 1.91299E-02 2.52755E-18
 -1      3602 1.26273E-03 1.92944E-02 5.04832E-18
 -1      3603 1.08296E-03 1.88800E-02-1.89735E-19
 -1      3604 1.13787E-03 1.90546E-02-4.33681E-19
 -1      3605 9.29574E-04 1.86389E-02 2.42590E-18
 -1      3606 9.88825E-04 1.88149E-02-1.82281E-18
 -1      3607 7.66505E-04 1.84204E-02 1.07743E-18
 -1      3608 8.25759E-04 1.85938E-02 7.31836E-19
 -1      3609 6.58217E-04 1.83997E-02-8.13152E-20
 -1      3610 2.21912E-03 1.85779E-02-1.52466E-18
 -1      3611 2.33453E-03 1.85829E-02-1.00966E-18
 -1      3612 2.04910E-03 1.87749E-02-1.37558E-18
 -1      3613 2.16025E-03 1.87548E-02-1.20617E-18
 -1      3614 1.88740E-03 1.89970E-02 6.03087E-19
 -1      3615 1.98927E-03 1.89549E-02 1.62630E-19
 -1      3616 1.74435E-03 1.92320E-02-1.49078E-18
 -1      3617 1.83098E-03 1.91768E-02 9.48677E-19
 -1      3618 1.62949E-03 1.94560E-02-1.95834E-18
 -1      3619 1.69606E-03 1.94032E-02-1.31460E-18
 -1      3620 1.54669E-03 1.96357E-02 1.63986E-18
 -1      3621 1.59238E-03 1.96055E-02 1.26716E-18
 -1      3622 1.48993E-03 1.97367E-02 3.11708E-19
 -1      3623 1.51969E-03 1.97477E-02 1.37558E-18
 -1      3624 1.44326E-03 1.97367E-02-1.58565E-18
 -1      3625 1.46659E-03 1.97992E-02-1.90413E-18
 -1      3626 1.38650E-03 1.96357E-02-1.05032E-18
 -1      3627 1.41350E-03 1.97477E-02-5.23128E-18
 -1      3628 1.30370E-03 1.94560E-02 2.78504E-18
 -1      3629 1.34080E-03 1.96055E-02-5.69206E-19
 -1      3630 1.18883E-03 1.92320E-02 5.35325E-19
 -1      3631 1.23712E-03 1.94032E-02-1.00966E-18
 -1      3632 1.04579E-03 1.89970E-02-3.69984E-18
 -1      3633 1.10221E-03 1.91768E-02-4.37069E-18
 -1      3634 8.84083E-04 1.87749E-02 1.19940E-18
 -1      3635 9.43914E-04 1.89549E-02-7.58942E-19
 -1      3636 7.14068E-04 1.85779E-02-1.01644E-19
 -1      3637 7.72929E-04 1.87548E-02 1.00289E-18
 -1      3638 5.98653E-04 1.85829E-02-1.19940E-18
 -1      3639 2.27940E-03 1.87655E-02-1.70084E-18
 -1      3640 2.10175E-03 1.89404E-02-2.03966E-18
 -1      3641 1.93114E-03 1.91424E-02 5.35325E-19
 -1      3642 1.77797E-03 1.93607E-02 2.57498E-19
 -1      3643 1.65250E-03 1.95731E-02 1.27394E-18
 -1      3644 1.55968E-03 1.97463E-02 2.03288E-19
 -1      3645 1.49406E-03 1.98447E-02-1.21973E-19
 -1      3646 1.43912E-03 1.98447E-02-1.39591E-18
 -1      3647 1.37351E-03 1.97463E-02-2.42590E-18
 -1      3648 1.28069E-03 1.95731E-02 1.33492E-18
 -1      3649 1.15521E-03 1.93607E-02-2.22939E-18
 -1      3650 1.00204E-03 1.91424E-02-1.92446E-18
 -1      3651 8.31433E-04 1.89404E-02 3.40846E-18
 -1      3652 6.53785E-04 1.87655E-02 6.09864E-20
 -1      3653 1.12480E-03 2.93522E-02-1.13502E-18
 -1      3654 1.20252E-03 2.94235E-02 1.71778E-18
 -1      3655 1.24244E-03 2.94513E-02-6.33581E-19
 -1      3656 1.27117E-03 2.94673E-02 1.00289E-18
 -1      3657 1.29343E-03 2.94776E-02-7.42001E-19
 -1      3658 1.31192E-03 2.94850E-02 5.42101E-20
 -1      3659 1.32785E-03 2.94906E-02 1.43657E-18
 -1      3660 1.34192E-03 2.94949E-02-7.86047E-19
 -1      3661 1.35456E-03 2.94985E-02 4.23516E-19
 -1      3662 1.36606E-03 2.95016E-02-1.28749E-18
 -1      3663 1.37662E-03 2.95042E-02-4.64174E-19
 -1      3664 1.38638E-03 2.95065E-02-6.97955E-19
 -1      3665 1.39545E-03 2.95086E-02-7.86047E-19
 -1      3666 1.40393E-03 2.95104E-02 6.97955E-19
 -1      3667 1.41189E-03 2.95120E-02-2.27344E-18
 -1      3668 8.13496E-04 2.88604E-02-2.30393E-19
 -1      3669 9.26929E-04 2.89750E-02-1.49078E-19
 -1      3670 1.00698E-03 2.90353E-02 9.99499E-19
 -1      3671 1.06639E-03 2.90710E-02-4.57398E-19
 -1      3672 1.11291E-03 2.90942E-02 4.03188E-19
 -1      3673 1.15136E-03 2.91107E-02-4.54010E-19
 -1      3674 1.18428E-03 2.91231E-02 9.96111E-19
 -1      3675 1.21318E-03 2.91329E-02-4.57398E-19
 -1      3676 1.23903E-03 2.91409E-02 8.33480E-19
 -1      3677 1.26246E-03 2.91476E-02-5.92923E-19
 -1      3678 1.28391E-03 2.91534E-02-7.99599E-19
 -1      3679 1.30372E-03 2.91585E-02-1.01305E-18
 -1      3680 1.32211E-03 2.91630E-02 5.25160E-19
 -1      3681 1.33928E-03 2.91670E-02 1.70084E-18
 -1      3682 1.35540E-03 2.91706E-02-9.62229E-19
 -1      3683 5.51334E-04 2.83874E-02 1.02660E-18
 -1      3684 6.77614E-04 2.85232E-02 8.43645E-19
 -1      3685 7.81347E-04 2.86082E-02 7.11508E-20
 -1      3686 8.64539E-04 2.86627E-02-4.23516E-19
 -1      3687 9.32661E-04 2.86997E-02 5.14996E-19
 -1      3688 9.89994E-04 2.87264E-02 6.43745E-20
 -1      3689 1.03946E-03 2.87467E-02 8.13152E-20
 -1      3690 1.08305E-03 2.87627E-02 9.82558E-19
 -1      3691 1.12206E-03 2.87758E-02 3.04932E-19
 -1      3692 1.15744E-03 2.87868E-02-5.31937E-19
 -1      3693 1.18984E-03 2.87963E-02 1.95495E-18
 -1      3694 1.21974E-03 2.88046E-02-9.14796E-20
 -1      3695 1.24752E-03 2.88119E-02-3.52366E-19
 -1      3696 1.27347E-03 2.88184E-02 6.87791E-19
 -1      3697 1.29783E-03 2.88242E-02 8.47033E-20
 -1      3698 3.32133E-04 2.79411E-02-7.79270E-20
 -1      3699 4.60546E-04 2.80801E-02 7.82658E-19
 -1      3700 5.75347E-04 2.81783E-02 1.46706E-18
 -1      3701 6.74333E-04 2.82473E-02-6.97955E-19
 -1      3702 7.59193E-04 2.82969E-02 4.03188E-19
 -1      3703 8.32593E-04 2.83338E-02-2.57498E-19
 -1      3704 8.96970E-04 2.83622E-02-2.23617E-19
 -1      3705 9.54225E-04 2.83850E-02 1.19262E-18
 -1      3706 1.00578E-03 2.84037E-02 1.05032E-19
 -1      3707 1.05270E-03 2.84195E-02 1.93124E-19
 -1      3708 1.09578E-03 2.84331E-02-9.52065E-19
 -1      3709 1.13560E-03 2.84450E-02-5.01444E-19
 -1      3710 1.17266E-03 2.84555E-02 2.30393E-19
 -1      3711 1.20732E-03 2.84648E-02 1.58565E-18
 -1      3712 1.23990E-03 2.84732E-02-7.04731E-19
 -1      3713 1.43306E-04 2.75122E-02 2.06676E-19
 -1      3714 2.71256E-04 2.76471E-02 2.77827E-19
 -1      3715 3.91224E-04 2.77510E-02 2.03288E-20
 -1      3716 4.99813E-04 2.78295E-02 9.14796E-20
 -1      3717 5.96610E-04 2.78890E-02 7.62330E-19
 -1      3718 6.82727E-04 2.79350E-02-6.50521E-19
 -1      3719 7.59721E-04 2.79713E-02-8.13152E-20
 -1      3720 8.29094E-04 2.80008E-02 4.87891E-19
 -1      3721 8.92118E-04 2.80253E-02 7.79270E-20
 -1      3722 9.49826E-04 2.80461E-02 5.75982E-20
 -1      3723 1.00304E-03 2.80641E-02 7.45389E-20
 -1      3724 1.05241E-03 2.80799E-02-4.40457E-19
 -1      3725 1.09846E-03 2.80939E-02-6.50521E-19
 -1      3726 1.14163E-03 2.81063E-02 8.36869E-19
 -1      3727 1.18227E-03 2.81174E-02-4.26905E-19
 -1      3728-2.15564E-05 2.70955E-02-4.74338E-20
 -1      3729 1.05267E-04 2.72236E-02-2.98156E-19
 -1      3730 2.27482E-04 2.73284E-02 8.50421E-19
 -1      3731 3.41766E-04 2.74121E-02-6.16640E-19
 -1      3732 4.46766E-04 2.74787E-02 4.50622E-19
 -1      3733 5.42515E-04 2.75321E-02 1.99900E-19
 -1      3734 6.29755E-04 2.75754E-02 5.18384E-19
 -1      3735 7.09468E-04 2.76113E-02 3.79471E-19
 -1      3736 7.82641E-04 2.76415E-02-2.23617E-19
 -1      3737 8.50159E-04 2.76674E-02-3.79471E-19
 -1      3738 9.12778E-04 2.76900E-02-1.25361E-19
 -1      3739 9.71135E-04 2.77098E-02-1.18585E-18
 -1      3740 1.02576E-03 2.77275E-02 7.72494E-19
 -1      3741 1.07712E-03 2.77432E-02-1.72795E-19
 -1      3742 1.12558E-03 2.77573E-02-5.25160E-19
 -1      3743-1.67131E-04 2.66874E-02-2.74439E-19
 -1      3744-4.14164E-05 2.68077E-02 1.22650E-18
 -1      3745 8.17222E-05 2.69106E-02-3.79471E-19
 -1      3746 1.99401E-04 2.69967E-02 2.81215E-19
 -1      3747 3.09976E-04 2.70679E-02 9.35124E-19
 -1      3748 4.12873E-04 2.71269E-02 8.43645E-19
 -1      3749 5.08227E-04 2.71761E-02 1.21973E-19
 -1      3750 5.96549E-04 2.72177E-02-4.06576E-19
 -1      3751 6.78495E-04 2.72532E-02-5.31937E-19
 -1      3752 7.54745E-04 2.72841E-02 5.28549E-19
 -1      3753 8.25929E-04 2.73111E-02 7.79270E-20
 -1      3754 8.92614E-04 2.73352E-02-8.30092E-19
 -1      3755 9.55300E-04 2.73566E-02-3.21873E-19
 -1      3756 1.01442E-03 2.73758E-02 1.00966E-18
 -1      3757 1.07038E-03 2.73930E-02 5.42101E-20
 -1      3758-2.96716E-04 2.62852E-02-8.06375E-19
 -1      3759-1.71917E-04 2.63977E-02-8.57197E-19
 -1      3760-4.84484E-05 2.64973E-02 6.77626E-19
 -1      3761 7.12962E-05 2.65836E-02-1.01644E-18
 -1      3762 1.85689E-04 2.66575E-02-1.38913E-19
 -1      3763 2.93870E-04 2.67206E-02 1.20617E-18
 -1      3764 3.95585E-04 2.67745E-02 5.96311E-19
 -1      3765 4.90973E-04 2.68210E-02 1.89735E-19
 -1      3766 5.80394E-04 2.68614E-02-4.67562E-19
 -1      3767 6.64302E-04 2.68968E-02-8.26704E-19
 -1      3768 7.43178E-04 2.69283E-02 1.72795E-19
 -1      3769 8.17483E-04 2.69564E-02-7.08120E-19
 -1      3770 8.87649E-04 2.69816E-02 7.75882E-19
 -1      3771 9.54074E-04 2.70044E-02 2.20229E-19
 -1      3772 1.01713E-03 2.70248E-02-3.99800E-19
 -1      3773-4.12858E-04 2.58871E-02 3.69306E-19
 -1      3774-2.88743E-04 2.59922E-02-1.08420E-19
 -1      3775-1.65183E-04 2.60878E-02-1.01644E-19
 -1      3776-4.41284E-05 2.61731E-02 9.82558E-20
 -1      3777 7.29366E-05 2.62482E-02 2.54110E-19
 -1      3778 1.85060E-04 2.63140E-02-2.10064E-19
 -1      3779 2.91765E-04 2.63715E-02 1.30782E-18
 -1      3780 3.92931E-04 2.64220E-02 3.76083E-19
 -1      3781 4.88674E-04 2.64667E-02-2.60886E-19
 -1      3782 5.79247E-04 2.65064E-02-7.52165E-19
 -1      3783 6.64970E-04 2.65420E-02 2.87991E-19
 -1      3784 7.46187E-04 2.65740E-02-1.37897E-18
 -1      3785 8.23241E-04 2.66031E-02-1.08420E-19
 -1      3786 8.96471E-04 2.66293E-02 5.48877E-19
 -1      3787 9.66200E-04 2.66531E-02-6.16640E-19
 -1      3788-5.17587E-04 2.54918E-02 2.43945E-19
 -1      3789-3.93937E-04 2.55899E-02-5.96311E-19
 -1      3790-2.70355E-04 2.56813E-02 8.80914E-19
 -1      3791-1.48415E-04 2.57648E-02-3.32037E-19
 -1      3792-2.94140E-05 2.58401E-02-1.89735E-19
 -1      3793 8.57082E-05 2.59075E-02 1.76183E-19
 -1      3794 1.96368E-04 2.59677E-02 9.72394E-19
 -1      3795 3.02278E-04 2.60215E-02-1.09437E-18
 -1      3796 4.03372E-04 2.60698E-02 1.00966E-18
 -1      3797 4.99733E-04 2.61133E-02-1.18585E-19
 -1      3798 5.91531E-04 2.61527E-02 4.74338E-20
 -1      3799 6.78991E-04 2.61886E-02-9.31736E-19
 -1      3800 7.62359E-04 2.62213E-02-3.72694E-20
 -1      3801 8.41897E-04 2.62511E-02 8.06375E-19
 -1      3802 9.17874E-04 2.62781E-02-1.04016E-18
 -1      3803-6.12581E-04 2.50983E-02-1.32137E-19
 -1      3804-4.89208E-04 2.51900E-02 1.02322E-18
 -1      3805-3.65592E-04 2.52772E-02 3.79471E-19
 -1      3806-2.42996E-04 2.53584E-02 3.18484E-19
 -1      3807-1.22527E-04 2.54332E-02 5.01444E-19
 -1      3808-5.05891E-06 2.55015E-02 2.71051E-20
 -1      3809 1.08792E-04 2.55635E-02 1.25022E-18
 -1      3810 2.18642E-04 2.56199E-02 5.42101E-20
 -1      3811 3.24296E-04 2.56712E-02-3.25261E-19
 -1      3812 4.25701E-04 2.57180E-02-2.40557E-19
 -1      3813 5.22899E-04 2.57609E-02 6.60686E-19
 -1      3814 6.15998E-04 2.58004E-02-7.25060E-19
 -1      3815 7.05146E-04 2.58366E-02-1.69407E-19
 -1      3816 7.90523E-04 2.58699E-02 7.92823E-19
 -1      3817 8.72329E-04 2.59003E-02-4.91279E-19
 -1      3818-6.99266E-04 2.47057E-02-2.50722E-19
 -1      3819-5.76012E-04 2.47917E-02 7.45389E-20
 -1      3820-4.52314E-04 2.48748E-02 9.82558E-20
 -1      3821-3.29180E-04 2.49536E-02 1.59242E-19
 -1      3822-2.07537E-04 2.50274E-02-7.92823E-19
 -1      3823-8.81672E-05 2.50958E-02 2.91379E-19
 -1      3824 2.83234E-05 2.51591E-02 1.61614E-18
 -1      3825 1.41502E-04 2.52174E-02-1.72795E-19
 -1      3826 2.51090E-04 2.52712E-02 6.57298E-19
 -1      3827 3.56929E-04 2.53210E-02 1.01644E-19
 -1      3828 4.58955E-04 2.53670E-02-7.79270E-19
 -1      3829 5.57169E-04 2.54098E-02-1.33831E-18
 -1      3830 6.51624E-04 2.54494E-02 9.82558E-20
 -1      3831 7.42411E-04 2.54861E-02 1.35525E-19
 -1      3832 8.29659E-04 2.55199E-02-4.74338E-19
 -1      3833-7.78878E-04 2.43134E-02 6.43745E-20
 -1      3834-6.55615E-04 2.43944E-02 8.50421E-19
 -1      3835-5.31777E-04 2.44737E-02 9.55453E-19
 -1      3836-4.08157E-04 2.45499E-02-3.62530E-19
 -1      3837-2.85519E-04 2.46223E-02-1.18585E-19
 -1      3838-1.64546E-04 2.46906E-02 9.48677E-20
 -1      3839-4.58088E-05 2.47545E-02 3.04932E-19
 -1      3840 7.02457E-05 2.48142E-02-4.57398E-19
 -1      3841 1.83285E-04 2.48701E-02-2.98156E-19
 -1      3842 2.93075E-04 2.49223E-02 2.91379E-19
 -1      3843 3.99461E-04 2.49712E-02-2.43945E-19
 -1      3844 5.02352E-04 2.50170E-02 7.79270E-20
 -1      3845 6.01709E-04 2.50600E-02 0.00000E+00
 -1      3846 6.97534E-04 2.51000E-02 1.93124E-19
 -1      3847 7.89878E-04 2.51372E-02 2.74439E-19
 -1      3848-8.52506E-04 2.39212E-02 1.62630E-19
 -1      3849-7.29134E-04 2.39976E-02 3.96411E-19
 -1      3850-6.05098E-04 2.40733E-02-3.82859E-19
 -1      3851-4.81008E-04 2.41470E-02 9.48677E-20
 -1      3852-3.57481E-04 2.42179E-02-1.86347E-19
 -1      3853-2.35102E-04 2.42856E-02-1.05032E-19
 -1      3854-1.14392E-04 2.43497E-02 2.81215E-19
 -1      3855 4.20748E-06 2.44105E-02-5.96311E-19
 -1      3856 1.20335E-04 2.44679E-02 3.01544E-19
 -1      3857 2.33702E-04 2.45222E-02-4.33681E-19
 -1      3858 3.44082E-04 2.45737E-02-4.26905E-19
 -1      3859 4.51300E-04 2.46224E-02-1.02322E-18
 -1      3860 5.55228E-04 2.46684E-02 7.82658E-19
 -1      3861 6.55784E-04 2.47118E-02 1.01983E-18
 -1      3862 7.52930E-04 2.47524E-02-1.20617E-18
 -1      3863-9.21120E-04 2.35285E-02-2.47334E-19
 -1      3864-7.97565E-04 2.36010E-02 5.31937E-19
 -1      3865-6.73281E-04 2.36734E-02-1.76183E-19
 -1      3866-5.48718E-04 2.37447E-02 1.55854E-19
 -1      3867-4.24363E-04 2.38139E-02 1.76183E-19
 -1      3868-3.00706E-04 2.38807E-02 9.21572E-19
 -1      3869-1.78212E-04 2.39448E-02 6.77626E-19
 -1      3870-5.73017E-05 2.40061E-02 2.71051E-20
 -1      3871 6.16503E-05 2.40648E-02 8.16540E-19
 -1      3872 1.78316E-04 2.41208E-02 3.38813E-20
 -1      3873 2.92411E-04 2.41745E-02-6.30193E-19
 -1      3874 4.03687E-04 2.42258E-02-4.43845E-19
 -1      3875 5.11934E-04 2.42749E-02-9.92723E-19
 -1      3876 6.16979E-04 2.43215E-02 7.14896E-19
 -1      3877 7.18698E-04 2.43656E-02 1.18585E-19
 -1      3878-9.85590E-04 2.31353E-02-2.81215E-19
 -1      3879-8.61803E-04 2.32043E-02-1.21973E-19
 -1      3880-7.37231E-04 2.32737E-02 9.14796E-19
 -1      3881-6.12186E-04 2.33426E-02-9.75782E-19
 -1      3882-4.87037E-04 2.34101E-02-1.01644E-20
 -1      3883-3.62185E-04 2.34758E-02-8.57197E-19
 -1      3884-2.38035E-04 2.35395E-02 1.55854E-18
 -1      3885-1.14978E-04 2.36011E-02-7.35225E-19
 -1      3886 6.60871E-06 2.36606E-02-3.59142E-19
 -1      3887 1.26373E-04 2.37181E-02-3.28649E-19
 -1      3888 2.43984E-04 2.37737E-02 9.48677E-20
 -1      3889 3.59127E-04 2.38275E-02-4.87891E-19
 -1      3890 4.71513E-04 2.38794E-02-3.35425E-19
 -1      3891 5.80880E-04 2.39293E-02 1.04354E-18
 -1      3892 6.87008E-04 2.39769E-02-1.10792E-18
 -1      3893-1.04670E-03 2.27413E-02-8.97855E-19
 -1      3894-9.22651E-04 2.28073E-02 6.16640E-19
 -1      3895-7.97766E-04 2.28740E-02 6.09864E-19
 -1      3896-6.72231E-04 2.29405E-02-1.52466E-19
 -1      3897-5.46310E-04 2.30062E-02-5.52265E-19
 -1      3898-4.20319E-04 2.30707E-02 2.67662E-19
 -1      3899-2.94601E-04 2.31337E-02 1.32137E-18
 -1      3900-1.69515E-04 2.31952E-02-1.46367E-18
 -1      3901-4.54255E-05 2.32553E-02 1.21973E-19
 -1      3902 7.72988E-05 2.33139E-02-1.25361E-19
 -1      3903 1.98289E-04 2.33713E-02 4.81115E-19
 -1      3904 3.17176E-04 2.34273E-02-7.69106E-19
 -1      3905 4.33592E-04 2.34820E-02 5.69206E-19
 -1      3906 5.47185E-04 2.35351E-02 5.11608E-19
 -1      3907 6.57631E-04 2.35863E-02-4.37069E-19
 -1      3908-1.10514E-03 2.23465E-02-1.76183E-19
 -1      3909-9.80825E-04 2.24099E-02 5.59042E-19
 -1      3910-8.55618E-04 2.24741E-02 5.38713E-19
 -1      3911-7.29594E-04 2.25384E-02-4.47233E-19
 -1      3912-6.02922E-04 2.26022E-02 5.38713E-19
 -1      3913-4.75835E-04 2.26652E-02-8.74138E-19
 -1      3914-3.48618E-04 2.27273E-02 6.94567E-19
 -1      3915-2.21589E-04 2.27885E-02-1.35864E-18
 -1      3916-9.50950E-05 2.28488E-02-4.33681E-19
 -1      3917 3.04925E-05 2.29083E-02-2.84603E-19
 -1      3918 1.54777E-04 2.29670E-02 1.18585E-19
 -1      3919 2.77340E-04 2.30251E-02-1.13841E-18
 -1      3920 3.97741E-04 2.30825E-02-1.59242E-19
 -1      3921 5.15533E-04 2.31389E-02 6.91179E-19
 -1      3922 6.30282E-04 2.31939E-02-6.77626E-20
 -1      3923-1.16152E-03 2.19510E-02-8.77526E-19
 -1      3924-1.03696E-03 2.20121E-02 5.75982E-19
 -1      3925-9.11437E-04 2.20739E-02 5.75982E-19
 -1      3926-7.84939E-04 2.21360E-02 5.96311E-19
 -1      3927-6.57542E-04 2.21978E-02-2.50722E-19
 -1      3928-5.29407E-04 2.22593E-02-9.04631E-19
 -1      3929-4.00755E-04 2.23202E-02 2.60886E-19
 -1      3930-2.71860E-04 2.23807E-02-6.81014E-19
 -1      3931-1.43042E-04 2.24409E-02-2.57498E-19
 -1      3932-1.46641E-05 2.25009E-02-6.77626E-19
 -1      3933 1.12861E-04 2.25608E-02 4.77727E-19
 -1      3934 2.39074E-04 2.26208E-02-9.31736E-19
 -1      3935 3.63468E-04 2.26807E-02-3.82859E-19
 -1      3936 4.85501E-04 2.27404E-02 6.50521E-19
 -1      3937 6.04615E-04 2.27993E-02-1.17229E-18
 -1      3938-1.21638E-03 2.15549E-02-5.72594E-19
 -1      3939-1.09159E-03 2.16139E-02 7.08120E-19
 -1      3940-9.65787E-04 2.16735E-02 2.71051E-20
 -1      3941-8.38845E-04 2.17333E-02 3.32037E-19
 -1      3942-7.10770E-04 2.17931E-02 4.30293E-19
 -1      3943-5.81646E-04 2.18527E-02-1.12147E-18
 -1      3944-4.51636E-04 2.19122E-02 5.45489E-19
 -1      3945-3.20960E-04 2.19718E-02 1.55854E-19
 -1      3946-1.89901E-04 2.20315E-02-1.05371E-18
 -1      3947-5.88041E-05 2.20917E-02 1.55854E-19
 -1      3948 7.19188E-05 2.21525E-02-3.04932E-19
 -1      3949 2.01780E-04 2.22141E-02 2.50722E-19
 -1      3950 3.30215E-04 2.22764E-02 4.23516E-19
 -1      3951 4.56587E-04 2.23394E-02 1.28749E-19
 -1      3952 5.80207E-04 2.24024E-02 2.03288E-20
 -1      3953-1.27013E-03 2.11583E-02-6.23416E-19
 -1      3954-1.14518E-03 2.12154E-02-1.76183E-19
 -1      3955-1.01914E-03 2.12728E-02 1.18585E-19
 -1      3956-8.91805E-04 2.13304E-02 1.79571E-19
 -1      3957-7.63117E-04 2.13879E-02-3.18484E-19
 -1      3958-6.33092E-04 2.14455E-02-3.69306E-19
 -1      3959-5.01825E-04 2.15033E-02 1.23328E-18
 -1      3960-3.69482E-04 2.15616E-02-9.52065E-19
 -1      3961-2.36294E-04 2.16205E-02 8.43645E-19
 -1      3962-1.02571E-04 2.16805E-02-4.77727E-19
 -1      3963 3.12926E-05 2.17418E-02 8.47033E-20
 -1      3964 1.64800E-04 2.18047E-02-7.52165E-19
 -1      3965 2.97342E-04 2.18693E-02 8.47033E-20
 -1      3966 4.28195E-04 2.19355E-02 4.43845E-19
 -1      3967 5.56534E-04 2.20029E-02-1.03677E-18
 -1      3968-1.32311E-03 2.07613E-02 2.06676E-19
 -1      3969-1.19807E-03 2.08166E-02 7.45389E-20
 -1      3970-1.07185E-03 2.08719E-02 7.11508E-19
 -1      3971-9.44206E-04 2.09271E-02 4.77727E-19
 -1      3972-8.15005E-04 2.09823E-02-1.21973E-19
 -1      3973-6.84200E-04 2.10377E-02-2.84603E-19
 -1      3974-5.51823E-04 2.10934E-02-2.37169E-19
 -1      3975-4.17971E-04 2.11500E-02-2.87991E-19
 -1      3976-2.82816E-04 2.12077E-02 2.54110E-19
 -1      3977-1.46611E-04 2.12670E-02 2.50722E-19
 -1      3978-9.70877E-06 2.13285E-02 9.82558E-20
 -1      3979 1.27410E-04 2.13923E-02-7.38613E-19
 -1      3980 2.64116E-04 2.14589E-02 3.32037E-19
 -1      3981 3.99615E-04 2.15283E-02 5.89535E-19
 -1      3982 5.32947E-04 2.16001E-02-3.38813E-19
 -1      3983-1.37554E-03 2.03643E-02 6.94567E-19
 -1      3984-1.25048E-03 2.04179E-02-3.42201E-19
 -1      3985-1.12418E-03 2.04710E-02-2.60886E-19
 -1      3986-9.96327E-04 2.05237E-02 8.87691E-19
 -1      3987-8.66745E-04 2.05763E-02-1.18585E-19
 -1      3988-7.35328E-04 2.06291E-02-8.47033E-20
 -1      3989-6.02040E-04 2.06826E-02 3.59142E-19
 -1      3990-4.66907E-04 2.07370E-02-2.64274E-19
 -1      3991-3.30022E-04 2.07931E-02 1.72795E-19
 -1      3992-1.91559E-04 2.08513E-02-1.59242E-19
 -1      3993-5.18035E-05 2.09123E-02-3.45589E-19
 -1      3994 8.88183E-05 2.09767E-02-3.86247E-19
 -1      3995 2.29694E-04 2.10449E-02-1.69407E-19
 -1      3996 3.69987E-04 2.11172E-02 7.79270E-19
 -1      3997 5.08620E-04 2.11935E-02-7.89435E-19
 -1      3998-1.42750E-03 1.99676E-02-1.53482E-18
 -1      3999-1.30252E-03 2.00193E-02 2.06676E-19
 -1      4000-1.17624E-03 2.00700E-02 2.50722E-19
 -1      4001-1.04832E-03 2.01201E-02-2.27005E-19
 -1      4002-9.18525E-04 2.01700E-02-3.38813E-19
 -1      4003-7.86715E-04 2.02200E-02 3.11708E-19
 -1      4004-6.52783E-04 2.02707E-02-6.77626E-20
 -1      4005-5.16678E-04 2.03227E-02-4.33681E-19
 -1      4006-3.78400E-04 2.03766E-02 3.35425E-19
 -1      4007-2.38022E-04 2.04332E-02 1.59242E-19
 -1      4008-9.57220E-05 2.04932E-02-5.42101E-20
 -1      4009 4.81697E-05 2.05575E-02-2.43945E-19
 -1      4010 1.93109E-04 2.06267E-02 3.65918E-19
 -1      4011 3.38274E-04 2.07016E-02-1.05032E-19
 -1      4012 4.82506E-04 2.07822E-02-8.13152E-19
 -1      4013-1.47894E-03 1.95713E-02 2.27005E-19
 -1      4014-1.35416E-03 1.96211E-02 6.06476E-19
 -1      4015-1.22802E-03 1.96694E-02-2.03288E-20
 -1      4016-1.10018E-03 1.97167E-02 4.06576E-19
 -1      4017-9.70391E-04 1.97635E-02 7.01343E-19
 -1      4018-8.38460E-04 1.98105E-02 1.35525E-20
 -1      4019-7.04226E-04 1.98582E-02-2.23617E-19
 -1      4020-5.67555E-04 1.99072E-02-2.06676E-19
 -1      4021-4.28343E-04 1.99584E-02-1.66018E-19
 -1      4022-2.86539E-04 2.00127E-02 3.35425E-19
 -1      4023-1.42177E-04 2.00710E-02-7.11508E-19
 -1      4024 4.56394E-06 2.01344E-02-1.96512E-19
 -1      4025 1.53277E-04 2.02040E-02 3.45589E-19
 -1      4026 3.03232E-04 2.02808E-02 7.01343E-19
 -1      4027 4.53269E-04 2.03654E-02-1.37219E-18
 -1      4028-1.52970E-03 1.91759E-02-1.38913E-19
 -1      4029-1.40521E-03 1.92235E-02 9.14796E-19
 -1      4030-1.27934E-03 1.92691E-02-4.20128E-19
 -1      4031-1.15177E-03 1.93134E-02 4.23516E-19
 -1      4032-1.02223E-03 1.93571E-02-3.28649E-19
 -1      4033-8.90500E-04 1.94007E-02 1.12486E-18
 -1      4034-7.56378E-04 1.94450E-02 3.25261E-19
 -1      4035-6.19648E-04 1.94907E-02-1.86347E-19
 -1      4036-4.80098E-04 1.95387E-02 3.69306E-19
 -1      4037-3.37533E-04 1.95901E-02 1.86347E-19
 -1      4038-1.91809E-04 1.96459E-02 2.43945E-19
 -1      4039-4.28990E-05 1.97075E-02-1.69407E-19
 -1      4040 1.09015E-04 1.97765E-02 5.18384E-19
 -1      4041 2.63405E-04 1.98543E-02 7.11508E-20
 -1      4042 4.19232E-04 1.99421E-02-3.89635E-19
 -1      4043-1.57943E-03 1.87816E-02 5.42101E-20
 -1      4044-1.45535E-03 1.88268E-02-3.62530E-19
 -1      4045-1.32989E-03 1.88695E-02 1.11808E-18
 -1      4046-1.20277E-03 1.89106E-02 1.11808E-19
 -1      4047-1.07374E-03 1.89509E-02 4.98055E-19
 -1      4048-9.42587E-04 1.89909E-02-5.18384E-19
 -1      4049-8.09054E-04 1.90316E-02 7.48777E-19
 -1      4050-6.72867E-04 1.90736E-02-9.18184E-19
 -1      4051-5.33710E-04 1.91179E-02-4.40457E-20
 -1      4052-3.91240E-04 1.91657E-02 5.01444E-19
 -1      4053-2.45112E-04 1.92181E-02-9.82558E-20
 -1      4054-9.50359E-05 1.92770E-02-1.28749E-19
 -1      4055 5.91162E-05 1.93441E-02 4.74338E-20
 -1      4056 2.17155E-04 1.94215E-02-3.21873E-19
 -1      4057 3.78346E-04 1.95113E-02 9.48677E-20
 -1      4058-1.62768E-03 1.83887E-02-4.67562E-19
 -1      4059-1.50410E-03 1.84311E-02-6.09864E-20
 -1      4060-1.37918E-03 1.84707E-02 3.38813E-19
 -1      4061-1.25270E-03 1.85085E-02 2.37169E-19
 -1      4062-1.12447E-03 1.85451E-02-5.18384E-19
 -1      4063-9.94269E-04 1.85815E-02 3.45589E-19
 -1      4064-8.61843E-04 1.86183E-02 4.47233E-19
 -1      4065-7.26871E-04 1.86563E-02 2.37169E-19
 -1      4066-5.88956E-04 1.86965E-02 2.60886E-19
 -1      4067-4.47618E-04 1.87400E-02 5.48877E-19
 -1      4068-3.02307E-04 1.87883E-02-1.69407E-19
 -1      4069-1.52445E-04 1.88432E-02-7.11508E-20
 -1      4070 2.48498E-06 1.89069E-02-1.35525E-20
 -1      4071 1.62778E-04 1.89823E-02 7.21672E-19
 -1      4072 3.28231E-04 1.90722E-02-5.11608E-19
 -1      4073 1.30811E-03 2.96118E-02-3.18484E-18
 -1      4074 1.07371E-03 2.92873E-02-2.08709E-18
 -1      4075 1.33911E-03 2.96384E-02 3.60497E-18
 -1      4076 1.17101E-03 2.93984E-02 7.72494E-19
 -1      4077 1.35740E-03 2.96526E-02 2.71051E-20
 -1      4078 1.22458E-03 2.94397E-02 7.86047E-19
 -1      4079 1.37074E-03 2.96598E-02 1.59920E-18
 -1      4080 1.25784E-03 2.94603E-02-4.47233E-19
 -1      4081 1.38135E-03 2.96647E-02-3.98444E-18
 -1      4082 1.28288E-03 2.94730E-02 5.96311E-19
 -1      4083 1.39027E-03 2.96682E-02-7.99599E-19
 -1      4084 1.30305E-03 2.94816E-02 2.71051E-19
 -1      4085 1.39802E-03 2.96708E-02 1.66696E-18
 -1      4086 1.32015E-03 2.94880E-02 1.57209E-18
 -1      4087 1.40491E-03 2.96729E-02-7.18284E-19
 -1      4088 1.33508E-03 2.94929E-02 2.12775E-18
 -1      4089 1.41113E-03 2.96746E-02-6.36969E-19
 -1      4090 1.34839E-03 2.94968E-02-6.36969E-19
 -1      4091 1.41680E-03 2.96760E-02-4.32326E-18
 -1      4092 1.36043E-03 2.95001E-02 1.08420E-19
 -1      4093 1.42202E-03 2.96773E-02-2.85958E-18
 -1      4094 1.37144E-03 2.95030E-02-2.33103E-18
 -1      4095 1.42686E-03 2.96784E-02-1.34170E-18
 -1      4096 1.38159E-03 2.95054E-02-1.63986E-18
 -1      4097 1.43136E-03 2.96793E-02-1.11131E-18
 -1      4098 1.39099E-03 2.95076E-02-2.94090E-18
 -1      4099 1.43556E-03 2.96802E-02-1.57209E-18
 -1      4100 1.39976E-03 2.95095E-02 3.65918E-19
 -1      4101 1.43951E-03 2.96810E-02-2.29038E-18
 -1      4102 1.40797E-03 2.95113E-02-1.26039E-18
 -1      4103 1.41569E-03 2.95128E-02-2.43945E-18
 -1      4104 9.63611E-04 2.91049E-02-2.22261E-18
 -1      4105 7.39678E-04 2.87622E-02-1.88380E-18
 -1      4106 1.06193E-03 2.92008E-02 2.99511E-18
 -1      4107 8.74641E-04 2.89265E-02-1.61275E-18
 -1      4108 1.12488E-03 2.92454E-02 1.15196E-18
 -1      4109 9.70570E-04 2.90097E-02 1.58565E-18
 -1      4110 1.16914E-03 2.92709E-02-3.11708E-19
 -1      4111 1.03878E-03 2.90553E-02 9.48677E-19
 -1      4112 1.20363E-03 2.92875E-02-7.99599E-19
 -1      4113 1.09092E-03 2.90837E-02-1.27394E-18
 -1      4114 1.23207E-03 2.92992E-02-5.42101E-20
 -1      4115 1.13297E-03 2.91031E-02 8.67362E-19
 -1      4116 1.25645E-03 2.93080E-02 4.82470E-18
 -1      4117 1.16840E-03 2.91173E-02 2.98156E-19
 -1      4118 1.27789E-03 2.93149E-02-2.54788E-18
 -1      4119 1.19916E-03 2.91283E-02 2.42590E-18
 -1      4120 1.29710E-03 2.93206E-02 1.89735E-18
 -1      4121 1.22644E-03 2.91371E-02-1.36881E-18
 -1      4122 1.31454E-03 2.93255E-02-3.38813E-18
 -1      4123 1.25101E-03 2.91444E-02 2.08709E-18
 -1      4124 1.33052E-03 2.93296E-02-4.14707E-18
 -1      4125 1.27341E-03 2.91506E-02-3.25261E-19
 -1      4126 1.34528E-03 2.93332E-02-2.22261E-18
 -1      4127 1.29401E-03 2.91560E-02-1.85670E-18
 -1      4128 1.35900E-03 2.93365E-02-1.91091E-18
 -1      4129 1.31308E-03 2.91608E-02-2.68340E-18
 -1      4130 1.37181E-03 2.93393E-02 3.83537E-18
 -1      4131 1.33084E-03 2.91650E-02 6.17995E-18
 -1      4132 1.38382E-03 2.93419E-02-4.67562E-18
 -1      4133 1.34746E-03 2.91688E-02 2.61564E-18
 -1      4134 1.36310E-03 2.91722E-02-1.50433E-18
 -1      4135 6.76120E-04 2.86198E-02 1.07065E-18
 -1      4136 4.82600E-04 2.82934E-02 4.07931E-18
 -1      4137 7.98367E-04 2.87488E-02 1.35525E-18
 -1      4138 6.17113E-04 2.84635E-02 3.40168E-18
 -1      4139 8.92189E-04 2.88227E-02 1.35525E-18
 -1      4140 7.32366E-04 2.85708E-02 9.75782E-19
 -1      4141 9.64445E-04 2.88680E-02-8.53809E-19
 -1      4142 8.25179E-04 2.86382E-02-1.46367E-18
 -1      4143 1.02232E-03 2.88982E-02 1.91091E-18
 -1      4144 9.00214E-04 2.86828E-02 5.28549E-19
 -1      4145 1.07047E-03 2.89197E-02-8.80914E-19
 -1      4146 9.62484E-04 2.87141E-02 9.48677E-19
 -1      4147 1.11180E-03 2.89360E-02 1.49078E-18
 -1      4148 1.01558E-03 2.87372E-02 3.93023E-19
 -1      4149 1.14812E-03 2.89488E-02 7.86047E-19
 -1      4150 1.06190E-03 2.87551E-02 1.99222E-18
 -1      4151 1.18059E-03 2.89592E-02 2.43945E-18
 -1      4152 1.10306E-03 2.87695E-02 4.01155E-18
 -1      4153 1.21002E-03 2.89680E-02-2.94090E-18
 -1      4154 1.14016E-03 2.87815E-02 4.06576E-19
 -1      4155 1.23696E-03 2.89756E-02 1.74828E-18
 -1      4156 1.17398E-03 2.87917E-02 3.46945E-18
 -1      4157 1.26182E-03 2.89823E-02-2.15485E-18
 -1      4158 1.20508E-03 2.88006E-02 3.19840E-18
 -1      4159 1.28491E-03 2.89881E-02 2.98156E-19
 -1      4160 1.23388E-03 2.88084E-02-1.54499E-18
 -1      4161 1.30647E-03 2.89934E-02 4.93312E-18
 -1      4162 1.26071E-03 2.88153E-02 1.66696E-18
 -1      4163 1.32670E-03 2.89980E-02-1.34170E-18
 -1      4164 1.28584E-03 2.88214E-02 1.77538E-18
 -1      4165 1.30948E-03 2.88269E-02 1.30104E-18
 -1      4166 4.37307E-04 2.81616E-02 1.58565E-18
 -1      4167 2.65369E-04 2.78539E-02-3.00866E-18
 -1      4168 5.65294E-04 2.83004E-02 3.07642E-18
 -1      4169 3.97522E-04 2.80162E-02 7.18284E-19
 -1      4170 6.75604E-04 2.83932E-02 3.23905E-18
 -1      4171 5.19870E-04 2.81336E-02 5.35325E-18
 -1      4172 7.67652E-04 2.84556E-02-1.15196E-18
 -1      4173 6.26772E-04 2.82158E-02 1.09775E-18
 -1      4174 8.44779E-04 2.84992E-02 9.21572E-19
 -1      4175 7.18380E-04 2.82741E-02-1.62630E-19
 -1      4176 9.10549E-04 2.85310E-02 5.14996E-19
 -1      4177 7.97175E-04 2.83166E-02-1.35525E-19
 -1      4178 9.67731E-04 2.85554E-02-4.06576E-20
 -1      4179 8.65788E-04 2.83489E-02-1.38236E-18
 -1      4180 1.01831E-03 2.85747E-02 3.26616E-18
 -1      4181 9.26396E-04 2.83742E-02 2.34459E-18
 -1      4182 1.06371E-03 2.85906E-02 2.57498E-19
 -1      4183 9.80648E-04 2.83948E-02 1.54499E-18
 -1      4184 1.10494E-03 2.86039E-02-2.11419E-18
 -1      4185 1.02977E-03 2.84119E-02 9.75782E-19
 -1      4186 1.14272E-03 2.86154E-02 7.45389E-19
 -1      4187 1.07468E-03 2.84265E-02-7.45389E-19
 -1      4188 1.17762E-03 2.86255E-02-1.89735E-19
 -1      4189 1.11607E-03 2.84392E-02-1.78893E-18
 -1      4190 1.21007E-03 2.86344E-02-1.35525E-20
 -1      4191 1.15445E-03 2.84504E-02-7.72494E-19
 -1      4192 1.24039E-03 2.86423E-02 4.45878E-18
 -1      4193 1.19027E-03 2.84603E-02 4.43168E-18
 -1      4194 1.26887E-03 2.86493E-02-7.58942E-19
 -1      4195 1.22385E-03 2.84691E-02 7.72494E-19
 -1      4196 1.25549E-03 2.84770E-02 1.31460E-18
 -1      4197 2.34367E-04 2.77248E-02 4.20128E-19
 -1      4198 7.84666E-05 2.74325E-02 9.08019E-19
 -1      4199 3.62700E-04 2.78623E-02 3.33392E-18
 -1      4200 2.07892E-04 2.75837E-02 1.02999E-18
 -1      4201 4.80611E-04 2.79642E-02 2.81893E-18
 -1      4202 3.32517E-04 2.77027E-02 6.23416E-19
 -1      4203 5.85020E-04 2.80385E-02-1.45012E-18
 -1      4204 4.47010E-04 2.77931E-02-1.57209E-18
 -1      4205 6.76388E-04 2.80934E-02 1.80249E-18
 -1      4206 5.49638E-04 2.78613E-02 2.01933E-18
 -1      4207 7.56561E-04 2.81350E-02-8.13152E-19
 -1      4208 6.40915E-04 2.79134E-02-4.74338E-19
 -1      4209 8.27546E-04 2.81675E-02-5.01444E-19
 -1      4210 7.22273E-04 2.79541E-02-1.58565E-18
 -1      4211 8.91074E-04 2.81936E-02 3.25261E-18
 -1      4212 7.95281E-04 2.79868E-02 3.25261E-19
 -1      4213 9.48519E-04 2.82152E-02-7.72494E-19
 -1      4214 8.61334E-04 2.80136E-02 1.78893E-18
 -1      4215 1.00094E-03 2.82335E-02-1.12486E-18
 -1      4216 9.21584E-04 2.80361E-02 1.69407E-18
 -1      4217 1.04917E-03 2.82493E-02-1.59920E-18
 -1      4218 9.76952E-04 2.80554E-02 1.35525E-20
 -1      4219 1.09382E-03 2.82631E-02-1.99222E-18
 -1      4220 1.02817E-03 2.80723E-02-5.14996E-19
 -1      4221 1.13542E-03 2.82753E-02-1.15196E-18
 -1      4222 1.07582E-03 2.80871E-02-8.80914E-19
 -1      4223 1.17437E-03 2.82862E-02 4.20128E-18
 -1      4224 1.12038E-03 2.81003E-02 1.16552E-18
 -1      4225 1.21101E-03 2.82959E-02-1.04354E-18
 -1      4226 1.16224E-03 2.81121E-02 1.27394E-18
 -1      4227 1.20175E-03 2.81225E-02 1.58565E-18
 -1      4228 5.82093E-05 2.73025E-02 1.49078E-19
 -1      4229-8.51137E-05 2.70229E-02-6.30193E-19
 -1      4230 1.85612E-04 2.74343E-02-5.42101E-20
 -1      4231 4.21209E-05 2.71625E-02-1.54499E-18
 -1      4232 3.06947E-04 2.75391E-02 1.15196E-18
 -1      4233 1.67189E-04 2.72788E-02 2.71051E-20
 -1      4234 4.18758E-04 2.76207E-02 3.52366E-19
 -1      4235 2.85730E-04 2.73727E-02-4.06576E-20
 -1      4236 5.20053E-04 2.76841E-02 1.28749E-18
 -1      4237 3.95445E-04 2.74473E-02-1.70762E-18
 -1      4238 6.11338E-04 2.77339E-02-8.26704E-19
 -1      4239 4.95762E-04 2.75069E-02 3.63208E-18
 -1      4240 6.93741E-04 2.77739E-02 9.35124E-19
 -1      4241 5.87143E-04 2.75548E-02-2.84603E-19
 -1      4242 7.68507E-04 2.78066E-02 2.14130E-18
 -1      4243 6.70493E-04 2.75942E-02 1.09775E-18
 -1      4244 8.36777E-04 2.78340E-02 3.38813E-19
 -1      4245 7.46818E-04 2.76270E-02 8.13152E-20
 -1      4246 8.99520E-04 2.78574E-02-1.34170E-18
 -1      4247 8.17060E-04 2.76549E-02-6.50521E-19
 -1      4248 9.57536E-04 2.78777E-02-7.72494E-19
 -1      4249 8.82041E-04 2.76791E-02 1.35525E-19
 -1      4250 1.01148E-03 2.78955E-02-3.52366E-18
 -1      4251 9.42456E-04 2.77002E-02-2.71051E-18
 -1      4252 1.06188E-03 2.79113E-02-9.08019E-19
 -1      4253 9.98887E-04 2.77189E-02-8.80914E-19
 -1      4254 1.10918E-03 2.79253E-02 7.18284E-19
 -1      4255 1.05182E-03 2.77356E-02 2.31748E-18
 -1      4256 1.15377E-03 2.79379E-02-1.21973E-18
 -1      4257 1.10169E-03 2.77505E-02 6.77626E-20
 -1      4258 1.14884E-03 2.77637E-02 7.31836E-19
 -1      4259-9.65284E-05 2.68905E-02-1.26716E-18
 -1      4260-2.29761E-04 2.66212E-02 2.13452E-18
 -1      4261 2.97177E-05 2.70148E-02 1.69407E-18
 -1      4262-1.04186E-04 2.67496E-02-1.89735E-19
 -1      4263 1.52505E-04 2.71189E-02 7.72494E-19
 -1      4264 2.06732E-05 2.68613E-02 4.20128E-19
 -1      4265 2.68704E-04 2.72041E-02-1.21973E-18
 -1      4266 1.41367E-04 2.69556E-02 1.35525E-19
 -1      4267 3.76761E-04 2.72733E-02 1.84314E-18
 -1      4268 2.55628E-04 2.70340E-02 1.92446E-18
 -1      4269 4.76356E-04 2.73297E-02 2.76472E-18
 -1      4270 3.62387E-04 2.70988E-02 5.12286E-18
 -1      4271 5.67897E-04 2.73761E-02 4.06576E-19
 -1      4272 4.61468E-04 2.71526E-02 1.55854E-18
 -1      4273 6.52121E-04 2.74149E-02 1.43657E-18
 -1      4274 5.53230E-04 2.71977E-02-3.65918E-19
 -1      4275 7.29850E-04 2.74479E-02-1.61275E-18
 -1      4276 6.38278E-04 2.72361E-02-2.03288E-18
 -1      4277 8.01869E-04 2.74763E-02-3.38813E-19
 -1      4278 7.17294E-04 2.72692E-02-2.03288E-19
 -1      4279 8.68880E-04 2.75011E-02-9.48677E-19
 -1      4280 7.90935E-04 2.72980E-02 1.70762E-18
 -1      4281 9.31488E-04 2.75230E-02-4.33681E-18
 -1      4282 8.59803E-04 2.73235E-02-1.43657E-18
 -1      4283 9.90214E-04 2.75426E-02-2.71051E-19
 -1      4284 9.24430E-04 2.73462E-02-1.82959E-18
 -1      4285 1.04551E-03 2.75600E-02 1.74828E-18
 -1      4286 9.85282E-04 2.73664E-02 1.15196E-18
 -1      4287 1.09776E-03 2.75756E-02-5.69206E-19
 -1      4288 1.04277E-03 2.73846E-02 8.53809E-19
 -1      4289 1.09728E-03 2.74008E-02 2.57498E-19
 -1      4290-2.33749E-04 2.64856E-02-2.10742E-18
 -1      4291-3.58711E-04 2.62247E-02-1.97189E-18
 -1      4292-1.08524E-04 2.66020E-02 1.74828E-18
 -1      4293-2.34330E-04 2.63429E-02-4.03188E-18
 -1      4294 1.48267E-05 2.67034E-02 2.98156E-19
 -1      4295-1.09857E-04 2.64492E-02-8.67362E-19
 -1      4296 1.33663E-04 2.67898E-02-8.53809E-19
 -1      4297 1.20036E-05 2.65421E-02-1.40946E-18
 -1      4298 2.46324E-04 2.68626E-02 1.01644E-18
 -1      4299 1.29227E-04 2.66220E-02-1.74828E-18
 -1      4300 3.52062E-04 2.69238E-02 4.06576E-18
 -1      4301 2.40582E-04 2.66903E-02 3.25261E-18
 -1      4302 4.50792E-04 2.69755E-02 2.27682E-18
 -1      4303 3.45534E-04 2.67486E-02 2.87314E-18
 -1      4304 5.42824E-04 2.70196E-02-7.31836E-19
 -1      4305 4.44052E-04 2.67986E-02 2.08709E-18
 -1      4306 6.28662E-04 2.70577E-02-2.07354E-18
 -1      4307 5.36404E-04 2.68418E-02-1.02999E-18
 -1      4308 7.08871E-04 2.70909E-02-6.64074E-19
 -1      4309 6.23009E-04 2.68796E-02-1.61275E-18
 -1      4310 7.84009E-04 2.71202E-02-2.57498E-19
 -1      4311 7.04341E-04 2.69130E-02-1.78893E-18
 -1      4312 8.54594E-04 2.71463E-02-2.41235E-18
 -1      4313 7.80875E-04 2.69427E-02-1.88380E-18
 -1      4314 9.21093E-04 2.71696E-02 3.79471E-19
 -1      4315 8.53059E-04 2.69694E-02-2.84603E-19
 -1      4316 9.83928E-04 2.71905E-02 1.45012E-18
 -1      4317 9.21306E-04 2.69933E-02 3.51010E-18
 -1      4318 1.04348E-03 2.72093E-02-9.48677E-20
 -1      4319 9.86000E-04 2.70148E-02 6.91179E-19
 -1      4320 1.04750E-03 2.70342E-02-3.79471E-19
 -1      4321-3.56331E-04 2.60857E-02 3.38813E-20
 -1      4322-4.74432E-04 2.58317E-02 3.72694E-19
 -1      4323-2.31905E-04 2.61944E-02-1.97867E-18
 -1      4324-3.50869E-04 2.59407E-02-6.50521E-19
 -1      4325-1.08374E-04 2.62921E-02 5.28549E-19
 -1      4326-2.26767E-04 2.60412E-02 1.15874E-18
 -1      4327 1.20959E-05 2.63781E-02-2.19551E-18
 -1      4328-1.04242E-04 2.61317E-02-5.01444E-19
 -1      4329 1.27939E-04 2.64527E-02 2.03288E-19
 -1      4330 1.49707E-05 2.62119E-02 7.86047E-19
 -1      4331 2.38233E-04 2.65173E-02 2.72406E-18
 -1      4332 1.29653E-04 2.62822E-02 1.21973E-18
 -1      4333 3.42592E-04 2.65731E-02 3.03577E-18
 -1      4334 2.39103E-04 2.63437E-02 2.18196E-18
 -1      4335 4.41014E-04 2.66217E-02 5.42101E-19
 -1      4336 3.43037E-04 2.63976E-02 4.16063E-18
 -1      4337 5.33729E-04 2.66643E-02-2.07354E-18
 -1      4338 4.41467E-04 2.64450E-02-1.00289E-18
 -1      4339 6.21087E-04 2.67020E-02-1.81604E-18
 -1      4340 5.34589E-04 2.64871E-02-1.42302E-18
 -1      4341 7.03488E-04 2.67355E-02-2.16840E-19
 -1      4342 6.22695E-04 2.65247E-02-6.23416E-19
 -1      4343 7.81336E-04 2.67656E-02-4.45878E-18
 -1      4344 7.06121E-04 2.65584E-02-1.45012E-18
 -1      4345 8.55019E-04 2.67928E-02 1.04354E-18
 -1      4346 7.85214E-04 2.65889E-02-2.08709E-18
 -1      4347 9.24909E-04 2.68173E-02 8.53809E-19
 -1      4348 8.60314E-04 2.66165E-02 6.23416E-19
 -1      4349 9.91353E-04 2.68393E-02 1.19262E-18
 -1      4350 9.31753E-04 2.66415E-02 4.74338E-19
 -1      4351 9.99853E-04 2.66640E-02-5.55654E-19
 -1      4352-4.66537E-04 2.56892E-02 7.38613E-19
 -1      4353-5.78902E-04 2.54409E-02-1.78893E-18
 -1      4354-3.42682E-04 2.57907E-02-1.80249E-18
 -1      4355-4.55861E-04 2.55416E-02-1.36203E-18
 -1      4356-2.19109E-04 2.58842E-02 2.72406E-18
 -1      4357-3.32037E-04 2.56365E-02 1.55176E-18
 -1      4358-9.75726E-05 2.59687E-02 7.99599E-19
 -1      4359-2.09094E-04 2.57241E-02-1.01644E-19
 -1      4360 2.05334E-05 2.60440E-02-1.02999E-18
 -1      4361-8.84824E-05 2.58035E-02-3.25261E-19
 -1      4362 1.34254E-04 2.61107E-02 1.00289E-18
 -1      4363 2.86740E-05 2.58748E-02 1.62630E-18
 -1      4364 2.43048E-04 2.61697E-02 3.49655E-18
 -1      4365 1.41619E-04 2.59385E-02 2.95445E-18
 -1      4366 3.46700E-04 2.62219E-02-6.64074E-19
 -1      4367 2.49924E-04 2.59954E-02 5.42101E-20
 -1      4368 4.45229E-04 2.62685E-02 7.99599E-19
 -1      4369 3.53425E-04 2.60463E-02-2.16840E-19
 -1      4370 5.38797E-04 2.63101E-02-2.68340E-18
 -1      4371 4.52135E-04 2.60921E-02 1.93801E-18
 -1      4372 6.27649E-04 2.63477E-02 1.23328E-18
 -1      4373 5.46190E-04 2.61335E-02 1.08420E-19
 -1      4374 7.12067E-04 2.63817E-02-4.51299E-18
 -1      4375 6.35789E-04 2.61711E-02-5.69206E-19
 -1      4376 7.92348E-04 2.64125E-02-3.25261E-19
 -1      4377 7.21171E-04 2.62053E-02-2.14130E-18
 -1      4378 8.68793E-04 2.64406E-02 2.00577E-18
 -1      4379 8.02591E-04 2.62365E-02 1.21973E-18
 -1      4380 9.41699E-04 2.64660E-02-2.88669E-18
 -1      4381 8.80314E-04 2.62649E-02 2.84603E-19
 -1      4382 9.54615E-04 2.62907E-02-9.35124E-19
 -1      4383-5.66207E-04 2.52949E-02 1.46367E-18
 -1      4384-6.73762E-04 2.50513E-02 5.42101E-20
 -1      4385-4.42719E-04 2.53897E-02 6.03087E-19
 -1      4386-5.51009E-04 2.51446E-02 5.75982E-19
 -1      4387-3.19123E-04 2.54790E-02 1.26039E-18
 -1      4388-4.27351E-04 2.52343E-02 3.18484E-18
 -1      4389-1.96835E-04 2.55614E-02 0.00000E+00
 -1      4390-3.04094E-04 2.53186E-02 4.40457E-19
 -1      4391-7.70540E-05 2.56365E-02-4.06576E-20
 -1      4392-1.82437E-04 2.53966E-02 2.56143E-18
 -1      4393 3.93086E-05 2.57044E-02 4.06576E-20
 -1      4394-6.33755E-05 2.54681E-02 1.96512E-18
 -1      4395 1.51645E-04 2.57656E-02 3.99800E-18
 -1      4396 5.23465E-05 2.55332E-02 3.00866E-18
 -1      4397 2.59613E-04 2.58208E-02-1.53144E-18
 -1      4398 1.64233E-04 2.55923E-02 1.59920E-18
 -1      4399 3.63076E-04 2.58707E-02 9.89334E-19
 -1      4400 2.72000E-04 2.56461E-02-1.21973E-19
 -1      4401 4.62042E-04 2.59159E-02-1.49078E-19
 -1      4402 3.75529E-04 2.56951E-02-3.52366E-19
 -1      4403 5.56619E-04 2.59571E-02 3.11708E-19
 -1      4404 4.74820E-04 2.57399E-02 1.62630E-19
 -1      4405 6.46969E-04 2.59948E-02-2.49366E-18
 -1      4406 5.69952E-04 2.57811E-02 0.00000E+00
 -1      4407 7.33291E-04 2.60293E-02-6.77626E-19
 -1      4408 6.61056E-04 2.58189E-02-1.21973E-19
 -1      4409 8.15804E-04 2.60608E-02 2.77827E-18
 -1      4410 7.48294E-04 2.58536E-02 1.92446E-18
 -1      4411 8.94747E-04 2.60896E-02-2.00577E-18
 -1      4412 8.31859E-04 2.58855E-02 9.75782E-19
 -1      4413 9.11965E-04 2.59145E-02-4.74338E-19
 -1      4414-6.56881E-04 2.49019E-02-3.65918E-19
 -1      4415-7.60408E-04 2.46621E-02-2.23617E-18
 -1      4416-5.33587E-04 2.49907E-02 2.56820E-18
 -1      4417-6.37759E-04 2.47490E-02-5.89535E-19
 -1      4418-4.09936E-04 2.50758E-02 1.17229E-18
 -1      4419-5.14156E-04 2.48337E-02 2.23617E-19
 -1      4420-2.87061E-04 2.51559E-02 6.91179E-19
 -1      4421-3.90617E-04 2.49148E-02 3.65918E-19
 -1      4422-1.65977E-04 2.52302E-02-1.12486E-18
 -1      4423-2.68121E-04 2.49911E-02-1.08420E-19
 -1      4424-4.75124E-05 2.52986E-02 1.02999E-18
 -1      4425-1.47527E-04 2.50622E-02 2.57498E-19
 -1      4426 6.77167E-05 2.53613E-02 4.02510E-18
 -1      4427-2.95322E-05 2.51281E-02 3.69984E-18
 -1      4428 1.79297E-04 2.54187E-02 4.47233E-19
 -1      4429 8.53468E-05 2.51888E-02 4.24194E-18
 -1      4430 2.86987E-04 2.54713E-02-3.11708E-19
 -1      4431 1.96757E-04 2.52448E-02-1.21973E-19
 -1      4432 3.90677E-04 2.55197E-02-4.20128E-19
 -1      4433 3.04484E-04 2.52966E-02 1.28749E-18
 -1      4434 4.90354E-04 2.55642E-02-5.69206E-19
 -1      4435 4.08420E-04 2.53444E-02 6.77626E-20
 -1      4436 5.86070E-04 2.56054E-02-3.67273E-18
 -1      4437 5.08536E-04 2.53888E-02-3.91668E-18
 -1      4438 6.77927E-04 2.56433E-02-8.13152E-19
 -1      4439 6.04862E-04 2.54300E-02-2.99511E-18
 -1      4440 7.66059E-04 2.56783E-02 2.35814E-18
 -1      4441 6.97469E-04 2.54681E-02 1.23328E-18
 -1      4442 8.50633E-04 2.57104E-02-2.31748E-18
 -1      4443 7.86468E-04 2.55034E-02 2.43945E-19
 -1      4444 8.72006E-04 2.55357E-02-1.35525E-20
 -1      4445-7.39885E-04 2.45095E-02 6.16640E-19
 -1      4446-8.40052E-04 2.42729E-02 1.10453E-18
 -1      4447-6.16641E-04 2.45930E-02 1.30104E-18
 -1      4448-7.17368E-04 2.43540E-02 1.48400E-18
 -1      4449-4.92881E-04 2.46741E-02 1.03677E-18
 -1      4450-5.93719E-04 2.44343E-02 3.19162E-18
 -1      4451-3.69500E-04 2.47516E-02 2.77827E-19
 -1      4452-4.69892E-04 2.45122E-02 2.23617E-18
 -1      4453-2.47342E-04 2.48248E-02-2.37847E-18
 -1      4454-3.46671E-04 2.45866E-02-1.14519E-18
 -1      4455-1.27141E-04 2.48931E-02 1.27394E-18
 -1      4456-2.24787E-04 2.46570E-02 9.01243E-19
 -1      4457-9.48582E-06 2.49568E-02 2.26327E-18
 -1      4458-1.04868E-04 2.47230E-02 7.58942E-19
 -1      4459 1.05179E-04 2.50159E-02-7.04731E-19
 -1      4460 1.25765E-05 2.47849E-02-1.89735E-19
 -1      4461 2.16545E-04 2.50708E-02 1.50433E-18
 -1      4462 1.27158E-04 2.48426E-02-1.70762E-18
 -1      4463 3.24413E-04 2.51218E-02 1.89735E-19
 -1      4464 2.38597E-04 2.48966E-02 1.11131E-18
 -1      4465 4.28671E-04 2.51693E-02-2.42590E-18
 -1      4466 3.46700E-04 2.49472E-02-1.49078E-19
 -1      4467 5.29273E-04 2.52137E-02-1.61275E-18
 -1      4468 4.51347E-04 2.49945E-02-6.36969E-19
 -1      4469 6.26224E-04 2.52550E-02-1.89735E-19
 -1      4470 5.52473E-04 2.50389E-02 1.35525E-19
 -1      4471 7.19574E-04 2.52934E-02 3.25261E-19
 -1      4472 6.50061E-04 2.50803E-02 1.38236E-18
 -1      4473 8.09409E-04 2.53289E-02 8.13152E-20
 -1      4474 7.44136E-04 2.51190E-02 1.53144E-18
 -1      4475 8.34772E-04 2.51547E-02 8.40257E-19
 -1      4476-8.16377E-04 2.41173E-02 1.09775E-18
 -1      4477-9.13764E-04 2.38832E-02-3.11708E-19
 -1      4478-6.93071E-04 2.41960E-02 1.81604E-18
 -1      4479-7.90939E-04 2.39594E-02 4.67562E-19
 -1      4480-5.69141E-04 2.42734E-02 4.33681E-19
 -1      4481-6.67162E-04 2.40356E-02 8.94467E-19
 -1      4482-4.45285E-04 2.43484E-02 4.20128E-19
 -1      4483-5.43021E-04 2.41105E-02-1.88380E-18
 -1      4484-3.22192E-04 2.44201E-02-1.07065E-18
 -1      4485-4.19137E-04 2.41829E-02-3.93023E-19
 -1      4486-2.00497E-04 2.44880E-02 7.25060E-19
 -1      4487-2.96115E-04 2.42522E-02 4.87891E-19
 -1      4488-8.07451E-05 2.45521E-02 1.17907E-18
 -1      4489-1.74510E-04 2.43181E-02 1.00966E-18
 -1      4490 3.66170E-05 2.46124E-02-1.36881E-18
 -1      4491-5.48049E-05 2.43805E-02-6.23416E-19
 -1      4492 1.51239E-04 2.46691E-02 6.50521E-19
 -1      4493 6.25998E-05 2.44396E-02-2.16840E-19
 -1      4494 2.62858E-04 2.47224E-02-6.23416E-19
 -1      4495 1.77379E-04 2.44955E-02-7.86047E-19
 -1      4496 3.71281E-04 2.47727E-02-1.24683E-18
 -1      4497 2.89278E-04 2.45483E-02-1.50433E-18
 -1      4498 4.76374E-04 2.48199E-02-2.39880E-18
 -1      4499 3.98095E-04 2.45984E-02-2.08709E-18
 -1      4500 5.78053E-04 2.48644E-02 1.63986E-18
 -1      4501 5.03681E-04 2.46457E-02-1.02999E-18
 -1      4502 6.76278E-04 2.49062E-02 2.16840E-18
 -1      4503 6.05931E-04 2.46904E-02 2.79182E-18
 -1      4504 7.71056E-04 2.49450E-02-1.20617E-18
 -1      4505 7.04783E-04 2.47324E-02 2.57498E-19
 -1      4506 8.00228E-04 2.47716E-02 3.52366E-19
 -1      4507-8.87383E-04 2.37249E-02 5.08220E-19
 -1      4508-9.82499E-04 2.34927E-02-5.82759E-19
 -1      4509-7.63928E-04 2.37993E-02 4.40457E-19
 -1      4510-8.59460E-04 2.35647E-02 2.50722E-19
 -1      4511-6.39774E-04 2.38733E-02-1.12486E-18
 -1      4512-7.35488E-04 2.36373E-02 4.20128E-19
 -1      4513-5.15448E-04 2.39458E-02 3.18484E-19
 -1      4514-6.11005E-04 2.37093E-02 6.09864E-19
 -1      4515-3.91501E-04 2.40159E-02 4.20128E-19
 -1      4516-4.86484E-04 2.37796E-02 7.38613E-19
 -1      4517-2.68471E-04 2.40831E-02 1.95834E-18
 -1      4518-3.62418E-04 2.38476E-02 3.36780E-18
 -1      4519-1.46850E-04 2.41473E-02 1.61275E-18
 -1      4520-2.39287E-04 2.39131E-02 3.86925E-18
 -1      4521-2.70698E-05 2.42084E-02-1.38236E-18
 -1      4522-1.17535E-04 2.39758E-02 1.77538E-18
 -1      4523 9.04982E-05 2.42665E-02 1.51788E-18
 -1      4524 2.44037E-06 2.40358E-02 1.66696E-18
 -1      4525 2.05544E-04 2.43217E-02-1.76183E-19
 -1      4526 1.20288E-04 2.40931E-02 1.96512E-18
 -1      4527 3.17811E-04 2.43743E-02-2.26327E-18
 -1      4528 2.35701E-04 2.41480E-02-5.69206E-19
 -1      4529 4.27086E-04 2.44243E-02-1.74828E-18
 -1      4530 3.48415E-04 2.42005E-02-2.58853E-18
 -1      4531 5.33201E-04 2.44719E-02-5.69206E-19
 -1      4532 4.58201E-04 2.42507E-02-2.31748E-18
 -1      4533 6.36027E-04 2.45169E-02 3.63208E-18
 -1      4534 5.64866E-04 2.42985E-02-4.20128E-19
 -1      4535 7.35485E-04 2.45592E-02-1.17907E-18
 -1      4536 6.68260E-04 2.43439E-02 1.24683E-18
 -1      4537 7.68287E-04 2.43865E-02 5.42101E-20
 -1      4538-9.53822E-04 2.33320E-02 1.76183E-19
 -1      4539-1.04711E-03 2.31013E-02-2.04643E-18
 -1      4540-8.30157E-04 2.34027E-02 8.67362E-19
 -1      4541-9.23811E-04 2.31696E-02-1.83637E-18
 -1      4542-7.05733E-04 2.34736E-02 8.74138E-19
 -1      4543-7.99598E-04 2.32390E-02 2.12775E-18
 -1      4544-5.80929E-04 2.35436E-02-5.21772E-19
 -1      4545-6.74746E-04 2.33083E-02 2.16840E-19
 -1      4546-4.56174E-04 2.36120E-02 2.30393E-19
 -1      4547-5.49600E-04 2.33765E-02-2.63597E-18
 -1      4548-3.31912E-04 2.36783E-02 1.68051E-18
 -1      4549-4.24549E-04 2.34432E-02-1.15196E-18
 -1      4550-2.08576E-04 2.37422E-02 2.83925E-18
 -1      4551-2.99998E-04 2.35079E-02 1.64663E-18
 -1      4552-8.65757E-05 2.38037E-02-1.26716E-18
 -1      4553-1.76346E-04 2.35705E-02 1.79571E-18
 -1      4554 3.37136E-05 2.38628E-02 1.01644E-18
 -1      4555-5.39788E-05 2.36311E-02-1.88380E-18
 -1      4556 1.51950E-04 2.39196E-02-1.13841E-18
 -1      4557 6.67401E-05 2.36896E-02-1.85670E-18
 -1      4558 2.67823E-04 2.39743E-02-6.50521E-19
 -1      4559 1.85468E-04 2.37461E-02 5.82759E-19
 -1      4560 3.81052E-04 2.40269E-02-1.47723E-18
 -1      4561 3.01882E-04 2.38009E-02-4.87891E-19
 -1      4562 4.91386E-04 2.40774E-02-2.52077E-18
 -1      4563 4.15682E-04 2.38537E-02-2.12775E-18
 -1      4564 5.98609E-04 2.41256E-02 3.14419E-18
 -1      4565 5.26589E-04 2.39046E-02 2.20906E-18
 -1      4566 7.02549E-04 2.41714E-02-9.75782E-19
 -1      4567 6.34361E-04 2.39534E-02 3.25261E-19
 -1      4568 7.38803E-04 2.39997E-02-1.23328E-18
 -1      4569-1.01652E-03 2.29384E-02-2.29038E-18
 -1      4570-1.10837E-03 2.27089E-02-2.43945E-18
 -1      4571-8.92604E-04 2.30058E-02 1.26039E-18
 -1      4572-9.84787E-04 2.27741E-02-7.65718E-19
 -1      4573-7.67878E-04 2.30739E-02 2.05321E-18
 -1      4574-8.60303E-04 2.28406E-02 3.17807E-18
 -1      4575-6.42588E-04 2.31415E-02-1.15196E-18
 -1      4576-7.35064E-04 2.29073E-02 5.62430E-19
 -1      4577-5.17051E-04 2.32081E-02-2.66307E-18
 -1      4578-6.09300E-04 2.29735E-02-1.35525E-18
 -1      4579-3.91624E-04 2.32733E-02-4.60786E-19
 -1      4580-4.83302E-04 2.30386E-02 5.21772E-19
 -1      4581-2.66680E-04 2.33367E-02 4.14707E-18
 -1      4582-3.57403E-04 2.31024E-02 1.92446E-18
 -1      4583-1.42596E-04 2.33983E-02-3.84892E-18
 -1      4584-2.31956E-04 2.31647E-02 2.10064E-18
 -1      4585-1.97442E-05 2.34581E-02-3.99800E-19
 -1      4586-1.07322E-04 2.32254E-02-2.95445E-18
 -1      4587 1.01515E-04 2.35162E-02-5.96311E-19
 -1      4588 1.61303E-05 2.32848E-02-1.18585E-18
 -1      4589 2.20828E-04 2.35727E-02 1.00966E-18
 -1      4590 1.38034E-04 2.33428E-02 1.30782E-18
 -1      4591 3.37855E-04 2.36276E-02-2.74439E-18
 -1      4592 2.58019E-04 2.33995E-02-2.16840E-19
 -1      4593 4.52266E-04 2.36809E-02-1.96512E-19
 -1      4594 3.75715E-04 2.34548E-02-2.64274E-19
 -1      4595 5.63753E-04 2.37324E-02 2.97478E-18
 -1      4596 4.90763E-04 2.35088E-02 1.75505E-18
 -1      4597 6.72047E-04 2.37818E-02-2.06676E-18
 -1      4598 6.02820E-04 2.35610E-02 3.59142E-19
 -1      4599 7.11586E-04 2.36111E-02-1.82959E-18
 -1      4600-1.07621E-03 2.25440E-02-1.66018E-18
 -1      4601-1.16696E-03 2.23155E-02-2.29038E-18
 -1      4602-9.52031E-04 2.26086E-02 2.94090E-18
 -1      4603-1.04309E-03 2.23781E-02 1.96512E-19
 -1      4604-8.26985E-04 2.26741E-02 2.70373E-18
 -1      4605-9.18330E-04 2.24419E-02 1.59242E-18
 -1      4606-7.01205E-04 2.27395E-02-1.54499E-18
 -1      4607-7.92699E-04 2.25063E-02-2.03288E-19
 -1      4608-5.74905E-04 2.28042E-02-1.55854E-18
 -1      4609-6.66326E-04 2.25703E-02 1.00289E-18
 -1      4610-4.48361E-04 2.28680E-02-4.60786E-19
 -1      4611-5.39413E-04 2.26338E-02-2.23617E-19
 -1      4612-3.21885E-04 2.29306E-02 3.11030E-18
 -1      4613-4.12224E-04 2.26964E-02-4.20128E-19
 -1      4614-1.95818E-04 2.29920E-02-6.05798E-18
 -1      4615-2.85059E-04 2.27580E-02-5.42101E-19
 -1      4616-7.05156E-05 2.30522E-02-9.48677E-20
 -1      4617-1.58252E-04 2.28187E-02-2.52755E-18
 -1      4618 5.36505E-05 2.31113E-02-5.28549E-19
 -1      4619-3.21635E-05 2.28786E-02-1.95156E-18
 -1      4620 1.76296E-04 2.31694E-02 8.94467E-19
 -1      4621 9.28237E-05 2.29377E-02 2.57498E-19
 -1      4622 2.97026E-04 2.32265E-02-2.63597E-18
 -1      4623 2.16301E-04 2.29962E-02-2.01255E-18
 -1      4624 4.15437E-04 2.32825E-02-1.01644E-19
 -1      4625 3.37839E-04 2.30539E-02-2.76472E-18
 -1      4626 5.31129E-04 2.33372E-02 5.89535E-19
 -1      4627 4.56991E-04 2.31108E-02 1.70084E-18
 -1      4628 6.43723E-04 2.33903E-02-1.02322E-18
 -1      4629 5.73314E-04 2.31666E-02 1.48400E-18
 -1      4630 6.86389E-04 2.32207E-02-1.26039E-18
 -1      4631-1.13355E-03 2.21489E-02-1.13841E-18
 -1      4632-1.22349E-03 2.19211E-02-2.36492E-18
 -1      4633-1.00911E-03 2.22111E-02 1.74150E-18
 -1      4634-1.09935E-03 2.19814E-02-1.36881E-18
 -1      4635-8.83744E-04 2.22741E-02 1.91768E-18
 -1      4636-9.74321E-04 2.20430E-02 1.74150E-18
 -1      4637-7.57481E-04 2.23372E-02 1.55176E-18
 -1      4638-8.48307E-04 2.21050E-02 1.94479E-18
 -1      4639-6.30442E-04 2.24000E-02 1.28749E-19
 -1      4640-7.21345E-04 2.21669E-02 1.42302E-18
 -1      4641-5.02825E-04 2.24623E-02-4.66885E-18
 -1      4642-5.93555E-04 2.22286E-02-1.65341E-18
 -1      4643-3.74882E-04 2.25239E-02 1.82959E-18
 -1      4644-4.65130E-04 2.22898E-02-1.40269E-18
 -1      4645-2.46910E-04 2.25847E-02-3.06287E-18
 -1      4646-3.36319E-04 2.23505E-02 7.45389E-19
 -1      4647-1.19244E-04 2.26450E-02-2.58853E-18
 -1      4648-2.07420E-04 2.24108E-02-1.61953E-18
 -1      4649 7.74740E-06 2.27048E-02-1.00289E-18
 -1      4650-7.87729E-05 2.24709E-02-2.03288E-18
 -1      4651 1.33658E-04 2.27642E-02-4.54010E-19
 -1      4652 4.92332E-05 2.25309E-02 5.42101E-20
 -1      4653 2.58047E-04 2.28233E-02-3.70662E-18
 -1      4654 1.76163E-04 2.25908E-02-1.36203E-18
 -1      4655 3.80441E-04 2.28819E-02-1.11131E-18
 -1      4656 3.01532E-04 2.26508E-02-2.84603E-18
 -1      4657 5.00345E-04 2.29399E-02 1.38913E-18
 -1      4658 4.24815E-04 2.27106E-02 6.03087E-19
 -1      4659 6.17263E-04 2.29969E-02-2.20906E-18
 -1      4660 5.45458E-04 2.27700E-02-9.96111E-19
 -1      4661 6.62908E-04 2.28283E-02-1.15196E-18
 -1      4662-1.18911E-03 2.17530E-02-1.89735E-18
 -1      4663-1.27846E-03 2.15258E-02-6.23416E-19
 -1      4664-1.06443E-03 2.18130E-02 1.07743E-18
 -1      4665-1.15410E-03 2.15843E-02 1.35525E-20
 -1      4666-9.38764E-04 2.18738E-02 1.10453E-18
 -1      4667-1.02883E-03 2.16437E-02 1.26039E-18
 -1      4668-8.12039E-04 2.19347E-02 1.07065E-18
 -1      4669-9.02460E-04 2.17034E-02 1.29427E-18
 -1      4670-6.84296E-04 2.19955E-02-2.16840E-19
 -1      4671-7.74946E-04 2.17632E-02 1.88380E-18
 -1      4672-5.55658E-04 2.20561E-02-3.49655E-18
 -1      4673-6.46330E-04 2.18229E-02-7.92823E-19
 -1      4674-4.26316E-04 2.21163E-02 1.36881E-18
 -1      4675-5.16740E-04 2.18825E-02-5.48877E-19
 -1      4676-2.96519E-04 2.21764E-02-6.77626E-19
 -1      4677-3.86365E-04 2.19420E-02 1.45012E-18
 -1      4678-1.66568E-04 2.22364E-02-3.23905E-18
 -1      4679-2.55458E-04 2.20016E-02-1.36203E-18
 -1      4680-3.68210E-05 2.22965E-02-1.29427E-18
 -1      4681-1.24333E-04 2.20615E-02-1.80926E-18
 -1      4682 9.23089E-05 2.23570E-02-4.47233E-19
 -1      4683 6.63342E-06 2.21220E-02 3.93023E-19
 -1      4684 2.20346E-04 2.24178E-02-1.10453E-18
 -1      4685 1.36992E-04 2.21832E-02 3.25261E-19
 -1      4686 3.46753E-04 2.24789E-02-4.40457E-19
 -1      4687 2.66215E-04 2.22452E-02 1.20617E-18
 -1      4688 4.70939E-04 2.25402E-02 1.20617E-18
 -1      4689 3.93702E-04 2.23079E-02 1.89058E-18
 -1      4690 5.92284E-04 2.26012E-02-1.08420E-18
 -1      4691 5.18785E-04 2.23709E-02-6.16640E-19
 -1      4692 6.40765E-04 2.24338E-02-1.17229E-18
 -1      4693-1.24337E-03 2.13566E-02-1.91091E-18
 -1      4694-1.33229E-03 2.11299E-02 1.48400E-18
 -1      4695-1.11850E-03 2.14147E-02 8.94467E-19
 -1      4696-1.20778E-03 2.11868E-02-2.56820E-18
 -1      4697-9.92561E-04 2.14732E-02 1.32815E-18
 -1      4698-1.08231E-03 2.12441E-02 1.76183E-19
 -1      4699-8.65417E-04 2.15319E-02 6.77626E-21
 -1      4700-9.55637E-04 2.13016E-02-6.36969E-19
 -1      4701-7.37025E-04 2.15906E-02 4.60786E-19
 -1      4702-8.27631E-04 2.13591E-02 3.38813E-19
 -1      4703-6.07438E-04 2.16492E-02-2.83248E-18
 -1      4704-6.98267E-04 2.14167E-02-1.21295E-18
 -1      4705-4.76784E-04 2.17079E-02 1.83637E-18
 -1      4706-5.67605E-04 2.14744E-02 2.70373E-18
 -1      4707-3.45258E-04 2.17668E-02-1.03677E-18
 -1      4708-4.35775E-04 2.15324E-02 1.42302E-18
 -1      4709-2.13118E-04 2.18262E-02 1.32815E-18
 -1      4710-3.02976E-04 2.15909E-02-2.34459E-18
 -1      4711-8.06936E-05 2.18863E-02-2.10064E-19
 -1      4712-1.69477E-04 2.16503E-02 3.99800E-19
 -1      4713 5.16090E-05 2.19475E-02-1.68051E-18
 -1      4714-3.56275E-05 2.17109E-02-8.80914E-20
 -1      4715 1.83295E-04 2.20097E-02-6.70850E-19
 -1      4716 9.81272E-05 2.17730E-02-1.80926E-18
 -1      4717 3.13775E-04 2.20733E-02 5.62430E-19
 -1      4718 2.31236E-04 2.18368E-02-2.41235E-18
 -1      4719 4.42368E-04 2.21378E-02 5.69206E-19
 -1      4720 3.63031E-04 2.19022E-02 7.79270E-19
 -1      4721 5.68316E-04 2.22030E-02-1.18585E-18
 -1      4722 4.92735E-04 2.19691E-02-6.84403E-19
 -1      4723 6.19485E-04 2.20368E-02-2.25650E-18
 -1      4724-1.29670E-03 2.09598E-02-6.57298E-19
 -1      4725-1.38531E-03 2.07337E-02-1.46367E-18
 -1      4726-1.17170E-03 2.10160E-02-3.38813E-20
 -1      4727-1.26072E-03 2.07890E-02-4.26905E-19
 -1      4728-1.04555E-03 2.10724E-02 1.47723E-18
 -1      4729-1.13512E-03 2.08443E-02 1.47045E-18
 -1      4730-9.18055E-04 2.11288E-02 1.97189E-18
 -1      4731-1.00822E-03 2.08995E-02 3.11030E-18
 -1      4732-7.89097E-04 2.11852E-02-1.79571E-18
 -1      4733-8.79805E-04 2.09547E-02-1.08420E-19
 -1      4734-6.58664E-04 2.12417E-02-6.70850E-19
 -1      4735-7.49803E-04 2.10100E-02-7.45389E-20
 -1      4736-5.26820E-04 2.12985E-02 1.37558E-18
 -1      4737-6.18204E-04 2.10655E-02-1.65341E-18
 -1      4738-3.93699E-04 2.13559E-02-1.80926E-18
 -1      4739-4.85072E-04 2.11216E-02 5.55654E-19
 -1      4740-2.59503E-04 2.14143E-02 1.57209E-18
 -1      4741-3.50543E-04 2.11787E-02-1.15874E-18
 -1      4742-1.24516E-04 2.14740E-02 4.60786E-19
 -1      4743-2.14825E-04 2.12371E-02 6.64074E-19
 -1      4744 1.08835E-05 2.15355E-02-1.28749E-19
 -1      4745-7.82191E-05 2.12975E-02 7.18284E-19
 -1      4746 1.46205E-04 2.15989E-02-2.83248E-18
 -1      4747 5.88603E-05 2.13601E-02-2.94090E-18
 -1      4748 2.80824E-04 2.16646E-02 1.23328E-18
 -1      4749 1.95862E-04 2.14253E-02-6.97955E-19
 -1      4750 4.13980E-04 2.17324E-02 2.05998E-18
 -1      4751 3.32075E-04 2.14933E-02 9.69006E-19
 -1      4752 5.44778E-04 2.18019E-02-2.44623E-18
 -1      4753 4.66620E-04 2.15639E-02 1.70084E-18
 -1      4754 5.98463E-04 2.16367E-02-8.87691E-19
 -1      4755-1.34939E-03 2.05628E-02 9.89334E-19
 -1      4756-1.43773E-03 2.03373E-02 1.85670E-18
 -1      4757-1.22432E-03 2.06173E-02-1.21973E-19
 -1      4758-1.31314E-03 2.03912E-02 3.25261E-19
 -1      4759-1.09805E-03 2.06714E-02 1.26716E-18
 -1      4760-1.18751E-03 2.04445E-02-2.12775E-18
 -1      4761-9.70290E-04 2.07254E-02 2.98156E-18
 -1      4762-1.06046E-03 2.04974E-02 2.07354E-18
 -1      4763-8.40879E-04 2.07794E-02-3.99800E-19
 -1      4764-9.31761E-04 2.05500E-02 1.36881E-18
 -1      4765-7.09744E-04 2.08335E-02-2.71051E-19
 -1      4766-8.01270E-04 2.06027E-02-1.05032E-18
 -1      4767-5.76882E-04 2.08881E-02 2.03288E-19
 -1      4768-6.68918E-04 2.06557E-02 1.08420E-19
 -1      4769-4.42357E-04 2.09437E-02-1.60597E-18
 -1      4770-5.34700E-04 2.07096E-02 4.54010E-19
 -1      4771-3.06301E-04 2.10006E-02 1.43657E-18
 -1      4772-3.98675E-04 2.07648E-02-1.02999E-18
 -1      4773-1.68933E-04 2.10595E-02-6.77626E-21
 -1      4774-2.60973E-04 2.08219E-02-8.67362E-19
 -1      4775-3.05736E-05 2.11207E-02-6.09864E-19
 -1      4776-1.21819E-04 2.08814E-02 2.57498E-19
 -1      4777 1.08317E-04 2.11849E-02-3.01544E-18
 -1      4778 1.84341E-05 2.09440E-02-2.57498E-18
 -1      4779 2.47113E-04 2.12524E-02 1.15196E-19
 -1      4780 1.59273E-04 2.10103E-02-7.58942E-19
 -1      4781 3.84994E-04 2.13233E-02 2.46656E-18
 -1      4782 2.99977E-04 2.10805E-02 1.28749E-19
 -1      4783 5.20937E-04 2.13973E-02-1.72795E-18
 -1      4784 4.39591E-04 2.11549E-02-6.09864E-20
 -1      4785 5.76915E-04 2.12329E-02 5.82759E-19
 -1      4786-1.40158E-03 2.01659E-02-1.25361E-18
 -1      4787-1.48963E-03 1.99412E-02-4.45878E-18
 -1      4788-1.27655E-03 2.02186E-02-3.52366E-19
 -1      4789-1.36515E-03 1.99936E-02-2.13452E-18
 -1      4790-1.15024E-03 2.02705E-02 4.13352E-19
 -1      4791-1.23957E-03 2.00448E-02 9.08019E-19
 -1      4792-1.02233E-03 2.03219E-02 7.04731E-19
 -1      4793-1.11250E-03 2.00952E-02 4.54010E-19
 -1      4794-8.92625E-04 2.03732E-02-1.19940E-18
 -1      4795-9.83665E-04 2.01451E-02-6.50521E-19
 -1      4796-7.60980E-04 2.04246E-02 8.87691E-19
 -1      4797-8.52881E-04 2.01950E-02 7.04731E-19
 -1      4798-6.27332E-04 2.04768E-02 4.40457E-19
 -1      4799-7.20019E-04 2.02453E-02 4.87891E-19
 -1      4800-4.91669E-04 2.05300E-02-5.55654E-19
 -1      4801-5.85004E-04 2.02965E-02-3.52366E-19
 -1      4802-3.54038E-04 2.05851E-02 9.96111E-19
 -1      4803-4.47809E-04 2.03494E-02-2.84603E-19
 -1      4804-2.14566E-04 2.06425E-02-1.76183E-19
 -1      4805-3.08466E-04 2.04045E-02 4.81115E-19
 -1      4806-7.34892E-05 2.07031E-02-1.02999E-18
 -1      4807-1.67095E-04 2.04627E-02 1.20617E-18
 -1      4808 6.88073E-05 2.07675E-02-1.30782E-18
 -1      4809-2.39454E-05 2.05247E-02-9.96111E-19
 -1      4810 2.11738E-04 2.08364E-02 4.13352E-19
 -1      4811 1.20555E-04 2.05914E-02-3.25261E-19
 -1      4812 3.54465E-04 2.09100E-02 1.13841E-18
 -1      4813 2.65731E-04 2.06635E-02 1.19262E-18
 -1      4814 4.95864E-04 2.09885E-02-2.97478E-18
 -1      4815 4.10597E-04 2.07412E-02-3.79471E-19
 -1      4816 5.53816E-04 2.08246E-02-2.69695E-18
 -1      4817-1.45329E-03 1.97693E-02-2.01255E-18
 -1      4818-1.54096E-03 1.95457E-02 3.86247E-19
 -1      4819-1.32840E-03 1.98201E-02 1.38913E-18
 -1      4820-1.41670E-03 1.95964E-02 1.51111E-18
 -1      4821-1.20217E-03 1.98697E-02 3.52366E-19
 -1      4822-1.29128E-03 1.96454E-02 1.65341E-18
 -1      4823-1.07427E-03 1.99184E-02 1.69407E-19
 -1      4824-1.16433E-03 1.96931E-02 1.49078E-18
 -1      4825-9.44451E-04 1.99668E-02 8.33480E-19
 -1      4826-1.03554E-03 1.97401E-02 4.03188E-18
 -1      4827-8.12543E-04 2.00153E-02 3.25261E-19
 -1      4828-9.04705E-04 1.97870E-02 1.07065E-18
 -1      4829-6.78413E-04 2.00645E-02-3.38813E-19
 -1      4830-7.71641E-04 1.98342E-02-3.72694E-19
 -1      4831-5.41968E-04 2.01151E-02-2.58176E-18
 -1      4832-6.36203E-04 1.98825E-02 5.62430E-19
 -1      4833-4.03157E-04 2.01677E-02 5.01444E-19
 -1      4834-4.98272E-04 1.99325E-02-6.43745E-19
 -1      4835-2.61994E-04 2.02232E-02-1.62630E-19
 -1      4836-3.57766E-04 1.99851E-02-5.35325E-19
 -1      4837-1.18590E-04 2.02825E-02-2.06676E-18
 -1      4838-2.14670E-04 2.00413E-02-5.48877E-19
 -1      4839 2.67938E-05 2.03464E-02-4.67562E-19
 -1      4840-6.90834E-05 2.01020E-02-1.65341E-18
 -1      4841 1.73672E-04 2.04160E-02 9.75782E-19
 -1      4842 7.87131E-05 2.01684E-02 2.84603E-19
 -1      4843 3.21257E-04 2.04919E-02 1.04354E-18
 -1      4844 2.28164E-04 2.02415E-02 1.76860E-18
 -1      4845 4.68376E-04 2.05746E-02-3.46945E-18
 -1      4846 3.78337E-04 2.03221E-02-5.69206E-19
 -1      4847 5.27822E-04 2.04107E-02-7.52165E-19
 -1      4848-1.50442E-03 1.93735E-02 2.84603E-19
 -1      4849-1.59155E-03 1.91511E-02-6.77626E-21
 -1      4850-1.37978E-03 1.94222E-02 1.42979E-18
 -1      4851-1.46761E-03 1.92000E-02 2.77149E-18
 -1      4852-1.25376E-03 1.94692E-02-1.01644E-19
 -1      4853-1.34248E-03 1.92465E-02 5.42101E-20
 -1      4854-1.12602E-03 1.95150E-02 4.20128E-19
 -1      4855-1.21579E-03 1.92914E-02 2.01933E-18
 -1      4856-9.96327E-04 1.95603E-02 1.96512E-19
 -1      4857-1.08726E-03 1.93353E-02 2.16840E-19
 -1      4858-8.64455E-04 1.96056E-02 2.15485E-18
 -1      4859-9.56651E-04 1.93788E-02 1.75505E-18
 -1      4860-7.30221E-04 1.96516E-02-1.35525E-19
 -1      4861-8.23753E-04 1.94227E-02 2.39880E-18
 -1      4862-5.93451E-04 1.96991E-02-7.18284E-19
 -1      4863-6.88354E-04 1.94676E-02 1.96512E-19
 -1      4864-4.53987E-04 1.97488E-02 1.17907E-18
 -1      4865-5.50239E-04 1.95144E-02-6.16640E-19
 -1      4866-3.11707E-04 1.98016E-02 2.50722E-19
 -1      4867-4.09204E-04 1.95639E-02 8.13152E-19
 -1      4868-1.66561E-04 1.98588E-02-7.92823E-19
 -1      4869-2.65072E-04 1.96173E-02 9.21572E-19
 -1      4870-1.86312E-05 1.99215E-02-7.18284E-19
 -1      4871-1.17747E-04 1.96759E-02 3.38813E-20
 -1      4872 1.31776E-04 1.99909E-02 9.69006E-19
 -1      4873 3.27077E-05 1.97410E-02 1.49078E-19
 -1      4874 2.84017E-04 2.00683E-02 1.49755E-18
 -1      4875 1.85955E-04 1.98142E-02 1.19940E-18
 -1      4876 4.36973E-04 2.01547E-02-3.00866E-18
 -1      4877 3.41235E-04 1.98969E-02-2.71051E-19
 -1      4878 4.97187E-04 1.99901E-02-2.22261E-18
 -1      4879-1.55472E-03 1.89786E-02-2.57498E-19
 -1      4880-1.64106E-03 1.87578E-02 8.06375E-19
 -1      4881-1.43043E-03 1.90250E-02 1.44334E-18
 -1      4882-1.51755E-03 1.88046E-02-1.11808E-18
 -1      4883-1.30474E-03 1.90692E-02 1.49755E-18
 -1      4884-1.39282E-03 1.88484E-02 1.71439E-18
 -1      4885-1.17737E-03 1.91119E-02 1.93801E-18
 -1      4886-1.26655E-03 1.88902E-02 3.55076E-18
 -1      4887-1.04805E-03 1.91539E-02 1.35525E-19
 -1      4888-1.13851E-03 1.89308E-02 8.06375E-19
 -1      4889-9.16562E-04 1.91958E-02 1.03677E-18
 -1      4890-1.00845E-03 1.89709E-02 1.05032E-18
 -1      4891-7.82672E-04 1.92383E-02 7.11508E-19
 -1      4892-8.76136E-04 1.90112E-02 4.33681E-19
 -1      4893-6.46133E-04 1.92822E-02-1.82281E-18
 -1      4894-7.41313E-04 1.90524E-02-3.86247E-19
 -1      4895-5.06680E-04 1.93284E-02 9.55453E-19
 -1      4896-6.03682E-04 1.90954E-02-1.84992E-18
 -1      4897-3.64044E-04 1.93781E-02 1.16552E-18
 -1      4898-4.62913E-04 1.91413E-02 8.67362E-19
 -1      4899-2.17981E-04 1.94323E-02-1.49078E-19
 -1      4900-3.18655E-04 1.91912E-02 1.13841E-18
 -1      4901-6.83396E-05 1.94927E-02 3.72694E-19
 -1      4902-1.70581E-04 1.92466E-02-1.00966E-18
 -1      4903 8.48436E-05 1.95609E-02 3.86247E-19
 -1      4904-1.84666E-05 1.93094E-02-9.48677E-20
 -1      4905 2.41191E-04 1.96387E-02-5.62430E-19
 -1      4906 1.37683E-04 1.93813E-02-2.64274E-19
 -1      4907 3.99791E-04 1.97277E-02-5.28549E-19
 -1      4908 2.97438E-04 1.94647E-02 1.96512E-19
 -1      4909 4.59686E-04 1.95614E-02-7.58942E-19
 -1      4910-1.60378E-03 1.85850E-02-5.62430E-19
 -1      4911-1.68904E-03 1.83661E-02-8.26704E-19
 -1      4912-1.47994E-03 1.86288E-02-1.37558E-18
 -1      4913-1.56604E-03 1.84103E-02-1.55176E-18
 -1      4914-1.35473E-03 1.86700E-02 2.75794E-18
 -1      4915-1.44182E-03 1.84512E-02 1.43657E-18
 -1      4916-1.22791E-03 1.87094E-02 2.43945E-19
 -1      4917-1.31615E-03 1.84898E-02 1.38236E-18
 -1      4918-1.09924E-03 1.87479E-02 1.28749E-19
 -1      4919-1.18882E-03 1.85269E-02-1.14519E-18
 -1      4920-9.68517E-04 1.87862E-02 1.89735E-19
 -1      4921-1.05963E-03 1.85633E-02-8.87691E-19
 -1      4922-8.35471E-04 1.88249E-02 2.10064E-18
 -1      4923-9.28354E-04 1.85998E-02 2.21584E-18
 -1      4924-6.99805E-04 1.88649E-02-1.26039E-18
 -1      4925-7.94701E-04 1.86371E-02 7.31836E-19
 -1      4926-5.61157E-04 1.89072E-02 8.67362E-19
 -1      4927-6.58312E-04 1.86760E-02-5.96311E-19
 -1      4928-4.19114E-04 1.89529E-02 1.29427E-18
 -1      4929-5.18750E-04 1.87177E-02 1.40269E-18
 -1      4930-2.73225E-04 1.90034E-02-1.00966E-18
 -1      4931-3.75498E-04 1.87634E-02 5.75982E-19
 -1      4932-1.23060E-04 1.90604E-02-6.84403E-19
 -1      4933-2.27983E-04 1.88148E-02 5.89535E-19
 -1      4934 3.16989E-05 1.91260E-02 3.04932E-19
 -1      4935-7.56415E-05 1.88738E-02 4.06576E-20
 -1      4936 1.91086E-04 1.92026E-02 5.82759E-19
 -1      4937 8.19592E-05 1.89430E-02 1.04354E-18
 -1      4938 3.54602E-04 1.92928E-02-1.09775E-18
 -1      4939 2.44907E-04 1.90252E-02 4.94667E-19
 -1      4940 4.12609E-04 1.91237E-02 4.26905E-19
 -1      4941-1.65107E-03 1.81928E-02-2.21584E-18
 -1      4942-1.52777E-03 1.82337E-02-2.57498E-19
 -1      4943-1.40316E-03 1.82717E-02 7.58942E-19
 -1      4944-1.27707E-03 1.83077E-02-9.62229E-19
 -1      4945-1.14934E-03 1.83426E-02-6.16640E-19
 -1      4946-1.01976E-03 1.83770E-02 5.42101E-19
 -1      4947-8.88085E-04 1.84118E-02 1.01644E-18
 -1      4948-7.53985E-04 1.84477E-02 5.48877E-19
 -1      4949-6.17032E-04 1.84857E-02 1.02322E-18
 -1      4950-4.76694E-04 1.85269E-02 3.52366E-19
 -1      4951-3.32328E-04 1.85728E-02-5.69206E-19
 -1      4952-1.83211E-04 1.86253E-02 3.11708E-19
 -1      4953-2.86145E-05 1.86868E-02-6.23416E-19
 -1      4954 1.32044E-04 1.87603E-02 8.26704E-19
 -1      4955 2.98920E-04 1.88494E-02-4.74338E-20
 -1      4956-1.71927E-03 1.75889E-02-9.31736E-19
 -1      4957-1.59692E-03 1.76245E-02 7.99599E-19
 -1      4958-1.47343E-03 1.76570E-02-8.30092E-19
 -1      4959-1.34879E-03 1.76875E-02 6.16640E-19
 -1      4960-1.22296E-03 1.77166E-02-1.21973E-18
 -1      4961-1.09585E-03 1.77451E-02-3.69306E-19
 -1      4962-9.67271E-04 1.77737E-02 1.08420E-19
 -1      4963-8.36934E-04 1.78031E-02-4.30293E-19
 -1      4964-7.04409E-04 1.78340E-02-2.23617E-19
 -1      4965-5.69090E-04 1.78675E-02-1.42302E-19
 -1      4966-4.30157E-04 1.79050E-02 2.74439E-19
 -1      4967-2.86542E-04 1.79484E-02-5.42101E-19
 -1      4968-1.36920E-04 1.80005E-02 5.55654E-19
 -1      4969 2.02451E-05 1.80649E-02 1.21973E-19
 -1      4970 1.86512E-04 1.81467E-02-3.08320E-19
 -1      4971-1.76074E-03 1.71824E-02-9.48677E-20
 -1      4972-1.63906E-03 1.72139E-02 1.45690E-19
 -1      4973-1.51639E-03 1.72424E-02 1.93124E-19
 -1      4974-1.39286E-03 1.72690E-02 3.45589E-19
 -1      4975-1.26855E-03 1.72943E-02-6.94567E-19
 -1      4976-1.14346E-03 1.73189E-02-1.82959E-19
 -1      4977-1.01750E-03 1.73435E-02 8.77526E-19
 -1      4978-8.90469E-04 1.73685E-02 4.40457E-20
 -1      4979-7.62027E-04 1.73946E-02-3.42201E-19
 -1      4980-6.31636E-04 1.74228E-02 4.23516E-19
 -1      4981-4.98509E-04 1.74542E-02-2.37169E-19
 -1      4982-3.61531E-04 1.74906E-02 4.43845E-19
 -1      4983-2.19173E-04 1.75346E-02 4.33681E-19
 -1      4984-6.94229E-05 1.75899E-02 3.86247E-19
 -1      4985 9.01950E-05 1.76623E-02 3.21873E-19
 -1      4986-1.79733E-03 1.67778E-02 1.69407E-19
 -1      4987-1.67629E-03 1.68048E-02 1.35525E-20
 -1      4988-1.55443E-03 1.68292E-02 4.09964E-19
 -1      4989-1.43202E-03 1.68519E-02-7.45389E-20
 -1      4990-1.30928E-03 1.68734E-02-1.42302E-19
 -1      4991-1.18632E-03 1.68943E-02-6.77626E-21
 -1      4992-1.06318E-03 1.69151E-02 3.79471E-19
 -1      4993-9.39803E-04 1.69360E-02-3.32037E-19
 -1      4994-8.15995E-04 1.69577E-02 1.62630E-19
 -1      4995-6.91400E-04 1.69808E-02-3.15096E-19
 -1      4996-5.65426E-04 1.70063E-02-3.72694E-20
 -1      4997-4.37135E-04 1.70355E-02-2.64274E-19
 -1      4998-3.05112E-04 1.70708E-02 6.64074E-19
 -1      4999-1.67272E-04 1.71156E-02 4.16740E-19
 -1      5000-2.06698E-05 1.71754E-02 6.77626E-21
 -1      5001-1.82814E-03 1.63748E-02-6.40357E-19
 -1      5002-1.70766E-03 1.63969E-02 5.31937E-19
 -1      5003-1.58652E-03 1.64171E-02 3.32037E-19
 -1      5004-1.46516E-03 1.64359E-02-9.14796E-20
 -1      5005-1.34391E-03 1.64539E-02-3.52366E-19
 -1      5006-1.22300E-03 1.64714E-02 1.49078E-19
 -1      5007-1.10262E-03 1.64887E-02 6.77626E-19
 -1      5008-9.82886E-04 1.65061E-02-1.01644E-20
 -1      5009-8.63808E-04 1.65238E-02-5.42101E-20
 -1      5010-7.45302E-04 1.65424E-02-3.04932E-19
 -1      5011-6.27107E-04 1.65625E-02-3.79471E-19
 -1      5012-5.08705E-04 1.65851E-02 4.30293E-19
 -1      5013-3.89161E-04 1.66120E-02 3.11708E-19
 -1      5014-2.66892E-04 1.66458E-02-4.03188E-19
 -1      5015-1.39323E-04 1.66914E-02 6.43745E-20
 -1      5016-1.85234E-03 1.59731E-02-4.06576E-20
 -1      5017-1.73228E-03 1.59902E-02 4.06576E-19
 -1      5018-1.61173E-03 1.60060E-02 6.81014E-19
 -1      5019-1.49124E-03 1.60211E-02-6.77626E-21
 -1      5020-1.37124E-03 1.60357E-02 1.25361E-19
 -1      5021-1.25210E-03 1.60500E-02-7.69106E-19
 -1      5022-1.13414E-03 1.60642E-02 4.13352E-19
 -1      5023-1.01763E-03 1.60785E-02-3.76083E-19
 -1      5024-9.02823E-04 1.60930E-02-1.69407E-19
 -1      5025-7.89936E-04 1.61079E-02 1.62630E-19
 -1      5026-6.79120E-04 1.61236E-02 5.75982E-20
 -1      5027-5.70421E-04 1.61407E-02-2.84603E-19
 -1      5028-4.63673E-04 1.61602E-02 4.74338E-20
 -1      5029-3.58315E-04 1.61842E-02 3.79471E-19
 -1      5030-2.53065E-04 1.62160E-02-3.86247E-19
 -1      5031-1.86927E-03 1.55723E-02-6.77626E-20
 -1      5032-1.74947E-03 1.55841E-02 1.69407E-20
 -1      5033-1.62930E-03 1.55956E-02 6.43745E-20
 -1      5034-1.50939E-03 1.56069E-02-1.08420E-19
 -1      5035-1.39029E-03 1.56183E-02-1.96512E-19
 -1      5036-1.27243E-03 1.56298E-02-2.81215E-19
 -1      5037-1.15625E-03 1.56414E-02 5.28549E-19
 -1      5038-1.04215E-03 1.56531E-02 4.64174E-19
 -1      5039-9.30590E-04 1.56649E-02-2.13452E-19
 -1      5040-8.22036E-04 1.56769E-02 2.33781E-19
 -1      5041-7.17025E-04 1.56891E-02-2.33781E-19
 -1      5042-6.16148E-04 1.57020E-02-3.45589E-19
 -1      5043-5.20045E-04 1.57160E-02-2.16840E-19
 -1      5044-4.29337E-04 1.57320E-02 4.16740E-19
 -1      5045-3.44472E-04 1.57522E-02-2.71051E-20
 -1      5046-1.87848E-03 1.51719E-02 7.79270E-20
 -1      5047-1.75872E-03 1.51783E-02 2.91379E-19
 -1      5048-1.63868E-03 1.51854E-02 2.13452E-19
 -1      5049-1.51903E-03 1.51931E-02 9.14796E-20
 -1      5050-1.40035E-03 1.52015E-02-1.89735E-19
 -1      5051-1.28314E-03 1.52103E-02-6.09864E-20
 -1      5052-1.16787E-03 1.52195E-02 8.80914E-19
 -1      5053-1.05505E-03 1.52290E-02-4.84503E-19
 -1      5054-9.45221E-04 1.52386E-02-8.13152E-20
 -1      5055-8.39017E-04 1.52483E-02-1.72795E-19
 -1      5056-7.37196E-04 1.52580E-02-9.14796E-20
 -1      5057-6.40688E-04 1.52677E-02 2.54110E-19
 -1      5058-5.50645E-04 1.52775E-02 9.82558E-20
 -1      5059-4.68486E-04 1.52876E-02 2.94767E-19
 -1      5060-3.95903E-04 1.52987E-02 2.16840E-19
 -1      5061-1.87977E-03 1.47711E-02-6.91179E-19
 -1      5062-1.75984E-03 1.47721E-02 3.21873E-19
 -1      5063-1.63965E-03 1.47749E-02 9.14796E-20
 -1      5064-1.51988E-03 1.47792E-02 2.47334E-19
 -1      5065-1.40109E-03 1.47846E-02-5.55654E-19
 -1      5066-1.28380E-03 1.47909E-02 4.43845E-19
 -1      5067-1.16846E-03 1.47979E-02 3.42201E-19
 -1      5068-1.05559E-03 1.48053E-02 2.43945E-19
 -1      5069-9.45719E-04 1.48129E-02 2.13452E-19
 -1      5070-8.39477E-04 1.48206E-02-2.37169E-20
 -1      5071-7.37619E-04 1.48280E-02 4.57398E-19
 -1      5072-6.41071E-04 1.48350E-02-3.79471E-19
 -1      5073-5.50979E-04 1.48413E-02 7.79270E-20
 -1      5074-4.68756E-04 1.48463E-02 2.71051E-19
 -1      5075-3.96083E-04 1.48493E-02-2.37169E-20
 -1      5076-1.87324E-03 1.43693E-02-5.14996E-19
 -1      5077-1.75291E-03 1.43652E-02 7.08120E-19
 -1      5078-1.63229E-03 1.43638E-02 5.08220E-20
 -1      5079-1.51202E-03 1.43647E-02 1.49078E-19
 -1      5080-1.39260E-03 1.43672E-02 2.71051E-20
 -1      5081-1.27450E-03 1.43710E-02-3.38813E-21
 -1      5082-1.15811E-03 1.43757E-02 2.81215E-19
 -1      5083-1.04386E-03 1.43810E-02-5.01444E-19
 -1      5084-9.32169E-04 1.43866E-02 1.62630E-19
 -1      5085-8.23501E-04 1.43920E-02 2.94767E-19
 -1      5086-7.18379E-04 1.43970E-02-8.60585E-19
 -1      5087-6.17382E-04 1.44009E-02-4.06576E-20
 -1      5088-5.21136E-04 1.44030E-02 1.59242E-19
 -1      5089-4.30245E-04 1.44022E-02-3.04932E-20
 -1      5090-3.45134E-04 1.43961E-02-6.03087E-19
 -1      5091-1.85923E-03 1.39660E-02-3.15096E-19
 -1      5092-1.73830E-03 1.39569E-02-3.76083E-19
 -1      5093-1.61701E-03 1.39515E-02 6.43745E-20
 -1      5094-1.49589E-03 1.39490E-02 1.69407E-20
 -1      5095-1.37538E-03 1.39487E-02-3.38813E-20
 -1      5096-1.25582E-03 1.39499E-02 2.74439E-19
 -1      5097-1.13753E-03 1.39522E-02 3.82859E-19
 -1      5098-1.02076E-03 1.39552E-02-6.43745E-20
 -1      5099-9.05734E-04 1.39583E-02 2.23617E-19
 -1      5100-7.92655E-04 1.39610E-02 3.28649E-19
 -1      5101-6.81656E-04 1.39628E-02-6.43745E-20
 -1      5102-5.72761E-04 1.39626E-02-3.65918E-19
 -1      5103-4.65785E-04 1.39593E-02 2.74439E-19
 -1      5104-3.60146E-04 1.39506E-02 6.97955E-19
 -1      5105-2.54537E-04 1.39330E-02-4.87891E-19
 -1      5106-1.83838E-03 1.35606E-02-4.43845E-19
 -1      5107-1.71668E-03 1.35469E-02 2.23617E-19
 -1      5108-1.59450E-03 1.35377E-02-1.86347E-19
 -1      5109-1.47226E-03 1.35319E-02 8.13152E-20
 -1      5110-1.35029E-03 1.35286E-02-2.91379E-19
 -1      5111-1.22881E-03 1.35271E-02 1.42302E-19
 -1      5112-1.10797E-03 1.35268E-02 5.25160E-19
 -1      5113-9.87855E-04 1.35271E-02-3.96411E-19
 -1      5114-8.68468E-04 1.35273E-02 1.38913E-19
 -1      5115-7.49690E-04 1.35266E-02 2.71051E-20
 -1      5116-6.31237E-04 1.35242E-02 4.16740E-19
 -1      5117-5.12564E-04 1.35187E-02-5.79371E-19
 -1      5118-3.92714E-04 1.35083E-02 2.71051E-20
 -1      5119-2.70083E-04 1.34899E-02 1.62630E-19
 -1      5120-1.42077E-04 1.34586E-02-3.38813E-20
 -1      5121-1.81152E-03 1.31526E-02-3.18484E-19
 -1      5122-1.68891E-03 1.31347E-02 1.32137E-19
 -1      5123-1.56570E-03 1.31219E-02 2.30393E-19
 -1      5124-1.44218E-03 1.31129E-02-4.84503E-19
 -1      5125-1.31852E-03 1.31067E-02 3.76083E-19
 -1      5126-1.19481E-03 1.31024E-02 3.42201E-19
 -1      5127-1.07107E-03 1.30992E-02-1.35525E-20
 -1      5128-9.47205E-04 1.30964E-02-3.04932E-19
 -1      5129-8.22990E-04 1.30931E-02 1.69407E-19
 -1      5130-6.98037E-04 1.30883E-02-2.27005E-19
 -1      5131-5.71720E-04 1.30809E-02-1.35525E-20
 -1      5132-4.43076E-04 1.30691E-02-4.16740E-19
 -1      5133-3.10663E-04 1.30505E-02 2.81215E-19
 -1      5134-1.72376E-04 1.30214E-02 6.84403E-19
 -1      5135-2.52620E-05 1.29762E-02-1.66018E-19
 -1      5136-1.77966E-03 1.27416E-02-6.43745E-20
 -1      5137-1.65606E-03 1.27202E-02 3.72694E-19
 -1      5138-1.53174E-03 1.27041E-02-1.38913E-19
 -1      5139-1.40685E-03 1.26921E-02 1.62630E-19
 -1      5140-1.28141E-03 1.26829E-02-6.77626E-21
 -1      5141-1.15540E-03 1.26756E-02 1.55854E-19
 -1      5142-1.02871E-03 1.26693E-02-1.72795E-19
 -1      5143-9.01071E-04 1.26630E-02-1.11808E-19
 -1      5144-7.72115E-04 1.26558E-02 3.93023E-19
 -1      5145-6.41264E-04 1.26465E-02-2.30393E-19
 -1      5146-5.07695E-04 1.26336E-02-1.28749E-19
 -1      5147-3.70259E-04 1.26150E-02-4.43845E-19
 -1      5148-2.27403E-04 1.25880E-02 3.82859E-19
 -1      5149-7.70954E-05 1.25487E-02 5.38713E-19
 -1      5150 8.31456E-05 1.24911E-02 7.11508E-19
 -1      5151-1.74388E-03 1.23275E-02-4.09964E-19
 -1      5152-1.61926E-03 1.23030E-02-1.69407E-20
 -1      5153-1.49383E-03 1.22841E-02 6.77626E-20
 -1      5154-1.36757E-03 1.22691E-02-3.38813E-20
 -1      5155-1.24042E-03 1.22571E-02-3.35425E-19
 -1      5156-1.11222E-03 1.22468E-02-2.20229E-19
 -1      5157-9.82758E-04 1.22372E-02-2.77827E-19
 -1      5158-8.51684E-04 1.22274E-02-2.20229E-19
 -1      5159-7.18523E-04 1.22161E-02 7.79270E-20
 -1      5160-5.82622E-04 1.22020E-02-5.38713E-19
 -1      5161-4.43119E-04 1.21835E-02 1.93124E-19
 -1      5162-2.98910E-04 1.21583E-02-5.04832E-19
 -1      5163-1.48640E-04 1.21237E-02-2.71051E-19
 -1      5164 9.24581E-06 1.20756E-02 2.23617E-19
 -1      5165 1.76314E-04 1.20090E-02 1.05032E-19
 -1      5166-1.69700E-03 1.77929E-02-1.90413E-18
 -1      5167-1.78000E-03 1.75696E-02-1.13841E-18
 -1      5168-1.57432E-03 1.78304E-02 3.11708E-19
 -1      5169-1.65824E-03 1.76072E-02-7.92823E-19
 -1      5170-1.45043E-03 1.78648E-02-4.74338E-19
 -1      5171-1.53532E-03 1.76411E-02-1.14519E-18
 -1      5172-1.32526E-03 1.78972E-02-1.01644E-19
 -1      5173-1.41125E-03 1.76724E-02-6.30193E-19
 -1      5174-1.19873E-03 1.79282E-02-2.03966E-18
 -1      5175-1.28603E-03 1.77021E-02-1.00289E-18
 -1      5176-1.07070E-03 1.79588E-02-5.75982E-19
 -1      5177-1.15957E-03 1.77309E-02-2.75116E-18
 -1      5178-9.40959E-04 1.79895E-02 1.96512E-19
 -1      5179-1.03176E-03 1.77594E-02-1.36881E-18
 -1      5180-8.09178E-04 1.80210E-02-6.43745E-19
 -1      5181-9.02348E-04 1.77883E-02-4.94667E-19
 -1      5182-6.74918E-04 1.80543E-02 5.96311E-19
 -1      5183-7.70982E-04 1.78183E-02-1.05710E-18
 -1      5184-5.37578E-04 1.80905E-02-1.08420E-19
 -1      5185-6.37149E-04 1.78503E-02-4.60786E-19
 -1      5186-3.96373E-04 1.81310E-02-9.48677E-20
 -1      5187-5.00142E-04 1.78856E-02-7.86047E-19
 -1      5188-2.50326E-04 1.81777E-02-3.25261E-19
 -1      5189-3.59020E-04 1.79258E-02 1.35525E-20
 -1      5190-9.82888E-05 1.82334E-02 5.28549E-19
 -1      5191-2.12584E-04 1.79732E-02-2.71051E-19
 -1      5192 6.09589E-05 1.83015E-02-3.11708E-19
 -1      5193-5.93912E-05 1.80309E-02 1.81604E-18
 -1      5194 2.28467E-04 1.83866E-02-3.52366E-19
 -1      5195 1.02144E-04 1.81033E-02 4.06576E-19
 -1      5196 2.73439E-04 1.81961E-02-2.43945E-19
 -1      5197-1.74056E-03 1.73854E-02-1.73472E-18
 -1      5198-1.82114E-03 1.71652E-02-1.38913E-18
 -1      5199-1.61855E-03 1.74190E-02 7.79270E-19
 -1      5200-1.70004E-03 1.71986E-02-2.71051E-20
 -1      5201-1.49546E-03 1.74496E-02-1.17907E-18
 -1      5202-1.57784E-03 1.72285E-02 1.13164E-18
 -1      5203-1.37136E-03 1.74781E-02 1.32815E-18
 -1      5204-1.45473E-03 1.72559E-02 1.33492E-18
 -1      5205-1.24628E-03 1.75053E-02-2.98156E-18
 -1      5206-1.33080E-03 1.72818E-02-2.84603E-19
 -1      5207-1.12016E-03 1.75319E-02-1.22650E-18
 -1      5208-1.20610E-03 1.73067E-02-1.55854E-18
 -1      5209-9.92849E-04 1.75584E-02 1.42979E-18
 -1      5210-1.08060E-03 1.73312E-02 1.00289E-18
 -1      5211-8.64107E-04 1.75855E-02-1.68051E-18
 -1      5212-9.54136E-04 1.73559E-02 1.27394E-18
 -1      5213-7.33533E-04 1.76140E-02-3.38813E-19
 -1      5214-8.26456E-04 1.73813E-02-1.11131E-18
 -1      5215-6.00543E-04 1.76448E-02 8.67362E-19
 -1      5216-6.97122E-04 1.74084E-02-6.77626E-19
 -1      5217-4.64316E-04 1.76793E-02-1.89735E-19
 -1      5218-5.65482E-04 1.74380E-02 4.20128E-19
 -1      5219-3.23735E-04 1.77193E-02-4.60786E-19
 -1      5220-4.30596E-04 1.74716E-02 2.43945E-19
 -1      5221-1.77340E-04 1.77675E-02 1.15196E-18
 -1      5222-2.91152E-04 1.75114E-02 1.81604E-18
 -1      5223-2.33214E-05 1.78276E-02 1.40946E-18
 -1      5224-1.45385E-04 1.75605E-02 1.68051E-18
 -1      5225 1.40368E-04 1.79051E-02 4.60786E-19
 -1      5226 8.96292E-06 1.76235E-02 2.08709E-18
 -1      5227 1.74537E-04 1.77072E-02 4.74338E-19
 -1      5228-1.77970E-03 1.69799E-02-4.47233E-19
 -1      5229-1.85742E-03 1.67630E-02-1.79571E-18
 -1      5230-1.65835E-03 1.70091E-02 4.06576E-20
 -1      5231-1.73694E-03 1.67916E-02 8.13152E-19
 -1      5232-1.53609E-03 1.70356E-02 1.70084E-18
 -1      5233-1.61545E-03 1.68172E-02 8.47033E-19
 -1      5234-1.41313E-03 1.70603E-02 7.58942E-19
 -1      5235-1.49328E-03 1.68407E-02 1.29427E-18
 -1      5236-1.28960E-03 1.70837E-02-1.09775E-18
 -1      5237-1.37069E-03 1.68627E-02-2.03288E-19
 -1      5238-1.16557E-03 1.71064E-02-4.54010E-19
 -1      5239-1.24783E-03 1.68839E-02-5.89535E-19
 -1      5240-1.04101E-03 1.71290E-02 2.50044E-18
 -1      5241-1.12478E-03 1.69047E-02 1.04354E-18
 -1      5242-9.15787E-04 1.71520E-02-2.98156E-19
 -1      5243-1.00153E-03 1.69255E-02 4.20128E-19
 -1      5244-7.89619E-04 1.71758E-02 2.71051E-20
 -1      5245-8.77972E-04 1.69467E-02-6.77626E-19
 -1      5246-6.62050E-04 1.72014E-02 1.62630E-19
 -1      5247-7.53830E-04 1.69690E-02-8.13152E-20
 -1      5248-5.32369E-04 1.72298E-02-3.25261E-19
 -1      5249-6.28640E-04 1.69932E-02-9.35124E-19
 -1      5250-3.99521E-04 1.72626E-02 2.84603E-19
 -1      5251-5.01654E-04 1.70203E-02-5.55654E-19
 -1      5252-2.61988E-04 1.73022E-02 2.03288E-18
 -1      5253-3.71716E-04 1.70522E-02 9.21572E-19
 -1      5254-1.17658E-04 1.73524E-02 2.08709E-18
 -1      5255-2.37102E-04 1.70917E-02 1.31460E-18
 -1      5256 3.62698E-05 1.74188E-02 3.52366E-19
 -1      5257-9.53210E-05 1.71431E-02 2.57498E-19
 -1      5258 5.70847E-05 1.72134E-02-1.39591E-18
 -1      5259-1.81351E-03 1.65761E-02-5.69206E-19
 -1      5260-1.88795E-03 1.63627E-02-1.64663E-18
 -1      5261-1.69277E-03 1.66007E-02 9.62229E-19
 -1      5262-1.76801E-03 1.63862E-02-8.13152E-20
 -1      5263-1.57128E-03 1.66230E-02 1.28749E-18
 -1      5264-1.64714E-03 1.64072E-02 8.06375E-19
 -1      5265-1.44941E-03 1.66438E-02 4.06576E-20
 -1      5266-1.52585E-03 1.64267E-02 6.16640E-19
 -1      5267-1.32743E-03 1.66635E-02-7.65718E-19
 -1      5268-1.40450E-03 1.64450E-02-1.44334E-18
 -1      5269-1.20552E-03 1.66827E-02-5.69206E-19
 -1      5270-1.28340E-03 1.64627E-02-9.48677E-20
 -1      5271-1.08379E-03 1.67016E-02 1.40946E-18
 -1      5272-1.16274E-03 1.64801E-02 8.87691E-19
 -1      5273-9.62258E-04 1.67207E-02-1.05710E-18
 -1      5274-1.04267E-03 1.64973E-02 1.51788E-18
 -1      5275-8.40836E-04 1.67404E-02 5.01444E-19
 -1      5276-9.23267E-04 1.65149E-02-1.08420E-18
 -1      5277-7.19295E-04 1.67611E-02-1.07065E-18
 -1      5278-8.04496E-04 1.65330E-02-8.80914E-19
 -1      5279-5.97192E-04 1.67838E-02-1.69407E-18
 -1      5280-6.86193E-04 1.65522E-02-1.45012E-18
 -1      5281-4.73773E-04 1.68096E-02 4.87891E-19
 -1      5282-5.67983E-04 1.65734E-02 1.21973E-19
 -1      5283-3.47820E-04 1.68406E-02 2.12775E-18
 -1      5284-4.49164E-04 1.65979E-02 7.86047E-19
 -1      5285-2.17427E-04 1.68798E-02 8.26704E-19
 -1      5286-3.28516E-04 1.66278E-02-6.91179E-19
 -1      5287-7.96993E-05 1.69326E-02 1.11131E-18
 -1      5288-2.04014E-04 1.66667E-02-2.16840E-19
 -1      5289-7.23744E-05 1.67210E-02-3.52366E-19
 -1      5290-1.84111E-03 1.61738E-02-6.16640E-19
 -1      5291-1.91196E-03 1.59639E-02-2.49366E-18
 -1      5292-1.72086E-03 1.61935E-02 1.35525E-18
 -1      5293-1.79241E-03 1.59818E-02 8.13152E-19
 -1      5294-1.60004E-03 1.62115E-02 2.86636E-18
 -1      5295-1.67203E-03 1.59982E-02 1.72795E-18
 -1      5296-1.47914E-03 1.62284E-02-5.42101E-19
 -1      5297-1.55145E-03 1.60136E-02 2.14808E-18
 -1      5298-1.35855E-03 1.62447E-02-9.89334E-19
 -1      5299-1.43115E-03 1.60284E-02 3.52366E-19
 -1      5300-1.23858E-03 1.62605E-02-3.72694E-19
 -1      5301-1.31154E-03 1.60429E-02-1.26716E-18
 -1      5302-1.11947E-03 1.62762E-02 2.12775E-18
 -1      5303-1.19295E-03 1.60571E-02-9.08019E-19
 -1      5304-1.00142E-03 1.62920E-02-3.79471E-19
 -1      5305-1.07568E-03 1.60714E-02-2.71051E-20
 -1      5306-8.84576E-04 1.63080E-02-1.35525E-19
 -1      5307-9.59996E-04 1.60857E-02-1.32815E-18
 -1      5308-7.68989E-04 1.63247E-02 2.16840E-19
 -1      5309-8.46126E-04 1.61004E-02 2.98156E-19
 -1      5310-6.54608E-04 1.63424E-02-1.47723E-18
 -1      5311-7.34261E-04 1.61156E-02 1.49078E-19
 -1      5312-5.41184E-04 1.63621E-02 2.98156E-19
 -1      5313-6.24507E-04 1.61319E-02-5.01444E-19
 -1      5314-4.28146E-04 1.63851E-02 1.62630E-19
 -1      5315-5.16824E-04 1.61500E-02-7.58942E-19
 -1      5316-3.14376E-04 1.64138E-02 7.18284E-19
 -1      5317-4.10881E-04 1.61715E-02 1.30104E-18
 -1      5318-1.97832E-04 1.64524E-02-7.86047E-19
 -1      5319-3.05812E-04 1.61988E-02 5.01444E-19
 -1      5320-1.99728E-04 1.62367E-02-1.09775E-18
 -1      5321-1.86174E-03 1.57727E-02-1.96512E-19
 -1      5322-1.92877E-03 1.55662E-02-1.56532E-18
 -1      5323-1.74184E-03 1.57871E-02 7.31836E-19
 -1      5324-1.80946E-03 1.55783E-02 2.43945E-19
 -1      5325-1.62151E-03 1.58007E-02 1.09775E-18
 -1      5326-1.68938E-03 1.55899E-02-4.74338E-20
 -1      5327-1.50135E-03 1.58139E-02-6.30193E-19
 -1      5328-1.56928E-03 1.56013E-02-1.21973E-19
 -1      5329-1.38185E-03 1.58269E-02-2.77827E-19
 -1      5330-1.44971E-03 1.56126E-02-9.14796E-19
 -1      5331-1.26342E-03 1.58398E-02-2.31071E-18
 -1      5332-1.33118E-03 1.56241E-02-9.35124E-19
 -1      5333-1.14644E-03 1.58527E-02 1.70762E-18
 -1      5334-1.21410E-03 1.56356E-02 1.35525E-19
 -1      5335-1.03127E-03 1.58656E-02 1.49078E-19
 -1      5336-1.09891E-03 1.56472E-02 1.47723E-18
 -1      5337-9.18245E-04 1.58786E-02-6.36969E-19
 -1      5338-9.86022E-04 1.56590E-02 3.79471E-19
 -1      5339-8.07733E-04 1.58920E-02 5.69206E-19
 -1      5340-8.75899E-04 1.56708E-02-9.35124E-19
 -1      5341-7.00086E-04 1.59059E-02-6.77626E-19
 -1      5342-7.69045E-04 1.56830E-02-1.35525E-19
 -1      5343-5.95639E-04 1.59207E-02-7.72494E-19
 -1      5344-6.66020E-04 1.56955E-02-1.57209E-18
 -1      5345-4.94643E-04 1.59372E-02-9.08019E-19
 -1      5346-5.67446E-04 1.57088E-02-1.49078E-18
 -1      5347-3.97145E-04 1.59570E-02 1.40946E-18
 -1      5348-4.73965E-04 1.57236E-02 1.15196E-18
 -1      5349-3.02712E-04 1.59826E-02-2.57498E-19
 -1      5350-3.86143E-04 1.57414E-02 1.28749E-18
 -1      5351-3.04173E-04 1.57650E-02 3.79471E-19
 -1      5352-1.87485E-03 1.53721E-02 1.62630E-19
 -1      5353-1.93797E-03 1.51689E-02-2.23617E-19
 -1      5354-1.75511E-03 1.53812E-02 9.62229E-19
 -1      5355-1.81869E-03 1.51750E-02 9.82558E-19
 -1      5356-1.63503E-03 1.53905E-02 8.33480E-19
 -1      5357-1.69869E-03 1.51817E-02 8.06375E-19
 -1      5358-1.51530E-03 1.54000E-02 3.25261E-19
 -1      5359-1.57877E-03 1.51892E-02 1.16552E-18
 -1      5360-1.39647E-03 1.54099E-02-7.65718E-19
 -1      5361-1.45954E-03 1.51972E-02-3.65918E-19
 -1      5362-1.27902E-03 1.54200E-02 1.89735E-19
 -1      5363-1.34153E-03 1.52059E-02-2.16840E-19
 -1      5364-1.16341E-03 1.54304E-02 2.75116E-18
 -1      5365-1.22523E-03 1.52149E-02 2.30393E-19
 -1      5366-1.05011E-03 1.54409E-02 8.13152E-20
 -1      5367-1.11112E-03 1.52242E-02 6.36969E-19
 -1      5368-9.39629E-04 1.54516E-02-4.20128E-19
 -1      5369-9.99719E-04 1.52338E-02-2.07354E-18
 -1      5370-8.32530E-04 1.54624E-02 4.06576E-19
 -1      5371-8.91614E-04 1.52434E-02 1.35525E-19
 -1      5372-7.29489E-04 1.54733E-02-7.86047E-19
 -1      5373-7.87495E-04 1.52531E-02-5.55654E-19
 -1      5374-6.31304E-04 1.54845E-02-4.74338E-19
 -1      5375-6.88197E-04 1.52628E-02 8.13152E-20
 -1      5376-5.38924E-04 1.54962E-02-3.38813E-19
 -1      5377-5.94755E-04 1.52726E-02-1.08420E-19
 -1      5378-4.53451E-04 1.55091E-02 1.39591E-18
 -1      5379-5.08450E-04 1.52825E-02 1.13841E-18
 -1      5380-3.76064E-04 1.55245E-02 5.82759E-19
 -1      5381-4.30838E-04 1.52930E-02 1.19262E-18
 -1      5382-3.63681E-04 1.53049E-02-1.89735E-19
 -1      5383-1.88011E-03 1.49715E-02-1.42302E-18
 -1      5384-1.93937E-03 1.47713E-02-2.42590E-18
 -1      5385-1.76030E-03 1.49753E-02 1.19262E-18
 -1      5386-1.81989E-03 1.47713E-02-1.19940E-18
 -1      5387-1.64022E-03 1.49802E-02 1.07743E-18
 -1      5388-1.69973E-03 1.47733E-02 2.77827E-19
 -1      5389-1.52056E-03 1.49862E-02 6.50521E-19
 -1      5390-1.57967E-03 1.47769E-02 3.99800E-19
 -1      5391-1.40189E-03 1.49931E-02-9.62229E-19
 -1      5392-1.46033E-03 1.47818E-02-6.84403E-19
 -1      5393-1.28473E-03 1.50007E-02 6.09864E-19
 -1      5394-1.34223E-03 1.47877E-02-1.89735E-19
 -1      5395-1.16955E-03 1.50087E-02 2.24972E-18
 -1      5396-1.22585E-03 1.47944E-02 9.21572E-19
 -1      5397-1.05687E-03 1.50172E-02-1.49078E-19
 -1      5398-1.11168E-03 1.48016E-02 1.57209E-18
 -1      5399-9.47252E-04 1.50258E-02 3.65918E-19
 -1      5400-1.00024E-03 1.48091E-02 4.87891E-19
 -1      5401-8.41335E-04 1.50344E-02-2.71051E-19
 -1      5402-8.92093E-04 1.48168E-02 3.25261E-19
 -1      5403-7.39912E-04 1.50430E-02 3.93023E-19
 -1      5404-7.87936E-04 1.48243E-02 1.50433E-18
 -1      5405-6.43954E-04 1.50513E-02-3.38813E-19
 -1      5406-6.88601E-04 1.48316E-02-3.38813E-19
 -1      5407-5.54681E-04 1.50594E-02 2.71051E-20
 -1      5408-5.95115E-04 1.48383E-02-1.49078E-19
 -1      5409-4.73619E-04 1.50669E-02 1.35525E-18
 -1      5410-5.08753E-04 1.48440E-02 9.62229E-19
 -1      5411-4.02622E-04 1.50740E-02 6.50521E-19
 -1      5412-4.31067E-04 1.48481E-02 8.67362E-19
 -1      5413-3.63805E-04 1.48497E-02 1.28749E-18
 -1      5414-1.87747E-03 1.45704E-02-1.43657E-18
 -1      5415-1.93303E-03 1.43727E-02-4.60786E-19
 -1      5416-1.75737E-03 1.45688E-02 2.83925E-18
 -1      5417-1.81316E-03 1.43669E-02 1.35525E-20
 -1      5418-1.63699E-03 1.45695E-02 7.31836E-19
 -1      5419-1.69259E-03 1.43642E-02 2.12775E-18
 -1      5420-1.51701E-03 1.45720E-02 3.99800E-19
 -1      5421-1.57207E-03 1.43640E-02 9.21572E-19
 -1      5422-1.39798E-03 1.45760E-02-8.40257E-19
 -1      5423-1.45217E-03 1.43657E-02-2.71051E-20
 -1      5424-1.28036E-03 1.45811E-02 1.24683E-18
 -1      5425-1.33336E-03 1.43690E-02-2.16840E-19
 -1      5426-1.16462E-03 1.45869E-02 8.53809E-19
 -1      5427-1.21606E-03 1.43733E-02 1.08420E-18
 -1      5428-1.05122E-03 1.45933E-02-4.74338E-19
 -1      5429-1.10069E-03 1.43783E-02 1.62630E-19
 -1      5430-9.40646E-04 1.45999E-02 3.93023E-19
 -1      5431-9.87663E-04 1.43838E-02-7.45389E-19
 -1      5432-8.33471E-04 1.46065E-02-8.13152E-20
 -1      5433-8.77420E-04 1.43893E-02 7.31836E-19
 -1      5434-7.30357E-04 1.46128E-02-8.67362E-19
 -1      5435-7.70454E-04 1.43946E-02-1.16552E-18
 -1      5436-6.32091E-04 1.46183E-02-9.48677E-19
 -1      5437-6.67317E-04 1.43991E-02-1.70762E-18
 -1      5438-5.39614E-04 1.46227E-02-2.57498E-19
 -1      5439-5.68613E-04 1.44023E-02 1.21973E-19
 -1      5440-4.54015E-04 1.46249E-02 6.64074E-19
 -1      5441-4.74970E-04 1.44031E-02 4.06576E-20
 -1      5442-3.76456E-04 1.46237E-02-8.53809E-19
 -1      5443-3.86937E-04 1.44000E-02-9.08019E-19
 -1      5444-3.04680E-04 1.43900E-02-1.45012E-18
 -1      5445-1.86713E-03 1.41679E-02-1.26039E-18
 -1      5446-1.91934E-03 1.39723E-02-1.36203E-18
 -1      5447-1.74653E-03 1.41612E-02 9.28348E-19
 -1      5448-1.79885E-03 1.39609E-02-1.54499E-18
 -1      5449-1.62560E-03 1.41578E-02-2.10064E-19
 -1      5450-1.67766E-03 1.39538E-02-1.32137E-18
 -1      5451-1.50494E-03 1.41570E-02 3.93023E-19
 -1      5452-1.55640E-03 1.39500E-02 4.54010E-19
 -1      5453-1.38503E-03 1.41581E-02 4.81115E-19
 -1      5454-1.43553E-03 1.39486E-02-1.62630E-19
 -1      5455-1.26628E-03 1.41606E-02 4.13352E-19
 -1      5456-1.31546E-03 1.39491E-02 7.92823E-19
 -1      5457-1.14903E-03 1.41642E-02 1.35525E-18
 -1      5458-1.19650E-03 1.39510E-02 4.47233E-19
 -1      5459-1.03364E-03 1.41684E-02-1.15196E-18
 -1      5460-1.07894E-03 1.39537E-02 1.42302E-18
 -1      5461-9.20447E-04 1.41727E-02 8.94467E-19
 -1      5462-9.63011E-04 1.39568E-02-5.82759E-19
 -1      5463-8.09783E-04 1.41769E-02 4.74338E-19
 -1      5464-8.48939E-04 1.39598E-02 1.31460E-18
 -1      5465-7.01989E-04 1.41804E-02-1.95156E-18
 -1      5466-7.36888E-04 1.39621E-02 7.99599E-19
 -1      5467-5.97384E-04 1.41824E-02-2.84603E-19
 -1      5468-6.26948E-04 1.39630E-02-1.24683E-18
 -1      5469-4.96202E-04 1.41820E-02 8.40257E-19
 -1      5470-5.19056E-04 1.39614E-02-4.87891E-19
 -1      5471-3.98469E-04 1.41775E-02 1.58565E-18
 -1      5472-4.12861E-04 1.39558E-02 2.64274E-18
 -1      5473-3.03728E-04 1.41660E-02-1.95156E-18
 -1      5474-3.07476E-04 1.39433E-02 2.03288E-19
 -1      5475-2.00983E-04 1.39189E-02 9.21572E-19
 -1      5476-1.84961E-03 1.37636E-02-1.07743E-18
 -1      5477-1.89888E-03 1.35695E-02 8.74138E-19
 -1      5478-1.72832E-03 1.37522E-02-3.25261E-19
 -1      5479-1.77762E-03 1.35531E-02-1.18585E-18
 -1      5480-1.60660E-03 1.37448E-02 2.64274E-19
 -1      5481-1.65562E-03 1.35418E-02-2.50722E-19
 -1      5482-1.48495E-03 1.37406E-02 1.49078E-19
 -1      5483-1.53337E-03 1.35344E-02-4.81115E-19
 -1      5484-1.36375E-03 1.37388E-02-7.04731E-19
 -1      5485-1.41123E-03 1.35300E-02-7.11508E-19
 -1      5486-1.24328E-03 1.37388E-02 1.00966E-18
 -1      5487-1.28948E-03 1.35277E-02-3.38813E-19
 -1      5488-1.12377E-03 1.37398E-02 1.26039E-18
 -1      5489-1.16830E-03 1.35269E-02 1.55854E-18
 -1      5490-1.00541E-03 1.37415E-02-2.43945E-19
 -1      5491-1.04782E-03 1.35269E-02 7.31836E-19
 -1      5492-8.88298E-04 1.37432E-02 6.64074E-19
 -1      5493-9.28075E-04 1.35272E-02-1.40946E-18
 -1      5494-7.72481E-04 1.37443E-02 3.52366E-19
 -1      5495-8.09017E-04 1.35271E-02 2.98156E-19
 -1      5496-6.57879E-04 1.37440E-02 3.38813E-19
 -1      5497-6.90452E-04 1.35257E-02 1.28749E-18
 -1      5498-5.44222E-04 1.37414E-02-1.50433E-18
 -1      5499-5.71980E-04 1.35219E-02-1.49078E-19
 -1      5500-4.30917E-04 1.37347E-02 3.25261E-19
 -1      5501-4.52876E-04 1.35143E-02-8.13152E-19
 -1      5502-3.16825E-04 1.37214E-02 1.50433E-18
 -1      5503-3.31897E-04 1.35004E-02 8.40257E-19
 -1      5504-1.99880E-04 1.36971E-02 4.06576E-20
 -1      5505-2.06997E-04 1.34763E-02 6.36969E-19
 -1      5506-7.48780E-05 1.34357E-02 3.11708E-19
 -1      5507-1.82564E-03 1.33569E-02-6.23416E-19
 -1      5508-1.87249E-03 1.31638E-02 5.01444E-19
 -1      5509-1.70350E-03 1.33411E-02 7.86047E-19
 -1      5510-1.75031E-03 1.31429E-02-6.36969E-19
 -1      5511-1.58082E-03 1.33301E-02 5.14996E-19
 -1      5512-1.62736E-03 1.31278E-02 7.58942E-19
 -1      5513-1.45796E-03 1.33226E-02-7.04731E-19
 -1      5514-1.50397E-03 1.31170E-02-3.04932E-19
 -1      5515-1.33516E-03 1.33179E-02-6.91179E-19
 -1      5516-1.38036E-03 1.31095E-02-7.04731E-19
 -1      5517-1.21259E-03 1.33150E-02 1.17229E-18
 -1      5518-1.25667E-03 1.31044E-02 1.72117E-18
 -1      5519-1.09032E-03 1.33133E-02 6.36969E-19
 -1      5520-1.13295E-03 1.31007E-02 2.98156E-19
 -1      5521-9.68359E-04 1.33121E-02-7.31836E-19
 -1      5522-1.00917E-03 1.30978E-02-5.69206E-19
 -1      5523-8.46580E-04 1.33106E-02 1.00289E-18
 -1      5524-8.85163E-04 1.30948E-02-2.84603E-19
 -1      5525-7.24725E-04 1.33079E-02-9.48677E-19
 -1      5526-7.60642E-04 1.30909E-02-6.36969E-19
 -1      5527-6.02323E-04 1.33031E-02 5.96311E-19
 -1      5528-6.35105E-04 1.30850E-02-3.65918E-19
 -1      5529-4.78594E-04 1.32946E-02-1.31460E-18
 -1      5530-5.07774E-04 1.30757E-02-8.80914E-19
 -1      5531-3.52295E-04 1.32801E-02-9.48677E-20
 -1      5532-3.77467E-04 1.30609E-02-6.50521E-19
 -1      5533-2.21498E-04 1.32565E-02 1.62630E-18
 -1      5534-2.42437E-04 1.30376E-02 2.30393E-18
 -1      5535-8.32988E-05 1.32181E-02 4.87891E-19
 -1      5536-1.00178E-04 1.30013E-02 1.17907E-18
 -1      5537 5.27738E-05 1.29449E-02-2.84603E-19
 -1      5538-1.79615E-03 1.29475E-02-6.23416E-19
 -1      5539-1.84113E-03 1.27549E-02 2.16840E-19
 -1      5540-1.67305E-03 1.29278E-02 6.50521E-19
 -1      5541-1.71796E-03 1.27301E-02 2.98156E-19
 -1      5542-1.54930E-03 1.29133E-02 1.35525E-19
 -1      5543-1.59398E-03 1.27115E-02 4.74338E-19
 -1      5544-1.42509E-03 1.29027E-02-3.72694E-19
 -1      5545-1.46936E-03 1.26976E-02-2.71051E-20
 -1      5546-1.30054E-03 1.28951E-02 8.53809E-19
 -1      5547-1.34420E-03 1.26872E-02 3.72694E-19
 -1      5548-1.17568E-03 1.28893E-02 6.70850E-19
 -1      5549-1.21848E-03 1.26791E-02 8.06375E-19
 -1      5550-1.05045E-03 1.28845E-02-3.93023E-19
 -1      5551-1.09216E-03 1.26724E-02 1.42302E-19
 -1      5552-9.24682E-04 1.28800E-02-6.77626E-20
 -1      5553-9.65027E-04 1.26662E-02 1.62630E-19
 -1      5554-7.98055E-04 1.28748E-02 2.57498E-19
 -1      5555-8.36792E-04 1.26596E-02-2.30393E-19
 -1      5556-6.70079E-04 1.28678E-02-8.94467E-19
 -1      5557-7.06976E-04 1.26515E-02 2.16840E-19
 -1      5558-5.40008E-04 1.28577E-02-6.50521E-19
 -1      5559-5.74889E-04 1.26406E-02-1.07065E-18
 -1      5560-4.06758E-04 1.28425E-02-1.24683E-18
 -1      5561-4.39556E-04 1.26251E-02-5.82759E-19
 -1      5562-2.68784E-04 1.28197E-02 1.39591E-18
 -1      5563-2.99637E-04 1.26028E-02-7.99599E-19
 -1      5564-1.23958E-04 1.27853E-02 2.84603E-18
 -1      5565-1.53344E-04 1.25702E-02 1.88380E-18
 -1      5566 3.05307E-05 1.27336E-02 1.55854E-18
 -1      5567 1.59401E-06 1.25226E-02 2.73761E-18
 -1      5568 1.67823E-04 1.24532E-02 7.58942E-19
 -1      5569-1.76219E-03 1.25350E-02-4.74338E-19
 -1      5570-1.80588E-03 1.23424E-02 2.16840E-19
 -1      5571-1.63808E-03 1.25119E-02 4.74338E-19
 -1      5572-1.68167E-03 1.23145E-02-3.38813E-19
 -1      5573-1.51320E-03 1.24944E-02 2.37169E-19
 -1      5574-1.55664E-03 1.22930E-02 1.69407E-19
 -1      5575-1.38762E-03 1.24808E-02 5.28549E-19
 -1      5576-1.43081E-03 1.22762E-02 5.89535E-19
 -1      5577-1.26131E-03 1.24702E-02-1.17907E-18
 -1      5578-1.30412E-03 1.22628E-02-7.92823E-19
 -1      5579-1.13419E-03 1.24614E-02-2.23617E-19
 -1      5580-1.17646E-03 1.22518E-02-1.07743E-18
 -1      5581-1.00607E-03 1.24535E-02-6.30193E-19
 -1      5582-1.04767E-03 1.22420E-02-1.40946E-18
 -1      5583-8.76653E-04 1.24455E-02-7.58942E-19
 -1      5584-9.17451E-04 1.22324E-02-4.47233E-19
 -1      5585-7.45506E-04 1.24362E-02 2.71051E-19
 -1      5586-7.85404E-04 1.22220E-02-6.36969E-19
 -1      5587-6.11999E-04 1.24245E-02-1.00289E-18
 -1      5588-6.50968E-04 1.22095E-02-7.31836E-19
 -1      5589-4.75269E-04 1.24088E-02 4.06576E-20
 -1      5590-5.13390E-04 1.21934E-02-1.00289E-18
 -1      5591-3.34167E-04 1.23869E-02-1.92446E-18
 -1      5592-3.71690E-04 1.21719E-02-4.87891E-19
 -1      5593-1.87205E-04 1.23559E-02 4.60786E-19
 -1      5594-2.24636E-04 1.21424E-02-1.77538E-18
 -1      5595-3.25555E-05 1.23119E-02 1.23328E-18
 -1      5596-7.07604E-05 1.21016E-02 9.48677E-20
 -1      5597 1.31836E-04 1.22494E-02 2.53432E-18
 -1      5598 9.15355E-05 1.20450E-02 6.64074E-19
 -1      5599 2.63670E-04 1.19667E-02-2.30393E-19
 -1      5600-1.72487E-03 1.21193E-02-1.85670E-18
 -1      5601-1.59975E-03 1.20935E-02 3.04932E-19
 -1      5602-1.47378E-03 1.20732E-02 5.42101E-19
 -1      5603-1.34687E-03 1.20569E-02-1.02322E-18
 -1      5604-1.21891E-03 1.20435E-02 3.11708E-19
 -1      5605-1.08971E-03 1.20317E-02-1.22650E-18
 -1      5606-9.59005E-04 1.20205E-02-9.08019E-19
 -1      5607-8.26417E-04 1.20089E-02-1.23328E-18
 -1      5608-6.91452E-04 1.19955E-02 5.01444E-19
 -1      5609-5.53458E-04 1.19791E-02-2.16840E-19
 -1      5610-4.11606E-04 1.19579E-02-6.36969E-19
 -1      5611-2.64879E-04 1.19297E-02-5.69206E-19
 -1      5612-1.12099E-04 1.18917E-02-1.88380E-18
 -1      5613 4.79758E-05 1.18401E-02 1.26039E-18
 -1      5614 2.16405E-04 1.17703E-02 2.64274E-19
 -1      5615-1.66696E-03 1.15093E-02-2.54110E-19
 -1      5616-1.54042E-03 1.14807E-02 1.01644E-19
 -1      5617-1.41300E-03 1.14572E-02 3.93023E-19
 -1      5618-1.28443E-03 1.14374E-02-5.45489E-19
 -1      5619-1.15447E-03 1.14202E-02-2.81215E-19
 -1      5620-1.02283E-03 1.14042E-02-4.57398E-19
 -1      5621-8.89205E-04 1.13885E-02 1.42302E-19
 -1      5622-7.53194E-04 1.13718E-02 5.69206E-19
 -1      5623-6.14336E-04 1.13528E-02-6.20028E-19
 -1      5624-4.72087E-04 1.13301E-02 1.72795E-19
 -1      5625-3.25840E-04 1.13021E-02-6.77626E-20
 -1      5626-1.74971E-04 1.12665E-02-3.04932E-19
 -1      5627-1.89216E-05 1.12211E-02-2.37169E-19
 -1      5628 1.42627E-04 1.11629E-02 2.47334E-19
 -1      5629 3.09488E-04 1.10887E-02 3.04932E-19
 -1      5630-1.62796E-03 1.11057E-02-5.48877E-19
 -1      5631-1.50060E-03 1.10758E-02 3.48978E-19
 -1      5632-1.37236E-03 1.10508E-02 2.77827E-19
 -1      5633-1.24291E-03 1.10291E-02 2.40557E-19
 -1      5634-1.11196E-03 1.10097E-02-1.42302E-19
 -1      5635-9.79190E-04 1.09913E-02-4.74338E-20
 -1      5636-8.44284E-04 1.09729E-02-3.79471E-19
 -1      5637-7.06880E-04 1.09532E-02 1.21973E-19
 -1      5638-5.66587E-04 1.09310E-02-2.30393E-19
 -1      5639-4.22987E-04 1.09049E-02 2.20229E-19
 -1      5640-2.75670E-04 1.08733E-02 3.38813E-20
 -1      5641-1.24293E-04 1.08344E-02 1.52466E-19
 -1      5642 3.13176E-05 1.07861E-02-1.15196E-19
 -1      5643 1.91002E-04 1.07263E-02 1.42302E-19
 -1      5644 3.54044E-04 1.06526E-02-4.13352E-19
 -1      5645-1.58912E-03 1.06995E-02-5.62430E-19
 -1      5646-1.46103E-03 1.06690E-02 7.72494E-19
 -1      5647-1.33212E-03 1.06428E-02-5.21772E-19
 -1      5648-1.20199E-03 1.06196E-02 2.71051E-19
 -1      5649-1.07032E-03 1.05983E-02-6.16640E-19
 -1      5650-9.36790E-04 1.05778E-02 1.11808E-19
 -1      5651-8.01105E-04 1.05570E-02 2.23617E-19
 -1      5652-6.62956E-04 1.05347E-02-2.47334E-19
 -1      5653-5.22040E-04 1.05098E-02-4.47233E-19
 -1      5654-3.78077E-04 1.04809E-02 3.69306E-19
 -1      5655-2.30851E-04 1.04468E-02-7.28448E-19
 -1      5656-8.02718E-05 1.04057E-02-3.11708E-19
 -1      5657 7.35260E-05 1.03560E-02 6.43745E-20
 -1      5658 2.30049E-04 1.02962E-02 1.82959E-19
 -1      5659 3.88280E-04 1.02248E-02 7.86047E-19
 -1      5660-1.55113E-03 1.02911E-02-4.57398E-19
 -1      5661-1.42242E-03 1.02605E-02 4.74338E-20
 -1      5662-1.29297E-03 1.02335E-02 4.74338E-20
 -1      5663-1.16235E-03 1.02092E-02 7.55553E-19
 -1      5664-1.03023E-03 1.01864E-02 3.38813E-19
 -1      5665-8.96304E-04 1.01640E-02-3.38813E-20
 -1      5666-7.60301E-04 1.01412E-02-3.38813E-20
 -1      5667-6.21977E-04 1.01168E-02 2.13452E-19
 -1      5668-4.81127E-04 1.00898E-02-1.32137E-19
 -1      5669-3.37600E-04 1.00589E-02-2.98156E-19
 -1      5670-1.91351E-04 1.00230E-02 3.86247E-19
 -1      5671-4.24901E-05 9.98073E-03 6.77626E-21
 -1      5672 1.08630E-04 9.93094E-03-6.77626E-20
 -1      5673 2.61315E-04 9.87249E-03 1.35525E-20
 -1      5674 4.14429E-04 9.80465E-03-1.59242E-19
 -1      5675-1.51455E-03 9.88076E-03-1.08420E-19
 -1      5676-1.38534E-03 9.85043E-03 2.33781E-19
 -1      5677-1.25549E-03 9.82316E-03 4.26905E-19
 -1      5678-1.12456E-03 9.79801E-03 1.35525E-20
 -1      5679-9.92236E-04 9.77403E-03 3.38813E-19
 -1      5680-8.58222E-04 9.75031E-03-3.69306E-19
 -1      5681-7.22292E-04 9.72593E-03 5.65818E-19
 -1      5682-5.84266E-04 9.69991E-03-2.43945E-19
 -1      5683-4.44026E-04 9.67130E-03-4.09964E-19
 -1      5684-3.01536E-04 9.63907E-03 1.05032E-19
 -1      5685-1.56884E-04 9.60222E-03-1.52466E-19
 -1      5686-1.03240E-05 9.55976E-03 3.79471E-19
 -1      5687 1.37656E-04 9.51079E-03-2.37169E-20
 -1      5688 2.86272E-04 9.45465E-03-1.32137E-19
 -1      5689 4.34387E-04 9.39107E-03 2.33781E-19
 -1      5690-1.47983E-03 9.46881E-03-4.84503E-19
 -1      5691-1.35022E-03 9.43915E-03 0.00000E+00
 -1      5692-1.22010E-03 9.41193E-03-2.67662E-19
 -1      5693-1.08904E-03 9.38635E-03-2.30393E-19
 -1      5694-9.56711E-04 9.36161E-03 2.60886E-19
 -1      5695-8.22870E-04 9.33689E-03-5.72594E-19
 -1      5696-6.87327E-04 9.31138E-03 3.38813E-20
 -1      5697-5.49962E-04 9.28424E-03 4.20128E-19
 -1      5698-4.10732E-04 9.25462E-03-6.43745E-20
 -1      5699-2.69693E-04 9.22168E-03-1.32137E-19
 -1      5700-1.27027E-04 9.18460E-03-6.77626E-20
 -1      5701 1.69202E-05 9.14265E-03 1.11808E-19
 -1      5702 1.61594E-04 9.09523E-03-9.48677E-20
 -1      5703 3.06198E-04 9.04200E-03-5.42101E-20
 -1      5704 4.49672E-04 8.98303E-03-2.30393E-19
 -1      5705-1.44728E-03 9.05558E-03 1.38913E-19
 -1      5706-1.31739E-03 9.02692E-03 1.93124E-19
 -1      5707-1.18712E-03 9.00008E-03 1.42302E-19
 -1      5708-1.05605E-03 8.97442E-03 1.01644E-19
 -1      5709-9.23896E-04 8.94928E-03-3.38813E-21
 -1      5710-7.90430E-04 8.92396E-03 3.86247E-19
 -1      5711-6.55510E-04 8.89776E-03 3.04932E-19
 -1      5712-5.19067E-04 8.86996E-03-3.32037E-19
 -1      5713-3.81117E-04 8.83985E-03-1.32137E-19
 -1      5714-2.41781E-04 8.80675E-03-1.45690E-19
 -1      5715-1.01302E-04 8.77003E-03-1.35525E-20
 -1      5716 3.99239E-05 8.72917E-03 3.59142E-19
 -1      5717 1.81329E-04 8.68379E-03-7.79270E-20
 -1      5718 3.22154E-04 8.63382E-03 4.74338E-20
 -1      5719 4.61451E-04 8.57952E-03 1.82959E-19
 -1      5720-1.41711E-03 8.64141E-03-2.27005E-19
 -1      5721-1.28705E-03 8.61401E-03-1.69407E-19
 -1      5722-1.15673E-03 8.58784E-03 1.18585E-19
 -1      5723-1.02577E-03 8.56242E-03-9.82558E-20
 -1      5724-8.93915E-04 8.53722E-03 1.59242E-19
 -1      5725-7.60974E-04 8.51167E-03-7.79270E-20
 -1      5726-6.26840E-04 8.48518E-03 6.43745E-20
 -1      5727-4.91484E-04 8.45715E-03-1.21973E-19
 -1      5728-3.54970E-04 8.42702E-03-2.37169E-20
 -1      5729-2.17459E-04 8.39423E-03 9.82558E-20
 -1      5730-7.92293E-05 8.35834E-03 3.72694E-19
 -1      5731 5.93117E-05 8.31898E-03-1.01644E-19
 -1      5732 1.97614E-04 8.27597E-03-1.35525E-20
 -1      5733 3.34984E-04 8.22941E-03-8.13152E-20
 -1      5734 4.70603E-04 8.17968E-03-1.35525E-20
 -1      5735-1.38946E-03 8.22659E-03 1.05032E-19
 -1      5736-1.25931E-03 8.20064E-03-3.69306E-19
 -1      5737-1.12902E-03 8.17539E-03 2.30393E-19
 -1      5738-9.98260E-04 8.15050E-03 1.79571E-19
 -1      5739-8.66800E-04 8.12556E-03 5.25160E-19
 -1      5740-7.34482E-04 8.10012E-03-4.94667E-19
 -1      5741-6.01231E-04 8.07370E-03 3.52366E-19
 -1      5742-4.67053E-04 8.04583E-03 1.01644E-19
 -1      5743-3.32040E-04 8.01606E-03-1.62630E-19
 -1      5744-1.96377E-04 7.98399E-03 6.50521E-19
 -1      5745-6.03533E-05 7.94927E-03-6.77626E-21
 -1      5746 7.56329E-05 7.91172E-03-3.99800E-19
 -1      5747 2.11072E-04 7.87127E-03-1.62630E-19
 -1      5748 3.45351E-04 7.82814E-03-2.54110E-19
 -1      5749 4.77776E-04 7.78277E-03 3.55754E-19
 -1      5750-1.36436E-03 7.81139E-03-9.14796E-20
 -1      5751-1.23419E-03 7.78705E-03 1.69407E-19
 -1      5752-1.10400E-03 7.76292E-03 1.05032E-19
 -1      5753-9.73509E-04 7.73880E-03 3.38813E-20
 -1      5754-8.42504E-04 7.71439E-03-4.06576E-20
 -1      5755-7.10865E-04 7.68936E-03-6.40357E-19
 -1      5756-5.78544E-04 7.66334E-03 8.47033E-20
 -1      5757-4.45570E-04 7.63596E-03 1.49078E-19
 -1      5758-3.12053E-04 7.60689E-03 2.37169E-20
 -1      5759-1.78189E-04 7.57583E-03-6.36969E-19
 -1      5760-4.42606E-05 7.54257E-03 1.55854E-19
 -1      5761 8.93587E-05 7.50701E-03-1.38913E-19
 -1      5762 2.22211E-04 7.46921E-03 6.09864E-20
 -1      5763 3.53766E-04 7.42943E-03-1.35525E-19
 -1      5764 4.83448E-04 7.38816E-03-4.09964E-19
 -1      5765-1.34177E-03 7.39608E-03 5.42101E-20
 -1      5766-1.21166E-03 7.37342E-03-1.32137E-19
 -1      5767-1.08163E-03 7.35057E-03-1.35525E-20
 -1      5768-9.51440E-04 7.32742E-03 4.06576E-20
 -1      5769-8.20924E-04 7.30379E-03-9.82558E-20
 -1      5770-6.89985E-04 7.27942E-03 2.03288E-19
 -1      5771-5.58598E-04 7.25407E-03-1.11808E-19
 -1      5772-4.26808E-04 7.22746E-03-5.04832E-19
 -1      5773-2.94734E-04 7.19936E-03 4.47233E-19
 -1      5774-1.62570E-04 7.16956E-03-2.91379E-19
 -1      5775-3.05832E-05 7.13794E-03 3.59142E-19
 -1      5776 1.00887E-04 7.10450E-03 9.48677E-20
 -1      5777 2.31439E-04 7.06936E-03 4.16740E-19
 -1      5778 3.60622E-04 7.03281E-03 2.16840E-19
 -1      5779 4.87966E-04 6.99535E-03-2.37169E-19
 -1      5780-1.32163E-03 6.98084E-03-7.11508E-20
 -1      5781-1.19162E-03 6.95992E-03-4.74338E-20
 -1      5782-1.06179E-03 6.93847E-03 3.93023E-19
 -1      5783-9.31930E-04 6.91645E-03 1.79571E-19
 -1      5784-8.01915E-04 6.89378E-03-2.10064E-19
 -1      5785-6.71672E-04 6.87031E-03-1.38913E-19
 -1      5786-5.41192E-04 6.84586E-03 9.48677E-20
 -1      5787-4.10532E-04 6.82025E-03 1.62630E-19
 -1      5788-2.79814E-04 6.79332E-03-1.08420E-19
 -1      5789-1.49220E-04 6.76496E-03 2.03288E-20
 -1      5790-1.89979E-05 6.73513E-03 5.08220E-20
 -1      5791 1.10552E-04 6.70386E-03-2.13452E-19
 -1      5792 2.39084E-04 6.67134E-03-7.79270E-20
 -1      5793 3.66221E-04 6.63787E-03-1.35525E-19
 -1      5794 4.91583E-04 6.60392E-03 9.82558E-20
 -1      5795-1.30380E-03 6.56587E-03-4.40457E-19
 -1      5796-1.17394E-03 6.54670E-03 9.82558E-20
 -1      5797-1.04433E-03 6.52670E-03-3.38813E-19
 -1      5798-9.14823E-04 6.50595E-03-9.48677E-20
 -1      5799-7.85305E-04 6.48440E-03-8.13152E-20
 -1      5800-6.55732E-04 6.46200E-03 1.28749E-19
 -1      5801-5.26112E-04 6.43863E-03-1.96512E-19
 -1      5802-3.96506E-04 6.41420E-03 4.40457E-20
 -1      5803-2.67034E-04 6.38862E-03-1.18585E-19
 -1      5804-1.37866E-04 6.36183E-03-4.40457E-20
 -1      5805-9.22244E-06 6.33386E-03-1.38913E-19
 -1      5806 1.18634E-04 6.30479E-03-1.76183E-19
 -1      5807 2.45410E-04 6.27481E-03 2.03288E-19
 -1      5808 3.70795E-04 6.24425E-03 7.45389E-20
 -1      5809 4.94486E-04 6.21354E-03-2.30393E-19
 -1      5810-1.28815E-03 6.15130E-03-2.77827E-19
 -1      5811-1.15847E-03 6.13385E-03-6.43745E-20
 -1      5812-1.02911E-03 6.11536E-03-8.13152E-20
 -1      5813-8.99943E-04 6.09595E-03-1.72795E-19
 -1      5814-7.70904E-04 6.07565E-03-7.45389E-20
 -1      5815-6.41963E-04 6.05445E-03 2.30393E-19
 -1      5816-5.13140E-04 6.03232E-03 0.00000E+00
 -1      5817-3.84500E-04 6.00921E-03-2.57498E-19
 -1      5818-2.56155E-04 5.98509E-03 3.69306E-19
 -1      5819-1.28261E-04 5.95997E-03 3.01544E-19
 -1      5820-1.01128E-06 5.93390E-03-2.71051E-19
 -1      5821 1.25368E-04 5.90701E-03 8.13152E-20
 -1      5822 2.50631E-04 5.87950E-03 1.38913E-19
 -1      5823 3.74527E-04 5.85167E-03-3.45589E-19
 -1      5824 4.96815E-04 5.82394E-03 6.77626E-21
 -1      5825-1.27452E-03 5.73723E-03 8.13152E-20
 -1      5826-1.14504E-03 5.72146E-03 4.74338E-20
 -1      5827-1.01592E-03 5.70449E-03-5.42101E-20
 -1      5828-8.87099E-04 5.68648E-03 8.13152E-20
 -1      5829-7.58513E-04 5.66751E-03 2.57498E-19
 -1      5830-6.30158E-04 5.64763E-03 1.82959E-19
 -1      5831-5.02062E-04 5.62684E-03-4.74338E-20
 -1      5832-3.74291E-04 5.60516E-03 2.37169E-19
 -1      5833-2.46952E-04 5.58260E-03-1.96512E-19
 -1      5834-1.20182E-04 5.55921E-03 1.11808E-19
 -1      5835 5.84995E-06 5.53506E-03-4.06576E-20
 -1      5836 1.30953E-04 5.51031E-03 1.32137E-19
 -1      5837 2.54923E-04 5.48516E-03-4.06576E-20
 -1      5838 3.77560E-04 5.45990E-03-6.09864E-20
 -1      5839 4.98676E-04 5.43491E-03 4.50622E-19
 -1      5840-1.26272E-03 5.32375E-03-2.64274E-19
 -1      5841-1.13346E-03 5.30960E-03-4.06576E-20
 -1      5842-1.00460E-03 5.29414E-03-2.71051E-19
 -1      5843-8.76098E-04 5.27756E-03 1.72795E-19
 -1      5844-7.47934E-04 5.25998E-03-1.72795E-19
 -1      5845-6.20113E-04 5.24148E-03-9.82558E-20
 -1      5846-4.92671E-04 5.22212E-03 5.08220E-20
 -1      5847-3.65674E-04 5.20195E-03-3.11708E-19
 -1      5848-2.39219E-04 5.18100E-03 3.21873E-19
 -1      5849-1.13430E-04 5.15936E-03-7.11508E-20
 -1      5850 1.15487E-05 5.13714E-03 3.04932E-20
 -1      5851 1.35558E-04 5.11448E-03 5.75982E-20
 -1      5852 2.58431E-04 5.09159E-03-2.50722E-19
 -1      5853 3.80010E-04 5.06875E-03-8.80914E-20
 -1      5854 5.00151E-04 5.04629E-03-1.45690E-19
 -1      5855-1.25260E-03 4.91090E-03 1.32137E-19
 -1      5856-1.12355E-03 4.89829E-03-2.03288E-19
 -1      5857-9.94941E-04 4.88431E-03 2.37169E-19
 -1      5858-8.66748E-04 4.86917E-03-6.43745E-20
 -1      5859-7.38972E-04 4.85302E-03-3.38813E-21
 -1      5860-6.11631E-04 4.83597E-03 2.30393E-19
 -1      5861-4.84769E-04 4.81809E-03 6.77626E-21
 -1      5862-3.58452E-04 4.79947E-03 3.15096E-19
 -1      5863-2.32769E-04 4.78017E-03-4.20128E-19
 -1      5864-1.07827E-04 4.76030E-03 2.71051E-19
 -1      5865 1.62493E-05 4.73998E-03-3.65918E-19
 -1      5866 1.39329E-04 4.71935E-03 8.47033E-20
 -1      5867 2.61278E-04 4.69863E-03 7.45389E-20
 -1      5868 3.81972E-04 4.67806E-03 6.77626E-21
 -1      5869 5.01306E-04 4.65794E-03-8.47033E-20
 -1      5870-1.24396E-03 4.49872E-03-1.62630E-19
 -1      5871-1.11514E-03 4.48757E-03-4.74338E-20
 -1      5872-9.86771E-04 4.47503E-03-1.55854E-19
 -1      5873-8.58864E-04 4.46132E-03-1.18585E-19
 -1      5874-7.31439E-04 4.44661E-03-1.93124E-19
 -1      5875-6.04526E-04 4.43102E-03-2.10064E-19
 -1      5876-4.78174E-04 4.41466E-03 3.38813E-21
 -1      5877-3.52449E-04 4.39762E-03 1.11808E-19
 -1      5878-2.27430E-04 4.38000E-03 5.75982E-20
 -1      5879-1.03214E-04 4.36190E-03-8.80914E-20
 -1      5880 2.00964E-05 4.34344E-03 1.32137E-19
 -1      5881 1.42392E-04 4.32479E-03-2.16840E-19
 -1      5882 2.63567E-04 4.30614E-03 0.00000E+00
 -1      5883 3.83527E-04 4.28771E-03 1.01644E-20
 -1      5884 5.02195E-04 4.26977E-03 5.08220E-20
 -1      5885-1.23666E-03 4.08721E-03 2.71051E-20
 -1      5886-1.10806E-03 4.07742E-03-5.42101E-20
 -1      5887-9.79914E-04 4.06627E-03-1.69407E-20
 -1      5888-8.52270E-04 4.05397E-03-2.16840E-19
 -1      5889-7.25159E-04 4.04070E-03 1.01644E-19
 -1      5890-5.98623E-04 4.02660E-03 3.38813E-20
 -1      5891-4.72715E-04 4.01177E-03-8.13152E-20
 -1      5892-3.47498E-04 3.99633E-03-2.03288E-20
 -1      5893-2.23048E-04 3.98038E-03-2.37169E-20
 -1      5894-9.94470E-05 3.96404E-03-1.05032E-19
 -1      5895 2.32175E-05 3.94742E-03-2.06676E-19
 -1      5896 1.44857E-04 3.93069E-03 6.77626E-21
 -1      5897 2.65389E-04 3.91401E-03-2.37169E-20
 -1      5898 3.84743E-04 3.89761E-03-6.77626E-20
 -1      5899 5.02865E-04 3.88170E-03 1.01644E-20
 -1      5900-1.23054E-03 3.67635E-03-2.10064E-19
 -1      5901-1.10214E-03 3.66784E-03 5.75982E-20
 -1      5902-9.74209E-04 3.65802E-03 3.38813E-21
 -1      5903-8.46803E-04 3.64710E-03 2.37169E-20
 -1      5904-7.19971E-04 3.63526E-03 6.77626E-21
 -1      5905-5.93763E-04 3.62264E-03 4.74338E-20
 -1      5906-4.68236E-04 3.60935E-03-1.38913E-19
 -1      5907-3.43454E-04 3.59552E-03-8.47033E-20
 -1      5908-2.19484E-04 3.58123E-03-1.89735E-19
 -1      5909-9.64003E-05 3.56662E-03 1.18585E-19
 -1      5910 2.57247E-05 3.55181E-03 6.77626E-21
 -1      5911 1.46820E-04 3.53693E-03 3.72694E-20
 -1      5912 2.66821E-04 3.52216E-03 7.45389E-20
 -1      5913 3.85677E-04 3.50767E-03-1.45690E-19
 -1      5914 5.03356E-04 3.49367E-03-2.03288E-20
 -1      5915-1.22545E-03 3.26612E-03 4.74338E-20
 -1      5916-1.09724E-03 3.25880E-03-3.38813E-20
 -1      5917-9.69507E-04 3.25025E-03 1.35525E-19
 -1      5918-8.42314E-04 3.24068E-03-7.11508E-20
 -1      5919-7.15725E-04 3.23025E-03 2.47334E-19
 -1      5920-5.89800E-04 3.21910E-03-3.38813E-20
 -1      5921-4.64598E-04 3.20735E-03 8.13152E-20
 -1      5922-3.40182E-04 3.19510E-03 1.35525E-20
 -1      5923-2.16615E-04 3.18248E-03-6.77626E-20
 -1      5924-9.39618E-05 3.16958E-03 4.40457E-20
 -1      5925 2.77167E-05 3.15653E-03-7.79270E-20
 -1      5926 1.48363E-04 3.14345E-03 5.42101E-20
 -1      5927 2.67930E-04 3.13050E-03-1.38913E-19
 -1      5928 3.86381E-04 3.11784E-03 2.03288E-20
 -1      5929 5.03702E-04 3.10564E-03 3.38813E-20
 -1      5930-1.22127E-03 2.85647E-03 0.00000E+00
 -1      5931-1.09323E-03 2.85026E-03 5.08220E-20
 -1      5932-9.65673E-04 2.84293E-03-5.08220E-20
 -1      5933-8.38668E-04 2.83467E-03 2.03288E-20
 -1      5934-7.12289E-04 2.82562E-03-1.28749E-19
 -1      5935-5.86604E-04 2.81593E-03-6.77626E-20
 -1      5936-4.61676E-04 2.80569E-03 8.47033E-20
 -1      5937-3.37566E-04 2.79503E-03-7.45389E-20
 -1      5938-2.14332E-04 2.78404E-03-1.01644E-20
 -1      5939-9.20333E-05 2.77283E-03-2.37169E-20
 -1      5940 2.92794E-05 2.76150E-03 1.05032E-19
 -1      5941 1.49560E-04 2.75018E-03-9.14796E-20
 -1      5942 2.68775E-04 2.73899E-03 1.01644E-19
 -1      5943 3.86901E-04 2.72808E-03 4.74338E-20
 -1      5944 5.03934E-04 2.71759E-03 1.35525E-20
 -1      5945-1.21788E-03 2.44736E-03-4.74338E-20
 -1      5946-1.09000E-03 2.44218E-03 4.40457E-20
 -1      5947-9.62590E-04 2.43601E-03 3.72694E-20
 -1      5948-8.35746E-04 2.42902E-03 6.77626E-21
 -1      5949-7.09546E-04 2.42133E-03-1.01644E-20
 -1      5950-5.84063E-04 2.41307E-03 4.74338E-20
 -1      5951-4.59361E-04 2.40435E-03-9.48677E-20
 -1      5952-3.35502E-04 2.39525E-03 5.08220E-20
 -1      5953-2.12541E-04 2.38588E-03-1.35525E-20
 -1      5954-9.05297E-05 2.37633E-03 4.74338E-20
 -1      5955 3.04874E-05 2.36669E-03-1.01644E-20
 -1      5956 1.50475E-04 2.35707E-03 5.75982E-20
 -1      5957 2.69407E-04 2.34758E-03-5.75982E-20
 -1      5958 3.87273E-04 2.33835E-03-4.06576E-20
 -1      5959 5.04079E-04 2.32949E-03 7.45389E-20
 -1      5960-1.21517E-03 2.03872E-03-1.05032E-19
 -1      5961-1.08743E-03 2.03451E-03 2.71051E-20
 -1      5962-9.60154E-04 2.02945E-03 3.38813E-21
 -1      5963-8.33446E-04 2.02369E-03 2.37169E-20
 -1      5964-7.07395E-04 2.01733E-03-2.03288E-20
 -1      5965-5.82077E-04 2.01049E-03 0.00000E+00
 -1      5966-4.57559E-04 2.00325E-03-3.04932E-20
 -1      5967-3.33902E-04 1.99570E-03 3.72694E-20
 -1      5968-2.11160E-04 1.98793E-03-3.38813E-21
 -1      5969-8.93782E-05 1.98001E-03 1.69407E-20
 -1      5970 3.14041E-05 1.97203E-03 1.69407E-20
 -1      5971 1.51159E-04 1.96408E-03-1.01644E-19
 -1      5972 2.69869E-04 1.95625E-03 4.74338E-20
 -1      5973 3.87532E-04 1.94864E-03 0.00000E+00
 -1      5974 5.04161E-04 1.94135E-03-7.79270E-20
 -1      5975-1.21308E-03 1.63048E-03 6.09864E-20
 -1      5976-1.08545E-03 1.62718E-03-5.42101E-20
 -1      5977-9.58279E-04 1.62319E-03-9.14796E-20
 -1      5978-8.31682E-04 1.61862E-03 2.37169E-20
 -1      5979-7.05750E-04 1.61357E-03 3.04932E-20
 -1      5980-5.80564E-04 1.60812E-03-3.04932E-20
 -1      5981-4.56191E-04 1.60236E-03 1.35525E-20
 -1      5982-3.32693E-04 1.59634E-03-3.38813E-20
 -1      5983-2.10121E-04 1.59015E-03 4.74338E-20
 -1      5984-8.85178E-05 1.58385E-03 4.74338E-20
 -1      5985 3.20828E-05 1.57750E-03 6.43745E-20
 -1      5986 1.51658E-04 1.57118E-03 6.77626E-20
 -1      5987 2.70199E-04 1.56496E-03 0.00000E+00
 -1      5988 3.87706E-04 1.55892E-03-2.37169E-20
 -1      5989 5.04200E-04 1.55315E-03 6.43745E-20
 -1      5990-1.21152E-03 1.22256E-03 1.35525E-20
 -1      5991-1.08398E-03 1.22013E-03 1.35525E-19
 -1      5992-9.56893E-04 1.21717E-03-5.42101E-20
 -1      5993-8.30383E-04 1.21377E-03 5.75982E-20
 -1      5994-7.04543E-04 1.21001E-03-5.42101E-20
 -1      5995-5.79456E-04 1.20594E-03 2.37169E-20
 -1      5996-4.55193E-04 1.20163E-03 3.72694E-20
 -1      5997-3.31814E-04 1.19713E-03-5.08220E-20
 -1      5998-2.09369E-04 1.19250E-03-1.01644E-20
 -1      5999-8.78993E-05 1.18779E-03-4.40457E-20
 -1      6000 3.25665E-05 1.18305E-03 3.38813E-21
 -1      6001 1.52010E-04 1.17833E-03 0.00000E+00
 -1      6002 2.70424E-04 1.17370E-03-3.38813E-21
 -1      6003 3.87818E-04 1.16920E-03 4.74338E-20
 -1      6004 5.04214E-04 1.16491E-03-9.14796E-20
 -1      6005-1.21044E-03 8.14903E-04 3.04932E-20
 -1      6006-1.08297E-03 8.13302E-04 5.08220E-20
 -1      6007-9.55943E-04 8.11345E-04 4.40457E-20
 -1      6008-8.29494E-04 8.09090E-04-7.45389E-20
 -1      6009-7.03718E-04 8.06589E-04 0.00000E+00
 -1      6010-5.78702E-04 8.03885E-04-4.74338E-20
 -1      6011-4.54515E-04 8.01020E-04 2.37169E-20
 -1      6012-3.31219E-04 7.98030E-04-2.37169E-20
 -1      6013-2.08863E-04 7.94951E-04 1.01644E-20
 -1      6014-8.74846E-05 7.91819E-04 8.13152E-20
 -1      6015 3.28884E-05 7.88668E-04-6.77626E-21
 -1      6016 1.52240E-04 7.85535E-04-6.77626E-21
 -1      6017 2.70569E-04 7.82458E-04 2.71051E-20
 -1      6018 3.87884E-04 7.79476E-04 5.42101E-20
 -1      6019 5.04213E-04 7.76630E-04-3.38813E-21
 -1      6020-1.20981E-03 4.07409E-04 2.37169E-20
 -1      6021-1.08237E-03 4.06614E-04-6.09864E-20
 -1      6022-9.55388E-04 4.05641E-04-5.42101E-20
 -1      6023-8.28976E-04 4.04518E-04 4.06576E-20
 -1      6024-7.03239E-04 4.03270E-04-2.37169E-20
 -1      6025-5.78264E-04 4.01921E-04 2.71051E-20
 -1      6026-4.54123E-04 4.00490E-04-6.77626E-21
 -1      6027-3.30875E-04 3.98997E-04-1.69407E-20
 -1      6028-2.08571E-04 3.97460E-04-2.03288E-20
 -1      6029-8.72465E-05 3.95897E-04-3.72694E-20
 -1      6030 3.30721E-05 3.94324E-04 2.71051E-20
 -1      6031 1.52371E-04 3.92761E-04-1.35525E-20
 -1      6032 2.70649E-04 3.91227E-04 1.35525E-20
 -1      6033 3.87919E-04 3.89740E-04-3.38813E-21
 -1      6034 5.04210E-04 3.88322E-04 3.04932E-20
 -1      6035-1.68627E-03 1.17101E-02-8.87691E-19
 -1      6036-1.72997E-03 1.15261E-02-1.26039E-18
 -1      6037-1.56018E-03 1.16823E-02 2.16840E-19
 -1      6038-1.60379E-03 1.14942E-02-5.08220E-19
 -1      6039-1.43321E-03 1.16597E-02 1.61275E-18
 -1      6040-1.47684E-03 1.14684E-02 1.10453E-18
 -1      6041-1.30515E-03 1.16411E-02-1.95834E-18
 -1      6042-1.34887E-03 1.14469E-02 7.45389E-20
 -1      6043-1.17578E-03 1.16250E-02 1.21973E-19
 -1      6044-1.21964E-03 1.14286E-02-1.91768E-18
 -1      6045-1.04485E-03 1.16104E-02-9.21572E-19
 -1      6046-1.08888E-03 1.14121E-02-1.92446E-18
 -1      6047-9.12059E-04 1.15961E-02-3.25261E-19
 -1      6048-9.56292E-04 1.13964E-02-8.74138E-19
 -1      6049-7.77001E-04 1.15810E-02 9.28348E-19
 -1      6050-8.21527E-04 1.13803E-02 1.11131E-18
 -1      6051-6.39191E-04 1.15638E-02-1.00966E-18
 -1      6052-6.84156E-04 1.13627E-02-6.97955E-19
 -1      6053-4.98035E-04 1.15430E-02 5.69206E-19
 -1      6054-5.43675E-04 1.13420E-02-6.91179E-19
 -1      6055-3.52839E-04 1.15170E-02-1.34170E-18
 -1      6056-3.99505E-04 1.13169E-02-2.16840E-19
 -1      6057-2.02837E-04 1.14836E-02-8.33480E-19
 -1      6058-2.51024E-04 1.12854E-02 2.03288E-19
 -1      6059-4.72623E-05 1.14402E-02-1.06387E-18
 -1      6060-9.76229E-05 1.12452E-02-1.89735E-18
 -1      6061 1.14491E-04 1.13836E-02 5.35325E-19
 -1      6062 6.11621E-05 1.11938E-02 7.72494E-19
 -1      6063 2.82591E-04 1.13101E-02 3.38813E-20
 -1      6064 2.25440E-04 1.11280E-02 9.62229E-19
 -1      6065 3.94629E-04 1.10446E-02-2.30393E-19
 -1      6066-1.64749E-03 1.13078E-02-1.47045E-18
 -1      6067-1.69143E-03 1.11228E-02-7.86047E-19
 -1      6068-1.52053E-03 1.12785E-02 5.62430E-19
 -1      6069-1.56437E-03 1.10901E-02 4.13352E-19
 -1      6070-1.39268E-03 1.12542E-02 1.45012E-18
 -1      6071-1.43661E-03 1.10628E-02 1.02999E-18
 -1      6072-1.26365E-03 1.12335E-02-6.57298E-19
 -1      6073-1.30781E-03 1.10396E-02 1.14519E-18
 -1      6074-1.13316E-03 1.12151E-02-4.13352E-19
 -1      6075-1.17765E-03 1.10192E-02 2.43945E-19
 -1      6076-1.00091E-03 1.11979E-02-1.21973E-18
 -1      6077-1.04582E-03 1.10005E-02-8.13152E-20
 -1      6078-8.66576E-04 1.11807E-02-4.26905E-19
 -1      6079-9.12027E-04 1.09822E-02-3.86247E-19
 -1      6080-7.29785E-04 1.11625E-02 7.72494E-19
 -1      6081-7.75920E-04 1.09632E-02-3.25261E-19
 -1      6082-5.90102E-04 1.11419E-02-1.05710E-18
 -1      6083-6.37123E-04 1.09425E-02-2.77827E-19
 -1      6084-4.47044E-04 1.11174E-02 3.18484E-19
 -1      6085-4.95229E-04 1.09185E-02 1.49078E-19
 -1      6086-3.00100E-04 1.10875E-02 1.35525E-19
 -1      6087-3.49819E-04 1.08899E-02 8.60585E-19
 -1      6088-1.48788E-04 1.10501E-02-6.03087E-19
 -1      6089-2.00506E-04 1.08549E-02-2.71051E-20
 -1      6090 7.24855E-06 1.10031E-02-1.07065E-18
 -1      6091-4.70159E-05 1.08116E-02 1.89735E-19
 -1      6092 1.68074E-04 1.09438E-02 1.03677E-18
 -1      6093 1.10682E-04 1.07578E-02 5.21772E-19
 -1      6094 3.33207E-04 1.08696E-02-1.96512E-19
 -1      6095 2.72184E-04 1.06913E-02-1.18585E-18
 -1      6096 4.36391E-04 1.06099E-02-3.52366E-19
 -1      6097-1.60847E-03 1.09029E-02-1.82281E-18
 -1      6098-1.65300E-03 1.07168E-02-1.46367E-18
 -1      6099-1.48074E-03 1.08727E-02 1.72795E-18
 -1      6100-1.52515E-03 1.06837E-02-6.77626E-20
 -1      6101-1.35214E-03 1.08470E-02-1.96512E-19
 -1      6102-1.39670E-03 1.06555E-02 1.37558E-18
 -1      6103-1.22233E-03 1.08245E-02 5.08220E-19
 -1      6104-1.26722E-03 1.06309E-02-9.48677E-20
 -1      6105-1.09098E-03 1.08041E-02-8.13152E-19
 -1      6106-1.13636E-03 1.06088E-02 1.89735E-19
 -1      6107-9.57789E-04 1.07846E-02-3.38813E-20
 -1      6108-1.00380E-03 1.05880E-02-1.02322E-18
 -1      6109-8.22433E-04 1.07649E-02-8.80914E-20
 -1      6110-8.69238E-04 1.05675E-02 6.16640E-19
 -1      6111-6.84580E-04 1.07439E-02-6.36969E-19
 -1      6112-7.32359E-04 1.05461E-02 6.30193E-19
 -1      6113-5.43881E-04 1.07203E-02-1.10453E-18
 -1      6114-5.92864E-04 1.05226E-02-1.27394E-18
 -1      6115-3.99988E-04 1.06927E-02 8.80914E-19
 -1      6116-4.50456E-04 1.04959E-02-9.82558E-19
 -1      6117-2.52587E-04 1.06597E-02-9.01243E-19
 -1      6118-3.04882E-04 1.04646E-02-8.47033E-19
 -1      6119-1.01470E-04 1.06196E-02-8.60585E-19
 -1      6120-1.55978E-04 1.04272E-02-1.15874E-18
 -1      6121 5.33723E-05 1.05704E-02 1.55854E-19
 -1      6122-3.75241E-06 1.03820E-02-1.96512E-19
 -1      6123 2.11596E-04 1.05104E-02 2.03288E-19
 -1      6124 1.51500E-04 1.03275E-02 1.69407E-19
 -1      6125 3.72309E-04 1.04377E-02 8.67362E-19
 -1      6126 3.09046E-04 1.02620E-02 1.96512E-18
 -1      6127 4.67542E-04 1.01845E-02 1.84992E-18
 -1      6128-1.56998E-03 1.04956E-02-1.46367E-18
 -1      6129-1.61536E-03 1.03082E-02-1.25361E-18
 -1      6130-1.44157E-03 1.04650E-02 1.46367E-18
 -1      6131-1.48684E-03 1.02753E-02-1.45690E-18
 -1      6132-1.31237E-03 1.04383E-02-1.07743E-18
 -1      6133-1.35782E-03 1.02466E-02 8.74138E-19
 -1      6134-1.18197E-03 1.04145E-02 1.55176E-18
 -1      6135-1.22783E-03 1.02211E-02 1.09775E-18
 -1      6136-1.05004E-03 1.03924E-02-1.14519E-18
 -1      6137-1.09650E-03 1.01976E-02 1.98545E-18
 -1      6138-9.16274E-04 1.03709E-02 1.42302E-19
 -1      6139-9.63511E-04 1.01752E-02 1.47045E-18
 -1      6140-7.80376E-04 1.03490E-02-1.96512E-19
 -1      6141-8.28578E-04 1.01528E-02-3.52366E-19
 -1      6142-6.42075E-04 1.03257E-02-2.30393E-19
 -1      6143-6.91444E-04 1.01293E-02 3.72694E-19
 -1      6144-5.01114E-04 1.02996E-02-1.11131E-18
 -1      6145-5.51879E-04 1.01037E-02 1.96512E-19
 -1      6146-3.57282E-04 1.02697E-02 2.30393E-19
 -1      6147-4.09704E-04 1.00749E-02-7.79270E-19
 -1      6148-2.10450E-04 1.02345E-02-7.72494E-19
 -1      6149-2.64813E-04 1.00416E-02 1.35525E-20
 -1      6150-6.06371E-05 1.01927E-02-3.93023E-19
 -1      6151-1.17230E-04 1.00027E-02 5.01444E-19
 -1      6152 9.19029E-05 1.01428E-02 1.35525E-19
 -1      6153 3.28241E-05 9.95685E-03-4.20128E-19
 -1      6154 2.46561E-04 1.00836E-02 3.86247E-19
 -1      6155 1.84840E-04 9.90285E-03 2.71051E-20
 -1      6156 4.02241E-04 1.00138E-02 8.60585E-19
 -1      6157 3.37915E-04 9.83976E-03 1.49078E-19
 -1      6158 4.90654E-04 9.76713E-03 1.01644E-19
 -1      6159-1.53264E-03 1.00861E-02-8.87691E-19
 -1      6160-1.57908E-03 9.89737E-03-6.77626E-19
 -1      6161-1.40366E-03 1.00556E-02 3.72694E-19
 -1      6162-1.45000E-03 9.86515E-03 5.35325E-19
 -1      6163-1.27399E-03 1.00285E-02 7.11508E-19
 -1      6164-1.32052E-03 9.83647E-03 1.48400E-18
 -1      6165-1.14320E-03 1.00037E-02 1.91768E-18
 -1      6166-1.19018E-03 9.81038E-03 9.08019E-19
 -1      6167-1.01095E-03 9.98022E-03 1.15874E-18
 -1      6168-1.05860E-03 9.78593E-03 7.92823E-19
 -1      6169-8.76939E-04 9.95715E-03-3.32037E-19
 -1      6170-9.25456E-04 9.76220E-03 4.06576E-20
 -1      6171-7.40928E-04 9.93349E-03 9.75782E-19
 -1      6172-7.90510E-04 9.73826E-03 3.79471E-19
 -1      6173-6.02701E-04 9.90823E-03-8.80914E-20
 -1      6174-6.53550E-04 9.71318E-03 9.89334E-19
 -1      6175-4.62097E-04 9.88032E-03-8.80914E-19
 -1      6176-5.14427E-04 9.68599E-03-1.11131E-18
 -1      6177-3.19026E-04 9.84869E-03-6.09864E-19
 -1      6178-3.73060E-04 9.65570E-03-1.68729E-18
 -1      6179-1.73513E-04 9.81221E-03 3.25261E-19
 -1      6180-2.29468E-04 9.62129E-03 1.96512E-19
 -1      6181-2.57476E-05 9.76975E-03 6.30193E-19
 -1      6182-8.38164E-05 9.58175E-03 8.33480E-19
 -1      6183 1.23840E-04 9.72026E-03-5.82759E-19
 -1      6184 6.35322E-05 9.53613E-03 3.93023E-19
 -1      6185 2.74499E-04 9.66287E-03-2.03288E-20
 -1      6186 2.11950E-04 9.48364E-03-2.10064E-19
 -1      6187 4.25081E-04 9.59710E-03-3.11708E-19
 -1      6188 3.60482E-04 9.42378E-03 3.11708E-19
 -1      6189 5.07804E-04 9.35657E-03 2.50722E-19
 -1      6190-1.49694E-03 9.67496E-03-1.19940E-18
 -1      6191-1.54459E-03 9.48479E-03-6.57298E-19
 -1      6192-1.36751E-03 9.64493E-03 6.77626E-21
 -1      6193-1.41506E-03 9.45363E-03-5.55654E-19
 -1      6194-1.23751E-03 9.61764E-03-3.59142E-19
 -1      6195-1.28526E-03 9.42529E-03-1.35525E-20
 -1      6196-1.10650E-03 9.59222E-03-1.76183E-19
 -1      6197-1.15471E-03 9.39898E-03-1.66018E-18
 -1      6198-9.74148E-04 9.56782E-03 5.28549E-19
 -1      6199-1.02305E-03 9.37392E-03 3.11708E-19
 -1      6200-8.40191E-04 9.54355E-03-1.39591E-18
 -1      6201-8.89993E-04 9.34929E-03-7.99599E-19
 -1      6202-7.04420E-04 9.51855E-03 4.54010E-19
 -1      6203-7.55320E-04 9.32429E-03-1.22650E-18
 -1      6204-5.66686E-04 9.49191E-03 3.59142E-19
 -1      6205-6.18877E-04 9.29806E-03 8.19928E-19
 -1      6206-4.26909E-04 9.46272E-03-8.87691E-19
 -1      6207-4.80579E-04 9.26979E-03 3.38813E-19
 -1      6208-2.85104E-04 9.43007E-03 2.64274E-19
 -1      6209-3.40430E-04 9.23862E-03-4.67562E-19
 -1      6210-1.41408E-04 9.39303E-03-3.93023E-19
 -1      6211-1.98545E-04 9.20371E-03-5.35325E-19
 -1      6212 3.87041E-06 9.35073E-03 6.57298E-19
 -1      6213-5.51823E-05 9.16428E-03-3.99800E-19
 -1      6214 1.50204E-04 9.30246E-03 2.23617E-19
 -1      6215 8.92123E-05 9.11965E-03 3.18484E-19
 -1      6216 2.96794E-04 9.24772E-03-2.91379E-19
 -1      6217 2.33968E-04 9.06934E-03-1.28749E-19
 -1      6218 4.42535E-04 9.18642E-03 3.38813E-20
 -1      6219 3.78156E-04 9.01320E-03-1.35525E-18
 -1      6220 5.20587E-04 8.95155E-03 5.14996E-19
 -1      6221-1.46326E-03 9.26233E-03-6.91179E-19
 -1      6222-1.51222E-03 9.07078E-03-1.35525E-20
 -1      6223-1.33351E-03 9.23314E-03 1.82959E-19
 -1      6224-1.38235E-03 9.04099E-03 7.79270E-19
 -1      6225-1.20329E-03 9.20607E-03 3.86247E-19
 -1      6226-1.25233E-03 9.01331E-03 1.19940E-18
 -1      6227-1.07221E-03 9.18041E-03 8.80914E-20
 -1      6228-1.12170E-03 8.98715E-03 5.14996E-19
 -1      6229-9.39955E-04 9.15542E-03 3.52366E-19
 -1      6230-9.90125E-04 8.96183E-03-6.77626E-21
 -1      6231-8.06279E-04 9.13035E-03 3.99800E-19
 -1      6232-8.57337E-04 8.93669E-03 6.84403E-19
 -1      6233-6.71023E-04 9.10444E-03 9.28348E-19
 -1      6234-7.23158E-04 8.91101E-03 1.19262E-18
 -1      6235-5.34092E-04 9.07692E-03 2.71051E-19
 -1      6236-5.87480E-04 8.88410E-03-2.64274E-19
 -1      6237-3.95477E-04 9.04699E-03-2.10064E-19
 -1      6238-4.50275E-04 8.85524E-03-6.36969E-19
 -1      6239-2.55266E-04 9.01391E-03-1.76183E-19
 -1      6240-3.11609E-04 8.82372E-03-7.99599E-19
 -1      6241-1.13678E-04 8.97695E-03 2.03288E-20
 -1      6242-1.71662E-04 8.78888E-03-5.35325E-19
 -1      6243 2.89122E-05 8.93547E-03 5.42101E-20
 -1      6244-3.07499E-05 8.75015E-03 7.11508E-19
 -1      6245 1.71938E-04 8.88902E-03-8.60585E-19
 -1      6246 1.10649E-04 8.70705E-03 9.75782E-19
 -1      6247 3.14616E-04 8.83739E-03-5.62430E-19
 -1      6248 2.51871E-04 8.65937E-03-2.84603E-19
 -1      6249 4.55940E-04 8.78076E-03 2.57498E-19
 -1      6250 3.92061E-04 8.60717E-03 5.28549E-19
 -1      6251 5.30189E-04 8.55096E-03 5.42101E-20
 -1      6252-1.43189E-03 8.84859E-03 1.35525E-19
 -1      6253-1.48219E-03 8.65570E-03-3.38813E-19
 -1      6254-1.30190E-03 8.82054E-03-3.93023E-19
 -1      6255-1.35209E-03 8.62752E-03-5.01444E-19
 -1      6256-1.17159E-03 8.79400E-03 4.87891E-19
 -1      6257-1.22195E-03 8.60080E-03 4.06576E-19
 -1      6258-1.04057E-03 8.76842E-03 3.99800E-19
 -1      6259-1.09135E-03 8.57507E-03 4.33681E-19
 -1      6260-9.08548E-04 8.74321E-03-2.37169E-19
 -1      6261-9.59969E-04 8.54983E-03 5.21772E-19
 -1      6262-7.75329E-04 8.71773E-03 2.16840E-19
 -1      6263-8.27589E-04 8.52453E-03 4.74338E-19
 -1      6264-6.40786E-04 8.69133E-03 2.50722E-19
 -1      6265-6.94060E-04 8.49858E-03 3.59142E-19
 -1      6266-5.04870E-04 8.66337E-03-6.30193E-19
 -1      6267-5.59313E-04 8.47139E-03-1.82959E-19
 -1      6268-3.67625E-04 8.63319E-03-7.11508E-19
 -1      6269-4.23364E-04 8.44238E-03-3.93023E-19
 -1      6270-2.29193E-04 8.60020E-03-6.77626E-20
 -1      6271-2.86324E-04 8.41099E-03 1.21973E-19
 -1      6272-8.98381E-05 8.56384E-03 1.19940E-18
 -1      6273-1.48411E-04 8.37670E-03 1.11131E-18
 -1      6274 5.00343E-05 8.52368E-03 8.47033E-19
 -1      6275-9.96539E-06 8.33911E-03 5.82759E-19
 -1      6276 1.89862E-04 8.47946E-03-4.47233E-19
 -1      6277 1.28534E-04 8.29793E-03-5.75982E-19
 -1      6278 3.28915E-04 8.43118E-03-4.13352E-19
 -1      6279 2.66465E-04 8.25312E-03-3.45589E-19
 -1      6280 4.66311E-04 8.37919E-03 1.35525E-20
 -1      6281 4.03069E-04 8.20490E-03 2.03288E-19
 -1      6282 5.37475E-04 8.15386E-03 3.11708E-19
 -1      6283-1.40297E-03 8.43406E-03 0.00000E+00
 -1      6284-1.45462E-03 8.23991E-03 3.38813E-19
 -1      6285-1.27285E-03 8.40736E-03-8.26704E-19
 -1      6286-1.32438E-03 8.21351E-03-5.48877E-19
 -1      6287-1.14253E-03 8.38163E-03 6.70850E-19
 -1      6288-1.19420E-03 8.18795E-03-3.93023E-19
 -1      6289-1.01167E-03 8.35644E-03 1.01644E-19
 -1      6290-1.06371E-03 8.16293E-03 2.03288E-19
 -1      6291-8.80001E-04 8.33134E-03 1.29427E-18
 -1      6292-9.32629E-04 8.13807E-03 1.89735E-18
 -1      6293-7.47362E-04 8.30580E-03-8.19928E-19
 -1      6294-8.00755E-04 8.11293E-03-8.06375E-19
 -1      6295-6.13660E-04 8.27930E-03 3.18484E-19
 -1      6296-6.67974E-04 8.08706E-03-2.64274E-19
 -1      6297-4.78887E-04 8.25131E-03 2.03288E-19
 -1      6298-5.34254E-04 8.05997E-03 1.20617E-18
 -1      6299-3.43120E-04 8.22131E-03-6.77626E-20
 -1      6300-3.99641E-04 8.03121E-03 6.77626E-20
 -1      6301-2.06535E-04 8.18884E-03 1.17229E-18
 -1      6302-2.64273E-04 8.00034E-03 8.87691E-19
 -1      6303-6.94182E-05 8.15349E-03 6.50521E-19
 -1      6304-1.28387E-04 7.96698E-03 1.28749E-18
 -1      6305 6.78250E-05 8.11500E-03-8.94467E-19
 -1      6306 7.67483E-06 7.93086E-03-1.09098E-18
 -1      6307 2.04663E-04 8.07326E-03-5.35325E-19
 -1      6308 1.43458E-04 7.89185E-03-1.39591E-18
 -1      6309 3.40441E-04 8.02842E-03-4.06576E-19
 -1      6310 2.78399E-04 7.85002E-03-7.72494E-19
 -1      6311 4.74404E-04 7.98090E-03 6.84403E-19
 -1      6312 4.11841E-04 7.80569E-03 2.10064E-19
 -1      6313 5.43066E-04 7.75948E-03 7.58942E-19
 -1      6314-1.37659E-03 8.01902E-03-3.11708E-19
 -1      6315-1.42955E-03 7.82370E-03-8.13152E-20
 -1      6316-1.24642E-03 7.99386E-03-1.82959E-19
 -1      6317-1.29926E-03 7.79918E-03 4.33681E-19
 -1      6318-1.11618E-03 7.96915E-03 4.87891E-19
 -1      6319-1.16912E-03 7.77497E-03 2.77827E-19
 -1      6320-9.85544E-04 7.94462E-03 3.65918E-19
 -1      6321-1.03881E-03 7.75088E-03 8.26704E-19
 -1      6322-8.54305E-04 7.91991E-03 5.42101E-19
 -1      6323-9.08079E-04 7.72666E-03-3.25261E-19
 -1      6324-7.22322E-04 7.89464E-03-1.83637E-18
 -1      6325-7.76768E-04 7.70198E-03-1.02322E-18
 -1      6326-5.89533E-04 7.86838E-03 8.19928E-19
 -1      6327-6.44789E-04 7.67649E-03-1.21295E-18
 -1      6328-4.55957E-04 7.84072E-03 4.13352E-19
 -1      6329-5.12133E-04 7.64984E-03-2.10064E-19
 -1      6330-3.21696E-04 7.81126E-03-1.96512E-19
 -1      6331-3.78868E-04 7.62165E-03 9.35124E-19
 -1      6332-1.86942E-04 7.77966E-03-1.42302E-19
 -1      6333-2.45148E-04 7.59162E-03-1.21295E-18
 -1      6334-5.19828E-05 7.74564E-03 1.08420E-19
 -1      6335-1.11211E-04 7.55948E-03-1.17907E-18
 -1      6336 8.27942E-05 7.70907E-03-9.62229E-19
 -1      6337 2.26153E-05 7.52508E-03 3.38813E-20
 -1      6338 2.16904E-04 7.66994E-03-2.98156E-19
 -1      6339 1.55913E-04 7.48838E-03 3.32037E-19
 -1      6340 3.49776E-04 7.62849E-03-6.23416E-19
 -1      6341 2.88187E-04 7.44955E-03-4.74338E-20
 -1      6342 4.80776E-04 7.58521E-03-4.87891E-19
 -1      6343 4.18879E-04 7.40894E-03-8.67362E-19
 -1      6344 5.47404E-04 7.36719E-03-7.38613E-19
 -1      6345-1.35275E-03 7.60374E-03-2.84603E-19
 -1      6346-1.40696E-03 7.40734E-03-3.38813E-19
 -1      6347-1.22261E-03 7.58023E-03-2.37169E-19
 -1      6348-1.27669E-03 7.38477E-03-1.89735E-19
 -1      6349-1.09249E-03 7.55672E-03 1.35525E-19
 -1      6350-1.14665E-03 7.36202E-03 1.28749E-19
 -1      6351-9.62146E-04 7.53307E-03 9.48677E-20
 -1      6352-1.01657E-03 7.33905E-03-4.26905E-19
 -1      6353-8.31383E-04 7.50902E-03 4.06576E-20
 -1      6354-8.86230E-04 7.31568E-03-2.10064E-19
 -1      6355-7.00093E-04 7.48429E-03-1.12486E-18
 -1      6356-7.55510E-04 7.29171E-03-4.74338E-19
 -1      6357-5.68240E-04 7.45857E-03 1.35525E-19
 -1      6358-6.24346E-04 7.26689E-03 3.38813E-19
 -1      6359-4.35863E-04 7.43154E-03-3.45589E-19
 -1      6360-4.92747E-04 7.24094E-03-8.80914E-19
 -1      6361-3.03077E-04 7.40293E-03 5.08220E-19
 -1      6362-3.60796E-04 7.21361E-03-2.23617E-19
 -1      6363-1.70078E-04 7.37247E-03-1.25361E-18
 -1      6364-2.28648E-04 7.18468E-03-1.15196E-19
 -1      6365-3.71409E-05 7.34001E-03 8.40257E-19
 -1      6366-9.65343E-05 7.15398E-03 3.59142E-19
 -1      6367 9.53758E-05 7.30550E-03-3.25261E-19
 -1      6368 3.52410E-05 7.12145E-03 6.84403E-19
 -1      6369 2.27042E-04 7.26904E-03 9.08019E-19
 -1      6370 1.66306E-04 7.08713E-03 1.17229E-18
 -1      6371 3.57369E-04 7.23089E-03 4.67562E-19
 -1      6372 2.96231E-04 7.05124E-03 1.11808E-18
 -1      6373 4.85834E-04 7.19156E-03-1.09775E-18
 -1      6374 4.24554E-04 7.01416E-03-2.64274E-19
 -1      6375 5.50803E-04 6.97648E-03-1.11131E-18
 -1      6376-1.33140E-03 7.18844E-03-1.89735E-19
 -1      6377-1.38678E-03 6.99108E-03 3.93023E-19
 -1      6378-1.20134E-03 7.16665E-03-3.79471E-19
 -1      6379-1.25659E-03 6.97045E-03-1.08420E-19
 -1      6380-1.07140E-03 7.14448E-03 9.48677E-19
 -1      6381-1.12669E-03 6.94926E-03 5.48877E-19
 -1      6382-9.41374E-04 7.12188E-03 3.25261E-19
 -1      6383-9.96871E-04 6.92753E-03 9.08019E-19
 -1      6384-8.11108E-04 7.09871E-03-1.00289E-18
 -1      6385-8.66948E-04 6.90521E-03 3.65918E-19
 -1      6386-6.80519E-04 7.07477E-03 3.32037E-19
 -1      6387-7.36824E-04 6.88216E-03-4.67562E-19
 -1      6388-5.49591E-04 7.04984E-03-2.84603E-19
 -1      6389-6.06459E-04 6.85822E-03 2.71051E-20
 -1      6390-4.18374E-04 7.02370E-03-7.79270E-19
 -1      6391-4.75878E-04 6.83321E-03 6.30193E-19
 -1      6392-2.86990E-04 6.99616E-03 5.28549E-19
 -1      6393-3.45170E-04 6.80696E-03 1.21973E-19
 -1      6394-1.55629E-04 6.96706E-03-2.91379E-19
 -1      6395-2.14487E-04 6.77932E-03-3.86247E-19
 -1      6396-2.45473E-05 6.93632E-03 8.53809E-19
 -1      6397-8.40446E-05 6.75023E-03 3.86247E-19
 -1      6398 1.05934E-04 6.90397E-03-8.13152E-20
 -1      6399 4.58825E-05 6.71966E-03-2.91379E-19
 -1      6400 2.35442E-04 6.87014E-03 6.43745E-19
 -1      6401 1.74969E-04 6.68774E-03-7.92823E-19
 -1      6402 3.63563E-04 6.83515E-03 6.09864E-20
 -1      6403 3.02851E-04 6.65470E-03-5.82759E-19
 -1      6404 4.89874E-04 6.79948E-03-1.49078E-19
 -1      6405 4.29147E-04 6.62092E-03-2.37169E-19
 -1      6406 5.53485E-04 6.58696E-03 9.48677E-20
 -1      6407-1.31243E-03 6.77332E-03-6.91179E-19
 -1      6408-1.36889E-03 6.57510E-03 9.48677E-20
 -1      6409-1.18249E-03 6.75327E-03-1.35525E-20
 -1      6410-1.23883E-03 6.55639E-03-9.82558E-19
 -1      6411-1.05277E-03 6.73254E-03-2.03288E-20
 -1      6412-1.10912E-03 6.53680E-03-6.09864E-19
 -1      6413-9.23087E-04 6.71114E-03 2.57498E-19
 -1      6414-9.79574E-04 6.51642E-03-5.96311E-19
 -1      6415-7.93322E-04 6.68901E-03-5.28549E-19
 -1      6416-8.50069E-04 6.49528E-03-3.65918E-19
 -1      6417-6.63418E-04 6.66605E-03 2.10064E-19
 -1      6418-7.20526E-04 6.47331E-03 1.55854E-19
 -1      6419-5.33375E-04 6.64212E-03-9.48677E-20
 -1      6420-5.90925E-04 6.45044E-03-4.67562E-19
 -1      6421-4.03253E-04 6.61708E-03 5.69206E-19
 -1      6422-4.61301E-04 6.42655E-03-2.03288E-20
 -1      6423-2.73172E-04 6.59081E-03-3.72694E-19
 -1      6424-3.31744E-04 6.40156E-03 1.08420E-19
 -1      6425-1.43310E-04 6.56322E-03 1.76183E-19
 -1      6426-2.02399E-04 6.37538E-03-7.31836E-19
 -1      6427-1.38998E-05 6.53431E-03-1.28749E-19
 -1      6428-7.34628E-05 6.34799E-03-3.38813E-19
 -1      6429 1.14776E-04 6.50414E-03-6.23416E-19
 -1      6430 5.48224E-05 6.31945E-03-9.14796E-19
 -1      6431 2.42398E-04 6.47291E-03 9.48677E-20
 -1      6432 1.82177E-04 6.28989E-03-1.08420E-19
 -1      6433 3.68624E-04 6.44091E-03-1.08420E-19
 -1      6434 3.08296E-04 6.25958E-03 3.99800E-19
 -1      6435 4.93114E-04 6.40861E-03-6.77626E-20
 -1      6436 4.32871E-04 6.22888E-03 5.42101E-20
 -1      6437 5.55609E-04 6.19830E-03-4.81115E-19
 -1      6438-1.29572E-03 6.35853E-03-1.38236E-18
 -1      6439-1.35316E-03 6.15957E-03-6.77626E-19
 -1      6440-1.16594E-03 6.34022E-03-4.74338E-20
 -1      6441-1.22326E-03 6.14271E-03-3.65918E-19
 -1      6442-1.03645E-03 6.32098E-03-7.86047E-19
 -1      6443-1.09376E-03 6.12473E-03-2.98156E-19
 -1      6444-9.07116E-04 6.30088E-03-6.57298E-19
 -1      6445-9.64506E-04 6.10577E-03-4.54010E-19
 -1      6446-7.77841E-04 6.27995E-03-3.93023E-19
 -1      6447-8.35410E-04 6.08591E-03-1.35525E-19
 -1      6448-6.48589E-04 6.25813E-03 4.60786E-19
 -1      6449-7.06421E-04 6.06516E-03 4.81115E-19
 -1      6450-5.19376E-04 6.23536E-03-6.09864E-19
 -1      6451-5.77534E-04 6.04350E-03 3.59142E-19
 -1      6452-3.90265E-04 6.21158E-03-5.55654E-19
 -1      6453-4.48791E-04 6.02089E-03-8.80914E-20
 -1      6454-2.61371E-04 6.18672E-03 3.52366E-19
 -1      6455-3.20281E-04 5.99728E-03 0.00000E+00
 -1      6456-1.32859E-04 6.16076E-03 2.37169E-19
 -1      6457-1.92140E-04 5.97266E-03 1.34848E-18
 -1      6458-4.93522E-06 6.13373E-03-2.03288E-19
 -1      6459-6.45415E-05 5.94705E-03 2.77827E-19
 -1      6460 1.22157E-04 6.10575E-03-1.69407E-19
 -1      6461 6.23023E-05 5.92055E-03-3.45589E-19
 -1      6462 2.48147E-04 6.07702E-03 5.01444E-19
 -1      6463 1.88155E-04 5.89331E-03 4.74338E-19
 -1      6464 3.72757E-04 6.04785E-03-5.08220E-19
 -1      6465 3.12765E-04 5.86560E-03-6.30193E-19
 -1      6466 4.95715E-04 6.01865E-03-6.09864E-20
 -1      6467 4.35886E-04 5.83776E-03-1.28749E-19
 -1      6468 5.57290E-04 5.81026E-03-3.25261E-19
 -1      6469-1.28109E-03 5.94419E-03-3.79471E-19
 -1      6470-1.33943E-03 5.74459E-03-4.20128E-19
 -1      6471-1.15151E-03 5.92759E-03-2.03288E-19
 -1      6472-1.20972E-03 5.72951E-03 4.26905E-19
 -1      6473-1.02227E-03 5.90987E-03-9.48677E-20
 -1      6474-1.08044E-03 5.71312E-03-1.89735E-19
 -1      6475-8.93278E-04 5.89115E-03-3.65918E-19
 -1      6476-9.51480E-04 5.69561E-03-1.49078E-19
 -1      6477-7.64470E-04 5.87150E-03 2.91379E-19
 -1      6478-8.22777E-04 5.67711E-03 6.09864E-19
 -1      6479-6.35828E-04 5.85095E-03 5.42101E-19
 -1      6480-6.94306E-04 5.65768E-03 7.99599E-19
 -1      6481-5.07377E-04 5.82948E-03 2.03288E-20
 -1      6482-5.66074E-04 5.63735E-03 5.42101E-20
 -1      6483-3.79184E-04 5.80707E-03 4.06576E-20
 -1      6484-4.38130E-04 5.61611E-03 3.52366E-19
 -1      6485-2.51357E-04 5.78373E-03 4.94667E-19
 -1      6486-3.10560E-04 5.59399E-03-1.49078E-19
 -1      6487-1.24043E-04 5.75946E-03 6.97955E-19
 -1      6488-1.83485E-04 5.57100E-03-1.35525E-19
 -1      6489 2.57593E-06 5.73436E-03-6.97955E-19
 -1      6490-5.70618E-05 5.54722E-03-1.89735E-19
 -1      6491 1.28293E-04 5.70854E-03 5.96311E-19
 -1      6492 6.85301E-05 5.52275E-03 5.55654E-19
 -1      6493 2.52884E-04 5.68222E-03 1.35525E-20
 -1      6494 1.93092E-04 5.49776E-03 7.45389E-20
 -1      6495 3.76123E-04 5.65570E-03-3.79471E-19
 -1      6496 3.16420E-04 5.47252E-03 2.10064E-19
 -1      6497 4.97799E-04 5.62937E-03 4.47233E-19
 -1      6498 4.38318E-04 5.44735E-03 5.21772E-19
 -1      6499 5.58615E-04 5.42265E-03 7.92823E-19
 -1      6500-1.26840E-03 5.53041E-03-4.74338E-19
 -1      6501-1.32753E-03 5.33025E-03-5.55654E-19
 -1      6502-1.13903E-03 5.51546E-03-6.77626E-21
 -1      6503-1.19804E-03 5.31685E-03-4.54010E-19
 -1      6504-1.01004E-03 5.49925E-03-5.21772E-19
 -1      6505-1.06898E-03 5.30202E-03-7.04731E-19
 -1      6506-8.81380E-04 5.48195E-03 4.87891E-19
 -1      6507-9.40305E-04 5.28598E-03-1.21973E-19
 -1      6508-7.53010E-04 5.46367E-03 0.00000E+00
 -1      6509-8.11974E-04 5.26889E-03-5.42101E-20
 -1      6510-6.24928E-04 5.44447E-03 2.37169E-19
 -1      6511-6.83979E-04 5.25084E-03-2.50722E-19
 -1      6512-4.97168E-04 5.42439E-03-1.49078E-19
 -1      6513-5.56341E-04 5.23191E-03-1.15196E-19
 -1      6514-3.69796E-04 5.40346E-03-1.15196E-19
 -1      6515-4.29111E-04 5.21214E-03-4.67562E-19
 -1      6516-2.42914E-04 5.38170E-03 3.32037E-19
 -1      6517-3.02371E-04 5.19157E-03-9.48677E-20
 -1      6518-1.16652E-04 5.35918E-03 2.91379E-19
 -1      6519-1.76233E-04 5.17027E-03 3.11708E-19
 -1      6520 8.83397E-06 5.33599E-03-3.93023E-19
 -1      6521-5.08296E-05 5.14832E-03 6.77626E-21
 -1      6522 1.33368E-04 5.31229E-03 1.82959E-19
 -1      6523 7.36848E-05 5.12585E-03 2.30393E-19
 -1      6524 2.56767E-04 5.28829E-03-6.30193E-19
 -1      6525 1.97147E-04 5.10304E-03-3.72694E-19
 -1      6526 3.78851E-04 5.26426E-03-3.86247E-19
 -1      6527 3.19392E-04 5.08014E-03-8.06375E-19
 -1      6528 4.99458E-04 5.24056E-03 4.40457E-19
 -1      6529 4.40268E-04 5.05745E-03-1.21973E-19
 -1      6530 5.59647E-04 5.03532E-03-6.64074E-19
 -1      6531-1.25746E-03 5.11724E-03-2.91379E-19
 -1      6532-1.31729E-03 4.91661E-03 3.93023E-19
 -1      6533-1.12831E-03 5.10387E-03-4.40457E-19
 -1      6534-1.18802E-03 4.90478E-03 5.42101E-20
 -1      6535-9.99573E-04 5.08916E-03 1.62630E-19
 -1      6536-1.05919E-03 4.89146E-03 4.47233E-19
 -1      6537-8.71229E-04 5.07330E-03 2.50722E-19
 -1      6538-9.30793E-04 4.87688E-03-4.74338E-20
 -1      6539-7.43263E-04 5.05643E-03-3.38813E-19
 -1      6540-8.02807E-04 4.86122E-03-6.09864E-20
 -1      6541-6.15689E-04 5.03865E-03 3.93023E-19
 -1      6542-6.75245E-04 4.84460E-03 2.64274E-19
 -1      6543-4.88545E-04 5.02003E-03 1.28749E-19
 -1      6544-5.48137E-04 4.82713E-03 3.79471E-19
 -1      6545-3.61900E-04 5.00062E-03-1.42302E-19
 -1      6546-4.21538E-04 4.80887E-03 3.99800E-19
 -1      6547-2.35845E-04 4.98050E-03-9.48677E-20
 -1      6548-2.95525E-04 4.78990E-03-1.21973E-19
 -1      6549-1.10496E-04 4.95974E-03 5.28549E-19
 -1      6550-1.70198E-04 4.77030E-03-2.10064E-19
 -1      6551 1.40144E-05 4.93847E-03-8.53809E-19
 -1      6552-4.56727E-05 4.75019E-03-3.72694E-19
 -1      6553 1.37539E-04 4.91683E-03 2.57498E-19
 -1      6554 7.79222E-05 4.72969E-03-5.62430E-19
 -1      6555 2.59931E-04 4.89504E-03-2.23617E-19
 -1      6556 2.00453E-04 4.70899E-03 6.77626E-21
 -1      6557 3.81047E-04 4.87336E-03-5.42101E-20
 -1      6558 3.21789E-04 4.68831E-03 4.74338E-20
 -1      6559 5.00765E-04 4.85209E-03-4.26905E-19
 -1      6560 4.41815E-04 4.66793E-03-2.64274E-19
 -1      6561 5.60438E-04 4.64816E-03 2.57498E-19
 -1      6562-1.24810E-03 4.70473E-03-2.16840E-19
 -1      6563-1.30855E-03 4.50369E-03 1.89735E-19
 -1      6564-1.11917E-03 4.69286E-03-5.01444E-19
 -1      6565-1.17950E-03 4.49333E-03-3.79471E-19
 -1      6566-9.90681E-04 4.67960E-03 7.45389E-20
 -1      6567-1.05090E-03 4.48145E-03-2.91379E-19
 -1      6568-8.62634E-04 4.66518E-03-2.10064E-19
 -1      6569-9.22759E-04 4.46831E-03-5.14996E-19
 -1      6570-7.35038E-04 4.64975E-03-3.93023E-19
 -1      6571-7.95090E-04 4.45408E-03-7.99599E-19
 -1      6572-6.07917E-04 4.63342E-03 1.76183E-19
 -1      6573-6.67915E-04 4.43892E-03-6.43745E-19
 -1      6574-4.81319E-04 4.61630E-03-1.55854E-19
 -1      6575-5.41276E-04 4.42293E-03-8.80914E-20
 -1      6576-3.55309E-04 4.59847E-03 5.82759E-19
 -1      6577-4.15228E-04 4.40622E-03 4.06576E-19
 -1      6578-2.29971E-04 4.58001E-03-3.93023E-19
 -1      6579-2.89845E-04 4.38888E-03 2.84603E-19
 -1      6580-1.05406E-04 4.56103E-03 1.49078E-19
 -1      6581-1.65215E-04 4.37100E-03 7.45389E-20
 -1      6582 1.82713E-05 4.54164E-03-3.99800E-19
 -1      6583-4.14386E-05 4.35271E-03-2.77827E-19
 -1      6584 1.40942E-04 4.52201E-03-2.64274E-19
 -1      6585 8.13779E-05 4.33413E-03-7.45389E-20
 -1      6586 2.62487E-04 4.50233E-03 1.35525E-19
 -1      6587 2.03126E-04 4.31545E-03-3.99800E-19
 -1      6588 3.82796E-04 4.48285E-03-1.08420E-19
 -1      6589 3.23705E-04 4.29688E-03-6.09864E-20
 -1      6590 5.01781E-04 4.46384E-03-1.28749E-19
 -1      6591 4.43026E-04 4.27866E-03 3.04932E-19
 -1      6592 5.61029E-04 4.26108E-03-1.55854E-19
 -1      6593-1.24016E-03 4.29288E-03-2.84603E-19
 -1      6594-1.30113E-03 4.09151E-03-2.03288E-20
 -1      6595-1.11144E-03 4.28242E-03-3.18484E-19
 -1      6596-1.17230E-03 4.08250E-03-4.06576E-20
 -1      6597-9.83189E-04 4.27058E-03-3.65918E-19
 -1      6598-1.04392E-03 4.07200E-03 1.01644E-19
 -1      6599-8.55416E-04 4.25758E-03-6.23416E-19
 -1      6600-9.16028E-04 4.06025E-03-5.82759E-19
 -1      6601-7.28153E-04 4.24359E-03-4.74338E-20
 -1      6602-7.88646E-04 4.04745E-03-1.96512E-19
 -1      6603-6.01434E-04 4.22875E-03-3.18484E-19
 -1      6604-6.61816E-04 4.03375E-03 2.98156E-19
 -1      6605-4.75312E-04 4.21315E-03-2.10064E-19
 -1      6606-5.35586E-04 4.01927E-03-6.77626E-20
 -1      6607-3.49851E-04 4.19691E-03 2.23617E-19
 -1      6608-4.10016E-04 4.00412E-03-2.37169E-19
 -1      6609-2.25129E-04 4.18013E-03-3.11708E-19
 -1      6610-2.85172E-04 3.98841E-03 5.42101E-20
 -1      6611-1.01233E-04 4.16291E-03-1.76183E-19
 -1      6612-1.61136E-04 3.97225E-03-3.99800E-19
 -1      6613 2.17404E-05 4.14537E-03-1.28749E-19
 -1      6614-3.79920E-05 3.95575E-03-6.03087E-19
 -1      6615 1.43693E-04 4.12769E-03-1.42302E-19
 -1      6616 8.41708E-05 3.93906E-03-5.89535E-19
 -1      6617 2.64532E-04 4.11004E-03-6.77626E-20
 -1      6618 2.05266E-04 3.92233E-03 2.03288E-20
 -1      6619 3.84173E-04 4.09263E-03-1.08420E-19
 -1      6620 3.25217E-04 3.90576E-03-2.57498E-19
 -1      6621 5.02555E-04 4.07573E-03 2.71051E-20
 -1      6622 4.43960E-04 3.88957E-03-6.09864E-20
 -1      6623 5.61456E-04 3.87401E-03 3.79471E-19
 -1      6624-1.23346E-03 3.88170E-03-4.13352E-19
 -1      6625-1.29490E-03 3.68004E-03-5.69206E-19
 -1      6626-1.10496E-03 3.87256E-03 3.38813E-20
 -1      6627-1.16628E-03 3.67227E-03-2.37169E-19
 -1      6628-9.76927E-04 3.86208E-03 1.35525E-20
 -1      6629-1.03811E-03 3.66308E-03 8.13152E-20
 -1      6630-8.49406E-04 3.85048E-03-3.79471E-19
 -1      6631-9.10437E-04 3.65269E-03 1.01644E-19
 -1      6632-7.22438E-04 3.83793E-03 1.62630E-19
 -1      6633-7.83312E-04 3.64129E-03 1.15196E-19
 -1      6634-5.96072E-04 3.82456E-03 1.49078E-19
 -1      6635-6.56785E-04 3.62904E-03 3.04932E-19
 -1      6636-4.70362E-04 3.81051E-03-4.40457E-19
 -1      6637-5.30910E-04 3.61607E-03-4.06576E-20
 -1      6638-3.45371E-04 3.79587E-03-1.21973E-19
 -1      6639-4.05748E-04 3.60250E-03-2.77827E-19
 -1      6640-2.21172E-04 3.78075E-03-2.64274E-19
 -1      6641-2.81363E-04 3.58842E-03-6.23416E-19
 -1      6642-9.78409E-05 3.76528E-03 8.80914E-20
 -1      6643-1.57827E-04 3.57396E-03-1.28749E-19
 -1      6644 2.45415E-05 3.74957E-03-4.13352E-19
 -1      6645-3.52133E-05 3.55923E-03 3.11708E-19
 -1      6646 1.45896E-04 3.73377E-03 6.77626E-20
 -1      6647 8.64052E-05 3.54437E-03 1.21973E-19
 -1      6648 2.66149E-04 3.71806E-03 1.01644E-19
 -1      6649 2.06960E-04 3.52952E-03 1.96512E-19
 -1      6650 3.85241E-04 3.70262E-03-2.98156E-19
 -1      6651 3.26394E-04 3.51486E-03-1.62630E-19
 -1      6652 5.03131E-04 3.68768E-03 1.15196E-19
 -1      6653 4.44665E-04 3.50059E-03-2.91379E-19
 -1      6654 5.61750E-04 3.48692E-03-2.43945E-19
 -1      6655-1.22788E-03 3.47116E-03-3.11708E-19
 -1      6656-1.28971E-03 3.26925E-03 3.72694E-19
 -1      6657-1.09957E-03 3.46325E-03-6.77626E-21
 -1      6658-1.16129E-03 3.26262E-03 1.49078E-19
 -1      6659-9.71741E-04 3.45408E-03 8.80914E-20
 -1      6660-1.03331E-03 3.25466E-03 1.21973E-19
 -1      6661-8.44445E-04 3.44384E-03-6.77626E-20
 -1      6662-9.05838E-04 3.24558E-03 3.59142E-19
 -1      6663-7.17738E-04 3.43271E-03 3.52366E-19
 -1      6664-7.78940E-04 3.23557E-03 1.82959E-19
 -1      6665-5.91677E-04 3.42082E-03 1.01644E-19
 -1      6666-6.52675E-04 3.22476E-03 2.30393E-19
 -1      6667-4.66320E-04 3.40830E-03-1.15196E-19
 -1      6668-5.27104E-04 3.21329E-03 1.28749E-19
 -1      6669-3.41729E-04 3.39526E-03-3.25261E-19
 -1      6670-4.02288E-04 3.20128E-03 3.38813E-20
 -1      6671-2.17970E-04 3.38181E-03-3.79471E-19
 -1      6672-2.78288E-04 3.18883E-03-2.84603E-19
 -1      6673-9.51114E-05 3.36806E-03 1.08420E-19
 -1      6674-1.55170E-04 3.17605E-03-1.76183E-19
 -1      6675 2.67795E-05 3.35413E-03-1.35525E-19
 -1      6676-3.29969E-05 3.16306E-03 1.35525E-19
 -1      6677 1.47639E-04 3.34016E-03 2.30393E-19
 -1      6678 8.81722E-05 3.14998E-03-1.96512E-19
 -1      6679 2.67412E-04 3.32631E-03-2.37169E-19
 -1      6680 2.08284E-04 3.13695E-03-1.76183E-19
 -1      6681 3.86055E-04 3.31274E-03-7.45389E-20
 -1      6682 3.27296E-04 3.12412E-03-2.57498E-19
 -1      6683 5.03545E-04 3.29966E-03-6.77626E-20
 -1      6684 4.45183E-04 3.11167E-03 1.49078E-19
 -1      6685 5.61938E-04 3.09978E-03 6.77626E-21
 -1      6686-1.22325E-03 3.06122E-03 3.38813E-20
 -1      6687-1.28544E-03 2.85909E-03 2.84603E-19
 -1      6688-1.09513E-03 3.05447E-03 1.42302E-19
 -1      6689-1.15720E-03 2.85352E-03-4.74338E-20
 -1      6690-9.67489E-04 3.04654E-03 2.37169E-19
 -1      6691-1.02939E-03 2.84672E-03 8.13152E-20
 -1      6692-8.40393E-04 3.03763E-03-1.42302E-19
 -1      6693-9.02096E-04 2.83891E-03-8.80914E-20
 -1      6694-7.13913E-04 3.02789E-03 2.57498E-19
 -1      6695-7.75396E-04 2.83023E-03-2.43945E-19
 -1      6696-5.88113E-04 3.01747E-03-4.33681E-19
 -1      6697-6.49356E-04 2.82085E-03-3.99800E-19
 -1      6698-4.63055E-04 3.00648E-03 1.21973E-19
 -1      6699-5.24042E-04 2.81087E-03 2.71051E-20
 -1      6700-3.38799E-04 2.99503E-03-6.77626E-20
 -1      6701-3.99515E-04 2.80041E-03 7.45389E-20
 -1      6702-2.15407E-04 2.98322E-03 0.00000E+00
 -1      6703-2.75836E-04 2.78957E-03-2.64274E-19
 -1      6704-9.29394E-05 2.97117E-03-6.77626E-20
 -1      6705-1.53063E-04 2.77846E-03-3.38813E-20
 -1      6706 2.85468E-05 2.95899E-03 1.08420E-19
 -1      6707-3.12506E-05 2.76718E-03 4.74338E-20
 -1      6708 1.49001E-04 2.94679E-03-4.74338E-20
 -1      6709 8.95514E-05 2.75583E-03 5.42101E-20
 -1      6710 2.68382E-04 2.93473E-03-7.45389E-20
 -1      6711 2.09303E-04 2.74456E-03 2.71051E-20
 -1      6712 3.86662E-04 2.92295E-03 6.09864E-20
 -1      6713 3.27974E-04 2.73349E-03 3.38813E-19
 -1      6714 5.03830E-04 2.91162E-03 4.06576E-20
 -1      6715 4.45553E-04 2.72277E-03 1.21973E-19
 -1      6716 5.62044E-04 2.71255E-03-3.38813E-20
 -1      6717-1.21948E-03 2.65185E-03-7.45389E-20
 -1      6718-1.28196E-03 2.44952E-03-6.77626E-21
 -1      6719-1.09153E-03 2.64617E-03 3.04932E-19
 -1      6720-1.15388E-03 2.44490E-03-4.74338E-20
 -1      6721-9.64044E-04 2.63943E-03-1.01644E-19
 -1      6722-1.02623E-03 2.43921E-03 1.89735E-19
 -1      6723-8.37123E-04 2.63180E-03 2.71051E-20
 -1      6724-8.99092E-04 2.43261E-03 1.76183E-19
 -1      6725-7.10838E-04 2.62344E-03-2.77827E-19
 -1      6726-7.72561E-04 2.42525E-03-3.38813E-20
 -1      6727-5.85258E-04 2.61446E-03 1.35525E-20
 -1      6728-6.46711E-04 2.41727E-03 8.13152E-20
 -1      6729-4.60449E-04 2.60499E-03 2.03288E-20
 -1      6730-5.21610E-04 2.40876E-03-1.69407E-19
 -1      6731-3.36470E-04 2.59511E-03-2.03288E-20
 -1      6732-3.97322E-04 2.39984E-03-1.42302E-19
 -1      6733-2.13381E-04 2.58493E-03-2.71051E-20
 -1      6734-2.73906E-04 2.39059E-03 3.38813E-20
 -1      6735-9.12332E-05 2.57455E-03 2.71051E-20
 -1      6736-1.51414E-04 2.38112E-03 0.00000E+00
 -1      6737 2.99235E-05 2.56407E-03 1.35525E-19
 -1      6738-2.98945E-05 2.37151E-03-2.03288E-20
 -1      6739 1.50049E-04 2.55361E-03 2.03288E-20
 -1      6740 9.06115E-05 2.36187E-03 1.62630E-19
 -1      6741 2.69115E-04 2.54328E-03-6.77626E-21
 -1      6742 2.10074E-04 2.35230E-03-1.55854E-19
 -1      6743 3.87103E-04 2.53321E-03-1.15196E-19
 -1      6744 3.28473E-04 2.34293E-03-1.28749E-19
 -1      6745 5.04016E-04 2.52355E-03 8.13152E-20
 -1      6746 4.45807E-04 2.33387E-03-2.71051E-20
 -1      6747 5.62091E-04 2.32525E-03 6.77626E-21
 -1      6748-1.21644E-03 2.24298E-03-3.38813E-19
 -1      6749-1.27918E-03 2.04045E-03 6.09864E-20
 -1      6750-1.08864E-03 2.23830E-03 1.62630E-19
 -1      6751-1.15125E-03 2.03673E-03-1.35525E-19
 -1      6752-9.61297E-04 2.23269E-03 1.42302E-19
 -1      6753-1.02373E-03 2.03208E-03-4.06576E-20
 -1      6754-8.34524E-04 2.22631E-03 6.77626E-21
 -1      6755-8.96723E-04 2.02665E-03 6.77626E-20
 -1      6756-7.08402E-04 2.21930E-03-2.71051E-20
 -1      6757-7.70334E-04 2.02057E-03-1.21973E-19
 -1      6758-5.83006E-04 2.21175E-03 6.09864E-20
 -1      6759-6.44640E-04 2.01396E-03 8.80914E-20
 -1      6760-4.58401E-04 2.20377E-03-1.89735E-19
 -1      6761-5.19714E-04 2.00691E-03-1.69407E-19
 -1      6762-3.34649E-04 2.19545E-03 1.96512E-19
 -1      6763-3.95619E-04 1.99951E-03-2.03288E-20
 -1      6764-2.11803E-04 2.18688E-03-7.45389E-20
 -1      6765-2.72413E-04 1.99184E-03 2.84603E-19
 -1      6766-8.99140E-05 2.17815E-03 1.62630E-19
 -1      6767-1.50146E-04 1.98398E-03-1.35525E-20
 -1      6768 3.09786E-05 2.16934E-03-6.77626E-21
 -1      6769-2.88601E-05 1.97602E-03 9.48677E-20
 -1      6770 1.50842E-04 2.16056E-03-3.38813E-20
 -1      6771 9.14113E-05 1.96805E-03-8.80914E-20
 -1      6772 2.69657E-04 2.15191E-03 3.38813E-20
 -1      6773 2.10645E-04 1.96014E-03-1.15196E-19
 -1      6774 3.87415E-04 2.14349E-03-1.55854E-19
 -1      6775 3.28831E-04 1.95241E-03-2.03288E-20
 -1      6776 5.04127E-04 2.13543E-03-6.77626E-20
 -1      6777 4.45974E-04 1.94494E-03-7.45389E-20
 -1      6778 5.62096E-04 1.93786E-03-6.77626E-20
 -1      6779-1.21405E-03 1.83455E-03-1.62630E-19
 -1      6780-1.27703E-03 1.63183E-03 8.13152E-20
 -1      6781-1.08637E-03 1.83080E-03-1.49078E-19
 -1      6782-1.14921E-03 1.62892E-03 1.35525E-19
 -1      6783-9.59151E-04 1.82629E-03-1.42302E-19
 -1      6784-1.02180E-03 1.62526E-03-3.93023E-19
 -1      6785-8.32502E-04 1.82112E-03 4.06576E-20
 -1      6786-8.94903E-04 1.62097E-03-3.38813E-20
 -1      6787-7.06514E-04 1.81542E-03-3.38813E-20
 -1      6788-7.68628E-04 1.61615E-03 1.42302E-19
 -1      6789-5.81265E-04 1.80928E-03 6.77626E-21
 -1      6790-6.43059E-04 1.61089E-03 6.77626E-21
 -1      6791-4.56825E-04 1.80278E-03-2.03288E-20
 -1      6792-5.18271E-04 1.60528E-03-1.15196E-19
 -1      6793-3.33253E-04 1.79600E-03 2.03288E-20
 -1      6794-3.94329E-04 1.59938E-03-4.06576E-20
 -1      6795-2.10601E-04 1.78902E-03 1.21973E-19
 -1      6796-2.71288E-04 1.59327E-03 8.13152E-20
 -1      6797-8.89149E-05 1.78191E-03 1.28749E-19
 -1      6798-1.49196E-04 1.58701E-03 2.57498E-19
 -1      6799 3.17704E-05 1.77475E-03 9.48677E-20
 -1      6800-2.80905E-05 1.58067E-03 1.82959E-19
 -1      6801 1.51429E-04 1.76762E-03-6.77626E-21
 -1      6802 9.19997E-05 1.57433E-03 3.32037E-19
 -1      6803 2.70049E-04 1.76060E-03-2.03288E-20
 -1      6804 2.11058E-04 1.56805E-03 6.77626E-20
 -1      6805 3.87628E-04 1.75378E-03-5.42101E-20
 -1      6806 3.29081E-04 1.56191E-03 1.35525E-20
 -1      6807 5.04185E-04 1.74726E-03-2.71051E-20
 -1      6808 4.46078E-04 1.55600E-03 8.80914E-20
 -1      6809 5.62078E-04 1.55039E-03 8.80914E-20
 -1      6810-1.21223E-03 1.42648E-03 6.77626E-20
 -1      6811-1.27542E-03 1.22355E-03 0.00000E+00
 -1      6812-1.08465E-03 1.42363E-03 6.09864E-20
 -1      6813-1.14770E-03 1.22142E-03 1.76183E-19
 -1      6814-9.57529E-04 1.42016E-03-2.91379E-19
 -1      6815-1.02037E-03 1.21871E-03 1.21973E-19
 -1      6816-8.30978E-04 1.41617E-03 1.42302E-19
 -1      6817-8.93560E-04 1.21552E-03-8.80914E-20
 -1      6818-7.05096E-04 1.41177E-03-4.74338E-20
 -1      6819-7.67374E-04 1.21193E-03-6.77626E-20
 -1      6820-5.79963E-04 1.40701E-03 6.77626E-21
 -1      6821-6.41900E-04 1.20801E-03-1.49078E-19
 -1      6822-4.55649E-04 1.40198E-03 7.45389E-20
 -1      6823-5.17217E-04 1.20381E-03 1.96512E-19
 -1      6824-3.32215E-04 1.39672E-03-2.30393E-19
 -1      6825-3.93389E-04 1.19940E-03-4.74338E-20
 -1      6826-2.09712E-04 1.39131E-03 1.62630E-19
 -1      6827-2.70472E-04 1.19483E-03-1.96512E-19
 -1      6828-8.81810E-05 1.38581E-03 5.42101E-20
 -1      6829-1.48510E-04 1.19016E-03-1.76183E-19
 -1      6830 3.23468E-05 1.38026E-03 4.74338E-20
 -1      6831-2.75395E-05 1.18542E-03-1.21973E-19
 -1      6832 1.51851E-04 1.37475E-03 8.13152E-20
 -1      6833 9.24165E-05 1.18069E-03 6.77626E-20
 -1      6834 2.70323E-04 1.36933E-03 4.06576E-20
 -1      6835 2.11345E-04 1.17600E-03 5.42101E-20
 -1      6836 3.87768E-04 1.36406E-03 4.06576E-20
 -1      6837 3.29247E-04 1.17143E-03 7.45389E-20
 -1      6838 5.04209E-04 1.35904E-03-5.42101E-20
 -1      6839 4.46138E-04 1.16703E-03-6.77626E-20
 -1      6840 5.62049E-04 1.16286E-03-1.08420E-19
 -1      6841-1.21092E-03 1.01871E-03 1.15196E-19
 -1      6842-1.27431E-03 8.15550E-04 1.35525E-19
 -1      6843-1.08342E-03 1.01669E-03 3.18484E-19
 -1      6844-1.14666E-03 8.14151E-04 2.64274E-19
 -1      6845-9.56367E-04 1.01424E-03 3.38813E-20
 -1      6846-1.01939E-03 8.12364E-04 2.16840E-19
 -1      6847-8.29890E-04 1.01141E-03-6.09864E-20
 -1      6848-8.92640E-04 8.10252E-04 3.38813E-20
 -1      6849-7.04085E-04 1.00828E-03-8.13152E-20
 -1      6850-7.66516E-04 8.07868E-04-1.76183E-19
 -1      6851-5.79037E-04 1.00490E-03-2.03288E-20
 -1      6852-6.41110E-04 8.05260E-04-6.09864E-20
 -1      6853-4.54816E-04 1.00131E-03 1.42302E-19
 -1      6854-5.16501E-04 8.02470E-04-2.71051E-20
 -1      6855-3.31483E-04 9.97570E-04-5.42101E-20
 -1      6856-3.92753E-04 7.99538E-04-4.06576E-20
 -1      6857-2.09088E-04 9.93718E-04-2.71051E-20
 -1      6858-2.69921E-04 7.96499E-04-2.71051E-20
 -1      6859-8.76684E-05 9.89797E-04 8.80914E-20
 -1      6860-1.48050E-04 7.93389E-04 1.82959E-19
 -1      6861 3.27460E-05 9.85853E-04 6.77626E-21
 -1      6862-2.71712E-05 7.90243E-04 1.15196E-19
 -1      6863 1.52139E-04 9.81931E-04 6.77626E-21
 -1      6864 9.26925E-05 7.87097E-04-5.42101E-20
 -1      6865 2.70505E-04 9.78077E-04 4.06576E-20
 -1      6866 2.11532E-04 7.83987E-04 4.74338E-20
 -1      6867 3.87856E-04 9.74341E-04 2.71051E-19
 -1      6868 3.29352E-04 7.80953E-04 1.21973E-19
 -1      6869 5.04214E-04 9.70774E-04-1.01644E-19
 -1      6870 4.46170E-04 7.78033E-04 1.49078E-19
 -1      6871 5.62020E-04 7.75270E-04-3.38813E-20
 -1      6872-1.21007E-03 6.11140E-04 8.13152E-20
 -1      6873-1.27366E-03 4.07729E-04-1.35525E-20
 -1      6874-1.08262E-03 6.09944E-04-7.45389E-20
 -1      6875-1.14605E-03 4.07036E-04 6.77626E-21
 -1      6876-9.55618E-04 6.08481E-04-9.48677E-20
 -1      6877-1.01882E-03 4.06148E-04-1.49078E-19
 -1      6878-8.29190E-04 6.06794E-04-2.71051E-20
 -1      6879-8.92104E-04 4.05096E-04-2.03288E-20
 -1      6880-7.03437E-04 6.04920E-04-3.38813E-20
 -1      6881-7.66017E-04 4.03908E-04 4.74338E-20
 -1      6882-5.78445E-04 6.02895E-04-4.06576E-20
 -1      6883-6.40651E-04 4.02607E-04 7.45389E-20
 -1      6884-4.54285E-04 6.00747E-04-2.71051E-20
 -1      6885-5.16085E-04 4.01214E-04 5.42101E-20
 -1      6886-3.31017E-04 5.98507E-04-7.45389E-20
 -1      6887-3.92384E-04 3.99750E-04-6.77626E-21
 -1      6888-2.08691E-04 5.96200E-04 0.00000E+00
 -1      6889-2.69603E-04 3.98233E-04-5.42101E-20
 -1      6890-8.73447E-05 5.93853E-04 2.03288E-20
 -1      6891-1.47784E-04 3.96681E-04-1.35525E-19
 -1      6892 3.29964E-05 5.91493E-04 8.80914E-20
 -1      6893-2.69603E-05 3.95111E-04 0.00000E+00
 -1      6894 1.52317E-04 5.89146E-04-1.35525E-20
 -1      6895 9.28493E-05 3.93541E-04 0.00000E+00
 -1      6896 2.70616E-04 5.86842E-04 6.09864E-20
 -1      6897 2.11637E-04 3.91989E-04-2.71051E-20
 -1      6898 3.87905E-04 5.84609E-04 1.08420E-19
 -1      6899 3.29409E-04 3.90476E-04 5.42101E-20
 -1      6900 5.04211E-04 5.82478E-04 4.74338E-20
 -1      6901 4.46185E-04 3.89021E-04 9.48677E-20
 -1      6902 5.62000E-04 3.87645E-04-1.35525E-20
 -1      6903-1.20966E-03 2.03699E-04 1.08420E-19
 -1      6904-1.08223E-03 2.03303E-04 3.38813E-20
 -1      6905-9.55251E-04 2.02817E-04 6.09864E-20
 -1      6906-8.28848E-04 2.02255E-04 1.08420E-19
 -1      6907-7.03121E-04 2.01632E-04 3.38813E-20
 -1      6908-5.78156E-04 2.00958E-04 1.42302E-19
 -1      6909-4.54026E-04 2.00243E-04-7.45389E-20
 -1      6910-3.30791E-04 1.99496E-04 6.77626E-21
 -1      6911-2.08499E-04 1.98728E-04-6.77626E-20
 -1      6912-8.71882E-05 1.97947E-04-8.80914E-20
 -1      6913 3.31170E-05 1.97161E-04 6.77626E-21
 -1      6914 1.52403E-04 1.96380E-04 2.71051E-20
 -1      6915 2.70668E-04 1.95613E-04 3.38813E-20
 -1      6916 3.87928E-04 1.94870E-04 7.45389E-20
 -1      6917 5.04208E-04 1.94162E-04 8.80914E-20
 -1      6918 7.34486E-04 3.85768E-04-3.04932E-20
 -1      6919 7.34543E-04 7.71501E-04 1.35525E-20
 -1      6920 7.34635E-04 1.15717E-03 7.45389E-20
 -1      6921 7.34758E-04 1.54273E-03 2.71051E-20
 -1      6922 7.34907E-04 1.92816E-03 2.03288E-20
 -1      6923 7.35076E-04 2.31343E-03 1.35525E-20
 -1      6924 7.35257E-04 2.69850E-03-2.71051E-20
 -1      6925 7.35443E-04 3.08337E-03 1.45690E-19
 -1      6926 7.35627E-04 3.46800E-03-5.42101E-20
 -1      6927 7.35800E-04 3.85239E-03-7.11508E-20
 -1      6928 7.35956E-04 4.23652E-03-9.82558E-20
 -1      6929 7.36087E-04 4.62040E-03-9.14796E-20
 -1      6930 7.36187E-04 5.00405E-03-6.43745E-20
 -1      6931 7.36249E-04 5.38749E-03-1.49078E-19
 -1      6932 7.36264E-04 5.77077E-03-5.42101E-20
 -1      6933 7.36217E-04 6.15396E-03 3.38813E-21
 -1      6934 7.36088E-04 6.53717E-03 4.40457E-20
 -1      6935 7.35837E-04 6.92054E-03-7.79270E-20
 -1      6936 7.35398E-04 7.30430E-03 1.08420E-19
 -1      6937 7.34666E-04 7.68874E-03-2.03288E-20
 -1      6938 7.33461E-04 8.07424E-03-2.37169E-20
 -1      6939 7.31504E-04 8.46136E-03-1.96512E-19
 -1      6940 7.28349E-04 8.85084E-03-3.38813E-21
 -1      6941 7.23309E-04 9.24364E-03-1.55854E-19
 -1      6942 7.15332E-04 9.64109E-03 4.54010E-19
 -1      6943 7.02843E-04 1.00448E-02-2.40557E-19
 -1      6944 6.83523E-04 1.04570E-02-2.37169E-19
 -1      6945 6.54066E-04 1.08801E-02-3.04932E-19
 -1      6946 8.48601E-04 3.84673E-04-5.08220E-20
 -1      6947 8.48670E-04 7.69302E-04 2.71051E-20
 -1      6948 8.48784E-04 1.15384E-03-2.71051E-20
 -1      6949 8.48941E-04 1.53825E-03-2.71051E-20
 -1      6950 8.49139E-04 1.92248E-03 4.74338E-20
 -1      6951 8.49374E-04 2.30649E-03 1.21973E-19
 -1      6952 8.49644E-04 2.69025E-03 6.77626E-20
 -1      6953 8.49948E-04 3.07370E-03 1.15196E-19
 -1      6954 8.50285E-04 3.45681E-03 6.77626E-21
 -1      6955 8.50654E-04 3.83955E-03 1.35525E-20
 -1      6956 8.51060E-04 4.22188E-03 1.25361E-19
 -1      6957 8.51506E-04 4.60377E-03 3.38813E-21
 -1      6958 8.52002E-04 4.98520E-03 1.66018E-19
 -1      6959 8.52557E-04 5.36614E-03 3.04932E-20
 -1      6960 8.53186E-04 5.74660E-03 3.72694E-20
 -1      6961 8.53904E-04 6.12658E-03 1.18585E-19
 -1      6962 8.54724E-04 6.50611E-03 8.47033E-20
 -1      6963 8.55655E-04 6.88524E-03 1.05032E-19
 -1      6964 8.56693E-04 7.26407E-03 1.69407E-20
 -1      6965 8.57812E-04 7.64278E-03 6.77626E-21
 -1      6966 8.58940E-04 8.02159E-03-2.03288E-20
 -1      6967 8.59933E-04 8.40090E-03-4.06576E-20
 -1      6968 8.60521E-04 8.78125E-03 2.77827E-19
 -1      6969 8.60235E-04 9.16346E-03 2.06676E-19
 -1      6970 8.58282E-04 9.54871E-03-4.74338E-20
 -1      6971 8.53353E-04 9.93865E-03 1.25361E-19
 -1      6972 8.43337E-04 1.03356E-02-1.35525E-19
 -1      6973 8.24912E-04 1.07427E-02-3.72694E-20
 -1      6974 9.62000E-04 3.83728E-04-6.77626E-21
 -1      6975 9.62072E-04 7.67403E-04-2.71051E-20
 -1      6976 9.62192E-04 1.15097E-03 4.06576E-20
 -1      6977 9.62360E-04 1.53438E-03 6.77626E-21
 -1      6978 9.62574E-04 1.91756E-03 8.47033E-20
 -1      6979 9.62835E-04 2.30048E-03-6.77626E-20
 -1      6980 9.63143E-04 2.68308E-03 2.03288E-20
 -1      6981 9.63501E-04 3.06528E-03-1.01644E-19
 -1      6982 9.63911E-04 3.44705E-03-3.38813E-21
 -1      6983 9.64381E-04 3.82832E-03-1.82959E-19
 -1      6984 9.64919E-04 4.20903E-03-1.01644E-20
 -1      6985 9.65538E-04 4.58912E-03-2.40557E-19
 -1      6986 9.66257E-04 4.96853E-03 2.03288E-20
 -1      6987 9.67097E-04 5.34718E-03 6.43745E-20
 -1      6988 9.68088E-04 5.72502E-03-2.71051E-20
 -1      6989 9.69265E-04 6.10197E-03 1.35525E-20
 -1      6990 9.70669E-04 6.47799E-03-2.71051E-20
 -1      6991 9.72343E-04 6.85300E-03-1.08420E-19
 -1      6992 9.74336E-04 7.22699E-03 2.47334E-19
 -1      6993 9.76687E-04 7.59993E-03-8.47033E-20
 -1      6994 9.79422E-04 7.97188E-03 2.37169E-20
 -1      6995 9.82528E-04 8.34295E-03-1.32137E-19
 -1      6996 9.85924E-04 8.71338E-03-1.49078E-19
 -1      6997 9.89393E-04 9.08363E-03-1.99900E-19
 -1      6998 9.92485E-04 9.45447E-03-1.69407E-20
 -1      6999 9.94337E-04 9.82714E-03 4.40457E-20
 -1      7000 9.93366E-04 1.02036E-02-4.70950E-19
 -1      7001 9.86768E-04 1.05869E-02-1.45690E-19
 -1      7002 1.07479E-03 3.82949E-04-3.04932E-20
 -1      7003 1.07486E-03 7.65837E-04 2.03288E-20
 -1      7004 1.07497E-03 1.14860E-03 5.42101E-20
 -1      7005 1.07512E-03 1.53118E-03 2.37169E-20
 -1      7006 1.07533E-03 1.91350E-03-6.77626E-21
 -1      7007 1.07557E-03 2.29551E-03 5.75982E-20
 -1      7008 1.07587E-03 2.67714E-03 9.48677E-20
 -1      7009 1.07622E-03 3.05831E-03 1.96512E-19
 -1      7010 1.07663E-03 3.43895E-03 6.77626E-20
 -1      7011 1.07711E-03 3.81898E-03-7.45389E-20
 -1      7012 1.07767E-03 4.19831E-03 2.03288E-19
 -1      7013 1.07832E-03 4.57686E-03 3.38813E-21
 -1      7014 1.07909E-03 4.95452E-03-1.28749E-19
 -1      7015 1.08001E-03 5.33117E-03 2.37169E-20
 -1      7016 1.08111E-03 5.70671E-03-2.03288E-20
 -1      7017 1.08244E-03 6.08099E-03 2.37169E-20
 -1      7018 1.08404E-03 6.45386E-03-7.45389E-20
 -1      7019 1.08599E-03 6.82515E-03 3.28649E-19
 -1      7020 1.08836E-03 7.19468E-03 4.06576E-20
 -1      7021 1.09124E-03 7.56224E-03 5.42101E-20
 -1      7022 1.09471E-03 7.92765E-03 7.11508E-20
 -1      7023 1.09887E-03 8.29070E-03 2.40557E-19
 -1      7024 1.10378E-03 8.65124E-03 3.82859E-19
 -1      7025 1.10946E-03 9.00917E-03 3.59142E-19
 -1      7026 1.11580E-03 9.36459E-03-3.72694E-20
 -1      7027 1.12244E-03 9.71789E-03 3.65918E-19
 -1      7028 1.12852E-03 1.00700E-02 4.40457E-20
 -1      7029 1.13219E-03 1.04228E-02-1.01644E-19
 -1      7030 1.18709E-03 3.82352E-04-2.37169E-20
 -1      7031 1.18715E-03 7.64635E-04-5.08220E-20
 -1      7032 1.18724E-03 1.14678E-03-4.40457E-20
 -1      7033 1.18736E-03 1.52872E-03-7.11508E-20
 -1      7034 1.18753E-03 1.91038E-03 4.40457E-20
 -1      7035 1.18773E-03 2.29169E-03-6.43745E-20
 -1      7036 1.18797E-03 2.67256E-03 6.77626E-20
 -1      7037 1.18827E-03 3.05292E-03 8.13152E-20
 -1      7038 1.18861E-03 3.43268E-03-9.82558E-20
 -1      7039 1.18902E-03 3.81174E-03 3.38813E-21
 -1      7040 1.18949E-03 4.18999E-03-3.04932E-20
 -1      7041 1.19006E-03 4.56732E-03 9.48677E-20
 -1      7042 1.19073E-03 4.94359E-03 1.01644E-19
 -1      7043 1.19154E-03 5.31865E-03 9.82558E-20
 -1      7044 1.19252E-03 5.69233E-03 4.74338E-20
 -1      7045 1.19370E-03 6.06444E-03 1.28749E-19
 -1      7046 1.19515E-03 6.43473E-03 6.43745E-20
 -1      7047 1.19693E-03 6.80293E-03 2.71051E-19
 -1      7048 1.19911E-03 7.16873E-03 4.06576E-20
 -1      7049 1.20180E-03 7.53174E-03 1.59242E-19
 -1      7050 1.20511E-03 7.89152E-03 1.11808E-19
 -1      7051 1.20917E-03 8.24756E-03 1.42302E-19
 -1      7052 1.21414E-03 8.59924E-03-7.79270E-20
 -1      7053 1.22015E-03 8.94589E-03 1.05032E-19
 -1      7054 1.22735E-03 9.28676E-03 2.20229E-19
 -1      7055 1.23578E-03 9.62105E-03-9.82558E-20
 -1      7056 1.24520E-03 9.94810E-03 3.62530E-19
 -1      7057 1.25484E-03 1.02675E-02-6.43745E-20
 -1      7058 1.29904E-03 3.81947E-04-3.72694E-20
 -1      7059 1.29907E-03 7.63820E-04 4.74338E-20
 -1      7060 1.29913E-03 1.14555E-03 4.74338E-20
 -1      7061 1.29921E-03 1.52705E-03-6.43745E-20
 -1      7062 1.29932E-03 1.90826E-03-9.48677E-20
 -1      7063 1.29945E-03 2.28909E-03-1.01644E-20
 -1      7064 1.29961E-03 2.66945E-03 6.77626E-20
 -1      7065 1.29980E-03 3.04926E-03-1.99900E-19
 -1      7066 1.30003E-03 3.42841E-03 5.75982E-20
 -1      7067 1.30030E-03 3.80680E-03 3.38813E-21
 -1      7068 1.30062E-03 4.18430E-03 7.11508E-20
 -1      7069 1.30100E-03 4.56079E-03 4.74338E-20
 -1      7070 1.30146E-03 4.93609E-03 1.01644E-20
 -1      7071 1.30201E-03 5.31004E-03 1.25361E-19
 -1      7072 1.30267E-03 5.68242E-03 1.89735E-19
 -1      7073 1.30349E-03 6.05299E-03-8.47033E-20
 -1      7074 1.30449E-03 6.42145E-03 2.64274E-19
 -1      7075 1.30572E-03 6.78744E-03-1.38913E-19
 -1      7076 1.30724E-03 7.15054E-03 3.11708E-19
 -1      7077 1.30913E-03 7.51024E-03 2.33781E-19
 -1      7078 1.31148E-03 7.86588E-03-2.10064E-19
 -1      7079 1.31441E-03 8.21669E-03 1.28749E-19
 -1      7080 1.31805E-03 8.56167E-03 2.10064E-19
 -1      7081 1.32257E-03 8.89962E-03-4.74338E-20
 -1      7082 1.32816E-03 9.22900E-03-1.38913E-19
 -1      7083 1.33501E-03 9.54789E-03 3.38813E-20
 -1      7084 1.34325E-03 9.85389E-03 1.77877E-19
 -1      7085 1.35279E-03 1.01440E-02-6.77626E-21
 -1      7086 1.41076E-03 3.81742E-04-4.40457E-20
 -1      7087 1.41078E-03 7.63409E-04 3.04932E-20
 -1      7088 1.41080E-03 1.14492E-03-9.82558E-20
 -1      7089 1.41082E-03 1.52621E-03 3.04932E-20
 -1      7090 1.41086E-03 1.90719E-03-1.35525E-20
 -1      7091 1.41091E-03 2.28778E-03 0.00000E+00
 -1      7092 1.41096E-03 2.66788E-03-6.09864E-20
 -1      7093 1.41103E-03 3.04741E-03 2.71051E-20
 -1      7094 1.41111E-03 3.42625E-03-2.03288E-20
 -1      7095 1.41121E-03 3.80430E-03-3.04932E-20
 -1      7096 1.41132E-03 4.18142E-03-5.75982E-20
 -1      7097 1.41145E-03 4.55747E-03-1.79571E-19
 -1      7098 1.41161E-03 4.93228E-03-2.50722E-19
 -1      7099 1.41181E-03 5.30565E-03 4.40457E-20
 -1      7100 1.41204E-03 5.67736E-03-1.11808E-19
 -1      7101 1.41233E-03 6.04713E-03-6.09864E-20
 -1      7102 1.41269E-03 6.41464E-03-4.81115E-19
 -1      7103 1.41313E-03 6.77948E-03 2.71051E-19
 -1      7104 1.41367E-03 7.14117E-03 2.03288E-20
 -1      7105 1.41435E-03 7.49912E-03 1.35525E-19
 -1      7106 1.41520E-03 7.85256E-03 1.35525E-20
 -1      7107 1.41626E-03 8.20057E-03 1.72795E-19
 -1      7108 1.41759E-03 8.54194E-03 2.03288E-19
 -1      7109 1.41927E-03 8.87514E-03 2.54110E-19
 -1      7110 1.42136E-03 9.19816E-03 4.23516E-19
 -1      7111 1.42399E-03 9.50836E-03-3.72694E-20
 -1      7112 1.42723E-03 9.80223E-03-1.49078E-19
 -1      7113 1.43115E-03 1.00750E-02-5.92923E-20
 -1      7114 1.52242E-03 3.81742E-04 3.38813E-20
 -1      7115 1.52241E-03 7.63409E-04 2.37169E-20
 -1      7116 1.52239E-03 1.14492E-03 4.74338E-20
 -1      7117 1.52236E-03 1.52621E-03-8.80914E-20
 -1      7118 1.52232E-03 1.90719E-03-4.40457E-20
 -1      7119 1.52228E-03 2.28778E-03 3.72694E-20
 -1      7120 1.52222E-03 2.66788E-03-6.09864E-20
 -1      7121 1.52215E-03 3.04741E-03-1.21973E-19
 -1      7122 1.52207E-03 3.42625E-03-1.15196E-19
 -1      7123 1.52198E-03 3.80430E-03 7.79270E-20
 -1      7124 1.52187E-03 4.18142E-03-5.42101E-20
 -1      7125 1.52173E-03 4.55747E-03-9.14796E-20
 -1      7126 1.52157E-03 4.93228E-03 1.69407E-20
 -1      7127 1.52138E-03 5.30565E-03-2.03288E-20
 -1      7128 1.52114E-03 5.67736E-03-9.82558E-20
 -1      7129 1.52085E-03 6.04713E-03 7.11508E-20
 -1      7130 1.52050E-03 6.41464E-03-7.11508E-20
 -1      7131 1.52006E-03 6.77948E-03 7.79270E-20
 -1      7132 1.51951E-03 7.14117E-03-8.13152E-20
 -1      7133 1.51883E-03 7.49912E-03 1.49078E-19
 -1      7134 1.51798E-03 7.85256E-03-3.04932E-20
 -1      7135 1.51692E-03 8.20057E-03-2.03288E-19
 -1      7136 1.51559E-03 8.54194E-03 5.42101E-20
 -1      7137 1.51392E-03 8.87514E-03 0.00000E+00
 -1      7138 1.51182E-03 9.19816E-03-2.06676E-19
 -1      7139 1.50920E-03 9.50836E-03 1.15196E-19
 -1      7140 1.50595E-03 9.80223E-03-1.28749E-19
 -1      7141 1.50203E-03 1.00750E-02 5.89535E-19
 -1      7142 1.63415E-03 3.81947E-04-4.06576E-20
 -1      7143 1.63411E-03 7.63820E-04-1.35525E-20
 -1      7144 1.63405E-03 1.14555E-03-2.03288E-20
 -1      7145 1.63397E-03 1.52705E-03 3.38813E-21
 -1      7146 1.63387E-03 1.90826E-03-9.14796E-20
 -1      7147 1.63373E-03 2.28909E-03 2.37169E-20
 -1      7148 1.63357E-03 2.66945E-03 3.38813E-21
 -1      7149 1.63338E-03 3.04926E-03 3.04932E-20
 -1      7150 1.63315E-03 3.42841E-03-6.77626E-20
 -1      7151 1.63288E-03 3.80680E-03 2.03288E-20
 -1      7152 1.63256E-03 4.18430E-03 1.42302E-19
 -1      7153 1.63218E-03 4.56079E-03 0.00000E+00
 -1      7154 1.63172E-03 4.93609E-03-6.77626E-20
 -1      7155 1.63118E-03 5.31004E-03 1.45690E-19
 -1      7156 1.63051E-03 5.68242E-03-9.48677E-20
 -1      7157 1.62970E-03 6.05299E-03-3.04932E-20
 -1      7158 1.62870E-03 6.42145E-03 5.42101E-20
 -1      7159 1.62747E-03 6.78744E-03 1.35525E-20
 -1      7160 1.62594E-03 7.15054E-03-1.52466E-19
 -1      7161 1.62405E-03 7.51024E-03-7.45389E-20
 -1      7162 1.62170E-03 7.86588E-03 5.75982E-20
 -1      7163 1.61877E-03 8.21669E-03 2.33781E-19
 -1      7164 1.61513E-03 8.56167E-03 4.40457E-20
 -1      7165 1.61061E-03 8.89962E-03 6.16640E-19
 -1      7166 1.60502E-03 9.22900E-03-2.64274E-19
 -1      7167 1.59817E-03 9.54789E-03-2.03288E-20
 -1      7168 1.58993E-03 9.85389E-03 1.49078E-19
 -1      7169 1.58040E-03 1.01440E-02 3.91329E-19
 -1      7170 1.74609E-03 3.82352E-04 5.75982E-20
 -1      7171 1.74604E-03 7.64635E-04-3.38813E-21
 -1      7172 1.74595E-03 1.14678E-03 4.40457E-20
 -1      7173 1.74582E-03 1.52872E-03 1.69407E-20
 -1      7174 1.74566E-03 1.91038E-03 6.77626E-21
 -1      7175 1.74545E-03 2.29169E-03-1.15196E-19
 -1      7176 1.74521E-03 2.67256E-03-3.38813E-20
 -1      7177 1.74492E-03 3.05292E-03-7.79270E-20
 -1      7178 1.74457E-03 3.43268E-03 2.37169E-20
 -1      7179 1.74417E-03 3.81174E-03 1.82959E-19
 -1      7180 1.74369E-03 4.18999E-03-7.45389E-20
 -1      7181 1.74312E-03 4.56732E-03 4.06576E-20
 -1      7182 1.74245E-03 4.94359E-03-9.82558E-20
 -1      7183 1.74164E-03 5.31865E-03 1.01644E-20
 -1      7184 1.74067E-03 5.69233E-03 5.75982E-20
 -1      7185 1.73948E-03 6.06444E-03-2.23617E-19
 -1      7186 1.73803E-03 6.43473E-03-8.80914E-20
 -1      7187 1.73625E-03 6.80293E-03-1.32137E-19
 -1      7188 1.73407E-03 7.16873E-03-1.35525E-20
 -1      7189 1.73138E-03 7.53174E-03 1.21973E-19
 -1      7190 1.72807E-03 7.89152E-03-1.38913E-19
 -1      7191 1.72401E-03 8.24756E-03 2.81215E-19
 -1      7192 1.71905E-03 8.59924E-03-1.59242E-19
 -1      7193 1.71303E-03 8.94589E-03 1.69407E-20
 -1      7194 1.70583E-03 9.28676E-03-2.03288E-20
 -1      7195 1.69741E-03 9.62105E-03-5.08220E-20
 -1      7196 1.68798E-03 9.94810E-03-7.45389E-20
 -1      7197 1.67834E-03 1.02675E-02 1.71101E-19
 -1      7198 1.85839E-03 3.82949E-04 2.03288E-20
 -1      7199 1.85833E-03 7.65837E-04 4.06576E-20
 -1      7200 1.85821E-03 1.14860E-03 4.40457E-20
 -1      7201 1.85806E-03 1.53118E-03 3.38813E-20
 -1      7202 1.85786E-03 1.91350E-03-5.75982E-20
 -1      7203 1.85761E-03 2.29551E-03 1.15196E-19
 -1      7204 1.85731E-03 2.67714E-03 5.42101E-20
 -1      7205 1.85696E-03 3.05831E-03 8.80914E-20
 -1      7206 1.85655E-03 3.43895E-03 1.76183E-19
 -1      7207 1.85607E-03 3.81898E-03-5.75982E-20
 -1      7208 1.85551E-03 4.19831E-03 1.15196E-19
 -1      7209 1.85486E-03 4.57686E-03-3.38813E-20
 -1      7210 1.85409E-03 4.95452E-03 2.67662E-19
 -1      7211 1.85317E-03 5.33117E-03 1.76183E-19
 -1      7212 1.85207E-03 5.70671E-03 1.55854E-19
 -1      7213 1.85075E-03 6.08099E-03-4.74338E-20
 -1      7214 1.84914E-03 6.45386E-03 2.47334E-19
 -1      7215 1.84719E-03 6.82515E-03 2.03288E-20
 -1      7216 1.84482E-03 7.19468E-03 1.96512E-19
 -1      7217 1.84195E-03 7.56224E-03 1.18585E-19
 -1      7218 1.83847E-03 7.92765E-03 1.18585E-19
 -1      7219 1.83432E-03 8.29070E-03-1.11808E-19
 -1      7220 1.82940E-03 8.65124E-03-5.42101E-20
 -1      7221 1.82372E-03 9.00917E-03-8.80914E-20
 -1      7222 1.81738E-03 9.36459E-03 1.45690E-19
 -1      7223 1.81074E-03 9.71789E-03 1.32137E-19
 -1      7224 1.80466E-03 1.00700E-02 4.09964E-19
 -1      7225 1.80099E-03 1.04228E-02 1.52466E-19
 -1      7226 1.97118E-03 3.83728E-04 2.71051E-20
 -1      7227 1.97111E-03 7.67403E-04-6.77626E-21
 -1      7228 1.97099E-03 1.15097E-03 1.01644E-19
 -1      7229 1.97082E-03 1.53438E-03-1.35525E-19
 -1      7230 1.97061E-03 1.91756E-03 7.79270E-20
 -1      7231 1.97035E-03 2.30048E-03-7.11508E-20
 -1      7232 1.97004E-03 2.68308E-03 2.03288E-20
 -1      7233 1.96968E-03 3.06528E-03-1.99900E-19
 -1      7234 1.96927E-03 3.44705E-03-1.01644E-19
 -1      7235 1.96880E-03 3.82832E-03 1.25361E-19
 -1      7236 1.96826E-03 4.20903E-03 4.06576E-20
 -1      7237 1.96764E-03 4.58912E-03 1.15196E-19
 -1      7238 1.96693E-03 4.96853E-03-2.37169E-20
 -1      7239 1.96609E-03 5.34718E-03 1.15196E-19
 -1      7240 1.96510E-03 5.72502E-03 2.03288E-19
 -1      7241 1.96392E-03 6.10197E-03 5.42101E-20
 -1      7242 1.96251E-03 6.47799E-03 3.52366E-19
 -1      7243 1.96084E-03 6.85300E-03-2.71051E-20
 -1      7244 1.95885E-03 7.22699E-03 3.62530E-19
 -1      7245 1.95650E-03 7.59993E-03 2.03288E-19
 -1      7246 1.95376E-03 7.97188E-03 6.77626E-21
 -1      7247 1.95065E-03 8.34295E-03 1.18585E-19
 -1      7248 1.94726E-03 8.71338E-03 1.49078E-19
 -1      7249 1.94379E-03 9.08363E-03-2.60886E-19
 -1      7250 1.94070E-03 9.45447E-03-2.84603E-19
 -1      7251 1.93885E-03 9.82714E-03-2.13452E-19
 -1      7252 1.93982E-03 1.02036E-02 3.04932E-20
 -1      7253 1.94642E-03 1.05869E-02-2.50722E-19
 -1      7254 2.08458E-03 3.84673E-04-4.74338E-20
 -1      7255 2.08451E-03 7.69302E-04 7.45389E-20
 -1      7256 2.08440E-03 1.15384E-03 6.77626E-21
 -1      7257 2.08424E-03 1.53825E-03 2.03288E-20
 -1      7258 2.08404E-03 1.92248E-03 3.38813E-21
 -1      7259 2.08381E-03 2.30649E-03 2.03288E-20
 -1      7260 2.08354E-03 2.69025E-03-2.37169E-20
 -1      7261 2.08324E-03 3.07370E-03 1.08420E-19
 -1      7262 2.08290E-03 3.45681E-03 8.47033E-20
 -1      7263 2.08253E-03 3.83955E-03-8.80914E-20
 -1      7264 2.08212E-03 4.22188E-03-1.69407E-20
 -1      7265 2.08168E-03 4.60377E-03 0.00000E+00
 -1      7266 2.08118E-03 4.98520E-03-5.75982E-20
 -1      7267 2.08063E-03 5.36614E-03-1.69407E-20
 -1      7268 2.08000E-03 5.74660E-03-1.69407E-20
 -1      7269 2.07928E-03 6.12658E-03 2.13452E-19
 -1      7270 2.07846E-03 6.50611E-03-1.45690E-19
 -1      7271 2.07753E-03 6.88524E-03 1.05032E-19
 -1      7272 2.07649E-03 7.26407E-03 1.25361E-19
 -1      7273 2.07537E-03 7.64278E-03-3.38813E-21
 -1      7274 2.07424E-03 8.02159E-03 1.35525E-20
 -1      7275 2.07325E-03 8.40090E-03 7.79270E-20
 -1      7276 2.07266E-03 8.78125E-03-1.28749E-19
 -1      7277 2.07295E-03 9.16346E-03 1.25361E-19
 -1      7278 2.07490E-03 9.54871E-03 9.82558E-20
 -1      7279 2.07983E-03 9.93865E-03 6.43745E-19
 -1      7280 2.08985E-03 1.03356E-02-6.09864E-20
 -1      7281 2.10827E-03 1.07427E-02 3.38813E-21
 -1      7282 2.19870E-03 3.85768E-04 3.38813E-20
 -1      7283 2.19864E-03 7.71501E-04 8.80914E-20
 -1      7284 2.19855E-03 1.15717E-03-5.08220E-20
 -1      7285 2.19843E-03 1.54273E-03 6.09864E-20
 -1      7286 2.19828E-03 1.92816E-03-1.05032E-19
 -1      7287 2.19811E-03 2.31343E-03-1.69407E-20
 -1      7288 2.19793E-03 2.69850E-03-2.03288E-20
 -1      7289 2.19774E-03 3.08337E-03-6.09864E-20
 -1      7290 2.19756E-03 3.46800E-03-9.82558E-20
 -1      7291 2.19738E-03 3.85239E-03-4.74338E-20
 -1      7292 2.19723E-03 4.23652E-03-2.71051E-20
 -1      7293 2.19710E-03 4.62040E-03 1.49078E-19
 -1      7294 2.19700E-03 5.00405E-03 2.10064E-19
 -1      7295 2.19693E-03 5.38749E-03 2.16840E-19
 -1      7296 2.19692E-03 5.77077E-03 1.15196E-19
 -1      7297 2.19697E-03 6.15396E-03-8.13152E-20
 -1      7298 2.19710E-03 6.53717E-03 1.69407E-19
 -1      7299 2.19735E-03 6.92054E-03 1.93124E-19
 -1      7300 2.19778E-03 7.30430E-03-9.48677E-20
 -1      7301 2.19852E-03 7.68874E-03 3.28649E-19
 -1      7302 2.19972E-03 8.07424E-03 1.99900E-19
 -1      7303 2.20168E-03 8.46136E-03-1.15196E-19
 -1      7304 2.20483E-03 8.85084E-03-1.72795E-19
 -1      7305 2.20987E-03 9.24364E-03 1.01644E-19
 -1      7306 2.21785E-03 9.64109E-03 1.18585E-19
 -1      7307 2.23034E-03 1.00448E-02 3.25261E-19
 -1      7308 2.24966E-03 1.04570E-02 2.03288E-19
 -1      7309 2.27912E-03 1.08801E-02 3.11708E-19
 -1      7310 6.77130E-04 3.86365E-04-1.08420E-19
 -1      7311 7.34471E-04 1.92886E-04-1.35525E-20
 -1      7312 6.77177E-04 7.72701E-04 1.82959E-19
 -1      7313 7.34510E-04 5.78641E-04-6.77626E-21
 -1      7314 6.77252E-04 1.15898E-03 1.01644E-19
 -1      7315 7.34584E-04 9.64344E-04 1.89735E-19
 -1      7316 6.77349E-04 1.54517E-03 4.06576E-20
 -1      7317 7.34692E-04 1.34996E-03 1.82959E-19
 -1      7318 6.77463E-04 1.93125E-03 2.91379E-19
 -1      7319 7.34829E-04 1.73546E-03 2.03288E-20
 -1      7320 6.77583E-04 2.31720E-03-2.98156E-19
 -1      7321 7.34989E-04 2.12081E-03 8.80914E-20
 -1      7322 6.77701E-04 2.70299E-03-1.01644E-19
 -1      7323 7.35165E-04 2.50599E-03 6.77626E-21
 -1      7324 6.77804E-04 3.08861E-03 6.09864E-20
 -1      7325 7.35350E-04 2.89096E-03 1.08420E-19
 -1      7326 6.77882E-04 3.47406E-03-2.03288E-20
 -1      7327 7.35536E-04 3.27571E-03 8.80914E-20
 -1      7328 6.77921E-04 3.85932E-03 2.03288E-19
 -1      7329 7.35715E-04 3.66022E-03-2.30393E-19
 -1      7330 6.77909E-04 4.24441E-03-6.64074E-19
 -1      7331 7.35881E-04 4.04448E-03-3.45589E-19
 -1      7332 6.77830E-04 4.62934E-03 1.42302E-19
 -1      7333 7.36025E-04 4.42849E-03-8.13152E-20
 -1      7334 6.77671E-04 5.01414E-03 2.71051E-20
 -1      7335 7.36141E-04 4.81226E-03-3.32037E-19
 -1      7336 6.77411E-04 5.39887E-03-3.86247E-19
 -1      7337 7.36223E-04 5.19579E-03-3.25261E-19
 -1      7338 6.77031E-04 5.78359E-03-5.08220E-19
 -1      7339 7.36263E-04 5.57914E-03-3.99800E-19
 -1      7340 6.76498E-04 6.16841E-03 9.48677E-20
 -1      7341 7.36249E-04 5.96237E-03-1.15196E-19
 -1      7342 6.75771E-04 6.55347E-03-2.91379E-19
 -1      7343 7.36165E-04 6.34555E-03 9.48677E-20
 -1      7344 6.74785E-04 6.93895E-03-5.82759E-19
 -1      7345 7.35981E-04 6.72882E-03-4.74338E-20
 -1      7346 6.73443E-04 7.32512E-03 5.75982E-19
 -1      7347 7.35646E-04 7.11236E-03-6.77626E-21
 -1      7348 6.71596E-04 7.71230E-03 1.62630E-19
 -1      7349 7.35078E-04 7.49641E-03 1.42302E-19
 -1      7350 6.69018E-04 8.10095E-03-5.14996E-19
 -1      7351 7.34137E-04 7.88132E-03-1.15196E-19
 -1      7352 6.65365E-04 8.49167E-03-3.59142E-19
 -1      7353 7.32601E-04 8.26756E-03-3.18484E-19
 -1      7354 6.60120E-04 8.88523E-03 1.49078E-19
 -1      7355 7.30113E-04 8.65575E-03 5.42101E-20
 -1      7356 6.52513E-04 9.28264E-03-2.16840E-19
 -1      7357 7.26122E-04 9.04674E-03-4.06576E-19
 -1      7358 6.41415E-04 9.68516E-03 1.21973E-18
 -1      7359 7.19775E-04 9.44168E-03 6.03087E-19
 -1      7360 6.25194E-04 1.00944E-02 8.80914E-20
 -1      7361 7.09781E-04 9.84204E-03 3.04932E-19
 -1      7362 6.01548E-04 1.05121E-02-1.89735E-19
 -1      7363 6.94224E-04 1.02497E-02-7.45389E-19
 -1      7364 5.67344E-04 1.09406E-02-1.17229E-18
 -1      7365 6.70322E-04 1.06670E-02-7.72494E-19
 -1      7366 6.34189E-04 1.10965E-02-9.82558E-19
 -1      7367 7.91639E-04 3.85203E-04-1.01644E-19
 -1      7368 8.48583E-04 1.92339E-04-6.09864E-20
 -1      7369 7.91703E-04 7.70366E-04 1.01644E-19
 -1      7370 8.48630E-04 5.76996E-04-1.08420E-19
 -1      7371 7.91808E-04 1.15545E-03 8.13152E-20
 -1      7372 8.48722E-04 9.61586E-04-6.77626E-21
 -1      7373 7.91951E-04 1.54042E-03 3.38813E-20
 -1      7374 8.48857E-04 1.34607E-03-1.15196E-19
 -1      7375 7.92128E-04 1.92523E-03 2.30393E-19
 -1      7376 8.49035E-04 1.73039E-03 0.00000E+00
 -1      7377 7.92335E-04 2.30985E-03 3.45589E-19
 -1      7378 8.49252E-04 2.11452E-03 2.57498E-19
 -1      7379 7.92568E-04 2.69425E-03 1.55854E-19
 -1      7380 8.49505E-04 2.49841E-03 1.82959E-19
 -1      7381 7.92821E-04 3.07839E-03 5.42101E-19
 -1      7382 8.49792E-04 2.88201E-03 3.52366E-19
 -1      7383 7.93091E-04 3.46224E-03 4.74338E-20
 -1      7384 8.50112E-04 3.26530E-03 2.50722E-19
 -1      7385 7.93374E-04 3.84578E-03-2.30393E-19
 -1      7386 8.50465E-04 3.64823E-03-9.48677E-20
 -1      7387 7.93669E-04 4.22900E-03 1.62630E-19
 -1      7388 8.50852E-04 4.03077E-03 3.11708E-19
 -1      7389 7.93976E-04 4.61186E-03-5.42101E-20
 -1      7390 8.51277E-04 4.41288E-03 1.15196E-19
 -1      7391 7.94295E-04 4.99438E-03 1.82959E-19
 -1      7392 8.51747E-04 4.79454E-03 2.16840E-19
 -1      7393 7.94629E-04 5.37655E-03-4.40457E-19
 -1      7394 8.52271E-04 5.17573E-03 3.11708E-19
 -1      7395 7.94981E-04 5.75841E-03-2.71051E-20
 -1      7396 8.52862E-04 5.55643E-03 2.16840E-19
 -1      7397 7.95353E-04 6.13998E-03 3.32037E-19
 -1      7398 8.53533E-04 5.93665E-03-1.69407E-19
 -1      7399 7.95742E-04 6.52133E-03 5.75982E-19
 -1      7400 8.54300E-04 6.31640E-03 1.69407E-19
 -1      7401 7.96132E-04 6.90259E-03 1.62630E-19
 -1      7402 8.55175E-04 6.69572E-03 2.91379E-19
 -1      7403 7.96492E-04 7.28389E-03 2.50722E-19
 -1      7404 8.56161E-04 7.07468E-03 8.13152E-20
 -1      7405 7.96755E-04 7.66549E-03 3.72694E-19
 -1      7406 8.57246E-04 7.45343E-03 0.00000E+00
 -1      7407 7.96795E-04 8.04770E-03 2.71051E-19
 -1      7408 8.58382E-04 7.83215E-03-1.82959E-19
 -1      7409 7.96400E-04 8.43100E-03-4.20128E-19
 -1      7410 8.59467E-04 8.21115E-03-5.42101E-20
 -1      7411 7.95208E-04 8.81604E-03 3.93023E-19
 -1      7412 8.60301E-04 8.59089E-03 1.35525E-19
 -1      7413 7.92634E-04 9.20377E-03-1.15196E-19
 -1      7414 8.60529E-04 8.97205E-03 8.74138E-19
 -1      7415 7.87741E-04 9.59543E-03 1.05032E-18
 -1      7416 8.59536E-04 9.35560E-03 4.47233E-19
 -1      7417 7.79061E-04 9.99276E-03-2.50722E-19
 -1      7418 8.56302E-04 9.74295E-03-4.67562E-19
 -1      7419 7.64339E-04 1.03980E-02-6.16640E-19
 -1      7420 8.49161E-04 1.01361E-02-3.86247E-19
 -1      7421 7.40199E-04 1.08140E-02-8.19928E-19
 -1      7422 8.35456E-04 1.05376E-02 5.42101E-20
 -1      7423 8.11062E-04 1.09512E-02 6.77626E-20
 -1      7424 9.05383E-04 3.84181E-04-7.45389E-20
 -1      7425 9.61982E-04 1.91867E-04-6.77626E-21
 -1      7426 9.05455E-04 7.68313E-04-4.74338E-20
 -1      7427 9.62030E-04 5.75576E-04-8.80914E-20
 -1      7428 9.05574E-04 1.15235E-03 4.06576E-20
 -1      7429 9.62126E-04 9.59203E-04-1.35525E-20
 -1      7430 9.05739E-04 1.53623E-03-2.03288E-20
 -1      7431 9.62270E-04 1.34270E-03 7.45389E-20
 -1      7432 9.05949E-04 1.91992E-03 3.65918E-19
 -1      7433 9.62461E-04 1.72600E-03 1.21973E-19
 -1      7434 9.06202E-04 2.30337E-03 1.28749E-19
 -1      7435 9.62699E-04 2.10906E-03 9.48677E-20
 -1      7436 9.06498E-04 2.68652E-03 1.96512E-19
 -1      7437 9.62983E-04 2.49182E-03-1.55854E-19
 -1      7438 9.06836E-04 3.06932E-03 2.03288E-20
 -1      7439 9.63316E-04 2.87423E-03-1.82959E-19
 -1      7440 9.07220E-04 3.45174E-03 0.00000E+00
 -1      7441 9.63699E-04 3.25623E-03-2.16840E-19
 -1      7442 9.07651E-04 3.83372E-03-2.30393E-19
 -1      7443 9.64138E-04 3.63776E-03-3.18484E-19
 -1      7444 9.08137E-04 4.21521E-03 2.10064E-19
 -1      7445 9.64641E-04 4.01875E-03-3.52366E-19
 -1      7446 9.08688E-04 4.59617E-03-3.04932E-19
 -1      7447 9.65218E-04 4.39916E-03-5.35325E-19
 -1      7448 9.09317E-04 4.97656E-03 6.16640E-19
 -1      7449 9.65884E-04 4.77891E-03-3.18484E-19
 -1      7450 9.10041E-04 5.35633E-03 3.25261E-19
 -1      7451 9.66660E-04 5.15795E-03 3.18484E-19
 -1      7452 9.10883E-04 5.73544E-03 1.35525E-19
 -1      7453 9.67572E-04 5.53620E-03 2.23617E-19
 -1      7454 9.11869E-04 6.11388E-03 4.26905E-19
 -1      7455 9.68651E-04 5.91361E-03-6.77626E-21
 -1      7456 9.13028E-04 6.49161E-03 3.52366E-19
 -1      7457 9.69936E-04 6.29010E-03 6.77626E-21
 -1      7458 9.14389E-04 6.86866E-03 2.98156E-19
 -1      7459 9.71469E-04 6.66562E-03-4.06576E-19
 -1      7460 9.15974E-04 7.24504E-03 8.94467E-19
 -1      7461 9.73297E-04 7.04013E-03 2.64274E-19
 -1      7462 9.17793E-04 7.62084E-03-1.42302E-19
 -1      7463 9.75464E-04 7.41359E-03 3.79471E-19
 -1      7464 9.19826E-04 7.99621E-03-1.35525E-19
 -1      7465 9.78006E-04 7.78603E-03 6.77626E-21
 -1      7466 9.21996E-04 8.37141E-03-3.32037E-19
 -1      7467 9.80931E-04 8.15751E-03 1.08420E-19
 -1      7468 9.24130E-04 8.74686E-03 2.98156E-19
 -1      7469 9.84199E-04 8.52822E-03-3.32037E-19
 -1      7470 9.25883E-04 9.12321E-03-4.06576E-19
 -1      7471 9.87670E-04 8.89848E-03-6.77626E-19
 -1      7472 9.26630E-04 9.50147E-03-4.60786E-19
 -1      7473 9.91029E-04 9.26890E-03-3.59142E-19
 -1      7474 9.25266E-04 9.88314E-03 2.43945E-19
 -1      7475 9.93646E-04 9.64046E-03 0.00000E+00
 -1      7476 9.19913E-04 1.02705E-02-1.12486E-18
 -1      7477 9.94349E-04 1.00147E-02-8.94467E-19
 -1      7478 9.07438E-04 1.06666E-02-4.40457E-19
 -1      7479 9.91024E-04 1.03941E-02-8.26704E-19
 -1      7480 9.79963E-04 1.07824E-02-4.26905E-19
 -1      7481 1.01846E-03 3.83317E-04-2.71051E-20
 -1      7482 1.07477E-03 1.91479E-04 4.74338E-20
 -1      7483 1.01853E-03 7.66576E-04 4.06576E-20
 -1      7484 1.07482E-03 5.74405E-04-8.80914E-20
 -1      7485 1.01865E-03 1.14972E-03 2.10064E-19
 -1      7486 1.07491E-03 9.57238E-04 8.80914E-20
 -1      7487 1.01882E-03 1.53269E-03 1.69407E-19
 -1      7488 1.07504E-03 1.33992E-03 1.01644E-19
 -1      7489 1.01903E-03 1.91542E-03 1.49078E-19
 -1      7490 1.07522E-03 1.72238E-03-6.77626E-21
 -1      7491 1.01929E-03 2.29786E-03 1.21973E-19
 -1      7492 1.07544E-03 2.10455E-03 1.08420E-19
 -1      7493 1.01960E-03 2.67994E-03 3.18484E-19
 -1      7494 1.07572E-03 2.48638E-03 1.89735E-19
 -1      7495 1.01996E-03 3.06161E-03 3.18484E-19
 -1      7496 1.07604E-03 2.86778E-03 5.35325E-19
 -1      7497 1.02038E-03 3.44278E-03 2.10064E-19
 -1      7498 1.07642E-03 3.24870E-03 4.06576E-19
 -1      7499 1.02086E-03 3.82340E-03-2.71051E-19
 -1      7500 1.07686E-03 3.62904E-03-1.08420E-19
 -1      7501 1.02142E-03 4.20339E-03 2.16840E-19
 -1      7502 1.07738E-03 4.00874E-03 2.71051E-19
 -1      7503 1.02208E-03 4.58267E-03-3.86247E-19
 -1      7504 1.07798E-03 4.38769E-03 4.74338E-19
 -1      7505 1.02284E-03 4.96116E-03-2.23617E-19
 -1      7506 1.07869E-03 4.76580E-03-3.59142E-19
 -1      7507 1.02374E-03 5.33877E-03 2.50722E-19
 -1      7508 1.07953E-03 5.14298E-03-2.43945E-19
 -1      7509 1.02482E-03 5.71541E-03-1.15196E-19
 -1      7510 1.08054E-03 5.51909E-03-2.71051E-20
 -1      7511 1.02611E-03 6.09098E-03 2.98156E-19
 -1      7512 1.08174E-03 5.89402E-03 8.80914E-20
 -1      7513 1.02766E-03 6.46536E-03 4.06576E-19
 -1      7514 1.08320E-03 6.26761E-03 2.03288E-20
 -1      7515 1.02953E-03 6.83845E-03 4.60786E-19
 -1      7516 1.08497E-03 6.63971E-03 3.72694E-19
 -1      7517 1.03179E-03 7.21013E-03 7.38613E-19
 -1      7518 1.08712E-03 7.01014E-03 8.67362E-19
 -1      7519 1.03449E-03 7.58032E-03-3.86247E-19
 -1      7520 1.08973E-03 7.37872E-03 9.48677E-20
 -1      7521 1.03771E-03 7.94892E-03 2.71051E-20
 -1      7522 1.09289E-03 7.74523E-03 5.14996E-19
 -1      7523 1.04148E-03 8.31590E-03 2.57498E-19
 -1      7524 1.09670E-03 8.10948E-03 1.11808E-18
 -1      7525 1.04581E-03 8.68132E-03 7.18284E-19
 -1      7526 1.10123E-03 8.47129E-03 9.62229E-19
 -1      7527 1.05060E-03 9.04538E-03 5.42101E-19
 -1      7528 1.10653E-03 8.83053E-03 1.37558E-18
 -1      7529 1.05559E-03 9.40853E-03-6.09864E-20
 -1      7530 1.11256E-03 9.18718E-03 7.45389E-19
 -1      7531 1.06016E-03 9.77164E-03 4.67562E-19
 -1      7532 1.11912E-03 9.54146E-03 9.55453E-19
 -1      7533 1.06308E-03 1.01363E-02-9.75782E-19
 -1      7534 1.12564E-03 9.89399E-03 9.55453E-19
 -1      7535 1.06198E-03 1.05050E-02-5.62430E-19
 -1      7536 1.13084E-03 1.02461E-02-8.13152E-20
 -1      7537 1.13206E-03 1.06004E-02 4.47233E-19
 -1      7538 1.13099E-03 3.82627E-04-3.38813E-20
 -1      7539 1.18708E-03 1.91180E-04-5.42101E-20
 -1      7540 1.13106E-03 7.65189E-04-6.77626E-21
 -1      7541 1.18711E-03 5.73506E-04-1.62630E-19
 -1      7542 1.13116E-03 1.14762E-03 8.80914E-20
 -1      7543 1.18719E-03 9.55730E-04-2.03288E-19
 -1      7544 1.13130E-03 1.52985E-03-6.77626E-21
 -1      7545 1.18729E-03 1.33778E-03-9.48677E-20
 -1      7546 1.13149E-03 1.91182E-03 1.28749E-19
 -1      7547 1.18744E-03 1.71959E-03-4.74338E-20
 -1      7548 1.13172E-03 2.29345E-03 1.01644E-19
 -1      7549 1.18762E-03 2.10108E-03 6.77626E-20
 -1      7550 1.13199E-03 2.67467E-03 4.81115E-19
 -1      7551 1.18785E-03 2.48219E-03 1.49078E-19
 -1      7552 1.13232E-03 3.05541E-03 6.64074E-19
 -1      7553 1.18811E-03 2.86281E-03 2.30393E-19
 -1      7554 1.13270E-03 3.43557E-03 1.82959E-19
 -1      7555 1.18843E-03 3.24288E-03-1.49078E-19
 -1      7556 1.13315E-03 3.81508E-03 9.48677E-20
 -1      7557 1.18880E-03 3.62230E-03-2.03288E-19
 -1      7558 1.13368E-03 4.19383E-03 4.33681E-19
 -1      7559 1.18924E-03 4.00097E-03-1.76183E-19
 -1      7560 1.13431E-03 4.57173E-03 1.15196E-19
 -1      7561 1.18976E-03 4.37878E-03 1.69407E-19
 -1      7562 1.13505E-03 4.94864E-03 2.91379E-19
 -1      7563 1.19038E-03 4.75559E-03 6.91179E-19
 -1      7564 1.13593E-03 5.32445E-03 4.47233E-19
 -1      7565 1.19112E-03 5.13128E-03 2.16840E-19
 -1      7566 1.13700E-03 5.69900E-03 1.01644E-19
 -1      7567 1.19201E-03 5.50568E-03 2.43945E-19
 -1      7568 1.13828E-03 6.07212E-03 1.96512E-19
 -1      7569 1.19308E-03 5.87860E-03 5.96311E-19
 -1      7570 1.13985E-03 6.44361E-03 6.09864E-20
 -1      7571 1.19439E-03 6.24983E-03 3.38813E-19
 -1      7572 1.14177E-03 6.81326E-03 1.15874E-18
 -1      7573 1.19599E-03 6.61911E-03 5.42101E-19
 -1      7574 1.14411E-03 7.18081E-03 4.60786E-19
 -1      7575 1.19796E-03 6.98615E-03 7.58942E-19
 -1      7576 1.14698E-03 7.54597E-03 2.23617E-19
 -1      7577 1.20039E-03 7.35061E-03 3.79471E-19
 -1      7578 1.15048E-03 7.90842E-03 5.82759E-19
 -1      7579 1.20337E-03 7.71207E-03 5.89535E-19
 -1      7580 1.15473E-03 8.26778E-03 1.02999E-18
 -1      7581 1.20704E-03 8.07005E-03 5.75982E-19
 -1      7582 1.15985E-03 8.62369E-03 1.21295E-18
 -1      7583 1.21153E-03 8.42399E-03 3.65918E-19
 -1      7584 1.16594E-03 8.97576E-03 1.12486E-18
 -1      7585 1.21700E-03 8.77325E-03 8.13152E-20
 -1      7586 1.17302E-03 9.32366E-03 2.91379E-19
 -1      7587 1.22360E-03 9.11710E-03 1.02322E-18
 -1      7588 1.18097E-03 9.66722E-03 2.16840E-19
 -1      7589 1.23142E-03 9.45478E-03 8.13152E-20
 -1      7590 1.18926E-03 1.00066E-02 6.30193E-19
 -1      7591 1.24039E-03 9.78552E-03 7.04731E-19
 -1      7592 1.19659E-03 1.03427E-02-9.96111E-19
 -1      7593 1.25009E-03 1.01088E-02 3.86247E-19
 -1      7594 1.25915E-03 1.04245E-02-6.50521E-19
 -1      7595 1.24310E-03 3.82125E-04-8.80914E-20
 -1      7596 1.29903E-03 1.90978E-04-6.09864E-20
 -1      7597 1.24315E-03 7.64178E-04-3.38813E-20
 -1      7598 1.29905E-03 5.72897E-04-2.71051E-20
 -1      7599 1.24322E-03 1.14609E-03-2.03288E-20
 -1      7600 1.29910E-03 9.54707E-04 1.96512E-19
 -1      7601 1.24333E-03 1.52779E-03-2.30393E-19
 -1      7602 1.29917E-03 1.33633E-03-4.06576E-20
 -1      7603 1.24346E-03 1.90919E-03-1.42302E-19
 -1      7604 1.29926E-03 1.71770E-03-3.25261E-19
 -1      7605 1.24363E-03 2.29023E-03-1.35525E-19
 -1      7606 1.29938E-03 2.09873E-03-3.25261E-19
 -1      7607 1.24384E-03 2.67082E-03-2.03288E-20
 -1      7608 1.29953E-03 2.47934E-03 2.37169E-19
 -1      7609 1.24409E-03 3.05087E-03-2.71051E-19
 -1      7610 1.29970E-03 2.85943E-03-3.72694E-19
 -1      7611 1.24438E-03 3.43029E-03-8.13152E-20
 -1      7612 1.29991E-03 3.23893E-03-2.16840E-19
 -1      7613 1.24472E-03 3.80897E-03-2.71051E-19
 -1      7614 1.30016E-03 3.61771E-03 1.96512E-19
 -1      7615 1.24513E-03 4.18681E-03-6.77626E-20
 -1      7616 1.30046E-03 3.99567E-03 2.37169E-19
 -1      7617 1.24561E-03 4.56366E-03 3.59142E-19
 -1      7618 1.30080E-03 4.37268E-03 2.98156E-19
 -1      7619 1.24619E-03 4.93939E-03 1.01644E-19
 -1      7620 1.30122E-03 4.74860E-03-6.77626E-21
 -1      7621 1.24688E-03 5.31383E-03 5.08220E-19
 -1      7622 1.30172E-03 5.12325E-03 4.67562E-19
 -1      7623 1.24772E-03 5.68679E-03 2.43945E-19
 -1      7624 1.30232E-03 5.49644E-03 4.94667E-19
 -1      7625 1.24875E-03 6.05804E-03-7.45389E-20
 -1      7626 1.30306E-03 5.86795E-03-2.16840E-19
 -1      7627 1.25000E-03 6.42731E-03 6.30193E-19
 -1      7628 1.30396E-03 6.23750E-03 4.06576E-20
 -1      7629 1.25155E-03 6.79429E-03 1.89735E-19
 -1      7630 1.30507E-03 6.60478E-03 1.28749E-19
 -1      7631 1.25345E-03 7.15859E-03 4.94667E-19
 -1      7632 1.30644E-03 6.96939E-03 2.98156E-19
 -1      7633 1.25581E-03 7.51977E-03 3.93023E-19
 -1      7634 1.30814E-03 7.33086E-03 9.62229E-19
 -1      7635 1.25872E-03 7.87726E-03-6.16640E-19
 -1      7636 1.31024E-03 7.68862E-03-2.71051E-20
 -1      7637 1.26233E-03 8.23041E-03 1.35525E-20
 -1      7638 1.31287E-03 8.04195E-03-4.06576E-20
 -1      7639 1.26678E-03 8.57842E-03 2.10064E-19
 -1      7640 1.31613E-03 8.38999E-03 7.79270E-19
 -1      7641 1.27226E-03 8.92030E-03-6.77626E-20
 -1      7642 1.32019E-03 8.73163E-03 1.69407E-19
 -1      7643 1.27894E-03 9.25490E-03 4.06576E-20
 -1      7644 1.32522E-03 9.06551E-03-1.28749E-19
 -1      7645 1.28697E-03 9.58084E-03-1.08420E-19
 -1      7646 1.33141E-03 9.38992E-03-6.91179E-19
 -1      7647 1.29636E-03 9.89654E-03 1.26039E-18
 -1      7648 1.33895E-03 9.70270E-03 2.57498E-19
 -1      7649 1.30671E-03 1.02003E-02-2.43945E-19
 -1      7650 1.34788E-03 1.00012E-02 4.47233E-19
 -1      7651 1.35781E-03 1.02821E-02 1.38913E-18
 -1      7652 1.35492E-03 3.81819E-04-1.55854E-19
 -1      7653 1.41076E-03 1.90876E-04 8.13152E-20
 -1      7654 1.35494E-03 7.63564E-04 1.69407E-19
 -1      7655 1.41077E-03 5.72590E-04-2.03288E-20
 -1      7656 1.35498E-03 1.14516E-03-7.45389E-20
 -1      7657 1.41079E-03 9.54191E-04-1.01644E-19
 -1      7658 1.35504E-03 1.52653E-03-6.77626E-20
 -1      7659 1.41081E-03 1.33560E-03-1.42302E-19
 -1      7660 1.35511E-03 1.90759E-03-1.55854E-19
 -1      7661 1.41084E-03 1.71675E-03 5.42101E-20
 -1      7662 1.35520E-03 2.28827E-03 6.09864E-20
 -1      7663 1.41088E-03 2.09754E-03 8.80914E-20
 -1      7664 1.35531E-03 2.66847E-03 1.08420E-19
 -1      7665 1.41093E-03 2.47790E-03-8.13152E-20
 -1      7666 1.35544E-03 3.04810E-03-2.84603E-19
 -1      7667 1.41100E-03 2.85772E-03-4.06576E-20
 -1      7668 1.35560E-03 3.42706E-03 1.96512E-19
 -1      7669 1.41107E-03 3.23692E-03 0.00000E+00
 -1      7670 1.35579E-03 3.80524E-03 1.76183E-19
 -1      7671 1.41116E-03 3.61538E-03-4.06576E-20
 -1      7672 1.35601E-03 4.18251E-03 2.03288E-20
 -1      7673 1.41126E-03 3.99298E-03-1.35525E-19
 -1      7674 1.35627E-03 4.55872E-03-7.45389E-20
 -1      7675 1.41138E-03 4.36959E-03-3.72694E-19
 -1      7676 1.35658E-03 4.93371E-03-1.69407E-19
 -1      7677 1.41153E-03 4.74504E-03-1.00289E-18
 -1      7678 1.35696E-03 5.30731E-03 2.84603E-19
 -1      7679 1.41170E-03 5.11916E-03-3.11708E-19
 -1      7680 1.35742E-03 5.67927E-03 5.96311E-19
 -1      7681 1.41192E-03 5.49173E-03-8.13152E-20
 -1      7682 1.35799E-03 6.04934E-03-8.80914E-20
 -1      7683 1.41218E-03 5.86251E-03-3.38813E-19
 -1      7684 1.35868E-03 6.41721E-03-2.71051E-19
 -1      7685 1.41250E-03 6.23119E-03-8.60585E-19
 -1      7686 1.35954E-03 6.78248E-03-2.71051E-20
 -1      7687 1.41289E-03 6.59742E-03-3.86247E-19
 -1      7688 1.36060E-03 7.14471E-03 6.23416E-19
 -1      7689 1.41338E-03 6.96076E-03 5.14996E-19
 -1      7690 1.36192E-03 7.50332E-03 1.26039E-18
 -1      7691 1.41399E-03 7.32066E-03 2.57498E-19
 -1      7692 1.36357E-03 7.85760E-03-1.28749E-19
 -1      7693 1.41475E-03 7.67646E-03 4.06576E-19
 -1      7694 1.36563E-03 8.20667E-03 9.01243E-19
 -1      7695 1.41570E-03 8.02732E-03 3.38813E-19
 -1      7696 1.36820E-03 8.54942E-03 9.69006E-19
 -1      7697 1.41689E-03 8.37218E-03 9.08019E-19
 -1      7698 1.37142E-03 8.88444E-03 6.43745E-19
 -1      7699 1.41838E-03 8.70969E-03 8.19928E-19
 -1      7700 1.37543E-03 9.20990E-03 3.72694E-19
 -1      7701 1.42026E-03 9.03809E-03 1.22650E-18
 -1      7702 1.38041E-03 9.52346E-03 2.71051E-19
 -1      7703 1.42260E-03 9.35509E-03 9.14796E-19
 -1      7704 1.38651E-03 9.82202E-03-1.01644E-19
 -1      7705 1.42552E-03 9.65765E-03 6.77626E-21
 -1      7706 1.39375E-03 1.01016E-02-2.77827E-19
 -1      7707 1.42911E-03 9.94169E-03-1.49078E-19
 -1      7708 1.43333E-03 1.02017E-02-5.01444E-19
 -1      7709 1.46659E-03 3.81716E-04-2.71051E-20
 -1      7710 1.52242E-03 1.90876E-04-6.77626E-21
 -1      7711 1.46659E-03 7.63357E-04 4.74338E-20
 -1      7712 1.52241E-03 5.72590E-04 8.13152E-20
 -1      7713 1.46659E-03 1.14485E-03-1.96512E-19
 -1      7714 1.52240E-03 9.54191E-04 6.77626E-21
 -1      7715 1.46659E-03 1.52611E-03-2.30393E-19
 -1      7716 1.52237E-03 1.33560E-03-6.77626E-21
 -1      7717 1.46659E-03 1.90706E-03 0.00000E+00
 -1      7718 1.52234E-03 1.71675E-03-2.43945E-19
 -1      7719 1.46659E-03 2.28761E-03 1.96512E-19
 -1      7720 1.52230E-03 2.09754E-03 2.71051E-20
 -1      7721 1.46659E-03 2.66768E-03-1.62630E-19
 -1      7722 1.52225E-03 2.47790E-03-1.35525E-20
 -1      7723 1.46659E-03 3.04717E-03-1.01644E-19
 -1      7724 1.52219E-03 2.85772E-03-2.84603E-19
 -1      7725 1.46659E-03 3.42598E-03-2.71051E-20
 -1      7726 1.52211E-03 3.23692E-03-5.48877E-19
 -1      7727 1.46659E-03 3.80398E-03-2.71051E-20
 -1      7728 1.52203E-03 3.61538E-03-3.38813E-20
 -1      7729 1.46659E-03 4.18106E-03-2.98156E-19
 -1      7730 1.52192E-03 3.99298E-03 8.13152E-20
 -1      7731 1.46659E-03 4.55705E-03-7.45389E-19
 -1      7732 1.52180E-03 4.36959E-03-2.64274E-19
 -1      7733 1.46659E-03 4.93180E-03-4.13352E-19
 -1      7734 1.52166E-03 4.74504E-03 1.15196E-19
 -1      7735 1.46659E-03 5.30510E-03 1.21973E-19
 -1      7736 1.52148E-03 5.11916E-03-1.76183E-19
 -1      7737 1.46659E-03 5.67673E-03-3.65918E-19
 -1      7738 1.52127E-03 5.49173E-03-2.23617E-19
 -1      7739 1.46659E-03 6.04640E-03-5.01444E-19
 -1      7740 1.52100E-03 5.86251E-03 4.74338E-20
 -1      7741 1.46659E-03 6.41378E-03-1.27394E-18
 -1      7742 1.52068E-03 6.23119E-03-4.06576E-20
 -1      7743 1.46659E-03 6.77848E-03 6.97955E-19
 -1      7744 1.52029E-03 6.59742E-03 1.35525E-19
 -1      7745 1.46659E-03 7.13999E-03-1.35525E-19
 -1      7746 1.51980E-03 6.96076E-03-1.69407E-19
 -1      7747 1.46659E-03 7.49771E-03-6.77626E-21
 -1      7748 1.51919E-03 7.32066E-03 2.71051E-20
 -1      7749 1.46659E-03 7.85088E-03-4.74338E-19
 -1      7750 1.51843E-03 7.67646E-03 1.08420E-19
 -1      7751 1.46659E-03 8.19853E-03-1.96512E-19
 -1      7752 1.51748E-03 8.02732E-03-2.57498E-19
 -1      7753 1.46659E-03 8.53944E-03 2.30393E-19
 -1      7754 1.51629E-03 8.37218E-03-4.26905E-19
 -1      7755 1.46659E-03 8.87202E-03 4.87891E-19
 -1      7756 1.51480E-03 8.70969E-03 3.86247E-19
 -1      7757 1.46659E-03 9.19422E-03-4.87891E-19
 -1      7758 1.51293E-03 9.03809E-03-4.26905E-19
 -1      7759 1.46659E-03 9.50330E-03-4.47233E-19
 -1      7760 1.51058E-03 9.35509E-03-3.86247E-19
 -1      7761 1.46659E-03 9.79559E-03-7.45389E-19
 -1      7762 1.50766E-03 9.65765E-03-3.79471E-19
 -1      7763 1.46659E-03 1.00661E-02 1.11808E-18
 -1      7764 1.50407E-03 9.94169E-03 5.08220E-19
 -1      7765 1.49985E-03 1.02017E-02 8.26704E-19
 -1      7766 1.57826E-03 3.81819E-04 1.35525E-20
 -1      7767 1.63415E-03 1.90978E-04-2.71051E-20
 -1      7768 1.57824E-03 7.63564E-04 8.13152E-20
 -1      7769 1.63413E-03 5.72897E-04-1.21973E-19
 -1      7770 1.57820E-03 1.14516E-03 1.35525E-20
 -1      7771 1.63409E-03 9.54707E-04-1.35525E-20
 -1      7772 1.57815E-03 1.52653E-03-1.01644E-19
 -1      7773 1.63402E-03 1.33633E-03-1.21973E-19
 -1      7774 1.57807E-03 1.90759E-03-2.84603E-19
 -1      7775 1.63392E-03 1.71770E-03-2.77827E-19
 -1      7776 1.57798E-03 2.28827E-03 5.42101E-20
 -1      7777 1.63380E-03 2.09873E-03-6.77626E-20
 -1      7778 1.57787E-03 2.66847E-03-1.08420E-19
 -1      7779 1.63366E-03 2.47934E-03-1.35525E-20
 -1      7780 1.57774E-03 3.04810E-03-2.16840E-19
 -1      7781 1.63348E-03 2.85943E-03 5.42101E-20
 -1      7782 1.57758E-03 3.42706E-03-3.18484E-19
 -1      7783 1.63327E-03 3.23893E-03-6.77626E-20
 -1      7784 1.57740E-03 3.80524E-03 3.32037E-19
 -1      7785 1.63302E-03 3.61771E-03 6.09864E-20
 -1      7786 1.57718E-03 4.18251E-03 1.89735E-19
 -1      7787 1.63273E-03 3.99567E-03 3.25261E-19
 -1      7788 1.57691E-03 4.55872E-03-2.43945E-19
 -1      7789 1.63238E-03 4.37268E-03 2.91379E-19
 -1      7790 1.57660E-03 4.93371E-03-1.76183E-19
 -1      7791 1.63196E-03 4.74860E-03-1.96512E-19
 -1      7792 1.57622E-03 5.30731E-03 4.06576E-19
 -1      7793 1.63146E-03 5.12325E-03 1.42302E-19
 -1      7794 1.57576E-03 5.67927E-03-3.38813E-19
 -1      7795 1.63086E-03 5.49644E-03-2.03288E-20
 -1      7796 1.57519E-03 6.04934E-03 1.35525E-19
 -1      7797 1.63012E-03 5.86795E-03-2.64274E-19
 -1      7798 1.57450E-03 6.41721E-03-7.45389E-20
 -1      7799 1.62922E-03 6.23750E-03-1.01644E-19
 -1      7800 1.57364E-03 6.78248E-03-1.28749E-19
 -1      7801 1.62811E-03 6.60478E-03 1.76183E-19
 -1      7802 1.57258E-03 7.14471E-03-5.21772E-19
 -1      7803 1.62674E-03 6.96939E-03-2.23617E-19
 -1      7804 1.57126E-03 7.50332E-03 2.16840E-19
 -1      7805 1.62505E-03 7.33086E-03-2.64274E-19
 -1      7806 1.56961E-03 7.85760E-03-1.01644E-19
 -1      7807 1.62294E-03 7.68862E-03 6.09864E-20
 -1      7808 1.56755E-03 8.20667E-03-1.08420E-19
 -1      7809 1.62032E-03 8.04195E-03 4.81115E-19
 -1      7810 1.56498E-03 8.54942E-03-1.62630E-19
 -1      7811 1.61705E-03 8.38999E-03 6.50521E-19
 -1      7812 1.56177E-03 8.88444E-03 6.97955E-19
 -1      7813 1.61300E-03 8.73163E-03 1.20617E-18
 -1      7814 1.55775E-03 9.20990E-03-6.03087E-19
 -1      7815 1.60797E-03 9.06551E-03 6.23416E-19
 -1      7816 1.55277E-03 9.52346E-03 1.08420E-19
 -1      7817 1.60177E-03 9.38992E-03-2.71051E-19
 -1      7818 1.54668E-03 9.82202E-03 9.48677E-20
 -1      7819 1.59423E-03 9.70270E-03 6.09864E-20
 -1      7820 1.53943E-03 1.01016E-02 1.27394E-18
 -1      7821 1.58530E-03 1.00012E-02 1.09098E-18
 -1      7822 1.57537E-03 1.02821E-02 7.86047E-19
 -1      7823 1.69008E-03 3.82125E-04 6.77626E-20
 -1      7824 1.74610E-03 1.91180E-04 1.69407E-19
 -1      7825 1.69004E-03 7.64178E-04-5.42101E-20
 -1      7826 1.74607E-03 5.73506E-04 1.08420E-19
 -1      7827 1.68996E-03 1.14609E-03 1.01644E-19
 -1      7828 1.74600E-03 9.55730E-04 2.03288E-20
 -1      7829 1.68986E-03 1.52779E-03-5.42101E-20
 -1      7830 1.74589E-03 1.33778E-03 1.62630E-19
 -1      7831 1.68972E-03 1.90919E-03-8.13152E-20
 -1      7832 1.74574E-03 1.71959E-03-4.74338E-20
 -1      7833 1.68955E-03 2.29023E-03-3.38813E-19
 -1      7834 1.74556E-03 2.10108E-03-1.76183E-19
 -1      7835 1.68934E-03 2.67082E-03 2.03288E-20
 -1      7836 1.74534E-03 2.48219E-03-2.03288E-19
 -1      7837 1.68910E-03 3.05087E-03-6.77626E-21
 -1      7838 1.74507E-03 2.86281E-03-1.89735E-19
 -1      7839 1.68881E-03 3.43029E-03 1.62630E-19
 -1      7840 1.74475E-03 3.24288E-03 2.03288E-20
 -1      7841 1.68846E-03 3.80897E-03 4.60786E-19
 -1      7842 1.74438E-03 3.62230E-03 4.47233E-19
 -1      7843 1.68805E-03 4.18681E-03 3.11708E-19
 -1      7844 1.74394E-03 4.00097E-03 2.03288E-20
 -1      7845 1.68757E-03 4.56366E-03-9.48677E-20
 -1      7846 1.74342E-03 4.37878E-03-7.45389E-20
 -1      7847 1.68699E-03 4.93939E-03-3.79471E-19
 -1      7848 1.74280E-03 4.75559E-03-1.01644E-19
 -1      7849 1.68630E-03 5.31383E-03 4.13352E-19
 -1      7850 1.74207E-03 5.13128E-03 4.06576E-20
 -1      7851 1.68546E-03 5.68679E-03-3.38813E-19
 -1      7852 1.74118E-03 5.50568E-03-6.77626E-20
 -1      7853 1.68444E-03 6.05804E-03-4.81115E-19
 -1      7854 1.74010E-03 5.87860E-03-2.37169E-19
 -1      7855 1.68318E-03 6.42731E-03 0.00000E+00
 -1      7856 1.73879E-03 6.24983E-03-7.18284E-19
 -1      7857 1.68164E-03 6.79429E-03-2.30393E-19
 -1      7858 1.73719E-03 6.61911E-03-5.35325E-19
 -1      7859 1.67973E-03 7.15859E-03 1.76183E-19
 -1      7860 1.73522E-03 6.98615E-03-2.50722E-19
 -1      7861 1.67738E-03 7.51977E-03-2.77827E-19
 -1      7862 1.73280E-03 7.35061E-03-1.08420E-19
 -1      7863 1.67446E-03 7.87726E-03 2.03288E-19
 -1      7864 1.72981E-03 7.71207E-03 1.69407E-19
 -1      7865 1.67085E-03 8.23041E-03 8.60585E-19
 -1      7866 1.72615E-03 8.07005E-03 3.72694E-19
 -1      7867 1.66640E-03 8.57842E-03-7.45389E-20
 -1      7868 1.72165E-03 8.42399E-03 6.84403E-19
 -1      7869 1.66092E-03 8.92030E-03 1.58565E-18
 -1      7870 1.71618E-03 8.77325E-03 6.77626E-21
 -1      7871 1.65424E-03 9.25490E-03-1.62630E-19
 -1      7872 1.70958E-03 9.11710E-03-2.10064E-19
 -1      7873 1.64621E-03 9.58084E-03-1.01644E-19
 -1      7874 1.70177E-03 9.45478E-03 2.10064E-19
 -1      7875 1.63682E-03 9.89654E-03 3.11708E-19
 -1      7876 1.69279E-03 9.78552E-03-8.80914E-20
 -1      7877 1.62647E-03 1.02003E-02 1.41624E-18
 -1      7878 1.68310E-03 1.01088E-02-2.03288E-20
 -1      7879 1.67404E-03 1.04245E-02 2.16840E-19
 -1      7880 1.80219E-03 3.82627E-04 1.62630E-19
 -1      7881 1.85841E-03 1.91479E-04 6.09864E-20
 -1      7882 1.80213E-03 7.65189E-04-6.77626E-21
 -1      7883 1.85837E-03 5.74405E-04 1.08420E-19
 -1      7884 1.80203E-03 1.14762E-03 1.35525E-19
 -1      7885 1.85828E-03 9.57238E-04 1.62630E-19
 -1      7886 1.80188E-03 1.52985E-03 6.77626E-20
 -1      7887 1.85814E-03 1.33992E-03 2.30393E-19
 -1      7888 1.80170E-03 1.91182E-03-8.80914E-20
 -1      7889 1.85796E-03 1.72238E-03-6.09864E-20
 -1      7890 1.80147E-03 2.29345E-03 1.01644E-19
 -1      7891 1.85774E-03 2.10455E-03 6.09864E-20
 -1      7892 1.80119E-03 2.67467E-03 7.45389E-20
 -1      7893 1.85747E-03 2.48638E-03 2.71051E-19
 -1      7894 1.80086E-03 3.05541E-03-7.45389E-20
 -1      7895 1.85714E-03 2.86778E-03 3.18484E-19
 -1      7896 1.80048E-03 3.43557E-03 5.69206E-19
 -1      7897 1.85676E-03 3.24870E-03 5.35325E-19
 -1      7898 1.80003E-03 3.81508E-03 3.59142E-19
 -1      7899 1.85632E-03 3.62904E-03 3.25261E-19
 -1      7900 1.79950E-03 4.19383E-03 1.49078E-19
 -1      7901 1.85580E-03 4.00874E-03 1.62630E-19
 -1      7902 1.79888E-03 4.57173E-03 0.00000E+00
 -1      7903 1.85520E-03 4.38769E-03 1.55854E-19
 -1      7904 1.79814E-03 4.94864E-03 4.13352E-19
 -1      7905 1.85449E-03 4.76580E-03 4.60786E-19
 -1      7906 1.79725E-03 5.32445E-03 2.10064E-19
 -1      7907 1.85365E-03 5.14298E-03 8.60585E-19
 -1      7908 1.79619E-03 5.69900E-03 7.11508E-19
 -1      7909 1.85265E-03 5.51909E-03 5.55654E-19
 -1      7910 1.79490E-03 6.07212E-03-3.52366E-19
 -1      7911 1.85144E-03 5.89402E-03 4.06576E-20
 -1      7912 1.79333E-03 6.44361E-03 1.76183E-19
 -1      7913 1.84998E-03 6.26761E-03 4.13352E-19
 -1      7914 1.79142E-03 6.81326E-03-3.38813E-19
 -1      7915 1.84821E-03 6.63971E-03 5.62430E-19
 -1      7916 1.78907E-03 7.18081E-03 5.62430E-19
 -1      7917 1.84606E-03 7.01014E-03 2.57498E-19
 -1      7918 1.78620E-03 7.54597E-03 1.55854E-19
 -1      7919 1.84345E-03 7.37872E-03 6.36969E-19
 -1      7920 1.78271E-03 7.90842E-03 1.01644E-19
 -1      7921 1.84029E-03 7.74523E-03 3.65918E-19
 -1      7922 1.77846E-03 8.26778E-03 4.74338E-19
 -1      7923 1.83649E-03 8.10948E-03 2.43945E-19
 -1      7924 1.77334E-03 8.62369E-03-7.58942E-19
 -1      7925 1.83196E-03 8.47129E-03-1.21973E-19
 -1      7926 1.76725E-03 8.97576E-03 1.35525E-20
 -1      7927 1.82666E-03 8.83053E-03-2.57498E-19
 -1      7928 1.76016E-03 9.32366E-03 5.89535E-19
 -1      7929 1.82062E-03 9.18718E-03-1.08420E-19
 -1      7930 1.75222E-03 9.66722E-03-2.71051E-20
 -1      7931 1.81406E-03 9.54146E-03 5.42101E-20
 -1      7932 1.74392E-03 1.00066E-02 5.01444E-19
 -1      7933 1.80754E-03 9.89399E-03 9.21572E-19
 -1      7934 1.73659E-03 1.03427E-02 7.38613E-19
 -1      7935 1.80235E-03 1.02461E-02 7.52165E-19
 -1      7936 1.80112E-03 1.06004E-02 5.21772E-19
 -1      7937 1.91472E-03 3.83317E-04 1.42302E-19
 -1      7938 1.97120E-03 1.91867E-04 1.69407E-19
 -1      7939 1.91465E-03 7.66576E-04 6.77626E-20
 -1      7940 1.97115E-03 5.75576E-04 6.09864E-20
 -1      7941 1.91453E-03 1.14972E-03 1.76183E-19
 -1      7942 1.97106E-03 9.59203E-04 1.21973E-19
 -1      7943 1.91437E-03 1.53269E-03-1.76183E-19
 -1      7944 1.97091E-03 1.34270E-03-2.03288E-20
 -1      7945 1.91416E-03 1.91542E-03 1.55854E-19
 -1      7946 1.97072E-03 1.72600E-03-1.15196E-19
 -1      7947 1.91390E-03 2.29786E-03 2.57498E-19
 -1      7948 1.97048E-03 2.10906E-03 4.06576E-20
 -1      7949 1.91359E-03 2.67994E-03 4.06576E-20
 -1      7950 1.97020E-03 2.49182E-03-8.13152E-20
 -1      7951 1.91323E-03 3.06161E-03-2.10064E-19
 -1      7952 1.96987E-03 2.87423E-03-3.93023E-19
 -1      7953 1.91281E-03 3.44278E-03 1.76183E-19
 -1      7954 1.96948E-03 3.25623E-03-3.59142E-19
 -1      7955 1.91232E-03 3.82340E-03 2.84603E-19
 -1      7956 1.96904E-03 3.63776E-03 2.10064E-19
 -1      7957 1.91176E-03 4.20339E-03 3.45589E-19
 -1      7958 1.96854E-03 4.01875E-03 2.71051E-19
 -1      7959 1.91111E-03 4.58267E-03 6.77626E-21
 -1      7960 1.96797E-03 4.39916E-03 3.99800E-19
 -1      7961 1.91034E-03 4.96116E-03 7.65718E-19
 -1      7962 1.96730E-03 4.77891E-03 2.10064E-19
 -1      7963 1.90944E-03 5.33877E-03 5.28549E-19
 -1      7964 1.96652E-03 5.15795E-03 1.55854E-19
 -1      7965 1.90836E-03 5.71541E-03 4.60786E-19
 -1      7966 1.96561E-03 5.53620E-03 3.65918E-19
 -1      7967 1.90707E-03 6.09098E-03 1.49078E-19
 -1      7968 1.96453E-03 5.91361E-03 5.82759E-19
 -1      7969 1.90552E-03 6.46536E-03 1.04354E-18
 -1      7970 1.96325E-03 6.29010E-03 7.25060E-19
 -1      7971 1.90365E-03 6.83845E-03 1.35525E-20
 -1      7972 1.96171E-03 6.66562E-03 7.72494E-19
 -1      7973 1.90140E-03 7.21013E-03 1.20617E-18
 -1      7974 1.95989E-03 7.04013E-03 3.25261E-19
 -1      7975 1.89869E-03 7.58032E-03 9.35124E-19
 -1      7976 1.95772E-03 7.41359E-03 9.35124E-19
 -1      7977 1.89548E-03 7.94892E-03 4.54010E-19
 -1      7978 1.95518E-03 7.78603E-03 4.33681E-19
 -1      7979 1.89170E-03 8.31590E-03 1.01644E-19
 -1      7980 1.95225E-03 8.15751E-03 5.62430E-19
 -1      7981 1.88737E-03 8.68132E-03-6.77626E-20
 -1      7982 1.94898E-03 8.52822E-03-2.37169E-19
 -1      7983 1.88258E-03 9.04538E-03-4.87891E-19
 -1      7984 1.94551E-03 8.89848E-03-1.62630E-19
 -1      7985 1.87759E-03 9.40853E-03-6.77626E-21
 -1      7986 1.94215E-03 9.26890E-03-9.41901E-19
 -1      7987 1.87302E-03 9.77164E-03 2.16840E-19
 -1      7988 1.93954E-03 9.64046E-03-9.82558E-19
 -1      7989 1.87010E-03 1.01363E-02 1.15196E-18
 -1      7990 1.93883E-03 1.00147E-02-2.10064E-19
 -1      7991 1.87120E-03 1.05050E-02 4.74338E-20
 -1      7992 1.94216E-03 1.03941E-02-3.45589E-19
 -1      7993 1.95322E-03 1.07824E-02-1.01644E-19
 -1      7994 2.02780E-03 3.84181E-04-8.80914E-20
 -1      7995 2.08460E-03 1.92339E-04 4.74338E-20
 -1      7996 2.02773E-03 7.68313E-04 1.21973E-19
 -1      7997 2.08455E-03 5.76996E-04-9.48677E-20
 -1      7998 2.02761E-03 1.15235E-03 2.03288E-19
 -1      7999 2.08446E-03 9.61586E-04 1.28749E-19
 -1      8000 2.02744E-03 1.53623E-03-3.25261E-19
 -1      8001 2.08433E-03 1.34607E-03 1.08420E-19
 -1      8002 2.02723E-03 1.91992E-03 1.96512E-19
 -1      8003 2.08415E-03 1.73039E-03-8.80914E-20
 -1      8004 2.02698E-03 2.30337E-03-1.42302E-19
 -1      8005 2.08393E-03 2.11452E-03 1.01644E-19
 -1      8006 2.02669E-03 2.68652E-03-9.48677E-20
 -1      8007 2.08368E-03 2.49841E-03-8.13152E-20
 -1      8008 2.02635E-03 3.06932E-03-1.21973E-19
 -1      8009 2.08339E-03 2.88201E-03 8.80914E-20
 -1      8010 2.02596E-03 3.45174E-03-1.49078E-19
 -1      8011 2.08307E-03 3.26530E-03 3.04932E-19
 -1      8012 2.02553E-03 3.83372E-03 1.15196E-19
 -1      8013 2.08272E-03 3.64823E-03 1.28749E-19
 -1      8014 2.02505E-03 4.21521E-03 3.38813E-20
 -1      8015 2.08233E-03 4.03077E-03-2.91379E-19
 -1      8016 2.02450E-03 4.59617E-03 3.32037E-19
 -1      8017 2.08191E-03 4.41288E-03 1.08420E-19
 -1      8018 2.02387E-03 4.97656E-03-4.74338E-19
 -1      8019 2.08144E-03 4.79454E-03-2.03288E-20
 -1      8020 2.02314E-03 5.35633E-03 2.23617E-19
 -1      8021 2.08091E-03 5.17573E-03-1.01644E-19
 -1      8022 2.02230E-03 5.73544E-03 1.21973E-19
 -1      8023 2.08032E-03 5.55643E-03-6.77626E-20
 -1      8024 2.02131E-03 6.11388E-03 3.93023E-19
 -1      8025 2.07965E-03 5.93665E-03 2.64274E-19
 -1      8026 2.02016E-03 6.49161E-03 5.55654E-19
 -1      8027 2.07888E-03 6.31640E-03-2.03288E-20
 -1      8028 2.01879E-03 6.86866E-03 5.42101E-20
 -1      8029 2.07801E-03 6.69572E-03-2.71051E-19
 -1      8030 2.01721E-03 7.24504E-03 7.92823E-19
 -1      8031 2.07702E-03 7.07468E-03 2.03288E-19
 -1      8032 2.01539E-03 7.62084E-03 7.45389E-19
 -1      8033 2.07594E-03 7.45343E-03 2.03288E-19
 -1      8034 2.01336E-03 7.99621E-03-2.71051E-19
 -1      8035 2.07480E-03 7.83215E-03-6.77626E-21
 -1      8036 2.01119E-03 8.37141E-03 3.79471E-19
 -1      8037 2.07372E-03 8.21115E-03 2.43945E-19
 -1      8038 2.00905E-03 8.74686E-03-4.87891E-19
 -1      8039 2.07288E-03 8.59089E-03-1.55854E-19
 -1      8040 2.00730E-03 9.12321E-03-3.99800E-19
 -1      8041 2.07265E-03 8.97205E-03-1.21973E-19
 -1      8042 2.00655E-03 9.50147E-03-5.69206E-19
 -1      8043 2.07365E-03 9.35560E-03 4.13352E-19
 -1      8044 2.00792E-03 9.88314E-03 3.86247E-19
 -1      8045 2.07688E-03 9.74295E-03 7.52165E-19
 -1      8046 2.01327E-03 1.02705E-02-5.01444E-19
 -1      8047 2.08402E-03 1.01361E-02 1.02999E-18
 -1      8048 2.02575E-03 1.06666E-02-3.38813E-19
 -1      8049 2.09773E-03 1.05376E-02-3.86247E-19
 -1      8050 2.12212E-03 1.09512E-02-8.13152E-20
 -1      8051 2.14154E-03 3.85203E-04 4.74338E-20
 -1      8052 2.19871E-03 1.92886E-04 6.77626E-21
 -1      8053 2.14148E-03 7.70366E-04 2.77827E-19
 -1      8054 2.19867E-03 5.78641E-04 1.62630E-19
 -1      8055 2.14138E-03 1.15545E-03-2.71051E-20
 -1      8056 2.19860E-03 9.64344E-04 2.71051E-20
 -1      8057 2.14123E-03 1.54042E-03 1.21973E-19
 -1      8058 2.19849E-03 1.34996E-03 2.71051E-20
 -1      8059 2.14105E-03 1.92523E-03-4.74338E-20
 -1      8060 2.19835E-03 1.73546E-03-1.35525E-19
 -1      8061 2.14085E-03 2.30985E-03-8.80914E-20
 -1      8062 2.19819E-03 2.12081E-03-1.35525E-19
 -1      8063 2.14062E-03 2.69425E-03-6.09864E-20
 -1      8064 2.19802E-03 2.50599E-03-1.08420E-19
 -1      8065 2.14036E-03 3.07839E-03 8.13152E-20
 -1      8066 2.19783E-03 2.89096E-03-3.38813E-20
 -1      8067 2.14009E-03 3.46224E-03-2.16840E-19
 -1      8068 2.19765E-03 3.27571E-03-1.69407E-19
 -1      8069 2.13981E-03 3.84578E-03-3.11708E-19
 -1      8070 2.19747E-03 3.66022E-03-2.64274E-19
 -1      8071 2.13951E-03 4.22900E-03 8.13152E-20
 -1      8072 2.19730E-03 4.04448E-03-7.45389E-20
 -1      8073 2.13921E-03 4.61186E-03 2.71051E-20
 -1      8074 2.19716E-03 4.42849E-03 2.57498E-19
 -1      8075 2.13889E-03 4.99438E-03 4.87891E-19
 -1      8076 2.19704E-03 4.81226E-03 5.08220E-19
 -1      8077 2.13855E-03 5.37655E-03 3.52366E-19
 -1      8078 2.19696E-03 5.19579E-03 8.33480E-19
 -1      8079 2.13820E-03 5.75841E-03 3.72694E-19
 -1      8080 2.19692E-03 5.57914E-03 4.26905E-19
 -1      8081 2.13783E-03 6.13998E-03 1.28749E-19
 -1      8082 2.19693E-03 5.96237E-03 3.38813E-20
 -1      8083 2.13744E-03 6.52133E-03 1.62630E-19
 -1      8084 2.19702E-03 6.34555E-03 6.77626E-20
 -1      8085 2.13705E-03 6.90259E-03 7.04731E-19
 -1      8086 2.19720E-03 6.72882E-03 8.47033E-19
 -1      8087 2.13669E-03 7.28389E-03 3.86247E-19
 -1      8088 2.19754E-03 7.11236E-03-2.23617E-19
 -1      8089 2.13643E-03 7.66549E-03 7.58942E-19
 -1      8090 2.19811E-03 7.49641E-03 2.37169E-19
 -1      8091 2.13639E-03 8.04770E-03 3.25261E-19
 -1      8092 2.19905E-03 7.88132E-03 9.55453E-19
 -1      8093 2.13678E-03 8.43100E-03-1.01644E-19
 -1      8094 2.20058E-03 8.26756E-03 6.77626E-19
 -1      8095 2.13798E-03 8.81604E-03-6.03087E-19
 -1      8096 2.20307E-03 8.65575E-03-3.93023E-19
 -1      8097 2.14055E-03 9.20377E-03 2.84603E-19
 -1      8098 2.20706E-03 9.04674E-03 1.49078E-19
 -1      8099 2.14544E-03 9.59543E-03 7.65718E-19
 -1      8100 2.21341E-03 9.44168E-03 2.84603E-19
 -1      8101 2.15412E-03 9.99276E-03 2.39880E-18
 -1      8102 2.22340E-03 9.84204E-03 4.87891E-19
 -1      8103 2.16884E-03 1.03980E-02 9.75782E-19
 -1      8104 2.23896E-03 1.02497E-02 7.58942E-19
 -1      8105 2.19298E-03 1.08140E-02 1.05032E-18
 -1      8106 2.26286E-03 1.06670E-02 5.08220E-19
 -1      8107 2.29899E-03 1.10965E-02 1.21973E-19
 -1      8108 2.25605E-03 3.86365E-04-6.77626E-21
 -1      8109 2.25601E-03 7.72701E-04 2.30393E-19
 -1      8110 2.25593E-03 1.15898E-03-2.50722E-19
 -1      8111 2.25583E-03 1.54517E-03 2.30393E-19
 -1      8112 2.25572E-03 1.93125E-03-3.32037E-19
 -1      8113 2.25560E-03 2.31720E-03-1.76183E-19
 -1      8114 2.25548E-03 2.70299E-03-2.77827E-19
 -1      8115 2.25538E-03 3.08861E-03-1.35525E-19
 -1      8116 2.25530E-03 3.47406E-03-3.65918E-19
 -1      8117 2.25526E-03 3.85932E-03 6.09864E-20
 -1      8118 2.25527E-03 4.24441E-03 5.55654E-19
 -1      8119 2.25535E-03 4.62934E-03-3.59142E-19
 -1      8120 2.25551E-03 5.01414E-03 6.97955E-19
 -1      8121 2.25577E-03 5.39887E-03 7.11508E-19
 -1      8122 2.25615E-03 5.78359E-03 6.77626E-19
 -1      8123 2.25669E-03 6.16841E-03-3.18484E-19
 -1      8124 2.25741E-03 6.55347E-03 6.91179E-19
 -1      8125 2.25840E-03 6.93895E-03 1.04354E-18
 -1      8126 2.25974E-03 7.32512E-03 3.99800E-19
 -1      8127 2.26159E-03 7.71230E-03 6.36969E-19
 -1      8128 2.26417E-03 8.10095E-03 2.50722E-19
 -1      8129 2.26782E-03 8.49167E-03-8.80914E-20
 -1      8130 2.27306E-03 8.88523E-03-1.08420E-19
 -1      8131 2.28067E-03 9.28264E-03 1.55854E-19
 -1      8132 2.29177E-03 9.68516E-03 5.82759E-19
 -1      8133 2.30799E-03 1.00944E-02 4.06576E-20
 -1      8134 2.33164E-03 1.05121E-02 3.72694E-19
 -1      8135 2.36584E-03 1.09406E-02 2.23617E-19
 -1      8136 2.42897E-03 3.88322E-04 6.09864E-20
 -1      8137 2.42897E-03 7.76630E-04 1.15196E-19
 -1      8138 2.42897E-03 1.16491E-03-1.21973E-19
 -1      8139 2.42898E-03 1.55315E-03 1.35525E-20
 -1      8140 2.42902E-03 1.94135E-03 6.09864E-20
 -1      8141 2.42910E-03 2.32949E-03-2.13452E-19
 -1      8142 2.42925E-03 2.71759E-03 1.35525E-20
 -1      8143 2.42948E-03 3.10564E-03 1.01644E-19
 -1      8144 2.42983E-03 3.49367E-03 5.08220E-20
 -1      8145 2.43032E-03 3.88170E-03-1.35525E-19
 -1      8146 2.43099E-03 4.26977E-03-2.27005E-19
 -1      8147 2.43188E-03 4.65794E-03-1.01644E-20
 -1      8148 2.43303E-03 5.04629E-03 2.23617E-19
 -1      8149 2.43451E-03 5.43491E-03 1.69407E-20
 -1      8150 2.43637E-03 5.82394E-03-8.47033E-20
 -1      8151 2.43870E-03 6.21354E-03-6.77626E-21
 -1      8152 2.44160E-03 6.60392E-03-2.84603E-19
 -1      8153 2.44522E-03 6.99535E-03-6.77626E-21
 -1      8154 2.44974E-03 7.38816E-03 1.01644E-19
 -1      8155 2.45541E-03 7.78277E-03-5.42101E-20
 -1      8156 2.46258E-03 8.17968E-03 6.43745E-20
 -1      8157 2.47173E-03 8.57952E-03-2.50722E-19
 -1      8158 2.48351E-03 8.98303E-03 3.38813E-21
 -1      8159 2.49880E-03 9.39107E-03-2.16840E-19
 -1      8160 2.51875E-03 9.80465E-03-1.21973E-19
 -1      8161 2.54490E-03 1.02248E-02 1.05032E-19
 -1      8162 2.57914E-03 1.06526E-02 2.40557E-19
 -1      8163 2.62370E-03 1.10887E-02-9.82558E-20
 -1      8164 2.54526E-03 3.89740E-04 1.69407E-20
 -1      8165 2.54530E-03 7.79476E-04-1.18585E-19
 -1      8166 2.54537E-03 1.16920E-03 3.38813E-21
 -1      8167 2.54548E-03 1.55892E-03 2.03288E-20
 -1      8168 2.54565E-03 1.94864E-03-1.11808E-19
 -1      8169 2.54591E-03 2.33835E-03 6.09864E-20
 -1      8170 2.54628E-03 2.72808E-03 3.38813E-21
 -1      8171 2.54680E-03 3.11784E-03-5.42101E-20
 -1      8172 2.54751E-03 3.50767E-03-1.52466E-19
 -1      8173 2.54844E-03 3.89761E-03-1.08420E-19
 -1      8174 2.54966E-03 4.28771E-03-3.86247E-19
 -1      8175 2.55121E-03 4.67806E-03-1.35525E-20
 -1      8176 2.55317E-03 5.06875E-03-4.13352E-19
 -1      8177 2.55562E-03 5.45990E-03-2.03288E-19
 -1      8178 2.55866E-03 5.85167E-03-8.13152E-20
 -1      8179 2.56239E-03 6.24425E-03-1.82959E-19
 -1      8180 2.56696E-03 6.63787E-03 1.01644E-19
 -1      8181 2.57256E-03 7.03281E-03-3.79471E-19
 -1      8182 2.57942E-03 7.42943E-03 1.79571E-19
 -1      8183 2.58783E-03 7.82814E-03-4.64174E-19
 -1      8184 2.59820E-03 8.22941E-03-1.82959E-19
 -1      8185 2.61103E-03 8.63382E-03 7.45389E-20
 -1      8186 2.62698E-03 9.04200E-03-3.59142E-19
 -1      8187 2.64691E-03 9.45465E-03-1.69407E-20
 -1      8188 2.67187E-03 9.87249E-03 4.06576E-20
 -1      8189 2.70313E-03 1.02962E-02-3.59142E-19
 -1      8190 2.74218E-03 1.07263E-02-1.08420E-19
 -1      8191 2.79056E-03 1.11629E-02 5.42101E-20
 -1      8192 2.66253E-03 3.91227E-04 3.38813E-21
 -1      8193 2.66261E-03 7.82458E-04 1.01644E-20
 -1      8194 2.66276E-03 1.17370E-03 1.96512E-19
 -1      8195 2.66298E-03 1.56496E-03-8.13152E-20
 -1      8196 2.66331E-03 1.95625E-03-1.35525E-20
 -1      8197 2.66378E-03 2.34758E-03-1.15196E-19
 -1      8198 2.66441E-03 2.73899E-03 6.77626E-21
 -1      8199 2.66525E-03 3.13050E-03 4.06576E-20
 -1      8200 2.66636E-03 3.52216E-03-1.35525E-20
 -1      8201 2.66779E-03 3.91401E-03 2.03288E-20
 -1      8202 2.66962E-03 4.30614E-03 6.43745E-20
 -1      8203 2.67191E-03 4.69863E-03-2.57498E-19
 -1      8204 2.67475E-03 5.09159E-03 2.54110E-19
 -1      8205 2.67826E-03 5.48516E-03-2.10064E-19
 -1      8206 2.68255E-03 5.87950E-03 2.03288E-19
 -1      8207 2.68777E-03 6.27481E-03 1.59242E-19
 -1      8208 2.69410E-03 6.67134E-03 2.06676E-19
 -1      8209 2.70174E-03 7.06936E-03 1.52466E-19
 -1      8210 2.71097E-03 7.46921E-03 9.48677E-20
 -1      8211 2.72211E-03 7.87127E-03 1.21973E-19
 -1      8212 2.73557E-03 8.27597E-03-6.77626E-21
 -1      8213 2.75185E-03 8.68379E-03-2.37169E-20
 -1      8214 2.77159E-03 9.09523E-03 3.15096E-19
 -1      8215 2.79553E-03 9.51079E-03 2.37169E-20
 -1      8216 2.82455E-03 9.93094E-03 1.25361E-19
 -1      8217 2.85966E-03 1.03560E-02 1.76183E-19
 -1      8218 2.90187E-03 1.07861E-02-4.40457E-20
 -1      8219 2.95210E-03 1.12211E-02 2.50722E-19
 -1      8220 2.78081E-03 3.92761E-04-6.43745E-20
 -1      8221 2.78094E-03 7.85535E-04 8.47033E-20
 -1      8222 2.78117E-03 1.17833E-03-3.04932E-20
 -1      8223 2.78152E-03 1.57118E-03 6.77626E-21
 -1      8224 2.78202E-03 1.96408E-03-2.71051E-20
 -1      8225 2.78271E-03 2.35707E-03-1.42302E-19
 -1      8226 2.78362E-03 2.75018E-03 6.09864E-20
 -1      8227 2.78482E-03 3.14345E-03 1.01644E-20
 -1      8228 2.78636E-03 3.53693E-03 2.40557E-19
 -1      8229 2.78833E-03 3.93069E-03 1.55854E-19
 -1      8230 2.79079E-03 4.32479E-03 1.28749E-19
 -1      8231 2.79385E-03 4.71935E-03 3.21873E-19
 -1      8232 2.79763E-03 5.11448E-03-7.45389E-20
 -1      8233 2.80223E-03 5.51031E-03 6.77626E-20
 -1      8234 2.80782E-03 5.90701E-03 2.23617E-19
 -1      8235 2.81455E-03 6.30479E-03 2.81215E-19
 -1      8236 2.82263E-03 6.70386E-03 2.57498E-19
 -1      8237 2.83230E-03 7.10450E-03 3.45589E-19
 -1      8238 2.84382E-03 7.50701E-03 1.15196E-19
 -1      8239 2.85755E-03 7.91172E-03 2.50722E-19
 -1      8240 2.87387E-03 8.31898E-03 2.30393E-19
 -1      8241 2.89326E-03 8.72917E-03 3.76083E-19
 -1      8242 2.91626E-03 9.14265E-03 2.71051E-20
 -1      8243 2.94351E-03 9.55976E-03 5.62430E-19
 -1      8244 2.97567E-03 9.98073E-03 2.06676E-19
 -1      8245 3.01346E-03 1.04057E-02 2.43945E-19
 -1      8246 3.05748E-03 1.08344E-02 8.47033E-20
 -1      8247 3.10815E-03 1.12665E-02-4.06576E-20
 -1      8248 2.90011E-03 3.94324E-04-5.42101E-20
 -1      8249 2.90029E-03 7.88668E-04 6.43745E-20
 -1      8250 2.90062E-03 1.18305E-03-6.43745E-20
 -1      8251 2.90110E-03 1.57750E-03-2.71051E-20
 -1      8252 2.90178E-03 1.97203E-03 9.48677E-20
 -1      8253 2.90270E-03 2.36669E-03 8.47033E-20
 -1      8254 2.90390E-03 2.76150E-03-2.03288E-20
 -1      8255 2.90547E-03 3.15653E-03-9.48677E-20
 -1      8256 2.90746E-03 3.55181E-03 1.01644E-19
 -1      8257 2.90997E-03 3.94742E-03-8.13152E-20
 -1      8258 2.91309E-03 4.34344E-03 2.33781E-19
 -1      8259 2.91693E-03 4.73998E-03-9.14796E-20
 -1      8260 2.92163E-03 5.13714E-03-1.72795E-19
 -1      8261 2.92733E-03 5.53506E-03 1.15196E-19
 -1      8262 2.93419E-03 5.93390E-03 1.05032E-19
 -1      8263 2.94241E-03 6.33386E-03 1.52466E-19
 -1      8264 2.95218E-03 6.73513E-03 3.38813E-20
 -1      8265 2.96377E-03 7.13794E-03 6.77626E-20
 -1      8266 2.97744E-03 7.54257E-03 3.32037E-19
 -1      8267 2.99354E-03 7.94927E-03-2.43945E-19
 -1      8268 3.01241E-03 8.35834E-03 7.45389E-20
 -1      8269 3.03449E-03 8.77003E-03 2.47334E-19
 -1      8270 3.06021E-03 9.18460E-03-1.69407E-20
 -1      8271 3.09007E-03 9.60222E-03-1.69407E-19
 -1      8272 3.12453E-03 1.00230E-02-6.77626E-21
 -1      8273 3.16403E-03 1.04468E-02-8.80914E-20
 -1      8274 3.20885E-03 1.08733E-02 8.80914E-20
 -1      8275 3.25902E-03 1.13021E-02 1.49078E-19
 -1      8276 3.02043E-03 3.95897E-04 6.09864E-20
 -1      8277 3.02067E-03 7.91819E-04 1.05032E-19
 -1      8278 3.02108E-03 1.18779E-03 1.32137E-19
 -1      8279 3.02170E-03 1.58385E-03 9.48677E-20
 -1      8280 3.02256E-03 1.98001E-03 7.45389E-20
 -1      8281 3.02371E-03 2.37633E-03 1.35525E-20
 -1      8282 3.02522E-03 2.77283E-03 1.18585E-19
 -1      8283 3.02715E-03 3.16958E-03 6.09864E-20
 -1      8284 3.02958E-03 3.56662E-03 1.08420E-19
 -1      8285 3.03263E-03 3.96404E-03 1.72795E-19
 -1      8286 3.03640E-03 4.36190E-03 2.30393E-19
 -1      8287 3.04101E-03 4.76030E-03-3.72694E-20
 -1      8288 3.04661E-03 5.15936E-03 1.15196E-19
 -1      8289 3.05337E-03 5.55921E-03-6.77626E-21
 -1      8290 3.06144E-03 5.95997E-03-1.42302E-19
 -1      8291 3.07105E-03 6.36183E-03 1.55854E-19
 -1      8292 3.08240E-03 6.76496E-03-5.42101E-20
 -1      8293 3.09575E-03 7.16956E-03 2.16840E-19
 -1      8294 3.11137E-03 7.57583E-03 8.80914E-20
 -1      8295 3.12956E-03 7.98399E-03 3.45589E-19
 -1      8296 3.15064E-03 8.39423E-03 1.08420E-19
 -1      8297 3.17496E-03 8.80675E-03 9.14796E-20
 -1      8298 3.20288E-03 9.22168E-03 8.13152E-20
 -1      8299 3.23472E-03 9.63907E-03 1.45690E-19
 -1      8300 3.27078E-03 1.00589E-02-9.14796E-20
 -1      8301 3.31126E-03 1.04809E-02 3.72694E-20
 -1      8302 3.35617E-03 1.09049E-02 1.89735E-19
 -1      8303 3.40527E-03 1.13301E-02-9.48677E-20
 -1      8304 3.14175E-03 3.97460E-04 3.38813E-20
 -1      8305 3.14205E-03 7.94951E-04 3.38813E-21
 -1      8306 3.14255E-03 1.19250E-03-1.15196E-19
 -1      8307 3.14330E-03 1.59015E-03-7.11508E-20
 -1      8308 3.14434E-03 1.98793E-03 7.79270E-20
 -1      8309 3.14572E-03 2.38588E-03-2.03288E-20
 -1      8310 3.14752E-03 2.78404E-03 2.23617E-19
 -1      8311 3.14980E-03 3.18248E-03-1.42302E-19
 -1      8312 3.15267E-03 3.58123E-03-6.77626E-20
 -1      8313 3.15623E-03 3.98038E-03-6.09864E-20
 -1      8314 3.16061E-03 4.38000E-03-9.48677E-20
 -1      8315 3.16595E-03 4.78017E-03 1.05032E-19
 -1      8316 3.17240E-03 5.18100E-03-2.40557E-19
 -1      8317 3.18014E-03 5.58260E-03 6.77626E-20
 -1      8318 3.18934E-03 5.98509E-03-1.59242E-19
 -1      8319 3.20022E-03 6.38862E-03 1.28749E-19
 -1      8320 3.21300E-03 6.79332E-03 6.43745E-20
 -1      8321 3.22792E-03 7.19936E-03 2.37169E-20
 -1      8322 3.24524E-03 7.60689E-03 5.42101E-20
 -1      8323 3.26522E-03 8.01606E-03-3.28649E-19
 -1      8324 3.28815E-03 8.42702E-03 1.28749E-19
 -1      8325 3.31430E-03 8.83985E-03-2.16840E-19
 -1      8326 3.34392E-03 9.25462E-03-8.80914E-20
 -1      8327 3.37721E-03 9.67130E-03-9.82558E-20
 -1      8328 3.41431E-03 1.00898E-02-3.35425E-19
 -1      8329 3.45522E-03 1.05098E-02 8.47033E-20
 -1      8330 3.49977E-03 1.09310E-02-3.15096E-19
 -1      8331 3.54752E-03 1.13528E-02-3.18484E-19
 -1      8332 3.26406E-03 3.98997E-04 1.52466E-19
 -1      8333 3.26440E-03 7.98030E-04-1.35525E-20
 -1      8334 3.26500E-03 1.19713E-03-2.03288E-20
 -1      8335 3.26588E-03 1.59634E-03 1.15196E-19
 -1      8336 3.26709E-03 1.99570E-03-6.09864E-20
 -1      8337 3.26868E-03 2.39525E-03-7.45389E-20
 -1      8338 3.27075E-03 2.79503E-03-1.96512E-19
 -1      8339 3.27337E-03 3.19510E-03 8.47033E-20
 -1      8340 3.27664E-03 3.59552E-03-8.47033E-20
 -1      8341 3.28068E-03 3.99633E-03 2.71051E-19
 -1      8342 3.28563E-03 4.39762E-03-4.06576E-20
 -1      8343 3.29164E-03 4.79947E-03 1.05032E-19
 -1      8344 3.29886E-03 5.20195E-03 5.08220E-20
 -1      8345 3.30747E-03 5.60516E-03 1.59242E-19
 -1      8346 3.31768E-03 6.00921E-03 4.43845E-19
 -1      8347 3.32969E-03 6.41420E-03-9.82558E-20
 -1      8348 3.34372E-03 6.82025E-03-5.42101E-20
 -1      8349 3.35999E-03 7.22746E-03 2.40557E-19
 -1      8350 3.37875E-03 7.63596E-03 2.13452E-19
 -1      8351 3.40024E-03 8.04583E-03 2.81215E-19
 -1      8352 3.42467E-03 8.45715E-03-6.77626E-21
 -1      8353 3.45225E-03 8.86996E-03 1.38913E-19
 -1      8354 3.48315E-03 9.28424E-03-7.45389E-20
 -1      8355 3.51745E-03 9.69991E-03 3.38813E-21
 -1      8356 3.55516E-03 1.01168E-02 4.77727E-19
 -1      8357 3.59614E-03 1.05347E-02-2.03288E-20
 -1      8358 3.64006E-03 1.09532E-02 2.60886E-19
 -1      8359 3.68638E-03 1.13718E-02-1.38913E-19
 -1      8360 3.38731E-03 4.00490E-04-9.14796E-20
 -1      8361 3.38770E-03 8.01020E-04-2.71051E-20
 -1      8362 3.38838E-03 1.20163E-03 1.08420E-19
 -1      8363 3.38937E-03 1.60236E-03-7.11508E-20
 -1      8364 3.39074E-03 2.00325E-03 5.75982E-20
 -1      8365 3.39254E-03 2.40435E-03 7.45389E-20
 -1      8366 3.39486E-03 2.80569E-03 2.23617E-19
 -1      8367 3.39778E-03 3.20735E-03 1.42302E-19
 -1      8368 3.40142E-03 3.60935E-03 1.08420E-19
 -1      8369 3.40590E-03 4.01177E-03-1.35525E-19
 -1      8370 3.41136E-03 4.41466E-03 7.79270E-20
 -1      8371 3.41795E-03 4.81809E-03 1.49078E-19
 -1      8372 3.42585E-03 5.22212E-03-8.80914E-20
 -1      8373 3.43525E-03 5.62684E-03 1.21973E-19
 -1      8374 3.44632E-03 6.03232E-03-2.47334E-19
 -1      8375 3.45930E-03 6.43863E-03 7.11508E-20
 -1      8376 3.47438E-03 6.84586E-03-1.76183E-19
 -1      8377 3.49178E-03 7.25407E-03 6.09864E-20
 -1      8378 3.51173E-03 7.66334E-03-4.20128E-19
 -1      8379 3.53441E-03 8.07370E-03 1.93124E-19
 -1      8380 3.56002E-03 8.48518E-03-9.14796E-20
 -1      8381 3.58869E-03 8.89776E-03 5.42101E-20
 -1      8382 3.62051E-03 9.31138E-03-7.79270E-20
 -1      8383 3.65548E-03 9.72593E-03 1.15196E-19
 -1      8384 3.69348E-03 1.01412E-02-1.35525E-19
 -1      8385 3.73429E-03 1.05570E-02-7.11508E-20
 -1      8386 3.77747E-03 1.09729E-02 3.65918E-19
 -1      8387 3.82239E-03 1.13885E-02 1.38913E-19
 -1      8388 3.51145E-03 4.01921E-04 1.01644E-19
 -1      8389 3.51188E-03 8.03885E-04 1.32137E-19
 -1      8390 3.51264E-03 1.20594E-03 5.08220E-20
 -1      8391 3.51375E-03 1.60812E-03 3.38813E-20
 -1      8392 3.51526E-03 2.01049E-03-6.43745E-20
 -1      8393 3.51725E-03 2.41307E-03-9.14796E-20
 -1      8394 3.51979E-03 2.81593E-03 7.79270E-20
 -1      8395 3.52298E-03 3.21910E-03-2.71051E-20
 -1      8396 3.52695E-03 3.62264E-03 2.03288E-20
 -1      8397 3.53181E-03 4.02660E-03 2.03288E-20
 -1      8398 3.53771E-03 4.43102E-03 1.11808E-19
 -1      8399 3.54481E-03 4.83597E-03-3.38813E-20
 -1      8400 3.55330E-03 5.24148E-03-6.77626E-21
 -1      8401 3.56334E-03 5.64763E-03 3.72694E-20
 -1      8402 3.57515E-03 6.05445E-03-6.77626E-21
 -1      8403 3.58892E-03 6.46200E-03-1.96512E-19
 -1      8404 3.60485E-03 6.87031E-03-2.30393E-19
 -1      8405 3.62317E-03 7.27942E-03-4.74338E-20
 -1      8406 3.64405E-03 7.68936E-03 2.98156E-19
 -1      8407 3.66767E-03 8.10012E-03-1.93124E-19
 -1      8408 3.69416E-03 8.51167E-03 3.15096E-19
 -1      8409 3.72361E-03 8.92396E-03-2.87991E-19
 -1      8410 3.75605E-03 9.33689E-03-2.16840E-19
 -1      8411 3.79141E-03 9.75031E-03 2.84603E-19
 -1      8412 3.82949E-03 1.01640E-02 1.79571E-19
 -1      8413 3.86997E-03 1.05778E-02-3.15096E-19
 -1      8414 3.91237E-03 1.09913E-02-1.21973E-19
 -1      8415 3.95602E-03 1.14042E-02 5.08220E-20
 -1      8416 3.63642E-03 4.03270E-04-1.32137E-19
 -1      8417 3.63690E-03 8.06589E-04-3.72694E-20
 -1      8418 3.63773E-03 1.21001E-03 1.05032E-19
 -1      8419 3.63893E-03 1.61357E-03-1.21973E-19
 -1      8420 3.64058E-03 2.01733E-03-1.69407E-20
 -1      8421 3.64273E-03 2.42133E-03 2.37169E-20
 -1      8422 3.64547E-03 2.82562E-03 1.42302E-19
 -1      8423 3.64891E-03 3.23025E-03 4.06576E-20
 -1      8424 3.65315E-03 3.63526E-03 5.08220E-20
 -1      8425 3.65834E-03 4.04070E-03-3.38813E-20
 -1      8426 3.66462E-03 4.44661E-03 8.80914E-20
 -1      8427 3.67216E-03 4.85302E-03 1.45690E-19
 -1      8428 3.68112E-03 5.25998E-03-3.99800E-19
 -1      8429 3.69170E-03 5.66751E-03 2.40557E-19
 -1      8430 3.70409E-03 6.07565E-03-4.40457E-20
 -1      8431 3.71849E-03 6.48440E-03-1.69407E-19
 -1      8432 3.73510E-03 6.89378E-03 1.15196E-19
 -1      8433 3.75411E-03 7.30379E-03 2.13452E-19
 -1      8434 3.77569E-03 7.71439E-03 1.45690E-19
 -1      8435 3.79998E-03 8.12556E-03 2.47334E-19
 -1      8436 3.82710E-03 8.53722E-03 2.71051E-19
 -1      8437 3.85708E-03 8.94928E-03 2.87991E-19
 -1      8438 3.88989E-03 9.36161E-03-2.37169E-20
 -1      8439 3.92542E-03 9.77403E-03-2.77827E-19
 -1      8440 3.96341E-03 1.01864E-02-3.38813E-20
 -1      8441 4.00350E-03 1.05983E-02 2.50722E-19
 -1      8442 4.04514E-03 1.10097E-02-9.48677E-20
 -1      8443 4.08765E-03 1.14202E-02 6.97955E-19
 -1      8444 3.76216E-03 4.04518E-04 1.59242E-19
 -1      8445 3.76268E-03 8.09090E-04 1.76183E-19
 -1      8446 3.76357E-03 1.21377E-03-1.28749E-19
 -1      8447 3.76487E-03 1.61862E-03 2.54110E-19
 -1      8448 3.76663E-03 2.02369E-03-1.32137E-19
 -1      8449 3.76893E-03 2.42902E-03 9.14796E-20
 -1      8450 3.77185E-03 2.83467E-03-1.01644E-20
 -1      8451 3.77550E-03 3.24068E-03 4.40457E-20
 -1      8452 3.77999E-03 3.64710E-03-4.74338E-20
 -1      8453 3.78545E-03 4.05397E-03 8.47033E-20
 -1      8454 3.79205E-03 4.46132E-03 1.45690E-19
 -1      8455 3.79993E-03 4.86917E-03-1.35525E-19
 -1      8456 3.80928E-03 5.27756E-03-1.82959E-19
 -1      8457 3.82028E-03 5.68648E-03-2.71051E-19
 -1      8458 3.83313E-03 6.09595E-03 1.11808E-19
 -1      8459 3.84801E-03 6.50595E-03 6.77626E-20
 -1      8460 3.86511E-03 6.91645E-03 1.32137E-19
 -1      8461 3.88462E-03 7.32742E-03 1.59242E-19
 -1      8462 3.90669E-03 7.73880E-03-5.08220E-20
 -1      8463 3.93144E-03 8.15050E-03 3.72694E-19
 -1      8464 3.95895E-03 8.56242E-03 1.08420E-19
 -1      8465 3.98923E-03 8.97442E-03-7.14896E-19
 -1      8466 4.02222E-03 9.38635E-03 1.25361E-19
 -1      8467 4.05775E-03 9.79801E-03 1.62630E-19
 -1      8468 4.09553E-03 1.02092E-02-2.64274E-19
 -1      8469 4.13517E-03 1.06196E-02 7.11508E-20
 -1      8470 4.17610E-03 1.10291E-02-2.37169E-19
 -1      8471 4.21761E-03 1.14374E-02-3.04932E-20
 -1      8472 3.88857E-03 4.05641E-04 2.71051E-20
 -1      8473 3.88913E-03 8.11345E-04 4.40457E-20
 -1      8474 3.89008E-03 1.21717E-03 6.77626E-21
 -1      8475 3.89146E-03 1.62319E-03 0.00000E+00
 -1      8476 3.89334E-03 2.02945E-03 0.00000E+00
 -1      8477 3.89577E-03 2.43601E-03-1.15196E-19
 -1      8478 3.89886E-03 2.84293E-03 2.60886E-19
 -1      8479 3.90269E-03 3.25025E-03-6.77626E-20
 -1      8480 3.90739E-03 3.65802E-03 2.23617E-19
 -1      8481 3.91310E-03 4.06627E-03-1.42302E-19
 -1      8482 3.91995E-03 4.47503E-03 7.79270E-20
 -1      8483 3.92812E-03 4.88431E-03-9.14796E-20
 -1      8484 3.93778E-03 5.29414E-03 7.45389E-20
 -1      8485 3.94911E-03 5.70449E-03 1.86347E-19
 -1      8486 3.96229E-03 6.11536E-03 3.48978E-19
 -1      8487 3.97752E-03 6.52670E-03-2.23617E-19
 -1      8488 3.99497E-03 6.93847E-03 1.01644E-20
 -1      8489 4.01481E-03 7.35057E-03 3.45589E-19
 -1      8490 4.03719E-03 7.76292E-03 1.15196E-19
 -1      8491 4.06220E-03 8.17539E-03-1.35525E-20
 -1      8492 4.08991E-03 8.58784E-03 1.72795E-19
 -1      8493 4.12030E-03 9.00008E-03 1.42302E-19
 -1      8494 4.15328E-03 9.41193E-03-4.74338E-20
 -1      8495 4.18867E-03 9.82316E-03 6.77626E-20
 -1      8496 4.22615E-03 1.02335E-02-3.25261E-19
 -1      8497 4.26530E-03 1.06428E-02-5.75982E-20
 -1      8498 4.30554E-03 1.10508E-02 1.11808E-19
 -1      8499 4.34618E-03 1.14572E-02 1.35525E-19
 -1      8500 4.01556E-03 4.06614E-04-1.59242E-19
 -1      8501 4.01615E-03 8.13302E-04 9.82558E-20
 -1      8502 4.01716E-03 1.22013E-03 2.06676E-19
 -1      8503 4.01863E-03 1.62718E-03-1.79571E-19
 -1      8504 4.02061E-03 2.03451E-03 5.42101E-20
 -1      8505 4.02318E-03 2.44218E-03-1.52466E-19
 -1      8506 4.02642E-03 2.85026E-03-1.21973E-19
 -1      8507 4.03042E-03 3.25880E-03 2.37169E-20
 -1      8508 4.03532E-03 3.66784E-03-4.77727E-19
 -1      8509 4.04124E-03 4.07742E-03 1.72795E-19
 -1      8510 4.04832E-03 4.48757E-03-6.77626E-20
 -1      8511 4.05673E-03 4.89829E-03-2.71051E-19
 -1      8512 4.06664E-03 5.30960E-03-2.37169E-20
 -1      8513 4.07822E-03 5.72146E-03 1.18585E-19
 -1      8514 4.09166E-03 6.13385E-03-6.43745E-20
 -1      8515 4.10713E-03 6.54670E-03 1.38913E-19
 -1      8516 4.12480E-03 6.95992E-03-3.72694E-20
 -1      8517 4.14484E-03 7.37342E-03 8.80914E-20
 -1      8518 4.16738E-03 7.78705E-03-5.42101E-20
 -1      8519 4.19249E-03 8.20064E-03 3.04932E-20
 -1      8520 4.22024E-03 8.61401E-03-9.48677E-20
 -1      8521 4.25058E-03 9.02692E-03 6.09864E-20
 -1      8522 4.28341E-03 9.43915E-03-3.18484E-19
 -1      8523 4.31852E-03 9.85043E-03 4.37069E-19
 -1      8524 4.35561E-03 1.02605E-02-3.18484E-19
 -1      8525 4.39422E-03 1.06690E-02 6.09864E-20
 -1      8526 4.43378E-03 1.10758E-02 1.89735E-19
 -1      8527 4.47361E-03 1.14807E-02 5.65818E-19
 -1      8528 4.14300E-03 4.07409E-04 1.05032E-19
 -1      8529 4.14363E-03 8.14903E-04 3.38813E-20
 -1      8530 4.14470E-03 1.22256E-03-1.89735E-19
 -1      8531 4.14626E-03 1.63048E-03-5.42101E-20
 -1      8532 4.14836E-03 2.03872E-03 4.74338E-20
 -1      8533 4.15106E-03 2.44736E-03-2.71051E-20
 -1      8534 4.15445E-03 2.85647E-03 3.72694E-20
 -1      8535 4.15864E-03 3.26612E-03-2.43945E-19
 -1      8536 4.16372E-03 3.67635E-03 3.15096E-19
 -1      8537 4.16985E-03 4.08721E-03-2.13452E-19
 -1      8538 4.17715E-03 4.49872E-03-1.59242E-19
 -1      8539 4.18578E-03 4.91090E-03-4.74338E-20
 -1      8540 4.19591E-03 5.32375E-03-1.18585E-19
 -1      8541 4.20770E-03 5.73723E-03-3.15096E-19
 -1      8542 4.22134E-03 6.15130E-03 1.96512E-19
 -1      8543 4.23698E-03 6.56587E-03 1.08420E-19
 -1      8544 4.25481E-03 6.98084E-03 2.77827E-19
 -1      8545 4.27496E-03 7.39608E-03-2.33781E-19
 -1      8546 4.29754E-03 7.81139E-03 1.05032E-19
 -1      8547 4.32265E-03 8.22659E-03-3.65918E-19
 -1      8548 4.35030E-03 8.64141E-03-1.93124E-19
 -1      8549 4.38046E-03 9.05558E-03 7.11508E-20
 -1      8550 4.41301E-03 9.46881E-03 4.74338E-20
 -1      8551 4.44774E-03 9.88076E-03-3.62530E-19
 -1      8552 4.48431E-03 1.02911E-02 1.45690E-19
 -1      8553 4.52230E-03 1.06995E-02 3.52366E-19
 -1      8554 4.56114E-03 1.11057E-02-2.30393E-19
 -1      8555 4.60014E-03 1.15093E-02-2.54110E-19
 -1      8556 2.37118E-03 3.87645E-04-1.35525E-20
 -1      8557 2.42898E-03 1.94162E-04 3.65918E-19
 -1      8558 2.37116E-03 7.75270E-04 2.84603E-19
 -1      8559 2.42897E-03 5.82478E-04 2.64274E-19
 -1      8560 2.37113E-03 1.16286E-03-4.33681E-19
 -1      8561 2.42897E-03 9.70774E-04-1.01644E-19
 -1      8562 2.37111E-03 1.55039E-03 1.69407E-19
 -1      8563 2.42897E-03 1.35904E-03-1.76183E-19
 -1      8564 2.37109E-03 1.93786E-03 9.48677E-20
 -1      8565 2.42900E-03 1.74726E-03 1.21973E-19
 -1      8566 2.37109E-03 2.32525E-03-5.75982E-19
 -1      8567 2.42906E-03 2.13543E-03-4.47233E-19
 -1      8568 2.37114E-03 2.71255E-03 6.77626E-21
 -1      8569 2.42917E-03 2.52355E-03-4.47233E-19
 -1      8570 2.37125E-03 3.09978E-03 3.79471E-19
 -1      8571 2.42935E-03 2.91162E-03 1.76183E-19
 -1      8572 2.37143E-03 3.48692E-03-3.04932E-19
 -1      8573 2.42964E-03 3.29966E-03 1.69407E-19
 -1      8574 2.37173E-03 3.87401E-03-1.82959E-19
 -1      8575 2.43005E-03 3.68768E-03-2.37169E-19
 -1      8576 2.37215E-03 4.26108E-03-1.21973E-19
 -1      8577 2.43063E-03 4.07573E-03-4.74338E-19
 -1      8578 2.37275E-03 4.64816E-03-4.06576E-19
 -1      8579 2.43140E-03 4.46384E-03-5.62430E-19
 -1      8580 2.37354E-03 5.03532E-03 4.67562E-19
 -1      8581 2.43242E-03 4.85209E-03 4.54010E-19
 -1      8582 2.37457E-03 5.42265E-03 6.23416E-19
 -1      8583 2.43373E-03 5.24056E-03 2.37169E-19
 -1      8584 2.37589E-03 5.81026E-03 2.91379E-19
 -1      8585 2.43538E-03 5.62937E-03 2.03288E-20
 -1      8586 2.37757E-03 6.19830E-03 1.08420E-19
 -1      8587 2.43747E-03 6.01865E-03-8.13152E-20
 -1      8588 2.37970E-03 6.58696E-03-2.64274E-19
 -1      8589 2.44007E-03 6.40861E-03-3.59142E-19
 -1      8590 2.38238E-03 6.97648E-03 7.31836E-19
 -1      8591 2.44331E-03 6.79948E-03-3.25261E-19
 -1      8592 2.38578E-03 7.36719E-03 8.60585E-19
 -1      8593 2.44735E-03 7.19156E-03-6.77626E-20
 -1      8594 2.39012E-03 7.75948E-03 1.89735E-19
 -1      8595 2.45241E-03 7.58521E-03-2.16840E-19
 -1      8596 2.39571E-03 8.15386E-03 1.89735E-19
 -1      8597 2.45878E-03 7.98090E-03 3.86247E-19
 -1      8598 2.40299E-03 8.55096E-03 2.16840E-19
 -1      8599 2.46687E-03 8.37919E-03-5.14996E-19
 -1      8600 2.41260E-03 8.95155E-03 7.65718E-19
 -1      8601 2.47724E-03 8.78076E-03-4.06576E-19
 -1      8602 2.42538E-03 9.35657E-03-9.41901E-19
 -1      8603 2.49065E-03 9.18642E-03-5.89535E-19
 -1      8604 2.44253E-03 9.76713E-03-1.55854E-19
 -1      8605 2.50810E-03 9.59710E-03-1.42302E-19
 -1      8606 2.46564E-03 1.01845E-02-5.21772E-19
 -1      8607 2.53094E-03 1.00138E-02 6.77626E-21
 -1      8608 2.49679E-03 1.06099E-02 4.87891E-19
 -1      8609 2.56087E-03 1.04377E-02 4.74338E-19
 -1      8610 2.53855E-03 1.10446E-02-3.79471E-19
 -1      8611 2.59998E-03 1.08696E-02-3.79471E-19
 -1      8612 2.65059E-03 1.13101E-02-3.72694E-19
 -1      8613 2.48700E-03 3.89021E-04 6.09864E-20
 -1      8614 2.54526E-03 1.94870E-04-4.40457E-19
 -1      8615 2.48701E-03 7.78033E-04-1.42302E-19
 -1      8616 2.54528E-03 5.84609E-04-1.35525E-20
 -1      8617 2.48705E-03 1.16703E-03-1.69407E-19
 -1      8618 2.54533E-03 9.74341E-04-2.77827E-19
 -1      8619 2.48711E-03 1.55600E-03 1.96512E-19
 -1      8620 2.54541E-03 1.36406E-03 2.03288E-20
 -1      8621 2.48721E-03 1.94494E-03-2.50722E-19
 -1      8622 2.54555E-03 1.75378E-03-1.35525E-19
 -1      8623 2.48738E-03 2.33387E-03-2.71051E-19
 -1      8624 2.54577E-03 2.14349E-03-1.49078E-19
 -1      8625 2.48763E-03 2.72277E-03-4.06576E-20
 -1      8626 2.54608E-03 2.53321E-03 1.28749E-19
 -1      8627 2.48800E-03 3.11167E-03-2.23617E-19
 -1      8628 2.54652E-03 2.92295E-03-1.01644E-19
 -1      8629 2.48852E-03 3.50059E-03-2.50722E-19
 -1      8630 2.54713E-03 3.31274E-03-3.25261E-19
 -1      8631 2.48922E-03 3.88957E-03-5.82759E-19
 -1      8632 2.54794E-03 3.70262E-03-4.40457E-19
 -1      8633 2.49016E-03 4.27866E-03-1.23328E-18
 -1      8634 2.54901E-03 4.09263E-03-1.05032E-18
 -1      8635 2.49137E-03 4.66793E-03-1.28749E-19
 -1      8636 2.55039E-03 4.48285E-03-7.04731E-19
 -1      8637 2.49292E-03 5.05745E-03-3.04932E-19
 -1      8638 2.55214E-03 4.87336E-03-7.18284E-19
 -1      8639 2.49486E-03 5.44735E-03-1.42302E-19
 -1      8640 2.55433E-03 5.26426E-03-1.08420E-18
 -1      8641 2.49730E-03 5.83776E-03 4.74338E-20
 -1      8642 2.55706E-03 5.65570E-03-4.13352E-19
 -1      8643 2.50031E-03 6.22888E-03-2.50722E-19
 -1      8644 2.56043E-03 6.04785E-03-4.26905E-19
 -1      8645 2.50404E-03 6.62092E-03-6.57298E-19
 -1      8646 2.56456E-03 6.44091E-03-2.71051E-20
 -1      8647 2.50863E-03 7.01416E-03-7.52165E-19
 -1      8648 2.56962E-03 6.83515E-03-3.59142E-19
 -1      8649 2.51430E-03 7.40894E-03 7.86047E-19
 -1      8650 2.57581E-03 7.23089E-03-1.15196E-19
 -1      8651 2.52134E-03 7.80569E-03-4.40457E-19
 -1      8652 2.58341E-03 7.62849E-03-1.96512E-19
 -1      8653 2.53011E-03 8.20490E-03-5.82759E-19
 -1      8654 2.59274E-03 8.02842E-03-1.26716E-18
 -1      8655 2.54112E-03 8.60717E-03-1.55854E-19
 -1      8656 2.60427E-03 8.43118E-03-6.77626E-21
 -1      8657 2.55503E-03 9.01320E-03-7.86047E-19
 -1      8658 2.61857E-03 8.83739E-03-3.99800E-19
 -1      8659 2.57270E-03 9.42378E-03-4.87891E-19
 -1      8660 2.63639E-03 9.24772E-03-6.43745E-19
 -1      8661 2.59527E-03 9.83976E-03-3.38813E-19
 -1      8662 2.65868E-03 9.66287E-03 2.91379E-19
 -1      8663 2.62414E-03 1.02620E-02-4.13352E-19
 -1      8664 2.68662E-03 1.00836E-02-8.19928E-19
 -1      8665 2.66100E-03 1.06913E-02 8.06375E-19
 -1      8666 2.72159E-03 1.05104E-02-1.10453E-18
 -1      8667 2.70774E-03 1.11280E-02 1.76183E-19
 -1      8668 2.76511E-03 1.09438E-02 1.08420E-19
 -1      8669 2.81869E-03 1.13836E-02-4.60786E-19
 -1      8670 2.60377E-03 3.90476E-04-1.01644E-19
 -1      8671 2.66251E-03 1.95613E-04 0.00000E+00
 -1      8672 2.60383E-03 7.80953E-04-1.21973E-19
 -1      8673 2.66257E-03 5.86842E-04-7.45389E-20
 -1      8674 2.60394E-03 1.17143E-03 4.20128E-19
 -1      8675 2.66268E-03 9.78077E-04 4.13352E-19
 -1      8676 2.60410E-03 1.56191E-03-1.21973E-19
 -1      8677 2.66286E-03 1.36933E-03 2.64274E-19
 -1      8678 2.60435E-03 1.95241E-03-1.76183E-19
 -1      8679 2.66313E-03 1.76060E-03-1.15196E-19
 -1      8680 2.60471E-03 2.34293E-03-3.11708E-19
 -1      8681 2.66353E-03 2.15191E-03-3.18484E-19
 -1      8682 2.60521E-03 2.73349E-03-1.08420E-19
 -1      8683 2.66407E-03 2.54328E-03-2.77827E-19
 -1      8684 2.60589E-03 3.12412E-03-2.77827E-19
 -1      8685 2.66480E-03 2.93473E-03 2.03288E-19
 -1      8686 2.60679E-03 3.51486E-03-5.01444E-19
 -1      8687 2.66577E-03 3.32631E-03 2.91379E-19
 -1      8688 2.60797E-03 3.90576E-03-5.28549E-19
 -1      8689 2.66703E-03 3.71806E-03 1.82959E-19
 -1      8690 2.60948E-03 4.29688E-03-6.84403E-19
 -1      8691 2.66865E-03 4.11004E-03 2.57498E-19
 -1      8692 2.61139E-03 4.68831E-03-1.00289E-18
 -1      8693 2.67070E-03 4.50233E-03-2.23617E-19
 -1      8694 2.61379E-03 5.08014E-03-7.25060E-19
 -1      8695 2.67325E-03 4.89504E-03-4.74338E-20
 -1      8696 2.61676E-03 5.47252E-03-1.09775E-18
 -1      8697 2.67642E-03 5.28829E-03 3.32037E-19
 -1      8698 2.62042E-03 5.86560E-03-4.74338E-20
 -1      8699 2.68030E-03 5.68222E-03 9.48677E-20
 -1      8700 2.62489E-03 6.25958E-03-3.38813E-19
 -1      8701 2.68504E-03 6.07702E-03 5.69206E-19
 -1      8702 2.63033E-03 6.65470E-03 7.72494E-19
 -1      8703 2.69079E-03 6.47291E-03 8.94467E-19
 -1      8704 2.63695E-03 7.05124E-03-6.91179E-19
 -1      8705 2.69774E-03 6.87014E-03 5.89535E-19
 -1      8706 2.64500E-03 7.44955E-03 0.00000E+00
 -1      8707 2.70614E-03 7.26904E-03 7.25060E-19
 -1      8708 2.65478E-03 7.85002E-03-9.62229E-19
 -1      8709 2.71628E-03 7.66994E-03 3.93023E-19
 -1      8710 2.66672E-03 8.25312E-03-9.28348E-19
 -1      8711 2.72852E-03 8.07326E-03 1.89735E-19
 -1      8712 2.68131E-03 8.65937E-03-4.54010E-19
 -1      8713 2.74332E-03 8.47946E-03-8.13152E-20
 -1      8714 2.69922E-03 9.06934E-03-3.52366E-19
 -1      8715 2.76125E-03 8.88902E-03 5.35325E-19
 -1      8716 2.72123E-03 9.48364E-03-6.50521E-19
 -1      8717 2.78298E-03 9.30246E-03 6.50521E-19
 -1      8718 2.74834E-03 9.90285E-03-1.15196E-19
 -1      8719 2.80934E-03 9.72026E-03 4.26905E-19
 -1      8720 2.78168E-03 1.03275E-02-6.50521E-19
 -1      8721 2.84128E-03 1.01428E-02 1.02999E-18
 -1      8722 2.82250E-03 1.07578E-02-1.17229E-18
 -1      8723 2.87981E-03 1.05704E-02 1.11131E-18
 -1      8724 2.87202E-03 1.11938E-02 9.08019E-19
 -1      8725 2.92593E-03 1.10031E-02 1.96512E-19
 -1      8726 2.98045E-03 1.14402E-02 2.23617E-19
 -1      8727 2.72155E-03 3.91989E-04-2.43945E-19
 -1      8728 2.78078E-03 1.96380E-04 2.91379E-19
 -1      8729 2.72165E-03 7.83987E-04 1.76183E-19
 -1      8730 2.78087E-03 5.89146E-04 1.69407E-19
 -1      8731 2.72184E-03 1.17600E-03 2.77827E-19
 -1      8732 2.78104E-03 9.81931E-04 1.21973E-19
 -1      8733 2.72213E-03 1.56805E-03-5.42101E-20
 -1      8734 2.78133E-03 1.37475E-03-1.15196E-19
 -1      8735 2.72254E-03 1.96014E-03-1.82959E-19
 -1      8736 2.78175E-03 1.76762E-03 1.08420E-19
 -1      8737 2.72311E-03 2.35230E-03-4.47233E-19
 -1      8738 2.78234E-03 2.16056E-03-2.84603E-19
 -1      8739 2.72388E-03 2.74456E-03 5.42101E-20
 -1      8740 2.78313E-03 2.55361E-03-6.77626E-20
 -1      8741 2.72490E-03 3.13695E-03 1.82959E-19
 -1      8742 2.78418E-03 2.94679E-03 3.38813E-20
 -1      8743 2.72622E-03 3.52952E-03 3.52366E-19
 -1      8744 2.78554E-03 3.34016E-03 4.06576E-19
 -1      8745 2.72792E-03 3.92233E-03 6.03087E-19
 -1      8746 2.78729E-03 3.73377E-03 7.38613E-19
 -1      8747 2.73006E-03 4.31545E-03 3.99800E-19
 -1      8748 2.78949E-03 4.12769E-03 6.16640E-19
 -1      8749 2.73273E-03 4.70899E-03 2.37169E-19
 -1      8750 2.79224E-03 4.52201E-03 1.03677E-18
 -1      8751 2.73604E-03 5.10304E-03 4.87891E-19
 -1      8752 2.79564E-03 4.91683E-03 1.42302E-19
 -1      8753 2.74009E-03 5.49776E-03-3.11708E-19
 -1      8754 2.79982E-03 5.31229E-03-2.50722E-19
 -1      8755 2.74503E-03 5.89331E-03 7.65718E-19
 -1      8756 2.80489E-03 5.70854E-03 5.28549E-19
 -1      8757 2.75101E-03 6.28989E-03 9.08019E-19
 -1      8758 2.81103E-03 6.10575E-03 6.97955E-19
 -1      8759 2.75821E-03 6.68774E-03 7.65718E-19
 -1      8760 2.81841E-03 6.50414E-03 1.07743E-18
 -1      8761 2.76688E-03 7.08713E-03 9.14796E-19
 -1      8762 2.82725E-03 6.90397E-03 1.23328E-18
 -1      8763 2.77727E-03 7.48838E-03 4.54010E-19
 -1      8764 2.83781E-03 7.30550E-03 8.87691E-19
 -1      8765 2.78973E-03 7.89185E-03 1.29427E-18
 -1      8766 2.85039E-03 7.70907E-03 5.69206E-19
 -1      8767 2.80465E-03 8.29793E-03 4.40457E-19
 -1      8768 2.86536E-03 8.11500E-03 1.08420E-18
 -1      8769 2.82253E-03 8.70705E-03 1.34848E-18
 -1      8770 2.88315E-03 8.52368E-03 1.04354E-18
 -1      8771 2.84397E-03 9.11965E-03 4.20128E-19
 -1      8772 2.90427E-03 8.93547E-03 5.55654E-19
 -1      8773 2.86965E-03 9.53613E-03 1.56532E-18
 -1      8774 2.92931E-03 9.35073E-03 1.27394E-18
 -1      8775 2.90036E-03 9.95685E-03 1.45690E-18
 -1      8776 2.95893E-03 9.76975E-03 1.42302E-18
 -1      8777 2.93694E-03 1.03820E-02 6.30193E-19
 -1      8778 2.99382E-03 1.01927E-02 9.62229E-19
 -1      8779 2.98020E-03 1.08116E-02 5.96311E-19
 -1      8780 3.03465E-03 1.06196E-02 8.74138E-19
 -1      8781 3.03081E-03 1.12452E-02 6.91179E-19
 -1      8782 3.08197E-03 1.10501E-02 2.71051E-19
 -1      8783 3.13602E-03 1.14836E-02 3.38813E-20
 -1      8784 2.84033E-03 3.93541E-04-2.23617E-19
 -1      8785 2.90007E-03 1.97161E-04 2.16840E-19
 -1      8786 2.84049E-03 7.87097E-04 1.62630E-19
 -1      8787 2.90019E-03 5.91493E-04 1.28749E-19
 -1      8788 2.84077E-03 1.18069E-03-1.08420E-19
 -1      8789 2.90044E-03 9.85853E-04 9.48677E-20
 -1      8790 2.84118E-03 1.57433E-03-1.28749E-19
 -1      8791 2.90084E-03 1.38026E-03-2.03288E-19
 -1      8792 2.84177E-03 1.96805E-03-5.42101E-20
 -1      8793 2.90141E-03 1.77475E-03 6.77626E-20
 -1      8794 2.84257E-03 2.36187E-03 2.71051E-20
 -1      8795 2.90220E-03 2.16934E-03 2.77827E-19
 -1      8796 2.84363E-03 2.75583E-03 9.48677E-20
 -1      8797 2.90326E-03 2.56407E-03 2.43945E-19
 -1      8798 2.84501E-03 3.14998E-03 1.15196E-19
 -1      8799 2.90464E-03 2.95899E-03-2.77827E-19
 -1      8800 2.84678E-03 3.54437E-03 5.55654E-19
 -1      8801 2.90640E-03 3.35413E-03 1.28749E-19
 -1      8802 2.84901E-03 3.93906E-03 1.76183E-19
 -1      8803 2.90864E-03 3.74957E-03 3.32037E-19
 -1      8804 2.85181E-03 4.33413E-03 9.41901E-19
 -1      8805 2.91144E-03 4.14537E-03 2.43945E-19
 -1      8806 2.85526E-03 4.72969E-03 4.13352E-19
 -1      8807 2.91491E-03 4.54164E-03 6.03087E-19
 -1      8808 2.85950E-03 5.12585E-03-4.54010E-19
 -1      8809 2.91917E-03 4.93847E-03-2.10064E-19
 -1      8810 2.86465E-03 5.52275E-03 2.16840E-19
 -1      8811 2.92435E-03 5.33599E-03-6.09864E-20
 -1      8812 2.87088E-03 5.92055E-03 4.67562E-19
 -1      8813 2.93061E-03 5.73436E-03 3.11708E-19
 -1      8814 2.87836E-03 6.31945E-03 8.13152E-19
 -1      8815 2.93812E-03 6.13373E-03 8.87691E-19
 -1      8816 2.88730E-03 6.71966E-03 2.16840E-19
 -1      8817 2.94708E-03 6.53431E-03 3.99800E-19
 -1      8818 2.89794E-03 7.12145E-03 6.30193E-19
 -1      8819 2.95773E-03 6.93632E-03 2.98156E-19
 -1      8820 2.91057E-03 7.52508E-03 6.23416E-19
 -1      8821 2.97032E-03 7.34001E-03 9.69006E-19
 -1      8822 2.92551E-03 7.93086E-03-2.43945E-19
 -1      8823 2.98517E-03 7.74564E-03 1.89735E-19
 -1      8824 2.94315E-03 8.33911E-03 7.11508E-19
 -1      8825 3.00260E-03 8.15349E-03-1.21973E-19
 -1      8826 2.96393E-03 8.75015E-03 1.04354E-18
 -1      8827 3.02302E-03 8.56384E-03 8.53809E-19
 -1      8828 2.98837E-03 9.16428E-03 1.35525E-20
 -1      8829 3.04686E-03 8.97695E-03 7.25060E-19
 -1      8830 3.01700E-03 9.58175E-03 4.74338E-19
 -1      8831 3.07459E-03 9.39303E-03-2.77827E-19
 -1      8832 3.05041E-03 1.00027E-02 0.00000E+00
 -1      8833 3.10670E-03 9.81221E-03 6.77626E-20
 -1      8834 3.08916E-03 1.04272E-02-2.03288E-20
 -1      8835 3.14363E-03 1.02345E-02-1.35525E-19
 -1      8836 3.13369E-03 1.08549E-02-1.28749E-19
 -1      8837 3.18577E-03 1.06597E-02-3.72694E-19
 -1      8838 3.18421E-03 1.12854E-02 2.23617E-19
 -1      8839 3.23328E-03 1.10875E-02 1.55854E-19
 -1      8840 3.28602E-03 1.15170E-02 6.77626E-19
 -1      8841 2.96014E-03 3.95111E-04-1.96512E-19
 -1      8842 3.02037E-03 1.97947E-04-2.84603E-19
 -1      8843 2.96035E-03 7.90243E-04 3.79471E-19
 -1      8844 3.02053E-03 5.93853E-04 1.08420E-19
 -1      8845 2.96072E-03 1.18542E-03 8.80914E-20
 -1      8846 3.02085E-03 9.89797E-04 5.96311E-19
 -1      8847 2.96127E-03 1.58067E-03 9.48677E-20
 -1      8848 3.02136E-03 1.38581E-03 3.52366E-19
 -1      8849 2.96204E-03 1.97602E-03 1.62630E-19
 -1      8850 3.02210E-03 1.78191E-03 3.11708E-19
 -1      8851 2.96308E-03 2.37151E-03 3.04932E-19
 -1      8852 3.02310E-03 2.17815E-03 2.57498E-19
 -1      8853 2.96443E-03 2.76718E-03 1.69407E-19
 -1      8854 3.02442E-03 2.57455E-03 6.77626E-21
 -1      8855 2.96618E-03 3.16306E-03-1.28749E-19
 -1      8856 3.02612E-03 2.97117E-03 3.25261E-19
 -1      8857 2.96840E-03 3.55923E-03 2.71051E-19
 -1      8858 3.02829E-03 3.36806E-03 2.37169E-19
 -1      8859 2.97118E-03 3.95575E-03 9.48677E-20
 -1      8860 3.03102E-03 3.76528E-03 6.57298E-19
 -1      8861 2.97462E-03 4.35271E-03 8.33480E-19
 -1      8862 3.03442E-03 4.16291E-03 8.19928E-19
 -1      8863 2.97886E-03 4.75019E-03-1.89735E-19
 -1      8864 3.03859E-03 4.56103E-03 3.72694E-19
 -1      8865 2.98401E-03 5.14832E-03 1.35525E-20
 -1      8866 3.04368E-03 4.95974E-03 5.42101E-20
 -1      8867 2.99025E-03 5.54722E-03 2.43945E-19
 -1      8868 3.04983E-03 5.35918E-03 1.62630E-19
 -1      8869 2.99772E-03 5.94705E-03-1.82959E-19
 -1      8870 3.05723E-03 5.75946E-03-1.55854E-19
 -1      8871 3.00665E-03 6.34799E-03 1.89735E-19
 -1      8872 3.06604E-03 6.16076E-03-2.10064E-19
 -1      8873 3.01723E-03 6.75023E-03-2.03288E-20
 -1      8874 3.07649E-03 6.56322E-03 2.91379E-19
 -1      8875 3.02972E-03 7.15398E-03 9.08019E-19
 -1      8876 3.08881E-03 6.96706E-03 3.38813E-19
 -1      8877 3.04439E-03 7.55948E-03 1.00966E-18
 -1      8878 3.10326E-03 7.37247E-03 1.00289E-18
 -1      8879 3.06157E-03 7.96698E-03 5.21772E-19
 -1      8880 3.12013E-03 7.77966E-03 5.14996E-19
 -1      8881 3.08159E-03 8.37670E-03 6.43745E-19
 -1      8882 3.13972E-03 8.18884E-03 8.33480E-19
 -1      8883 3.10485E-03 8.78888E-03 6.03087E-19
 -1      8884 3.16238E-03 8.60020E-03 2.71051E-20
 -1      8885 3.13173E-03 9.20371E-03 3.65918E-19
 -1      8886 3.18845E-03 9.01391E-03 1.76183E-19
 -1      8887 3.16265E-03 9.62129E-03 1.62630E-19
 -1      8888 3.21829E-03 9.43007E-03 4.47233E-19
 -1      8889 3.19800E-03 1.00416E-02 6.77626E-20
 -1      8890 3.25221E-03 9.84869E-03-1.28749E-19
 -1      8891 3.23807E-03 1.04646E-02 2.03288E-19
 -1      8892 3.29047E-03 1.02697E-02-7.45389E-20
 -1      8893 3.28300E-03 1.08899E-02 6.09864E-19
 -1      8894 3.33317E-03 1.06927E-02 8.60585E-19
 -1      8895 3.33269E-03 1.13169E-02 5.89535E-19
 -1      8896 3.38023E-03 1.11174E-02 3.38813E-19
 -1      8897 3.43122E-03 1.15430E-02-2.64274E-19
 -1      8898 3.08097E-03 3.96681E-04 1.35525E-19
 -1      8899 3.14168E-03 1.98728E-04 4.47233E-19
 -1      8900 3.08123E-03 7.93389E-04 3.52366E-19
 -1      8901 3.14187E-03 5.96200E-04 4.74338E-20
 -1      8902 3.08169E-03 1.19016E-03-1.35525E-19
 -1      8903 3.14227E-03 9.93718E-04-2.10064E-19
 -1      8904 3.08238E-03 1.58701E-03 6.77626E-21
 -1      8905 3.14290E-03 1.39131E-03-3.04932E-19
 -1      8906 3.08333E-03 1.98398E-03 3.11708E-19
 -1      8907 3.14378E-03 1.78902E-03 1.55854E-19
 -1      8908 3.08460E-03 2.38112E-03 1.49078E-19
 -1      8909 3.14499E-03 2.18688E-03 8.80914E-20
 -1      8910 3.08625E-03 2.77846E-03 7.45389E-19
 -1      8911 3.14656E-03 2.58493E-03 1.76183E-19
 -1      8912 3.08835E-03 3.17605E-03 5.42101E-20
 -1      8913 3.14859E-03 2.98322E-03 2.64274E-19
 -1      8914 3.09101E-03 3.57396E-03 6.09864E-20
 -1      8915 3.15115E-03 3.38181E-03-5.35325E-19
 -1      8916 3.09432E-03 3.97225E-03 3.99800E-19
 -1      8917 3.15436E-03 3.78075E-03-3.18484E-19
 -1      8918 3.09840E-03 4.37100E-03 4.94667E-19
 -1      8919 3.15831E-03 4.18013E-03-2.64274E-19
 -1      8920 3.10338E-03 4.77030E-03 1.62630E-19
 -1      8921 3.16315E-03 4.58001E-03 7.45389E-20
 -1      8922 3.10942E-03 5.17027E-03-1.01644E-19
 -1      8923 3.16903E-03 4.98050E-03-6.77626E-21
 -1      8924 3.11667E-03 5.57100E-03-2.03288E-20
 -1      8925 3.17610E-03 5.38170E-03-3.52366E-19
 -1      8926 3.12532E-03 5.97266E-03-6.09864E-19
 -1      8927 3.18454E-03 5.78373E-03-4.06576E-20
 -1      8928 3.13558E-03 6.37538E-03 6.16640E-19
 -1      8929 3.19455E-03 6.18672E-03 1.08420E-19
 -1      8930 3.14767E-03 6.77932E-03 4.60786E-19
 -1      8931 3.20635E-03 6.59081E-03 4.40457E-19
 -1      8932 3.16183E-03 7.18468E-03 7.79270E-19
 -1      8933 3.22017E-03 6.99616E-03 3.11708E-19
 -1      8934 3.17833E-03 7.59162E-03 2.23617E-19
 -1      8935 3.23626E-03 7.40293E-03 3.72694E-19
 -1      8936 3.19746E-03 8.00034E-03-1.35525E-20
 -1      8937 3.25488E-03 7.81126E-03 4.54010E-19
 -1      8938 3.21951E-03 8.41099E-03 5.55654E-19
 -1      8939 3.27630E-03 8.22131E-03-2.03288E-19
 -1      8940 3.24479E-03 8.82372E-03-2.37169E-19
 -1      8941 3.30081E-03 8.63319E-03 6.36969E-19
 -1      8942 3.27361E-03 9.23862E-03-6.77626E-20
 -1      8943 3.32866E-03 9.04699E-03-4.60786E-19
 -1      8944 3.30624E-03 9.65570E-03-3.25261E-19
 -1      8945 3.36009E-03 9.46272E-03-3.38813E-19
 -1      8946 3.34289E-03 1.00749E-02-6.97955E-19
 -1      8947 3.39528E-03 9.88032E-03-1.03677E-18
 -1      8948 3.38364E-03 1.04959E-02 3.38813E-19
 -1      8949 3.43430E-03 1.02996E-02-3.86247E-19
 -1      8950 3.42841E-03 1.09185E-02-5.96311E-19
 -1      8951 3.47706E-03 1.07203E-02-3.45589E-19
 -1      8952 3.47686E-03 1.13420E-02-6.03087E-19
 -1      8953 3.52329E-03 1.11419E-02-1.71439E-18
 -1      8954 3.57237E-03 1.15638E-02-2.57498E-19
 -1      8955 3.20279E-03 3.98233E-04 4.13352E-19
 -1      8956 3.26397E-03 1.99496E-04-6.77626E-21
 -1      8957 3.20310E-03 7.96499E-04-3.38813E-20
 -1      8958 3.26420E-03 5.98507E-04 2.64274E-19
 -1      8959 3.20366E-03 1.19483E-03-2.16840E-19
 -1      8960 3.26467E-03 9.97570E-04-1.55854E-19
 -1      8961 3.20447E-03 1.59327E-03 1.28749E-19
 -1      8962 3.26540E-03 1.39672E-03 1.35525E-19
 -1      8963 3.20560E-03 1.99184E-03-7.45389E-20
 -1      8964 3.26644E-03 1.79600E-03 8.80914E-20
 -1      8965 3.20709E-03 2.39059E-03-2.03288E-20
 -1      8966 3.26783E-03 2.19545E-03-8.80914E-20
 -1      8967 3.20902E-03 2.78957E-03-1.35525E-20
 -1      8968 3.26965E-03 2.59511E-03-3.52366E-19
 -1      8969 3.21147E-03 3.18883E-03-2.91379E-19
 -1      8970 3.27198E-03 2.99503E-03-3.86247E-19
 -1      8971 3.21455E-03 3.58842E-03-3.04932E-19
 -1      8972 3.27491E-03 3.39526E-03 2.71051E-20
 -1      8973 3.21836E-03 3.98841E-03 0.00000E+00
 -1      8974 3.27855E-03 3.79587E-03 2.98156E-19
 -1      8975 3.22303E-03 4.38888E-03-4.67562E-19
 -1      8976 3.28303E-03 4.19691E-03 3.93023E-19
 -1      8977 3.22871E-03 4.78990E-03 3.45589E-19
 -1      8978 3.28849E-03 4.59847E-03 1.42302E-19
 -1      8979 3.23555E-03 5.19157E-03-4.33681E-19
 -1      8980 3.29508E-03 5.00062E-03 3.38813E-19
 -1      8981 3.24374E-03 5.59399E-03 2.23617E-19
 -1      8982 3.30298E-03 5.40346E-03 1.49078E-19
 -1      8983 3.25346E-03 5.99728E-03 1.42302E-19
 -1      8984 3.31237E-03 5.80707E-03 9.35124E-19
 -1      8985 3.26493E-03 6.40156E-03-1.08420E-19
 -1      8986 3.32345E-03 6.21158E-03 5.42101E-19
 -1      8987 3.27835E-03 6.80696E-03 4.74338E-20
 -1      8988 3.33644E-03 6.61708E-03-8.33480E-19
 -1      8989 3.29398E-03 7.21361E-03 5.14996E-19
 -1      8990 3.35156E-03 7.02370E-03 0.00000E+00
 -1      8991 3.31205E-03 7.62165E-03 2.71051E-19
 -1      8992 3.36905E-03 7.43154E-03 4.06576E-19
 -1      8993 3.33282E-03 8.03121E-03 2.77827E-19
 -1      8994 3.38914E-03 7.84072E-03 6.57298E-19
 -1      8995 3.35655E-03 8.44238E-03 8.80914E-20
 -1      8996 3.41207E-03 8.25131E-03 4.40457E-19
 -1      8997 3.38346E-03 8.85524E-03 4.06576E-20
 -1      8998 3.43805E-03 8.66337E-03 2.43945E-19
 -1      8999 3.41376E-03 9.26979E-03-3.79471E-19
 -1      9000 3.46728E-03 9.07692E-03 2.37169E-19
 -1      9001 3.44761E-03 9.68599E-03-6.77626E-21
 -1      9002 3.49987E-03 9.49191E-03-3.11708E-19
 -1      9003 3.48506E-03 1.01037E-02 6.43745E-19
 -1      9004 3.53588E-03 9.90823E-03 1.14519E-18
 -1      9005 3.52605E-03 1.05226E-02 2.16840E-19
 -1      9006 3.57526E-03 1.03257E-02 6.09864E-19
 -1      9007 3.57031E-03 1.09425E-02 1.35525E-19
 -1      9008 3.61776E-03 1.07439E-02 9.75782E-19
 -1      9009 3.61734E-03 1.13627E-02-9.01243E-19
 -1      9010 3.66297E-03 1.11625E-02 6.09864E-19
 -1      9011 3.71018E-03 1.15810E-02 5.48877E-19
 -1      9012 3.32557E-03 3.99750E-04 5.42101E-20
 -1      9013 3.38721E-03 2.00243E-04 1.49078E-19
 -1      9014 3.32594E-03 7.99538E-04 1.62630E-19
 -1      9015 3.38747E-03 6.00747E-04-2.10064E-19
 -1      9016 3.32657E-03 1.19940E-03 4.06576E-20
 -1      9017 3.38800E-03 1.00131E-03 2.37169E-19
 -1      9018 3.32751E-03 1.59938E-03 1.21973E-19
 -1      9019 3.38883E-03 1.40198E-03 8.13152E-20
 -1      9020 3.32880E-03 1.99951E-03 1.21973E-19
 -1      9021 3.39001E-03 1.80278E-03 1.01644E-19
 -1      9022 3.33051E-03 2.39984E-03-3.38813E-20
 -1      9023 3.39158E-03 2.20377E-03 8.13152E-20
 -1      9024 3.33270E-03 2.80041E-03-4.74338E-20
 -1      9025 3.39363E-03 2.60499E-03 3.25261E-19
 -1      9026 3.33547E-03 3.20128E-03 5.14996E-19
 -1      9027 3.39624E-03 3.00648E-03 7.52165E-19
 -1      9028 3.33893E-03 3.60250E-03 5.42101E-20
 -1      9029 3.39950E-03 3.40830E-03 3.99800E-19
 -1      9030 3.34320E-03 4.00412E-03 2.77827E-19
 -1      9031 3.40355E-03 3.81051E-03-1.42302E-19
 -1      9032 3.34841E-03 4.40622E-03 1.69407E-19
 -1      9033 3.40850E-03 4.21315E-03 1.62630E-19
 -1      9034 3.35472E-03 4.80887E-03 6.50521E-19
 -1      9035 3.41450E-03 4.61630E-03 3.59142E-19
 -1      9036 3.36229E-03 5.21214E-03 1.35525E-19
 -1      9037 3.42173E-03 5.02003E-03 3.38813E-19
 -1      9038 3.37131E-03 5.61611E-03 8.33480E-19
 -1      9039 3.43035E-03 5.42439E-03-2.03288E-20
 -1      9040 3.38197E-03 6.02089E-03 3.18484E-19
 -1      9041 3.44056E-03 5.82948E-03-8.13152E-20
 -1      9042 3.39448E-03 6.42655E-03 1.62630E-19
 -1      9043 3.45256E-03 6.23536E-03-3.65918E-19
 -1      9044 3.40906E-03 6.83321E-03-4.13352E-19
 -1      9045 3.46656E-03 6.64212E-03 6.09864E-20
 -1      9046 3.42593E-03 7.24094E-03 1.11808E-18
 -1      9047 3.48277E-03 7.04984E-03-3.18484E-19
 -1      9048 3.44532E-03 7.64984E-03-3.25261E-19
 -1      9049 3.50142E-03 7.45857E-03-5.48877E-19
 -1      9050 3.46744E-03 8.05997E-03 8.94467E-19
 -1      9051 3.52272E-03 7.86838E-03-6.84403E-19
 -1      9052 3.49250E-03 8.47139E-03 5.62430E-19
 -1      9053 3.54684E-03 8.27930E-03 9.48677E-20
 -1      9054 3.52066E-03 8.88410E-03-1.82959E-19
 -1      9055 3.57397E-03 8.69133E-03-4.60786E-19
 -1      9056 3.55206E-03 9.29806E-03 7.45389E-20
 -1      9057 3.60421E-03 9.10444E-03-2.37169E-19
 -1      9058 3.58673E-03 9.71318E-03-2.57498E-19
 -1      9059 3.63760E-03 9.51855E-03 1.55854E-19
 -1      9060 3.62463E-03 1.01293E-02 8.94467E-19
 -1      9061 3.67411E-03 9.93349E-03-1.08420E-19
 -1      9062 3.66554E-03 1.05461E-02 1.15196E-19
 -1      9063 3.71356E-03 1.03490E-02-7.11508E-19
 -1      9064 3.70910E-03 1.09632E-02 6.57298E-19
 -1      9065 3.75562E-03 1.07649E-02 1.42302E-19
 -1      9066 3.75471E-03 1.13803E-02 1.96512E-19
 -1      9067 3.79976E-03 1.11807E-02 6.43745E-19
 -1      9068 3.84524E-03 1.15961E-02-3.38813E-19
 -1      9069 3.44927E-03 4.01214E-04-7.45389E-20
 -1      9070 3.51134E-03 2.00958E-04 5.42101E-20
 -1      9071 3.44968E-03 8.02470E-04 1.35525E-19
 -1      9072 3.51163E-03 6.02895E-04 3.86247E-19
 -1      9073 3.45040E-03 1.20381E-03 1.96512E-19
 -1      9074 3.51222E-03 1.00490E-03 2.10064E-19
 -1      9075 3.45145E-03 1.60528E-03-6.77626E-21
 -1      9076 3.51315E-03 1.40701E-03 3.32037E-19
 -1      9077 3.45290E-03 2.00691E-03 1.15196E-19
 -1      9078 3.51445E-03 1.80928E-03-3.52366E-19
 -1      9079 3.45479E-03 2.40876E-03 6.77626E-21
 -1      9080 3.51619E-03 2.21175E-03 1.55854E-19
 -1      9081 3.45722E-03 2.81087E-03 5.82759E-19
 -1      9082 3.51844E-03 2.61446E-03-1.35525E-20
 -1      9083 3.46029E-03 3.21329E-03 4.94667E-19
 -1      9084 3.52130E-03 3.01747E-03 1.01644E-19
 -1      9085 3.46409E-03 3.61607E-03 3.65918E-19
 -1      9086 3.52486E-03 3.42082E-03-1.49078E-19
 -1      9087 3.46877E-03 4.01927E-03-6.77626E-21
 -1      9088 3.52926E-03 3.82456E-03 4.06576E-20
 -1      9089 3.47446E-03 4.42293E-03 4.20128E-19
 -1      9090 3.53462E-03 4.22875E-03 2.98156E-19
 -1      9091 3.48132E-03 4.82713E-03 2.43945E-19
 -1      9092 3.54110E-03 4.63342E-03 1.89735E-19
 -1      9093 3.48952E-03 5.23191E-03 8.13152E-20
 -1      9094 3.54887E-03 5.03865E-03-1.15196E-19
 -1      9095 3.49926E-03 5.63735E-03 3.11708E-19
 -1      9096 3.55811E-03 5.44447E-03 1.42302E-19
 -1      9097 3.51072E-03 6.04350E-03-1.08420E-19
 -1      9098 3.56901E-03 5.85095E-03 7.45389E-20
 -1      9099 3.52411E-03 6.45044E-03-3.72694E-19
 -1      9100 3.58177E-03 6.25813E-03-1.35525E-19
 -1      9101 3.53964E-03 6.85822E-03-4.74338E-19
 -1      9102 3.59660E-03 6.66605E-03-7.79270E-19
 -1      9103 3.55753E-03 7.26689E-03-2.64274E-19
 -1      9104 3.61370E-03 7.07477E-03-4.94667E-19
 -1      9105 3.57797E-03 7.67649E-03 2.84603E-19
 -1      9106 3.63328E-03 7.48429E-03 6.16640E-19
 -1      9107 3.60116E-03 8.08706E-03 7.72494E-19
 -1      9108 3.65550E-03 7.89464E-03 3.38813E-19
 -1      9109 3.62724E-03 8.49858E-03 5.62430E-19
 -1      9110 3.68055E-03 8.30580E-03 1.62630E-19
 -1      9111 3.65634E-03 8.91101E-03 2.16840E-19
 -1      9112 3.70851E-03 8.71773E-03 3.93023E-19
 -1      9113 3.68850E-03 9.32429E-03 1.28749E-19
 -1      9114 3.73946E-03 9.13035E-03-9.55453E-19
 -1      9115 3.72369E-03 9.73826E-03 5.48877E-19
 -1      9116 3.77337E-03 9.54355E-03-3.18484E-19
 -1      9117 3.76176E-03 1.01528E-02 8.26704E-19
 -1      9118 3.81012E-03 9.95715E-03 8.53809E-19
 -1      9119 3.80242E-03 1.05675E-02-3.32037E-19
 -1      9120 3.84946E-03 1.03709E-02-6.09864E-19
 -1      9121 3.84521E-03 1.09822E-02-1.21973E-19
 -1      9122 3.89097E-03 1.07846E-02-7.18284E-19
 -1      9123 3.88948E-03 1.13964E-02 4.13352E-19
 -1      9124 3.93409E-03 1.11979E-02 2.23617E-19
 -1      9125 3.97804E-03 1.16104E-02 8.40257E-19
 -1      9126 3.57383E-03 4.02607E-04-5.42101E-20
 -1      9127 3.63630E-03 2.01632E-04-5.14996E-19
 -1      9128 3.57429E-03 8.05260E-04 2.91379E-19
 -1      9129 3.63662E-03 6.04920E-04-2.91379E-19
 -1      9130 3.57508E-03 1.20801E-03 2.84603E-19
 -1      9131 3.63727E-03 1.00828E-03 6.77626E-20
 -1      9132 3.57624E-03 1.61089E-03-3.18484E-19
 -1      9133 3.63828E-03 1.41177E-03-2.64274E-19
 -1      9134 3.57782E-03 2.01396E-03-3.38813E-19
 -1      9135 3.63970E-03 1.81542E-03-3.32037E-19
 -1      9136 3.57989E-03 2.41727E-03-2.23617E-19
 -1      9137 3.64159E-03 2.21930E-03-2.98156E-19
 -1      9138 3.58254E-03 2.82085E-03 4.06576E-19
 -1      9139 3.64402E-03 2.62344E-03 1.01644E-19
 -1      9140 3.58586E-03 3.22476E-03-4.06576E-20
 -1      9141 3.64710E-03 3.02789E-03 2.77827E-19
 -1      9142 3.58997E-03 3.62904E-03 6.09864E-20
 -1      9143 3.65092E-03 3.43271E-03 2.77827E-19
 -1      9144 3.59500E-03 4.03375E-03-9.48677E-20
 -1      9145 3.65562E-03 3.83793E-03 1.35525E-19
 -1      9146 3.60110E-03 4.43892E-03 9.48677E-20
 -1      9147 3.66134E-03 4.24359E-03 1.89735E-19
 -1      9148 3.60843E-03 4.84460E-03-6.77626E-20
 -1      9149 3.66822E-03 4.64975E-03 2.03288E-19
 -1      9150 3.61716E-03 5.25084E-03-1.14519E-18
 -1      9151 3.67645E-03 5.05643E-03-5.08220E-19
 -1      9152 3.62749E-03 5.65768E-03 4.74338E-20
 -1      9153 3.68619E-03 5.46367E-03-4.13352E-19
 -1      9154 3.63960E-03 6.06516E-03-6.23416E-19
 -1      9155 3.69765E-03 5.87150E-03 3.65918E-19
 -1      9156 3.65371E-03 6.47331E-03-5.35325E-19
 -1      9157 3.71102E-03 6.27995E-03-3.65918E-19
 -1      9158 3.67001E-03 6.88216E-03-3.25261E-19
 -1      9159 3.72650E-03 6.68901E-03-3.04932E-19
 -1      9160 3.68869E-03 7.29171E-03 1.89735E-19
 -1      9161 3.74429E-03 7.09871E-03 1.02999E-18
 -1      9162 3.70995E-03 7.70198E-03 2.91379E-19
 -1      9163 3.76457E-03 7.50902E-03 4.33681E-19
 -1      9164 3.73394E-03 8.11293E-03-2.98156E-19
 -1      9165 3.78749E-03 7.91991E-03 1.28749E-18
 -1      9166 3.76077E-03 8.52453E-03 4.74338E-19
 -1      9167 3.81318E-03 8.33134E-03 9.35124E-19
 -1      9168 3.79052E-03 8.93669E-03-4.54010E-19
 -1      9169 3.84173E-03 8.74321E-03 8.80914E-19
 -1      9170 3.82318E-03 9.34929E-03-6.77626E-19
 -1      9171 3.87314E-03 9.15542E-03 7.52165E-19
 -1      9172 3.85864E-03 9.76220E-03-5.62430E-19
 -1      9173 3.90733E-03 9.56782E-03-3.65918E-19
 -1      9174 3.89669E-03 1.01752E-02-1.35525E-20
 -1      9175 3.94413E-03 9.98022E-03-2.91379E-19
 -1      9176 3.93699E-03 1.05880E-02 3.38813E-20
 -1      9177 3.98323E-03 1.03924E-02 1.96512E-19
 -1      9178 3.97901E-03 1.10005E-02-7.79270E-19
 -1      9179 4.02417E-03 1.08041E-02 3.99800E-19
 -1      9180 4.02206E-03 1.14121E-02 6.91179E-19
 -1      9181 4.06634E-03 1.12151E-02 8.33480E-19
 -1      9182 4.10896E-03 1.16250E-02 2.00577E-18
 -1      9183 3.69920E-03 4.03908E-04-1.49078E-19
 -1      9184 3.76203E-03 2.02255E-04-2.10064E-19
 -1      9185 3.69970E-03 8.07868E-04 3.25261E-19
 -1      9186 3.76237E-03 6.06794E-04 6.57298E-19
 -1      9187 3.70056E-03 1.21193E-03-8.13152E-20
 -1      9188 3.76307E-03 1.01141E-03-3.38813E-20
 -1      9189 3.70181E-03 1.61615E-03 5.62430E-19
 -1      9190 3.76416E-03 1.41617E-03 2.30393E-19
 -1      9191 3.70352E-03 2.02057E-03-3.52366E-19
 -1      9192 3.76569E-03 1.82112E-03 2.37169E-19
 -1      9193 3.70574E-03 2.42525E-03 1.55854E-19
 -1      9194 3.76771E-03 2.22631E-03 1.96512E-19
 -1      9195 3.70858E-03 2.83023E-03 3.59142E-19
 -1      9196 3.77031E-03 2.63180E-03 3.59142E-19
 -1      9197 3.71212E-03 3.23557E-03 3.93023E-19
 -1      9198 3.77358E-03 3.03763E-03 1.96512E-19
 -1      9199 3.71650E-03 3.64129E-03 1.89735E-19
 -1      9200 3.77763E-03 3.44384E-03-2.77827E-19
 -1      9201 3.72183E-03 4.04745E-03 8.13152E-20
 -1      9202 3.78259E-03 3.85048E-03 1.35525E-19
 -1      9203 3.72827E-03 4.45408E-03 3.79471E-19
 -1      9204 3.78860E-03 4.25758E-03 3.11708E-19
 -1      9205 3.73599E-03 4.86122E-03 1.96512E-19
 -1      9206 3.79582E-03 4.66518E-03 3.72694E-19
 -1      9207 3.74516E-03 5.26889E-03-8.60585E-19
 -1      9208 3.80441E-03 5.07330E-03-7.38613E-19
 -1      9209 3.75596E-03 5.67711E-03 1.82959E-19
 -1      9210 3.81456E-03 5.48195E-03-6.50521E-19
 -1      9211 3.76859E-03 6.08591E-03-2.03288E-20
 -1      9212 3.82646E-03 5.89115E-03-1.49078E-19
 -1      9213 3.78325E-03 6.49528E-03 3.79471E-19
 -1      9214 3.84030E-03 6.30088E-03 2.37169E-19
 -1      9215 3.80013E-03 6.90521E-03 3.25261E-19
 -1      9216 3.85627E-03 6.71114E-03 2.03288E-20
 -1      9217 3.81941E-03 7.31568E-03 7.65718E-19
 -1      9218 3.87456E-03 7.12188E-03 4.06576E-20
 -1      9219 3.84126E-03 7.72666E-03-1.08420E-19
 -1      9220 3.89533E-03 7.53307E-03 1.15196E-19
 -1      9221 3.86581E-03 8.13807E-03 1.63308E-18
 -1      9222 3.91873E-03 7.94462E-03-8.13152E-20
 -1      9223 3.89315E-03 8.54983E-03 1.62630E-19
 -1      9224 3.94485E-03 8.35644E-03 1.47723E-18
 -1      9225 3.92331E-03 8.96183E-03-6.23416E-19
 -1      9226 3.97375E-03 8.76842E-03-8.80914E-19
 -1      9227 3.95623E-03 9.37392E-03 5.42101E-20
 -1      9228 4.00540E-03 9.18041E-03-1.12486E-18
 -1      9229 3.99178E-03 9.78593E-03 1.28749E-19
 -1      9230 4.03968E-03 9.59222E-03 6.50521E-19
 -1      9231 4.02968E-03 1.01976E-02 2.71051E-20
 -1      9232 4.07638E-03 1.00037E-02-6.09864E-19
 -1      9233 4.06955E-03 1.06088E-02 6.03087E-19
 -1      9234 4.11515E-03 1.04145E-02-3.38813E-19
 -1      9235 4.11083E-03 1.10192E-02-4.40457E-19
 -1      9236 4.15551E-03 1.08245E-02-4.54010E-19
 -1      9237 4.15282E-03 1.14286E-02 1.56532E-18
 -1      9238 4.19683E-03 1.12335E-02-7.18284E-19
 -1      9239 4.23833E-03 1.16411E-02 1.42302E-18
 -1      9240 3.82529E-03 4.05096E-04 5.01444E-19
 -1      9241 3.88843E-03 2.02817E-04 2.16840E-19
 -1      9242 3.82582E-03 8.10252E-04 3.72694E-19
 -1      9243 3.88880E-03 6.08481E-04-4.06576E-20
 -1      9244 3.82674E-03 1.21552E-03-1.96512E-19
 -1      9245 3.88955E-03 1.01424E-03 1.21973E-19
 -1      9246 3.82809E-03 1.62097E-03 3.52366E-19
 -1      9247 3.89071E-03 1.42016E-03 2.71051E-19
 -1      9248 3.82991E-03 2.02665E-03-2.03288E-20
 -1      9249 3.89233E-03 1.82629E-03 1.15196E-19
 -1      9250 3.83228E-03 2.43261E-03-1.42302E-19
 -1      9251 3.89448E-03 2.23269E-03-3.38813E-20
 -1      9252 3.83528E-03 2.83891E-03 3.52366E-19
 -1      9253 3.89723E-03 2.63943E-03 3.11708E-19
 -1      9254 3.83902E-03 3.24558E-03-1.15196E-19
 -1      9255 3.90067E-03 3.04654E-03 3.45589E-19
 -1      9256 3.84362E-03 3.65269E-03 3.72694E-19
 -1      9257 3.90492E-03 3.45408E-03 4.81115E-19
 -1      9258 3.84921E-03 4.06025E-03 1.35525E-19
 -1      9259 3.91011E-03 3.86208E-03 2.77827E-19
 -1      9260 3.85594E-03 4.46831E-03 3.52366E-19
 -1      9261 3.91637E-03 4.27058E-03-8.80914E-20
 -1      9262 3.86398E-03 4.87688E-03-5.21772E-19
 -1      9263 3.92386E-03 4.67960E-03-1.62630E-19
 -1      9264 3.87349E-03 5.28598E-03-3.11708E-19
 -1      9265 3.93276E-03 5.08916E-03-1.35525E-19
 -1      9266 3.88466E-03 5.69561E-03 2.71051E-20
 -1      9267 3.94322E-03 5.49925E-03 3.04932E-19
 -1      9268 3.89769E-03 6.10577E-03 8.06375E-19
 -1      9269 3.95546E-03 5.90987E-03 9.75782E-19
 -1      9270 3.91276E-03 6.51642E-03-4.47233E-19
 -1      9271 3.96964E-03 6.32098E-03 5.42101E-19
 -1      9272 3.93005E-03 6.92753E-03 3.25261E-19
 -1      9273 3.98595E-03 6.73254E-03 1.96512E-19
 -1      9274 3.94975E-03 7.33905E-03 1.26039E-18
 -1      9275 4.00458E-03 7.14448E-03 7.11508E-19
 -1      9276 3.97199E-03 7.75088E-03 1.00289E-18
 -1      9277 4.02568E-03 7.55672E-03 9.41901E-19
 -1      9278 3.99690E-03 8.16293E-03 6.16640E-19
 -1      9279 4.04936E-03 7.96915E-03 3.72694E-19
 -1      9280 4.02453E-03 8.57507E-03 5.82759E-19
 -1      9281 4.07572E-03 8.38163E-03 3.52366E-19
 -1      9282 4.05489E-03 8.98715E-03-1.19262E-18
 -1      9283 4.10477E-03 8.79400E-03 1.01644E-18
 -1      9284 4.08789E-03 9.39898E-03 7.45389E-20
 -1      9285 4.13648E-03 9.20607E-03 2.57498E-19
 -1      9286 4.12336E-03 9.81038E-03 1.89735E-19
 -1      9287 4.17069E-03 9.61764E-03 4.40457E-19
 -1      9288 4.16101E-03 1.02211E-02-1.40269E-18
 -1      9289 4.20717E-03 1.00285E-02-2.77827E-19
 -1      9290 4.20041E-03 1.06309E-02-1.55854E-19
 -1      9291 4.24555E-03 1.04383E-02-5.82759E-19
 -1      9292 4.24099E-03 1.10396E-02-4.81115E-19
 -1      9293 4.28533E-03 1.08470E-02 4.13352E-19
 -1      9294 4.28206E-03 1.14469E-02 7.04731E-19
 -1      9295 4.32586E-03 1.12542E-02 4.40457E-19
 -1      9296 4.36639E-03 1.16597E-02 3.79471E-19
 -1      9297 3.95200E-03 4.06148E-04-2.03288E-19
 -1      9298 4.01541E-03 2.03303E-04-4.13352E-19
 -1      9299 3.95257E-03 8.12364E-04 3.18484E-19
 -1      9300 4.01580E-03 6.09944E-04 0.00000E+00
 -1      9301 3.95355E-03 1.21871E-03 3.04932E-19
 -1      9302 4.01660E-03 1.01669E-03 4.74338E-19
 -1      9303 3.95498E-03 1.62526E-03-3.79471E-19
 -1      9304 4.01783E-03 1.42363E-03-2.03288E-20
 -1      9305 3.95691E-03 2.03208E-03-2.10064E-19
 -1      9306 4.01955E-03 1.83080E-03-3.04932E-19
 -1      9307 3.95941E-03 2.43921E-03-5.35325E-19
 -1      9308 4.02182E-03 2.23830E-03-1.96512E-19
 -1      9309 3.96257E-03 2.84672E-03 2.91379E-19
 -1      9310 4.02471E-03 2.64617E-03-2.98156E-19
 -1      9311 3.96649E-03 3.25466E-03-2.64274E-19
 -1      9312 4.02832E-03 3.05447E-03-1.69407E-19
 -1      9313 3.97129E-03 3.66308E-03-6.70850E-19
 -1      9314 4.03275E-03 3.46325E-03-7.58942E-19
 -1      9315 3.97711E-03 4.07200E-03-3.18484E-19
 -1      9316 4.03814E-03 3.87256E-03-3.93023E-19
 -1      9317 3.98408E-03 4.48145E-03-9.48677E-20
 -1      9318 4.04463E-03 4.28242E-03 3.38813E-20
 -1      9319 3.99238E-03 4.89146E-03-1.09775E-18
 -1      9320 4.05235E-03 4.69286E-03-7.86047E-19
 -1      9321 4.00216E-03 5.30202E-03 1.62630E-19
 -1      9322 4.06149E-03 5.10387E-03-2.16840E-19
 -1      9323 4.01362E-03 5.71312E-03 6.84403E-19
 -1      9324 4.07221E-03 5.51546E-03 9.48677E-20
 -1      9325 4.02694E-03 6.12473E-03 6.36969E-19
 -1      9326 4.08470E-03 5.92759E-03 1.55854E-19
 -1      9327 4.04230E-03 6.53680E-03-1.76183E-19
 -1      9328 4.09913E-03 6.34022E-03 1.55854E-19
 -1      9329 4.05988E-03 6.94926E-03-5.08220E-19
 -1      9330 4.11568E-03 6.75327E-03 1.69407E-19
 -1      9331 4.07983E-03 7.36202E-03 5.35325E-19
 -1      9332 4.13452E-03 7.16665E-03-8.80914E-20
 -1      9333 4.10230E-03 7.77497E-03 3.52366E-19
 -1      9334 4.15579E-03 7.58023E-03-1.21973E-19
 -1      9335 4.12739E-03 8.18795E-03-6.77626E-20
 -1      9336 4.17961E-03 7.99386E-03 1.76183E-19
 -1      9337 4.15513E-03 8.60080E-03 9.48677E-20
 -1      9338 4.20604E-03 8.40736E-03-1.15196E-19
 -1      9339 4.18551E-03 9.01331E-03 1.69407E-19
 -1      9340 4.23509E-03 8.82054E-03-1.35525E-19
 -1      9341 4.21844E-03 9.42529E-03-4.60786E-19
 -1      9342 4.26669E-03 9.23314E-03-6.77626E-20
 -1      9343 4.25371E-03 9.83647E-03 8.74138E-19
 -1      9344 4.30070E-03 9.64493E-03 1.35525E-20
 -1      9345 4.29100E-03 1.02466E-02-1.39591E-18
 -1      9346 4.33684E-03 1.00556E-02 1.15196E-19
 -1      9347 4.32989E-03 1.06555E-02-2.43945E-19
 -1      9348 4.37475E-03 1.04650E-02-4.06576E-20
 -1      9349 4.36980E-03 1.10628E-02 8.60585E-19
 -1      9350 4.41392E-03 1.08727E-02 5.42101E-19
 -1      9351 4.41002E-03 1.14684E-02 7.72494E-19
 -1      9352 4.45371E-03 1.12785E-02 1.16552E-18
 -1      9353 4.49337E-03 1.16823E-02 1.63308E-18
 -1      9354 4.07923E-03 4.07036E-04-1.82959E-19
 -1      9355 4.14284E-03 2.03699E-04 4.54010E-19
 -1      9356 4.07984E-03 8.14151E-04 2.03288E-19
 -1      9357 4.14326E-03 6.11140E-04 1.82959E-19
 -1      9358 4.08088E-03 1.22142E-03 1.42302E-19
 -1      9359 4.14411E-03 1.01871E-03-3.45589E-19
 -1      9360 4.08240E-03 1.62892E-03-2.30393E-19
 -1      9361 4.14542E-03 1.42648E-03-4.20128E-19
 -1      9362 4.08443E-03 2.03673E-03-1.42302E-19
 -1      9363 4.14724E-03 1.83455E-03-6.77626E-20
 -1      9364 4.08707E-03 2.44490E-03-8.13152E-20
 -1      9365 4.14963E-03 2.24298E-03-1.21973E-19
 -1      9366 4.09038E-03 2.85352E-03-2.98156E-19
 -1      9367 4.15266E-03 2.65185E-03 6.09864E-20
 -1      9368 4.09447E-03 3.26262E-03-6.16640E-19
 -1      9369 4.15644E-03 3.06122E-03-4.40457E-19
 -1      9370 4.09947E-03 3.67227E-03-6.77626E-19
 -1      9371 4.16106E-03 3.47116E-03 6.09864E-20
 -1      9372 4.10549E-03 4.08250E-03-1.28749E-19
 -1      9373 4.16665E-03 3.88170E-03 1.49078E-19
 -1      9374 4.11268E-03 4.49333E-03-4.40457E-19
 -1      9375 4.17334E-03 4.29288E-03-4.40457E-19
 -1      9376 4.12120E-03 4.90478E-03-1.11131E-18
 -1      9377 4.18129E-03 4.70473E-03-7.25060E-19
 -1      9378 4.13122E-03 5.31685E-03-6.09864E-19
 -1      9379 4.19064E-03 5.11724E-03-4.47233E-19
 -1      9380 4.14291E-03 5.72951E-03-4.94667E-19
 -1      9381 4.20158E-03 5.53041E-03-1.04354E-18
 -1      9382 4.15645E-03 6.14271E-03-1.42302E-19
 -1      9383 4.21428E-03 5.94419E-03-4.47233E-19
 -1      9384 4.17201E-03 6.55639E-03 0.00000E+00
 -1      9385 4.22890E-03 6.35853E-03 6.23416E-19
 -1      9386 4.18977E-03 6.97045E-03 4.33681E-19
 -1      9387 4.24562E-03 6.77332E-03 4.33681E-19
 -1      9388 4.20987E-03 7.38477E-03-3.52366E-19
 -1      9389 4.26458E-03 7.18844E-03 6.77626E-20
 -1      9390 4.23244E-03 7.79918E-03 2.16840E-19
 -1      9391 4.28594E-03 7.60374E-03-3.38813E-19
 -1      9392 4.25756E-03 8.21351E-03-7.79270E-19
 -1      9393 4.30978E-03 8.01902E-03-4.60786E-19
 -1      9394 4.28527E-03 8.62752E-03-5.89535E-19
 -1      9395 4.33615E-03 8.43406E-03-7.45389E-19
 -1      9396 4.31554E-03 9.04099E-03 1.96512E-19
 -1      9397 4.36507E-03 8.84859E-03-6.50521E-19
 -1      9398 4.34824E-03 9.45363E-03-7.18284E-19
 -1      9399 4.39645E-03 9.26233E-03-1.28749E-19
 -1      9400 4.38318E-03 9.86515E-03-1.35525E-19
 -1      9401 4.43012E-03 9.67496E-03-7.18284E-19
 -1      9402 4.42002E-03 1.02753E-02-3.18484E-19
 -1      9403 4.46582E-03 1.00861E-02-4.47233E-19
 -1      9404 4.45834E-03 1.06837E-02 4.40457E-19
 -1      9405 4.50317E-03 1.04956E-02 1.82959E-19
 -1      9406 4.49755E-03 1.10901E-02-2.03288E-19
 -1      9407 4.54166E-03 1.09029E-02 2.57498E-19
 -1      9408 4.53697E-03 1.14942E-02 2.16840E-19
 -1      9409 4.58067E-03 1.13078E-02-9.82558E-19
 -1      9410 4.61945E-03 1.17101E-02-4.67562E-19
 -1      9411 4.20684E-03 4.07729E-04 3.11708E-19
 -1      9412 4.20750E-03 8.15550E-04-5.55654E-19
 -1      9413 4.20860E-03 1.22355E-03 4.06576E-20
 -1      9414 4.21021E-03 1.63183E-03-2.03288E-19
 -1      9415 4.21237E-03 2.04045E-03-3.38813E-20
 -1      9416 4.21514E-03 2.44952E-03-3.65918E-19
 -1      9417 4.21862E-03 2.85909E-03 3.38813E-20
 -1      9418 4.22290E-03 3.26925E-03-3.18484E-19
 -1      9419 4.22809E-03 3.68004E-03 3.18484E-19
 -1      9420 4.23432E-03 4.09151E-03 1.08420E-19
 -1      9421 4.24173E-03 4.50369E-03 8.13152E-20
 -1      9422 4.25047E-03 4.91661E-03-4.74338E-20
 -1      9423 4.26071E-03 5.33025E-03-8.19928E-19
 -1      9424 4.27261E-03 5.74459E-03-1.28749E-18
 -1      9425 4.28634E-03 6.15957E-03 1.21973E-19
 -1      9426 4.30207E-03 6.57510E-03 3.25261E-19
 -1      9427 4.31996E-03 6.99108E-03-8.13152E-20
 -1      9428 4.34014E-03 7.40734E-03-9.48677E-20
 -1      9429 4.36273E-03 7.82370E-03 2.03288E-19
 -1      9430 4.38780E-03 8.23991E-03-4.87891E-19
 -1      9431 4.41537E-03 8.65570E-03-1.57209E-18
 -1      9432 4.44541E-03 9.07078E-03-5.42101E-19
 -1      9433 4.47778E-03 9.48479E-03-3.38813E-20
 -1      9434 4.51226E-03 9.89737E-03-2.84603E-19
 -1      9435 4.54855E-03 1.03082E-02-1.69407E-19
 -1      9436 4.58618E-03 1.07168E-02 3.18484E-19
 -1      9437 4.62461E-03 1.11228E-02-1.29427E-18
 -1      9438 4.66316E-03 1.15261E-02-2.14130E-18
 -1      9439 4.67706E-03 1.23275E-02 4.23516E-19
 -1      9440 4.55244E-03 1.23030E-02-9.41901E-19
 -1      9441 4.42701E-03 1.22841E-02 6.81014E-19
 -1      9442 4.30076E-03 1.22691E-02-7.86047E-19
 -1      9443 4.17360E-03 1.22571E-02 8.16540E-19
 -1      9444 4.04541E-03 1.22468E-02-3.15096E-19
 -1      9445 3.91594E-03 1.22372E-02-2.03288E-20
 -1      9446 3.78487E-03 1.22274E-02-4.50622E-19
 -1      9447 3.65171E-03 1.22161E-02 2.81215E-19
 -1      9448 3.51580E-03 1.22020E-02 9.48677E-20
 -1      9449 3.37630E-03 1.21835E-02-1.93124E-19
 -1      9450 3.23209E-03 1.21583E-02 3.65918E-19
 -1      9451 3.08182E-03 1.21237E-02-3.62530E-19
 -1      9452 2.92394E-03 1.20756E-02-2.37169E-19
 -1      9453 2.75687E-03 1.20090E-02 3.38813E-19
 -1      9454 4.71284E-03 1.27416E-02 4.13352E-19
 -1      9455 4.58924E-03 1.27202E-02-3.45589E-19
 -1      9456 4.46493E-03 1.27041E-02-1.89735E-19
 -1      9457 4.34003E-03 1.26921E-02-1.35525E-19
 -1      9458 4.21459E-03 1.26829E-02 8.30092E-19
 -1      9459 4.08859E-03 1.26756E-02 1.28749E-19
 -1      9460 3.96189E-03 1.26693E-02-2.20229E-19
 -1      9461 3.83425E-03 1.26630E-02 4.74338E-20
 -1      9462 3.70530E-03 1.26558E-02 3.76083E-19
 -1      9463 3.57445E-03 1.26465E-02-3.21873E-19
 -1      9464 3.44088E-03 1.26336E-02 1.01644E-19
 -1      9465 3.30344E-03 1.26150E-02-1.45690E-19
 -1      9466 3.16059E-03 1.25880E-02-7.86047E-19
 -1      9467 3.01028E-03 1.25487E-02-1.55854E-19
 -1      9468 2.85004E-03 1.24911E-02-8.13152E-20
 -1      9469 4.74471E-03 1.31526E-02 5.42101E-20
 -1      9470 4.62209E-03 1.31347E-02-2.37169E-20
 -1      9471 4.49889E-03 1.31219E-02-1.76183E-19
 -1      9472 4.37536E-03 1.31129E-02-1.86347E-19
 -1      9473 4.25170E-03 1.31067E-02-1.01644E-19
 -1      9474 4.12799E-03 1.31024E-02-1.93124E-19
 -1      9475 4.00426E-03 1.30992E-02-5.55654E-19
 -1      9476 3.88039E-03 1.30964E-02 4.64174E-19
 -1      9477 3.75617E-03 1.30931E-02-7.79270E-20
 -1      9478 3.63122E-03 1.30883E-02 3.89635E-19
 -1      9479 3.50490E-03 1.30809E-02-7.11508E-20
 -1      9480 3.37626E-03 1.30691E-02 2.67662E-19
 -1      9481 3.24385E-03 1.30505E-02-2.60886E-19
 -1      9482 3.10556E-03 1.30214E-02-4.06576E-19
 -1      9483 2.95845E-03 1.29762E-02 1.89735E-19
 -1      9484 4.77156E-03 1.35606E-02 1.28749E-19
 -1      9485 4.64986E-03 1.35469E-02-7.92823E-19
 -1      9486 4.52768E-03 1.35377E-02-4.87891E-19
 -1      9487 4.40545E-03 1.35319E-02 3.08320E-19
 -1      9488 4.28348E-03 1.35286E-02 2.23617E-19
 -1      9489 4.16199E-03 1.35271E-02 2.16840E-19
 -1      9490 4.04115E-03 1.35268E-02-4.40457E-19
 -1      9491 3.92104E-03 1.35271E-02-1.86347E-19
 -1      9492 3.80165E-03 1.35273E-02-3.38813E-21
 -1      9493 3.68287E-03 1.35266E-02 4.64174E-19
 -1      9494 3.56442E-03 1.35242E-02 3.38813E-19
 -1      9495 3.44575E-03 1.35187E-02-5.04832E-19
 -1      9496 3.32590E-03 1.35083E-02-1.15196E-19
 -1      9497 3.20327E-03 1.34899E-02 5.96311E-19
 -1      9498 3.07526E-03 1.34586E-02-7.79270E-20
 -1      9499 4.79242E-03 1.39660E-02 9.48677E-20
 -1      9500 4.67149E-03 1.39569E-02 1.21973E-19
 -1      9501 4.55019E-03 1.39515E-02-6.47133E-19
 -1      9502 4.42907E-03 1.39490E-02 1.76183E-19
 -1      9503 4.30856E-03 1.39487E-02 2.77827E-19
 -1      9504 4.18901E-03 1.39499E-02 8.80914E-19
 -1      9505 4.07071E-03 1.39522E-02-3.65918E-19
 -1      9506 3.95394E-03 1.39552E-02 1.32137E-19
 -1      9507 3.83892E-03 1.39583E-02 9.14796E-20
 -1      9508 3.72584E-03 1.39610E-02 5.01444E-19
 -1      9509 3.61484E-03 1.39628E-02-1.86347E-19
 -1      9510 3.50594E-03 1.39626E-02 6.77626E-19
 -1      9511 3.39897E-03 1.39593E-02-2.27005E-19
 -1      9512 3.29333E-03 1.39506E-02-1.69407E-19
 -1      9513 3.18772E-03 1.39330E-02 1.05032E-19
 -1      9514 4.80642E-03 1.43693E-02 9.48677E-20
 -1      9515 4.68609E-03 1.43652E-02 5.42101E-20
 -1      9516 4.56547E-03 1.43638E-02 1.21973E-19
 -1      9517 4.44520E-03 1.43647E-02 6.09864E-20
 -1      9518 4.32579E-03 1.43672E-02 5.38713E-19
 -1      9519 4.20768E-03 1.43710E-02 9.48677E-20
 -1      9520 4.09130E-03 1.43757E-02-3.62530E-19
 -1      9521 3.97705E-03 1.43810E-02-3.59142E-19
 -1      9522 3.86535E-03 1.43866E-02 2.71051E-20
 -1      9523 3.75668E-03 1.43920E-02-1.42302E-19
 -1      9524 3.65156E-03 1.43970E-02 4.06576E-20
 -1      9525 3.55057E-03 1.44009E-02 3.38813E-19
 -1      9526 3.45432E-03 1.44030E-02-6.77626E-20
 -1      9527 3.36343E-03 1.44022E-02-4.91279E-19
 -1      9528 3.27832E-03 1.43961E-02-2.57498E-19
 -1      9529 4.81296E-03 1.47711E-02 2.37169E-20
 -1      9530 4.69303E-03 1.47721E-02-1.69407E-20
 -1      9531 4.57283E-03 1.47749E-02-6.50521E-19
 -1      9532 4.45306E-03 1.47792E-02-2.57498E-19
 -1      9533 4.33428E-03 1.47846E-02 1.21973E-19
 -1      9534 4.21698E-03 1.47909E-02 2.27005E-19
 -1      9535 4.10165E-03 1.47979E-02-4.74338E-19
 -1      9536 3.98877E-03 1.48053E-02 4.06576E-19
 -1      9537 3.87890E-03 1.48129E-02 6.77626E-19
 -1      9538 3.77266E-03 1.48206E-02 5.01444E-19
 -1      9539 3.67080E-03 1.48280E-02 4.47233E-19
 -1      9540 3.57425E-03 1.48350E-02-2.16840E-19
 -1      9541 3.48416E-03 1.48413E-02-4.13352E-19
 -1      9542 3.40194E-03 1.48463E-02-2.40557E-19
 -1      9543 3.32927E-03 1.48493E-02-3.72694E-20
 -1      9544 4.81166E-03 1.51719E-02 3.15096E-19
 -1      9545 4.69191E-03 1.51783E-02-3.38813E-20
 -1      9546 4.57186E-03 1.51854E-02-2.81215E-19
 -1      9547 4.45222E-03 1.51931E-02-4.60786E-19
 -1      9548 4.33353E-03 1.52015E-02 7.04731E-19
 -1      9549 4.21632E-03 1.52103E-02-6.16640E-19
 -1      9550 4.10105E-03 1.52195E-02-3.59142E-19
 -1      9551 3.98823E-03 1.52290E-02-3.04932E-20
 -1      9552 3.87840E-03 1.52386E-02-1.45690E-19
 -1      9553 3.77220E-03 1.52483E-02-7.45389E-20
 -1      9554 3.67038E-03 1.52580E-02-2.71051E-20
 -1      9555 3.57387E-03 1.52677E-02-3.72694E-20
 -1      9556 3.48383E-03 1.52775E-02-1.15196E-19
 -1      9557 3.40167E-03 1.52876E-02-1.49078E-19
 -1      9558 3.32909E-03 1.52987E-02 6.74238E-19
 -1      9559 4.80245E-03 1.55723E-02 3.86247E-19
 -1      9560 4.68265E-03 1.55841E-02-2.81215E-19
 -1      9561 4.56248E-03 1.55956E-02-4.60786E-19
 -1      9562 4.44258E-03 1.56069E-02-2.71051E-20
 -1      9563 4.32347E-03 1.56183E-02-3.96411E-19
 -1      9564 4.20561E-03 1.56298E-02 2.43945E-19
 -1      9565 4.08943E-03 1.56414E-02-2.57498E-19
 -1      9566 3.97534E-03 1.56531E-02 6.33581E-19
 -1      9567 3.86377E-03 1.56649E-02-1.35525E-19
 -1      9568 3.75522E-03 1.56769E-02-1.21973E-19
 -1      9569 3.65021E-03 1.56891E-02 6.06476E-19
 -1      9570 3.54933E-03 1.57020E-02 1.86347E-19
 -1      9571 3.45323E-03 1.57160E-02-2.87991E-19
 -1      9572 3.36252E-03 1.57320E-02-2.16840E-19
 -1      9573 3.27766E-03 1.57522E-02 1.38913E-19
 -1      9574 4.78552E-03 1.59731E-02-2.40557E-19
 -1      9575 4.66547E-03 1.59902E-02 7.79270E-20
 -1      9576 4.54492E-03 1.60060E-02 3.62530E-19
 -1      9577 4.42442E-03 1.60211E-02 3.35425E-19
 -1      9578 4.30442E-03 1.60357E-02 3.79471E-19
 -1      9579 4.18528E-03 1.60500E-02-6.43745E-19
 -1      9580 4.06732E-03 1.60642E-02-5.04832E-19
 -1      9581 3.95081E-03 1.60785E-02-2.57498E-19
 -1      9582 3.83601E-03 1.60930E-02-1.45690E-19
 -1      9583 3.72312E-03 1.61079E-02-4.20128E-19
 -1      9584 3.61230E-03 1.61236E-02-1.49078E-19
 -1      9585 3.50360E-03 1.61407E-02 1.52466E-19
 -1      9586 3.39686E-03 1.61602E-02-4.77727E-19
 -1      9587 3.29150E-03 1.61842E-02-7.25060E-19
 -1      9588 3.18625E-03 1.62160E-02 6.91179E-19
 -1      9589 4.76132E-03 1.63748E-02 7.25060E-19
 -1      9590 4.64084E-03 1.63969E-02 1.59242E-19
 -1      9591 4.51971E-03 1.64171E-02-4.06576E-20
 -1      9592 4.39835E-03 1.64359E-02 4.09964E-19
 -1      9593 4.27709E-03 1.64539E-02 5.42101E-20
 -1      9594 4.15618E-03 1.64714E-02-9.14796E-20
 -1      9595 4.03581E-03 1.64887E-02-6.16640E-19
 -1      9596 3.91607E-03 1.65061E-02 4.06576E-19
 -1      9597 3.79699E-03 1.65238E-02 2.03288E-20
 -1      9598 3.67849E-03 1.65424E-02 2.60886E-19
 -1      9599 3.56029E-03 1.65625E-02-1.72795E-19
 -1      9600 3.44189E-03 1.65851E-02 7.75882E-19
 -1      9601 3.32234E-03 1.66120E-02 5.75982E-20
 -1      9602 3.20007E-03 1.66458E-02-2.50722E-19
 -1      9603 3.07251E-03 1.66914E-02-4.30293E-19
 -1      9604 4.73051E-03 1.67778E-02 5.79371E-19
 -1      9605 4.60948E-03 1.68048E-02-7.45389E-20
 -1      9606 4.48761E-03 1.68292E-02-2.50722E-19
 -1      9607 4.36521E-03 1.68519E-02-1.59242E-19
 -1      9608 4.24247E-03 1.68734E-02-2.43945E-19
 -1      9609 4.11951E-03 1.68943E-02-1.08420E-19
 -1      9610 3.99637E-03 1.69151E-02-1.79571E-19
 -1      9611 3.87299E-03 1.69360E-02 3.38813E-19
 -1      9612 3.74918E-03 1.69577E-02-6.36969E-19
 -1      9613 3.62458E-03 1.69808E-02-1.96512E-19
 -1      9614 3.49861E-03 1.70063E-02-1.35525E-20
 -1      9615 3.37032E-03 1.70355E-02 6.26804E-19
 -1      9616 3.23830E-03 1.70708E-02-5.96311E-19
 -1      9617 3.10046E-03 1.71156E-02-9.69006E-19
 -1      9618 2.95385E-03 1.71754E-02 1.21973E-19
 -1      9619 4.69392E-03 1.71824E-02 1.62630E-19
 -1      9620 4.57225E-03 1.72139E-02-2.40557E-19
 -1      9621 4.44957E-03 1.72424E-02 1.59242E-19
 -1      9622 4.32604E-03 1.72690E-02 2.67662E-19
 -1      9623 4.20173E-03 1.72943E-02 3.79471E-19
 -1      9624 4.07664E-03 1.73189E-02-8.47033E-20
 -1      9625 3.95068E-03 1.73435E-02-5.45489E-19
 -1      9626 3.82365E-03 1.73685E-02 4.13352E-19
 -1      9627 3.69521E-03 1.73946E-02-3.59142E-19
 -1      9628 3.56482E-03 1.74228E-02 1.25361E-19
 -1      9629 3.43169E-03 1.74542E-02 1.11808E-19
 -1      9630 3.29471E-03 1.74906E-02 2.91379E-19
 -1      9631 3.15236E-03 1.75346E-02 8.13152E-20
 -1      9632 3.00261E-03 1.75899E-02-9.04631E-19
 -1      9633 2.84299E-03 1.76623E-02-2.98156E-19
 -1      9634 4.65245E-03 1.75889E-02 5.82759E-19
 -1      9635 4.53011E-03 1.76245E-02 2.54110E-19
 -1      9636 4.40661E-03 1.76570E-02-1.69407E-20
 -1      9637 4.28197E-03 1.76875E-02-6.77626E-19
 -1      9638 4.15614E-03 1.77166E-02 4.67562E-19
 -1      9639 4.02903E-03 1.77451E-02 1.69407E-20
 -1      9640 3.90045E-03 1.77737E-02 9.82558E-20
 -1      9641 3.77012E-03 1.78031E-02 3.65918E-19
 -1      9642 3.63759E-03 1.78340E-02-2.30393E-19
 -1      9643 3.50227E-03 1.78675E-02 1.07065E-18
 -1      9644 3.36334E-03 1.79050E-02-3.86247E-19
 -1      9645 3.21973E-03 1.79484E-02 1.19601E-18
 -1      9646 3.07010E-03 1.80005E-02 3.38813E-19
 -1      9647 2.91294E-03 1.80649E-02-6.64074E-19
 -1      9648 2.74667E-03 1.81467E-02-2.40557E-19
 -1      9649 4.65806E-03 1.21193E-02 4.67562E-19
 -1      9650 4.73906E-03 1.23424E-02 4.06576E-20
 -1      9651 4.53293E-03 1.20935E-02-1.31460E-18
 -1      9652 4.61485E-03 1.23145E-02-5.35325E-19
 -1      9653 4.40696E-03 1.20732E-02 5.08220E-19
 -1      9654 4.48983E-03 1.22930E-02 1.49078E-19
 -1      9655 4.28006E-03 1.20569E-02 1.28749E-19
 -1      9656 4.36399E-03 1.22762E-02-1.35525E-20
 -1      9657 4.15210E-03 1.20435E-02 1.36881E-18
 -1      9658 4.23730E-03 1.22628E-02-2.16840E-19
 -1      9659 4.02290E-03 1.20317E-02 7.45389E-19
 -1      9660 4.10965E-03 1.22518E-02 1.30104E-18
 -1      9661 3.89219E-03 1.20205E-02-1.16552E-18
 -1      9662 3.98085E-03 1.22420E-02-4.87891E-19
 -1      9663 3.75960E-03 1.20089E-02-2.64274E-19
 -1      9664 3.85063E-03 1.22324E-02-7.58942E-19
 -1      9665 3.62464E-03 1.19955E-02 4.33681E-19
 -1      9666 3.71859E-03 1.22220E-02-1.76183E-19
 -1      9667 3.48664E-03 1.19791E-02 2.84603E-19
 -1      9668 3.58415E-03 1.22095E-02 3.38813E-19
 -1      9669 3.34479E-03 1.19579E-02-2.16840E-19
 -1      9670 3.44657E-03 1.21934E-02 2.43945E-19
 -1      9671 3.19806E-03 1.19297E-02 6.91179E-19
 -1      9672 3.30487E-03 1.21719E-02 2.71051E-19
 -1      9673 3.04528E-03 1.18917E-02-1.28749E-18
 -1      9674 3.15782E-03 1.21424E-02 1.49078E-19
 -1      9675 2.88521E-03 1.18401E-02-1.21973E-19
 -1      9676 3.00394E-03 1.21016E-02-1.27394E-18
 -1      9677 2.71678E-03 1.17703E-02-2.16840E-19
 -1      9678 2.84165E-03 1.20450E-02-5.28549E-19
 -1      9679 2.66951E-03 1.19667E-02 1.62630E-19
 -1      9680 4.69537E-03 1.25350E-02 1.35525E-18
 -1      9681 4.77431E-03 1.27549E-02 1.00289E-18
 -1      9682 4.57126E-03 1.25119E-02-1.56532E-18
 -1      9683 4.65114E-03 1.27301E-02 2.30393E-19
 -1      9684 4.44639E-03 1.24944E-02 5.82759E-19
 -1      9685 4.52716E-03 1.27115E-02-1.28749E-18
 -1      9686 4.32080E-03 1.24808E-02-1.60597E-18
 -1      9687 4.40255E-03 1.26976E-02-9.14796E-19
 -1      9688 4.19449E-03 1.24702E-02 2.79182E-18
 -1      9689 4.27738E-03 1.26872E-02 8.87691E-19
 -1      9690 4.06737E-03 1.24614E-02-3.72694E-19
 -1      9691 4.15167E-03 1.26791E-02 1.35525E-18
 -1      9692 3.93925E-03 1.24535E-02-4.40457E-19
 -1      9693 4.02534E-03 1.26724E-02 3.86247E-19
 -1      9694 3.80984E-03 1.24455E-02-9.62229E-19
 -1      9695 3.89821E-03 1.26662E-02-4.47233E-19
 -1      9696 3.67869E-03 1.24362E-02 8.94467E-19
 -1      9697 3.76998E-03 1.26596E-02 1.07065E-18
 -1      9698 3.54518E-03 1.24245E-02-7.72494E-19
 -1      9699 3.64016E-03 1.26515E-02 2.71051E-19
 -1      9700 3.40845E-03 1.24088E-02 1.89735E-19
 -1      9701 3.50807E-03 1.26406E-02 6.77626E-20
 -1      9702 3.26735E-03 1.23869E-02 5.96311E-19
 -1      9703 3.37274E-03 1.26251E-02-2.03288E-19
 -1      9704 3.12039E-03 1.23559E-02-1.85670E-18
 -1      9705 3.23282E-03 1.26028E-02-1.91091E-18
 -1      9706 2.96574E-03 1.23119E-02-7.45389E-19
 -1      9707 3.08653E-03 1.25702E-02-1.34170E-18
 -1      9708 2.80135E-03 1.22494E-02 7.31836E-19
 -1      9709 2.93159E-03 1.25226E-02-1.15196E-18
 -1      9710 2.76536E-03 1.24532E-02 6.64074E-19
 -1      9711 4.72933E-03 1.29475E-02 8.74138E-19
 -1      9712 4.80567E-03 1.31638E-02 2.00577E-18
 -1      9713 4.60623E-03 1.29278E-02-4.06576E-20
 -1      9714 4.68350E-03 1.31429E-02 9.48677E-20
 -1      9715 4.48248E-03 1.29133E-02-1.17229E-18
 -1      9716 4.56055E-03 1.31278E-02-1.35525E-19
 -1      9717 4.35827E-03 1.29027E-02-5.82759E-19
 -1      9718 4.43715E-03 1.31170E-02-6.09864E-19
 -1      9719 4.23372E-03 1.28951E-02 1.09775E-18
 -1      9720 4.31354E-03 1.31095E-02-6.84403E-19
 -1      9721 4.10887E-03 1.28893E-02 2.43945E-19
 -1      9722 4.18985E-03 1.31044E-02 1.35525E-20
 -1      9723 3.98364E-03 1.28845E-02-1.12486E-18
 -1      9724 4.06613E-03 1.31007E-02-1.36881E-18
 -1      9725 3.85786E-03 1.28800E-02 7.18284E-19
 -1      9726 3.94235E-03 1.30978E-02-3.25261E-19
 -1      9727 3.73124E-03 1.28748E-02 2.43945E-19
 -1      9728 3.81835E-03 1.30948E-02 9.62229E-19
 -1      9729 3.60326E-03 1.28678E-02 2.43945E-19
 -1      9730 3.69382E-03 1.30909E-02 6.50521E-19
 -1      9731 3.47319E-03 1.28577E-02-8.13152E-20
 -1      9732 3.56829E-03 1.30850E-02 9.89334E-19
 -1      9733 3.33994E-03 1.28425E-02 1.35525E-19
 -1      9734 3.44096E-03 1.30757E-02 4.60786E-19
 -1      9735 3.20197E-03 1.28197E-02-2.04643E-18
 -1      9736 3.31065E-03 1.30609E-02-3.25261E-19
 -1      9737 3.05714E-03 1.27853E-02-1.16552E-18
 -1      9738 3.17562E-03 1.30376E-02-7.99599E-19
 -1      9739 2.90265E-03 1.27336E-02 6.77626E-20
 -1      9740 3.03336E-03 1.30013E-02-5.42101E-20
 -1      9741 2.88041E-03 1.29449E-02 7.04731E-19
 -1      9742 4.75883E-03 1.33569E-02 7.52165E-19
 -1      9743 4.83206E-03 1.35695E-02 5.69206E-19
 -1      9744 4.63668E-03 1.33411E-02-1.57887E-18
 -1      9745 4.71080E-03 1.35531E-02-1.37558E-18
 -1      9746 4.51400E-03 1.33301E-02-1.48400E-18
 -1      9747 4.58880E-03 1.35418E-02-1.89735E-18
 -1      9748 4.39114E-03 1.33226E-02 4.74338E-20
 -1      9749 4.46655E-03 1.35344E-02-4.20128E-19
 -1      9750 4.26834E-03 1.33179E-02-1.35525E-20
 -1      9751 4.34441E-03 1.35300E-02 1.58565E-18
 -1      9752 4.14577E-03 1.33150E-02 4.33681E-19
 -1      9753 4.22266E-03 1.35277E-02 2.30393E-19
 -1      9754 4.02351E-03 1.33133E-02-1.30104E-18
 -1      9755 4.10148E-03 1.35269E-02-1.01644E-19
 -1      9756 3.90154E-03 1.33121E-02 8.26704E-19
 -1      9757 3.98100E-03 1.35269E-02-1.54499E-18
 -1      9758 3.77976E-03 1.33106E-02-1.49078E-19
 -1      9759 3.86126E-03 1.35272E-02-1.21973E-19
 -1      9760 3.65791E-03 1.33079E-02 1.24683E-18
 -1      9761 3.74220E-03 1.35271E-02 9.35124E-19
 -1      9762 3.53551E-03 1.33031E-02 1.65341E-18
 -1      9763 3.62364E-03 1.35257E-02 1.46367E-18
 -1      9764 3.41178E-03 1.32946E-02 6.77626E-20
 -1      9765 3.50516E-03 1.35219E-02-1.35525E-20
 -1      9766 3.28548E-03 1.32801E-02-7.04731E-19
 -1      9767 3.38606E-03 1.35143E-02-1.13841E-18
 -1      9768 3.15468E-03 1.32565E-02 2.71051E-20
 -1      9769 3.26508E-03 1.35004E-02 9.35124E-19
 -1      9770 3.01648E-03 1.32181E-02-9.48677E-20
 -1      9771 3.14018E-03 1.34763E-02 7.58942E-19
 -1      9772 3.00806E-03 1.34357E-02 8.94467E-19
 -1      9773 4.78280E-03 1.37636E-02 4.67562E-19
 -1      9774 4.85252E-03 1.39723E-02 1.56532E-18
 -1      9775 4.66150E-03 1.37522E-02-1.08420E-18
 -1      9776 4.73204E-03 1.39609E-02 5.42101E-20
 -1      9777 4.53978E-03 1.37448E-02-2.37169E-18
 -1      9778 4.61085E-03 1.39538E-02-1.18585E-18
 -1      9779 4.41814E-03 1.37406E-02 1.62630E-18
 -1      9780 4.48958E-03 1.39500E-02-1.54499E-18
 -1      9781 4.29693E-03 1.37388E-02 1.54499E-18
 -1      9782 4.36872E-03 1.39486E-02 6.23416E-19
 -1      9783 4.17646E-03 1.37388E-02 1.54499E-18
 -1      9784 4.24864E-03 1.39491E-02 2.37847E-18
 -1      9785 4.05696E-03 1.37398E-02-1.11131E-18
 -1      9786 4.12968E-03 1.39510E-02 1.80249E-18
 -1      9787 3.93859E-03 1.37415E-02-2.98156E-19
 -1      9788 4.01212E-03 1.39537E-02-2.98156E-19
 -1      9789 3.82148E-03 1.37432E-02 1.21973E-19
 -1      9790 3.89619E-03 1.39568E-02 7.31836E-19
 -1      9791 3.70566E-03 1.37443E-02 1.11131E-18
 -1      9792 3.78212E-03 1.39598E-02 9.62229E-19
 -1      9793 3.59106E-03 1.37440E-02 6.91179E-19
 -1      9794 3.67007E-03 1.39621E-02 9.35124E-19
 -1      9795 3.47741E-03 1.37414E-02 4.47233E-19
 -1      9796 3.56013E-03 1.39630E-02 1.13841E-18
 -1      9797 3.36410E-03 1.37347E-02 2.57498E-19
 -1      9798 3.45224E-03 1.39614E-02 1.38236E-18
 -1      9799 3.25001E-03 1.37214E-02 2.98156E-19
 -1      9800 3.34604E-03 1.39558E-02-1.17907E-18
 -1      9801 3.13306E-03 1.36971E-02 1.21973E-19
 -1      9802 3.24066E-03 1.39433E-02-2.84603E-19
 -1      9803 3.13417E-03 1.39189E-02 6.09864E-19
 -1      9804 4.80032E-03 1.41679E-02-2.71051E-20
 -1      9805 4.86622E-03 1.43727E-02 1.57209E-18
 -1      9806 4.67971E-03 1.41612E-02 2.77827E-19
 -1      9807 4.74634E-03 1.43669E-02 2.71051E-20
 -1      9808 4.55878E-03 1.41578E-02-3.04932E-19
 -1      9809 4.62578E-03 1.43642E-02 4.26905E-19
 -1      9810 4.43813E-03 1.41570E-02 8.26704E-19
 -1      9811 4.50526E-03 1.43640E-02-3.38813E-20
 -1      9812 4.31822E-03 1.41581E-02 1.66018E-18
 -1      9813 4.38535E-03 1.43657E-02 1.28071E-18
 -1      9814 4.19946E-03 1.41606E-02 1.61953E-18
 -1      9815 4.26654E-03 1.43690E-02 4.74338E-19
 -1      9816 4.08222E-03 1.41642E-02-1.27394E-18
 -1      9817 4.14925E-03 1.43733E-02 0.00000E+00
 -1      9818 3.96683E-03 1.41684E-02-5.42101E-19
 -1      9819 4.03388E-03 1.43783E-02-8.94467E-19
 -1      9820 3.85363E-03 1.41727E-02-2.84603E-19
 -1      9821 3.92085E-03 1.43838E-02-5.01444E-19
 -1      9822 3.74297E-03 1.41769E-02 4.47233E-19
 -1      9823 3.81060E-03 1.43893E-02 1.49078E-19
 -1      9824 3.63517E-03 1.41804E-02-1.49078E-19
 -1      9825 3.70364E-03 1.43946E-02-4.06576E-19
 -1      9826 3.53057E-03 1.41824E-02 1.24683E-18
 -1      9827 3.60050E-03 1.43991E-02 3.65918E-19
 -1      9828 3.42939E-03 1.41820E-02 1.21973E-19
 -1      9829 3.50180E-03 1.44023E-02 4.06576E-19
 -1      9830 3.33165E-03 1.41775E-02-1.47723E-18
 -1      9831 3.40815E-03 1.44031E-02-1.26039E-18
 -1      9832 3.23691E-03 1.41660E-02-7.45389E-19
 -1      9833 3.32012E-03 1.44000E-02-2.11419E-18
 -1      9834 3.23786E-03 1.43900E-02-1.89735E-19
 -1      9835 4.81065E-03 1.45704E-02-1.15196E-19
 -1      9836 4.87255E-03 1.47713E-02-4.06576E-19
 -1      9837 4.69055E-03 1.45688E-02-1.35525E-20
 -1      9838 4.75308E-03 1.47713E-02-5.42101E-20
 -1      9839 4.57018E-03 1.45695E-02-1.05032E-18
 -1      9840 4.63292E-03 1.47733E-02-1.05032E-18
 -1      9841 4.45020E-03 1.45720E-02-3.32037E-19
 -1      9842 4.51286E-03 1.47769E-02-1.87703E-18
 -1      9843 4.33116E-03 1.45760E-02 2.05321E-18
 -1      9844 4.39351E-03 1.47818E-02-3.32037E-19
 -1      9845 4.21355E-03 1.45811E-02 4.40457E-19
 -1      9846 4.27541E-03 1.47877E-02 6.50521E-19
 -1      9847 4.09781E-03 1.45869E-02-1.78893E-18
 -1      9848 4.15904E-03 1.47944E-02 1.21973E-19
 -1      9849 3.98440E-03 1.45933E-02 7.31836E-19
 -1      9850 4.04487E-03 1.48016E-02-6.23416E-19
 -1      9851 3.87383E-03 1.45999E-02 1.02999E-18
 -1      9852 3.93342E-03 1.48091E-02 2.57498E-18
 -1      9853 3.76665E-03 1.46065E-02 6.23416E-19
 -1      9854 3.82528E-03 1.48168E-02 2.20906E-18
 -1      9855 3.66354E-03 1.46128E-02 1.20617E-18
 -1      9856 3.72112E-03 1.48243E-02 2.16840E-18
 -1      9857 3.56527E-03 1.46183E-02 5.69206E-19
 -1      9858 3.62178E-03 1.48316E-02 1.15196E-18
 -1      9859 3.47280E-03 1.46227E-02-7.31836E-19
 -1      9860 3.52830E-03 1.48383E-02-3.11708E-19
 -1      9861 3.38720E-03 1.46249E-02-1.50433E-18
 -1      9862 3.44194E-03 1.48440E-02-1.55854E-18
 -1      9863 3.30964E-03 1.46237E-02-8.40257E-19
 -1      9864 3.36425E-03 1.48481E-02-1.24683E-18
 -1      9865 3.29699E-03 1.48497E-02-1.08420E-19
 -1      9866 4.81330E-03 1.49715E-02 5.82759E-19
 -1      9867 4.87116E-03 1.51689E-02 2.40557E-18
 -1      9868 4.69349E-03 1.49753E-02-3.72694E-19
 -1      9869 4.75187E-03 1.51750E-02 1.32137E-18
 -1      9870 4.57340E-03 1.49802E-02-2.08709E-18
 -1      9871 4.63188E-03 1.51817E-02-4.13352E-19
 -1      9872 4.45374E-03 1.49862E-02-1.65341E-18
 -1      9873 4.51195E-03 1.51892E-02-2.10742E-18
 -1      9874 4.33507E-03 1.49931E-02 1.13164E-18
 -1      9875 4.39272E-03 1.51972E-02 6.16640E-19
 -1      9876 4.21791E-03 1.50007E-02-8.53809E-19
 -1      9877 4.27471E-03 1.52059E-02-1.08420E-19
 -1      9878 4.10274E-03 1.50087E-02-1.91091E-18
 -1      9879 4.15841E-03 1.52149E-02-8.26704E-19
 -1      9880 3.99006E-03 1.50172E-02 6.64074E-19
 -1      9881 4.04430E-03 1.52242E-02-1.13841E-18
 -1      9882 3.88044E-03 1.50258E-02 1.26039E-18
 -1      9883 3.93290E-03 1.52338E-02 5.28549E-19
 -1      9884 3.77452E-03 1.50344E-02 7.86047E-19
 -1      9885 3.82480E-03 1.52434E-02 2.71051E-19
 -1      9886 3.67309E-03 1.50430E-02 1.02999E-18
 -1      9887 3.72068E-03 1.52531E-02-4.33681E-19
 -1      9888 3.57714E-03 1.50513E-02-7.99599E-19
 -1      9889 3.62138E-03 1.52628E-02 5.14996E-19
 -1      9890 3.48786E-03 1.50594E-02-1.05710E-18
 -1      9891 3.52794E-03 1.52726E-02-5.55654E-19
 -1      9892 3.40680E-03 1.50669E-02-1.07065E-18
 -1      9893 3.44163E-03 1.52825E-02-8.94467E-19
 -1      9894 3.33581E-03 1.50740E-02 1.04354E-18
 -1      9895 3.36402E-03 1.52930E-02 4.60786E-19
 -1      9896 3.29686E-03 1.53049E-02-1.89735E-19
 -1      9897 4.80804E-03 1.53721E-02 9.08019E-19
 -1      9898 4.86196E-03 1.55662E-02 1.65341E-18
 -1      9899 4.68829E-03 1.53812E-02-7.58942E-19
 -1      9900 4.74264E-03 1.55783E-02 4.74338E-20
 -1      9901 4.56821E-03 1.53905E-02-1.49755E-18
 -1      9902 4.62257E-03 1.55899E-02-1.44334E-18
 -1      9903 4.44849E-03 1.54000E-02-1.32137E-18
 -1      9904 4.50246E-03 1.56013E-02-1.62630E-18
 -1      9905 4.32965E-03 1.54099E-02 8.06375E-19
 -1      9906 4.38289E-03 1.56126E-02-1.08420E-19
 -1      9907 4.21221E-03 1.54200E-02-4.60786E-19
 -1      9908 4.26436E-03 1.56241E-02-3.52366E-19
 -1      9909 4.09660E-03 1.54304E-02-9.48677E-19
 -1      9910 4.14729E-03 1.56356E-02-5.96311E-19
 -1      9911 3.98330E-03 1.54409E-02 1.09775E-18
 -1      9912 4.03209E-03 1.56472E-02 2.71051E-19
 -1      9913 3.87281E-03 1.54516E-02-5.82759E-19
 -1      9914 3.91921E-03 1.56590E-02 1.02999E-18
 -1      9915 3.76571E-03 1.54624E-02 4.60786E-19
 -1      9916 3.80908E-03 1.56708E-02-1.17907E-18
 -1      9917 3.66267E-03 1.54733E-02 2.43945E-19
 -1      9918 3.70223E-03 1.56830E-02 9.35124E-19
 -1      9919 3.56449E-03 1.54845E-02-2.57498E-19
 -1      9920 3.59920E-03 1.56955E-02 1.61275E-18
 -1      9921 3.47211E-03 1.54962E-02-7.86047E-19
 -1      9922 3.50063E-03 1.57088E-02 1.35525E-19
 -1      9923 3.38663E-03 1.55091E-02-4.60786E-19
 -1      9924 3.40715E-03 1.57236E-02-1.26039E-18
 -1      9925 3.30925E-03 1.55245E-02 7.58942E-19
 -1      9926 3.31933E-03 1.57414E-02-9.48677E-20
 -1      9927 3.23736E-03 1.57650E-02 2.57498E-19
 -1      9928 4.79493E-03 1.57727E-02 1.02999E-18
 -1      9929 4.84514E-03 1.59639E-02 2.00577E-18
 -1      9930 4.67502E-03 1.57871E-02-5.96311E-19
 -1      9931 4.72560E-03 1.59818E-02-1.76183E-19
 -1      9932 4.55469E-03 1.58007E-02 4.74338E-20
 -1      9933 4.60522E-03 1.59982E-02 1.30782E-18
 -1      9934 4.43453E-03 1.58139E-02 2.37169E-19
 -1      9935 4.48463E-03 1.60136E-02 9.75782E-19
 -1      9936 4.31503E-03 1.58269E-02-3.93023E-19
 -1      9937 4.36433E-03 1.60284E-02 1.18585E-18
 -1      9938 4.19661E-03 1.58398E-02-2.43945E-19
 -1      9939 4.24472E-03 1.60429E-02-1.00966E-18
 -1      9940 4.07963E-03 1.58527E-02-1.30104E-18
 -1      9941 4.12614E-03 1.60571E-02-1.55176E-18
 -1      9942 3.96445E-03 1.58656E-02 1.12486E-18
 -1      9943 4.00887E-03 1.60714E-02-2.53432E-18
 -1      9944 3.85143E-03 1.58786E-02-4.47233E-19
 -1      9945 3.89318E-03 1.60857E-02 1.04354E-18
 -1      9946 3.74092E-03 1.58920E-02-5.42101E-19
 -1      9947 3.77931E-03 1.61004E-02-5.82759E-19
 -1      9948 3.63327E-03 1.59059E-02 1.01644E-18
 -1      9949 3.66744E-03 1.61156E-02-1.59920E-18
 -1      9950 3.52882E-03 1.59207E-02 2.57498E-19
 -1      9951 3.55769E-03 1.61319E-02 4.33681E-19
 -1      9952 3.42783E-03 1.59372E-02-4.47233E-19
 -1      9953 3.45001E-03 1.61500E-02-4.47233E-19
 -1      9954 3.33033E-03 1.59570E-02-1.88380E-18
 -1      9955 3.34406E-03 1.61715E-02-3.17129E-18
 -1      9956 3.23590E-03 1.59826E-02 1.24683E-18
 -1      9957 3.23900E-03 1.61988E-02-2.16840E-19
 -1      9958 3.13291E-03 1.62367E-02-2.71051E-19
 -1      9959 4.77429E-03 1.61738E-02 5.35325E-19
 -1      9960 4.82114E-03 1.63627E-02-7.86047E-19
 -1      9961 4.65404E-03 1.61935E-02 2.30393E-19
 -1      9962 4.70119E-03 1.63862E-02 2.25650E-18
 -1      9963 4.53322E-03 1.62115E-02 3.72694E-19
 -1      9964 4.58033E-03 1.64072E-02 2.37169E-19
 -1      9965 4.41232E-03 1.62284E-02 1.17907E-18
 -1      9966 4.45903E-03 1.64267E-02 1.28071E-18
 -1      9967 4.29173E-03 1.62447E-02 1.29427E-18
 -1      9968 4.33769E-03 1.64450E-02 9.35124E-19
 -1      9969 4.17176E-03 1.62605E-02-1.31460E-18
 -1      9970 4.21658E-03 1.64627E-02-6.09864E-20
 -1      9971 4.05265E-03 1.62762E-02-1.40946E-18
 -1      9972 4.09592E-03 1.64801E-02-1.95834E-18
 -1      9973 3.93461E-03 1.62920E-02-4.06576E-19
 -1      9974 3.97585E-03 1.64973E-02-8.94467E-19
 -1      9975 3.81776E-03 1.63080E-02-5.42101E-20
 -1      9976 3.85645E-03 1.65149E-02 1.38236E-18
 -1      9977 3.70217E-03 1.63247E-02-4.60786E-19
 -1      9978 3.73768E-03 1.65330E-02 2.03288E-19
 -1      9979 3.58779E-03 1.63424E-02-5.82759E-19
 -1      9980 3.61938E-03 1.65522E-02-2.30393E-19
 -1      9981 3.47437E-03 1.63621E-02 1.02999E-18
 -1      9982 3.50117E-03 1.65734E-02 1.12486E-18
 -1      9983 3.36133E-03 1.63851E-02-4.87891E-19
 -1      9984 3.38235E-03 1.65979E-02 1.72117E-18
 -1      9985 3.24756E-03 1.64138E-02-2.54788E-18
 -1      9986 3.26170E-03 1.66278E-02-1.53144E-18
 -1      9987 3.13101E-03 1.64524E-02-4.06576E-19
 -1      9988 3.13720E-03 1.66667E-02-1.47723E-18
 -1      9989 3.00556E-03 1.67210E-02-1.57209E-18
 -1      9990 4.74669E-03 1.65761E-02 2.10064E-18
 -1      9991 4.79060E-03 1.67630E-02-5.21772E-19
 -1      9992 4.62595E-03 1.66007E-02-2.77827E-19
 -1      9993 4.67012E-03 1.67916E-02 1.10453E-18
 -1      9994 4.50446E-03 1.66230E-02-7.04731E-19
 -1      9995 4.54863E-03 1.68172E-02-5.01444E-19
 -1      9996 4.38260E-03 1.66438E-02 7.45389E-19
 -1      9997 4.42646E-03 1.68407E-02-1.51788E-18
 -1      9998 4.26062E-03 1.66635E-02-3.93023E-19
 -1      9999 4.30387E-03 1.68627E-02-4.81115E-19
 -1     10000 4.13871E-03 1.66827E-02-8.33480E-19
 -1     10001 4.18101E-03 1.68839E-02-1.21295E-18
 -1     10002 4.01698E-03 1.67016E-02-1.23328E-18
 -1     10003 4.05796E-03 1.69047E-02 2.03288E-19
 -1     10004 3.89544E-03 1.67207E-02 9.75782E-19
 -1     10005 3.93472E-03 1.69255E-02-1.89735E-19
 -1     10006 3.77402E-03 1.67404E-02-7.72494E-19
 -1     10007 3.81116E-03 1.69467E-02-3.38813E-19
 -1     10008 3.65248E-03 1.67611E-02 6.64074E-19
 -1     10009 3.68701E-03 1.69690E-02-1.09775E-18
 -1     10010 3.53038E-03 1.67838E-02-3.65918E-19
 -1     10011 3.56182E-03 1.69932E-02-2.16840E-19
 -1     10012 3.40696E-03 1.68096E-02 2.37169E-18
 -1     10013 3.43484E-03 1.70203E-02 1.49078E-18
 -1     10014 3.28100E-03 1.68406E-02-5.55654E-19
 -1     10015 3.30490E-03 1.70522E-02 4.87891E-19
 -1     10016 3.15061E-03 1.68798E-02-2.12775E-18
 -1     10017 3.17029E-03 1.70917E-02-3.15774E-18
 -1     10018 3.01288E-03 1.69326E-02-1.17907E-18
 -1     10019 3.02850E-03 1.71431E-02-2.00577E-18
 -1     10020 2.87610E-03 1.72134E-02 2.71051E-20
 -1     10021 4.71289E-03 1.69799E-02 1.48400E-18
 -1     10022 4.75432E-03 1.71652E-02 3.79471E-19
 -1     10023 4.59154E-03 1.70091E-02-3.38813E-20
 -1     10024 4.63322E-03 1.71986E-02 5.69206E-19
 -1     10025 4.46927E-03 1.70356E-02-4.47233E-19
 -1     10026 4.51102E-03 1.72285E-02-2.43945E-19
 -1     10027 4.34631E-03 1.70603E-02 2.91379E-19
 -1     10028 4.38791E-03 1.72559E-02 8.87691E-19
 -1     10029 4.22278E-03 1.70837E-02 2.91379E-19
 -1     10030 4.26398E-03 1.72818E-02 2.13452E-18
 -1     10031 4.09876E-03 1.71064E-02-5.35325E-19
 -1     10032 4.13929E-03 1.73067E-02-3.18484E-19
 -1     10033 3.97420E-03 1.71290E-02-1.66018E-18
 -1     10034 4.01378E-03 1.73312E-02-1.50433E-18
 -1     10035 3.84897E-03 1.71520E-02 1.04354E-18
 -1     10036 3.88732E-03 1.73559E-02-7.72494E-19
 -1     10037 3.72280E-03 1.71758E-02-1.88380E-18
 -1     10038 3.75964E-03 1.73813E-02 2.30393E-19
 -1     10039 3.59523E-03 1.72014E-02-5.42101E-20
 -1     10040 3.63031E-03 1.74084E-02 2.57498E-19
 -1     10041 3.46555E-03 1.72298E-02-2.71051E-20
 -1     10042 3.49867E-03 1.74380E-02 1.32815E-18
 -1     10043 3.33270E-03 1.72626E-02 9.21572E-19
 -1     10044 3.36378E-03 1.74716E-02 8.26704E-19
 -1     10045 3.19517E-03 1.73022E-02-1.07065E-18
 -1     10046 3.22434E-03 1.75114E-02 1.61275E-18
 -1     10047 3.05084E-03 1.73524E-02-3.37458E-18
 -1     10048 3.07857E-03 1.75605E-02-1.57209E-18
 -1     10049 2.89691E-03 1.74188E-02-8.80914E-19
 -1     10050 2.92422E-03 1.76235E-02-2.80537E-18
 -1     10051 2.75865E-03 1.77072E-02-4.74338E-19
 -1     10052 4.67374E-03 1.73854E-02 3.86247E-19
 -1     10053 4.71318E-03 1.75696E-02 5.75982E-19
 -1     10054 4.55173E-03 1.74190E-02 9.48677E-20
 -1     10055 4.59142E-03 1.76072E-02 7.92823E-19
 -1     10056 4.42864E-03 1.74496E-02-3.32037E-19
 -1     10057 4.46850E-03 1.76411E-02 4.20128E-19
 -1     10058 4.30455E-03 1.74781E-02-8.47033E-19
 -1     10059 4.34443E-03 1.76724E-02-1.81604E-18
 -1     10060 4.17947E-03 1.75053E-02 2.27682E-18
 -1     10061 4.21921E-03 1.77021E-02-5.75982E-19
 -1     10062 4.05334E-03 1.75319E-02 3.38813E-20
 -1     10063 4.09276E-03 1.77309E-02 6.09864E-19
 -1     10064 3.92603E-03 1.75584E-02-9.21572E-19
 -1     10065 3.96494E-03 1.77594E-02 1.02999E-18
 -1     10066 3.79729E-03 1.75855E-02 1.31460E-18
 -1     10067 3.83553E-03 1.77883E-02-7.99599E-19
 -1     10068 3.66672E-03 1.76140E-02-1.45012E-18
 -1     10069 3.70417E-03 1.78183E-02 1.63986E-18
 -1     10070 3.53373E-03 1.76448E-02 1.65341E-18
 -1     10071 3.57033E-03 1.78503E-02 1.30104E-18
 -1     10072 3.39750E-03 1.76793E-02-3.25261E-19
 -1     10073 3.43332E-03 1.78856E-02 1.01644E-18
 -1     10074 3.25692E-03 1.77193E-02 2.18196E-18
 -1     10075 3.29220E-03 1.79258E-02 1.28749E-18
 -1     10076 3.11052E-03 1.77675E-02 4.06576E-19
 -1     10077 3.14577E-03 1.79732E-02 3.26616E-18
 -1     10078 2.95650E-03 1.78276E-02-2.50722E-18
 -1     10079 2.99257E-03 1.80309E-02-1.21973E-18
 -1     10080 2.79282E-03 1.79051E-02-1.24683E-18
 -1     10081 2.83104E-03 1.81033E-02-1.88380E-18
 -1     10082 2.65974E-03 1.81961E-02-8.80914E-19
 -1     10083 4.63018E-03 1.77929E-02 2.75116E-18
 -1     10084 4.50750E-03 1.78304E-02 7.18284E-19
 -1     10085 4.38361E-03 1.78648E-02-4.20128E-19
 -1     10086 4.25844E-03 1.78972E-02 8.47033E-19
 -1     10087 4.13192E-03 1.79282E-02-2.50722E-19
 -1     10088 4.00389E-03 1.79588E-02 9.01243E-19
 -1     10089 3.87414E-03 1.79895E-02-2.84603E-19
 -1     10090 3.74236E-03 1.80210E-02 1.69407E-19
 -1     10091 3.60810E-03 1.80543E-02-1.58565E-18
 -1     10092 3.47076E-03 1.80905E-02 1.21973E-19
 -1     10093 3.32956E-03 1.81310E-02 7.58942E-19
 -1     10094 3.18351E-03 1.81777E-02 1.97867E-18
 -1     10095 3.03147E-03 1.82334E-02 1.76183E-18
 -1     10096 2.87222E-03 1.83015E-02-1.68051E-18
 -1     10097 2.70472E-03 1.83866E-02-3.38813E-19
 -1     10098 4.56086E-03 1.83887E-02-2.47334E-19
 -1     10099 4.43729E-03 1.84311E-02-3.35425E-19
 -1     10100 4.31236E-03 1.84707E-02-5.82759E-19
 -1     10101 4.18588E-03 1.85085E-02 7.58942E-19
 -1     10102 4.05765E-03 1.85451E-02 4.23516E-19
 -1     10103 3.92745E-03 1.85815E-02 7.21672E-19
 -1     10104 3.79503E-03 1.86183E-02-9.14796E-20
 -1     10105 3.66005E-03 1.86563E-02-8.60585E-19
 -1     10106 3.52214E-03 1.86965E-02 1.19601E-18
 -1     10107 3.38080E-03 1.87400E-02-5.42101E-19
 -1     10108 3.23549E-03 1.87883E-02 4.20128E-19
 -1     10109 3.08563E-03 1.88432E-02 6.60686E-19
 -1     10110 2.93070E-03 1.89069E-02 4.87891E-19
 -1     10111 2.77041E-03 1.89823E-02-1.35525E-19
 -1     10112 2.60495E-03 1.90722E-02-1.04354E-18
 -1     10113 4.51261E-03 1.87816E-02 8.06375E-19
 -1     10114 4.38854E-03 1.88268E-02-5.21772E-19
 -1     10115 4.26308E-03 1.88695E-02-7.14896E-19
 -1     10116 4.13595E-03 1.89106E-02-7.99599E-19
 -1     10117 4.00693E-03 1.89509E-02-1.15196E-19
 -1     10118 3.87577E-03 1.89909E-02-4.77727E-19
 -1     10119 3.74224E-03 1.90316E-02 4.87891E-19
 -1     10120 3.60605E-03 1.90736E-02 3.69306E-19
 -1     10121 3.46689E-03 1.91179E-02 2.06676E-19
 -1     10122 3.32442E-03 1.91657E-02-1.72795E-19
 -1     10123 3.17829E-03 1.92181E-02-5.14996E-19
 -1     10124 3.02822E-03 1.92770E-02-1.93124E-19
 -1     10125 2.87407E-03 1.93441E-02-4.84503E-19
 -1     10126 2.71603E-03 1.94215E-02-4.06576E-20
 -1     10127 2.55484E-03 1.95113E-02 8.94467E-19
 -1     10128 4.46288E-03 1.91759E-02 1.02322E-18
 -1     10129 4.33840E-03 1.92235E-02-1.35864E-18
 -1     10130 4.21253E-03 1.92691E-02 1.09775E-18
 -1     10131 4.08495E-03 1.93134E-02-6.43745E-19
 -1     10132 3.95541E-03 1.93571E-02 1.15535E-18
 -1     10133 3.82368E-03 1.94007E-02-1.82959E-19
 -1     10134 3.68956E-03 1.94450E-02-1.35525E-20
 -1     10135 3.55283E-03 1.94907E-02 3.96411E-19
 -1     10136 3.41328E-03 1.95387E-02 7.35225E-19
 -1     10137 3.27072E-03 1.95901E-02-6.53909E-19
 -1     10138 3.12499E-03 1.96459E-02 1.12825E-18
 -1     10139 2.97608E-03 1.97075E-02 5.04832E-19
 -1     10140 2.82417E-03 1.97765E-02 1.38913E-19
 -1     10141 2.66978E-03 1.98543E-02-1.05032E-19
 -1     10142 2.51395E-03 1.99421E-02-1.32815E-18
 -1     10143 4.41213E-03 1.95713E-02 1.09098E-18
 -1     10144 4.28734E-03 1.96211E-02-4.13352E-19
 -1     10145 4.16120E-03 1.96694E-02-2.06676E-19
 -1     10146 4.03336E-03 1.97167E-02-9.48677E-19
 -1     10147 3.90357E-03 1.97635E-02-3.89635E-19
 -1     10148 3.77164E-03 1.98105E-02-1.15196E-19
 -1     10149 3.63741E-03 1.98582E-02 2.03288E-19
 -1     10150 3.50074E-03 1.99072E-02-5.01444E-19
 -1     10151 3.36153E-03 1.99584E-02 4.40457E-19
 -1     10152 3.21972E-03 2.00127E-02 1.05032E-19
 -1     10153 3.07536E-03 2.00710E-02-1.59242E-19
 -1     10154 2.92862E-03 2.01344E-02-8.06375E-19
 -1     10155 2.77991E-03 2.02040E-02 1.21973E-19
 -1     10156 2.62995E-03 2.02808E-02-4.37069E-19
 -1     10157 2.47991E-03 2.03654E-02 4.70950E-19
 -1     10158 4.36068E-03 1.99676E-02 2.20229E-19
 -1     10159 4.23571E-03 2.00193E-02-1.18246E-18
 -1     10160 4.10942E-03 2.00700E-02-7.42001E-19
 -1     10161 3.98150E-03 2.01201E-02 1.55854E-19
 -1     10162 3.85171E-03 2.01700E-02-1.20279E-18
 -1     10163 3.71990E-03 2.02200E-02 7.86047E-19
 -1     10164 3.58597E-03 2.02707E-02-1.24683E-18
 -1     10165 3.44986E-03 2.03227E-02 5.86147E-19
 -1     10166 3.31158E-03 2.03766E-02 2.37169E-19
 -1     10167 3.17121E-03 2.04332E-02-7.45389E-20
 -1     10168 3.02891E-03 2.04932E-02 0.00000E+00
 -1     10169 2.88501E-03 2.05575E-02-2.84603E-19
 -1     10170 2.74007E-03 2.06267E-02-3.72694E-19
 -1     10171 2.59491E-03 2.07016E-02 1.69407E-19
 -1     10172 2.45068E-03 2.07822E-02-6.91179E-19
 -1     10173 4.30872E-03 2.03643E-02 3.79471E-19
 -1     10174 4.18366E-03 2.04179E-02 2.23617E-19
 -1     10175 4.05736E-03 2.04710E-02 5.62430E-19
 -1     10176 3.92951E-03 2.05237E-02 6.77626E-20
 -1     10177 3.79993E-03 2.05763E-02-6.91179E-19
 -1     10178 3.66851E-03 2.06291E-02 1.53482E-18
 -1     10179 3.53522E-03 2.06826E-02 3.65918E-19
 -1     10180 3.40009E-03 2.07370E-02-6.43745E-19
 -1     10181 3.26321E-03 2.07931E-02-4.40457E-20
 -1     10182 3.12474E-03 2.08513E-02 2.33781E-19
 -1     10183 2.98499E-03 2.09123E-02 7.96211E-19
 -1     10184 2.84436E-03 2.09767E-02-4.03188E-19
 -1     10185 2.70349E-03 2.10449E-02 7.99599E-19
 -1     10186 2.56320E-03 2.11172E-02 2.40557E-19
 -1     10187 2.42456E-03 2.11935E-02 4.40457E-19
 -1     10188 4.25630E-03 2.07613E-02-3.65918E-19
 -1     10189 4.13125E-03 2.08166E-02-1.01644E-19
 -1     10190 4.00503E-03 2.08719E-02-1.62630E-19
 -1     10191 3.87739E-03 2.09271E-02 3.08320E-19
 -1     10192 3.74819E-03 2.09823E-02 4.60786E-19
 -1     10193 3.61738E-03 2.10377E-02-8.13152E-19
 -1     10194 3.48501E-03 2.10934E-02-1.26377E-18
 -1     10195 3.35115E-03 2.11500E-02 8.06375E-19
 -1     10196 3.21600E-03 2.12077E-02 5.45489E-19
 -1     10197 3.07979E-03 2.12670E-02 6.50521E-19
 -1     10198 2.94289E-03 2.13285E-02-3.32037E-19
 -1     10199 2.80577E-03 2.13923E-02-7.31836E-19
 -1     10200 2.66907E-03 2.14589E-02-3.38813E-19
 -1     10201 2.53357E-03 2.15283E-02 3.48978E-19
 -1     10202 2.40024E-03 2.16001E-02-4.74338E-20
 -1     10203 4.20332E-03 2.11583E-02 7.99599E-19
 -1     10204 4.07837E-03 2.12154E-02-2.06676E-19
 -1     10205 3.95232E-03 2.12728E-02 2.67662E-19
 -1     10206 3.82499E-03 2.13304E-02-1.21973E-19
 -1     10207 3.69630E-03 2.13879E-02-8.47033E-20
 -1     10208 3.56628E-03 2.14455E-02 4.40457E-19
 -1     10209 3.43501E-03 2.15033E-02 2.71051E-20
 -1     10210 3.30267E-03 2.15616E-02 4.98055E-19
 -1     10211 3.16948E-03 2.16205E-02-1.76183E-19
 -1     10212 3.03575E-03 2.16805E-02-1.66018E-19
 -1     10213 2.90189E-03 2.17418E-02-1.08420E-19
 -1     10214 2.76838E-03 2.18047E-02 1.42302E-19
 -1     10215 2.63584E-03 2.18693E-02 3.59142E-19
 -1     10216 2.50499E-03 2.19355E-02-2.16840E-19
 -1     10217 2.37665E-03 2.20029E-02 2.37169E-20
 -1     10218 4.14956E-03 2.15549E-02-1.82959E-19
 -1     10219 4.02478E-03 2.16139E-02 1.49078E-19
 -1     10220 3.89897E-03 2.16735E-02-4.03188E-19
 -1     10221 3.77203E-03 2.17333E-02-1.05032E-19
 -1     10222 3.64395E-03 2.17931E-02-1.25700E-18
 -1     10223 3.51483E-03 2.18527E-02 1.15196E-18
 -1     10224 3.38482E-03 2.19122E-02-6.74238E-19
 -1     10225 3.25414E-03 2.19718E-02-4.94667E-19
 -1     10226 3.12308E-03 2.20315E-02-1.49078E-19
 -1     10227 2.99199E-03 2.20917E-02-1.08081E-18
 -1     10228 2.86126E-03 2.21525E-02-3.99800E-19
 -1     10229 2.73140E-03 2.22141E-02 7.62330E-19
 -1     10230 2.60297E-03 2.22764E-02 9.01243E-19
 -1     10231 2.47660E-03 2.23394E-02 6.77626E-20
 -1     10232 2.35298E-03 2.24024E-02-8.40257E-19
 -1     10233 4.09471E-03 2.19510E-02-2.91379E-19
 -1     10234 3.97014E-03 2.20121E-02 1.45690E-19
 -1     10235 3.84462E-03 2.20739E-02 2.67662E-19
 -1     10236 3.71812E-03 2.21360E-02 2.71051E-19
 -1     10237 3.59073E-03 2.21978E-02-2.64274E-19
 -1     10238 3.46259E-03 2.22593E-02 1.40269E-18
 -1     10239 3.33394E-03 2.23202E-02-3.96411E-19
 -1     10240 3.20504E-03 2.23807E-02-3.79471E-19
 -1     10241 3.07623E-03 2.24409E-02 3.38813E-20
 -1     10242 2.94785E-03 2.25009E-02 1.06049E-18
 -1     10243 2.82032E-03 2.25608E-02-8.87691E-19
 -1     10244 2.69411E-03 2.26208E-02 6.97955E-19
 -1     10245 2.56972E-03 2.26807E-02-1.79571E-19
 -1     10246 2.44768E-03 2.27404E-02 2.64274E-19
 -1     10247 2.32857E-03 2.27993E-02 1.26716E-18
 -1     10248 4.03832E-03 2.23465E-02-4.06576E-20
 -1     10249 3.91401E-03 2.24099E-02 6.77626E-21
 -1     10250 3.78880E-03 2.24741E-02 4.16740E-19
 -1     10251 3.66278E-03 2.25384E-02-3.79471E-19
 -1     10252 3.53610E-03 2.26022E-02 3.21873E-19
 -1     10253 3.40902E-03 2.26652E-02-9.72394E-19
 -1     10254 3.28180E-03 2.27273E-02 1.24344E-18
 -1     10255 3.15477E-03 2.27885E-02 1.53482E-18
 -1     10256 3.02828E-03 2.28488E-02-1.14519E-18
 -1     10257 2.90269E-03 2.29083E-02 1.14180E-18
 -1     10258 2.77841E-03 2.29670E-02-2.84603E-19
 -1     10259 2.65584E-03 2.30251E-02-1.35525E-19
 -1     10260 2.53544E-03 2.30825E-02-1.32815E-18
 -1     10261 2.41765E-03 2.31389E-02-6.43745E-19
 -1     10262 2.30290E-03 2.31939E-02 1.76183E-19
 -1     10263 3.97988E-03 2.27413E-02-2.37169E-19
 -1     10264 3.85583E-03 2.28073E-02 3.52366E-19
 -1     10265 3.73095E-03 2.28740E-02-1.91429E-18
 -1     10266 3.60541E-03 2.29405E-02-3.89635E-19
 -1     10267 3.47949E-03 2.30062E-02 1.82959E-19
 -1     10268 3.35350E-03 2.30707E-02 3.28649E-19
 -1     10269 3.22778E-03 2.31337E-02-9.21572E-19
 -1     10270 3.10270E-03 2.31952E-02-2.06676E-19
 -1     10271 2.97861E-03 2.32553E-02 4.50622E-19
 -1     10272 2.85588E-03 2.33139E-02-3.93023E-19
 -1     10273 2.73489E-03 2.33713E-02 2.87991E-19
 -1     10274 2.61601E-03 2.34273E-02 4.09964E-19
 -1     10275 2.49959E-03 2.34820E-02 1.08420E-18
 -1     10276 2.38600E-03 2.35351E-02 1.96512E-19
 -1     10277 2.27555E-03 2.35863E-02-2.30393E-19
 -1     10278 3.91877E-03 2.31353E-02 1.30104E-18
 -1     10279 3.79499E-03 2.32043E-02-8.13152E-20
 -1     10280 3.67041E-03 2.32737E-02 1.57887E-18
 -1     10281 3.54537E-03 2.33426E-02 3.42201E-19
 -1     10282 3.42022E-03 2.34101E-02 2.03288E-20
 -1     10283 3.29537E-03 2.34758E-02 1.82959E-19
 -1     10284 3.17122E-03 2.35395E-02 4.20128E-19
 -1     10285 3.04816E-03 2.36011E-02 1.35525E-19
 -1     10286 2.92657E-03 2.36606E-02-3.45589E-19
 -1     10287 2.80681E-03 2.37181E-02 3.45589E-19
 -1     10288 2.68920E-03 2.37737E-02 5.62430E-19
 -1     10289 2.57406E-03 2.38275E-02 1.25700E-18
 -1     10290 2.46167E-03 2.38794E-02-7.11508E-20
 -1     10291 2.35230E-03 2.39293E-02-4.37069E-19
 -1     10292 2.24618E-03 2.39769E-02 6.26804E-19
 -1     10293 3.85430E-03 2.35285E-02 1.38575E-18
 -1     10294 3.73075E-03 2.36010E-02-1.66018E-19
 -1     10295 3.60646E-03 2.36734E-02 3.21873E-19
 -1     10296 3.48190E-03 2.37447E-02 7.38613E-19
 -1     10297 3.35755E-03 2.38139E-02-1.05032E-19
 -1     10298 3.23389E-03 2.38807E-02-6.09864E-19
 -1     10299 3.11140E-03 2.39448E-02-4.13352E-19
 -1     10300 2.99048E-03 2.40061E-02 1.34848E-18
 -1     10301 2.87153E-03 2.40648E-02-1.42640E-18
 -1     10302 2.75487E-03 2.41208E-02-1.10114E-18
 -1     10303 2.64077E-03 2.41745E-02 3.04932E-20
 -1     10304 2.52950E-03 2.42258E-02-3.72694E-19
 -1     10305 2.42125E-03 2.42749E-02-1.20617E-18
 -1     10306 2.31620E-03 2.43215E-02 1.85670E-18
 -1     10307 2.21448E-03 2.43656E-02-3.62530E-19
 -1     10308 3.78569E-03 2.39212E-02-3.55754E-19
 -1     10309 3.66232E-03 2.39976E-02-2.03288E-19
 -1     10310 3.53828E-03 2.40733E-02 4.94667E-19
 -1     10311 3.41419E-03 2.41470E-02-3.76083E-19
 -1     10312 3.29066E-03 2.42179E-02-1.02999E-18
 -1     10313 3.16829E-03 2.42856E-02-8.53809E-19
 -1     10314 3.04758E-03 2.43497E-02 1.86347E-19
 -1     10315 2.92898E-03 2.44105E-02-8.23316E-19
 -1     10316 2.81285E-03 2.44679E-02 6.60686E-19
 -1     10317 2.69948E-03 2.45222E-02-1.99900E-19
 -1     10318 2.58910E-03 2.45737E-02 7.45389E-20
 -1     10319 2.48188E-03 2.46224E-02-5.42101E-20
 -1     10320 2.37796E-03 2.46684E-02-1.21973E-19
 -1     10321 2.27740E-03 2.47118E-02 1.62630E-19
 -1     10322 2.18025E-03 2.47524E-02-2.02271E-18
 -1     10323 3.71206E-03 2.43134E-02 5.35325E-19
 -1     10324 3.58880E-03 2.43944E-02 5.11608E-19
 -1     10325 3.46496E-03 2.44737E-02 1.45351E-18
 -1     10326 3.34134E-03 2.45499E-02-5.82759E-19
 -1     10327 3.21870E-03 2.46223E-02 5.96311E-19
 -1     10328 3.09773E-03 2.46906E-02 9.01243E-19
 -1     10329 2.97899E-03 2.47545E-02 2.37169E-19
 -1     10330 2.86294E-03 2.48142E-02 1.08081E-18
 -1     10331 2.74990E-03 2.48701E-02-1.06387E-18
 -1     10332 2.64011E-03 2.49223E-02 3.59142E-19
 -1     10333 2.53372E-03 2.49712E-02-5.96311E-19
 -1     10334 2.43083E-03 2.50170E-02-6.77626E-19
 -1     10335 2.33147E-03 2.50600E-02 1.67374E-18
 -1     10336 2.23565E-03 2.51000E-02 3.86247E-19
 -1     10337 2.14331E-03 2.51372E-02 8.57197E-19
 -1     10338 3.63245E-03 2.47057E-02-6.09864E-19
 -1     10339 3.50920E-03 2.47917E-02 1.22989E-18
 -1     10340 3.38550E-03 2.48748E-02-8.43645E-19
 -1     10341 3.26236E-03 2.49536E-02 3.38813E-20
 -1     10342 3.14072E-03 2.50274E-02 1.93124E-19
 -1     10343 3.02135E-03 2.50958E-02-7.58942E-19
 -1     10344 2.90486E-03 2.51591E-02-1.59242E-19
 -1     10345 2.79168E-03 2.52174E-02-1.11808E-18
 -1     10346 2.68209E-03 2.52712E-02 2.23956E-18
 -1     10347 2.57625E-03 2.53210E-02-8.97855E-19
 -1     10348 2.47423E-03 2.53670E-02 1.77538E-18
 -1     10349 2.37601E-03 2.54098E-02-4.67562E-19
 -1     10350 2.28156E-03 2.54494E-02-7.99599E-19
 -1     10351 2.19077E-03 2.54861E-02-4.98055E-19
 -1     10352 2.10352E-03 2.55199E-02-1.08420E-19
 -1     10353 3.54576E-03 2.50983E-02 7.86047E-19
 -1     10354 3.42239E-03 2.51900E-02-3.08320E-19
 -1     10355 3.29877E-03 2.52772E-02-7.11508E-19
 -1     10356 3.17618E-03 2.53584E-02 3.38813E-19
 -1     10357 3.05571E-03 2.54332E-02 1.09098E-18
 -1     10358 2.93824E-03 2.55015E-02 6.94567E-19
 -1     10359 2.82439E-03 2.55635E-02-4.74338E-20
 -1     10360 2.71454E-03 2.56199E-02-5.89535E-19
 -1     10361 2.60889E-03 2.56712E-02-8.80914E-19
 -1     10362 2.50748E-03 2.57180E-02 8.40257E-19
 -1     10363 2.41028E-03 2.57609E-02-1.46706E-18
 -1     10364 2.31719E-03 2.58004E-02 1.20279E-18
 -1     10365 2.22804E-03 2.58366E-02 1.72795E-19
 -1     10366 2.14266E-03 2.58699E-02-3.72694E-19
 -1     10367 2.06085E-03 2.59003E-02 1.69407E-19
 -1     10368 3.45077E-03 2.54918E-02 7.82658E-19
 -1     10369 3.32712E-03 2.55899E-02 5.42101E-19
 -1     10370 3.20354E-03 2.56813E-02 7.14896E-19
 -1     10371 3.08160E-03 2.57648E-02 9.21572E-19
 -1     10372 2.96260E-03 2.58401E-02-7.04731E-19
 -1     10373 2.84747E-03 2.59075E-02 5.92923E-19
 -1     10374 2.73682E-03 2.59677E-02 3.69306E-19
 -1     10375 2.63091E-03 2.60215E-02-5.75982E-19
 -1     10376 2.52981E-03 2.60698E-02 4.16740E-19
 -1     10377 2.43345E-03 2.61133E-02 3.99800E-19
 -1     10378 2.34165E-03 2.61527E-02 9.58841E-19
 -1     10379 2.25419E-03 2.61886E-02-4.74338E-20
 -1     10380 2.17082E-03 2.62213E-02-3.04932E-19
 -1     10381 2.09129E-03 2.62511E-02 6.64074E-19
 -1     10382 2.01531E-03 2.62781E-02 3.48978E-19
 -1     10383 3.34604E-03 2.58871E-02 9.31736E-19
 -1     10384 3.22193E-03 2.59922E-02-2.47334E-19
 -1     10385 3.09837E-03 2.60878E-02 2.03288E-19
 -1     10386 2.97731E-03 2.61731E-02-9.82558E-20
 -1     10387 2.86025E-03 2.62482E-02-1.35525E-20
 -1     10388 2.74812E-03 2.63140E-02-6.09864E-19
 -1     10389 2.64142E-03 2.63715E-02 1.17568E-18
 -1     10390 2.54025E-03 2.64220E-02 6.23416E-19
 -1     10391 2.44451E-03 2.64667E-02 1.45690E-18
 -1     10392 2.35394E-03 2.65064E-02-1.69407E-20
 -1     10393 2.26821E-03 2.65420E-02-4.33681E-19
 -1     10394 2.18700E-03 2.65740E-02 6.36969E-19
 -1     10395 2.10994E-03 2.66031E-02-1.35525E-19
 -1     10396 2.03671E-03 2.66293E-02 2.16163E-18
 -1     10397 1.96698E-03 2.66531E-02-4.70950E-19
 -1     10398 3.22990E-03 2.62852E-02-9.41901E-19
 -1     10399 3.10510E-03 2.63977E-02 2.94767E-19
 -1     10400 2.98163E-03 2.64973E-02-6.03087E-19
 -1     10401 2.86189E-03 2.65836E-02 5.79371E-19
 -1     10402 2.74749E-03 2.66575E-02-1.58565E-18
 -1     10403 2.63931E-03 2.67206E-02-2.84603E-19
 -1     10404 2.53760E-03 2.67745E-02-1.09775E-18
 -1     10405 2.44221E-03 2.68210E-02 2.37169E-19
 -1     10406 2.35279E-03 2.68614E-02-6.09864E-19
 -1     10407 2.26888E-03 2.68968E-02 1.28749E-19
 -1     10408 2.19001E-03 2.69283E-02 1.15535E-18
 -1     10409 2.11570E-03 2.69564E-02-8.13152E-19
 -1     10410 2.04553E-03 2.69816E-02 9.96111E-19
 -1     10411 1.97911E-03 2.70044E-02-6.57298E-19
 -1     10412 1.91606E-03 2.70248E-02 3.15096E-19
 -1     10413 3.10031E-03 2.66874E-02 3.45589E-19
 -1     10414 2.97460E-03 2.68077E-02-4.06576E-19
 -1     10415 2.85146E-03 2.69106E-02 4.70950E-19
 -1     10416 2.73378E-03 2.69967E-02 2.57498E-19
 -1     10417 2.62321E-03 2.70679E-02 2.67662E-19
 -1     10418 2.52031E-03 2.71269E-02 6.77626E-20
 -1     10419 2.42496E-03 2.71761E-02-1.10114E-18
 -1     10420 2.33663E-03 2.72177E-02 6.23416E-19
 -1     10421 2.25469E-03 2.72532E-02-2.30393E-19
 -1     10422 2.17844E-03 2.72841E-02 8.13152E-19
 -1     10423 2.10725E-03 2.73111E-02-7.28448E-19
 -1     10424 2.04057E-03 2.73352E-02 5.42101E-19
 -1     10425 1.97788E-03 2.73566E-02-1.34848E-18
 -1     10426 1.91876E-03 2.73758E-02 5.08220E-20
 -1     10427 1.86281E-03 2.73930E-02 9.48677E-20
 -1     10428 2.95474E-03 2.70955E-02 5.04832E-19
 -1     10429 2.82792E-03 2.72236E-02 1.66018E-19
 -1     10430 2.70570E-03 2.73284E-02-7.45389E-19
 -1     10431 2.59142E-03 2.74121E-02 3.38813E-21
 -1     10432 2.48642E-03 2.74787E-02-4.87891E-19
 -1     10433 2.39067E-03 2.75321E-02-2.37169E-20
 -1     10434 2.30343E-03 2.75754E-02 2.20229E-19
 -1     10435 2.22371E-03 2.76113E-02-6.03087E-19
 -1     10436 2.15054E-03 2.76415E-02 8.09763E-19
 -1     10437 2.08302E-03 2.76674E-02-6.94567E-19
 -1     10438 2.02041E-03 2.76900E-02 4.37069E-19
 -1     10439 1.96205E-03 2.77098E-02-7.55553E-19
 -1     10440 1.90742E-03 2.77275E-02 1.03338E-18
 -1     10441 1.85607E-03 2.77432E-02-4.60786E-19
 -1     10442 1.80760E-03 2.77573E-02-8.74138E-19
 -1     10443 2.78988E-03 2.75122E-02 4.23516E-19
 -1     10444 2.66193E-03 2.76471E-02-5.55654E-19
 -1     10445 2.54196E-03 2.77510E-02 1.21973E-19
 -1     10446 2.43337E-03 2.78295E-02-9.92723E-19
 -1     10447 2.33657E-03 2.78890E-02 2.71051E-19
 -1     10448 2.25046E-03 2.79350E-02-4.57398E-19
 -1     10449 2.17346E-03 2.79713E-02 1.08081E-18
 -1     10450 2.10409E-03 2.80008E-02-5.99699E-19
 -1     10451 2.04107E-03 2.80253E-02 3.25261E-19
 -1     10452 1.98336E-03 2.80461E-02-1.21973E-19
 -1     10453 1.93015E-03 2.80641E-02 2.47334E-19
 -1     10454 1.88078E-03 2.80799E-02 1.02660E-18
 -1     10455 1.83472E-03 2.80939E-02-5.62430E-19
 -1     10456 1.79156E-03 2.81063E-02 1.00966E-18
 -1     10457 1.75091E-03 2.81174E-02 5.99699E-19
 -1     10458 2.60105E-03 2.79411E-02-6.36969E-19
 -1     10459 2.47264E-03 2.80801E-02-9.14796E-20
 -1     10460 2.35784E-03 2.81783E-02 1.01644E-18
 -1     10461 2.25885E-03 2.82473E-02-9.79170E-19
 -1     10462 2.17399E-03 2.82969E-02-7.69106E-19
 -1     10463 2.10059E-03 2.83338E-02 9.48677E-19
 -1     10464 2.03621E-03 2.83622E-02-9.58841E-19
 -1     10465 1.97896E-03 2.83850E-02 1.89735E-19
 -1     10466 1.92740E-03 2.84037E-02-4.09964E-19
 -1     10467 1.88048E-03 2.84195E-02-1.37897E-18
 -1     10468 1.83741E-03 2.84331E-02-6.43745E-19
 -1     10469 1.79758E-03 2.84450E-02-1.09098E-18
 -1     10470 1.76052E-03 2.84555E-02-1.89735E-19
 -1     10471 1.72586E-03 2.84648E-02 7.11508E-20
 -1     10472 1.69329E-03 2.84732E-02-1.02999E-18
 -1     10473 2.38185E-03 2.83874E-02 9.21572E-19
 -1     10474 2.25557E-03 2.85232E-02-1.26377E-18
 -1     10475 2.15184E-03 2.86082E-02 1.16552E-18
 -1     10476 2.06864E-03 2.86627E-02-1.20617E-18
 -1     10477 2.00052E-03 2.86997E-02 1.59920E-18
 -1     10478 1.94319E-03 2.87264E-02-1.35525E-19
 -1     10479 1.89372E-03 2.87467E-02-8.97855E-19
 -1     10480 1.85014E-03 2.87627E-02 1.27394E-18
 -1     10481 1.81112E-03 2.87758E-02 1.18585E-19
 -1     10482 1.77574E-03 2.87868E-02 1.59581E-18
 -1     10483 1.74334E-03 2.87963E-02-3.72694E-19
 -1     10484 1.71344E-03 2.88046E-02 8.80914E-20
 -1     10485 1.68566E-03 2.88119E-02-4.40457E-19
 -1     10486 1.65971E-03 2.88184E-02 3.45589E-19
 -1     10487 1.63535E-03 2.88242E-02 3.01544E-19
 -1     10488 2.11969E-03 2.88604E-02-3.48978E-19
 -1     10489 2.00625E-03 2.89750E-02-9.58841E-19
 -1     10490 1.92620E-03 2.90353E-02-8.84302E-19
 -1     10491 1.86679E-03 2.90710E-02 9.75782E-19
 -1     10492 1.82027E-03 2.90942E-02-9.04631E-19
 -1     10493 1.78182E-03 2.91107E-02 1.10453E-18
 -1     10494 1.74891E-03 2.91231E-02-5.01444E-19
 -1     10495 1.72000E-03 2.91329E-02 9.48677E-20
 -1     10496 1.69416E-03 2.91409E-02-5.69206E-19
 -1     10497 1.67073E-03 2.91476E-02-1.73811E-18
 -1     10498 1.64927E-03 2.91534E-02-1.99900E-19
 -1     10499 1.62947E-03 2.91585E-02 1.25361E-18
 -1     10500 1.61107E-03 2.91630E-02 5.59042E-19
 -1     10501 1.59390E-03 2.91670E-02-1.59920E-18
 -1     10502 1.57779E-03 2.91706E-02 1.05032E-19
 -1     10503 1.80838E-03 2.93522E-02-1.75844E-18
 -1     10504 1.73066E-03 2.94235E-02 2.40557E-19
 -1     10505 1.69074E-03 2.94513E-02 1.15874E-18
 -1     10506 1.66202E-03 2.94673E-02-7.04731E-19
 -1     10507 1.63975E-03 2.94776E-02-6.40357E-19
 -1     10508 1.62126E-03 2.94850E-02-1.35525E-18
 -1     10509 1.60533E-03 2.94906E-02 1.69407E-18
 -1     10510 1.59127E-03 2.94949E-02 6.09864E-19
 -1     10511 1.57863E-03 2.94985E-02 7.69106E-19
 -1     10512 1.56713E-03 2.95016E-02 3.25261E-19
 -1     10513 1.55657E-03 2.95042E-02-8.13152E-19
 -1     10514 1.54681E-03 2.95065E-02-1.55854E-18
 -1     10515 1.53773E-03 2.95086E-02-7.18284E-19
 -1     10516 1.52925E-03 2.95104E-02 6.33581E-19
 -1     10517 1.52130E-03 2.95120E-02 2.64274E-19
 -1     10518 4.58425E-03 1.81928E-02 5.08220E-19
 -1     10519 4.62223E-03 1.83661E-02 5.08220E-19
 -1     10520 4.46095E-03 1.82337E-02-8.13152E-19
 -1     10521 4.49923E-03 1.84103E-02-5.48877E-19
 -1     10522 4.33634E-03 1.82717E-02-1.47045E-18
 -1     10523 4.37501E-03 1.84512E-02-2.22261E-18
 -1     10524 4.21026E-03 1.83077E-02 2.53432E-18
 -1     10525 4.24933E-03 1.84898E-02-6.50521E-19
 -1     10526 4.08252E-03 1.83426E-02-1.28749E-19
 -1     10527 4.12200E-03 1.85269E-02 3.23228E-18
 -1     10528 3.95294E-03 1.83770E-02 1.46367E-18
 -1     10529 3.99281E-03 1.85633E-02 3.08998E-18
 -1     10530 3.82127E-03 1.84118E-02 2.91379E-19
 -1     10531 3.86154E-03 1.85998E-02 1.53821E-18
 -1     10532 3.68717E-03 1.84477E-02-2.07354E-18
 -1     10533 3.72788E-03 1.86371E-02-1.38913E-18
 -1     10534 3.55022E-03 1.84857E-02 9.89334E-19
 -1     10535 3.59150E-03 1.86760E-02 1.05032E-18
 -1     10536 3.40988E-03 1.85269E-02-2.34459E-18
 -1     10537 3.45193E-03 1.87177E-02 7.38613E-19
 -1     10538 3.26551E-03 1.85728E-02 2.31748E-18
 -1     10539 3.30868E-03 1.87634E-02 6.43745E-19
 -1     10540 3.11639E-03 1.86253E-02 1.84314E-18
 -1     10541 3.16117E-03 1.88148E-02 7.99599E-19
 -1     10542 2.96180E-03 1.86868E-02 1.58565E-18
 -1     10543 3.00882E-03 1.88738E-02 2.89346E-18
 -1     10544 2.80114E-03 1.87603E-02-5.89535E-19
 -1     10545 2.85122E-03 1.89430E-02-4.60786E-19
 -1     10546 2.63426E-03 1.88494E-02-5.48877E-19
 -1     10547 2.68828E-03 1.90252E-02-3.27971E-18
 -1     10548 2.52057E-03 1.91237E-02-6.50521E-19
 -1     10549 4.53696E-03 1.85850E-02 7.86047E-19
 -1     10550 4.57424E-03 1.87578E-02 2.00577E-18
 -1     10551 4.41312E-03 1.86288E-02-1.34848E-18
 -1     10552 4.45073E-03 1.88046E-02-1.04354E-18
 -1     10553 4.28791E-03 1.86700E-02-2.39202E-18
 -1     10554 4.32600E-03 1.88484E-02-3.15096E-18
 -1     10555 4.16109E-03 1.87094E-02 2.98156E-19
 -1     10556 4.19974E-03 1.88902E-02-2.60209E-18
 -1     10557 4.03243E-03 1.87479E-02 1.62630E-19
 -1     10558 4.07169E-03 1.89308E-02-2.54110E-18
 -1     10559 3.90170E-03 1.87862E-02 1.00289E-18
 -1     10560 3.94163E-03 1.89709E-02-1.25361E-18
 -1     10561 3.76865E-03 1.88249E-02 1.04354E-18
 -1     10562 3.80932E-03 1.90112E-02-6.43745E-19
 -1     10563 3.63299E-03 1.88649E-02-3.18484E-19
 -1     10564 3.67450E-03 1.90524E-02 1.59920E-18
 -1     10565 3.49434E-03 1.89072E-02 1.57209E-18
 -1     10566 3.53687E-03 1.90954E-02 1.01644E-18
 -1     10567 3.35230E-03 1.89529E-02-9.21572E-19
 -1     10568 3.39610E-03 1.91413E-02 2.71051E-20
 -1     10569 3.20641E-03 1.90034E-02-5.35325E-19
 -1     10570 3.25184E-03 1.91912E-02-1.52466E-18
 -1     10571 3.05624E-03 1.90604E-02 1.19940E-18
 -1     10572 3.10376E-03 1.92466E-02-7.31836E-19
 -1     10573 2.90148E-03 1.91260E-02-3.93023E-19
 -1     10574 2.95165E-03 1.93094E-02-9.82558E-19
 -1     10575 2.74210E-03 1.92026E-02-1.01644E-19
 -1     10576 2.79550E-03 1.93813E-02-1.43657E-18
 -1     10577 2.57858E-03 1.92928E-02-6.16640E-19
 -1     10578 2.63575E-03 1.94647E-02 2.96800E-18
 -1     10579 2.47350E-03 1.95614E-02 1.11131E-18
 -1     10580 4.48790E-03 1.89786E-02 2.96123E-18
 -1     10581 4.52473E-03 1.91511E-02 3.40846E-18
 -1     10582 4.36361E-03 1.90250E-02-2.54110E-18
 -1     10583 4.40079E-03 1.92000E-02-2.84603E-19
 -1     10584 4.23793E-03 1.90692E-02-1.08420E-19
 -1     10585 4.27566E-03 1.92465E-02-1.79571E-18
 -1     10586 4.11055E-03 1.91119E-02-2.26327E-18
 -1     10587 4.14897E-03 1.92914E-02-4.33681E-19
 -1     10588 3.98123E-03 1.91539E-02 5.48877E-19
 -1     10589 4.02044E-03 1.93353E-02-6.50521E-19
 -1     10590 3.84975E-03 1.91958E-02-9.75782E-19
 -1     10591 3.88983E-03 1.93788E-02 1.85670E-18
 -1     10592 3.71586E-03 1.92383E-02 9.01243E-19
 -1     10593 3.75694E-03 1.94227E-02-1.08420E-18
 -1     10594 3.57932E-03 1.92822E-02 1.92446E-18
 -1     10595 3.62154E-03 1.94676E-02-2.37169E-19
 -1     10596 3.43986E-03 1.93284E-02 1.01644E-18
 -1     10597 3.48342E-03 1.95144E-02 1.84992E-18
 -1     10598 3.29723E-03 1.93781E-02-1.88380E-18
 -1     10599 3.34239E-03 1.95639E-02 7.72494E-19
 -1     10600 3.15116E-03 1.94323E-02 5.69206E-19
 -1     10601 3.19826E-03 1.96173E-02 5.14996E-19
 -1     10602 3.00152E-03 1.94927E-02 1.45012E-18
 -1     10603 3.05093E-03 1.96759E-02 1.58565E-18
 -1     10604 2.84834E-03 1.95609E-02-9.35124E-19
 -1     10605 2.90048E-03 1.97410E-02 4.74338E-19
 -1     10606 2.69199E-03 1.96387E-02-2.23617E-19
 -1     10607 2.74723E-03 1.98142E-02 9.89334E-19
 -1     10608 2.53339E-03 1.97277E-02-6.50521E-19
 -1     10609 2.59195E-03 1.98969E-02-2.90702E-18
 -1     10610 2.43600E-03 1.99901E-02-4.16740E-18
 -1     10611 4.43761E-03 1.93735E-02 3.80148E-18
 -1     10612 4.47414E-03 1.95457E-02 3.30004E-18
 -1     10613 4.31296E-03 1.94222E-02-3.63208E-18
 -1     10614 4.34988E-03 1.95964E-02 2.17518E-18
 -1     10615 4.18694E-03 1.94692E-02 2.34459E-18
 -1     10616 4.22447E-03 1.96454E-02-2.99511E-18
 -1     10617 4.05921E-03 1.95150E-02-2.58853E-18
 -1     10618 4.09751E-03 1.96931E-02-9.41901E-19
 -1     10619 3.92951E-03 1.95603E-02 2.28360E-18
 -1     10620 3.96872E-03 1.97401E-02-1.93801E-18
 -1     10621 3.79764E-03 1.96056E-02-2.10064E-19
 -1     10622 3.83789E-03 1.97870E-02-1.84314E-18
 -1     10623 3.66340E-03 1.96516E-02 1.08420E-18
 -1     10624 3.70482E-03 1.98342E-02 7.31836E-19
 -1     10625 3.52663E-03 1.96991E-02 4.67562E-19
 -1     10626 3.56939E-03 1.98825E-02-7.58942E-19
 -1     10627 3.38717E-03 1.97488E-02 1.57209E-18
 -1     10628 3.43146E-03 1.99325E-02 4.94667E-19
 -1     10629 3.24489E-03 1.98016E-02-1.42302E-19
 -1     10630 3.29095E-03 1.99851E-02 8.33480E-19
 -1     10631 3.09974E-03 1.98588E-02 1.64663E-18
 -1     10632 3.14785E-03 2.00413E-02-1.15196E-19
 -1     10633 2.95181E-03 1.99215E-02-2.10064E-19
 -1     10634 3.00227E-03 2.01020E-02-1.91768E-18
 -1     10635 2.80141E-03 1.99909E-02 6.77626E-20
 -1     10636 2.85447E-03 2.01684E-02-3.79471E-19
 -1     10637 2.64917E-03 2.00683E-02-1.10453E-18
 -1     10638 2.70502E-03 2.02415E-02-4.60786E-19
 -1     10639 2.49621E-03 2.01547E-02-1.19262E-18
 -1     10640 2.55485E-03 2.03221E-02-7.86047E-19
 -1     10641 2.40536E-03 2.04107E-02 9.41901E-19
 -1     10642 4.38648E-03 1.97693E-02 1.65341E-18
 -1     10643 4.42281E-03 1.99412E-02 1.84314E-18
 -1     10644 4.26158E-03 1.98201E-02-3.29326E-18
 -1     10645 4.29833E-03 1.99936E-02-2.39880E-18
 -1     10646 4.13535E-03 1.98697E-02-1.94479E-18
 -1     10647 4.17275E-03 2.00448E-02-3.59142E-18
 -1     10648 4.00745E-03 1.99184E-02-1.66018E-18
 -1     10649 4.04568E-03 2.00952E-02-7.79270E-19
 -1     10650 3.87763E-03 1.99668E-02-3.11030E-18
 -1     10651 3.91685E-03 2.01451E-02-1.73472E-18
 -1     10652 3.74573E-03 2.00153E-02 9.08019E-19
 -1     10653 3.78606E-03 2.01950E-02-1.22650E-18
 -1     10654 3.61160E-03 2.00645E-02-1.91091E-18
 -1     10655 3.65320E-03 2.02453E-02-1.69407E-19
 -1     10656 3.47515E-03 2.01151E-02 4.06576E-20
 -1     10657 3.51819E-03 2.02965E-02-3.00188E-18
 -1     10658 3.33634E-03 2.01677E-02 1.30782E-18
 -1     10659 3.38099E-03 2.03494E-02 1.94479E-18
 -1     10660 3.19518E-03 2.02232E-02 1.69407E-19
 -1     10661 3.24165E-03 2.04045E-02 3.06965E-18
 -1     10662 3.05177E-03 2.02825E-02 2.98156E-19
 -1     10663 3.10028E-03 2.04627E-02-1.13164E-18
 -1     10664 2.90639E-03 2.03464E-02-2.83248E-18
 -1     10665 2.95713E-03 2.05247E-02-1.13164E-18
 -1     10666 2.75951E-03 2.04160E-02 8.80914E-20
 -1     10667 2.81263E-03 2.05914E-02-1.04354E-18
 -1     10668 2.61193E-03 2.04919E-02-9.01243E-19
 -1     10669 2.66745E-03 2.06635E-02-8.33480E-19
 -1     10670 2.46481E-03 2.05746E-02-2.71051E-20
 -1     10671 2.52259E-03 2.07412E-02-7.79270E-19
 -1     10672 2.37937E-03 2.08246E-02-1.63308E-18
 -1     10673 4.33476E-03 2.01659E-02 1.56532E-18
 -1     10674 4.37091E-03 2.03373E-02 6.03087E-19
 -1     10675 4.20973E-03 2.02186E-02-1.43657E-18
 -1     10676 4.24632E-03 2.03912E-02 1.60597E-18
 -1     10677 4.08342E-03 2.02705E-02 6.09864E-19
 -1     10678 4.12069E-03 2.04445E-02 3.04932E-19
 -1     10679 3.95552E-03 2.03219E-02-2.23617E-19
 -1     10680 3.99364E-03 2.04974E-02 2.12097E-18
 -1     10681 3.82581E-03 2.03732E-02-2.62241E-18
 -1     10682 3.86494E-03 2.05500E-02-1.88380E-18
 -1     10683 3.69416E-03 2.04246E-02 3.61852E-18
 -1     10684 3.73445E-03 2.06027E-02 1.99900E-18
 -1     10685 3.56052E-03 2.04768E-02-6.16640E-19
 -1     10686 3.60210E-03 2.06557E-02 3.69984E-18
 -1     10687 3.42485E-03 2.05300E-02-7.79270E-19
 -1     10688 3.46788E-03 2.07096E-02-9.69006E-19
 -1     10689 3.28722E-03 2.05851E-02-6.36969E-19
 -1     10690 3.33186E-03 2.07648E-02-2.10064E-19
 -1     10691 3.14775E-03 2.06425E-02 2.77827E-19
 -1     10692 3.19416E-03 2.08219E-02 6.09864E-19
 -1     10693 3.00667E-03 2.07031E-02 1.02999E-18
 -1     10694 3.05500E-03 2.08814E-02 2.18196E-18
 -1     10695 2.86438E-03 2.07675E-02-7.31836E-19
 -1     10696 2.91475E-03 2.09440E-02 1.98545E-18
 -1     10697 2.72145E-03 2.08364E-02 6.16640E-19
 -1     10698 2.77391E-03 2.10103E-02 3.45589E-19
 -1     10699 2.57872E-03 2.09100E-02 5.75982E-19
 -1     10700 2.63321E-03 2.10805E-02 1.33492E-18
 -1     10701 2.43732E-03 2.09885E-02 1.08420E-19
 -1     10702 2.49359E-03 2.11549E-02 3.49655E-18
 -1     10703 2.35627E-03 2.12329E-02 1.82959E-19
 -1     10704 4.28257E-03 2.05628E-02 6.77626E-21
 -1     10705 4.31850E-03 2.07337E-02-5.14996E-19
 -1     10706 4.15751E-03 2.06173E-02 4.13352E-19
 -1     10707 4.19390E-03 2.07890E-02-9.48677E-19
 -1     10708 4.03123E-03 2.06714E-02 8.40257E-19
 -1     10709 4.06831E-03 2.08443E-02-1.45690E-18
 -1     10710 3.90347E-03 2.07254E-02 4.87891E-19
 -1     10711 3.94140E-03 2.08995E-02 5.01444E-19
 -1     10712 3.77406E-03 2.07794E-02-2.91379E-19
 -1     10713 3.81299E-03 2.09547E-02 2.06676E-18
 -1     10714 3.64293E-03 2.08335E-02 3.04932E-19
 -1     10715 3.68299E-03 2.10100E-02-3.79471E-19
 -1     10716 3.51007E-03 2.08881E-02-1.72117E-18
 -1     10717 3.55139E-03 2.10655E-02-3.59820E-18
 -1     10718 3.37554E-03 2.09437E-02-2.71051E-20
 -1     10719 3.41826E-03 2.11216E-02-4.26905E-19
 -1     10720 3.23948E-03 2.10006E-02 1.32137E-18
 -1     10721 3.28373E-03 2.11787E-02 9.62229E-19
 -1     10722 3.10212E-03 2.10595E-02 1.13841E-18
 -1     10723 3.14801E-03 2.12371E-02 3.29326E-18
 -1     10724 2.96376E-03 2.11207E-02 4.40457E-19
 -1     10725 3.01140E-03 2.12975E-02 1.30104E-18
 -1     10726 2.82487E-03 2.11849E-02-1.51111E-18
 -1     10727 2.87432E-03 2.13601E-02-1.38913E-18
 -1     10728 2.68607E-03 2.12524E-02 1.36881E-18
 -1     10729 2.73732E-03 2.14253E-02-3.36780E-18
 -1     10730 2.54819E-03 2.13233E-02 1.68051E-18
 -1     10731 2.60111E-03 2.14933E-02 3.18484E-19
 -1     10732 2.41225E-03 2.13973E-02-8.13152E-20
 -1     10733 2.46656E-03 2.15639E-02 3.86247E-19
 -1     10734 2.33472E-03 2.16367E-02 1.15874E-18
 -1     10735 4.22989E-03 2.09598E-02 8.87691E-19
 -1     10736 4.26547E-03 2.11299E-02 2.60209E-18
 -1     10737 4.10488E-03 2.10160E-02-1.42302E-19
 -1     10738 4.14096E-03 2.11868E-02 8.60585E-19
 -1     10739 3.97874E-03 2.10724E-02 1.45012E-18
 -1     10740 4.01549E-03 2.12441E-02-1.43657E-18
 -1     10741 3.85124E-03 2.11288E-02-6.77626E-19
 -1     10742 3.88882E-03 2.13016E-02 6.09864E-20
 -1     10743 3.72228E-03 2.11852E-02 8.40257E-19
 -1     10744 3.76081E-03 2.13591E-02-9.89334E-19
 -1     10745 3.59185E-03 2.12417E-02-3.99800E-19
 -1     10746 3.63145E-03 2.14167E-02 3.99800E-19
 -1     10747 3.46000E-03 2.12985E-02-1.95834E-18
 -1     10748 3.50079E-03 2.14744E-02-9.48677E-20
 -1     10749 3.32688E-03 2.13559E-02 1.88380E-18
 -1     10750 3.36896E-03 2.15324E-02 1.42302E-18
 -1     10751 3.19269E-03 2.14143E-02 1.05710E-18
 -1     10752 3.23616E-03 2.15909E-02 1.00289E-18
 -1     10753 3.05770E-03 2.14740E-02 1.73472E-18
 -1     10754 3.10266E-03 2.16503E-02-1.35525E-19
 -1     10755 2.92230E-03 2.15355E-02-1.87703E-18
 -1     10756 2.96881E-03 2.17109E-02-6.70850E-19
 -1     10757 2.78698E-03 2.15989E-02-7.65718E-19
 -1     10758 2.83506E-03 2.17730E-02-6.09864E-19
 -1     10759 2.65236E-03 2.16646E-02-1.82959E-19
 -1     10760 2.70195E-03 2.18368E-02 2.31071E-18
 -1     10761 2.51920E-03 2.17324E-02 7.86047E-19
 -1     10762 2.57015E-03 2.19022E-02 3.38813E-19
 -1     10763 2.38841E-03 2.18019E-02 7.04731E-19
 -1     10764 2.44045E-03 2.19691E-02-1.39591E-18
 -1     10765 2.31370E-03 2.20368E-02-1.41624E-18
 -1     10766 4.17655E-03 2.13566E-02 6.77626E-21
 -1     10767 4.21164E-03 2.15258E-02-5.01444E-19
 -1     10768 4.05168E-03 2.14147E-02-1.17229E-18
 -1     10769 4.08729E-03 2.15843E-02-1.21973E-19
 -1     10770 3.92574E-03 2.14732E-02 6.36969E-19
 -1     10771 3.96201E-03 2.16437E-02 1.42302E-19
 -1     10772 3.79860E-03 2.15319E-02 1.18585E-18
 -1     10773 3.83564E-03 2.17034E-02-2.50722E-19
 -1     10774 3.67021E-03 2.15906E-02-2.62241E-18
 -1     10775 3.70813E-03 2.17632E-02-4.12674E-18
 -1     10776 3.54062E-03 2.16492E-02 2.06676E-18
 -1     10777 3.57951E-03 2.18229E-02 1.29427E-18
 -1     10778 3.40997E-03 2.17079E-02-7.31836E-19
 -1     10779 3.44992E-03 2.18825E-02 2.01255E-18
 -1     10780 3.27844E-03 2.17668E-02 1.21973E-19
 -1     10781 3.31955E-03 2.19420E-02-3.07642E-18
 -1     10782 3.14630E-03 2.18262E-02-1.40269E-18
 -1     10783 3.18864E-03 2.20016E-02-1.38913E-18
 -1     10784 3.01388E-03 2.18863E-02-2.35136E-18
 -1     10785 3.05752E-03 2.20615E-02-1.86347E-18
 -1     10786 2.88157E-03 2.19475E-02 7.99599E-19
 -1     10787 2.92655E-03 2.21220E-02-2.67662E-18
 -1     10788 2.74989E-03 2.20097E-02 1.29427E-18
 -1     10789 2.79619E-03 2.21832E-02 2.08709E-18
 -1     10790 2.61941E-03 2.20733E-02 2.18196E-18
 -1     10791 2.66697E-03 2.22452E-02 3.87602E-18
 -1     10792 2.49082E-03 2.21378E-02-7.99599E-19
 -1     10793 2.53948E-03 2.23079E-02 1.82281E-18
 -1     10794 2.36487E-03 2.22030E-02-1.11131E-18
 -1     10795 2.41440E-03 2.23709E-02-1.45690E-18
 -1     10796 2.29242E-03 2.24338E-02-1.42979E-18
 -1     10797 4.12230E-03 2.17530E-02 3.99800E-19
 -1     10798 4.15667E-03 2.19211E-02-2.29038E-18
 -1     10799 3.99762E-03 2.18130E-02 5.01444E-19
 -1     10800 4.03254E-03 2.19814E-02-6.97955E-19
 -1     10801 3.87195E-03 2.18738E-02-4.94667E-19
 -1     10802 3.90750E-03 2.20430E-02 1.76860E-18
 -1     10803 3.74522E-03 2.19347E-02-1.74828E-18
 -1     10804 3.78149E-03 2.21050E-02-1.32815E-18
 -1     10805 3.61748E-03 2.19955E-02-2.83248E-18
 -1     10806 3.65453E-03 2.21669E-02 6.50521E-19
 -1     10807 3.48884E-03 2.20561E-02 3.86247E-18
 -1     10808 3.52674E-03 2.22286E-02 9.96111E-19
 -1     10809 3.35950E-03 2.21163E-02-2.55465E-18
 -1     10810 3.39831E-03 2.22898E-02 2.24972E-18
 -1     10811 3.22970E-03 2.21764E-02-1.30104E-18
 -1     10812 3.26950E-03 2.23505E-02-8.47033E-19
 -1     10813 3.09975E-03 2.22364E-02-7.99599E-19
 -1     10814 3.14060E-03 2.24108E-02-2.06676E-18
 -1     10815 2.97000E-03 2.22965E-02-4.47233E-19
 -1     10816 3.01196E-03 2.24709E-02 2.14808E-18
 -1     10817 2.84087E-03 2.23570E-02-2.45301E-18
 -1     10818 2.88395E-03 2.25309E-02 1.21973E-18
 -1     10819 2.71284E-03 2.24178E-02 2.45301E-18
 -1     10820 2.75702E-03 2.25908E-02-3.25261E-19
 -1     10821 2.58643E-03 2.24789E-02 1.70084E-18
 -1     10822 2.63165E-03 2.26508E-02-2.98156E-19
 -1     10823 2.46224E-03 2.25402E-02 1.89735E-19
 -1     10824 2.50837E-03 2.27106E-02-6.77626E-21
 -1     10825 2.34090E-03 2.26012E-02 9.96111E-19
 -1     10826 2.38773E-03 2.27700E-02 2.31748E-18
 -1     10827 2.27028E-03 2.28283E-02 2.27682E-18
 -1     10828 4.06674E-03 2.21489E-02-4.06576E-20
 -1     10829 4.10015E-03 2.23155E-02-3.25261E-19
 -1     10830 3.94229E-03 2.22111E-02-2.16840E-19
 -1     10831 3.97628E-03 2.23781E-02 2.71051E-20
 -1     10832 3.81693E-03 2.22741E-02 4.40457E-19
 -1     10833 3.85151E-03 2.24419E-02 8.47033E-19
 -1     10834 3.69066E-03 2.23372E-02 0.00000E+00
 -1     10835 3.72588E-03 2.25063E-02 5.14996E-19
 -1     10836 3.56363E-03 2.24000E-02 1.28749E-19
 -1     10837 3.59951E-03 2.25703E-02 1.21973E-19
 -1     10838 3.43601E-03 2.24623E-02 9.96111E-19
 -1     10839 3.47260E-03 2.26338E-02 8.19928E-19
 -1     10840 3.30807E-03 2.25239E-02 1.51111E-18
 -1     10841 3.34541E-03 2.26964E-02 7.58942E-19
 -1     10842 3.18009E-03 2.25847E-02 1.66696E-18
 -1     10843 3.21824E-03 2.27580E-02 4.30293E-18
 -1     10844 3.05243E-03 2.26450E-02-1.63986E-18
 -1     10845 3.09144E-03 2.28187E-02 1.32815E-18
 -1     10846 2.92544E-03 2.27048E-02 2.85281E-18
 -1     10847 2.96535E-03 2.28786E-02 1.34170E-18
 -1     10848 2.79953E-03 2.27642E-02-2.75794E-18
 -1     10849 2.84036E-03 2.29377E-02 9.41901E-19
 -1     10850 2.67514E-03 2.28233E-02 1.49078E-18
 -1     10851 2.71688E-03 2.29962E-02-4.13352E-19
 -1     10852 2.55274E-03 2.28819E-02-2.98156E-18
 -1     10853 2.59534E-03 2.30539E-02-3.13063E-18
 -1     10854 2.43284E-03 2.29399E-02-4.87891E-19
 -1     10855 2.47619E-03 2.31108E-02-3.42201E-18
 -1     10856 2.31592E-03 2.29969E-02 2.25650E-18
 -1     10857 2.35987E-03 2.31666E-02-9.35124E-19
 -1     10858 2.24679E-03 2.32207E-02 1.89735E-18
 -1     10859 4.00939E-03 2.25440E-02-1.21973E-19
 -1     10860 4.04156E-03 2.27089E-02-1.76183E-18
 -1     10861 3.88521E-03 2.26086E-02-2.91379E-19
 -1     10862 3.91797E-03 2.27741E-02-1.82959E-19
 -1     10863 3.76017E-03 2.26741E-02-3.13063E-18
 -1     10864 3.79349E-03 2.28406E-02-1.93801E-18
 -1     10865 3.63439E-03 2.27395E-02-6.70850E-19
 -1     10866 3.66825E-03 2.29073E-02-3.55076E-18
 -1     10867 3.50809E-03 2.28042E-02 1.84314E-18
 -1     10868 3.54248E-03 2.29735E-02-1.89735E-18
 -1     10869 3.38154E-03 2.28680E-02-1.97867E-18
 -1     10870 3.41649E-03 2.30386E-02 4.47233E-19
 -1     10871 3.25507E-03 2.29306E-02 6.30193E-19
 -1     10872 3.29059E-03 2.31024E-02-1.02322E-18
 -1     10873 3.12900E-03 2.29920E-02 2.96123E-18
 -1     10874 3.16514E-03 2.31647E-02-1.50433E-18
 -1     10875 3.00370E-03 2.30522E-02-9.35124E-19
 -1     10876 3.04051E-03 2.32254E-02 1.15196E-18
 -1     10877 2.87953E-03 2.31113E-02 1.00289E-18
 -1     10878 2.91705E-03 2.32848E-02 4.20128E-19
 -1     10879 2.75689E-03 2.31694E-02 4.40457E-19
 -1     10880 2.79515E-03 2.33428E-02-1.89735E-19
 -1     10881 2.63616E-03 2.32265E-02 8.06375E-19
 -1     10882 2.67516E-03 2.33995E-02 1.20617E-18
 -1     10883 2.51775E-03 2.32825E-02-5.08220E-19
 -1     10884 2.55747E-03 2.34548E-02 2.64952E-18
 -1     10885 2.40205E-03 2.33372E-02-1.55176E-18
 -1     10886 2.44242E-03 2.35088E-02 2.73761E-18
 -1     10887 2.28946E-03 2.33903E-02-2.71051E-20
 -1     10888 2.33036E-03 2.35610E-02 1.11808E-18
 -1     10889 2.22160E-03 2.36111E-02-5.89535E-19
 -1     10890 3.94970E-03 2.29384E-02 2.13452E-18
 -1     10891 3.98030E-03 2.31013E-02-5.48877E-19
 -1     10892 3.82579E-03 2.30058E-02 5.75982E-19
 -1     10893 3.85699E-03 2.31696E-02 3.43557E-18
 -1     10894 3.70106E-03 2.30739E-02-2.23617E-19
 -1     10895 3.73278E-03 2.32390E-02 2.26327E-18
 -1     10896 3.57577E-03 2.31415E-02-6.43745E-19
 -1     10897 3.60793E-03 2.33083E-02 3.45589E-18
 -1     10898 3.45023E-03 2.32081E-02 8.19928E-19
 -1     10899 3.48278E-03 2.33765E-02 7.52165E-19
 -1     10900 3.32481E-03 2.32733E-02 1.21973E-19
 -1     10901 3.35773E-03 2.34432E-02 6.23416E-19
 -1     10902 3.19986E-03 2.33367E-02-2.00577E-18
 -1     10903 3.23318E-03 2.35079E-02 1.93801E-18
 -1     10904 3.07578E-03 2.33983E-02-4.87891E-19
 -1     10905 3.10953E-03 2.35705E-02-4.67562E-19
 -1     10906 2.95293E-03 2.34581E-02-7.25060E-19
 -1     10907 2.98716E-03 2.36311E-02-1.44334E-18
 -1     10908 2.83167E-03 2.35162E-02-1.49078E-19
 -1     10909 2.86644E-03 2.36896E-02 2.03288E-18
 -1     10910 2.71235E-03 2.35727E-02 6.77626E-20
 -1     10911 2.74772E-03 2.37461E-02 1.35525E-18
 -1     10912 2.59533E-03 2.36276E-02 3.25261E-18
 -1     10913 2.63130E-03 2.38009E-02 4.58075E-18
 -1     10914 2.48092E-03 2.36809E-02 2.12775E-18
 -1     10915 2.51750E-03 2.38537E-02 2.91379E-18
 -1     10916 2.36943E-03 2.37324E-02-1.20617E-18
 -1     10917 2.40659E-03 2.39046E-02-9.35124E-19
 -1     10918 2.26114E-03 2.37818E-02 1.23328E-18
 -1     10919 2.29882E-03 2.39534E-02-9.48677E-19
 -1     10920 2.19438E-03 2.39997E-02 3.04932E-18
 -1     10921 3.88701E-03 2.33320E-02 5.01444E-18
 -1     10922 3.91568E-03 2.34927E-02 3.55754E-18
 -1     10923 3.76334E-03 2.34027E-02 1.49078E-19
 -1     10924 3.79264E-03 2.35647E-02 1.48400E-18
 -1     10925 3.63892E-03 2.34736E-02 3.55076E-18
 -1     10926 3.66867E-03 2.36373E-02 6.50521E-19
 -1     10927 3.51411E-03 2.35436E-02 2.60209E-18
 -1     10928 3.54419E-03 2.37093E-02 2.27005E-18
 -1     10929 3.38936E-03 2.36120E-02 1.89735E-19
 -1     10930 3.41967E-03 2.37796E-02 5.89535E-19
 -1     10931 3.26510E-03 2.36783E-02-4.67562E-19
 -1     10932 3.29560E-03 2.38476E-02-1.97189E-18
 -1     10933 3.14176E-03 2.37422E-02 3.86247E-19
 -1     10934 3.17247E-03 2.39131E-02-9.69006E-19
 -1     10935 3.01976E-03 2.38037E-02 2.92057E-18
 -1     10936 3.05072E-03 2.39758E-02-1.28749E-19
 -1     10937 2.89947E-03 2.38628E-02-2.72406E-18
 -1     10938 2.93074E-03 2.40358E-02 8.53809E-19
 -1     10939 2.78123E-03 2.39196E-02-1.01644E-18
 -1     10940 2.81290E-03 2.40931E-02-5.63785E-18
 -1     10941 2.66536E-03 2.39743E-02 3.11708E-19
 -1     10942 2.69748E-03 2.41480E-02-1.84314E-18
 -1     10943 2.55213E-03 2.40269E-02 2.00577E-18
 -1     10944 2.58477E-03 2.42005E-02-8.26704E-19
 -1     10945 2.44180E-03 2.40774E-02-9.08019E-19
 -1     10946 2.47498E-03 2.42507E-02-4.59431E-18
 -1     10947 2.33457E-03 2.41256E-02 3.18484E-18
 -1     10948 2.36832E-03 2.42985E-02 2.00577E-18
 -1     10949 2.23063E-03 2.41714E-02 5.01444E-19
 -1     10950 2.26492E-03 2.43439E-02 1.59920E-18
 -1     10951 2.16490E-03 2.43865E-02 5.82759E-19
 -1     10952 3.82057E-03 2.37249E-02 1.92446E-18
 -1     10953 3.84695E-03 2.38832E-02 2.37847E-18
 -1     10954 3.69711E-03 2.37993E-02 5.42101E-19
 -1     10955 3.72412E-03 2.39594E-02-2.30393E-18
 -1     10956 3.57296E-03 2.38733E-02 9.35124E-19
 -1     10957 3.60035E-03 2.40356E-02 7.18284E-19
 -1     10958 3.44863E-03 2.39458E-02 6.64074E-19
 -1     10959 3.47620E-03 2.41105E-02 7.45389E-20
 -1     10960 3.32468E-03 2.40159E-02-2.33103E-18
 -1     10961 3.35232E-03 2.41829E-02-3.09675E-18
 -1     10962 3.20165E-03 2.40831E-02-2.91379E-18
 -1     10963 3.22930E-03 2.42522E-02-4.00477E-18
 -1     10964 3.08003E-03 2.41473E-02-1.49078E-18
 -1     10965 3.10769E-03 2.43181E-02-2.23617E-19
 -1     10966 2.96025E-03 2.42084E-02 1.63986E-18
 -1     10967 2.98799E-03 2.43805E-02-1.00289E-18
 -1     10968 2.84268E-03 2.42665E-02-2.16840E-18
 -1     10969 2.87058E-03 2.44396E-02-3.38813E-19
 -1     10970 2.72764E-03 2.43217E-02-2.83248E-18
 -1     10971 2.75580E-03 2.44955E-02 1.62630E-19
 -1     10972 2.61537E-03 2.43743E-02 4.47233E-19
 -1     10973 2.64391E-03 2.45483E-02 1.57209E-18
 -1     10974 2.50610E-03 2.44243E-02-2.10064E-18
 -1     10975 2.53509E-03 2.45984E-02-1.35525E-18
 -1     10976 2.39998E-03 2.44719E-02-2.05998E-18
 -1     10977 2.42950E-03 2.46457E-02 2.98156E-19
 -1     10978 2.29716E-03 2.45169E-02 2.54788E-18
 -1     10979 2.32725E-03 2.46904E-02-1.07065E-18
 -1     10980 2.19770E-03 2.45592E-02-2.37169E-18
 -1     10981 2.22840E-03 2.47324E-02-2.83248E-18
 -1     10982 2.13295E-03 2.47716E-02-4.13352E-18
 -1     10983 3.74956E-03 2.41173E-02 2.43945E-19
 -1     10984 3.77323E-03 2.42729E-02 2.41913E-18
 -1     10985 3.62625E-03 2.41960E-02 3.45589E-19
 -1     10986 3.65055E-03 2.43540E-02 1.28749E-18
 -1     10987 3.50232E-03 2.42734E-02 2.92735E-18
 -1     10988 3.52690E-03 2.44343E-02 3.24583E-18
 -1     10989 3.37847E-03 2.43484E-02-2.24972E-18
 -1     10990 3.40308E-03 2.45122E-02 1.61953E-18
 -1     10991 3.25538E-03 2.44201E-02 8.13152E-20
 -1     10992 3.27985E-03 2.45866E-02-5.55654E-19
 -1     10993 3.13368E-03 2.44880E-02-2.50722E-19
 -1     10994 3.15797E-03 2.46570E-02 2.60886E-18
 -1     10995 3.01393E-03 2.45521E-02 1.38236E-18
 -1     10996 3.03805E-03 2.47230E-02 1.39591E-18
 -1     10997 2.89657E-03 2.46124E-02 3.65918E-19
 -1     10998 2.92061E-03 2.47849E-02 1.45012E-18
 -1     10999 2.78194E-03 2.46691E-02-1.70762E-18
 -1     11000 2.80602E-03 2.48426E-02 8.40257E-19
 -1     11001 2.67033E-03 2.47224E-02 8.13152E-20
 -1     11002 2.69459E-03 2.48966E-02-9.21572E-19
 -1     11003 2.56190E-03 2.47727E-02-1.24683E-18
 -1     11004 2.58648E-03 2.49472E-02-1.35525E-18
 -1     11005 2.45681E-03 2.48199E-02-9.89334E-19
 -1     11006 2.48184E-03 2.49945E-02-2.76472E-18
 -1     11007 2.35513E-03 2.48644E-02 3.72694E-18
 -1     11008 2.38071E-03 2.50389E-02 5.96311E-19
 -1     11009 2.25691E-03 2.49062E-02 8.80914E-19
 -1     11010 2.28312E-03 2.50803E-02 3.79471E-18
 -1     11011 2.16213E-03 2.49450E-02-1.82959E-18
 -1     11012 2.18905E-03 2.51190E-02 2.52077E-18
 -1     11013 2.09841E-03 2.51547E-02 4.44523E-18
 -1     11014 3.67307E-03 2.45095E-02 3.04932E-19
 -1     11015 3.69359E-03 2.46621E-02-1.84314E-18
 -1     11016 3.54982E-03 2.45930E-02 2.95445E-18
 -1     11017 3.57094E-03 2.47490E-02 9.62229E-19
 -1     11018 3.42606E-03 2.46741E-02 1.29427E-18
 -1     11019 3.44734E-03 2.48337E-02-6.57298E-19
 -1     11020 3.30268E-03 2.47516E-02-1.56532E-18
 -1     11021 3.32380E-03 2.49148E-02 3.32037E-19
 -1     11022 3.18053E-03 2.48248E-02 1.20617E-18
 -1     11023 3.20130E-03 2.49911E-02 4.13352E-19
 -1     11024 3.06032E-03 2.48931E-02-5.14996E-19
 -1     11025 3.08071E-03 2.50622E-02 5.55654E-19
 -1     11026 2.94267E-03 2.49568E-02 4.33681E-19
 -1     11027 2.96272E-03 2.51281E-02-1.00289E-18
 -1     11028 2.82800E-03 2.50159E-02 2.71051E-19
 -1     11029 2.84784E-03 2.51888E-02-1.34170E-18
 -1     11030 2.71664E-03 2.50708E-02 1.81604E-18
 -1     11031 2.73643E-03 2.52448E-02 2.23617E-18
 -1     11032 2.60877E-03 2.51218E-02-9.21572E-19
 -1     11033 2.62870E-03 2.52966E-02 2.23617E-18
 -1     11034 2.50451E-03 2.51693E-02 3.15774E-18
 -1     11035 2.52476E-03 2.53444E-02 2.91379E-18
 -1     11036 2.40391E-03 2.52137E-02-1.69407E-18
 -1     11037 2.42465E-03 2.53888E-02 2.16840E-18
 -1     11038 2.30696E-03 2.52550E-02 1.04354E-18
 -1     11039 2.32832E-03 2.54300E-02-1.35525E-20
 -1     11040 2.21361E-03 2.52934E-02-1.26039E-18
 -1     11041 2.23571E-03 2.54681E-02-2.80537E-18
 -1     11042 2.12377E-03 2.53289E-02 1.01644E-18
 -1     11043 2.14672E-03 2.55034E-02-3.93023E-19
 -1     11044 2.06118E-03 2.55357E-02-1.24683E-18
 -1     11045 3.59006E-03 2.49019E-02-7.45389E-20
 -1     11046 3.60695E-03 2.50513E-02-9.55453E-19
 -1     11047 3.46677E-03 2.49907E-02 1.57209E-18
 -1     11048 3.48419E-03 2.51446E-02 1.38913E-18
 -1     11049 3.34312E-03 2.50758E-02-1.98545E-18
 -1     11050 3.36053E-03 2.52343E-02-2.63597E-18
 -1     11051 3.22024E-03 2.51559E-02-4.06576E-20
 -1     11052 3.23728E-03 2.53186E-02-8.80914E-19
 -1     11053 3.09916E-03 2.52302E-02 2.26327E-18
 -1     11054 3.11562E-03 2.53966E-02 3.95734E-18
 -1     11055 2.98070E-03 2.52986E-02-9.35124E-19
 -1     11056 2.99656E-03 2.54681E-02 3.40168E-18
 -1     11057 2.86547E-03 2.53613E-02-4.33681E-19
 -1     11058 2.88084E-03 2.55332E-02-1.49078E-19
 -1     11059 2.75389E-03 2.54187E-02-2.69695E-18
 -1     11060 2.76895E-03 2.55923E-02-1.80249E-18
 -1     11061 2.64620E-03 2.54713E-02 1.73472E-18
 -1     11062 2.66118E-03 2.56461E-02-2.62919E-18
 -1     11063 2.54251E-03 2.55197E-02-2.57498E-19
 -1     11064 2.55765E-03 2.56951E-02-6.77626E-20
 -1     11065 2.44283E-03 2.55642E-02 7.18284E-19
 -1     11066 2.45836E-03 2.57399E-02-2.30393E-19
 -1     11067 2.34711E-03 2.56054E-02 2.23617E-18
 -1     11068 2.36323E-03 2.57811E-02-1.30104E-18
 -1     11069 2.25526E-03 2.56433E-02-9.08019E-19
 -1     11070 2.27213E-03 2.58189E-02 2.26327E-18
 -1     11071 2.16712E-03 2.56783E-02-7.18284E-19
 -1     11072 2.18489E-03 2.58536E-02-4.87891E-19
 -1     11073 2.08255E-03 2.57104E-02 5.14996E-19
 -1     11074 2.10132E-03 2.58855E-02-1.39591E-18
 -1     11075 2.02122E-03 2.59145E-02 1.28749E-18
 -1     11076 3.49939E-03 2.52949E-02 2.04643E-18
 -1     11077 3.51209E-03 2.54409E-02 4.27582E-18
 -1     11078 3.37590E-03 2.53897E-02 1.31460E-18
 -1     11079 3.38904E-03 2.55416E-02 2.15485E-18
 -1     11080 3.25231E-03 2.54790E-02-2.77827E-19
 -1     11081 3.26522E-03 2.56365E-02 9.41901E-19
 -1     11082 3.13002E-03 2.55614E-02 2.05998E-18
 -1     11083 3.14228E-03 2.57241E-02 3.27971E-18
 -1     11084 3.01024E-03 2.56365E-02 8.80914E-19
 -1     11085 3.02167E-03 2.58035E-02 7.04731E-19
 -1     11086 2.89387E-03 2.57044E-02 2.61564E-18
 -1     11087 2.90451E-03 2.58748E-02-1.19262E-18
 -1     11088 2.78154E-03 2.57656E-02 1.01644E-18
 -1     11089 2.79156E-03 2.59385E-02 2.56143E-18
 -1     11090 2.67357E-03 2.58208E-02-2.69695E-18
 -1     11091 2.68326E-03 2.59954E-02-9.48677E-20
 -1     11092 2.57011E-03 2.58707E-02 3.38813E-19
 -1     11093 2.57976E-03 2.60463E-02-1.31460E-18
 -1     11094 2.47114E-03 2.59159E-02 1.36881E-18
 -1     11095 2.48105E-03 2.60921E-02 2.27682E-18
 -1     11096 2.37656E-03 2.59571E-02-8.80914E-19
 -1     11097 2.38699E-03 2.61335E-02 2.10064E-18
 -1     11098 2.28621E-03 2.59948E-02 3.38813E-19
 -1     11099 2.29739E-03 2.61711E-02 3.03577E-18
 -1     11100 2.19989E-03 2.60293E-02 2.71051E-19
 -1     11101 2.21201E-03 2.62053E-02-6.50521E-19
 -1     11102 2.11738E-03 2.60608E-02 1.54499E-18
 -1     11103 2.13059E-03 2.62365E-02 1.58565E-18
 -1     11104 2.03844E-03 2.60896E-02 7.45389E-19
 -1     11105 2.05287E-03 2.62649E-02 1.31460E-18
 -1     11106 1.97857E-03 2.62907E-02-1.31460E-18
 -1     11107 3.39972E-03 2.56892E-02 3.78116E-18
 -1     11108 3.40761E-03 2.58317E-02 3.48978E-18
 -1     11109 3.27587E-03 2.57907E-02 5.08220E-19
 -1     11110 3.28405E-03 2.59407E-02 1.17229E-18
 -1     11111 3.15229E-03 2.58842E-02 1.04354E-18
 -1     11112 3.15995E-03 2.60412E-02 7.86047E-19
 -1     11113 3.03076E-03 2.59687E-02 1.49078E-18
 -1     11114 3.03743E-03 2.61317E-02-2.84603E-19
 -1     11115 2.91265E-03 2.60440E-02-1.12486E-18
 -1     11116 2.91821E-03 2.62119E-02-8.40257E-19
 -1     11117 2.79893E-03 2.61107E-02-6.09864E-19
 -1     11118 2.80353E-03 2.62822E-02-5.96311E-19
 -1     11119 2.69014E-03 2.61697E-02 2.56143E-18
 -1     11120 2.69408E-03 2.63437E-02-3.79471E-19
 -1     11121 2.58648E-03 2.62219E-02 7.99599E-19
 -1     11122 2.59015E-03 2.63976E-02 1.93801E-18
 -1     11123 2.48795E-03 2.62685E-02 1.72117E-18
 -1     11124 2.49172E-03 2.64450E-02 4.96022E-18
 -1     11125 2.39439E-03 2.63101E-02 9.08019E-19
 -1     11126 2.39859E-03 2.64871E-02 2.24972E-18
 -1     11127 2.30553E-03 2.63477E-02 9.75782E-19
 -1     11128 2.31049E-03 2.65247E-02-9.62229E-19
 -1     11129 2.22112E-03 2.63817E-02 2.22261E-18
 -1     11130 2.22706E-03 2.65584E-02-8.67362E-19
 -1     11131 2.14083E-03 2.64125E-02-3.13063E-18
 -1     11132 2.14797E-03 2.65889E-02 1.26039E-18
 -1     11133 2.06439E-03 2.64406E-02 5.17707E-18
 -1     11134 2.07287E-03 2.66165E-02 4.47233E-18
 -1     11135 1.99148E-03 2.64660E-02-1.54499E-18
 -1     11136 2.00143E-03 2.66415E-02 3.18484E-18
 -1     11137 1.93333E-03 2.66640E-02 1.35525E-19
 -1     11138 3.28951E-03 2.60857E-02 1.28749E-19
 -1     11139 3.29189E-03 2.62247E-02-1.78893E-18
 -1     11140 3.16509E-03 2.61944E-02-4.74338E-20
 -1     11141 3.16751E-03 2.63429E-02-8.26704E-19
 -1     11142 3.04156E-03 2.62921E-02 1.35525E-19
 -1     11143 3.04304E-03 2.64492E-02-1.49078E-19
 -1     11144 2.92109E-03 2.63781E-02 1.04354E-18
 -1     11145 2.92118E-03 2.65421E-02-2.19551E-18
 -1     11146 2.80524E-03 2.64527E-02-1.62630E-18
 -1     11147 2.80396E-03 2.66220E-02-5.55654E-19
 -1     11148 2.69495E-03 2.65173E-02-2.65630E-18
 -1     11149 2.69260E-03 2.66903E-02-2.41235E-18
 -1     11150 2.59059E-03 2.65731E-02 1.08420E-18
 -1     11151 2.58765E-03 2.67486E-02-3.07642E-18
 -1     11152 2.49217E-03 2.66217E-02 2.95445E-18
 -1     11153 2.48913E-03 2.67986E-02-2.03288E-19
 -1     11154 2.39945E-03 2.66643E-02 1.07065E-18
 -1     11155 2.39678E-03 2.68418E-02 7.31836E-19
 -1     11156 2.31210E-03 2.67020E-02 6.77626E-19
 -1     11157 2.31017E-03 2.68796E-02 8.80914E-19
 -1     11158 2.22970E-03 2.67355E-02 1.92446E-18
 -1     11159 2.22884E-03 2.69130E-02 2.69695E-18
 -1     11160 2.15185E-03 2.67656E-02-7.31836E-19
 -1     11161 2.15231E-03 2.69427E-02 1.20617E-18
 -1     11162 2.07816E-03 2.67928E-02 1.91091E-18
 -1     11163 2.08012E-03 2.69694E-02-9.08019E-19
 -1     11164 2.00827E-03 2.68173E-02 2.77827E-18
 -1     11165 2.01188E-03 2.69933E-02 5.14996E-19
 -1     11166 1.94183E-03 2.68393E-02 8.13152E-20
 -1     11167 1.94718E-03 2.70148E-02-1.13841E-18
 -1     11168 1.88569E-03 2.70342E-02-1.05710E-18
 -1     11169 3.16693E-03 2.64856E-02-8.06375E-19
 -1     11170 3.16294E-03 2.66212E-02 1.69407E-19
 -1     11171 3.04171E-03 2.66020E-02 2.98156E-19
 -1     11172 3.03737E-03 2.67496E-02 4.47233E-19
 -1     11173 2.91836E-03 2.67034E-02-9.62229E-19
 -1     11174 2.91251E-03 2.68613E-02-8.53809E-19
 -1     11175 2.79952E-03 2.67898E-02 2.10064E-18
 -1     11176 2.79182E-03 2.69556E-02 1.85670E-18
 -1     11177 2.68686E-03 2.68626E-02-2.41235E-18
 -1     11178 2.67755E-03 2.70340E-02 9.35124E-19
 -1     11179 2.58112E-03 2.69238E-02 1.23328E-18
 -1     11180 2.57080E-03 2.70988E-02 1.35525E-19
 -1     11181 2.48239E-03 2.69755E-02-3.08998E-18
 -1     11182 2.47172E-03 2.71526E-02-2.94090E-18
 -1     11183 2.39036E-03 2.70196E-02 1.02999E-18
 -1     11184 2.37995E-03 2.71977E-02-9.08019E-19
 -1     11185 2.30452E-03 2.70577E-02-2.29038E-18
 -1     11186 2.29491E-03 2.72361E-02 1.47723E-18
 -1     11187 2.22431E-03 2.70909E-02 1.51788E-18
 -1     11188 2.21589E-03 2.72692E-02 9.48677E-20
 -1     11189 2.14917E-03 2.71202E-02-4.60786E-19
 -1     11190 2.14225E-03 2.72980E-02 1.42302E-18
 -1     11191 2.07859E-03 2.71463E-02 1.62630E-19
 -1     11192 2.07338E-03 2.73235E-02 6.23416E-19
 -1     11193 2.01209E-03 2.71696E-02-2.71051E-20
 -1     11194 2.00875E-03 2.73462E-02-2.49366E-18
 -1     11195 1.94926E-03 2.71905E-02-5.69206E-19
 -1     11196 1.94790E-03 2.73664E-02-3.02221E-18
 -1     11197 1.88970E-03 2.72093E-02 3.79471E-19
 -1     11198 1.89041E-03 2.73846E-02-3.25261E-19
 -1     11199 1.83591E-03 2.74008E-02 9.89334E-19
 -1     11200 3.02971E-03 2.68905E-02 1.79571E-18
 -1     11201 3.01830E-03 2.70229E-02-5.01444E-19
 -1     11202 2.90347E-03 2.70148E-02-7.99599E-19
 -1     11203 2.89106E-03 2.71625E-02 1.96512E-18
 -1     11204 2.78068E-03 2.71189E-02 4.33681E-19
 -1     11205 2.76599E-03 2.72788E-02-6.36969E-19
 -1     11206 2.66448E-03 2.72041E-02-1.62630E-19
 -1     11207 2.64745E-03 2.73727E-02-2.15485E-18
 -1     11208 2.55642E-03 2.72733E-02-1.49078E-19
 -1     11209 2.53774E-03 2.74473E-02-1.24683E-18
 -1     11210 2.45683E-03 2.73297E-02 7.18284E-19
 -1     11211 2.43742E-03 2.75069E-02-5.14996E-19
 -1     11212 2.36529E-03 2.73761E-02-1.09775E-18
 -1     11213 2.34604E-03 2.75548E-02 8.94467E-19
 -1     11214 2.28106E-03 2.74149E-02 2.71051E-20
 -1     11215 2.26269E-03 2.75942E-02-1.35525E-19
 -1     11216 2.20333E-03 2.74479E-02 1.95156E-18
 -1     11217 2.18637E-03 2.76270E-02 6.77626E-20
 -1     11218 2.13131E-03 2.74763E-02 2.30393E-19
 -1     11219 2.11612E-03 2.76549E-02 5.14996E-19
 -1     11220 2.06430E-03 2.75011E-02-5.82759E-19
 -1     11221 2.05114E-03 2.76791E-02 7.72494E-19
 -1     11222 2.00170E-03 2.75230E-02-5.96311E-19
 -1     11223 1.99073E-03 2.77002E-02-2.27682E-18
 -1     11224 1.94297E-03 2.75426E-02-1.07065E-18
 -1     11225 1.93430E-03 2.77189E-02 1.43657E-18
 -1     11226 1.88768E-03 2.75600E-02 1.07065E-18
 -1     11227 1.88136E-03 2.77356E-02-6.77626E-20
 -1     11228 1.83542E-03 2.75756E-02-2.71051E-19
 -1     11229 1.83150E-03 2.77505E-02-7.72494E-19
 -1     11230 1.78434E-03 2.77637E-02-5.14996E-19
 -1     11231 2.87497E-03 2.73025E-02 1.57209E-18
 -1     11232 2.85472E-03 2.74325E-02 4.33681E-19
 -1     11233 2.74757E-03 2.74343E-02-1.54499E-18
 -1     11234 2.72529E-03 2.75837E-02 2.84603E-19
 -1     11235 2.62624E-03 2.75391E-02-5.28549E-19
 -1     11236 2.60067E-03 2.77027E-02-5.55654E-19
 -1     11237 2.51443E-03 2.76207E-02-2.38524E-18
 -1     11238 2.48617E-03 2.77931E-02-1.43657E-18
 -1     11239 2.41313E-03 2.76841E-02-2.03288E-19
 -1     11240 2.38355E-03 2.78613E-02-4.87891E-19
 -1     11241 2.32185E-03 2.77339E-02-1.30104E-18
 -1     11242 2.29227E-03 2.79134E-02-1.27394E-18
 -1     11243 2.23944E-03 2.77739E-02 1.32815E-18
 -1     11244 2.21091E-03 2.79541E-02 1.07065E-18
 -1     11245 2.16468E-03 2.78066E-02-2.08709E-18
 -1     11246 2.13790E-03 2.79868E-02 1.58565E-18
 -1     11247 2.09641E-03 2.78340E-02 1.82959E-18
 -1     11248 2.07185E-03 2.80136E-02-2.72406E-18
 -1     11249 2.03366E-03 2.78574E-02-1.81604E-18
 -1     11250 2.01160E-03 2.80361E-02 9.75782E-19
 -1     11251 1.97565E-03 2.78777E-02 1.01644E-18
 -1     11252 1.95623E-03 2.80554E-02 1.35525E-20
 -1     11253 1.92171E-03 2.78955E-02-1.21973E-19
 -1     11254 1.90501E-03 2.80723E-02 1.36881E-18
 -1     11255 1.87131E-03 2.79113E-02 8.67362E-19
 -1     11256 1.85736E-03 2.80871E-02 1.11131E-18
 -1     11257 1.82400E-03 2.79253E-02 1.35525E-18
 -1     11258 1.81280E-03 2.81003E-02 2.37169E-18
 -1     11259 1.77941E-03 2.79379E-02-3.65918E-19
 -1     11260 1.77094E-03 2.81121E-02 2.12775E-18
 -1     11261 1.73143E-03 2.81225E-02 1.81604E-18
 -1     11262 2.69882E-03 2.77248E-02-2.84603E-19
 -1     11263 2.66781E-03 2.78539E-02-1.38236E-18
 -1     11264 2.57048E-03 2.78623E-02-5.42101E-19
 -1     11265 2.53566E-03 2.80162E-02-3.97089E-18
 -1     11266 2.45257E-03 2.79642E-02 1.09775E-18
 -1     11267 2.41331E-03 2.81336E-02 3.14419E-18
 -1     11268 2.34816E-03 2.80385E-02-3.74050E-18
 -1     11269 2.30641E-03 2.82158E-02-7.31836E-19
 -1     11270 2.25680E-03 2.80934E-02-5.01444E-19
 -1     11271 2.21480E-03 2.82741E-02-4.03865E-18
 -1     11272 2.17662E-03 2.81350E-02 2.03288E-18
 -1     11273 2.13601E-03 2.83166E-02 1.02999E-18
 -1     11274 2.10564E-03 2.81675E-02 2.84603E-19
 -1     11275 2.06739E-03 2.83489E-02 1.65341E-18
 -1     11276 2.04211E-03 2.81936E-02-1.35525E-19
 -1     11277 2.00679E-03 2.83742E-02-7.18284E-19
 -1     11278 1.98466E-03 2.82152E-02-8.13152E-20
 -1     11279 1.95254E-03 2.83948E-02-1.31460E-18
 -1     11280 1.93224E-03 2.82335E-02-2.54788E-18
 -1     11281 1.90341E-03 2.84119E-02-3.84892E-18
 -1     11282 1.88402E-03 2.82493E-02 4.87891E-19
 -1     11283 1.85850E-03 2.84265E-02-3.61852E-18
 -1     11284 1.83936E-03 2.82631E-02-5.96311E-19
 -1     11285 1.81712E-03 2.84392E-02-4.36391E-18
 -1     11286 1.79776E-03 2.82753E-02 0.00000E+00
 -1     11287 1.77873E-03 2.84504E-02-1.57209E-18
 -1     11288 1.75881E-03 2.82862E-02 2.53432E-18
 -1     11289 1.74291E-03 2.84603E-02-1.47723E-18
 -1     11290 1.72218E-03 2.82959E-02-1.65341E-18
 -1     11291 1.70933E-03 2.84691E-02-1.16552E-18
 -1     11292 1.67769E-03 2.84770E-02 1.62630E-19
 -1     11293 2.49588E-03 2.81616E-02 1.21973E-18
 -1     11294 2.45058E-03 2.82934E-02 3.17129E-18
 -1     11295 2.36789E-03 2.83004E-02-2.08709E-18
 -1     11296 2.31607E-03 2.84635E-02 1.19262E-18
 -1     11297 2.25758E-03 2.83932E-02 3.94379E-18
 -1     11298 2.20082E-03 2.85708E-02-1.47723E-18
 -1     11299 2.16553E-03 2.84556E-02-3.57787E-18
 -1     11300 2.10800E-03 2.86382E-02 7.04731E-19
 -1     11301 2.08840E-03 2.84992E-02 7.04731E-19
 -1     11302 2.03297E-03 2.86828E-02 2.03288E-18
 -1     11303 2.02263E-03 2.85310E-02 6.64074E-19
 -1     11304 1.97070E-03 2.87141E-02 5.12286E-18
 -1     11305 1.96545E-03 2.85554E-02-3.30682E-18
 -1     11306 1.91760E-03 2.87372E-02-2.73761E-18
 -1     11307 1.91487E-03 2.85747E-02 3.32037E-18
 -1     11308 1.87128E-03 2.87551E-02 9.75782E-19
 -1     11309 1.86947E-03 2.85906E-02-8.40257E-19
 -1     11310 1.83012E-03 2.87695E-02 3.49655E-18
 -1     11311 1.82825E-03 2.86039E-02 4.74338E-19
 -1     11312 1.79302E-03 2.87815E-02 1.58565E-18
 -1     11313 1.79046E-03 2.86154E-02-1.73472E-18
 -1     11314 1.75920E-03 2.87917E-02 2.62919E-18
 -1     11315 1.75556E-03 2.86255E-02-1.46367E-18
 -1     11316 1.72811E-03 2.88006E-02-1.92446E-18
 -1     11317 1.72312E-03 2.86344E-02-2.04643E-18
 -1     11318 1.69931E-03 2.88084E-02-6.36969E-19
 -1     11319 1.69280E-03 2.86423E-02 7.86047E-19
 -1     11320 1.67247E-03 2.88153E-02 1.45012E-18
 -1     11321 1.66432E-03 2.86493E-02-1.34170E-18
 -1     11322 1.64735E-03 2.88214E-02 4.87891E-19
 -1     11323 1.62370E-03 2.88269E-02 1.36881E-18
 -1     11324 2.25706E-03 2.86198E-02 5.01444E-19
 -1     11325 2.19351E-03 2.87622E-02-4.74338E-19
 -1     11326 2.13482E-03 2.87488E-02-4.77049E-18
 -1     11327 2.05854E-03 2.89265E-02-3.86247E-18
 -1     11328 2.04099E-03 2.88227E-02 8.13152E-20
 -1     11329 1.96261E-03 2.90097E-02-1.05710E-18
 -1     11330 1.96874E-03 2.88680E-02-2.03288E-19
 -1     11331 1.89441E-03 2.90553E-02-1.09775E-18
 -1     11332 1.91087E-03 2.88982E-02 1.50433E-18
 -1     11333 1.84226E-03 2.90837E-02-3.52366E-19
 -1     11334 1.86272E-03 2.89197E-02 1.45012E-18
 -1     11335 1.80021E-03 2.91031E-02-1.35525E-19
 -1     11336 1.82139E-03 2.89360E-02-2.46656E-18
 -1     11337 1.76478E-03 2.91173E-02 2.04643E-18
 -1     11338 1.78507E-03 2.89488E-02 1.80249E-18
 -1     11339 1.73402E-03 2.91283E-02 6.91179E-19
 -1     11340 1.75259E-03 2.89592E-02 3.38813E-19
 -1     11341 1.70674E-03 2.91371E-02-1.42302E-18
 -1     11342 1.72316E-03 2.89680E-02-5.28549E-19
 -1     11343 1.68217E-03 2.91444E-02-4.64852E-18
 -1     11344 1.69622E-03 2.89756E-02-8.26704E-19
 -1     11345 1.65977E-03 2.91506E-02-2.80537E-18
 -1     11346 1.67136E-03 2.89823E-02 2.30393E-18
 -1     11347 1.63918E-03 2.91560E-02 3.13063E-18
 -1     11348 1.64827E-03 2.89881E-02-2.84603E-19
 -1     11349 1.62011E-03 2.91608E-02 4.07931E-18
 -1     11350 1.62671E-03 2.89934E-02-3.46945E-18
 -1     11351 1.60235E-03 2.91650E-02-4.33681E-18
 -1     11352 1.60648E-03 2.89980E-02-6.77626E-20
 -1     11353 1.58572E-03 2.91688E-02-2.96800E-18
 -1     11354 1.57009E-03 2.91722E-02 2.84603E-19
 -1     11355 1.96957E-03 2.91049E-02-5.14996E-18
 -1     11356 1.85947E-03 2.92873E-02-3.83537E-18
 -1     11357 1.87126E-03 2.92008E-02-9.35124E-19
 -1     11358 1.76217E-03 2.93984E-02-3.00866E-18
 -1     11359 1.80831E-03 2.92454E-02 1.87025E-18
 -1     11360 1.70860E-03 2.94397E-02 1.54499E-18
 -1     11361 1.76404E-03 2.92709E-02 1.05710E-18
 -1     11362 1.67534E-03 2.94603E-02 2.11419E-18
 -1     11363 1.72955E-03 2.92875E-02-3.00866E-18
 -1     11364 1.65031E-03 2.94730E-02-4.02510E-18
 -1     11365 1.70111E-03 2.92992E-02-8.53809E-19
 -1     11366 1.63013E-03 2.94816E-02-5.06865E-18
 -1     11367 1.67673E-03 2.93080E-02 2.41235E-18
 -1     11368 1.61303E-03 2.94880E-02-6.91179E-19
 -1     11369 1.65529E-03 2.93149E-02 1.77538E-18
 -1     11370 1.59810E-03 2.94929E-02 4.45878E-18
 -1     11371 1.63608E-03 2.93206E-02 9.48677E-20
 -1     11372 1.58479E-03 2.94968E-02 3.84892E-18
 -1     11373 1.61864E-03 2.93255E-02-1.77538E-18
 -1     11374 1.57275E-03 2.95001E-02 1.65341E-18
 -1     11375 1.60266E-03 2.93296E-02-2.60209E-18
 -1     11376 1.56174E-03 2.95030E-02 4.06576E-19
 -1     11377 1.58790E-03 2.93332E-02-7.86047E-19
 -1     11378 1.55160E-03 2.95054E-02-3.10353E-18
 -1     11379 1.57419E-03 2.93365E-02 2.71051E-19
 -1     11380 1.54219E-03 2.95076E-02-5.80048E-18
 -1     11381 1.56138E-03 2.93393E-02-2.84603E-18
 -1     11382 1.53342E-03 2.95095E-02 2.16840E-19
 -1     11383 1.54936E-03 2.93419E-02 5.69206E-19
 -1     11384 1.52521E-03 2.95113E-02 3.11708E-19
 -1     11385 1.51750E-03 2.95128E-02 6.50521E-19
 -1     11386 1.62508E-03 2.96118E-02-6.91179E-19
 -1     11387 1.59407E-03 2.96384E-02 3.65918E-19
 -1     11388 1.57578E-03 2.96526E-02 7.58942E-19
 -1     11389 1.56244E-03 2.96598E-02-6.17995E-18
 -1     11390 1.55183E-03 2.96647E-02-1.36881E-18
 -1     11391 1.54291E-03 2.96682E-02-3.08998E-18
 -1     11392 1.53516E-03 2.96708E-02 1.17907E-18
 -1     11393 1.52827E-03 2.96729E-02 1.28749E-18
 -1     11394 1.52206E-03 2.96746E-02-2.20906E-18
 -1     11395 1.51638E-03 2.96760E-02 5.09575E-18
 -1     11396 1.51116E-03 2.96773E-02-1.54499E-18
 -1     11397 1.50633E-03 2.96784E-02-4.26905E-18
 -1     11398 1.50183E-03 2.96793E-02 2.66985E-18
 -1     11399 1.49762E-03 2.96802E-02-2.00577E-18
 -1     11400 1.49368E-03 2.96810E-02 4.75694E-18
 -1     11401 1.50668E-03 2.95148E-02 1.32137E-19
 -1     11402 1.54817E-03 2.91765E-02-4.91279E-19
 -1     11403 1.59052E-03 2.88339E-02-8.23316E-19
 -1     11404 1.63322E-03 2.84870E-02-8.94467E-19
 -1     11405 1.67580E-03 2.81359E-02 6.43745E-19
 -1     11406 1.71780E-03 2.77808E-02 6.91179E-19
 -1     11407 1.75881E-03 2.74218E-02 3.48978E-19
 -1     11408 1.79847E-03 2.70592E-02-2.94767E-19
 -1     11409 1.83649E-03 2.66933E-02-3.01544E-19
 -1     11410 1.87263E-03 2.63244E-02 3.18484E-19
 -1     11411 1.90672E-03 2.59527E-02 8.13152E-19
 -1     11412 1.93863E-03 2.55787E-02-7.11508E-20
 -1     11413 1.96829E-03 2.52025E-02 3.65918E-19
 -1     11414 1.99570E-03 2.48244E-02 5.82759E-19
 -1     11415 2.02085E-03 2.44447E-02-6.64074E-19
 -1     11416 2.04382E-03 2.40635E-02 7.25060E-19
 -1     11417 2.06470E-03 2.36810E-02-7.86047E-19
 -1     11418 2.08361E-03 2.32972E-02 9.48677E-20
 -1     11419 2.10074E-03 2.29122E-02-8.13152E-20
 -1     11420 2.11629E-03 2.25257E-02 4.74338E-20
 -1     11421 2.13058E-03 2.21377E-02 8.13152E-20
 -1     11422 2.14402E-03 2.17475E-02 9.38513E-19
 -1     11423 2.15717E-03 2.13548E-02-3.21873E-19
 -1     11424 2.17085E-03 2.09585E-02 1.89735E-19
 -1     11425 2.18624E-03 2.05575E-02-3.76083E-19
 -1     11426 2.20505E-03 2.01502E-02 3.82859E-19
 -1     11427 2.22972E-03 1.97345E-02 1.69407E-20
 -1     11428 2.26367E-03 1.93081E-02 5.04832E-19
 -1     11429 1.49992E-03 2.95159E-02 1.38236E-18
 -1     11430 1.53443E-03 2.91789E-02-4.16740E-19
 -1     11431 1.56970E-03 2.88378E-02-3.42201E-19
 -1     11432 1.60529E-03 2.84926E-02 3.35425E-19
 -1     11433 1.64080E-03 2.81434E-02-1.08420E-18
 -1     11434 1.67586E-03 2.77903E-02-1.20617E-18
 -1     11435 1.71012E-03 2.74335E-02-7.11508E-19
 -1     11436 1.74329E-03 2.70732E-02-1.10114E-18
 -1     11437 1.77510E-03 2.67097E-02 3.38813E-20
 -1     11438 1.80535E-03 2.63434E-02-2.03288E-20
 -1     11439 1.83387E-03 2.59744E-02-6.97955E-19
 -1     11440 1.86054E-03 2.56032E-02 1.21973E-19
 -1     11441 1.88528E-03 2.52300E-02-5.92923E-19
 -1     11442 1.90806E-03 2.48551E-02-1.01644E-19
 -1     11443 1.92885E-03 2.44788E-02-4.40457E-20
 -1     11444 1.94768E-03 2.41014E-02-7.99599E-19
 -1     11445 1.96457E-03 2.37230E-02-1.32137E-19
 -1     11446 1.97960E-03 2.33437E-02-2.13452E-19
 -1     11447 1.99284E-03 2.29639E-02 3.28649E-19
 -1     11448 2.00443E-03 2.25833E-02-1.01644E-20
 -1     11449 2.01453E-03 2.22020E-02-1.79571E-19
 -1     11450 2.02339E-03 2.18198E-02-1.08420E-19
 -1     11451 2.03139E-03 2.14361E-02-5.62430E-19
 -1     11452 2.03911E-03 2.10504E-02-3.04932E-19
 -1     11453 2.04744E-03 2.06615E-02-6.09864E-19
 -1     11454 2.05780E-03 2.02679E-02-1.38913E-19
 -1     11455 2.07242E-03 1.98674E-02 6.26804E-19
 -1     11456 2.09472E-03 1.94568E-02-3.18484E-19
 -1     11457 1.49345E-03 2.95168E-02-2.77827E-19
 -1     11458 1.52129E-03 2.91809E-02 6.64074E-19
 -1     11459 1.54975E-03 2.88411E-02 8.47033E-20
 -1     11460 1.57850E-03 2.84973E-02-3.48978E-19
 -1     11461 1.60720E-03 2.81496E-02 3.79471E-19
 -1     11462 1.63556E-03 2.77982E-02 4.91279E-19
 -1     11463 1.66329E-03 2.74433E-02 3.38813E-19
 -1     11464 1.69014E-03 2.70850E-02 6.77626E-19
 -1     11465 1.71591E-03 2.67237E-02 2.98156E-19
 -1     11466 1.74041E-03 2.63595E-02 1.49417E-18
 -1     11467 1.76349E-03 2.59930E-02 1.89735E-19
 -1     11468 1.78506E-03 2.56242E-02 1.46706E-18
 -1     11469 1.80503E-03 2.52537E-02 1.52466E-19
 -1     11470 1.82334E-03 2.48817E-02-6.09864E-20
 -1     11471 1.83995E-03 2.45085E-02-6.77626E-21
 -1     11472 1.85486E-03 2.41345E-02-1.55854E-19
 -1     11473 1.86805E-03 2.37600E-02-2.60886E-19
 -1     11474 1.87954E-03 2.33852E-02 2.64274E-19
 -1     11475 1.88935E-03 2.30104E-02-8.19928E-19
 -1     11476 1.89750E-03 2.26358E-02 5.18384E-19
 -1     11477 1.90405E-03 2.22615E-02 8.80914E-20
 -1     11478 1.90911E-03 2.18875E-02 2.94767E-19
 -1     11479 1.91282E-03 2.15138E-02 3.69306E-19
 -1     11480 1.91551E-03 2.11401E-02 1.42302E-19
 -1     11481 1.91770E-03 2.07656E-02-4.74338E-19
 -1     11482 1.92035E-03 2.03892E-02-4.74338E-20
 -1     11483 1.92512E-03 2.00091E-02 4.57398E-19
 -1     11484 1.93492E-03 1.96222E-02 1.55854E-19
 -1     11485 1.48722E-03 2.95175E-02-2.30393E-18
 -1     11486 1.50863E-03 2.91826E-02-1.07065E-18
 -1     11487 1.53053E-03 2.88437E-02-4.87891E-19
 -1     11488 1.55265E-03 2.85011E-02-3.45589E-19
 -1     11489 1.57476E-03 2.81547E-02 2.71051E-20
 -1     11490 1.59660E-03 2.78047E-02 2.03288E-20
 -1     11491 1.61798E-03 2.74512E-02-3.32037E-19
 -1     11492 1.63868E-03 2.70946E-02-6.43745E-19
 -1     11493 1.65855E-03 2.67350E-02-8.19928E-19
 -1     11494 1.67744E-03 2.63727E-02 5.04832E-19
 -1     11495 1.69523E-03 2.60081E-02-1.06726E-18
 -1     11496 1.71183E-03 2.56414E-02 3.79471E-19
 -1     11497 1.72716E-03 2.52732E-02 6.06476E-19
 -1     11498 1.74117E-03 2.49036E-02-3.79471E-19
 -1     11499 1.75381E-03 2.45332E-02-5.08220E-20
 -1     11500 1.76505E-03 2.41622E-02 3.11708E-19
 -1     11501 1.77486E-03 2.37912E-02-2.91379E-19
 -1     11502 1.78322E-03 2.34204E-02-5.31937E-19
 -1     11503 1.79009E-03 2.30502E-02-2.06676E-19
 -1     11504 1.79545E-03 2.26811E-02-3.28649E-19
 -1     11505 1.79927E-03 2.23135E-02-5.11608E-19
 -1     11506 1.80152E-03 2.19476E-02-8.80914E-19
 -1     11507 1.80219E-03 2.15839E-02-5.79371E-19
 -1     11508 1.80134E-03 2.12224E-02-3.79471E-19
 -1     11509 1.79914E-03 2.08634E-02 4.70950E-19
 -1     11510 1.79603E-03 2.05064E-02-1.11808E-18
 -1     11511 1.79292E-03 2.01506E-02-1.96512E-19
 -1     11512 1.79173E-03 1.97943E-02 1.32137E-19
 -1     11513 1.48119E-03 2.95181E-02-3.89635E-19
 -1     11514 1.49635E-03 2.91838E-02 7.48777E-19
 -1     11515 1.51186E-03 2.88457E-02-9.21572E-19
 -1     11516 1.52754E-03 2.85040E-02 1.06726E-18
 -1     11517 1.54321E-03 2.81585E-02-2.47334E-19
 -1     11518 1.55870E-03 2.78096E-02 1.89735E-19
 -1     11519 1.57386E-03 2.74573E-02-4.47233E-19
 -1     11520 1.58855E-03 2.71018E-02-5.35325E-19
 -1     11521 1.60265E-03 2.67435E-02 2.37169E-19
 -1     11522 1.61605E-03 2.63827E-02-5.75982E-20
 -1     11523 1.62866E-03 2.60196E-02 8.09763E-19
 -1     11524 1.64041E-03 2.56546E-02-7.35225E-19
 -1     11525 1.65125E-03 2.52881E-02-8.80914E-19
 -1     11526 1.66112E-03 2.49205E-02-3.76083E-19
 -1     11527 1.66999E-03 2.45523E-02-7.65718E-19
 -1     11528 1.67780E-03 2.41838E-02-1.11470E-18
 -1     11529 1.68454E-03 2.38155E-02-9.82558E-20
 -1     11530 1.69016E-03 2.34480E-02-8.53809E-19
 -1     11531 1.69462E-03 2.30818E-02-7.38613E-19
 -1     11532 1.69784E-03 2.27174E-02 1.55854E-19
 -1     11533 1.69977E-03 2.23554E-02-1.82959E-19
 -1     11534 1.70032E-03 2.19966E-02-5.79371E-19
 -1     11535 1.69937E-03 2.16418E-02 2.37169E-20
 -1     11536 1.69683E-03 2.12917E-02-6.47133E-19
 -1     11537 1.69260E-03 2.09472E-02-2.87991E-19
 -1     11538 1.68671E-03 2.06093E-02 0.00000E+00
 -1     11539 1.67940E-03 2.02786E-02-3.28649E-19
 -1     11540 1.67151E-03 1.99557E-02-4.74338E-19
 -1     11541 1.47530E-03 2.95185E-02-2.07015E-18
 -1     11542 1.48434E-03 2.91846E-02-6.77626E-21
 -1     11543 1.49359E-03 2.88471E-02-7.14896E-19
 -1     11544 1.50295E-03 2.85059E-02 9.14796E-20
 -1     11545 1.51230E-03 2.81611E-02 6.47133E-19
 -1     11546 1.52155E-03 2.78128E-02-4.06576E-20
 -1     11547 1.53061E-03 2.74613E-02-3.65918E-19
 -1     11548 1.53938E-03 2.71067E-02 9.21572E-19
 -1     11549 1.54780E-03 2.67493E-02 2.10064E-19
 -1     11550 1.55580E-03 2.63894E-02-3.55754E-19
 -1     11551 1.56333E-03 2.60274E-02-6.50521E-19
 -1     11552 1.57034E-03 2.56635E-02-8.47033E-19
 -1     11553 1.57679E-03 2.52983E-02 1.89735E-19
 -1     11554 1.58266E-03 2.49320E-02-4.33681E-19
 -1     11555 1.58790E-03 2.45653E-02-1.15196E-19
 -1     11556 1.59250E-03 2.41985E-02 6.43745E-19
 -1     11557 1.59643E-03 2.38323E-02-1.29427E-18
 -1     11558 1.59965E-03 2.34671E-02 6.84403E-19
 -1     11559 1.60212E-03 2.31037E-02-1.38913E-18
 -1     11560 1.60380E-03 2.27427E-02 1.05032E-19
 -1     11561 1.60460E-03 2.23849E-02 8.06375E-19
 -1     11562 1.60445E-03 2.20314E-02-5.21772E-19
 -1     11563 1.60323E-03 2.16833E-02-7.38613E-19
 -1     11564 1.60080E-03 2.13420E-02-8.94467E-19
 -1     11565 1.59700E-03 2.10090E-02 9.48677E-20
 -1     11566 1.59167E-03 2.06865E-02-6.43745E-20
 -1     11567 1.58469E-03 2.03769E-02-2.64274E-19
 -1     11568 1.57620E-03 2.00834E-02 3.23567E-19
 -1     11569 1.46948E-03 2.95187E-02 4.43845E-19
 -1     11570 1.47249E-03 2.91850E-02 2.37169E-19
 -1     11571 1.47556E-03 2.88478E-02 7.89435E-19
 -1     11572 1.47868E-03 2.85068E-02 5.62430E-19
 -1     11573 1.48179E-03 2.81624E-02-9.48677E-20
 -1     11574 1.48486E-03 2.78145E-02 2.33781E-19
 -1     11575 1.48787E-03 2.74633E-02-1.69407E-20
 -1     11576 1.49079E-03 2.71092E-02 3.32037E-19
 -1     11577 1.49359E-03 2.67522E-02-3.42201E-19
 -1     11578 1.49625E-03 2.63928E-02 4.50622E-19
 -1     11579 1.49875E-03 2.60313E-02 2.64274E-19
 -1     11580 1.50108E-03 2.56680E-02 1.22650E-18
 -1     11581 1.50322E-03 2.53034E-02 3.01544E-19
 -1     11582 1.50517E-03 2.49378E-02 5.04832E-19
 -1     11583 1.50691E-03 2.45719E-02 1.72795E-19
 -1     11584 1.50842E-03 2.42060E-02-1.35525E-19
 -1     11585 1.50971E-03 2.38408E-02 1.39591E-18
 -1     11586 1.51076E-03 2.34769E-02-6.36969E-19
 -1     11587 1.51155E-03 2.31149E-02-6.77626E-20
 -1     11588 1.51206E-03 2.27557E-02-2.37169E-20
 -1     11589 1.51226E-03 2.24002E-02 9.48677E-20
 -1     11590 1.51213E-03 2.20495E-02-5.38713E-19
 -1     11591 1.51160E-03 2.17051E-02-5.14996E-19
 -1     11592 1.51063E-03 2.13685E-02-6.91179E-19
 -1     11593 1.50913E-03 2.10419E-02-4.67562E-19
 -1     11594 1.50701E-03 2.07281E-02 1.11808E-19
 -1     11595 1.50419E-03 2.04307E-02-7.79270E-20
 -1     11596 1.50061E-03 2.01546E-02 3.84553E-19
 -1     11597 1.46370E-03 2.95187E-02 3.76083E-19
 -1     11598 1.46070E-03 2.91850E-02-6.23416E-19
 -1     11599 1.45762E-03 2.88478E-02-4.64174E-19
 -1     11600 1.45451E-03 2.85068E-02 1.07065E-18
 -1     11601 1.45140E-03 2.81624E-02 5.42101E-19
 -1     11602 1.44832E-03 2.78145E-02-6.20028E-19
 -1     11603 1.44531E-03 2.74633E-02 1.01983E-18
 -1     11604 1.44239E-03 2.71092E-02 3.93023E-19
 -1     11605 1.43959E-03 2.67522E-02 1.13164E-18
 -1     11606 1.43693E-03 2.63928E-02-5.08220E-19
 -1     11607 1.43443E-03 2.60313E-02 4.74338E-20
 -1     11608 1.43210E-03 2.56680E-02 3.21873E-19
 -1     11609 1.42996E-03 2.53034E-02 6.09864E-20
 -1     11610 1.42801E-03 2.49378E-02-4.87891E-19
 -1     11611 1.42628E-03 2.45719E-02 3.55754E-19
 -1     11612 1.42476E-03 2.42060E-02-2.81215E-19
 -1     11613 1.42347E-03 2.38408E-02-7.45389E-20
 -1     11614 1.42242E-03 2.34769E-02-5.48877E-19
 -1     11615 1.42164E-03 2.31149E-02 0.00000E+00
 -1     11616 1.42112E-03 2.27557E-02-3.72694E-19
 -1     11617 1.42092E-03 2.24002E-02 4.40457E-20
 -1     11618 1.42105E-03 2.20495E-02 3.55754E-19
 -1     11619 1.42158E-03 2.17051E-02-4.40457E-20
 -1     11620 1.42255E-03 2.13685E-02-1.86347E-19
 -1     11621 1.42405E-03 2.10419E-02 6.67462E-19
 -1     11622 1.42617E-03 2.07281E-02-4.16740E-19
 -1     11623 1.42899E-03 2.04307E-02 5.21772E-19
 -1     11624 1.43258E-03 2.01546E-02-1.06557E-18
 -1     11625 1.45789E-03 2.95185E-02-1.01644E-19
 -1     11626 1.44885E-03 2.91846E-02 6.16640E-19
 -1     11627 1.43959E-03 2.88471E-02 1.02660E-18
 -1     11628 1.43023E-03 2.85059E-02-4.43845E-19
 -1     11629 1.42088E-03 2.81611E-02 5.01444E-19
 -1     11630 1.41163E-03 2.78128E-02-2.81215E-19
 -1     11631 1.40258E-03 2.74613E-02-2.43945E-19
 -1     11632 1.39380E-03 2.71067E-02-3.42201E-19
 -1     11633 1.38538E-03 2.67493E-02 1.96512E-19
 -1     11634 1.37738E-03 2.63894E-02 2.47334E-19
 -1     11635 1.36986E-03 2.60274E-02-1.60259E-18
 -1     11636 1.36285E-03 2.56635E-02 3.35425E-19
 -1     11637 1.35639E-03 2.52983E-02 3.04932E-20
 -1     11638 1.35053E-03 2.49320E-02-6.94567E-19
 -1     11639 1.34528E-03 2.45653E-02 5.01444E-19
 -1     11640 1.34068E-03 2.41985E-02 1.28749E-19
 -1     11641 1.33675E-03 2.38323E-02-6.16640E-19
 -1     11642 1.33353E-03 2.34671E-02 7.45389E-20
 -1     11643 1.33106E-03 2.31037E-02 7.35225E-19
 -1     11644 1.32939E-03 2.27427E-02-2.37169E-20
 -1     11645 1.32858E-03 2.23849E-02-1.62630E-19
 -1     11646 1.32873E-03 2.20314E-02-6.43745E-19
 -1     11647 1.32995E-03 2.16833E-02-1.72795E-19
 -1     11648 1.33238E-03 2.13420E-02-5.38713E-19
 -1     11649 1.33618E-03 2.10090E-02 3.89635E-19
 -1     11650 1.34151E-03 2.06865E-02 3.38813E-19
 -1     11651 1.34849E-03 2.03769E-02-7.11508E-19
 -1     11652 1.35699E-03 2.00834E-02-4.60786E-19
 -1     11653 1.45199E-03 2.95181E-02-3.04932E-19
 -1     11654 1.43684E-03 2.91838E-02 1.66018E-19
 -1     11655 1.42133E-03 2.88457E-02 2.13452E-19
 -1     11656 1.40564E-03 2.85040E-02 6.36969E-19
 -1     11657 1.38997E-03 2.81585E-02 1.46367E-18
 -1     11658 1.37448E-03 2.78096E-02 4.67562E-19
 -1     11659 1.35932E-03 2.74573E-02-3.55754E-19
 -1     11660 1.34463E-03 2.71018E-02-2.06676E-19
 -1     11661 1.33054E-03 2.67435E-02 3.79471E-19
 -1     11662 1.31714E-03 2.63827E-02-3.72694E-19
 -1     11663 1.30452E-03 2.60196E-02 1.04693E-18
 -1     11664 1.29277E-03 2.56546E-02-6.50521E-19
 -1     11665 1.28193E-03 2.52881E-02 9.18184E-19
 -1     11666 1.27206E-03 2.49205E-02-7.11508E-20
 -1     11667 1.26320E-03 2.45523E-02 3.38813E-21
 -1     11668 1.25538E-03 2.41838E-02 1.03338E-18
 -1     11669 1.24864E-03 2.38155E-02 1.86347E-19
 -1     11670 1.24302E-03 2.34480E-02 1.86347E-19
 -1     11671 1.23857E-03 2.30818E-02 1.62630E-19
 -1     11672 1.23534E-03 2.27174E-02 1.05032E-19
 -1     11673 1.23341E-03 2.23554E-02 8.47033E-20
 -1     11674 1.23287E-03 2.19966E-02-5.52265E-19
 -1     11675 1.23381E-03 2.16418E-02 4.87891E-19
 -1     11676 1.23636E-03 2.12917E-02-2.71051E-19
 -1     11677 1.24058E-03 2.09472E-02 2.27005E-19
 -1     11678 1.24648E-03 2.06093E-02 3.65918E-19
 -1     11679 1.25379E-03 2.02786E-02 3.45589E-19
 -1     11680 1.26168E-03 1.99557E-02 3.04932E-20
 -1     11681 1.44596E-03 2.95175E-02-1.79571E-19
 -1     11682 1.42456E-03 2.91826E-02-3.18484E-19
 -1     11683 1.40266E-03 2.88437E-02-6.84403E-19
 -1     11684 1.38053E-03 2.85011E-02-2.34459E-18
 -1     11685 1.35843E-03 2.81547E-02-2.71051E-20
 -1     11686 1.33658E-03 2.78047E-02-1.28071E-18
 -1     11687 1.31521E-03 2.74512E-02-3.96411E-19
 -1     11688 1.29450E-03 2.70946E-02-7.52165E-19
 -1     11689 1.27463E-03 2.67350E-02-9.58841E-19
 -1     11690 1.25574E-03 2.63727E-02-5.75982E-20
 -1     11691 1.23795E-03 2.60081E-02-1.07404E-18
 -1     11692 1.22135E-03 2.56414E-02-2.71051E-19
 -1     11693 1.20602E-03 2.52732E-02-7.45389E-19
 -1     11694 1.19201E-03 2.49036E-02-7.82658E-19
 -1     11695 1.17937E-03 2.45332E-02-2.27005E-19
 -1     11696 1.16813E-03 2.41622E-02-1.21973E-19
 -1     11697 1.15832E-03 2.37912E-02-5.28549E-19
 -1     11698 1.14996E-03 2.34204E-02-7.79270E-20
 -1     11699 1.14309E-03 2.30502E-02-7.79270E-19
 -1     11700 1.13773E-03 2.26811E-02-7.45389E-19
 -1     11701 1.13391E-03 2.23135E-02 2.47334E-19
 -1     11702 1.13167E-03 2.19476E-02-2.37169E-19
 -1     11703 1.13099E-03 2.15839E-02 7.45389E-20
 -1     11704 1.13184E-03 2.12224E-02 4.03188E-19
 -1     11705 1.13404E-03 2.08634E-02-2.06676E-19
 -1     11706 1.13716E-03 2.05064E-02-2.71051E-20
 -1     11707 1.14026E-03 2.01506E-02-7.21672E-19
 -1     11708 1.14145E-03 1.97943E-02-2.33781E-19
 -1     11709 1.43974E-03 2.95168E-02 3.01544E-19
 -1     11710 1.41190E-03 2.91809E-02 7.52165E-19
 -1     11711 1.38343E-03 2.88411E-02-7.31836E-19
 -1     11712 1.35468E-03 2.84973E-02 8.23316E-19
 -1     11713 1.32598E-03 2.81496E-02 7.11508E-20
 -1     11714 1.29762E-03 2.77982E-02 1.28749E-18
 -1     11715 1.26990E-03 2.74433E-02-5.75982E-20
 -1     11716 1.24304E-03 2.70850E-02 1.21973E-18
 -1     11717 1.21728E-03 2.67237E-02 2.71051E-19
 -1     11718 1.19278E-03 2.63595E-02-6.23416E-19
 -1     11719 1.16969E-03 2.59930E-02-2.27005E-19
 -1     11720 1.14812E-03 2.56242E-02 1.69407E-19
 -1     11721 1.12816E-03 2.52537E-02-7.89435E-19
 -1     11722 1.10985E-03 2.48817E-02-2.30393E-19
 -1     11723 1.09323E-03 2.45085E-02-1.01305E-18
 -1     11724 1.07833E-03 2.41345E-02-1.55854E-19
 -1     11725 1.06513E-03 2.37600E-02-1.26039E-18
 -1     11726 1.05364E-03 2.33852E-02 9.48677E-20
 -1     11727 1.04384E-03 2.30104E-02-1.11808E-18
 -1     11728 1.03568E-03 2.26358E-02-4.54010E-19
 -1     11729 1.02913E-03 2.22615E-02-2.37169E-20
 -1     11730 1.02408E-03 2.18875E-02 1.62630E-19
 -1     11731 1.02036E-03 2.15138E-02-1.89735E-19
 -1     11732 1.01767E-03 2.11401E-02 4.64174E-19
 -1     11733 1.01548E-03 2.07656E-02 5.38713E-19
 -1     11734 1.01283E-03 2.03892E-02 1.18585E-19
 -1     11735 1.00806E-03 2.00091E-02-2.03288E-19
 -1     11736 9.98264E-04 1.96222E-02 3.89635E-19
 -1     11737 1.43327E-03 2.95159E-02 5.21772E-19
 -1     11738 1.39875E-03 2.91789E-02 1.86347E-19
 -1     11739 1.36349E-03 2.88378E-02-4.64174E-19
 -1     11740 1.32790E-03 2.84926E-02-8.13152E-20
 -1     11741 1.29238E-03 2.81434E-02 7.04731E-19
 -1     11742 1.25732E-03 2.77903E-02-1.12147E-18
 -1     11743 1.22306E-03 2.74335E-02 6.77626E-21
 -1     11744 1.18989E-03 2.70732E-02-1.03677E-18
 -1     11745 1.15808E-03 2.67097E-02-8.19928E-19
 -1     11746 1.12784E-03 2.63434E-02 7.69106E-19
 -1     11747 1.09932E-03 2.59744E-02-1.05032E-19
 -1     11748 1.07265E-03 2.56032E-02-3.72694E-20
 -1     11749 1.04790E-03 2.52300E-02 3.72694E-20
 -1     11750 1.02512E-03 2.48551E-02-3.18484E-19
 -1     11751 1.00433E-03 2.44788E-02 6.57298E-19
 -1     11752 9.85506E-04 2.41014E-02-1.04693E-18
 -1     11753 9.68611E-04 2.37230E-02 5.79371E-19
 -1     11754 9.53585E-04 2.33437E-02-4.43845E-19
 -1     11755 9.40341E-04 2.29639E-02 1.55854E-19
 -1     11756 9.28755E-04 2.25833E-02-4.74338E-20
 -1     11757 9.18656E-04 2.22020E-02-2.43945E-19
 -1     11758 9.09794E-04 2.18198E-02 6.77626E-21
 -1     11759 9.01794E-04 2.14361E-02 0.00000E+00
 -1     11760 8.94078E-04 2.10504E-02-6.09864E-19
 -1     11761 8.85745E-04 2.06615E-02-1.49078E-19
 -1     11762 8.75379E-04 2.02679E-02-7.45389E-19
 -1     11763 8.60763E-04 1.98674E-02 3.18484E-19
 -1     11764 8.38464E-04 1.94568E-02-5.21772E-19
 -1     11765 1.42650E-03 2.95148E-02-1.51788E-18
 -1     11766 1.38502E-03 2.91765E-02-8.87691E-19
 -1     11767 1.34267E-03 2.88339E-02 7.21672E-19
 -1     11768 1.29996E-03 2.84870E-02-3.89635E-19
 -1     11769 1.25738E-03 2.81359E-02 1.96512E-19
 -1     11770 1.21538E-03 2.77808E-02 1.08420E-19
 -1     11771 1.17437E-03 2.74218E-02 1.15196E-19
 -1     11772 1.13471E-03 2.70592E-02 4.57398E-19
 -1     11773 1.09669E-03 2.66933E-02 1.16213E-18
 -1     11774 1.06055E-03 2.63244E-02 7.79270E-20
 -1     11775 1.02646E-03 2.59527E-02-3.42201E-19
 -1     11776 9.94554E-04 2.55787E-02-4.13352E-19
 -1     11777 9.64889E-04 2.52025E-02-1.33154E-18
 -1     11778 9.37488E-04 2.48244E-02-7.52165E-19
 -1     11779 9.12331E-04 2.44447E-02-1.07743E-18
 -1     11780 8.89361E-04 2.40635E-02 6.47133E-19
 -1     11781 8.68484E-04 2.36810E-02-5.18384E-19
 -1     11782 8.49569E-04 2.32972E-02-2.60886E-19
 -1     11783 8.32447E-04 2.29122E-02-3.72694E-19
 -1     11784 8.16890E-04 2.25257E-02-1.99900E-19
 -1     11785 8.02601E-04 2.21377E-02 8.47033E-20
 -1     11786 7.89167E-04 2.17475E-02-3.04932E-20
 -1     11787 7.76017E-04 2.13548E-02 1.05032E-19
 -1     11788 7.62334E-04 2.09585E-02 1.69407E-20
 -1     11789 7.46939E-04 2.05575E-02-6.43745E-20
 -1     11790 7.28130E-04 2.01502E-02-5.48877E-19
 -1     11791 7.03463E-04 1.97345E-02-3.72694E-19
 -1     11792 6.69510E-04 1.93081E-02-4.16740E-19
 -1     11793 1.51020E-03 2.95141E-02-1.76183E-19
 -1     11794 1.48643E-03 2.96823E-02 1.76183E-19
 -1     11795 1.55529E-03 2.91752E-02-4.05221E-18
 -1     11796 1.52728E-03 2.93462E-02-1.09775E-18
 -1     11797 1.60131E-03 2.88317E-02-1.20617E-18
 -1     11798 1.56927E-03 2.90058E-02-1.32815E-18
 -1     11799 1.64769E-03 2.84839E-02 2.71051E-20
 -1     11800 1.61186E-03 2.86610E-02-3.03577E-18
 -1     11801 1.69391E-03 2.81317E-02-1.78893E-18
 -1     11802 1.65456E-03 2.83120E-02-9.21572E-19
 -1     11803 1.73948E-03 2.77754E-02 2.31748E-18
 -1     11804 1.69690E-03 2.79588E-02 2.27682E-18
 -1     11805 1.78395E-03 2.74152E-02 1.89735E-18
 -1     11806 1.73845E-03 2.76017E-02 2.01933E-18
 -1     11807 1.82693E-03 2.70514E-02-7.72494E-19
 -1     11808 1.77883E-03 2.72409E-02-4.06576E-19
 -1     11809 1.86812E-03 2.66841E-02-2.23617E-18
 -1     11810 1.81770E-03 2.68766E-02-9.75782E-19
 -1     11811 1.90727E-03 2.63138E-02-4.33681E-19
 -1     11812 1.85481E-03 2.65092E-02 9.48677E-20
 -1     11813 1.94418E-03 2.59407E-02 2.98156E-18
 -1     11814 1.88994E-03 2.61389E-02 1.46367E-18
 -1     11815 1.97876E-03 2.55651E-02-5.96311E-19
 -1     11816 1.92295E-03 2.57660E-02 1.23328E-18
 -1     11817 2.01093E-03 2.51874E-02 1.73472E-18
 -1     11818 1.95374E-03 2.53908E-02 4.60786E-19
 -1     11819 2.04069E-03 2.48076E-02-2.71051E-20
 -1     11820 1.98228E-03 2.50137E-02 1.07065E-18
 -1     11821 2.06808E-03 2.44262E-02 5.42101E-19
 -1     11822 2.00855E-03 2.46348E-02-2.57498E-19
 -1     11823 2.09320E-03 2.40431E-02 2.68340E-18
 -1     11824 2.03261E-03 2.42543E-02 4.06576E-20
 -1     11825 2.11615E-03 2.36585E-02-8.13152E-19
 -1     11826 2.05452E-03 2.38724E-02 1.42302E-19
 -1     11827 2.13712E-03 2.32725E-02-5.89535E-19
 -1     11828 2.07439E-03 2.34893E-02-1.05032E-18
 -1     11829 2.15631E-03 2.28849E-02-2.94090E-18
 -1     11830 2.09239E-03 2.31049E-02-4.26905E-19
 -1     11831 2.17400E-03 2.24956E-02-1.49078E-19
 -1     11832 2.10869E-03 2.27192E-02 4.67562E-19
 -1     11833 2.19056E-03 2.21043E-02-1.76183E-19
 -1     11834 2.12357E-03 2.23319E-02 3.11708E-19
 -1     11835 2.20646E-03 2.17106E-02 1.98545E-18
 -1     11836 2.13737E-03 2.19429E-02 1.80249E-18
 -1     11837 2.22238E-03 2.13138E-02-6.77626E-21
 -1     11838 2.15058E-03 2.15515E-02 6.03087E-19
 -1     11839 2.23921E-03 2.09130E-02-7.45389E-19
 -1     11840 2.16388E-03 2.11572E-02-6.03087E-19
 -1     11841 2.25822E-03 2.05070E-02 1.82959E-19
 -1     11842 2.17824E-03 2.07587E-02-4.33681E-19
 -1     11843 2.28118E-03 2.00943E-02-1.70762E-18
 -1     11844 2.19508E-03 2.03548E-02 1.08420E-19
 -1     11845 2.31052E-03 1.96731E-02-1.27394E-18
 -1     11846 2.21646E-03 1.99436E-02 8.06375E-19
 -1     11847 2.34951E-03 1.92414E-02 1.78893E-18
 -1     11848 2.24527E-03 1.95228E-02 6.36969E-19
 -1     11849 2.28552E-03 1.90900E-02 9.48677E-20
 -1     11850 1.50326E-03 2.95153E-02 2.85958E-18
 -1     11851 1.48308E-03 2.96828E-02 2.98156E-19
 -1     11852 1.54122E-03 2.91778E-02-1.72117E-18
 -1     11853 1.51705E-03 2.93479E-02 1.57209E-18
 -1     11854 1.57999E-03 2.88359E-02-3.29326E-18
 -1     11855 1.55200E-03 2.90089E-02-1.27394E-18
 -1     11856 1.61910E-03 2.84899E-02-1.27394E-18
 -1     11857 1.58748E-03 2.86657E-02 3.25261E-19
 -1     11858 1.65811E-03 2.81398E-02-2.43945E-19
 -1     11859 1.62308E-03 2.83185E-02-2.00577E-18
 -1     11860 1.69661E-03 2.77857E-02-1.04354E-18
 -1     11861 1.65841E-03 2.79673E-02-3.07642E-18
 -1     11862 1.73422E-03 2.74278E-02-1.70762E-18
 -1     11863 1.69311E-03 2.76123E-02-2.22261E-18
 -1     11864 1.77060E-03 2.70665E-02-2.19551E-18
 -1     11865 1.72686E-03 2.72537E-02-3.42879E-18
 -1     11866 1.80550E-03 2.67018E-02-1.16552E-18
 -1     11867 1.75938E-03 2.68918E-02-1.91091E-18
 -1     11868 1.83867E-03 2.63342E-02 7.45389E-19
 -1     11869 1.79043E-03 2.65269E-02 8.40257E-19
 -1     11870 1.86996E-03 2.59640E-02-2.43945E-19
 -1     11871 1.81983E-03 2.61592E-02-1.15196E-18
 -1     11872 1.89924E-03 2.55914E-02-5.82759E-19
 -1     11873 1.84744E-03 2.57891E-02-1.35525E-19
 -1     11874 1.92643E-03 2.52167E-02 1.21973E-19
 -1     11875 1.87316E-03 2.54168E-02-5.42101E-19
 -1     11876 1.95150E-03 2.48403E-02 1.62630E-18
 -1     11877 1.89692E-03 2.50428E-02-1.07065E-18
 -1     11878 1.97445E-03 2.44623E-02-1.82959E-18
 -1     11879 1.91870E-03 2.46671E-02-1.49078E-19
 -1     11880 1.99532E-03 2.40830E-02-8.74138E-19
 -1     11881 1.93851E-03 2.42902E-02-1.28749E-19
 -1     11882 2.01418E-03 2.37025E-02-3.04254E-18
 -1     11883 1.95636E-03 2.39123E-02-1.43657E-18
 -1     11884 2.03111E-03 2.33211E-02-8.13152E-19
 -1     11885 1.97231E-03 2.35334E-02 9.01243E-19
 -1     11886 2.04624E-03 2.29386E-02-2.37169E-19
 -1     11887 1.98644E-03 2.31539E-02 9.01243E-19
 -1     11888 2.05976E-03 2.25550E-02 3.99800E-19
 -1     11889 1.99883E-03 2.27737E-02 4.06576E-19
 -1     11890 2.07188E-03 2.21703E-02-4.94667E-19
 -1     11891 2.00965E-03 2.23928E-02 5.21772E-19
 -1     11892 2.08295E-03 2.17840E-02 3.02221E-18
 -1     11893 2.01909E-03 2.20110E-02-3.11708E-19
 -1     11894 2.09345E-03 2.13957E-02-1.91768E-18
 -1     11895 2.02747E-03 2.16282E-02-7.79270E-19
 -1     11896 2.10407E-03 2.10045E-02-6.70850E-19
 -1     11897 2.03523E-03 2.12436E-02-1.01644E-18
 -1     11898 2.11587E-03 2.06092E-02-1.87025E-18
 -1     11899 2.04312E-03 2.08565E-02-1.17229E-18
 -1     11900 2.13043E-03 2.02083E-02 7.99599E-19
 -1     11901 2.05225E-03 2.04655E-02-2.08709E-18
 -1     11902 2.15013E-03 1.97995E-02 1.91768E-18
 -1     11903 2.06439E-03 2.00687E-02 1.38236E-18
 -1     11904 2.17847E-03 1.93800E-02 9.35124E-19
 -1     11905 2.08232E-03 1.96636E-02 3.25261E-19
 -1     11906 2.11027E-03 1.92466E-02-4.06576E-20
 -1     11907 1.49665E-03 2.95164E-02 2.11419E-18
 -1     11908 1.47987E-03 2.96832E-02 3.23905E-18
 -1     11909 1.52779E-03 2.91800E-02-4.33681E-19
 -1     11910 1.50727E-03 2.93494E-02 8.13152E-19
 -1     11911 1.55962E-03 2.88395E-02-1.38236E-18
 -1     11912 1.53546E-03 2.90115E-02 1.39591E-18
 -1     11913 1.59176E-03 2.84951E-02-1.09775E-18
 -1     11914 1.56411E-03 2.86697E-02-5.96311E-19
 -1     11915 1.62384E-03 2.81467E-02-2.76472E-18
 -1     11916 1.59288E-03 2.83240E-02 5.01444E-19
 -1     11917 1.65552E-03 2.77944E-02-2.68340E-18
 -1     11918 1.62144E-03 2.79744E-02 8.40257E-19
 -1     11919 1.68649E-03 2.74386E-02-1.42302E-18
 -1     11920 1.64952E-03 2.76212E-02 2.64274E-18
 -1     11921 1.71648E-03 2.70794E-02-3.79471E-19
 -1     11922 1.67684E-03 2.72646E-02 2.07354E-18
 -1     11923 1.74525E-03 2.67170E-02-2.57498E-19
 -1     11924 1.70317E-03 2.69047E-02 2.03288E-18
 -1     11925 1.77260E-03 2.63518E-02 2.15485E-18
 -1     11926 1.72832E-03 2.65419E-02 2.65630E-18
 -1     11927 1.79839E-03 2.59841E-02-9.08019E-19
 -1     11928 1.75213E-03 2.61765E-02 3.68629E-18
 -1     11929 1.82250E-03 2.56142E-02 3.08998E-18
 -1     11930 1.77447E-03 2.58088E-02 3.53721E-18
 -1     11931 1.84483E-03 2.52424E-02-1.77538E-18
 -1     11932 1.79525E-03 2.54392E-02 2.98156E-18
 -1     11933 1.86535E-03 2.48690E-02-1.26039E-18
 -1     11934 1.81439E-03 2.50679E-02 2.71051E-20
 -1     11935 1.88403E-03 2.44943E-02-5.69206E-19
 -1     11936 1.83186E-03 2.46952E-02-9.08019E-19
 -1     11937 1.90087E-03 2.41186E-02-1.79571E-18
 -1     11938 1.84762E-03 2.43216E-02-1.13164E-18
 -1     11939 1.91587E-03 2.37422E-02-1.50433E-18
 -1     11940 1.86167E-03 2.39473E-02-2.14130E-18
 -1     11941 1.92908E-03 2.33652E-02-8.47033E-19
 -1     11942 1.87401E-03 2.35726E-02-7.45389E-20
 -1     11943 1.94055E-03 2.29879E-02-1.24006E-18
 -1     11944 1.88465E-03 2.31978E-02-1.35525E-18
 -1     11945 1.95034E-03 2.26103E-02 1.40269E-18
 -1     11946 1.89363E-03 2.28231E-02-3.93023E-19
 -1     11947 1.95858E-03 2.22325E-02 2.10064E-19
 -1     11948 1.90097E-03 2.24486E-02 5.55654E-19
 -1     11949 1.96542E-03 2.18544E-02 4.60786E-19
 -1     11950 1.90676E-03 2.20745E-02 8.13152E-20
 -1     11951 1.97115E-03 2.14757E-02-8.26704E-19
 -1     11952 1.91112E-03 2.17007E-02 9.01243E-19
 -1     11953 1.97619E-03 2.10958E-02 5.96311E-19
 -1     11954 1.91427E-03 2.13270E-02 1.57209E-18
 -1     11955 1.98129E-03 2.07139E-02-1.33492E-18
 -1     11956 1.91662E-03 2.09530E-02-1.02322E-18
 -1     11957 1.98762E-03 2.03285E-02-2.03288E-20
 -1     11958 1.91888E-03 2.05777E-02-2.71051E-19
 -1     11959 1.99718E-03 1.99376E-02 1.80926E-18
 -1     11960 1.92232E-03 2.01998E-02 1.41624E-18
 -1     11961 2.01320E-03 1.95379E-02-8.19928E-19
 -1     11962 1.92913E-03 1.98167E-02 2.43945E-19
 -1     11963 1.94313E-03 1.94249E-02-2.03288E-19
 -1     11964 1.49031E-03 2.95172E-02-4.66207E-18
 -1     11965 1.47679E-03 2.96836E-02-6.05798E-18
 -1     11966 1.51490E-03 2.91818E-02-1.57209E-18
 -1     11967 1.49785E-03 2.93505E-02-4.86536E-18
 -1     11968 1.54006E-03 2.88425E-02-1.15196E-18
 -1     11969 1.51953E-03 2.90136E-02-1.91091E-18
 -1     11970 1.56547E-03 2.84993E-02-3.23905E-18
 -1     11971 1.54158E-03 2.86729E-02-7.99599E-19
 -1     11972 1.59085E-03 2.81523E-02 1.08420E-19
 -1     11973 1.56372E-03 2.83284E-02 3.65918E-19
 -1     11974 1.61593E-03 2.78017E-02 1.21973E-19
 -1     11975 1.58573E-03 2.79801E-02-2.71051E-20
 -1     11976 1.64046E-03 2.74475E-02-1.07065E-18
 -1     11977 1.60736E-03 2.76284E-02 2.30393E-19
 -1     11978 1.66422E-03 2.70901E-02-1.73472E-18
 -1     11979 1.62842E-03 2.72733E-02-6.77626E-19
 -1     11980 1.68702E-03 2.67296E-02-2.01933E-18
 -1     11981 1.64873E-03 2.69151E-02-2.45301E-18
 -1     11982 1.70870E-03 2.63665E-02 2.20906E-18
 -1     11983 1.66812E-03 2.65541E-02 7.31836E-19
 -1     11984 1.72912E-03 2.60009E-02-1.19262E-18
 -1     11985 1.68648E-03 2.61906E-02-5.55654E-19
 -1     11986 1.74819E-03 2.56333E-02 2.23617E-18
 -1     11987 1.70368E-03 2.58250E-02-1.20617E-18
 -1     11988 1.76582E-03 2.52640E-02 1.51788E-18
 -1     11989 1.71966E-03 2.54575E-02 1.49078E-18
 -1     11990 1.78196E-03 2.48933E-02-5.42101E-19
 -1     11991 1.73434E-03 2.50885E-02 1.35525E-19
 -1     11992 1.79656E-03 2.45215E-02-3.11708E-19
 -1     11993 1.74767E-03 2.47185E-02-5.69206E-19
 -1     11994 1.80960E-03 2.41491E-02 4.40457E-19
 -1     11995 1.75961E-03 2.43478E-02 8.40257E-19
 -1     11996 1.82107E-03 2.37764E-02-2.79182E-18
 -1     11997 1.77014E-03 2.39767E-02 3.52366E-19
 -1     11998 1.83094E-03 2.34036E-02-9.21572E-19
 -1     11999 1.77923E-03 2.36057E-02-1.74828E-18
 -1     12000 1.83921E-03 2.30312E-02-2.47334E-18
 -1     12001 1.78684E-03 2.32352E-02-1.59920E-18
 -1     12002 1.84589E-03 2.26595E-02 5.42101E-19
 -1     12003 1.79297E-03 2.28655E-02-5.01444E-19
 -1     12004 1.85097E-03 2.22886E-02-1.77538E-18
 -1     12005 1.79756E-03 2.24971E-02-2.24294E-18
 -1     12006 1.85448E-03 2.19187E-02-1.65341E-18
 -1     12007 1.80059E-03 2.21303E-02-1.93801E-18
 -1     12008 1.85651E-03 2.15501E-02-6.57298E-19
 -1     12009 1.80205E-03 2.17655E-02-2.18196E-18
 -1     12010 1.85721E-03 2.11825E-02-1.18585E-18
 -1     12011 1.80195E-03 2.14029E-02-1.18585E-18
 -1     12012 1.85694E-03 2.08157E-02-4.13352E-19
 -1     12013 1.80039E-03 2.10426E-02 3.65918E-19
 -1     12014 1.85639E-03 2.04489E-02-3.39491E-18
 -1     12015 1.79766E-03 2.06847E-02-1.36881E-18
 -1     12016 1.85686E-03 2.00806E-02 4.81115E-19
 -1     12017 1.79438E-03 2.03284E-02-2.59531E-18
 -1     12018 1.86080E-03 1.97083E-02 8.19928E-19
 -1     12019 1.79190E-03 1.99727E-02 3.59142E-19
 -1     12020 1.79295E-03 1.96149E-02 0.00000E+00
 -1     12021 1.48419E-03 2.95178E-02-7.58942E-18
 -1     12022 1.47381E-03 2.96839E-02 2.84603E-19
 -1     12023 1.50245E-03 2.91832E-02-1.97867E-18
 -1     12024 1.48871E-03 2.93514E-02-8.13152E-19
 -1     12025 1.52113E-03 2.88448E-02-3.71339E-18
 -1     12026 1.50407E-03 2.90152E-02-1.36881E-18
 -1     12027 1.54002E-03 2.85026E-02 0.00000E+00
 -1     12028 1.51969E-03 2.86753E-02-6.23416E-19
 -1     12029 1.55889E-03 2.81568E-02-1.38236E-18
 -1     12030 1.53539E-03 2.83317E-02 9.48677E-19
 -1     12031 1.57754E-03 2.78073E-02 2.43945E-19
 -1     12032 1.55099E-03 2.79845E-02-1.42302E-18
 -1     12033 1.59579E-03 2.74545E-02-2.35814E-18
 -1     12034 1.56633E-03 2.76338E-02-8.80914E-19
 -1     12035 1.61347E-03 2.70985E-02-2.94090E-18
 -1     12036 1.58127E-03 2.72799E-02-2.04643E-18
 -1     12037 1.63044E-03 2.67396E-02-2.88669E-18
 -1     12038 1.59568E-03 2.69230E-02-1.20617E-18
 -1     12039 1.64657E-03 2.63781E-02-9.62229E-19
 -1     12040 1.60944E-03 2.65634E-02 5.82759E-19
 -1     12041 1.66176E-03 2.60143E-02-1.89735E-19
 -1     12042 1.62246E-03 2.62014E-02 1.69407E-18
 -1     12043 1.67592E-03 2.56485E-02-1.21973E-19
 -1     12044 1.63465E-03 2.58373E-02-1.35525E-19
 -1     12045 1.68899E-03 2.52812E-02-1.61275E-18
 -1     12046 1.64595E-03 2.54715E-02-3.45589E-18
 -1     12047 1.70091E-03 2.49127E-02-2.90024E-18
 -1     12048 1.65631E-03 2.51044E-02-2.64274E-18
 -1     12049 1.71164E-03 2.45435E-02-3.11030E-18
 -1     12050 1.66568E-03 2.47365E-02-1.27394E-18
 -1     12051 1.72114E-03 2.41738E-02-1.44334E-18
 -1     12052 1.67403E-03 2.43680E-02-4.05898E-18
 -1     12053 1.72938E-03 2.38043E-02-4.13352E-19
 -1     12054 1.68131E-03 2.39996E-02-2.60886E-18
 -1     12055 1.73632E-03 2.34352E-02-3.10353E-18
 -1     12056 1.68750E-03 2.36316E-02-1.76183E-18
 -1     12057 1.74193E-03 2.30671E-02-1.97867E-18
 -1     12058 1.69254E-03 2.32647E-02-3.38136E-18
 -1     12059 1.74614E-03 2.27005E-02-3.45589E-19
 -1     12060 1.69639E-03 2.28993E-02-1.19262E-18
 -1     12061 1.74891E-03 2.23359E-02-2.31748E-18
 -1     12062 1.69898E-03 2.25360E-02-9.62229E-19
 -1     12063 1.75017E-03 2.19737E-02-3.80826E-18
 -1     12064 1.70023E-03 2.21756E-02-1.84314E-18
 -1     12065 1.74986E-03 2.16146E-02-1.87703E-18
 -1     12066 1.70004E-03 2.18187E-02-1.77538E-18
 -1     12067 1.74792E-03 2.12591E-02-1.68729E-18
 -1     12068 1.69831E-03 2.14661E-02-1.65341E-18
 -1     12069 1.74440E-03 2.09076E-02 1.04354E-18
 -1     12070 1.69493E-03 2.11187E-02-3.15096E-18
 -1     12071 1.73948E-03 2.05603E-02-1.49078E-18
 -1     12072 1.68986E-03 2.07774E-02 3.93023E-19
 -1     12073 1.73373E-03 2.02173E-02-1.37558E-18
 -1     12074 1.68320E-03 2.04430E-02-1.42302E-19
 -1     12075 1.72852E-03 1.98777E-02-1.15196E-19
 -1     12076 1.67543E-03 2.01162E-02-1.36203E-18
 -1     12077 1.66797E-03 1.97970E-02 7.04731E-19
 -1     12078 1.47823E-03 2.95183E-02-2.45301E-18
 -1     12079 1.47089E-03 2.96840E-02-4.86536E-18
 -1     12080 1.49031E-03 2.91843E-02 1.30104E-18
 -1     12081 1.47978E-03 2.93520E-02-3.59142E-18
 -1     12082 1.50268E-03 2.88465E-02-1.16552E-18
 -1     12083 1.48894E-03 2.90163E-02-5.69206E-19
 -1     12084 1.51519E-03 2.85050E-02 1.66696E-18
 -1     12085 1.49826E-03 2.86769E-02-9.21572E-19
 -1     12086 1.52769E-03 2.81600E-02 3.63208E-18
 -1     12087 1.50763E-03 2.83339E-02 2.22261E-18
 -1     12088 1.54005E-03 2.78114E-02 7.18284E-19
 -1     12089 1.51695E-03 2.79874E-02 2.00577E-18
 -1     12090 1.55215E-03 2.74595E-02 8.26704E-19
 -1     12091 1.52611E-03 2.76375E-02-2.35814E-18
 -1     12092 1.56387E-03 2.71046E-02 6.50521E-19
 -1     12093 1.53503E-03 2.72844E-02 1.97867E-18
 -1     12094 1.57512E-03 2.67468E-02 1.55854E-18
 -1     12095 1.54364E-03 2.69283E-02 2.80537E-18
 -1     12096 1.58581E-03 2.63865E-02 8.80914E-19
 -1     12097 1.55185E-03 2.65697E-02-7.58942E-19
 -1     12098 1.59587E-03 2.60239E-02 1.32815E-18
 -1     12099 1.55963E-03 2.62086E-02-2.52077E-18
 -1     12100 1.60524E-03 2.56596E-02-3.26616E-18
 -1     12101 1.56690E-03 2.58456E-02-2.45301E-18
 -1     12102 1.61387E-03 2.52938E-02-1.69407E-18
 -1     12103 1.57364E-03 2.54810E-02-1.08420E-18
 -1     12104 1.62173E-03 2.49270E-02-2.79182E-18
 -1     12105 1.57980E-03 2.51152E-02-7.45389E-19
 -1     12106 1.62877E-03 2.45596E-02-1.49078E-18
 -1     12107 1.58536E-03 2.47487E-02-1.05710E-18
 -1     12108 1.63495E-03 2.41920E-02 7.18284E-19
 -1     12109 1.59028E-03 2.43819E-02 1.83637E-18
 -1     12110 1.64026E-03 2.38249E-02-2.05321E-18
 -1     12111 1.59455E-03 2.40153E-02-1.68051E-18
 -1     12112 1.64464E-03 2.34587E-02 1.21973E-19
 -1     12113 1.59813E-03 2.36495E-02-6.03087E-19
 -1     12114 1.64806E-03 2.30940E-02-3.64563E-18
 -1     12115 1.60098E-03 2.32851E-02-1.35525E-18
 -1     12116 1.65045E-03 2.27315E-02 1.61275E-18
 -1     12117 1.60306E-03 2.29228E-02-2.01933E-18
 -1     12118 1.65173E-03 2.23719E-02 2.76472E-18
 -1     12119 1.60431E-03 2.25633E-02 1.16552E-18
 -1     12120 1.65182E-03 2.20160E-02-1.11808E-18
 -1     12121 1.60465E-03 2.22076E-02 9.69006E-19
 -1     12122 1.65059E-03 2.16649E-02-1.09775E-18
 -1     12123 1.60398E-03 2.18566E-02-3.08998E-18
 -1     12124 1.64790E-03 2.13195E-02-1.85670E-18
 -1     12125 1.60218E-03 2.15117E-02-3.15774E-18
 -1     12126 1.64360E-03 2.09813E-02-1.89735E-19
 -1     12127 1.59909E-03 2.11743E-02-2.43945E-18
 -1     12128 1.63759E-03 2.06518E-02-5.75982E-19
 -1     12129 1.59454E-03 2.08463E-02 5.48877E-19
 -1     12130 1.62989E-03 2.03325E-02-1.94479E-18
 -1     12131 1.58839E-03 2.05299E-02 1.69407E-19
 -1     12132 1.62093E-03 2.00252E-02-3.79471E-19
 -1     12133 1.58061E-03 2.02279E-02 1.26039E-18
 -1     12134 1.57161E-03 1.99437E-02-1.50433E-18
 -1     12135 1.47238E-03 2.95186E-02-3.26616E-18
 -1     12136 1.46802E-03 2.96841E-02-7.86047E-19
 -1     12137 1.47840E-03 2.91849E-02-5.69206E-19
 -1     12138 1.47097E-03 2.93523E-02 6.91179E-19
 -1     12139 1.48456E-03 2.88475E-02-3.65918E-19
 -1     12140 1.47402E-03 2.90168E-02 1.74828E-18
 -1     12141 1.49079E-03 2.85065E-02 2.98156E-19
 -1     12142 1.47712E-03 2.86777E-02 2.35814E-18
 -1     12143 1.49701E-03 2.81619E-02-2.71051E-19
 -1     12144 1.48023E-03 2.83350E-02-2.03288E-19
 -1     12145 1.50317E-03 2.78139E-02 1.96512E-18
 -1     12146 1.48333E-03 2.79889E-02-2.71051E-19
 -1     12147 1.50920E-03 2.74626E-02-2.24972E-18
 -1     12148 1.48638E-03 2.76393E-02 4.60786E-19
 -1     12149 1.51504E-03 2.71082E-02 1.45012E-18
 -1     12150 1.48934E-03 2.72866E-02 6.77626E-20
 -1     12151 1.52064E-03 2.67511E-02-4.06576E-19
 -1     12152 1.49221E-03 2.69310E-02 1.35525E-19
 -1     12153 1.52597E-03 2.63915E-02-9.35124E-19
 -1     12154 1.49494E-03 2.65728E-02 3.11708E-19
 -1     12155 1.53098E-03 2.60298E-02-4.87891E-19
 -1     12156 1.49752E-03 2.62123E-02 8.53809E-19
 -1     12157 1.53564E-03 2.56663E-02-5.01444E-19
 -1     12158 1.49994E-03 2.58498E-02 2.49366E-18
 -1     12159 1.53993E-03 2.53014E-02-1.09775E-18
 -1     12160 1.50218E-03 2.54858E-02 3.00866E-18
 -1     12161 1.54383E-03 2.49357E-02-4.20128E-19
 -1     12162 1.50422E-03 2.51207E-02 1.17907E-18
 -1     12163 1.54731E-03 2.45694E-02-1.93801E-18
 -1     12164 1.50606E-03 2.47549E-02 1.57209E-18
 -1     12165 1.55036E-03 2.42032E-02 4.33681E-19
 -1     12166 1.50769E-03 2.43889E-02-1.28749E-19
 -1     12167 1.55295E-03 2.38376E-02-8.53809E-19
 -1     12168 1.50910E-03 2.40233E-02 2.33103E-18
 -1     12169 1.55507E-03 2.34732E-02-7.45389E-20
 -1     12170 1.51027E-03 2.36586E-02 1.50433E-18
 -1     12171 1.55667E-03 2.31106E-02-2.22261E-18
 -1     12172 1.51119E-03 2.32956E-02-1.20617E-18
 -1     12173 1.55773E-03 2.27508E-02-6.97955E-19
 -1     12174 1.51184E-03 2.29349E-02-4.40457E-19
 -1     12175 1.55819E-03 2.23944E-02 4.87891E-19
 -1     12176 1.51220E-03 2.25774E-02-3.52366E-19
 -1     12177 1.55798E-03 2.20427E-02-3.32715E-18
 -1     12178 1.51224E-03 2.22242E-02-4.74338E-19
 -1     12179 1.55703E-03 2.16968E-02-2.57498E-18
 -1     12180 1.51192E-03 2.18764E-02-2.25650E-18
 -1     12181 1.55521E-03 2.13584E-02-3.65241E-18
 -1     12182 1.51118E-03 2.15356E-02-1.96512E-18
 -1     12183 1.55239E-03 2.10294E-02-4.13352E-19
 -1     12184 1.50995E-03 2.12037E-02-2.12775E-18
 -1     12185 1.54842E-03 2.07122E-02-5.28549E-19
 -1     12186 1.50816E-03 2.08831E-02-1.54499E-18
 -1     12187 1.54316E-03 2.04101E-02-1.12486E-18
 -1     12188 1.50570E-03 2.05770E-02-6.36969E-19
 -1     12189 1.53660E-03 2.01272E-02 1.02999E-18
 -1     12190 1.50249E-03 2.02895E-02 6.09864E-20
 -1     12191 1.49858E-03 2.00263E-02 8.80914E-19
 -1     12192 1.46659E-03 2.95187E-02 4.45878E-18
 -1     12193 1.46516E-03 2.96841E-02 6.39679E-18
 -1     12194 1.46659E-03 2.91851E-02 6.36969E-19
 -1     12195 1.46221E-03 2.93523E-02-9.35124E-19
 -1     12196 1.46659E-03 2.88478E-02 2.22261E-18
 -1     12197 1.45916E-03 2.90168E-02-1.43657E-18
 -1     12198 1.46659E-03 2.85070E-02 4.54010E-18
 -1     12199 1.45607E-03 2.86777E-02 8.40257E-19
 -1     12200 1.46659E-03 2.81625E-02 1.69407E-18
 -1     12201 1.45295E-03 2.83350E-02 2.24972E-18
 -1     12202 1.46659E-03 2.78147E-02-6.64074E-19
 -1     12203 1.44985E-03 2.79889E-02-7.04731E-19
 -1     12204 1.46659E-03 2.74636E-02 1.26039E-18
 -1     12205 1.44681E-03 2.76393E-02-1.08420E-19
 -1     12206 1.46659E-03 2.71095E-02 2.12775E-18
 -1     12207 1.44384E-03 2.72866E-02 3.30682E-18
 -1     12208 1.46659E-03 2.67526E-02 1.62630E-19
 -1     12209 1.44098E-03 2.69310E-02 3.46945E-18
 -1     12210 1.46659E-03 2.63932E-02 1.21973E-18
 -1     12211 1.43825E-03 2.65728E-02 1.55854E-18
 -1     12212 1.46659E-03 2.60318E-02 2.27682E-18
 -1     12213 1.43566E-03 2.62123E-02-1.24683E-18
 -1     12214 1.46659E-03 2.56686E-02 3.63208E-18
 -1     12215 1.43324E-03 2.58498E-02 9.35124E-19
 -1     12216 1.46659E-03 2.53040E-02 1.57209E-18
 -1     12217 1.43101E-03 2.54858E-02-4.60786E-19
 -1     12218 1.46659E-03 2.49386E-02-1.76183E-19
 -1     12219 1.42896E-03 2.51207E-02 4.20128E-19
 -1     12220 1.46659E-03 2.45727E-02 2.37847E-18
 -1     12221 1.42712E-03 2.47549E-02-3.93023E-19
 -1     12222 1.46659E-03 2.42070E-02 2.03288E-19
 -1     12223 1.42549E-03 2.43889E-02-5.42101E-20
 -1     12224 1.46659E-03 2.38419E-02 3.22550E-18
 -1     12225 1.42409E-03 2.40233E-02-2.03288E-20
 -1     12226 1.46659E-03 2.34781E-02-2.71728E-18
 -1     12227 1.42292E-03 2.36586E-02-1.37558E-18
 -1     12228 1.46659E-03 2.31163E-02 3.18484E-19
 -1     12229 1.42200E-03 2.32956E-02-8.67362E-19
 -1     12230 1.46659E-03 2.27573E-02 1.21973E-19
 -1     12231 1.42134E-03 2.29349E-02 1.42302E-19
 -1     12232 1.46659E-03 2.24021E-02 5.42101E-19
 -1     12233 1.42098E-03 2.25774E-02 2.43945E-19
 -1     12234 1.46659E-03 2.20518E-02 2.23617E-19
 -1     12235 1.42094E-03 2.22242E-02-1.96512E-19
 -1     12236 1.46659E-03 2.17078E-02-1.10453E-18
 -1     12237 1.42126E-03 2.18764E-02 9.69006E-19
 -1     12238 1.46659E-03 2.13718E-02-7.45389E-19
 -1     12239 1.42200E-03 2.15356E-02-9.69006E-19
 -1     12240 1.46659E-03 2.10461E-02 1.70762E-18
 -1     12241 1.42323E-03 2.12037E-02 1.21295E-18
 -1     12242 1.46659E-03 2.07334E-02 1.15874E-18
 -1     12243 1.42503E-03 2.08831E-02 1.05032E-18
 -1     12244 1.46659E-03 2.04376E-02 1.56532E-18
 -1     12245 1.42749E-03 2.05770E-02 3.59142E-19
 -1     12246 1.46659E-03 2.01638E-02-1.73472E-18
 -1     12247 1.43069E-03 2.02895E-02-4.67562E-19
 -1     12248 1.43461E-03 2.00263E-02-1.10453E-18
 -1     12249 1.46080E-03 2.95186E-02 1.34170E-18
 -1     12250 1.46229E-03 2.96840E-02 8.53809E-19
 -1     12251 1.45479E-03 2.91849E-02-7.86047E-19
 -1     12252 1.45340E-03 2.93520E-02 7.86047E-19
 -1     12253 1.44863E-03 2.88475E-02 1.35525E-18
 -1     12254 1.44424E-03 2.90163E-02 3.80826E-18
 -1     12255 1.44240E-03 2.85065E-02 1.35525E-19
 -1     12256 1.43492E-03 2.86769E-02 1.53144E-18
 -1     12257 1.43617E-03 2.81619E-02 2.37169E-18
 -1     12258 1.42555E-03 2.83339E-02 9.21572E-19
 -1     12259 1.43001E-03 2.78139E-02-1.91091E-18
 -1     12260 1.41624E-03 2.79874E-02 7.72494E-19
 -1     12261 1.42399E-03 2.74626E-02 1.16552E-18
 -1     12262 1.40707E-03 2.76375E-02-4.87891E-19
 -1     12263 1.41815E-03 2.71082E-02 1.42302E-18
 -1     12264 1.39815E-03 2.72844E-02-2.96800E-18
 -1     12265 1.41254E-03 2.67511E-02 2.46656E-18
 -1     12266 1.38955E-03 2.69283E-02-8.13152E-20
 -1     12267 1.40722E-03 2.63915E-02-1.13841E-18
 -1     12268 1.38133E-03 2.65697E-02 6.23416E-19
 -1     12269 1.40221E-03 2.60298E-02-3.93023E-18
 -1     12270 1.37356E-03 2.62086E-02-2.66985E-18
 -1     12271 1.39754E-03 2.56663E-02 8.80914E-19
 -1     12272 1.36628E-03 2.58456E-02-3.06287E-18
 -1     12273 1.39325E-03 2.53014E-02 1.53144E-18
 -1     12274 1.35955E-03 2.54810E-02 7.04731E-19
 -1     12275 1.38935E-03 2.49357E-02-2.46656E-18
 -1     12276 1.35338E-03 2.51152E-02-1.24683E-18
 -1     12277 1.38587E-03 2.45694E-02 2.25650E-18
 -1     12278 1.34783E-03 2.47487E-02-2.43945E-19
 -1     12279 1.38282E-03 2.42032E-02-8.13152E-20
 -1     12280 1.34290E-03 2.43819E-02 6.30193E-19
 -1     12281 1.38023E-03 2.38376E-02-1.54499E-18
 -1     12282 1.33863E-03 2.40153E-02-2.37169E-19
 -1     12283 1.37812E-03 2.34732E-02 5.55654E-19
 -1     12284 1.33505E-03 2.36495E-02-1.15196E-18
 -1     12285 1.37651E-03 2.31106E-02 1.24006E-18
 -1     12286 1.33220E-03 2.32851E-02 1.57209E-18
 -1     12287 1.37545E-03 2.27508E-02-6.84403E-19
 -1     12288 1.33012E-03 2.29228E-02 9.69006E-19
 -1     12289 1.37499E-03 2.23944E-02-1.35525E-19
 -1     12290 1.32887E-03 2.25633E-02-3.32037E-19
 -1     12291 1.37520E-03 2.20427E-02 3.79471E-19
 -1     12292 1.32853E-03 2.22076E-02-1.41624E-18
 -1     12293 1.37616E-03 2.16968E-02 0.00000E+00
 -1     12294 1.32920E-03 2.18566E-02-2.05321E-18
 -1     12295 1.37798E-03 2.13584E-02-6.57298E-19
 -1     12296 1.33101E-03 2.15117E-02-1.70762E-18
 -1     12297 1.38079E-03 2.10294E-02 1.92446E-18
 -1     12298 1.33410E-03 2.11743E-02-4.06576E-20
 -1     12299 1.38476E-03 2.07122E-02-6.03087E-19
 -1     12300 1.33864E-03 2.08463E-02 1.70084E-18
 -1     12301 1.39002E-03 2.04101E-02-8.13152E-20
 -1     12302 1.34479E-03 2.05299E-02-5.75982E-19
 -1     12303 1.39658E-03 2.01272E-02-2.34459E-18
 -1     12304 1.35257E-03 2.02279E-02-1.70762E-18
 -1     12305 1.36157E-03 1.99437E-02-1.00289E-18
 -1     12306 1.45495E-03 2.95183E-02-3.38813E-19
 -1     12307 1.45937E-03 2.96839E-02 3.68629E-18
 -1     12308 1.44287E-03 2.91843E-02 2.03288E-18
 -1     12309 1.44447E-03 2.93514E-02-3.11708E-19
 -1     12310 1.43050E-03 2.88465E-02 8.53809E-19
 -1     12311 1.42911E-03 2.90152E-02 1.82959E-18
 -1     12312 1.41799E-03 2.85050E-02 1.07065E-18
 -1     12313 1.41349E-03 2.86753E-02 1.16552E-18
 -1     12314 1.40549E-03 2.81600E-02 2.62919E-18
 -1     12315 1.39780E-03 2.83317E-02 4.28260E-18
 -1     12316 1.39313E-03 2.78114E-02 1.07065E-18
 -1     12317 1.38220E-03 2.79845E-02 2.94090E-18
 -1     12318 1.38104E-03 2.74595E-02-2.01933E-18
 -1     12319 1.36685E-03 2.76338E-02 5.55654E-19
 -1     12320 1.36932E-03 2.71046E-02-1.13841E-18
 -1     12321 1.35191E-03 2.72799E-02-2.57498E-19
 -1     12322 1.35807E-03 2.67468E-02-7.18284E-19
 -1     12323 1.33750E-03 2.69230E-02 1.76183E-19
 -1     12324 1.34738E-03 2.63865E-02-2.57498E-19
 -1     12325 1.32374E-03 2.65634E-02 1.89735E-19
 -1     12326 1.33731E-03 2.60239E-02-2.07354E-18
 -1     12327 1.31073E-03 2.62014E-02 1.74828E-18
 -1     12328 1.32794E-03 2.56596E-02 2.71051E-20
 -1     12329 1.29853E-03 2.58373E-02 7.99599E-19
 -1     12330 1.31931E-03 2.52938E-02 1.35525E-19
 -1     12331 1.28723E-03 2.54715E-02 5.55654E-19
 -1     12332 1.31146E-03 2.49270E-02-1.38236E-18
 -1     12333 1.27687E-03 2.51044E-02 8.94467E-19
 -1     12334 1.30442E-03 2.45596E-02 2.20229E-18
 -1     12335 1.26750E-03 2.47365E-02-5.55654E-19
 -1     12336 1.29823E-03 2.41920E-02 2.16840E-18
 -1     12337 1.25916E-03 2.43680E-02 1.26716E-18
 -1     12338 1.29292E-03 2.38249E-02-1.75505E-18
 -1     12339 1.25187E-03 2.39996E-02 2.38524E-18
 -1     12340 1.28854E-03 2.34587E-02 3.32037E-19
 -1     12341 1.24569E-03 2.36316E-02 1.51111E-18
 -1     12342 1.28512E-03 2.30940E-02-5.55654E-19
 -1     12343 1.24064E-03 2.32647E-02 7.45389E-19
 -1     12344 1.28274E-03 2.27315E-02 1.45690E-18
 -1     12345 1.23680E-03 2.28993E-02 9.89334E-19
 -1     12346 1.28145E-03 2.23719E-02-9.01243E-19
 -1     12347 1.23421E-03 2.25360E-02-2.03288E-20
 -1     12348 1.28137E-03 2.20160E-02-2.42590E-18
 -1     12349 1.23296E-03 2.21756E-02-3.93023E-19
 -1     12350 1.28260E-03 2.16649E-02 1.15874E-18
 -1     12351 1.23314E-03 2.18187E-02-3.11708E-19
 -1     12352 1.28529E-03 2.13195E-02-1.51788E-18
 -1     12353 1.23488E-03 2.14661E-02-3.25261E-19
 -1     12354 1.28958E-03 2.09813E-02 4.06576E-19
 -1     12355 1.23825E-03 2.11187E-02 4.26905E-19
 -1     12356 1.29559E-03 2.06518E-02 9.48677E-19
 -1     12357 1.24333E-03 2.07774E-02 6.97955E-19
 -1     12358 1.30329E-03 2.03325E-02-1.28071E-18
 -1     12359 1.24999E-03 2.04430E-02 1.28071E-18
 -1     12360 1.31225E-03 2.00252E-02-2.01933E-18
 -1     12361 1.25775E-03 2.01162E-02 1.45690E-18
 -1     12362 1.26522E-03 1.97970E-02 5.96311E-19
 -1     12363 1.44900E-03 2.95178E-02-1.77538E-18
 -1     12364 1.45639E-03 2.96836E-02-2.72406E-18
 -1     12365 1.43074E-03 2.91832E-02-7.31836E-19
 -1     12366 1.43534E-03 2.93505E-02-5.69206E-19
 -1     12367 1.41205E-03 2.88448E-02-1.91091E-18
 -1     12368 1.41365E-03 2.90136E-02-1.28749E-18
 -1     12369 1.39317E-03 2.85026E-02-2.37169E-18
 -1     12370 1.39161E-03 2.86729E-02-5.27193E-18
 -1     12371 1.37430E-03 2.81568E-02 4.33681E-18
 -1     12372 1.36946E-03 2.83284E-02-4.59431E-18
 -1     12373 1.35564E-03 2.78073E-02-1.97867E-18
 -1     12374 1.34746E-03 2.79801E-02-1.57209E-18
 -1     12375 1.33739E-03 2.74545E-02-4.60786E-19
 -1     12376 1.32582E-03 2.76284E-02-3.10353E-18
 -1     12377 1.31971E-03 2.70985E-02-1.00289E-18
 -1     12378 1.30476E-03 2.72733E-02-2.64274E-18
 -1     12379 1.30274E-03 2.67396E-02-2.50722E-18
 -1     12380 1.28445E-03 2.69151E-02-1.31460E-18
 -1     12381 1.28661E-03 2.63781E-02-1.78893E-18
 -1     12382 1.26506E-03 2.65541E-02-9.48677E-19
 -1     12383 1.27142E-03 2.60143E-02-1.16552E-18
 -1     12384 1.24670E-03 2.61906E-02-1.72117E-18
 -1     12385 1.25726E-03 2.56485E-02-9.35124E-19
 -1     12386 1.22950E-03 2.58250E-02-2.14130E-18
 -1     12387 1.24419E-03 2.52812E-02-6.77626E-20
 -1     12388 1.21352E-03 2.54575E-02-1.74828E-18
 -1     12389 1.23227E-03 2.49127E-02-1.21973E-18
 -1     12390 1.19885E-03 2.50885E-02-2.90024E-18
 -1     12391 1.22154E-03 2.45435E-02-8.67362E-19
 -1     12392 1.18552E-03 2.47185E-02-1.50433E-18
 -1     12393 1.21204E-03 2.41738E-02 1.37558E-18
 -1     12394 1.17357E-03 2.43478E-02-9.41901E-19
 -1     12395 1.20380E-03 2.38043E-02 1.69407E-19
 -1     12396 1.16304E-03 2.39767E-02-1.15196E-18
 -1     12397 1.19686E-03 2.34352E-02 7.45389E-19
 -1     12398 1.15396E-03 2.36057E-02-1.36881E-18
 -1     12399 1.19126E-03 2.30671E-02-1.79571E-18
 -1     12400 1.14634E-03 2.32352E-02-1.28749E-18
 -1     12401 1.18704E-03 2.27005E-02-8.74138E-19
 -1     12402 1.14022E-03 2.28655E-02-3.04254E-18
 -1     12403 1.18427E-03 2.23359E-02 3.99800E-19
 -1     12404 1.13563E-03 2.24971E-02-1.19262E-18
 -1     12405 1.18301E-03 2.19737E-02-2.60209E-18
 -1     12406 1.13259E-03 2.21303E-02-9.28348E-19
 -1     12407 1.18333E-03 2.16146E-02 1.42302E-18
 -1     12408 1.13113E-03 2.17655E-02 8.13152E-20
 -1     12409 1.18526E-03 2.12591E-02-4.94667E-19
 -1     12410 1.13123E-03 2.14029E-02 3.93023E-19
 -1     12411 1.18878E-03 2.09076E-02-2.98156E-19
 -1     12412 1.13279E-03 2.10426E-02 8.80914E-20
 -1     12413 1.19370E-03 2.05603E-02 8.47033E-19
 -1     12414 1.13553E-03 2.06847E-02-7.45389E-19
 -1     12415 1.19945E-03 2.02173E-02-5.01444E-19
 -1     12416 1.13880E-03 2.03284E-02-8.53809E-19
 -1     12417 1.20466E-03 1.98777E-02-1.11131E-18
 -1     12418 1.14128E-03 1.99727E-02-1.32137E-18
 -1     12419 1.14024E-03 1.96149E-02-3.72694E-19
 -1     12420 1.44288E-03 2.95172E-02 3.65918E-19
 -1     12421 1.45331E-03 2.96832E-02 3.11708E-18
 -1     12422 1.41828E-03 2.91818E-02 6.77626E-20
 -1     12423 1.42592E-03 2.93494E-02 8.13152E-19
 -1     12424 1.39312E-03 2.88425E-02-2.26327E-18
 -1     12425 1.39772E-03 2.90115E-02-6.91179E-19
 -1     12426 1.36771E-03 2.84993E-02-1.32815E-18
 -1     12427 1.36907E-03 2.86697E-02-1.35525E-20
 -1     12428 1.34233E-03 2.81523E-02-5.96311E-19
 -1     12429 1.34031E-03 2.83240E-02 1.59920E-18
 -1     12430 1.31725E-03 2.78017E-02-1.30104E-18
 -1     12431 1.31174E-03 2.79744E-02 2.98156E-18
 -1     12432 1.29272E-03 2.74475E-02 2.71051E-19
 -1     12433 1.28367E-03 2.76212E-02 2.61564E-18
 -1     12434 1.26896E-03 2.70901E-02 1.49078E-19
 -1     12435 1.25635E-03 2.72646E-02 2.52077E-18
 -1     12436 1.24616E-03 2.67296E-02-2.10064E-18
 -1     12437 1.23001E-03 2.69047E-02 1.69407E-18
 -1     12438 1.22448E-03 2.63665E-02-2.16840E-18
 -1     12439 1.20486E-03 2.65419E-02-2.71051E-19
 -1     12440 1.20406E-03 2.60009E-02-2.57498E-18
 -1     12441 1.18105E-03 2.61765E-02-7.45389E-19
 -1     12442 1.18499E-03 2.56333E-02 1.76183E-19
 -1     12443 1.15871E-03 2.58088E-02-2.98156E-19
 -1     12444 1.16736E-03 2.52640E-02-3.65918E-18
 -1     12445 1.13793E-03 2.54392E-02-1.19262E-18
 -1     12446 1.15122E-03 2.48933E-02-5.55654E-19
 -1     12447 1.11879E-03 2.50679E-02-1.36881E-18
 -1     12448 1.13662E-03 2.45215E-02-2.01933E-18
 -1     12449 1.10133E-03 2.46952E-02-3.55076E-18
 -1     12450 1.12358E-03 2.41491E-02-7.38613E-19
 -1     12451 1.08557E-03 2.43216E-02-1.85670E-18
 -1     12452 1.11212E-03 2.37764E-02-3.27971E-18
 -1     12453 1.07152E-03 2.39473E-02-2.84603E-18
 -1     12454 1.10224E-03 2.34036E-02-1.07743E-18
 -1     12455 1.05917E-03 2.35726E-02-5.42101E-19
 -1     12456 1.09397E-03 2.30312E-02-3.89635E-18
 -1     12457 1.04853E-03 2.31978E-02-1.62630E-18
 -1     12458 1.08730E-03 2.26595E-02-3.30004E-18
 -1     12459 1.03956E-03 2.28231E-02-2.01255E-18
 -1     12460 1.08222E-03 2.22886E-02 4.81115E-19
 -1     12461 1.03221E-03 2.24486E-02-1.10453E-18
 -1     12462 1.07870E-03 2.19187E-02-2.16840E-19
 -1     12463 1.02642E-03 2.20745E-02 2.43945E-19
 -1     12464 1.07668E-03 2.15501E-02 8.53809E-19
 -1     12465 1.02207E-03 2.17007E-02 1.49078E-19
 -1     12466 1.07597E-03 2.11825E-02 1.93124E-18
 -1     12467 1.01891E-03 2.13270E-02 7.38613E-19
 -1     12468 1.07624E-03 2.08157E-02 4.06576E-20
 -1     12469 1.01656E-03 2.09530E-02 1.43657E-18
 -1     12470 1.07679E-03 2.04489E-02-9.14796E-19
 -1     12471 1.01430E-03 2.05777E-02 6.43745E-19
 -1     12472 1.07633E-03 2.00806E-02-2.80537E-18
 -1     12473 1.01086E-03 2.01998E-02-6.77626E-21
 -1     12474 1.07239E-03 1.97083E-02-3.38813E-20
 -1     12475 1.00405E-03 1.98167E-02-1.42302E-19
 -1     12476 9.90056E-04 1.94249E-02 2.98156E-19
 -1     12477 1.43654E-03 2.95164E-02 1.59920E-18
 -1     12478 1.45011E-03 2.96828E-02-1.92446E-18
 -1     12479 1.40539E-03 2.91800E-02 2.03288E-18
 -1     12480 1.41613E-03 2.93479E-02 1.99222E-18
 -1     12481 1.37356E-03 2.88395E-02-1.81604E-18
 -1     12482 1.38119E-03 2.90089E-02-1.00289E-18
 -1     12483 1.34142E-03 2.84951E-02 2.76472E-18
 -1     12484 1.34571E-03 2.86657E-02-1.35525E-20
 -1     12485 1.30934E-03 2.81467E-02 2.31748E-18
 -1     12486 1.31010E-03 2.83185E-02 1.12486E-18
 -1     12487 1.27766E-03 2.77944E-02 8.94467E-19
 -1     12488 1.27477E-03 2.79673E-02-1.20617E-18
 -1     12489 1.24669E-03 2.74386E-02 4.87891E-19
 -1     12490 1.24007E-03 2.76123E-02-1.39591E-18
 -1     12491 1.21670E-03 2.70794E-02 1.35525E-19
 -1     12492 1.20632E-03 2.72537E-02-2.23617E-18
 -1     12493 1.18793E-03 2.67170E-02-1.01644E-18
 -1     12494 1.17381E-03 2.68918E-02-1.73472E-18
 -1     12495 1.16058E-03 2.63518E-02 1.40946E-18
 -1     12496 1.14275E-03 2.65269E-02-3.11708E-19
 -1     12497 1.13479E-03 2.59841E-02 3.25261E-19
 -1     12498 1.11335E-03 2.61592E-02 7.86047E-19
 -1     12499 1.11069E-03 2.56142E-02 7.99599E-19
 -1     12500 1.08574E-03 2.57891E-02-4.60786E-19
 -1     12501 1.08835E-03 2.52424E-02-1.30104E-18
 -1     12502 1.06003E-03 2.54168E-02-4.87891E-19
 -1     12503 1.06783E-03 2.48690E-02-7.18284E-19
 -1     12504 1.03626E-03 2.50428E-02 2.16840E-19
 -1     12505 1.04915E-03 2.44943E-02-9.89334E-19
 -1     12506 1.01448E-03 2.46671E-02 1.62630E-19
 -1     12507 1.03231E-03 2.41186E-02-2.73083E-18
 -1     12508 9.94674E-04 2.42902E-02-7.11508E-19
 -1     12509 1.01731E-03 2.37422E-02-1.36203E-18
 -1     12510 9.76820E-04 2.39123E-02 1.62630E-19
 -1     12511 1.00410E-03 2.33652E-02-6.43745E-19
 -1     12512 9.60869E-04 2.35334E-02-5.42101E-20
 -1     12513 9.92634E-04 2.29879E-02-2.47334E-18
 -1     12514 9.46747E-04 2.31539E-02-5.01444E-19
 -1     12515 9.82840E-04 2.26103E-02-1.00966E-18
 -1     12516 9.34349E-04 2.27737E-02 2.03288E-20
 -1     12517 9.74606E-04 2.22325E-02 8.80914E-20
 -1     12518 9.23533E-04 2.23928E-02-1.26716E-18
 -1     12519 9.67761E-04 2.18544E-02-2.77827E-19
 -1     12520 9.14090E-04 2.20110E-02-1.76183E-19
 -1     12521 9.62036E-04 2.14757E-02 3.99800E-19
 -1     12522 9.05717E-04 2.16282E-02 1.76183E-19
 -1     12523 9.56990E-04 2.10958E-02 2.16840E-19
 -1     12524 8.97948E-04 2.12436E-02-9.96111E-19
 -1     12525 9.51897E-04 2.07139E-02 8.74138E-19
 -1     12526 8.90064E-04 2.08565E-02-1.04354E-18
 -1     12527 9.45560E-04 2.03285E-02-1.17907E-18
 -1     12528 8.80935E-04 2.04655E-02-1.26716E-18
 -1     12529 9.36000E-04 1.99376E-02 1.54499E-18
 -1     12530 8.68789E-04 2.00687E-02-6.16640E-19
 -1     12531 9.19983E-04 1.95379E-02-7.31836E-19
 -1     12532 8.50861E-04 1.96636E-02 1.96512E-19
 -1     12533 8.22914E-04 1.92466E-02 6.64074E-19
 -1     12534 1.42992E-03 2.95153E-02-1.82959E-18
 -1     12535 1.44675E-03 2.96823E-02-3.90313E-18
 -1     12536 1.39197E-03 2.91778E-02-2.42590E-18
 -1     12537 1.40590E-03 2.93462E-02-4.97378E-18
 -1     12538 1.35320E-03 2.88359E-02-1.35525E-20
 -1     12539 1.36392E-03 2.90058E-02 1.35525E-20
 -1     12540 1.31408E-03 2.84899E-02-2.85958E-18
 -1     12541 1.32133E-03 2.86610E-02 1.39591E-18
 -1     12542 1.27507E-03 2.81398E-02 1.30104E-18
 -1     12543 1.27862E-03 2.83120E-02-5.55654E-19
 -1     12544 1.23658E-03 2.77857E-02-5.82759E-19
 -1     12545 1.23628E-03 2.79588E-02 3.79471E-19
 -1     12546 1.19897E-03 2.74278E-02 2.43945E-19
 -1     12547 1.19473E-03 2.76017E-02 1.20617E-18
 -1     12548 1.16258E-03 2.70665E-02-4.60786E-19
 -1     12549 1.15435E-03 2.72409E-02-1.35525E-20
 -1     12550 1.12768E-03 2.67018E-02 7.72494E-19
 -1     12551 1.11548E-03 2.68766E-02 1.40946E-18
 -1     12552 1.09451E-03 2.63342E-02 2.31748E-18
 -1     12553 1.07837E-03 2.65092E-02 2.91379E-18
 -1     12554 1.06322E-03 2.59640E-02-1.61275E-18
 -1     12555 1.04324E-03 2.61389E-02 5.96311E-19
 -1     12556 1.03395E-03 2.55914E-02 2.71051E-20
 -1     12557 1.01023E-03 2.57660E-02-1.01644E-18
 -1     12558 1.00676E-03 2.52167E-02-2.52077E-18
 -1     12559 9.79439E-04 2.53908E-02-3.41524E-18
 -1     12560 9.81687E-04 2.48403E-02-2.49366E-18
 -1     12561 9.50906E-04 2.50137E-02-3.84892E-18
 -1     12562 9.58733E-04 2.44623E-02-1.91091E-18
 -1     12563 9.24632E-04 2.46348E-02-2.88669E-18
 -1     12564 9.37861E-04 2.40830E-02-1.04354E-18
 -1     12565 9.00578E-04 2.42543E-02-9.75782E-19
 -1     12566 9.19007E-04 2.37025E-02-1.76183E-19
 -1     12567 8.78668E-04 2.38724E-02-1.15196E-19
 -1     12568 9.02076E-04 2.33211E-02-1.27394E-18
 -1     12569 8.58791E-04 2.34893E-02-5.42101E-19
 -1     12570 8.86940E-04 2.29386E-02-9.21572E-19
 -1     12571 8.40797E-04 2.31049E-02 2.71051E-20
 -1     12572 8.73427E-04 2.25550E-02-4.74338E-20
 -1     12573 8.24490E-04 2.27192E-02-1.80926E-18
 -1     12574 8.61300E-04 2.21703E-02-4.81115E-19
 -1     12575 8.09610E-04 2.23319E-02-5.42101E-19
 -1     12576 8.50230E-04 2.17840E-02-3.52366E-19
 -1     12577 7.95809E-04 2.19429E-02-4.67562E-19
 -1     12578 8.39737E-04 2.13957E-02 6.97955E-19
 -1     12579 7.82602E-04 2.15515E-02 1.28071E-18
 -1     12580 8.29118E-04 2.10045E-02-4.26905E-19
 -1     12581 7.69308E-04 2.11572E-02-7.25060E-19
 -1     12582 8.17318E-04 2.06092E-02-1.96512E-19
 -1     12583 7.54946E-04 2.07587E-02 8.13152E-19
 -1     12584 8.02752E-04 2.02083E-02-3.36780E-18
 -1     12585 7.38098E-04 2.03548E-02-2.37169E-19
 -1     12586 7.83049E-04 1.97995E-02-4.81115E-19
 -1     12587 7.16724E-04 1.99436E-02-2.22939E-18
 -1     12588 7.54716E-04 1.93800E-02-2.43268E-18
 -1     12589 6.87915E-04 1.95228E-02-1.30782E-18
 -1     12590 6.47666E-04 1.90900E-02 1.21973E-19
 -1     12591 1.42299E-03 2.95141E-02 7.86047E-19
 -1     12592 1.37789E-03 2.91752E-02-3.11708E-18
 -1     12593 1.33188E-03 2.88317E-02 2.33103E-18
 -1     12594 1.28549E-03 2.84839E-02-4.06576E-20
 -1     12595 1.23927E-03 2.81317E-02 2.26327E-18
 -1     12596 1.19371E-03 2.77754E-02 2.90024E-18
 -1     12597 1.14924E-03 2.74152E-02-8.80914E-19
 -1     12598 1.10625E-03 2.70514E-02 3.46945E-18
 -1     12599 1.06506E-03 2.66841E-02 2.45301E-18
 -1     12600 1.02592E-03 2.63138E-02 1.45012E-18
 -1     12601 9.89000E-04 2.59407E-02-2.53432E-18
 -1     12602 9.54428E-04 2.55651E-02 1.39591E-18
 -1     12603 9.22257E-04 2.51874E-02-3.13063E-18
 -1     12604 8.92495E-04 2.48076E-02-4.06576E-20
 -1     12605 8.65100E-04 2.44262E-02-3.15774E-18
 -1     12606 8.39987E-04 2.40431E-02 2.41235E-18
 -1     12607 8.17032E-04 2.36585E-02-1.73472E-18
 -1     12608 7.96068E-04 2.32725E-02-1.89735E-18
 -1     12609 7.76878E-04 2.28849E-02-4.06576E-19
 -1     12610 7.59186E-04 2.24956E-02-1.17907E-18
 -1     12611 7.42627E-04 2.21043E-02 1.24006E-18
 -1     12612 7.26720E-04 2.17106E-02 4.67562E-19
 -1     12613 7.10806E-04 2.13138E-02 1.53821E-18
 -1     12614 6.93977E-04 2.09130E-02-1.21295E-18
 -1     12615 6.74966E-04 2.05070E-02 7.11508E-19
 -1     12616 6.52006E-04 2.00943E-02-4.20128E-19
 -1     12617 6.22662E-04 1.96731E-02 3.32037E-19
 -1     12618 5.83673E-04 1.92414E-02 4.81115E-19
 -3
    1PSTEP                         2           1           1          
  100CL  101 1.000000000       12618                     0    1           1
 -4  STRESS      6    1
 -5  SXX         1    4    1    1
 -5  SYY         1    4    2    2
 -5  SZZ         1    4    3    3
 -5  SXY         1    4    1    2
 -5  SYZ         1    4    2    3
 -5  SZX         1    4    3    1
 -1         1 4.02096E+01 4.15349E+01 9.35765E-02-4.06547E+01 3.38174E-13 9.65894E-14
 -1         2 3.96331E+01 4.09480E+01 4.05487E-02 4.00805E+01-5.44009E-14-4.73399E-13
 -1         3 3.96331E+01 4.09480E+01 4.05487E-02-4.00805E+01-8.43769E-15 9.63674E-14
 -1         4 4.02096E+01 4.15349E+01 9.35765E-02 4.06547E+01-3.42615E-13-4.05009E-13
 -1         5-7.70113E+00 8.93370E+01-1.04283E-02-3.96166E+00 1.84269E-13-2.93071E-13
 -1         6-8.15492E+00 8.86189E+01-1.09021E-02 3.26312E+00-2.77972E-14-4.17236E-14
 -1         7-8.15492E+00 8.86189E+01-1.09021E-02-3.26312E+00-2.18402E-13-1.44031E-13
 -1         8-7.70113E+00 8.93370E+01-1.04283E-02 3.96166E+00 1.69552E-13-1.11945E-13
 -1         9 6.49172E+01 1.92011E+02 2.43807E+01 4.73785E+01-4.17999E-13 6.66134E-16
 -1        10-1.56311E-03 7.84314E+01-6.10855E-02 1.50216E-02 2.56312E-13 3.06165E-13
 -1        11 1.34004E-03 8.05330E+01-3.29489E-02-1.93739E-02 2.12348E-13 2.69769E-13
 -1        12-3.16724E-03 8.26200E+01 7.97599E-03-1.90045E-04 6.16752E-15-1.83907E-14
 -1        13 1.35881E+00 7.87799E+01 7.29364E-04 3.61400E-06-1.57223E-14-1.20967E-14
 -1        14 1.35881E+00 7.87799E+01 7.29364E-04-3.61401E-06-2.03701E-14 2.32579E-14
 -1        15-3.16724E-03 8.26200E+01 7.97599E-03 1.90045E-04 7.99937E-14 1.03843E-13
 -1        16 1.34004E-03 8.05330E+01-3.29489E-02 1.93739E-02 5.15143E-14 1.56317E-13
 -1        17-1.56311E-03 7.84314E+01-6.10855E-02-1.50216E-02 2.05188E-13 4.30866E-13
 -1        18 6.49172E+01 1.92011E+02 2.43807E+01-4.73785E+01 6.61693E-14 7.09433E-14
 -1        19 2.22557E+01 7.41086E+01 7.70195E-02-3.60337E+00-1.38573E-13-7.93082E-13
 -1        20 2.22557E+01 7.41086E+01 7.70195E-02 3.60337E+00-8.60183E-13 8.34480E-14
 -1        21-8.90061E+00 9.05403E+01 2.10045E-03-4.76882E+00-2.19241E-13 2.60375E-13
 -1        22-1.01953E+01 9.18049E+01 4.94267E-03-5.71693E+00-2.70547E-14-8.42382E-15
 -1        23-1.15106E+01 9.30972E+01 8.59632E-03-6.81969E+00 2.94390E-13-4.26187E-14
 -1        24-1.27943E+01 9.43671E+01 1.37629E-02-8.10024E+00 4.85723E-14 2.23793E-13
 -1        25-1.39560E+01 9.55243E+01 2.04837E-02-9.58311E+00-1.80356E-13-1.77525E-13
 -1        26-1.48673E+01 9.64417E+01 2.90737E-02-1.12939E+01 2.53492E-13 1.16573E-14
 -1        27-1.53507E+01 9.69426E+01 3.97819E-02-1.32585E+01-1.54432E-13 5.60024E-13
 -1        28-1.51701E+01 9.67916E+01 5.28414E-02-1.55030E+01 6.87228E-14 1.90903E-13
 -1        29-1.40210E+01 9.56846E+01 6.84316E-02-1.80521E+01-3.23130E-13-1.31173E-13
 -1        30-1.15209E+01 9.32396E+01 8.66621E-02-2.09291E+01-2.63789E-13-1.80300E-13
 -1        31-7.20387E+00 8.89903E+01 1.07552E-01-2.41544E+01-1.86517E-13-1.06914E-13
 -1        32-5.08474E-01 8.23747E+01 1.31094E-01-2.77444E+01 3.68705E-13 1.77858E-13
 -1        33 9.19170E+00 7.27562E+01 1.54518E-01-3.17122E+01 2.43472E-13 2.44138E-13
 -1        34 2.27327E+01 5.92205E+01 1.55491E-01-3.60821E+01 4.47975E-13 8.44880E-14
 -1        35-8.26774E+00 8.98613E+01-1.72376E-02-4.34826E+00 2.15494E-13 2.63678E-14
 -1        36-9.52453E+00 9.10758E+01-1.80620E-02-5.22759E+00 1.71752E-13 1.33227E-13
 -1        37-1.08322E+01 9.23443E+01-1.85471E-02-6.25094E+00 3.33872E-13 1.72973E-13
 -1        38-1.21350E+01 9.36163E+01-1.78214E-02-7.44006E+00 1.56875E-13 1.16573E-15
 -1        39-1.33638E+01 9.48224E+01-1.59611E-02-8.81914E+00-1.72085E-13-2.22489E-13
 -1        40-1.44095E+01 9.58548E+01-1.25873E-02-1.04132E+01-3.79419E-13-2.63123E-14
 -1        41-1.51203E+01 9.65626E+01-7.38938E-03-1.22480E+01 1.37668E-14 3.77032E-13
 -1        42-1.52902E+01 9.67410E+01-3.71823E-05-1.43496E+01-2.46247E-13 5.14033E-13
 -1        43-1.46496E+01 9.61213E+01 9.77110E-03-1.67435E+01 3.70814E-13 4.60743E-13
 -1        44-1.28558E+01 9.43618E+01 2.22903E-02-1.94538E+01-1.06648E-12-8.21787E-13
 -1        45-9.48472E+00 9.10385E+01 3.77065E-02-2.25022E+01-1.36113E-13-4.45866E-13
 -1        46-4.02504E+00 8.56403E+01 5.61220E-02-2.59074E+01-1.94955E-13-1.54987E-13
 -1        47 4.13112E+00 7.75584E+01 7.75496E-02-2.96834E+01 1.29274E-12 1.02673E-12
 -1        48 1.56441E+01 6.61151E+01 9.74626E-02-3.38419E+01-1.15463E-14 4.55191E-13
 -1        49 3.11221E+01 5.04655E+01 4.57745E-02-3.83294E+01 5.63993E-14 5.19140E-13
 -1        50-9.31529E+00 8.98378E+01 1.75868E-03 4.10260E+00-2.95507E-13-8.00957E-14
 -1        51-1.05732E+01 9.11216E+01 4.81356E-03 5.08723E+00-7.18869E-14-2.54727E-13
 -1        52-1.18547E+01 9.24337E+01 8.69623E-03 6.22902E+00 1.84713E-14 4.60187E-14
 -1        53-1.31076E+01 9.37218E+01 1.40506E-02 7.54950E+00-3.38063E-14-1.58776E-13
 -1        54-1.42416E+01 9.48940E+01 2.09272E-02 9.07193E+00 1.05915E-13-1.26232E-13
 -1        55-1.51290E+01 9.58220E+01 2.96310E-02 1.08207E+01-1.18960E-13-5.12645E-14
 -1        56-1.55931E+01 9.63286E+01 4.03844E-02 1.28206E+01-1.04916E-14 7.36633E-14
 -1        57-1.53990E+01 9.61783E+01 5.33624E-02 1.50961E+01 7.31082E-14 2.20379E-14
 -1        58-1.42439E+01 9.50675E+01 6.86215E-02 1.76701E+01 5.77316E-15-1.33726E-13
 -1        59-1.17482E+01 9.26154E+01 8.60095E-02 2.05633E+01-1.03695E-13 2.03171E-14
 -1        60-7.44977E+00 8.83577E+01 1.05003E-01 2.37927E+01-1.26010E-13-8.27116E-14
 -1        61-7.92193E-01 8.17357E+01 1.24513E-01 2.73702E+01-1.69753E-13 1.95510E-13
 -1        62 8.84466E+00 7.21172E+01 1.39918E-01 3.13032E+01 4.51306E-13-1.38223E-13
 -1        63 2.22884E+01 5.85952E+01 1.25920E-01 3.56080E+01 1.61093E-13-1.26676E-13
 -1        64-8.70364E+00 8.91500E+01-1.80957E-02 3.66531E+00-6.16729E-14-9.34530E-14
 -1        65-9.92214E+00 9.03823E+01-1.86656E-02 4.57919E+00-9.52016E-14-1.19765E-13
 -1        66-1.11942E+01 9.16706E+01-1.88902E-02 5.64041E+00 4.58522E-14-1.54210E-13
 -1        67-1.24645E+01 9.29618E+01-1.79403E-02 6.86912E+00-4.17888E-13-4.55191E-15
 -1        68-1.36639E+01 9.41847E+01-1.58738E-02 8.28806E+00 1.26454E-13-3.19023E-13
 -1        69-1.46838E+01 9.52301E+01-1.23093E-02 9.92100E+00 1.24289E-13-3.37896E-13
 -1        70-1.53727E+01 9.59465E+01-6.94214E-03 1.17926E+01-7.28306E-14-4.88498E-15
 -1        71-1.55258E+01 9.61285E+01 5.31883E-04 1.39275E+01-6.85674E-13 5.04041E-13
 -1        72-1.48749E+01 9.55078E+01 1.03475E-02 1.63496E+01 3.48610E-13-4.92717E-13
 -1        73-1.30796E+01 9.37433E+01 2.26018E-02 1.90806E+01-2.42029E-14 2.81997E-14
 -1        74-9.71907E+00 9.04130E+01 3.71285E-02 2.21395E+01 2.88880E-13-1.84075E-13
 -1        75-4.28628E+00 8.50082E+01 5.32951E-02 2.55409E+01 1.94511E-13 2.02949E-13
 -1        76 3.82085E+00 7.69242E+01 6.96775E-02 2.92937E+01-1.77636E-14 1.42109E-14
 -1        77 1.52557E+01 6.54884E+01 7.93735E-02 3.34030E+01 2.11386E-13-3.25961E-13
 -1        78 3.06211E+01 4.98660E+01 1.02241E-02 3.78086E+01 4.21885E-13-8.58424E-13
 -1        79-9.31529E+00 8.98378E+01 1.75868E-03-4.10260E+00-1.57173E-13 1.02321E-13
 -1        80-1.05732E+01 9.11216E+01 4.81356E-03-5.08723E+00-6.43791E-14-4.24938E-14
 -1        81-1.18547E+01 9.24337E+01 8.69623E-03-6.22902E+00 6.65024E-14-9.04832E-15
 -1        82-1.31076E+01 9.37218E+01 1.40506E-02-7.54950E+00 4.05412E-13 1.36002E-14
 -1        83-1.42416E+01 9.48940E+01 2.09272E-02-9.07193E+00-2.19269E-15-1.56458E-13
 -1        84-1.51290E+01 9.58220E+01 2.96310E-02-1.08207E+01 5.59552E-14 1.53239E-13
 -1        85-1.55931E+01 9.63286E+01 4.03844E-02-1.28206E+01-2.03643E-13 2.72865E-13
 -1        86-1.53990E+01 9.61783E+01 5.33624E-02-1.50961E+01 2.13884E-13-7.60503E-15
 -1        87-1.42439E+01 9.50675E+01 6.86215E-02-1.76701E+01-2.37754E-13-1.58762E-14
 -1        88-1.17482E+01 9.26154E+01 8.60095E-02-2.05633E+01-2.13163E-14-5.54001E-14
 -1        89-7.44977E+00 8.83577E+01 1.05003E-01-2.37927E+01-3.46723E-13-1.47660E-13
 -1        90-7.92193E-01 8.17357E+01 1.24513E-01-2.73702E+01 1.79967E-13 1.21014E-14
 -1        91 8.84466E+00 7.21172E+01 1.39918E-01-3.13032E+01 1.57985E-13 7.46070E-14
 -1        92 2.22884E+01 5.85952E+01 1.25920E-01-3.56080E+01 3.25295E-14-3.71925E-14
 -1        93-8.70364E+00 8.91500E+01-1.80957E-02-3.66531E+00 1.27065E-13 1.37224E-13
 -1        94-9.92214E+00 9.03823E+01-1.86656E-02-4.57919E+00-4.72761E-13-2.43416E-14
 -1        95-1.11942E+01 9.16706E+01-1.88902E-02-5.64041E+00 2.63567E-13 1.97481E-13
 -1        96-1.24645E+01 9.29618E+01-1.79403E-02-6.86912E+00-1.44329E-15-1.23845E-13
 -1        97-1.36639E+01 9.41847E+01-1.58738E-02-8.28806E+00 8.92619E-14-1.18683E-13
 -1        98-1.46838E+01 9.52301E+01-1.23093E-02-9.92100E+00 2.99760E-14-3.20854E-14
 -1        99-1.53727E+01 9.59465E+01-6.94214E-03-1.17926E+01-4.54414E-13 3.13971E-13
 -1       100-1.55258E+01 9.61285E+01 5.31882E-04-1.39275E+01 1.38112E-13 1.54210E-13
 -1       101-1.48749E+01 9.55078E+01 1.03475E-02-1.63496E+01 1.82299E-13 1.84297E-13
 -1       102-1.30796E+01 9.37433E+01 2.26018E-02-1.90806E+01-3.06200E-13-2.09610E-13
 -1       103-9.71907E+00 9.04130E+01 3.71285E-02-2.21395E+01-3.55271E-15-2.86660E-13
 -1       104-4.28628E+00 8.50082E+01 5.32951E-02-2.55409E+01-2.37588E-13-2.84883E-13
 -1       105 3.82085E+00 7.69242E+01 6.96775E-02-2.92937E+01 5.34683E-13 2.88658E-13
 -1       106 1.52557E+01 6.54884E+01 7.93735E-02-3.34030E+01 6.57252E-13 3.76588E-13
 -1       107 3.06211E+01 4.98660E+01 1.02241E-02-3.78086E+01 3.65041E-13 4.86722E-13
 -1       108-8.90061E+00 9.05403E+01 2.10045E-03 4.76882E+00-1.51316E-13-4.26534E-14
 -1       109-1.01953E+01 9.18049E+01 4.94267E-03 5.71693E+00-2.41938E-13-3.77476E-14
 -1       110-1.15106E+01 9.30972E+01 8.59632E-03 6.81969E+00-3.95933E-13 8.50015E-14
 -1       111-1.27943E+01 9.43671E+01 1.37629E-02 8.10024E+00-1.50463E-13-1.82132E-13
 -1       112-1.39560E+01 9.55243E+01 2.04837E-02 9.58311E+00 3.80806E-14-2.08278E-13
 -1       113-1.48673E+01 9.64417E+01 2.90737E-02 1.12939E+01-1.95316E-13-1.69448E-13
 -1       114-1.53507E+01 9.69426E+01 3.97819E-02 1.32585E+01 4.96270E-13 1.14603E-13
 -1       115-1.51701E+01 9.67916E+01 5.28414E-02 1.55030E+01-4.44089E-15 2.08722E-14
 -1       116-1.40210E+01 9.56846E+01 6.84316E-02 1.80521E+01-5.49560E-15-6.66689E-14
 -1       117-1.15209E+01 9.32396E+01 8.66621E-02 2.09291E+01-1.80189E-13 8.28226E-14
 -1       118-7.20387E+00 8.89903E+01 1.07552E-01 2.41544E+01 3.90354E-13-3.37175E-13
 -1       119-5.08474E-01 8.23747E+01 1.31094E-01 2.77444E+01-1.12688E-13 9.29257E-14
 -1       120 9.19170E+00 7.27562E+01 1.54518E-01 3.17122E+01 5.69544E-14-1.25122E-13
 -1       121 2.27327E+01 5.92205E+01 1.55491E-01 3.60821E+01-2.23266E-13 6.03961E-14
 -1       122-8.26774E+00 8.98613E+01-1.72376E-02 4.34826E+00-4.25174E-13-1.92721E-13
 -1       123-9.52453E+00 9.10758E+01-1.80620E-02 5.22759E+00-1.97564E-13 2.89213E-14
 -1       124-1.08322E+01 9.23443E+01-1.85471E-02 6.25094E+00-3.66929E-14-8.72635E-14
 -1       125-1.21350E+01 9.36163E+01-1.78214E-02 7.44006E+00-4.31266E-13-8.10463E-15
 -1       126-1.33638E+01 9.48224E+01-1.59611E-02 8.81914E+00 1.06859E-13-4.48419E-13
 -1       127-1.44095E+01 9.58548E+01-1.25873E-02 1.04132E+01-5.37348E-14-6.51146E-13
 -1       128-1.51203E+01 9.65626E+01-7.38938E-03 1.22480E+01 3.51053E-13-3.93019E-14
 -1       129-1.52902E+01 9.67410E+01-3.71819E-05 1.43496E+01-8.85625E-13 6.92890E-13
 -1       130-1.46496E+01 9.61213E+01 9.77110E-03 1.67435E+01 2.68674E-13-8.05356E-13
 -1       131-1.28558E+01 9.43618E+01 2.22903E-02 1.94538E+01-6.64580E-13 1.95399E-13
 -1       132-9.48472E+00 9.10385E+01 3.77065E-02 2.25022E+01 3.05533E-13-2.93321E-13
 -1       133-4.02504E+00 8.56403E+01 5.61220E-02 2.59074E+01-6.23945E-14-3.81917E-14
 -1       134 4.13112E+00 7.75584E+01 7.75496E-02 2.96834E+01-1.25233E-13-4.82281E-13
 -1       135 1.56441E+01 6.61151E+01 9.74626E-02 3.38419E+01-2.98428E-13 9.54792E-14
 -1       136 3.11221E+01 5.04655E+01 4.57745E-02 3.83294E+01 4.52527E-13-7.10543E-13
 -1       137 4.59709E+01 7.13339E+01 2.20774E+00-5.70268E+01-5.67102E-13-2.19047E-13
 -1       138 4.47191E+01 1.06853E+02 4.31128E+00-6.86092E+01 1.53877E-13 3.26628E-13
 -1       139 3.76564E+01 1.44918E+02 6.17390E+00-7.31780E+01-2.65565E-13-1.39222E-13
 -1       140 2.71222E+01 1.81978E+02 7.75807E+00-6.93338E+01 7.14984E-14-2.57239E-13
 -1       141 1.58555E+01 2.14127E+02 8.99423E+00-5.70095E+01 1.83742E-13 1.18600E-13
 -1       142 6.54544E+00 2.37797E+02 9.83854E+00-3.74488E+01 1.35114E-13-3.54217E-13
 -1       143 1.30950E+00 2.50263E+02 1.02604E+01-1.30468E+01-1.22152E-13 3.01668E-14
 -1       144 1.30759E+00 2.50069E+02 1.02465E+01 1.30316E+01-4.03677E-13-9.58573E-14
 -1       145 6.52758E+00 2.37243E+02 9.79836E+00 3.73567E+01-3.86635E-13-9.94690E-14
 -1       146 1.57897E+01 2.13294E+02 8.93194E+00 5.67833E+01 4.58522E-14-3.94129E-15
 -1       147 2.69681E+01 1.80980E+02 7.68021E+00 6.89502E+01 1.66089E-13 3.56715E-13
 -1       148 3.73813E+01 1.43883E+02 6.08873E+00 7.26533E+01-1.17462E-13-1.94178E-13
 -1       149 4.43123E+01 1.05897E+02 4.22791E+00 6.79945E+01 4.74731E-13-1.61871E-13
 -1       150 4.54532E+01 7.05410E+01 2.13542E+00 5.63942E+01-1.22791E-13-1.84852E-13
 -1       151 4.44191E+01 5.52907E+01 1.18069E+00-4.92390E+01-1.87494E-12 8.54428E-13
 -1       152 4.65420E+01 8.82119E+01 3.28528E+00-6.36618E+01-3.34843E-13-1.19593E-12
 -1       153 4.20324E+01 1.25369E+02 5.23129E+00-7.20663E+01-5.47562E-13 4.19442E-13
 -1       154 3.27500E+01 1.63430E+02 6.92276E+00-7.25818E+01-2.26041E-13-5.71321E-13
 -1       155 2.13271E+01 1.98568E+02 8.30648E+00-6.44326E+01-2.74003E-13-4.95159E-14
 -1       156 1.05829E+01 2.26956E+02 9.33139E+00-4.82107E+01-1.85407E-12 2.38753E-13
 -1       157 3.00337E+00 2.45355E+02 9.95837E+00-2.57809E+01 1.45395E-12-4.24563E-13
 -1       158 2.78671E-01 2.51608E+02 1.01614E+01 5.47792E-05 7.13048E-13 2.78243E-13
 -1       159 2.99876E+00 2.44975E+02 9.93203E+00 2.57409E+01 6.96110E-14-8.24202E-14
 -1       160 1.05499E+01 2.26252E+02 9.28145E+00 4.80609E+01-5.60219E-13-7.76046E-14
 -1       161 2.12268E+01 1.97641E+02 8.23812E+00 6.41311E+01 4.90274E-13 5.91527E-13
 -1       162 3.25426E+01 1.62404E+02 6.84312E+00 7.21254E+01-1.90070E-13-3.26406E-14
 -1       163 4.16936E+01 1.24368E+02 5.14876E+00 7.14903E+01-5.15588E-13-9.28368E-13
 -1       164 4.60762E+01 8.73370E+01 3.20886E+00 6.30305E+01 4.28546E-13-1.01252E-13
 -1       165 4.38627E+01 5.46048E+01 1.11872E+00 4.86291E+01 1.33227E-13-1.01785E-12
 -1       166 2.67683E+01 1.84866E+01-2.04216E+00 2.20731E+01 1.65867E-13 1.96954E-13
 -1       167 7.46216E+00 3.71151E+00-4.13290E+00 5.38382E+00 1.77081E-13 1.86073E-13
 -1       168-1.57767E+01-3.86484E+00-5.98057E+00-7.54844E+00-2.89768E-13-2.03171E-13
 -1       169-4.00840E+01-5.93235E+00-7.55194E+00-1.49806E+01 6.47205E-13 1.22014E-13
 -1       170-6.21547E+01-4.66102E+00-8.78040E+00-1.63597E+01-1.98147E-13 2.44693E-13
 -1       171-7.88999E+01-2.28088E+00-9.62411E+00-1.23193E+01 1.81646E-13 2.33258E-13
 -1       172-8.79235E+01-5.90185E-01-1.00530E+01-4.54892E+00-3.12219E-13-6.62914E-13
 -1       173-8.79235E+01-5.90185E-01-1.00530E+01 4.54892E+00 2.07188E-13-5.93969E-15
 -1       174-7.88999E+01-2.28088E+00-9.62411E+00 1.23193E+01-2.34097E-13 1.49825E-13
 -1       175-6.21547E+01-4.66102E+00-8.78040E+00 1.63597E+01-1.23512E-14-1.16129E-13
 -1       176-4.00840E+01-5.93235E+00-7.55194E+00 1.49806E+01 4.65517E-13 1.17462E-13
 -1       177-1.57767E+01-3.86484E+00-5.98057E+00 7.54844E+00 3.52607E-13-8.63754E-14
 -1       178 7.46216E+00 3.71151E+00-4.13290E+00-5.38382E+00 6.36158E-14 2.86660E-13
 -1       179 2.67683E+01 1.84866E+01-2.04216E+00-2.20731E+01 2.77556E-15-1.70752E-13
 -1       180 3.41637E+01 2.81629E+01-1.15099E+00 3.12112E+01 1.04139E-12-1.06581E-14
 -1       181 1.79044E+01 9.53684E+00-3.24950E+00 1.33956E+01-6.21725E-14 2.97096E-13
 -1       182-3.61757E+00-1.39453E+00-5.17998E+00-1.78224E+00 1.41220E-13 4.06786E-13
 -1       183-2.77817E+01-5.82759E+00-6.85468E+00-1.21826E+01 3.85691E-13-1.20792E-13
 -1       184-5.14118E+01-5.77584E+00-8.22266E+00-1.66097E+01 9.68114E-14 1.19904E-13
 -1       185-7.12275E+01-3.54288E+00-9.23701E+00-1.51020E+01-3.22575E-13 2.77556E-13
 -1       186-8.43992E+01-1.22669E+00-9.86177E+00-8.85982E+00-2.57114E-13 9.55902E-14
 -1       187-8.90149E+01-2.81658E-01-1.00729E+01 1.77271E-07-3.77316E-13-7.92297E-13
 -1       188-8.43992E+01-1.22669E+00-9.86177E+00 8.85982E+00 3.27141E-13 3.14415E-13
 -1       189-7.12275E+01-3.54288E+00-9.23701E+00 1.51020E+01 2.86327E-13 2.37588E-14
 -1       190-5.14118E+01-5.77584E+00-8.22266E+00 1.66097E+01 3.72369E-13-4.76508E-13
 -1       191-2.77817E+01-5.82759E+00-6.85468E+00 1.21826E+01 2.04059E-13 0.00000E+00
 -1       192-3.61757E+00-1.39453E+00-5.17998E+00 1.78224E+00-2.15161E-13 8.88178E-16
 -1       193 1.79044E+01 9.53684E+00-3.24950E+00-1.33956E+01 3.94351E-13 4.94715E-13
 -1       194 3.41637E+01 2.81629E+01-1.15099E+00-3.12112E+01 3.81917E-13-3.05977E-13
 -1       195 4.54532E+01 7.05410E+01 2.13542E+00-5.63942E+01-1.46327E-13 7.53841E-14
 -1       196 4.43123E+01 1.05897E+02 4.22791E+00-6.79945E+01 2.30482E-13 2.80886E-14
 -1       197 3.73813E+01 1.43883E+02 6.08873E+00-7.26533E+01-5.66214E-13-2.15938E-13
 -1       198 2.69681E+01 1.80980E+02 7.68021E+00-6.89502E+01 1.32339E-13 1.41331E-13
 -1       199 1.57897E+01 2.13294E+02 8.93194E+00-5.67833E+01 3.67484E-13 2.78860E-13
 -1       200 6.52758E+00 2.37243E+02 9.79836E+00-3.73567E+01 1.01308E-13 2.37241E-14
 -1       201 1.30759E+00 2.50069E+02 1.02465E+01-1.30316E+01 3.63348E-13-2.61201E-13
 -1       202 1.30950E+00 2.50263E+02 1.02604E+01 1.30468E+01 2.44166E-13-2.90646E-13
 -1       203 6.54544E+00 2.37797E+02 9.83854E+00 3.74488E+01 4.09672E-13 5.59622E-14
 -1       204 1.58555E+01 2.14127E+02 8.99423E+00 5.70095E+01 1.79412E-13-1.06470E-13
 -1       205 2.71222E+01 1.81978E+02 7.75807E+00 6.93338E+01-1.21458E-13 3.26628E-13
 -1       206 3.76564E+01 1.44918E+02 6.17390E+00 7.31780E+01-2.76668E-13-2.38254E-13
 -1       207 4.47191E+01 1.06853E+02 4.31128E+00 6.86092E+01 3.67484E-13-1.15352E-13
 -1       208 4.59709E+01 7.13339E+01 2.20774E+00 5.70268E+01-1.93179E-13-3.97127E-13
 -1       209 4.38627E+01 5.46048E+01 1.11872E+00-4.86291E+01-1.33360E-12 9.13936E-13
 -1       210 4.60762E+01 8.73370E+01 3.20886E+00-6.30305E+01 4.33431E-13-6.48370E-13
 -1       211 4.16936E+01 1.24368E+02 5.14876E+00-7.14903E+01-6.44818E-13 3.33067E-15
 -1       212 3.25426E+01 1.62404E+02 6.84312E+00-7.21254E+01 5.32907E-14-2.44471E-13
 -1       213 2.12268E+01 1.97641E+02 8.23812E+00-6.41311E+01 4.44089E-16 4.79172E-13
 -1       214 1.05499E+01 2.26252E+02 9.28145E+00-4.80609E+01 1.26565E-13 1.62592E-13
 -1       215 2.99876E+00 2.44975E+02 9.93203E+00-2.57409E+01-4.70957E-13-3.81917E-13
 -1       216 2.78671E-01 2.51608E+02 1.01614E+01-5.37810E-05 1.38497E-13-5.41608E-13
 -1       217 3.00337E+00 2.45355E+02 9.95837E+00 2.57809E+01 2.86882E-13-2.57822E-13
 -1       218 1.05829E+01 2.26956E+02 9.33139E+00 4.82107E+01 2.68008E-13-1.05693E-13
 -1       219 2.13271E+01 1.98568E+02 8.30648E+00 6.44326E+01-1.33227E-13 2.32037E-13
 -1       220 3.27500E+01 1.63430E+02 6.92276E+00 7.25818E+01-8.48210E-14 2.09832E-13
 -1       221 4.20324E+01 1.25369E+02 5.23129E+00 7.20663E+01 1.64757E-13-1.01763E-12
 -1       222 4.65420E+01 8.82119E+01 3.28528E+00 6.36618E+01 3.45501E-13-4.42757E-13
 -1       223 4.44191E+01 5.52907E+01 1.18069E+00 4.92390E+01-3.00204E-13-1.11777E-12
 -1       224 2.73320E+01 1.88673E+01-2.01368E+00 2.25297E+01-1.28675E-13 2.51132E-13
 -1       225 7.92833E+00 3.91760E+00-4.13392E+00 5.69020E+00 2.55351E-13 2.63789E-13
 -1       226-1.54777E+01-3.78100E+00-6.01153E+00-7.39127E+00-5.96190E-13-3.44169E-13
 -1       227-3.99941E+01-5.91627E+00-7.61076E+00-1.49413E+01 8.53650E-13 5.26690E-13
 -1       228-6.22760E+01-4.66971E+00-8.86248E+00-1.63883E+01-1.54571E-13 1.89515E-13
 -1       229-7.91919E+01-2.29016E+00-9.72286E+00-1.23630E+01 6.83356E-13 4.04177E-13
 -1       230-8.83109E+01-5.94190E-01-1.01604E+01-4.56835E+00-2.23085E-13-1.05671E-12
 -1       231-8.83109E+01-5.94190E-01-1.01604E+01 4.56835E+00 2.47989E-13-7.63556E-14
 -1       232-7.91919E+01-2.29016E+00-9.72286E+00 1.23630E+01 3.11237E-13 1.59983E-13
 -1       233-6.22760E+01-4.66971E+00-8.86248E+00 1.63883E+01 6.59472E-14 6.09512E-14
 -1       234-3.99941E+01-5.91627E+00-7.61076E+00 1.49413E+01 4.16001E-13-2.10942E-14
 -1       235-1.54777E+01-3.78100E+00-6.01153E+00 7.39127E+00 2.42917E-13-1.80300E-13
 -1       236 7.92833E+00 3.91760E+00-4.13392E+00-5.69020E+00 1.31894E-13 2.53797E-13
 -1       237 2.73320E+01 1.88673E+01-2.01368E+00-2.25297E+01 1.79301E-13-2.46025E-13
 -1       238 3.47421E+01 2.86379E+01-1.11206E+00 3.17312E+01 2.33591E-13-6.43929E-14
 -1       239 1.84274E+01 9.81611E+00-3.23853E+00 1.37772E+01-7.66942E-13-1.38556E-13
 -1       240-3.22779E+00-1.26453E+00-5.19847E+00-1.55489E+00 5.79536E-13 1.34204E-12
 -1       241-2.75833E+01-5.79060E+00-6.90169E+00-1.20925E+01-2.35145E-13-1.04361E-13
 -1       242-5.14282E+01-5.78097E+00-8.29471E+00-1.66141E+01-3.69593E-13 2.35367E-13
 -1       243-7.14398E+01-3.55602E+00-9.32859E+00-1.51468E+01-6.07847E-13 3.20188E-13
 -1       244-8.47483E+01-1.23389E+00-9.96573E+00-8.89644E+00-5.85226E-13 1.81521E-13
 -1       245-8.94131E+01-2.84885E-01-1.01811E+01 1.78065E-07-1.44586E-13-1.51105E-12
 -1       246-8.47483E+01-1.23389E+00-9.96573E+00 8.89644E+00 1.17308E-12 1.91958E-13
 -1       247-7.14398E+01-3.55602E+00-9.32859E+00 1.51468E+01 5.25746E-13-7.28306E-14
 -1       248-5.14282E+01-5.78097E+00-8.29471E+00 1.66141E+01 4.26881E-13-6.02629E-13
 -1       249-2.75833E+01-5.79060E+00-6.90169E+00 1.20925E+01-1.14797E-13-1.29230E-13
 -1       250-3.22779E+00-1.26453E+00-5.19847E+00 1.55489E+00-1.62093E-13 5.16920E-13
 -1       251 1.84274E+01 9.81611E+00-3.23853E+00-1.37772E+01-2.27818E-13 3.59712E-13
 -1       252 3.47421E+01 2.86379E+01-1.11206E+00-3.17312E+01 6.70131E-13-2.69118E-13
 -1       253-7.67521E+00 9.18417E+01 1.93205E-02-2.33161E+00-1.69052E-13-3.97737E-14
 -1       254-6.50483E+00 9.42437E+01 2.92537E-02-3.67660E-02-1.05638E-13 2.76584E-14
 -1       255-3.61533E+00 9.61164E+01 3.45747E-02 2.64151E+00 2.03670E-13-9.33320E-14
 -1       256 1.23424E+00 9.70005E+01 2.37633E-02 5.01446E+00 9.91984E-14-1.01939E-13
 -1       257 7.55201E+00 9.67262E+01-5.89473E-03 6.06573E+00-1.38375E-13-1.11328E-13
 -1       258 1.37945E+01 9.56917E+01-4.50082E-02 4.93288E+00 1.04639E-14 2.34951E-14
 -1       259 1.77414E+01 9.47757E+01-7.31017E-02 1.64585E+00 1.47216E-13 3.06699E-14
 -1       260 1.76994E+01 9.47336E+01-7.28533E-02-2.54499E+00-2.23502E-14-1.17406E-14
 -1       261 1.36778E+01 9.55600E+01-4.44507E-02-5.80882E+00-1.02487E-13-1.31825E-13
 -1       262 7.38077E+00 9.64940E+01-5.40744E-03-6.90761E+00-8.96783E-14 1.44662E-13
 -1       263 1.02317E+00 9.66613E+01 2.39329E-02-5.82414E+00-6.48509E-14 5.14797E-14
 -1       264-3.86506E+00 9.56719E+01 3.44284E-02-3.42494E+00-1.98494E-13-1.73169E-13
 -1       265-6.80398E+00 9.37007E+01 2.89540E-02-7.22944E-01 5.69822E-14 6.42229E-14
 -1       266-8.04134E+00 9.12080E+01 1.89829E-02 1.59877E+00-2.19144E-13-2.13093E-14
 -1       267-7.85077E+00 9.05296E+01-2.21251E-02-3.19678E+00 6.13398E-14-1.75429E-13
 -1       268-7.31921E+00 9.29546E+01-2.20718E-02-1.23591E+00-4.62408E-14-6.44207E-14
 -1       269-5.29452E+00 9.50991E+01-1.30081E-02 1.25671E+00 1.29619E-13-5.80092E-14
 -1       270-1.35454E+00 9.65158E+01 1.12880E-03 3.80606E+00-1.73694E-13-3.47847E-14
 -1       271 4.40549E+00 9.68922E+01 1.60491E-02 5.55614E+00-9.36473E-14-1.82077E-13
 -1       272 1.09460E+01 9.63202E+01 2.58748E-02 5.54624E+00-5.95635E-14 2.49800E-14
 -1       273 1.62878E+01 9.54078E+01 2.89559E-02 3.33140E+00 4.82114E-14 9.79772E-14
 -1       274 1.83427E+01 9.49514E+01 2.90431E-02-4.49740E-01-2.37176E-13 7.41629E-14
 -1       275 1.62063E+01 9.53203E+01 2.89443E-02-4.21896E+00 1.40804E-13-7.16094E-14
 -1       276 1.07994E+01 9.61374E+01 2.58427E-02-6.40459E+00 1.88849E-13-8.04357E-14
 -1       277 4.21284E+00 9.66059E+01 1.60357E-02-6.38109E+00-4.39648E-14 1.03501E-13
 -1       278-1.58449E+00 9.61240E+01 1.22002E-03-4.60190E+00 1.64313E-14 4.68861E-14
 -1       279-5.56680E+00 9.46060E+01-1.27362E-02-2.02784E+00 4.05231E-15-3.34385E-14
 -1       280-7.64851E+00 9.23675E+01-2.15755E-02 4.89869E-01 9.58122E-14-3.54439E-14
 -1       281-8.25634E+00 8.98554E+01-2.13950E-02 2.48134E+00-9.76164E-14 3.56104E-14
 -1       282-9.38714E+00 8.71699E+01-3.76713E-02 6.06043E+00 1.79183E-13 4.28546E-14
 -1       283-9.97472E+00 8.40596E+01-4.18548E-02 9.36524E+00 5.74922E-14-5.49144E-14
 -1       284-9.44790E+00 7.86955E+01-3.31088E-02 1.26423E+01-2.34020E-13 6.43097E-14
 -1       285-7.42683E+00 7.09263E+01 2.74312E-03 1.48612E+01-5.40089E-14-3.53606E-14
 -1       286-4.05721E+00 6.15494E+01 6.65376E-02 1.46588E+01-1.16157E-13 5.45258E-14
 -1       287-3.24204E-01 5.26572E+01 1.40611E-01 1.09973E+01-5.93275E-14-1.46202E-13
 -1       288 2.17722E+00 4.71287E+01 1.91482E-01 4.11104E+00-2.66454E-15 1.38368E-13
 -1       289 2.17722E+00 4.71287E+01 1.91482E-01-4.11104E+00-2.25209E-13 1.47798E-15
 -1       290-3.24204E-01 5.26572E+01 1.40611E-01-1.09973E+01 7.23033E-14-3.66096E-14
 -1       291-4.05721E+00 6.15494E+01 6.65376E-02-1.46588E+01 8.73746E-14 4.35763E-15
 -1       292-7.42683E+00 7.09263E+01 2.74312E-03-1.48612E+01 1.86115E-13 1.62648E-14
 -1       293-9.44790E+00 7.86955E+01-3.31088E-02-1.26423E+01-3.14982E-14 3.95101E-14
 -1       294-9.97472E+00 8.40596E+01-4.18548E-02-9.36524E+00 2.80088E-13 4.66294E-15
 -1       295-9.38714E+00 8.71699E+01-3.76713E-02-6.06043E+00-2.12809E-13 1.13069E-13
 -1       296-8.68110E+00 8.81559E+01 3.60639E-02 4.62853E+00 9.44383E-14-5.81479E-14
 -1       297-9.56126E+00 8.59237E+01 3.54860E-02 7.69156E+00 2.02616E-15 4.85723E-15
 -1       298-9.61249E+00 8.16675E+01 2.58590E-02 1.10039E+01 9.99340E-14 6.62248E-14
 -1       299-8.40189E+00 7.49774E+01 1.03430E-02 1.37924E+01-4.09603E-14-7.11653E-14
 -1       300-5.81127E+00 6.61436E+01-5.99597E-03 1.48505E+01 1.64091E-13 1.49269E-13
 -1       301-2.37539E+00 5.66458E+01-1.66122E-02 1.29465E+01-2.43527E-13-3.43725E-13
 -1       302 6.55769E-01 4.90992E+01-1.97179E-02 7.64152E+00-5.08482E-14 2.57794E-13
 -1       303 1.87550E+00 4.61959E+01-1.96694E-02 1.16555E-10 6.86118E-14-7.93705E-14
 -1       304 6.55769E-01 4.90992E+01-1.97179E-02-7.64152E+00 1.00697E-13 1.70974E-14
 -1       305-2.37539E+00 5.66458E+01-1.66122E-02-1.29465E+01-4.49085E-14 2.35367E-14
 -1       306-5.81127E+00 6.61436E+01-5.99597E-03-1.48505E+01-3.13749E-13-5.03486E-14
 -1       307-8.40189E+00 7.49774E+01 1.03430E-02-1.37924E+01 1.87170E-13 1.52656E-14
 -1       308-9.61249E+00 8.16675E+01 2.58590E-02-1.10039E+01-1.49894E-13-2.81442E-14
 -1       309-9.56126E+00 8.59237E+01 3.54860E-02-7.69156E+00-2.89727E-13 1.61621E-13
 -1       310-8.68110E+00 8.81559E+01 3.60639E-02-4.62853E+00 1.43968E-13-2.53131E-14
 -1       311-8.04134E+00 9.12080E+01 1.89829E-02-1.59877E+00-3.31471E-13 1.57069E-13
 -1       312-6.80398E+00 9.37007E+01 2.89540E-02 7.22944E-01-1.41137E-13-5.94316E-15
 -1       313-3.86506E+00 9.56719E+01 3.44284E-02 3.42494E+00 1.85185E-13-1.14274E-13
 -1       314 1.02317E+00 9.66613E+01 2.39329E-02 5.82414E+00 1.40249E-13 3.00662E-14
 -1       315 7.38077E+00 9.64940E+01-5.40744E-03 6.90761E+00 5.03764E-14-9.88515E-14
 -1       316 1.36778E+01 9.55600E+01-4.44507E-02 5.80882E+00 3.58186E-14-8.29059E-14
 -1       317 1.76994E+01 9.47336E+01-7.28533E-02 2.54499E+00-1.27620E-13 1.06998E-13
 -1       318 1.77414E+01 9.47757E+01-7.31017E-02-1.64585E+00-1.84318E-13-1.07608E-13
 -1       319 1.37945E+01 9.56917E+01-4.50082E-02-4.93288E+00-7.31915E-14-1.86781E-13
 -1       320 7.55201E+00 9.67262E+01-5.89473E-03-6.06573E+00 4.33820E-14 1.53030E-13
 -1       321 1.23424E+00 9.70005E+01 2.37633E-02-5.01446E+00 1.84019E-13 3.04867E-13
 -1       322-3.61533E+00 9.61164E+01 3.45747E-02-2.64151E+00 5.43871E-14-9.66636E-14
 -1       323-6.50483E+00 9.42437E+01 2.92537E-02 3.67660E-02 1.79926E-13-1.54182E-14
 -1       324-7.67521E+00 9.18417E+01 1.93205E-02 2.33161E+00 1.17642E-13 2.84772E-14
 -1       325-8.25634E+00 8.98554E+01-2.13950E-02-2.48134E+00 1.58706E-13-1.01724E-14
 -1       326-7.64851E+00 9.23675E+01-2.15755E-02-4.89869E-01 2.82274E-14-9.67282E-14
 -1       327-5.56680E+00 9.46060E+01-1.27362E-02 2.02784E+00-1.86462E-13-2.22808E-14
 -1       328-1.58449E+00 9.61240E+01 1.22002E-03 4.60190E+00 1.15130E-13-4.62824E-15
 -1       329 4.21284E+00 9.66059E+01 1.60357E-02 6.38109E+00 2.86438E-14-5.61218E-14
 -1       330 1.07994E+01 9.61374E+01 2.58427E-02 6.40459E+00-1.07303E-13 1.75970E-14
 -1       331 1.62063E+01 9.53203E+01 2.89443E-02 4.21896E+00-7.05824E-14 6.73905E-14
 -1       332 1.83427E+01 9.49514E+01 2.90431E-02 4.49740E-01-1.30451E-15 6.08402E-14
 -1       333 1.62878E+01 9.54078E+01 2.89559E-02-3.33140E+00 1.75332E-13-6.17284E-14
 -1       334 1.09460E+01 9.63202E+01 2.58748E-02-5.54624E+00 1.33782E-13-8.09908E-14
 -1       335 4.40549E+00 9.68922E+01 1.60491E-02-5.55614E+00 9.82547E-15 1.27343E-13
 -1       336-1.35454E+00 9.65158E+01 1.12880E-03-3.80606E+00 3.06366E-13 1.93137E-13
 -1       337-5.29452E+00 9.50991E+01-1.30081E-02-1.25671E+00-4.71845E-14-6.49272E-14
 -1       338-7.31921E+00 9.29546E+01-2.20718E-02 1.23591E+00-8.08825E-13-2.35229E-14
 -1       339-7.85077E+00 9.05296E+01-2.21251E-02 3.19678E+00 2.44443E-13 1.31492E-13
 -1       340-8.89632E+00 8.79455E+01-3.71238E-02 6.67734E+00 9.98056E-14 1.79794E-13
 -1       341-9.45217E+00 8.48790E+01-4.14450E-02 9.90248E+00 5.62266E-13-1.11966E-13
 -1       342-8.89614E+00 7.95412E+01-3.28241E-02 1.31028E+01 1.10707E-13 1.79620E-13
 -1       343-6.84423E+00 7.17760E+01 3.10643E-03 1.52450E+01 1.26815E-13 1.47382E-14
 -1       344-3.43956E+00 6.23805E+01 6.72947E-02 1.49573E+01-1.74125E-13-1.65923E-13
 -1       345 3.28676E-01 5.34567E+01 1.41988E-01 1.11916E+01 2.10942E-15-6.95277E-14
 -1       346 2.85353E+00 4.79036E+01 1.93348E-01 4.17912E+00-2.16382E-13 6.66411E-14
 -1       347 2.85353E+00 4.79036E+01 1.93348E-01-4.17912E+00 4.99850E-13-8.20594E-14
 -1       348 3.28676E-01 5.34567E+01 1.41988E-01-1.11916E+01-5.27633E-14 4.33820E-14
 -1       349-3.43956E+00 6.23805E+01 6.72947E-02-1.49573E+01 8.67639E-14-6.75709E-14
 -1       350-6.84423E+00 7.17760E+01 3.10643E-03-1.52450E+01 4.59681E-13-9.25926E-14
 -1       351-8.89614E+00 7.95412E+01-3.28241E-02-1.31028E+01 1.02960E-13 3.12958E-13
 -1       352-9.45217E+00 8.48790E+01-4.14450E-02-9.90248E+00-2.03181E-13-2.44874E-13
 -1       353-8.89632E+00 8.79455E+01-3.71238E-02-6.67734E+00-3.08833E-13 3.75339E-13
 -1       354-8.20860E+00 8.89035E+01 3.62405E-02 5.28574E+00 1.71113E-14-2.13940E-13
 -1       355-9.05409E+00 8.67226E+01 3.57956E-02 8.26803E+00 6.79595E-14 1.51129E-13
 -1       356-9.07471E+00 8.25020E+01 2.61775E-02 1.15022E+01 8.07063E-14-1.83187E-14
 -1       357-7.83418E+00 7.58272E+01 1.06343E-02 1.42142E+01-2.92412E-13 9.29812E-14
 -1       358-5.21118E+00 6.69851E+01-5.78447E-03 1.51918E+01-1.71085E-13 1.90514E-13
 -1       359-1.74098E+00 5.74597E+01-1.64755E-02 1.31935E+01-3.43947E-13-5.98466E-13
 -1       360 1.31885E+00 4.98822E+01-1.96100E-02 7.77336E+00-9.08718E-14 3.46723E-13
 -1       361 2.55006E+00 4.69652E+01-1.95625E-02 1.21347E-10 4.26215E-13-8.25685E-15
 -1       362 1.31885E+00 4.98822E+01-1.96100E-02-7.77336E+00 3.31790E-13-5.68989E-15
 -1       363-1.74098E+00 5.74597E+01-1.64755E-02-1.31935E+01-1.73084E-13 2.19824E-14
 -1       364-5.21118E+00 6.69851E+01-5.78447E-03-1.51918E+01 3.68566E-13-2.79776E-14
 -1       365-7.83418E+00 7.58272E+01 1.06343E-02-1.42142E+01 3.32706E-13 1.12133E-14
 -1       366-9.07471E+00 8.25020E+01 2.61775E-02-1.15022E+01-3.96919E-13 3.70259E-14
 -1       367-9.05409E+00 8.67226E+01 3.57956E-02-8.26803E+00-3.87426E-13 1.74860E-14
 -1       368-8.20860E+00 8.89035E+01 3.62405E-02-5.28574E+00-2.70048E-13-4.59910E-14
 -1       369-5.90817E+00 1.15809E+02-2.64403E+00-1.00930E+00 4.74287E-13 1.69600E-13
 -1       370 2.65567E-01 9.22641E+01-1.87748E+00-6.15942E-01-8.33222E-14 4.73843E-13
 -1       371-1.36076E+00 8.72839E+01-1.46415E+00-7.22145E-02 6.84161E-13-1.15262E-13
 -1       372-3.23617E-01 8.38335E+01-7.97099E-01-1.09302E-01-3.12333E-13 4.28386E-13
 -1       373-3.01601E-01 8.15220E+01-6.29598E-01-7.71194E-02 3.08614E-13 1.48281E-13
 -1       374-1.80505E-01 8.00346E+01-4.83115E-01-6.36351E-02-1.79256E-13 2.26000E-14
 -1       375-1.35789E-01 7.90593E+01-3.94385E-01-5.05288E-02 1.18825E-13 1.62762E-13
 -1       376-1.00471E-01 7.84494E+01-3.26564E-01-4.19264E-02 2.55173E-13 3.41394E-15
 -1       377-7.77614E-02 7.81004E+01-2.74521E-01-3.54063E-02-1.00831E-13 2.89938E-13
 -1       378-6.08721E-02 7.79446E+01-2.32235E-01-3.05411E-02 4.77964E-14 1.74675E-13
 -1       379-4.80787E-02 7.79330E+01-1.96893E-01-2.67593E-02-2.80169E-13 1.77197E-13
 -1       380-3.78708E-02 7.80292E+01-1.66560E-01-2.37417E-02-1.38265E-13 4.35216E-13
 -1       381-2.94345E-02 7.82044E+01-1.40022E-01-2.12460E-02-1.45316E-13 2.51830E-14
 -1       382-2.22232E-02 7.84351E+01-1.16479E-01-1.90986E-02 3.79793E-13 7.85864E-14
 -1       383-1.58909E-02 7.87011E+01-9.54149E-02-1.71652E-02 1.82473E-13 4.69179E-13
 -1       384-1.02162E-02 7.89844E+01-7.65199E-02-1.53394E-02 3.71290E-13 2.16511E-13
 -1       385-5.06847E-03 7.92683E+01-5.96394E-02-1.35336E-02-1.60855E-13 6.37831E-13
 -1       386-3.86466E-04 7.95374E+01-4.47438E-02-1.16752E-02-3.36647E-13 4.82005E-13
 -1       387 3.83417E-03 7.97769E+01-3.19064E-02-9.70524E-03 1.98365E-13 3.91098E-13
 -1       388 7.54880E-03 7.99730E+01-2.12849E-02-7.57890E-03 3.03470E-13 1.03869E-13
 -1       389 1.06703E-02 8.01127E+01-1.31031E-02-5.26799E-03 1.03098E-13 1.73532E-13
 -1       390 1.30761E-02 8.01847E+01-7.62899E-03-2.76473E-03-1.61968E-14-1.87718E-13
 -1       391 1.46180E-02 8.01795E+01-5.14682E-03-8.62130E-05 6.21747E-14-1.75261E-13
 -1       392 1.51349E-02 8.00904E+01-5.92268E-03 2.72121E-03-2.59192E-13 6.63747E-13
 -1       393 1.44721E-02 7.99141E+01-1.01622E-02 5.57859E-03-9.66601E-14 1.47672E-13
 -1       394 1.25025E-02 7.96515E+01-1.79631E-02 8.37308E-03 3.18664E-13 2.16644E-13
 -1       395 9.15514E-03 7.93084E+01-2.92638E-02 1.09607E-02 8.78950E-14 7.14060E-14
 -1       396 4.44366E-03 7.88961E+01-4.37946E-02 1.31722E-02 2.30700E-13 8.39146E-14
 -1       397 1.91958E+01 1.52461E+02 6.95631E+00 1.98600E+01-5.23137E-13 5.77316E-13
 -1       398-6.91550E+00 9.83539E+01-4.27317E+00-1.55837E+00-7.44738E-13 4.61742E-13
 -1       399-2.69494E-02 9.09417E+01-1.03703E+00 5.83061E-02-5.64160E-13 4.60021E-13
 -1       400-6.17250E-01 8.58436E+01-8.98175E-01-1.31244E-01 3.79641E-13 1.90098E-13
 -1       401-2.38769E-01 8.27636E+01-6.29107E-01-5.98789E-02 2.06141E-13 3.45848E-13
 -1       402-1.89157E-01 8.08321E+01-5.01960E-01-5.01251E-02 2.97942E-13 2.64233E-14
 -1       403-1.27260E-01 7.95760E+01-4.06409E-01-3.69968E-02-1.00324E-12 3.34885E-13
 -1       404-9.62905E-02 7.87745E+01-3.38081E-01-2.96649E-02 4.80692E-13 3.56361E-13
 -1       405-7.36449E-02 7.82891E+01-2.84797E-01-2.43002E-02-1.42199E-13 2.78041E-14
 -1       406-5.79091E-02 7.80333E+01-2.41860E-01-2.05090E-02 7.81250E-14 1.59338E-13
 -1       407-4.59875E-02 7.79473E+01-2.06044E-01-1.76722E-02-4.39562E-14 1.16990E-14
 -1       408-3.66490E-02 7.79879E+01-1.75415E-01-1.54918E-02-8.69923E-14 3.88935E-13
 -1       409-2.90165E-02 7.81223E+01-1.48697E-01-1.37523E-02-4.13875E-13 2.75627E-13
 -1       410-2.25693E-02 7.83243E+01-1.25054E-01-1.23100E-02 8.18252E-14 1.41241E-14
 -1       411-1.69652E-02 7.85719E+01-1.03935E-01-1.10591E-02-6.76672E-13 3.22752E-13
 -1       412-1.19862E-02 7.88459E+01-8.49965E-02-9.91959E-03-3.33610E-13 3.15597E-13
 -1       413-7.49777E-03 7.91289E+01-6.80475E-02-8.82738E-03-1.48012E-13 4.98908E-13
 -1       414-3.42748E-03 7.94049E+01-5.30201E-02-7.73009E-03 7.35197E-13 7.32884E-13
 -1       415 2.47632E-04 7.96588E+01-3.99457E-02-6.58450E-03-1.13074E-12 4.40434E-13
 -1       416 3.50898E-03 7.98762E+01-2.89374E-02-5.35595E-03 1.30451E-13 2.58420E-13
 -1       417 6.30211E-03 8.00437E+01-2.01736E-02-4.01919E-03-2.67936E-13 4.29187E-13
 -1       418 8.54214E-03 8.01493E+01-1.38790E-02-2.56026E-03 6.02102E-13 5.86991E-14
 -1       419 1.01205E-02 8.01825E+01-1.03013E-02-9.79139E-04-9.11957E-13-3.95313E-13
 -1       420 1.09143E-02 8.01353E+01-9.68250E-03 7.07269E-04-2.51387E-14 3.16783E-13
 -1       421 1.07990E-02 8.00026E+01-1.22239E-02 2.46237E-03-1.36492E-13 5.43344E-13
 -1       422 9.66447E-03 7.97833E+01-1.80452E-02 4.22804E-03-2.65805E-13 3.09838E-13
 -1       423 7.43596E-03 7.94807E+01-2.71400E-02 5.92437E-03-2.85900E-13 2.44003E-13
 -1       424 4.08932E-03 7.91034E+01-3.93376E-02 7.45429E-03 3.71682E-13 1.76086E-13
 -1       425-2.84284E-04 7.86655E+01-5.42328E-02 8.68603E-03-1.15779E-13 1.80234E-13
 -1       426-8.86370E-03 7.79128E+01-8.12510E-02 1.61695E-02-3.59480E-13 5.00580E-14
 -1       427-1.69615E-02 7.73919E+01-1.02525E-01 1.61517E-02 7.48811E-14 3.35388E-13
 -1       428-2.51851E-02 7.69042E+01-1.23376E-01 1.50281E-02-2.18442E-13 3.17135E-13
 -1       429-3.28788E-02 7.64857E+01-1.42268E-01 1.27823E-02-4.23481E-14 3.37227E-13
 -1       430-3.93680E-02 7.61707E+01-1.57670E-01 9.50004E-03 1.32959E-13 3.50669E-13
 -1       431-4.40380E-02 7.59887E+01-1.68227E-01 5.37525E-03-2.20161E-13 2.78539E-13
 -1       432-4.64200E-02 7.59612E+01-1.72924E-01 6.95959E-04 2.46152E-13 9.57186E-14
 -1       433-4.62592E-02 7.60997E+01-1.71210E-01-4.18579E-03 4.49983E-14 2.43576E-13
 -1       434-4.35526E-02 7.64045E+01-1.63067E-01-8.89549E-03-1.23116E-13 1.58835E-13
 -1       435-3.85489E-02 7.68643E+01-1.49016E-01-1.30818E-02-4.39249E-14 1.64451E-13
 -1       436-3.17099E-02 7.74580E+01-1.30037E-01-1.64579E-02-2.36637E-13 6.43782E-14
 -1       437-2.36427E-02 7.81564E+01-1.07448E-01-1.88314E-02 4.29500E-14 2.76151E-14
 -1       438-1.50120E-02 7.89255E+01-8.27419E-02-2.01189E-02 1.98374E-13 1.53115E-13
 -1       439-6.46504E-03 7.97295E+01-5.74126E-02-2.03389E-02 9.57602E-14 8.02301E-14
 -1       440-5.74534E-03 7.81746E+01-7.17181E-02 9.40109E-03-2.46598E-13 1.34589E-13
 -1       441-1.20237E-02 7.76554E+01-9.09475E-02 9.71358E-03-1.34504E-13 2.52381E-13
 -1       442-1.85737E-02 7.71519E+01-1.10342E-01 9.41825E-03-2.49117E-13 2.75169E-13
 -1       443-2.49538E-02 7.66995E+01-1.28580E-01 8.44031E-03-3.13635E-13 3.97581E-13
 -1       444-3.06248E-02 7.63334E+01-1.44259E-01 6.79830E-03-4.54567E-14 2.64337E-13
 -1       445-3.50738E-02 7.60854E+01-1.56072E-01 4.57475E-03 1.06269E-13 2.30392E-13
 -1       446-3.78695E-02 7.59809E+01-1.62946E-01 1.91746E-03-9.74197E-14 1.83339E-13
 -1       447-3.87242E-02 7.60365E+01-1.64172E-01-9.74981E-04 6.24518E-14 1.91798E-13
 -1       448-3.75352E-02 7.62581E+01-1.59495E-01-3.87603E-03-3.06685E-13 2.96600E-13
 -1       449-3.43999E-02 7.66401E+01-1.49138E-01-6.55934E-03-1.37633E-14 2.47278E-13
 -1       450-2.96003E-02 7.71663E+01-1.33779E-01-8.82693E-03-2.79738E-13 2.80411E-13
 -1       451-2.35615E-02 7.78118E+01-1.14454E-01-1.05319E-02 9.62216E-14 1.74014E-13
 -1       452-1.67888E-02 7.85448E+01-9.24357E-02-1.15929E-02 1.11494E-13 1.56217E-13
 -1       453-9.81404E-03 7.93306E+01-6.90873E-02-1.19926E-02-1.75526E-13 1.70627E-13
 -1       454-3.06560E-03 8.01338E+01-4.56863E-02-1.18087E-02 1.45689E-13 2.68626E-13
 -1       455 7.89184E-03 8.12711E+01-1.12787E-02-1.77341E-02-7.71171E-14 1.34215E-13
 -1       456 1.32234E-02 8.19582E+01 7.93697E-03-1.58283E-02-2.67408E-13 2.01346E-13
 -1       457 1.72756E-02 8.25772E+01 2.42820E-02-1.35900E-02-5.10182E-15 2.48095E-13
 -1       458 2.00528E-02 8.31163E+01 3.75388E-02-1.11918E-02-7.69784E-14 2.74655E-13
 -1       459 2.16420E-02 8.35689E+01 4.77018E-02-8.78169E-03-7.51456E-14 1.02847E-13
 -1       460 2.21893E-02 8.39328E+01 5.49313E-02-6.47788E-03-1.02177E-13 1.94075E-13
 -1       461 2.18723E-02 8.42099E+01 5.95033E-02-4.36599E-03-9.32440E-14-1.17076E-14
 -1       462 2.08790E-02 8.44053E+01 6.17645E-02-2.50097E-03-9.00755E-16 1.31154E-13
 -1       463 1.93909E-02 8.45259E+01 6.20933E-02-9.10953E-04 1.04774E-13-1.51756E-13
 -1       464 1.75726E-02 8.45803E+01 6.08694E-02 3.97528E-04-4.33331E-14 3.87060E-15
 -1       465 1.55649E-02 8.45776E+01 5.84520E-02 1.43409E-03 4.73032E-15-4.97154E-14
 -1       466 1.34825E-02 8.45273E+01 5.51654E-02 2.21937E-03 4.15095E-14-7.07646E-14
 -1       467 1.14141E-02 8.44386E+01 5.12924E-02 2.78054E-03 2.59051E-14-3.63086E-14
 -1       468 9.42511E-03 8.43203E+01 4.70706E-02 3.14783E-03 2.82344E-14 9.91954E-14
 -1       469 7.56030E-03 8.41803E+01 4.26947E-02 3.35185E-03-7.08522E-14 6.54299E-14
 -1       470 5.84763E-03 8.40257E+01 3.83189E-02 3.42174E-03-1.75656E-13 1.06960E-13
 -1       471 4.30181E-03 8.38631E+01 3.40623E-02 3.38406E-03 6.49090E-15-4.98063E-14
 -1       472 2.92753E-03 8.36978E+01 3.00138E-02 3.26212E-03-3.16353E-14-1.18690E-14
 -1       473 1.72234E-03 8.35346E+01 2.62373E-02 3.07577E-03-3.30395E-14 2.10836E-14
 -1       474 6.79007E-04 8.33775E+01 2.27768E-02 2.84148E-03 6.41657E-14 7.47694E-14
 -1       475-2.12574E-04 8.32297E+01 1.96610E-02 2.57255E-03-1.00190E-13-9.86993E-15
 -1       476-9.63931E-04 8.30941E+01 1.69066E-02 2.27940E-03 1.36045E-13-5.34215E-14
 -1       477-1.58689E-03 8.29727E+01 1.45224E-02 1.97001E-03-2.12976E-14-2.34240E-14
 -1       478-2.09275E-03 8.28674E+01 1.25109E-02 1.65025E-03-1.96167E-14 3.83688E-14
 -1       479-2.49177E-03 8.27796E+01 1.08714E-02 1.32429E-03-5.13348E-15-1.00980E-14
 -1       480-2.79267E-03 8.27103E+01 9.60133E-03 9.94899E-04 3.18435E-14 2.39418E-14
 -1       481-3.00249E-03 8.26603E+01 8.69721E-03 6.63822E-04 3.69942E-14-3.84480E-15
 -1       482-3.12631E-03 8.26301E+01 8.15612E-03 3.32029E-04-1.86771E-14-3.78577E-14
 -1       483 2.90367E-03 8.09039E+01-2.38780E-02-1.12972E-02 1.53350E-13 2.01263E-13
 -1       484 7.82762E-03 8.16158E+01-4.48010E-03-1.02388E-02-5.10231E-13 2.24653E-13
 -1       485 1.17982E-02 8.22685E+01 1.25456E-02-8.90597E-03 7.65846E-14 3.09464E-13
 -1       486 1.47300E-02 8.28473E+01 2.68397E-02-7.43435E-03 2.35392E-13 3.92263E-13
 -1       487 1.66617E-02 8.33429E+01 3.82830E-02-5.92309E-03-2.23169E-13 2.47202E-13
 -1       488 1.76827E-02 8.37510E+01 4.69254E-02-4.45511E-03-8.40300E-15 2.04130E-13
 -1       489 1.79202E-02 8.40716E+01 5.29494E-02-3.09224E-03-6.90420E-14 1.67064E-13
 -1       490 1.75192E-02 8.43080E+01 5.66272E-02-1.87588E-03-4.52798E-14 1.27951E-13
 -1       491 1.66272E-02 8.44661E+01 5.82826E-02-8.29118E-04 1.16468E-13 3.88231E-15
 -1       492 1.53833E-02 8.45538E+01 5.82591E-02 4.00175E-05 7.83115E-14-8.04530E-14
 -1       493 1.39107E-02 8.45799E+01 5.68956E-02 7.35014E-04-4.80351E-14 8.88178E-16
 -1       494 1.23135E-02 8.45536E+01 5.45090E-02 1.26739E-03-2.07436E-13 1.30763E-14
 -1       495 1.06753E-02 8.44844E+01 5.13837E-02 1.65366E-03-1.32781E-13 1.47625E-14
 -1       496 9.06004E-03 8.43811E+01 4.77661E-02 1.91284E-03-5.14623E-14 1.74731E-13
 -1       497 7.51424E-03 8.42522E+01 4.38635E-02 2.06458E-03-4.04234E-14 7.35644E-14
 -1       498 6.06939E-03 8.41051E+01 3.98450E-02 2.12783E-03-5.10876E-15 1.40517E-13
 -1       499 4.74485E-03 8.39466E+01 3.58454E-02 2.11998E-03-1.28349E-13 4.51843E-14
 -1       500 3.55045E-03 8.37828E+01 3.19686E-02 2.05641E-03-5.61808E-14 4.11875E-14
 -1       501 2.48899E-03 8.36187E+01 2.82929E-02 1.95028E-03 4.94882E-14-1.54191E-14
 -1       502 1.55824E-03 8.34587E+01 2.48750E-02 1.81253E-03-8.00818E-14 7.63703E-14
 -1       503 7.52691E-04 8.33063E+01 2.17545E-02 1.65201E-03-4.84335E-14 4.96408E-14
 -1       504 6.48954E-05 8.31647E+01 1.89577E-02 1.47570E-03 5.88887E-14-2.26629E-14
 -1       505-5.13488E-04 8.30363E+01 1.65008E-02 1.28892E-03-1.10174E-13-1.66035E-14
 -1       506-9.90900E-04 8.29230E+01 1.43928E-02 1.09560E-03 1.81704E-14 2.84295E-14
 -1       507-1.37531E-03 8.28265E+01 1.26375E-02 8.98525E-04 6.86864E-15 2.01965E-15
 -1       508-1.67379E-03 8.27480E+01 1.12357E-02 6.99546E-04 2.12230E-14 2.93459E-14
 -1       509-1.89228E-03 8.26884E+01 1.01866E-02 4.99791E-04-1.76569E-14-2.52749E-15
 -1       510-2.03535E-03 8.26483E+01 9.48841E-03 2.99848E-04 3.71586E-14 4.82427E-15
 -1       511-2.10610E-03 8.26281E+01 9.13976E-03 9.99378E-05-3.83718E-14-1.70367E-14
 -1       512 7.00768E-03 8.25029E+01-1.10703E-03 8.24712E-05 6.51492E-15 3.49087E-14
 -1       513 3.61810E-02 8.23512E+01-1.57890E-03 4.74091E-05 2.35262E-15-1.00519E-14
 -1       514 8.18294E-02 8.21683E+01-1.38309E-03 5.44865E-05-1.84716E-15 2.87661E-15
 -1       515 1.41093E-01 8.19591E+01-1.18772E-03 5.49131E-05 1.43476E-14 3.15459E-15
 -1       516 2.12028E-01 8.17280E+01-1.02104E-03 5.48764E-05-4.52837E-16 1.15012E-14
 -1       517 2.93006E-01 8.14794E+01-8.76200E-04 5.36496E-05 1.09853E-14-1.37130E-14
 -1       518 3.82618E-01 8.12168E+01-7.45163E-04 5.12587E-05-7.84784E-15 1.31232E-14
 -1       519 4.79593E-01 8.09439E+01-6.19787E-04 4.77841E-05 8.90586E-15 3.24523E-15
 -1       520 5.82712E-01 8.06638E+01-4.92844E-04 4.33398E-05-8.95128E-15 1.04617E-14
 -1       521 6.90738E-01 8.03799E+01-3.58301E-04 3.80991E-05-2.03214E-15-4.38235E-15
 -1       522 8.02358E-01 8.00953E+01-2.11677E-04 3.22760E-05-1.04935E-14-5.04631E-15
 -1       523 9.16133E-01 7.98133E+01-5.02931E-05 2.61204E-05-5.94090E-15 4.26915E-15
 -1       524 1.03048E+00 7.95373E+01 1.26566E-04 1.99066E-05 3.92576E-15-6.07890E-15
 -1       525 1.14365E+00 7.92707E+01 3.17592E-04 1.39155E-05 3.70724E-15-1.73516E-15
 -1       526 1.25375E+00 7.90171E+01 5.19459E-04 8.44148E-06 8.35148E-15 6.81096E-15
 -1       527 3.22528E-03 8.25696E+01 1.73238E-03-3.12674E-05-1.26613E-14 1.28179E-14
 -1       528 2.35823E-02 8.24355E+01-6.15323E-06 7.63925E-05-1.98867E-15 1.18794E-14
 -1       529 6.09873E-02 8.22674E+01-8.17158E-05 5.47621E-05-2.10644E-14-5.03243E-15
 -1       530 1.13131E-01 8.20705E+01-8.96433E-05 5.23453E-05-3.11457E-15-4.21885E-15
 -1       531 1.77950E-01 8.18496E+01-9.38199E-05 4.80368E-05 7.61904E-15-3.70017E-15
 -1       532 2.53656E-01 8.16091E+01-1.01122E-04 4.47439E-05 4.25685E-15 1.69535E-14
 -1       533 3.38723E-01 8.13528E+01-1.09685E-04 4.21655E-05-2.72677E-15 8.73260E-15
 -1       534 4.31804E-01 8.10845E+01-1.18236E-04 4.02858E-05 1.15175E-15-1.49273E-14
 -1       535 5.31645E-01 8.08074E+01-1.25421E-04 3.90275E-05-4.62368E-15 9.26342E-16
 -1       536 6.37012E-01 8.05249E+01-1.30083E-04 3.82686E-05-1.25794E-14-3.13985E-15
 -1       537 7.46626E-01 8.02401E+01-1.31288E-04 3.78603E-05-4.75634E-15-5.21284E-15
 -1       538 8.59106E-01 7.99562E+01-1.28384E-04 3.76309E-05-5.01843E-15-1.24831E-14
 -1       539 9.72940E-01 7.96766E+01-1.21038E-04 3.73971E-05-9.13681E-15 8.55739E-15
 -1       540 1.08646E+00 7.94046E+01-1.09263E-04 3.69723E-05-7.62831E-15-1.33400E-15
 -1       541 1.19786E+00 7.91438E+01-9.34147E-05 3.61876E-05 9.15678E-15 1.35499E-14
 -1       542 1.30519E+00 7.88978E+01-7.43317E-05 3.48357E-05 5.37334E-15-6.49480E-15
 -1       543 1.45711E+00 7.85620E+01 9.39489E-04-2.73411E-07-4.84329E-15-5.22542E-15
 -1       544 1.54614E+00 7.83676E+01 1.13977E-03-2.95625E-06-2.07782E-14 6.88967E-15
 -1       545 1.62393E+00 7.82001E+01 1.32345E-03-4.48939E-06 7.41087E-15-3.17238E-15
 -1       546 1.68863E+00 7.80622E+01 1.48236E-03-4.89107E-06-6.78099E-15-1.26405E-14
 -1       547 1.73866E+00 7.79566E+01 1.60900E-03-4.29341E-06-9.26249E-15 1.02672E-14
 -1       548 1.77274E+00 7.78850E+01 1.69717E-03-2.91094E-06-3.24736E-14-1.77871E-14
 -1       549 1.79001E+00 7.78489E+01 1.74241E-03-1.02768E-06 1.24173E-14 3.16320E-14
 -1       550 1.79001E+00 7.78489E+01 1.74241E-03 1.02768E-06-4.04313E-15 2.85811E-14
 -1       551 1.77274E+00 7.78850E+01 1.69717E-03 2.91094E-06-1.25731E-14-1.35907E-14
 -1       552 1.73866E+00 7.79566E+01 1.60900E-03 4.29341E-06-2.49212E-15-3.84481E-14
 -1       553 1.68863E+00 7.80622E+01 1.48236E-03 4.89107E-06-6.68803E-15-6.23503E-15
 -1       554 1.62393E+00 7.82001E+01 1.32345E-03 4.48939E-06 1.99157E-14 1.48586E-14
 -1       555 1.54614E+00 7.83676E+01 1.13977E-03 2.95625E-06 1.90741E-14-2.32238E-14
 -1       556 1.45711E+00 7.85620E+01 9.39489E-04 2.73411E-07-1.01228E-14 1.59438E-14
 -1       557 1.40661E+00 7.86696E+01-5.43586E-05 3.30123E-05-1.71374E-14 3.19536E-15
 -1       558 1.50005E+00 7.84628E+01-3.19141E-05 3.02704E-05-2.24296E-14-6.45404E-15
 -1       559 1.58324E+00 7.82812E+01-9.57642E-06 2.67876E-05-1.65019E-14-4.84595E-15
 -1       560 1.65429E+00 7.81281E+01 1.11908E-05 2.25334E-05-1.30243E-14-2.69524E-14
 -1       561 1.71150E+00 7.80059E+01 2.90144E-05 1.75862E-05-1.77217E-14 4.34917E-14
 -1       562 1.75344E+00 7.79169E+01 4.26980E-05 1.20665E-05-2.17688E-14-2.01761E-14
 -1       563 1.77904E+00 7.78629E+01 5.13061E-05 6.13925E-06-3.19559E-14 1.25362E-14
 -1       564 1.78765E+00 7.78448E+01 5.42435E-05-9.64940E-16-2.29797E-16-1.94070E-14
 -1       565 1.77904E+00 7.78629E+01 5.13061E-05-6.13926E-06-6.96677E-15 3.77125E-14
 -1       566 1.75344E+00 7.79169E+01 4.26980E-05-1.20665E-05-1.60827E-14 5.27356E-16
 -1       567 1.71150E+00 7.80059E+01 2.90144E-05-1.75862E-05-8.35288E-15 2.87431E-14
 -1       568 1.65429E+00 7.81281E+01 1.11908E-05-2.25334E-05 1.37391E-14 4.99644E-14
 -1       569 1.58324E+00 7.82812E+01-9.57642E-06-2.67876E-05 1.59960E-14 2.66480E-14
 -1       570 1.50005E+00 7.84628E+01-3.19141E-05-3.02704E-05 2.82903E-15-1.08680E-15
 -1       571 1.40661E+00 7.86696E+01-5.43586E-05-3.30123E-05-2.66783E-14 1.15932E-14
 -1       572 1.25375E+00 7.90171E+01 5.19459E-04-8.44148E-06 2.36811E-14 2.36746E-14
 -1       573 1.14365E+00 7.92707E+01 3.17592E-04-1.39155E-05-2.70267E-14 1.34398E-15
 -1       574 1.03048E+00 7.95373E+01 1.26566E-04-1.99066E-05-2.56965E-14-1.27637E-14
 -1       575 9.16133E-01 7.98133E+01-5.02931E-05-2.61204E-05 6.41699E-14 7.26845E-14
 -1       576 8.02358E-01 8.00953E+01-2.11677E-04-3.22760E-05 3.17728E-15 3.25477E-15
 -1       577 6.90738E-01 8.03799E+01-3.58301E-04-3.80991E-05 4.85174E-14-2.07616E-14
 -1       578 5.82712E-01 8.06638E+01-4.92844E-04-4.33398E-05 4.40601E-14 5.04713E-14
 -1       579 4.79593E-01 8.09439E+01-6.19787E-04-4.77841E-05 1.08665E-14 2.09897E-14
 -1       580 3.82618E-01 8.12168E+01-7.45163E-04-5.12587E-05 5.88091E-14 9.77690E-15
 -1       581 2.93006E-01 8.14794E+01-8.76200E-04-5.36496E-05-1.21184E-14-4.83962E-14
 -1       582 2.12028E-01 8.17280E+01-1.02104E-03-5.48764E-05-6.75098E-14 5.31259E-15
 -1       583 1.41093E-01 8.19591E+01-1.18772E-03-5.49131E-05 4.88493E-15 1.04395E-13
 -1       584 8.18294E-02 8.21683E+01-1.38309E-03-5.44865E-05-1.49221E-14 2.47753E-14
 -1       585 3.61810E-02 8.23512E+01-1.57890E-03-4.74091E-05-1.31085E-14-1.05320E-13
 -1       586 7.00768E-03 8.25029E+01-1.10703E-03-8.24712E-05 1.51987E-14 9.94274E-14
 -1       587 1.30519E+00 7.88978E+01-7.43317E-05-3.48357E-05-2.25132E-14 2.18410E-14
 -1       588 1.19786E+00 7.91438E+01-9.34147E-05-3.61876E-05 1.14443E-14 6.57009E-14
 -1       589 1.08646E+00 7.94046E+01-1.09263E-04-3.69723E-05-2.14098E-14-7.02754E-14
 -1       590 9.72940E-01 7.96766E+01-1.21038E-04-3.73971E-05-1.43296E-14-2.80106E-14
 -1       591 8.59106E-01 7.99562E+01-1.28384E-04-3.76309E-05 1.21959E-14-5.77802E-14
 -1       592 7.46626E-01 8.02401E+01-1.31288E-04-3.78603E-05 9.57593E-15 7.75057E-14
 -1       593 6.37012E-01 8.05249E+01-1.30083E-04-3.82686E-05 3.80521E-14-6.25801E-14
 -1       594 5.31645E-01 8.08074E+01-1.25421E-04-3.90275E-05 6.01280E-14-1.41380E-15
 -1       595 4.31804E-01 8.10845E+01-1.18236E-04-4.02858E-05 5.42025E-14-9.08995E-16
 -1       596 3.38723E-01 8.13528E+01-1.09685E-04-4.21655E-05 3.00736E-14-6.59178E-14
 -1       597 2.53656E-01 8.16091E+01-1.01122E-04-4.47439E-05-3.37487E-14-8.13134E-14
 -1       598 1.77950E-01 8.18496E+01-9.38199E-05-4.80368E-05-2.77282E-14 5.51330E-14
 -1       599 1.13131E-01 8.20705E+01-8.96433E-05-5.23453E-05 4.73976E-14-9.29569E-14
 -1       600 6.09873E-02 8.22674E+01-8.17158E-05-5.47621E-05-2.67644E-14 1.36534E-13
 -1       601 2.35823E-02 8.24355E+01-6.15323E-06-7.63925E-05-3.18605E-14-7.08149E-14
 -1       602 3.22528E-03 8.25696E+01 1.73238E-03 3.12674E-05 6.19893E-14 2.43468E-14
 -1       603-3.12631E-03 8.26301E+01 8.15612E-03-3.32029E-04-1.41868E-14-1.41777E-14
 -1       604-3.00249E-03 8.26603E+01 8.69721E-03-6.63822E-04-4.88250E-14-3.02395E-14
 -1       605-2.79267E-03 8.27103E+01 9.60133E-03-9.94899E-04 2.32086E-14 8.58363E-15
 -1       606-2.49177E-03 8.27796E+01 1.08714E-02-1.32429E-03 2.94374E-14-3.48501E-14
 -1       607-2.09275E-03 8.28674E+01 1.25109E-02-1.65025E-03 6.93319E-14-3.80501E-14
 -1       608-1.58689E-03 8.29727E+01 1.45224E-02-1.97001E-03-8.53948E-14 2.56591E-14
 -1       609-9.63931E-04 8.30941E+01 1.69066E-02-2.27940E-03 2.82508E-14-1.18501E-13
 -1       610-2.12574E-04 8.32297E+01 1.96610E-02-2.57255E-03 2.90809E-14 1.53365E-14
 -1       611 6.79007E-04 8.33775E+01 2.27768E-02-2.84148E-03 1.79527E-14 5.46828E-15
 -1       612 1.72234E-03 8.35346E+01 2.62373E-02-3.07577E-03-6.44281E-14-5.58193E-14
 -1       613 2.92753E-03 8.36978E+01 3.00138E-02-3.26212E-03-2.53144E-14 9.80550E-14
 -1       614 4.30181E-03 8.38631E+01 3.40623E-02-3.38406E-03-3.23179E-14-3.36107E-14
 -1       615 5.84763E-03 8.40257E+01 3.83189E-02-3.42174E-03 5.63828E-15 8.96392E-14
 -1       616 7.56030E-03 8.41803E+01 4.26947E-02-3.35185E-03 1.49147E-13-7.31993E-14
 -1       617 9.42511E-03 8.43203E+01 4.70706E-02-3.14783E-03-4.96526E-14 6.93360E-14
 -1       618 1.14141E-02 8.44386E+01 5.12924E-02-2.78054E-03 8.39190E-14 1.52562E-13
 -1       619 1.34825E-02 8.45273E+01 5.51654E-02-2.21937E-03 7.88866E-16-7.05959E-14
 -1       620 1.55649E-02 8.45776E+01 5.84520E-02-1.43409E-03-3.35785E-14-6.64954E-14
 -1       621 1.75726E-02 8.45803E+01 6.08694E-02-3.97528E-04 3.19518E-13 3.02583E-14
 -1       622 1.93909E-02 8.45259E+01 6.20933E-02 9.10953E-04-1.79617E-13-2.17055E-13
 -1       623 2.08790E-02 8.44053E+01 6.17645E-02 2.50097E-03 2.64793E-13-1.78886E-13
 -1       624 2.18723E-02 8.42099E+01 5.95033E-02 4.36599E-03 4.72417E-14-1.69710E-13
 -1       625 2.21893E-02 8.39328E+01 5.49313E-02 6.47788E-03-1.50470E-14-5.30886E-14
 -1       626 2.16420E-02 8.35689E+01 4.77018E-02 8.78169E-03-1.49986E-13-5.58338E-14
 -1       627 2.00528E-02 8.31163E+01 3.75388E-02 1.11918E-02 1.03161E-13-1.59293E-13
 -1       628 1.72756E-02 8.25772E+01 2.42820E-02 1.35900E-02-3.23040E-14 1.09667E-13
 -1       629 1.32234E-02 8.19582E+01 7.93697E-03 1.58283E-02 9.04121E-14 5.53887E-14
 -1       630 7.89184E-03 8.12711E+01-1.12787E-02 1.77341E-02 2.18905E-14-2.09226E-13
 -1       631-2.10610E-03 8.26281E+01 9.13976E-03-9.99378E-05 5.89211E-14 1.50101E-13
 -1       632-2.03535E-03 8.26483E+01 9.48841E-03-2.99848E-04-1.08091E-13 1.01089E-13
 -1       633-1.89228E-03 8.26884E+01 1.01866E-02-4.99791E-04 1.27879E-13-3.41526E-14
 -1       634-1.67379E-03 8.27480E+01 1.12357E-02-6.99546E-04-3.92932E-14-7.14077E-14
 -1       635-1.37531E-03 8.28265E+01 1.26375E-02-8.98525E-04-5.03868E-14-7.15890E-14
 -1       636-9.90900E-04 8.29230E+01 1.43928E-02-1.09560E-03-2.47823E-14-2.73115E-14
 -1       637-5.13488E-04 8.30363E+01 1.65008E-02-1.28892E-03 6.33538E-14 8.96978E-14
 -1       638 6.48954E-05 8.31647E+01 1.89577E-02-1.47570E-03-2.27587E-14-7.08986E-14
 -1       639 7.52691E-04 8.33063E+01 2.17545E-02-1.65201E-03-1.30295E-14 1.35435E-13
 -1       640 1.55824E-03 8.34587E+01 2.48750E-02-1.81253E-03 7.46330E-14-5.20356E-14
 -1       641 2.48899E-03 8.36187E+01 2.82929E-02-1.95028E-03-3.29875E-14-1.03952E-13
 -1       642 3.55045E-03 8.37828E+01 3.19686E-02-2.05641E-03-9.01241E-14 1.05896E-14
 -1       643 4.74485E-03 8.39466E+01 3.58454E-02-2.11998E-03-8.82176E-14-1.08516E-14
 -1       644 6.06939E-03 8.41051E+01 3.98450E-02-2.12783E-03-1.04942E-13 3.53780E-14
 -1       645 7.51424E-03 8.42522E+01 4.38635E-02-2.06458E-03 1.21118E-14-8.11946E-14
 -1       646 9.06004E-03 8.43811E+01 4.77661E-02-1.91284E-03 9.52858E-14 2.18854E-13
 -1       647 1.06753E-02 8.44844E+01 5.13837E-02-1.65366E-03-1.33224E-13 1.24635E-13
 -1       648 1.23135E-02 8.45536E+01 5.45090E-02-1.26739E-03 1.65705E-13-8.54108E-14
 -1       649 1.39107E-02 8.45799E+01 5.68956E-02-7.35014E-04-9.74504E-14-4.10800E-14
 -1       650 1.53833E-02 8.45538E+01 5.82591E-02-4.00175E-05 5.18296E-14-1.55426E-13
 -1       651 1.66272E-02 8.44661E+01 5.82826E-02 8.29118E-04-3.72568E-13-1.20961E-13
 -1       652 1.75192E-02 8.43080E+01 5.66272E-02 1.87588E-03 1.66799E-13-3.60901E-13
 -1       653 1.79202E-02 8.40716E+01 5.29494E-02 3.09224E-03-2.46530E-13-3.74421E-13
 -1       654 1.76827E-02 8.37510E+01 4.69254E-02 4.45511E-03-1.69437E-13-1.58642E-13
 -1       655 1.66617E-02 8.33429E+01 3.82830E-02 5.92309E-03 3.89480E-14-2.02021E-13
 -1       656 1.47300E-02 8.28473E+01 2.68397E-02 7.43435E-03-3.82749E-14 4.68280E-14
 -1       657 1.17982E-02 8.22685E+01 1.25456E-02 8.90597E-03 3.51656E-13 3.75455E-14
 -1       658 7.82762E-03 8.16158E+01-4.48010E-03 1.02388E-02 2.51403E-13-1.13520E-13
 -1       659 2.90367E-03 8.09039E+01-2.38780E-02 1.12972E-02 1.32998E-13-1.28414E-13
 -1       660-6.46504E-03 7.97295E+01-5.74126E-02 2.03389E-02-1.82354E-13 1.34161E-13
 -1       661-1.50120E-02 7.89255E+01-8.27419E-02 2.01189E-02-1.76265E-14 2.83099E-13
 -1       662-2.36427E-02 7.81564E+01-1.07448E-01 1.88314E-02-2.41886E-13 4.81734E-13
 -1       663-3.17099E-02 7.74580E+01-1.30037E-01 1.64579E-02 3.10604E-13 2.98544E-13
 -1       664-3.85489E-02 7.68643E+01-1.49016E-01 1.30818E-02 5.00277E-14 3.13502E-13
 -1       665-4.35526E-02 7.64045E+01-1.63067E-01 8.89549E-03-1.48878E-13 2.04446E-13
 -1       666-4.62592E-02 7.60997E+01-1.71210E-01 4.18579E-03 2.25078E-13 2.06403E-13
 -1       667-4.64200E-02 7.59612E+01-1.72924E-01-6.95959E-04 2.55128E-14 4.38434E-14
 -1       668-4.40380E-02 7.59887E+01-1.68227E-01-5.37525E-03-1.78270E-13 2.83844E-13
 -1       669-3.93680E-02 7.61707E+01-1.57670E-01-9.50004E-03 1.81861E-13 8.59746E-14
 -1       670-3.28788E-02 7.64857E+01-1.42268E-01-1.27823E-02-2.84469E-13 4.99453E-14
 -1       671-2.51851E-02 7.69042E+01-1.23376E-01-1.50281E-02 5.33480E-14 1.40435E-13
 -1       672-1.69615E-02 7.73919E+01-1.02525E-01-1.61517E-02 1.26784E-13 2.34890E-14
 -1       673-8.86370E-03 7.79128E+01-8.12510E-02-1.61695E-02 4.36524E-13 3.04525E-13
 -1       674-3.06560E-03 8.01338E+01-4.56863E-02 1.18087E-02-3.75033E-13 4.15140E-13
 -1       675-9.81404E-03 7.93306E+01-6.90873E-02 1.19926E-02 2.06113E-13 3.01441E-13
 -1       676-1.67888E-02 7.85448E+01-9.24357E-02 1.15929E-02 1.87066E-13 2.60424E-13
 -1       677-2.35615E-02 7.78118E+01-1.14454E-01 1.05319E-02-3.98556E-13 3.42257E-13
 -1       678-2.96003E-02 7.71663E+01-1.33779E-01 8.82693E-03 1.76324E-13 1.43569E-13
 -1       679-3.43999E-02 7.66401E+01-1.49138E-01 6.55934E-03 1.45849E-13 3.47430E-14
 -1       680-3.75352E-02 7.62581E+01-1.59495E-01 3.87603E-03-4.74636E-13 3.64465E-14
 -1       681-3.87242E-02 7.60365E+01-1.64172E-01 9.74981E-04 7.19335E-13 1.12098E-13
 -1       682-3.78695E-02 7.59809E+01-1.62946E-01-1.91746E-03-3.32469E-13-1.02768E-13
 -1       683-3.50738E-02 7.60854E+01-1.56072E-01-4.57475E-03-2.58286E-13-5.50497E-14
 -1       684-3.06248E-02 7.63334E+01-1.44259E-01-6.79830E-03-1.00175E-12-2.78250E-15
 -1       685-2.49538E-02 7.66995E+01-1.28580E-01-8.44031E-03 5.77836E-14 2.73382E-13
 -1       686-1.85737E-02 7.71519E+01-1.10342E-01-9.41825E-03 2.06734E-13 2.01485E-13
 -1       687-1.20237E-02 7.76554E+01-9.09475E-02-9.71358E-03-1.38538E-13 6.37268E-14
 -1       688-5.74534E-03 7.81746E+01-7.17181E-02-9.40109E-03 6.35741E-14 2.48282E-13
 -1       689 4.44366E-03 7.88961E+01-4.37946E-02-1.31722E-02 4.82779E-13 2.33747E-13
 -1       690 9.15514E-03 7.93084E+01-2.92638E-02-1.09607E-02-2.62139E-13 2.22371E-13
 -1       691 1.25025E-02 7.96515E+01-1.79631E-02-8.37308E-03 3.30725E-15 4.67195E-13
 -1       692 1.44721E-02 7.99141E+01-1.01622E-02-5.57859E-03-2.97013E-13 7.18150E-13
 -1       693 1.51349E-02 8.00904E+01-5.92268E-03-2.72121E-03-3.25625E-14 1.84772E-13
 -1       694 1.46180E-02 8.01795E+01-5.14682E-03 8.62130E-05 2.59913E-13 3.32738E-13
 -1       695 1.30761E-02 8.01847E+01-7.62899E-03 2.76473E-03-5.14315E-14-1.14653E-13
 -1       696 1.06703E-02 8.01127E+01-1.31031E-02 5.26799E-03 9.57023E-13 6.38855E-13
 -1       697 7.54880E-03 7.99730E+01-2.12849E-02 7.57890E-03 2.45271E-13-1.42252E-13
 -1       698 3.83417E-03 7.97769E+01-3.19064E-02 9.70524E-03-6.76808E-13-4.09212E-13
 -1       699-3.86466E-04 7.95374E+01-4.47438E-02 1.16752E-02-1.29976E-13-2.73264E-13
 -1       700-5.06847E-03 7.92683E+01-5.96394E-02 1.35336E-02 3.36736E-13-1.64771E-13
 -1       701-1.02162E-02 7.89844E+01-7.65199E-02 1.53394E-02-4.90597E-13-2.69737E-13
 -1       702-1.58909E-02 7.87011E+01-9.54149E-02 1.71652E-02-9.19560E-14 3.19736E-13
 -1       703-2.22232E-02 7.84351E+01-1.16479E-01 1.90986E-02-5.59185E-13 4.50820E-13
 -1       704-2.94345E-02 7.82044E+01-1.40022E-01 2.12460E-02-8.61000E-14 4.10403E-13
 -1       705-3.78708E-02 7.80292E+01-1.66560E-01 2.37417E-02 4.96711E-13-2.17638E-13
 -1       706-4.80787E-02 7.79330E+01-1.96893E-01 2.67593E-02-8.80848E-14-1.39775E-13
 -1       707-6.08721E-02 7.79446E+01-2.32235E-01 3.05411E-02 4.30837E-13 5.51630E-13
 -1       708-7.77614E-02 7.81004E+01-2.74521E-01 3.54063E-02-9.41087E-14 2.25079E-13
 -1       709-1.00471E-01 7.84494E+01-3.26564E-01 4.19264E-02-6.56419E-13 1.02834E-14
 -1       710-1.35789E-01 7.90593E+01-3.94385E-01 5.05288E-02 7.12451E-14-1.33588E-13
 -1       711-1.80505E-01 8.00346E+01-4.83115E-01 6.36351E-02-4.49821E-13 6.55066E-14
 -1       712-3.01601E-01 8.15220E+01-6.29598E-01 7.71194E-02 4.75717E-13 3.96419E-14
 -1       713-3.23617E-01 8.38335E+01-7.97099E-01 1.09302E-01-5.51684E-13 2.81671E-13
 -1       714-1.36076E+00 8.72839E+01-1.46415E+00 7.22145E-02 7.60073E-13 4.41550E-13
 -1       715 2.65567E-01 9.22641E+01-1.87748E+00 6.15942E-01-9.19820E-14-1.76914E-13
 -1       716-5.90817E+00 1.15809E+02-2.64403E+00 1.00930E+00-5.47673E-13-2.68327E-13
 -1       717-2.84284E-04 7.86655E+01-5.42328E-02-8.68603E-03 3.75890E-13 2.38981E-13
 -1       718 4.08932E-03 7.91034E+01-3.93376E-02-7.45429E-03 4.61207E-13 1.51162E-13
 -1       719 7.43596E-03 7.94807E+01-2.71400E-02-5.92437E-03 3.54525E-13 4.63473E-13
 -1       720 9.66447E-03 7.97833E+01-1.80452E-02-4.22804E-03 3.91815E-13 7.79325E-13
 -1       721 1.07990E-02 8.00026E+01-1.22239E-02-2.46237E-03 2.02871E-13 5.56795E-13
 -1       722 1.09143E-02 8.01353E+01-9.68250E-03-7.07269E-04-1.39492E-13 4.07001E-13
 -1       723 1.01205E-02 8.01825E+01-1.03013E-02 9.79139E-04-3.79126E-13 2.80185E-13
 -1       724 8.54214E-03 8.01493E+01-1.38790E-02 2.56026E-03 9.47419E-15 4.11212E-13
 -1       725 6.30211E-03 8.00437E+01-2.01736E-02 4.01919E-03-1.08417E-13 8.37481E-14
 -1       726 3.50898E-03 7.98762E+01-2.89374E-02 5.35595E-03 5.32366E-13-2.08088E-13
 -1       727 2.47632E-04 7.96588E+01-3.99457E-02 6.58450E-03-4.82074E-13-1.29384E-13
 -1       728-3.42748E-03 7.94049E+01-5.30201E-02 7.73009E-03-3.24185E-14 1.78243E-14
 -1       729-7.49777E-03 7.91289E+01-6.80475E-02 8.82738E-03 3.87393E-13-2.70443E-15
 -1       730-1.19862E-02 7.88459E+01-8.49965E-02 9.91959E-03 7.56794E-13 4.61589E-13
 -1       731-1.69652E-02 7.85719E+01-1.03935E-01 1.10591E-02-1.02019E-13 4.17628E-13
 -1       732-2.25693E-02 7.83243E+01-1.25054E-01 1.23100E-02-5.44025E-13 4.23179E-13
 -1       733-2.90165E-02 7.81223E+01-1.48697E-01 1.37523E-02 6.47991E-13 2.38906E-14
 -1       734-3.66490E-02 7.79879E+01-1.75415E-01 1.54918E-02 4.61623E-13-1.73563E-13
 -1       735-4.59875E-02 7.79473E+01-2.06044E-01 1.76722E-02 8.70978E-13 3.45148E-13
 -1       736-5.79091E-02 7.80333E+01-2.41860E-01 2.05090E-02-1.67085E-13 4.37837E-13
 -1       737-7.36449E-02 7.82891E+01-2.84797E-01 2.43002E-02-3.73295E-13 1.13971E-13
 -1       738-9.62905E-02 7.87745E+01-3.38081E-01 2.96649E-02-1.71335E-13 3.67067E-14
 -1       739-1.27260E-01 7.95760E+01-4.06409E-01 3.69968E-02 2.85993E-13 4.23134E-14
 -1       740-1.89157E-01 8.08321E+01-5.01960E-01 5.01251E-02 1.00005E-12 2.97956E-13
 -1       741-2.38769E-01 8.27636E+01-6.29107E-01 5.98789E-02 2.20379E-14 2.02921E-13
 -1       742-6.17250E-01 8.58436E+01-8.98175E-01 1.31244E-01 3.31901E-13 5.52225E-13
 -1       743-2.69494E-02 9.09417E+01-1.03703E+00-5.83061E-02 3.11307E-13 1.37113E-14
 -1       744-6.91550E+00 9.83539E+01-4.27317E+00 1.55837E+00 4.15223E-13-5.36071E-13
 -1       745 1.91958E+01 1.52461E+02 6.95631E+00-1.98600E+01 3.02425E-13-2.44249E-13
 -1       746 3.02327E+01 1.00466E+02 3.10560E-01-2.27555E+01 5.41039E-13 1.86517E-13
 -1       747 2.81653E+01 9.29874E+01 8.97055E-01-1.91502E+01 1.11932E-13-3.14110E-13
 -1       748 2.59109E+01 8.62012E+01 1.68524E-01-1.65595E+01-1.12647E-12-4.27561E-13
 -1       749 2.50739E+01 8.33411E+01 2.38718E-01-1.46412E+01-1.81223E-13 3.65298E-13
 -1       750 2.44362E+01 8.12677E+01 1.86490E-01-1.30696E+01 7.81535E-13 3.71154E-13
 -1       751 2.39978E+01 7.98242E+01 1.68459E-01-1.17311E+01 1.14752E-14-8.38322E-14
 -1       752 2.36610E+01 7.87203E+01 1.49943E-01-1.05570E+01 1.60586E-13-3.39492E-13
 -1       753 2.33943E+01 7.78448E+01 1.36268E-01-9.50637E+00-7.26536E-13 1.85171E-13
 -1       754 2.31743E+01 7.71231E+01 1.24725E-01-8.55377E+00-1.75732E-13 1.34961E-14
 -1       755 2.29880E+01 7.65116E+01 1.15006E-01-7.68162E+00-7.98905E-13-1.16181E-13
 -1       756 2.28266E+01 7.59821E+01 1.06590E-01-6.87736E+00-4.67379E-13-6.70184E-13
 -1       757 2.26846E+01 7.55162E+01 9.92109E-02-6.13156E+00 2.32699E-13 5.61681E-13
 -1       758 2.25584E+01 7.51022E+01 9.26703E-02-5.43684E+00-5.01268E-13-3.87745E-14
 -1       759 2.24457E+01 7.47324E+01 8.68411E-02-4.78722E+00-2.46458E-13 3.58338E-13
 -1       760 2.23451E+01 7.44021E+01 8.16402E-02-4.17757E+00-3.44618E-13 2.90104E-13
 -1       761 4.27562E+01 1.34588E+02 7.93514E+00-3.37254E+01 6.49258E-13 1.95399E-13
 -1       762 2.81143E+01 9.40006E+01-2.85255E-01-2.03809E+01 9.34780E-13-3.41838E-13
 -1       763 2.68518E+01 8.90486E+01 4.57822E-01-1.76920E+01-1.65729E-13-1.91291E-13
 -1       764 2.54286E+01 8.45587E+01 2.03850E-01-1.55199E+01 2.74607E-13-3.82777E-13
 -1       765 2.47213E+01 8.21971E+01 2.07631E-01-1.38110E+01 1.85615E-13 7.64749E-13
 -1       766 2.41976E+01 8.04843E+01 1.74541E-01-1.23717E+01 1.39874E-12-3.48430E-13
 -1       767 2.38174E+01 7.92346E+01 1.57089E-01-1.11239E+01-2.39544E-13 4.94604E-14
 -1       768 2.35199E+01 7.82583E+01 1.41720E-01-1.00166E+01-6.52985E-13 1.13680E-13
 -1       769 2.32791E+01 7.74678E+01 1.29504E-01-9.01822E+00 2.61249E-14-2.56468E-13
 -1       770 2.30776E+01 7.68062E+01 1.19137E-01-8.10804E+00 4.36002E-13 6.61020E-13
 -1       771 2.29047E+01 7.62389E+01 1.10241E-01-7.27140E+00-4.79266E-13-5.71133E-13
 -1       772 2.27537E+01 7.57433E+01 1.02459E-01-6.49754E+00-2.63055E-13-1.01169E-14
 -1       773 2.26200E+01 7.53047E+01 9.55770E-02-5.77819E+00 6.46811E-13 4.62495E-13
 -1       774 2.25009E+01 7.49136E+01 8.94433E-02-5.10676E+00 2.40898E-13-6.58404E-13
 -1       775 2.23944E+01 7.45641E+01 8.39606E-02-4.47776E+00 1.15399E-13 7.80345E-13
 -1       776 2.22994E+01 7.42525E+01 7.90681E-02-3.88640E+00 1.22409E-12-2.89688E-13
 -1       777 2.21768E+01 7.38497E+01 7.29387E-02-3.05834E+00 2.41903E-14 1.13882E-13
 -1       778 2.21087E+01 7.36262E+01 6.94092E-02-2.54070E+00 5.91422E-13 5.96638E-13
 -1       779 2.20514E+01 7.34384E+01 6.64366E-02-2.04641E+00 3.00065E-13-6.54940E-13
 -1       780 2.20053E+01 7.32869E+01 6.40325E-02-1.57140E+00 2.86308E-13-1.28996E-13
 -1       781 2.19704E+01 7.31724E+01 6.22117E-02-1.11152E+00 3.77172E-14 5.02221E-13
 -1       782 2.19470E+01 7.30957E+01 6.09884E-02-6.62530E-01 4.22160E-13-2.18899E-13
 -1       783 2.19352E+01 7.30572E+01 6.03738E-02-2.20111E-01 3.43941E-13-8.59754E-14
 -1       784 2.19352E+01 7.30572E+01 6.03738E-02 2.20111E-01-6.23182E-14-2.00517E-13
 -1       785 2.19470E+01 7.30957E+01 6.09884E-02 6.62530E-01-4.72148E-14 1.76408E-13
 -1       786 2.19704E+01 7.31724E+01 6.22117E-02 1.11152E+00-6.09404E-13-3.66613E-13
 -1       787 2.20053E+01 7.32869E+01 6.40325E-02 1.57140E+00-4.41914E-13 3.13373E-14
 -1       788 2.20514E+01 7.34384E+01 6.64366E-02 2.04641E+00-5.58829E-13 6.09946E-13
 -1       789 2.21087E+01 7.36262E+01 6.94092E-02 2.54070E+00-1.04878E-12-4.39358E-13
 -1       790 2.21768E+01 7.38497E+01 7.29387E-02 3.05834E+00 8.90377E-14 2.12439E-13
 -1       791 2.22153E+01 7.39764E+01 7.47239E-02-3.32727E+00-2.42476E-13-1.66634E-13
 -1       792 2.21418E+01 7.37352E+01 7.09200E-02-2.79644E+00-9.37283E-13-1.17543E-13
 -1       793 2.20791E+01 7.35295E+01 6.76657E-02-2.29098E+00 7.87894E-14 7.32929E-13
 -1       794 2.20274E+01 7.33598E+01 6.49715E-02-1.80683E+00 6.08253E-13-8.09018E-13
 -1       795 2.19868E+01 7.32267E+01 6.28526E-02-1.33989E+00 1.40665E-12 4.84828E-13
 -1       796 2.19577E+01 7.31310E+01 6.13248E-02-8.85974E-01 1.97492E-12-1.87619E-13
 -1       797 2.19401E+01 7.30732E+01 6.04021E-02-4.40793E-01 6.48414E-13-1.46049E-13
 -1       798 2.19342E+01 7.30540E+01 6.00934E-02-4.43480E-12-8.91341E-13 7.23185E-13
 -1       799 2.19401E+01 7.30732E+01 6.04021E-02 4.40793E-01-7.31776E-14-4.60962E-13
 -1       800 2.19577E+01 7.31310E+01 6.13248E-02 8.85974E-01 1.60878E-14 1.21427E-13
 -1       801 2.19868E+01 7.32267E+01 6.28526E-02 1.33989E+00 2.67755E-14-7.33003E-13
 -1       802 2.20274E+01 7.33598E+01 6.49715E-02 1.80683E+00 9.63500E-14 7.26164E-13
 -1       803 2.20791E+01 7.35295E+01 6.76657E-02 2.29098E+00-9.05283E-13-9.27800E-13
 -1       804 2.21418E+01 7.37352E+01 7.09200E-02 2.79644E+00 4.77439E-13 6.27397E-13
 -1       805 2.22153E+01 7.39764E+01 7.47239E-02 3.32727E+00-9.99294E-13 8.70345E-14
 -1       806 2.23451E+01 7.44021E+01 8.16402E-02 4.17757E+00 1.25071E-12 3.82402E-13
 -1       807 2.24457E+01 7.47324E+01 8.68411E-02 4.78722E+00-1.45760E-14-9.62131E-13
 -1       808 2.25584E+01 7.51022E+01 9.26703E-02 5.43684E+00 2.51305E-13 3.66606E-13
 -1       809 2.26846E+01 7.55162E+01 9.92109E-02 6.13156E+00-2.62145E-13 3.03072E-13
 -1       810 2.28266E+01 7.59821E+01 1.06590E-01 6.87736E+00 5.06552E-13 1.03023E-13
 -1       811 2.29880E+01 7.65116E+01 1.15006E-01 7.68162E+00 7.07974E-13-2.92650E-13
 -1       812 2.31743E+01 7.71231E+01 1.24725E-01 8.55377E+00-7.24585E-13 1.73091E-14
 -1       813 2.33943E+01 7.78448E+01 1.36268E-01 9.50637E+00-1.34880E-13-4.78298E-14
 -1       814 2.36610E+01 7.87203E+01 1.49943E-01 1.05570E+01-7.19909E-13-5.13971E-13
 -1       815 2.39978E+01 7.98242E+01 1.68459E-01 1.17311E+01-8.05606E-15 2.79585E-13
 -1       816 2.44362E+01 8.12677E+01 1.86490E-01 1.30696E+01-1.75410E-13 4.27505E-13
 -1       817 2.50739E+01 8.33411E+01 2.38718E-01 1.46412E+01-1.78219E-13 2.37754E-13
 -1       818 2.59109E+01 8.62012E+01 1.68524E-01 1.65595E+01 4.59775E-13 3.88342E-13
 -1       819 2.81653E+01 9.29874E+01 8.97055E-01 1.91502E+01-2.28592E-13-6.60055E-13
 -1       820 3.02327E+01 1.00466E+02 3.10560E-01 2.27555E+01-3.81500E-13 1.53211E-13
 -1       821 2.22994E+01 7.42525E+01 7.90681E-02 3.88640E+00 4.33207E-13 3.10720E-13
 -1       822 2.23944E+01 7.45641E+01 8.39606E-02 4.47776E+00 4.16289E-13-8.11049E-13
 -1       823 2.25009E+01 7.49136E+01 8.94433E-02 5.10676E+00-1.23300E-12 4.30572E-13
 -1       824 2.26200E+01 7.53047E+01 9.55770E-02 5.77819E+00-7.41612E-14-2.14079E-13
 -1       825 2.27537E+01 7.57433E+01 1.02459E-01 6.49754E+00 5.21593E-13 1.18280E-13
 -1       826 2.29047E+01 7.62389E+01 1.10241E-01 7.27140E+00 8.75609E-13-9.87405E-15
 -1       827 2.30776E+01 7.68062E+01 1.19137E-01 8.10804E+00 1.29295E-12-2.53915E-13
 -1       828 2.32791E+01 7.74678E+01 1.29504E-01 9.01822E+00-4.28435E-13 2.23745E-13
 -1       829 2.35199E+01 7.82583E+01 1.41720E-01 1.00166E+01-9.42087E-13-3.37064E-13
 -1       830 2.38174E+01 7.92346E+01 1.57089E-01 1.11239E+01-9.24073E-13 3.81570E-13
 -1       831 2.41976E+01 8.04843E+01 1.74541E-01 1.23717E+01 2.66162E-13-4.14904E-13
 -1       832 2.47213E+01 8.21971E+01 2.07631E-01 1.38110E+01-5.52322E-13 4.84196E-13
 -1       833 2.54286E+01 8.45587E+01 2.03850E-01 1.55199E+01 3.42358E-13 1.34698E-13
 -1       834 2.68518E+01 8.90486E+01 4.57822E-01 1.76920E+01 7.13034E-13-1.70475E-13
 -1       835 2.81143E+01 9.40006E+01-2.85255E-01 2.03809E+01-1.25944E-12-1.56208E-13
 -1       836 4.27562E+01 1.34588E+02 7.93514E+00 3.37254E+01 8.85958E-14 6.30607E-13
 -1       837-6.33668E+00 8.96180E+01 4.53331E-03-1.89990E+00-1.49727E-13 6.06425E-14
 -1       838-5.00591E+00 8.92478E+01 1.62005E-02-4.44484E-01 7.69385E-14-8.26249E-14
 -1       839-3.84202E+00 8.85311E+01 2.04963E-02 5.16368E-01-3.93678E-14-9.67238E-14
 -1       840-2.88491E+00 8.76623E+01 2.02092E-02 1.11060E+00 1.21202E-13 1.35780E-13
 -1       841-2.12847E+00 8.67495E+01 1.78169E-02 1.44744E+00-1.75845E-13 8.81933E-14
 -1       842-1.54755E+00 8.58470E+01 1.47284E-02 1.61049E+00-4.29125E-13-1.21552E-13
 -1       843-1.11098E+00 8.49774E+01 1.16571E-02 1.65970E+00 2.31544E-13-8.35026E-14
 -1       844-7.88276E-01 8.41464E+01 8.92313E-03 1.63591E+00 2.21524E-15 1.79991E-13
 -1       845-5.52517E-01 8.33515E+01 6.63448E-03 1.56536E+00 1.57722E-13 6.92970E-14
 -1       846-3.81277E-01 8.25868E+01 4.80127E-03 1.46317E+00 8.71065E-14-2.86923E-14
 -1       847-2.56632E-01 8.18461E+01 3.39865E-03 1.33567E+00 2.15834E-13 6.68562E-15
 -1       848-1.64875E-01 8.11245E+01 2.40089E-03 1.18174E+00 8.06485E-14-2.10294E-13
 -1       849-9.62505E-02 8.04198E+01 1.79601E-03 9.93189E-01-2.17847E-13 1.73172E-13
 -1       850-4.50578E-02 7.97336E+01 1.39014E-03 7.54372E-01 9.32110E-14-6.37840E-14
 -1       851-1.28176E-02 7.90708E+01-2.85217E-03 4.40861E-01 2.99242E-13-2.63570E-13
 -1       852-6.97543E+00 8.96008E+01 1.39897E-02-2.89927E+00 1.12133E-14-1.45717E-15
 -1       853-5.64919E+00 8.94949E+01 1.29100E-02-1.14719E+00-1.45328E-13-9.76372E-14
 -1       854-4.41752E+00 8.89117E+01 1.18143E-02 5.06645E-02 3.71717E-13-3.30430E-14
 -1       855-3.36617E+00 8.80975E+01 9.83508E-03 8.20682E-01-3.53745E-13 1.23798E-13
 -1       856-2.51324E+00 8.71971E+01 7.86386E-03 1.28125E+00 2.16792E-13-5.33063E-14
 -1       857-1.84556E+00 8.62864E+01 6.09345E-03 1.52813E+00-2.29775E-13 2.92058E-14
 -1       858-1.33637E+00 8.54007E+01 4.61951E-03 1.63251E+00 1.50213E-13-3.76782E-15
 -1       859-9.55680E-01 8.45523E+01 3.43893E-03 1.64433E+00 9.25371E-14-1.82042E-14
 -1       860-6.75238E-01 8.37417E+01 2.51547E-03 1.59683E+00 5.34638E-13 4.82357E-14
 -1       861-4.70609E-01 8.29641E+01 1.80300E-03 1.51047E+00 3.24506E-13 4.56857E-14
 -1       862-3.21737E-01 8.22133E+01 1.25811E-03 1.39588E+00 1.46000E-13-1.87420E-14
 -1       863-2.12874E-01 8.14834E+01 8.44945E-04 1.25560E+00-3.40977E-13-1.37203E-13
 -1       864-1.32341E-01 8.07709E+01 5.36153E-04 1.08499E+00-4.26933E-14 8.52929E-14
 -1       865-7.23981E-02 8.00752E+01 2.82931E-04 8.72137E-01 4.92285E-13 1.53905E-14
 -1       866-2.92623E-02 7.94003E+01-4.22853E-04 5.97163E-01 1.38101E-14-1.25192E-13
 -1       867-1.69014E-03 7.87544E+01-1.12244E-02 2.30194E-01 2.00881E-13-5.22117E-14
 -1       868-6.74890E+00 8.89689E+01 4.09879E-03 1.12110E+00-8.28504E-15-2.10595E-15
 -1       869-5.37201E+00 8.86789E+01 1.59526E-02-4.10876E-01 1.46029E-13-1.02876E-13
 -1       870-4.15957E+00 8.80544E+01 2.04284E-02-1.44169E+00-1.19849E-13-6.12626E-14
 -1       871-3.15317E+00 8.72912E+01 2.03151E-02-2.09669E+00 1.01027E-13 1.07313E-13
 -1       872-2.34844E+00 8.64989E+01 1.80802E-02-2.48258E+00 2.55625E-13 3.40871E-14
 -1       873-1.72177E+00 8.57326E+01 1.51273E-02-2.68040E+00-1.02661E-14 1.53727E-14
 -1       874-1.24334E+00 8.50161E+01 1.21666E-02-2.74740E+00 2.06881E-13 9.41122E-14
 -1       875-8.83728E-01 8.43557E+01 9.51453E-03-2.72159E+00-2.04562E-13-1.40538E-13
 -1       876-6.16841E-01 8.37489E+01 7.27506E-03-2.62622E+00-1.11447E-13-4.24244E-14
 -1       877-4.20739E-01 8.31894E+01 5.45428E-03-2.47335E+00-9.40450E-14 6.85493E-14
 -1       878-2.77631E-01 8.26700E+01 4.02364E-03-2.26624E+00 7.14568E-14-4.46952E-14
 -1       879-1.73544E-01 8.21842E+01 2.95500E-03-2.00081E+00 1.75936E-13 2.09711E-14
 -1       880-9.80330E-02 8.17275E+01 2.24016E-03-1.66611E+00-1.99936E-13 1.43900E-13
 -1       881-4.41962E-02 8.12986E+01 1.78809E-03-1.24407E+00 1.75084E-13-8.76105E-14
 -1       882-1.06544E-02 8.08998E+01-6.04051E-04-7.08241E-01 3.08469E-14-1.96261E-13
 -1       883-7.40907E+00 8.89159E+01 1.35484E-02 2.16101E+00 1.66533E-14-1.00406E-13
 -1       884-6.03877E+00 8.88845E+01 1.25778E-02 3.30448E-01 8.09630E-14 1.77837E-13
 -1       885-4.75992E+00 8.83871E+01 1.15240E-02-9.40706E-01 5.13201E-14-2.95732E-13
 -1       886-3.65976E+00 8.76716E+01 9.59494E-03-1.77612E+00-1.67796E-13 2.01644E-13
 -1       887-2.75817E+00 8.68839E+01 7.66746E-03-2.29164E+00 1.30486E-13-1.55065E-13
 -1       888-2.04358E+00 8.61013E+01 5.93738E-03-2.58048E+00 1.58540E-13 2.37118E-13
 -1       889-1.49067E+00 8.53601E+01 4.50025E-03-2.71121E+00 3.89203E-14-6.97567E-14
 -1       890-1.07064E+00 8.46734E+01 3.35302E-03-2.73099E+00-1.01544E-13-3.17454E-14
 -1       891-7.56196E-01 8.40421E+01 2.45908E-03-2.67015E+00-9.09411E-14-6.30676E-14
 -1       892-5.23547E-01 8.34613E+01 1.77173E-03-2.54613E+00 8.39346E-14 2.62568E-14
 -1       893-3.52944E-01 8.29239E+01 1.24687E-03-2.36649E+00 3.79757E-14 1.77271E-13
 -1       894-2.28570E-01 8.24229E+01 8.48065E-04-2.13076E+00 1.00006E-13-2.58345E-13
 -1       895-1.38269E-01 8.19527E+01 5.48037E-04-1.83142E+00-3.12771E-13 2.13211E-13
 -1       896-7.33962E-02 8.15102E+01 3.11406E-04-1.45395E+00-1.95868E-13-1.18072E-13
 -1       897-2.88993E-02 8.10961E+01-1.38498E-04-9.76283E-01 1.08732E-13-9.09620E-14
 -1       898-2.99618E-03 8.07156E+01-6.22694E-03-3.66730E-01-1.44537E-14 6.49081E-14
 -1       899-7.61315E+00 8.63375E+01-3.58361E-02 4.26549E+00 3.85709E-13 2.38420E-14
 -1       900-6.73023E+00 8.44035E+01-3.85971E-02 4.77086E+00-1.48326E-13 9.58955E-15
 -1       901-5.74226E+00 8.28226E+01-3.63846E-02 4.91885E+00-6.44693E-14 7.81007E-14
 -1       902-4.76998E+00 8.15751E+01-3.16437E-02 4.82952E+00 4.67191E-14-4.70977E-14
 -1       903-3.87340E+00 8.06159E+01-2.61660E-02 4.59607E+00-5.85477E-14 1.16122E-14
 -1       904-3.07637E+00 7.98944E+01-2.09598E-02 4.28498E+00 6.42823E-14 9.66900E-14
 -1       905-2.38270E+00 7.93628E+01-1.64277E-02 3.94074E+00-9.94491E-14-1.50886E-14
 -1       906-1.78639E+00 7.89800E+01-1.26796E-02 3.59147E+00 3.88561E-14 1.26555E-13
 -1       907-1.27735E+00 7.87118E+01-9.67264E-03 3.25386E+00-3.30109E-14 1.53835E-14
 -1       908-8.44455E-01 7.85311E+01-7.30551E-03 2.93689E+00 5.61756E-14-1.05705E-13
 -1       909-4.77041E-01 7.84164E+01-5.46331E-03 2.64463E+00-8.95456E-14-5.22776E-14
 -1       910-1.65525E-01 7.83512E+01-4.03897E-03 2.37803E+00 7.90774E-15 5.31103E-14
 -1       911 9.84136E-02 7.83225E+01-2.94108E-03 2.13624E+00-4.24218E-14-3.59582E-14
 -1       912 3.21875E-01 7.83205E+01-2.09534E-03 1.91741E+00-9.72772E-14 2.67121E-14
 -1       913 5.10864E-01 7.83375E+01-1.44312E-03 1.71919E+00 1.14281E-13 6.58293E-14
 -1       914 6.70452E-01 7.83677E+01-9.38985E-04 1.53910E+00 4.58522E-14-8.95195E-14
 -1       915 8.04916E-01 7.84064E+01-5.48128E-04 1.37470E+00 4.43786E-15 2.77660E-14
 -1       916 9.17880E-01 7.84502E+01-2.44096E-04 1.22370E+00 6.65830E-15 4.96755E-14
 -1       917 1.01242E+00 7.84963E+01-6.86104E-06 1.08402E+00-1.82146E-14 1.48302E-14
 -1       918 1.09114E+00 7.85426E+01 1.78706E-04 9.53816E-01 1.23337E-13-3.76929E-14
 -1       919 1.15627E+00 7.85873E+01 3.24023E-04 8.31458E-01-5.15159E-14 9.02924E-15
 -1       920 1.20968E+00 7.86292E+01 4.37704E-04 7.15536E-01-6.03374E-14 6.07587E-15
 -1       921 1.25298E+00 7.86672E+01 5.26242E-04 6.04832E-01-4.40750E-15 3.01764E-14
 -1       922 1.28749E+00 7.87005E+01 5.94516E-04 4.98298E-01-3.29480E-14-2.98776E-14
 -1       923 1.31429E+00 7.87285E+01 6.46168E-04 3.95025E-01-6.16694E-15-4.69590E-15
 -1       924 1.33425E+00 7.87508E+01 6.83878E-04 2.94224E-01-7.61359E-15-1.03736E-15
 -1       925 1.34805E+00 7.87669E+01 7.09553E-04 1.95198E-01 1.29181E-14-2.71757E-14
 -1       926 1.35614E+00 7.87766E+01 7.24471E-04 9.73183E-02 3.52545E-15 6.31439E-15
 -1       927-7.94248E+00 8.74512E+01-2.38077E-02 3.79658E+00 1.77386E-13 2.57849E-14
 -1       928-7.17461E+00 8.53749E+01-2.01804E-02 4.53576E+00-1.05957E-13 3.82888E-14
 -1       929-6.21712E+00 8.36258E+01-1.74192E-02 4.85252E+00-5.18752E-14 9.71168E-14
 -1       930-5.22732E+00 8.22157E+01-1.40739E-02 4.87521E+00-2.23016E-14 4.00374E-14
 -1       931-4.29080E+00 8.11129E+01-1.10264E-02 4.70983E+00 2.95267E-14-4.92939E-14
 -1       932-3.44573E+00 8.02714E+01-8.42148E-03 4.43542E+00-1.02335E-13 5.95218E-14
 -1       933-2.70373E+00 7.96430E+01-6.30988E-03 4.10684E+00 5.96398E-15 5.95912E-14
 -1       934-2.06251E+00 7.91839E+01-4.64979E-03 3.75991E+00 1.06998E-14 5.53446E-14
 -1       935-1.51344E+00 7.88566E+01-3.37079E-03 3.41671E+00-1.67628E-13 8.39259E-14
 -1       936-1.04567E+00 7.86306E+01-2.39843E-03 3.08989E+00 4.90788E-14-6.17492E-14
 -1       937-6.48226E-01 7.84816E+01-1.66570E-03 2.78584E+00 2.54465E-13-1.04562E-13
 -1       938-3.11016E-01 7.83906E+01-1.11681E-03 2.50699E+00-7.22842E-14-1.19488E-14
 -1       939-2.51408E-02 7.83427E+01-7.07315E-04 2.25336E+00-6.03753E-14-1.06443E-14
 -1       940 2.17046E-01 7.83267E+01-4.02749E-04 2.02356E+00 1.96371E-14 6.01949E-15
 -1       941 4.22036E-01 7.83336E+01-1.76805E-04 1.81549E+00-4.14929E-14 4.68167E-14
 -1       942 5.95314E-01 7.83568E+01-9.62060E-06 1.62675E+00 4.18866E-14-4.85723E-16
 -1       943 7.41509E-01 7.83908E+01 1.13711E-04 1.45486E+00-1.60323E-13-4.37445E-14
 -1       944 8.64538E-01 7.84318E+01 2.04346E-04 1.29747E+00 8.96123E-14 2.22496E-14
 -1       945 9.67721E-01 7.84765E+01 2.70621E-04 1.15240E+00-1.72969E-14 4.89869E-14
 -1       946 1.05388E+00 7.85225E+01 3.18772E-04 1.01769E+00 6.19478E-14-9.24955E-15
 -1       947 1.12541E+00 7.85678E+01 3.53467E-04 8.91606E-01 3.23413E-14-1.48510E-14
 -1       948 1.18435E+00 7.86110E+01 3.78209E-04 7.72640E-01 2.35489E-14 1.85268E-15
 -1       949 1.23244E+00 7.86508E+01 3.95629E-04 6.59481E-01 5.23227E-14 2.69576E-15
 -1       950 1.27112E+00 7.86864E+01 4.07699E-04 5.50997E-01-3.17016E-14 1.11543E-15
 -1       951 1.30160E+00 7.87170E+01 4.15897E-04 4.46214E-01 3.87971E-15-1.43722E-14
 -1       952 1.32484E+00 7.87421E+01 4.21318E-04 3.44288E-01 1.91223E-14-3.02883E-15
 -1       953 1.34162E+00 7.87612E+01 4.24754E-04 2.44476E-01-1.68828E-14-1.43999E-14
 -1       954 1.35250E+00 7.87741E+01 4.26758E-04 1.46120E-01 1.49225E-14-7.42462E-15
 -1       955 1.35785E+00 7.87806E+01 4.27675E-04 4.86133E-02-8.56536E-15 1.44086E-14
 -1       956-7.61315E+00 8.63375E+01-3.58361E-02-4.26549E+00 1.98661E-14-2.88589E-14
 -1       957-6.73023E+00 8.44035E+01-3.85971E-02-4.77086E+00-1.12747E-13-6.23807E-15
 -1       958-5.74226E+00 8.28226E+01-3.63846E-02-4.91885E+00 1.56115E-13 5.15837E-14
 -1       959-4.76998E+00 8.15751E+01-3.16437E-02-4.82952E+00 6.57859E-14 5.57436E-14
 -1       960-3.87340E+00 8.06159E+01-2.61660E-02-4.59607E+00 5.55789E-14 8.78880E-14
 -1       961-3.07637E+00 7.98944E+01-2.09598E-02-4.28498E+00 1.59473E-14-7.53043E-14
 -1       962-2.38270E+00 7.93628E+01-1.64277E-02-3.94074E+00-1.48016E-13-5.27738E-14
 -1       963-1.78639E+00 7.89800E+01-1.26796E-02-3.59147E+00 7.94287E-14 5.00988E-15
 -1       964-1.27735E+00 7.87118E+01-9.67264E-03-3.25386E+00 4.22926E-14 1.53141E-14
 -1       965-8.44455E-01 7.85311E+01-7.30551E-03-2.93689E+00 8.12805E-15-4.44592E-14
 -1       966-4.77041E-01 7.84164E+01-5.46331E-03-2.64463E+00 5.14293E-14 1.43184E-14
 -1       967-1.65525E-01 7.83512E+01-4.03897E-03-2.37803E+00 1.79006E-14 1.04847E-14
 -1       968 9.84136E-02 7.83225E+01-2.94108E-03-2.13624E+00-4.77084E-14-5.03026E-14
 -1       969 3.21875E-01 7.83205E+01-2.09534E-03-1.91741E+00 1.44320E-14 2.33103E-14
 -1       970 5.10864E-01 7.83375E+01-1.44312E-03-1.71919E+00-9.62936E-14-1.31006E-14
 -1       971 6.70452E-01 7.83677E+01-9.38985E-04-1.53910E+00 8.95985E-15-3.41741E-16
 -1       972 8.04916E-01 7.84064E+01-5.48128E-04-1.37470E+00 2.28749E-14-1.16261E-14
 -1       973 9.17880E-01 7.84502E+01-2.44096E-04-1.22370E+00 7.03257E-15 9.54202E-14
 -1       974 1.01242E+00 7.84963E+01-6.86104E-06-1.08402E+00 1.87042E-14 1.65341E-14
 -1       975 1.09114E+00 7.85426E+01 1.78706E-04-9.53816E-01 3.25829E-14-6.24804E-15
 -1       976 1.15627E+00 7.85873E+01 3.24023E-04-8.31458E-01-7.26567E-15-7.08812E-14
 -1       977 1.20968E+00 7.86292E+01 4.37704E-04-7.15536E-01 4.11411E-15 8.76686E-15
 -1       978 1.25298E+00 7.86672E+01 5.26242E-04-6.04832E-01 1.40163E-14 5.80569E-14
 -1       979 1.28749E+00 7.87005E+01 5.94516E-04-4.98298E-01-3.14004E-14-3.19137E-14
 -1       980 1.31429E+00 7.87285E+01 6.46168E-04-3.95025E-01-1.97184E-15 5.63560E-14
 -1       981 1.33425E+00 7.87508E+01 6.83878E-04-2.94224E-01 1.09401E-14 7.16397E-15
 -1       982 1.34805E+00 7.87669E+01 7.09553E-04-1.95198E-01-2.91570E-14-9.53361E-15
 -1       983 1.35614E+00 7.87766E+01 7.24471E-04-9.73183E-02 3.51828E-14-1.43609E-14
 -1       984-7.94248E+00 8.74512E+01-2.38077E-02-3.79658E+00-7.46347E-14-8.31002E-14
 -1       985-7.17461E+00 8.53749E+01-2.01804E-02-4.53576E+00-1.28730E-13 2.96707E-14
 -1       986-6.21712E+00 8.36258E+01-1.74192E-02-4.85252E+00 1.08649E-13 5.00988E-14
 -1       987-5.22732E+00 8.22157E+01-1.40739E-02-4.87521E+00 1.09114E-14 1.27398E-14
 -1       988-4.29080E+00 8.11129E+01-1.10264E-02-4.70983E+00 1.27320E-14 1.59192E-13
 -1       989-3.44573E+00 8.02714E+01-8.42148E-03-4.43542E+00-2.74071E-13 2.80678E-14
 -1       990-2.70373E+00 7.96430E+01-6.30988E-03-4.10684E+00-2.47092E-13-1.23943E-13
 -1       991-2.06251E+00 7.91839E+01-4.64979E-03-3.75991E+00 1.13187E-13 2.41474E-15
 -1       992-1.51344E+00 7.88566E+01-3.37079E-03-3.41671E+00-1.88396E-13 1.77497E-14
 -1       993-1.04567E+00 7.86306E+01-2.39843E-03-3.08989E+00-2.34968E-14-2.23016E-14
 -1       994-6.48226E-01 7.84816E+01-1.66570E-03-2.78584E+00-1.55169E-13-1.10988E-14
 -1       995-3.11016E-01 7.83906E+01-1.11681E-03-2.50699E+00 9.29465E-15 7.88120E-14
 -1       996-2.51408E-02 7.83427E+01-7.07315E-04-2.25336E+00-2.81337E-14 4.93598E-14
 -1       997 2.17046E-01 7.83267E+01-4.02749E-04-2.02356E+00-1.80723E-14-4.69971E-14
 -1       998 4.22036E-01 7.83336E+01-1.76805E-04-1.81549E+00-5.80872E-14 1.17927E-14
 -1       999 5.95314E-01 7.83568E+01-9.62060E-06-1.62675E+00-2.76862E-15 1.85442E-14
 -1      1000 7.41509E-01 7.83908E+01 1.13711E-04-1.45486E+00 1.35473E-13-1.28335E-14
 -1      1001 8.64538E-01 7.84318E+01 2.04346E-04-1.29747E+00-1.16761E-13 5.48919E-14
 -1      1002 9.67721E-01 7.84765E+01 2.70621E-04-1.15240E+00 1.54286E-14 5.35075E-14
 -1      1003 1.05388E+00 7.85225E+01 3.18772E-04-1.01769E+00 7.93870E-14-3.98986E-16
 -1      1004 1.12541E+00 7.85678E+01 3.53467E-04-8.91606E-01-5.41893E-14-6.48266E-14
 -1      1005 1.18435E+00 7.86110E+01 3.78209E-04-7.72640E-01 7.87894E-14-4.65981E-14
 -1      1006 1.23244E+00 7.86508E+01 3.95629E-04-6.59481E-01 1.51944E-14 9.48894E-15
 -1      1007 1.27112E+00 7.86864E+01 4.07699E-04-5.50997E-01-8.80936E-15 3.49443E-14
 -1      1008 1.30160E+00 7.87170E+01 4.15897E-04-4.46214E-01-3.58828E-14-1.74019E-14
 -1      1009 1.32484E+00 7.87421E+01 4.21318E-04-3.44288E-01 5.31632E-14-3.36779E-14
 -1      1010 1.34162E+00 7.87612E+01 4.24754E-04-2.44476E-01-5.92029E-14 2.83940E-14
 -1      1011 1.35250E+00 7.87741E+01 4.26758E-04-1.46120E-01 2.35387E-14 6.00214E-16
 -1      1012 1.35785E+00 7.87806E+01 4.27675E-04-4.86133E-02-4.63469E-15-8.87936E-14
 -1      1013-6.74890E+00 8.89689E+01 4.09879E-03-1.12110E+00-1.61503E-13 1.58668E-13
 -1      1014-5.37201E+00 8.86789E+01 1.59526E-02 4.10876E-01-6.12566E-14-8.31817E-14
 -1      1015-4.15957E+00 8.80544E+01 2.04284E-02 1.44169E+00-1.53766E-13-3.51628E-14
 -1      1016-3.15317E+00 8.72912E+01 2.03151E-02 2.09669E+00 8.03108E-14 3.96354E-14
 -1      1017-2.34844E+00 8.64989E+01 1.80802E-02 2.48258E+00-1.73504E-13 5.15638E-14
 -1      1018-1.72177E+00 8.57326E+01 1.51273E-02 2.68040E+00 2.09260E-13-5.65520E-14
 -1      1019-1.24334E+00 8.50161E+01 1.21666E-02 2.74740E+00 1.80238E-15 6.99276E-14
 -1      1020-8.83728E-01 8.43557E+01 9.51453E-03 2.72159E+00 2.34708E-14 3.00662E-14
 -1      1021-6.16841E-01 8.37489E+01 7.27506E-03 2.62622E+00 4.21017E-15 6.67843E-14
 -1      1022-4.20739E-01 8.31894E+01 5.45428E-03 2.47335E+00-1.26121E-13-2.57407E-14
 -1      1023-2.77631E-01 8.26700E+01 4.02364E-03 2.26624E+00-3.47713E-13-1.30452E-13
 -1      1024-1.73544E-01 8.21842E+01 2.95500E-03 2.00081E+00-4.42528E-14 1.87492E-13
 -1      1025-9.80330E-02 8.17275E+01 2.24016E-03 1.66611E+00-9.89929E-14 3.96575E-14
 -1      1026-4.41962E-02 8.12986E+01 1.78809E-03 1.24407E+00-3.12385E-13-5.80256E-14
 -1      1027-1.06544E-02 8.08998E+01-6.04051E-04 7.08241E-01 1.03530E-13-9.53812E-14
 -1      1028-7.40907E+00 8.89159E+01 1.35484E-02-2.16101E+00-1.97647E-13 7.41074E-15
 -1      1029-6.03877E+00 8.88845E+01 1.25778E-02-3.30448E-01-6.10345E-14-4.33542E-14
 -1      1030-4.75992E+00 8.83871E+01 1.15240E-02 9.40706E-01-1.39000E-13 9.39734E-14
 -1      1031-3.65976E+00 8.76716E+01 9.59494E-03 1.77612E+00-1.61204E-13-1.50286E-13
 -1      1032-2.75817E+00 8.68839E+01 7.66746E-03 2.29164E+00-2.36006E-13 1.91973E-14
 -1      1033-2.04358E+00 8.61013E+01 5.93738E-03 2.58048E+00-5.37556E-14-2.33086E-14
 -1      1034-1.49067E+00 8.53601E+01 4.50025E-03 2.71121E+00 9.18432E-14-6.65197E-14
 -1      1035-1.07064E+00 8.46734E+01 3.35302E-03 2.73099E+00 1.64934E-13-5.35717E-14
 -1      1036-7.56196E-01 8.40421E+01 2.45908E-03 2.67015E+00-1.80255E-13 2.36547E-13
 -1      1037-5.23547E-01 8.34613E+01 1.77173E-03 2.54613E+00 4.20306E-14-1.62433E-13
 -1      1038-3.52944E-01 8.29239E+01 1.24687E-03 2.36649E+00 1.38663E-13 1.10405E-13
 -1      1039-2.28570E-01 8.24229E+01 8.48065E-04 2.13076E+00 4.49293E-15-1.71686E-13
 -1      1040-1.38269E-01 8.19527E+01 5.48037E-04 1.83142E+00-2.48634E-13 2.04579E-13
 -1      1041-7.33962E-02 8.15102E+01 3.11406E-04 1.45395E+00-9.61037E-16-3.17836E-14
 -1      1042-2.88993E-02 8.10961E+01-1.38498E-04 9.76283E-01 1.31194E-13 2.62568E-14
 -1      1043-2.99618E-03 8.07156E+01-6.22694E-03 3.66730E-01-8.11434E-14-1.74196E-13
 -1      1044-6.33668E+00 8.96180E+01 4.53331E-03 1.89990E+00 1.03459E-13-1.27232E-13
 -1      1045-5.00591E+00 8.92478E+01 1.62005E-02 4.44484E-01-1.19141E-14 4.77413E-14
 -1      1046-3.84202E+00 8.85311E+01 2.04963E-02-5.16368E-01-7.91346E-14-3.61508E-14
 -1      1047-2.88491E+00 8.76623E+01 2.02092E-02-1.11060E+00 3.14495E-13 1.10649E-13
 -1      1048-2.12847E+00 8.67495E+01 1.78169E-02-1.44744E+00 5.62606E-14 1.45857E-13
 -1      1049-1.54755E+00 8.58470E+01 1.47284E-02-1.61049E+00 1.81414E-13-2.86672E-14
 -1      1050-1.11098E+00 8.49774E+01 1.16571E-02-1.65970E+00 7.10421E-14 1.62627E-13
 -1      1051-7.88276E-01 8.41464E+01 8.92313E-03-1.63591E+00-2.76484E-13-2.81563E-13
 -1      1052-5.52517E-01 8.33515E+01 6.63448E-03-1.56536E+00 2.90084E-13 6.39107E-14
 -1      1053-3.81277E-01 8.25868E+01 4.80127E-03-1.46317E+00-2.50357E-13-9.60985E-14
 -1      1054-2.56632E-01 8.18461E+01 3.39865E-03-1.33567E+00 3.57906E-13-8.11885E-14
 -1      1055-1.64875E-01 8.11245E+01 2.40089E-03-1.18174E+00 2.77177E-13 7.03586E-14
 -1      1056-9.62505E-02 8.04198E+01 1.79601E-03-9.93189E-01 1.06876E-14 1.87107E-13
 -1      1057-4.50578E-02 7.97336E+01 1.39014E-03-7.54372E-01-3.04484E-13-8.33517E-14
 -1      1058-1.28176E-02 7.90708E+01-2.85217E-03-4.40861E-01-1.07256E-13-1.74279E-13
 -1      1059-6.97543E+00 8.96008E+01 1.39897E-02 2.89927E+00-1.85407E-14-1.23818E-13
 -1      1060-5.64919E+00 8.94949E+01 1.29100E-02 1.14719E+00 2.91878E-13 2.62505E-13
 -1      1061-4.41752E+00 8.89117E+01 1.18143E-02-5.06645E-02 2.56975E-13-2.56403E-13
 -1      1062-3.36617E+00 8.80975E+01 9.83508E-03-8.20682E-01 1.16296E-13 1.46384E-13
 -1      1063-2.51324E+00 8.71971E+01 7.86386E-03-1.28125E+00 3.43378E-13-2.29535E-13
 -1      1064-1.84556E+00 8.62864E+01 6.09345E-03-1.52813E+00-2.19130E-13 3.81681E-13
 -1      1065-1.33637E+00 8.54007E+01 4.61951E-03-1.63251E+00 2.02671E-13-1.76869E-13
 -1      1066-9.55680E-01 8.45523E+01 3.43893E-03-1.64433E+00-5.98476E-13-4.18728E-14
 -1      1067-6.75238E-01 8.37417E+01 2.51547E-03-1.59683E+00-5.74991E-14-1.45606E-13
 -1      1068-4.70609E-01 8.29641E+01 1.80300E-03-1.51047E+00 2.00904E-13-7.56339E-16
 -1      1069-3.21737E-01 8.22133E+01 1.25811E-03-1.39588E+00-1.00251E-13 2.92141E-13
 -1      1070-2.12874E-01 8.14834E+01 8.44945E-04-1.25560E+00-1.96740E-13-3.39048E-13
 -1      1071-1.32341E-01 8.07709E+01 5.36153E-04-1.08499E+00 3.23357E-13 3.37688E-13
 -1      1072-7.23981E-02 8.00752E+01 2.82931E-04-8.72137E-01-1.92195E-13-1.42303E-13
 -1      1073-2.92623E-02 7.94003E+01-4.22853E-04-5.97163E-01-2.14769E-13-1.93963E-13
 -1      1074-1.69014E-03 7.87544E+01-1.12244E-02-2.30194E-01-2.23811E-13 1.74055E-13
 -1      1075-7.05581E+00 8.71307E+01-3.53982E-02 4.92142E+00-2.04579E-13 3.11903E-14
 -1      1076-6.04877E+00 8.52680E+01-3.81569E-02 5.37353E+00 3.24921E-13-1.92745E-13
 -1      1077-4.91442E+00 8.37543E+01-3.58751E-02 5.45663E+00 1.57962E-13 3.92013E-14
 -1      1078-3.77153E+00 8.25692E+01-3.10215E-02 5.29000E+00 1.19662E-13 1.19002E-14
 -1      1079-2.67764E+00 8.16666E+01-2.53961E-02 4.96605E+00-5.87056E-14-6.30607E-14
 -1      1080-1.65370E+00 8.09946E+01-2.00133E-02 4.55035E+00-7.43424E-14 1.25941E-13
 -1      1081-7.00289E-01 8.05038E+01-1.52777E-02 4.08641E+00-3.57684E-13-8.36067E-14
 -1      1082 1.92086E-01 8.01510E+01-1.12991E-02 3.60136E+00 1.21023E-13 1.93144E-13
 -1      1083 1.03726E+00 7.99001E+01-8.03358E-03 3.11097E+00-5.13079E-14 3.56850E-14
 -1      1084 1.85030E+00 7.97216E+01-5.37916E-03 2.62343E+00 1.92398E-14-5.40097E-13
 -1      1085 2.64599E+00 7.95914E+01-3.22092E-03 2.14227E+00-1.33020E-13-3.47665E-13
 -1      1086 3.43812E+00 7.94899E+01-1.45349E-03 1.66828E+00-4.79417E-13 6.82275E-14
 -1      1087 4.23925E+00 7.94012E+01 1.03443E-05 1.20090E+00-2.06918E-13-3.75858E-14
 -1      1088 5.06065E+00 7.93121E+01 1.23735E-03 7.39215E-01 7.31203E-14 3.48090E-14
 -1      1089 5.91225E+00 7.92114E+01 2.27440E-03 2.82575E-01 8.21634E-14 1.32508E-13
 -1      1090 6.80261E+00 7.90897E+01 3.15011E-03-1.68896E-01 1.58989E-13-2.78718E-13
 -1      1091 7.73881E+00 7.89391E+01 3.87683E-03-6.13997E-01 9.42614E-14 1.01936E-13
 -1      1092 8.72630E+00 7.87529E+01 4.45299E-03-1.05024E+00-8.71039E-14 1.34005E-13
 -1      1093 9.76861E+00 7.85258E+01 4.86594E-03-1.47377E+00-2.90332E-13 1.43395E-13
 -1      1094 1.08671E+01 7.82543E+01 5.09576E-03-1.87937E+00-4.40932E-13-3.83772E-13
 -1      1095 1.20208E+01 7.79360E+01 5.12026E-03-2.26065E+00 1.41716E-13 1.80690E-13
 -1      1096 1.32257E+01 7.75710E+01 4.92111E-03-2.61033E+00-4.62963E-14 8.27094E-14
 -1      1097 1.44752E+01 7.71608E+01 4.49083E-03-2.92066E+00-6.97602E-14 1.47935E-13
 -1      1098 1.57598E+01 7.67097E+01 3.83917E-03-3.18402E+00-1.67234E-13-5.30574E-13
 -1      1099 1.70674E+01 7.62236E+01 2.99850E-03-3.39345E+00 8.22901E-14-4.04572E-14
 -1      1100 1.83837E+01 7.57102E+01 2.04055E-03-3.54326E+00-1.90046E-13-1.68312E-13
 -1      1101 1.96935E+01 7.51789E+01 1.35443E-03-3.62942E+00 4.11018E-13-5.25803E-13
 -1      1102 2.09835E+01 7.46428E+01 6.23947E-03-3.64971E+00-1.19545E-13-1.04522E-13
 -1      1103-7.44005E+00 8.82056E+01-2.40050E-02 4.47386E+00-3.48485E-13-3.88023E-14
 -1      1104-6.55855E+00 8.62026E+01-2.03906E-02 5.16523E+00-4.07806E-13-2.91711E-14
 -1      1105-5.46609E+00 8.45226E+01-1.76447E-02 5.42295E+00-7.13908E-14 3.76227E-14
 -1      1106-4.31818E+00 8.31771E+01-1.42997E-02 5.37459E+00 2.75014E-14 6.19782E-14
 -1      1107-3.19817E+00 8.21337E+01-1.12441E-02 5.12537E+00-3.17133E-13 2.30024E-14
 -1      1108-2.14153E+00 8.13450E+01-8.62404E-03 4.75349E+00-1.14450E-13 2.28914E-14
 -1      1109-1.15680E+00 8.07616E+01-6.49073E-03 4.31284E+00 6.11858E-13 9.49241E-14
 -1      1110-2.38335E-01 8.03376E+01-4.80180E-03 3.83828E+00-2.57561E-13 9.41955E-14
 -1      1111 6.26134E-01 8.00337E+01-3.48586E-03 3.35092E+00-2.94716E-13 2.04118E-13
 -1      1112 1.45131E+00 7.98171E+01-2.46733E-03 2.86253E+00 7.92491E-14-2.61964E-13
 -1      1113 2.25218E+00 7.96611E+01-1.67808E-03 2.37885E+00 3.34809E-13-5.35086E-13
 -1      1114 3.04302E+00 7.95439E+01-1.06145E-03 1.90194E+00 6.88338E-14-1.88547E-13
 -1      1115 3.83698E+00 7.94476E+01-5.72513E-04 1.43189E+00 2.13787E-13-7.67476E-14
 -1      1116 4.64593E+00 7.93577E+01-1.76916E-04 9.67918E-01 5.90569E-13-2.28116E-16
 -1      1117 5.48043E+00 7.92619E+01 1.50660E-04 5.09228E-01-7.54646E-13 1.56318E-13
 -1      1118 6.34971E+00 7.91499E+01 4.27963E-04 5.55475E-02 1.01526E-12-2.67251E-14
 -1      1119 7.26162E+00 7.90132E+01 6.66392E-04-3.92469E-01-4.58605E-13-1.63963E-13
 -1      1120 8.22243E+00 7.88443E+01 8.71997E-04-8.32981E-01 3.15518E-13 1.04778E-13
 -1      1121 9.23669E+00 7.86374E+01 1.04637E-03-1.26281E+00 3.31214E-13 1.39365E-13
 -1      1122 1.03069E+01 7.83880E+01 1.18757E-03-1.67743E+00 4.57509E-13-8.39953E-14
 -1      1123 1.14333E+01 7.80932E+01 1.29120E-03-2.07101E+00 1.63494E-13-1.48565E-13
 -1      1124 1.26134E+01 7.77518E+01 1.35185E-03-2.43671E+00-6.22294E-13 9.31833E-14
 -1      1125 1.38421E+01 7.73647E+01 1.36468E-03-2.76697E+00-1.54689E-13 1.63402E-13
 -1      1126 1.51111E+01 7.69348E+01 1.32734E-03-3.05410E+00-1.46411E-14-1.17018E-13
 -1      1127 1.64096E+01 7.64670E+01 1.24153E-03-3.29076E+00 3.84970E-13-2.83194E-13
 -1      1128 1.77243E+01 7.59683E+01 1.11681E-03-3.47059E+00-2.27464E-13-1.39225E-13
 -1      1129 1.90403E+01 7.54469E+01 1.00929E-03-3.58873E+00-3.71904E-13-3.97309E-13
 -1      1130 2.03418E+01 7.49120E+01 1.68930E-03-3.64203E+00 4.57669E-13-3.66748E-13
 -1      1131 2.16158E+01 7.43698E+01 1.55472E-02-3.62904E+00 3.62703E-13-5.93810E-13
 -1      1132-7.05581E+00 8.71307E+01-3.53982E-02-4.92142E+00 1.46522E-13 1.31076E-14
 -1      1133-6.04877E+00 8.52680E+01-3.81569E-02-5.37353E+00 4.31873E-13-2.47444E-13
 -1      1134-4.91442E+00 8.37543E+01-3.58751E-02-5.45663E+00-1.86336E-13-2.98636E-13
 -1      1135-3.77153E+00 8.25692E+01-3.10215E-02-5.29000E+00 8.95393E-14 3.46875E-14
 -1      1136-2.67764E+00 8.16666E+01-2.53961E-02-4.96605E+00 1.29782E-13-6.57148E-14
 -1      1137-1.65370E+00 8.09946E+01-2.00133E-02-4.55035E+00-5.05533E-14 2.96048E-14
 -1      1138-7.00289E-01 8.05038E+01-1.52777E-02-4.08641E+00-2.91217E-13-1.32241E-13
 -1      1139 1.92086E-01 8.01510E+01-1.12991E-02-3.60136E+00 5.18110E-14-3.05384E-13
 -1      1140 1.03726E+00 7.99001E+01-8.03358E-03-3.11097E+00 5.07384E-13-3.73555E-14
 -1      1141 1.85030E+00 7.97216E+01-5.37916E-03-2.62343E+00 2.34044E-13 3.35166E-14
 -1      1142 2.64599E+00 7.95914E+01-3.22092E-03-2.14227E+00 2.72492E-13 6.12106E-14
 -1      1143 3.43812E+00 7.94899E+01-1.45349E-03-1.66828E+00-3.86635E-13-3.53112E-14
 -1      1144 4.23925E+00 7.94012E+01 1.03443E-05-1.20090E+00-1.77270E-13-2.10494E-13
 -1      1145 5.06065E+00 7.93121E+01 1.23735E-03-7.39215E-01 3.60514E-13 2.63896E-13
 -1      1146 5.91225E+00 7.92114E+01 2.27440E-03-2.82575E-01-2.30227E-13 1.42451E-13
 -1      1147 6.80261E+00 7.90897E+01 3.15011E-03 1.68896E-01-4.94858E-13 2.94450E-13
 -1      1148 7.73881E+00 7.89391E+01 3.87683E-03 6.13997E-01 7.99881E-15-1.99496E-13
 -1      1149 8.72630E+00 7.87529E+01 4.45299E-03 1.05024E+00-1.94520E-13 3.30716E-13
 -1      1150 9.76861E+00 7.85258E+01 4.86594E-03 1.47377E+00-3.12365E-13-1.40610E-13
 -1      1151 1.08671E+01 7.82543E+01 5.09576E-03 1.87937E+00 6.31925E-14-1.22759E-13
 -1      1152 1.20208E+01 7.79360E+01 5.12026E-03 2.26065E+00-2.66561E-13-4.14813E-13
 -1      1153 1.32257E+01 7.75710E+01 4.92111E-03 2.61033E+00 1.14658E-13 1.60168E-13
 -1      1154 1.44752E+01 7.71608E+01 4.49083E-03 2.92066E+00 4.17180E-13-2.04812E-13
 -1      1155 1.57598E+01 7.67097E+01 3.83917E-03 3.18402E+00-3.38323E-13 1.75910E-14
 -1      1156 1.70674E+01 7.62236E+01 2.99850E-03 3.39345E+00-3.56812E-13 2.39447E-13
 -1      1157 1.83837E+01 7.57102E+01 2.04055E-03 3.54326E+00 7.29607E-14-4.16021E-14
 -1      1158 1.96935E+01 7.51789E+01 1.35443E-03 3.62942E+00 2.01495E-13 2.35441E-13
 -1      1159 2.09835E+01 7.46428E+01 6.23947E-03 3.64971E+00 6.89188E-14-3.37642E-13
 -1      1160-7.44005E+00 8.82056E+01-2.40050E-02-4.47386E+00 6.45456E-14-1.39611E-13
 -1      1161-6.55855E+00 8.62026E+01-2.03906E-02-5.16523E+00-1.02904E-13-1.19488E-13
 -1      1162-5.46609E+00 8.45226E+01-1.76447E-02-5.42295E+00 2.50473E-13-2.17548E-13
 -1      1163-4.31818E+00 8.31771E+01-1.42997E-02-5.37459E+00-1.02739E-14-2.17520E-13
 -1      1164-3.19817E+00 8.21337E+01-1.12441E-02-5.12537E+00-5.01377E-13-1.29896E-13
 -1      1165-2.14153E+00 8.13450E+01-8.62404E-03-4.75349E+00 2.81088E-13-7.89646E-14
 -1      1166-1.15680E+00 8.07616E+01-6.49073E-03-4.31284E+00-6.06373E-13-1.68664E-13
 -1      1167-2.38335E-01 8.03376E+01-4.80180E-03-3.83828E+00 2.96461E-13-2.62047E-13
 -1      1168 6.26134E-01 8.00337E+01-3.48586E-03-3.35092E+00-2.84134E-13-1.89241E-13
 -1      1169 1.45131E+00 7.98171E+01-2.46733E-03-2.86253E+00 6.57877E-14 1.66707E-14
 -1      1170 2.25218E+00 7.96611E+01-1.67808E-03-2.37885E+00-3.73521E-13-2.02373E-14
 -1      1171 3.04302E+00 7.95439E+01-1.06145E-03-1.90194E+00-1.77122E-13-9.70231E-15
 -1      1172 3.83698E+00 7.94476E+01-5.72513E-04-1.43189E+00 6.02504E-14-1.50015E-13
 -1      1173 4.64593E+00 7.93577E+01-1.76916E-04-9.67918E-01-1.65437E-13 3.02787E-14
 -1      1174 5.48043E+00 7.92619E+01 1.50660E-04-5.09228E-01 6.76875E-13 2.44091E-13
 -1      1175 6.34971E+00 7.91499E+01 4.27963E-04-5.55475E-02 2.48766E-13 2.90444E-13
 -1      1176 7.26162E+00 7.90132E+01 6.66392E-04 3.92469E-01 1.42150E-13 1.38160E-13
 -1      1177 8.22243E+00 7.88443E+01 8.71997E-04 8.32981E-01-3.64028E-13 2.26459E-14
 -1      1178 9.23669E+00 7.86374E+01 1.04637E-03 1.26281E+00-1.47327E-13 1.63294E-14
 -1      1179 1.03069E+01 7.83880E+01 1.18757E-03 1.67743E+00-4.54158E-13-2.80039E-13
 -1      1180 1.14333E+01 7.80932E+01 1.29120E-03 2.07101E+00 4.08472E-13-2.26341E-13
 -1      1181 1.26134E+01 7.77518E+01 1.35185E-03 2.43671E+00-5.20216E-13-1.11047E-13
 -1      1182 1.38421E+01 7.73647E+01 1.36468E-03 2.76697E+00 8.48405E-13-5.51295E-14
 -1      1183 1.51111E+01 7.69348E+01 1.32734E-03 3.05410E+00-4.73524E-13-1.10925E-13
 -1      1184 1.64096E+01 7.64670E+01 1.24153E-03 3.29076E+00-9.35571E-14 1.49304E-13
 -1      1185 1.77243E+01 7.59683E+01 1.11681E-03 3.47059E+00-9.74699E-13 6.59299E-14
 -1      1186 1.90403E+01 7.54469E+01 1.00929E-03 3.58873E+00-1.91860E-13 6.55118E-14
 -1      1187 2.03418E+01 7.49120E+01 1.68930E-03 3.64203E+00 5.04811E-13 1.74236E-14
 -1      1188 2.16158E+01 7.43698E+01 1.55472E-02 3.62904E+00 8.27463E-14-1.38476E-13
 -1      1189 3.01764E+01 8.26221E+01 1.28642E+00-4.58754E+01-1.03251E-13-7.04992E-14
 -1      1190 3.32587E+01 1.10500E+02 2.64332E+00-5.37081E+01-4.81615E-13-1.08358E-13
 -1      1191 3.16925E+01 1.41115E+02 4.00164E+00-5.73316E+01-6.43929E-14 1.54987E-13
 -1      1192 2.64973E+01 1.71889E+02 5.26603E+00-5.50195E+01-2.33147E-14-1.35416E-13
 -1      1193 1.95522E+01 1.99478E+02 6.33369E+00-4.59442E+01 1.70974E-14 2.47274E-13
 -1      1194 1.31430E+01 2.20347E+02 7.10666E+00-3.05819E+01 1.14242E-13-5.51559E-13
 -1      1195 9.32367E+00 2.31539E+02 7.50860E+00-1.07672E+01 2.06946E-13 2.79166E-13
 -1      1196 9.30361E+00 2.31374E+02 7.49840E+00 1.06380E+01 8.77076E-15 1.32949E-13
 -1      1197 1.30748E+01 2.19879E+02 7.07754E+00 3.03962E+01 2.77556E-15-6.77236E-14
 -1      1198 1.94164E+01 1.98776E+02 6.28977E+00 4.56639E+01 8.26006E-14 9.98368E-14
 -1      1199 2.62747E+01 1.71049E+02 5.21325E+00 5.46355E+01-9.25926E-14 1.91673E-13
 -1      1200 3.13763E+01 1.40234E+02 3.94665E+00 5.68639E+01 5.26246E-14-7.80487E-14
 -1      1201 3.28628E+01 1.09660E+02 2.59245E+00 5.31962E+01 1.17240E-13-3.94462E-13
 -1      1202 2.97341E+01 8.18764E+01 1.24473E+00 4.53641E+01 1.81410E-13-2.76446E-14
 -1      1203 1.70063E+01 9.10656E+01 5.84542E-01-3.65442E+01-2.24265E-13-6.67244E-14
 -1      1204 2.28283E+01 1.12811E+02 1.39116E+00-4.09928E+01 1.50102E-13 2.47580E-13
 -1      1205 2.54367E+01 1.36980E+02 2.30348E+00-4.33278E+01-2.30926E-13-1.39055E-13
 -1      1206 2.48112E+01 1.61902E+02 3.23699E+00-4.18720E+01 1.27010E-13-5.90639E-14
 -1      1207 2.19168E+01 1.84899E+02 4.08698E+00-3.54291E+01-5.83755E-13 6.86673E-14
 -1      1208 1.84259E+01 2.02739E+02 4.73706E+00-2.38873E+01 1.89404E-13-2.45026E-13
 -1      1209 1.61009E+01 2.12471E+02 5.08728E+00-8.51186E+00 1.64868E-14-7.52731E-14
 -1      1210 1.60654E+01 2.12334E+02 5.08026E+00 8.27759E+00 5.48728E-14 1.30895E-13
 -1      1211 1.83161E+01 2.02352E+02 4.71736E+00 2.36166E+01-4.60743E-14 1.15241E-13
 -1      1212 2.17268E+01 1.84318E+02 4.05824E+00 3.51006E+01-5.70655E-14 6.53366E-14
 -1      1213 2.45412E+01 1.61202E+02 3.20408E+00 4.14861E+01-6.86118E-14 2.50716E-13
 -1      1214 2.51008E+01 1.36233E+02 2.27124E+00 4.29030E+01-1.93401E-13-5.75234E-14
 -1      1215 2.24548E+01 1.12071E+02 1.36344E+00 4.05548E+01-2.56684E-13 6.70575E-14
 -1      1216 1.66307E+01 9.03673E+01 5.63574E-01 3.61149E+01-1.37224E-13 2.73670E-13
 -1      1217 7.01128E+00 9.69767E+01 1.97293E-01-2.90952E+01 2.05058E-13 5.28466E-14
 -1      1218 1.43046E+01 1.14034E+02 6.46814E-01-3.08431E+01 1.25455E-13 1.56430E-13
 -1      1219 1.97693E+01 1.33003E+02 1.22377E+00-3.18672E+01-3.06422E-14-1.44884E-14
 -1      1220 2.26821E+01 1.52914E+02 1.87446E+00-3.07875E+01 1.13576E-13-9.92539E-14
 -1      1221 2.32000E+01 1.71750E+02 2.51392E+00-2.63235E+01-3.14526E-13 4.25660E-13
 -1      1222 2.23180E+01 1.86708E+02 3.03056E+00-1.79743E+01-2.99760E-15-1.85962E-13
 -1      1223 2.13797E+01 1.95002E+02 3.31873E+00-6.49763E+00-1.26926E-13-1.31450E-13
 -1      1224 2.13326E+01 1.94890E+02 3.31407E+00 6.17381E+00-7.72715E-14 4.54081E-14
 -1      1225 2.21777E+01 1.86389E+02 3.01774E+00 1.76314E+01 1.42109E-14 9.40359E-14
 -1      1226 2.29725E+01 1.71269E+02 2.49592E+00 2.59533E+01 1.61871E-13-7.61613E-14
 -1      1227 2.23838E+01 1.52327E+02 1.85498E+00 3.03959E+01 1.13909E-13 1.06692E-13
 -1      1228 1.94283E+01 1.32360E+02 1.20603E+00 3.14681E+01 7.88258E-14-5.42240E-14
 -1      1229 1.39558E+01 1.13372E+02 6.32869E-01 3.04496E+01-4.40536E-13 3.27516E-14
 -1      1230 6.68623E+00 9.63188E+01 1.87789E-01 2.87126E+01 2.73559E-13 0.00000E+00
 -1      1231-3.75180E-01 1.00880E+02 7.18104E-03-2.31475E+01-4.00791E-14-1.70364E-13
 -1      1232 7.47211E+00 1.14382E+02 2.35015E-01-2.28131E+01 2.19380E-13 2.22045E-15
 -1      1233 1.47376E+01 1.29211E+02 5.77044E-01-2.26023E+01 1.96843E-13 7.93497E-14
 -1      1234 2.02813E+01 1.44894E+02 1.00680E+00-2.15604E+01 9.40359E-14 5.58442E-14
 -1      1235 2.35975E+01 1.60012E+02 1.46492E+00-1.85322E+01-2.07390E-13-3.98570E-13
 -1      1236 2.49986E+01 1.72268E+02 1.85682E+00-1.28088E+01-1.07581E-13-1.50879E-13
 -1      1237 2.53223E+01 1.79168E+02 2.08328E+00-4.71778E+00 2.54241E-14-6.42819E-14
 -1      1238 2.52667E+01 1.79077E+02 2.08031E+00 4.31702E+00-2.60292E-13-2.33591E-13
 -1      1239 2.48370E+01 1.72006E+02 1.84883E+00 1.24035E+01-2.03726E-14 4.77396E-15
 -1      1240 2.33463E+01 1.59614E+02 1.45420E+00 1.81242E+01 9.01501E-14-6.80567E-14
 -1      1241 1.99692E+01 1.44397E+02 9.95990E-01 2.11580E+01 1.33782E-13-7.07212E-14
 -1      1242 1.44014E+01 1.28650E+02 5.68088E-01 2.22137E+01 8.11573E-14 1.50671E-13
 -1      1243 7.14742E+00 1.13780E+02 2.28791E-01 2.24404E+01-1.17573E-13-2.17354E-13
 -1      1244-6.63792E-01 1.00256E+02 3.56382E-03 2.27850E+01 9.67004E-14-3.07532E-14
 -1      1245-5.58635E+00 1.03138E+02-6.86024E-02-1.84314E+01 5.78426E-14-3.60878E-13
 -1      1246 2.18299E+00 1.13971E+02 3.10031E-02-1.65697E+01-1.01807E-13-2.13884E-13
 -1      1247 1.04135E+01 1.25566E+02 2.19987E-01-1.52751E+01-1.93734E-13 3.64847E-14
 -1      1248 1.77884E+01 1.37755E+02 4.90754E-01-1.40516E+01-4.84057E-14 2.55129E-13
 -1      1249 2.33071E+01 1.49626E+02 8.07263E-01-1.20099E+01 1.86851E-13-1.97731E-13
 -1      1250 2.66436E+01 1.59406E+02 1.09541E+00-8.38972E+00 8.81517E-14-8.31557E-14
 -1      1251 2.80841E+01 1.64988E+02 1.26824E+00-3.17691E+00-5.87863E-14-1.66533E-15
 -1      1252 2.80229E+01 1.64913E+02 1.26641E+00 2.71042E+00-1.12688E-13 2.28262E-13
 -1      1253 2.64687E+01 1.59190E+02 1.09063E+00 7.93055E+00-2.58793E-13 1.00919E-13
 -1      1254 2.30435E+01 1.49291E+02 8.01226E-01 1.15672E+01-1.58540E-13-1.86073E-13
 -1      1255 1.74735E+01 1.37327E+02 4.85209E-01 1.36335E+01 1.60760E-13 2.12108E-13
 -1      1256 1.00879E+01 1.25065E+02 2.15996E-01 1.48838E+01 2.65343E-14-6.80428E-14
 -1      1257 1.87972E+00 1.13414E+02 2.87757E-02 1.61990E+01-2.59459E-13 3.09752E-14
 -1      1258-5.85069E+00 1.02539E+02-6.94778E-02 1.80691E+01-1.59095E-13-1.38500E-13
 -1      1259-9.04911E+00 1.04090E+02-8.62084E-02-1.47092E+01 2.11720E-13 3.46889E-13
 -1      1260-1.77060E+00 1.12928E+02-5.73864E-02-1.18009E+01-1.99840E-15-8.95117E-14
 -1      1261 6.78415E+00 1.22033E+02 3.66980E-02-9.61796E+00-2.65565E-13-1.19203E-13
 -1      1262 1.53041E+01 1.31392E+02 1.99283E-01-8.09413E+00-7.99361E-14 1.73750E-14
 -1      1263 2.24621E+01 1.40485E+02 4.12230E-01-6.68279E+00-1.20237E-13 1.07359E-13
 -1      1264 2.73751E+01 1.48050E+02 6.20332E-01-4.69692E+00 9.43134E-14 1.90736E-13
 -1      1265 2.97708E+01 1.52412E+02 7.50329E-01-1.87332E+00-7.48845E-14 6.01741E-14
 -1      1266 2.97065E+01 1.52350E+02 7.49253E-01 1.35045E+00-1.61843E-13 9.14824E-14
 -1      1267 2.71938E+01 1.47870E+02 6.17628E-01 4.19054E+00-1.10967E-13-7.94920E-14
 -1      1268 2.21951E+01 1.40199E+02 4.09093E-01 6.20676E+00-3.41949E-14 5.31797E-14
 -1      1269 1.49942E+01 1.31014E+02 1.96810E-01 7.65533E+00-6.99441E-15 1.38362E-13
 -1      1270 6.47256E+00 1.21574E+02 3.53696E-02 9.21298E+00 2.63123E-14-7.44439E-14
 -1      1271-2.05604E+00 1.12402E+02-5.76912E-02 1.14176E+01 1.90847E-13-3.21410E-14
 -1      1272-9.29927E+00 1.03510E+02-8.59414E-02 1.43323E+01-1.38556E-13-4.23550E-14
 -1      1273-1.11397E+01 1.04044E+02-7.69507E-02-1.17807E+01-7.46625E-14 1.09718E-13
 -1      1274-4.59306E+00 1.11385E+02-8.51303E-02-8.22703E+00 1.24456E-13 1.84575E-14
 -1      1275 3.81665E+00 1.18595E+02-4.78976E-02-5.37044E+00 2.62013E-14 6.79491E-14
 -1      1276 1.29109E+01 1.25707E+02 4.34816E-02-3.50711E+00-2.07612E-13 4.15223E-14
 -1      1277 2.11906E+01 1.32479E+02 1.83410E-01-2.45648E+00 1.81521E-13 2.33702E-14
 -1      1278 2.73213E+01 1.38106E+02 3.32295E-01-1.69521E+00-7.71605E-15 8.83738E-14
 -1      1279 3.04996E+01 1.41368E+02 4.29659E-01-8.00098E-01-1.89945E-13 2.69784E-14
 -1      1280 3.04343E+01 1.41316E+02 4.29069E-01 2.28259E-01 1.61288E-13 1.42109E-13
 -1      1281 2.71391E+01 1.37952E+02 3.30900E-01 1.14655E+00-1.46549E-14-6.88338E-14
 -1      1282 2.09271E+01 1.32228E+02 1.82020E-01 1.94756E+00-1.16351E-13 7.88258E-15
 -1      1283 1.26113E+01 1.25364E+02 4.27281E-02 3.04265E+00 9.15934E-14 1.25094E-13
 -1      1284 3.52001E+00 1.18166E+02-4.78855E-02 4.94247E+00-1.76859E-13-1.65354E-14
 -1      1285-4.86484E+00 1.10879E+02-8.46085E-02 7.81984E+00-1.44329E-13-8.49876E-14
 -1      1286-1.13840E+01 1.03477E+02-7.63061E-02 1.13785E+01 2.92433E-13-4.59077E-14
 -1      1287-1.21847E+01 1.03272E+02-5.75805E-02-9.47906E+00-1.97065E-14-1.05277E-13
 -1      1288-6.48296E+00 1.09474E+02-8.35453E-02-5.60159E+00 1.60039E-13 1.52656E-14
 -1      1289 1.45908E+00 1.15256E+02-7.95046E-02-2.28466E+00-1.54987E-13-1.04847E-14
 -1      1290 1.06714E+01 1.20618E+02-3.44177E-02-1.01188E-01-2.33424E-13 5.50393E-14
 -1      1291 1.96139E+01 1.25494E+02 5.45344E-02 7.80760E-01 1.15408E-13 1.80689E-13
 -1      1292 2.66163E+01 1.29466E+02 1.60107E-01 6.65135E-01 2.56462E-14-1.71529E-13
 -1      1293 3.04006E+01 1.31759E+02 2.32942E-01 5.50578E-02-2.09679E-13 1.78746E-13
 -1      1294 3.03360E+01 1.31714E+02 2.32663E-01-6.70375E-01 3.05589E-14-1.13243E-13
 -1      1295 2.64374E+01 1.29330E+02 1.59527E-01-1.25287E+00 9.95315E-14 1.05804E-13
 -1      1296 1.93587E+01 1.25266E+02 5.41713E-02-1.32320E+00-2.13107E-13 6.30052E-14
 -1      1297 1.03851E+01 1.20297E+02-3.42515E-02-3.93633E-01 9.90874E-14-9.95870E-14
 -1      1298 1.17675E+00 1.14845E+02-7.88811E-02 1.82617E+00 4.29101E-14 7.77226E-14
 -1      1299-6.74547E+00 1.08980E+02-8.27481E-02 5.16224E+00 4.97380E-14-9.53404E-15
 -1      1300-1.24300E+01 1.02711E+02-5.68984E-02 9.04411E+00-7.49401E-14 9.53959E-14
 -1      1301-1.24595E+01 1.02002E+02-3.64890E-02-7.66795E+00-6.90004E-14-4.14946E-14
 -1      1302-7.62508E+00 1.07319E+02-6.93799E-02-3.71345E+00 7.62723E-14-1.63550E-13
 -1      1303-3.52829E-01 1.12029E+02-8.41003E-02-1.33014E-01-5.60663E-15 1.16704E-14
 -1      1304 8.62976E+00 1.16052E+02-6.91954E-02 2.31251E+00 1.77081E-14-2.31759E-14
 -1      1305 1.78423E+01 1.19417E+02-1.63556E-02 3.15178E+00-2.31759E-13-9.58122E-14
 -1      1306 2.53955E+01 1.22013E+02 5.69435E-02 2.44524E+00 1.62870E-13-8.19900E-14
 -1      1307 2.96124E+01 1.23476E+02 1.10973E-01 7.08949E-01-1.19460E-13-6.20615E-14
 -1      1308 2.95497E+01 1.23436E+02 1.10891E-01-1.36413E+00 3.49595E-13-1.31006E-14
 -1      1309 2.52229E+01 1.21889E+02 5.68656E-02-3.07038E+00 2.19436E-13 1.75027E-13
 -1      1310 1.75985E+01 1.19203E+02-1.61326E-02-3.72919E+00-1.42442E-13-9.21485E-14
 -1      1311 8.35791E+00 1.15744E+02-6.85754E-02-2.84209E+00 4.77229E-13 1.04083E-13
 -1      1312-6.22652E-01 1.11626E+02-8.32592E-02-3.62035E-01-1.06581E-13 9.48573E-14
 -1      1313-7.88268E+00 1.06830E+02-6.85742E-02 3.23582E+00 9.62563E-14 7.24837E-14
 -1      1314-1.27114E+01 1.01441E+02-3.59085E-02 7.19499E+00-8.97615E-14-2.69618E-13
 -1      1315-1.21902E+01 1.00422E+02-1.75819E-02-6.23777E+00 2.74475E-13 1.92485E-13
 -1      1316-8.18589E+00 1.05032E+02-5.12717E-02-2.38614E+00 1.47604E-13-2.66356E-13
 -1      1317-1.69078E+00 1.08933E+02-7.58384E-02 1.28723E+00-7.78266E-14 1.04111E-13
 -1      1318 6.81199E+00 1.11951E+02-8.06595E-02 3.91516E+00-4.56857E-14-1.98355E-13
 -1      1319 1.59723E+01 1.14143E+02-5.40759E-02 4.78441E+00-7.38298E-15-1.83520E-13
 -1      1320 2.37893E+01 1.15627E+02-5.71258E-03 3.71417E+00 3.59518E-13 1.08802E-14
 -1      1321 2.82754E+01 1.16399E+02 3.32874E-02 1.18190E+00-5.32907E-14-1.92568E-13
 -1      1322 2.82154E+01 1.16361E+02 3.33303E-02-1.87506E+00 5.88279E-14-4.04121E-14
 -1      1323 2.36251E+01 1.15510E+02-5.48988E-03-4.37642E+00 3.56382E-13-8.93174E-14
 -1      1324 1.57416E+01 1.13936E+02-5.35406E-02-5.39887E+00-6.67244E-14-4.56579E-14
 -1      1325 6.55432E+00 1.11647E+02-7.98596E-02-4.48356E+00 8.95950E-14 9.49379E-14
 -1      1326-1.95061E+00 1.08532E+02-7.49919E-02-1.82363E+00-9.57012E-14-8.21362E-14
 -1      1327-8.44268E+00 1.04541E+02-5.05829E-02 1.86586E+00-1.54932E-13 2.00256E-14
 -1      1328-1.24533E+01 9.98548E+01-1.71525E-02 5.72332E+00 1.67838E-13 1.90958E-14
 -1      1329-1.15567E+01 9.86778E+01-2.43016E-03-5.10177E+00 2.93932E-14-1.48243E-13
 -1      1330-8.31032E+00 1.02705E+02-3.35191E-02-1.47587E+00-3.10307E-14 6.38239E-14
 -1      1331-2.62884E+00 1.05989E+02-6.22469E-02 2.15126E+00-2.20601E-13-1.19449E-13
 -1      1332 5.22845E+00 1.08266E+02-7.97106E-02 4.87437E+00-4.01901E-14 1.05749E-13
 -1      1333 1.40843E+01 1.09574E+02-7.25580E-02 5.80563E+00-3.86358E-14 1.84713E-13
 -1      1334 2.19185E+01 1.10189E+02-4.40938E-02 4.54531E+00 3.80529E-14-8.19900E-14
 -1      1335 2.65252E+01 1.10403E+02-1.75988E-02 1.49662E+00-1.65326E-13 1.89904E-13
 -1      1336 2.64686E+01 1.10366E+02-1.74816E-02-2.22738E+00 2.49495E-13-1.15685E-13
 -1      1337 2.17638E+01 1.10073E+02-4.37050E-02-5.24555E+00-2.95042E-14 1.67033E-13
 -1      1338 1.38670E+01 1.09368E+02-7.18873E-02-6.45971E+00-1.77247E-13-9.62008E-14
 -1      1339 4.98376E+00 1.07960E+02-7.88966E-02-5.48526E+00 2.54408E-13-4.44089E-15
 -1      1340-2.88152E+00 1.05584E+02-6.15118E-02-2.73277E+00-3.71925E-14-1.60476E-13
 -1      1341-8.57006E+00 1.02208E+02-3.30046E-02 9.09874E-01-2.51466E-14 1.11799E-13
 -1      1342-1.18350E+01 9.81009E+01-2.16560E-03 4.54365E+00-4.78784E-14-5.71487E-14
 -1      1343-1.06979E+01 9.68814E+01 8.84062E-03-4.19212E+00-1.78205E-13 2.60347E-13
 -1      1344-8.12018E+00 1.00413E+02-1.80299E-02-8.68211E-01 2.11497E-14-1.36995E-13
 -1      1345-3.23929E+00 1.03218E+02-4.74214E-02 2.60596E+00 2.02449E-13 2.31512E-13
 -1      1346 3.87636E+00 1.04954E+02-7.25091E-02 5.33982E+00 4.05787E-14 2.93376E-14
 -1      1347 1.22414E+01 1.05619E+02-7.95486E-02 6.33652E+00 2.44527E-14-3.49998E-14
 -1      1348 1.98904E+01 1.05579E+02-6.70427E-02 5.01279E+00-1.31894E-13 1.21791E-13
 -1      1349 2.44883E+01 1.05361E+02-5.11345E-02 1.67698E+00-6.86534E-14-9.23706E-14
 -1      1350 2.44353E+01 1.05324E+02-5.09792E-02-2.44626E+00-9.96148E-14 2.63234E-13
 -1      1351 1.97455E+01 1.05462E+02-6.65835E-02-5.75281E+00-1.78996E-13-4.82669E-14
 -1      1352 1.20371E+01 1.05409E+02-7.88628E-02-7.03307E+00 2.58710E-13 5.89528E-14
 -1      1353 3.64288E+00 1.04643E+02-7.17859E-02-5.99650E+00-2.09888E-13 5.41234E-14
 -1      1354-3.48771E+00 1.02804E+02-4.68629E-02-3.23546E+00 5.78981E-14 1.80098E-13
 -1      1355-8.38620E+00 9.99057E+01-1.77157E-02 2.54509E-01-9.95037E-14-9.96217E-14
 -1      1356-1.09945E+01 9.62913E+01 8.93715E-03 3.58925E+00 1.59373E-13 7.00134E-14
 -1      1357-9.71894E+00 9.51107E+01 1.56360E-02-3.45635E+00-4.50612E-14-9.53959E-14
 -1      1358-7.71725E+00 9.82098E+01-6.70831E-03-4.74773E-01 3.43947E-13-2.63886E-14
 -1      1359-3.59124E+00 1.00633E+02-3.42963E-02 2.77065E+00-5.00433E-14 6.43153E-14
 -1      1360 2.74301E+00 1.01981E+02-6.25378E-02 5.44114E+00 1.28841E-13 1.71391E-14
 -1      1361 1.04915E+01 1.02196E+02-7.90238E-02 6.48859E+00-2.76723E-14-2.15522E-14
 -1      1362 1.77967E+01 1.01687E+02-7.93086E-02 5.18832E+00-8.95672E-14-1.25511E-13
 -1      1363 2.22768E+01 1.01150E+02-7.27429E-02 1.74676E+00 6.21378E-14 2.00118E-14
 -1      1364 2.22274E+01 1.01111E+02-7.25752E-02-2.55648E+00 2.30885E-13-1.55043E-13
 -1      1365 1.76615E+01 1.01566E+02-7.88476E-02-5.97058E+00-2.59265E-13-5.50116E-14
 -1      1366 1.02992E+01 1.01980E+02-7.84092E-02-7.23058E+00-8.68194E-14 2.84078E-14
 -1      1367 2.51874E+00 1.01661E+02-6.19776E-02-6.14649E+00-2.35062E-13 4.55191E-14
 -1      1368-3.83806E+00 1.00209E+02-3.39550E-02-3.45028E+00-1.14825E-13-1.63349E-13
 -1      1369-7.99235E+00 9.76907E+01-6.60816E-03-1.87715E-01-3.15303E-14 1.07366E-13
 -1      1370-1.00367E+01 9.45052E+01 1.55546E-02 2.80867E+00 2.82677E-13 1.64979E-13
 -1      1371-8.68996E+00 9.34205E+01 2.04364E-02-2.85476E+00 2.22988E-13-5.40609E-14
 -1      1372-7.16907E+00 9.61410E+01 5.34842E-03-2.27189E-01-4.49085E-14-2.36547E-14
 -1      1373-3.72683E+00 9.82547E+01-1.63205E-02 2.74251E+00-1.33130E-13-5.92946E-14
 -1      1374 1.83019E+00 9.93255E+01-4.40098E-02 5.28952E+00-9.17044E-14 1.15748E-13
 -1      1375 8.88274E+00 9.92385E+01-6.81119E-02 6.36132E+00 4.26048E-14 2.06224E-14
 -1      1376 1.57184E+01 9.84115E+01-8.11171E-02 5.13762E+00 9.02473E-14 6.35048E-14
 -1      1377 1.99862E+01 9.76510E+01-8.43685E-02 1.72824E+00-2.57641E-14-1.23318E-13
 -1      1378 1.99404E+01 9.76107E+01-8.41948E-02-2.58101E+00-2.43222E-13 1.74888E-13
 -1      1379 1.55925E+01 9.82851E+01-8.06719E-02-5.96502E+00-9.74498E-14-5.09037E-14
 -1      1380 8.70138E+00 9.90141E+01-6.75937E-02-7.15169E+00 6.55032E-15 2.33563E-14
 -1      1381 1.61327E+00 9.89955E+01-4.36386E-02-6.04595E+00 2.34063E-13-4.91898E-14
 -1      1382-3.97428E+00 9.78202E+01-1.62122E-02-3.47364E+00-3.42865E-13 1.43652E-13
 -1      1383-7.45548E+00 9.56090E+01 5.23536E-03-4.84269E-01 5.58303E-14-4.99600E-14
 -1      1384-9.03112E+00 9.27997E+01 2.01957E-02 2.16333E+00 7.42600E-14-1.17066E-13
 -1      1385 3.75725E+01 7.67971E+01 1.50008E+00-5.12650E+01-1.04405E-12-1.05516E-12
 -1      1386 2.69779E+01 6.99612E+01 5.85532E-01-4.11255E+01-2.89990E-13 3.79252E-13
 -1      1387 3.83996E+01 1.08174E+02 3.07919E+00-6.09230E+01 6.58140E-13 3.49720E-13
 -1      1388 3.21751E+01 9.56415E+01 1.76926E+00-5.01739E+01 2.97540E-14-3.39728E-13
 -1      1389 3.41063E+01 1.42346E+02 4.62744E+00-6.50265E+01-1.82077E-13 3.55271E-15
 -1      1390 3.26195E+01 1.24845E+02 2.96893E+00-5.60567E+01 2.39808E-14 1.07470E-13
 -1      1391 2.62920E+01 1.76181E+02 6.03308E+00-6.19953E+01 5.09370E-13-3.90687E-13
 -1      1392 2.88497E+01 1.55573E+02 4.12691E+00-5.67932E+01-1.27010E-13-2.12552E-13
 -1      1393 1.72381E+01 2.06036E+02 7.19269E+00-5.13545E+01-2.36700E-13 8.31495E-13
 -1      1394 2.23733E+01 1.84835E+02 5.15582E+00-5.10787E+01-2.25153E-13 1.09135E-13
 -1      1395 9.41403E+00 2.28319E+02 8.01558E+00-3.39481E+01 4.75175E-14-1.53622E-12
 -1      1396 1.53450E+01 2.09161E+02 5.97033E+00-3.87327E+01-5.93969E-13-2.40474E-13
 -1      1397 4.90350E+00 2.40163E+02 8.43744E+00-1.18862E+01 6.56364E-13 4.03011E-13
 -1      1398 9.99515E+00 2.25269E+02 6.49210E+00-2.09307E+01 5.08482E-13-3.65930E-13
 -1      1399 4.89291E+00 2.39985E+02 8.42594E+00 1.18134E+01-1.31006E-14 2.23155E-14
 -1      1400 7.99438E+00 2.30811E+02 6.66660E+00-5.94191E-02-1.78413E-13 5.88862E-13
 -1      1401 9.37223E+00 2.27811E+02 7.98258E+00 3.38089E+01 1.93845E-13-6.23446E-13
 -1      1402 9.95593E+00 2.24952E+02 6.47480E+00 2.07827E+01 3.10418E-13 1.43663E-13
 -1      1403 1.71396E+01 2.05273E+02 7.14250E+00 5.11014E+01-1.98952E-13 2.42365E-13
 -1      1404 1.52515E+01 2.08576E+02 5.93817E+00 3.85068E+01-9.75220E-13-2.33147E-15
 -1      1405 2.61073E+01 1.75269E+02 5.97208E+00 6.16125E+01-6.66134E-14 9.54903E-13
 -1      1406 2.22038E+01 1.84064E+02 5.11316E+00 5.07504E+01 3.32179E-13 6.83786E-13
 -1      1407 3.38163E+01 1.41398E+02 4.56308E+00 6.45325E+01-3.52607E-13-3.54605E-13
 -1      1408 2.85889E+01 1.54715E+02 4.07925E+00 5.63683E+01-7.94920E-14 1.43552E-13
 -1      1409 3.80061E+01 1.07287E+02 3.01888E+00 6.03631E+01 7.06102E-13-1.08780E-12
 -1      1410 3.22691E+01 1.23989E+02 2.92197E+00 5.55658E+01 1.67422E-13-3.50830E-13
 -1      1411 3.71022E+01 7.60379E+01 1.45019E+00 5.06972E+01 5.68434E-14-4.93827E-13
 -1      1412 3.17579E+01 9.48549E+01 1.72810E+00 4.96604E+01 2.70006E-13-9.03722E-14
 -1      1413 2.65335E+01 6.92837E+01 5.54101E-01 4.06315E+01-9.23706E-14-5.27134E-13
 -1      1414 2.30965E+01 8.67592E+01 7.46844E-01-4.10693E+01 6.43929E-14 1.06581E-14
 -1      1415 1.35912E+01 8.11371E+01 3.08247E-01-3.42395E+01 8.11795E-13 3.49942E-13
 -1      1416 2.74699E+01 1.11338E+02 1.71828E+00-4.71151E+01-1.74083E-13-2.25597E-13
 -1      1417 2.05119E+01 1.01282E+02 9.36528E-01-3.91247E+01 3.41949E-14 3.26406E-14
 -1      1418 2.80102E+01 1.38552E+02 2.79034E+00-5.00590E+01 1.15907E-13 3.10640E-13
 -1      1419 2.44827E+01 1.24165E+02 1.64140E+00-4.26798E+01-2.44249E-13 3.98459E-13
 -1      1420 2.51808E+01 1.66290E+02 3.86825E+00-4.81904E+01-2.62901E-13-4.20497E-13
 -1      1421 2.50867E+01 1.48679E+02 2.38129E+00-4.32250E+01 1.83409E-13-3.17080E-13
 -1      1422 2.03560E+01 1.91526E+02 4.83025E+00-4.04852E+01-2.69562E-13-2.84217E-14
 -1      1423 2.28652E+01 1.72653E+02 3.08835E+00-3.92813E+01-5.73319E-13 1.13465E-13
 -1      1424 1.54824E+01 2.10860E+02 5.55348E+00-2.71084E+01 4.48530E-14-1.13731E-12
 -1      1425 1.92340E+01 1.93115E+02 3.68052E+00-3.01719E+01 9.72555E-14-2.45581E-13
 -1      1426 1.24514E+01 2.21316E+02 5.93842E+00-9.59740E+00 4.09561E-13 6.37934E-13
 -1      1427 1.60130E+01 2.06944E+02 4.07531E+00-1.64863E+01 2.83551E-13-3.54827E-13
 -1      1428 1.24237E+01 2.21167E+02 5.93024E+00 9.41401E+00 3.70259E-13 7.21867E-13
 -1      1429 1.47209E+01 2.11760E+02 4.21079E+00-1.12203E-01 2.09055E-13 1.53655E-13
 -1      1430 1.53938E+01 2.10435E+02 5.53038E+00 2.68791E+01-5.36460E-13 4.64961E-13
 -1      1431 1.59452E+01 2.06683E+02 4.06444E+00 1.62427E+01 7.04992E-13 3.00426E-13
 -1      1432 2.01943E+01 1.90890E+02 4.79624E+00 4.01806E+01-1.23901E-13 6.59806E-13
 -1      1433 1.90919E+01 1.92631E+02 3.66071E+00 2.98787E+01-6.98108E-13 3.75255E-14
 -1      1434 2.49372E+01 1.65527E+02 3.82883E+00 4.78065E+01-7.10543E-15 4.50084E-13
 -1      1435 2.26432E+01 1.72013E+02 3.06287E+00 3.89273E+01 4.01901E-13 4.88720E-13
 -1      1436 2.76890E+01 1.37746E+02 2.75118E+00 4.96151E+01-1.94067E-13-6.21725E-14
 -1      1437 2.47895E+01 1.47957E+02 2.35398E+00 4.28203E+01 8.34888E-14 1.53572E-13
 -1      1438 2.70921E+01 1.10556E+02 1.68407E+00 4.66432E+01 2.04281E-14 4.57412E-14
 -1      1439 2.41302E+01 1.23424E+02 1.61577E+00 4.22474E+01-1.58540E-13 6.77236E-15
 -1      1440 2.26959E+01 8.60448E+01 7.20673E-01 4.06022E+01-7.48734E-13 7.03881E-13
 -1      1441 2.01361E+01 1.00566E+02 9.15270E-01 3.86897E+01-5.59552E-13 1.36557E-13
 -1      1442 1.32272E+01 8.04735E+01 2.92905E-01 3.38198E+01-2.66454E-14 1.98508E-13
 -1      1443 1.17138E+01 9.39248E+01 2.77205E-01-3.27486E+01-5.95080E-14 7.74936E-14
 -1      1444 3.60033E+00 8.91667E+01 1.64283E-01-2.84826E+01 8.04246E-13-1.25677E-13
 -1      1445 1.81651E+01 1.13135E+02 8.10811E-01-3.57711E+01 3.68594E-13 9.57900E-13
 -1      1446 1.12273E+01 1.05157E+02 4.83877E-01-3.02247E+01 2.51799E-13 4.24993E-13
 -1      1447 2.21667E+01 1.34542E+02 1.48631E+00-3.74113E+01-1.60316E-13-5.35377E-13
 -1      1448 1.74948E+01 1.23095E+02 8.79097E-01-3.17453E+01 6.22613E-13-5.78426E-14
 -1      1449 2.33408E+01 1.56851E+02 2.24375E+00-3.61437E+01-1.39888E-13 3.47278E-13
 -1      1450 2.14019E+01 1.42465E+02 1.32221E+00-3.18263E+01-9.76996E-14-1.48104E-13
 -1      1451 2.22106E+01 1.77708E+02 2.97800E+00-3.07238E+01 8.88178E-16 8.20233E-13
 -1      1452 2.27128E+01 1.61796E+02 1.77180E+00-2.90883E+01-6.43041E-13 2.76668E-13
 -1      1453 2.00793E+01 1.94082E+02 3.56353E+00-2.08331E+01 6.26166E-14-1.26565E-13
 -1      1454 2.21010E+01 1.78680E+02 2.16702E+00-2.26025E+01 1.47216E-13-9.52571E-14
 -1      1455 1.84797E+01 2.03088E+02 3.88695E+00-7.47156E+00 3.84026E-13-8.06466E-13
 -1      1456 2.08624E+01 1.90310E+02 2.43987E+00-1.24966E+01 3.31735E-13-3.84581E-13
 -1      1457 1.84385E+01 2.02965E+02 3.88150E+00 7.19194E+00 2.75446E-13 2.05169E-13
 -1      1458 2.02479E+01 1.94405E+02 2.53558E+00-1.58112E-01-1.47139E-13-3.28626E-14
 -1      1459 1.99550E+01 1.93732E+02 3.54845E+00 2.05260E+01-4.11449E-13 5.35127E-14
 -1      1460 2.07722E+01 1.90095E+02 2.43339E+00 1.21700E+01 3.76366E-13 2.68230E-13
 -1      1461 2.20035E+01 1.77182E+02 2.95665E+00 3.03749E+01-1.73195E-14-3.33289E-13
 -1      1462 2.19223E+01 1.78281E+02 2.15541E+00 2.22505E+01-8.59313E-13-1.33227E-13
 -1      1463 2.30596E+01 1.56214E+02 2.22039E+00 3.57562E+01 3.99680E-13 3.26517E-13
 -1      1464 2.24543E+01 1.61264E+02 1.75731E+00 2.87096E+01 4.62741E-13 1.55431E-13
 -1      1465 2.18328E+01 1.33854E+02 1.46477E+00 3.70014E+01 1.13687E-13-3.02730E-13
 -1      1466 2.10840E+01 1.41852E+02 1.30726E+00 3.14313E+01 7.10543E-14 1.88793E-13
 -1      1467 1.78096E+01 1.12440E+02 7.93621E-01 3.53577E+01-4.52527E-13 1.42553E-13
 -1      1468 1.71485E+01 1.22444E+02 8.65711E-01 3.13486E+01-4.18332E-13-2.69396E-13
 -1      1469 1.13694E+01 9.32525E+01 2.65348E-01 3.23449E+01 1.78080E-13-4.70735E-14
 -1      1470 1.08868E+01 1.04498E+02 4.73361E-01 2.98363E+01 9.68114E-14-5.04041E-14
 -1      1471 3.29247E+00 8.85202E+01 1.57082E-01 2.81045E+01-1.53655E-13 1.59428E-13
 -1      1472 3.12962E+00 9.88839E+01 4.61814E-02-2.60779E+01 9.90319E-14-2.65121E-13
 -1      1473-3.56409E+00 9.45816E+01 8.54336E-02-2.36968E+01 3.41949E-13-7.44294E-13
 -1      1474 1.05834E+01 1.14001E+02 3.05149E-01-2.67190E+01-4.97380E-14 3.43059E-14
 -1      1475 4.06104E+00 1.07473E+02 2.48431E-01-2.31683E+01-1.12355E-13 2.40918E-14
 -1      1476 1.68849E+01 1.30743E+02 6.94138E-01-2.70818E+01 2.08722E-13-2.45581E-13
 -1      1477 1.16320E+01 1.21599E+02 4.65735E-01-2.29975E+01 3.23297E-13-2.76890E-13
 -1      1478 2.11115E+01 1.48420E+02 1.18949E+00-2.60111E+01-1.34115E-13-3.83915E-13
 -1      1479 1.78822E+01 1.36793E+02 7.17047E-01-2.24699E+01-2.66454E-14 1.32117E-13
 -1      1480 2.30619E+01 1.65319E+02 1.71557E+00-2.22880E+01-2.25597E-13 1.15907E-13
 -1      1481 2.20057E+01 1.52134E+02 9.81519E-01-2.04833E+01-4.57412E-13-3.90799E-14
 -1      1482 2.33621E+01 1.78885E+02 2.16234E+00-1.52991E+01 1.10356E-13-1.08669E-12
 -1      1483 2.39887E+01 1.65781E+02 1.22192E+00-1.60589E+01 8.75966E-13-8.05134E-13
 -1      1484 2.30805E+01 1.86467E+02 2.41873E+00-5.57579E+00-1.13021E-13 4.91163E-13
 -1      1485 2.45409E+01 1.75340E+02 1.39243E+00-8.99284E+00-3.32179E-13-2.01617E-13
 -1      1486 2.30294E+01 1.86366E+02 2.41527E+00 5.21300E+00 3.34177E-13-3.26850E-13
 -1      1487 2.45553E+01 1.78740E+02 1.45328E+00-1.97449E-01 1.13857E-13-1.87406E-13
 -1      1488 2.32119E+01 1.78597E+02 2.15299E+00 1.49248E+01-3.05977E-13 5.08926E-13
 -1      1489 2.44343E+01 1.75163E+02 1.38876E+00 8.59497E+00 9.59233E-14 2.39808E-14
 -1      1490 2.28243E+01 1.64884E+02 1.70296E+00 2.18993E+01-2.00728E-13-2.61346E-13
 -1      1491 2.37848E+01 1.65450E+02 1.21543E+00 1.56557E+01-3.13083E-13-1.15019E-13
 -1      1492 2.08091E+01 1.47884E+02 1.17666E+00 2.56152E+01 4.35652E-13 2.35700E-13
 -1      1493 2.17249E+01 1.51686E+02 9.73609E-01 2.00798E+01 3.31291E-13-4.57412E-14
 -1      1494 1.65502E+01 1.30146E+02 6.83403E-01 2.66897E+01-4.61853E-14 3.12333E-13
 -1      1495 1.75561E+01 1.36263E+02 7.09138E-01 2.20750E+01 1.31006E-13 1.15352E-13
 -1      1496 1.02511E+01 1.13374E+02 2.97560E-01 2.63376E+01 1.16351E-13-4.93383E-13
 -1      1497 1.12974E+01 1.21017E+02 4.58925E-01 2.26170E+01-3.46390E-13-4.43534E-14
 -1      1498 2.82692E+00 9.82467E+01 4.16735E-02 2.57071E+01-9.72555E-14-6.55032E-14
 -1      1499 3.74936E+00 1.06859E+02 2.43350E-01 2.28009E+01-1.07025E-13-2.54907E-13
 -1      1500-3.83499E+00 9.39530E+01 8.21395E-02 2.33353E+01 1.20348E-13-1.19460E-13
 -1      1501-3.07039E+00 1.01997E+02-4.29737E-02-2.07697E+01-3.80140E-13-6.34381E-13
 -1      1502-8.45183E+00 9.79260E+01 3.86073E-02-1.97255E+01 2.83107E-13-9.02167E-13
 -1      1503 4.62613E+00 1.14035E+02 5.85431E-02-1.96165E+01-9.76996E-15-4.92273E-13
 -1      1504-1.29984E+00 1.08498E+02 1.25747E-01-1.76422E+01-4.34319E-13-1.69420E-13
 -1      1505 1.22951E+01 1.27103E+02 2.58728E-01-1.88190E+01 1.98952E-13 5.12715E-13
 -1      1506 6.80987E+00 1.19714E+02 2.48521E-01-1.61350E+01-3.74811E-13-2.32009E-13
 -1      1507 1.87291E+01 1.40918E+02 5.60490E-01-1.76687E+01 1.99396E-13 5.42122E-13
 -1      1508 1.45774E+01 1.31568E+02 3.86984E-01-1.49576E+01 4.80949E-13 1.82410E-13
 -1      1509 2.31591E+01 1.54324E+02 9.17856E-01-1.51470E+01-1.75859E-13-1.39866E-12
 -1      1510 2.08297E+01 1.43545E+02 5.31144E-01-1.33780E+01 2.75779E-13-1.25455E-13
 -1      1511 2.55549E+01 1.65290E+02 1.24364E+00-1.05145E+01 5.44009E-13-1.18128E-13
 -1      1512 2.49606E+01 1.54321E+02 6.61936E-01-1.05217E+01-4.19664E-14-2.72005E-13
 -1      1513 2.64567E+01 1.71508E+02 1.43852E+00-3.91757E+00-5.68434E-14-6.01741E-13
 -1      1514 2.70791E+01 1.61972E+02 7.55305E-01-5.97913E+00 5.77316E-15-1.27010E-13
 -1      1515 2.63985E+01 1.71426E+02 1.43643E+00 3.48363E+00 9.00391E-14-2.22045E-13
 -1      1516 2.76599E+01 1.64715E+02 7.88839E-01-2.31075E-01 1.99188E-13 1.31450E-13
 -1      1517 2.53875E+01 1.65053E+02 1.23815E+00 1.00823E+01 2.66454E-15 2.30926E-14
 -1      1518 2.69618E+01 1.61826E+02 7.53328E-01 5.52008E+00-2.47025E-13 1.53655E-13
 -1      1519 2.29033E+01 1.53961E+02 9.10901E-01 1.47222E+01 4.35207E-14-1.90070E-13
 -1      1520 2.47414E+01 1.54045E+02 6.58465E-01 1.00733E+01-2.61124E-13-1.72529E-13
 -1      1521 1.84180E+01 1.40460E+02 5.54079E-01 1.72595E+01 3.68150E-13-9.98090E-14
 -1      1522 2.05384E+01 1.43162E+02 5.26949E-01 1.29488E+01 2.70450E-13 1.64757E-13
 -1      1523 1.19673E+01 1.26576E+02 2.54082E-01 1.84304E+01 1.85629E-13-5.82034E-14
 -1      1524 1.42528E+01 1.31102E+02 3.82857E-01 1.45536E+01 2.09166E-13 1.27787E-13
 -1      1525 4.31527E+00 1.13459E+02 5.58651E-02 1.92461E+01-4.70735E-13 3.16192E-13
 -1      1526 6.48992E+00 1.19183E+02 2.45065E-01 1.57545E+01-1.58096E-13-9.60898E-14
 -1      1527-3.34430E+00 1.01388E+02-4.41444E-02 2.04085E+01-1.50990E-14-3.04867E-13
 -1      1528-1.58885E+00 1.07918E+02 1.23305E-01 1.72762E+01 3.13971E-13 1.47438E-13
 -1      1529-8.70080E+00 9.73136E+01 3.71411E-02 1.93620E+01-2.99760E-14-8.72635E-14
 -1      1530-7.33429E+00 1.03621E+02-6.09573E-02-1.65679E+01 1.50768E-13 6.17395E-13
 -1      1531-1.15419E+01 9.96741E+01 8.20611E-03-1.64327E+01-7.69163E-13 6.05072E-13
 -1      1532 8.86822E-02 1.13358E+02-4.29877E-02-1.41382E+01-3.81029E-13-6.25611E-13
 -1      1533-5.13910E+00 1.08493E+02 5.98825E-02-1.33666E+01 3.88356E-13 5.46230E-14
 -1      1534 8.39587E+00 1.23581E+02 4.10159E-02-1.23563E+01-2.75335E-13-3.42892E-13
 -1      1535 2.94950E+00 1.17502E+02 1.36323E-01-1.08656E+01-6.61693E-14-4.38538E-15
 -1      1536 1.63019E+01 1.34239E+02 2.09718E-01-1.09600E+01 3.90799E-13 4.92051E-13
 -1      1537 1.15505E+01 1.26729E+02 2.15435E-01-9.07399E+00-6.34603E-13 7.14984E-14
 -1      1538 2.26362E+01 1.44628E+02 4.40966E-01-9.23851E+00 2.00728E-13-8.88178E-16
 -1      1539 1.93046E+01 1.35921E+02 2.90152E-01-7.65633E+00 5.22693E-13-5.48450E-14
 -1      1540 2.67766E+01 1.53240E+02 6.70588E-01-6.46691E+00-2.61569E-13 5.05374E-13
 -1      1541 2.51338E+01 1.44206E+02 3.51961E-01-5.94873E+00-3.83027E-13 2.93987E-13
 -1      1542 2.87088E+01 1.58184E+02 8.14592E-01-2.49774E+00 8.84848E-14-7.46070E-14
 -1      1543 2.85721E+01 1.50137E+02 3.93476E-01-3.44727E+00 3.96905E-13 2.34479E-13
 -1      1544 2.86464E+01 1.58116E+02 8.13395E-01 2.00291E+00 1.54488E-13 7.31415E-13
 -1      1545 2.96455E+01 1.52276E+02 4.07934E-01-2.59899E-01-1.79216E-13 2.17604E-13
 -1      1546 2.65993E+01 1.53044E+02 6.67583E-01 5.98426E+00-3.11751E-13-6.21725E-14
 -1      1547 2.84487E+01 1.50016E+02 3.92446E-01 2.93531E+00 3.16192E-13 1.07914E-13
 -1      1548 2.23724E+01 1.44320E+02 4.37496E-01 8.77967E+00 9.70335E-14 7.08322E-14
 -1      1549 2.49076E+01 1.43972E+02 3.50129E-01 5.45930E+00-5.89973E-13-7.28306E-14
 -1      1550 1.59916E+01 1.33839E+02 2.07006E-01 1.05325E+01 6.03961E-14 5.83644E-13
 -1      1551 1.90120E+01 1.35587E+02 2.87903E-01 7.19995E+00-1.57652E-14 2.12275E-13
 -1      1552 8.07968E+00 1.23105E+02 3.95634E-02 1.19592E+01-2.39808E-14-1.18988E-13
 -1      1553 1.12340E+01 1.26308E+02 2.13211E-01 8.65283E+00 3.03757E-13 2.91933E-13
 -1      1554-2.03572E-01 1.12819E+02-4.33956E-02 1.37622E+01-2.47802E-13-2.03615E-13
 -1      1555 2.64503E+00 1.17008E+02 1.34500E-01 1.04721E+01-5.07816E-13-2.81664E-13
 -1      1556-7.59014E+00 1.03034E+02-6.08324E-02 1.61990E+01-2.48468E-13 1.12577E-13
 -1      1557-5.41159E+00 1.07938E+02 5.86934E-02 1.29871E+01-1.10800E-13-6.59472E-14
 -1      1558-1.17808E+01 9.90744E+01 7.60290E-03 1.60537E+01 1.02141E-14-1.39666E-13
 -1      1559-1.00575E+01 1.04084E+02-4.73304E-02-1.32552E+01 8.14904E-14 4.62075E-13
 -1      1560-1.32507E+01 1.00232E+02-1.27805E-02-1.37023E+01-4.52749E-13 7.11875E-13
 -1      1561-3.23161E+00 1.12100E+02-6.94954E-02-9.98965E+00 3.11751E-13 3.10751E-13
 -1      1562-7.72776E+00 1.07704E+02 2.13493E-02-1.00955E+01 4.17000E-13-5.20695E-14
 -1      1563 5.16508E+00 1.20151E+02-5.26032E-02-7.43053E+00-3.29514E-13-2.34451E-13
 -1      1564-4.51103E-02 1.15043E+02 7.60736E-02-6.91392E+00 2.37144E-13 9.39526E-14
 -1      1565 1.39202E+01 1.28279E+02 2.94153E-02-5.71181E+00 2.15161E-13-1.46771E-13
 -1      1566 8.84519E+00 1.22230E+02 1.27783E-01-4.59592E+00-8.94174E-13 2.68563E-13
 -1      1567 2.16217E+01 1.36119E+02 1.71318E-01-4.47905E+00 3.36176E-13-9.76996E-14
 -1      1568 1.75464E+01 1.29164E+02 1.68203E-01-3.18099E+00-3.61933E-14-2.68674E-14
 -1      1569 2.71487E+01 1.42650E+02 3.28803E-01-3.12925E+00-9.08162E-14 7.97140E-14
 -1      1570 2.46387E+01 1.35333E+02 1.92722E-01-2.27631E+00-1.98286E-13 3.15081E-13
 -1      1571 2.99446E+01 1.46430E+02 4.33279E-01-1.31226E+00 2.08722E-14 4.40536E-13
 -1      1572 2.91395E+01 1.39750E+02 2.04024E-01-1.37708E+00 3.66818E-13 1.66533E-13
 -1      1573 2.98801E+01 1.46374E+02 4.32654E-01 7.64892E-01-5.85088E-14-7.37188E-14
 -1      1574 3.06247E+01 1.41344E+02 2.06879E-01-2.84894E-01 3.59428E-13 1.75859E-13
 -1      1575 2.69676E+01 1.42484E+02 3.27342E-01 2.60195E+00 3.55271E-14 1.79856E-14
 -1      1576 2.90142E+01 1.39646E+02 2.03474E-01 8.18611E-01 2.95541E-13 1.82521E-13
 -1      1577 2.13577E+01 1.35852E+02 1.69903E-01 3.98712E+00-1.07248E-13-2.55351E-13
 -1      1578 2.44123E+01 1.35129E+02 1.91702E-01 1.74876E+00 1.25899E-13 3.77476E-15
 -1      1579 1.36171E+01 1.27920E+02 2.87074E-02 5.26096E+00 1.03917E-13 3.55715E-13
 -1      1580 1.72594E+01 1.28865E+02 1.66898E-01 2.69519E+00-1.15907E-13 1.42109E-14
 -1      1581 4.86270E+00 1.19709E+02-5.25329E-02 7.01486E+00-6.66134E-15-3.89966E-14
 -1      1582 8.54074E+00 1.21842E+02 1.26475E-01 4.15052E+00 9.59233E-14 3.06088E-13
 -1      1583-3.50895E+00 1.11586E+02-6.90177E-02 9.59500E+00-5.08482E-14-1.61315E-13
 -1      1584-3.34972E-01 1.14574E+02 7.50448E-02 6.49714E+00-1.74305E-13-1.97509E-13
 -1      1585-1.03042E+01 1.03512E+02-4.68639E-02 1.28661E+01 1.91180E-13-2.26930E-13
 -1      1586-7.98959E+00 1.07166E+02 2.07822E-02 9.69152E+00-3.93019E-14-3.59712E-14
 -1      1587-1.34887E+01 9.96405E+01-1.29402E-02 1.32981E+01-1.16351E-13 1.45439E-13
 -1      1588-1.15888E+01 1.03678E+02-2.32874E-02-1.06485E+01-9.79217E-14 1.46216E-13
 -1      1589-1.39305E+01 9.99377E+01-2.72935E-02-1.14363E+01-1.82299E-13 4.17777E-13
 -1      1590-5.53571E+00 1.10397E+02-6.14837E-02-6.90763E+00 3.52385E-13 1.02696E-13
 -1      1591-9.31467E+00 1.06349E+02-3.51756E-03-7.61875E+00 5.59330E-13-1.84242E-13
 -1      1592 2.55921E+00 1.16806E+02-8.07388E-02-3.78679E+00-2.29150E-13 3.92734E-13
 -1      1593-2.27985E+00 1.12420E+02 4.01967E-02-4.02920E+00 5.55112E-15-1.47105E-14
 -1      1594 1.16548E+01 1.22947E+02-5.29596E-02-1.73784E+00-2.09166E-13 1.22791E-13
 -1      1595 6.48582E+00 1.18044E+02 8.08617E-02-1.30286E+00-6.94556E-13 1.47105E-13
 -1      1596 2.02383E+01 1.28682E+02 2.76810E-02-7.64701E-01 2.93099E-14 5.20473E-13
 -1      1597 1.56606E+01 1.23181E+02 1.08017E-01 1.98472E-01 2.82885E-13 4.01901E-14
 -1      1598 2.68009E+01 1.33415E+02 1.32755E-01-4.58547E-01 3.59268E-13 4.26770E-13
 -1      1599 2.36099E+01 1.27594E+02 1.16779E-01 5.75117E-01-1.77192E-13 1.82521E-13
 -1      1600 3.02862E+01 1.36159E+02 2.07532E-01-3.51349E-01-7.11098E-14-1.09912E-13
 -1      1601 2.89157E+01 1.30708E+02 1.13962E-01 2.61545E-01 6.69242E-13-1.88738E-14
 -1      1602 3.02215E+01 1.36111E+02 2.07263E-01-2.42117E-01 2.39253E-13 4.36984E-13
 -1      1603 3.07278E+01 1.31824E+02 1.11068E-01-3.07038E-01-2.43975E-13 1.37668E-14
 -1      1604 2.66210E+01 1.33272E+02 1.32223E-01-1.09367E-01 2.83107E-13-1.54099E-13
 -1      1605 2.87916E+01 1.30617E+02 1.13625E-01-8.61967E-01 5.92637E-13 4.64073E-14
 -1      1606 1.99801E+01 1.28444E+02 2.74223E-02 2.39532E-01-6.03073E-13 4.87388E-13
 -1      1607 2.33882E+01 1.27411E+02 1.16120E-01-1.13933E+00-1.47438E-13-8.01581E-14
 -1      1608 1.13632E+01 1.22616E+02-5.26641E-02 1.25883E+00 2.70672E-13 2.91989E-14
 -1      1609 1.53837E+01 1.22904E+02 1.07145E-01-7.16296E-01 4.19664E-14 7.23865E-14
 -1      1610 2.27089E+00 1.16387E+02-8.00518E-02 3.34413E+00-7.74936E-14 1.65881E-13
 -1      1611 6.19524E+00 1.17675E+02 8.00023E-02 8.27061E-01 3.53051E-13 1.82132E-13
 -1      1612-5.80225E+00 1.09899E+02-6.07918E-02 6.48472E+00-2.10276E-13-6.05627E-14
 -1      1613-2.55718E+00 1.11965E+02 3.95900E-02 3.58110E+00 4.21885E-14 1.03528E-14
 -1      1614-1.18337E+01 1.03114E+02-2.28767E-02 1.02302E+01-3.36398E-13-5.42899E-14
 -1      1615-9.57129E+00 1.05820E+02-3.73207E-03 7.18220E+00-1.01696E-13 5.59552E-14
 -1      1616-1.41749E+01 9.93489E+01-2.71879E-02 1.10000E+01-2.51354E-13-1.42220E-13
 -1      1617-1.22259E+01 1.02655E+02 9.51712E-04-8.59722E+00 9.44800E-14-4.50973E-13
 -1      1618-1.38721E+01 9.90644E+01-3.66801E-02-9.55277E+00 2.17715E-13-1.68976E-13
 -1      1619-7.01349E+00 1.08379E+02-4.05159E-02-4.66392E+00-2.08722E-13-3.22187E-13
 -1      1620-1.01225E+01 1.04616E+02-2.04809E-02-5.75982E+00-4.07563E-13-1.96287E-13
 -1      1621 5.20461E-01 1.13556E+02-7.72860E-02-1.18715E+00-2.18492E-13-1.82736E-13
 -1      1622-3.86543E+00 1.09714E+02 1.59535E-02-1.98886E+00 5.77316E-14-2.53908E-13
 -1      1623 9.55867E+00 1.18165E+02-8.24103E-02 1.15160E+00-2.46470E-13-4.74065E-14
 -1      1624 4.47829E+00 1.14150E+02 5.22796E-02 1.01557E+00-6.34381E-13 1.88183E-13
 -1      1625 1.86013E+01 1.22204E+02-4.33051E-02 2.02250E+00-7.26086E-14 2.60569E-13
 -1      1626 1.37377E+01 1.17887E+02 7.66767E-02 2.63830E+00 7.77156E-14-7.74936E-14
 -1      1627 2.58675E+01 1.25424E+02 2.38856E-02 1.60107E+00 1.96287E-13-7.55396E-13
 -1      1628 2.21784E+01 1.20878E+02 8.22415E-02 2.69678E+00 9.24816E-14-2.41140E-13
 -1      1629 2.98677E+01 1.27267E+02 7.64285E-02 3.99676E-01 2.47580E-14 4.13891E-13
 -1      1630 2.80414E+01 1.22902E+02 7.57165E-02 1.50683E+00-2.26041E-13-1.14575E-13
 -1      1631 2.98042E+01 1.27225E+02 7.63757E-02-1.03472E+00 1.06082E-13-6.73017E-13
 -1      1632 3.00953E+01 1.23609E+02 7.10766E-02-3.27278E-01-1.29285E-13-1.16351E-13
 -1      1633 2.56923E+01 1.25295E+02 2.38957E-02-2.20718E+00 3.15747E-13 3.64597E-13
 -1      1634 2.79209E+01 1.22819E+02 7.54570E-02-2.14639E+00 5.28466E-14 1.09024E-13
 -1      1635 1.83528E+01 1.21985E+02-4.29500E-02-2.58197E+00-2.67342E-13-4.97047E-13
 -1      1636 2.19650E+01 1.20708E+02 8.17289E-02-3.29743E+00 9.76996E-14 8.50431E-14
 -1      1637 9.28059E+00 1.17852E+02-8.16778E-02-1.66332E+00 1.73861E-13-1.03084E-13
 -1      1638 1.34736E+01 1.17624E+02 7.60123E-02-3.19103E+00-1.09690E-13-5.21805E-15
 -1      1639 2.45078E-01 1.13150E+02-7.64481E-02 7.10745E-01-1.02363E-13 3.43021E-13
 -1      1640 4.20170E+00 1.13792E+02 5.16752E-02-1.52702E+00-1.77636E-14 3.06699E-14
 -1      1641-7.27346E+00 1.07889E+02-3.99091E-02 4.20557E+00-8.12683E-14-2.03726E-14
 -1      1642-4.13304E+00 1.09266E+02 1.56169E-02 1.50332E+00 3.26406E-13 1.13520E-13
 -1      1643-1.24751E+01 1.02094E+02 1.16615E-03 8.14323E+00-8.83738E-14-2.19713E-13
 -1      1644-1.03788E+01 1.04090E+02-2.04555E-02 5.28505E+00 6.76126E-14-4.86833E-14
 -1      1645-1.41286E+01 9.84730E+01-3.63860E-02 9.07979E+00-2.90878E-13-4.41758E-13
 -1      1646-1.22166E+01 1.01226E+02 2.10372E-02-6.97898E+00 1.48548E-13-2.93654E-14
 -1      1647-1.33090E+01 9.78269E+01-4.18619E-02-7.98370E+00-5.85088E-14-1.66200E-13
 -1      1648-7.83866E+00 1.06167E+02-1.72939E-02-3.06531E+00 5.83977E-14-1.80772E-13
 -1      1649-1.03444E+01 1.02662E+02-3.18783E-02-4.37400E+00-2.46025E-13 6.78346E-14
 -1      1650-1.01858E+00 1.10418E+02-6.06505E-02 5.83556E-01 7.10543E-15 2.43763E-13
 -1      1651-4.91181E+00 1.06999E+02-1.78571E-03-6.00856E-01 3.76699E-13-2.03337E-13
 -1      1652 7.66649E+00 1.13870E+02-8.50431E-02 3.14202E+00 6.19504E-14-2.58127E-14
 -1      1653 2.81256E+00 1.10539E+02 3.19125E-02 2.55334E+00-7.79821E-13-1.20431E-13
 -1      1654 1.68136E+01 1.16576E+02-7.42117E-02 4.00852E+00-4.01457E-13-2.86327E-13
 -1      1655 1.18515E+01 1.13207E+02 5.74116E-02 4.29369E+00-4.42979E-14-2.67786E-13
 -1      1656 2.44810E+01 1.18556E+02-3.48726E-02 3.11514E+00-2.14495E-13-1.40554E-13
 -1      1657 2.04664E+01 1.15077E+02 6.57107E-02 4.18673E+00 5.01155E-13-1.54321E-13
 -1      1658 2.88282E+01 1.19639E+02 6.51350E-04 9.59541E-01 2.07112E-13-3.02425E-13
 -1      1659 2.66568E+01 1.16213E+02 6.11700E-02 2.40293E+00-2.33757E-13-1.66755E-13
 -1      1660 2.87671E+01 1.19601E+02 7.26342E-04-1.63343E+00-1.13742E-13 1.77414E-13
 -1      1661 2.88708E+01 1.16580E+02 5.71341E-02-3.46486E-01-5.48190E-14-1.71418E-13
 -1      1662 2.43132E+01 1.18436E+02-3.45606E-02-3.75848E+00 9.86988E-14 1.05915E-13
 -1      1663 2.65417E+01 1.16134E+02 6.09340E-02-3.08038E+00-1.78635E-13-7.92699E-14
 -1      1664 1.65771E+01 1.16366E+02-7.35653E-02-4.60405E+00 2.70228E-13 2.19602E-13
 -1      1665 2.02636E+01 1.14912E+02 6.52630E-02-4.82462E+00-2.87326E-13-2.53131E-14
 -1      1666 7.40241E+00 1.13565E+02-8.41862E-02-3.69067E+00 3.28848E-13 1.24900E-13
 -1      1667 1.16013E+01 1.12949E+02 5.68741E-02-4.88439E+00 3.34288E-13 6.12843E-14
 -1      1668-1.28311E+00 1.10017E+02-5.98900E-02-1.09910E+00 1.14797E-13-1.93264E-13
 -1      1669 2.54891E+00 1.10185E+02 3.14940E-02-3.10489E+00 2.30482E-13 4.87943E-14
 -1      1670-8.09618E+00 1.05678E+02-1.68923E-02 2.56632E+00 3.21965E-13-8.32667E-15
 -1      1671-5.17289E+00 1.06552E+02-1.91238E-03 7.32491E-02-1.75304E-13-5.61218E-14
 -1      1672-1.24751E+01 1.00662E+02 2.10191E-02 6.48508E+00-2.44138E-13-2.52132E-13
 -1      1673-1.06048E+01 1.02133E+02-3.16615E-02 3.85708E+00-2.19380E-13 7.17204E-14
 -1      1674-1.35822E+01 9.72280E+01-4.14097E-02 7.47092E+00-1.21902E-13-3.64875E-13
 -1      1675-1.17612E+01 9.95585E+01 3.56438E-02-5.69636E+00-1.68532E-13 3.10751E-13
 -1      1676-1.24231E+01 9.63885E+01-4.37123E-02-6.67296E+00-3.83138E-13 2.64844E-13
 -1      1677-8.16488E+00 1.03863E+02 3.33786E-03-1.95236E+00 4.90052E-13-2.24293E-13
 -1      1678-1.01431E+01 1.00611E+02-3.88537E-02-3.34496E+00 5.53668E-13-1.89904E-13
 -1      1679-2.12990E+00 1.07415E+02-4.02767E-02 1.71405E+00-2.07057E-13-4.16448E-13
 -1      1680-5.52348E+00 1.04340E+02-1.48889E-02 2.96200E-01-4.40759E-14-1.83992E-13
 -1      1681 5.99649E+00 1.10008E+02-7.51691E-02 4.40804E+00-3.69260E-13-2.21989E-13
 -1      1682 1.46611E+00 1.07204E+02 1.58977E-02 3.48373E+00-4.33209E-13-3.50553E-14
 -1      1683 1.49634E+01 1.11695E+02-8.36666E-02 5.32122E+00-1.40332E-13-1.37113E-13
 -1      1684 1.00577E+01 1.09074E+02 4.28759E-02 5.31292E+00 5.28466E-14 6.07847E-14
 -1      1685 2.27669E+01 1.12690E+02-6.53169E-02 4.15528E+00 1.55986E-13 6.38378E-14
 -1      1686 1.85830E+01 1.10084E+02 5.56822E-02 5.14510E+00 1.69420E-13 2.67564E-14
 -1      1687 2.73057E+01 1.13152E+02-4.32580E-02 1.34991E+00 6.06182E-14-1.75415E-14
 -1      1688 2.48961E+01 1.10521E+02 5.54931E-02 2.99750E+00-2.37033E-13 1.48548E-13
 -1      1689 2.72476E+01 1.13114E+02-4.31120E-02-2.06154E+00 2.15772E-13-2.98872E-13
 -1      1690 2.71944E+01 1.10615E+02 5.31721E-02-3.65437E-01-3.73976E-13 5.68434E-14
 -1      1691 2.26079E+01 1.12574E+02-6.48542E-02-4.83617E+00-2.16493E-14 2.72560E-13
 -1      1692 2.47873E+01 1.10444E+02 5.52669E-02-3.71297E+00-4.23606E-13-9.83658E-14
 -1      1693 1.47400E+01 1.11489E+02-8.29221E-02-5.95516E+00 1.36113E-13-3.07199E-13
 -1      1694 1.83918E+01 1.09921E+02 5.52815E-02-5.82188E+00 2.95874E-13 1.19460E-13
 -1      1695 5.74572E+00 1.09703E+02-7.43597E-02-4.99748E+00 7.77156E-15 2.22045E-16
 -1      1696 9.82133E+00 1.08816E+02 4.24480E-02-5.94469E+00 2.62013E-13-1.49381E-13
 -1      1697-2.38620E+00 1.07012E+02-3.97017E-02-2.27298E+00-1.02141E-14 2.37124E-14
 -1      1698 1.21356E+00 1.06847E+02 1.56441E-02-4.07910E+00-7.10543E-14-5.68712E-14
 -1      1699-8.42380E+00 1.03370E+02 3.49179E-03 1.40903E+00 2.20490E-13 9.02056E-15
 -1      1700-5.78129E+00 1.03888E+02-1.48309E-02-8.69276E-01-1.64091E-13-1.77636E-15
 -1      1701-1.20331E+01 9.89863E+01 3.53889E-02 5.15974E+00 5.95080E-14-5.56222E-14
 -1      1702-1.04116E+01 1.00074E+02-3.84649E-02 2.78329E+00 1.47105E-13 2.38698E-14
 -1      1703-1.27169E+01 9.57776E+01-4.31039E-02 6.11856E+00-2.50799E-13-1.72196E-13
 -1      1704-1.10169E+01 9.77831E+01 4.48526E-02-4.67278E+00-3.33900E-13-1.93845E-13
 -1      1705-1.13518E+01 9.48687E+01-4.30963E-02-5.57454E+00-6.85230E-13 2.99621E-13
 -1      1706-8.12372E+00 1.01555E+02 1.94958E-02-1.19665E+00 4.45977E-13 7.33580E-14
 -1      1707-9.65193E+00 9.85561E+01-4.24007E-02-2.58105E+00 1.14353E-13 6.50036E-14
 -1      1708-2.88553E+00 1.04570E+02-2.07728E-02 2.36504E+00-1.08802E-14 1.75845E-13
 -1      1709-5.79588E+00 1.01786E+02-2.41315E-02 8.34372E-01 9.91429E-14-1.71807E-14
 -1      1710 4.55291E+00 1.06533E+02-6.03643E-02 5.10840E+00-2.05169E-13 2.29594E-13
 -1      1711 4.07809E-01 1.04140E+02 3.12398E-03 3.95682E+00-2.51132E-13 4.05495E-13
 -1      1712 1.31223E+01 1.07467E+02-8.18632E-02 6.08496E+00 4.06342E-14 1.42664E-13
 -1      1713 8.39541E+00 1.05425E+02 3.05413E-02 5.83256E+00 3.28626E-14-9.15934E-15
 -1      1714 2.08388E+01 1.07707E+02-7.95297E-02 4.79558E+00 2.74558E-13 1.52656E-13
 -1      1715 1.66215E+01 1.05801E+02 4.73856E-02 5.66975E+00 2.19602E-13-4.45199E-14
 -1      1716 2.54311E+01 1.07677E+02-6.83692E-02 1.59419E+00 1.12688E-14 2.11831E-13
 -1      1717 2.28820E+01 1.05707E+02 5.18954E-02 3.33939E+00 1.59428E-13 8.31557E-14
 -1      1718 2.53764E+01 1.07640E+02-6.81903E-02-2.34385E+00-1.02252E-13 2.60236E-13
 -1      1719 2.51973E+01 1.05589E+02 5.16072E-02-3.84783E-01 5.65882E-13 9.34808E-14
 -1      1720 2.06893E+01 1.07591E+02-7.90150E-02-5.51537E+00 2.97540E-14-2.89546E-13
 -1      1721 2.27799E+01 1.05628E+02 5.16831E-02-4.09413E+00 1.71030E-13 7.52731E-14
 -1      1722 1.29119E+01 1.07260E+02-8.11400E-02-6.76001E+00-1.86851E-13-2.56462E-14
 -1      1723 1.64422E+01 1.05636E+02 4.70392E-02-6.38768E+00 2.50910E-13-1.33227E-14
 -1      1724 4.31400E+00 1.06225E+02-5.96984E-02-5.74210E+00-1.74305E-14 8.80684E-14
 -1      1725 8.17204E+00 1.05163E+02 3.02268E-02-6.50847E+00 4.18554E-14 3.03646E-14
 -1      1726-3.13640E+00 1.04160E+02-2.04340E-02-2.97066E+00-4.00902E-13 3.82073E-15
 -1      1727 1.64164E-01 1.03776E+02 3.02979E-03-4.59912E+00 2.70006E-13 1.73736E-13
 -1      1728-8.38755E+00 1.01052E+02 1.93873E-02 6.06469E-01-1.45328E-13 2.65621E-13
 -1      1729-6.05350E+00 1.01326E+02-2.38991E-02-1.45535E+00-1.66089E-13-9.33004E-14
 -1      1730-1.13060E+01 9.71991E+01 4.43550E-02 4.09180E+00 1.41220E-13-6.60583E-14
 -1      1731-9.93169E+00 9.80080E+01-4.18396E-02 1.97312E+00 1.56375E-13 2.73281E-13
 -1      1732-1.16692E+01 9.42426E+01-4.23095E-02 4.97783E+00-4.18332E-13 1.86240E-14
 -1      1733-1.01028E+01 9.59956E+01 4.95986E-02-3.84816E+00-3.09086E-13 2.20879E-13
 -1      1734-1.01955E+01 9.33506E+01-4.10708E-02-4.65009E+00 1.44718E-13 1.51823E-13
 -1      1735-7.82319E+00 9.93072E+01 3.11480E-02-6.97209E-01 5.05151E-14-3.98154E-13
 -1      1736-8.97442E+00 9.65663E+01-4.27471E-02-2.01120E+00 3.96905E-14-2.60847E-13
 -1      1737-3.35359E+00 1.01900E+02-4.08646E-03 2.66907E+00-3.20854E-14 6.35110E-13
 -1      1738-5.81135E+00 9.93779E+01-2.95355E-02 1.11899E+00-4.82558E-13 2.47816E-13
 -1      1739 3.32853E+00 1.03410E+02-4.46589E-02 5.38238E+00-2.13829E-13-1.41387E-13
 -1      1740-3.97809E-01 1.01339E+02-6.61135E-03 4.09858E+00 1.88405E-13-4.17860E-14
 -1      1741 1.13452E+01 1.03807E+02-7.44157E-02 6.41606E+00 1.00475E-13-1.80689E-13
 -1      1742 6.88807E+00 1.02208E+02 1.95126E-02 5.97400E+00-3.64153E-13 8.39329E-14
 -1      1743 1.87959E+01 1.03492E+02-8.40823E-02 5.10921E+00 3.80251E-14-9.03722E-14
 -1      1744 1.46574E+01 1.02134E+02 3.90693E-02 5.85260E+00-3.33733E-13-1.20348E-13
 -1      1745 2.33237E+01 1.03090E+02-8.17191E-02 1.71636E+00-1.92346E-14-2.46692E-13
 -1      1746 2.07224E+01 1.01655E+02 4.79766E-02 3.47659E+00-3.04035E-13-1.47660E-13
 -1      1747 2.32726E+01 1.03052E+02-8.15341E-02-2.50550E+00 6.96110E-14-5.06262E-14
 -1      1748 2.29980E+01 1.01381E+02 4.98019E-02-4.05038E-01-3.23751E-14-1.71307E-13
 -1      1749 1.86561E+01 1.03373E+02-8.35833E-02-5.87004E+00-1.54987E-13 1.93623E-13
 -1      1750 2.06273E+01 1.01575E+02 4.77852E-02-4.27270E+00-8.75966E-14-1.39666E-13
 -1      1751 1.11472E+01 1.03594E+02-7.37904E-02-7.13514E+00 1.00142E-13 4.99600E-16
 -1      1752 1.44895E+01 1.01964E+02 3.87892E-02-6.61437E+00 7.49956E-14 7.13318E-14
 -1      1753 3.09962E+00 1.03094E+02-4.41915E-02-6.06342E+00-3.19744E-14 3.51885E-13
 -1      1754 6.67638E+00 1.01938E+02 1.93212E-02-6.69696E+00-1.83076E-13-1.73750E-14
 -1      1755-3.60177E+00 1.01481E+02-4.00967E-03-3.32388E+00 1.27565E-13-2.02938E-13
 -1      1756-6.34789E-01 1.00967E+02-6.54455E-03-4.79030E+00 4.31655E-13 1.02543E-13
 -1      1757-8.09498E+00 9.87935E+01 3.07636E-02 5.86437E-02-1.21014E-14-2.23321E-13
 -1      1758-6.07147E+00 9.89067E+01-2.91273E-02-1.78944E+00-1.99452E-13-1.18516E-14
 -1      1759-1.04120E+01 9.53969E+01 4.88349E-02 3.22224E+00-1.41331E-13 4.55580E-13
 -1      1760-9.26816E+00 9.60049E+01-4.19953E-02 1.35649E+00-2.78277E-13 9.55347E-14
 -1      1761-1.05394E+01 9.27076E+01-4.00462E-02 4.01157E+00 3.52551E-13 9.10383E-14
 -1      1762-9.10692E+00 9.42621E+01 5.06573E-02-3.17843E+00 2.57849E-14-9.27314E-14
 -1      1763-9.01692E+00 9.18891E+01-3.64929E-02-3.86906E+00-2.62151E-13 1.65673E-13
 -1      1764-7.35521E+00 9.71676E+01 3.67887E-02-3.77762E-01 2.27596E-14 2.20185E-13
 -1      1765-8.19454E+00 9.46840E+01-4.27095E-02-1.58199E+00 6.72240E-14 4.60743E-15
 -1      1766-3.60155E+00 9.94192E+01 6.89489E-03 2.73289E+00 2.26319E-13-1.65179E-13
 -1      1767-5.64878E+00 9.71340E+01-3.57242E-02 1.23087E+00 1.70919E-13-9.09203E-14
 -1      1768 2.30645E+00 1.00604E+02-3.12997E-02 5.35002E+00-2.34257E-14 1.29535E-13
 -1      1769-9.99714E-01 9.87892E+01-1.86324E-02 4.01059E+00-7.04992E-15-1.28661E-13
 -1      1770 9.67331E+00 1.00636E+02-6.43446E-02 6.42028E+00 3.65208E-13 1.88072E-13
 -1      1771 5.53656E+00 9.93679E+01 5.52703E-03 5.84120E+00 1.53100E-13 1.08413E-13
 -1      1772 1.67225E+01 9.99380E+01-8.20584E-02 5.16504E+00-1.12466E-13-2.57572E-13
 -1      1773 1.27439E+01 9.89955E+01 2.82996E-02 5.77705E+00 3.17524E-14 9.07607E-14
 -1      1774 2.10875E+01 9.92696E+01-8.67333E-02 1.73945E+00 2.94764E-14 7.73825E-14
 -1      1775 1.85078E+01 9.82585E+01 4.25919E-02 3.45443E+00-1.90653E-13 2.70894E-14
 -1      1776 2.10400E+01 9.92302E+01-8.65623E-02-2.57034E+00 5.20139E-14-2.95319E-14
 -1      1777 2.06996E+01 9.78769E+01 4.70017E-02-4.26567E-01 1.04582E-13-1.07692E-14
 -1      1778 1.65920E+01 9.98141E+01-8.16263E-02-5.96959E+00-8.80962E-14-2.41474E-13
 -1      1779 1.84194E+01 9.81745E+01 4.24106E-02-4.29461E+00-4.06342E-14 8.47100E-14
 -1      1780 9.48655E+00 1.00416E+02-6.38748E-02-7.18634E+00-4.47420E-14 8.87068E-14
 -1      1781 1.25868E+01 9.88190E+01 2.80716E-02-6.58553E+00-1.42109E-13-2.04836E-14
 -1      1782 2.08562E+00 1.00279E+02-3.10688E-02-6.08103E+00 2.17826E-13-3.91520E-13
 -1      1783 5.33509E+00 9.90898E+01 5.45006E-03-6.61385E+00-1.07692E-14-2.67564E-14
 -1      1784-3.84948E+00 9.89897E+01 6.69279E-03-3.43865E+00-2.62512E-13 2.22910E-13
 -1      1785-1.23203E+00 9.84068E+01-1.84018E-02-4.75361E+00-1.07137E-14 4.29379E-14
 -1      1786-7.63751E+00 9.66411E+01 3.61102E-02-3.09845E-01-6.01186E-14 3.46223E-13
 -1      1787-5.91357E+00 9.66515E+01-3.51244E-02-1.95157E+00-2.18325E-13-6.25888E-15
 -1      1788-9.43879E+00 9.36477E+01 4.95722E-02 2.50800E+00 1.67588E-13-2.27429E-13
 -1      1789-8.50435E+00 9.41090E+01-4.17232E-02 8.80974E-01 3.17746E-13 2.35784E-14
 -1      1790-9.38951E+00 9.12294E+01-3.51863E-02 3.19053E+00-9.84213E-14-1.58151E-13
 -1      1791-8.09518E+00 9.26235E+01 4.69874E-02-2.62160E+00 5.85643E-15-1.29965E-13
 -1      1792-6.77121E+00 9.51758E+01 4.33543E-02-1.72959E-01 1.35114E-13-2.09804E-13
 -1      1793-3.64785E+00 9.71488E+01 2.45589E-02 2.64673E+00 2.80498E-13-3.09324E-13
 -1      1794 1.51201E+00 9.81034E+01-6.45458E-03 5.11157E+00-1.25677E-13 5.00155E-14
 -1      1795 8.16727E+00 9.78995E+01-4.26993E-02 6.18620E+00-1.23179E-13-1.05638E-13
 -1      1796 1.46971E+01 9.69498E+01-7.29411E-02 5.02247E+00 6.60028E-14 4.35096E-13
 -1      1797 1.88067E+01 9.61009E+01-8.91621E-02 1.68405E+00 1.62259E-13-1.82965E-13
 -1      1798 1.87628E+01 9.60596E+01-8.89863E-02-2.55946E+00 7.94087E-14 2.61235E-13
 -1      1799 1.45757E+01 9.68205E+01-7.25409E-02-5.87368E+00 5.50671E-14-7.29417E-14
 -1      1800 7.99081E+00 9.76707E+01-4.23690E-02-7.00209E+00 2.12053E-14 1.58540E-13
 -1      1801 1.29756E+00 9.77682E+01-6.47279E-03-5.89470E+00 1.74860E-14 3.02605E-13
 -1      1802-3.89748E+00 9.67083E+01 2.40563E-02-3.40444E+00-3.05755E-13 1.31804E-14
 -1      1803-7.06593E+00 9.46370E+01 4.23538E-02-5.63380E-01 1.83020E-13-4.64448E-13
 -1      1804-8.45183E+00 9.19944E+01 4.55760E-02 1.90841E+00-1.00864E-13 1.21889E-13
 -1      1805 1.36468E+01 3.65664E+01-9.87260E-01 2.52151E+01 9.93650E-14 1.79856E-14
 -1      1806 4.23555E-01 1.89890E+01-2.33641E+00 1.36512E+01 2.87548E-14 1.63425E-13
 -1      1807-1.63801E+01 6.91211E+00-3.68380E+00 3.16453E+00-4.66127E-13 1.62093E-14
 -1      1808-3.49469E+01 4.38481E-02-4.93711E+00-4.34966E+00 9.23098E-14 3.24629E-13
 -1      1809-5.26625E+01-2.79650E+00-5.99636E+00-7.68971E+00-1.80522E-13-1.42109E-14
 -1      1810-6.66229E+01-3.29146E+00-6.76628E+00-6.75762E+00 5.71210E-14 3.33844E-13
 -1      1811-7.43269E+01-3.05045E+00-7.17186E+00-2.64413E+00 2.49800E-15-5.95135E-13
 -1      1812-7.43269E+01-3.05045E+00-7.17186E+00 2.64413E+00 1.08469E-13 1.12271E-13
 -1      1813-6.66229E+01-3.29146E+00-6.76628E+00 6.75762E+00-1.26454E-13 6.51701E-14
 -1      1814-5.26625E+01-2.79650E+00-5.99636E+00 7.68971E+00-4.59466E-13-2.51799E-13
 -1      1815-3.49469E+01 4.38482E-02-4.93711E+00 4.34966E+00 2.28435E-13-4.92939E-14
 -1      1816-1.63801E+01 6.91211E+00-3.68380E+00-3.16453E+00-1.28286E-13 1.55431E-15
 -1      1817 4.23555E-01 1.89890E+01-2.33641E+00-1.36512E+01 8.38218E-14 3.31735E-13
 -1      1818 1.36468E+01 3.65664E+01-9.87260E-01-2.52151E+01 3.84137E-14 3.77476E-14
 -1      1819 3.28460E+00 5.16976E+01-2.74246E-01 2.66911E+01-1.02474E-13-1.73195E-13
 -1      1820-5.35310E+00 3.29191E+01-1.06959E+00 1.96918E+01-1.87794E-13 3.04201E-13
 -1      1821-1.67972E+01 1.77510E+01-1.96789E+00 1.18593E+01-2.73795E-13 5.68434E-14
 -1      1822-3.01707E+01 6.97457E+00-2.88791E+00 4.88105E+00 4.30767E-14 1.44329E-13
 -1      1823-4.36167E+01 4.12994E-01-3.72709E+00 2.09615E-01-5.68989E-14 2.08167E-13
 -1      1824-5.46527E+01-2.88377E+00-4.37144E+00-1.52290E+00 1.83631E-13 1.71863E-13
 -1      1825-6.09002E+01-4.12145E+00-4.72234E+00-8.21431E-01-1.03806E-13-4.31211E-13
 -1      1826-6.09002E+01-4.12145E+00-4.72234E+00 8.21431E-01-3.61933E-13 1.12216E-13
 -1      1827-5.46527E+01-2.88377E+00-4.37144E+00 1.52290E+00 1.88294E-13-3.81917E-14
 -1      1828-4.36167E+01 4.12994E-01-3.72709E+00-2.09615E-01-2.34812E-13 5.66214E-14
 -1      1829-3.01707E+01 6.97457E+00-2.88791E+00-4.88105E+00 7.29417E-14-3.36620E-13
 -1      1830-1.67972E+01 1.77510E+01-1.96789E+00-1.18593E+01 2.25153E-13 4.92939E-14
 -1      1831-5.35310E+00 3.29191E+01-1.06959E+00-1.96918E+01 2.23654E-13 3.37952E-13
 -1      1832 3.28460E+00 5.16976E+01-2.74246E-01-2.66911E+01-6.00631E-14-1.70752E-13
 -1      1833-4.43785E+00 6.33774E+01 7.45186E-02 2.68652E+01 4.61853E-14-1.44884E-13
 -1      1834-9.83751E+00 4.45727E+01-3.57981E-01 2.35457E+01-1.15852E-13 7.50511E-14
 -1      1835-1.71563E+01 2.76200E+01-9.16423E-01 1.82196E+01 3.05373E-13-1.68532E-13
 -1      1836-2.62165E+01 1.40046E+01-1.54976E+00 1.21373E+01-1.79190E-13 2.79332E-13
 -1      1837-3.58776E+01 4.41512E+00-2.17490E+00 6.71973E+00-2.45248E-13 1.39666E-13
 -1      1838-4.41843E+01-1.32569E+00-2.68254E+00 2.92284E+00 1.26343E-13 1.85962E-13
 -1      1839-4.90256E+01-3.90574E+00-2.96848E+00 7.49614E-01 3.87468E-14-3.08642E-13
 -1      1840-4.90256E+01-3.90574E+00-2.96848E+00-7.49614E-01-2.61458E-13 1.97731E-13
 -1      1841-4.41843E+01-1.32569E+00-2.68254E+00-2.92284E+00 1.00031E-13-2.10165E-13
 -1      1842-3.58776E+01 4.41512E+00-2.17490E+00-6.71973E+00-1.96509E-14 6.63913E-14
 -1      1843-2.62165E+01 1.40046E+01-1.54976E+00-1.21373E+01 1.66978E-13 1.17240E-13
 -1      1844-1.71563E+01 2.76200E+01-9.16423E-01-1.82196E+01 3.28329E-13 2.03615E-13
 -1      1845-9.83751E+00 4.45727E+01-3.57981E-01-2.35457E+01-8.93730E-15-1.37446E-13
 -1      1846-4.43785E+00 6.33774E+01 7.45186E-02-2.68652E+01 1.48215E-13 5.76206E-14
 -1      1847-9.97637E+00 7.22586E+01 2.22067E-01 2.61026E+01-1.01585E-14 5.22915E-14
 -1      1848-1.31778E+01 5.42454E+01 1.53526E-02 2.56607E+01 1.42664E-13-3.13527E-13
 -1      1849-1.74164E+01 3.65420E+01-3.04554E-01 2.26027E+01-4.05578E-15 1.61648E-13
 -1      1850-2.29789E+01 2.10232E+01-7.13612E-01 1.76360E+01 1.99563E-13-1.55986E-13
 -1      1851-2.93515E+01 9.06806E+00-1.15441E+00 1.19444E+01 3.69482E-13 1.41887E-13
 -1      1852-3.51569E+01 1.25362E+00-1.53467E+00 6.61892E+00-5.37792E-13 1.87683E-13
 -1      1853-3.86644E+01-2.51729E+00-1.75665E+00 2.07831E+00-3.41616E-13-2.48829E-13
 -1      1854-3.86644E+01-2.51729E+00-1.75665E+00-2.07831E+00 3.03535E-13 2.14995E-13
 -1      1855-3.51569E+01 1.25362E+00-1.53467E+00-6.61892E+00 8.16014E-14-1.45495E-13
 -1      1856-2.93515E+01 9.06806E+00-1.15441E+00-1.19444E+01 1.71196E-13 9.72555E-14
 -1      1857-2.29789E+01 2.10232E+01-7.13612E-01-1.76360E+01-6.61693E-14 2.03171E-14
 -1      1858-1.74164E+01 3.65420E+01-3.04554E-01-2.26027E+01 4.24903E-14 8.11573E-14
 -1      1859-1.31778E+01 5.42454E+01 1.53526E-02-2.56607E+01-6.75848E-14-1.02696E-13
 -1      1860-9.97637E+00 7.22586E+01 2.22067E-01-2.61026E+01-3.19744E-14-1.14908E-13
 -1      1861-1.36869E+01 7.87917E+01 2.58220E-01 2.46754E+01-4.24660E-14 1.15463E-13
 -1      1862-1.54780E+01 6.20993E+01 1.82650E-01 2.63884E+01-1.72612E-13-2.97429E-13
 -1      1863-1.75126E+01 4.44501E+01 1.88944E-02 2.52918E+01-8.56953E-15 2.07612E-13
 -1      1864-2.03336E+01 2.78467E+01-2.27949E-01 2.15392E+01 7.86593E-14-2.23932E-13
 -1      1865-2.39326E+01 1.41644E+01-5.24130E-01 1.59458E+01 2.91545E-13 2.26374E-13
 -1      1866-2.75086E+01 4.66646E+00-7.98052E-01 9.57636E+00-1.64313E-14 6.79456E-14
 -1      1867-2.97850E+01-1.23678E-01-9.64445E-01 3.16369E+00 1.44662E-13-1.18960E-13
 -1      1868-2.97850E+01-1.23678E-01-9.64445E-01-3.16369E+00-3.30069E-13 6.51701E-14
 -1      1869-2.75086E+01 4.66646E+00-7.98052E-01-9.57636E+00 1.07137E-13-4.62408E-14
 -1      1870-2.39326E+01 1.41644E+01-5.24130E-01-1.59458E+01-4.20219E-13-6.27276E-14
 -1      1871-2.03336E+01 2.78467E+01-2.27949E-01-2.15392E+01 1.60427E-13-3.08642E-14
 -1      1872-1.75126E+01 4.44501E+01 1.88944E-02-2.52918E+01-1.79259E-13 1.32117E-14
 -1      1873-1.54780E+01 6.20993E+01 1.82650E-01-2.63884E+01-4.06064E-14 1.55431E-14
 -1      1874-1.36869E+01 7.87917E+01 2.58220E-01-2.46754E+01-1.64591E-13-5.71765E-14
 -1      1875-1.59171E+01 8.34130E+01 2.39981E-01 2.28171E+01 3.50275E-14 1.56208E-13
 -1      1876-1.68665E+01 6.83483E+01 2.36867E-01 2.60552E+01-5.63161E-14-7.27196E-14
 -1      1877-1.74015E+01 5.13525E+01 1.70395E-01 2.65782E+01 1.12604E-13 4.81837E-14
 -1      1878-1.81546E+01 3.43587E+01 3.46831E-02 2.40383E+01-1.52545E-13 1.31783E-13
 -1      1879-1.94874E+01 1.95468E+01-1.54906E-01 1.88172E+01 3.80251E-14-4.70735E-14
 -1      1880-2.11325E+01 8.76217E+00-3.46141E-01 1.18274E+01-4.61964E-13 8.29892E-14
 -1      1881-2.23033E+01 3.13888E+00-4.67862E-01 4.01201E+00-1.33227E-14-8.20177E-14
 -1      1882-2.23033E+01 3.13888E+00-4.67862E-01-4.01201E+00 2.88991E-13 6.70020E-14
 -1      1883-2.11325E+01 8.76217E+00-3.46141E-01-1.18274E+01 6.97220E-14-6.99441E-14
 -1      1884-1.94874E+01 1.95468E+01-1.54906E-01-1.88172E+01-9.93650E-14 1.89515E-13
 -1      1885-1.81546E+01 3.43587E+01 3.46831E-02-2.40383E+01-1.21014E-13-1.75193E-13
 -1      1886-1.74015E+01 5.13525E+01 1.70395E-01-2.65782E+01-8.38184E-14 2.12053E-14
 -1      1887-1.68665E+01 6.83483E+01 2.36867E-01-2.60552E+01 7.16094E-15 5.21805E-14
 -1      1888-1.59171E+01 8.34130E+01 2.39981E-01-2.28171E+01 1.90348E-13 1.84297E-14
 -1      1889-1.69852E+01 8.65104E+01 1.99115E-01 2.07137E+01 1.49381E-13-2.33702E-13
 -1      1890-1.74846E+01 7.32071E+01 2.33422E-01 2.49470E+01-2.38115E-13 3.11973E-13
 -1      1891-1.70675E+01 5.72827E+01 2.25228E-01 2.67409E+01 3.95760E-14-3.12750E-13
 -1      1892-1.63328E+01 4.04651E+01 1.63082E-01 2.53361E+01-2.54102E-13 2.63567E-13
 -1      1893-1.58810E+01 2.50658E+01 4.92889E-02 2.06716E+01 1.39555E-13-1.03251E-13
 -1      1894-1.59062E+01 1.33852E+01-8.01719E-02 1.34193E+01 2.65676E-13 8.69860E-14
 -1      1895-1.61133E+01 7.12305E+00-1.67531E-01 4.63492E+00 6.45040E-14-8.34055E-14
 -1      1896-1.61133E+01 7.12305E+00-1.67531E-01-4.63492E+00 1.13354E-13 8.02136E-14
 -1      1897-1.59062E+01 1.33852E+01-8.01719E-02-1.34193E+01-1.00142E-13 3.78031E-14
 -1      1898-1.58810E+01 2.50658E+01 4.92889E-02-2.06716E+01 2.63012E-13 1.19127E-13
 -1      1899-1.63328E+01 4.04651E+01 1.63082E-01-2.53361E+01 2.63317E-13-6.58362E-14
 -1      1900-1.70675E+01 5.72827E+01 2.25228E-01-2.67409E+01-1.74076E-13-2.60902E-14
 -1      1901-1.74846E+01 7.32071E+01 2.33422E-01-2.49470E+01 8.49321E-15-8.06022E-14
 -1      1902-1.69852E+01 8.65104E+01 1.99115E-01-2.07137E+01-1.14603E-13 1.94400E-13
 -1      1903-1.71739E+01 8.84232E+01 1.52510E-01 1.85100E+01 1.31645E-13-5.34017E-14
 -1      1904-1.74779E+01 7.68883E+01 2.03943E-01 2.33087E+01 3.69135E-13-9.09828E-14
 -1      1905-1.65173E+01 6.22990E+01 2.29355E-01 2.60399E+01 4.19682E-14 1.08191E-13
 -1      1906-1.47784E+01 4.60982E+01 2.15057E-01 2.56397E+01 4.37428E-14-2.40308E-13
 -1      1907-1.29835E+01 3.05847E+01 1.54505E-01 2.16374E+01-2.94209E-14 1.00642E-13
 -1      1908-1.16991E+01 1.83788E+01 7.06344E-02 1.44133E+01 1.70752E-13 2.53131E-14
 -1      1909-1.10938E+01 1.16727E+01 9.35367E-03 5.04929E+00 1.31006E-14 9.72833E-15
 -1      1910-1.10938E+01 1.16727E+01 9.35367E-03-5.04930E+00-5.53113E-13-1.47229E-13
 -1      1911-1.16991E+01 1.83788E+01 7.06344E-02-1.44133E+01 2.84273E-13 1.67866E-13
 -1      1912-1.29835E+01 3.05847E+01 1.54505E-01-2.16374E+01-7.63833E-14-9.53126E-14
 -1      1913-1.47784E+01 4.60982E+01 2.15057E-01-2.56397E+01-1.74943E-13 7.93809E-15
 -1      1914-1.65173E+01 6.22990E+01 2.29355E-01-2.60399E+01-3.33750E-13 1.21014E-14
 -1      1915-1.74779E+01 7.68883E+01 2.03943E-01-2.33087E+01 1.01988E-13-5.39013E-14
 -1      1916-1.71739E+01 8.84232E+01 1.52510E-01-1.85100E+01 4.04066E-13-1.30451E-14
 -1      1917-1.67260E+01 8.94407E+01 1.08467E-01 1.63139E+01-1.73916E-13 2.50189E-13
 -1      1918-1.69869E+01 7.95935E+01 1.65343E-01 2.13425E+01 3.82999E-13-1.37779E-13
 -1      1919-1.57749E+01 6.64765E+01 2.08999E-01 2.47092E+01-1.81070E-14 1.61815E-13
 -1      1920-1.34208E+01 5.12148E+01 2.25553E-01 2.51520E+01 2.62040E-13-7.60503E-15
 -1      1921-1.06742E+01 3.59837E+01 2.02690E-01 2.18520E+01 1.16629E-13-5.15699E-14
 -1      1922-8.37822E+00 2.35910E+01 1.52924E-01 1.48811E+01-1.76525E-13-2.99205E-14
 -1      1923-7.11480E+00 1.66285E+01 1.11746E-01 5.27630E+00-7.79377E-14-1.22125E-15
 -1      1924-7.11480E+00 1.66285E+01 1.11746E-01-5.27630E+00 1.03584E-13-1.42955E-13
 -1      1925-8.37822E+00 2.35910E+01 1.52924E-01-1.48811E+01-4.72400E-13 6.32827E-14
 -1      1926-1.06742E+01 3.59837E+01 2.02690E-01-2.18520E+01-4.83502E-14 8.16569E-14
 -1      1927-1.34208E+01 5.12148E+01 2.25553E-01-2.51520E+01-5.72598E-14-2.68119E-14
 -1      1928-1.57749E+01 6.64765E+01 2.08999E-01-2.47092E+01 8.15086E-14 7.26641E-14
 -1      1929-1.69869E+01 7.95935E+01 1.65343E-01-2.13425E+01 1.19460E-13 1.44218E-13
 -1      1930-1.67260E+01 8.94407E+01 1.08467E-01-1.63139E+01-8.26006E-14-2.82718E-13
 -1      1931-1.58429E+01 8.98027E+01 7.06253E-02 1.42016E+01 1.95052E-13 2.41890E-13
 -1      1932-1.61411E+01 8.15078E+01 1.26264E-01 1.92101E+01-1.29605E-13-1.86628E-13
 -1      1933-1.48748E+01 6.99020E+01 1.78485E-01 2.29514E+01 4.48064E-14 4.96270E-14
 -1      1934-1.22070E+01 5.57950E+01 2.14580E-01 2.40633E+01-1.50685E-13 1.13298E-13
 -1      1935-8.84388E+00 4.11630E+01 2.18781E-01 2.14549E+01 1.11550E-13-1.31006E-13
 -1      1936-5.81255E+00 2.88802E+01 1.95223E-01 1.49008E+01-3.10307E-14 3.05866E-14
 -1      1937-4.04182E+00 2.18352E+01 1.70058E-01 5.34019E+00 1.72362E-13-8.18928E-14
 -1      1938-4.04182E+00 2.18352E+01 1.70058E-01-5.34019E+00-3.56382E-14-1.38764E-13
 -1      1939-5.81255E+00 2.88802E+01 1.95223E-01-1.49008E+01 1.31006E-14 2.06446E-13
 -1      1940-8.84388E+00 4.11630E+01 2.18781E-01-2.14549E+01 8.63476E-14 7.79932E-14
 -1      1941-1.22070E+01 5.57950E+01 2.14580E-01-2.40633E+01 2.30690E-13 1.15408E-13
 -1      1942-1.48748E+01 6.99020E+01 1.78485E-01-2.29514E+01 1.38068E-13 9.37028E-14
 -1      1943-1.61411E+01 8.15078E+01 1.26264E-01-1.92101E+01 1.29063E-13-3.41949E-13
 -1      1944-1.58429E+01 8.98027E+01 7.06253E-02-1.42016E+01 1.23943E-13 2.18853E-13
 -1      1945-1.46860E+01 8.97029E+01 4.02084E-02 1.22232E+01 1.30035E-13 6.43929E-15
 -1      1946-1.50539E+01 8.27956E+01 9.08882E-02 1.70349E+01 2.51743E-14 8.66529E-14
 -1      1947-1.38568E+01 7.26675E+01 1.45413E-01 2.09367E+01 6.45599E-14-4.34097E-14
 -1      1948-1.10988E+01 5.98396E+01 1.93205E-01 2.25460E+01-2.37713E-13-8.21565E-15
 -1      1949-7.39634E+00 4.60444E+01 2.16869E-01 2.05819E+01 2.71172E-14 5.55112E-15
 -1      1950-3.87676E+00 3.41206E+01 2.13861E-01 1.45535E+01-1.88016E-13 3.29181E-14
 -1      1951-1.74088E+00 2.71478E+01 2.01828E-01 5.26704E+00-3.00593E-13-9.44522E-14
 -1      1952-1.74088E+00 2.71478E+01 2.01828E-01-5.26704E+00 4.46476E-13-6.05072E-15
 -1      1953-3.87676E+00 3.41206E+01 2.13861E-01-1.45535E+01-3.56215E-13-1.75138E-14
 -1      1954-7.39634E+00 4.60444E+01 2.16869E-01-2.05819E+01-1.16795E-13 1.49436E-13
 -1      1955-1.10988E+01 5.98396E+01 1.93205E-01-2.25460E+01-2.17881E-15 7.60503E-15
 -1      1956-1.38568E+01 7.26675E+01 1.45413E-01-2.09367E+01 2.60733E-13 1.15852E-13
 -1      1957-1.50539E+01 8.27956E+01 9.08882E-02-1.70349E+01 4.27408E-13-8.29059E-14
 -1      1958-1.46860E+01 8.97029E+01 4.02084E-02-1.22232E+01 5.34434E-14-4.99045E-14
 -1      1959-1.33807E+01 8.92928E+01 1.67872E-02 1.04082E+01 1.85504E-13 1.31922E-13
 -1      1960-1.38210E+01 8.35983E+01 6.08080E-02 1.49073E+01 3.30007E-13-1.44995E-13
 -1      1961-1.27617E+01 7.48651E+01 1.13804E-01 1.88015E+01-3.49781E-13 2.83107E-14
 -1      1962-1.00704E+01 6.33660E+01 1.67702E-01 2.07499E+01 4.24938E-14 1.61815E-14
 -1      1963-6.24888E+00 5.05722E+01 2.04903E-01 1.93593E+01-2.37144E-13 3.57492E-14
 -1      1964-2.45426E+00 3.92054E+01 2.17897E-01 1.39189E+01 2.63706E-13-3.85803E-14
 -1      1965-8.23254E-02 3.24363E+01 2.16716E-01 5.08344E+00 4.57967E-14-1.50227E-14
 -1      1966-8.23254E-02 3.24363E+01 2.16716E-01-5.08344E+00-4.76619E-13 8.13863E-14
 -1      1967-2.45426E+00 3.92054E+01 2.17897E-01-1.39189E+01 2.26985E-13-1.41026E-13
 -1      1968-6.24888E+00 5.05722E+01 2.04903E-01-1.93593E+01-3.14748E-14 2.54852E-13
 -1      1969-1.00704E+01 6.33660E+01 1.67702E-01-2.07499E+01-1.40096E-13-8.63476E-14
 -1      1970-1.27617E+01 7.48651E+01 1.13804E-01-1.88015E+01-3.51942E-13-1.91513E-15
 -1      1971-1.38210E+01 8.35983E+01 6.08080E-02-1.49073E+01-1.14977E-13 2.16493E-14
 -1      1972-1.33807E+01 8.92928E+01 1.67872E-02-1.04082E+01-2.46192E-14-2.19019E-13
 -1      1973-1.20173E+01 8.86912E+01 1.05852E-03 8.77001E+00 8.22953E-14 1.54710E-13
 -1      1974-1.25162E+01 8.40385E+01 3.81886E-02 1.28889E+01 1.32429E-13 1.09052E-13
 -1      1975-1.16255E+01 7.65860E+01 8.68957E-02 1.66514E+01 1.50891E-13-8.35443E-14
 -1      1976-9.10544E+00 6.64050E+01 1.41711E-01 1.88013E+01-1.71675E-13-8.44880E-14
 -1      1977-5.33331E+00 5.47094E+01 1.86797E-01 1.79016E+01-2.00895E-13 9.13714E-14
 -1      1978-1.44060E+00 4.40472E+01 2.11851E-01 1.30729E+01 5.64548E-14 7.87981E-14
 -1      1979 1.05474E+00 3.75893E+01 2.19845E-01 4.81533E+00 2.23432E-14-8.10879E-14
 -1      1980 1.05474E+00 3.75893E+01 2.19845E-01-4.81533E+00-2.95319E-14 7.72854E-14
 -1      1981-1.44060E+00 4.40472E+01 2.11851E-01-1.30729E+01 3.61711E-13-3.61100E-14
 -1      1982-5.33331E+00 5.47094E+01 1.86797E-01-1.79016E+01 4.75731E-14 2.08916E-13
 -1      1983-9.10544E+00 6.64050E+01 1.41711E-01-1.88013E+01 2.50792E-13-2.73892E-13
 -1      1984-1.16255E+01 7.65860E+01 8.68957E-02-1.66514E+01 1.20982E-13 7.40241E-14
 -1      1985-1.25162E+01 8.40385E+01 3.81886E-02-1.28889E+01-3.35079E-14-6.20337E-14
 -1      1986-1.20173E+01 8.86912E+01 1.05852E-03-8.77001E+00-1.96600E-13 1.01183E-13
 -1      1987-1.06655E+01 8.79763E+01-1.18062E-02 7.31027E+00 1.02654E-13 1.02571E-13
 -1      1988-1.12082E+01 8.41968E+01 1.50237E-02 1.10195E+01-1.86663E-13 6.53921E-14
 -1      1989-1.04956E+01 7.78868E+01 5.47439E-02 1.45658E+01 1.14369E-13 1.66533E-16
 -1      1990-8.20671E+00 6.89681E+01 1.06622E-01 1.68034E+01-2.28637E-14-1.68449E-13
 -1      1991-4.59920E+00 5.84188E+01 1.58187E-01 1.63061E+01 2.31717E-13 8.95950E-14
 -1      1992-7.43804E-01 4.85743E+01 1.95978E-01 1.20817E+01-1.13770E-13-4.78229E-14
 -1      1993 1.78247E+00 4.25194E+01 2.14188E-01 4.48560E+00-9.82825E-14 2.58057E-14
 -1      1994 1.78247E+00 4.25194E+01 2.14188E-01-4.48560E+00-5.39846E-14-1.34434E-13
 -1      1995-7.43804E-01 4.85743E+01 1.95978E-01-1.20817E+01-2.37199E-13 2.29483E-13
 -1      1996-4.59920E+00 5.84188E+01 1.58187E-01-1.63061E+01-9.17877E-14-6.41154E-14
 -1      1997-8.20671E+00 6.89681E+01 1.06622E-01-1.68034E+01-1.37480E-13-1.00669E-13
 -1      1998-1.04956E+01 7.78868E+01 5.47439E-02-1.45658E+01-1.55041E-14 1.61288E-13
 -1      1999-1.12082E+01 8.41968E+01 1.50237E-02-1.10195E+01 6.14231E-14-4.06203E-14
 -1      2000-1.06655E+01 8.79763E+01-1.18062E-02-7.31027E+00 1.53072E-13-1.20917E-13
 -1      2001 2.01134E+01 2.77969E+01-1.42004E+00 2.37608E+01 6.52367E-13-1.34115E-13
 -1      2002 1.83866E+01 4.65409E+01-6.07205E-01 3.04936E+01 4.54303E-13 7.01661E-14
 -1      2003 4.19815E+00 1.17527E+01-2.96798E+00 9.70576E+00-1.21458E-13 4.93827E-13
 -1      2004 7.45046E+00 2.66978E+01-1.79939E+00 1.92683E+01-1.67644E-13-1.34115E-13
 -1      2005-1.56282E+01 1.93486E+00-4.48696E+00-1.99324E+00-4.73399E-13 8.57092E-14
 -1      2006-7.47870E+00 1.21170E+01-2.99825E+00 8.07211E+00-2.20268E-13 5.25802E-13
 -1      2007-3.69584E+01-2.56409E+00-5.86757E+00-9.49999E+00 1.78968E-13 1.63425E-13
 -1      2008-2.51593E+01 2.97660E+00-4.15174E+00-1.03860E+00-2.29594E-13 3.14415E-13
 -1      2009-5.68162E+01-3.38933E+00-7.00957E+00-1.19098E+01-5.48631E-13 3.08642E-13
 -1      2010-4.33476E+01-1.51265E+00-5.17401E+00-6.48414E+00-1.82632E-13-1.23013E-13
 -1      2011-7.21678E+01-2.47643E+00-7.82436E+00-9.47386E+00 9.92761E-13 2.59570E-13
 -1      2012-5.92575E+01-2.85413E+00-5.98314E+00-7.60574E+00-3.49720E-14 7.45626E-13
 -1      2013-8.05385E+01-1.52509E+00-8.24827E+00-3.57606E+00-3.75144E-13-8.92120E-13
 -1      2014-7.01513E+01-2.75668E+00-6.50393E+00-4.91598E+00-1.32561E-13-2.67786E-13
 -1      2015-8.05385E+01-1.52509E+00-8.24827E+00 3.57606E+00 2.53131E-13-2.81442E-14
 -1      2016-7.40275E+01-2.55640E+00-6.68389E+00 9.44027E-08 1.77858E-13-5.58945E-13
 -1      2017-7.21678E+01-2.47643E+00-7.82436E+00 9.47386E+00 3.45945E-13 2.47580E-13
 -1      2018-7.01513E+01-2.75668E+00-6.50393E+00 4.91598E+00 1.05471E-13 3.71925E-13
 -1      2019-5.68162E+01-3.38933E+00-7.00957E+00 1.19098E+01-3.39728E-13-2.97096E-13
 -1      2020-5.92575E+01-2.85413E+00-5.98314E+00 7.60574E+00-2.36033E-13-1.86295E-13
 -1      2021-3.69584E+01-2.56409E+00-5.86757E+00 9.49999E+00 5.12257E-13-6.83897E-14
 -1      2022-4.33476E+01-1.51265E+00-5.17401E+00 6.48414E+00 2.25597E-13-1.98064E-13
 -1      2023-1.56282E+01 1.93486E+00-4.48696E+00 1.99324E+00 1.42553E-13-1.85185E-13
 -1      2024-2.51593E+01 2.97660E+00-4.15174E+00 1.03860E+00 1.70586E-13-3.90354E-13
 -1      2025 4.19815E+00 1.17527E+01-2.96798E+00-9.70576E+00 5.22693E-13 6.12843E-13
 -1      2026-7.47870E+00 1.21170E+01-2.99825E+00-8.07211E+00 2.07834E-13 3.97460E-13
 -1      2027 2.01134E+01 2.77969E+01-1.42004E+00-2.37608E+01 2.13607E-13-8.88178E-15
 -1      2028 7.45046E+00 2.66978E+01-1.79939E+00-1.92683E+01 3.45501E-13 3.97904E-13
 -1      2029 1.83866E+01 4.65409E+01-6.07205E-01-3.04936E+01 8.19789E-13-1.50990E-14
 -1      2030 8.35108E+00 4.44588E+01-5.52803E-01 2.59893E+01-6.84341E-13 4.71623E-13
 -1      2031 6.25926E+00 6.08993E+01-3.27813E-01 2.91305E+01-5.10703E-14-3.29958E-13
 -1      2032-2.33220E+00 2.64138E+01-1.49479E+00 1.68224E+01 2.44471E-13 1.77636E-14
 -1      2033-9.17150E-01 4.10575E+01-9.72752E-01 2.30800E+01-1.35891E-13 4.46310E-13
 -1      2034-1.62639E+01 1.28118E+01-2.53852E+00 7.71778E+00-1.26621E-12 6.05738E-13
 -1      2035-1.08590E+01 2.42278E+01-1.68824E+00 1.54913E+01-7.79932E-13-1.02141E-13
 -1      2036-3.21093E+01 3.93640E+00-3.59153E+00 4.75308E-01 1.28786E-14 3.17968E-13
 -1      2037-2.32100E+01 1.15515E+01-2.43445E+00 7.95301E+00 2.05391E-15 9.29035E-13
 -1      2038-4.76203E+01-8.42565E-01-4.53504E+00-3.56782E+00-4.33653E-13 2.97540E-13
 -1      2039-3.66080E+01 3.27129E+00-3.14378E+00 2.08051E+00-8.78297E-13-2.36255E-13
 -1      2040-6.00869E+01-2.80598E+00-5.24830E+00-4.02965E+00-6.07070E-13 5.11147E-13
 -1      2041-4.88703E+01-1.26950E+00-3.73643E+00-1.05712E+00-1.79856E-13 5.94191E-13
 -1      2042-6.70520E+01-3.34183E+00-5.63262E+00-1.69494E+00-4.32543E-13-6.93667E-13
 -1      2043-5.75415E+01-3.25076E+00-4.13248E+00-1.40393E+00-5.28910E-13-6.61693E-14
 -1      2044-6.70520E+01-3.34183E+00-5.63262E+00 1.69494E+00 7.86038E-14 3.00870E-14
 -1      2045-6.06785E+01-3.76448E+00-4.27197E+00 2.69384E-08-3.15303E-13-4.22277E-13
 -1      2046-6.00869E+01-2.80598E+00-5.24830E+00 4.02965E+00-7.63611E-13-7.57172E-14
 -1      2047-5.75415E+01-3.25076E+00-4.13248E+00 1.40393E+00-2.23821E-13 1.31006E-13
 -1      2048-4.76203E+01-8.42565E-01-4.53504E+00 3.56782E+00-6.32494E-13-2.46025E-13
 -1      2049-4.88703E+01-1.26950E+00-3.73643E+00 1.05712E+00-3.32179E-13-1.98064E-13
 -1      2050-3.21093E+01 3.93640E+00-3.59153E+00-4.75308E-01 2.78444E-13-3.09086E-13
 -1      2051-3.66080E+01 3.27129E+00-3.14378E+00-2.08051E+00 1.55320E-13 2.66454E-14
 -1      2052-1.62639E+01 1.28118E+01-2.53852E+00-7.71778E+00-3.36731E-13-9.54792E-14
 -1      2053-2.32100E+01 1.15515E+01-2.43445E+00-7.95301E+00 4.70818E-13-3.50830E-13
 -1      2054-2.33220E+00 2.64138E+01-1.49479E+00-1.68224E+01 2.75335E-13 7.34968E-13
 -1      2055-1.08590E+01 2.42278E+01-1.68824E+00-1.54913E+01 2.82219E-13 8.44658E-13
 -1      2056 8.35108E+00 4.44588E+01-5.52803E-01-2.59893E+01 1.20792E-13-8.17124E-14
 -1      2057-9.17150E-01 4.10575E+01-9.72752E-01-2.30800E+01 2.96874E-13-1.59872E-14
 -1      2058 6.25926E+00 6.08993E+01-3.27813E-01-2.91305E+01 3.69482E-13 6.21725E-14
 -1      2059-6.99321E-01 5.76280E+01-1.13601E-01 2.67614E+01 1.06581E-13-3.73035E-13
 -1      2060-2.60529E+00 7.18091E+01-1.64433E-01 2.72663E+01-3.78808E-13-1.02585E-13
 -1      2061-7.51311E+00 3.89925E+01-6.14437E-01 2.16924E+01-1.29963E-12 5.75096E-13
 -1      2062-7.25990E+00 5.28524E+01-5.04708E-01 2.51738E+01-3.98792E-13-3.73035E-13
 -1      2063-1.67189E+01 2.30053E+01-1.25817E+00 1.51682E+01 2.23321E-13 5.68434E-14
 -1      2064-1.35419E+01 3.49667E+01-9.17153E-01 2.07173E+01-4.90163E-14 2.95763E-13
 -1      2065-2.78127E+01 1.08079E+01-1.98703E+00 8.65390E+00-5.89639E-13 4.10338E-13
 -1      2066-2.16538E+01 1.98508E+01-1.37412E+00 1.48864E+01 8.71525E-14 4.53415E-13
 -1      2067-3.92922E+01 2.69360E+00-2.69886E+00 3.59023E+00-4.17222E-13 3.94351E-13
 -1      2068-3.09593E+01 8.55639E+00-1.83315E+00 9.06665E+00-8.88178E-13-2.34479E-13
 -1      2069-4.89276E+01-1.86913E+00-3.27051E+00 7.82970E-01 1.08713E-12 2.49356E-13
 -1      2070-3.99166E+01 1.24971E+00-2.23422E+00 4.48787E+00-1.73195E-13 1.23679E-12
 -1      2071-5.44590E+01-3.80493E+00-3.58980E+00-7.16020E-03-8.08242E-14-5.94302E-13
 -1      2072-4.64849E+01-2.62417E+00-2.51097E+00 1.63573E+00-1.78080E-13-4.77618E-13
 -1      2073-5.44590E+01-3.80493E+00-3.58980E+00 7.16019E-03-2.27374E-13 3.57492E-14
 -1      2074-4.89061E+01-3.80478E+00-2.61009E+00-2.06851E-08-2.32703E-13-5.06380E-13
 -1      2075-4.89276E+01-1.86913E+00-3.27051E+00-7.82970E-01-1.08358E-13-8.74856E-14
 -1      2076-4.64849E+01-2.62417E+00-2.51097E+00-1.63573E+00-3.74367E-13 1.54543E-13
 -1      2077-3.92922E+01 2.69360E+00-2.69886E+00-3.59023E+00 2.54685E-13 3.46390E-14
 -1      2078-3.99166E+01 1.24971E+00-2.23422E+00-4.48787E+00 2.36255E-13-3.95239E-14
 -1      2079-2.78127E+01 1.08079E+01-1.98703E+00-8.65390E+00-2.28706E-14-1.01696E-13
 -1      2080-3.09593E+01 8.55639E+00-1.83315E+00-9.06665E+00-1.36779E-13-2.39808E-14
 -1      2081-1.67189E+01 2.30053E+01-1.25817E+00-1.51682E+01 1.07245E-12 6.38600E-13
 -1      2082-2.16538E+01 1.98508E+01-1.37412E+00-1.48864E+01 5.46285E-13 3.38396E-13
 -1      2083-7.51311E+00 3.89925E+01-6.14437E-01-2.16924E+01 2.36478E-13 1.86517E-13
 -1      2084-1.35419E+01 3.49667E+01-9.17153E-01-2.07173E+01 1.21569E-13 2.45137E-13
 -1      2085-6.99321E-01 5.76280E+01-1.13601E-01-2.67614E+01-2.08500E-13-3.05089E-13
 -1      2086-7.25990E+00 5.28524E+01-5.04708E-01-2.51738E+01 1.76525E-13-3.09530E-13
 -1      2087-2.60529E+00 7.18091E+01-1.64433E-01-2.72663E+01-2.29372E-13 4.18332E-13
 -1      2088-7.37355E+00 6.77990E+01 7.85227E-02 2.64435E+01-1.41220E-13-3.30402E-13
 -1      2089-8.77041E+00 7.97993E+01-6.84519E-02 2.50810E+01 3.50830E-13 2.14495E-13
 -1      2090-1.15052E+01 4.95498E+01-1.46703E-01 2.46407E+01-6.32827E-14-2.98428E-13
 -1      2091-1.18092E+01 6.22994E+01-2.52391E-01 2.58932E+01-2.01394E-13-5.51559E-13
 -1      2092-1.71170E+01 3.23207E+01-5.02150E-01 2.05068E+01 2.75155E-13 1.91847E-13
 -1      2093-1.55047E+01 4.43011E+01-4.89700E-01 2.40499E+01 3.37175E-13 2.30926E-14
 -1      2094-2.42966E+01 1.77831E+01-9.66565E-01 1.50075E+01 1.01030E-14 2.75335E-14
 -1      2095-2.03494E+01 2.77185E+01-7.59235E-01 1.99288E+01 6.42375E-13 2.23821E-13
 -1      2096-3.22232E+01 6.99667E+00-1.46755E+00 9.44422E+00-5.81979E-13 4.53415E-13
 -1      2097-2.62576E+01 1.41757E+01-1.03806E+00 1.45216E+01-2.10498E-13-6.75460E-13
 -1      2098-3.92282E+01 1.89918E-01-1.89768E+00 4.84806E+00-8.34444E-13 5.84865E-13
 -1      2099-3.23015E+01 4.57999E+00-1.28844E+00 9.01472E+00 2.29150E-13 1.06892E-12
 -1      2100-4.33810E+01-3.00604E+00-2.14744E+00 1.44122E+00-3.21076E-13-5.07261E-13
 -1      2101-3.69344E+01-9.55697E-01-1.46512E+00 4.18118E+00-5.14699E-13-1.66089E-13
 -1      2102-4.33810E+01-3.00604E+00-2.14744E+00-1.44122E+00 1.82077E-13 9.82547E-14
 -1      2103-3.86816E+01-2.73854E+00-1.52920E+00-5.29333E-08 8.88178E-14-1.75374E-13
 -1      2104-3.92282E+01 1.89918E-01-1.89768E+00-4.84806E+00 5.15143E-14-1.56763E-13
 -1      2105-3.69344E+01-9.55697E-01-1.46512E+00-4.18118E+00-7.81597E-14-8.60423E-14
 -1      2106-3.22232E+01 6.99667E+00-1.46755E+00-9.44422E+00-1.84741E-13 8.61533E-14
 -1      2107-3.23015E+01 4.57999E+00-1.28844E+00-9.01472E+00-9.05942E-14 1.82077E-14
 -1      2108-2.42966E+01 1.77831E+01-9.66565E-01-1.50075E+01 2.60680E-13 2.35367E-13
 -1      2109-2.62576E+01 1.41757E+01-1.03806E+00-1.45216E+01-1.99840E-14 2.26041E-13
 -1      2110-1.71170E+01 3.23207E+01-5.02150E-01-2.05068E+01 1.34434E-13 2.17160E-13
 -1      2111-2.03494E+01 2.77185E+01-7.59235E-01-1.99288E+01-2.02727E-13 2.66454E-15
 -1      2112-1.15052E+01 4.95498E+01-1.46703E-01-2.46407E+01-2.81664E-13-3.18856E-13
 -1      2113-1.55047E+01 4.43011E+01-4.89700E-01-2.40499E+01-1.97065E-13-2.22933E-13
 -1      2114-7.37355E+00 6.77990E+01 7.85227E-02-2.64435E+01 4.57856E-13 1.46549E-13
 -1      2115-1.18092E+01 6.22994E+01-2.52391E-01-2.58932E+01-1.36557E-13-8.88178E-16
 -1      2116-8.77041E+00 7.97993E+01-6.84519E-02-2.50810E+01-6.83897E-14-1.35003E-13
 -1      2117-1.20165E+01 7.54118E+01 1.32247E-01 2.53281E+01 1.11688E-13 5.50671E-14
 -1      2118-1.27844E+01 8.54163E+01-8.57307E-03 2.27264E+01 9.85878E-14 6.26166E-14
 -1      2119-1.43828E+01 5.82084E+01 6.45045E-02 2.60283E+01 5.31686E-13-5.20473E-13
 -1      2120-1.48396E+01 6.97064E+01-1.15086E-01 2.55675E+01-2.10276E-13-9.05942E-14
 -1      2121-1.73713E+01 4.06440E+01-1.00925E-01 2.40085E+01 5.11216E-13 1.95399E-13
 -1      2122-1.67809E+01 5.22989E+01-2.58458E-01 2.58186E+01 3.18384E-13-1.49658E-13
 -1      2123-2.14333E+01 2.46354E+01-3.69761E-01 1.96809E+01 6.04294E-13-3.70370E-13
 -1      2124-1.91905E+01 3.50748E+01-4.17419E-01 2.33089E+01 1.93512E-13 4.72511E-13
 -1      2125-2.63208E+01 1.18236E+01-6.99658E-01 1.40395E+01 9.03944E-13 6.75016E-14
 -1      2126-2.23580E+01 2.00028E+01-5.79188E-01 1.85594E+01 1.05027E-13-5.74651E-13
 -1      2127-3.09505E+01 3.15222E+00-1.00646E+00 8.16579E+00-1.61204E-13 3.47056E-13
 -1      2128-2.59003E+01 8.61025E+00-7.23098E-01 1.25601E+01 3.39728E-14 3.07088E-13
 -1      2129-3.38144E+01-1.14235E+00-1.19270E+00 2.64560E+00-3.47722E-13-2.77944E-13
 -1      2130-2.87965E+01 1.67320E+00-8.24592E-01 6.23733E+00-7.47402E-13-3.00870E-14
 -1      2131-3.38144E+01-1.14235E+00-1.19270E+00-2.64560E+00-4.58744E-13 6.54476E-14
 -1      2132-2.99248E+01-6.34115E-01-8.61480E-01-7.20406E-08-1.91847E-13-2.22126E-13
 -1      2133-3.09505E+01 3.15222E+00-1.00646E+00-8.16579E+00-1.70530E-13-1.03473E-13
 -1      2134-2.87965E+01 1.67320E+00-8.24592E-01-6.23733E+00 6.57252E-14 1.25233E-13
 -1      2135-2.63208E+01 1.18236E+01-6.99658E-01-1.40395E+01 1.88294E-13 7.14984E-14
 -1      2136-2.59003E+01 8.61025E+00-7.23098E-01-1.25601E+01-4.84057E-14 1.04805E-13
 -1      2137-2.14333E+01 2.46354E+01-3.69761E-01-1.96809E+01-5.25247E-13-9.10383E-14
 -1      2138-2.23580E+01 2.00028E+01-5.79188E-01-1.85594E+01 8.59313E-14-8.88178E-14
 -1      2139-1.73713E+01 4.06440E+01-1.00925E-01-2.40085E+01-4.45186E-13-6.12843E-14
 -1      2140-1.91905E+01 3.50748E+01-4.17419E-01-2.33089E+01-2.38198E-13 1.15463E-14
 -1      2141-1.43828E+01 5.82084E+01 6.45045E-02-2.60283E+01-1.48326E-13-8.17124E-14
 -1      2142-1.67809E+01 5.22989E+01-2.58458E-01-2.58186E+01-3.57686E-13-1.03029E-13
 -1      2143-1.20165E+01 7.54118E+01 1.32247E-01-2.53281E+01 4.97380E-14-1.42997E-13
 -1      2144-1.48396E+01 6.97064E+01-1.15086E-01-2.55675E+01-1.11022E-16-1.16795E-13
 -1      2145-1.27844E+01 8.54163E+01-8.57307E-03-2.27264E+01-3.16192E-13-1.13243E-13
 -1      2146-1.49914E+01 8.09226E+01 1.19268E-01 2.36720E+01-5.23470E-13 3.75255E-13
 -1      2147-1.51237E+01 8.91430E+01 3.13981E-02 2.03212E+01-4.01901E-13-2.22045E-13
 -1      2148-1.62669E+01 6.51772E+01 1.34190E-01 2.61990E+01 4.18776E-13-2.39808E-13
 -1      2149-1.66205E+01 7.53630E+01-3.72126E-02 2.44816E+01 1.18239E-13 5.04485E-13
 -1      2150-1.74256E+01 4.79703E+01 8.55617E-02 2.59662E+01 3.22603E-13 1.64313E-13
 -1      2151-1.74354E+01 5.90366E+01-1.33504E-01 2.63353E+01-5.26801E-14-2.24931E-13
 -1      2152-1.90909E+01 3.12395E+01-4.84633E-02 2.28560E+01-5.90639E-13 9.14824E-14
 -1      2153-1.81033E+01 4.18419E+01-2.33926E-01 2.52670E+01-3.99236E-13 2.08722E-13
 -1      2154-2.14563E+01 1.70160E+01-2.49894E-01 1.74580E+01 1.12577E-13 3.79696E-14
 -1      2155-1.91326E+01 2.58920E+01-3.28252E-01 2.13184E+01-1.22347E-13-3.90799E-14
 -1      2156-2.39994E+01 6.87161E+00-4.58200E-01 1.07604E+01-1.91847E-13 1.11022E-13
 -1      2157-2.05894E+01 1.31907E+01-4.05496E-01 1.51828E+01-1.19904E-13 2.74447E-13
 -1      2158-2.56903E+01 1.65664E+00-5.91765E-01 3.60954E+00-6.79456E-14-1.53877E-13
 -1      2159-2.19700E+01 5.13105E+00-4.56786E-01 7.82096E+00-2.98428E-13-1.15352E-13
 -1      2160-2.56903E+01 1.65664E+00-5.91765E-01-3.60954E+00 3.10862E-15 6.90004E-14
 -1      2161-2.25454E+01 2.38676E+00-4.74885E-01-8.04858E-08 3.49054E-13-3.70173E-14
 -1      2162-2.39994E+01 6.87161E+00-4.58200E-01-1.07604E+01-2.06057E-13-2.48690E-14
 -1      2163-2.19700E+01 5.13105E+00-4.56786E-01-7.82096E+00-8.30447E-14 1.20459E-13
 -1      2164-2.14563E+01 1.70160E+01-2.49894E-01-1.74580E+01-4.29212E-13 6.41709E-14
 -1      2165-2.05894E+01 1.31907E+01-4.05496E-01-1.51828E+01 1.56319E-13-1.01252E-13
 -1      2166-1.90909E+01 3.12395E+01-4.84633E-02-2.28560E+01 6.83453E-13 1.02141E-14
 -1      2167-1.91326E+01 2.58920E+01-3.28252E-01-2.13184E+01-4.64517E-13 3.40616E-13
 -1      2168-1.74256E+01 4.79703E+01 8.55617E-02-2.59662E+01-5.91513E-13-1.54543E-13
 -1      2169-1.81033E+01 4.18419E+01-2.33926E-01-2.52670E+01 2.90712E-13-4.20552E-13
 -1      2170-1.62669E+01 6.51772E+01 1.34190E-01-2.61990E+01-4.02456E-13-1.13243E-13
 -1      2171-1.74354E+01 5.90366E+01-1.33504E-01-2.63353E+01-1.51462E-13-1.53211E-14
 -1      2172-1.49914E+01 8.09226E+01 1.19268E-01-2.36720E+01-1.09246E-13-1.30562E-13
 -1      2173-1.66205E+01 7.53630E+01-3.72126E-02-2.44816E+01-3.24851E-13 1.50546E-13
 -1      2174-1.51237E+01 8.91430E+01 3.13981E-02-2.03212E+01-2.42029E-14-1.41220E-13
 -1      2175-1.66339E+01 8.47370E+01 7.95411E-02 2.16829E+01 1.23346E-13-1.31450E-13
 -1      2176-1.61987E+01 9.14013E+01 5.88968E-02 1.79549E+01-3.13194E-13-4.88720E-13
 -1      2177-1.72940E+01 7.06667E+01 1.32757E-01 2.54576E+01-1.16795E-13 2.08722E-13
 -1      2178-1.74074E+01 7.95507E+01 1.06374E-02 2.28773E+01 1.50546E-13 1.15463E-13
 -1      2179-1.72501E+01 5.43194E+01 1.51030E-01 2.66643E+01 1.35697E-13-1.95843E-13
 -1      2180-1.75518E+01 6.46142E+01-6.23557E-02 2.58876E+01-5.44564E-14 6.12843E-14
 -1      2181-1.71499E+01 3.74908E+01 1.04912E-01 2.47294E+01-6.10623E-13 3.09530E-13
 -1      2182-1.70383E+01 4.79690E+01-1.35139E-01 2.60464E+01-5.94524E-14-2.82441E-13
 -1      2183-1.74927E+01 2.24221E+01-5.06286E-03 1.98023E+01-1.99840E-15-1.39888E-13
 -1      2184-1.64653E+01 3.17093E+01-1.96157E-01 2.29563E+01-3.34066E-13 3.31291E-13
 -1      2185-1.82577E+01 1.11972E+01-1.39003E-01 1.26712E+01-9.24594E-13 2.36700E-13
 -1      2186-1.62413E+01 1.81646E+01-2.37690E-01 1.69616E+01-2.25597E-13-4.44089E-13
 -1      2187-1.89110E+01 5.25179E+00-2.31397E-01 4.34177E+00 1.49214E-13 3.81917E-14
 -1      2188-1.63398E+01 9.26766E+00-2.60074E-01 8.96068E+00 1.49214E-13 5.31686E-13
 -1      2189-1.89110E+01 5.25179E+00-2.31397E-01-4.34177E+00 1.13820E-12 1.11133E-13
 -1      2190-1.64358E+01 6.17967E+00-2.66913E-01-8.06897E-08 1.87406E-13 2.92441E-13
 -1      2191-1.82577E+01 1.11972E+01-1.39003E-01-1.26712E+01 1.78746E-13-7.77156E-14
 -1      2192-1.63398E+01 9.26766E+00-2.60074E-01-8.96068E+00-2.72227E-13-3.27960E-13
 -1      2193-1.74927E+01 2.24221E+01-5.06286E-03-1.98023E+01 6.99441E-14 1.60538E-13
 -1      2194-1.62413E+01 1.81646E+01-2.37690E-01-1.69616E+01 2.90434E-13-8.97060E-14
 -1      2195-1.71499E+01 3.74908E+01 1.04912E-01-2.47294E+01-3.69260E-13-2.62679E-13
 -1      2196-1.64653E+01 3.17093E+01-1.96157E-01-2.29563E+01 3.96239E-13 3.97460E-14
 -1      2197-1.72501E+01 5.43194E+01 1.51030E-01-2.66643E+01-1.15796E-13-1.15463E-14
 -1      2198-1.70383E+01 4.79690E+01-1.35139E-01-2.60464E+01-8.77076E-15-6.50591E-14
 -1      2199-1.72940E+01 7.06667E+01 1.32757E-01-2.54576E+01 8.04967E-13 1.99396E-13
 -1      2200-1.75518E+01 6.46142E+01-6.23557E-02-2.58876E+01-2.39836E-13 2.16493E-13
 -1      2201-1.66339E+01 8.47370E+01 7.95411E-02-2.16829E+01-1.52101E-14 9.99201E-15
 -1      2202-1.74074E+01 7.95507E+01 1.06374E-02-2.28773E+01 1.40887E-13-6.86118E-14
 -1      2203-1.61987E+01 9.14013E+01 5.88968E-02-1.79549E+01 5.83977E-14-4.57412E-14
 -1      2204-1.72483E+01 8.72158E+01 3.42984E-02 1.95259E+01 4.41647E-13-3.08420E-13
 -1      2205-1.63524E+01 9.25507E+01 7.72613E-02 1.56921E+01 2.88436E-13 4.83391E-13
 -1      2206-1.76106E+01 7.48899E+01 1.00912E-01 2.40695E+01 7.17759E-14 2.14495E-13
 -1      2207-1.74323E+01 8.25319E+01 4.22102E-02 2.09529E+01 4.76841E-14-5.00933E-13
 -1      2208-1.68415E+01 5.97382E+01 1.54229E-01 2.63732E+01 1.45634E-13-1.80078E-13
 -1      2209-1.72239E+01 6.91469E+01-1.77154E-02 2.47318E+01 4.72927E-13 3.18856E-13
 -1      2210-1.55106E+01 4.33102E+01 1.62818E-01 2.55073E+01-2.37033E-13 1.15463E-14
 -1      2211-1.59671E+01 5.34310E+01-7.84738E-02 2.58830E+01 7.43849E-15-5.63993E-13
 -1      2212-1.42962E+01 2.79005E+01 1.15719E-01 2.11940E+01-1.91624E-13 6.72795E-14
 -1      2213-1.42539E+01 3.73375E+01-1.26407E-01 2.36412E+01 5.81757E-13 3.03313E-13
 -1      2214-1.35970E+01 1.59743E+01 3.61387E-02 1.39530E+01 1.33293E-12 5.47340E-14
 -1      2215-1.27294E+01 2.33776E+01-1.53105E-01 1.79904E+01 3.20632E-13 2.07390E-13
 -1      2216-1.33610E+01 9.49254E+00-2.51172E-02 4.85674E+00 6.24834E-13 6.46150E-14
 -1      2217-1.17813E+01 1.39237E+01-1.62314E-01 9.69468E+00 4.76952E-13 6.95000E-14
 -1      2218-1.33610E+01 9.49254E+00-2.51172E-02-4.85674E+00-1.41087E-12-1.33837E-13
 -1      2219-1.14755E+01 1.05873E+01-1.63725E-01-7.49470E-08-3.45723E-13-4.71602E-13
 -1      2220-1.35970E+01 1.59743E+01 3.61387E-02-1.39530E+01-4.09672E-13 5.78426E-14
 -1      2221-1.17813E+01 1.39237E+01-1.62314E-01-9.69468E+00-4.70290E-13-4.16334E-14
 -1      2222-1.42962E+01 2.79005E+01 1.15719E-01-2.11940E+01 8.24896E-13 1.81632E-13
 -1      2223-1.27294E+01 2.33776E+01-1.53105E-01-1.79904E+01-2.71339E-13 4.89830E-13
 -1      2224-1.55106E+01 4.33102E+01 1.62818E-01-2.55073E+01 7.66942E-13-5.77316E-14
 -1      2225-1.42539E+01 3.73375E+01-1.26407E-01-2.36412E+01-2.06279E-13-6.08402E-14
 -1      2226-1.68415E+01 5.97382E+01 1.54229E-01-2.63732E+01-3.37216E-13-7.97140E-14
 -1      2227-1.59671E+01 5.34310E+01-7.84738E-02-2.58830E+01-9.65894E-15-5.07816E-13
 -1      2228-1.76106E+01 7.48899E+01 1.00912E-01-2.40695E+01-1.00087E-13 1.82077E-14
 -1      2229-1.72239E+01 6.91469E+01-1.77154E-02-2.47318E+01-3.87163E-13 3.05089E-13
 -1      2230-1.72483E+01 8.72158E+01 3.42984E-02-1.95259E+01-2.70228E-13-5.41789E-14
 -1      2231-1.74323E+01 8.25319E+01 4.22102E-02-2.09529E+01 3.49498E-13-1.39666E-13
 -1      2232-1.63524E+01 9.25507E+01 7.72613E-02-1.56921E+01 1.32006E-13 6.52811E-14
 -1      2233-1.71003E+01 8.86697E+01-6.46401E-03 1.73262E+01 2.15383E-14 2.75557E-13
 -1      2234-1.58642E+01 9.28899E+01 8.82363E-02 1.35760E+01-1.02918E-13 2.28262E-13
 -1      2235-1.73628E+01 7.80519E+01 6.02498E-02 2.22576E+01 5.70932E-13-2.35367E-13
 -1      2236-1.68986E+01 8.45449E+01 6.34659E-02 1.88662E+01 4.92328E-13 2.42029E-13
 -1      2237-1.62171E+01 6.42929E+01 1.29177E-01 2.53399E+01 9.14997E-14 9.85878E-14
 -1      2238-1.65474E+01 7.27592E+01 1.30973E-02 2.30893E+01 3.64014E-13-1.93401E-13
 -1      2239-1.40930E+01 4.86425E+01 1.70300E-01 2.53952E+01 9.61842E-13-3.56160E-13
 -1      2240-1.48781E+01 5.82272E+01-4.18374E-02 2.49973E+01 4.02928E-13 1.82299E-13
 -1      2241-1.17407E+01 3.33236E+01 1.65670E-01 2.17668E+01-1.33338E-13 1.25899E-13
 -1      2242-1.24105E+01 4.26809E+01-8.65565E-02 2.35436E+01 1.88960E-13-4.71179E-13
 -1      2243-9.88435E+00 2.10489E+01 1.25472E-01 1.46726E+01-4.04565E-13 9.80327E-14
 -1      2244-9.93101E+00 2.86845E+01-1.10403E-01 1.83730E+01 3.77476E-14 1.08136E-13
 -1      2245-8.91353E+00 1.42215E+01 8.76236E-02 5.17365E+00-4.39204E-13-1.46660E-13
 -1      2246-8.16491E+00 1.89391E+01-1.16489E-01 1.00687E+01-2.11386E-13 4.51861E-14
 -1      2247-8.91353E+00 1.42215E+01 8.76236E-02-5.17365E+00-5.60441E-13-2.76612E-13
 -1      2248-7.53554E+00 1.54477E+01-1.16401E-01-6.52966E-08-2.66676E-13-3.70143E-13
 -1      2249-9.88435E+00 2.10489E+01 1.25472E-01-1.46726E+01 4.06342E-14 3.07532E-13
 -1      2250-8.16491E+00 1.89391E+01-1.16489E-01-1.00687E+01-7.77156E-15 2.93876E-13
 -1      2251-1.17407E+01 3.33236E+01 1.65670E-01-2.17668E+01-6.93334E-13 4.44089E-14
 -1      2252-9.93101E+00 2.86845E+01-1.10403E-01-1.83730E+01-1.56319E-13 2.31593E-13
 -1      2253-1.40930E+01 4.86425E+01 1.70300E-01-2.53952E+01-6.11122E-13-2.82663E-13
 -1      2254-1.24105E+01 4.26809E+01-8.65565E-02-2.35436E+01 1.41664E-13-2.83107E-13
 -1      2255-1.62171E+01 6.42929E+01 1.29177E-01-2.53399E+01-8.29024E-14 3.55271E-15
 -1      2256-1.48781E+01 5.82272E+01-4.18374E-02-2.49973E+01 2.21684E-13-2.17604E-14
 -1      2257-1.73628E+01 7.80519E+01 6.02498E-02-2.22576E+01-2.09999E-13 1.72307E-13
 -1      2258-1.65474E+01 7.27592E+01 1.30973E-02-2.30893E+01 2.49023E-13 3.27738E-13
 -1      2259-1.71003E+01 8.86697E+01-6.46401E-03-1.73262E+01 2.69562E-13-1.41775E-13
 -1      2260-1.68986E+01 8.45449E+01 6.34659E-02-1.88662E+01-7.93809E-14-1.43330E-13
 -1      2261-1.58642E+01 9.28899E+01 8.82363E-02-1.35760E+01-1.32561E-13 1.65645E-13
 -1      2262-1.64145E+01 8.93598E+01-3.88024E-02 1.51749E+01 6.06126E-13 3.96017E-13
 -1      2263-1.49551E+01 9.26607E+01 9.31510E-02 1.16324E+01 3.64597E-13-6.58362E-14
 -1      2264-1.66883E+01 8.03437E+01 2.13404E-02 2.02031E+01 1.02196E-13-1.44551E-13
 -1      2265-1.59788E+01 8.58003E+01 7.70226E-02 1.67375E+01 5.19695E-13 5.50338E-13
 -1      2266-1.54080E+01 6.80639E+01 9.43269E-02 2.37828E+01-2.11688E-14 1.11022E-14
 -1      2267-1.56139E+01 7.55779E+01 3.53068E-02 2.11447E+01-5.31686E-13-3.63487E-13
 -1      2268-1.28359E+01 5.34567E+01 1.53544E-01 2.45901E+01-3.86913E-14 1.27010E-13
 -1      2269-1.37715E+01 6.23778E+01-1.52006E-02 2.35882E+01-1.91736E-13 3.43059E-14
 -1      2270-9.71095E+00 3.85819E+01 1.77358E-01 2.16598E+01 9.44800E-13-1.36335E-13
 -1      2271-1.08614E+01 4.76665E+01-6.00763E-02 2.28293E+01 3.66263E-13 2.78555E-13
 -1      2272-6.98686E+00 2.62745E+01 1.65944E-01 1.49056E+01 4.18554E-13-6.10623E-15
 -1      2273-7.73062E+00 3.39554E+01-8.65111E-02 1.82180E+01-1.16795E-13-1.40332E-13
 -1      2274-5.43516E+00 1.92817E+01 1.45963E-01 5.31536E+00 4.17888E-13-1.74638E-13
 -1      2275-5.36054E+00 2.41599E+01-9.48265E-02 1.01334E+01-1.33227E-14 9.22040E-14
 -1      2276-5.43516E+00 1.92817E+01 1.45963E-01-5.31536E+00 4.38760E-13-2.47802E-13
 -1      2277-4.48352E+00 2.06016E+01-9.54900E-02-5.34919E-08-7.39409E-14-3.75621E-13
 -1      2278-6.98686E+00 2.62745E+01 1.65944E-01-1.49056E+01-1.04361E-13 2.50022E-13
 -1      2279-5.36054E+00 2.41599E+01-9.48265E-02-1.01334E+01 2.03393E-13-1.46660E-13
 -1      2280-9.71095E+00 3.85819E+01 1.77358E-01-2.16598E+01 1.87628E-14 1.50102E-13
 -1      2281-7.73062E+00 3.39554E+01-8.65111E-02-1.82180E+01 9.65894E-15 4.18554E-13
 -1      2282-1.28359E+01 5.34567E+01 1.53544E-01-2.45901E+01 2.60347E-13 3.13083E-14
 -1      2283-1.08614E+01 4.76665E+01-6.00763E-02-2.28293E+01 3.19966E-13-1.01807E-13
 -1      2284-1.54080E+01 6.80639E+01 9.43269E-02-2.37828E+01 6.69242E-13 1.99840E-13
 -1      2285-1.37715E+01 6.23778E+01-1.52006E-02-2.35882E+01 1.52101E-13 2.51799E-13
 -1      2286-1.66883E+01 8.03437E+01 2.13404E-02-2.02031E+01-9.27591E-14-1.60538E-13
 -1      2287-1.56139E+01 7.55779E+01 3.53068E-02-2.11447E+01 5.15504E-13-1.26565E-13
 -1      2288-1.64145E+01 8.93598E+01-3.88024E-02-1.51749E+01 1.65368E-13 1.04361E-14
 -1      2289-1.59788E+01 8.58003E+01 7.70226E-02-1.67375E+01 1.95344E-13 7.71605E-14
 -1      2290-1.49551E+01 9.26607E+01 9.31510E-02-1.16324E+01-5.31242E-14-8.21565E-15
 -1      2291-1.53742E+01 8.94999E+01-6.19166E-02 1.31346E+01 1.94011E-13 2.00062E-13
 -1      2292-1.37946E+01 9.20536E+01 9.32582E-02 9.87333E+00 8.32667E-14-2.38254E-13
 -1      2293-1.57112E+01 8.19379E+01-1.12549E-02 1.80477E+01-8.40744E-13 1.21125E-13
 -1      2294-1.48134E+01 8.64784E+01 8.43439E-02 1.46546E+01 9.24816E-14 1.79856E-14
 -1      2295-1.44534E+01 7.11394E+01 5.90534E-02 2.18877E+01-2.26232E-13-3.45279E-14
 -1      2296-1.45063E+01 7.77268E+01 5.09721E-02 1.90467E+01-1.80786E-13 7.57172E-14
 -1      2297-1.16948E+01 5.77428E+01 1.26909E-01 2.32736E+01 4.80560E-13 8.53762E-14
 -1      2298-1.26557E+01 6.59198E+01 5.34268E-03 2.18288E+01 1.93928E-13 1.97953E-13
 -1      2299-8.10426E+00 4.35867E+01 1.69464E-01 2.10110E+01-3.96128E-13-4.59632E-14
 -1      2300-9.54621E+00 5.22446E+01-3.97032E-02 2.16535E+01-3.40727E-13-4.08562E-14
 -1      2301-4.77576E+00 3.15177E+01 1.79349E-01 1.47319E+01-6.72906E-13 1.60982E-14
 -1      2302-6.02220E+00 3.90789E+01-7.00817E-02 1.76339E+01-9.07052E-14-2.72671E-13
 -1      2303-2.79087E+00 2.45229E+01 1.73320E-01 5.30717E+00-4.25215E-13-1.29008E-13
 -1      2304-3.24153E+00 2.94443E+01-8.26792E-02 9.94209E+00-4.31544E-13 2.41696E-13
 -1      2305-2.79087E+00 2.45229E+01 1.73320E-01-5.30717E+00 1.44329E-13-2.07251E-13
 -1      2306-2.18779E+00 2.58988E+01-8.50956E-02-4.09366E-08-1.52989E-13-9.97943E-14
 -1      2307-4.77576E+00 3.15177E+01 1.79349E-01-1.47319E+01-1.24456E-13 1.70308E-13
 -1      2308-3.24153E+00 2.94443E+01-8.26792E-02-9.94209E+00 6.14619E-13-3.30236E-13
 -1      2309-8.10426E+00 4.35867E+01 1.69464E-01-2.10110E+01-6.21725E-15 2.99427E-13
 -1      2310-6.02220E+00 3.90789E+01-7.00817E-02-1.76339E+01-2.83218E-13 4.28324E-13
 -1      2311-1.16948E+01 5.77428E+01 1.26909E-01-2.32736E+01 3.06644E-13 1.24123E-13
 -1      2312-9.54621E+00 5.22446E+01-3.97032E-02-2.16535E+01 1.29952E-13 1.37779E-13
 -1      2313-1.44534E+01 7.11394E+01 5.90534E-02-2.18877E+01 2.61496E-13 1.17906E-13
 -1      2314-1.26557E+01 6.59198E+01 5.34268E-03-2.18288E+01 2.79554E-13 9.82547E-14
 -1      2315-1.57112E+01 8.19379E+01-1.12549E-02-1.80477E+01 9.42857E-13-2.16382E-13
 -1      2316-1.45063E+01 7.77268E+01 5.09721E-02-1.90467E+01 4.27006E-13-2.44249E-14
 -1      2317-1.53742E+01 8.94999E+01-6.19166E-02-1.31346E+01 2.99372E-13 6.66134E-14
 -1      2318-1.48134E+01 8.64784E+01 8.43439E-02-1.46546E+01 3.19078E-13-1.09246E-13
 -1      2319-1.37946E+01 9.20536E+01 9.32582E-02-9.87333E+00 3.72813E-13-1.07636E-13
 -1      2320-1.41236E+01 8.92603E+01-7.64386E-02 1.12439E+01 2.64067E-13 6.01741E-14
 -1      2321-1.25082E+01 9.12143E+01 8.98858E-02 8.30035E+00 1.09357E-14 9.54792E-14
 -1      2322-1.45378E+01 8.29854E+01-3.60194E-02 1.58976E+01 4.04371E-13-8.60423E-14
 -1      2323-1.35126E+01 8.67305E+01 8.68267E-02 1.26778E+01 2.61541E-13 2.03115E-13
 -1      2324-1.33956E+01 7.36100E+01 2.77988E-02 1.98077E+01 5.10494E-14 1.82077E-14
 -1      2325-1.32959E+01 7.93223E+01 6.11634E-02 1.69104E+01-1.15630E-13-3.32623E-13
 -1      2326-1.06392E+01 6.15096E+01 9.79542E-02 2.16070E+01-2.77972E-13 3.00870E-14
 -1      2327-1.15436E+01 6.89020E+01 2.10453E-02 1.98646E+01-1.33477E-13 1.96843E-13
 -1      2328-6.83171E+00 4.82710E+01 1.52222E-01 1.99518E+01-5.88307E-13-3.97460E-14
 -1      2329-8.41614E+00 5.63870E+01-2.29051E-02 2.01560E+01-2.41251E-13-2.07168E-13
 -1      2330-3.12989E+00 3.66623E+01 1.77802E-01 1.42323E+01 6.23279E-13-5.10703E-15
 -1      2331-4.71060E+00 4.39652E+01-5.64354E-02 1.67243E+01 1.26343E-13 3.21965E-13
 -1      2332-8.48297E-01 2.98076E+01 1.82776E-01 5.17559E+00-1.77636E-13 9.82547E-15
 -1      2333-1.68808E+00 3.46673E+01-7.33972E-02 9.54791E+00 3.16636E-13-3.29514E-13
 -1      2334-8.48297E-01 2.98076E+01 1.82776E-01-5.17559E+00 3.93352E-13-1.06470E-13
 -1      2335-5.21536E-01 3.12038E+01-7.77841E-02-2.87019E-08-3.28626E-13 2.57013E-13
 -1      2336-3.12989E+00 3.66623E+01 1.77802E-01-1.42323E+01 1.93290E-13-7.72715E-14
 -1      2337-1.68808E+00 3.46673E+01-7.33972E-02-9.54791E+00-1.53433E-13-3.57603E-13
 -1      2338-6.83171E+00 4.82710E+01 1.52222E-01-1.99518E+01-1.91958E-13 3.32290E-13
 -1      2339-4.71060E+00 4.39652E+01-5.64354E-02-1.67243E+01 2.77001E-13 2.95874E-13
 -1      2340-1.06392E+01 6.15096E+01 9.79542E-02-2.16070E+01-4.52749E-13 2.85327E-14
 -1      2341-8.41614E+00 5.63870E+01-2.29051E-02-2.01560E+01-5.07372E-14-7.37188E-14
 -1      2342-1.33956E+01 7.36100E+01 2.77988E-02-1.98077E+01-2.13404E-13 1.33560E-13
 -1      2343-1.15436E+01 6.89020E+01 2.10453E-02-1.98646E+01-5.61759E-13 3.03535E-13
 -1      2344-1.45378E+01 8.29854E+01-3.60194E-02-1.58976E+01 2.80193E-13-1.07470E-13
 -1      2345-1.32959E+01 7.93223E+01 6.11634E-02-1.69104E+01-5.69156E-13 6.18394E-14
 -1      2346-1.41236E+01 8.92603E+01-7.64386E-02-1.12439E+01 4.61242E-13-2.73115E-13
 -1      2347-1.35126E+01 8.67305E+01 8.68267E-02-1.26778E+01 5.70377E-14-2.02949E-13
 -1      2348-1.25082E+01 9.12143E+01 8.98858E-02-8.30035E+00 2.75890E-14-2.78499E-13
 -1      2349-1.27724E+01 8.87720E+01-8.39865E-02 9.52445E+00 1.45106E-13 2.37865E-13
 -1      2350-1.11852E+01 9.02512E+01 8.41852E-02 6.90825E+00-3.47500E-14-6.36990E-14
 -1      2351-1.32557E+01 8.36131E+01-5.34826E-02 1.38280E+01-2.23654E-13-4.19109E-14
 -1      2352-1.21613E+01 8.66769E+01 8.47901E-02 1.08451E+01-1.43108E-13 1.19904E-13
 -1      2353-1.22756E+01 7.55639E+01 2.16057E-03 1.76628E+01 1.24463E-13-4.80727E-14
 -1      2354-1.20423E+01 8.04673E+01 6.59424E-02 1.48206E+01-1.66922E-13-1.21680E-13
 -1      2355-9.64919E+00 6.47800E+01 7.05779E-02 1.97274E+01-3.31485E-13-1.45439E-14
 -1      2356-1.04495E+01 7.13793E+01 3.21645E-02 1.78125E+01-1.12049E-13 7.99361E-15
 -1      2357-5.81807E+00 5.25890E+01 1.31268E-01 1.86023E+01 3.15525E-13 8.51541E-14
 -1      2358-7.43216E+00 6.00847E+01-8.68564E-03 1.84574E+01-3.92464E-13 2.78666E-14
 -1      2359-1.93838E+00 4.16119E+01 1.67965E-01 1.34844E+01-1.91847E-13 3.27516E-15
 -1      2360-3.71179E+00 4.85471E+01-4.36932E-02 1.55841E+01 2.90656E-13 5.73430E-14
 -1      2361 5.18296E-01 3.50156E+01 1.81490E-01 4.94687E+00 4.56302E-14-8.52374E-14
 -1      2362-5.89614E-01 3.97241E+01-6.44607E-02 9.00174E+00 4.14335E-13 1.80411E-14
 -1      2363 5.18296E-01 3.50156E+01 1.81490E-01-4.94687E+00-2.62457E-13 4.89053E-14
 -1      2364 6.34048E-01 3.63993E+01-7.08072E-02-1.75250E-08 9.61453E-14-7.25114E-14
 -1      2365-1.93838E+00 4.16119E+01 1.67965E-01-1.34844E+01 5.82534E-13-8.93730E-14
 -1      2366-5.89614E-01 3.97241E+01-6.44607E-02-9.00174E+00-1.33671E-13 3.34177E-14
 -1      2367-5.81807E+00 5.25890E+01 1.31268E-01-1.86023E+01 3.35121E-13 2.68563E-13
 -1      2368-3.71179E+00 4.85471E+01-4.36932E-02-1.55841E+01 2.88991E-13 1.06748E-13
 -1      2369-9.64919E+00 6.47800E+01 7.05779E-02-1.97274E+01 1.18239E-13-1.65867E-13
 -1      2370-7.43216E+00 6.00847E+01-8.68564E-03-1.84574E+01 4.64073E-14-1.62093E-14
 -1      2371-1.22756E+01 7.55639E+01 2.16057E-03-1.76628E+01-5.87096E-13 1.87628E-14
 -1      2372-1.04495E+01 7.13793E+01 3.21645E-02-1.78125E+01 3.30902E-13-1.75304E-13
 -1      2373-1.32557E+01 8.36131E+01-5.34826E-02-1.38280E+01-4.83585E-13-8.32112E-14
 -1      2374-1.20423E+01 8.04673E+01 6.59424E-02-1.48206E+01-2.89754E-13-5.57887E-14
 -1      2375-1.27724E+01 8.87720E+01-8.39865E-02-9.52445E+00-1.83409E-13-6.35048E-14
 -1      2376-1.21613E+01 8.66769E+01 8.47901E-02-1.08451E+01-5.65437E-13 1.41664E-13
 -1      2377-1.11852E+01 9.02512E+01 8.41852E-02-6.90825E+00-1.41054E-13 1.11466E-13
 -1      2378-1.13993E+01 8.81365E+01-8.53713E-02 7.98113E+00 1.19071E-14 1.10856E-13
 -1      2379-9.88457E+00 8.92364E+01 7.64112E-02 5.68563E+00 4.25326E-13-3.05034E-14
 -1      2380-1.19317E+01 8.39339E+01-6.18985E-02 1.18876E+01-1.49838E-13 1.50824E-13
 -1      2381-1.08153E+01 8.64210E+01 8.29776E-02 9.17669E+00 1.00309E-13-9.10383E-15
 -1      2382-1.11289E+01 7.70917E+01-1.46193E-02 1.55447E+01 3.94011E-13-7.34968E-14
 -1      2383-1.07841E+01 8.12657E+01 7.21736E-02 1.28353E+01 2.12261E-13 2.00229E-13
 -1      2384-8.71272E+00 6.75905E+01 4.82566E-02 1.77506E+01-1.33865E-13-1.59373E-13
 -1      2385-9.37904E+00 7.34257E+01 4.61101E-02 1.57624E+01 2.77556E-17-1.63092E-13
 -1      2386-5.00110E+00 5.65124E+01 1.09546E-01 1.70705E+01 4.43534E-14 1.66089E-13
 -1      2387-6.55881E+00 6.33571E+01 8.53978E-03 1.66587E+01 1.09412E-13 2.66454E-15
 -1      2388-1.10259E+00 4.62885E+01 1.52556E-01 1.25613E+01 4.15890E-13 4.90163E-14
 -1      2389-2.95282E+00 5.27843E+01-2.92255E-02 1.42988E+01 1.36502E-13 2.33646E-13
 -1      2390 1.42460E+00 4.00453E+01 1.72362E-01 4.64612E+00-1.46105E-13-7.74381E-14
 -1      2391 1.51665E-01 4.45311E+01-5.55178E-02 8.35145E+00-3.95795E-13-1.63869E-13
 -1      2392 1.42460E+00 4.00453E+01 1.72362E-01-4.64612E+00-3.41616E-13-7.82430E-14
 -1      2393 1.38518E+00 4.13863E+01-6.45987E-02-7.86728E-09 7.91589E-14-3.01668E-14
 -1      2394-1.10259E+00 4.62885E+01 1.52556E-01-1.25613E+01-3.98570E-13 1.45439E-13
 -1      2395 1.51665E-01 4.45311E+01-5.55178E-02-8.35145E+00-6.07292E-14-1.38334E-13
 -1      2396-5.00110E+00 5.65124E+01 1.09546E-01-1.70705E+01 2.06835E-13 9.40914E-14
 -1      2397-2.95282E+00 5.27843E+01-2.92255E-02-1.42988E+01-3.44169E-15 2.65898E-13
 -1      2398-8.71272E+00 6.75905E+01 4.82566E-02-1.77506E+01-2.05641E-13-2.22711E-13
 -1      2399-6.55881E+00 6.33571E+01 8.53978E-03-1.66587E+01-2.72921E-13-2.42306E-13
 -1      2400-1.11289E+01 7.70917E+01-1.46193E-02-1.55447E+01-5.33393E-14 1.05693E-13
 -1      2401-9.37904E+00 7.34257E+01 4.61101E-02-1.57624E+01-1.49936E-13 7.61613E-14
 -1      2402-1.19317E+01 8.39339E+01-6.18985E-02-1.18876E+01 4.07036E-13-9.27036E-14
 -1      2403-1.07841E+01 8.12657E+01 7.21736E-02-1.28353E+01 1.95850E-13 1.99896E-13
 -1      2404-1.13993E+01 8.81365E+01-8.53713E-02-7.98113E+00-3.06144E-13-2.86993E-14
 -1      2405-1.08153E+01 8.64210E+01 8.29776E-02-9.17669E+00 4.18193E-13-2.02727E-13
 -1      2406-9.88457E+00 8.92364E+01 7.64112E-02-5.68563E+00 4.58522E-14 5.66214E-14
 -1      2407-1.00578E+01 8.74259E+01-8.09073E-02 6.62058E+00 6.03684E-14 4.61298E-14
 -1      2408-1.06278E+01 8.40079E+01-7.10973E-02 1.01142E+01 2.03837E-13 4.76841E-14
 -1      2409-1.00030E+01 7.82196E+01-3.89538E-02 1.35244E+01-1.04205E-13 3.61378E-14
 -1      2410-7.84104E+00 6.99220E+01 1.28722E-02 1.57643E+01-2.59195E-13-1.02363E-13
 -1      2411-4.34459E+00 5.99869E+01 7.49028E-02 1.54366E+01 3.15914E-13 8.11018E-14
 -1      2412-5.44137E-01 5.06223E+01 1.29721E-01 1.15170E+01-5.61107E-13-1.13798E-13
 -1      2413 1.97300E+00 4.48234E+01 1.61263E-01 4.29227E+00-6.99441E-15 3.30569E-14
 -1      2414 1.97300E+00 4.48234E+01 1.61263E-01-4.29227E+00 8.84848E-14-1.09537E-13
 -1      2415-5.44137E-01 5.06223E+01 1.29721E-01-1.15170E+01 3.87523E-13 1.49825E-13
 -1      2416-4.34459E+00 5.99869E+01 7.49028E-02-1.54366E+01 9.60343E-14-4.86278E-14
 -1      2417-7.84104E+00 6.99220E+01 1.28722E-02-1.57643E+01 1.78718E-13-4.38538E-14
 -1      2418-1.00030E+01 7.82196E+01-3.89538E-02-1.35244E+01-3.89654E-14 1.16351E-13
 -1      2419-1.06278E+01 8.40079E+01-7.10973E-02-1.01142E+01-5.73028E-13-2.23155E-14
 -1      2420-1.00578E+01 8.74259E+01-8.09073E-02-6.62058E+00 3.29486E-13-6.32827E-15
 -1      2421 2.97341E+01 8.18764E+01 1.24473E+00-4.53641E+01-1.48548E-13 5.48450E-14
 -1      2422 3.28628E+01 1.09660E+02 2.59245E+00-5.31962E+01-4.17444E-14-6.51701E-14
 -1      2423 3.13763E+01 1.40234E+02 3.94665E+00-5.68639E+01-1.09024E-13 9.67559E-14
 -1      2424 2.62747E+01 1.71049E+02 5.21325E+00-5.46355E+01 6.12843E-14-3.37178E-14
 -1      2425 1.94164E+01 1.98776E+02 6.28977E+00-4.56639E+01 2.69784E-14-2.53381E-13
 -1      2426 1.30748E+01 2.19879E+02 7.07754E+00-3.03962E+01-6.98330E-14 7.70495E-14
 -1      2427 9.30361E+00 2.31374E+02 7.49840E+00-1.06380E+01 1.43996E-13-1.40388E-13
 -1      2428 9.32367E+00 2.31539E+02 7.50860E+00 1.07672E+01-1.92429E-13-2.88047E-13
 -1      2429 1.31430E+01 2.20347E+02 7.10666E+00 3.05819E+01 8.65974E-14 4.53526E-14
 -1      2430 1.95522E+01 1.99478E+02 6.33369E+00 4.59442E+01-2.01617E-13 2.04087E-13
 -1      2431 2.64973E+01 1.71889E+02 5.26603E+00 5.50195E+01-8.37108E-14 1.82812E-13
 -1      2432 3.16925E+01 1.41115E+02 4.00164E+00 5.73316E+01 2.66454E-15 1.66700E-13
 -1      2433 3.32587E+01 1.10500E+02 2.64332E+00 5.37081E+01-9.23706E-14-4.88498E-14
 -1      2434 3.01764E+01 8.26221E+01 1.28642E+00 4.58754E+01-3.01981E-14-1.47549E-13
 -1      2435 1.66307E+01 9.03673E+01 5.63574E-01-3.61149E+01 1.18794E-13-2.69784E-14
 -1      2436 2.24548E+01 1.12071E+02 1.36344E+00-4.05548E+01-1.37668E-14 2.78721E-13
 -1      2437 2.51008E+01 1.36233E+02 2.27124E+00-4.29030E+01-1.53211E-14-1.39805E-13
 -1      2438 2.45412E+01 1.61202E+02 3.20408E+00-4.14861E+01-1.92957E-13-1.02862E-13
 -1      2439 2.17268E+01 1.84318E+02 4.05824E+00-3.51006E+01 1.43219E-13-1.14520E-13
 -1      2440 1.83161E+01 2.02352E+02 4.71736E+00-2.36166E+01-2.42029E-14-2.42029E-14
 -1      2441 1.60654E+01 2.12334E+02 5.08026E+00-8.27759E+00 9.32587E-14 1.17129E-13
 -1      2442 1.61009E+01 2.12471E+02 5.08728E+00 8.51186E+00-1.36946E-13 2.14273E-14
 -1      2443 1.84259E+01 2.02739E+02 4.73706E+00 2.38873E+01 5.69544E-14 1.05027E-13
 -1      2444 2.19168E+01 1.84899E+02 4.08698E+00 3.54291E+01-2.91878E-13 2.18880E-13
 -1      2445 2.48112E+01 1.61902E+02 3.23699E+00 4.18720E+01 4.06120E-13 1.14825E-13
 -1      2446 2.54367E+01 1.36980E+02 2.30348E+00 4.33278E+01-1.31006E-14 1.45731E-13
 -1      2447 2.28283E+01 1.12811E+02 1.39116E+00 4.09928E+01-2.45803E-13 1.36335E-13
 -1      2448 1.70063E+01 9.10656E+01 5.84542E-01 3.65442E+01-3.34843E-13 3.57159E-13
 -1      2449 6.68623E+00 9.63188E+01 1.87789E-01-2.87126E+01 5.06262E-14-9.82547E-14
 -1      2450 1.39558E+01 1.13372E+02 6.32869E-01-3.04496E+01-3.04201E-13 1.68587E-13
 -1      2451 1.94283E+01 1.32360E+02 1.20603E+00-3.14681E+01-4.92939E-14-8.64794E-14
 -1      2452 2.23838E+01 1.52327E+02 1.85498E+00-3.03959E+01-3.39728E-14-5.02376E-14
 -1      2453 2.29725E+01 1.71269E+02 2.49592E+00-2.59533E+01 9.00391E-14-1.60427E-13
 -1      2454 2.21777E+01 1.86389E+02 3.01774E+00-1.76314E+01-1.95954E-13 1.75304E-13
 -1      2455 2.13326E+01 1.94890E+02 3.31407E+00-6.17381E+00 2.05586E-13 2.86438E-14
 -1      2456 2.13797E+01 1.95002E+02 3.31873E+00 6.49763E+00 4.50195E-14 9.76996E-14
 -1      2457 2.23180E+01 1.86708E+02 3.03055E+00 1.79743E+01-1.09246E-13-6.76126E-14
 -1      2458 2.32000E+01 1.71750E+02 2.51392E+00 2.63235E+01-1.94400E-13-5.76206E-14
 -1      2459 2.26821E+01 1.52914E+02 1.87446E+00 3.07875E+01 8.06022E-14-2.30926E-14
 -1      2460 1.97693E+01 1.33003E+02 1.22377E+00 3.18672E+01 1.96287E-13 2.63678E-15
 -1      2461 1.43046E+01 1.14034E+02 6.46814E-01 3.08431E+01 3.27516E-13-1.66533E-14
 -1      2462 7.01128E+00 9.69767E+01 1.97293E-01 2.90952E+01-8.60423E-14-2.03171E-14
 -1      2463-6.63792E-01 1.00256E+02 3.56382E-03-2.27850E+01 1.68865E-13-1.73972E-13
 -1      2464 7.14742E+00 1.13780E+02 2.28791E-01-2.24404E+01-3.90799E-14 1.33504E-14
 -1      2465 1.44014E+01 1.28650E+02 5.68088E-01-2.22137E+01-1.50546E-13-5.71418E-14
 -1      2466 1.99692E+01 1.44397E+02 9.95990E-01-2.11580E+01-9.07052E-14 4.10783E-15
 -1      2467 2.33463E+01 1.59614E+02 1.45420E+00-1.81242E+01-6.78346E-14-2.13718E-13
 -1      2468 2.48370E+01 1.72006E+02 1.84883E+00-1.24035E+01 4.29656E-14-8.69305E-14
 -1      2469 2.52667E+01 1.79077E+02 2.08031E+00-4.31702E+00-1.18211E-13-2.26374E-13
 -1      2470 2.53223E+01 1.79168E+02 2.08328E+00 4.71778E+00-5.76483E-14 8.16014E-14
 -1      2471 2.49986E+01 1.72268E+02 1.85682E+00 1.28088E+01-2.64788E-14-2.84217E-14
 -1      2472 2.35975E+01 1.60012E+02 1.46492E+00 1.85322E+01 1.22680E-13-1.68754E-14
 -1      2473 2.02813E+01 1.44894E+02 1.00680E+00 2.15604E+01-4.13003E-14-2.19325E-13
 -1      2474 1.47376E+01 1.29211E+02 5.77044E-01 2.26023E+01 1.30229E-13 6.05835E-14
 -1      2475 7.47211E+00 1.14382E+02 2.35015E-01 2.28131E+01 2.39364E-13-1.07636E-13
 -1      2476-3.75181E-01 1.00880E+02 7.18104E-03 2.31475E+01-1.02918E-13-5.47340E-14
 -1      2477-5.85069E+00 1.02539E+02-6.94778E-02-1.80691E+01 2.57350E-13 1.14353E-13
 -1      2478 1.87972E+00 1.13414E+02 2.87757E-02-1.61990E+01 7.70495E-14-3.06588E-13
 -1      2479 1.00879E+01 1.25065E+02 2.15996E-01-1.48838E+01-1.75748E-13-7.00863E-14
 -1      2480 1.74735E+01 1.37327E+02 4.85209E-01-1.36335E+01 5.31797E-14 1.86684E-13
 -1      2481 2.30435E+01 1.49291E+02 8.01226E-01-1.15672E+01 1.74305E-14 5.87308E-14
 -1      2482 2.64687E+01 1.59190E+02 1.09063E+00-7.93055E+00 3.02924E-13-3.06088E-13
 -1      2483 2.80229E+01 1.64913E+02 1.26641E+00-2.71042E+00-8.17679E-14-8.84848E-14
 -1      2484 2.80841E+01 1.64988E+02 1.26824E+00 3.17691E+00-9.16767E-14 1.34670E-13
 -1      2485 2.66436E+01 1.59406E+02 1.09541E+00 8.38972E+00-3.71370E-14 1.43774E-13
 -1      2486 2.33071E+01 1.49626E+02 8.07263E-01 1.20099E+01 7.26086E-14-1.14131E-13
 -1      2487 1.77884E+01 1.37755E+02 4.90754E-01 1.40516E+01 3.65263E-14 2.58571E-13
 -1      2488 1.04135E+01 1.25566E+02 2.19987E-01 1.52751E+01-3.19744E-14-1.79239E-13
 -1      2489 2.18299E+00 1.13971E+02 3.10031E-02 1.65697E+01-7.38298E-14-6.96110E-14
 -1      2490-5.58635E+00 1.03138E+02-6.86024E-02 1.84314E+01 2.24043E-13-2.23654E-13
 -1      2491-9.29927E+00 1.03510E+02-8.59414E-02-1.43323E+01 2.69229E-13 1.51046E-13
 -1      2492-2.05604E+00 1.12402E+02-5.76912E-02-1.14176E+01 1.04028E-13-7.98528E-14
 -1      2493 6.47256E+00 1.21574E+02 3.53696E-02-9.21298E+00-1.87517E-13 6.94063E-14
 -1      2494 1.49942E+01 1.31014E+02 1.96810E-01-7.65533E+00 4.10783E-14 1.50158E-14
 -1      2495 2.21951E+01 1.40199E+02 4.09093E-01-6.20676E+00-1.65756E-13 1.95621E-13
 -1      2496 2.71938E+01 1.47870E+02 6.17628E-01-4.19054E+00 2.50910E-14 5.41789E-14
 -1      2497 2.97065E+01 1.52350E+02 7.49253E-01-1.35045E+00 1.95510E-13 1.38223E-13
 -1      2498 2.97708E+01 1.52412E+02 7.50329E-01 1.87332E+00 5.91194E-15 1.39000E-13
 -1      2499 2.73751E+01 1.48050E+02 6.20332E-01 4.69692E+00 1.01807E-13-1.35558E-13
 -1      2500 2.24621E+01 1.40485E+02 4.12230E-01 6.68279E+00 4.96270E-14 9.58678E-14
 -1      2501 1.53041E+01 1.31392E+02 1.99283E-01 8.09413E+00 4.60854E-13-7.27751E-14
 -1      2502 6.78415E+00 1.22033E+02 3.66980E-02 9.61796E+00-2.58682E-14 5.56638E-14
 -1      2503-1.77060E+00 1.12928E+02-5.73864E-02 1.18009E+01-1.71640E-13 5.16809E-14
 -1      2504-9.04911E+00 1.04090E+02-8.62084E-02 1.47092E+01-2.29372E-13 8.22120E-14
 -1      2505-1.13840E+01 1.03477E+02-7.63061E-02-1.13785E+01 5.82312E-14-5.03486E-14
 -1      2506-4.86484E+00 1.10879E+02-8.46085E-02-7.81984E+00 1.20681E-13 9.00113E-14
 -1      2507 3.52001E+00 1.18166E+02-4.78855E-02-4.94247E+00-1.69087E-13 9.57255E-14
 -1      2508 1.26113E+01 1.25364E+02 4.27281E-02-3.04265E+00-1.23568E-13-6.62803E-14
 -1      2509 2.09271E+01 1.32228E+02 1.82020E-01-1.94756E+00 1.32228E-13-7.83817E-14
 -1      2510 2.71391E+01 1.37952E+02 3.30900E-01-1.14655E+00-1.62315E-13 1.81521E-13
 -1      2511 3.04343E+01 1.41316E+02 4.29069E-01-2.28259E-01 9.64229E-14 6.36158E-14
 -1      2512 3.04996E+01 1.41368E+02 4.29659E-01 8.00098E-01 1.76137E-13 2.66454E-14
 -1      2513 2.73213E+01 1.38106E+02 3.32295E-01 1.69521E+00-7.89924E-14-3.73035E-14
 -1      2514 2.11906E+01 1.32479E+02 1.83410E-01 2.45648E+00-2.98872E-13-1.05083E-13
 -1      2515 1.29109E+01 1.25707E+02 4.34816E-02 3.50711E+00-4.98490E-14 1.39472E-13
 -1      2516 3.81665E+00 1.18595E+02-4.78976E-02 5.37044E+00-4.19664E-14 8.44151E-14
 -1      2517-4.59306E+00 1.11385E+02-8.51303E-02 8.22703E+00-2.79776E-13-4.76008E-14
 -1      2518-1.11397E+01 1.04044E+02-7.69507E-02 1.17807E+01 1.94122E-13-1.96787E-14
 -1      2519-1.24300E+01 1.02711E+02-5.68984E-02-9.04411E+00 1.15630E-13-6.22002E-14
 -1      2520-6.74547E+00 1.08980E+02-8.27481E-02-5.16223E+00 2.88547E-13-4.62408E-14
 -1      2521 1.17675E+00 1.14845E+02-7.88811E-02-1.82617E+00-8.75966E-14-5.35891E-14
 -1      2522 1.03851E+01 1.20297E+02-3.42515E-02 3.93633E-01-9.98090E-14 5.82867E-16
 -1      2523 1.93587E+01 1.25266E+02 5.41713E-02 1.32320E+00 2.66620E-13 7.73825E-14
 -1      2524 2.64374E+01 1.29330E+02 1.59527E-01 1.25287E+00-1.52101E-14-1.95621E-13
 -1      2525 3.03360E+01 1.31714E+02 2.32663E-01 6.70375E-01 1.51920E-13 7.19425E-14
 -1      2526 3.04006E+01 1.31759E+02 2.32942E-01-5.50578E-02-2.37130E-13-3.46834E-13
 -1      2527 2.66163E+01 1.29466E+02 1.60107E-01-6.65135E-01-1.68365E-13 1.04805E-13
 -1      2528 1.96139E+01 1.25494E+02 5.45344E-02-7.80760E-01-3.56770E-13 1.25677E-13
 -1      2529 1.06714E+01 1.20618E+02-3.44177E-02 1.01188E-01 3.69205E-13-3.87468E-14
 -1      2530 1.45908E+00 1.15256E+02-7.95046E-02 2.28466E+00 8.17124E-14-4.89730E-14
 -1      2531-6.48296E+00 1.09474E+02-8.35453E-02 5.60159E+00-1.68698E-13 7.29555E-14
 -1      2532-1.21847E+01 1.03272E+02-5.75805E-02 9.47906E+00 9.14269E-14 7.60780E-14
 -1      2533-1.27114E+01 1.01441E+02-3.59085E-02-7.19499E+00 1.47382E-13-4.41036E-14
 -1      2534-7.88268E+00 1.06830E+02-6.85742E-02-3.23582E+00 3.32956E-13-7.04992E-14
 -1      2535-6.22652E-01 1.11626E+02-8.32592E-02 3.62035E-01 5.24580E-14 6.61424E-14
 -1      2536 8.35791E+00 1.15744E+02-6.85755E-02 2.84209E+00-3.59157E-14-1.12133E-14
 -1      2537 1.75985E+01 1.19203E+02-1.61326E-02 3.72919E+00-1.37779E-13-1.46549E-14
 -1      2538 2.52229E+01 1.21889E+02 5.68656E-02 3.07038E+00 2.51354E-13 4.99600E-16
 -1      2539 2.95497E+01 1.23436E+02 1.10891E-01 1.36413E+00 8.21426E-14-1.90958E-14
 -1      2540 2.96124E+01 1.23476E+02 1.10973E-01-7.08949E-01 7.04853E-14 1.49547E-13
 -1      2541 2.53955E+01 1.22013E+02 5.69435E-02-2.44524E+00 6.32827E-15 1.04361E-14
 -1      2542 1.78423E+01 1.19417E+02-1.63556E-02-3.15178E+00 2.10942E-14-5.27356E-15
 -1      2543 8.62976E+00 1.16052E+02-6.91954E-02-2.31251E+00 3.49165E-13-1.06776E-13
 -1      2544-3.52829E-01 1.12029E+02-8.41003E-02 1.33014E-01-3.36009E-13 1.81571E-13
 -1      2545-7.62508E+00 1.07319E+02-6.93799E-02 3.71345E+00 1.05305E-13 1.33976E-13
 -1      2546-1.24595E+01 1.02002E+02-3.64890E-02 7.66795E+00 1.84519E-13-3.05922E-13
 -1      2547-1.24533E+01 9.98548E+01-1.71525E-02-5.72332E+00 9.43690E-14 1.36030E-13
 -1      2548-8.44268E+00 1.04541E+02-5.05829E-02-1.86586E+00 1.93734E-14-6.78485E-14
 -1      2549-1.95061E+00 1.08532E+02-7.49919E-02 1.82363E+00 7.47180E-14 1.44042E-13
 -1      2550 6.55432E+00 1.11647E+02-7.98596E-02 4.48356E+00-1.16795E-13-1.26649E-13
 -1      2551 1.57416E+01 1.13936E+02-5.35406E-02 5.39887E+00-2.19824E-14-1.71529E-13
 -1      2552 2.36251E+01 1.15510E+02-5.48988E-03 4.37642E+00 1.49353E-13 2.84772E-14
 -1      2553 2.82154E+01 1.16361E+02 3.33303E-02 1.87506E+00 2.54935E-14 7.34968E-14
 -1      2554 2.82754E+01 1.16399E+02 3.32874E-02-1.18191E+00-4.14530E-14-1.69365E-13
 -1      2555 2.37893E+01 1.15627E+02-5.71258E-03-3.71417E+00 2.16216E-14 5.27356E-14
 -1      2556 1.59723E+01 1.14143E+02-5.40759E-02-4.78441E+00 1.17462E-13-1.18933E-13
 -1      2557 6.81199E+00 1.11951E+02-8.06595E-02-3.91516E+00 2.43139E-13 1.69989E-13
 -1      2558-1.69078E+00 1.08933E+02-7.58384E-02-1.28723E+00 7.47735E-14-8.87359E-14
 -1      2559-8.18589E+00 1.05032E+02-5.12717E-02 2.38614E+00 9.80327E-14-1.76803E-14
 -1      2560-1.21902E+01 1.00422E+02-1.75819E-02 6.23777E+00-1.11272E-13 1.64091E-13
 -1      2561-1.18350E+01 9.81009E+01-2.16560E-03-4.54365E+00-1.72945E-13-3.75949E-14
 -1      2562-8.57006E+00 1.02208E+02-3.30046E-02-9.09874E-01 1.62648E-13-6.60583E-15
 -1      2563-2.88152E+00 1.05584E+02-6.15118E-02 2.73277E+00-1.57263E-13-5.07060E-14
 -1      2564 4.98376E+00 1.07960E+02-7.88966E-02 5.48526E+00 8.71525E-15 9.51322E-14
 -1      2565 1.38670E+01 1.09368E+02-7.18873E-02 6.45971E+00-1.18905E-13 1.71557E-13
 -1      2566 2.17638E+01 1.10073E+02-4.37050E-02 5.24555E+00-4.23550E-14-1.17795E-13
 -1      2567 2.64686E+01 1.10366E+02-1.74816E-02 2.22738E+00 1.11619E-13 7.26086E-14
 -1      2568 2.65252E+01 1.10403E+02-1.75988E-02-1.49662E+00-7.23727E-14-5.05151E-14
 -1      2569 2.19185E+01 1.10189E+02-4.40938E-02-4.54531E+00 1.22430E-13 7.67719E-14
 -1      2570 1.40843E+01 1.09574E+02-7.25580E-02-5.80563E+00 6.16174E-15 5.47062E-14
 -1      2571 5.22845E+00 1.08266E+02-7.97106E-02-4.87437E+00-8.67639E-14-2.04101E-13
 -1      2572-2.62884E+00 1.05989E+02-6.22469E-02-2.15126E+00 3.11973E-14-1.55817E-13
 -1      2573-8.31032E+00 1.02705E+02-3.35191E-02 1.47587E+00 2.77944E-13 6.72448E-14
 -1      2574-1.15567E+01 9.86778E+01-2.43016E-03 5.10177E+00 2.13274E-13-8.65003E-14
 -1      2575-1.09945E+01 9.62913E+01 8.93715E-03-3.58925E+00-8.36137E-14 2.32411E-13
 -1      2576-8.38620E+00 9.99057E+01-1.77157E-02-2.54509E-01-1.37501E-13-1.48104E-13
 -1      2577-3.48771E+00 1.02804E+02-4.68629E-02 3.23546E+00-1.46966E-13 1.08224E-13
 -1      2578 3.64288E+00 1.04643E+02-7.17859E-02 5.99650E+00-3.85525E-14 3.65125E-14
 -1      2579 1.20371E+01 1.05409E+02-7.88628E-02 7.03307E+00-1.87211E-13-7.45792E-14
 -1      2580 1.97455E+01 1.05462E+02-6.65835E-02 5.75281E+00-1.19682E-13 1.52933E-14
 -1      2581 2.44353E+01 1.05324E+02-5.09792E-02 2.44626E+00-7.05963E-14-1.48770E-14
 -1      2582 2.44883E+01 1.05361E+02-5.11345E-02-1.67698E+00-8.41618E-14 1.80023E-13
 -1      2583 1.98904E+01 1.05579E+02-6.70427E-02-5.01279E+00 8.97615E-14-2.55351E-15
 -1      2584 1.22414E+01 1.05619E+02-7.95486E-02-6.33652E+00 2.82552E-13 5.46230E-14
 -1      2585 3.87636E+00 1.04954E+02-7.25091E-02-5.33982E+00-3.96239E-13 3.89688E-14
 -1      2586-3.23929E+00 1.03218E+02-4.74214E-02-2.60596E+00 6.48925E-14-7.46703E-14
 -1      2587-8.12018E+00 1.00413E+02-1.80299E-02 8.68211E-01-2.48107E-13-9.62216E-14
 -1      2588-1.06979E+01 9.68814E+01 8.84062E-03 4.19212E+00 3.61100E-14 7.31776E-14
 -1      2589-1.00367E+01 9.45052E+01 1.55546E-02-2.80867E+00-8.96089E-14-2.87825E-14
 -1      2590-7.99235E+00 9.76907E+01-6.60816E-03 1.87715E-01 3.40838E-14-4.55885E-15
 -1      2591-3.83806E+00 1.00209E+02-3.39550E-02 3.45028E+00-4.45199E-14 3.17801E-14
 -1      2592 2.51874E+00 1.01661E+02-6.19776E-02 6.14649E+00 9.53404E-14-3.00454E-14
 -1      2593 1.02992E+01 1.01980E+02-7.84092E-02 7.23058E+00 1.16268E-13-1.88044E-14
 -1      2594 1.76615E+01 1.01566E+02-7.88476E-02 5.97058E+00-1.15880E-13-8.04634E-14
 -1      2595 2.22274E+01 1.01111E+02-7.25752E-02 2.55648E+00-7.68205E-14-3.53051E-14
 -1      2596 2.22768E+01 1.01150E+02-7.27429E-02-1.74676E+00 5.41164E-14-1.43441E-13
 -1      2597 1.77967E+01 1.01687E+02-7.93086E-02-5.18832E+00 1.86712E-13 7.40241E-14
 -1      2598 1.04915E+01 1.02196E+02-7.90238E-02-6.48859E+00 1.99923E-13 3.64153E-14
 -1      2599 2.74301E+00 1.01981E+02-6.25377E-02-5.44114E+00-4.66016E-14 1.50720E-13
 -1      2600-3.59124E+00 1.00633E+02-3.42963E-02-2.77065E+00 2.81719E-14-1.22396E-13
 -1      2601-7.71725E+00 9.82098E+01-6.70831E-03 4.74773E-01-2.54102E-13 8.49112E-14
 -1      2602-9.71894E+00 9.51107E+01 1.56360E-02 3.45635E+00-2.46608E-14 2.37303E-13
 -1      2603-9.03112E+00 9.27997E+01 2.01957E-02-2.16333E+00-5.45813E-14-9.03444E-14
 -1      2604-7.45548E+00 9.56090E+01 5.23536E-03 4.84269E-01-1.24400E-13-1.19418E-14
 -1      2605-3.97428E+00 9.78202E+01-1.62122E-02 3.47364E+00-3.86913E-14-4.39327E-14
 -1      2606 1.61327E+00 9.89955E+01-4.36386E-02 6.04595E+00-9.43134E-14-3.37855E-14
 -1      2607 8.70138E+00 9.90141E+01-6.75937E-02 7.15169E+00 2.26763E-14 1.40388E-13
 -1      2608 1.55925E+01 9.82851E+01-8.06719E-02 5.96502E+00 2.57128E-13 9.61453E-14
 -1      2609 1.99404E+01 9.76107E+01-8.41948E-02 2.58101E+00-1.44509E-13-1.17684E-14
 -1      2610 1.99862E+01 9.76510E+01-8.43685E-02-1.72824E+00 2.67085E-13 2.66370E-13
 -1      2611 1.57184E+01 9.84115E+01-8.11171E-02-5.13762E+00 2.28983E-15-1.99285E-14
 -1      2612 8.88274E+00 9.92385E+01-6.81119E-02-6.36132E+00-3.60267E-14 4.74065E-14
 -1      2613 1.83019E+00 9.93255E+01-4.40098E-02-5.28952E+00 3.67151E-13-1.49360E-13
 -1      2614-3.72683E+00 9.82547E+01-1.63205E-02-2.74251E+00-1.07539E-13 1.00776E-13
 -1      2615-7.16907E+00 9.61410E+01 5.34842E-03 2.27189E-01 1.04527E-13-6.64573E-14
 -1      2616-8.68996E+00 9.34205E+01 2.04364E-02 2.85476E+00 5.54695E-14-2.18020E-13
 -1      2617 3.71022E+01 7.60379E+01 1.45019E+00-5.06972E+01-8.63309E-13-3.60156E-13
 -1      2618 2.65335E+01 6.92837E+01 5.54101E-01-4.06315E+01-2.10498E-13 3.79252E-13
 -1      2619 3.80061E+01 1.07287E+02 3.01888E+00-6.03631E+01-2.12275E-13-3.05755E-13
 -1      2620 3.17579E+01 9.48549E+01 1.72810E+00-4.96604E+01 1.32339E-13-4.45199E-13
 -1      2621 3.38163E+01 1.41398E+02 4.56308E+00-6.45325E+01-1.33227E-13-2.66454E-15
 -1      2622 3.22691E+01 1.23989E+02 2.92197E+00-5.55658E+01 4.70735E-14 1.94955E-13
 -1      2623 2.61073E+01 1.75269E+02 5.97208E+00-6.16125E+01-2.29150E-13 1.34670E-13
 -1      2624 2.85889E+01 1.54715E+02 4.07925E+00-5.63683E+01-2.49578E-13-7.21645E-16
 -1      2625 1.71396E+01 2.05273E+02 7.14250E+00-5.11014E+01 4.45866E-13 5.35360E-13
 -1      2626 2.22038E+01 1.84064E+02 5.11316E+00-5.07504E+01-1.48770E-13 9.71445E-15
 -1      2627 9.37223E+00 2.27811E+02 7.98258E+00-3.38089E+01-1.66533E-14 2.38698E-15
 -1      2628 1.52515E+01 2.08576E+02 5.93817E+00-3.85068E+01 7.15428E-13-2.31370E-13
 -1      2629 4.89291E+00 2.39985E+02 8.42594E+00-1.18134E+01 3.11973E-14-7.07878E-13
 -1      2630 9.95593E+00 2.24952E+02 6.47480E+00-2.07827E+01 6.93223E-13-2.44249E-13
 -1      2631 4.90350E+00 2.40163E+02 8.43744E+00 1.18862E+01 7.23033E-13-9.47797E-13
 -1      2632 7.99438E+00 2.30811E+02 6.66660E+00 5.94198E-02 1.87881E-13-4.36318E-13
 -1      2633 9.41403E+00 2.28319E+02 8.01558E+00 3.39481E+01-1.54321E-13 2.70894E-14
 -1      2634 9.99515E+00 2.25269E+02 6.49210E+00 2.09307E+01 2.20712E-13-4.57412E-14
 -1      2635 1.72381E+01 2.06036E+02 7.19269E+00 5.13545E+01-3.19744E-13-1.15762E-13
 -1      2636 1.53450E+01 2.09161E+02 5.97033E+00 3.87327E+01 2.42695E-13 3.46168E-13
 -1      2637 2.62920E+01 1.76181E+02 6.03308E+00 6.19953E+01-3.61933E-13 1.02485E-12
 -1      2638 2.23733E+01 1.84835E+02 5.15582E+00 5.10787E+01-5.00044E-13 3.35232E-13
 -1      2639 3.41063E+01 1.42346E+02 4.62744E+00 6.50265E+01 5.86198E-14-5.33129E-13
 -1      2640 2.88497E+01 1.55573E+02 4.12691E+00 5.67932E+01 6.61249E-13 8.69360E-13
 -1      2641 3.83996E+01 1.08174E+02 3.07919E+00 6.09230E+01 1.86517E-13-6.43929E-13
 -1      2642 3.26195E+01 1.24845E+02 2.96893E+00 5.60567E+01 3.55271E-14-2.87548E-13
 -1      2643 3.75725E+01 7.67971E+01 1.50008E+00 5.12650E+01 3.72147E-13-8.09131E-13
 -1      2644 3.21751E+01 9.56415E+01 1.76926E+00 5.01739E+01 4.10338E-13 7.26086E-14
 -1      2645 2.69779E+01 6.99612E+01 5.85532E-01 4.11255E+01-5.95968E-13-4.58300E-13
 -1      2646 2.26959E+01 8.60448E+01 7.20673E-01-4.06022E+01-3.73035E-13-1.56763E-13
 -1      2647 1.32272E+01 8.04735E+01 2.92905E-01-3.38198E+01 3.69926E-13 1.16351E-13
 -1      2648 2.70921E+01 1.10556E+02 1.68407E+00-4.66432E+01 2.62013E-14 6.31051E-13
 -1      2649 2.01361E+01 1.00566E+02 9.15270E-01-3.86897E+01-4.99156E-13 2.04059E-13
 -1      2650 2.76890E+01 1.37746E+02 2.75118E+00-4.96151E+01-6.26166E-14 3.31957E-14
 -1      2651 2.41302E+01 1.23424E+02 1.61577E+00-4.22474E+01 1.42109E-14 1.66533E-13
 -1      2652 2.49372E+01 1.65527E+02 3.82883E+00-4.78065E+01-3.93019E-13-2.35922E-13
 -1      2653 2.47895E+01 1.47957E+02 2.35398E+00-4.28203E+01 1.71863E-13-2.32619E-13
 -1      2654 2.01943E+01 1.90890E+02 4.79624E+00-4.01806E+01-9.01501E-14-9.46354E-13
 -1      2655 2.26432E+01 1.72013E+02 3.06287E+00-3.89273E+01 1.07470E-13-3.13416E-13
 -1      2656 1.53938E+01 2.10435E+02 5.53038E+00-2.68791E+01 3.31957E-13-2.87770E-13
 -1      2657 1.90919E+01 1.92631E+02 3.66071E+00-2.98787E+01 2.22933E-13-2.10720E-13
 -1      2658 1.24237E+01 2.21167E+02 5.93024E+00-9.41401E+00-1.71418E-13 2.33147E-14
 -1      2659 1.59452E+01 2.06683E+02 4.06444E+00-1.62427E+01-1.73639E-13 1.60316E-13
 -1      2660 1.24514E+01 2.21316E+02 5.93842E+00 9.59740E+00 6.25056E-13-3.13083E-13
 -1      2661 1.47209E+01 2.11760E+02 4.21079E+00 1.12203E-01 7.16080E-13-1.77636E-15
 -1      2662 1.54824E+01 2.10860E+02 5.55348E+00 2.71084E+01-3.98792E-13 7.79155E-13
 -1      2663 1.60130E+01 2.06944E+02 4.07531E+00 1.64863E+01-3.92353E-13 9.10383E-15
 -1      2664 2.03560E+01 1.91526E+02 4.83025E+00 4.04852E+01-2.18492E-13 9.21152E-13
 -1      2665 1.92340E+01 1.93115E+02 3.68052E+00 3.01719E+01-1.32783E-13 5.18030E-13
 -1      2666 2.51808E+01 1.66290E+02 3.86825E+00 4.81904E+01 4.79616E-14 3.69149E-13
 -1      2667 2.28652E+01 1.72653E+02 3.08835E+00 3.92813E+01-5.30687E-13 3.61711E-13
 -1      2668 2.80102E+01 1.38552E+02 2.79034E+00 5.00590E+01-4.29878E-13 1.24278E-12
 -1      2669 2.50867E+01 1.48679E+02 2.38129E+00 4.32250E+01 2.38032E-13 5.47368E-13
 -1      2670 2.74699E+01 1.11338E+02 1.71828E+00 4.71151E+01-2.50022E-13 3.11973E-13
 -1      2671 2.44827E+01 1.24165E+02 1.64140E+00 4.26798E+01-2.78000E-13 4.19220E-13
 -1      2672 2.30965E+01 8.67592E+01 7.46844E-01 4.10693E+01-9.80549E-13 5.59996E-13
 -1      2673 2.05119E+01 1.01282E+02 9.36528E-01 3.91247E+01 1.19460E-13 4.00124E-13
 -1      2674 1.35912E+01 8.11371E+01 3.08247E-01 3.42395E+01-2.56239E-13-5.06262E-14
 -1      2675 1.13694E+01 9.32525E+01 2.65348E-01-3.23449E+01-1.30562E-13 8.28226E-14
 -1      2676 3.29247E+00 8.85202E+01 1.57082E-01-2.81045E+01 1.07025E-13-2.25153E-13
 -1      2677 1.78096E+01 1.12440E+02 7.93621E-01-3.53577E+01-9.68114E-14 2.17826E-13
 -1      2678 1.08868E+01 1.04498E+02 4.73361E-01-2.98363E+01-1.90070E-13 6.95000E-14
 -1      2679 2.18328E+01 1.33854E+02 1.46477E+00-3.70014E+01-5.77316E-14-1.03667E-13
 -1      2680 1.71485E+01 1.22444E+02 8.65711E-01-3.13486E+01 1.52767E-13-8.21565E-14
 -1      2681 2.30596E+01 1.56214E+02 2.22039E+00-3.57562E+01-1.73195E-13-9.31477E-14
 -1      2682 2.10840E+01 1.41852E+02 1.30726E+00-3.14313E+01 4.88498E-14-2.48801E-13
 -1      2683 2.20035E+01 1.77182E+02 2.95665E+00-3.03749E+01 1.28342E-13 1.75415E-14
 -1      2684 2.24543E+01 1.61264E+02 1.75731E+00-2.87096E+01-5.05818E-13-3.13527E-13
 -1      2685 1.99550E+01 1.93732E+02 3.54845E+00-2.05260E+01 4.42091E-13 6.61693E-13
 -1      2686 2.19223E+01 1.78281E+02 2.15541E+00-2.22505E+01-1.63869E-13-6.95000E-14
 -1      2687 1.84385E+01 2.02965E+02 3.88150E+00-7.19194E+00-1.03251E-13 2.06057E-13
 -1      2688 2.07722E+01 1.90095E+02 2.43339E+00-1.21700E+01 2.44249E-15 8.92619E-14
 -1      2689 1.84797E+01 2.03088E+02 3.88695E+00 7.47156E+00 1.88516E-13 2.16271E-13
 -1      2690 2.02479E+01 1.94405E+02 2.53558E+00 1.58112E-01 3.23935E-13 3.10862E-15
 -1      2691 2.00793E+01 1.94082E+02 3.56353E+00 2.08331E+01-2.29150E-13-3.53495E-13
 -1      2692 2.08624E+01 1.90310E+02 2.43987E+00 1.24966E+01-1.20570E-13 1.61648E-13
 -1      2693 2.22106E+01 1.77708E+02 2.97800E+00 3.07238E+01 2.34479E-13 3.32845E-13
 -1      2694 2.21010E+01 1.78680E+02 2.16702E+00 2.26025E+01-1.78746E-13-7.77156E-14
 -1      2695 2.33408E+01 1.56851E+02 2.24375E+00 3.61437E+01 1.78524E-13-2.16160E-13
 -1      2696 2.27128E+01 1.61796E+02 1.77180E+00 2.90883E+01 8.65974E-14-8.63754E-14
 -1      2697 2.21667E+01 1.34542E+02 1.48631E+00 3.74113E+01 1.87850E-13 3.44058E-13
 -1      2698 2.14019E+01 1.42465E+02 1.32221E+00 3.18263E+01-1.78524E-13 9.94760E-14
 -1      2699 1.81651E+01 1.13135E+02 8.10811E-01 3.57711E+01 5.00933E-13 8.58202E-14
 -1      2700 1.74948E+01 1.23095E+02 8.79097E-01 3.17453E+01 1.49214E-13-2.76446E-14
 -1      2701 1.17138E+01 9.39248E+01 2.77205E-01 3.27486E+01 1.95399E-14 1.37224E-13
 -1      2702 1.12273E+01 1.05157E+02 4.83877E-01 3.02247E+01-1.95843E-13-1.24567E-13
 -1      2703 3.60033E+00 8.91667E+01 1.64283E-01 2.84826E+01 1.63425E-13 1.13243E-14
 -1      2704 2.82692E+00 9.82467E+01 4.16735E-02-2.57071E+01-1.81188E-13-2.88214E-13
 -1      2705-3.83499E+00 9.39530E+01 8.21395E-02-2.33353E+01 2.65121E-13-5.44231E-13
 -1      2706 1.02511E+01 1.13374E+02 2.97560E-01-2.63376E+01-3.73035E-14 9.93650E-14
 -1      2707 3.74936E+00 1.06859E+02 2.43350E-01-2.28009E+01-3.58824E-13 2.21601E-13
 -1      2708 1.65502E+01 1.30146E+02 6.83403E-01-2.66897E+01-1.30562E-13-5.52079E-13
 -1      2709 1.12974E+01 1.21017E+02 4.58925E-01-2.26170E+01 2.16716E-13-4.48197E-13
 -1      2710 2.08091E+01 1.47884E+02 1.17666E+00-2.56152E+01-4.97824E-13-3.69593E-13
 -1      2711 1.75561E+01 1.36263E+02 7.09138E-01-2.20750E+01-2.68230E-13 9.48686E-14
 -1      2712 2.28243E+01 1.64884E+02 1.70296E+00-2.18993E+01-3.56160E-13-9.95648E-13
 -1      2713 2.17249E+01 1.51686E+02 9.73609E-01-2.00798E+01 1.95843E-13-3.43947E-13
 -1      2714 2.32119E+01 1.78597E+02 2.15299E+00-1.49248E+01-6.39488E-14 5.15143E-14
 -1      2715 2.37848E+01 1.65450E+02 1.21543E+00-1.56557E+01-9.16822E-13-2.38476E-13
 -1      2716 2.30294E+01 1.86366E+02 2.41527E+00-5.21300E+00 1.65423E-13-1.16351E-13
 -1      2717 2.44343E+01 1.75163E+02 1.38876E+00-8.59497E+00 5.92859E-13-3.19300E-13
 -1      2718 2.30805E+01 1.86467E+02 2.41873E+00 5.57579E+00 3.24185E-14 2.36700E-13
 -1      2719 2.45553E+01 1.78740E+02 1.45328E+00 1.97449E-01 3.94892E-14-5.86198E-14
 -1      2720 2.33621E+01 1.78885E+02 2.16233E+00 1.52991E+01 2.29816E-13-7.77156E-14
 -1      2721 2.45409E+01 1.75340E+02 1.39243E+00 8.99284E+00-1.59095E-13 3.01981E-14
 -1      2722 2.30619E+01 1.65319E+02 1.71557E+00 2.22880E+01-1.11466E-13-2.17160E-13
 -1      2723 2.39887E+01 1.65781E+02 1.22192E+00 1.60589E+01 1.86962E-13-1.02363E-13
 -1      2724 2.11115E+01 1.48420E+02 1.18949E+00 2.60111E+01 3.37508E-13-2.25597E-13
 -1      2725 2.20057E+01 1.52134E+02 9.81519E-01 2.04833E+01 3.49942E-13-1.83409E-13
 -1      2726 1.68849E+01 1.30743E+02 6.94138E-01 2.70818E+01 1.49214E-13 9.64021E-14
 -1      2727 1.78822E+01 1.36793E+02 7.17047E-01 2.24700E+01-3.90799E-14-1.51767E-13
 -1      2728 1.05834E+01 1.14001E+02 3.05149E-01 2.67190E+01 3.75699E-13-5.35905E-13
 -1      2729 1.16320E+01 1.21599E+02 4.65735E-01 2.29975E+01 6.03961E-14 7.21090E-14
 -1      2730 3.12962E+00 9.88839E+01 4.61814E-02 2.60779E+01 1.63869E-13-2.99760E-13
 -1      2731 4.06104E+00 1.07473E+02 2.48431E-01 2.31683E+01-5.56000E-13-2.71561E-13
 -1      2732-3.56409E+00 9.45816E+01 8.54336E-02 2.36968E+01-1.38556E-13-2.88436E-13
 -1      2733-3.34430E+00 1.01388E+02-4.41444E-02-2.04085E+01 2.06057E-13 9.74776E-14
 -1      2734-8.70080E+00 9.73136E+01 3.71411E-02-1.93620E+01 3.75922E-13-4.41869E-14
 -1      2735 4.31527E+00 1.13459E+02 5.58651E-02-1.92461E+01-1.95399E-14-3.92131E-13
 -1      2736-1.58885E+00 1.07918E+02 1.23305E-01-1.72762E+01-1.05249E-13-4.39648E-14
 -1      2737 1.19673E+01 1.26576E+02 2.54082E-01-1.84304E+01-1.24345E-14-4.50473E-14
 -1      2738 6.48992E+00 1.19183E+02 2.45065E-01-1.57545E+01-1.41220E-13-3.82805E-13
 -1      2739 1.84180E+01 1.40460E+02 5.54079E-01-1.72595E+01 4.09894E-13 8.18345E-13
 -1      2740 1.42528E+01 1.31102E+02 3.82857E-01-1.45536E+01-5.57776E-13 4.40981E-13
 -1      2741 2.29033E+01 1.53961E+02 9.10901E-01-1.47222E+01-3.18412E-13-3.67262E-13
 -1      2742 2.05384E+01 1.43162E+02 5.26949E-01-1.29488E+01 6.10623E-13-9.72555E-14
 -1      2743 2.53875E+01 1.65053E+02 1.23815E+00-1.00823E+01 1.12577E-13-4.61853E-13
 -1      2744 2.47414E+01 1.54045E+02 6.58465E-01-1.00733E+01-6.40377E-13 1.31006E-14
 -1      2745 2.63985E+01 1.71426E+02 1.43643E+00-3.48363E+00-4.21885E-14-6.70575E-13
 -1      2746 2.69618E+01 1.61826E+02 7.53328E-01-5.52008E+00 2.15383E-13-3.86802E-13
 -1      2747 2.64567E+01 1.71508E+02 1.43852E+00 3.91757E+00-4.20941E-13 3.17524E-13
 -1      2748 2.76599E+01 1.64715E+02 7.88839E-01 2.31075E-01-3.97442E-14 9.72555E-14
 -1      2749 2.55549E+01 1.65290E+02 1.24364E+00 1.05145E+01-2.30926E-14-3.05089E-13
 -1      2750 2.70791E+01 1.61972E+02 7.55305E-01 5.97913E+00 2.22045E-14 2.42917E-13
 -1      2751 2.31591E+01 1.54324E+02 9.17856E-01 1.51470E+01 3.81917E-13-1.11466E-13
 -1      2752 2.49606E+01 1.54321E+02 6.61936E-01 1.05217E+01-1.72529E-13-1.64535E-13
 -1      2753 1.87291E+01 1.40918E+02 5.60490E-01 1.76687E+01-2.96652E-13 1.95732E-13
 -1      2754 2.08297E+01 1.43545E+02 5.31144E-01 1.33780E+01 9.32587E-15 1.41220E-13
 -1      2755 1.22951E+01 1.27103E+02 2.58728E-01 1.88190E+01-1.15463E-14-2.08555E-13
 -1      2756 1.45774E+01 1.31568E+02 3.86984E-01 1.49576E+01 2.21601E-13 7.53286E-14
 -1      2757 4.62613E+00 1.14035E+02 5.85431E-02 1.96165E+01 7.10543E-15 2.69673E-13
 -1      2758 6.80987E+00 1.19714E+02 2.48521E-01 1.61350E+01 6.52811E-14-5.44287E-14
 -1      2759-3.07039E+00 1.01997E+02-4.29737E-02 2.07697E+01 1.93623E-13-3.72591E-13
 -1      2760-1.29984E+00 1.08498E+02 1.25747E-01 1.76422E+01 3.07310E-13 2.08722E-14
 -1      2761-8.45183E+00 9.79260E+01 3.86073E-02 1.97255E+01-2.22489E-13 7.32747E-15
 -1      2762-7.59014E+00 1.03034E+02-6.08324E-02-1.61990E+01-2.93099E-14 4.52860E-13
 -1      2763-1.17808E+01 9.90744E+01 7.60290E-03-1.60537E+01-2.90656E-13 3.95239E-13
 -1      2764-2.03572E-01 1.12819E+02-4.33956E-02-1.37622E+01-1.29230E-13-5.28244E-13
 -1      2765-5.41159E+00 1.07938E+02 5.86934E-02-1.29871E+01 7.30305E-13-2.01283E-13
 -1      2766 8.07968E+00 1.23105E+02 3.95634E-02-1.19592E+01-1.19904E-13 2.58585E-13
 -1      2767 2.64503E+00 1.17008E+02 1.34500E-01-1.04721E+01-9.63674E-14 1.19599E-13
 -1      2768 1.59916E+01 1.33839E+02 2.07006E-01-1.05325E+01 5.19584E-14-5.10592E-13
 -1      2769 1.12340E+01 1.26308E+02 2.13211E-01-8.65283E+00-3.68594E-13 1.01419E-13
 -1      2770 2.23724E+01 1.44320E+02 4.37496E-01-8.77967E+00 3.20632E-13 6.91225E-13
 -1      2771 1.90120E+01 1.35587E+02 2.87903E-01-7.19995E+00 1.85851E-13 1.09912E-13
 -1      2772 2.65993E+01 1.53044E+02 6.67583E-01-5.98426E+00 4.77396E-13-1.27010E-13
 -1      2773 2.49076E+01 1.43972E+02 3.50129E-01-5.45930E+00 4.15223E-13 1.14353E-13
 -1      2774 2.86464E+01 1.58116E+02 8.13395E-01-2.00291E+00-2.02394E-13 2.38920E-13
 -1      2775 2.84487E+01 1.50016E+02 3.92446E-01-2.93531E+00-2.19380E-13 3.81917E-13
 -1      2776 2.87088E+01 1.58184E+02 8.14592E-01 2.49774E+00-2.38698E-14 2.20712E-13
 -1      2777 2.96455E+01 1.52276E+02 4.07934E-01 2.59899E-01-6.34964E-13 3.37064E-13
 -1      2778 2.67766E+01 1.53240E+02 6.70588E-01 6.46691E+00 4.83169E-13 1.60760E-13
 -1      2779 2.85721E+01 1.50137E+02 3.93476E-01 3.44727E+00-5.77316E-14-1.24345E-14
 -1      2780 2.26362E+01 1.44628E+02 4.40966E-01 9.23852E+00-1.96732E-13 3.95239E-14
 -1      2781 2.51338E+01 1.44206E+02 3.51961E-01 5.94873E+00-6.44373E-13-8.85958E-14
 -1      2782 1.63019E+01 1.34239E+02 2.09718E-01 1.09600E+01 8.65974E-14 5.97522E-13
 -1      2783 1.93046E+01 1.35921E+02 2.90152E-01 7.65633E+00-2.66009E-13 2.70894E-14
 -1      2784 8.39587E+00 1.23581E+02 4.10159E-02 1.23563E+01 3.79252E-13-7.02036E-13
 -1      2785 1.15505E+01 1.26729E+02 2.15435E-01 9.07399E+00 7.22089E-13 4.57634E-13
 -1      2786 8.86822E-02 1.13358E+02-4.29877E-02 1.41382E+01 7.01661E-14 1.56986E-13
 -1      2787 2.94950E+00 1.17502E+02 1.36323E-01 1.08656E+01-6.40821E-13-2.69396E-13
 -1      2788-7.33429E+00 1.03621E+02-6.09573E-02 1.65679E+01-3.42837E-13 2.14495E-13
 -1      2789-5.13910E+00 1.08493E+02 5.98825E-02 1.33666E+01-6.85896E-13 1.00919E-13
 -1      2790-1.15419E+01 9.96741E+01 8.20611E-03 1.64327E+01 6.68354E-14-2.46470E-13
 -1      2791-1.03042E+01 1.03512E+02-4.68639E-02-1.28661E+01 8.34888E-14-1.91069E-13
 -1      2792-1.34887E+01 9.96405E+01-1.29402E-02-1.32981E+01 3.99680E-15 2.42473E-13
 -1      2793-3.50895E+00 1.11586E+02-6.90177E-02-9.59500E+00 2.34701E-13 1.08302E-13
 -1      2794-7.98959E+00 1.07166E+02 2.07822E-02-9.69152E+00 2.21156E-13 2.77556E-15
 -1      2795 4.86270E+00 1.19709E+02-5.25329E-02-7.01486E+00 4.95159E-14 1.26454E-13
 -1      2796-3.34972E-01 1.14574E+02 7.50448E-02-6.49714E+00-3.61933E-14 2.95652E-13
 -1      2797 1.36171E+01 1.27920E+02 2.87074E-02-5.26096E+00 2.21156E-13 1.12466E-13
 -1      2798 8.54074E+00 1.21842E+02 1.26475E-01-4.15052E+00-3.47056E-13 2.04614E-13
 -1      2799 2.13577E+01 1.35852E+02 1.69903E-01-3.98712E+00 5.32907E-14-2.29594E-13
 -1      2800 1.72594E+01 1.28865E+02 1.66898E-01-2.69519E+00 2.47358E-13-1.92624E-13
 -1      2801 2.69676E+01 1.42484E+02 3.27342E-01-2.60195E+00-9.83658E-14 3.43281E-13
 -1      2802 2.44123E+01 1.35129E+02 1.91702E-01-1.74876E+00-2.78444E-13 2.12941E-13
 -1      2803 2.98801E+01 1.46374E+02 4.32654E-01-7.64892E-01-5.03597E-13 4.92939E-13
 -1      2804 2.90142E+01 1.39646E+02 2.03474E-01-8.18611E-01 8.90399E-14 3.01092E-13
 -1      2805 2.99446E+01 1.46430E+02 4.33279E-01 1.31226E+00 1.69031E-13 5.06262E-13
 -1      2806 3.06247E+01 1.41344E+02 2.06879E-01 2.84894E-01 3.71758E-13 9.32587E-15
 -1      2807 2.71487E+01 1.42650E+02 3.28803E-01 3.12925E+00 5.77316E-14-1.63869E-13
 -1      2808 2.91395E+01 1.39750E+02 2.04024E-01 1.37708E+00 8.19345E-14-3.81917E-14
 -1      2809 2.16217E+01 1.36119E+02 1.71318E-01 4.47905E+00-2.42917E-13-2.15827E-13
 -1      2810 2.46387E+01 1.35333E+02 1.92722E-01 2.27631E+00-1.69864E-13-4.59632E-14
 -1      2811 1.39202E+01 1.28279E+02 2.94153E-02 5.71181E+00 5.19140E-13 3.19744E-14
 -1      2812 1.75464E+01 1.29164E+02 1.68203E-01 3.18099E+00-2.69562E-13-9.39249E-14
 -1      2813 5.16508E+00 1.20151E+02-5.26032E-02 7.43053E+00-3.19744E-13 6.47996E-13
 -1      2814 8.84519E+00 1.22230E+02 1.27783E-01 4.59592E+00 9.03722E-14 3.10085E-13
 -1      2815-3.23161E+00 1.12100E+02-6.94954E-02 9.98965E+00 6.35048E-14 1.16573E-15
 -1      2816-4.51103E-02 1.15043E+02 7.60735E-02 6.91392E+00-7.61613E-14 1.06581E-13
 -1      2817-1.00575E+01 1.04084E+02-4.73304E-02 1.32552E+01 1.90070E-13-1.67311E-13
 -1      2818-7.72776E+00 1.07704E+02 2.13493E-02 1.00955E+01-1.83631E-13 5.30687E-14
 -1      2819-1.32507E+01 1.00232E+02-1.27805E-02 1.37023E+01 3.82139E-13 2.30482E-13
 -1      2820-1.18337E+01 1.03114E+02-2.28767E-02-1.02302E+01 1.14575E-13 4.01901E-13
 -1      2821-1.41749E+01 9.93489E+01-2.71879E-02-1.10000E+01-2.04947E-13 3.20743E-13
 -1      2822-5.80225E+00 1.09899E+02-6.07918E-02-6.48472E+00 3.33733E-13 2.40696E-13
 -1      2823-9.57129E+00 1.05820E+02-3.73207E-03-7.18220E+00 2.54907E-13-1.10356E-13
 -1      2824 2.27089E+00 1.16387E+02-8.00518E-02-3.34413E+00-5.83977E-14 3.03799E-13
 -1      2825-2.55718E+00 1.11965E+02 3.95900E-02-3.58110E+00-5.77316E-14-5.68434E-14
 -1      2826 1.13632E+01 1.22616E+02-5.26641E-02-1.25883E+00-1.66533E-13-1.67422E-13
 -1      2827 6.19524E+00 1.17675E+02 8.00023E-02-8.27061E-01-1.60538E-13-7.81597E-14
 -1      2828 1.99801E+01 1.28444E+02 2.74223E-02-2.39532E-01-2.09166E-13 1.66978E-13
 -1      2829 1.53837E+01 1.22904E+02 1.07145E-01 7.16296E-01 4.39648E-14 4.86278E-14
 -1      2830 2.66210E+01 1.33272E+02 1.32223E-01 1.09367E-01 2.50244E-13 1.78968E-13
 -1      2831 2.33882E+01 1.27411E+02 1.16120E-01 1.13933E+00-7.06102E-14 1.83409E-13
 -1      2832 3.02215E+01 1.36111E+02 2.07263E-01 2.42117E-01-3.38674E-13-2.35589E-13
 -1      2833 2.87916E+01 1.30617E+02 1.13625E-01 8.61967E-01 9.65894E-14-1.82521E-13
 -1      2834 3.02862E+01 1.36159E+02 2.07532E-01 3.51349E-01 3.69205E-13-5.20917E-13
 -1      2835 3.07278E+01 1.31824E+02 1.11068E-01 3.07038E-01 1.97533E-14-2.11386E-13
 -1      2836 2.68009E+01 1.33415E+02 1.32755E-01 4.58547E-01 3.77476E-14-2.09832E-13
 -1      2837 2.89157E+01 1.30708E+02 1.13962E-01-2.61545E-01 5.02265E-13-1.72751E-13
 -1      2838 2.02383E+01 1.28682E+02 2.76810E-02 7.64701E-01-4.50306E-13 4.98268E-13
 -1      2839 2.36099E+01 1.27594E+02 1.16779E-01-5.75117E-01-7.12985E-13 5.72875E-14
 -1      2840 1.16548E+01 1.22947E+02-5.29596E-02 1.73784E+00 4.32765E-13-4.88498E-14
 -1      2841 1.56606E+01 1.23181E+02 1.08017E-01-1.98472E-01 2.01394E-13 1.31894E-13
 -1      2842 2.55921E+00 1.16806E+02-8.07388E-02 3.78679E+00-2.87770E-13 2.28234E-13
 -1      2843 6.48582E+00 1.18044E+02 8.08617E-02 1.30286E+00-1.96509E-13 8.20455E-14
 -1      2844-5.53571E+00 1.10397E+02-6.14837E-02 6.90763E+00 4.69402E-13-8.53762E-14
 -1      2845-2.27985E+00 1.12420E+02 4.01967E-02 4.02920E+00 2.73115E-13 1.81549E-13
 -1      2846-1.15888E+01 1.03678E+02-2.32874E-02 1.06485E+01 2.09166E-13-7.77156E-15
 -1      2847-9.31467E+00 1.06349E+02-3.51756E-03 7.61875E+00-4.33653E-13 6.42264E-14
 -1      2848-1.39305E+01 9.99377E+01-2.72935E-02 1.14363E+01-4.44533E-13-2.88436E-13
 -1      2849-1.24751E+01 1.02094E+02 1.16615E-03-8.14323E+00-7.54952E-15-6.42819E-13
 -1      2850-1.41286E+01 9.84730E+01-3.63860E-02-9.07979E+00 1.91624E-13-2.24154E-13
 -1      2851-7.27346E+00 1.07889E+02-3.99091E-02-4.20557E+00-4.24105E-14-3.50053E-13
 -1      2852-1.03788E+01 1.04090E+02-2.04555E-02-5.28505E+00-8.72635E-14-1.18461E-13
 -1      2853 2.45078E-01 1.13150E+02-7.64481E-02-7.10745E-01 2.62013E-14-4.84088E-13
 -1      2854-4.13304E+00 1.09266E+02 1.56169E-02-1.50332E+00 2.00284E-13-2.03948E-13
 -1      2855 9.28059E+00 1.17852E+02-8.16778E-02 1.66332E+00 1.63203E-13-4.44089E-14
 -1      2856 4.20170E+00 1.13792E+02 5.16752E-02 1.52702E+00-1.79412E-13 2.11414E-13
 -1      2857 1.83528E+01 1.21985E+02-4.29500E-02 2.58197E+00 1.42331E-13 5.51781E-13
 -1      2858 1.34736E+01 1.17624E+02 7.60123E-02 3.19103E+00-4.08562E-13 8.39329E-14
 -1      2859 2.56923E+01 1.25295E+02 2.38957E-02 2.20718E+00 6.59472E-14-3.74367E-13
 -1      2860 2.19650E+01 1.20708E+02 8.17289E-02 3.29743E+00-1.88294E-13-4.64073E-14
 -1      2861 2.98042E+01 1.27225E+02 7.63757E-02 1.03472E+00-1.81133E-13-1.79412E-13
 -1      2862 2.79209E+01 1.22819E+02 7.54570E-02 2.14639E+00 3.93019E-13-4.30767E-14
 -1      2863 2.98677E+01 1.27267E+02 7.64285E-02-3.99676E-01 7.99916E-14-3.47500E-13
 -1      2864 3.00953E+01 1.23609E+02 7.10766E-02 3.27278E-01 7.95024E-14 4.21885E-15
 -1      2865 2.58675E+01 1.25424E+02 2.38856E-02-1.60107E+00-2.17826E-13 8.81517E-14
 -1      2866 2.80414E+01 1.22902E+02 7.57165E-02-1.50683E+00 2.45359E-14 9.14824E-14
 -1      2867 1.86013E+01 1.22204E+02-4.33051E-02-2.02250E+00-2.88658E-14-1.09357E-13
 -1      2868 2.21784E+01 1.20878E+02 8.22415E-02-2.69678E+00-1.84519E-13-9.05942E-14
 -1      2869 9.55867E+00 1.18165E+02-8.24103E-02-1.15160E+00-2.95319E-13-2.28539E-13
 -1      2870 1.37377E+01 1.17887E+02 7.66767E-02-2.63830E+00 2.03615E-13 3.26406E-14
 -1      2871 5.20461E-01 1.13556E+02-7.72860E-02 1.18715E+00 1.33671E-13 1.71502E-13
 -1      2872 4.47829E+00 1.14150E+02 5.22796E-02-1.01557E+00 1.37668E-14 1.78746E-14
 -1      2873-7.01349E+00 1.08379E+02-4.05159E-02 4.66392E+00 2.02505E-13 3.45668E-13
 -1      2874-3.86543E+00 1.09714E+02 1.59535E-02 1.98886E+00-3.69038E-13 1.81188E-13
 -1      2875-1.22259E+01 1.02655E+02 9.51712E-04 8.59722E+00-3.37508E-13-5.54334E-13
 -1      2876-1.01225E+01 1.04616E+02-2.04809E-02 5.75982E+00 3.66152E-13 4.86833E-14
 -1      2877-1.38721E+01 9.90644E+01-3.66801E-02 9.55277E+00-3.24851E-13-8.16791E-13
 -1      2878-1.24751E+01 1.00662E+02 2.10191E-02-6.48508E+00 3.40394E-13 1.36890E-13
 -1      2879-1.35822E+01 9.72280E+01-4.14097E-02-7.47092E+00 1.33227E-13-5.34572E-14
 -1      2880-8.09618E+00 1.05678E+02-1.68923E-02-2.56632E+00 5.55112E-14-7.86038E-14
 -1      2881-1.06048E+01 1.02133E+02-3.16615E-02-3.85708E+00 1.94067E-13 1.95399E-14
 -1      2882-1.28311E+00 1.10017E+02-5.98900E-02 1.09910E+00 3.19744E-14 6.04818E-13
 -1      2883-5.17289E+00 1.06552E+02-1.91238E-03-7.32490E-02 4.58522E-14 8.24063E-14
 -1      2884 7.40241E+00 1.13565E+02-8.41862E-02 3.69067E+00-4.51861E-13-1.21125E-13
 -1      2885 2.54891E+00 1.10185E+02 3.14940E-02 3.10489E+00-1.90736E-13-1.31561E-13
 -1      2886 1.65771E+01 1.16366E+02-7.35653E-02 4.60405E+00 1.73861E-13-2.41474E-13
 -1      2887 1.16013E+01 1.12949E+02 5.68741E-02 4.88439E+00-3.45834E-13-1.49769E-13
 -1      2888 2.43132E+01 1.18436E+02-3.45606E-02 3.75848E+00 6.69464E-14-4.44089E-16
 -1      2889 2.02636E+01 1.14912E+02 6.52630E-02 4.82462E+00-2.35367E-14-1.69864E-13
 -1      2890 2.87671E+01 1.19601E+02 7.26341E-04 1.63343E+00 1.26454E-13 1.84741E-13
 -1      2891 2.65417E+01 1.16134E+02 6.09340E-02 3.08038E+00 6.72240E-14 1.22569E-13
 -1      2892 2.88282E+01 1.19639E+02 6.51350E-04-9.59541E-01 2.45803E-13 3.69926E-13
 -1      2893 2.88708E+01 1.16580E+02 5.71341E-02 3.46486E-01 3.68552E-13-3.15303E-14
 -1      2894 2.44810E+01 1.18556E+02-3.48726E-02-3.11514E+00-2.10720E-13 2.64677E-13
 -1      2895 2.66568E+01 1.16213E+02 6.11700E-02-2.40293E+00 5.75928E-13 1.21014E-13
 -1      2896 1.68136E+01 1.16576E+02-7.42117E-02-4.00852E+00-8.65974E-15-2.13607E-13
 -1      2897 2.04664E+01 1.15077E+02 6.57107E-02-4.18673E+00-6.23723E-13-1.06359E-13
 -1      2898 7.66649E+00 1.13870E+02-8.50431E-02-3.14202E+00-1.04805E-13 2.66676E-13
 -1      2899 1.18515E+01 1.13207E+02 5.74116E-02-4.29369E+00 1.95510E-13 3.77476E-15
 -1      2900-1.01858E+00 1.10418E+02-6.06505E-02-5.83556E-01 9.43690E-14-9.25995E-14
 -1      2901 2.81256E+00 1.10539E+02 3.19125E-02-2.55334E+00 2.89102E-13-1.22125E-14
 -1      2902-7.83866E+00 1.06167E+02-1.72939E-02 3.06531E+00 3.14637E-13-6.98608E-14
 -1      2903-4.91181E+00 1.06999E+02-1.78571E-03 6.00856E-01 1.53877E-13-1.07137E-13
 -1      2904-1.22166E+01 1.01226E+02 2.10372E-02 6.97898E+00 9.30367E-14-5.69544E-14
 -1      2905-1.03444E+01 1.02662E+02-3.18783E-02 4.37400E+00 6.25056E-14 2.14773E-13
 -1      2906-1.33090E+01 9.78269E+01-4.18619E-02 7.98370E+00-3.87579E-13-3.06533E-13
 -1      2907-1.20331E+01 9.89863E+01 3.53889E-02-5.15974E+00 1.07692E-14 9.79772E-14
 -1      2908-1.27169E+01 9.57776E+01-4.31039E-02-6.11856E+00-1.44329E-14 3.49720E-14
 -1      2909-8.42380E+00 1.03370E+02 3.49179E-03-1.40903E+00 2.47802E-13-1.32588E-13
 -1      2910-1.04116E+01 1.00074E+02-3.84649E-02-2.78329E+00-2.43250E-13-8.53484E-14
 -1      2911-2.38620E+00 1.07012E+02-3.97017E-02 2.27298E+00-1.62537E-13-5.57361E-13
 -1      2912-5.78129E+00 1.03888E+02-1.48309E-02 8.69276E-01 3.67262E-13-1.47909E-13
 -1      2913 5.74572E+00 1.09703E+02-7.43597E-02 4.99748E+00 6.88338E-14 1.61537E-13
 -1      2914 1.21356E+00 1.06847E+02 1.56441E-02 4.07910E+00-1.57430E-13 3.80806E-14
 -1      2915 1.47400E+01 1.11489E+02-8.29221E-02 5.95516E+00-3.36953E-13-2.41251E-13
 -1      2916 9.82133E+00 1.08816E+02 4.24480E-02 5.94469E+00-1.14131E-13-4.42424E-14
 -1      2917 2.26079E+01 1.12574E+02-6.48542E-02 4.83617E+00 2.18825E-13 9.79217E-14
 -1      2918 1.83918E+01 1.09921E+02 5.52815E-02 5.82188E+00-1.56652E-13 2.63123E-14
 -1      2919 2.72476E+01 1.13114E+02-4.31120E-02 2.06154E+00 3.02980E-13-5.28466E-14
 -1      2920 2.47873E+01 1.10444E+02 5.52669E-02 3.71297E+00 2.72560E-14 3.75255E-14
 -1      2921 2.73057E+01 1.13152E+02-4.32580E-02-1.34991E+00-1.45745E-13-3.57936E-13
 -1      2922 2.71944E+01 1.10615E+02 5.31721E-02 3.65437E-01 3.42172E-13 5.12923E-14
 -1      2923 2.27669E+01 1.12690E+02-6.53169E-02-4.15528E+00-2.67564E-14 2.03282E-13
 -1      2924 2.48961E+01 1.10521E+02 5.54931E-02-2.99750E+00-3.97904E-13 8.43769E-15
 -1      2925 1.49634E+01 1.11695E+02-8.36666E-02-5.32122E+00-1.69531E-13-1.46438E-13
 -1      2926 1.85830E+01 1.10084E+02 5.56822E-02-5.14510E+00 7.32747E-15 7.77156E-16
 -1      2927 5.99649E+00 1.10008E+02-7.51691E-02-4.40804E+00 1.47216E-13 1.14797E-13
 -1      2928 1.00577E+01 1.09074E+02 4.28759E-02-5.31292E+00-5.35572E-13-2.86882E-13
 -1      2929-2.12990E+00 1.07415E+02-4.02767E-02-1.71405E+00-6.20615E-14-2.41371E-13
 -1      2930 1.46611E+00 1.07204E+02 1.58977E-02-3.48373E+00 7.66054E-14-1.52073E-13
 -1      2931-8.16488E+00 1.03863E+02 3.33786E-03 1.95236E+00 1.92957E-13-5.07927E-14
 -1      2932-5.52348E+00 1.04340E+02-1.48889E-02-2.96200E-01-3.37508E-14-1.12604E-13
 -1      2933-1.17612E+01 9.95585E+01 3.56438E-02 5.69636E+00-1.46994E-13 1.90070E-13
 -1      2934-1.01431E+01 1.00611E+02-3.88537E-02 3.34496E+00 9.93650E-14-1.31006E-14
 -1      2935-1.24231E+01 9.63885E+01-4.37123E-02 6.67296E+00 1.82632E-13-3.20854E-14
 -1      2936-1.13060E+01 9.71991E+01 4.43550E-02-4.09180E+00-2.50355E-13-2.33924E-13
 -1      2937-1.16692E+01 9.42426E+01-4.23095E-02-4.97783E+00 5.30687E-14 1.71196E-13
 -1      2938-8.38755E+00 1.01052E+02 1.93873E-02-6.06469E-01 1.36779E-13 2.74281E-13
 -1      2939-9.93169E+00 9.80080E+01-4.18396E-02-1.97312E+00-8.33222E-14 2.70478E-13
 -1      2940-3.13640E+00 1.04160E+02-2.04340E-02 2.97066E+00 1.86295E-13 9.70396E-14
 -1      2941-6.05350E+00 1.01326E+02-2.38991E-02 1.45535E+00 5.28688E-13-1.73320E-13
 -1      2942 4.31400E+00 1.06225E+02-5.96984E-02 5.74210E+00-1.63647E-13-6.84730E-14
 -1      2943 1.64164E-01 1.03776E+02 3.02979E-03 4.59912E+00-3.45612E-13 2.29775E-13
 -1      2944 1.29119E+01 1.07260E+02-8.11400E-02 6.76001E+00-2.53020E-13 1.50213E-13
 -1      2945 8.17204E+00 1.05163E+02 3.02268E-02 6.50847E+00-3.04312E-13-5.02376E-14
 -1      2946 2.06893E+01 1.07591E+02-7.90150E-02 5.51537E+00 1.20903E-13 1.80522E-13
 -1      2947 1.64422E+01 1.05636E+02 4.70392E-02 6.38768E+00 1.64313E-13-1.44329E-13
 -1      2948 2.53764E+01 1.07640E+02-6.81903E-02 2.34385E+00-2.31204E-14 3.57714E-13
 -1      2949 2.27799E+01 1.05628E+02 5.16831E-02 4.09413E+00 3.48832E-13-6.77236E-14
 -1      2950 2.54311E+01 1.07677E+02-6.83692E-02-1.59419E+00 2.50022E-13 3.47722E-13
 -1      2951 2.51973E+01 1.05589E+02 5.16072E-02 3.84783E-01-3.66825E-13 1.10245E-13
 -1      2952 2.08388E+01 1.07707E+02-7.95297E-02-4.79558E+00-4.23106E-13-9.48130E-14
 -1      2953 2.28820E+01 1.05707E+02 5.18954E-02-3.33939E+00-3.09197E-14 2.38254E-13
 -1      2954 1.31223E+01 1.07467E+02-8.18632E-02-6.08496E+00-1.13243E-14 5.17364E-14
 -1      2955 1.66215E+01 1.05801E+02 4.73856E-02-5.66975E+00-3.15525E-13 5.66214E-14
 -1      2956 4.55291E+00 1.06533E+02-6.03643E-02-5.10840E+00-8.74856E-14-5.93164E-13
 -1      2957 8.39541E+00 1.05425E+02 3.05413E-02-5.83256E+00 2.03615E-13 1.71363E-13
 -1      2958-2.88553E+00 1.04570E+02-2.07728E-02-2.36504E+00-4.86056E-13-1.87398E-14
 -1      2959 4.07809E-01 1.04140E+02 3.12397E-03-3.95682E+00-2.37921E-13-8.64031E-14
 -1      2960-8.12372E+00 1.01555E+02 1.94958E-02 1.19665E+00-2.66454E-15 2.46109E-13
 -1      2961-5.79588E+00 1.01786E+02-2.41315E-02-8.34372E-01-3.26628E-13-1.73958E-13
 -1      2962-1.10169E+01 9.77831E+01 4.48526E-02 4.67278E+00-7.31082E-14-1.06359E-13
 -1      2963-9.65193E+00 9.85561E+01-4.24007E-02 2.58105E+00 1.59872E-13 2.10415E-13
 -1      2964-1.13518E+01 9.48687E+01-4.30963E-02 5.57454E+00-5.50449E-13 1.29063E-14
 -1      2965-1.04120E+01 9.53969E+01 4.88349E-02-3.22224E+00-2.30371E-14 2.73892E-13
 -1      2966-1.05394E+01 9.27076E+01-4.00462E-02-4.01157E+00 1.85074E-13 7.18869E-15
 -1      2967-8.09498E+00 9.87935E+01 3.07636E-02-5.86437E-02-2.98095E-14-5.15116E-13
 -1      2968-9.26816E+00 9.60049E+01-4.19953E-02-1.35649E+00 2.31148E-13-1.77969E-13
 -1      2969-3.60177E+00 1.01481E+02-4.00967E-03 3.32388E+00-1.43219E-13 4.98938E-13
 -1      2970-6.07147E+00 9.89067E+01-2.91273E-02 1.78944E+00-2.43083E-13 2.03421E-13
 -1      2971 3.09962E+00 1.03094E+02-4.41915E-02 6.06342E+00 1.04139E-13-6.99441E-15
 -1      2972-6.34789E-01 1.00967E+02-6.54454E-03 4.79030E+00 2.40585E-13-7.69523E-14
 -1      2973 1.11472E+01 1.03594E+02-7.37904E-02 7.13514E+00 4.54081E-14-1.73750E-13
 -1      2974 6.67638E+00 1.01938E+02 1.93212E-02 6.69696E+00-2.51577E-13-6.65579E-14
 -1      2975 1.86561E+01 1.03373E+02-8.35833E-02 5.87004E+00-2.05058E-13-3.28182E-13
 -1      2976 1.44895E+01 1.01964E+02 3.87892E-02 6.61437E+00-9.30367E-14-4.51306E-14
 -1      2977 2.32726E+01 1.03052E+02-8.15341E-02 2.50550E+00 6.10623E-15-1.87184E-13
 -1      2978 2.06273E+01 1.01575E+02 4.77852E-02 4.27270E+00-2.33535E-13-2.28040E-13
 -1      2979 2.33237E+01 1.03090E+02-8.17191E-02-1.71636E+00-2.40585E-13-1.29896E-14
 -1      2980 2.29980E+01 1.01381E+02 4.98019E-02 4.05038E-01 2.43235E-13-1.68643E-13
 -1      2981 1.87959E+01 1.03492E+02-8.40823E-02-5.10921E+00 6.53921E-14 2.83995E-13
 -1      2982 2.07224E+01 1.01655E+02 4.79766E-02-3.47659E+00 9.60343E-14-8.69305E-14
 -1      2983 1.13452E+01 1.03807E+02-7.44157E-02-6.41606E+00-1.75304E-13-3.93574E-14
 -1      2984 1.46574E+01 1.02134E+02 3.90693E-02-5.85260E+00 2.38476E-13 1.34837E-13
 -1      2985 3.32853E+00 1.03410E+02-4.46589E-02-5.38238E+00 3.61933E-13 6.73295E-13
 -1      2986 6.88807E+00 1.02208E+02 1.95126E-02-5.97400E+00-2.96319E-13 1.35447E-13
 -1      2987-3.35359E+00 1.01900E+02-4.08646E-03-2.66907E+00 5.54001E-14-3.99555E-13
 -1      2988-3.97809E-01 1.01339E+02-6.61135E-03-4.09858E+00 5.18363E-13 2.34687E-13
 -1      2989-7.82319E+00 9.93072E+01 3.11480E-02 6.97209E-01-4.32432E-13-4.01346E-13
 -1      2990-5.81135E+00 9.93779E+01-2.95355E-02-1.11899E+00-2.75946E-13 3.76227E-14
 -1      2991-1.01028E+01 9.59956E+01 4.95986E-02 3.84816E+00 1.61982E-13 4.05481E-13
 -1      2992-8.97442E+00 9.65663E+01-4.27471E-02 2.01120E+00 6.42264E-14 1.36530E-13
 -1      2993-1.01955E+01 9.33506E+01-4.10708E-02 4.65009E+00 2.85050E-13 1.79579E-13
 -1      2994-9.43879E+00 9.36477E+01 4.95722E-02-2.50800E+00 2.52576E-14-1.35503E-13
 -1      2995-9.38951E+00 9.12294E+01-3.51863E-02-3.19053E+00-2.83856E-13 1.35725E-14
 -1      2996-7.63751E+00 9.66411E+01 3.61102E-02 3.09845E-01-7.70495E-14 1.65923E-13
 -1      2997-8.50435E+00 9.41090E+01-4.17232E-02-8.80974E-01-1.88738E-13-3.83027E-14
 -1      2998-3.84948E+00 9.89897E+01 6.69279E-03 3.43865E+00-7.00551E-14-1.46706E-13
 -1      2999-5.91357E+00 9.66515E+01-3.51244E-02 1.95157E+00 5.92859E-14-7.02424E-14
 -1      3000 2.08562E+00 1.00279E+02-3.10688E-02 6.08103E+00-6.76126E-14-1.36446E-13
 -1      3001-1.23203E+00 9.84068E+01-1.84018E-02 4.75361E+00 9.53682E-14-1.42941E-13
 -1      3002 9.48655E+00 1.00416E+02-6.38748E-02 7.18634E+00-1.09301E-13 2.42473E-13
 -1      3003 5.33509E+00 9.90898E+01 5.45006E-03 6.61385E+00-1.62925E-13 1.21597E-13
 -1      3004 1.65920E+01 9.98141E+01-8.16263E-02 5.96959E+00-2.63123E-13-9.69225E-14
 -1      3005 1.25868E+01 9.88190E+01 2.80716E-02 6.58553E+00 2.36478E-14 9.94760E-14
 -1      3006 2.10400E+01 9.92302E+01-8.65623E-02 2.57034E+00-1.46355E-13-1.64313E-14
 -1      3007 1.84194E+01 9.81745E+01 4.24106E-02 4.29461E+00-2.23488E-13 2.86438E-14
 -1      3008 2.10875E+01 9.92696E+01-8.67333E-02-1.73945E+00-1.65784E-13-1.44884E-13
 -1      3009 2.06996E+01 9.78769E+01 4.70017E-02 4.26567E-01-2.97872E-13 1.07692E-14
 -1      3010 1.67225E+01 9.99380E+01-8.20584E-02-5.16504E+00-3.25406E-13-7.58282E-14
 -1      3011 1.85078E+01 9.82585E+01 4.25919E-02-3.45443E+00-1.73833E-13 1.00253E-13
 -1      3012 9.67331E+00 1.00636E+02-6.43446E-02-6.42028E+00 2.68119E-13 1.33782E-13
 -1      3013 1.27439E+01 9.89955E+01 2.82996E-02-5.77705E+00 6.49480E-14 1.07803E-13
 -1      3014 2.30645E+00 1.00604E+02-3.12997E-02-5.35002E+00 3.15525E-13-4.00263E-13
 -1      3015 5.53656E+00 9.93679E+01 5.52703E-03-5.84120E+00-3.59712E-13-1.56819E-14
 -1      3016-3.60155E+00 9.94192E+01 6.89489E-03-2.73289E+00-6.11899E-13 1.24496E-13
 -1      3017-9.99715E-01 9.87892E+01-1.86324E-02-4.01059E+00 2.49134E-13 1.12584E-13
 -1      3018-7.35521E+00 9.71676E+01 3.67887E-02 3.77762E-01 8.42104E-14 5.25302E-13
 -1      3019-5.64878E+00 9.71340E+01-3.57242E-02-1.23087E+00-4.81504E-13-8.68264E-14
 -1      3020-9.10692E+00 9.42621E+01 5.06573E-02 3.17843E+00 2.00007E-13-2.62457E-13
 -1      3021-8.19454E+00 9.46840E+01-4.27095E-02 1.58199E+00 6.01519E-13 5.12923E-14
 -1      3022-9.01692E+00 9.18891E+01-3.64929E-02 3.86906E+00 3.29847E-13-3.18412E-13
 -1      3023-8.45183E+00 9.19944E+01 4.55760E-02-1.90841E+00-7.52176E-15 9.74637E-14
 -1      3024-7.06593E+00 9.46370E+01 4.23538E-02 5.63380E-01 1.71863E-13-2.48662E-13
 -1      3025-3.89748E+00 9.67083E+01 2.40563E-02 3.40444E+00 2.85272E-13-1.04878E-13
 -1      3026 1.29756E+00 9.77682E+01-6.47279E-03 5.89470E+00-8.45435E-14 1.06415E-13
 -1      3027 7.99081E+00 9.76707E+01-4.23690E-02 7.00209E+00-3.94518E-13-1.89404E-13
 -1      3028 1.45757E+01 9.68205E+01-7.25409E-02 5.87368E+00 2.83440E-13 1.21347E-13
 -1      3029 1.87628E+01 9.60596E+01-8.89863E-02 2.55946E+00 2.17812E-13-1.12910E-13
 -1      3030 1.88067E+01 9.61009E+01-8.91621E-02-1.68405E+00 1.02779E-13 4.09006E-13
 -1      3031 1.46971E+01 9.69498E+01-7.29411E-02-5.02247E+00-1.41553E-14-3.05866E-14
 -1      3032 8.16727E+00 9.78995E+01-4.26993E-02-6.18620E+00 1.84408E-13 7.36078E-14
 -1      3033 1.51201E+00 9.81034E+01-6.45458E-03-5.11157E+00 3.80251E-13 2.61929E-13
 -1      3034-3.64785E+00 9.71488E+01 2.45589E-02-2.64673E+00-7.36078E-14 1.32509E-13
 -1      3035-6.77121E+00 9.51758E+01 4.33543E-02 1.72959E-01-4.12337E-13-6.97609E-13
 -1      3036-8.09518E+00 9.26235E+01 4.69874E-02 2.62160E+00-2.22267E-13 2.80956E-13
 -1      3037 1.40734E+01 3.70488E+01-9.68943E-01 2.56358E+01 3.70703E-13-1.48770E-13
 -1      3038 7.85867E-01 1.93187E+01-2.33464E+00 1.39850E+01 2.44915E-13 2.90878E-14
 -1      3039-1.61289E+01 7.10706E+00-3.70111E+00 3.39456E+00-4.20775E-13 2.21601E-13
 -1      3040-3.48419E+01 1.38265E-01-4.97407E+00-4.21867E+00 4.30959E-13 5.11591E-13
 -1      3041-5.27133E+01-2.76451E+00-6.05111E+00-7.63370E+00-8.62366E-13 5.73985E-14
 -1      3042-6.68054E+01-3.29069E+00-6.83456E+00-6.74325E+00-2.75446E-13 3.80029E-13
 -1      3043-7.45850E+01-3.06112E+00-7.24746E+00-2.64303E+00 2.11497E-14-8.87901E-13
 -1      3044-7.45850E+01-3.06112E+00-7.24746E+00 2.64303E+00 5.49838E-13 5.70377E-14
 -1      3045-6.68054E+01-3.29069E+00-6.83456E+00 6.74325E+00 6.22669E-13 8.26006E-14
 -1      3046-5.27133E+01-2.76451E+00-6.05111E+00 7.63370E+00-3.98043E-13-3.98570E-13
 -1      3047-3.48419E+01 1.38265E-01-4.97407E+00 4.21867E+00 6.55294E-13-8.28226E-14
 -1      3048-1.61289E+01 7.10706E+00-3.70111E+00-3.39456E+00-1.47937E-13 1.93401E-13
 -1      3049 7.85867E-01 1.93187E+01-2.33464E+00-1.39850E+01-2.32259E-13 2.69562E-13
 -1      3050 1.40734E+01 3.70488E+01-9.68943E-01-2.56358E+01-4.67404E-14 3.13083E-14
 -1      3051 3.61172E+00 5.22475E+01-2.63126E-01 2.70840E+01-3.25850E-13-2.52243E-13
 -1      3052-5.06833E+00 3.33456E+01-1.06644E+00 2.00422E+01 1.02862E-13 4.82725E-13
 -1      3053-1.65814E+01 1.80449E+01-1.97561E+00 1.21435E+01 7.36078E-14 2.60236E-13
 -1      3054-3.00491E+01 7.14891E+00-2.90828E+00 5.08609E+00-4.86194E-13 8.61533E-14
 -1      3055-4.36009E+01 4.96321E-01-3.76003E+00 3.37983E-01-2.29372E-13 4.37317E-13
 -1      3056-5.47308E+01-2.85797E+00-4.41458E+00-1.45687E+00-7.82152E-13 1.42886E-13
 -1      3057-6.10338E+01-4.12241E+00-4.77121E+00-8.01716E-01-1.55209E-13-3.65707E-13
 -1      3058-6.10338E+01-4.12241E+00-4.77121E+00 8.01716E-01-7.46847E-13-2.26208E-13
 -1      3059-5.47308E+01-2.85797E+00-4.41458E+00 1.45687E+00-4.12115E-13-1.53655E-13
 -1      3060-4.36009E+01 4.96321E-01-3.76003E+00-3.37984E-01-1.94511E-13 2.07612E-13
 -1      3061-3.00491E+01 7.14891E+00-2.90828E+00-5.08609E+00-8.88178E-14-5.13145E-13
 -1      3062-1.65814E+01 1.80449E+01-1.97561E+00-1.21435E+01 7.45237E-14 2.48246E-13
 -1      3063-5.06833E+00 3.33456E+01-1.06644E+00-2.00422E+01-6.82787E-14 2.89768E-13
 -1      3064 3.61172E+00 5.22475E+01-2.63126E-01-2.70840E+01-2.38143E-13-1.54987E-13
 -1      3065-4.17579E+00 6.39680E+01 8.09430E-02 2.72410E+01 2.59348E-13-1.46660E-13
 -1      3066-9.60438E+00 4.50691E+01-3.54819E-01 2.39061E+01-3.48888E-13-5.01821E-14
 -1      3067-1.69634E+01 2.79945E+01-9.18883E-01 1.85406E+01 4.52188E-13-1.01252E-13
 -1      3068-2.60787E+01 1.42522E+01-1.55983E+00 1.23966E+01-2.18825E-13 2.91656E-13
 -1      3069-3.58052E+01 4.55334E+00-2.19335E+00 6.90397E+00-8.90399E-13 5.96190E-14
 -1      3070-4.41731E+01-1.26473E+00-2.70829E+00 3.03017E+00-4.98490E-14 5.53335E-13
 -1      3071-4.90521E+01-3.88384E+00-2.99851E+00 7.84473E-01-1.89071E-13-4.27186E-13
 -1      3072-4.90521E+01-3.88384E+00-2.99851E+00-7.84473E-01-1.74416E-13 1.07969E-13
 -1      3073-4.41731E+01-1.26473E+00-2.70829E+00-3.03017E+00 8.43769E-15-3.42726E-13
 -1      3074-3.58052E+01 4.55334E+00-2.19335E+00-6.90397E+00 6.02851E-14 2.61235E-13
 -1      3075-2.60787E+01 1.42522E+01-1.55983E+00-1.23966E+01 4.01124E-13 2.09721E-13
 -1      3076-1.69634E+01 2.79945E+01-9.18883E-01-1.85406E+01 1.47382E-13 1.28786E-14
 -1      3077-9.60438E+00 4.50691E+01-3.54819E-01-2.39061E+01-4.00346E-13-2.36700E-13
 -1      3078-4.17579E+00 6.39680E+01 8.09430E-02-2.72410E+01-8.55982E-14 2.14495E-13
 -1      3079-9.75267E+00 7.28726E+01 2.25580E-01 2.64710E+01 1.07969E-13 9.14824E-14
 -1      3080-1.29750E+01 5.47922E+01 1.79940E-02 2.60276E+01 3.97182E-14-3.81917E-13
 -1      3081-1.72350E+01 3.69825E+01-3.04387E-01 2.29483E+01 5.31797E-14 3.37619E-13
 -1      3082-2.28242E+01 2.13383E+01-7.17595E-01 1.79338E+01 2.56239E-13-6.18394E-14
 -1      3083-2.92302E+01 9.26388E+00-1.16361E+00 1.21706E+01 6.33937E-14 5.47340E-14
 -1      3084-3.50695E+01 1.35849E+00-1.54881E+00 6.75847E+00-2.31148E-13 4.10172E-13
 -1      3085-3.85989E+01-2.46086E+00-1.77382E+00 2.12522E+00-3.70926E-13-4.36234E-13
 -1      3086-3.85989E+01-2.46086E+00-1.77382E+00-2.12522E+00 2.44693E-13 2.01422E-13
 -1      3087-3.50695E+01 1.35849E+00-1.54881E+00-6.75847E+00 1.35558E-13-1.39055E-13
 -1      3088-2.92302E+01 9.26388E+00-1.16361E+00-1.21706E+01 4.25882E-13 4.61853E-14
 -1      3089-2.28242E+01 2.13383E+01-7.17595E-01-1.79338E+01-1.13798E-13 7.62723E-14
 -1      3090-1.72350E+01 3.69825E+01-3.04387E-01-2.29483E+01 6.49272E-14-2.61680E-13
 -1      3091-1.29750E+01 5.47922E+01 1.79940E-02-2.60276E+01-1.97065E-13 1.90847E-13
 -1      3092-9.75267E+00 7.28726E+01 2.25580E-01-2.64710E+01 1.39555E-13 1.40554E-13
 -1      3093-1.34810E+01 7.94185E+01 2.59968E-01 2.50450E+01-1.58762E-14 1.96954E-13
 -1      3094-1.52881E+01 6.26821E+01 1.84594E-01 2.67610E+01 3.06144E-14-2.48024E-13
 -1      3095-1.73322E+01 4.49445E+01 2.01026E-02 2.56530E+01 1.77289E-13 4.36096E-13
 -1      3096-2.01603E+01 2.82234E+01-2.28693E-01 2.18629E+01-4.14113E-14-5.20584E-13
 -1      3097-2.37685E+01 1.44190E+01-5.27857E-01 1.62019E+01 2.13274E-13-1.58762E-14
 -1      3098-2.73563E+01 4.82191E+00-8.04924E-01 9.73997E+00-5.81313E-13 2.06057E-13
 -1      3099-2.96414E+01-2.32058E-02-9.73363E-01 3.21979E+00 5.66214E-14-1.63647E-13
 -1      3100-2.96414E+01-2.32057E-02-9.73363E-01-3.21979E+00-6.25611E-13 1.51212E-13
 -1      3101-2.73563E+01 4.82191E+00-8.04924E-01-9.73997E+00 5.96301E-13 9.17599E-14
 -1      3102-2.37685E+01 1.44190E+01-5.27857E-01-1.62019E+01-7.71605E-14-3.64264E-13
 -1      3103-2.01603E+01 2.82234E+01-2.28693E-01-2.18629E+01 6.00076E-13 1.59650E-13
 -1      3104-1.73322E+01 4.49445E+01 2.01026E-02-2.56530E+01-5.61447E-13-2.05169E-13
 -1      3105-1.52881E+01 6.26821E+01 1.84594E-01-2.67610E+01 1.93595E-13 2.46914E-13
 -1      3106-1.34810E+01 7.94185E+01 2.59968E-01-2.50450E+01 1.77247E-13 1.86517E-14
 -1      3107-1.57133E+01 8.40469E+01 2.40662E-01 2.31953E+01-3.42781E-13-8.60423E-14
 -1      3108-1.66754E+01 6.89574E+01 2.38128E-01 2.64342E+01 4.60548E-13-3.55271E-14
 -1      3109-1.72128E+01 5.18914E+01 1.71797E-01 2.69495E+01 4.09454E-13 8.93730E-14
 -1      3110-1.79600E+01 3.47915E+01 3.54474E-02 2.43784E+01-3.11196E-13 1.00253E-13
 -1      3111-1.92847E+01 1.98604E+01-1.55631E-01 1.90935E+01-7.56062E-14-8.72635E-14
 -1      3112-2.09243E+01 8.97335E+00-3.48719E-01 1.20080E+01-1.86851E-13 1.76081E-13
 -1      3113-2.20931E+01 3.29125E+00-4.71743E-01 4.07479E+00-2.30482E-13-1.44246E-13
 -1      3114-2.20931E+01 3.29125E+00-4.71743E-01-4.07479E+00 2.05058E-13 2.27429E-13
 -1      3115-2.09243E+01 8.97335E+00-3.48719E-01-1.20080E+01 1.91291E-13-9.23706E-14
 -1      3116-1.92847E+01 1.98604E+01-1.55631E-01-1.90935E+01-6.88893E-14 1.46771E-13
 -1      3117-1.79600E+01 3.47915E+01 3.54474E-02-2.43784E+01-4.13947E-13-4.29878E-13
 -1      3118-1.72128E+01 5.18914E+01 1.71797E-01-2.69495E+01 1.30132E-13 2.23266E-13
 -1      3119-1.66754E+01 6.89574E+01 2.38128E-01-2.64342E+01-4.98213E-14 1.49436E-13
 -1      3120-1.57133E+01 8.40469E+01 2.40662E-01-2.31953E+01-1.38445E-13-1.37779E-13
 -1      3121-1.67721E+01 8.71495E+01 1.99163E-01 2.11067E+01 2.08777E-13-2.20546E-13
 -1      3122-1.72814E+01 7.38368E+01 2.34109E-01 2.53345E+01-8.21149E-13 3.05311E-13
 -1      3123-1.68624E+01 5.78594E+01 2.26434E-01 2.71192E+01 9.95072E-14-2.07168E-13
 -1      3124-1.61139E+01 4.09495E+01 1.64381E-01 2.56858E+01-6.09374E-13 1.01474E-13
 -1      3125-1.56421E+01 2.54380E+01 5.00490E-02 2.09604E+01-9.86433E-14-2.02949E-13
 -1      3126-1.56490E+01 1.36559E+01-8.03732E-02 1.36111E+01 5.20251E-13 2.02449E-13
 -1      3127-1.58458E+01 7.33362E+00-1.68498E-01 4.70221E+00 1.56430E-13-8.37663E-14
 -1      3128-1.58458E+01 7.33362E+00-1.68498E-01-4.70222E+00 2.53131E-14-2.77556E-15
 -1      3129-1.56490E+01 1.36559E+01-8.03732E-02-1.36111E+01-1.90514E-13 2.23099E-13
 -1      3130-1.56421E+01 2.54380E+01 5.00490E-02-2.09604E+01 2.99705E-13 2.35034E-13
 -1      3131-1.61139E+01 4.09495E+01 1.64381E-01-2.56858E+01 4.22357E-13-2.23266E-13
 -1      3132-1.68624E+01 5.78594E+01 2.26434E-01-2.71192E+01-3.88141E-13-8.22675E-14
 -1      3133-1.72814E+01 7.38368E+01 2.34109E-01-2.53345E+01-4.12614E-13 1.74638E-13
 -1      3134-1.67721E+01 8.71495E+01 1.99163E-01-2.11067E+01 4.17166E-14-2.57405E-13
 -1      3135-1.69429E+01 8.90686E+01 1.52210E-01 1.89232E+01 2.19796E-13-1.10412E-13
 -1      3136-1.72538E+01 7.75359E+01 2.04200E-01 2.37072E+01 1.92138E-13-1.10911E-13
 -1      3137-1.62888E+01 6.29089E+01 2.30237E-01 2.64243E+01 1.37165E-13 1.22957E-13
 -1      3138-1.45317E+01 4.66306E+01 2.16398E-01 2.59949E+01-1.54377E-13-3.53662E-13
 -1      3139-1.27093E+01 3.10150E+01 1.55883E-01 2.19330E+01 3.20466E-13 1.51490E-13
 -1      3140-1.13978E+01 1.87119E+01 7.16465E-02 1.46116E+01 7.68274E-14 1.67422E-13
 -1      3141-1.07760E+01 1.19463E+01 9.97779E-03 5.11935E+00 3.78364E-13-5.52614E-14
 -1      3142-1.07760E+01 1.19463E+01 9.97779E-03-5.11935E+00-7.12430E-13-1.88252E-13
 -1      3143-1.13978E+01 1.87119E+01 7.16465E-02-1.46116E+01 2.42917E-13 2.93376E-13
 -1      3144-1.27093E+01 3.10150E+01 1.55883E-01-2.19330E+01-2.37588E-13-3.44114E-13
 -1      3145-1.45317E+01 4.66306E+01 2.16398E-01-2.59949E+01-1.36030E-13 2.08111E-13
 -1      3146-1.62888E+01 6.29089E+01 2.30237E-01-2.64243E+01-4.41123E-14-1.09024E-13
 -1      3147-1.72538E+01 7.75359E+01 2.04200E-01-2.37072E+01-3.27890E-13-9.37028E-14
 -1      3148-1.69429E+01 8.90686E+01 1.52210E-01-1.89232E+01-3.67484E-14-1.46938E-13
 -1      3149-1.64707E+01 9.00950E+01 1.08014E-01 1.67515E+01-2.30316E-13 3.89355E-13
 -1      3150-1.67353E+01 8.02588E+01 1.65315E-01 2.17551E+01 2.92530E-13-1.70863E-13
 -1      3151-1.55169E+01 6.71174E+01 2.09565E-01 2.51000E+01-1.15278E-13 3.10363E-13
 -1      3152-1.31423E+01 5.17927E+01 2.26728E-01 2.55103E+01 2.88936E-13-2.22322E-13
 -1      3153-1.03640E+01 3.64714E+01 2.04228E-01 2.21505E+01 4.47808E-13-8.85958E-14
 -1      3154-8.03535E+00 2.39882E+01 1.54483E-01 1.50824E+01 1.13798E-13 1.42830E-13
 -1      3155-6.75122E+00 1.69688E+01 1.13179E-01 5.34775E+00-8.63754E-14-3.96072E-14
 -1      3156-6.75122E+00 1.69688E+01 1.13179E-01-5.34775E+00 4.38538E-13-8.35998E-14
 -1      3157-8.03535E+00 2.39882E+01 1.54483E-01-1.50824E+01-1.62592E-13-1.91291E-13
 -1      3158-1.03640E+01 3.64714E+01 2.04228E-01-2.21505E+01-5.26246E-14 1.99618E-13
 -1      3159-1.31423E+01 5.17927E+01 2.26728E-01-2.55103E+01-6.27554E-14 1.01086E-13
 -1      3160-1.55169E+01 6.71174E+01 2.09565E-01-2.51000E+01 4.47326E-13-1.01308E-13
 -1      3161-1.67353E+01 8.02588E+01 1.65315E-01-2.17551E+01 4.64351E-13 2.33980E-13
 -1      3162-1.64707E+01 9.00950E+01 1.08014E-01-1.67515E+01 2.13024E-13-2.64788E-14
 -1      3163-1.55583E+01 9.04695E+01 7.01599E-02 1.46669E+01 3.83957E-13 1.45356E-13
 -1      3164-1.58564E+01 8.21921E+01 1.26086E-01 1.96396E+01-3.08115E-13 1.51656E-13
 -1      3165-1.45818E+01 7.05732E+01 1.78806E-01 2.33501E+01 1.69671E-13-2.40641E-13
 -1      3166-1.18925E+01 5.64171E+01 2.15531E-01 2.44240E+01-1.59914E-13 1.75360E-13
 -1      3167-8.49577E+00 4.17075E+01 2.20263E-01 2.17541E+01 1.20459E-14-2.01006E-13
 -1      3168-5.42870E+00 2.93428E+01 1.96970E-01 1.51028E+01-1.44829E-13 2.50994E-13
 -1      3169-3.63472E+00 2.22448E+01 1.71856E-01 5.41203E+00 2.44582E-13-1.34712E-13
 -1      3170-3.63472E+00 2.22448E+01 1.71856E-01-5.41203E+00-6.02296E-14-1.48367E-13
 -1      3171-5.42870E+00 2.93428E+01 1.96970E-01-1.51028E+01-6.21170E-14 4.21607E-14
 -1      3172-8.49577E+00 4.17075E+01 2.20263E-01-2.17541E+01 8.26283E-14 4.18610E-13
 -1      3173-1.18925E+01 5.64171E+01 2.15531E-01-2.44240E+01-1.60455E-13-2.17937E-13
 -1      3174-1.45818E+01 7.05732E+01 1.78806E-01-2.33501E+01 1.66942E-13 3.50386E-13
 -1      3175-1.58564E+01 8.21921E+01 1.26086E-01-1.96396E+01 8.87485E-14-3.90299E-13
 -1      3176-1.55583E+01 9.04695E+01 7.01599E-02-1.46669E+01-4.10921E-14 1.76276E-13
 -1      3177-1.43679E+01 9.03862E+01 3.98331E-02 1.27187E+01 1.63244E-13-1.20598E-13
 -1      3178-1.47314E+01 8.35014E+01 9.06762E-02 1.74840E+01 3.91638E-13 2.91711E-13
 -1      3179-1.35237E+01 7.33697E+01 1.45580E-01 2.13451E+01 2.00604E-13 5.16254E-14
 -1      3180-1.07435E+01 6.05054E+01 1.93953E-01 2.29095E+01-2.07001E-13-2.10165E-13
 -1      3181-7.00701E+00 4.66455E+01 2.18212E-01 2.08806E+01-1.24900E-15 1.30895E-13
 -1      3182-3.45051E+00 3.46494E+01 2.15612E-01 1.47547E+01-1.04250E-13 7.34413E-14
 -1      3183-1.29012E+00 2.76283E+01 2.03749E-01 5.33861E+00-4.38816E-13-1.14450E-13
 -1      3184-1.29012E+00 2.76283E+01 2.03749E-01-5.33861E+00 5.23415E-13-3.57631E-14
 -1      3185-3.45051E+00 3.46494E+01 2.15612E-01-1.47547E+01-3.66152E-13-5.38458E-15
 -1      3186-7.00701E+00 4.66455E+01 2.18212E-01-2.08806E+01-6.43929E-15 1.12077E-13
 -1      3187-1.07435E+01 6.05054E+01 1.93953E-01-2.29095E+01-1.78066E-13-4.41869E-14
 -1      3188-1.35237E+01 7.33697E+01 1.45580E-01-2.13451E+01 2.78131E-14 3.95406E-13
 -1      3189-1.47314E+01 8.35014E+01 9.06762E-02-1.74840E+01 2.42500E-13-2.50799E-13
 -1      3190-1.43679E+01 9.03862E+01 3.98331E-02-1.27187E+01 2.27957E-13-1.96787E-13
 -1      3191-1.30253E+01 8.99963E+01 1.65782E-02 1.09352E+01-2.36727E-13 1.00919E-13
 -1      3192-1.34560E+01 8.43288E+01 6.06583E-02 1.53779E+01 4.02879E-13-1.42220E-13
 -1      3193-1.23832E+01 7.56000E+01 1.13910E-01 1.92215E+01-3.93371E-13 1.34309E-13
 -1      3194-9.66898E+00 6.40760E+01 1.68304E-01 2.11171E+01 2.89463E-13-1.25927E-13
 -1      3195-5.81364E+00 5.12299E+01 2.06096E-01 1.96575E+01-1.71502E-13-2.13746E-13
 -1      3196-1.98215E+00 3.98010E+01 2.19569E-01 1.41186E+01 1.70280E-13 2.61485E-13
 -1      3197 4.14577E-01 3.29891E+01 2.18632E-01 5.15435E+00-9.67559E-14-1.91583E-14
 -1      3198 4.14577E-01 3.29891E+01 2.18631E-01-5.15435E+00-5.92859E-14-1.40096E-14
 -1      3199-1.98215E+00 3.98010E+01 2.19569E-01-1.41186E+01 6.83703E-13-6.79456E-14
 -1      3200-5.81364E+00 5.12299E+01 2.06096E-01-1.96575E+01-2.20657E-14 3.95628E-13
 -1      3201-9.66898E+00 6.40760E+01 1.68304E-01-2.11171E+01 1.81896E-13 6.49480E-14
 -1      3202-1.23832E+01 7.56000E+01 1.13910E-01-1.92215E+01-6.41242E-13-2.79637E-13
 -1      3203-1.34560E+01 8.43288E+01 6.06583E-02-1.53779E+01-7.26294E-14 1.96149E-13
 -1      3204-1.30253E+01 8.99963E+01 1.65782E-02-1.09352E+01 1.18058E-13-3.24102E-13
 -1      3205-1.16208E+01 8.94179E+01 1.08915E-03 9.32880E+00 9.74082E-14-5.59275E-15
 -1      3206-1.21041E+01 8.47965E+01 3.81878E-02 1.33823E+01-4.14418E-13 9.72278E-14
 -1      3207-1.11961E+01 7.73557E+01 8.70340E-02 1.70846E+01 5.30515E-13-7.41629E-14
 -1      3208-8.65159E+00 6.71603E+01 1.42236E-01 1.91734E+01-6.09783E-13-4.05787E-14
 -1      3209-4.84596E+00 5.54243E+01 1.87861E-01 1.81995E+01-7.75213E-13 1.22957E-13
 -1      3210-9.17060E-01 4.47103E+01 2.13411E-01 1.32709E+01 9.08995E-14 1.25761E-13
 -1      3211 1.60275E+00 3.82153E+01 2.21689E-01 4.88539E+00 4.18277E-14-2.70908E-13
 -1      3212 1.60275E+00 3.82153E+01 2.21689E-01-4.88539E+00-1.25816E-13-1.66721E-13
 -1      3213-9.17060E-01 4.47103E+01 2.13411E-01-1.32709E+01-5.27911E-14 3.20882E-13
 -1      3214-4.84596E+00 5.54243E+01 1.87861E-01-1.81995E+01 2.38226E-13 2.26791E-13
 -1      3215-8.65159E+00 6.71603E+01 1.42236E-01-1.91734E+01 2.05433E-13-4.05037E-13
 -1      3216-1.11961E+01 7.73557E+01 8.70340E-02-1.70846E+01 7.13023E-14 1.01807E-13
 -1      3217-1.21041E+01 8.47965E+01 3.81878E-02-1.33823E+01-3.08746E-13 1.19321E-13
 -1      3218-1.16208E+01 8.94179E+01 1.08915E-03-9.32880E+00-5.06539E-15-1.38348E-13
 -1      3219-1.02240E+01 8.87277E+01-1.15235E-02 7.89969E+00 1.28744E-13 4.86278E-14
 -1      3220-1.07439E+01 8.49847E+01 1.52001E-02 1.15357E+01-1.32033E-13 1.25455E-13
 -1      3221-1.00089E+01 7.86936E+01 5.49291E-02 1.50128E+01-1.69013E-13-3.10862E-14
 -1      3222-7.69305E+00 6.97699E+01 1.07069E-01 1.71812E+01-2.69763E-13-1.43940E-13
 -1      3223-4.05178E+00 5.91914E+01 1.59101E-01 1.66042E+01 1.35850E-13 1.22319E-13
 -1      3224-1.60935E-01 4.93052E+01 1.97395E-01 1.22779E+01-2.31953E-13-1.36391E-13
 -1      3225 2.38922E+00 4.32193E+01 2.15925E-01 4.55473E+00-3.99764E-13-5.09315E-15
 -1      3226 2.38922E+00 4.32193E+01 2.15925E-01-4.55473E+00-4.11254E-13-2.16806E-13
 -1      3227-1.60935E-01 4.93052E+01 1.97395E-01-1.22779E+01-6.19560E-13 3.85886E-13
 -1      3228-4.05178E+00 5.91914E+01 1.59101E-01-1.66042E+01 1.66311E-13-9.84213E-14
 -1      3229-7.69305E+00 6.97699E+01 1.07069E-01-1.71812E+01-1.05395E-13-1.59872E-13
 -1      3230-1.00089E+01 7.86936E+01 5.49291E-02-1.50128E+01 1.29165E-13 1.13465E-13
 -1      3231-1.07439E+01 8.49847E+01 1.52001E-02-1.15357E+01 5.54529E-13 1.21791E-13
 -1      3232-1.02240E+01 8.87277E+01-1.15235E-02-7.89969E+00 1.60968E-13-1.41817E-13
 -1      3233 2.06011E+01 2.82252E+01-1.40021E+00 2.41979E+01 4.35652E-13-3.91687E-13
 -1      3234 1.88227E+01 4.70863E+01-5.87355E-01 3.09419E+01 1.55431E-13 1.28342E-13
 -1      3235 4.60965E+00 1.20209E+01-2.96817E+00 1.00261E+01 3.21743E-13 5.80425E-13
 -1      3236 7.84625E+00 2.70924E+01-1.79346E+00 1.96445E+01-1.00808E-13-5.56888E-13
 -1      3237-1.53522E+01 2.07639E+00-4.50964E+00-1.79836E+00-7.92699E-14 4.04121E-13
 -1      3238-7.16911E+00 1.23681E+01-3.00878E+00 8.35109E+00 1.07248E-13 1.19948E-12
 -1      3239-3.68573E+01-2.50601E+00-5.91273E+00-9.41331E+00 5.23914E-13 6.36824E-13
 -1      3240-2.49776E+01 3.11217E+00-4.17994E+00-8.62666E-01-1.86906E-13 3.61489E-13
 -1      3241-5.68970E+01-3.37473E+00-7.07460E+00-1.18948E+01-1.09748E-12 5.82201E-13
 -1      3242-4.33170E+01-1.45503E+00-5.21909E+00-6.39595E+00-2.10831E-13-8.34888E-14
 -1      3243-7.23992E+01-2.47777E+00-7.90420E+00-9.48777E+00 1.42297E-12 3.92575E-13
 -1      3244-5.93713E+01-2.83948E+00-6.04226E+00-7.57524E+00-6.17395E-13 1.25966E-12
 -1      3245-8.08551E+01-1.52956E+00-8.33602E+00-3.58498E+00-7.50511E-13-1.39039E-12
 -1      3246-7.03694E+01-2.76040E+00-6.57237E+00-4.91100E+00-1.37668E-13-4.71845E-13
 -1      3247-8.08551E+01-1.52956E+00-8.33602E+00 3.58498E+00 1.59628E-12-3.19245E-13
 -1      3248-7.42836E+01-2.56473E+00-6.75559E+00 9.43807E-08 1.00342E-12-8.15490E-13
 -1      3249-7.23992E+01-2.47777E+00-7.90420E+00 9.48777E+00 8.55593E-13 1.56319E-13
 -1      3250-7.03694E+01-2.76040E+00-6.57237E+00 4.91100E+00 2.26708E-13 2.86438E-14
 -1      3251-5.68970E+01-3.37473E+00-7.07460E+00 1.18948E+01 3.48985E-13-3.73923E-13
 -1      3252-5.93713E+01-2.83948E+00-6.04226E+00 7.57524E+00-3.07532E-13-3.77476E-13
 -1      3253-3.68573E+01-2.50601E+00-5.91273E+00 9.41331E+00 1.29619E-12-1.35891E-13
 -1      3254-4.33170E+01-1.45503E+00-5.21909E+00 6.39595E+00 1.46771E-13-3.94351E-13
 -1      3255-1.53522E+01 2.07639E+00-4.50964E+00 1.79836E+00-4.54969E-13 7.06102E-14
 -1      3256-2.49776E+01 3.11217E+00-4.17994E+00 8.62666E-01-1.93179E-14-3.93907E-13
 -1      3257 4.60965E+00 1.20209E+01-2.96817E+00-1.00261E+01 1.75415E-13 7.85150E-13
 -1      3258-7.16911E+00 1.23681E+01-3.00878E+00-8.35109E+00-6.57474E-13 7.78044E-13
 -1      3259 2.06011E+01 2.82252E+01-1.40021E+00-2.41979E+01 5.37792E-13-1.87406E-13
 -1      3260 7.84625E+00 2.70924E+01-1.79346E+00-1.96445E+01 1.51434E-13 1.14131E-13
 -1      3261 1.88227E+01 4.70863E+01-5.87355E-01-3.09419E+01 7.74492E-13 2.66454E-15
 -1      3262 8.72229E+00 4.49721E+01-5.40714E-01 2.63942E+01-1.07203E-12 4.62741E-13
 -1      3263 6.59655E+00 6.14889E+01-3.18186E-01 2.95322E+01-6.01297E-13-1.31450E-13
 -1      3264-2.01125E+00 2.67926E+01-1.49280E+00 1.71642E+01 1.03251E-12-1.13687E-13
 -1      3265-6.11457E-01 4.15365E+01-9.69714E-01 2.34511E+01-1.34559E-13 4.98268E-13
 -1      3266-1.60301E+01 1.30590E+01-2.54981E+00 7.97585E+00-2.56295E-12 1.74838E-12
 -1      3267-1.06082E+01 2.45770E+01-1.69410E+00 1.58065E+01-1.39133E-12-3.00204E-13
 -1      3268-3.19932E+01 4.07432E+00-3.61784E+00 6.44955E-01 9.94427E-13 1.83853E-13
 -1      3269-2.30402E+01 1.17751E+01-2.45084E+00 8.19395E+00 3.35232E-13 2.00551E-12
 -1      3270-4.76335E+01-7.81485E-01-4.57591E+00-3.47396E+00-1.35469E-12 5.45342E-13
 -1      3271-3.65380E+01 3.39212E+00-3.17104E+00 2.24255E+00-1.21381E-12-7.48734E-13
 -1      3272-6.02119E+01-2.78969E+00-5.30078E+00-3.98826E+00-2.00884E-12 7.88702E-13
 -1      3273-4.89004E+01-1.21928E+00-3.77325E+00-9.64313E-01-1.27631E-12 1.11910E-12
 -1      3274-6.72421E+01-3.34495E+00-5.69153E+00-1.68411E+00 1.70308E-13-9.57456E-13
 -1      3275-5.76466E+01-3.23953E+00-4.17590E+00-1.36374E+00-8.71081E-13 3.20632E-13
 -1      3276-6.72421E+01-3.34495E+00-5.69153E+00 1.68411E+00-6.38822E-13-3.97349E-13
 -1      3277-6.08115E+01-3.76538E+00-4.31775E+00 2.62971E-08-8.63309E-13-1.06472E-12
 -1      3278-6.02119E+01-2.78969E+00-5.30078E+00 3.98826E+00-1.33227E-13-2.06501E-13
 -1      3279-5.76466E+01-3.23953E+00-4.17590E+00 1.36374E+00-6.85674E-13 2.34923E-13
 -1      3280-4.76335E+01-7.81485E-01-4.57591E+00 3.47396E+00-9.88210E-13-5.73763E-13
 -1      3281-4.89004E+01-1.21928E+00-3.77325E+00 9.64313E-01-1.70752E-13-8.65530E-13
 -1      3282-3.19932E+01 4.07432E+00-3.61784E+00-6.44955E-01 5.61884E-13-3.85025E-13
 -1      3283-3.65380E+01 3.39212E+00-3.17104E+00-2.24255E+00-3.75255E-14 2.73559E-13
 -1      3284-1.60301E+01 1.30590E+01-2.54981E+00-7.97585E+00-1.40776E-13 9.50351E-14
 -1      3285-2.30402E+01 1.17751E+01-2.45084E+00-8.19395E+00 8.44547E-13-5.57332E-13
 -1      3286-2.01125E+00 2.67926E+01-1.49280E+00-1.71642E+01-8.21565E-15 3.63265E-13
 -1      3287-1.06082E+01 2.45770E+01-1.69410E+00-1.58065E+01 2.45803E-13 9.72555E-13
 -1      3288 8.72229E+00 4.49721E+01-5.40714E-01-2.63942E+01 4.53859E-13-1.77636E-14
 -1      3289-6.11457E-01 4.15365E+01-9.69714E-01-2.34511E+01-3.70370E-13-1.15463E-14
 -1      3290 6.59655E+00 6.14889E+01-3.18186E-01-2.95322E+01 2.48690E-13 1.72751E-13
 -1      3291-4.09193E-01 5.81945E+01-1.07183E-01 2.71440E+01-2.90212E-13-1.92291E-13
 -1      3292-2.33185E+00 7.24230E+01-1.59811E-01 2.76414E+01-4.43423E-13-4.78728E-13
 -1      3293-7.25648E+00 3.94530E+01-6.12236E-01 2.20471E+01-1.17384E-12 6.25278E-13
 -1      3294-7.01313E+00 5.33907E+01-5.03090E-01 2.55415E+01-1.71640E-13-1.32339E-13
 -1      3295-1.65146E+01 2.33404E+01-1.26288E+00 1.54711E+01 1.64296E-12-1.55431E-14
 -1      3296-1.33298E+01 3.53939E+01-9.20208E-01 2.10570E+01 3.21854E-13 4.28546E-13
 -1      3297-2.76809E+01 1.10210E+01-2.00083E+00 8.88689E+00-5.40457E-13 4.58300E-13
 -1      3298-2.14892E+01 2.01523E+01-1.38321E+00 1.51744E+01 4.18388E-13 9.59677E-13
 -1      3299-3.92446E+01 2.80671E+00-2.72248E+00 3.74753E+00-2.11453E-12 5.58664E-13
 -1      3300-3.08546E+01 8.74062E+00-1.84892E+00 9.28526E+00-1.72085E-12-9.80105E-13
 -1      3301-4.89566E+01-1.82351E+00-3.30254E+00 8.70416E-01 4.62297E-13 7.28750E-13
 -1      3302-3.98751E+01 1.34304E+00-2.25617E+00 4.63041E+00-1.06648E-12 1.81011E-12
 -1      3303-5.45341E+01-3.79239E+00-3.62670E+00 2.04105E-02-6.95444E-13-6.75793E-13
 -1      3304-4.64928E+01-2.58643E+00-2.53733E+00 1.70475E+00-3.06422E-13 8.77076E-14
 -1      3305-5.45341E+01-3.79239E+00-3.62670E+00-2.04105E-02-6.38156E-13-3.77032E-13
 -1      3306-4.89329E+01-3.78548E+00-2.63805E+00-2.16881E-08-3.09086E-13-1.10105E-12
 -1      3307-4.89566E+01-1.82351E+00-3.30254E+00-8.70416E-01-9.69447E-13-4.08118E-13
 -1      3308-4.64928E+01-2.58643E+00-2.53733E+00-1.70475E+00-4.68514E-13 1.28342E-13
 -1      3309-3.92446E+01 2.80671E+00-2.72248E+00-3.74753E+00 1.26565E-12 2.92211E-13
 -1      3310-3.98751E+01 1.34304E+00-2.25617E+00-4.63041E+00 3.99680E-14 1.86740E-13
 -1      3311-2.76809E+01 1.10210E+01-2.00083E+00-8.88689E+00-6.78346E-13-4.55636E-13
 -1      3312-3.08546E+01 8.74062E+00-1.84892E+00-9.28526E+00 4.84501E-13-3.81917E-13
 -1      3313-1.65146E+01 2.33404E+01-1.26288E+00-1.54711E+01 1.83470E-12 9.21929E-13
 -1      3314-2.14892E+01 2.01523E+01-1.38321E+00-1.51744E+01 5.37070E-13 6.91003E-13
 -1      3315-7.25648E+00 3.94530E+01-6.12236E-01-2.20471E+01 1.18017E-13 7.46070E-14
 -1      3316-1.33298E+01 3.53939E+01-9.20208E-01-2.10570E+01 6.89671E-13-5.95080E-14
 -1      3317-4.09193E-01 5.81945E+01-1.07183E-01-2.71440E+01-7.05880E-13-2.47358E-13
 -1      3318-7.01313E+00 5.33907E+01-5.03090E-01-2.55415E+01-2.02061E-14-2.97984E-13
 -1      3319-2.33185E+00 7.24230E+01-1.59811E-01-2.76414E+01-6.82343E-13 1.25322E-12
 -1      3320-7.13431E+00 6.83977E+01 8.15291E-02 2.68141E+01 9.48130E-14-4.88498E-13
 -1      3321-8.53424E+00 8.04244E+01-6.60844E-02 2.54457E+01-1.15463E-13-1.73639E-13
 -1      3322-1.12896E+01 5.00698E+01-1.44940E-01 2.50035E+01 6.87228E-13-1.65645E-13
 -1      3323-1.15964E+01 6.28780E+01-2.51379E-01 2.62605E+01-6.68354E-14-4.36540E-13
 -1      3324-1.69304E+01 3.27284E+01-5.03436E-01 2.08400E+01 4.05939E-13 4.03233E-13
 -1      3325-1.53138E+01 4.47893E+01-4.91141E-01 2.44056E+01 1.28342E-13 1.66089E-13
 -1      3326-2.41491E+01 1.80659E+01-9.72810E-01 1.52866E+01-1.34270E-12 1.87850E-13
 -1      3327-2.01830E+01 2.80882E+01-7.64078E-01 2.02492E+01 2.20046E-13 1.57208E-13
 -1      3328-3.21236E+01 7.16559E+00-1.47992E+00 9.65022E+00-1.37290E-12 4.10783E-13
 -1      3329-2.61213E+01 1.44222E+01-1.04686E+00 1.47816E+01-7.34524E-13-1.10933E-12
 -1      3330-3.91751E+01 2.74827E-01-1.91577E+00 4.97215E+00-1.10445E-12 1.21902E-12
 -1      3331-3.21988E+01 4.72231E+00-1.30103E+00 9.19534E+00-2.54463E-13 1.67732E-12
 -1      3332-4.33572E+01-2.96494E+00-2.16901E+00 1.48235E+00-8.77520E-13-6.12732E-13
 -1      3333-3.68596E+01-8.81408E-01-1.48049E+00 4.27288E+00-8.71747E-13 3.13527E-13
 -1      3334-4.33572E+01-2.96494E+00-2.16901E+00-1.48235E+00 6.83453E-13-6.35048E-14
 -1      3335-3.86177E+01-2.68767E+00-1.54560E+00-5.41402E-08-8.47322E-13-5.04636E-13
 -1      3336-3.91751E+01 2.74827E-01-1.91577E+00-4.97215E+00 9.64562E-13-6.23945E-14
 -1      3337-3.68596E+01-8.81408E-01-1.48049E+00-4.27288E+00-5.95080E-14 9.32587E-14
 -1      3338-3.21236E+01 7.16559E+00-1.47992E+00-9.65022E+00-8.26006E-14 6.35048E-14
 -1      3339-3.21988E+01 4.72231E+00-1.30103E+00-9.19534E+00 8.85958E-14 6.50591E-14
 -1      3340-2.41491E+01 1.80659E+01-9.72810E-01-1.52866E+01 7.31859E-13 2.70894E-13
 -1      3341-2.61213E+01 1.44222E+01-1.04686E+00-1.47816E+01-2.80886E-13-2.34923E-13
 -1      3342-1.69304E+01 3.27284E+01-5.03436E-01-2.08400E+01-1.11206E-13-1.48770E-13
 -1      3343-2.01830E+01 2.80882E+01-7.64078E-01-2.02492E+01 1.43885E-13 3.59712E-14
 -1      3344-1.12896E+01 5.00698E+01-1.44940E-01-2.50035E+01-3.14304E-13-8.61533E-14
 -1      3345-1.53138E+01 4.47894E+01-4.91141E-01-2.44056E+01-5.54556E-14-3.36176E-13
 -1      3346-7.13431E+00 6.83977E+01 8.15291E-02-2.68141E+01 6.24389E-13 9.78329E-13
 -1      3347-1.15964E+01 6.28780E+01-2.51379E-01-2.62605E+01 3.20632E-13 6.43929E-13
 -1      3348-8.53424E+00 8.04244E+01-6.60844E-02-2.54457E+01-6.18838E-13 1.28342E-13
 -1      3349-1.18045E+01 7.60288E+01 1.33307E-01 2.56958E+01 3.34843E-13-1.62537E-13
 -1      3350-1.25657E+01 8.60453E+01-7.15942E-03 2.30934E+01-6.84564E-13 3.41949E-14
 -1      3351-1.41886E+01 5.87712E+01 6.56163E-02 2.63972E+01-1.17906E-13-3.48166E-13
 -1      3352-1.46414E+01 7.03120E+01-1.14271E-01 2.59381E+01-2.37477E-13-1.79412E-13
 -1      3353-1.71912E+01 4.11110E+01-1.00740E-01 2.43616E+01 2.76751E-13 4.42757E-13
 -1      3354-1.65967E+01 5.28348E+01-2.58968E-01 2.61853E+01 1.35641E-13 1.27898E-13
 -1      3355-2.12686E+01 2.49819E+01-3.71885E-01 1.99919E+01 1.03051E-12-6.84786E-13
 -1      3356-1.90155E+01 3.55040E+01-4.19865E-01 2.36509E+01 8.35665E-13 4.02345E-13
 -1      3357-2.61762E+01 1.20501E+01-7.05256E-01 1.42812E+01 2.31015E-12-2.60236E-13
 -1      3358-2.21916E+01 2.03098E+01-5.83941E-01 1.88483E+01 1.26343E-13-8.79297E-13
 -1      3359-3.08276E+01 3.28392E+00-1.01568E+00 8.31786E+00-1.29052E-12 8.13349E-13
 -1      3360-2.57446E+01 8.80624E+00-7.30094E-01 1.27686E+01-1.42109E-14 1.62093E-13
 -1      3361-3.37064E+01-1.06233E+00-1.20427E+00 2.69731E+00-1.05116E-12-3.17246E-13
 -1      3362-2.86510E+01 1.79281E+00-8.33240E-01 6.34617E+00-1.13465E-12 5.06040E-13
 -1      3363-3.37064E+01-1.06233E+00-1.20427E+00-2.69731E+00-1.20792E-12 6.37823E-14
 -1      3364-2.97837E+01-5.41544E-01-8.70740E-01-7.33196E-08-3.91687E-13-6.91770E-13
 -1      3365-3.08276E+01 3.28392E+00-1.01568E+00-8.31786E+00-3.51275E-13 5.15143E-14
 -1      3366-2.86510E+01 1.79281E+00-8.33240E-01-6.34617E+00-4.63629E-13 4.27547E-13
 -1      3367-2.61762E+01 1.20501E+01-7.05256E-01-1.42812E+01-2.64233E-13-2.27374E-13
 -1      3368-2.57446E+01 8.80624E+00-7.30094E-01-1.27686E+01-2.00284E-13 3.75255E-14
 -1      3369-2.12686E+01 2.49819E+01-3.71885E-01-1.99919E+01-1.91402E-13-3.37508E-14
 -1      3370-2.21916E+01 2.03098E+01-5.83941E-01-1.88483E+01 1.62093E-13-1.71863E-13
 -1      3371-1.71912E+01 4.11110E+01-1.00740E-01-2.43616E+01-7.81125E-13-3.80584E-13
 -1      3372-1.90155E+01 3.55040E+01-4.19865E-01-2.36509E+01-1.34781E-13-3.69926E-13
 -1      3373-1.41886E+01 5.87712E+01 6.56163E-02-2.63972E+01 6.35270E-13 7.05214E-13
 -1      3374-1.65967E+01 5.28348E+01-2.58968E-01-2.61853E+01-8.43992E-13 6.58140E-13
 -1      3375-1.18045E+01 7.60288E+01 1.33307E-01-2.56958E+01-6.28608E-13-1.24345E-13
 -1      3376-1.46414E+01 7.03120E+01-1.14271E-01-2.59381E+01 3.88245E-13-2.82441E-13
 -1      3377-1.25657E+01 8.60453E+01-7.15942E-03-2.30934E+01-4.86722E-13-7.23865E-14
 -1      3378-1.47885E+01 8.15499E+01 1.19258E-01 2.40447E+01-6.88005E-13 3.75255E-13
 -1      3379-1.49080E+01 8.97727E+01 3.24143E-02 2.07003E+01 1.48104E-13-1.75193E-13
 -1      3380-1.60782E+01 6.57709E+01 1.34665E-01 2.65739E+01 3.12306E-13-1.04361E-13
 -1      3381-1.64223E+01 7.59872E+01-3.64297E-02 2.48597E+01 4.32543E-13 4.51861E-13
 -1      3382-1.72420E+01 4.84860E+01 8.61544E-02 2.63319E+01 2.94792E-13 2.70894E-13
 -1      3383-1.72460E+01 5.96101E+01-1.33472E-01 2.67103E+01 4.91107E-13 6.08402E-14
 -1      3384-1.89068E+01 3.16443E+01-4.86024E-02 2.31879E+01-9.15379E-13-1.13243E-13
 -1      3385-1.79134E+01 4.23234E+01-2.35053E-01 2.56226E+01-4.43090E-13 2.57572E-14
 -1      3386-2.12716E+01 1.73009E+01-2.51726E-01 1.77246E+01 3.07088E-13-2.60680E-13
 -1      3387-1.89366E+01 2.62576E+01-3.30760E-01 2.16262E+01-3.80140E-13-1.97620E-14
 -1      3388-2.38169E+01 7.05605E+00-4.62139E-01 1.09329E+01 3.15303E-14 3.25739E-13
 -1      3389-2.03869E+01 1.34437E+01-4.09317E-01 1.54106E+01-7.02771E-13-1.77414E-13
 -1      3390-2.55106E+01 1.78427E+00-5.97181E-01 3.66913E+00-1.53522E-12-1.31561E-13
 -1      3391-2.17640E+01 5.30322E+00-4.61551E-01 7.94208E+00-3.51275E-13 2.46470E-13
 -1      3392-2.55106E+01 1.78427E+00-5.97181E-01-3.66913E+00-8.97060E-14 2.32259E-13
 -1      3393-2.23384E+01 2.52959E+00-4.79994E-01-8.17391E-08 5.65326E-13-1.40155E-13
 -1      3394-2.38169E+01 7.05605E+00-4.62139E-01-1.09329E+01 5.91527E-13 1.52989E-13
 -1      3395-2.17640E+01 5.30322E+00-4.61551E-01-7.94208E+00 5.17364E-13 5.47895E-13
 -1      3396-2.12716E+01 1.73009E+01-2.51726E-01-1.77246E+01-2.19824E-14-7.14984E-14
 -1      3397-2.03869E+01 1.34437E+01-4.09317E-01-1.54106E+01 5.61107E-13-1.57874E-13
 -1      3398-1.89068E+01 3.16443E+01-4.86024E-02-2.31879E+01 7.66276E-13-1.64313E-13
 -1      3399-1.89366E+01 2.62576E+01-3.30760E-01-2.16262E+01-5.14699E-13 2.24487E-13
 -1      3400-1.72420E+01 4.84860E+01 8.61544E-02-2.63319E+01-2.93626E-13-1.64313E-13
 -1      3401-1.79134E+01 4.23234E+01-2.35053E-01-2.56226E+01-3.84692E-14-9.31255E-13
 -1      3402-1.60782E+01 6.57709E+01 1.34665E-01-2.65739E+01-1.14520E-12 1.65201E-13
 -1      3403-1.72460E+01 5.96101E+01-1.33472E-01-2.67103E+01-2.74725E-13 6.19282E-13
 -1      3404-1.47885E+01 8.15499E+01 1.19258E-01-2.40447E+01 2.75335E-13-8.14904E-14
 -1      3405-1.64223E+01 7.59872E+01-3.64297E-02-2.48597E+01-4.13558E-13 7.48290E-14
 -1      3406-1.49080E+01 8.97727E+01 3.24143E-02-2.07003E+01 9.72555E-14-7.62279E-13
 -1      3407-1.64268E+01 8.53710E+01 7.89767E-02 2.20676E+01 6.10623E-15-1.68310E-13
 -1      3408-1.59752E+01 9.20319E+01 5.97147E-02 1.83539E+01-3.84470E-13-6.63691E-13
 -1      3409-1.70983E+01 7.12839E+01 1.32714E-01 2.58400E+01-2.95430E-13 4.02567E-13
 -1      3410-1.71979E+01 8.01889E+01 1.14221E-02 2.32670E+01-2.79554E-13 1.50546E-13
 -1      3411-1.70542E+01 5.48759E+01 1.51526E-01 2.70385E+01-3.80723E-13-1.08358E-13
 -1      3412-1.73476E+01 6.52186E+01-6.20092E-02 2.62704E+01-3.49526E-13 2.97540E-13
 -1      3413-1.69434E+01 3.79490E+01 1.05533E-01 2.50742E+01-1.24767E-12 1.02807E-13
 -1      3414-1.68276E+01 4.84970E+01-1.35540E-01 2.64107E+01-6.72795E-14-4.11449E-13
 -1      3415-1.72711E+01 2.27654E+01-5.01058E-03 2.00849E+01-3.53939E-13-2.04281E-13
 -1      3416-1.62389E+01 3.21313E+01-1.97454E-01 2.32758E+01-1.28419E-12 2.39364E-13
 -1      3417-1.80234E+01 1.14389E+01-1.40004E-01 1.28576E+01-1.13065E-12 4.37650E-13
 -1      3418-1.59965E+01 1.84771E+01-2.39798E-01 1.72018E+01 1.67200E-13-5.30687E-13
 -1      3419-1.86700E+01 5.43414E+00-2.33245E-01 4.40691E+00 2.70894E-13 1.41165E-13
 -1      3420-1.60811E+01 9.49808E+00-2.62728E-01 9.09001E+00 7.95142E-13 1.02729E-12
 -1      3421-1.86700E+01 5.43414E+00-2.33245E-01-4.40691E+00 1.39710E-12 2.23044E-13
 -1      3422-1.61720E+01 6.37971E+00-2.69757E-01-8.18645E-08 6.23945E-13 3.18995E-13
 -1      3423-1.80234E+01 1.14389E+01-1.40004E-01-1.28576E+01-2.06946E-13 6.88338E-14
 -1      3424-1.60811E+01 9.49808E+00-2.62728E-01-9.09001E+00-6.80567E-13-1.63758E-13
 -1      3425-1.72711E+01 2.27654E+01-5.01058E-03-2.00849E+01 9.14824E-14 3.95239E-14
 -1      3426-1.59965E+01 1.84771E+01-2.39798E-01-1.72018E+01 6.01519E-13-2.07834E-13
 -1      3427-1.69434E+01 3.79490E+01 1.05533E-01-2.50742E+01-1.57518E-12-7.13651E-13
 -1      3428-1.62389E+01 3.21313E+01-1.97454E-01-2.32758E+01-1.00697E-13-3.85247E-13
 -1      3429-1.70542E+01 5.48759E+01 1.51526E-01-2.70385E+01 4.67806E-13 2.77334E-13
 -1      3430-1.68276E+01 4.84970E+01-1.35540E-01-2.64107E+01 1.65312E-13 1.75859E-13
 -1      3431-1.70983E+01 7.12839E+01 1.32714E-01-2.58400E+01-3.66429E-13 3.20410E-13
 -1      3432-1.73476E+01 6.52186E+01-6.20092E-02-2.62704E+01-2.89074E-13 2.46470E-13
 -1      3433-1.64268E+01 8.53710E+01 7.89767E-02-2.20676E+01 9.41469E-14-5.00489E-13
 -1      3434-1.71979E+01 8.01889E+01 1.14221E-02-2.32670E+01-2.01617E-13-2.18492E-13
 -1      3435-1.59752E+01 9.20319E+01 5.97147E-02-1.83539E+01 5.42899E-14-6.86118E-14
 -1      3436-1.70271E+01 8.78560E+01 3.34882E-02 1.99283E+01 5.64437E-13-5.24025E-13
 -1      3437-1.61133E+01 9.31846E+01 7.79363E-02 1.61167E+01 3.29292E-13 6.27942E-13
 -1      3438-1.73981E+01 7.55265E+01 1.00502E-01 2.44618E+01-1.32783E-13 2.64455E-13
 -1      3439-1.72031E+01 8.31827E+01 4.29750E-02 2.13582E+01-2.77223E-13-7.81153E-13
 -1      3440-1.66257E+01 6.03300E+01 1.54451E-01 2.67539E+01 6.86479E-13-1.67422E-13
 -1      3441-1.69971E+01 6.97781E+01-1.71956E-02 2.51232E+01 6.36380E-13 6.70575E-13
 -1      3442-1.52783E+01 4.38179E+01 1.63571E-01 2.58594E+01-8.58091E-13-2.34035E-13
 -1      3443-1.57304E+01 5.40012E+01-7.84699E-02 2.62531E+01-1.54377E-13-9.47020E-13
 -1      3444-1.40393E+01 2.83018E+01 1.16566E-01 2.14861E+01-4.98712E-13 6.37268E-14
 -1      3445-1.39956E+01 3.78140E+01-1.27051E-01 2.39671E+01 2.71005E-13 3.77476E-13
 -1      3446-1.33167E+01 1.62766E+01 3.66258E-02 1.41481E+01 1.97886E-12 2.76557E-13
 -1      3447-1.24448E+01 2.37509E+01-1.54318E-01 1.82376E+01 3.63043E-13 2.60680E-13
 -1      3448-1.30669E+01 9.73523E+00-2.50369E-02 4.92548E+00-1.56763E-13 1.66978E-13
 -1      3449-1.14754E+01 1.42167E+01-1.63882E-01 9.82896E+00 3.66818E-13 3.40727E-13
 -1      3450-1.30669E+01 9.73523E+00-2.50369E-02-4.92548E+00-9.68114E-13-1.86406E-13
 -1      3451-1.11615E+01 1.08500E+01-1.65408E-01-7.59895E-08-7.52287E-13-2.21453E-13
 -1      3452-1.33167E+01 1.62766E+01 3.66258E-02-1.41481E+01-8.80185E-13 2.05835E-13
 -1      3453-1.14754E+01 1.42167E+01-1.63882E-01-9.82896E+00-5.39346E-13-2.15161E-13
 -1      3454-1.40393E+01 2.83018E+01 1.16566E-01-2.14861E+01 1.06581E-12 6.32827E-14
 -1      3455-1.24448E+01 2.37509E+01-1.54318E-01-1.82376E+01-7.10321E-13 7.27862E-13
 -1      3456-1.52783E+01 4.38179E+01 1.63571E-01-2.58594E+01 1.58296E-12-5.70655E-14
 -1      3457-1.39956E+01 3.78140E+01-1.27051E-01-2.39671E+01 2.87770E-13-3.00204E-13
 -1      3458-1.66257E+01 6.03300E+01 1.54451E-01-2.67539E+01-3.65423E-13-1.28786E-13
 -1      3459-1.57304E+01 5.40012E+01-7.84699E-02-2.62531E+01 2.56517E-13-5.65104E-13
 -1      3460-1.73981E+01 7.55265E+01 1.00502E-01-2.44618E+01-4.18998E-13 1.27454E-13
 -1      3461-1.69971E+01 6.97781E+01-1.71956E-02-2.51232E+01-1.17739E-13 3.29070E-13
 -1      3462-1.70271E+01 8.78560E+01 3.34882E-02-1.99283E+01 5.53779E-13-3.33733E-13
 -1      3463-1.72031E+01 8.31827E+01 4.29750E-02-2.13582E+01 4.18665E-13-2.78888E-13
 -1      3464-1.61133E+01 9.31846E+01 7.79363E-02-1.61167E+01-1.50324E-13 3.05977E-13
 -1      3465-1.68577E+01 8.93178E+01-7.33149E-03 1.77510E+01-7.29417E-13 3.29958E-13
 -1      3466-1.56035E+01 9.35306E+01 8.87789E-02 1.40305E+01-4.32099E-13 2.18825E-13
 -1      3467-1.71258E+01 7.87064E+01 5.96239E-02 2.26626E+01 8.23064E-13-2.41362E-13
 -1      3468-1.66435E+01 8.52091E+01 6.41768E-02 1.92907E+01 5.95191E-13 3.10418E-13
 -1      3469-1.59747E+01 6.49168E+01 1.29118E-01 2.57269E+01-6.07986E-14 2.01617E-13
 -1      3470-1.62917E+01 7.34154E+01 1.36960E-02 2.34908E+01 6.26360E-13-2.09610E-13
 -1      3471-1.38310E+01 4.91968E+01 1.70913E-01 2.57515E+01 9.86267E-13-5.77760E-13
 -1      3472-1.46102E+01 5.88369E+01-4.16031E-02 2.53722E+01-1.93290E-13 3.57492E-14
 -1      3473-1.14485E+01 3.37823E+01 1.66734E-01 2.20637E+01 1.60538E-13 9.43690E-14
 -1      3474-1.21180E+01 4.32101E+01-8.68345E-02 2.38727E+01 8.46323E-13-3.95239E-13
 -1      3475-9.56169E+00 2.14142E+01 1.26612E-01 1.48724E+01-1.89626E-13 3.51386E-13
 -1      3476-9.60740E+00 2.91196E+01-1.11145E-01 1.86235E+01 8.04468E-13 1.75859E-13
 -1      3477-8.57190E+00 1.45288E+01 8.86536E-02 5.24441E+00-1.13776E-12-7.54397E-14
 -1      3478-7.81530E+00 1.92979E+01-1.17513E-01 1.02054E+01 2.98650E-13-1.08025E-13
 -1      3479-8.57190E+00 1.45288E+01 8.86536E-02-5.24441E+00-6.25278E-13-1.70419E-13
 -1      3480-7.17581E+00 1.57771E+01-1.17512E-01-6.61837E-08 3.99680E-14-1.42653E-13
 -1      3481-9.56169E+00 2.14142E+01 1.26612E-01-1.48724E+01 8.02469E-13 2.58349E-13
 -1      3482-7.81530E+00 1.92979E+01-1.17513E-01-1.02054E+01-6.12843E-13 5.07816E-13
 -1      3483-1.14485E+01 3.37823E+01 1.66734E-01-2.20637E+01-4.59632E-13-1.24345E-13
 -1      3484-9.60740E+00 2.91196E+01-1.11145E-01-1.86235E+01-3.89244E-13-2.28595E-13
 -1      3485-1.38310E+01 4.91968E+01 1.70912E-01-2.57515E+01-1.32472E-12-9.21485E-14
 -1      3486-1.21180E+01 4.32101E+01-8.68345E-02-2.38727E+01-2.75113E-13-1.04361E-13
 -1      3487-1.59747E+01 6.49168E+01 1.29118E-01-2.57269E+01 3.77379E-13-8.19345E-14
 -1      3488-1.46102E+01 5.88369E+01-4.16031E-02-2.53722E+01 3.10751E-13 2.90878E-14
 -1      3489-1.71258E+01 7.87064E+01 5.96239E-02-2.26626E+01-5.67046E-13 1.43441E-13
 -1      3490-1.62917E+01 7.34154E+01 1.36960E-02-2.34908E+01 4.39232E-13 3.44169E-13
 -1      3491-1.68577E+01 8.93178E+01-7.33149E-03-1.77510E+01 1.18439E-12 6.20615E-14
 -1      3492-1.66435E+01 8.52091E+01 6.41768E-02-1.92907E+01-1.90514E-13 3.30846E-14
 -1      3493-1.56035E+01 9.35306E+01 8.87789E-02-1.40305E+01-4.28768E-13 1.53544E-13
 -1      3494-1.61449E+01 9.00191E+01-3.96103E-02 1.56260E+01 3.22797E-13 4.28435E-13
 -1      3495-1.46681E+01 9.33124E+01 9.35659E-02 1.21199E+01-3.53606E-14-2.89990E-13
 -1      3496-1.64208E+01 8.10169E+01 2.06252E-02 2.06236E+01 4.68237E-13 1.02141E-14
 -1      3497-1.56925E+01 8.64800E+01 7.76532E-02 1.71843E+01 1.23956E-13 7.50733E-13
 -1      3498-1.51332E+01 6.87185E+01 9.40523E-02 2.41769E+01 5.63459E-13-1.92069E-13
 -1      3499-1.53239E+01 7.62591E+01 3.59199E-02 2.15586E+01-5.29646E-13-2.68008E-13
 -1      3500-1.25400E+01 5.40557E+01 1.53937E-01 2.49491E+01-4.81282E-14 1.38112E-13
 -1      3501-1.34677E+01 6.30257E+01-1.48377E-02 2.39682E+01-1.11522E-13-4.11227E-13
 -1      3502-9.38206E+00 3.90975E+01 1.78367E-01 2.19583E+01 1.96676E-12-2.24709E-13
 -1      3503-1.05315E+01 4.82474E+01-6.01346E-02 2.31600E+01 3.35842E-13 9.48797E-13
 -1      3504-6.62333E+00 2.67044E+01 1.67288E-01 1.51072E+01 8.09575E-13 2.22822E-13
 -1      3505-7.36726E+00 3.44525E+01-8.69852E-02 1.84694E+01-9.92539E-14-5.01155E-13
 -1      3506-5.04936E+00 1.96567E+01 1.47393E-01 5.38697E+00 1.76992E-12-2.00007E-13
 -1      3507-4.96848E+00 2.45866E+01-9.55662E-02 1.02708E+01 4.08118E-13 5.09370E-13
 -1      3508-5.04936E+00 1.96567E+01 1.47393E-01-5.38697E+00 7.93809E-13-2.53353E-13
 -1      3509-4.08010E+00 2.10007E+01-9.63139E-02-5.42047E-08 2.79776E-13-8.02271E-13
 -1      3510-6.62333E+00 2.67044E+01 1.67288E-01-1.51072E+01-1.28408E-12-7.32747E-15
 -1      3511-4.96848E+00 2.45866E+01-9.55662E-02-1.02708E+01-1.64757E-13-1.79134E-13
 -1      3512-9.38206E+00 3.90975E+01 1.78367E-01-2.19583E+01 4.47198E-13 3.83471E-13
 -1      3513-7.36726E+00 3.44525E+01-8.69852E-02-1.84694E+01-4.13336E-13 5.60552E-13
 -1      3514-1.25400E+01 5.40557E+01 1.53937E-01-2.49491E+01 2.42528E-13-6.97220E-14
 -1      3515-1.05315E+01 4.82474E+01-6.01346E-02-2.31600E+01 9.03055E-13-3.21854E-13
 -1      3516-1.51332E+01 6.87185E+01 9.40523E-02-2.41769E+01 3.22811E-13 2.60014E-13
 -1      3517-1.34677E+01 6.30257E+01-1.48377E-02-2.39682E+01 1.03029E-13 4.18776E-13
 -1      3518-1.64208E+01 8.10169E+01 2.06252E-02-2.06236E+01 9.63118E-15-8.28226E-14
 -1      3519-1.53239E+01 7.62591E+01 3.59199E-02-2.15586E+01 3.92381E-13-2.90878E-14
 -1      3520-1.61449E+01 9.00191E+01-3.96103E-02-1.56260E+01-7.41074E-14 5.57332E-14
 -1      3521-1.56925E+01 8.64800E+01 7.76532E-02-1.71843E+01 5.76705E-13-2.35367E-14
 -1      3522-1.46681E+01 9.33124E+01 9.35659E-02-1.21199E+01 7.97140E-14 7.54952E-14
 -1      3523-1.50729E+01 9.01739E+01-6.25936E-02 1.36147E+01 2.06279E-13 7.00551E-14
 -1      3524-1.34775E+01 9.27203E+01 9.35556E-02 1.03957E+01-2.53408E-13-5.25247E-13
 -1      3525-1.54080E+01 8.26316E+01-1.19600E-02 1.84866E+01-1.17531E-12 4.75620E-13
 -1      3526-1.44915E+01 8.71767E+01 8.48821E-02 1.51263E+01 7.31276E-13 1.20681E-13
 -1      3527-1.41410E+01 7.18247E+01 5.86504E-02 2.22907E+01 3.78545E-13-1.26898E-13
 -1      3528-1.41773E+01 7.84343E+01 5.15575E-02 1.94752E+01 8.39606E-14 5.14921E-13
 -1      3529-1.13606E+01 5.83857E+01 1.27096E-01 2.36352E+01 7.65832E-13 2.06501E-14
 -1      3530-1.23112E+01 6.66057E+01 5.76943E-03 2.22150E+01 2.59931E-13-1.46994E-13
 -1      3531-7.73599E+00 4.41589E+01 1.70313E-01 2.13095E+01-1.21170E-12 4.58522E-14
 -1      3532-9.17488E+00 5.28767E+01-3.96216E-02 2.19854E+01-1.96676E-13-1.72085E-14
 -1      3533-4.37087E+00 3.20132E+01 1.80677E-01 1.49333E+01-1.08902E-12 1.82965E-13
 -1      3534-5.61666E+00 3.96385E+01-7.03834E-02 1.78848E+01 3.39728E-13-2.71227E-13
 -1      3535-2.36189E+00 2.49679E+01 1.74857E-01 5.37882E+00-1.04405E-12-1.50546E-13
 -1      3536-2.80614E+00 2.99404E+01-8.32479E-02 1.00791E+01-5.54334E-13 3.89411E-13
 -1      3537-2.36189E+00 2.49679E+01 1.74857E-01-5.37882E+00 9.70335E-14-4.33042E-13
 -1      3538-1.74045E+00 2.63696E+01-8.57539E-02-4.14814E-08 2.10942E-13-2.41984E-13
 -1      3539-4.37087E+00 3.20132E+01 1.80677E-01-1.49333E+01-1.16807E-12 1.33893E-13
 -1      3540-2.80614E+00 2.99404E+01-8.32479E-02-1.00791E+01 3.35620E-13-7.62612E-13
 -1      3541-7.73599E+00 4.41589E+01 1.70313E-01-2.13095E+01-4.96492E-13 4.88720E-13
 -1      3542-5.61666E+00 3.96385E+01-7.03834E-02-1.78848E+01-5.89195E-13 1.01141E-12
 -1      3543-1.13606E+01 5.83857E+01 1.27096E-01-2.36352E+01 9.04887E-13 1.70974E-14
 -1      3544-9.17488E+00 5.28767E+01-3.96216E-02-2.19854E+01 3.27960E-13 1.48326E-13
 -1      3545-1.41410E+01 7.18247E+01 5.86504E-02-2.22907E+01 6.53024E-13 4.42646E-13
 -1      3546-1.23112E+01 6.66057E+01 5.76943E-03-2.22150E+01 5.28244E-13 1.94955E-13
 -1      3547-1.54080E+01 8.26316E+01-1.19600E-02-1.84866E+01 7.90062E-13-3.32401E-13
 -1      3548-1.41773E+01 7.84343E+01 5.15575E-02-1.94752E+01 2.88811E-13-1.34892E-13
 -1      3549-1.50729E+01 9.01739E+01-6.25936E-02-1.36147E+01-3.13083E-14-8.20455E-14
 -1      3550-1.44915E+01 8.71767E+01 8.48821E-02-1.51263E+01 5.61690E-13-2.02394E-13
 -1      3551-1.34775E+01 9.27203E+01 9.35556E-02-1.03957E+01 1.33893E-13-2.84162E-13
 -1      3552-1.37869E+01 8.99529E+01-7.69437E-02 1.17550E+01 5.26357E-13-8.47100E-14
 -1      3553-1.21575E+01 9.18995E+01 9.00840E-02 8.85857E+00-3.30291E-13 1.07581E-13
 -1      3554-1.41943E+01 8.37023E+01-3.66425E-02 1.63571E+01 9.48741E-13 9.47020E-14
 -1      3555-1.31512E+01 8.74504E+01 8.72754E-02 1.31761E+01 4.89303E-13 2.93821E-13
 -1      3556-1.30404E+01 7.43273E+01 2.73507E-02 2.02214E+01-6.58835E-13 1.30784E-13
 -1      3557-1.29231E+01 8.00582E+01 6.16978E-02 1.73555E+01 1.05874E-13-3.07865E-13
 -1      3558-1.02615E+01 6.21964E+01 9.79886E-02 2.19718E+01-2.93182E-13-2.13829E-13
 -1      3559-1.11532E+01 6.96265E+01 2.14930E-02 2.02584E+01-4.87749E-13 2.08722E-13
 -1      3560-6.42003E+00 4.88997E+01 1.52896E-01 2.02499E+01-3.27294E-13-1.95399E-14
 -1      3561-7.99846E+00 5.70702E+01-2.27329E-02 2.04894E+01 1.22458E-13-1.51101E-13
 -1      3562-2.68115E+00 3.72242E+01 1.79016E-01 1.44325E+01 7.28195E-13 8.90399E-14
 -1      3563-4.25882E+00 4.45876E+01-5.66117E-02 1.69741E+01-5.46230E-14 2.74225E-13
 -1      3564-3.74766E-01 3.03241E+01 1.84271E-01 5.24675E+00-7.27085E-13 1.37390E-14
 -1      3565-1.20635E+00 3.52339E+01-7.38403E-02 9.68386E+00-3.35842E-13-5.36848E-13
 -1      3566-3.74766E-01 3.03241E+01 1.84271E-01-5.24675E+00 5.63216E-13-2.85882E-13
 -1      3567-2.77253E-02 3.17477E+01-7.83225E-02-2.90909E-08-1.50546E-13 6.82805E-13
 -1      3568-2.68115E+00 3.72242E+01 1.79016E-01-1.44325E+01 1.89959E-13-6.97220E-14
 -1      3569-1.20635E+00 3.52339E+01-7.38403E-02-9.68386E+00 4.36318E-13-1.03906E-12
 -1      3570-6.42003E+00 4.88997E+01 1.52896E-01-2.02499E+01-1.22458E-13 5.94302E-13
 -1      3571-4.25882E+00 4.45876E+01-5.66117E-02-1.69741E+01 3.84581E-13 7.58393E-13
 -1      3572-1.02615E+01 6.21964E+01 9.79886E-02-2.19718E+01-9.17100E-13 9.79217E-14
 -1      3573-7.99846E+00 5.70702E+01-2.27329E-02-2.04894E+01 6.46094E-13-5.86198E-14
 -1      3574-1.30404E+01 7.43273E+01 2.73507E-02-2.02214E+01-1.44670E-13 9.81437E-14
 -1      3575-1.11532E+01 6.96265E+01 2.14930E-02-2.02584E+01-7.81625E-13 3.10085E-13
 -1      3576-1.41943E+01 8.37023E+01-3.66425E-02-1.63571E+01 5.26440E-13-1.55542E-13
 -1      3577-1.29231E+01 8.00582E+01 6.16978E-02-1.73555E+01-7.50108E-13-4.11893E-14
 -1      3578-1.37869E+01 8.99529E+01-7.69437E-02-1.17550E+01 1.02085E-13-3.90965E-13
 -1      3579-1.31512E+01 8.74504E+01 8.72754E-02-1.31761E+01-5.12368E-14-2.30926E-13
 -1      3580-1.21575E+01 9.18995E+01 9.00840E-02-8.85857E+00 7.41074E-13-3.28071E-13
 -1      3581-1.23965E+01 8.94864E+01-8.43007E-02 1.00672E+01 1.06998E-13 1.59595E-13
 -1      3582-1.07974E+01 9.09572E+01 8.43033E-02 7.50193E+00 1.88488E-13-3.77476E-15
 -1      3583-1.28675E+01 8.43562E+01-5.39787E-02 1.43097E+01-2.76612E-13 3.50830E-14
 -1      3584-1.17561E+01 8.74215E+01 8.51622E-02 1.13707E+01-4.58522E-13 6.55587E-14
 -1      3585-1.18722E+01 7.63150E+01 1.73363E-03 1.80889E+01 3.66677E-14-5.81757E-14
 -1      3586-1.16206E+01 8.12340E+01 6.64137E-02 1.52835E+01 2.91434E-13 6.31162E-14
 -1      3587-9.22226E+00 6.55115E+01 7.05208E-02 2.00965E+01-4.87638E-13-1.14353E-14
 -1      3588-1.00074E+01 7.21439E+01 3.26037E-02 1.82151E+01-2.79374E-13-2.27596E-13
 -1      3589-5.35753E+00 5.32746E+01 1.31787E-01 1.88999E+01-4.64406E-13 9.99201E-15
 -1      3590-6.96197E+00 6.08197E+01-8.45504E-03 1.87929E+01-7.10099E-13 9.14824E-14
 -1      3591-1.44125E+00 4.22407E+01 1.69034E-01 1.36829E+01-1.00164E-12 1.14908E-13
 -1      3592-3.20788E+00 4.92326E+01-4.37685E-02 1.58329E+01-5.25135E-14-1.73195E-14
 -1      3593 1.04014E+00 3.56047E+01 1.82874E-01 5.01726E+00 3.45945E-13-1.11577E-13
 -1      3594-5.62454E-02 4.03620E+01-6.47958E-02 9.13639E+00-1.71974E-13 1.57208E-13
 -1      3595 1.04014E+00 3.56047E+01 1.82874E-01-5.01726E+00-2.38698E-13-1.67144E-13
 -1      3596 1.17934E+00 3.70174E+01-7.12413E-02-1.77727E-08-3.74589E-13-2.22582E-14
 -1      3597-1.44125E+00 4.22407E+01 1.69034E-01-1.36829E+01 1.91891E-12 1.53544E-13
 -1      3598-5.62454E-02 4.03620E+01-6.47958E-02-9.13639E+00-6.45040E-13 1.80189E-13
 -1      3599-5.35753E+00 5.32746E+01 1.31787E-01-1.88999E+01-8.77631E-14 4.97935E-13
 -1      3600-3.20788E+00 4.92326E+01-4.37685E-02-1.58329E+01 3.66096E-13 1.63980E-13
 -1      3601-9.22226E+00 6.55115E+01 7.05208E-02-2.00965E+01 5.33490E-13-2.25153E-13
 -1      3602-6.96197E+00 6.08197E+01-8.45504E-03-1.87929E+01-3.58880E-13 2.93099E-14
 -1      3603-1.18722E+01 7.63150E+01 1.73363E-03-1.80889E+01-1.25392E-12-1.09579E-13
 -1      3604-1.00074E+01 7.21439E+01 3.26037E-02-1.82151E+01-5.68948E-13-7.07545E-13
 -1      3605-1.28675E+01 8.43562E+01-5.39787E-02-1.43097E+01-7.36577E-13 1.47604E-13
 -1      3606-1.16206E+01 8.12340E+01 6.64137E-02-1.52835E+01-6.55920E-13 2.63012E-13
 -1      3607-1.23965E+01 8.94864E+01-8.43007E-02-1.00672E+01 5.02404E-13-3.21687E-13
 -1      3608-1.17561E+01 8.74215E+01 8.51622E-02-1.13707E+01-4.15279E-13 8.34333E-14
 -1      3609-1.07974E+01 9.09572E+01 8.43033E-02-7.50193E+00-2.13385E-13-7.84373E-14
 -1      3610-1.09804E+01 8.88749E+01-8.54793E-02 8.55507E+00-1.81244E-13-2.80886E-14
 -1      3611-9.45621E+00 8.99640E+01 7.65112E-02 6.31292E+00-1.74305E-13-1.77913E-14
 -1      3612-1.14938E+01 8.47059E+01-6.22272E-02 1.23920E+01-3.35232E-13 8.93730E-14
 -1      3613-1.03617E+01 8.71924E+01 8.33127E-02 9.72890E+00-9.44383E-14-7.71050E-14
 -1      3614-1.06714E+01 7.78789E+01-1.49570E-02 1.59843E+01-3.31369E-13-1.68199E-14
 -1      3615-1.03077E+01 8.20655E+01 7.26116E-02 1.33165E+01 2.90927E-13 2.77001E-13
 -1      3616-8.22972E+00 6.83681E+01 4.81792E-02 1.81250E+01-4.22717E-14-2.10054E-13
 -1      3617-8.87817E+00 7.42323E+01 4.65658E-02 1.61748E+01 7.88744E-14-8.80962E-14
 -1      3618-4.48460E+00 5.72555E+01 1.09952E-01 1.73681E+01 1.17628E-13 1.99729E-13
 -1      3619-6.02838E+00 6.41449E+01 8.84636E-03 1.69971E+01 1.00325E-12-1.24567E-13
 -1      3620-5.50310E-01 4.69849E+01 1.53474E-01 1.27580E+01 7.75047E-13 5.49560E-14
 -1      3621-2.38885E+00 5.35336E+01-2.91948E-02 1.45467E+01 2.57239E-13 4.86888E-13
 -1      3622 2.00107E+00 4.07078E+01 1.73600E-01 4.71561E+00-1.25899E-13-2.17798E-13
 -1      3623 7.44436E-01 4.52409E+01-5.57534E-02 8.48474E+00-2.12830E-13-3.09280E-13
 -1      3624 2.00107E+00 4.07078E+01 1.73600E-01-4.71561E+00-5.65659E-13-2.69368E-13
 -1      3625 1.98957E+00 4.20792E+01-6.49432E-02-7.98632E-09-6.40599E-14-3.10824E-13
 -1      3626-5.50310E-01 4.69849E+01 1.53474E-01-1.27580E+01-1.08780E-12 4.61520E-13
 -1      3627 7.44436E-01 4.52409E+01-5.57534E-02-8.48474E+00-2.11831E-13-6.82232E-14
 -1      3628-4.48460E+00 5.72555E+01 1.09952E-01-1.73681E+01-6.13065E-13 1.20015E-13
 -1      3629-2.38885E+00 5.35336E+01-2.91948E-02-1.45467E+01-2.15383E-14 4.87221E-13
 -1      3630-8.22972E+00 6.83681E+01 4.81792E-02-1.81250E+01-1.03062E-12-5.00544E-13
 -1      3631-6.02838E+00 6.41449E+01 8.84636E-03-1.69971E+01 4.63518E-15-4.94882E-13
 -1      3632-1.06714E+01 7.78789E+01-1.49570E-02-1.59843E+01-4.55558E-13 8.91509E-14
 -1      3633-8.87817E+00 7.42323E+01 4.65658E-02-1.61748E+01 1.33053E-13-9.65894E-15
 -1      3634-1.14938E+01 8.47059E+01-6.22272E-02-1.23920E+01 5.19307E-13 2.36977E-13
 -1      3635-1.03077E+01 8.20655E+01 7.26116E-02-1.33165E+01 5.38666E-13 5.84310E-13
 -1      3636-1.09804E+01 8.88749E+01-8.54793E-02-8.55507E+00 1.17961E-14-1.84436E-13
 -1      3637-1.03617E+01 8.71924E+01 8.33127E-02-9.72890E+00 5.95426E-13-3.45501E-13
 -1      3638-9.45621E+00 8.99640E+01 7.65112E-02-6.31292E+00 9.99201E-14 1.21209E-13
 -1      3639-9.59188E+00 8.81888E+01-8.08667E-02 7.22366E+00 3.99680E-15 1.09801E-13
 -1      3640-1.01349E+01 8.48106E+01-7.13261E-02 1.06406E+01 3.29542E-13 9.32587E-15
 -1      3641-9.48442E+00 7.90447E+01-3.92735E-02 1.39777E+01-9.43343E-14 1.86962E-13
 -1      3642-7.29383E+00 7.07468E+01 1.26843E-02 1.61445E+01 1.34018E-13-1.07414E-13
 -1      3643-3.76318E+00 6.07879E+01 7.51025E-02 1.57344E+01 8.60312E-13-2.29816E-14
 -1      3644 7.24577E-02 5.13866E+01 1.30426E-01 1.17119E+01-1.24989E-12-1.28675E-13
 -1      3645 2.61316E+00 4.55598E+01 1.62328E-01 4.36078E+00-4.44533E-13-1.05471E-14
 -1      3646 2.61316E+00 4.55598E+01 1.62328E-01-4.36078E+00 8.67084E-13-1.95441E-13
 -1      3647 7.24577E-02 5.13866E+01 1.30426E-01-1.17119E+01 4.20664E-13 2.94209E-13
 -1      3648-3.76318E+00 6.07879E+01 7.51025E-02-1.57344E+01-2.21934E-13-5.07927E-14
 -1      3649-7.29383E+00 7.07468E+01 1.26843E-02-1.61445E+01 4.24050E-13-2.24598E-13
 -1      3650-9.48442E+00 7.90447E+01-3.92735E-02-1.39777E+01 3.76867E-13 3.93130E-13
 -1      3651-1.01349E+01 8.48106E+01-7.13261E-02-1.06406E+01 2.86202E-13-2.18714E-14
 -1      3652-9.59188E+00 8.81888E+01-8.08667E-02-7.22366E+00 1.24484E-13 5.37625E-14
 -1      3653 1.71468E+01 1.11146E+02 2.50637E+00 2.24263E+01-5.04874E-13-9.28840E-14
 -1      3654 1.90400E+01 9.45179E+01 1.71220E-01 1.96958E+01-2.00395E-13 9.69363E-14
 -1      3655 2.04051E+01 8.87009E+01 1.31315E-01 1.68929E+01-2.01200E-13 5.71349E-14
 -1      3656 2.07600E+01 8.50280E+01 5.07158E-02 1.49078E+01 1.98522E-14-1.75734E-13
 -1      3657 2.09453E+01 8.26978E+01 2.76300E-02 1.32822E+01-1.96239E-13-9.91152E-14
 -1      3658 2.10254E+01 8.10435E+01 1.99273E-02 1.19026E+01-4.76313E-13 2.09121E-13
 -1      3659 2.10610E+01 7.97961E+01 1.51927E-02 1.06975E+01-2.55213E-13-2.33633E-13
 -1      3660 2.10738E+01 7.88095E+01 1.28206E-02 9.62455E+00 3.95985E-13 2.13902E-13
 -1      3661 2.10740E+01 7.79996E+01 1.11665E-02 8.65545E+00-3.63983E-13-2.00801E-13
 -1      3662 2.10671E+01 7.73153E+01 9.99613E-03 7.77081E+00-1.78444E-13 1.80191E-13
 -1      3663 2.10560E+01 7.67242E+01 9.07678E-03 6.95674E+00 1.49949E-13 2.53270E-15
 -1      3664 2.10425E+01 7.62053E+01 8.32455E-03 6.20287E+00 3.34701E-13 1.07032E-13
 -1      3665 2.10277E+01 7.57450E+01 7.68684E-03 5.50121E+00 2.48471E-13-2.55447E-13
 -1      3666 2.10126E+01 7.53344E+01 7.13622E-03 4.84529E+00-3.50268E-13-3.08000E-14
 -1      3667 2.09977E+01 7.49681E+01 6.65639E-03 4.22971E+00-2.93732E-13 2.95889E-13
 -1      3668 2.32003E+00 9.93340E+01-5.27615E-01 1.07135E+01 2.39808E-14-7.91658E-14
 -1      3669 1.00693E+01 9.49427E+01 9.31157E-02 1.47335E+01 1.13271E-13-2.52961E-13
 -1      3670 1.41914E+01 9.01895E+01 2.11344E-01 1.50657E+01-8.78186E-14 5.53030E-14
 -1      3671 1.60299E+01 8.65187E+01 8.21993E-02 1.40073E+01-3.65638E-13 2.18152E-13
 -1      3672 1.71575E+01 8.40403E+01 4.65447E-02 1.27835E+01-2.25819E-13-3.18277E-13
 -1      3673 1.78550E+01 8.22318E+01 2.54734E-02 1.15968E+01-8.84084E-14 1.91545E-13
 -1      3674 1.83278E+01 8.08583E+01 1.53635E-02 1.04964E+01 1.18731E-13-3.02890E-13
 -1      3675 1.86634E+01 7.97684E+01 9.88597E-03 9.48478E+00-2.43774E-13 5.33934E-13
 -1      3676 1.89123E+01 7.88736E+01 6.71278E-03 8.55410E+00-2.28585E-13-5.35301E-13
 -1      3677 1.91036E+01 7.81181E+01 4.78956E-03 7.69487E+00 3.19363E-14 4.21174E-14
 -1      3678 1.92547E+01 7.74663E+01 3.55913E-03 6.89833E+00 6.79561E-14 1.51592E-13
 -1      3679 1.93769E+01 7.68950E+01 2.74431E-03 6.15697E+00 2.89487E-13 3.84874E-13
 -1      3680 1.94777E+01 7.63888E+01 2.18898E-03 5.46447E+00-1.71432E-13-8.04547E-13
 -1      3681 1.95619E+01 7.59378E+01 1.80441E-03 4.81545E+00 7.97661E-14 2.65193E-13
 -1      3682 1.96331E+01 7.55357E+01 1.53666E-03 4.20519E+00-1.95991E-13 3.88279E-13
 -1      3683 1.24435E+00 9.27986E+01-2.63136E-01 5.82634E+00 3.40561E-13-5.02376E-15
 -1      3684 5.43868E+00 9.26845E+01 8.97687E-02 1.03775E+01-3.35329E-13 1.78139E-13
 -1      3685 9.13702E+00 8.99261E+01 9.51290E-02 1.20628E+01-4.10769E-13 1.29090E-13
 -1      3686 1.17570E+01 8.72036E+01 7.79137E-02 1.21494E+01-8.41688E-14-2.17242E-13
 -1      3687 1.35235E+01 8.49717E+01 5.58029E-02 1.15996E+01-1.41803E-13 2.80418E-14
 -1      3688 1.47353E+01 8.32004E+01 3.52246E-02 1.08003E+01-1.63626E-13 1.47451E-14
 -1      3689 1.56034E+01 8.17941E+01 2.32315E-02 9.93349E+00 2.44249E-15-7.47007E-14
 -1      3690 1.62462E+01 8.06505E+01 1.55719E-02 9.06939E+00-1.27665E-13-2.67852E-13
 -1      3691 1.67384E+01 7.96987E+01 1.08050E-02 8.23633E+00 5.31204E-13 2.68553E-13
 -1      3692 1.71260E+01 7.88887E+01 7.73011E-03 7.44434E+00-1.42084E-13-1.70779E-13
 -1      3693 1.74387E+01 7.81866E+01 5.70232E-03 6.69584E+00 1.53280E-13 1.26250E-13
 -1      3694 1.76962E+01 7.75695E+01 4.33661E-03 5.98997E+00 2.57388E-13 2.87042E-13
 -1      3695 1.79118E+01 7.70217E+01 3.40410E-03 5.32456E+00 1.93016E-13-3.45774E-13
 -1      3696 1.80943E+01 7.65332E+01 2.76441E-03 4.69692E+00 8.18762E-13 7.75213E-14
 -1      3697 1.82502E+01 7.60973E+01 2.32815E-03 4.10415E+00-3.06213E-14-1.29818E-14
 -1      3698 4.94003E-01 8.83825E+01-1.99874E-01 3.61700E+00 2.01672E-13-2.48926E-13
 -1      3699 2.99685E+00 8.95965E+01-5.55694E-02 7.07992E+00-1.37584E-13-4.06966E-13
 -1      3700 5.90528E+00 8.87530E+01 2.66659E-02 9.15061E+00 1.72223E-13 3.55615E-13
 -1      3701 8.44648E+00 8.71043E+01 5.23957E-02 9.97881E+00-1.35517E-14-1.01065E-14
 -1      3702 1.04156E+01 8.53796E+01 4.59575E-02 1.00211E+01-5.55771E-13 6.82635E-14
 -1      3703 1.19117E+01 8.38364E+01 3.53626E-02 9.64809E+00 4.45831E-13 6.44016E-14
 -1      3704 1.30517E+01 8.25142E+01 2.60272E-02 9.07411E+00 1.68462E-13-2.76916E-13
 -1      3705 1.39336E+01 8.13890E+01 1.88827E-02 8.41173E+00-7.83748E-15 1.88543E-13
 -1      3706 1.46294E+01 8.04249E+01 1.38310E-02 7.72012E+00 7.73583E-14-8.38071E-14
 -1      3707 1.51892E+01 7.95889E+01 1.02831E-02 7.02966E+00 4.11407E-14 6.39003E-14
 -1      3708 1.56481E+01 7.88553E+01 7.80229E-03 6.35588E+00 4.13801E-14 1.71850E-14
 -1      3709 1.60303E+01 7.82050E+01 6.06062E-03 5.70650E+00 2.39725E-13 6.86473E-14
 -1      3710 1.63531E+01 7.76243E+01 4.83698E-03 5.08503E+00-2.62092E-13-4.06240E-13
 -1      3711 1.66283E+01 7.71040E+01 3.98121E-03 4.49264E+00-8.36588E-14 3.67006E-13
 -1      3712 1.68645E+01 7.66383E+01 3.39052E-03 3.92914E+00-3.47524E-13-3.21770E-13
 -1      3713 2.79259E-01 8.54304E+01-1.39652E-01 2.36000E+00 1.56188E-13-8.93868E-14
 -1      3714 1.84473E+00 8.71790E+01-5.58791E-02 4.91616E+00 2.08299E-13 2.41127E-14
 -1      3715 3.94891E+00 8.73003E+01-3.56299E-03 6.82656E+00 3.73847E-13 2.97096E-13
 -1      3716 6.07341E+00 8.65083E+01 2.20932E-02 7.91756E+00-1.98952E-13-3.93172E-13
 -1      3717 7.95254E+00 8.53535E+01 2.98512E-02 8.34190E+00 1.31992E-13 2.39019E-13
 -1      3718 9.51427E+00 8.41385E+01 2.85226E-02 8.31975E+00 2.56815E-13 1.30885E-14
 -1      3719 1.07835E+01 8.29909E+01 2.38396E-02 8.02571E+00 1.63758E-14-7.54011E-14
 -1      3720 1.18125E+01 8.19516E+01 1.89713E-02 7.57693E+00-6.92398E-14-1.81455E-13
 -1      3721 1.26521E+01 8.10229E+01 1.48252E-02 7.04612E+00-7.65811E-13-5.88379E-14
 -1      3722 1.33445E+01 8.01942E+01 1.15645E-02 6.47710E+00-1.22798E-13 2.46385E-13
 -1      3723 1.39224E+01 7.94522E+01 9.09638E-03 5.89614E+00 3.51948E-13-1.66954E-14
 -1      3724 1.44104E+01 7.87848E+01 7.26467E-03 5.31895E+00 1.97578E-13-8.69695E-14
 -1      3725 1.48266E+01 7.81825E+01 5.92630E-03 4.75487E+00-2.65125E-13-7.31056E-14
 -1      3726 1.51844E+01 7.76385E+01 4.96481E-03 4.20935E+00 4.31571E-13 4.26417E-14
 -1      3727 1.54933E+01 7.71484E+01 4.28999E-03 3.68532E+00 2.00808E-13 1.33712E-14
 -1      3728 1.63921E-01 8.33813E+01-9.98811E-02 1.57323E+00-1.92853E-13 1.31055E-13
 -1      3729 1.20510E+00 8.52525E+01-5.09813E-02 3.44006E+00-2.44527E-13-6.56697E-14
 -1      3730 2.72526E+00 8.59041E+01-1.95753E-02 5.03832E+00 1.73195E-14-5.33427E-14
 -1      3731 4.42833E+00 8.57122E+01 3.48047E-03 6.14395E+00 1.00683E-13 1.71155E-13
 -1      3732 6.07989E+00 8.50475E+01 1.56032E-02 6.75413E+00-9.62078E-14-6.44887E-13
 -1      3733 7.56264E+00 8.41739E+01 1.94210E-02 6.96685E+00-1.79863E-13 5.96455E-13
 -1      3734 8.84334E+00 8.32451E+01 1.89291E-02 6.89696E+00 4.04499E-13-1.79624E-13
 -1      3735 9.93093E+00 8.23375E+01 1.66888E-02 6.64010E+00-5.30798E-13 2.37137E-15
 -1      3736 1.08503E+01 8.14833E+01 1.40317E-02 6.26599E+00 2.49072E-14-3.53952E-14
 -1      3737 1.16292E+01 8.06924E+01 1.15616E-02 5.82257E+00-1.24799E-13-1.08474E-13
 -1      3738 1.22929E+01 7.99651E+01 9.48254E-03 5.34199E+00 2.73309E-13 2.85495E-13
 -1      3739 1.28624E+01 7.92978E+01 7.82589E-03 4.84557E+00 3.39780E-13-9.30775E-14
 -1      3740 1.33543E+01 7.86863E+01 6.55506E-03 4.34748E+00-5.73534E-14-2.82304E-13
 -1      3741 1.37812E+01 7.81275E+01 5.61274E-03 3.85702E+00 2.39749E-13 1.21014E-13
 -1      3742 1.41526E+01 7.76192E+01 4.94006E-03 3.38020E+00 6.57599E-14 2.33274E-13
 -1      3743 1.05787E-01 8.19482E+01-7.49857E-02 1.04794E+00 1.39333E-14 2.52715E-13
 -1      3744 8.30704E-01 8.37845E+01-4.15693E-02 2.40382E+00 1.43878E-14-1.11376E-13
 -1      3745 1.94597E+00 8.46962E+01-2.27842E-02 3.68254E+00 4.02942E-14-1.32564E-13
 -1      3746 3.28464E+00 8.48882E+01-6.21589E-03 4.68426E+00-3.67470E-13-2.13024E-14
 -1      3747 4.67770E+00 8.45983E+01 5.17163E-03 5.34458E+00-5.80855E-14-3.68528E-13
 -1      3748 6.01033E+00 8.40292E+01 1.11768E-02 5.68721E+00 1.49443E-13 3.77694E-13
 -1      3749 7.22445E+00 8.33233E+01 1.33115E-02 5.77329E+00-2.06581E-13 6.06589E-14
 -1      3750 8.30125E+00 8.25684E+01 1.32052E-02 5.66894E+00 4.05138E-13 1.25870E-13
 -1      3751 9.24378E+00 8.18135E+01 1.20508E-02 5.43121E+00 7.85726E-14-1.02520E-13
 -1      3752 1.00648E+01 8.10836E+01 1.05501E-02 5.10459E+00 2.33907E-13-1.69532E-13
 -1      3753 1.07802E+01 8.03904E+01 9.06672E-03 4.72215E+00-4.00860E-14 2.34278E-13
 -1      3754 1.14050E+01 7.97385E+01 7.76628E-03 4.30788E+00 3.37959E-14-1.84016E-14
 -1      3755 1.19525E+01 7.91297E+01 6.70705E-03 3.87902E+00-1.63675E-13-1.09593E-13
 -1      3756 1.24334E+01 7.85648E+01 5.89387E-03 3.44785E+00 6.42784E-14 1.20244E-13
 -1      3757 1.28558E+01 7.80447E+01 5.30623E-03 3.02301E+00-9.34669E-15-2.40100E-13
 -1      3758 7.11122E-02 8.09516E+01-5.76736E-02 6.79639E-01-2.77247E-13 2.49641E-13
 -1      3759 5.94517E-01 8.26783E+01-3.31670E-02 1.65356E+00 3.15470E-13-1.94011E-13
 -1      3760 1.42651E+00 8.36989E+01-2.20203E-02 2.64910E+00 2.93657E-13 5.24858E-14
 -1      3761 2.47593E+00 8.41240E+01-1.06700E-02 3.50383E+00 5.82451E-13-9.83796E-14
 -1      3762 3.62738E+00 8.41029E+01-1.32037E-03 4.13640E+00-2.71737E-13-3.27488E-13
 -1      3763 4.78627E+00 8.37817E+01 4.87480E-03 4.53104E+00-3.04631E-13 1.94964E-13
 -1      3764 5.89127E+00 8.32785E+01 8.19748E-03 4.71098E+00 5.61322E-14-6.80983E-14
 -1      3765 6.91048E+00 8.26771E+01 9.47084E-03 4.71546E+00-4.11938E-13 2.78869E-13
 -1      3766 7.83252E+00 8.20322E+01 9.50491E-03 4.58580E+00 1.06651E-13-9.67976E-14
 -1      3767 8.65811E+00 8.13772E+01 8.90336E-03 4.35881E+00 1.59896E-13 1.42874E-13
 -1      3768 9.39400E+00 8.07319E+01 8.05662E-03 4.06485E+00-2.74464E-13 3.70034E-14
 -1      3769 1.00491E+01 8.01076E+01 7.19208E-03 3.72793E+00 1.06141E-13-1.25053E-13
 -1      3770 1.06324E+01 7.95114E+01 6.42958E-03 3.36662E+00 1.47160E-13-4.00675E-13
 -1      3771 1.11516E+01 7.89480E+01 5.82284E-03 2.99506E+00 3.27970E-13 1.82905E-13
 -1      3772 1.16129E+01 7.84215E+01 5.38629E-03 2.62384E+00-1.23263E-13 2.03612E-13
 -1      3773 4.93263E-02 8.02727E+01-4.53992E-02 4.12650E-01 4.74655E-14 4.15085E-14
 -1      3774 4.36935E-01 8.18600E+01-2.63051E-02 1.09773E+00 1.79641E-13-3.54196E-13
 -1      3775 1.06682E+00 8.29024E+01-1.95780E-02 1.85507E+00-9.84421E-14 2.83520E-13
 -1      3776 1.89062E+00 8.34585E+01-1.20365E-02 2.55620E+00-1.70627E-13-1.26739E-13
 -1      3777 2.83210E+00 8.36203E+01-4.94950E-03 3.12126E+00 1.05999E-13-1.24397E-13
 -1      3778 3.81930E+00 8.34896E+01 5.11393E-04 3.51647E+00-1.17881E-13 5.33774E-14
 -1      3779 4.79757E+00 8.31581E+01 4.08648E-03 3.74146E+00-6.74183E-14-1.87810E-13
 -1      3780 5.73179E+00 8.26983E+01 6.05224E-03 3.81488E+00 1.80377E-14 4.78344E-13
 -1      3781 6.60315E+00 8.21631E+01 6.86613E-03 3.76342E+00-1.35059E-13-1.45337E-13
 -1      3782 7.40429E+00 8.15886E+01 6.96286E-03 3.61496E+00 4.90372E-13-2.62056E-14
 -1      3783 8.13489E+00 8.09990E+01 6.67840E-03 3.39519E+00-2.16771E-14-1.37911E-15
 -1      3784 8.79823E+00 8.04104E+01 6.24378E-03 3.12632E+00-9.95384E-14 1.71268E-14
 -1      3785 9.39899E+00 7.98338E+01 5.80447E-03 2.82682E+00-1.67564E-13-4.18406E-14
 -1      3786 9.94176E+00 7.92776E+01 5.44361E-03 2.51170E+00-2.66176E-14-8.09486E-14
 -1      3787 1.04303E+01 7.87489E+01 5.20097E-03 2.19286E+00 6.81333E-13 5.71920E-14
 -1      3788 3.46229E-02 7.98305E+01-3.62138E-02 2.14838E-01-3.32262E-13-1.87003E-14
 -1      3789 3.26186E-01 8.12686E+01-2.08310E-02 6.79103E-01-1.29686E-13-3.10665E-13
 -1      3790 8.07576E-01 8.22830E+01-1.67672E-02 1.24057E+00 3.25856E-13 2.99698E-13
 -1      3791 1.45512E+00 8.29029E+01-1.18578E-02 1.79776E+00 2.58130E-13-1.66950E-13
 -1      3792 2.21950E+00 8.31832E+01-6.71069E-03 2.27883E+00 1.74586E-13-1.93446E-13
 -1      3793 3.04841E+00 8.31929E+01-2.27240E-03 2.64366E+00 4.14255E-13 1.89154E-14
 -1      3794 3.89723E+00 8.30000E+01 1.03361E-03 2.87863E+00-3.89314E-13 1.95769E-13
 -1      3795 4.73316E+00 8.26637E+01 3.19615E-03 2.98827E+00 3.24012E-14 5.03191E-14
 -1      3796 5.53505E+00 8.22305E+01 4.42129E-03 2.98750E+00 9.56388E-14-1.35498E-13
 -1      3797 6.29121E+00 8.17356E+01 4.98031E-03 2.89584E+00 2.76078E-13 9.13557E-14
 -1      3798 6.99653E+00 8.12044E+01 5.12576E-03 2.73381E+00 2.15116E-13-5.87599E-14
 -1      3799 7.64999E+00 8.06555E+01 5.05847E-03 2.52087E+00-3.44412E-14 2.14034E-13
 -1      3800 8.25255E+00 8.01027E+01 4.92271E-03 2.27451E+00-2.31433E-13-1.70459E-13
 -1      3801 8.80580E+00 7.95571E+01 4.81301E-03 2.00985E+00-3.76400E-13-4.62012E-14
 -1      3802 9.31101E+00 7.90285E+01 4.78357E-03 1.73956E+00-4.33056E-14 1.95261E-13
 -1      3803 2.41310E-02 7.95670E+01-2.90832E-02 6.67926E-02 1.68294E-13 1.37876E-14
 -1      3804 2.44584E-01 8.08561E+01-1.64654E-02 3.61216E-01-1.35609E-13-2.89917E-13
 -1      3805 6.13412E-01 8.18148E+01-1.40448E-02 7.63539E-01-3.06912E-13 2.81161E-13
 -1      3806 1.12137E+00 8.24548E+01-1.09306E-02 1.19277E+00 3.29903E-13-2.97252E-13
 -1      3807 1.73742E+00 8.28072E+01-7.32030E-03 1.58649E+00 1.64405E-13 3.98605E-14
 -1      3808 2.42486E+00 8.29167E+01-3.90603E-03 1.90418E+00 5.75200E-14-2.00916E-14
 -1      3809 3.14927E+00 8.28323E+01-1.10426E-03 2.12561E+00-1.88870E-13 2.12949E-13
 -1      3810 3.88269E+00 8.25994E+01 9.48248E-04 2.24640E+00 1.83947E-13-3.66903E-14
 -1      3811 4.60486E+00 8.22570E+01 2.30427E-03 2.27290E+00 6.07292E-14-2.26451E-14
 -1      3812 5.30258E+00 8.18365E+01 3.11051E-03 2.21775E+00-2.25930E-13 1.10663E-13
 -1      3813 5.96816E+00 8.13625E+01 3.53896E-03 2.09663E+00-1.83843E-13-6.07392E-14
 -1      3814 6.59766E+00 8.08539E+01 3.74819E-03 1.92611E+00 1.72317E-13-1.35344E-13
 -1      3815 7.18928E+00 8.03262E+01 3.86645E-03 1.72228E+00-2.84113E-14-2.63765E-14
 -1      3816 7.74205E+00 7.97923E+01 3.98720E-03 1.49998E+00 3.16122E-13 7.90829E-14
 -1      3817 8.25494E+00 7.92640E+01 4.17018E-03 1.27231E+00 4.42233E-13-1.86655E-14
 -1      3818 1.62068E-02 7.94392E+01-2.33381E-02-4.37116E-02-1.62569E-13-1.87787E-13
 -1      3819 1.81690E-01 8.05845E+01-1.29326E-02 1.20152E-01 5.63410E-13-6.57356E-14
 -1      3820 4.62333E-01 8.14731E+01-1.15707E-02 3.94404E-01-3.08833E-14-6.69950E-15
 -1      3821 8.57526E-01 8.21057E+01-9.69034E-03 7.13365E-01-1.67708E-13-9.62841E-14
 -1      3822 1.34872E+00 8.24975E+01-7.25590E-03 1.02347E+00-1.52742E-14-3.39711E-14
 -1      3823 1.91114E+00 8.26759E+01-4.75004E-03 1.28646E+00-7.81129E-14-6.63532E-14
 -1      3824 2.51948E+00 8.26743E+01-2.52309E-03 1.47956E+00-9.82981E-14-1.64336E-13
 -1      3825 3.15143E+00 8.25261E+01-7.47735E-04 1.59326E+00-1.40927E-13 4.73474E-13
 -1      3826 3.78937E+00 8.22621E+01 5.48463E-04 1.62809E+00-8.45686E-13-1.56913E-13
 -1      3827 4.42057E+00 8.19086E+01 1.42996E-03 1.59152E+00-2.53459E-13-8.27836E-14
 -1      3828 5.03649E+00 8.14877E+01 2.00515E-03 1.49527E+00 1.76912E-13 3.25490E-13
 -1      3829 5.63164E+00 8.10176E+01 2.39236E-03 1.35328E+00-1.41968E-13 4.02601E-14
 -1      3830 6.20241E+00 8.05139E+01 2.69937E-03 1.18027E+00-4.73926E-13-3.54481E-13
 -1      3831 6.74594E+00 7.99907E+01 3.01262E-03 9.90707E-01 1.50931E-13 3.15580E-14
 -1      3832 7.25928E+00 7.94612E+01 3.39204E-03 7.98029E-01-2.16686E-13 9.11180E-14
 -1      3833 9.88199E-03 7.94136E+01-1.85595E-02-1.24579E-01-4.42349E-14-2.34431E-14
 -1      3834 1.31078E-01 8.04230E+01-1.00187E-02-6.00750E-02 8.11642E-14-9.38971E-14
 -1      3835 3.40294E-01 8.12353E+01-9.37192E-03 1.12342E-01 1.98395E-13-8.83529E-14
 -1      3836 6.42233E-01 8.18440E+01-8.35480E-03 3.38404E-01-7.85951E-14 3.01086E-13
 -1      3837 1.02702E+00 8.22534E+01-6.81172E-03 5.72160E-01 1.38745E-13-2.23618E-13
 -1      3838 1.47893E+00 8.24780E+01-5.07098E-03 7.78693E-01-8.83529E-14 1.00746E-13
 -1      3839 1.98031E+00 8.25389E+01-3.40658E-03 9.34945E-01-2.56925E-13 3.90157E-14
 -1      3840 2.51447E+00 8.24592E+01-1.98462E-03 1.02879E+00-1.06188E-13 1.11546E-13
 -1      3841 3.06722E+00 8.22617E+01-8.67066E-04 1.05717E+00 1.80737E-13-2.83432E-13
 -1      3842 3.62752E+00 8.19673E+01-3.74274E-05 1.02394E+00-8.85906E-14 1.96635E-13
 -1      3843 4.18729E+00 8.15943E+01 5.69136E-04 9.37835E-01-2.88013E-13 3.42920E-14
 -1      3844 4.74066E+00 8.11591E+01 1.03969E-03 8.10736E-01 1.59733E-13-6.95058E-14
 -1      3845 5.28315E+00 8.06767E+01 1.46408E-03 6.56291E-01-3.36692E-13-1.55641E-13
 -1      3846 5.81072E+00 8.01612E+01 1.92134E-03 4.88763E-01 8.99558E-14 3.19171E-14
 -1      3847 6.31898E+00 7.96272E+01 2.47035E-03 3.22070E-01 8.44758E-14 3.26486E-15
 -1      3848 4.55548E-03 7.94636E+01-1.44731E-02-1.81023E-01-6.89086E-14-2.28671E-14
 -1      3849 8.86637E-02 8.03465E+01-7.56231E-03-1.90328E-01 5.84139E-13-1.58842E-13
 -1      3850 2.38108E-01 8.10818E+01-7.42627E-03-9.74117E-02-5.29255E-14 3.57376E-13
 -1      3851 4.60993E-01 8.16578E+01-7.02849E-03 5.20114E-02 4.84108E-13-1.91463E-13
 -1      3852 7.53626E-01 8.20708E+01-6.16337E-03 2.18325E-01-4.03896E-14-1.69689E-13
 -1      3853 1.10712E+00 8.23260E+01-5.05214E-03 3.70151E-01-1.49049E-13 8.66321E-15
 -1      3854 1.51016E+00 8.24343E+01-3.90185E-03 4.85364E-01-3.03540E-13 1.51407E-13
 -1      3855 1.95116E+00 8.24101E+01-2.85593E-03 5.50860E-01 1.50614E-13-5.69388E-14
 -1      3856 2.41965E+00 8.22689E+01-1.98516E-03 5.61547E-01-1.42008E-13 1.16488E-13
 -1      3857 2.90701E+00 8.20258E+01-1.29704E-03 5.18962E-01 8.95412E-14-2.58448E-14
 -1      3858 3.40649E+00 8.16952E+01-7.52679E-04 4.29802E-01-8.88178E-14-2.51947E-14
 -1      3859 3.91282E+00 8.12907E+01-2.85159E-04 3.04547E-01-3.54125E-13 6.97649E-14
 -1      3860 4.42150E+00 8.08256E+01 1.83891E-04 1.56215E-01-6.58449E-14-1.88244E-13
 -1      3861 4.92805E+00 8.03138E+01 7.29968E-04-7.73958E-04-4.97151E-13-1.99135E-15
 -1      3862 5.42719E+00 7.97702E+01 1.41343E-03-1.51687E-01-8.23282E-14 1.67808E-14
 -1      3863-1.53535E-04 7.95667E+01-1.08994E-02-2.16527E-01 1.32947E-13-1.75544E-13
 -1      3864 5.18052E-02 8.03336E+01-5.44660E-03-2.78099E-01 5.79244E-14-7.02563E-15
 -1      3865 1.49700E-01 8.09950E+01-5.69666E-03-2.45406E-01-5.07918E-13-9.90319E-14
 -1      3866 3.03928E-01 8.15350E+01-5.75578E-03-1.57673E-01-1.30798E-15 4.15241E-14
 -1      3867 5.15312E-01 8.19439E+01-5.41082E-03-4.93113E-02-1.33469E-13-2.53029E-13
 -1      3868 7.80201E-01 8.22195E+01-4.81241E-03 5.16710E-02-2.44860E-13 2.18003E-14
 -1      3869 1.09244E+00 8.23648E+01-4.11580E-03 1.24646E-01 7.41473E-14 1.48425E-13
 -1      3870 1.44494E+00 8.23867E+01-3.43932E-03 1.56496E-01-1.15274E-13 4.34089E-14
 -1      3871 1.83090E+00 8.22939E+01-2.85041E-03 1.41161E-01-2.69014E-13-4.03011E-14
 -1      3872 2.24449E+00 8.20959E+01-2.36575E-03 7.88235E-02 1.45025E-13 1.08050E-13
 -1      3873 2.68093E+00 8.18026E+01-1.95911E-03-2.50687E-02 7.16614E-15 2.10051E-13
 -1      3874 3.13630E+00 8.14245E+01-1.57316E-03-1.60822E-01-1.18410E-13-1.08150E-13
 -1      3875 3.60690E+00 8.09725E+01-1.13275E-03-3.15533E-01 9.08908E-14-6.11779E-14
 -1      3876 4.08854E+00 8.04594E+01-5.59120E-04-4.74150E-01 2.13343E-13-4.41619E-14
 -1      3877 4.57564E+00 7.99001E+01 2.15587E-04-6.20630E-01 2.38040E-13-5.91990E-14
 -1      3878-4.48507E-03 7.97039E+01-7.72314E-03-2.33462E-01 6.29991E-14 5.20139E-14
 -1      3879 1.88041E-02 8.03661E+01-3.58891E-03-3.28646E-01-6.72596E-14-3.66958E-13
 -1      3880 7.10842E-02 8.09593E+01-4.14600E-03-3.39287E-01-6.69949E-13 1.24196E-13
 -1      3881 1.64391E-01 8.14640E+01-4.55055E-03-2.99557E-01 3.99332E-13 2.52402E-13
 -1      3882 3.02926E-01 8.18659E+01-4.60759E-03-2.39579E-01 4.29969E-13-1.93885E-13
 -1      3883 4.87072E-01 8.21565E+01-4.42420E-03-1.84308E-01 3.38383E-13-1.23811E-13
 -1      3884 7.14820E-01 8.23325E+01-4.11937E-03-1.52685E-01-2.73601E-14-3.68976E-15
 -1      3885 9.82995E-01 8.23943E+01-3.79048E-03-1.57325E-01 6.33001E-14 1.94359E-13
 -1      3886 1.28825E+00 8.23445E+01-3.49779E-03-2.04613E-01 2.38103E-13 6.84461E-14
 -1      3887 1.62764E+00 8.21871E+01-3.25945E-03-2.95077E-01-5.20696E-13-2.81572E-13
 -1      3888 1.99886E+00 8.19275E+01-3.05309E-03-4.23944E-01 1.18032E-13 1.27215E-13
 -1      3889 2.39996E+00 8.15722E+01-2.82227E-03-5.81801E-01 1.19084E-13 1.64853E-13
 -1      3890 2.82877E+00 8.11293E+01-2.48654E-03-7.55374E-01-3.57754E-13-3.65219E-13
 -1      3891 3.28214E+00 8.06097E+01-1.95495E-03-9.28456E-01 4.20910E-13 1.54124E-13
 -1      3892 3.75493E+00 8.00275E+01-1.14283E-03-1.08307E+00 2.66060E-13 1.13534E-13
 -1      3893-8.58053E-03 7.98582E+01-4.87494E-03-2.33497E-01-1.57185E-13-2.24541E-13
 -1      3894-1.13731E-02 8.04279E+01-1.93346E-03-3.45792E-01-1.00128E-13-2.97349E-13
 -1      3895-2.27908E-04 8.09608E+01-2.74316E-03-3.84754E-01-1.71804E-13 2.58137E-13
 -1      3896 3.81235E-02 8.14341E+01-3.41217E-03-3.80461E-01 6.85630E-13 6.80133E-14
 -1      3897 1.10440E-01 8.18294E+01-3.77903E-03-3.59442E-01-3.24744E-13-2.04581E-13
 -1      3898 2.20198E-01 8.21334E+01-3.92738E-03-3.43944E-01 9.28051E-14 1.37989E-13
 -1      3899 3.68693E-01 8.23374E+01-3.95400E-03-3.51244E-01-8.90685E-14-3.49636E-13
 -1      3900 5.56047E-01 8.24361E+01-3.94232E-03-3.93257E-01 2.86117E-14 5.36162E-13
 -1      3901 7.82050E-01 8.24266E+01-3.94674E-03-4.76376E-01-1.33822E-13-1.66494E-14
 -1      3902 1.04672E+00 8.23078E+01-3.98448E-03-6.01502E-01-1.77231E-13-3.05810E-13
 -1      3903 1.35045E+00 8.20799E+01-4.03250E-03-7.64206E-01-6.08021E-15 1.08563E-13
 -1      3904 1.69383E+00 8.17453E+01-4.02913E-03-9.55024E-01-3.74610E-13 2.70964E-14
 -1      3905 2.07697E+00 8.13084E+01-3.88067E-03-1.15993E+00 4.84300E-14-6.23438E-14
 -1      3906 2.49857E+00 8.07774E+01-3.47378E-03-1.36105E+00 4.20261E-13 2.10205E-14
 -1      3907 2.95481E+00 8.01650E+01-2.69424E-03-1.53776E+00 5.03752E-13 2.45508E-13
 -1      3908-1.25051E-02 8.00143E+01-2.32081E-03-2.17904E-01-6.30954E-13-2.15885E-13
 -1      3909-3.92546E-02 8.05047E+01-4.46118E-04-3.32506E-01-2.54010E-13-8.48072E-14
 -1      3910-6.55786E-02 8.09868E+01-1.46539E-03-3.86297E-01-1.62562E-13 7.99187E-14
 -1      3911-7.72610E-02 8.14350E+01-2.33448E-03-4.05847E-01-2.72157E-13-1.79955E-13
 -1      3912-6.56363E-02 8.18271E+01-2.93420E-03-4.14569E-01-4.71648E-13 9.58851E-14
 -1      3913-2.49199E-02 8.21459E+01-3.33982E-03-4.32320E-01 5.63182E-13 6.02721E-14
 -1      3914 4.87365E-02 8.23781E+01-3.63804E-03-4.74857E-01 5.14614E-14-6.91704E-14
 -1      3915 1.58144E-01 8.25136E+01-3.90655E-03-5.53414E-01-4.81734E-13 8.95885E-14
 -1      3916 3.05864E-01 8.25445E+01-4.19841E-03-6.74351E-01 2.18662E-13 1.09998E-13
 -1      3917 4.94749E-01 8.24644E+01-4.53174E-03-8.38877E-01 1.11884E-13-2.24440E-13
 -1      3918 7.28136E-01 8.22687E+01-4.88236E-03-1.04285E+00 6.04924E-14 1.75386E-13
 -1      3919 1.00960E+00 8.19547E+01-5.18052E-03-1.27665E+00-3.09423E-13 6.45380E-14
 -1      3920 1.34228E+00 8.15224E+01-5.31301E-03-1.52530E+00-4.84793E-13-3.26206E-13
 -1      3921 1.72771E+00 8.09763E+01-5.13321E-03-1.76885E+00-9.83172E-14 3.85816E-14
 -1      3922 2.16436E+00 8.03266E+01-4.48125E-03-1.98330E+00 1.17961E-16 1.86321E-13
 -1      3923-1.62593E-02 8.01584E+01-5.53110E-05-1.87806E-01-3.44470E-13-3.80902E-14
 -1      3924-6.49543E-02 8.05835E+01 8.89206E-04-2.91359E-01 4.80879E-13-1.81811E-13
 -1      3925-1.25370E-01 8.10260E+01-2.99228E-04-3.47796E-01 1.56121E-13-1.45335E-14
 -1      3926-1.82593E-01 8.14569E+01-1.31110E-03-3.80441E-01 5.94338E-13-9.24521E-14
 -1      3927-2.26624E-01 8.18512E+01-2.07375E-03-4.09885E-01-8.59534E-14 1.72388E-13
 -1      3928-2.50081E-01 8.21885E+01-2.66537E-03-4.53850E-01-2.85540E-13 5.88548E-14
 -1      3929-2.47284E-01 8.24516E+01-3.17285E-03-5.26781E-01-3.32418E-13-2.69776E-13
 -1      3930-2.13363E-01 8.26264E+01-3.67655E-03-6.39404E-01-1.03112E-14 2.61427E-13
 -1      3931-1.43441E-01 8.27003E+01-4.23498E-03-7.98221E-01-1.47877E-14 6.30568E-14
 -1      3932-3.20397E-02 8.26621E+01-4.87254E-03-1.00496E+00-3.44534E-13-1.73100E-13
 -1      3933 1.27184E-01 8.25017E+01-5.56779E-03-1.25598E+00-6.10744E-14 1.62403E-13
 -1      3934 3.41234E-01 8.22110E+01-6.24431E-03-1.54173E+00 2.33849E-13 5.90712E-14
 -1      3935 6.17021E-01 8.17844E+01-6.76625E-03-1.84633E+00 1.23554E-13-2.18152E-13
 -1      3936 9.60006E-01 8.12215E+01-6.94363E-03-2.14753E+00-3.23725E-13 9.98090E-14
 -1      3937 1.37229E+00 8.05285E+01-6.55163E-03-2.41730E+00-4.65863E-13 5.00607E-14
 -1      3938-1.97847E-02 8.02776E+01 1.90299E-03-1.44374E-01-7.90808E-14-1.49629E-14
 -1      3939-8.82255E-02 8.06529E+01 2.07297E-03-2.24922E-01-1.92283E-13-7.56738E-14
 -1      3940-1.79192E-01 8.10677E+01 7.59086E-04-2.73037E-01-2.31692E-13-7.07186E-14
 -1      3941-2.77340E-01 8.14905E+01-3.39069E-04-3.08805E-01 3.67860E-13 4.28477E-16
 -1      3942-3.71902E-01 8.18940E+01-1.19589E-03-3.50121E-01-2.53571E-13 1.35269E-13
 -1      3943-4.54588E-01 8.22551E+01-1.90066E-03-4.12751E-01-1.19532E-13-1.62500E-14
 -1      3944-5.18623E-01 8.25539E+01-2.54875E-03-5.10055E-01 8.29319E-14-6.60075E-14
 -1      3945-5.57771E-01 8.27725E+01-3.23135E-03-6.52527E-01 4.32571E-14 1.26396E-13
 -1      3946-5.65412E-01 8.28945E+01-4.02066E-03-8.47167E-01-1.09134E-13 6.51777E-14
 -1      3947-5.33805E-01 8.29039E+01-4.95601E-03-1.09667E+00-3.48325E-13-1.87735E-13
 -1      3948-4.53677E-01 8.27852E+01-6.02746E-03-1.39845E+00 3.28114E-14 2.75485E-14
 -1      3949-3.14297E-01 8.25238E+01-7.15912E-03-1.74358E+00-4.09793E-13 2.41430E-15
 -1      3950-1.04212E-01 8.21077E+01-8.19510E-03-2.11575E+00-1.06605E-13-1.30135E-13
 -1      3951 1.87208E-01 8.15295E+01-8.89519E-03-2.49052E+00 3.21033E-13 3.03489E-13
 -1      3952 5.67367E-01 8.07895E+01-8.94866E-03-2.83537E+00 1.87177E-14-8.23499E-14
 -1      3953-2.29681E-02 8.03608E+01 3.51536E-03-8.90237E-02 3.24105E-14 2.79698E-13
 -1      3954-1.08502E-01 8.07025E+01 3.09191E-03-1.36095E-01 1.87459E-13-2.61969E-13
 -1      3955-2.25919E-01 8.11024E+01 1.70334E-03-1.66161E-01-3.63111E-13 1.91366E-13
 -1      3956-3.59762E-01 8.15272E+01 5.78386E-04-1.95859E-01-5.78979E-14-2.29629E-13
 -1      3957-4.99082E-01 8.19476E+01-3.01400E-04-2.40357E-01 5.00958E-13 1.34169E-13
 -1      3958-6.35395E-01 8.23390E+01-1.04152E-03-3.13567E-01-4.86891E-13-3.05826E-13
 -1      3959-7.61614E-01 8.26792E+01-1.75182E-03-4.27969E-01 2.32931E-13 7.79268E-14
 -1      3960-8.70924E-01 8.29479E+01-2.54138E-03-5.94156E-01 1.89845E-13 4.92710E-13
 -1      3961-9.55689E-01 8.31252E+01-3.50508E-03-8.20110E-01 5.44783E-13-3.25065E-13
 -1      3962-1.00649E+00 8.31907E+01-4.70871E-03-1.11017E+00-2.60587E-13-7.12772E-14
 -1      3963-1.01142E+00 8.31234E+01-6.16807E-03-1.46368E+00-1.68682E-13 2.04836E-13
 -1      3964-9.55948E-01 8.29017E+01-7.82294E-03-1.87333E+00 1.95879E-13 8.78481E-14
 -1      3965-8.23402E-01 8.25054E+01-9.50923E-03-2.32335E+00 8.93721E-14-2.52335E-13
 -1      3966-5.96631E-01 8.19180E+01-1.09378E-02-2.78781E+00 2.75186E-13 1.51719E-14
 -1      3967-2.60857E-01 8.11314E+01-1.16934E-02-3.22969E+00 1.40814E-13 1.82004E-13
 -1      3968-2.56464E-02 8.03981E+01 4.72693E-03-2.35690E-02 6.39965E-14 1.01029E-13
 -1      3969-1.24939E-01 8.07232E+01 3.92095E-03-2.84074E-02 2.70490E-13-1.72582E-13
 -1      3970-2.63804E-01 8.11217E+01 2.51732E-03-3.20715E-02-9.49459E-14-1.53712E-13
 -1      3971-4.27058E-01 8.15585E+01 1.42939E-03-4.73663E-02-1.12050E-13 3.13575E-13
 -1      3972-6.04192E-01 8.20038E+01 6.01497E-04-8.65724E-02-2.31587E-13-1.48288E-13
 -1      3973-7.87275E-01 8.24321E+01-8.98081E-05-1.61753E-01-2.09412E-13 2.25186E-13
 -1      3974-9.69747E-01 8.28202E+01-7.71917E-04-2.84658E-01 1.15569E-13-3.25278E-13
 -1      3975-1.14512E+00 8.31462E+01-1.57674E-03-4.66306E-01-1.10376E-13 3.48370E-13
 -1      3976-1.30567E+00 8.33876E+01-2.63021E-03-7.16211E-01 2.79381E-13-1.71916E-13
 -1      3977-1.44115E+00 8.35203E+01-4.03813E-03-1.04120E+00 4.93078E-13-3.76538E-14
 -1      3978-1.53771E+00 8.35176E+01-5.86169E-03-1.44372E+00 9.18334E-14 3.63692E-13
 -1      3979-1.57725E+00 8.33507E+01-8.08165E-03-1.91956E+00 3.30695E-14-2.91380E-13
 -1      3980-1.53753E+00 8.29894E+01-1.05519E-02-2.45517E+00-9.86524E-14-4.70284E-15
 -1      3981-1.39355E+00 8.24059E+01-1.29517E-02-3.02464E+00-1.33706E-13-2.32026E-13
 -1      3982-1.12075E+00 8.15793E+01-1.47535E-02-3.58722E+00-1.70309E-13 1.99432E-13
 -1      3983-2.76146E-02 8.03817E+01 5.47181E-03 4.96324E-02-3.77957E-13 1.10824E-13
 -1      3984-1.36476E-01 8.07079E+01 4.52553E-03 9.37352E-02 1.20873E-13 2.05766E-13
 -1      3985-2.90619E-01 8.11180E+01 3.17517E-03 1.23227E-01 1.91131E-13-3.79750E-13
 -1      3986-4.75583E-01 8.15767E+01 2.19140E-03 1.29633E-01-7.23729E-14 1.35004E-13
 -1      3987-6.81946E-01 8.20544E+01 1.49247E-03 1.03829E-01-4.31825E-13 1.97732E-13
 -1      3988-9.03097E-01 8.25259E+01 9.39123E-04 3.57042E-02 6.99017E-14-8.27359E-14
 -1      3989-1.13388E+00 8.29681E+01 3.87302E-04-8.58156E-02 7.30537E-14-8.96692E-14
 -1      3990-1.36916E+00 8.33587E+01-3.19048E-04-2.72416E-01-4.20760E-13 1.90406E-13
 -1      3991-1.60226E+00 8.36738E+01-1.34266E-03-5.35667E-01-3.01148E-14 6.26018E-16
 -1      3992-1.82332E+00 8.38865E+01-2.84258E-03-8.85786E-01-2.58152E-13-2.63793E-13
 -1      3993-2.01770E+00 8.39651E+01-4.94936E-03-1.32973E+00-6.72830E-14 3.81520E-13
 -1      3994-2.16459E+00 8.38732E+01-7.72102E-03-1.86839E+00-1.80655E-13-2.41235E-13
 -1      3995-2.23636E+00 8.35695E+01-1.10757E-02-2.49291E+00 1.03787E-13 8.49095E-14
 -1      3996-2.19926E+00 8.30115E+01-1.47055E-02-3.18003E+00 2.97283E-13-8.87779E-14
 -1      3997-2.01633E+00 8.21611E+01-1.79906E-02-3.88746E+00 2.98278E-13-1.18485E-13
 -1      3998-2.86406E-02 8.03061E+01 5.67983E-03 1.27582E-01 3.68004E-14-2.77704E-13
 -1      3999-1.41920E-01 8.06510E+01 4.86478E-03 2.24879E-01 2.13922E-13-1.12222E-13
 -1      4000-3.03838E-01 8.10854E+01 3.64251E-03 2.92371E-01-1.31269E-13-1.35569E-14
 -1      4001-5.01145E-01 8.15749E+01 2.82993E-03 3.26468E-01-3.34477E-13 4.81108E-14
 -1      4002-7.26151E-01 8.20912E+01 2.33485E-03 3.21546E-01-2.61124E-13-1.03037E-13
 -1      4003-9.74293E-01 8.26108E+01 2.00877E-03 2.69660E-01 2.99926E-13 7.92266E-14
 -1      4004-1.24271E+00 8.31122E+01 1.69672E-03 1.60505E-01 3.85815E-13-1.42885E-14
 -1      4005-1.52868E+00 8.35738E+01 1.22274E-03-1.83463E-02 1.71459E-13 6.48266E-14
 -1      4006-1.82792E+00 8.39720E+01 3.87115E-04-2.80870E-01 4.18858E-14-1.77137E-15
 -1      4007-2.13256E+00 8.42784E+01-1.03137E-03-6.41487E-01 2.20488E-13-1.80397E-13
 -1      4008-2.42891E+00 8.44577E+01-3.25658E-03-1.11314E+00 6.72953E-13 2.53819E-13
 -1      4009-2.69518E+00 8.44661E+01-6.46926E-03-1.70421E+00-8.91648E-14-2.40337E-14
 -1      4010-2.89955E+00 8.42505E+01-1.07216E-02-2.41383E+00 1.50487E-15-2.01133E-13
 -1      4011-2.99947E+00 8.37511E+01-1.58045E-02-3.22561E+00 8.13126E-14 1.82007E-14
 -1      4012-2.94350E+00 8.29065E+01-2.10785E-02-4.09983E+00 2.44034E-13 2.79568E-13
 -1      4013-2.84853E-02 8.01685E+01 5.28539E-03 2.06599E-01-2.06959E-13-1.46826E-13
 -1      4014-1.40072E-01 8.05495E+01 4.89614E-03 3.58445E-01-2.51522E-14-7.58343E-14
 -1      4015-3.00903E-01 8.10196E+01 3.87896E-03 4.66511E-01 7.23887E-14-3.01261E-14
 -1      4016-4.99444E-01 8.15471E+01 3.29876E-03 5.32616E-01-1.22000E-13-2.44804E-13
 -1      4017-7.30303E-01 8.21066E+01 3.07291E-03 5.55014E-01 1.97995E-13 3.79308E-13
 -1      4018-9.91598E-01 8.26772E+01 3.05471E-03 5.28242E-01-7.49984E-14 4.05717E-14
 -1      4019-1.28354E+00 8.32404E+01 3.08957E-03 4.43047E-01-5.25951E-14-1.75936E-13
 -1      4020-1.60689E+00 8.37773E+01 2.99311E-03 2.86453E-01 6.54516E-14 1.94963E-13
 -1      4021-1.96118E+00 8.42663E+01 2.53778E-03 4.20515E-02-3.66157E-15 8.50041E-14
 -1      4022-2.34244E+00 8.46794E+01 1.44150E-03-3.09249E-01-3.46772E-13-9.51406E-14
 -1      4023-2.74038E+00 8.49798E+01-6.28658E-04-7.87642E-01-2.13786E-13 6.27233E-14
 -1      4024-3.13502E+00 8.51180E+01-4.02228E-03-1.41142E+00-3.80300E-13-9.23853E-14
 -1      4025-3.49307E+00 8.50296E+01-9.01528E-03-2.19184E+00-1.84141E-14-5.33306E-14
 -1      4026-3.76494E+00 8.46350E+01-1.56354E-02-3.12505E+00-5.87490E-14 3.14661E-14
 -1      4027-3.88404E+00 8.38443E+01-2.33905E-02-4.18097E+00-2.52463E-13 3.20646E-14
 -1      4028-2.69321E-02 7.99697E+01 4.23772E-03 2.82352E-01-1.45881E-13-3.10987E-13
 -1      4029-1.29881E-01 8.04028E+01 4.58083E-03 4.86788E-01-1.41196E-13 3.64864E-13
 -1      4030-2.79574E-01 8.09185E+01 3.84199E-03 6.35356E-01 3.35311E-14-3.70353E-13
 -1      4031-4.66636E-01 8.14892E+01 3.54214E-03 7.35677E-01-6.67020E-14 2.69051E-13
 -1      4032-6.88409E-01 8.20936E+01 3.63167E-03 7.90232E-01 6.43141E-14-1.08085E-13
 -1      4033-9.46127E-01 8.27152E+01 3.98050E-03 7.96442E-01 4.60749E-14 2.36443E-14
 -1      4034-1.24363E+00 8.33399E+01 4.45090E-03 7.46589E-01 3.61742E-14 9.14919E-14
 -1      4035-1.58603E+00 8.39530E+01 4.86973E-03 6.27693E-01 2.42055E-14 1.31419E-13
 -1      4036-1.97799E+00 8.45368E+01 5.00330E-03 4.21394E-01-8.22667E-14-1.41251E-13
 -1      4037-2.42152E+00 8.50668E+01 4.52754E-03 1.04086E-01-2.07922E-13-3.35737E-14
 -1      4038-2.91270E+00 8.55074E+01 3.00596E-03-3.52265E-01-1.35917E-13 6.60682E-14
 -1      4039-3.43734E+00 8.58066E+01-1.09321E-04-9.77871E-01-2.32488E-13 3.49798E-14
 -1      4040-3.96544E+00 8.58912E+01-5.41020E-03-1.80028E+00 2.69175E-13-1.09726E-13
 -1      4041-4.44494E+00 8.56624E+01-1.33548E-02-2.83543E+00 3.40169E-13 5.25777E-14
 -1      4042-4.79666E+00 8.49962E+01-2.38689E-02-4.07313E+00 1.31347E-13 3.30826E-13
 -1      4043-2.38210E-02 7.97141E+01 2.51432E-03 3.49999E-01-2.32922E-13 1.06946E-13
 -1      4044-1.10638E-01 8.02135E+01 3.89227E-03 6.01423E-01-1.35540E-13-2.25455E-13
 -1      4045-2.38332E-01 8.07823E+01 3.49387E-03 7.87435E-01-2.86169E-13-1.87888E-13
 -1      4046-4.00027E-01 8.13987E+01 3.50111E-03 9.21608E-01 1.58429E-13 2.89513E-13
 -1      4047-5.96021E-01 8.20471E+01 3.92237E-03 1.01089E+00-3.36138E-13-1.48506E-13
 -1      4048-8.30790E-01 8.27165E+01 4.66072E-03 1.05601E+00-2.49856E-13 1.26052E-13
 -1      4049-1.11200E+00 8.33981E+01 5.61510E-03 1.05145E+00-6.74400E-14 4.08710E-14
 -1      4050-1.44952E+00 8.40834E+01 6.65021E-03 9.85156E-01-1.85123E-13 6.76889E-14
 -1      4051-1.85416E+00 8.47608E+01 7.56128E-03 8.37928E-01-2.97836E-13-1.42555E-13
 -1      4052-2.33568E+00 8.54120E+01 8.02484E-03 5.82736E-01 1.27481E-13-5.42053E-14
 -1      4053-2.89969E+00 8.60068E+01 7.54184E-03 1.84312E-01 3.21023E-13 2.08426E-13
 -1      4054-3.54270E+00 8.64959E+01 5.38135E-03-4.00161E-01 4.82702E-13-1.12632E-13
 -1      4055-4.24483E+00 8.68026E+01 5.87935E-04-1.21779E+00 1.89499E-13-9.18189E-15
 -1      4056-4.96003E+00 8.68126E+01-7.92623E-03-2.31186E+00-8.90208E-14-6.28022E-14
 -1      4057-5.60447E+00 8.63677E+01-2.08663E-02-3.70533E+00 2.88986E-13 2.12014E-13
 -1      4058-1.90836E-02 7.94102E+01 1.31450E-04 4.04427E-01 1.30817E-13 6.85701E-14
 -1      4059-8.21784E-02 7.99874E+01 2.82319E-03 6.93440E-01-2.20671E-13-2.89076E-13
 -1      4060-1.76821E-01 8.06140E+01 2.80937E-03 9.10616E-01 5.29993E-13 5.70290E-14
 -1      4061-2.98837E-01 8.12760E+01 3.12105E-03 1.07529E+00 1.65005E-13 2.24166E-13
 -1      4062-4.51405E-01 8.19643E+01 3.84974E-03 1.19889E+00-1.44053E-13 3.30291E-15
 -1      4063-6.41990E-01 8.26745E+01 4.94663E-03 1.28581E+00 1.52653E-13-2.85902E-13
 -1      4064-8.81747E-01 8.34042E+01 6.36634E-03 1.33350E+00-3.00931E-14 1.97255E-13
 -1      4065-1.18511E+00 8.41520E+01 8.04020E-03 1.33207E+00 2.10942E-14 1.57081E-13
 -1      4066-1.56918E+00 8.49145E+01 9.83700E-03 1.26326E+00 5.09436E-14-2.41647E-13
 -1      4067-2.05253E+00 8.56825E+01 1.15001E-02 1.09881E+00 1.89347E-13 4.22527E-14
 -1      4068-2.65280E+00 8.64360E+01 1.25557E-02 7.98541E-01-1.09648E-13-1.13498E-13
 -1      4069-3.38215E+00 8.71350E+01 1.21868E-02 3.08673E-01 2.42709E-13 1.07005E-13
 -1      4070-4.23925E+00 8.77082E+01 9.12340E-03-4.38136E-01-1.61312E-13-1.68181E-15
 -1      4071-5.19657E+00 8.80359E+01 1.47395E-03-1.51811E+00 1.32068E-13-1.47226E-14
 -1      4072-6.18138E+00 8.79326E+01-1.25790E-02-3.00152E+00-3.58973E-13-5.66977E-14
 -1      4073 1.99519E+01 1.06575E+02 1.42459E-01 2.26876E+01 6.50480E-13 7.66054E-14
 -1      4074 7.15140E+00 1.12315E+02-1.65663E-01 1.20999E+01 4.88054E-13 2.36033E-13
 -1      4075 2.43967E+01 9.35184E+01 3.38712E-01 1.96642E+01-4.30211E-14-3.35787E-13
 -1      4076 1.50805E+01 1.00607E+02-1.06815E-01 1.97041E+01-2.79776E-13-6.37712E-13
 -1      4077 2.34466E+01 8.75587E+01 1.35766E-01 1.67602E+01 1.92651E-13 2.80248E-13
 -1      4078 1.96107E+01 9.10970E+01 7.02264E-02 1.80352E+01 4.41869E-14 4.83308E-13
 -1      4079 2.30368E+01 8.41629E+01 6.59651E-02 1.48050E+01-1.03195E-13 1.61038E-13
 -1      4080 2.03992E+01 8.65667E+01-2.61142E-03 1.57931E+01 8.94007E-14-3.39673E-13
 -1      4081 2.27560E+01 8.19821E+01 5.12678E-02 1.31916E+01-2.28192E-13 1.76831E-13
 -1      4082 2.08064E+01 8.37312E+01 1.47324E-02 1.40463E+01 1.10661E-13 3.77851E-13
 -1      4083 2.25449E+01 8.04250E+01 3.99056E-02 1.18290E+01 3.55826E-14 8.04079E-14
 -1      4084 2.09564E+01 8.17947E+01 9.51975E-03 1.25590E+01-2.78666E-13-1.76775E-13
 -1      4085 2.23785E+01 7.92496E+01 3.39748E-02 1.06363E+01-6.30745E-13-3.94185E-13
 -1      4086 2.10273E+01 8.03743E+01 9.92795E-03 1.12775E+01-1.13132E-13-2.93932E-13
 -1      4087 2.22417E+01 7.83177E+01 2.95595E-02 9.57282E+00 4.21621E-13 1.62315E-13
 -1      4088 2.10573E+01 7.92736E+01 9.27202E-03 1.01442E+01-1.18516E-14 4.95368E-13
 -1      4089 2.21262E+01 7.75520E+01 2.63743E-02 8.61073E+00 1.16157E-14 4.14599E-14
 -1      4090 2.10672E+01 7.83851E+01 8.85995E-03 9.12706E+00 2.22919E-13-2.60167E-13
 -1      4091 2.20262E+01 7.69043E+01 2.38735E-02 7.73145E+00 6.31641E-13 5.61218E-14
 -1      4092 2.10660E+01 7.76440E+01 8.39020E-03 8.20275E+00-5.58359E-13 3.57978E-13
 -1      4093 2.19380E+01 7.63444E+01 2.18556E-02 6.92161E+00-1.29841E-13-4.86694E-14
 -1      4094 2.10583E+01 7.70101E+01 7.92834E-03 7.35521E+00-3.14249E-13-1.82056E-13
 -1      4095 2.18593E+01 7.58525E+01 2.01762E-02 6.17123E+00 2.35430E-13 1.45297E-13
 -1      4096 2.10468E+01 7.64576E+01 7.46854E-03 6.57258E+00-1.56347E-13 4.32258E-14
 -1      4097 2.17885E+01 7.54159E+01 1.87514E-02 5.47259E+00 3.13471E-13 7.32157E-14
 -1      4098 2.10332E+01 7.59697E+01 7.02008E-03 5.84584E+00 4.97755E-13 1.74236E-14
 -1      4099 2.17246E+01 7.50263E+01 1.75264E-02 4.81943E+00-1.78954E-14-4.65131E-13
 -1      4100 2.10186E+01 7.55352E+01 6.58773E-03 5.16787E+00-3.71217E-13-3.33594E-13
 -1      4101 2.16672E+01 7.46786E+01 1.64657E-02 4.20647E+00 1.27460E-12 1.57152E-13
 -1      4102 2.10037E+01 7.51474E+01 6.17643E-03 4.53280E+00-1.04181E-13 6.58442E-13
 -1      4103 2.09893E+01 7.48019E+01 5.79061E-03 3.93561E+00 1.97606E-13-8.06941E-13
 -1      4104 6.91589E+00 1.01442E+02-7.41635E-01 1.49116E+01 5.92304E-13-1.55036E-13
 -1      4105 1.93871E+00 9.99026E+01 6.04588E-03 5.42080E+00-9.10383E-13 6.15619E-14
 -1      4106 1.41114E+01 9.51028E+01 1.26947E-01 1.71606E+01 5.64548E-13-1.59234E-13
 -1      4107 7.42262E+00 9.78706E+01 1.84132E-01 1.31717E+01 3.63487E-13-3.32512E-14
 -1      4108 1.69065E+01 8.93148E+01 1.76814E-02 1.60052E+01-6.67244E-13 1.58179E-13
 -1      4109 1.21822E+01 9.22817E+01 6.33357E-02 1.49273E+01 3.31069E-13-2.72171E-13
 -1      4110 1.83584E+01 8.57788E+01 3.36188E-02 1.44961E+01 3.18079E-13 7.34413E-14
 -1      4111 1.49037E+01 8.80662E+01 1.05081E-02 1.44630E+01 2.36838E-13 3.26378E-13
 -1      4112 1.90374E+01 8.33633E+01 1.79539E-02 1.30567E+01-9.61953E-13-2.49661E-13
 -1      4113 1.65207E+01 8.51256E+01 1.04306E-02 1.33496E+01-1.08080E-13-1.83173E-13
 -1      4114 1.94430E+01 8.16365E+01 1.12479E-02 1.17669E+01 2.90101E-13 6.23668E-14
 -1      4115 1.74579E+01 8.30408E+01 3.32702E-03 1.21568E+01 5.71515E-13 2.02283E-13
 -1      4116 1.96997E+01 8.03267E+01 7.70829E-03 1.06093E+01-3.29625E-13-2.19547E-13
 -1      4117 1.80651E+01 8.14864E+01 2.21907E-03 1.10232E+01-1.44315E-13-3.08101E-13
 -1      4118 1.98739E+01 7.92889E+01 5.54240E-03 9.56409E+00-7.33580E-14 4.81094E-13
 -1      4119 1.84789E+01 8.02751E+01 1.16216E-03 9.97291E+00 2.41487E-13 3.08156E-13
 -1      4120 1.99978E+01 7.84367E+01 4.23627E-03 8.61221E+00 5.69031E-13-3.40637E-13
 -1      4121 1.87769E+01 7.92952E+01 7.75117E-04 9.00576E+00-5.88835E-14-3.03181E-13
 -1      4122 2.00893E+01 7.77169E+01 3.37646E-03 7.73891E+00-2.46608E-13 2.53957E-13
 -1      4123 1.90004E+01 7.84778E+01 5.36513E-04 8.11355E+00 1.24706E-13 3.28924E-13
 -1      4124 2.01588E+01 7.70956E+01 2.79977E-03 6.93261E+00 6.43888E-13 6.76126E-14
 -1      4125 1.91738E+01 7.77792E+01 4.01269E-04 7.28765E+00 1.31561E-14 2.06432E-14
 -1      4126 2.02129E+01 7.65506E+01 2.40058E-03 6.18424E+00 6.50410E-13 1.82094E-13
 -1      4127 1.93118E+01 7.71710E+01 3.05169E-04 6.52017E+00-2.24439E-13 6.22488E-14
 -1      4128 2.02557E+01 7.60675E+01 2.12058E-03 5.48657E+00-6.95860E-13-6.85531E-13
 -1      4129 1.94242E+01 7.66343E+01 2.28700E-04 5.80437E+00-5.57429E-13-3.41928E-13
 -1      4130 2.02903E+01 7.56368E+01 1.92287E-03 4.83362E+00-2.08611E-13 1.52149E-13
 -1      4131 1.95173E+01 7.61571E+01 1.61002E-04 5.13451E+00 2.12420E-13-2.37720E-13
 -1      4132 2.03185E+01 7.52528E+01 1.78371E-03 4.22028E+00-4.88012E-14 3.62415E-13
 -1      4133 1.95953E+01 7.57314E+01 9.81066E-05 4.50560E+00-7.19681E-13 6.01241E-13
 -1      4134 1.96613E+01 7.53525E+01 3.86525E-05 3.91323E+00-4.51014E-13-2.99736E-13
 -1      4135 1.66367E+00 9.62531E+01-1.70588E-01 8.08225E+00-3.25739E-13 8.69305E-14
 -1      4136 6.09531E-01 9.15000E+01-1.17941E-01 2.80963E+00-9.13714E-14 7.53286E-14
 -1      4137 7.26011E+00 9.36731E+01-1.60210E-02 1.24079E+01 5.00711E-14-5.11952E-14
 -1      4138 3.44011E+00 9.31120E+01-2.96347E-02 8.29619E+00 6.19338E-13 3.26406E-14
 -1      4139 1.12957E+01 8.98926E+01 2.36710E-02 1.34735E+01 3.06977E-14 1.27232E-13
 -1      4140 7.29319E+00 9.13107E+01 4.32657E-02 1.12661E+01-3.58491E-13 1.67991E-13
 -1      4141 1.37179E+01 8.68192E+01 2.43851E-02 1.30688E+01 1.97065E-15-8.59035E-15
 -1      4142 1.04159E+01 8.84559E+01 3.08559E-02 1.21042E+01-2.18381E-13 1.05248E-13
 -1      4143 1.52418E+01 8.44755E+01 1.45763E-02 1.21956E+01-6.32994E-13-1.44433E-13
 -1      4144 1.25888E+01 8.59744E+01 1.64203E-02 1.18578E+01 3.67206E-13-2.10890E-13
 -1      4145 1.62464E+01 8.27026E+01 1.04125E-02 1.12071E+01-1.23512E-13 1.24720E-13
 -1      4146 1.40865E+01 8.40003E+01 9.29592E-03 1.11800E+01-2.39253E-14 1.08791E-13
 -1      4147 1.69385E+01 8.13186E+01 6.93503E-03 1.02232E+01 5.19279E-13-2.31669E-13
 -1      4148 1.51410E+01 8.24376E+01 5.65816E-03 1.03496E+01-1.58956E-13-1.92346E-14
 -1      4149 1.74396E+01 8.02057E+01 4.83708E-03 9.28439E+00-5.59219E-13 8.03975E-14
 -1      4150 1.59053E+01 8.11806E+01 3.45257E-03 9.48693E+00-1.95163E-13-2.25587E-13
 -1      4151 1.78165E+01 7.92845E+01 3.47436E-03 8.40148E+00 1.41803E-13-1.29549E-14
 -1      4152 1.64789E+01 8.01452E+01 2.22444E-03 8.64090E+00-1.14686E-13 1.48999E-13
 -1      4153 1.81097E+01 7.85031E+01 2.58585E-03 7.57498E+00 5.62592E-13-2.90740E-14
 -1      4154 1.69227E+01 7.92725E+01 1.45693E-03 7.83040E+00-2.99843E-13 1.88474E-13
 -1      4155 1.83439E+01 7.78271E+01 1.99757E-03 6.80172E+00-8.07687E-13 1.15963E-13
 -1      4156 1.72754E+01 7.85220E+01 9.73561E-04 7.06176E+00-5.90084E-14-5.66196E-13
 -1      4157 1.85353E+01 7.72334E+01 1.60476E-03 6.07750E+00-3.00607E-13 3.71828E-13
 -1      4158 1.75622E+01 7.78662E+01 6.49745E-04 6.33584E+00 3.46737E-14 4.42212E-13
 -1      4159 1.86945E+01 7.67068E+01 1.34368E-03 5.39805E+00 6.60937E-13-7.85913E-13
 -1      4160 1.77998E+01 7.72863E+01 4.24150E-04 5.65121E+00-1.39513E-13 9.09585E-14
 -1      4161 1.88287E+01 7.62374E+01 1.17343E-03 4.75929E+00 1.56819E-15 1.78864E-13
 -1      4162 1.79996E+01 7.67698E+01 2.59982E-04 5.00551E+00 8.90954E-15-2.52943E-13
 -1      4163 1.89429E+01 7.58186E+01 1.06692E-03 4.15740E+00-9.82547E-15 3.41938E-13
 -1      4164 1.81694E+01 7.63086E+01 1.36353E-04 4.39600E+00-3.75117E-14 1.27532E-13
 -1      4165 1.83143E+01 7.58977E+01 4.06388E-05 3.81978E+00 3.17038E-13-6.41830E-14
 -1      4166 8.60642E-01 9.05808E+01-1.58513E-01 4.64858E+00 4.92772E-13-1.61565E-13
 -1      4167 3.38120E-01 8.68286E+01-1.29172E-01 1.75482E+00 3.04479E-14-1.75804E-13
 -1      4168 3.96268E+00 9.09154E+01-6.19531E-02 8.59811E+00-3.19467E-13-1.62939E-13
 -1      4169 1.95946E+00 8.95142E+01 1.17517E-02 5.44719E+00-2.01422E-13-1.92513E-13
 -1      4170 7.27744E+00 8.92397E+01-2.50307E-03 1.05264E+01-4.55747E-14 3.38993E-13
 -1      4171 4.55957E+00 8.93694E+01 2.54018E-02 8.19419E+00 1.44329E-13-1.49131E-13
 -1      4172 9.91002E+00 8.70882E+01 9.09678E-03 1.10297E+01 2.11497E-13-2.27630E-14
 -1      4173 7.19516E+00 8.79366E+01 2.26603E-02 9.59834E+00 2.63539E-13 4.83641E-13
 -1      4174 1.18433E+01 8.51324E+01 1.05349E-02 1.07972E+01 4.33431E-13 1.83221E-14
 -1      4175 9.40908E+00 8.61922E+01 1.68437E-02 1.00055E+01 6.09512E-14-2.54279E-13
 -1      4176 1.32435E+01 8.34930E+01 8.82947E-03 1.02222E+01 3.37355E-13 5.55962E-14
 -1      4177 1.11372E+01 8.45518E+01 1.17728E-02 9.82966E+00-5.33212E-13 1.51500E-13
 -1      4178 1.42758E+01 8.21380E+01 6.58985E-03 9.50594E+00 5.39208E-13-2.25008E-13
 -1      4179 1.24585E+01 8.31272E+01 7.95747E-03 9.35258E+00 8.19650E-13-1.15515E-14
 -1      4180 1.50562E+01 8.10098E+01 4.92315E-03 8.74425E+00-2.11442E-13-3.33795E-14
 -1      4181 1.34744E+01 8.19139E+01 5.43202E-03 8.73373E+00-2.65205E-13-3.29821E-13
 -1      4182 1.56614E+01 8.00556E+01 3.67886E-03 7.98229E+00 2.44027E-13 2.21330E-13
 -1      4183 1.42678E+01 8.08783E+01 3.76989E-03 8.05724E+00-1.41512E-13 2.34240E-13
 -1      4184 1.61423E+01 7.92351E+01 2.80610E-03 7.24098E+00 2.93238E-14-4.55747E-14
 -1      4185 1.48990E+01 7.99852E+01 2.65629E-03 7.36705E+00 4.39968E-13-1.93283E-14
 -1      4186 1.65328E+01 7.85190E+01 2.19615E-03 6.52958E+00 1.91319E-13 1.63758E-15
 -1      4187 1.54108E+01 7.92055E+01 1.90103E-03 6.68583E+00 6.65759E-13 2.54203E-13
 -1      4188 1.68560E+01 7.78864E+01 1.77508E-03 5.85165E+00-2.25056E-13 1.64480E-13
 -1      4189 1.58331E+01 7.85171E+01 1.37505E-03 6.02508E+00 3.03951E-13-8.99610E-14
 -1      4190 1.71274E+01 7.73230E+01 1.48869E-03 5.20790E+00-2.50355E-14-4.81422E-13
 -1      4191 1.61868E+01 7.79041E+01 1.00103E-03 5.39039E+00 6.38677E-13-1.80099E-13
 -1      4192 1.73580E+01 7.68192E+01 1.29930E-03 4.59759E+00 3.16025E-13 2.23429E-13
 -1      4193 1.64866E+01 7.73554E+01 7.29392E-04 4.78410E+00 3.83166E-14-3.17578E-13
 -1      4194 1.75552E+01 7.63688E+01 1.18003E-03 4.01917E+00 8.40959E-13-2.51656E-14
 -1      4195 1.67428E+01 7.68635E+01 5.28882E-04 4.20672E+00-4.63379E-14 5.28334E-13
 -1      4196 1.69627E+01 7.64239E+01 3.79043E-04 3.65764E+00-5.86753E-14-2.35766E-13
 -1      4197 4.22745E-01 8.69659E+01-9.64514E-02 2.98905E+00-1.48298E-13-2.39281E-13
 -1      4198 2.04950E-01 8.39495E+01-9.10902E-02 1.12348E+00 1.08691E-13 1.00253E-13
 -1      4199 2.35652E+00 8.83757E+01-3.63515E-02 5.94740E+00 5.38347E-13-2.44527E-13
 -1      4200 1.18491E+00 8.66471E+01-2.91409E-03 3.68268E+00 2.18686E-13-1.12688E-14
 -1      4201 4.78883E+00 8.79659E+01-1.54017E-02 7.93372E+00 3.91215E-13 4.65211E-13
 -1      4202 2.97164E+00 8.74322E+01 9.72558E-03 5.92234E+00 9.30367E-14 6.46982E-14
 -1      4203 7.11766E+00 8.67476E+01-1.11868E-03 8.90914E+00-4.74620E-15-1.77171E-13
 -1      4204 5.04299E+00 8.69775E+01 1.42356E-02 7.40673E+00-2.59209E-13-1.90403E-14
 -1      4205 9.06853E+00 8.53245E+01 4.58715E-03 9.16028E+00-1.99563E-13 1.28866E-13
 -1      4206 7.01713E+00 8.59371E+01 1.38145E-02 8.14727E+00-2.38920E-13-1.52246E-13
 -1      4207 1.06265E+01 8.39576E+01 5.63106E-03 8.97403E+00-2.75946E-13 9.88931E-14
 -1      4208 8.72314E+00 8.47238E+01 1.10850E-02 8.33679E+00 3.84762E-13 3.15640E-13
 -1      4209 1.18553E+01 8.27319E+01 5.19404E-03 8.54630E+00-7.15539E-14-2.88724E-13
 -1      4210 1.01344E+01 8.35353E+01 8.44733E-03 8.17226E+00-1.31090E-13-1.35767E-13
 -1      4211 1.28285E+01 8.16561E+01 4.33269E-03 7.99404E+00 3.53439E-13 3.31870E-14
 -1      4212 1.12841E+01 8.24432E+01 6.30002E-03 7.79780E+00-3.59324E-13-1.23068E-13
 -1      4213 1.36087E+01 8.07142E+01 3.49031E-03 7.38448E+00 4.03982E-14 8.46875E-14
 -1      4214 1.22204E+01 8.14633E+01 4.67225E-03 7.30674E+00-4.03219E-13 8.58419E-14
 -1      4215 1.42436E+01 7.98850E+01 2.80014E-03 6.75551E+00-6.51562E-14 1.77277E-13
 -1      4216 1.29886E+01 8.05889E+01 3.47824E-03 6.75647E+00 2.69312E-13-1.83221E-14
 -1      4217 1.47682E+01 7.91495E+01 2.27047E-03 6.12846E+00-5.01918E-13 2.51500E-14
 -1      4218 1.36256E+01 7.98073E+01 2.60760E-03 6.18157E+00-1.13021E-13-9.05699E-15
 -1      4219 1.52078E+01 7.84922E+01 1.88175E-03 5.51525E+00 4.91968E-14-1.58120E-14
 -1      4220 1.41600E+01 7.91056E+01 1.97087E-03 5.60278E+00 2.69694E-13 1.14398E-13
 -1      4221 1.55805E+01 7.79019E+01 1.60654E-03 4.92243E+00 2.73268E-13-4.19283E-13
 -1      4222 1.46132E+01 7.84729E+01 1.50222E-03 5.03250E+00 8.15736E-14 4.61367E-14
 -1      4223 1.58994E+01 7.73706E+01 1.42017E-03 4.35336E+00 6.82093E-14 1.78723E-13
 -1      4224 1.50010E+01 7.79013E+01 1.15488E-03 4.47809E+00-4.67681E-15-3.33915E-13
 -1      4225 1.61736E+01 7.68932E+01 1.30185E-03 3.80943E+00 5.80085E-13-9.13609E-14
 -1      4226 1.53349E+01 7.73852E+01 8.96233E-04 3.94369E+00 3.31249E-13 2.85336E-13
 -1      4227 1.56229E+01 7.69213E+01 7.03251E-04 3.43140E+00-3.40936E-13-3.48553E-13
 -1      4228 2.54317E-01 8.44420E+01-7.27140E-02 1.96830E+00-7.31359E-14-5.10703E-15
 -1      4229 1.36547E-01 8.20199E+01-7.62977E-02 7.44326E-01-3.28820E-13-5.39013E-14
 -1      4230 1.50470E+00 8.62136E+01-3.24098E-02 4.15220E+00-2.06613E-13-4.25215E-14
 -1      4231 7.79188E-01 8.45682E+01-4.01075E-03 2.52985E+00 5.48145E-13 5.35960E-14
 -1      4232 3.26570E+00 8.65722E+01-1.75877E-02 5.89638E+00-1.02335E-13 1.06831E-13
 -1      4233 2.03150E+00 8.57551E+01 5.16901E-03 4.27318E+00-2.15356E-13-2.57988E-13
 -1      4234 5.15868E+00 8.60737E+01-6.67020E-03 6.99946E+00 6.56974E-14-1.13402E-13
 -1      4235 3.61571E+00 8.59055E+01 8.76238E-03 5.62086E+00 6.61624E-13 3.27391E-13
 -1      4236 6.92610E+00 8.51670E+01-4.30743E-04 7.52609E+00-5.90222E-14-1.59074E-13
 -1      4237 5.26984E+00 8.54187E+01 9.69798E-03 6.46932E+00-2.82691E-14-2.36172E-13
 -1      4238 8.46145E+00 8.41287E+01 2.35549E-03 7.62979E+00-3.08892E-13 2.87943E-13
 -1      4239 6.82244E+00 8.46162E+01 9.05613E-03 6.87188E+00-2.24903E-13 6.29427E-14
 -1      4240 9.75186E+00 8.30970E+01 3.24081E-03 7.45390E+00-2.19769E-13-2.02571E-13
 -1      4241 8.19709E+00 8.36993E+01 7.69376E-03 6.93699E+00-1.61801E-13-7.35453E-14
 -1      4242 1.08240E+01 8.21289E+01 3.23625E-03 7.10499E+00 4.85348E-13-5.34108E-14
 -1      4243 9.37868E+00 8.27754E+01 6.22458E-03 6.76966E+00 7.44682E-14 3.39746E-14
 -1      4244 1.17146E+01 8.12416E+01 2.90970E-03 6.65490E+00-8.40439E-14 4.54608E-14
 -1      4245 1.03819E+01 8.18937E+01 4.92307E-03 6.45188E+00 2.94709E-13 1.38261E-13
 -1      4246 1.24589E+01 8.04350E+01 2.51072E-03 6.15009E+00 1.42039E-13 1.11446E-13
 -1      4247 1.12318E+01 8.10725E+01 3.85706E-03 6.04188E+00 1.92776E-13 2.95540E-14
 -1      4248 1.30863E+01 7.97028E+01 2.14454E-03 5.62013E+00 2.45928E-13 1.85023E-13
 -1      4249 1.19541E+01 8.03153E+01 3.01575E-03 5.57928E+00 2.22877E-14-5.27391E-14
 -1      4250 1.36199E+01 7.90372E+01 1.84696E-03 5.08377E+00 1.06450E-13-7.07004E-14
 -1      4251 1.25717E+01 7.96198E+01 2.36394E-03 5.09054E+00 3.90771E-13 2.35771E-13
 -1      4252 1.40777E+01 7.84316E+01 1.62363E-03 4.55292E+00-6.28948E-13-2.87421E-13
 -1      4253 1.31031E+01 7.89819E+01 1.86354E-03 4.59326E+00-2.86979E-13-4.53615E-13
 -1      4254 1.44728E+01 7.78812E+01 1.46842E-03 4.03501E+00 1.12660E-13 6.82857E-14
 -1      4255 1.35632E+01 7.83978E+01 1.48169E-03 4.09908E+00-2.84842E-14 2.30035E-13
 -1      4256 1.48150E+01 7.73827E+01 1.37079E-03 3.53459E+00 1.19238E-13 4.08475E-14
 -1      4257 1.39628E+01 7.78650E+01 1.19198E-03 3.61560E+00-2.37588E-14 7.83028E-14
 -1      4258 1.43100E+01 7.73820E+01 9.73808E-04 3.14764E+00 3.00544E-13-4.69621E-13
 -1      4259 1.60497E-01 8.26906E+01-5.48075E-02 1.31891E+00 2.19491E-13 2.32009E-13
 -1      4260 9.66698E-02 8.07291E+01-6.28536E-02 4.89478E-01 3.04673E-13 4.43812E-13
 -1      4261 1.01870E+00 8.45296E+01-2.39808E-02 2.91136E+00-5.16129E-13-1.50935E-13
 -1      4262 5.38495E-01 8.30493E+01-4.14943E-03 1.73790E+00-1.34059E-14-3.35787E-13
 -1      4263 2.30200E+00 8.52913E+01-1.59781E-02 4.33902E+00 3.94754E-13-3.74700E-15
 -1      4264 1.44067E+00 8.43854E+01 2.17643E-03 3.06466E+00 1.82576E-13 3.61058E-13
 -1      4265 3.80030E+00 8.52801E+01-8.82384E-03 5.39126E+00-8.20274E-13 5.38181E-14
 -1      4266 2.65139E+00 8.48894E+01 4.96881E-03 4.20588E+00 1.70142E-14-1.47216E-13
 -1      4267 5.31457E+00 8.47995E+01-3.51715E-03 6.03021E+00 5.56249E-13-6.41723E-13
 -1      4268 4.00166E+00 8.47977E+01 6.53568E-03 5.03295E+00 4.15820E-13-1.46071E-13
 -1      4269 6.72475E+00 8.40797E+01-3.05614E-04 6.31311E+00-1.90487E-13 5.33969E-13
 -1      4270 5.35239E+00 8.43377E+01 6.85559E-03 5.52895E+00 9.68947E-14 1.30868E-14
 -1      4271 7.97967E+00 8.32657E+01 1.30010E-03 6.32592E+00-4.13780E-13-4.24383E-14
 -1      4272 6.61806E+00 8.36818E+01 6.39393E-03 5.73834E+00 2.61430E-13 1.67897E-13
 -1      4273 9.07080E+00 8.24380E+01 1.94698E-03 6.14891E+00 2.46997E-13 1.12707E-13
 -1      4274 7.75942E+00 8.29418E+01 5.58109E-03 5.72543E+00-5.39707E-13 1.15241E-13
 -1      4275 1.00102E+01 8.16367E+01 2.09118E-03 5.84553E+00-6.93889E-15 2.44509E-15
 -1      4276 8.76732E+00 8.21825E+01 4.69103E-03 5.55177E+00 2.03448E-13 3.01252E-14
 -1      4277 1.08175E+01 8.08791E+01 2.00670E-03 5.46223E+00-4.31793E-13-1.40741E-13
 -1      4278 9.64866E+00 8.14387E+01 3.86016E-03 5.26789E+00-4.54345E-13-2.34028E-13
 -1      4279 1.15130E+01 8.01711E+01 1.84304E-03 5.03185E+00 5.18890E-14 3.54382E-13
 -1      4280 1.04170E+01 8.07271E+01 3.14281E-03 4.91228E+00 1.03723E-13 1.17277E-13
 -1      4281 1.21149E+01 7.95132E+01 1.67433E-03 4.57725E+00 1.85456E-13-8.36180E-14
 -1      4282 1.10875E+01 8.00551E+01 2.54942E-03 4.51328E+00-4.89289E-13 2.03180E-13
 -1      4283 1.26383E+01 7.89044E+01 1.53414E-03 4.11424E+00 1.21833E-13-3.59802E-13
 -1      4284 1.16741E+01 7.94255E+01 2.07152E-03 4.09135E+00 1.87107E-13-1.12300E-13
 -1      4285 1.30951E+01 7.83436E+01 1.43462E-03 3.65371E+00-4.30628E-14 1.09079E-13
 -1      4286 1.21887E+01 7.88391E+01 1.69406E-03 3.66116E+00-4.70041E-14-2.90505E-13
 -1      4287 1.34942E+01 7.78302E+01 1.37670E-03 3.20303E+00 2.27235E-13 9.75348E-14
 -1      4288 1.26406E+01 7.82969E+01 1.40095E-03 3.23311E+00 7.72646E-14 1.99743E-13
 -1      4289 1.30368E+01 7.77999E+01 1.17724E-03 2.81438E+00-8.23612E-13 1.73352E-13
 -1      4290 1.08315E-01 8.14687E+01-4.30963E-02 8.72862E-01 2.91926E-13 2.84689E-13
 -1      4291 7.13852E-02 7.98682E+01-5.30958E-02 3.11605E-01 3.58415E-13 5.57610E-14
 -1      4292 7.19415E-01 8.32429E+01-1.88006E-02 2.02511E+00-3.86635E-14-2.20074E-13
 -1      4293 3.86868E-01 8.19520E+01-3.80551E-03 1.17308E+00 1.47098E-13 1.05471E-14
 -1      4294 1.67130E+00 8.41970E+01-1.38626E-02 3.15333E+00-2.86715E-13 3.70121E-14
 -1      4295 1.05253E+00 8.33060E+01 8.49467E-04 2.16527E+00 5.87433E-13-3.45279E-13
 -1      4296 2.84724E+00 8.44965E+01-9.14813E-03 4.07819E+00-4.21746E-14-7.83540E-14
 -1      4297 1.98343E+00 8.40003E+01 2.86967E-03 3.09304E+00-5.61273E-13 3.79696E-13
 -1      4298 4.10903E+00 8.43362E+01-5.05709E-03 4.72525E+00-5.58997E-14-4.86833E-13
 -1      4299 3.07318E+00 8.41724E+01 4.28282E-03 3.83568E+00 1.60982E-14-1.98438E-13
 -1      4300 5.35180E+00 8.38898E+01-2.11944E-03 5.09654E+00 4.59494E-14 2.38740E-13
 -1      4301 4.21889E+00 8.39765E+01 4.95853E-03 4.34633E+00 1.30534E-13-3.03424E-13
 -1      4302 6.51344E+00 8.32861E+01-2.88400E-04 5.23269E+00 7.06241E-14 1.31117E-13
 -1      4303 5.34386E+00 8.35468E+01 5.02409E-03 4.63020E+00-6.62886E-13 1.38028E-13
 -1      4304 7.56615E+00 8.26099E+01 7.20722E-04 5.18562E+00-5.15921E-13 3.21458E-13
 -1      4305 6.40147E+00 8.29834E+01 4.69599E-03 4.71934E+00-4.35499E-13 8.70484E-14
 -1      4306 8.50401E+00 8.19122E+01 1.20441E-03 5.00422E+00 1.34198E-13-8.62730E-14
 -1      4307 7.36953E+00 8.23539E+01 4.17528E-03 4.65429E+00-2.56309E-13 1.59412E-13
 -1      4308 9.33282E+00 8.12218E+01 1.38875E-03 4.72917E+00-4.31044E-14-4.42606E-14
 -1      4309 8.24206E+00 8.17006E+01 3.59942E-03 4.47413E+00 3.96724E-13 7.71709E-14
 -1      4310 1.00633E+01 8.05544E+01 1.42178E-03 4.39225E+00 1.25851E-13 1.75825E-13
 -1      4311 9.02227E+00 8.10489E+01 3.04646E-03 4.21235E+00-1.56986E-13-2.25315E-13
 -1      4312 1.07075E+01 7.99179E+01 1.39259E-03 4.01757E+00-2.88013E-13-8.52510E-14
 -1      4313 9.71765E+00 8.04135E+01 2.55399E-03 3.89600E+00-2.78187E-13 2.04624E-13
 -1      4314 1.12763E+01 7.93166E+01 1.35124E-03 3.62313E+00 5.73985E-14-3.49360E-13
 -1      4315 1.03369E+01 7.98029E+01 2.13576E-03 3.54626E+00-9.06775E-14-3.37746E-13
 -1      4316 1.17790E+01 7.87534E+01 1.32341E-03 3.22221E+00 2.57849E-13 1.82019E-13
 -1      4317 1.08882E+01 7.92230E+01 1.79275E-03 3.17942E+00-9.11285E-14 1.37442E-13
 -1      4318 1.22230E+01 7.82309E+01 1.31985E-03 2.82448E+00-1.59699E-13 1.87298E-14
 -1      4319 1.13785E+01 7.86778E+01 1.51966E-03 2.80779E+00-4.42965E-13 1.59067E-13
 -1      4320 1.18130E+01 7.81714E+01 1.30835E-03 2.44046E+00-3.41338E-13-1.95316E-13
 -1      4321 7.54435E-02 8.06262E+01-3.45615E-02 5.55451E-01-4.49467E-13 1.60427E-13
 -1      4322 5.42134E-02 7.93155E+01-4.51255E-02 1.82553E-01-3.84970E-14 2.37310E-14
 -1      4323 5.24179E-01 8.22800E+01-1.45919E-02 1.37603E+00 2.23495E-13-2.75530E-13
 -1      4324 2.85209E-01 8.11707E+01-3.32792E-03 7.58612E-01 2.15689E-13 1.19238E-13
 -1      4325 1.24134E+00 8.33042E+01-1.15636E-02 2.24532E+00 2.92558E-13 1.79357E-13
 -1      4326 7.85396E-01 8.24753E+01 1.95306E-04 1.48554E+00-5.61939E-13-3.33067E-15
 -1      4327 2.16452E+00 8.37880E+01-8.56669E-03 3.01943E+00-1.52489E-13-1.14353E-13
 -1      4328 1.50634E+00 8.32579E+01 1.60710E-03 2.21772E+00 2.33945E-13-4.17721E-14
 -1      4329 3.20117E+00 8.38536E+01-5.60993E-03 3.61728E+00 1.07844E-13-3.73104E-13
 -1      4330 2.38189E+00 8.35967E+01 2.75853E-03 2.85128E+00-2.07667E-13-3.54716E-14
 -1      4331 4.26915E+00 8.36253E+01-3.17981E-03 4.01315E+00-2.74364E-14 4.89053E-14
 -1      4332 3.33924E+00 8.35935E+01 3.49670E-03 3.33013E+00-4.47836E-14 1.07775E-13
 -1      4333 5.30975E+00 8.32075E+01-1.43537E-03 4.21744E+00 2.89713E-13-4.70353E-14
 -1      4334 4.31619E+00 8.33475E+01 3.80881E-03 3.63812E+00-1.04555E-13-3.41595E-13
 -1      4335 6.28814E+00 8.26775E+01-3.03329E-04 4.25843E+00-4.47239E-13 5.13079E-13
 -1      4336 5.26820E+00 8.29411E+01 3.78234E-03 3.78506E+00-1.41505E-13 2.06578E-13
 -1      4337 7.18797E+00 8.20886E+01 3.72432E-04 4.16975E+00-6.12531E-13-7.94868E-14
 -1      4338 6.16817E+00 8.24365E+01 3.53962E-03 3.79398E+00 2.37615E-13 1.41390E-13
 -1      4339 8.00502E+00 8.14753E+01 7.46451E-04 3.98361E+00 1.25858E-13 1.81192E-14
 -1      4340 7.00269E+00 8.18771E+01 3.18608E-03 3.69230E+00-2.48496E-13 1.08498E-13
 -1      4341 8.74193E+00 8.08592E+01 9.40172E-04 3.72803E+00-3.77948E-13 1.02807E-13
 -1      4342 7.76756E+00 8.12924E+01 2.79703E-03 3.50683E+00 4.68854E-13-2.27628E-13
 -1      4343 9.40450E+00 8.02540E+01 1.03853E-03 3.42612E+00 5.49005E-13-9.35142E-14
 -1      4344 8.46398E+00 8.07017E+01 2.41951E-03 3.26147E+00-5.92998E-14 3.74846E-13
 -1      4345 9.99939E+00 7.96686E+01 1.09635E-03 3.09648E+00-2.85702E-13-3.67908E-13
 -1      4346 9.09573E+00 8.01181E+01 2.07961E-03 2.97650E+00 3.68316E-14-2.69728E-13
 -1      4347 1.05327E+01 7.91097E+01 1.14639E-03 2.75371E+00 1.67172E-13 3.62163E-14
 -1      4348 9.66728E+00 7.95509E+01 1.78959E-03 2.66861E+00-2.45082E-13-1.49705E-13
 -1      4349 1.10095E+01 7.85827E+01 1.20589E-03 2.40908E+00 1.45432E-13 1.20689E-13
 -1      4350 1.01827E+01 7.90076E+01 1.55304E-03 2.35122E+00 2.48059E-13 2.79301E-13
 -1      4351 1.06452E+01 7.84951E+01 1.36818E-03 2.03478E+00 6.21073E-13-1.42565E-13
 -1      4352 5.37284E-02 8.00626E+01-2.81414E-02 3.22647E-01 8.49633E-14 4.84196E-14
 -1      4353 4.18625E-02 7.89884E+01-3.85486E-02 8.70135E-02-1.32684E-13-2.52326E-13
 -1      4354 3.89744E-01 8.15738E+01-1.14625E-02 8.90846E-01 1.37286E-13-4.07438E-13
 -1      4355 2.13522E-01 8.06301E+01-2.86329E-03 4.48693E-01-3.03355E-13 1.80037E-13
 -1      4356 9.36602E-01 8.25978E+01-9.53840E-03 1.54461E+00-1.53003E-13 2.07639E-13
 -1      4357 5.93671E-01 8.18512E+01-1.10051E-04 9.65971E-01 1.62349E-13-3.26572E-13
 -1      4358 1.66269E+00 8.31810E+01-7.65155E-03 2.17014E+00-1.60497E-14-1.74583E-14
 -1      4359 1.15467E+00 8.26589E+01 8.76941E-04 1.52805E+00 3.62002E-13 2.68688E-13
 -1      4360 2.50751E+00 8.33981E+01-5.57761E-03 2.69157E+00-1.09565E-13-1.60538E-13
 -1      4361 1.85600E+00 8.30959E+01 1.75785E-03 2.04828E+00 1.17684E-14-3.09891E-14
 -1      4362 3.41021E+00 8.33351E+01-3.68695E-03 3.07150E+00 4.32869E-13-9.38277E-14
 -1      4363 2.64763E+00 8.32272E+01 2.42331E-03 2.47094E+00-2.57572E-14-8.18234E-14
 -1      4364 4.32128E+00 8.30717E+01-2.17798E-03 3.30234E+00-2.25604E-13 5.03937E-14
 -1      4365 3.48194E+00 8.31237E+01 2.81577E-03 2.76969E+00 1.54460E-13-1.79336E-13
 -1      4366 5.20615E+00 8.26735E+01-1.08180E-03 3.39519E+00 8.80421E-13 3.30971E-13
 -1      4367 4.32065E+00 8.28496E+01 2.95164E-03 2.94046E+00 4.27242E-13 4.68164E-13
 -1      4368 6.04411E+00 8.21897E+01-3.38535E-04 3.37049E+00-3.24768E-13-7.88362E-14
 -1      4369 5.13686E+00 8.24579E+01 2.89243E-03 2.99329E+00 2.00534E-15-4.61686E-13
 -1      4370 6.82494E+00 8.16558E+01 1.42116E-04 3.25177E+00-1.34878E-13 9.56180E-15
 -1      4371 5.91400E+00 8.19890E+01 2.70807E-03 2.94559E+00-1.62613E-13 2.57575E-13
 -1      4372 7.54541E+00 8.10964E+01 4.47191E-04 3.06206E+00-2.04420E-13 1.14526E-14
 -1      4373 6.64349E+00 8.14727E+01 2.45901E-03 2.81746E+00-7.27092E-13-2.84044E-14
 -1      4374 8.20630E+00 8.05285E+01 6.46957E-04 2.82214E+00-3.12417E-13 1.57942E-13
 -1      4375 7.32206E+00 8.09304E+01 2.19021E-03 2.62889E+00-1.06658E-13 2.02694E-13
 -1      4376 8.81021E+00 7.99646E+01 7.92506E-04 2.55003E+00-9.01154E-14-2.84633E-13
 -1      4377 7.94948E+00 8.03779E+01 1.93185E-03 2.39837E+00-2.79957E-13-1.91729E-13
 -1      4378 9.36014E+00 7.94144E+01 9.17902E-04 2.26079E+00 7.85066E-14 3.16650E-14
 -1      4379 8.52693E+00 7.98273E+01 1.70232E-03 2.14216E+00-4.45685E-13-1.86905E-13
 -1      4380 9.85854E+00 7.88862E+01 1.04328E-03 1.96671E+00-1.93179E-14 1.75315E-13
 -1      4381 9.05574E+00 7.92889E+01 1.51132E-03 1.87414E+00 6.04239E-14 4.00753E-13
 -1      4382 9.53670E+00 7.87719E+01 1.36210E-03 1.60571E+00-1.48812E-13-4.20291E-13
 -1      4383 3.84519E-02 7.97075E+01-2.30991E-02 1.49175E-01-3.35461E-14-3.34038E-14
 -1      4384 3.25210E-02 7.88296E+01-3.29463E-02 1.55754E-02-2.02144E-13 1.37411E-13
 -1      4385 2.92660E-01 8.10705E+01-9.02724E-03 5.23658E-01-4.58782E-13-2.67883E-13
 -1      4386 1.60521E-01 8.02742E+01-2.43395E-03 2.14753E-01 3.52253E-14-2.56850E-13
 -1      4387 7.12146E-01 8.20544E+01-7.79342E-03 1.00106E+00-8.23161E-14 3.06977E-13
 -1      4388 4.50371E-01 8.13959E+01-2.40099E-04 5.66582E-01-6.72143E-13 1.43052E-13
 -1      4389 1.28318E+00 8.26811E+01-6.64198E-03 1.49104E+00-3.49401E-13-1.92735E-13
 -1      4390 8.86833E-01 8.21903E+01 4.49234E-04 9.84782E-01-3.64916E-13 9.76302E-15
 -1      4391 1.96707E+00 8.29944E+01-5.23415E-03 1.92657E+00 7.60919E-14-8.32806E-14
 -1      4392 1.44593E+00 8.26782E+01 1.10323E-03 1.39758E+00-2.19144E-13-4.14044E-14
 -1      4393 2.72042E+00 8.30517E+01-3.82685E-03 2.26718E+00-1.65930E-13-1.12604E-13
 -1      4394 2.09419E+00 8.28996E+01 1.65513E-03 1.75356E+00-2.81372E-14 1.06734E-13
 -1      4395 3.50410E+00 8.29117E+01-2.60158E-03 2.49560E+00 6.79110E-14 2.35700E-13
 -1      4396 2.79669E+00 8.29030E+01 2.04153E-03 2.02262E+00-3.01703E-13-2.73809E-13
 -1      4397 4.28760E+00 8.26264E+01-1.63006E-03 2.61156E+00-3.64000E-13 8.73988E-14
 -1      4398 3.52261E+00 8.27365E+01 2.24652E-03 2.19275E+00-1.81237E-13 2.66745E-13
 -1      4399 5.04980E+00 8.22386E+01-9.07791E-04 2.62543E+00 5.14935E-14-1.13992E-13
 -1      4400 4.24802E+00 8.24427E+01 2.29402E-03 2.26522E+00 1.47271E-13 8.11851E-14
 -1      4401 5.77780E+00 8.17813E+01-3.91228E-04 2.55310E+00-6.02435E-14 1.23016E-13
 -1      4402 4.95615E+00 8.20566E+01 2.22505E-03 2.24967E+00 4.84293E-13-9.58435E-15
 -1      4403 6.46481E+00 8.12792E+01-2.46831E-05 2.41257E+00 9.84629E-14 8.57821E-15
 -1      4404 5.63647E+00 8.16059E+01 2.08288E-03 2.16038E+00 1.48159E-13-2.03854E-13
 -1      4405 7.10800E+00 8.07511E+01 2.44516E-04 2.22178E+00-3.79002E-14 6.16313E-14
 -1      4406 6.28303E+00 8.11119E+01 1.90507E-03 2.01352E+00 2.73517E-13 3.03742E-13
 -1      4407 7.70673E+00 8.02114E+01 4.59366E-04 1.99752E+00-2.12441E-13-2.37458E-13
 -1      4408 6.89282E+00 8.05917E+01 1.72067E-03 1.82543E+00 3.83721E-14-1.23381E-13
 -1      4409 8.26118E+00 7.96721E+01 6.51348E-04 1.75474E+00-3.13562E-13 4.08879E-14
 -1      4410 7.46436E+00 8.00590E+01 1.55030E-03 1.61160E+00 4.34909E-13-2.08758E-13
 -1      4411 8.77139E+00 7.91440E+01 8.40623E-04 1.50632E+00-2.32987E-13 1.63024E-13
 -1      4412 7.99658E+00 7.95262E+01 1.40710E-03 1.38597E+00-2.72837E-14 2.97698E-13
 -1      4413 8.48806E+00 7.90047E+01 1.29779E-03 1.16060E+00 6.29427E-13-3.35071E-14
 -1      4414 2.71410E-02 7.95103E+01-1.90008E-02 1.92935E-02 2.06503E-13-1.36904E-13
 -1      4415 2.51265E-02 7.87970E+01-2.80834E-02-3.76218E-02-7.02726E-14 1.59733E-14
 -1      4416 2.19305E-01 8.07273E+01-7.10828E-03 2.44666E-01 1.18697E-13-2.10928E-13
 -1      4417 1.19556E-01 8.00605E+01-2.04813E-03 3.84207E-02 1.70017E-13-7.53148E-14
 -1      4418 5.40451E-01 8.16494E+01-6.32357E-03 5.79330E-01-3.22936E-14 1.86698E-13
 -1      4419 3.38971E-01 8.10770E+01-2.80053E-04 2.60245E-01 3.25844E-13 2.15106E-15
 -1      4420 9.87384E-01 8.22835E+01-5.66238E-03 9.50619E-01-1.61801E-13-1.20050E-13
 -1      4421 6.75975E-01 8.18355E+01 2.02243E-04 5.58945E-01-1.80880E-13-1.30382E-14
 -1      4422 1.53625E+00 8.26533E+01-4.74456E-03 1.30067E+00-1.68428E-13-1.35239E-14
 -1      4423 1.11746E+00 8.23428E+01 6.78078E-04 8.74826E-01 5.02841E-13 2.10713E-13
 -1      4424 2.15716E+00 8.27954E+01-3.74014E-03 1.59008E+00 3.06172E-13-1.74201E-13
 -1      4425 1.64196E+00 8.26217E+01 1.11373E-03 1.16193E+00 2.06030E-13-2.44874E-13
 -1      4426 2.82071E+00 8.27510E+01-2.79527E-03 1.79716E+00-2.34271E-13 3.48471E-14
 -1      4427 2.22487E+00 8.27034E+01 1.45428E-03 1.38989E+00 2.30926E-14-2.93751E-13
 -1      4428 3.50182E+00 8.25597E+01-1.98873E-03 1.91475E+00 3.68469E-13 3.30350E-13
 -1      4429 2.84271E+00 8.26224E+01 1.67257E-03 1.54274E+00 2.32023E-13 3.97900E-13
 -1      4430 4.18139E+00 8.22562E+01-1.34283E-03 1.94608E+00-3.60545E-14-5.74644E-14
 -1      4431 3.47568E+00 8.24112E+01 1.77171E-03 1.61616E+00-3.01772E-14-1.84620E-13
 -1      4432 4.84617E+00 8.18693E+01-8.43552E-04 1.90106E+00-1.68601E-13 1.23200E-14
 -1      4433 4.10863E+00 8.20983E+01 1.77263E-03 1.61433E+00-5.90430E-14 1.11040E-13
 -1      4434 5.48776E+00 8.14221E+01-4.58967E-04 1.79327E+00 6.84591E-14 2.17442E-13
 -1      4435 4.73091E+00 8.17078E+01 1.70393E-03 1.54691E+00 3.18377E-13 1.96954E-13
 -1      4436 6.10117E+00 8.09331E+01-1.52247E-04 1.63790E+00 1.03938E-13-3.75056E-14
 -1      4437 5.33542E+00 8.12596E+01 1.59465E-03 1.42682E+00 3.38347E-13 1.16725E-13
 -1      4438 6.68348E+00 8.04178E+01 1.10587E-04 1.45030E+00-3.36654E-13-3.60780E-13
 -1      4439 5.91752E+00 8.07703E+01 1.47038E-03 1.26841E+00-4.33625E-13-3.14939E-13
 -1      4440 7.23262E+00 7.98895E+01 3.56701E-04 1.24510E+00 1.88793E-13 1.01002E-13
 -1      4441 6.47388E+00 8.02547E+01 1.35156E-03 1.08630E+00-1.03292E-13-4.83966E-15
 -1      4442 7.74651E+00 7.93609E+01 6.04593E-04 1.03554E+00 1.12604E-13 1.20722E-13
 -1      4443 7.00153E+00 7.97262E+01 1.25297E-03 8.94463E-01 3.49894E-13 1.28557E-13
 -1      4444 7.49714E+00 7.91981E+01 1.18355E-03 7.05517E-01-6.84383E-13-1.91106E-13
 -1      4445 1.83134E-02 7.94323E+01-1.55685E-02-7.70036E-02-4.68302E-14-7.74242E-14
 -1      4446 1.90265E-02 7.88580E+01-2.37953E-02-7.63661E-02 1.59699E-14 1.23158E-13
 -1      4447 1.61430E-01 8.05098E+01-5.55616E-03 3.41572E-02-1.47415E-13-6.13953E-14
 -1      4448 8.65151E-02 7.99558E+01-1.70158E-03-9.24185E-02 3.45034E-13-1.80259E-13
 -1      4449 4.04113E-01 8.13593E+01-5.08313E-03 2.54515E-01-3.24671E-13-2.43208E-14
 -1      4450 2.48987E-01 8.08674E+01-2.72089E-04 2.83109E-02 1.34462E-13-2.71588E-14
 -1      4451 7.49520E-01 8.19785E+01-4.75799E-03 5.24605E-01 1.40700E-13 1.87760E-13
 -1      4452 5.04353E-01 8.15777E+01 6.43314E-05 2.29352E-01-1.65687E-13 3.06657E-13
 -1      4453 1.18403E+00 8.23775E+01-4.20215E-03 7.94784E-01 9.85947E-14-1.52267E-13
 -1      4454 8.46876E-01 8.20843E+01 4.04507E-04 4.60548E-01-3.42788E-13-5.21666E-14
 -1      4455 1.68802E+00 8.25776E+01-3.52393E-03 1.02851E+00-3.63737E-14-9.56457E-14
 -1      4456 1.26382E+00 8.23975E+01 7.36876E-04 6.81388E-01-2.59064E-13-4.78784E-14
 -1      4457 2.24042E+00 8.26060E+01-2.83406E-03 1.20277E+00 3.75096E-13-1.00406E-14
 -1      4458 1.73880E+00 8.25358E+01 1.01790E-03 8.62943E-01 4.93369E-13-4.64490E-14
 -1      4459 2.82187E+00 8.24913E+01-2.20372E-03 1.30661E+00 3.18565E-13 2.92294E-13
 -1      4460 2.25489E+00 8.25219E+01 1.21910E-03 9.87730E-01-2.65815E-13 1.70156E-13
 -1      4461 3.41643E+00 8.22602E+01-1.66485E-03 1.33863E+00-9.48269E-14-2.29573E-13
 -1      4462 2.79680E+00 8.23793E+01 1.33347E-03 1.04828E+00-3.95774E-13-3.29702E-14
 -1      4463 4.01208E+00 8.19361E+01-1.21959E-03 1.30438E+00-1.63279E-13 1.77554E-13
 -1      4464 3.35200E+00 8.21298E+01 1.36944E-03 1.04510E+00 2.00256E-13-1.32925E-13
 -1      4465 4.60030E+00 8.15392E+01-8.51669E-04 1.21397E+00-2.47108E-13 2.19174E-13
 -1      4466 3.91090E+00 8.17931E+01 1.34480E-03 9.84573E-01-1.58734E-13 1.16390E-13
 -1      4467 5.17519E+00 8.10868E+01-5.36197E-04 1.08023E+00-3.61516E-13-8.83182E-14
 -1      4468 4.46649E+00 8.13865E+01 1.28118E-03 8.77072E-01 2.16174E-13-6.60262E-14
 -1      4469 5.73252E+00 8.05939E+01-2.46882E-04 9.17315E-01 1.61066E-13-2.92792E-13
 -1      4470 5.01353E+00 8.09253E+01 1.20025E-03 7.35406E-01-1.45300E-14 2.17803E-14
 -1      4471 6.26868E+00 8.00747E+01 3.92132E-05 7.39530E-01 2.62047E-13 1.57829E-14
 -1      4472 5.54769E+00 8.04240E+01 1.12138E-03 5.73567E-01-5.42087E-13-4.44070E-14
 -1      4473 6.77989E+00 7.95430E+01 3.38501E-04 5.60518E-01-5.49658E-13 1.20648E-13
 -1      4474 6.06469E+00 7.98968E+01 1.06011E-03 4.05675E-01 4.14627E-13-6.31309E-15
 -1      4475 6.55964E+00 7.93583E+01 1.02694E-03 2.45064E-01-9.20444E-14 1.32937E-13
 -1      4476 1.10660E-02 7.94436E+01-1.26212E-02-1.46265E-01-2.43512E-13-5.02584E-14
 -1      4477 1.38061E-02 7.89866E+01-1.99743E-02-1.03141E-01 1.39097E-13-7.90062E-14
 -1      4478 1.13842E-01 8.03900E+01-4.27096E-03-1.21167E-01 1.81940E-13-8.51055E-14
 -1      4479 5.87779E-02 7.99332E+01-1.38900E-03-1.85896E-01-1.74635E-13-5.93206E-14
 -1      4480 2.91832E-01 8.11633E+01-4.02931E-03 9.00608E-03 1.65923E-13 1.61010E-13
 -1      4481 1.73597E-01 8.07440E+01-2.38048E-04-1.42186E-01 4.74377E-14 1.69864E-13
 -1      4482 5.52149E-01 8.17547E+01-3.94248E-03 1.94655E-01 1.49367E-13 1.01780E-13
 -1      4483 3.60063E-01 8.14008E+01-5.36118E-06-1.94564E-02 8.06195E-14-1.13035E-13
 -1      4484 8.88386E-01 8.21648E+01-3.65747E-03 3.93088E-01-3.55712E-13-1.93699E-13
 -1      4485 6.17621E-01 8.18947E+01 2.33269E-04 1.39604E-01-2.02553E-13 5.86059E-14
 -1      4486 1.28868E+00 8.24036E+01-3.24112E-03 5.71215E-01-2.25243E-13-1.36419E-14
 -1      4487 9.39977E-01 8.22268E+01 4.79837E-04 2.99418E-01-2.53884E-13-1.59595E-14
 -1      4488 1.73889E+00 8.24873E+01-2.77450E-03 7.06409E-01 1.60469E-13 1.53343E-13
 -1      4489 1.31724E+00 8.24058E+01 7.00909E-04 4.33250E-01-2.47493E-13-8.54213E-14
 -1      4490 2.22503E+00 8.24347E+01-2.31634E-03 7.85979E-01-3.46112E-14 3.84415E-14
 -1      4491 1.73816E+00 8.24449E+01 8.70650E-04 5.23542E-01 3.06387E-13 1.92256E-13
 -1      4492 2.73483E+00 8.22649E+01-1.89898E-03 8.05758E-01 8.63337E-14-9.70474E-14
 -1      4493 2.19181E+00 8.23594E+01 9.77890E-04 5.61274E-01-1.47549E-13-2.01162E-13
 -1      4494 3.25838E+00 8.19960E+01-1.53168E-03 7.68347E-01 3.93643E-14 1.44464E-13
 -1      4495 2.66872E+00 8.21646E+01 1.02394E-03 5.44747E-01-2.95042E-13 1.60216E-13
 -1      4496 3.78812E+00 8.16441E+01-1.20699E-03 6.81379E-01 1.15415E-13 6.02331E-14
 -1      4497 3.16121E+00 8.18753E+01 1.01933E-03 4.78144E-01 1.79225E-13-9.34149E-15
 -1      4498 4.31832E+00 8.12244E+01-9.07570E-04 5.55967E-01-2.54956E-13-8.91813E-14
 -1      4499 3.66325E+00 8.15054E+01 9.80132E-04 3.70112E-01-2.29185E-13 1.32542E-13
 -1      4500 4.84432E+00 8.07507E+01-6.12262E-04 4.05385E-01-1.74971E-13-3.09373E-13
 -1      4501 4.16991E+00 8.10684E+01 9.24854E-04 2.32444E-01 1.88231E-13-4.04243E-13
 -1      4502 5.36171E+00 8.02371E+01-3.00954E-04 2.43923E-01-5.34961E-13 8.77781E-14
 -1      4503 4.67663E+00 8.05776E+01 8.71908E-04 7.89022E-02 4.97637E-13-3.98797E-14
 -1      4504 5.86553E+00 7.96983E+01 4.14169E-05 8.58557E-02 3.15747E-13 5.17776E-14
 -1      4505 5.17847E+00 8.00472E+01 8.37591E-04-7.58976E-02 1.16088E-13 5.00700E-13
 -1      4506 5.66942E+00 7.94930E+01 8.33976E-04-2.17565E-01 2.78735E-13-5.19973E-13
 -1      4507 4.82407E-03 7.95193E+01-1.00401E-02-1.92842E-01 8.53790E-13-1.14492E-14
 -1      4508 9.19786E-03 7.91609E+01-1.65506E-02-1.19597E-01 1.25955E-13 2.15328E-13
 -1      4509 7.31913E-02 8.03446E+01-3.18142E-03-2.30413E-01-1.72792E-13-4.70457E-14
 -1      4510 3.46439E-02 7.99705E+01-1.10535E-03-2.47556E-01-6.39796E-14-1.77525E-13
 -1      4511 1.96146E-01 8.10427E+01-3.12385E-03-1.69736E-01-3.17283E-13 1.39756E-13
 -1      4512 1.08305E-01 8.06870E+01-1.89036E-04-2.60361E-01 4.56106E-13 1.65763E-13
 -1      4513 3.83371E-01 8.16001E+01-3.21341E-03-5.29805E-02-2.31148E-13-1.25469E-13
 -1      4514 2.35064E-01 8.12898E+01-3.04090E-05-1.98785E-01-3.48234E-13-6.50452E-14
 -1      4515 6.33674E-01 8.20104E+01-3.13556E-03 8.29094E-02 1.89449E-13-2.56212E-13
 -1      4516 4.18161E-01 8.17650E+01 1.33466E-04-9.96449E-02 2.51930E-13 5.15560E-15
 -1      4517 9.41111E-01 8.22750E+01-2.93033E-03 2.08298E-01 3.37036E-13-1.70974E-14
 -1      4518 6.56146E-01 8.21068E+01 3.11933E-04 5.77421E-03-2.29504E-13-1.58255E-13
 -1      4519 1.29721E+00 8.24011E+01-2.65623E-03 3.01804E-01-7.37962E-13 2.47569E-13
 -1      4520 9.44260E-01 8.23160E+01 4.79132E-04 9.31516E-02 4.54983E-14 5.20486E-14
 -1      4521 1.69280E+00 8.23994E+01-2.35948E-03 3.50276E-01-2.62547E-13 4.30211E-15
 -1      4522 1.27602E+00 8.23980E+01 6.12751E-04 1.45638E-01 1.08226E-13 1.46789E-13
 -1      4523 2.11932E+00 8.22821E+01-2.06863E-03 3.48082E-01-3.44690E-13-9.39006E-15
 -1      4524 1.64458E+00 8.23607E+01 7.00399E-04 1.53690E-01 6.06119E-13-1.75644E-13
 -1      4525 2.56951E+00 8.20613E+01-1.79451E-03 2.96014E-01-6.88824E-14 1.40237E-13
 -1      4526 2.04368E+00 8.22135E+01 7.39531E-04 1.14417E-01-4.63483E-14 1.78394E-13
 -1      4527 3.03751E+00 8.17494E+01-1.53343E-03 2.00083E-01 7.63833E-14 1.37309E-13
 -1      4528 2.46803E+00 8.19662E+01 7.36137E-04 3.06831E-02-2.22669E-14 1.49070E-13
 -1      4529 3.51859E+00 8.13581E+01-1.27155E-03 7.03164E-02 1.13277E-13-6.30763E-14
 -1      4530 2.91325E+00 8.16287E+01 7.02588E-04-8.98988E-02 2.45776E-14-3.92585E-14
 -1      4531 4.00852E+00 8.08996E+01-9.89782E-04-8.03821E-02 6.22578E-13-2.71040E-13
 -1      4532 3.37549E+00 8.12116E+01 6.55353E-04-2.35989E-01 7.21069E-13 1.26286E-13
 -1      4533 4.50278E+00 8.03872E+01-6.68525E-04-2.37335E-01-7.33719E-14-1.39177E-14
 -1      4534 3.85074E+00 8.07268E+01 6.12692E-04-3.93569E-01 7.27196E-15-3.87827E-13
 -1      4535 4.99581E+00 7.98356E+01-2.92304E-04-3.85214E-01-4.58536E-13 4.91308E-14
 -1      4536 4.33405E+00 8.01878E+01 5.92340E-04-5.47043E-01-9.78384E-16 1.43308E-13
 -1      4537 4.81883E+00 7.96108E+01 6.08707E-04-6.80448E-01 3.87149E-13 1.44396E-13
 -1      4538-7.80121E-04 7.96388E+01-7.74819E-03-2.19672E-01-1.21545E-13-6.56072E-14
 -1      4539 5.03204E-03 7.93619E+01-1.34826E-02-1.26845E-01 2.09254E-13-5.10009E-14
 -1      4540 3.73031E-02 8.03537E+01-2.23832E-03-2.99912E-01 4.57106E-13-1.88571E-13
 -1      4541 1.30180E-02 8.00484E+01-8.46857E-04-2.81249E-01-3.86352E-13-3.16552E-14
 -1      4542 1.12110E-01 8.09809E+01-2.33630E-03-2.90735E-01-3.40496E-13 3.42781E-14
 -1      4543 5.01694E-02 8.06792E+01-1.30739E-04-3.32733E-01-7.71343E-13-2.49877E-13
 -1      4544 2.35088E-01 8.15031E+01-2.56249E-03-2.28602E-01 4.38753E-13 1.55806E-13
 -1      4545 1.23987E-01 8.12311E+01-2.43234E-05-3.16984E-01 2.82455E-13 4.20053E-13
 -1      4546 4.08920E-01 8.19080E+01-2.64708E-03-1.45735E-01 4.93841E-14-2.96436E-13
 -1      4547 2.40588E-01 8.16862E+01 8.61360E-05-2.66131E-01 2.84512E-13-2.18055E-13
 -1      4548 6.32212E-01 8.21906E+01-2.61381E-03-6.85634E-02 5.01217E-13-1.05211E-13
 -1      4549 4.02225E-01 8.20331E+01 2.13072E-04-2.07776E-01 2.14776E-13 1.94837E-13
 -1      4550 9.01090E-01 8.23508E+01-2.50519E-03-1.68626E-02-1.66159E-13 1.67436E-13
 -1      4551 6.08187E-01 8.22665E+01 3.35574E-04-1.63880E-01-4.65506E-13-5.44609E-13
 -1      4552 1.21058E+00 8.23922E+01-2.35697E-03-3.51324E-03 2.89185E-13 1.49006E-13
 -1      4553 8.55983E-01 8.23849E+01 4.34327E-04-1.50216E-01 2.91031E-13 5.11924E-13
 -1      4554 1.55568E+00 8.23207E+01-2.19263E-03-3.47691E-02 3.82978E-13 1.36818E-14
 -1      4555 1.14243E+00 8.23902E+01 4.96769E-04-1.76265E-01 4.80296E-13-8.32338E-14
 -1      4556 1.93201E+00 8.21429E+01-2.02169E-03-1.10844E-01 3.16226E-13-4.35450E-14
 -1      4557 1.46443E+00 8.22857E+01 5.18203E-04-2.45459E-01 1.37029E-13-4.47559E-15
 -1      4558 2.33596E+00 8.18665E+01-1.84071E-03-2.26671E-01-2.43132E-13 1.75582E-13
 -1      4559 1.81936E+00 8.20762E+01 5.01773E-04-3.55647E-01 4.49606E-14-9.54644E-14
 -1      4560 2.76446E+00 8.14998E+01-1.63596E-03-3.72743E-01 2.02990E-13 7.80441E-14
 -1      4561 2.20507E+00 8.17676E+01 4.57552E-04-4.99710E-01 7.91901E-14 1.26672E-13
 -1      4562 3.21446E+00 8.10525E+01-1.38727E-03-5.36023E-01-1.87392E-13-3.39227E-13
 -1      4563 2.61944E+00 8.13670E+01 4.01127E-04-6.66273E-01-2.76071E-13-4.22759E-14
 -1      4564 3.68209E+00 8.05361E+01-1.07259E-03-7.00943E-01 2.65656E-13-2.56219E-15
 -1      4565 3.05974E+00 8.08837E+01 3.51704E-04-8.40559E-01 1.34635E-13-3.00508E-13
 -1      4566 4.16187E+00 7.99652E+01-6.73290E-04-8.50559E-01 7.08281E-13 1.85168E-13
 -1      4567 3.52176E+00 8.03300E+01 3.29695E-04-1.00543E+00 6.56211E-14 4.81022E-13
 -1      4568 3.99893E+00 7.97221E+01 3.53307E-04-1.14265E+00-1.50532E-13-3.56975E-13
 -1      4569-5.97543E-03 7.97839E+01-5.69823E-03-2.28785E-01 4.05362E-13-1.54585E-13
 -1      4570 1.20865E-03 7.95728E+01-1.07510E-02-1.25661E-01 6.09547E-14 3.12347E-13
 -1      4571 4.80150E-03 8.04003E+01-1.40830E-03-3.34184E-01-5.91612E-13-4.35353E-13
 -1      4572-6.76729E-03 8.01503E+01-6.11217E-04-2.89745E-01-4.08398E-13-3.43600E-13
 -1      4573 3.65302E-02 8.09634E+01-1.64347E-03-3.60611E-01 2.72843E-13 2.41439E-13
 -1      4574-2.63859E-03 8.07054E+01-6.60334E-05-3.64111E-01 4.11556E-14-4.30211E-16
 -1      4575 1.01945E-01 8.14524E+01-1.97990E-03-3.40012E-01-3.28702E-13 3.15768E-13
 -1      4576 2.34124E-02 8.12121E+01 5.21889E-06-3.80371E-01 3.34639E-13 1.70489E-13
 -1      4577 2.06659E-01 8.18507E+01-2.19471E-03-3.00687E-01-1.30765E-13-2.33921E-13
 -1      4578 7.97445E-02 8.16491E+01 7.98952E-05-3.66799E-01-3.85178E-14 8.84362E-14
 -1      4579 3.52791E-01 8.21477E+01-2.30292E-03-2.66191E-01 1.15186E-13-1.80821E-13
 -1      4580 1.71444E-01 8.20004E+01 1.70682E-04-3.47833E-01-3.05153E-13-1.80852E-13
 -1      4581 5.40158E-01 8.23374E+01-2.33669E-03-2.54617E-01 3.36984E-13-7.42011E-14
 -1      4582 3.00974E-01 8.22555E+01 2.59296E-04-3.43250E-01 8.48835E-13-2.43160E-13
 -1      4583 7.67375E-01 8.24174E+01-2.32410E-03-2.78229E-01-3.75880E-14 4.70134E-13
 -1      4584 4.69125E-01 8.24074E+01 3.28299E-04-3.67656E-01-1.44541E-13 6.24258E-13
 -1      4585 1.03274E+00 8.23876E+01-2.28402E-03-3.43426E-01-2.75373E-13-5.87395E-14
 -1      4586 6.75916E-01 8.24522E+01 3.64909E-04-4.30204E-01 1.40860E-13-3.49810E-13
 -1      4587 1.33483E+00 8.22495E+01-2.22350E-03-4.50940E-01-2.86653E-13-3.29121E-13
 -1      4588 9.21282E-01 8.23881E+01 3.62817E-04-5.34536E-01-1.44156E-13 5.64687E-14
 -1      4589 1.67261E+00 8.20059E+01-2.13728E-03-5.96195E-01 2.16265E-13 1.92739E-13
 -1      4590 1.20543E+00 8.22146E+01 3.23059E-04-6.78881E-01 9.61765E-14-1.32941E-13
 -1      4591 2.04530E+00 8.16611E+01-2.00911E-03-7.69785E-01-6.62342E-13 1.28225E-13
 -1      4592 1.52882E+00 8.19330E+01 2.54167E-04-8.56284E-01 1.71738E-15 2.79444E-13
 -1      4593 2.45173E+00 8.12214E+01-1.81464E-03-9.58100E-01-3.90632E-13-3.65526E-13
 -1      4594 1.89172E+00 8.15463E+01 1.71683E-04-1.05499E+00-4.08888E-13-2.88853E-13
 -1      4595 2.88947E+00 8.06961E+01-1.52590E-03-1.14416E+00 6.89726E-14 1.00780E-13
 -1      4596 2.29346E+00 8.10607E+01 9.68719E-05-1.25901E+00 3.08531E-13 5.89979E-15
 -1      4597 3.35385E+00 8.00987E+01-1.11733E-03-1.30874E+00-3.20403E-13 2.74189E-13
 -1      4598 2.73137E+00 8.04864E+01 5.44155E-05-1.44906E+00 5.44911E-14 2.10040E-13
 -1      4599 3.19968E+00 7.98388E+01 6.85006E-05-1.60385E+00-2.44943E-14-1.30968E-13
 -1      4600-1.08883E-02 7.99386E+01-3.86547E-03-2.21665E-01-4.17567E-13-2.51361E-13
 -1      4601-2.31809E-03 7.97778E+01-8.35423E-03-1.16633E-01-7.97296E-13-3.91423E-14
 -1      4602-2.51036E-02 8.04690E+01-6.70124E-04-3.36606E-01-2.52207E-13-3.00364E-13
 -1      4603-2.50532E-02 8.02613E+01-3.97651E-04-2.75182E-01 3.67780E-13-1.51403E-13
 -1      4604-3.24863E-02 8.09768E+01-1.02886E-03-3.84423E-01 2.11490E-13 2.89890E-13
 -1      4605-5.10983E-02 8.07520E+01 3.51948E-06-3.58257E-01 5.70234E-13-8.84709E-16
 -1      4606-1.93283E-02 8.14375E+01-1.45655E-03-3.93307E-01 3.43328E-14 7.93740E-14
 -1      4607-6.85557E-02 8.12214E+01 5.38308E-05-3.93966E-01-2.99600E-14 2.30607E-13
 -1      4608 2.22065E-02 8.18311E+01-1.77695E-03-3.88217E-01-4.65898E-13-8.16396E-14
 -1      4609-6.73268E-02 8.16448E+01 1.08036E-04-4.07259E-01-7.05304E-13-2.18353E-13
 -1      4610 9.69071E-02 8.21424E+01-2.00192E-03-3.90168E-01 7.96349E-13-3.20820E-14
 -1      4611-4.01961E-02 8.20027E+01 1.77274E-04-4.19810E-01 1.47545E-13 3.13801E-13
 -1      4612 2.07504E-01 8.23603E+01-2.15798E-03-4.15659E-01-1.07407E-13-4.45304E-14
 -1      4613 1.77207E-02 8.22801E+01 2.43981E-04-4.49441E-01 2.62826E-13-3.48437E-13
 -1      4614 3.55599E-01 8.24773E+01-2.26858E-03-4.76250E-01 8.82384E-14 3.87926E-13
 -1      4615 1.09824E-01 8.24655E+01 2.91293E-04-5.09665E-01-6.98748E-13 4.51887E-13
 -1      4616 5.42459E-01 8.24880E+01-2.34949E-03-5.78311E-01 2.63942E-13-1.11714E-13
 -1      4617 2.38855E-01 8.25498E+01 3.05532E-04-6.09293E-01-1.10020E-13-2.07251E-13
 -1      4618 7.69548E-01 8.23887E+01-2.40541E-03-7.22893E-01-4.58883E-13-2.85360E-13
 -1      4619 4.07550E-01 8.25262E+01 2.78465E-04-7.52121E-01 2.03084E-13-3.27221E-14
 -1      4620 1.03870E+00 8.21772E+01-2.42838E-03-9.05713E-01-1.26361E-13 1.92762E-13
 -1      4621 6.18993E-01 8.23892E+01 2.08876E-04-9.36697E-01 2.24838E-13-9.25076E-14
 -1      4622 1.35189E+00 8.18531E+01-2.39778E-03-1.11725E+00 3.04718E-13 7.66370E-14
 -1      4623 8.76591E-01 8.21348E+01 1.03723E-04-1.15616E+00 8.52429E-13 2.78591E-13
 -1      4624 1.71057E+00 8.14188E+01-2.28229E-03-1.34302E+00-2.25091E-13-2.57063E-13
 -1      4625 1.18361E+00 8.17615E+01-2.12684E-05-1.39821E+00-2.37393E-13-2.16783E-13
 -1      4626 2.11464E+00 8.08805E+01-2.04402E-03-1.56417E+00-1.27467E-13 4.61731E-14
 -1      4627 1.54226E+00 8.12713E+01-1.41969E-04-1.64538E+00 2.61662E-13-1.91413E-13
 -1      4628 2.56117E+00 8.02494E+01-1.64551E-03-1.75846E+00-1.82174E-13 1.54224E-13
 -1      4629 1.95242E+00 8.06711E+01-2.27703E-04-1.87564E+00-3.50206E-14 1.73207E-13
 -1      4630 2.41008E+00 7.99748E+01-2.45424E-04-2.06373E+00 3.03577E-13 9.32136E-14
 -1      4631-1.55624E-02 8.00882E+01-2.24318E-03-1.99518E-01 2.46937E-13-2.04503E-13
 -1      4632-5.54855E-03 7.99627E+01-6.30550E-03-1.00281E-01-4.69791E-13 2.22542E-13
 -1      4633-5.27380E-02 8.05464E+01-1.21990E-05-3.09937E-01-6.95060E-14-2.05357E-13
 -1      4634-4.19123E-02 8.03678E+01-2.06870E-04-2.39425E-01 2.96664E-14-3.43791E-13
 -1      4635-9.58001E-02 8.10089E+01-4.81823E-04-3.66327E-01 3.07749E-13 2.05981E-14
 -1      4636-9.54908E-02 8.08067E+01 7.67829E-05-3.18432E-01-2.69829E-13 8.64586E-15
 -1      4637-1.30309E-01 8.14486E+01-9.85119E-04-3.93540E-01-8.80147E-14-7.68968E-14
 -1      4638-1.52555E-01 8.12481E+01 1.18765E-04-3.62112E-01 4.64729E-13-1.24345E-14
 -1      4639-1.46803E-01 8.18417E+01-1.39037E-03-4.13581E-01-9.85524E-13 3.37355E-13
 -1      4640-2.01717E-01 8.16646E+01 1.66456E-04-3.92379E-01 4.01756E-13 1.80678E-13
 -1      4641-1.38546E-01 8.21697E+01-1.71042E-03-4.45208E-01 1.27464E-13 2.17951E-14
 -1      4642-2.34264E-01 8.20335E+01 2.28430E-04-4.28415E-01-5.83290E-13 1.58363E-13
 -1      4643-1.00622E-01 8.24173E+01-1.97016E-03-5.03504E-01-9.64038E-14-2.27035E-13
 -1      4644-2.43597E-01 8.23363E+01 2.86391E-04-4.86318E-01 1.22988E-13-2.61180E-13
 -1      4645-2.90488E-02 8.25725E+01-2.19151E-03-5.99425E-01-6.69152E-13 3.00624E-13
 -1      4646-2.24369E-01 8.25575E+01 3.22790E-04-5.78695E-01 2.33046E-13 2.04513E-13
 -1      4647 7.99984E-02 8.26250E+01-2.38921E-03-7.39379E-01-7.68136E-14 3.38939E-14
 -1      4648-1.71651E-01 8.26839E+01 3.22043E-04-7.14184E-01-7.39721E-14-9.20826E-14
 -1      4649 2.30738E-01 8.25661E+01-2.56686E-03-9.24810E-01 2.02709E-13-2.53449E-13
 -1      4650-8.02378E-02 8.27037E+01 2.73063E-04-8.96928E-01-1.36197E-13 9.26152E-14
 -1      4651 4.27991E-01 8.23885E+01-2.71408E-03-1.15181E+00-1.05548E-13 2.53198E-13
 -1      4652 5.57700E-02 8.26062E+01 1.71408E-04-1.12601E+00-3.79537E-13-2.58772E-13
 -1      4653 6.76948E-01 8.20866E+01-2.80502E-03-1.41078E+00 1.35301E-13 5.74801E-14
 -1      4654 2.42983E-01 8.23821E+01 2.14851E-05-1.39487E+00-2.28012E-13 3.16003E-13
 -1      4655 9.82443E-01 8.16577E+01-2.79899E-03-1.68631E+00 2.46754E-13-3.99965E-13
 -1      4656 4.88243E-01 8.20244E+01-1.61511E-04-1.69083E+00-9.22318E-14-1.20650E-13
 -1      4657 1.34771E+00 8.11036E+01-2.64393E-03-1.95732E+00-3.51781E-13 1.02402E-13
 -1      4658 7.97575E-01 8.15296E+01-3.50516E-04-1.99485E+00-7.70564E-14-2.34890E-13
 -1      4659 1.77270E+00 8.04324E+01-2.28409E-03-2.19788E+00 2.15654E-13 1.34477E-13
 -1      4660 1.17457E+00 8.09001E+01-5.07392E-04-2.28175E+00-1.30573E-13 4.02409E-13
 -1      4661 1.61830E+00 8.01465E+01-5.86784E-04-2.52134E+00 1.99507E-13-4.54616E-13
 -1      4662-1.99686E-02 8.02194E+01-8.39512E-04-1.63498E-01-2.81702E-14-2.91434E-14
 -1      4663-8.44302E-03 8.01144E+01-4.62976E-03-7.71637E-02 2.42145E-13 1.80949E-13
 -1      4664-7.80334E-02 8.06200E+01 5.69143E-04-2.56738E-01 1.14024E-13-2.19137E-13
 -1      4665-5.71828E-02 8.04578E+01-4.10283E-05-1.84358E-01 2.90896E-13-2.62776E-13
 -1      4666-1.53398E-01 8.10490E+01 3.09209E-06-3.10130E-01 2.78260E-13-7.06241E-14
 -1      4667-1.35493E-01 8.08585E+01 1.52435E-04-2.47836E-01 3.89294E-15 1.39753E-13
 -1      4668-2.31128E-01 8.14759E+01-5.60545E-04-3.45322E-01 5.19582E-13-2.34882E-14
 -1      4669-2.28126E-01 8.12824E+01 1.97729E-04-2.89017E-01 9.94439E-14-7.36702E-14
 -1      4670-3.00692E-01 8.18748E+01-1.03099E-03-3.81568E-01-2.30418E-13 2.87843E-13
 -1      4671-3.22861E-01 8.16999E+01 2.52043E-04-3.26844E-01-2.33152E-13-8.48627E-15
 -1      4672-3.54099E-01 8.22240E+01-1.42522E-03-4.35591E-01-2.98057E-13-2.32141E-14
 -1      4673-4.10115E-01 8.20858E+01 3.21040E-04-3.78162E-01 4.49474E-13 3.56024E-13
 -1      4674-3.84960E-01 8.25049E+01-1.76981E-03-5.21272E-01-1.85062E-13-2.48523E-13
 -1      4675-4.82274E-01 8.24188E+01 3.84721E-04-4.57546E-01-3.88937E-13-3.63740E-13
 -1      4676-3.87565E-01 8.27017E+01-2.08820E-03-6.49190E-01-6.20681E-13 3.16613E-13
 -1      4677-5.32752E-01 8.26804E+01 4.23825E-04-5.76946E-01-1.16483E-13 9.62425E-14
 -1      4678-3.56034E-01 8.27998E+01-2.39679E-03-8.26058E-01 1.40667E-13 8.31019E-14
 -1      4679-5.55054E-01 8.28535E+01 4.19759E-04-7.45141E-01-6.21406E-13 2.72636E-13
 -1      4680-2.83674E-01 8.27858E+01-2.70024E-03-1.05404E+00-1.64417E-13-2.57684E-13
 -1      4681-5.41964E-01 8.29221E+01 3.57223E-04-9.67020E-01-2.55927E-13-2.73248E-13
 -1      4682-1.62664E-01 8.26469E+01-2.98733E-03-1.33000E+00 3.29126E-13 8.40968E-14
 -1      4683-4.84984E-01 8.28703E+01 2.26804E-04-1.24270E+00-2.14148E-13 1.02392E-13
 -1      4684 1.57806E-02 8.23716E+01-3.22750E-03-1.64463E+00-5.52648E-13 2.83090E-14
 -1      4685-3.74180E-01 8.26830E+01 2.82716E-05-1.56649E+00-4.21475E-13-1.25198E-13
 -1      4686 2.60644E-01 8.19511E+01-3.36922E-03-1.98182E+00-1.21247E-13-2.28931E-13
 -1      4687-1.98597E-01 8.23465E+01-2.25782E-04-1.92584E+00-1.96773E-13-4.05231E-14
 -1      4688 5.79652E-01 8.13812E+01-3.34197E-03-2.31824E+00 3.26527E-13 1.94435E-13
 -1      4689 5.25930E-02 8.18506E+01-5.06664E-04-2.30043E+00-2.84411E-13 6.30381E-14
 -1      4690 9.77127E-01 8.06652E+01-3.06390E-03-2.62368E+00-5.97557E-13 6.01949E-14
 -1      4691 3.88136E-01 8.11910E+01-7.68250E-04-2.66180E+00-9.97223E-14 2.23294E-14
 -1      4692 8.11958E-01 8.03733E+01-9.49292E-04-2.97396E+00 3.54855E-13 1.74548E-13
 -1      4693-2.40111E-02 8.03202E+01 3.24971E-04-1.14899E-01-3.18183E-14 1.84212E-13
 -1      4694-1.09259E-02 8.02208E+01-3.36082E-03-4.79678E-02 2.00204E-14 5.07570E-13
 -1      4695-1.00574E-01 8.06791E+01 1.07087E-03-1.79728E-01 6.31682E-14-2.66474E-13
 -1      4696-7.04943E-02 8.05205E+01 9.63624E-05-1.12155E-01-5.41311E-13-8.72809E-14
 -1      4697-2.04496E-01 8.10868E+01 4.26712E-04-2.19769E-01 2.34856E-13 8.39814E-14
 -1      4698-1.70247E-01 8.08975E+01 2.28506E-04-1.50018E-01 1.07449E-13-4.96755E-14
 -1      4699-3.20628E-01 8.15106E+01-1.80325E-04-2.53360E-01-2.65531E-13-8.14175E-14
 -1      4700-2.93833E-01 8.13152E+01 2.87941E-04-1.79245E-01-2.02644E-13 2.18575E-15
 -1      4701-4.37934E-01 8.19226E+01-6.95335E-04-2.97047E-01-8.32581E-14 1.92901E-13
 -1      4702-4.28702E-01 8.17423E+01 3.61293E-04-2.15692E-01-1.47441E-13 9.15552E-14
 -1      4703-5.47864E-01 8.22987E+01-1.14165E-03-3.65659E-01-3.38473E-13-1.87270E-13
 -1      4704-5.65043E-01 8.21521E+01 4.51601E-04-2.73904E-01 1.11831E-13 2.35749E-14
 -1      4705-6.43306E-01 8.26182E+01-1.55033E-03-4.72092E-01 9.58721E-14-4.11962E-14
 -1      4706-6.94973E-01 8.25214E+01 5.36774E-04-3.67085E-01 7.83722E-14-3.59648E-13
 -1      4707-7.17553E-01 8.28619E+01-1.94922E-03-6.26854E-01 2.73934E-13 2.91370E-13
 -1      4708-8.11442E-01 8.28292E+01 5.95209E-04-5.06791E-01-1.21610E-13 4.86711E-13
 -1      4709-7.63309E-01 8.30118E+01-2.35940E-03-8.37387E-01 1.36479E-13-1.52027E-13
 -1      4710-9.07138E-01 8.30557E+01 6.04373E-04-7.02346E-01 3.84165E-13-4.03222E-13
 -1      4711-7.71863E-01 8.30498E+01-2.78989E-03-1.10714E+00 3.90405E-13-1.93003E-14
 -1      4712-9.73477E-01 8.31808E+01 5.43225E-04-9.59965E-01-2.09520E-14 2.99588E-13
 -1      4713-7.32566E-01 8.29575E+01-3.23180E-03-1.43443E+00-4.04732E-13 1.29458E-13
 -1      4714-9.99794E-01 8.31839E+01 3.95008E-04-1.28156E+00-3.81379E-13-1.25801E-13
 -1      4715-6.32816E-01 8.27170E+01-3.65221E-03-1.81105E+00 2.97221E-13-2.26590E-14
 -1      4716-9.72927E-01 8.30435E+01 1.51542E-04-1.66326E+00 2.14533E-13 1.86913E-13
 -1      4717-4.58744E-01 8.23120E+01-3.98915E-03-2.22088E+00 2.02061E-14-2.14228E-13
 -1      4718-8.77426E-01 8.27384E+01-1.81112E-04-2.09362E+00-1.76335E-14-1.90415E-13
 -1      4719-1.96817E-01 8.17304E+01-4.15017E-03-2.63873E+00 4.01068E-14 1.93120E-13
 -1      4720-6.96651E-01 8.22497E+01-5.76225E-04-2.55192E+00 2.74884E-14-8.86721E-14
 -1      4721 1.63507E-01 8.09681E+01-4.01834E-03-3.02985E+00 3.23568E-13 1.36342E-13
 -1      4722-4.15004E-01 8.15639E+01-9.81299E-04-3.00676E+00 1.43743E-13 3.37612E-13
 -1      4723-2.14203E-02 8.06786E+01-1.31652E-03-3.41579E+00 5.96363E-13-2.65923E-13
 -1      4724-2.75326E-02 8.03802E+01 1.21973E-03-5.53322E-02-3.32670E-13 2.09886E-13
 -1      4725-1.28906E-02 8.02715E+01-2.53778E-03-1.35967E-02 1.11309E-13-3.54343E-13
 -1      4726-1.19634E-01 8.07139E+01 1.48431E-03-8.21061E-02 2.23151E-13-2.86920E-13
 -1      4727-8.12953E-02 8.05467E+01 2.00590E-04-2.55019E-02 2.49453E-13 3.86011E-14
 -1      4728-2.47638E-01 8.11133E+01 7.85742E-04-9.97404E-02-8.01642E-13-3.14436E-14
 -1      4729-1.98436E-01 8.09149E+01 3.02021E-04-2.92164E-02-2.36220E-13-1.21549E-13
 -1      4730-3.96509E-01 8.15441E+01 1.55288E-04-1.22959E-01-5.21172E-13 1.27863E-13
 -1      4731-3.47395E-01 8.13380E+01 3.85332E-04-3.81582E-02 2.58737E-13 7.24160E-14
 -1      4732-5.55316E-01 8.19769E+01-3.81290E-04-1.65508E-01-2.84116E-13 5.94802E-14
 -1      4733-5.15853E-01 8.17837E+01 4.89048E-04-6.48312E-02-7.23119E-15 1.44818E-13
 -1      4734-7.15675E-01 8.23866E+01-8.55048E-04-2.40370E-01 2.38623E-13-1.27377E-13
 -1      4735-6.94459E-01 8.22245E+01 6.14519E-04-1.21401E-01-4.46513E-14 4.05197E-14
 -1      4736-8.70561E-01 8.27506E+01-1.30357E-03-3.59637E-01 5.26759E-13-9.17356E-14
 -1      4737-8.75848E-01 8.26363E+01 7.37865E-04-2.19776E-01-8.46155E-15-1.79960E-14
 -1      4738-1.01311E+00 8.30480E+01-1.76168E-03-5.34076E-01-3.85841E-13 4.10694E-13
 -1      4739-1.05337E+00 8.29970E+01 8.35150E-04-3.71357E-01 3.66988E-13 7.89299E-15
 -1      4740-1.13543E+00 8.32575E+01-2.25849E-03-7.72378E-01 8.43815E-13-3.10284E-13
 -1      4741-1.21981E+00 8.32846E+01 8.79482E-04-5.86441E-01 2.12476E-13-1.16712E-13
 -1      4742-1.22748E+00 8.33572E+01-2.81163E-03-1.08004E+00-1.82878E-13-7.84290E-15
 -1      4743-1.36608E+00 8.34761E+01 8.42782E-04-8.73258E-01 3.08329E-13-4.40681E-15
 -1      4744-1.27626E+00 8.33230E+01-3.41961E-03-1.45786E+00 5.15941E-14 3.83038E-13
 -1      4745-1.48012E+00 8.35462E+01 6.98279E-04-1.23653E+00 7.66375E-14 3.40049E-14
 -1      4746-1.26539E+00 8.31300E+01-4.05235E-03-1.89995E+00 1.90060E-13-1.48322E-13
 -1      4747-1.54596E+00 8.34671E+01 4.25401E-04-1.67551E+00 5.39821E-13 1.87380E-13
 -1      4748-1.17554E+00 8.27529E+01-4.64097E-03-2.39150E+00-1.54425E-14-2.65621E-13
 -1      4749-1.54360E+00 8.32090E+01 1.74777E-05-2.18147E+00 2.12764E-13-2.42958E-13
 -1      4750-9.86025E-01 8.21692E+01-5.07014E-03-2.90652E+00-4.30482E-13-1.09079E-14
 -1      4751-1.44972E+00 8.27420E+01-5.07780E-04-2.73488E+00 1.13491E-13-6.10241E-14
 -1      4752-6.77812E-01 8.13644E+01-5.17900E-03-3.40609E+00-2.21191E-13 2.42466E-13
 -1      4753-1.24002E+00 8.20407E+01-1.09719E-03-3.30258E+00-1.55154E-14 2.11806E-13
 -1      4754-8.93390E-01 8.10900E+01-1.65282E-03-3.83603E+00-4.29400E-13 1.20043E-15
 -1      4755-3.03219E-02 8.03904E+01 1.80723E-03 1.31277E-02 1.05573E-13-5.95010E-16
 -1      4756-1.42067E-02 8.02582E+01-2.20066E-03 2.47594E-02-6.52442E-13-8.27888E-14
 -1      4757-1.34234E-01 8.07163E+01 1.79636E-03 3.21803E-02 1.07161E-13-3.88405E-15
 -1      4758-8.88914E-02 8.05289E+01 2.66010E-04 7.22065E-02-3.28383E-13 2.24799E-13
 -1      4759-2.80798E-01 8.11208E+01 1.07332E-03 4.45314E-02 5.43758E-13-3.84269E-13
 -1      4760-2.18378E-01 8.09035E+01 3.68736E-04 1.09346E-01-1.82497E-13-3.56486E-14
 -1      4761-4.55502E-01 8.15684E+01 4.43135E-04 3.95127E-02-3.34043E-13 3.01004E-13
 -1      4762-3.85853E-01 8.13433E+01 4.83888E-04 1.27696E-01-1.11756E-13-2.54135E-13
 -1      4763-6.48156E-01 8.20298E+01-8.90334E-05 6.39875E-03-7.93484E-14 9.19161E-14
 -1      4764-5.79838E-01 8.18160E+01 6.27364E-04 1.18485E-01 3.69708E-13 2.09444E-13
 -1      4765-8.51300E-01 8.24793E+01-5.62260E-04-6.58969E-02 9.51901E-14 3.85716E-14
 -1      4766-7.92155E-01 8.22944E+01 8.00420E-04 7.21116E-02-2.59187E-13-1.09687E-14
 -1      4767-1.05886E+00 8.28942E+01-1.02177E-03-1.88769E-01-3.60085E-15-1.61740E-13
 -1      4768-1.01678E+00 8.27548E+01 9.78512E-04-2.20120E-02-1.74123E-13-8.89133E-14
 -1      4769-1.26479E+00 8.32524E+01-1.51130E-03-3.73531E-01-1.33359E-13 2.33461E-13
 -1      4770-1.24840E+00 8.31749E+01 1.13628E-03-1.75271E-01-2.31072E-13 1.28996E-13
 -1      4771-1.46161E+00 8.35307E+01-2.07127E-03-6.30664E-01-3.47300E-13-1.41706E-13
 -1      4772-1.48098E+00 8.35319E+01 1.24300E-03-3.99316E-01 6.05158E-13-9.94248E-14
 -1      4773-1.63898E+00 8.37038E+01-2.73299E-03-9.68595E-01 2.41759E-13-8.71915E-14
 -1      4774-1.70611E+00 8.38008E+01 1.26312E-03-7.05090E-01 9.98774E-14 7.30679E-14
 -1      4775-1.78242E+00 8.37427E+01-3.50961E-03-1.39188E+00 8.49841E-14 4.58734E-13
 -1      4776-1.91143E+00 8.39526E+01 1.15760E-03-1.10127E+00-3.59414E-13 4.02846E-14
 -1      4777-1.87227E+00 8.36148E+01-4.38273E-03-1.89871E+00-3.80793E-14-2.84701E-13
 -1      4778-2.07922E+00 8.39533E+01 8.88441E-04-1.59193E+00-4.45603E-13 5.11396E-15
 -1      4779-1.88362E+00 8.32844E+01-5.28522E-03-2.47764E+00 2.28972E-13-1.14197E-13
 -1      4780-2.18536E+00 8.37637E+01 4.27737E-04-2.17330E+00-9.62182E-14-4.87874E-14
 -1      4781-1.78736E+00 8.27161E+01-6.08342E-03-3.10390E+00-7.09346E-14-1.19810E-13
 -1      4782-2.19947E+00 8.33413E+01-2.27450E-04-2.82960E+00 1.72602E-13-2.07445E-13
 -1      4783-1.55348E+00 8.18803E+01-6.56660E-03-3.73585E+00 2.73861E-13 1.22194E-13
 -1      4784-2.08680E+00 8.26444E+01-1.03566E-03-3.52838E+00 4.58831E-13 3.52954E-13
 -1      4785-1.81273E+00 8.16399E+01-1.88835E-03-4.21628E+00-7.25982E-14-3.22978E-13
 -1      4786-3.21272E-02 8.03443E+01 2.04676E-03 8.78215E-02 6.24949E-13-6.17301E-14
 -1      4787-1.47301E-02 8.01750E+01-2.38501E-03 6.55706E-02 2.19640E-13 2.94105E-13
 -1      4788-1.43206E-01 8.06800E+01 1.99088E-03 1.58226E-01 4.64137E-13 3.14332E-15
 -1      4789-9.25017E-02 8.04617E+01 2.86493E-04 1.76733E-01-2.54102E-14-3.87213E-13
 -1      4790-3.01548E-01 8.11023E+01 1.27973E-03 2.06391E-01-4.64000E-13-2.57462E-13
 -1      4791-2.28173E-01 8.08576E+01 4.23056E-04 2.59246E-01 1.29871E-13-4.90736E-14
 -1      4792-4.93618E-01 8.15762E+01 6.77091E-04 2.26235E-01 7.19264E-13 1.58821E-13
 -1      4793-4.05819E-01 8.13247E+01 5.75234E-04 3.10281E-01-2.97932E-13 1.23061E-13
 -1      4794-7.10624E-01 8.20729E+01 1.78076E-04 2.10364E-01-5.31745E-13 2.66523E-14
 -1      4795-6.15444E-01 8.18318E+01 7.64637E-04 3.25245E-01-1.57758E-14 2.97817E-14
 -1      4796-9.46789E-01 8.25679E+01-2.63412E-04 1.49744E-01-3.59402E-15-4.28702E-14
 -1      4797-8.50736E-01 8.23532E+01 9.94652E-04 2.97374E-01-9.29532E-14-1.44662E-13
 -1      4798-1.19789E+00 8.30392E+01-7.00089E-04 3.36974E-02-2.20880E-14-2.74121E-14
 -1      4799-1.10782E+00 8.28669E+01 1.24208E-03 2.17557E-01-6.05628E-13 8.99038E-14
 -1      4800-1.45973E+00 8.34649E+01-1.18547E-03-1.49803E-01-4.06739E-13 9.96338E-14
 -1      4801-1.38372E+00 8.33518E+01 1.48218E-03 7.44378E-02 1.33001E-13 8.21704E-14
 -1      4802-1.72652E+00 8.38214E+01-1.77382E-03-4.13471E-01 1.00213E-13-2.00361E-16
 -1      4803-1.67476E+00 8.37858E+01 1.68240E-03-1.45190E-01-1.59915E-14-1.76602E-13
 -1      4804-1.98901E+00 8.40811E+01-2.51540E-03-7.69527E-01 6.02053E-14-1.62723E-13
 -1      4805-1.97465E+00 8.41433E+01 1.80095E-03-4.55553E-01 8.66338E-14 3.51622E-14
 -1      4806-2.23264E+00 8.42110E+01-3.44705E-03-1.22776E+00 3.29825E-13 3.45775E-13
 -1      4807-2.27245E+00 8.43930E+01 1.78592E-03-8.70406E-01 8.85516E-14 4.94865E-14
 -1      4808-2.43574E+00 8.41707E+01-4.57534E-03-1.79259E+00-5.10295E-14-1.72293E-13
 -1      4809-2.55029E+00 8.44957E+01 1.57766E-03-1.40056E+00-1.72330E-13 4.28060E-14
 -1      4810-2.56832E+00 8.39135E+01-5.85105E-03-2.45885E+00-4.93456E-13-1.27204E-13
 -1      4811-2.78141E+00 8.44028E+01 1.11728E-03-2.05001E+00-6.54263E-13-1.37113E-13
 -1      4812-2.59234E+00 8.33880E+01-7.13642E-03-3.20637E+00 1.85455E-13 5.96190E-14
 -1      4813-2.92887E+00 8.40575E+01 3.64576E-04-2.81052E+00-2.38212E-13 1.06845E-13
 -1      4814-2.46425E+00 8.25444E+01-8.17430E-03-3.99384E+00-1.41279E-13 7.30527E-14
 -1      4815-2.94632E+00 8.33977E+01-6.73200E-04-3.65450E+00-1.03562E-13 1.59803E-13
 -1      4816-2.78209E+00 8.23649E+01-1.89849E-03-4.52736E+00 5.10758E-13-7.60433E-14
 -1      4817-3.26761E-02 8.02376E+01 1.89932E-03 1.65436E-01-4.60687E-13-1.99868E-13
 -1      4818-1.43185E-02 8.00190E+01-3.11567E-03 1.06944E-01 3.21479E-14 1.35083E-14
 -1      4819-1.45306E-01 8.06007E+01 2.05060E-03 2.90042E-01-2.45136E-13-1.70704E-13
 -1      4820-9.13392E-02 8.03424E+01 2.56002E-04 2.82940E-01 5.10356E-15-8.95221E-14
 -1      4821-3.07278E-01 8.10529E+01 1.39343E-03 3.77761E-01 2.95743E-13 1.40339E-14
 -1      4822-2.25895E-01 8.07738E+01 4.58127E-04 4.12765E-01 4.30442E-13 1.34778E-13
 -1      4823-5.06513E-01 8.15610E+01 8.48219E-04 4.27643E-01-6.76236E-13-1.22753E-13
 -1      4824-4.03829E-01 8.12773E+01 6.48537E-04 4.99906E-01 2.41453E-13-1.06505E-13
 -1      4825-7.36240E-01 8.20984E+01 4.12683E-04 4.35992E-01-2.12156E-13 1.34101E-13
 -1      4826-6.17236E-01 8.18242E+01 8.85173E-04 5.44391E-01 3.51084E-13-6.46774E-14
 -1      4827-9.93066E-01 8.26427E+01 3.61646E-05 3.96094E-01 2.50867E-13 8.21027E-14
 -1      4828-8.62288E-01 8.23921E+01 1.17625E-03 5.42642E-01-4.18105E-13 1.41023E-13
 -1      4829-1.27546E+00 8.31742E+01-3.39796E-04 2.98171E-01-6.20771E-14-1.21240E-14
 -1      4830-1.13797E+00 8.29616E+01 1.50277E-03 4.87323E-01 7.99708E-14 5.66058E-14
 -1      4831-1.58220E+00 8.36728E+01-7.77607E-04 1.29536E-01 3.24287E-13 1.00777E-13
 -1      4832-1.44458E+00 8.35145E+01 1.84385E-03 3.67345E-01-5.95277E-13-2.08167E-17
 -1      4833-1.91055E+00 8.41158E+01-1.34626E-03-1.24961E-01-1.47804E-13-2.48473E-14
 -1      4834-1.78203E+00 8.40311E+01 2.16899E-03 1.68043E-01 2.17477E-13-2.93082E-15
 -1      4835-2.25414E+00 8.44754E+01-2.11925E-03-4.81989E-01 4.78857E-13-7.00379E-14
 -1      4836-2.14786E+00 8.44871E+01 2.43416E-03-1.28326E-01 8.46927E-14-1.12963E-13
 -1      4837-2.60041E+00 8.47157E+01-3.16680E-03-9.57960E-01 2.07820E-13 1.55667E-13
 -1      4838-2.53464E+00 8.48510E+01 2.57727E-03-5.41435E-01-1.30104E-13 2.28873E-13
 -1      4839-2.92785E+00 8.47904E+01-4.53782E-03-1.56594E+00-6.66908E-13-1.44412E-13
 -1      4840-2.92699E+00 8.50802E+01 2.51623E-03-1.09064E+00 3.17182E-13-1.15869E-13
 -1      4841-3.20329E+00 8.46409E+01-6.22648E-03-2.31075E+00-6.80254E-13-1.68691E-13
 -1      4842-3.29812E+00 8.51183E+01 2.15274E-03-1.79096E+00-1.01461E-13-1.22156E-13
 -1      4843-3.38033E+00 8.41978E+01-8.12152E-03-3.18174E+00-3.45412E-13 1.27051E-13
 -1      4844-3.60669E+00 8.48932E+01 1.38973E-03-2.64653E+00-1.69864E-13-7.75352E-14
 -1      4845-3.40029E+00 8.33853E+01-9.94109E-03-4.14344E+00 4.69994E-13 2.35909E-13
 -1      4846-3.79521E+00 8.43189E+01 1.65845E-04-3.64106E+00-8.25381E-15 4.66030E-13
 -1      4847-3.79217E+00 8.33034E+01-1.47086E-03-4.72554E+00-3.39280E-13-4.59036E-13
 -1      4848-3.17044E-02 8.00695E+01 1.33358E-03 2.41998E-01 9.76944E-14-2.22444E-13
 -1      4849-1.28500E-02 7.97914E+01-4.39959E-03 1.46642E-01-1.42966E-13 1.40879E-13
 -1      4850-1.39358E-01 8.04766E+01 1.95943E-03 4.20543E-01-5.09843E-13 1.55355E-13
 -1      4851-8.47139E-02 8.01712E+01 1.69664E-04 3.84839E-01-6.99892E-14-2.29334E-13
 -1      4852-2.95507E-01 8.09694E+01 1.40238E-03 5.49093E-01 5.95262E-14-1.78621E-13
 -1      4853-2.09858E-01 8.06506E+01 4.66480E-04 5.60941E-01-3.56437E-13 2.80262E-13
 -1      4854-4.89990E-01 8.15179E+01 9.45301E-04 6.32300E-01 4.55589E-13 3.96280E-14
 -1      4855-3.76800E-01 8.11977E+01 6.91093E-04 6.85231E-01 4.87410E-13-1.95007E-13
 -1      4856-7.18581E-01 8.20991E+01 6.03011E-04 6.70533E-01-1.37813E-13 7.50025E-14
 -1      4857-5.80252E-01 8.17879E+01 9.69672E-04 7.62727E-01-2.50342E-14 1.89834E-13
 -1      4858-9.80825E-01 8.26942E+01 3.24285E-04 6.59757E-01-2.65276E-13 5.20278E-14
 -1      4859-8.19322E-01 8.24030E+01 1.31807E-03 7.93404E-01-2.51222E-13-3.02161E-13
 -1      4860-1.27859E+00 8.32871E+01 4.85262E-05 5.91477E-01-3.47829E-14 2.37969E-14
 -1      4861-1.09637E+00 8.30278E+01 1.72482E-03 7.72142E-01 2.20376E-13 1.81646E-13
 -1      4862-1.61461E+00 8.38609E+01-2.92356E-04 4.52708E-01 3.24404E-13 1.18950E-13
 -1      4863-1.41568E+00 8.36486E+01 2.17719E-03 6.88639E-01 6.56038E-14 1.09040E-13
 -1      4864-1.99064E+00 8.43963E+01-7.80131E-04 2.26076E-01-1.99217E-13-4.63674E-14
 -1      4865-1.78188E+00 8.42498E+01 2.65259E-03 5.27281E-01-2.95101E-13-1.25278E-13
 -1      4866-2.40521E+00 8.48670E+01-1.51274E-03-1.09717E-01-1.67658E-13-1.21824E-14
 -1      4867-2.19801E+00 8.48109E+01 3.11211E-03 2.67149E-01-2.02175E-13 3.72003E-14
 -1      4868-2.85052E+00 8.52373E+01-2.60167E-03-5.78658E-01-2.45685E-13 8.98014E-14
 -1      4869-2.66272E+00 8.53029E+01 3.49154E-03-1.17539E-01-4.86625E-13-7.49487E-15
 -1      4870-3.30857E+00 8.54568E+01-4.15690E-03-1.20474E+00 5.92085E-13-7.11133E-14
 -1      4871-3.16651E+00 8.56831E+01 3.69242E-03-6.55933E-01-7.73513E-14 9.47697E-14
 -1      4872-3.74661E+00 8.54570E+01-6.25132E-03-2.00689E+00 1.37026E-13-1.43153E-13
 -1      4873-3.68686E+00 8.58900E+01 3.57640E-03-1.37708E+00-3.69219E-14-1.52951E-13
 -1      4874-4.11281E+00 8.51494E+01-8.84951E-03-2.99048E+00 2.93390E-13 1.46015E-13
 -1      4875-4.18252E+00 8.58384E+01 2.97357E-03-2.30316E+00 5.38163E-13 1.02723E-13
 -1      4876-4.33387E+00 8.44273E+01-1.17032E-02-4.13443E+00-2.50794E-13 1.64410E-13
 -1      4877-4.58817E+00 8.54166E+01 1.71540E-03-3.43784E+00-5.67393E-14 9.76164E-14
 -1      4878-4.81236E+00 8.44908E+01-2.83711E-04-4.74889E+00 2.57901E-13-1.38417E-13
 -1      4879-2.89928E-02 7.98425E+01 3.33540E-04 3.12961E-01 8.96800E-14-1.28245E-13
 -1      4880-1.02466E-02 7.94973E+01-6.21929E-03 1.82147E-01 1.24033E-13 9.04086E-14
 -1      4881-1.24430E-01 8.03088E+01 1.70594E-03 5.41689E-01 5.72684E-13 7.28063E-14
 -1      4882-7.21576E-02 7.99517E+01 2.41968E-05 4.75774E-01 2.46605E-13 1.01853E-13
 -1      4883-2.64265E-01 8.08507E+01 1.29631E-03 7.09522E-01-4.02872E-14-2.72102E-13
 -1      4884-1.78917E-01 8.04896E+01 4.40329E-04 6.93813E-01 2.27526E-13-2.89775E-13
 -1      4885-4.40635E-01 8.14436E+01 9.56189E-04 8.26997E-01-1.30703E-13 3.27904E-13
 -1      4886-3.22591E-01 8.10851E+01 6.89160E-04 8.53524E-01 2.00746E-13 2.41175E-13
 -1      4887-6.52209E-01 8.20691E+01 7.33137E-04 8.98848E-01 4.46954E-13-1.23707E-13
 -1      4888-5.00869E-01 8.17192E+01 9.96231E-04 9.65101E-01 2.53139E-13-9.62008E-14
 -1      4889-9.01779E-01 8.27134E+01 5.80732E-04 9.24134E-01 3.95853E-13 7.94087E-14
 -1      4890-7.15996E-01 8.23791E+01 1.38772E-03 1.03240E+00 6.58839E-14 2.50550E-13
 -1      4891-1.19502E+00 8.33651E+01 4.41606E-04 8.96218E-01-3.60087E-13 1.58297E-13
 -1      4892-9.73889E-01 8.30552E+01 1.86287E-03 1.05305E+00-8.98934E-14-2.86542E-13
 -1      4893-1.53930E+00 8.40127E+01 2.47846E-04 8.02548E-01 2.89067E-13 7.91520E-14
 -1      4894-1.28313E+00 8.37394E+01 2.42171E-03 1.01834E+00-2.46714E-13 3.73201E-13
 -1      4895-1.94212E+00 8.46416E+01-8.91615E-05 6.24309E-01 2.30191E-13-2.31305E-13
 -1      4896-1.65383E+00 8.44220E+01 3.05674E-03 9.12717E-01 2.37064E-13-1.98482E-13
 -1      4897-2.40892E+00 8.52306E+01-6.87615E-04 3.36174E-01-1.32932E-13-1.11196E-14
 -1      4898-2.09591E+00 8.50891E+01 3.74495E-03 7.13198E-01 2.60004E-13-1.28925E-13
 -1      4899-2.93980E+00 8.57470E+01-1.70196E-03-9.34557E-02-2.53478E-14 1.47823E-13
 -1      4900-2.61660E+00 8.57175E+01 4.43455E-03 3.88766E-01-7.62654E-14 1.29667E-13
 -1      4901-3.52478E+00 8.61408E+01-3.31810E-03-7.00896E-01 1.10155E-13-4.64698E-14
 -1      4902-3.21630E+00 8.62689E+01 5.02869E-03-9.95082E-02-3.97612E-13 7.67268E-15
 -1      4903-4.13729E+00 8.63376E+01-5.72709E-03-1.52303E+00 2.75210E-13-2.47580E-14
 -1      4904-3.88256E+00 8.66824E+01 5.36147E-03-7.96595E-01 1.72348E-13-3.93331E-14
 -1      4905-4.72634E+00 8.62316E+01-9.04322E-03-2.58863E+00 2.10637E-13 1.50990E-14
 -1      4906-4.58164E+00 8.68644E+01 5.19302E-03-1.74795E+00-9.59649E-14 8.11989E-14
 -1      4907-5.20873E+00 8.56829E+01-1.31651E-02-3.90278E+00-1.91486E-13 2.27665E-13
 -1      4908-5.24838E+00 8.66801E+01 4.19472E-03-2.98751E+00 8.99836E-14-9.35987E-14
 -1      4909-5.77660E+00 8.59494E+01 2.09826E-03-4.51590E+00 3.40963E-13 1.90126E-14
 -1      4910-2.44118E-02 7.95631E+01-1.09837E-03 3.73389E-01-7.59219E-14 2.05860E-13
 -1      4911-6.49911E-03 7.91468E+01-8.52682E-03 2.10793E-01-8.69443E-14 8.80442E-14
 -1      4912-1.00043E-01 8.01013E+01 1.28300E-03 6.44802E-01 1.72157E-13-3.48960E-13
 -1      4913-5.35583E-02 7.96911E+01-1.81514E-04 5.48750E-01 4.83467E-15-8.14140E-14
 -1      4914-2.12529E-01 8.06986E+01 1.06689E-03 8.47253E-01 2.43598E-13-1.15147E-13
 -1      4915-1.32802E-01 8.02953E+01 3.72901E-04 8.00896E-01-3.73352E-13-9.35745E-14
 -1      4916-3.56561E-01 8.13371E+01 8.68288E-04 9.97151E-01 6.13784E-14 3.31991E-13
 -1      4917-2.40607E-01 8.09412E+01 6.29367E-04 9.91207E-01 3.62576E-13 1.62023E-14
 -1      4918-5.33800E-01 8.20044E+01 7.83784E-04 1.10373E+00 1.15134E-14-7.49088E-14
 -1      4919-3.77775E-01 8.16170E+01 9.42929E-04 1.13496E+00 4.69943E-14 1.61655E-13
 -1      4920-7.50235E-01 8.26928E+01 7.77935E-04 1.16954E+00-7.36217E-13-1.29438E-13
 -1      4921-5.49555E-01 8.23161E+01 1.35102E-03 1.24007E+00-1.90968E-13-1.70166E-13
 -1      4922-1.01532E+00 8.33968E+01 8.03273E-04 1.19052E+00-1.55516E-13 1.68747E-13
 -1      4923-7.65142E-01 8.30354E+01 1.86599E-03 1.30747E+00-2.87912E-13-2.63331E-14
 -1      4924-1.34122E+00 8.41113E+01 8.00382E-04 1.15564E+00-2.63033E-13 1.42615E-13
 -1      4925-1.03719E+00 8.37734E+01 2.50417E-03 1.33103E+00-4.63428E-13 4.20983E-14
 -1      4926-1.74182E+00 8.48289E+01 6.84280E-04 1.04607E+00 1.30895E-13-2.49772E-13
 -1      4927-1.38127E+00 8.45282E+01 3.28009E-03 1.29676E+00-6.65554E-13-2.29469E-14
 -1      4928-2.23103E+00 8.55360E+01 3.28331E-04 8.34088E-01 4.40654E-14 5.93189E-14
 -1      4929-1.81489E+00 8.52941E+01 4.19888E-03 1.18159E+00-4.23932E-14-6.78815E-14
 -1      4930-2.81987E+00 8.62075E+01-4.55106E-04 4.81896E-01-4.08708E-13 8.99915E-14
 -1      4931-2.35566E+00 8.60579E+01 5.24144E-03 9.51527E-01 2.01610E-13 1.65137E-13
 -1      4932-3.51149E+00 8.67995E+01-1.92810E-03-5.87609E-02 4.62810E-13-4.22370E-14
 -1      4933-3.01766E+00 8.67912E+01 6.34195E-03 5.59890E-01 3.58449E-13-1.89833E-14
 -1      4934-4.29333E+00 8.72385E+01-4.43448E-03-8.44807E-01 3.58456E-13-4.73788E-14
 -1      4935-3.80516E+00 8.74414E+01 7.34612E-03-5.36265E-02 2.71685E-13-1.09322E-14
 -1      4936-5.12556E+00 8.74090E+01-8.30502E-03-1.93513E+00-6.64621E-13 9.28424E-15
 -1      4937-4.70219E+00 8.79164E+01 7.98263E-03-9.60688E-01-4.52138E-14-1.66339E-13
 -1      4938-5.92657E+00 8.71406E+01-1.37474E-02-3.37491E+00-1.35308E-14 9.76719E-14
 -1      4939-5.65741E+00 8.80677E+01 7.77224E-03-2.23500E+00-1.90403E-14 2.70492E-13
 -1      4940-6.56398E+00 8.76719E+01 6.29438E-03-3.92974E+00-2.14939E-13-1.90861E-13
 -1      4941-1.79541E-02 7.92420E+01-2.91201E-03 4.18256E-01 9.99062E-14-9.58608E-14
 -1      4942-6.63547E-02 7.98619E+01 7.10442E-04 7.21070E-01 1.67097E-13-2.74350E-13
 -1      4943-1.40660E-01 8.05178E+01 7.22137E-04 9.50213E-01-6.97446E-14 1.45085E-13
 -1      4944-2.38169E-01 8.12003E+01 6.78140E-04 1.12754E+00-5.23352E-14 3.07948E-14
 -1      4945-3.63333E-01 8.19042E+01 7.37088E-04 1.26666E+00-1.03358E-13-5.41060E-14
 -1      4946-5.24878E-01 8.26281E+01 8.80364E-04 1.37386E+00 1.26288E-15-2.11053E-13
 -1      4947-7.35407E-01 8.33734E+01 1.07669E-03 1.44841E+00 5.14987E-13 1.45984E-13
 -1      4948-1.01130E+00 8.41423E+01 1.28393E-03 1.48211E+00-2.73379E-13 1.74132E-13
 -1      4949-1.37252E+00 8.49360E+01 1.43386E-03 1.45815E+00 1.89574E-13-1.47000E-13
 -1      4950-1.84187E+00 8.57512E+01 1.41023E-03 1.34909E+00-2.39579E-13 9.18016E-15
 -1      4951-2.44320E+00 8.65749E+01 1.01690E-03 1.11421E+00 3.40721E-13-2.22340E-14
 -1      4952-3.19735E+00 8.73763E+01-6.40951E-05 6.96454E-01-1.72230E-13 1.19573E-13
 -1      4953-4.11435E+00 8.80931E+01-2.32035E-03 2.03544E-02-1.78260E-13-5.54765E-14
 -1      4954-5.17968E+00 8.86131E+01-6.36963E-03-1.00624E+00-1.86129E-13-6.70783E-14
 -1      4955-6.33279E+00 8.87478E+01-1.31234E-02-2.48112E+00 1.88183E-13 2.46331E-14
 -1      4956-4.78310E-03 7.86948E+01-6.47254E-03 4.54574E-01 1.66776E-13 5.42569E-14
 -1      4957 1.59473E-03 7.94513E+01-4.34439E-04 7.76106E-01 7.24316E-14 7.30249E-14
 -1      4958 5.27081E-03 8.01986E+01 3.97356E-04 1.02406E+00-6.06381E-14-9.59476E-14
 -1      4959 5.17002E-03 8.09422E+01 1.23491E-03 1.22692E+00 8.67424E-14-8.57647E-15
 -1      4960-6.34603E-03 8.16888E+01 2.39001E-03 1.40399E+00-3.14790E-13 9.31668E-14
 -1      4961-4.02645E-02 8.24478E+01 3.93915E-03 1.56723E+00 5.61795E-14 5.92686E-14
 -1      4962-1.11325E-01 8.32312E+01 5.98274E-03 1.72203E+00 4.18918E-14-1.42573E-13
 -1      4963-2.38986E-01 8.40531E+01 8.65025E-03 1.86702E+00-2.46851E-15 3.07705E-14
 -1      4964-4.48699E-01 8.49291E+01 1.20844E-02 1.99286E+00 3.48792E-13-2.39080E-14
 -1      4965-7.73362E-01 8.58752E+01 1.64013E-02 2.07948E+00-1.82306E-13 1.37819E-13
 -1      4966-1.25459E+00 8.69038E+01 2.15903E-02 2.09155E+00 2.77167E-13-1.89503E-13
 -1      4967-1.94292E+00 8.80173E+01 2.73288E-02 1.97144E+00 2.21493E-13 9.51227E-14
 -1      4968-2.89526E+00 8.91938E+01 3.25430E-02 1.62941E+00 2.39940E-13-1.89578E-13
 -1      4969-4.16574E+00 9.03611E+01 3.47889E-02 9.32015E-01-2.39177E-13 5.06062E-14
 -1      4970-5.78167E+00 9.13531E+01 3.00265E-02-3.06629E-01-1.00558E-13 1.02064E-13
 -1      4971 4.12909E-03 7.83205E+01-1.04766E-02 4.39097E-01 3.45583E-14-1.53152E-13
 -1      4972 5.33921E-02 7.91696E+01-2.55837E-03 7.47737E-01 4.47290E-14-1.28089E-13
 -1      4973 1.18296E-01 7.99729E+01-1.33984E-03 9.88122E-01-2.38669E-13 6.32133E-15
 -1      4974 1.95628E-01 8.07473E+01-3.76003E-04 1.19092E+00-1.58734E-13 9.52346E-14
 -1      4975 2.76738E-01 8.15076E+01 7.61484E-04 1.37777E+00 5.82269E-14 9.97258E-14
 -1      4976 3.50883E-01 8.22697E+01 2.20387E-03 1.56363E+00-1.09334E-13-8.09144E-14
 -1      4977 4.04427E-01 8.30516E+01 4.10761E-03 1.75796E+00-3.93567E-13-1.36263E-14
 -1      4978 4.19364E-01 8.38740E+01 6.68506E-03 1.96497E+00-3.69092E-13 1.26520E-13
 -1      4979 3.71279E-01 8.47611E+01 1.02160E-02 2.18280E+00 1.55292E-13 2.20483E-15
 -1      4980 2.26642E-01 8.57408E+01 1.50517E-02 2.40120E+00-1.74357E-13-1.54448E-13
 -1      4981-6.06601E-02 8.68441E+01 2.15779E-02 2.59697E+00-4.28303E-14 2.43226E-14
 -1      4982-5.53284E-01 8.81017E+01 3.01171E-02 2.72585E+00-1.51070E-13-1.06141E-13
 -1      4983-1.33411E+00 8.95344E+01 4.04745E-02 2.70916E+00-2.09374E-13 1.01689E-14
 -1      4984-2.50585E+00 9.11311E+01 5.16229E-02 2.41347E+00-1.09773E-13-8.10654E-14
 -1      4985-4.18300E+00 9.27975E+01 5.75903E-02 1.62146E+00 1.29279E-13 1.43158E-13
 -1      4986 1.34021E-02 7.79736E+01-1.45106E-02 3.92595E-01-2.02838E-13-2.81771E-13
 -1      4987 1.06724E-01 7.89082E+01-4.76428E-03 6.65912E-01-1.61525E-13 5.59205E-14
 -1      4988 2.34839E-01 7.97598E+01-3.21858E-03 8.80282E-01 7.77716E-14-6.75814E-14
 -1      4989 3.92914E-01 8.05558E+01-2.23051E-03 1.06614E+00-2.05033E-14 1.35975E-13
 -1      4990 5.72258E-01 8.13186E+01-1.26576E-03 1.24567E+00-2.06107E-14 8.49841E-14
 -1      4991 7.63839E-01 8.20696E+01-1.60567E-04 1.43543E+00 1.33971E-13-1.46994E-13
 -1      4992 9.57300E-01 8.28312E+01 1.26144E-03 1.64788E+00-3.10507E-14 3.67519E-14
 -1      4993 1.13932E+00 8.36288E+01 3.24212E-03 1.89218E+00 1.72903E-13 1.29532E-13
 -1      4994 1.29131E+00 8.44920E+01 6.12486E-03 2.17415E+00 7.43121E-14-9.17530E-14
 -1      4995 1.38619E+00 8.54574E+01 1.04051E-02 2.49492E+00-8.08763E-14 9.48130E-14
 -1      4996 1.38363E+00 8.65703E+01 1.67806E-02 2.84766E+00 1.41515E-13-5.01994E-14
 -1      4997 1.22329E+00 8.78868E+01 2.62106E-02 3.21074E+00 8.69478E-14-9.34496E-14
 -1      4998 8.15184E-01 8.94715E+01 3.96420E-02 3.53451E+00-1.16039E-13 6.47885E-14
 -1      4999 2.97243E-02 9.13878E+01 5.85391E-02 3.71711E+00-3.53051E-14 3.53814E-14
 -1      5000-1.32047E+00 9.36578E+01 7.76782E-02 3.56092E+00-1.38375E-13 4.63154E-14
 -1      5001 2.22497E-02 7.76803E+01-1.82620E-02 3.15387E-01-6.56220E-14-1.39434E-13
 -1      5002 1.57228E-01 7.86880E+01-6.86862E-03 5.31167E-01 3.09722E-13 5.40748E-14
 -1      5003 3.45315E-01 7.95773E+01-5.06852E-03 7.00819E-01-1.34994E-13-5.89702E-14
 -1      5004 5.80607E-01 8.03857E+01-4.14119E-03 8.51856E-01 9.92563E-14 1.77990E-13
 -1      5005 8.55157E-01 8.11416E+01-3.46735E-03 1.00482E+00 9.24161E-14-1.59012E-13
 -1      5006 1.16275E+00 8.18707E+01-2.87740E-03 1.17592E+00-3.45141E-13 5.34399E-14
 -1      5007 1.49795E+00 8.25981E+01-2.21776E-03 1.37871E+00-3.78308E-14-1.38518E-13
 -1      5008 1.85475E+00 8.33512E+01-1.28638E-03 1.62536E+00 8.84171E-14 2.43965E-13
 -1      5009 2.22460E+00 8.41619E+01 2.12270E-04 1.92734E+00 6.17215E-14-9.82860E-14
 -1      5010 2.59375E+00 8.50703E+01 2.74176E-03 2.29544E+00 1.02177E-13 4.21434E-14
 -1      5011 2.93885E+00 8.61291E+01 7.04636E-03 2.73858E+00 1.20671E-13-9.68149E-14
 -1      5012 3.22003E+00 8.74100E+01 1.43451E-02 3.26014E+00 1.90754E-13 2.87652E-14
 -1      5013 3.36910E+00 8.90100E+01 2.63829E-02 3.84914E+00 5.63577E-14 6.53505E-14
 -1      5014 3.27322E+00 9.10591E+01 4.66888E-02 4.46043E+00 7.87981E-14-1.22305E-13
 -1      5015 2.73482E+00 9.37077E+01 7.27191E-02 4.97112E+00 1.68907E-13 8.99975E-14
 -1      5016 2.98576E-02 7.74651E+01-2.14059E-02 2.10452E-01 1.17189E-13-2.90701E-13
 -1      5017 2.00335E-01 7.85285E+01-8.67281E-03 3.48635E-01 1.97511E-13-3.96558E-15
 -1      5018 4.39671E-01 7.94435E+01-6.69242E-03 4.56368E-01 2.41774E-13-1.52305E-13
 -1      5019 7.41335E-01 8.02557E+01-5.87341E-03 5.55580E-01-1.15886E-13 1.57881E-13
 -1      5020 1.09855E+00 8.09982E+01-5.53708E-03 6.62910E-01-1.60926E-13 1.19932E-13
 -1      5021 1.50831E+00 8.16996E+01-5.52955E-03 7.91957E-01 1.60752E-13-5.80785E-15
 -1      5022 1.97076E+00 8.23863E+01-5.75299E-03 9.54904E-01 6.02634E-14-6.47468E-14
 -1      5023 2.48823E+00 8.30858E+01-6.10227E-03 1.16386E+00-7.88432E-16 1.00624E-13
 -1      5024 3.06434E+00 8.38291E+01-6.43177E-03 1.43202E+00 9.32188E-14-1.45998E-13
 -1      5025 3.70269E+00 8.46553E+01-6.49534E-03 1.77472E+00 3.87641E-14 6.92953E-14
 -1      5026 4.40464E+00 8.56170E+01-5.83737E-03 2.21011E+00-2.80595E-13 1.67436E-14
 -1      5027 5.16522E+00 8.67888E+01-3.59035E-03 2.75902E+00-2.88589E-14 2.68952E-14
 -1      5028 5.96512E+00 8.82814E+01 1.81427E-03 3.44220E+00 1.98515E-13-1.85241E-13
 -1      5029 6.75731E+00 9.02625E+01 1.40741E-02 4.27072E+00 1.94483E-13 3.36883E-14
 -1      5030 7.42559E+00 9.29813E+01 3.34015E-02 5.21775E+00-2.62998E-13 1.81591E-13
 -1      5031 3.54724E-02 7.73493E+01-2.36483E-02 8.33820E-02 8.56455E-15-1.93127E-13
 -1      5032 2.31860E-01 7.84469E+01-9.99205E-03 1.27967E-01-1.53967E-13 5.89979E-14
 -1      5033 5.08673E-01 7.93742E+01-7.89873E-03 1.59893E-01 1.07728E-13 3.15373E-15
 -1      5034 8.59040E-01 8.01826E+01-7.18767E-03 1.93230E-01-1.22063E-13 5.83839E-14
 -1      5035 1.27730E+00 8.09086E+01-7.14568E-03 2.38697E-01 2.45070E-13-4.98455E-14
 -1      5036 1.76326E+00 8.15824E+01-7.64317E-03 3.05202E-01-1.01981E-13-3.09336E-14
 -1      5037 2.32182E+00 8.22309E+01-8.64611E-03 4.01003E-01 1.12001E-13-8.39953E-14
 -1      5038 2.96270E+00 8.28803E+01-1.01619E-02 5.34776E-01 8.19778E-14 2.07716E-14
 -1      5039 3.70051E+00 8.35597E+01-1.22308E-02 7.16689E-01-1.65679E-13 1.53245E-13
 -1      5040 4.55524E+00 8.43046E+01-1.49082E-02 9.59613E-01-7.05339E-14-1.05107E-13
 -1      5041 5.55286E+00 8.51627E+01-1.82195E-02 1.28056E+00-7.83887E-14 1.05888E-13
 -1      5042 6.72588E+00 8.62034E+01-2.20750E-02 1.70226E+00 2.37631E-13-3.87190E-15
 -1      5043 8.11278E+00 8.75339E+01-2.59984E-02 2.25448E+00-3.70912E-13-2.53221E-13
 -1      5044 9.75575E+00 8.93287E+01-2.82683E-02 2.97294E+00-1.34545E-14 1.32117E-14
 -1      5045 1.16802E+01 9.18831E+01-2.77635E-02 3.88952E+00-1.36752E-13 1.33962E-13
 -1      5046 3.85147E-02 7.73482E+01-2.47658E-02-5.80145E-02 2.75911E-13-1.37532E-13
 -1      5047 2.48595E-01 7.84554E+01-1.06830E-02-1.17351E-01 2.31748E-13 5.23609E-14
 -1      5048 5.45227E-01 7.93810E+01-8.53452E-03-1.70233E-01-5.95335E-15-1.18544E-13
 -1      5049 9.21330E-01 8.01793E+01-7.88651E-03-2.11992E-01-1.42300E-13 1.56375E-13
 -1      5050 1.37188E+00 8.08887E+01-8.01301E-03-2.39222E-01-1.82545E-14-4.57516E-14
 -1      5051 1.89829E+00 8.15400E+01-8.80183E-03-2.49222E-01 9.70816E-15 1.51410E-13
 -1      5052 2.50821E+00 8.21603E+01-1.02608E-02-2.39553E-01 1.04482E-13-1.35739E-13
 -1      5053 3.21564E+00 8.27750E+01-1.24719E-02-2.07615E-01-2.43123E-13 2.09947E-13
 -1      5054 4.04174E+00 8.34113E+01-1.56027E-02-1.50195E-01-2.41320E-13-2.63619E-13
 -1      5055 5.01645E+00 8.41020E+01-1.99241E-02-6.29246E-02-1.77287E-13 1.01405E-13
 -1      5056 6.18116E+00 8.48906E+01-2.58284E-02 6.04249E-02 3.70429E-14-2.14967E-14
 -1      5057 7.59263E+00 8.58403E+01-3.38677E-02 2.28866E-01 1.77870E-13 5.92582E-14
 -1      5058 9.32856E+00 8.70507E+01-4.46152E-02 4.55316E-01-9.55997E-14-1.81591E-13
 -1      5059 1.14953E+01 8.86900E+01-5.84929E-02 7.57508E-01 1.18613E-13 1.47382E-14
 -1      5060 1.42299E+01 9.10619E+01-7.49068E-02 1.15690E+00-1.93977E-13 8.87901E-14
 -1      5061 3.86692E-02 7.74699E+01-2.46366E-02-2.04444E-01-2.27910E-13-7.49088E-14
 -1      5062 2.48792E-01 7.85608E+01-1.06668E-02-3.71255E-01-5.10078E-14-4.76251E-14
 -1      5063 5.45467E-01 7.94702E+01-8.51445E-03-5.11982E-01-7.59648E-14-2.00430E-14
 -1      5064 9.21428E-01 8.02527E+01-7.85794E-03-6.31913E-01 5.45703E-14 4.70769E-14
 -1      5065 1.37156E+00 8.09469E+01-7.97767E-03-7.35465E-01 2.12444E-13-5.04354E-14
 -1      5066 1.89721E+00 8.15839E+01-8.76157E-03-8.26708E-01-6.49082E-14 2.72629E-14
 -1      5067 2.50598E+00 8.21906E+01-1.02171E-02-9.09738E-01 1.11187E-13-1.36835E-13
 -1      5068 3.21185E+00 8.27927E+01-1.24257E-02-9.89038E-01 6.14103E-14 1.16952E-13
 -1      5069 4.03594E+00 8.34176E+01-1.55539E-02-1.06987E+00 2.66282E-13-2.95285E-14
 -1      5070 5.00818E+00 8.40979E+01-1.98710E-02-1.15875E+00 1.30140E-13-1.29466E-13
 -1      5071 6.16990E+00 8.48772E+01-2.57669E-02-1.26413E+00-1.45366E-13 2.01797E-13
 -1      5072 7.57781E+00 8.58188E+01-3.37892E-02-1.39729E+00 1.97244E-13-9.25995E-14
 -1      5073 9.30945E+00 8.70224E+01-4.45038E-02-1.57341E+00 1.20605E-13-4.40412E-14
 -1      5074 1.14708E+01 8.86560E+01-5.83133E-02-1.81253E+00 1.28236E-13-2.27596E-15
 -1      5075 1.41985E+01 9.10234E+01-7.46112E-02-2.13841E+00 8.04322E-14-1.90681E-14
 -1      5076 3.59354E-02 7.77146E+01-2.32589E-02-3.46086E-01 1.33788E-13-3.78968E-14
 -1      5077 2.32440E-01 7.87628E+01-9.94263E-03-6.16766E-01 3.62551E-13-2.14918E-13
 -1      5078 5.09364E-01 7.96415E+01-7.83766E-03-8.42021E-01-1.67436E-14 7.33788E-14
 -1      5079 8.59276E-01 8.04025E+01-7.10130E-03-1.03658E+00-1.32730E-13 1.09655E-13
 -1      5080 1.27625E+00 8.10830E+01-7.03934E-03-1.21220E+00 1.18635E-13-1.01030E-14
 -1      5081 1.75989E+00 8.17135E+01-7.52265E-03-1.37922E+00 1.18371E-13-1.19346E-13
 -1      5082 2.31499E+00 8.23214E+01-8.51624E-03-1.54757E+00-1.60535E-13 6.54893E-14
 -1      5083 2.95114E+00 8.29332E+01-1.00258E-02-1.72784E+00 1.98478E-14 1.19963E-13
 -1      5084 3.68293E+00 8.35781E+01-1.20892E-02-1.93225E+00-8.00957E-14-6.90385E-14
 -1      5085 4.53027E+00 8.42918E+01-1.47580E-02-2.17583E+00 1.83539E-13 9.92748E-14
 -1      5086 5.51909E+00 8.51220E+01-1.80516E-02-2.47774E+00-2.14516E-14 2.49939E-14
 -1      5087 6.68170E+00 8.61383E+01-2.18703E-02-2.86289E+00-6.54303E-14-8.89497E-14
 -1      5088 8.05627E+00 8.74477E+01-2.57230E-02-3.36309E+00 4.24660E-15 1.54807E-14
 -1      5089 9.68432E+00 8.92247E+01-2.78527E-02-4.01596E+00-8.56329E-14 3.31679E-15
 -1      5090 1.15900E+01 9.17644E+01-2.71233E-02-4.85492E+00 2.35985E-13 7.33302E-14
 -1      5091 3.06276E-02 7.80741E+01-2.07503E-02-4.73635E-01-2.24811E-14 6.56072E-15
 -1      5092 2.01262E-01 7.90549E+01-8.58720E-03-8.37793E-01 4.01580E-14 4.74863E-14
 -1      5093 4.40720E-01 7.98885E+01-6.58771E-03-1.13827E+00-1.44315E-13-1.95201E-13
 -1      5094 7.41534E-01 8.06213E+01-5.72713E-03-1.39775E+00 2.12339E-14 6.12843E-14
 -1      5095 1.09648E+00 8.12877E+01-5.35858E-03-1.63398E+00 1.54827E-13-1.00742E-13
 -1      5096 1.50227E+00 8.19168E+01-5.32916E-03-1.86207E+00-1.23815E-13 1.24220E-13
 -1      5097 1.95880E+00 8.25358E+01-5.53972E-03-2.09596E+00 4.60760E-14-2.10838E-13
 -1      5098 2.46830E+00 8.31724E+01-5.88293E-03-2.34972E+00-4.21616E-14 2.81806E-13
 -1      5099 3.03434E+00 8.38582E+01-6.21001E-03-2.63864E+00 8.12544E-14-2.17243E-13
 -1      5100 3.66050E+00 8.46323E+01-6.27050E-03-2.98018E+00 4.28685E-14 1.75623E-14
 -1      5101 4.34810E+00 8.55474E+01-5.60286E-03-3.39463E+00-5.88349E-14 1.82559E-13
 -1      5102 5.09210E+00 8.66780E+01-3.33137E-03-3.90482E+00-4.70977E-14-5.32283E-14
 -1      5103 5.87294E+00 8.81346E+01 2.12207E-03-4.53334E+00 2.51674E-14-2.62117E-13
 -1      5104 6.64313E+00 9.00843E+01 1.44687E-02-5.29269E+00-1.19384E-13 2.23203E-13
 -1      5105 7.28559E+00 9.27755E+01 3.39067E-02-6.15687E+00-2.65593E-13-1.66825E-13
 -1      5106 2.33232E-02 7.85331E+01-1.73298E-02-5.79256E-01 2.17344E-14 1.69354E-13
 -1      5107 1.58439E-01 7.94242E+01-6.74165E-03-1.02079E+00-2.15599E-13-1.03917E-13
 -1      5108 3.46556E-01 8.01989E+01-4.91543E-03-1.38227E+00 1.78859E-13 4.71151E-15
 -1      5109 5.80453E-01 8.08957E+01-3.93096E-03-1.69209E+00 2.10118E-13 1.40027E-14
 -1      5110 8.51579E-01 8.15445E+01-3.21403E-03-1.97206E+00 3.76134E-14-3.27516E-14
 -1      5111 1.15330E+00 8.21720E+01-2.59663E-03-2.23998E+00-1.03363E-13-1.33386E-13
 -1      5112 1.47994E+00 8.28044E+01-1.92377E-03-2.51131E+00 5.26463E-14 2.98962E-14
 -1      5113 1.82533E+00 8.34694E+01-9.91103E-04-2.80029E+00-1.28186E-13 2.51951E-13
 -1      5114 2.18094E+00 8.41995E+01 4.99830E-04-3.12054E+00-1.63187E-13-1.81626E-13
 -1      5115 2.53307E+00 8.50349E+01 3.01597E-03-3.48503E+00-2.35211E-14-9.18467E-14
 -1      5116 2.85853E+00 8.60282E+01 7.30493E-03-3.90479E+00-2.19953E-13 9.88341E-14
 -1      5117 3.11758E+00 8.72509E+01 1.45878E-02-4.38518E+00-1.16095E-13 2.15349E-14
 -1      5118 3.24217E+00 8.87994E+01 2.66076E-02-4.91692E+00-8.21357E-14-1.08372E-13
 -1      5119 3.11961E+00 9.08027E+01 4.68761E-02-5.45616E+00-4.52624E-14 1.88183E-14
 -1      5120 2.55257E+00 9.34094E+01 7.28092E-02-5.88082E+00-6.22141E-14 8.03663E-14
 -1      5121 1.47724E-02 7.90705E+01-1.32865E-02-6.57313E-01 1.76525E-13 8.75584E-14
 -1      5122 1.08121E-01 7.98537E+01-4.58814E-03-1.15600E+00 1.71946E-14-1.08209E-13
 -1      5123 2.36015E-01 8.05565E+01-3.00982E-03-1.56090E+00 1.53526E-13 4.10887E-14
 -1      5124 3.91923E-01 8.12081E+01-1.94986E-03-1.90348E+00 1.31018E-13 7.14706E-14
 -1      5125 5.66389E-01 8.18324E+01-9.32671E-04-2.20740E+00-1.30777E-13-2.06373E-13
 -1      5126 7.49877E-01 8.24524E+01 2.03229E-04-2.49101E+00 1.39473E-13 1.20388E-13
 -1      5127 9.31739E-01 8.30915E+01 1.63559E-03-2.76882E+00 1.89414E-14 2.92509E-14
 -1      5128 1.09855E+00 8.37758E+01 3.60846E-03-3.05223E+00-3.19467E-14-1.82163E-14
 -1      5129 1.23181E+00 8.45354E+01 6.46765E-03-3.34934E+00 1.84019E-14 7.04610E-14
 -1      5130 1.30466E+00 8.54069E+01 1.07107E-02-3.66355E+00 2.20657E-14-8.74058E-14
 -1      5131 1.27711E+00 8.64356E+01 1.70360E-02-3.99024E+00 1.39087E-13 4.07313E-14
 -1      5132 1.08931E+00 8.76770E+01 2.63998E-02-4.30981E+00-4.44436E-14 1.77046E-14
 -1      5133 6.51884E-01 8.91948E+01 3.97398E-02-4.57443E+00-1.58901E-13-2.39794E-13
 -1      5134-1.63907E-01 9.10512E+01 5.84920E-02-4.68377E+00-7.32261E-14 8.98830E-14
 -1      5135-1.54416E+00 9.32661E+01 7.73911E-02-4.44158E+00-1.08386E-13 1.33907E-13
 -1      5136 5.78480E-03 7.96615E+01-8.93993E-03-7.04762E-01-1.26159E-13-1.20130E-14
 -1      5137 5.48306E-02 8.03232E+01-2.32216E-03-1.23815E+00-1.20063E-13-2.62845E-14
 -1      5138 1.19038E-01 8.09428E+01-1.06506E-03-1.66727E+00 1.15939E-13 4.50265E-14
 -1      5139 1.93108E-01 8.15392E+01-1.53443E-05-2.02409E+00-9.13800E-14-3.57769E-14
 -1      5140 2.67472E-01 8.21291E+01 1.18243E-03-2.33194E+00 9.30812E-14-4.69885E-14
 -1      5141 3.30807E-01 8.27304E+01 2.65659E-03-2.60786E+00-1.64855E-13 7.54154E-14
 -1      5142 3.69175E-01 8.33623E+01 4.56503E-03-2.86357E+00-3.41688E-14-5.05741E-14
 -1      5143 3.64526E-01 8.40462E+01 7.12235E-03-3.10572E+00-7.03500E-14 1.58783E-13
 -1      5144 2.92639E-01 8.48069E+01 1.06106E-02-3.33495E+00-4.95298E-14-8.21305E-14
 -1      5145 1.20392E-01 8.56723E+01 1.53826E-02-3.54346E+00-3.85490E-14 9.31807E-14
 -1      5146-1.97720E-01 8.66731E+01 2.18241E-02-3.71041E+00-1.72268E-13-1.08162E-13
 -1      5147-7.23548E-01 8.78393E+01 3.02532E-02-3.79376E+00-9.24608E-15 1.31067E-13
 -1      5148-1.53893E+00 8.91908E+01 4.04678E-02-3.71689E+00 9.08856E-14-2.18860E-13
 -1      5149-2.74522E+00 9.07149E+01 5.14222E-02-3.34829E+00 8.94215E-14-6.80215E-14
 -1      5150-4.45512E+00 9.23154E+01 5.71202E-02-2.47273E+00-8.30586E-15 9.02056E-14
 -1      5151-2.85768E-03 8.02799E+01-4.59606E-03-7.21189E-01 7.04992E-14-3.98379E-14
 -1      5152 2.87692E-03 8.08117E+01-1.23718E-04-1.26650E+00 2.44887E-13 8.93036E-15
 -1      5153 5.08072E-03 8.13391E+01 7.52305E-04-1.70081E+00 3.09214E-14-6.17527E-14
 -1      5154 1.86953E-04 8.18701E+01 1.68899E-03-2.05421E+00 8.56203E-14 1.16700E-13
 -1      5155-2.05034E-02 8.24140E+01 2.91083E-03-2.34804E+00 2.35888E-14 4.23273E-16
 -1      5156-6.86213E-02 8.29822E+01 4.49078E-03-2.59662E+00 6.46171E-14 5.09766E-14
 -1      5157-1.59200E-01 8.35879E+01 6.53109E-03-2.80793E+00 1.46558E-14-1.46785E-13
 -1      5158-3.11663E-01 8.42463E+01 9.16395E-03-2.98334E+00 1.63342E-14 9.19750E-14
 -1      5159-5.51130E-01 8.49736E+01 1.25350E-02-3.11623E+00-5.02671E-14-4.35763E-14
 -1      5160-9.09893E-01 8.57855E+01 1.67624E-02-3.18923E+00 1.78538E-14 6.22479E-14
 -1      5161-1.42871E+00 8.66941E+01 2.18369E-02-3.16961E+00 3.10238E-14-7.50970E-14
 -1      5162-2.15703E+00 8.77011E+01 2.74346E-02-3.00218E+00-3.45082E-13 1.06873E-13
 -1      5163-3.15041E+00 8.87834E+01 3.24808E-02-2.59954E+00 4.99670E-14-1.45022E-13
 -1      5164-4.46136E+00 8.98672E+01 3.45282E-02-1.83057E+00-7.80140E-14-1.46402E-14
 -1      5165-6.11535E+00 9.07851E+01 2.95217E-02-5.11833E-01 3.94546E-14 9.70612E-14
 -1      5166-9.61415E-03 7.88850E+01-5.13334E-03 4.42887E-01 1.15852E-13-2.10262E-13
 -1      5167 4.29360E-03 7.83187E+01-1.43744E-02 2.37778E-01-4.13718E-13 2.65614E-13
 -1      5168-2.33083E-02 7.95945E+01-4.63142E-05 7.62470E-01-7.01730E-14-3.40561E-14
 -1      5169 1.26325E-03 7.90781E+01-7.59155E-04 6.14623E-01-1.52170E-13-3.89987E-13
 -1      5170-4.84704E-02 8.03107E+01 2.24838E-04 1.00740E+00-5.87126E-14 7.06379E-15
 -1      5171 3.66812E-03 7.98283E+01 1.13592E-04 8.97988E-01-2.35697E-14 3.55438E-13
 -1      5172-8.49411E-02 8.10341E+01 3.34561E-04 1.20416E+00-2.51501E-13-5.86059E-14
 -1      5173 4.82679E-03 8.05725E+01 3.41067E-04 1.12237E+00-1.04260E-13-3.29292E-13
 -1      5174-1.39504E-01 8.17671E+01 5.18529E-04 1.37033E+00 5.48310E-13 5.75720E-14
 -1      5175-1.77198E-03 8.13158E+01 6.07549E-04 1.31148E+00-8.03723E-14 4.21094E-13
 -1      5176-2.22749E-01 8.25156E+01 7.79143E-04 1.51601E+00 3.36979E-13-5.94247E-14
 -1      5177-2.55580E-02 8.20662E+01 9.73966E-04 1.48089E+00-1.15468E-13-1.92270E-13
 -1      5178-3.49230E-01 8.32877E+01 1.10590E-03 1.64444E+00 5.12333E-14-3.32651E-14
 -1      5179-7.94163E-02 8.28345E+01 1.48033E-03 1.63925E+00-6.34787E-14-1.20057E-13
 -1      5180-5.38070E-01 8.40935E+01 1.48114E-03 1.75168E+00-5.98271E-14 8.89497E-14
 -1      5181-1.80470E-01 8.36335E+01 2.18029E-03 1.78859E+00-1.89768E-13 9.60343E-14
 -1      5182-8.13744E-01 8.49437E+01 1.86705E-03 1.82532E+00 6.93681E-14-7.84754E-14
 -1      5183-3.51174E-01 8.44782E+01 3.14618E-03 1.92361E+00-1.43587E-13-3.24324E-14
 -1      5184-1.20674E+00 8.58470E+01 2.18252E-03 1.84193E+00 3.62051E-13 4.00652E-14
 -1      5185-6.20628E-01 8.53847E+01 4.47088E-03 2.02979E+00 3.42365E-13-5.40540E-15
 -1      5186-1.75359E+00 8.68068E+01 2.26601E-03 1.76300E+00 6.65301E-14-5.33774E-14
 -1      5187-1.02582E+00 8.63677E+01 6.26495E-03 2.07974E+00 6.60721E-14-8.72150E-14
 -1      5188-2.49525E+00 8.78127E+01 1.80573E-03 1.52918E+00 1.38362E-13 1.02808E-13
 -1      5189-1.61220E+00 8.74361E+01 8.64345E-03 2.02751E+00 1.60358E-13 1.82979E-13
 -1      5190-3.47175E+00 8.88269E+01 2.63304E-04 1.05322E+00-2.46470E-13-1.36832E-13
 -1      5191-2.43211E+00 8.85831E+01 1.16679E-02 1.80026E+00-2.04836E-13-2.47510E-13
 -1      5192-4.70956E+00 8.97603E+01-3.19800E-03 2.13496E-01 3.62793E-13 9.69363E-15
 -1      5193-3.53825E+00 8.97676E+01 1.53276E-02 1.28772E+00-2.55407E-13 9.70031E-14
 -1      5194-6.19969E+00 9.04337E+01-1.06081E-02-1.14617E+00-2.70617E-14 7.23727E-14
 -1      5195-4.96821E+00 9.08800E+01 1.89337E-02 3.31736E-01-1.67671E-13 9.85323E-14
 -1      5196-6.70515E+00 9.16847E+01 2.23327E-02-1.27138E+00-8.72913E-14-9.67004E-14
 -1      5197 4.16547E-04 7.85106E+01-7.60961E-03 4.41918E-01-2.62984E-13-6.98677E-14
 -1      5198 1.08230E-02 7.78841E+01-1.77140E-02 2.30019E-01 3.75772E-13-3.02119E-14
 -1      5199 2.76472E-02 7.93131E+01-9.02353E-04 7.59287E-01 1.12278E-13-5.41095E-14
 -1      5200 3.51662E-02 7.87579E+01-1.17775E-03 5.92493E-01-3.06335E-14-4.93078E-14
 -1      5201 6.08542E-02 8.00880E+01-3.40872E-04 1.00520E+00-3.80586E-13-5.88973E-14
 -1      5202 8.83641E-02 7.95800E+01-1.46327E-04 8.65529E-01-3.83553E-13 1.23512E-15
 -1      5203 9.79448E-02 8.08464E+01-6.38755E-05 1.20927E+00-4.06603E-14 4.95923E-14
 -1      5204 1.58271E-01 8.03663E+01 1.45689E-05 1.08597E+00-3.57504E-13-6.86950E-14
 -1      5205 1.30587E-01 8.15990E+01 2.53260E-04 1.39213E+00 2.85315E-13 1.51990E-13
 -1      5206 2.36320E-01 8.11308E+01 1.75285E-04 1.27976E+00 5.50653E-14 2.24674E-13
 -1      5207 1.47635E-01 8.23585E+01 6.36445E-04 1.56731E+00-4.11577E-13-1.44856E-13
 -1      5208 3.12587E-01 8.18887E+01 4.03951E-04 1.46511E+00-2.99536E-13-1.14520E-13
 -1      5209 1.34484E-01 8.31395E+01 1.09930E-03 1.74221E+00-6.38933E-14-5.09176E-14
 -1      5210 3.74789E-01 8.26570E+01 7.45892E-04 1.65416E+00-8.84744E-14-2.38268E-13
 -1      5211 7.18056E-02 8.39594E+01 1.65415E-03 1.91822E+00 5.72910E-14 9.94621E-14
 -1      5212 4.06989E-01 8.34546E+01 1.26178E-03 1.85369E+00-2.84318E-13 1.95115E-13
 -1      5213-6.61528E-02 8.48377E+01 2.30419E-03 2.08956E+00 4.32987E-15-1.04854E-13
 -1      5214 3.87843E-01 8.43037E+01 2.03968E-03 2.06489E+00 5.58581E-14 7.12069E-14
 -1      5215-3.13705E-01 8.57960E+01 3.02470E-03 2.24081E+00-1.40034E-13 9.08995E-16
 -1      5216 2.88253E-01 8.52303E+01 3.20605E-03 2.28177E+00-3.17940E-13-1.69233E-13
 -1      5217-7.16091E-01 8.68554E+01 3.72777E-03 2.34218E+00 3.03348E-13-4.24105E-14
 -1      5218 6.83509E-02 8.62637E+01 4.93934E-03 2.48781E+00 2.61374E-13 1.45252E-13
 -1      5219-1.33147E+00 8.80319E+01 4.17764E-03 2.34193E+00-1.92263E-13-3.90243E-14
 -1      5220-3.26063E-01 8.74353E+01 7.48156E-03 2.64970E+00-9.85323E-16-1.51268E-13
 -1      5221-2.23089E+00 8.93244E+01 3.87663E-03 2.15470E+00 1.91708E-13-1.43682E-13
 -1      5222-9.66858E-01 8.87728E+01 1.11306E-02 2.70683E+00-2.45637E-14-2.20657E-15
 -1      5223-3.49252E+00 9.06908E+01 1.74951E-03 1.64552E+00-3.70648E-13-1.11725E-14
 -1      5224-1.94477E+00 9.02858E+01 1.62252E-02 2.55467E+00-3.28168E-13 7.80626E-15
 -1      5225-5.18266E+00 9.20020E+01-4.07671E-03 6.12225E-01-1.64313E-14 1.69413E-13
 -1      5226-3.36182E+00 9.19332E+01 2.28013E-02 2.02031E+00-2.49689E-13 1.43587E-14
 -1      5227-5.30847E+00 9.35563E+01 3.11432E-02 8.37399E-01 1.17767E-13 1.01197E-13
 -1      5228 1.12532E-02 7.81509E+01-1.01550E-02 4.11252E-01 2.02994E-13-2.59105E-13
 -1      5229 1.75053E-02 7.74799E+01-2.09664E-02 2.06033E-01 1.27190E-13-1.65104E-13
 -1      5230 8.22323E-02 7.90425E+01-1.80239E-03 7.04578E-01-4.06600E-13-9.93650E-14
 -1      5231 7.00890E-02 7.84618E+01-1.60591E-03 5.28210E-01-1.40946E-13-1.26427E-14
 -1      5232 1.78160E-01 7.98696E+01-9.55105E-04 9.33765E-01-2.02505E-13-4.18970E-14
 -1      5233 1.75693E-01 7.93485E+01-4.33242E-04 7.70595E-01 2.89871E-13-9.17044E-14
 -1      5234 2.95215E-01 8.06546E+01-5.27206E-04 1.12945E+00 1.98553E-13 1.83256E-13
 -1      5235 3.17050E-01 8.01683E+01-3.63285E-04 9.69536E-01 3.66521E-14 1.24852E-13
 -1      5236 4.24494E-01 8.14157E+01-1.04956E-04 1.31371E+00-3.52573E-13 1.41269E-13
 -1      5237 4.84306E-01 8.09441E+01-3.43882E-04 1.15111E+00-2.82267E-13 4.88498E-15
 -1      5238 5.55829E-01 8.21717E+01 3.60001E-04 1.50240E+00-1.62951E-13-1.96267E-13
 -1      5239 6.68268E-01 8.16972E+01-3.06995E-04 1.33458E+00-1.30129E-13-5.09870E-14
 -1      5240 6.76808E-01 8.29425E+01 9.03075E-04 1.70654E+00 2.76619E-13 1.42941E-14
 -1      5241 8.59090E-01 8.24494E+01-2.11823E-04 1.53435E+00-1.05350E-13-9.65616E-14
 -1      5242 7.71148E-01 8.37510E+01 1.56413E-03 1.93279E+00-1.07716E-13 1.73007E-13
 -1      5243 1.04475E+00 8.32241E+01-6.33402E-06 1.76113E+00 2.77486E-13 1.52309E-13
 -1      5244 8.16424E-01 8.46238E+01 2.38771E-03 2.18306E+00-9.46812E-14-4.78090E-14
 -1      5245 1.20906E+00 8.40483E+01 3.89671E-04 2.02231E+00-2.40221E-13-9.90735E-14
 -1      5246 7.80931E-01 8.55926E+01 3.41476E-03 2.45258E+00 3.46084E-13-6.81399E-15
 -1      5247 1.32890E+00 8.49546E+01 1.10152E-03 2.32129E+00-3.32581E-14 1.12611E-13
 -1      5248 6.19385E-01 8.66950E+01 4.66211E-03 2.72590E+00 8.93730E-14-2.29053E-14
 -1      5249 1.37017E+00 8.59833E+01 2.32718E-03 2.65520E+00-8.32945E-14-5.66214E-14
 -1      5250 2.67278E-01 8.79731E+01 6.04712E-03 2.96923E+00 1.57555E-13-1.64924E-13
 -1      5251 1.28216E+00 8.71845E+01 4.37401E-03 3.00991E+00 1.90625E-13 4.93910E-14
 -1      5252-3.65541E-01 8.94684E+01 7.32301E-03 3.11697E+00 6.09374E-14-2.20726E-14
 -1      5253 9.89700E-01 8.86185E+01 7.72210E-03 3.35024E+00 4.10366E-14-2.08868E-13
 -1      5254-1.40085E+00 9.12044E+01 7.33834E-03 3.04879E+00 8.85125E-14 2.80817E-14
 -1      5255 3.83054E-01 9.03509E+01 1.30298E-02 3.60154E+00-1.49381E-13 5.02931E-14
 -1      5256-2.98668E+00 9.31472E+01 5.57787E-03 2.55427E+00-1.53544E-13 1.86373E-13
 -1      5257-6.88456E-01 9.24338E+01 2.13289E-02 3.61669E+00 9.85600E-14 9.10938E-14
 -1      5258-2.42794E+00 9.48470E+01 3.31831E-02 3.12448E+00 1.03750E-13 1.47889E-13
 -1      5259 2.20533E-02 7.78315E+01-1.26000E-02 3.50023E-01 4.30333E-14-2.59202E-13
 -1      5260 2.37994E-02 7.71362E+01-2.38947E-02 1.65969E-01 4.00655E-13 1.42747E-13
 -1      5261 1.36241E-01 7.88026E+01-2.69123E-03 5.96793E-01 1.49681E-13 8.77076E-15
 -1      5262 1.03174E-01 7.82125E+01-2.00767E-03 4.22228E-01-2.54071E-13-2.69271E-13
 -1      5263 2.94390E-01 7.96729E+01-1.57742E-03 7.90529E-01-5.77312E-14-7.12694E-14
 -1      5264 2.58479E-01 7.91526E+01-7.19768E-04 6.13629E-01-1.84974E-14 9.10452E-14
 -1      5265 4.91502E-01 8.04752E+01-1.02156E-03 9.60312E-01-1.70068E-14 1.96836E-13
 -1      5266 4.67992E-01 7.99963E+01-7.53329E-04 7.72887E-01 5.14205E-14 1.16074E-13
 -1      5267 7.19020E-01 8.12347E+01-5.26229E-04 1.12769E+00 1.03975E-13-1.03320E-14
 -1      5268 7.21283E-01 8.07742E+01-8.94437E-04 9.23811E-01 4.28571E-13 6.46844E-14
 -1      5269 9.69105E-01 8.19748E+01-2.44745E-05 1.30915E+00-3.75623E-13-1.23394E-13
 -1      5270 1.01086E+00 8.15127E+01-1.08138E-03 1.08465E+00-1.96374E-13-1.14075E-13
 -1      5271 1.23358E+00 8.27194E+01 5.34712E-04 1.51781E+00 1.98657E-13-2.30510E-14
 -1      5272 1.33071E+00 8.22369E+01-1.28777E-03 1.27016E+00-5.37036E-14-1.09530E-13
 -1      5273 1.50229E+00 8.34945E+01 1.20989E-03 1.76438E+00-1.54356E-13 2.04121E-13
 -1      5274 1.67492E+00 8.29725E+01-1.48657E-03 1.49307E+00-2.32984E-13 1.59310E-13
 -1      5275 1.76096E+00 8.43307E+01 2.07561E-03 2.05753E+00 1.82424E-14-7.89924E-14
 -1      5276 2.03592E+00 8.37486E+01-1.63275E-03 1.76500E+00-7.51829E-15 1.49880E-14
 -1      5277 1.98792E+00 8.52659E+01 3.22734E-03 2.40318E+00 1.13562E-13 1.30340E-13
 -1      5278 2.40220E+00 8.46005E+01-1.64777E-03 2.09688E+00-3.84859E-13 5.92582E-14
 -1      5279 2.14925E+00 8.63485E+01 4.78365E-03 2.80215E+00 1.21986E-14-1.14533E-13
 -1      5280 2.75466E+00 8.55734E+01-1.39043E-03 2.49828E+00-9.83449E-14 1.72085E-15
 -1      5281 2.19133E+00 8.76412E+01 6.84912E-03 3.24479E+00 1.90126E-14-1.53891E-13
 -1      5282 3.06082E+00 8.67280E+01-6.11232E-04 2.97503E+00 1.35947E-13-1.88349E-13
 -1      5283 2.02974E+00 8.92231E+01 9.52516E-03 3.69960E+00 1.31173E-13 4.92661E-14
 -1      5284 3.26573E+00 8.81467E+01 1.15373E-03 3.52307E+00-5.02237E-14 2.22877E-14
 -1      5285 1.53241E+00 9.11868E+01 1.20446E-02 4.09030E+00 2.90462E-13-2.25930E-14
 -1      5286 3.27663E+00 8.99407E+01 4.60128E-03 4.11420E+00 1.48742E-13 1.65618E-13
 -1      5287 5.06296E-01 9.36204E+01 1.58205E-02 4.25234E+00 7.10820E-14 1.36946E-13
 -1      5288 2.94504E+00 9.22536E+01 1.15958E-02 4.66552E+00-2.10831E-13-1.04070E-13
 -1      5289 2.01624E+00 9.52355E+01 2.19171E-02 4.97556E+00-2.11220E-13 2.45082E-14
 -1      5290 3.18653E-02 7.75780E+01-1.47446E-02 2.59856E-01 9.46829E-14-2.48648E-13
 -1      5291 2.91410E-02 7.68814E+01-2.62658E-02 1.11373E-01-5.35787E-14-1.40790E-13
 -1      5292 1.85002E-01 7.86135E+01-3.48978E-03 4.38732E-01 1.17859E-13-8.65280E-14
 -1      5293 1.31423E-01 7.80316E+01-2.34660E-03 2.78610E-01 1.14823E-13-9.64229E-14
 -1      5294 3.99427E-01 7.95158E+01-2.14791E-03 5.78903E-01 7.11523E-14-5.88765E-14
 -1      5295 3.29191E-01 7.90107E+01-9.73935E-04 4.00522E-01 9.57238E-14-9.97466E-14
 -1      5296 6.69462E-01 8.03265E+01-1.49264E-03 7.05199E-01-4.68862E-13 3.14859E-13
 -1      5297 5.97178E-01 7.98682E+01-1.10776E-03 5.03112E-01 1.78211E-13 1.53516E-13
 -1      5298 9.87532E-01 8.10765E+01-9.55393E-04 8.36386E-01 4.05205E-14-7.05755E-14
 -1      5299 9.24900E-01 8.06408E+01-1.40432E-03 6.05484E-01 4.82453E-14-1.03390E-14
 -1      5300 1.34895E+00 8.17926E+01-4.56311E-04 9.87479E-01 1.28257E-13-5.99520E-14
 -1      5301 1.30700E+00 8.13588E+01-1.81235E-03 7.22649E-01 4.13052E-13 2.02775E-13
 -1      5302 1.75098E+00 8.25008E+01 6.30417E-05 1.17147E+00 1.36606E-13-6.31717E-14
 -1      5303 1.74185E+00 8.20492E+01-2.32597E-03 8.67368E-01-2.84842E-15-2.78014E-13
 -1      5304 2.19166E+00 8.32283E+01 6.67417E-04 1.40060E+00 5.24171E-13 2.23960E-13
 -1      5305 2.23050E+00 8.27384E+01-2.95362E-03 1.05163E+00 4.41317E-13 1.74444E-13
 -1      5306 2.66827E+00 8.40066E+01 1.44204E-03 1.68733E+00-3.69420E-13-1.26121E-13
 -1      5307 2.77572E+00 8.34551E+01-3.70516E-03 1.28788E+00 9.75192E-14-7.43988E-14
 -1      5308 3.17519E+00 8.48750E+01 2.50791E-03 2.04482E+00-1.42018E-13 9.68947E-14
 -1      5309 3.38077E+00 8.42336E+01-4.58593E-03 1.59010E+00 3.47521E-13-6.84175E-14
 -1      5310 3.70029E+00 8.58860E+01 4.04420E-03 2.48672E+00-2.49675E-13-5.20695E-14
 -1      5311 4.04761E+00 8.51186E+01-5.58182E-03 1.97458E+00-1.03868E-13 2.45776E-14
 -1      5312 4.21880E+00 8.71119E+01 6.30629E-03 3.02510E+00 3.72785E-13-1.80550E-14
 -1      5313 4.77351E+00 8.61718E+01-6.63495E-03 2.46019E+00-5.96467E-14 7.98389E-14
 -1      5314 4.68276E+00 8.86555E+01 9.70773E-03 3.66446E+00-4.88498E-15-8.29892E-14
 -1      5315 5.54495E+00 8.74828E+01-7.54978E-03 3.06679E+00 3.01412E-13-6.57807E-14
 -1      5316 5.00120E+00 9.06619E+01 1.41878E-02 4.38618E+00-3.06366E-13-1.14908E-14
 -1      5317 6.32517E+00 8.91853E+01-8.06627E-03 3.80888E+00-2.27304E-13-8.20455E-14
 -1      5318 5.01645E+00 9.33333E+01 2.30642E-02 5.11183E+00 5.33379E-13 1.60733E-13
 -1      5319 7.03607E+00 9.14839E+01-6.38648E-03 4.67718E+00 1.87073E-14 1.75360E-13
 -1      5320 7.49179E+00 9.46761E+01-4.94078E-03 5.58477E+00 1.62981E-13-1.05110E-13
 -1      5321 3.97482E-02 7.74131E+01-1.64010E-02 1.44992E-01-1.64438E-13-2.79013E-13
 -1      5322 3.30147E-02 7.67399E+01-2.78747E-02 4.51656E-02-2.37737E-13-2.46331E-14
 -1      5323 2.23919E-01 7.84936E+01-4.12325E-03 2.37759E-01-9.02694E-14 4.17721E-14
 -1      5324 1.52084E-01 7.79375E+01-2.58897E-03 1.04963E-01-4.83562E-13-2.80886E-14
 -1      5325 4.83296E-01 7.94151E+01-2.60721E-03 3.08668E-01 1.78198E-13-1.22471E-14
 -1      5326 3.80907E-01 7.89386E+01-1.16432E-03 1.42547E-01 1.99293E-13 6.57807E-15
 -1      5327 8.11865E-01 8.02261E+01-1.88206E-03 3.75810E-01 2.98488E-13 1.46244E-13
 -1      5328 6.91759E-01 7.97997E+01-1.37777E-03 1.74605E-01-3.55948E-13 1.49047E-14
 -1      5329 1.20324E+00 8.09616E+01-1.32614E-03 4.53000E-01-1.58009E-13 9.47922E-14
 -1      5330 1.07433E+00 8.05620E+01-1.79784E-03 2.13416E-01-3.85301E-13 2.86923E-14
 -1      5331 1.65589E+00 8.16509E+01-8.52385E-04 5.51591E-01-2.55176E-13-9.09411E-14
 -1      5332 1.52517E+00 8.12581E+01-2.38398E-03 2.68714E-01-1.96073E-13 2.17881E-14
 -1      5333 2.17250E+00 8.23206E+01-4.01756E-04 6.81908E-01-1.77230E-13-1.33379E-13
 -1      5334 2.04649E+00 8.19159E+01-3.15020E-03 3.48988E-01-2.92969E-13-1.85435E-13
 -1      5335 2.75937E+00 8.29977E+01 8.62970E-05 8.54462E-01-2.25413E-13 1.15435E-13
 -1      5336 2.64543E+00 8.25618E+01-4.13973E-03 4.62586E-01-1.45623E-13 3.00870E-14
 -1      5337 3.42603E+00 8.37124E+01 6.89977E-04 1.08109E+00-1.71987E-13-2.65066E-15
 -1      5338 3.33401E+00 8.32228E+01-5.41854E-03 6.18761E-01 1.14474E-14 1.94095E-13
 -1      5339 4.18474E+00 8.45021E+01 1.52489E-03 1.37610E+00 1.43122E-13-1.34615E-15
 -1      5340 4.12934E+00 8.39306E+01-7.08321E-03 8.28779E-01 9.99721E-14-9.26481E-14
 -1      5341 5.04971E+00 8.54172E+01 2.77618E-03 1.75735E+00 5.46438E-14 8.33361E-14
 -1      5342 5.05405E+00 8.47258E+01-9.26880E-03 1.10719E+00 3.51108E-15 1.09815E-13
 -1      5343 6.03508E+00 8.65299E+01 4.76219E-03 2.24699E+00-1.30819E-13 1.60982E-14
 -1      5344 6.13676E+00 8.56653E+01-1.21673E-02 1.47323E+00-1.90160E-13 2.86299E-14
 -1      5345 7.15039E+00 8.79491E+01 8.05400E-03 2.87071E+00-6.96665E-14-2.63900E-13
 -1      5346 7.41181E+00 8.68342E+01-1.59949E-02 1.95213E+00-3.87176E-13-1.80966E-14
 -1      5347 8.38930E+00 8.98450E+01 1.33701E-02 3.65201E+00 1.65021E-13-9.63118E-15
 -1      5348 8.91625E+00 8.83671E+01-2.12235E-02 2.57481E+00-2.06779E-15-1.41998E-13
 -1      5349 9.71298E+00 9.24937E+01 2.48262E-02 4.59216E+00 1.53683E-13 1.47493E-13
 -1      5350 1.06839E+01 9.04890E+01-2.70844E-02 3.37238E+00 1.08649E-13 1.01863E-13
 -1      5351 1.26984E+01 9.35817E+01-3.89962E-02 4.34554E+00 3.02536E-14-9.53682E-14
 -1      5352 4.49016E-02 7.73550E+01-1.74122E-02 1.20666E-02-6.75493E-14-1.79315E-13
 -1      5353 3.50258E-02 7.67295E+01-2.85680E-02-2.85626E-02 4.79699E-13-7.59115E-15
 -1      5354 2.49098E-01 7.84575E+01-4.52770E-03 5.42143E-03 1.54711E-14 7.91589E-14
 -1      5355 1.63047E-01 7.79436E+01-2.70878E-03-8.80996E-02 1.11290E-13-9.28702E-14
 -1      5356 5.37528E-01 7.93844E+01-2.90316E-03-4.49464E-03 4.75635E-14-4.20358E-14
 -1      5357 4.08312E-01 7.89480E+01-1.26569E-03-1.44434E-01-1.84474E-13 2.47302E-14
 -1      5358 9.04001E-01 8.01887E+01-2.13606E-03-8.25504E-03-9.27852E-14 1.78094E-13
 -1      5359 7.41825E-01 7.98030E+01-1.52344E-03-1.91947E-01 1.95716E-13 6.11733E-14
 -1      5360 1.34305E+00 8.09080E+01-1.57387E-03 1.27746E-03-2.01558E-14-5.92859E-14
 -1      5361 1.15339E+00 8.05518E+01-2.01194E-03-2.26635E-01 3.37045E-13 9.02611E-14
 -1      5362 1.85546E+00 8.15727E+01-1.12649E-03 2.99644E-02-1.16175E-13-6.65579E-14
 -1      5363 1.64069E+00 8.12284E+01-2.69764E-03-2.45477E-01 2.76720E-13-4.64490E-14
 -1      5364 2.44789E+00 8.22099E+01-7.37281E-04 8.32192E-02-2.99066E-15-1.01183E-13
 -1      5365 2.20810E+00 8.18612E+01-3.60678E-03-2.45938E-01-2.09094E-13-2.02005E-13
 -1      5366 3.13281E+00 8.28456E+01-3.53390E-04 1.66757E-01 3.49339E-13 2.09069E-13
 -1      5367 2.86632E+00 8.24760E+01-4.80401E-03-2.25544E-01 2.64803E-13 3.01037E-13
 -1      5368 3.92904E+00 8.35083E+01 8.99171E-05 2.87373E-01-1.80772E-13-7.07628E-14
 -1      5369 3.63286E+00 8.30990E+01-6.39074E-03-1.81453E-01-7.90748E-14-8.31557E-14
 -1      5370 4.86300E+00 8.42326E+01 6.88677E-04 4.53845E-01 3.26739E-13-1.09079E-14
 -1      5371 4.53315E+00 8.37594E+01-8.52283E-03-1.09974E-01 2.60810E-13 8.64586E-15
 -1      5372 5.97050E+00 8.50647E+01 1.60322E-03 6.78029E-01-2.61312E-13 7.59393E-14
 -1      5373 5.60272E+00 8.44947E+01-1.14357E-02-5.96716E-03-1.68211E-13-2.66454E-15
 -1      5374 7.29943E+00 8.60720E+01 3.14386E-03 9.76172E-01-3.61947E-13 1.40166E-14
 -1      5375 6.89031E+00 8.53569E+01-1.54975E-02 1.37926E-01 7.70026E-14-8.72913E-14
 -1      5376 8.91287E+00 8.73593E+01 5.89753E-03 1.37017E+00 2.61735E-13-2.81886E-13
 -1      5377 8.46243E+00 8.64245E+01-2.12329E-02 3.32225E-01-2.21122E-13 3.03924E-14
 -1      5378 1.08914E+01 8.91001E+01 1.11525E-02 1.88751E+00 3.25295E-14-2.33147E-15
 -1      5379 1.04088E+01 8.78254E+01-2.96815E-02 5.91441E-01-2.00204E-13-4.34652E-14
 -1      5380 1.33346E+01 9.15995E+01 2.27243E-02 2.55518E+00-2.94542E-13 1.28342E-13
 -1      5381 1.28491E+01 8.97828E+01-4.11323E-02 9.33793E-01 9.66449E-14 2.03171E-14
 -1      5382 1.59148E+01 9.27069E+01-6.30961E-02 1.37239E+00-5.28605E-14 1.21625E-13
 -1      5383 4.67873E-02 7.74154E+01-1.76740E-02-1.30448E-01 1.74255E-13-1.23276E-13
 -1      5384 3.49596E-02 7.68594E+01-2.82624E-02-1.04938E-01-2.46013E-13 6.98955E-14
 -1      5385 2.57927E-01 7.85146E+01-4.66017E-03-2.43520E-01 1.22315E-14-1.15616E-13
 -1      5386 1.63163E-01 7.80572E+01-2.69180E-03-2.87946E-01-2.27995E-14-2.49856E-13
 -1      5387 5.56430E-01 7.94326E+01-3.00004E-03-3.40345E-01 2.30005E-13-3.69427E-14
 -1      5388 4.08509E-01 7.90452E+01-1.26397E-03-4.41468E-01 5.71054E-14 5.77177E-14
 -1      5389 9.35942E-01 8.02241E+01-2.21676E-03-4.21220E-01-1.03494E-13 1.58387E-13
 -1      5390 7.41960E-01 7.98842E+01-1.52227E-03-5.71582E-01 1.00319E-14-2.31204E-14
 -1      5391 1.39129E+00 8.09275E+01-1.65139E-03-4.86651E-01 2.79993E-14-1.19210E-14
 -1      5392 1.15324E+00 8.06175E+01-2.01075E-03-6.83089E-01-8.82766E-14 1.63133E-13
 -1      5393 1.92407E+00 8.15740E+01-1.21333E-03-5.37319E-01-3.43297E-13-2.28983E-14
 -1      5394 1.63994E+00 8.12792E+01-2.69663E-03-7.80207E-01-2.19609E-13-2.17049E-13
 -1      5395 2.54236E+00 8.21906E+01-8.47287E-04-5.74052E-01 1.83180E-13-1.14658E-13
 -1      5396 2.20638E+00 8.18981E+01-3.60611E-03-8.66987E-01-1.27311E-13 5.40956E-14
 -1      5397 3.26090E+00 8.28030E+01-5.03983E-04-5.97790E-01-3.49780E-13 2.31107E-13
 -1      5398 2.86325E+00 8.24999E+01-4.80368E-03-9.47675E-01 2.68363E-13 3.67345E-14
 -1      5399 4.10199E+00 8.34391E+01-1.25081E-04-6.09553E-01-3.11672E-14-1.27634E-13
 -1      5400 3.62799E+00 8.31108E+01-6.39050E-03-1.02708E+00-4.03208E-13 9.43690E-15
 -1      5401 5.09737E+00 8.41319E+01 3.75400E-04-6.10420E-01-3.25910E-13-1.49186E-14
 -1      5402 4.52604E+00 8.37603E+01-8.52206E-03-1.11099E+00 2.92963E-13 7.71605E-14
 -1      5403 6.29123E+00 8.49260E+01 1.14302E-03-6.01502E-01-3.24475E-13 1.05263E-13
 -1      5404 5.59287E+00 8.44858E+01-1.14331E-02-1.20674E+00-6.64920E-14-9.96148E-14
 -1      5405 7.74477E+00 8.58859E+01 2.47368E-03-5.83928E-01 1.25376E-13-1.31284E-14
 -1      5406 6.87718E+00 8.53393E+01-1.54909E-02-1.32392E+00 1.56299E-13 1.68199E-13
 -1      5407 9.54284E+00 8.71134E+01 4.93884E-03-5.58842E-01 3.79997E-13-1.66811E-13
 -1      5408 8.44536E+00 8.63994E+01-2.12179E-02-1.47531E+00-1.29063E-15-1.08080E-13
 -1      5409 1.18028E+01 8.87799E+01 1.00267E-02-5.27396E-01 2.09518E-13-1.94844E-14
 -1      5410 1.03868E+01 8.77939E+01-2.96503E-02-1.67769E+00 1.43066E-13-4.31599E-14
 -1      5411 1.46858E+01 9.11960E+01 2.12379E-02-4.90757E-01 6.62083E-14 9.42579E-14
 -1      5412 1.28209E+01 8.97462E+01-4.10709E-02-1.95156E+00 2.78860E-13 5.47340E-14
 -1      5413 1.58781E+01 9.26664E+01-6.29605E-02-2.31218E+00-1.18183E-13-1.32894E-13
 -1      5414 4.52149E-02 7.75985E+01-1.71489E-02-2.73078E-01 1.10308E-13-1.26982E-13
 -1      5415 3.28143E-02 7.71298E+01-2.69552E-02-1.78809E-01 1.16157E-13 1.89501E-13
 -1      5416 2.49479E-01 7.86682E+01-4.50524E-03-4.92552E-01 1.82285E-13-2.29386E-13
 -1      5417 1.52425E-01 7.82780E+01-2.53782E-03-4.81231E-01 2.17630E-13-2.86812E-13
 -1      5418 5.37977E-01 7.95627E+01-2.88486E-03-6.76148E-01 7.65360E-15 9.85531E-14
 -1      5419 3.81475E-01 7.92301E+01-1.15915E-03-7.28503E-01 1.52935E-13 1.72133E-13
 -1      5420 9.04147E-01 8.03354E+01-2.11018E-03-8.33902E-01 1.33553E-13 1.34351E-13
 -1      5421 6.92122E-01 8.00431E+01-1.37430E-03-9.37810E-01-1.48511E-13-3.43614E-14
 -1      5422 1.34234E+00 8.10243E+01-1.54116E-03-9.73986E-01-8.57912E-14-4.59632E-14
 -1      5423 1.07378E+00 8.07588E+01-1.79439E-03-1.12227E+00-5.11800E-14 2.41057E-14
 -1      5424 1.85323E+00 8.16602E+01-1.08841E-03-1.10364E+00 3.01381E-13-9.23983E-14
 -1      5425 1.52280E+00 8.14104E+01-2.38121E-03-1.29285E+00-1.74385E-13 2.82413E-14
 -1      5426 2.44335E+00 8.22702E+01-6.95216E-04-1.22996E+00 9.95185E-14 4.82947E-15
 -1      5427 2.04120E+00 8.20262E+01-3.14865E-03-1.45959E+00 1.19031E-13-5.69267E-14
 -1      5428 3.12513E+00 8.28809E+01-3.08534E-04-1.36054E+00 3.61195E-14 1.64729E-13
 -1      5429 2.63603E+00 8.26329E+01-4.13951E-03-1.63265E+00 2.55733E-13 1.62731E-13
 -1      5430 3.91734E+00 8.35207E+01 1.36644E-04-1.50423E+00 5.50966E-14-5.18890E-14
 -1      5431 3.31923E+00 8.32578E+01-5.41913E-03-1.82325E+00 2.33036E-13-1.52670E-13
 -1      5432 4.84635E+00 8.42241E+01 7.36726E-04-1.67195E+00-1.57409E-13-3.80251E-15
 -1      5433 4.10784E+00 8.39328E+01-7.08309E-03-2.04477E+00-4.31988E-13-3.43059E-14
 -1      5434 5.94791E+00 8.50377E+01 1.65256E-03-1.87776E+00 7.10137E-13 1.45467E-13
 -1      5435 5.02445E+00 8.46985E+01-9.26487E-03-2.31392E+00 3.22277E-14 2.44249E-13
 -1      5436 7.26976E+00 8.60287E+01 3.19496E-03-2.14011E+00 1.65312E-13-9.56457E-14
 -1      5437 6.09753E+00 8.56118E+01-1.21539E-02-2.65209E+00-6.34492E-14-1.88419E-13
 -1      5438 8.87467E+00 8.73019E+01 5.95226E-03-2.48306E+00-3.14221E-13-6.44484E-14
 -1      5439 7.36118E+00 8.67580E+01-1.59618E-02-3.08663E+00-1.17684E-14-3.46945E-14
 -1      5440 1.08426E+01 8.90308E+01 1.12087E-02-2.93621E+00-1.11577E-14 6.24500E-15
 -1      5441 8.85193E+00 8.82713E+01-2.11528E-02-3.65043E+00-4.64628E-14 3.56104E-14
 -1      5442 1.32722E+01 9.15204E+01 2.27939E-02-3.52845E+00 3.53009E-13 4.63518E-14
 -1      5443 1.06027E+01 9.03769E+01-2.69444E-02-4.37630E+00-2.89935E-13 1.34476E-13
 -1      5444 1.25951E+01 9.34560E+01-3.87032E-02-5.26615E+00-3.75255E-14-1.11300E-13
 -1      5445 4.03731E-02 7.79003E+01-1.58712E-02-4.06347E-01-2.69611E-13-3.00315E-14
 -1      5446 2.88010E-02 7.75316E+01-2.47240E-02-2.45296E-01 1.87350E-14-1.04708E-14
 -1      5447 2.24656E-01 7.89148E+01-4.07741E-03-7.25150E-01 2.47323E-13-1.00434E-13
 -1      5448 1.31967E-01 7.85991E+01-2.26065E-03-6.55303E-01 7.46486E-14 3.05589E-14
 -1      5449 4.84133E-01 7.97712E+01-2.56976E-03-9.89143E-01-4.17721E-15-5.82590E-14
 -1      5450 3.30063E-01 7.94960E+01-9.65202E-04-9.86549E-01 4.21520E-14-9.12603E-14
 -1      5451 8.12043E-01 8.05189E+01-1.82947E-03-1.21709E+00-1.72115E-13 6.84314E-14
 -1      5452 5.97631E-01 8.02730E+01-1.10206E-03-1.26562E+00 2.99203E-13-1.81730E-14
 -1      5453 1.20164E+00 8.11935E+01-1.26001E-03-1.42389E+00-2.34939E-13-1.21292E-14
 -1      5454 9.23739E-01 8.09678E+01-1.39894E-03-1.51253E+00-2.31638E-13 2.36131E-14
 -1      5455 1.65116E+00 8.18250E+01-7.75728E-04-1.62236E+00-2.76249E-13-6.70297E-14
 -1      5456 1.30267E+00 8.16114E+01-1.80854E-03-1.74361E+00 1.76823E-13-9.73110E-14
 -1      5457 2.16309E+00 8.24405E+01-3.17453E-04-1.82453E+00 1.07367E-13-2.08444E-14
 -1      5458 1.73254E+00 8.22316E+01-2.32481E-03-1.97326E+00 1.41219E-13-1.49880E-15
 -1      5459 2.74364E+00 8.30674E+01 1.75670E-04-2.04285E+00-1.53065E-13 2.13704E-13
 -1      5460 2.21423E+00 8.28555E+01-2.95564E-03-2.21533E+00-1.12398E-13 8.92342E-14
 -1      5461 3.40225E+00 8.37361E+01 7.82280E-04-2.29122E+00 1.26423E-13-1.57388E-13
 -1      5462 2.75042E+00 8.35120E+01-3.71003E-03-2.48429E+00 1.19689E-13-6.78485E-14
 -1      5463 4.15115E+00 8.44841E+01 1.61851E-03-2.58609E+00 7.93809E-15 1.22791E-13
 -1      5464 3.34433E+00 8.42357E+01-4.59211E-03-2.79624E+00 2.74572E-13-2.25236E-14
 -1      5465 5.00448E+00 8.53620E+01 2.87011E-03-2.94746E+00-8.95672E-14 8.31002E-14
 -1      5466 3.99788E+00 8.50714E+01-5.58597E-03-3.16962E+00-2.14287E-13 8.89844E-14
 -1      5467 5.97622E+00 8.64418E+01 4.85572E-03-3.39958E+00 1.94289E-14-1.39083E-13
 -1      5468 4.70831E+00 8.60807E+01-6.63106E-03-3.62535E+00 3.05346E-13 8.43908E-14
 -1      5469 7.07556E+00 8.78324E+01 8.14679E-03-3.97004E+00-2.08472E-13-1.71779E-13
 -1      5470 5.46192E+00 8.73530E+01-7.52747E-03-4.18523E+00 1.04139E-13-1.56847E-13
 -1      5471 8.29549E+00 8.97036E+01 1.34555E-02-4.68401E+00-1.58373E-13 1.93318E-13
 -1      5472 6.22161E+00 8.90220E+01-8.00916E-03-4.86539E+00-7.97834E-14-1.10079E-13
 -1      5473 9.59597E+00 9.23308E+01 2.49007E-02-5.54389E+00 7.54119E-14-1.47937E-14
 -1      5474 6.90863E+00 9.12912E+01-6.26703E-03-5.65773E+00-3.06200E-13 2.67841E-13
 -1      5475 7.33613E+00 9.44568E+01-4.71897E-03-6.47567E+00 1.67089E-13-2.00173E-13
 -1      5476 3.27976E-02 7.83089E+01-1.39422E-02-5.21762E-01 1.22007E-13 1.20542E-13
 -1      5477 2.33100E-02 7.80471E+01-2.17162E-02-3.00297E-01-2.80956E-14 3.17184E-13
 -1      5478 1.86046E-01 7.92448E+01-3.41861E-03-9.26507E-01-2.84914E-13-8.62366E-14
 -1      5479 1.03879E-01 7.90067E+01-1.88584E-03-7.99504E-01 1.26534E-13-1.17441E-13
 -1      5480 4.00523E-01 8.00490E+01-2.08952E-03-1.25902E+00-8.77978E-14-1.07275E-13
 -1      5481 2.59534E-01 7.98311E+01-7.07267E-04-1.19967E+00 6.62925E-14 1.02106E-13
 -1      5482 6.69429E-01 8.07643E+01-1.41161E-03-1.54491E+00-1.13531E-13 7.67303E-14
 -1      5483 4.68287E-01 8.05614E+01-7.45475E-04-1.53420E+00 1.49903E-13-5.81132E-14
 -1      5484 9.84665E-01 8.14226E+01-8.54312E-04-1.80413E+00-4.80009E-15-8.77909E-14
 -1      5485 7.19090E-01 8.12298E+01-8.87566E-04-1.82796E+00 4.76832E-14 6.37684E-14
 -1      5486 1.34118E+00 8.20518E+01-3.39897E-04-2.05326E+00 4.09712E-13-6.61970E-14
 -1      5487 1.00396E+00 8.18638E+01-1.07748E-03-2.10066E+00-6.16204E-14-1.09912E-13
 -1      5488 1.73600E+00 8.26786E+01 1.90201E-04-2.30711E+00 1.28716E-14-5.72667E-14
 -1      5489 1.31654E+00 8.24895E+01-1.28874E-03-2.36879E+00 8.60353E-14-9.02750E-14
 -1      5490 2.16703E+00 8.33307E+01 8.01094E-04-2.57992E+00 1.56125E-15 2.51556E-13
 -1      5491 1.65073E+00 8.31335E+01-1.49366E-03-2.64707E+00-1.22992E-14 2.02352E-13
 -1      5492 2.63151E+00 8.40399E+01 1.57847E-03-2.88627E+00-1.51677E-13-1.80272E-13
 -1      5493 1.99890E+00 8.38253E+01-1.64642E-03-2.94923E+00-3.62977E-13-1.17933E-13
 -1      5494 3.12384E+00 8.48458E+01 2.64378E-03-3.24149E+00 1.36488E-13-3.48055E-14
 -1      5495 2.34956E+00 8.46003E+01-1.66739E-03-3.28838E+00 8.30377E-14 2.26763E-14
 -1      5496 3.63192E+00 8.58008E+01 4.17641E-03-3.66133E+00-2.36033E-13 1.81299E-13
 -1      5497 2.68369E+00 8.55040E+01-1.41398E-03-3.67623E+00 2.06793E-13-9.10522E-14
 -1      5498 4.13100E+00 8.69770E+01 6.43130E-03-4.15985E+00 1.46411E-13-1.27398E-14
 -1      5499 2.96899E+00 8.65968E+01-6.35077E-04-4.12068E+00-2.82802E-13 2.23377E-13
 -1      5500 4.57301E+00 8.84767E+01 9.81977E-03-4.74329E+00 2.83981E-13-2.77015E-13
 -1      5501 3.15063E+00 8.79607E+01 1.13524E-03-4.61949E+00 4.37705E-14-1.40110E-13
 -1      5502 4.86682E+00 9.04444E+01 1.42745E-02-5.39441E+00 3.91909E-14 1.11855E-13
 -1      5503 3.13604E+00 8.97063E+01 4.59413E-03-5.14600E+00 5.34572E-14-2.03448E-14
 -1      5504 4.85443E+00 9.30809E+01 2.30955E-02-6.03552E+00 8.60423E-14-2.32869E-14
 -1      5505 2.77697E+00 9.19757E+01 1.16104E-02-5.61839E+00-1.33671E-13 4.08007E-14
 -1      5506 1.81929E+00 9.49168E+01 2.19177E-02-5.83573E+00 4.92939E-14-8.85958E-14
 -1      5507 2.32849E-02 7.88064E+01-1.15152E-02-6.12652E-01-2.91187E-13 1.89841E-13
 -1      5508 1.68514E-02 7.86523E+01-1.81307E-02-3.40869E-01-8.27671E-14 1.95559E-13
 -1      5509 1.37508E-01 7.96434E+01-2.59169E-03-1.08500E+00 1.21986E-14-1.23290E-13
 -1      5510 7.08884E-02 7.94825E+01-1.44659E-03-9.06155E-01 8.50015E-16-9.17738E-14
 -1      5511 2.95532E-01 8.03820E+01-1.49525E-03-1.46997E+00 9.92279E-14 6.52742E-14
 -1      5512 1.76741E-01 8.02190E+01-4.16575E-04-1.35645E+00 2.44242E-13-4.28060E-14
 -1      5513 4.90858E-01 8.10563E+01-9.09331E-04-1.79759E+00 8.59816E-14 9.65200E-14
 -1      5514 3.16806E-01 8.08919E+01-3.53199E-04-1.72898E+00 1.67635E-13 1.58408E-13
 -1      5515 7.14244E-01 8.16930E+01-3.87664E-04-2.09075E+00-2.18414E-13-1.74825E-13
 -1      5516 4.80439E-01 8.15259E+01-3.35863E-04-2.05105E+00 4.36986E-14-1.51254E-13
 -1      5517 9.57390E-01 8.23169E+01 1.33796E-04-2.36767E+00-1.70058E-13-2.09763E-14
 -1      5518 6.57839E-01 8.21441E+01-3.03954E-04-2.34358E+00-6.31405E-14 2.83107E-15
 -1      5519 1.21183E+00 8.29527E+01 7.06187E-04-2.64339E+00 7.84494E-14 6.21517E-14
 -1      5520 8.38763E-01 8.27694E+01-2.16635E-04-2.62288E+00 6.47971E-14 8.64309E-14
 -1      5521 1.46731E+00 8.36271E+01 1.38845E-03-2.93080E+00 4.37497E-15 9.09550E-14
 -1      5522 1.01099E+00 8.34261E+01-2.13223E-05-2.90183E+00-7.19702E-14 5.63855E-14
 -1      5523 1.70956E+00 8.43712E+01 2.25558E-03-3.24077E+00 1.15671E-14-3.24255E-14
 -1      5524 1.15833E+00 8.41418E+01 3.62893E-04-3.19007E+00 5.13201E-14-1.07574E-13
 -1      5525 1.91706E+00 8.52230E+01 3.40334E-03-3.58144E+00 2.41057E-14-8.84987E-14
 -1      5526 1.25778E+00 8.49494E+01 1.06210E-03-3.49328E+00 3.68733E-14 8.63476E-14
 -1      5527 2.05614E+00 8.62308E+01 4.95014E-03-3.95579E+00 1.83520E-13 8.55149E-14
 -1      5528 1.27558E+00 8.58892E+01 2.27497E-03-3.81084E+00-1.50671E-13-4.56718E-14
 -1      5529 2.07346E+00 8.74568E+01 6.99954E-03-4.35617E+00-1.37265E-13 4.39648E-14
 -1      5530 1.16140E+00 8.70108E+01 4.30914E-03-4.13075E+00-1.48784E-13 9.81715E-14
 -1      5531 1.88499E+00 8.89796E+01 9.64924E-03-4.75281E+00-8.47933E-14-2.50036E-13
 -1      5532 8.40638E-01 8.83740E+01 7.64440E-03-4.41975E+00-7.61752E-14-1.57735E-13
 -1      5533 1.35921E+00 9.08904E+01 1.21271E-02-5.07088E+00 9.16767E-14 2.34812E-14
 -1      5534 2.04306E-01 9.00434E+01 1.29342E-02-4.60488E+00-4.41480E-13-9.31477E-14
 -1      5535 3.03933E-01 9.32755E+01 1.58245E-02-5.14687E+00 8.01026E-14 1.34392E-13
 -1      5536-8.97152E-01 9.20693E+01 2.12133E-02-4.54049E+00-1.21625E-13 1.91555E-13
 -1      5537-2.66513E+00 9.44289E+01 3.29596E-02-3.95678E+00 1.24345E-13-9.49484E-14
 -1      5538 1.27707E-02 7.93698E+01-8.77430E-03-6.74720E-01 6.19435E-14 8.38218E-14
 -1      5539 9.98356E-03 7.93187E+01-1.41940E-02-3.65435E-01-1.66263E-13 1.13642E-13
 -1      5540 8.35958E-02 8.00920E+01-1.67010E-03-1.19313E+00-2.34882E-14-1.04590E-13
 -1      5541 3.59657E-02 8.00046E+01-9.78718E-04-9.71086E-01 2.07480E-13-8.70831E-14
 -1      5542 1.79032E-01 8.07529E+01-8.45101E-04-1.61202E+00 1.40219E-13 3.63320E-14
 -1      5543 8.91365E-02 8.06410E+01-1.24889E-04-1.45082E+00 4.41418E-14 1.31860E-13
 -1      5544 2.93373E-01 8.13766E+01-3.79753E-04-1.96316E+00-1.69907E-14-8.72913E-15
 -1      5545 1.56944E-01 8.12460E+01 2.71696E-05-1.84259E+00 5.87516E-14-7.50927E-14
 -1      5546 4.16874E-01 8.19833E+01 7.48676E-05-2.27023E+00-2.65239E-14-1.42941E-13
 -1      5547 2.29867E-01 8.18360E+01 1.84307E-04-2.17383E+00 2.42949E-13 4.46934E-14
 -1      5548 5.38820E-01 8.25934E+01 5.63464E-04-2.55100E+00 1.43868E-13 1.46258E-13
 -1      5549 2.97266E-01 8.24282E+01 4.05432E-04-2.46463E+00 1.93973E-13-6.29080E-14
 -1      5550 6.46500E-01 8.32280E+01 1.12159E-03-2.81863E+00-9.86780E-14-2.65343E-14
 -1      5551 3.46416E-01 8.30408E+01 7.35807E-04-2.72932E+00 7.99777E-14 6.42264E-14
 -1      5552 7.23553E-01 8.39107E+01 1.78957E-03-3.08213E+00 2.91274E-13 7.89369E-14
 -1      5553 3.61204E-01 8.36940E+01 1.23661E-03-2.97704E+00-7.61925E-14-1.76734E-14
 -1      5554 7.47687E-01 8.46685E+01 2.61241E-03-3.34579E+00-1.52794E-14 1.50643E-14
 -1      5555 3.20362E-01 8.44107E+01 1.99653E-03-3.21144E+00-5.60385E-14-1.16476E-13
 -1      5556 6.87508E-01 8.55333E+01 3.63141E-03-3.60720E+00 1.11647E-14 4.14807E-14
 -1      5557 1.95090E-01 8.52170E+01 3.14250E-03-3.42901E+00 1.43108E-13 1.32339E-13
 -1      5558 4.98214E-01 8.65423E+01 4.86321E-03-3.85319E+00-2.63817E-13-3.42643E-14
 -1      5559-5.39706E-02 8.61421E+01 4.85321E-03-3.61565E+00 7.77434E-14-2.13440E-14
 -1      5560 1.15943E-01 8.77373E+01 6.22440E-03-4.05209E+00 1.12271E-14 1.36141E-14
 -1      5561-4.80312E-01 8.72170E+01 7.37010E-03-3.74034E+00-1.12549E-13 6.68215E-14
 -1      5562-5.48603E-01 8.91586E+01 7.46524E-03-4.14022E+00-2.17992E-13-3.38771E-13
 -1      5563-1.15488E+00 8.84684E+01 1.09899E-02-3.74460E+00-2.21587E-13-1.86438E-13
 -1      5564-1.61604E+00 9.08284E+01 7.43281E-03-3.99903E+00 1.40998E-13 1.87350E-15
 -1      5565-2.16719E+00 8.99048E+01 1.60442E-02-3.52591E+00 1.75554E-13-3.28192E-14
 -1      5566-3.23271E+00 9.27109E+01 5.60459E-03-3.41980E+00-1.28869E-13 1.91717E-13
 -1      5567-3.61766E+00 9.14834E+01 2.25777E-02-2.91335E+00 1.55431E-15-3.85291E-14
 -1      5568-5.59475E+00 9.30433E+01 3.07685E-02-1.64285E+00-5.56499E-14 2.83863E-13
 -1      5569 2.20017E-03 7.99737E+01-5.91525E-03-7.06263E-01 2.25792E-13 3.29251E-14
 -1      5570 3.24023E-03 8.00163E+01-1.01358E-02-3.73802E-01 3.26475E-13 2.18409E-13
 -1      5571 2.89304E-02 8.05701E+01-7.31608E-04-1.24793E+00-8.58133E-14-1.95538E-14
 -1      5572 1.93258E-03 8.05500E+01-5.17675E-04-9.93695E-01-4.34375E-15-7.85344E-14
 -1      5573 6.10185E-02 8.11431E+01-1.97756E-04-1.68148E+00-6.03892E-14-2.04559E-14
 -1      5574 3.79781E-03 8.10776E+01 1.40913E-04-1.48207E+00 2.39146E-13-2.13024E-14
 -1      5575 9.40896E-02 8.17063E+01 1.24017E-04-2.03794E+00 1.80578E-13 1.02814E-13
 -1      5576 1.68135E-03 8.16052E+01 3.56859E-04-1.87484E+00 8.90590E-14 4.35346E-14
 -1      5577 1.18823E-01 8.22724E+01 4.79298E-04-2.33981E+00-1.22003E-13-1.80411E-15
 -1      5578-1.20420E-02 8.21405E+01 6.17878E-04-2.19752E+00 1.51511E-14 6.31786E-14
 -1      5579 1.23457E-01 8.28560E+01 8.89614E-04-2.60281E+00-9.16281E-15 5.44009E-14
 -1      5580-4.76183E-02 8.26939E+01 9.73667E-04-2.46790E+00-5.78808E-14-5.74575E-14
 -1      5581 9.30846E-02 8.34732E+01 1.36881E-03-2.83680E+00 9.53543E-14-5.34156E-14
 -1      5582-1.18400E-01 8.32777E+01 1.46415E-03-2.69710E+00 1.44929E-13 6.37684E-15
 -1      5583 8.36967E-03 8.41422E+01 1.92981E-03-3.04572E+00-5.35127E-14 1.10634E-13
 -1      5584-2.41642E-01 8.39060E+01 2.14351E-03-2.88982E+00 3.17600E-13-8.81933E-15
 -1      5585-1.56182E-01 8.48830E+01 2.57653E-03-3.22642E+00 2.15689E-13-6.56038E-14
 -1      5586-4.39619E-01 8.45947E+01 3.08469E-03-3.04350E+00 3.39031E-13-6.37615E-14
 -1      5587-4.34380E-01 8.57170E+01 3.28488E-03-3.36604E+00 2.76189E-13 7.83054E-14
 -1      5588-7.40963E-01 8.53597E+01 4.38104E-03-3.14632E+00 6.31439E-14 1.58061E-13
 -1      5589-8.70729E-01 8.66653E+01 3.96726E-03-3.43727E+00-2.98858E-13-6.19366E-14
 -1      5590-1.18194E+00 8.62158E+01 6.14326E-03-3.17356E+00-3.08920E-14-1.66908E-13
 -1      5591-1.52243E+00 8.77430E+01 4.38816E-03-3.39070E+00-2.77556E-16 1.03934E-13
 -1      5592-1.80701E+00 8.71712E+01 8.48585E-03-3.08179E+00-1.47396E-13 1.55050E-13
 -1      5593-2.45932E+00 8.89478E+01 4.04915E-03-3.14316E+00 2.89033E-13-2.64021E-13
 -1      5594-2.66731E+00 8.82181E+01 1.14696E-02-2.80056E+00 1.43940E-13-5.00208E-14
 -1      5595-3.75803E+00 9.02364E+01 1.87698E-03-2.56185E+00 5.05429E-14-1.08916E-13
 -1      5596-3.81407E+00 8.93140E+01 1.50777E-02-2.22190E+00 1.92041E-13-1.11636E-13
 -1      5597-5.48292E+00 9.14778E+01-3.99061E-03-1.44687E+00 3.79141E-13 1.58630E-13
 -1      5598-5.28309E+00 9.03480E+01 1.86378E-02-1.19006E+00-1.71196E-13 2.65343E-14
 -1      5599-7.05579E+00 9.10828E+01 2.18848E-02 4.95994E-01 1.30174E-13 1.54599E-14
 -1      5600-7.59607E-03 8.05921E+01-3.10327E-03-7.08034E-01-6.40668E-14-1.17777E-13
 -1      5601-2.23407E-02 8.10571E+01 1.71514E-04-1.25072E+00-1.76949E-13-9.42718E-14
 -1      5602-4.95949E-02 8.15347E+01 4.09223E-04-1.68055E+00-3.79974E-14 6.72136E-14
 -1      5603-9.18849E-02 8.20278E+01 5.71244E-04-2.02578E+00 2.07794E-13 7.03500E-14
 -1      5604-1.57127E-01 8.25416E+01 7.98973E-04-2.30622E+00-1.34361E-13-1.16851E-14
 -1      5605-2.56582E-01 8.30840E+01 1.08976E-03-2.53452E+00 2.90866E-13 7.15920E-14
 -1      5606-4.05084E-01 8.36648E+01 1.43349E-03-2.71671E+00 3.27169E-14-7.19078E-14
 -1      5607-6.21683E-01 8.42949E+01 1.81345E-03-2.85172E+00-4.90927E-15-5.71175E-14
 -1      5608-9.30443E-01 8.49854E+01 2.19291E-03-2.93004E+00 1.85275E-13-3.99680E-15
 -1      5609-1.36115E+00 8.57452E+01 2.49197E-03-2.93108E+00-1.57256E-13 7.65395E-14
 -1      5610-1.94937E+00 8.65770E+01 2.55023E-03-2.81904E+00 1.86358E-13-1.09045E-14
 -1      5611-2.73482E+00 8.74696E+01 2.05748E-03-2.53716E+00-4.20441E-13 1.34227E-13
 -1      5612-3.75609E+00 8.83840E+01 4.76758E-04-2.00063E+00 3.41893E-13-1.46046E-13
 -1      5613-5.03798E+00 8.92297E+01-3.02390E-03-1.09026E+00-1.74277E-13-1.26475E-13
 -1      5614-6.56957E+00 8.98262E+01-1.04480E-02 3.47583E-01 1.27787E-13 7.46625E-14
 -1      5615-1.67170E-02 8.14711E+01 2.77190E-03-6.72270E-01 8.45053E-14-3.53164E-14
 -1      5616-8.20228E-02 8.17451E+01 3.32582E-03-1.18157E+00-4.72296E-14-1.17238E-13
 -1      5617-1.80884E-01 8.20772E+01 3.35948E-03-1.57813E+00-1.01088E-13 1.48857E-14
 -1      5618-3.12437E-01 8.24563E+01 3.79068E-03-1.88373E+00-1.81758E-13 1.75479E-13
 -1      5619-4.81187E-01 8.28767E+01 4.59278E-03-2.11271E+00 2.36106E-14 3.07020E-14
 -1      5620-6.95319E-01 8.33362E+01 5.71296E-03-2.27266E+00 1.44712E-13-7.53408E-14
 -1      5621-9.66202E-01 8.38346E+01 7.10931E-03-2.36444E+00 9.02100E-14-9.18991E-14
 -1      5622-1.30802E+00 8.43713E+01 8.71822E-03-2.38160E+00-2.17560E-14 1.15750E-13
 -1      5623-1.73721E+00 8.49432E+01 1.04143E-02-2.30930E+00-1.24380E-15-8.21283E-14
 -1      5624-2.27134E+00 8.55410E+01 1.19470E-02-2.12255E+00-1.50531E-13 2.95651E-14
 -1      5625-2.92673E+00 8.61438E+01 1.28489E-02-1.78427E+00-2.31343E-14-1.52461E-13
 -1      5626-3.71400E+00 8.67108E+01 1.23107E-02-1.24357E+00-4.49293E-15 2.84279E-13
 -1      5627-4.63011E+00 8.71692E+01 9.07089E-03-4.35845E-01 1.99767E-13-2.94492E-13
 -1      5628-5.64577E+00 8.73978E+01 1.25639E-03 7.12570E-01-1.35798E-13 7.09398E-14
 -1      5629-6.68655E+00 8.72101E+01-1.29426E-02 2.26947E+00 9.67941E-14 6.46184E-14
 -1      5630-2.12943E-02 8.20057E+01 5.59157E-03-6.17927E-01-4.70093E-14-1.87817E-13
 -1      5631-1.11551E-01 8.21607E+01 4.52713E-03-1.08680E+00 1.67275E-13 8.21990E-14
 -1      5632-2.45583E-01 8.23961E+01 4.17797E-03-1.44728E+00 4.90120E-14-2.10617E-14
 -1      5633-4.20243E-01 8.26936E+01 4.31455E-03-1.71597E+00 5.29854E-14 5.58295E-14
 -1      5634-6.37271E-01 8.30412E+01 4.81025E-03-1.90324E+00-1.01911E-13 1.08333E-15
 -1      5635-9.01874E-01 8.34305E+01 5.56439E-03-2.01358E+00-8.02370E-14 1.05953E-14
 -1      5636-1.22185E+00 8.38549E+01 6.48078E-03-2.04536E+00 7.37934E-14 2.81955E-14
 -1      5637-1.60668E+00 8.43066E+01 7.43102E-03-1.99043E+00-6.82752E-14 2.12998E-14
 -1      5638-2.06630E+00 8.47743E+01 8.21828E-03-1.83338E+00 1.39663E-14-4.40056E-14
 -1      5639-2.60923E+00 8.52393E+01 8.52767E-03-1.55078E+00-7.50511E-14-6.40521E-14
 -1      5640-3.23952E+00 8.56706E+01 7.86921E-03-1.11072E+00-2.13354E-14 1.17872E-13
 -1      5641-3.95193E+00 8.60175E+01 5.52212E-03-4.73444E-01-6.89553E-14-5.95982E-14
 -1      5642-4.72470E+00 8.62017E+01 5.42258E-04 4.05362E-01-1.11196E-13-5.28987E-14
 -1      5643-5.50992E+00 8.61074E+01-8.14278E-03 1.56644E+00-1.51962E-14 1.99792E-13
 -1      5644-6.22202E+00 8.55751E+01-2.12201E-02 3.03049E+00-8.67917E-14-1.56850E-13
 -1      5645-2.42908E-02 8.24902E+01 7.80409E-03-5.49715E-01-3.20993E-14-6.26294E-14
 -1      5646-1.32304E-01 8.25352E+01 5.37721E-03-9.67708E-01-5.63048E-14-2.01526E-13
 -1      5647-2.91110E-01 8.26769E+01 4.68822E-03-1.28455E+00 2.07566E-13 1.23399E-13
 -1      5648-4.95496E-01 8.28914E+01 4.52589E-03-1.51152E+00 1.36415E-13-5.76620E-14
 -1      5649-7.44352E-01 8.31614E+01 4.68809E-03-1.65519E+00 2.22571E-13 1.46610E-13
 -1      5650-1.03962E+00 8.34735E+01 5.04144E-03-1.71736E+00-3.18508E-14-8.53564E-14
 -1      5651-1.38516E+00 8.38153E+01 5.45493E-03-1.69479E+00 2.55977E-13-6.51129E-14
 -1      5652-1.78549E+00 8.41731E+01 5.76461E-03-1.57890E+00-6.48301E-14 1.56741E-13
 -1      5653-2.24418E+00 8.45292E+01 5.74713E-03-1.35555E+00 2.06102E-14 7.47640E-14
 -1      5654-2.76171E+00 8.48586E+01 5.08952E-03-1.00509E+00 1.22943E-13-6.62378E-14
 -1      5655-3.33232E+00 8.51243E+01 3.36670E-03-5.03051E-01 4.15015E-14-8.34255E-14
 -1      5656-3.93983E+00 8.52729E+01 4.26685E-05 1.77555E-01-1.42806E-13 4.01588E-15
 -1      5657-4.55211E+00 8.52291E+01-5.46203E-03 1.06145E+00-9.31200E-14 3.53346E-14
 -1      5658-5.11509E+00 8.48922E+01-1.35927E-02 2.16214E+00-1.51037E-13-1.32661E-13
 -1      5659-5.54772E+00 8.41367E+01-2.42621E-02 3.46738E+00 9.24434E-15 2.16910E-14
 -1      5660-2.57868E-02 8.29151E+01 9.40144E-03-4.72491E-01-1.29174E-13 4.03063E-15
 -1      5661-1.44532E-01 8.28616E+01 5.88892E-03-8.32674E-01 1.21328E-13-2.53326E-13
 -1      5662-3.18030E-01 8.29151E+01 4.92039E-03-1.10122E+00 5.75070E-14 1.09565E-13
 -1      5663-5.39361E-01 8.30478E+01 4.48361E-03-1.28439E+00-2.99257E-14-7.43158E-14
 -1      5664-8.04762E-01 8.32387E+01 4.32478E-03-1.38528E+00-9.53711E-14-7.88876E-14
 -1      5665-1.11300E+00 8.34701E+01 4.29475E-03-1.40356E+00-4.70490E-14 2.05015E-13
 -1      5666-1.46414E+00 8.37253E+01 4.24799E-03-1.33510E+00-1.10716E-13-5.42491E-14
 -1      5667-1.85811E+00 8.39863E+01 4.01203E-03-1.17190E+00-9.20097E-14 1.15836E-15
 -1      5668-2.29302E+00 8.42310E+01 3.37250E-03-9.02257E-01-2.19406E-13 4.64750E-14
 -1      5669-2.76304E+00 8.44307E+01 2.06096E-03-5.11357E-01-8.21582E-14-1.75259E-14
 -1      5670-3.25574E+00 8.45467E+01-2.41971E-04 1.71696E-02-9.98125E-14-1.22524E-14
 -1      5671-3.74879E+00 8.45277E+01-3.87275E-03 6.98293E-01 1.57600E-14 5.31242E-14
 -1      5672-4.20654E+00 8.43068E+01-9.09485E-03 1.54044E+00 5.77403E-14-6.31023E-14
 -1      5673-4.57710E+00 8.38022E+01-1.59249E-02 2.53745E+00-6.99996E-14-3.66755E-14
 -1      5674-4.79180E+00 8.29217E+01-2.38618E-02 3.65743E+00 5.35396E-14 1.21882E-14
 -1      5675-2.59531E-02 8.32746E+01 1.04159E-02-3.90795E-01 1.66176E-13-1.01764E-13
 -1      5676-1.49039E-01 8.31357E+01 6.09519E-03-6.89542E-01 9.20956E-14-3.28513E-14
 -1      5677-3.28101E-01 8.31086E+01 4.91791E-03-9.07791E-01 1.61942E-13 5.66010E-14
 -1      5678-5.54972E-01 8.31633E+01 4.25142E-03-1.04731E+00 2.93895E-13 3.28904E-15
 -1      5679-8.23638E-01 8.32764E+01 3.81246E-03-1.10823E+00 2.67457E-13 2.66996E-14
 -1      5680-1.13008E+00 8.34273E+01 3.45140E-03-1.08858E+00 1.35070E-13-1.03186E-14
 -1      5681-1.47104E+00 8.35963E+01 3.02537E-03-9.83941E-01 6.38786E-14-7.81536E-14
 -1      5682-1.84265E+00 8.37625E+01 2.37369E-03-7.87516E-01 1.06032E-13 1.28740E-13
 -1      5683-2.23883E+00 8.39016E+01 1.31308E-03-4.90522E-01 1.20071E-13 1.47559E-13
 -1      5684-2.64943E+00 8.39836E+01-3.61203E-04-8.31916E-02-7.67841E-14-2.29893E-13
 -1      5685-3.05821E+00 8.39712E+01-2.85740E-03 4.43377E-01 2.02095E-16-4.24730E-14
 -1      5686-3.44067E+00 8.38179E+01-6.34204E-03 1.09414E+00-1.02396E-13 8.86860E-14
 -1      5687-3.76227E+00 8.34679E+01-1.08550E-02 1.86548E+00-1.06452E-13-8.38739E-15
 -1      5688-3.97785E+00 8.28583E+01-1.61775E-02 2.73878E+00 2.16925E-13-2.94556E-14
 -1      5689-4.03359E+00 8.19253E+01-2.16639E-02 3.67279E+00-2.08303E-13 4.62477E-15
 -1      5690-2.50196E-02 8.35665E+01 1.09094E-02-3.08600E-01-1.48231E-13-5.45388E-14
 -1      5691-1.46987E-01 8.33562E+01 6.04224E-03-5.45200E-01-1.62161E-13-6.45534E-14
 -1      5692-3.23848E-01 8.32576E+01 4.73001E-03-7.13391E-01-2.31244E-13 2.04943E-13
 -1      5693-5.46690E-01 8.32402E+01 3.89045E-03-8.11143E-01 1.03049E-13-1.81969E-13
 -1      5694-8.07780E-01 8.32793E+01 3.22961E-03-8.36161E-01 5.67207E-14 9.72963E-14
 -1      5695-1.10086E+00 8.33529E+01 2.60918E-03-7.85287E-01-1.01923E-13 1.74132E-14
 -1      5696-1.42007E+00 8.34395E+01 1.90118E-03-6.54213E-01-2.65991E-13-1.16715E-13
 -1      5697-1.75869E+00 8.35169E+01 9.69069E-04-4.37594E-01-9.35046E-14 4.98828E-14
 -1      5698-2.10776E+00 8.35601E+01-3.29552E-04-1.29601E-01-9.66328E-15 8.45417E-15
 -1      5699-2.45466E+00 8.35398E+01-2.13404E-03 2.74964E-01-4.95467E-14 1.19453E-14
 -1      5700-2.78169E+00 8.34218E+01-4.55708E-03 7.78806E-01 2.69862E-14 2.49020E-14
 -1      5701-3.06489E+00 8.31662E+01-7.64139E-03 1.37936E+00 1.17031E-13-1.09654E-13
 -1      5702-3.27352E+00 8.27285E+01-1.12928E-02 2.06504E+00 1.43997E-13 3.29372E-14
 -1      5703-3.37084E+00 8.20624E+01-1.51949E-02 2.81061E+00 7.68292E-14 1.57081E-13
 -1      5704-3.31722E+00 8.11267E+01-1.87229E-02 3.57245E+00-2.46882E-14-1.98171E-13
 -1      5705-2.32412E-02 8.37914E+01 1.09607E-02-2.29164E-01-1.69722E-13-3.87667E-14
 -1      5706-1.39715E-01 8.35238E+01 5.78158E-03-4.05333E-01 8.18243E-14-7.08799E-14
 -1      5707-3.08166E-01 8.33638E+01 4.40493E-03-5.25499E-01 1.60148E-13 8.45296E-14
 -1      5708-5.19438E-01 8.32817E+01 3.45298E-03-5.84598E-01-6.33707E-14 4.60812E-14
 -1      5709-7.64655E-01 8.32528E+01 2.63557E-03-5.78442E-01-1.42974E-13-5.68174E-14
 -1      5710-1.03596E+00 8.32547E+01 1.83341E-03-5.03073E-01 1.03093E-14-2.57754E-14
 -1      5711-1.32566E+00 8.32654E+01 9.40439E-04-3.54501E-01 8.20318E-14 8.49069E-14
 -1      5712-1.62511E+00 8.32624E+01-1.50340E-04-1.28842E-01 9.55705E-14-2.27179E-14
 -1      5713-1.92371E+00 8.32215E+01-1.53971E-03 1.77107E-01 1.33001E-13 6.15038E-14
 -1      5714-2.20784E+00 8.31154E+01-3.31006E-03 5.64783E-01 1.21901E-13-1.76812E-14
 -1      5715-2.46004E+00 8.29141E+01-5.50224E-03 1.03221E+00 2.55395E-15-9.01779E-14
 -1      5716-2.65851E+00 8.25844E+01-8.08053E-03 1.57171E+00-1.00307E-13-4.99375E-14
 -1      5717-2.77744E+00 8.20921E+01-1.08866E-02 2.16715E+00-2.32131E-13 1.32805E-13
 -1      5718-2.78851E+00 8.14051E+01-1.35918E-02 2.79084E+00-1.08648E-13-7.56322E-14
 -1      5719-2.66409E+00 8.04986E+01-1.56647E-02 3.40101E+00 1.91526E-14 3.75516E-14
 -1      5720-2.08697E-02 8.39526E+01 1.06555E-02-1.54985E-01-7.23826E-14-6.82301E-14
 -1      5721-1.28580E-01 8.36412E+01 5.36504E-03-2.74330E-01-8.07614E-14-7.18288E-14
 -1      5722-2.84000E-01 8.34303E+01 3.98648E-03-3.49847E-01 5.44638E-15 5.25274E-15
 -1      5723-4.78172E-01 8.32919E+01 2.98045E-03-3.74199E-01 8.42539E-14-3.95517E-15
 -1      5724-7.01639E-01 8.32024E+01 2.07067E-03-3.41804E-01-1.05693E-13 1.42161E-14
 -1      5725-9.45585E-01 8.31398E+01 1.16070E-03-2.48203E-01-1.12940E-13 6.31439E-16
 -1      5726-1.20118E+00 8.30827E+01 1.69122E-04-8.98048E-02 5.07166E-14 7.17620E-14
 -1      5727-1.45877E+00 8.30093E+01-9.81284E-04 1.35985E-01 7.71655E-14 1.31084E-14
 -1      5728-1.70707E+00 8.28969E+01-2.35433E-03 4.30234E-01-1.90262E-13-3.59322E-14
 -1      5729-1.93257E+00 8.27213E+01-3.98803E-03 7.91553E-01 1.34610E-14-7.52237E-14
 -1      5730-2.11908E+00 8.24566E+01-5.87512E-03 1.21475E+00 2.21286E-15 3.95829E-14
 -1      5731-2.24777E+00 8.20763E+01-7.93784E-03 1.68911E+00 2.40983E-13 9.87526E-14
 -1      5732-2.29792E+00 8.15551E+01-1.00000E-02 2.19647E+00 1.35068E-13-3.07792E-14
 -1      5733-2.24865E+00 8.08716E+01-1.17656E-02 2.70946E+00 9.07027E-14-8.63545E-14
 -1      5734-2.08183E+00 8.00128E+01-1.28168E-02 3.19035E+00-1.23145E-13-3.58463E-14
 -1      5735-1.81353E-02 8.40547E+01 1.00790E-02-8.78193E-02 8.25874E-14 6.60288E-14
 -1      5736-1.14855E-01 8.37122E+01 4.84082E-03-1.55320E-01-6.62706E-14-1.08854E-15
 -1      5737-2.54107E-01 8.34608E+01 3.51195E-03-1.90495E-01-5.58050E-15 1.56307E-14
 -1      5738-4.27492E-01 8.32752E+01 2.50327E-03-1.84437E-01-3.03338E-15-1.94294E-13
 -1      5739-6.25478E-01 8.31333E+01 1.55865E-03-1.30623E-01 9.39665E-14 2.75295E-13
 -1      5740-8.38857E-01 8.30145E+01 6.05213E-04-2.43133E-02 3.59455E-14-1.03509E-13
 -1      5741-1.05832E+00 8.28985E+01-4.14343E-04 1.37689E-01-3.55026E-14-1.04504E-13
 -1      5742-1.27387E+00 8.27652E+01-1.55035E-03 3.56940E-01 3.18144E-14 7.46365E-14
 -1      5743-1.47434E+00 8.25939E+01-2.83670E-03 6.32927E-01-1.48864E-13-2.07768E-14
 -1      5744-1.64701E+00 8.23635E+01-4.27988E-03 9.62326E-01-4.09547E-14-3.05493E-14
 -1      5745-1.77753E+00 8.20526E+01-5.84422E-03 1.33800E+00 3.22991E-14 1.62257E-13
 -1      5746-1.85025E+00 8.16405E+01-7.43549E-03 1.74777E+00-6.31082E-14 1.57461E-14
 -1      5747-1.84916E+00 8.11091E+01-8.88643E-03 2.17327E+00-5.49704E-14-6.54980E-14
 -1      5748-1.75950E+00 8.04450E+01-9.95145E-03 2.58901E+00 2.37135E-14-5.31328E-14
 -1      5749-1.57026E+00 7.96435E+01-1.03191E-02 2.96218E+00 1.49887E-13-1.14578E-14
 -1      5750-1.52341E-02 8.41039E+01 9.30979E-03-2.87585E-02 5.64392E-15-1.85980E-14
 -1      5751-9.96554E-02 8.37416E+01 4.25116E-03-5.02886E-02-3.73102E-14 6.10241E-14
 -1      5752-2.20904E-01 8.34598E+01 3.01144E-03-4.99949E-02-4.29714E-14-9.94517E-14
 -1      5753-3.71415E-01 8.32359E+01 2.04212E-03-1.80239E-02 7.85879E-15 1.39215E-13
 -1      5754-5.41990E-01 8.30502E+01 1.11039E-03 5.27076E-02 1.57617E-14-1.18447E-14
 -1      5755-7.23506E-01 8.28838E+01 1.65448E-04 1.67054E-01-4.99903E-14 5.63343E-14
 -1      5756-9.06694E-01 8.27182E+01-8.28430E-04 3.27866E-01-2.07097E-14-4.34808E-15
 -1      5757-1.08178E+00 8.25353E+01-1.89914E-03 5.35941E-01-4.88854E-14-1.85813E-13
 -1      5758-1.23819E+00 8.23169E+01-3.05808E-03 7.89703E-01-1.12685E-14 1.77656E-13
 -1      5759-1.36443E+00 8.20449E+01-4.29132E-03 1.08467E+00-5.32227E-14 1.61581E-14
 -1      5760-1.44822E+00 8.17020E+01-5.54927E-03 1.41276E+00-4.29398E-14-9.12603E-14
 -1      5761-1.47695E+00 8.12725E+01-6.73719E-03 1.76150E+00-2.91493E-14-6.25628E-14
 -1      5762-1.43864E+00 8.07440E+01-7.70957E-03 2.11342E+00-1.01583E-14 5.70013E-14
 -1      5763-1.32335E+00 8.01089E+01-8.27361E-03 2.44571E+00-1.34405E-13 2.88172E-14
 -1      5764-1.12517E+00 7.93677E+01-8.20661E-03 2.73064E+00 9.80119E-15 3.03334E-14
 -1      5765-1.23231E-02 8.41070E+01 8.41709E-03 2.16706E-02 2.82960E-14 1.21882E-14
 -1      5766-8.39024E-02 8.37348E+01 3.63125E-03 3.97537E-02-3.95592E-14-8.25694E-14
 -1      5767-1.86396E-01 8.34317E+01 2.50815E-03 7.03721E-02-4.95006E-14 1.15345E-13
 -1      5768-3.13250E-01 8.31782E+01 1.60987E-03 1.23804E-01-1.48820E-14-4.71099E-14
 -1      5769-4.55919E-01 8.29571E+01 7.27785E-04 2.07377E-01 1.88044E-13 7.21341E-14
 -1      5770-6.05733E-01 8.27517E+01-1.69614E-04 3.25934E-01-1.20333E-13-1.19437E-13
 -1      5771-7.53859E-01 8.25456E+01-1.10005E-03 4.82050E-01 4.15446E-14 5.13842E-14
 -1      5772-8.91115E-01 8.23228E+01-2.07384E-03 6.76018E-01 5.33714E-14 8.60857E-15
 -1      5773-1.00786E+00 8.20677E+01-3.08660E-03 9.05649E-01-6.13560E-14 2.79117E-14
 -1      5774-1.09404E+00 8.17653E+01-4.11257E-03 1.16592E+00-9.82390E-15-8.64413E-14
 -1      5775-1.13941E+00 8.14019E+01-5.09791E-03 1.44853E+00-7.99979E-15 2.74190E-14
 -1      5776-1.13407E+00 8.09658E+01-5.95607E-03 1.74150E+00-1.33966E-13-5.98393E-14
 -1      5777-1.06935E+00 8.04489E+01-6.56744E-03 2.02888E+00 4.24318E-14 3.09874E-14
 -1      5778-9.38968E-01 7.98479E+01-6.78664E-03 2.29086E+00 4.99557E-15 7.87478E-14
 -1      5779-7.40515E-01 7.91664E+01-6.45997E-03 2.50439E+00-4.68115E-14 3.89654E-14
 -1      5780-9.52024E-03 8.40711E+01 7.45870E-03 6.33939E-02-1.19550E-13 1.45509E-14
 -1      5781-6.83151E-02 8.36974E+01 3.00902E-03 1.14583E-01-1.75937E-14-1.67791E-14
 -1      5782-1.52152E-01 8.33811E+01 2.01908E-03 1.70348E-01 2.05184E-13-1.49143E-14
 -1      5783-2.55586E-01 8.31061E+01 1.21345E-03 2.40973E-01-3.82717E-14-2.17638E-14
 -1      5784-3.70938E-01 8.28576E+01 4.07088E-04 3.33773E-01-8.82921E-14 5.75755E-14
 -1      5785-4.90259E-01 8.26213E+01-4.15722E-04 4.53492E-01-1.92976E-14-1.65180E-14
 -1      5786-6.05425E-01 8.23831E+01-1.25852E-03 6.02491E-01 8.11156E-14-3.56147E-14
 -1      5787-7.08099E-01 8.21293E+01-2.11867E-03 7.80777E-01-1.50382E-13 3.92802E-14
 -1      5788-7.89747E-01 8.18467E+01-2.98149E-03 9.85897E-01 1.89168E-14 5.06938E-14
 -1      5789-8.41782E-01 8.15233E+01-3.81549E-03 1.21274E+00-5.77766E-15-9.10860E-14
 -1      5790-8.55867E-01 8.11482E+01-4.56846E-03 1.45332E+00 2.50875E-13 5.73656E-14
 -1      5791-8.24430E-01 8.07133E+01-5.16582E-03 1.69657E+00 9.66232E-14 4.99288E-14
 -1      5792-7.41410E-01 8.02136E+01-5.51309E-03 1.92840E+00-3.27607E-14-1.72466E-14
 -1      5793-6.03203E-01 7.96486E+01-5.50418E-03 2.13194E+00-9.64289E-15-1.59074E-14
 -1      5794-4.09736E-01 7.90237E+01-5.03656E-03 2.28834E+00 2.48196E-14-4.88897E-14
 -1      5795-6.90746E-03 8.40032E+01 6.48091E-03 9.66778E-02 4.03432E-14 1.40049E-13
 -1      5796-5.34209E-02 8.36348E+01 2.40550E-03 1.74579E-01 2.56841E-14-2.32887E-14
 -1      5797-1.19331E-01 8.33125E+01 1.55603E-03 2.50454E-01-1.78711E-14-4.21885E-14
 -1      5798-2.00327E-01 8.30230E+01 8.55717E-04 3.34273E-01 7.71555E-14 4.04191E-15
 -1      5799-2.89726E-01 8.27545E+01 1.41532E-04 4.33147E-01 9.47566E-14-3.17073E-14
 -1      5800-3.80469E-01 8.24948E+01-5.89956E-04 5.51649E-01 1.55143E-14 7.06631E-14
 -1      5801-4.65314E-01 8.22321E+01-1.33181E-03 6.91978E-01 1.64990E-14-8.08260E-14
 -1      5802-5.36905E-01 8.19551E+01-2.07240E-03 8.54019E-01 1.28858E-13-1.79110E-15
 -1      5803-5.87882E-01 8.16530E+01-2.79094E-03 1.03532E+00-9.39590E-14 1.12414E-13
 -1      5804-6.11081E-01 8.13160E+01-3.45434E-03 1.23099E+00-3.40368E-14-6.23347E-14
 -1      5805-5.99860E-01 8.09362E+01-4.01504E-03 1.43365E+00-1.22399E-13 6.27146E-14
 -1      5806-5.48571E-01 8.05078E+01-4.41129E-03 1.63345E+00-2.56618E-14-5.62684E-14
 -1      5807-4.53177E-01 8.00284E+01-4.57063E-03 1.81819E+00-4.08987E-14-2.66566E-14
 -1      5808-3.11980E-01 7.94992E+01-4.41780E-03 1.97375E+00 1.54742E-14-2.89222E-14
 -1      5809-1.26387E-01 7.89266E+01-3.88695E-03 2.08486E+00-4.46912E-14 5.96866E-14
 -1      5810-4.53556E-03 8.39102E+01 5.51917E-03 1.22029E-01 3.64118E-15-5.51790E-14
 -1      5811-3.95776E-02 8.35525E+01 1.83561E-03 2.20546E-01 2.94318E-15 3.73347E-14
 -1      5812-8.87288E-02 8.32300E+01 1.12657E-03 3.11762E-01-8.34929E-14 1.61902E-14
 -1      5813-1.48778E-01 8.29324E+01 5.36758E-04 4.05102E-01-3.82136E-14-4.92254E-14
 -1      5814-2.14099E-01 8.26502E+01-7.68017E-05 5.07325E-01-1.26853E-14-2.86125E-14
 -1      5815-2.78609E-01 8.23738E+01-7.08584E-04 6.22781E-01-7.77969E-15 3.29207E-14
 -1      5816-3.36040E-01 8.20934E+01-1.34441E-03 7.53547E-01-1.46457E-13-1.14865E-14
 -1      5817-3.80072E-01 8.17999E+01-1.96689E-03 8.99500E-01-7.93091E-14 5.30799E-14
 -1      5818-4.04507E-01 8.14846E+01-2.55222E-03 1.05835E+00-3.77290E-14-9.36560E-14
 -1      5819-4.03500E-01 8.11402E+01-3.06815E-03 1.22564E+00-6.11056E-16 3.97841E-14
 -1      5820-3.71877E-01 8.07607E+01-3.47310E-03 1.39479E+00 1.25958E-13 5.07597E-14
 -1      5821-3.05550E-01 8.03424E+01-3.71729E-03 1.55720E+00-1.45678E-14-4.59138E-14
 -1      5822-2.02015E-01 7.98847E+01-3.74645E-03 1.70252E+00 7.65607E-14 8.68576E-14
 -1      5823-6.08959E-02 7.93899E+01-3.50859E-03 1.81911E+00-1.00285E-13-9.72339E-14
 -1      5824 1.15521E-01 7.88649E+01-2.96341E-03 1.89469E+00 6.51389E-16 4.66693E-14
 -1      5825-2.43024E-03 8.37984E+01 4.59925E-03 1.40107E-01 5.91307E-14-1.14554E-13
 -1      5826-2.70009E-02 8.34554E+01 1.30910E-03 2.53576E-01-8.01408E-14 7.02624E-14
 -1      5827-6.08313E-02 8.31374E+01 7.34954E-04 3.55713E-01 5.90734E-14 1.01134E-15
 -1      5828-1.01741E-01 8.28369E+01 2.55024E-04 4.55242E-01-1.36371E-13-5.51148E-14
 -1      5829-1.45155E-01 8.25467E+01-2.55797E-04 5.58475E-01 4.82166E-15-1.31145E-14
 -1      5830-1.85998E-01 8.22593E+01-7.85885E-04 6.69499E-01-8.89098E-14 5.33020E-14
 -1      5831-2.18995E-01 8.19670E+01-1.31652E-03 7.90285E-01 3.87820E-14-3.01981E-14
 -1      5832-2.38862E-01 8.16626E+01-1.82705E-03 9.20777E-01 4.27047E-14 4.23238E-14
 -1      5833-2.40504E-01 8.13396E+01-2.29277E-03 1.05895E+00 2.84155E-14-2.98173E-14
 -1      5834-2.19264E-01 8.09923E+01-2.68367E-03 1.20088E+00 4.86424E-14 3.43935E-14
 -1      5835-1.71214E-01 8.06168E+01-2.96431E-03 1.34086E+00-1.49225E-14-1.09138E-13
 -1      5836-9.35093E-02 8.02109E+01-3.09534E-03 1.47153E+00 5.47438E-14 6.97463E-14
 -1      5837 1.52119E-02 7.97750E+01-3.03687E-03 1.58426E+00 4.97952E-15-5.43498E-14
 -1      5838 1.54432E-01 7.93125E+01-2.75394E-03 1.66952E+00 8.14132E-14 4.98594E-14
 -1      5839 3.21393E-01 7.88300E+01-2.22359E-03 1.71756E+00 7.97405E-14-3.83296E-14
 -1      5840-5.97874E-04 8.36736E+01 3.73874E-03 1.51654E-01 8.19570E-15-2.35671E-14
 -1      5841-1.57936E-02 8.33481E+01 8.31519E-04 2.74917E-01 5.53286E-14 4.50568E-14
 -1      5842-3.58818E-02 8.30384E+01 3.82991E-04 3.83951E-01 4.59827E-14-4.47689E-14
 -1      5843-5.96150E-02 8.27393E+01 8.05198E-06 4.86691E-01 5.86241E-14 1.64400E-14
 -1      5844-8.34280E-02 8.24457E+01-4.02619E-04 5.88934E-01 6.64666E-14-1.65180E-14
 -1      5845-1.03229E-01 8.21520E+01-8.33665E-04 6.94476E-01-1.30106E-13 2.28741E-14
 -1      5846-1.14716E-01 8.18526E+01-1.26395E-03 8.05194E-01 3.44685E-14 1.19965E-14
 -1      5847-1.13594E-01 8.15421E+01-1.67144E-03 9.21132E-01 7.60190E-14-6.59889E-15
 -1      5848-9.57884E-02 8.12155E+01-2.03187E-03 1.04058E+00-1.62414E-14-1.74548E-14
 -1      5849-5.76851E-02 8.08689E+01-2.31816E-03 1.16019E+00 1.70942E-14-9.98941E-15
 -1      5850 3.60007E-03 8.04998E+01-2.50061E-03 1.27510E+00 7.68894E-15-7.68049E-15
 -1      5851 8.99257E-02 8.01074E+01-2.54849E-03 1.37916E+00 3.41517E-14 3.53051E-14
 -1      5852 2.01816E-01 7.96930E+01-2.43293E-03 1.46523E+00-1.92836E-14 3.83998E-14
 -1      5853 3.38170E-01 7.92602E+01-2.13118E-03 1.52560E+00-1.56276E-13-8.62071E-14
 -1      5854 4.96028E-01 7.88154E+01-1.63168E-03 1.55258E+00 1.96219E-14 9.42068E-14
 -1      5855 9.69175E-04 8.35411E+01 2.94860E-03 1.57442E-01 2.53916E-14 3.04782E-14
 -1      5856-5.97321E-03 8.32348E+01 4.05163E-04 2.85885E-01-1.24826E-14-2.71155E-14
 -1      5857-1.39368E-02 8.29360E+01 7.06623E-05 3.98211E-01 3.61386E-15 1.04331E-13
 -1      5858-2.24967E-02 8.26416E+01-2.07032E-04 5.01522E-01-3.58270E-14-5.18145E-14
 -1      5859-2.90248E-02 8.23483E+01-5.23412E-04 6.01069E-01-2.24874E-15 5.96311E-15
 -1      5860-3.03576E-02 8.20524E+01-8.61228E-04 7.00338E-01-7.95127E-14-2.02460E-14
 -1      5861-2.31133E-02 8.17498E+01-1.19854E-03 8.01107E-01 7.76156E-14 5.87291E-15
 -1      5862-3.91413E-03 8.14367E+01-1.51322E-03 9.03533E-01-7.59898E-14 1.57339E-15
 -1      5863 3.03953E-02 8.11098E+01-1.78235E-03 1.00623E+00 3.31141E-14 5.89286E-15
 -1      5864 8.25215E-02 8.07666E+01-1.98192E-03 1.10642E+00 4.31880E-14 3.18487E-14
 -1      5865 1.54484E-01 8.04057E+01-2.08731E-03 1.20004E+00-7.09528E-14-5.82000E-15
 -1      5866 2.47368E-01 8.00272E+01-2.07470E-03 1.28201E+00 6.20760E-14-4.67074E-15
 -1      5867 3.61088E-01 7.96331E+01-1.92349E-03 1.34653E+00 5.46282E-14-2.10058E-14
 -1      5868 4.94177E-01 7.92272E+01-1.61941E-03 1.38740E+00 3.22407E-14 1.72865E-14
 -1      5869 6.43641E-01 7.88156E+01-1.15821E-03 1.39859E+00-4.07933E-14-3.78673E-14
 -1      5870 2.28795E-03 8.34055E+01 2.23460E-03 1.58230E-01-1.35573E-14 4.08805E-14
 -1      5871 2.50355E-03 8.31191E+01 2.99070E-05 2.87790E-01-6.43678E-14-6.81313E-15
 -1      5872 5.08100E-03 8.28331E+01-2.03298E-04 4.00220E-01 1.04538E-13 2.07109E-14
 -1      5873 9.73749E-03 8.25459E+01-3.93197E-04 5.01788E-01 8.27910E-14 3.81925E-14
 -1      5874 1.82537E-02 8.22558E+01-6.23220E-04 5.97187E-01-2.18524E-14-3.60528E-14
 -1      5875 3.29405E-02 8.19606E+01-8.75590E-04 6.89579E-01 3.50343E-14-4.65149E-14
 -1      5876 5.63355E-02 8.16579E+01-1.12870E-03 7.80641E-01-7.20393E-15-1.10797E-14
 -1      5877 9.09833E-02 8.13452E+01-1.36125E-03 8.70631E-01 4.54040E-14 3.67527E-14
 -1      5878 1.39225E-01 8.10204E+01-1.55209E-03 9.58479E-01 1.08131E-13-5.58234E-15
 -1      5879 2.02989E-01 8.06823E+01-1.68023E-03 1.04191E+00-1.10692E-13 6.88113E-14
 -1      5880 2.83580E-01 8.03305E+01-1.72536E-03 1.11762E+00-1.15651E-13-4.94743E-14
 -1      5881 3.81483E-01 7.99658E+01-1.66911E-03 1.18147E+00-7.48551E-14 2.52636E-14
 -1      5882 4.96169E-01 7.95907E+01-1.49689E-03 1.22877E+00 1.45131E-14-4.79217E-15
 -1      5883 6.25955E-01 7.92090E+01-1.20026E-03 1.25462E+00 1.78720E-14-4.55903E-14
 -1      5884 7.67915E-01 7.88264E+01-7.79429E-04 1.25430E+00-3.18148E-15 4.04746E-14
 -1      5885 3.38121E-03 8.32707E+01 1.59861E-03 1.54739E-01 3.75620E-14-1.88426E-14
 -1      5886 9.72032E-03 8.30045E+01-2.96074E-04 2.81888E-01-9.90050E-15-4.20107E-14
 -1      5887 2.13390E-02 8.27322E+01-4.40976E-04 3.91640E-01 4.42211E-14 8.48653E-14
 -1      5888 3.73586E-02 8.24538E+01-5.53326E-04 4.89454E-01 8.99888E-15-3.40743E-14
 -1      5889 5.88107E-02 8.21690E+01-7.06059E-04 5.79469E-01-8.46382E-15-2.59931E-14
 -1      5890 8.72412E-02 8.18769E+01-8.81827E-04 6.64522E-01 7.43568E-15 1.97915E-14
 -1      5891 1.24430E-01 8.15763E+01-1.06013E-03 7.46175E-01 2.71602E-14 2.10361E-14
 -1      5892 1.72180E-01 8.12661E+01-1.22102E-03 8.24770E-01 1.53818E-14-2.96161E-14
 -1      5893 2.32121E-01 8.09452E+01-1.34537E-03 8.99515E-01-1.08536E-13 5.28076E-14
 -1      5894 3.05519E-01 8.06134E+01-1.41495E-03 9.68604E-01 4.40403E-16-5.24927E-15
 -1      5895 3.93098E-01 8.02710E+01-1.41304E-03 1.02937E+00 4.69394E-15 1.88252E-14
 -1      5896 4.94866E-01 7.99197E+01-1.32547E-03 1.07850E+00 6.06973E-14-6.02600E-14
 -1      5897 6.09983E-01 7.95619E+01-1.14199E-03 1.11225E+00-5.05806E-14 2.77998E-14
 -1      5898 7.36646E-01 7.92017E+01-8.58028E-04 1.12677E+00-2.97763E-14-2.47935E-14
 -1      5899 8.72051E-01 7.88444E+01-4.76372E-04 1.11839E+00-4.51536E-14-2.21221E-14
 -1      5900 4.27451E-03 8.31402E+01 1.03979E-03 1.47636E-01-4.17669E-14-1.82736E-14
 -1      5901 1.57845E-02 8.28935E+01-5.75710E-04 2.69349E-01 1.22422E-14-1.43678E-14
 -1      5902 3.50587E-02 8.26354E+01-6.44942E-04 3.74024E-01-1.33439E-14-2.96551E-15
 -1      5903 6.07272E-02 8.23667E+01-6.90109E-04 4.66352E-01-6.00507E-14-7.42635E-15
 -1      5904 9.31719E-02 8.20886E+01-7.75046E-04 5.49934E-01 1.57961E-14-3.23595E-14
 -1      5905 1.33267E-01 8.18012E+01-8.83451E-04 6.27286E-01-3.75068E-14 2.06068E-14
 -1      5906 1.82124E-01 8.15044E+01-9.96388E-04 6.99843E-01-6.90905E-14 9.33108E-15
 -1      5907 2.40898E-01 8.11981E+01-1.09558E-03 7.68005E-01-3.32601E-15 4.48764E-14
 -1      5908 3.10606E-01 8.08822E+01-1.16392E-03 8.31218E-01-6.89867E-15-3.40466E-14
 -1      5909 3.91957E-01 8.05573E+01-1.18568E-03 8.88078E-01 2.01227E-14-3.24072E-14
 -1      5910 4.85196E-01 8.02245E+01-1.14707E-03 9.36478E-01-3.00373E-14 1.47486E-14
 -1      5911 5.89966E-01 7.98856E+01-1.03710E-03 9.73784E-01-8.48837E-14 1.04777E-15
 -1      5912 7.05197E-01 7.95436E+01-8.48618E-04 9.97052E-01 2.96395E-14 2.20822E-14
 -1      5913 8.29037E-01 7.92023E+01-5.79553E-04 1.00327E+00-5.11240E-14 4.04624E-16
 -1      5914 9.58825E-01 7.88667E+01-2.34030E-04 9.89627E-01-1.10049E-14 1.07908E-14
 -1      5915 4.99403E-03 8.30170E+01 5.55439E-04 1.37521E-01-4.63882E-14-7.18176E-15
 -1      5916 2.08145E-02 8.27888E+01-8.12556E-04 2.51242E-01-1.23423E-14 8.01963E-15
 -1      5917 4.64881E-02 8.25444E+01-8.17987E-04 3.48795E-01-4.02653E-14-4.79851E-14
 -1      5918 8.02478E-02 8.22860E+01-8.05996E-04 4.34158E-01 3.67920E-14 3.50371E-14
 -1      5919 1.21923E-01 8.20153E+01-8.32560E-04 5.10422E-01-1.18373E-14-4.19543E-15
 -1      5920 1.71807E-01 8.17335E+01-8.82772E-04 5.79785E-01 7.46714E-14-1.85815E-14
 -1      5921 2.30436E-01 8.14415E+01-9.39489E-04 6.43545E-01 4.86763E-15 2.05990E-14
 -1      5922 2.98406E-01 8.11400E+01-9.86212E-04 7.02135E-01-2.57063E-14 1.80871E-14
 -1      5923 3.76211E-01 8.08298E+01-1.00779E-03 7.55191E-01 2.01982E-14-9.30419E-15
 -1      5924 4.64096E-01 8.05120E+01-9.90662E-04 8.01649E-01 4.80562E-15-4.86364E-14
 -1      5925 5.61916E-01 8.01883E+01-9.23420E-04 8.39868E-01-2.97711E-14 5.05906E-14
 -1      5926 6.69030E-01 7.98610E+01-7.97461E-04 8.67788E-01 1.91893E-15-1.47131E-14
 -1      5927 7.84206E-01 7.95330E+01-6.07809E-04 8.83115E-01-4.08579E-14 6.09408E-15
 -1      5928 9.05576E-01 7.92082E+01-3.53952E-04 8.83522E-01 3.45047E-14-2.69971E-14
 -1      5929 1.03063E+00 7.88912E+01-4.05793E-05 8.66874E-01-2.83113E-14 1.00718E-14
 -1      5930 5.56510E-03 8.29033E+01 1.41797E-04 1.24929E-01 2.29738E-14 2.84482E-14
 -1      5931 2.49302E-02 8.26921E+01-1.01043E-03 2.28522E-01-2.09143E-15-2.84087E-14
 -1      5932 5.58808E-02 8.24609E+01-9.62936E-04 3.17234E-01 2.38256E-14 1.41558E-14
 -1      5933 9.63350E-02 8.22125E+01-9.03175E-04 3.94384E-01-7.22057E-15 1.09179E-14
 -1      5934 1.45660E-01 8.19495E+01-8.80389E-04 4.62586E-01-7.92975E-15 9.51322E-15
 -1      5935 2.03660E-01 8.16739E+01-8.81212E-04 5.23728E-01-1.19808E-13-3.63988E-14
 -1      5936 2.70378E-01 8.13872E+01-8.90344E-04 5.78962E-01-1.51064E-14-5.75668E-15
 -1      5937 3.45938E-01 8.10910E+01-8.93041E-04 6.28726E-01 4.38282E-14 2.94435E-14
 -1      5938 4.30397E-01 8.07866E+01-8.75951E-04 6.72806E-01-8.12192E-14-2.29252E-14
 -1      5939 5.23614E-01 8.04758E+01-8.27384E-04 7.10411E-01-5.58497E-14 8.12891E-15
 -1      5940 6.25131E-01 8.01606E+01-7.37821E-04 7.40288E-01 1.95731E-15-1.39385E-14
 -1      5941 7.34082E-01 7.98436E+01-6.00459E-04 7.60849E-01-5.57285E-14 1.19566E-15
 -1      5942 8.49122E-01 7.95280E+01-4.11818E-04 7.70328E-01-5.56063E-14-1.86687E-14
 -1      5943 9.68391E-01 7.92174E+01-1.72317E-04 7.66948E-01 6.02903E-15 1.35027E-14
 -1      5944 1.08952E+00 7.89162E+01 1.13256E-04 7.49102E-01-5.97005E-15 1.53063E-14
 -1      5945 6.01109E-03 8.28013E+01-2.05409E-04 1.10328E-01 2.07560E-15 2.97548E-14
 -1      5946 2.82461E-02 8.26054E+01-1.17312E-03 2.02037E-01-1.51071E-14-2.29205E-14
 -1      5947 6.34808E-02 8.23862E+01-1.08250E-03 2.80480E-01-9.61995E-14-2.61466E-15
 -1      5948 1.09389E-01 8.21472E+01-9.83563E-04 3.48379E-01 2.67518E-14 1.09075E-14
 -1      5949 1.64958E-01 8.18917E+01-9.19864E-04 4.07899E-01-2.00069E-14-4.47645E-15
 -1      5950 2.29586E-01 8.16222E+01-8.79565E-04 4.60632E-01 1.38083E-14 2.66861E-14
 -1      5951 3.02907E-01 8.13410E+01-8.49133E-04 5.07573E-01 3.04593E-14-1.26375E-15
 -1      5952 3.84651E-01 8.10500E+01-8.15464E-04 5.49144E-01 1.01328E-14-1.83048E-14
 -1      5953 4.74513E-01 8.07513E+01-7.66805E-04 5.85238E-01 9.47297E-15 7.44977E-15
 -1      5954 5.72037E-01 8.04471E+01-6.93035E-04 6.15284E-01 1.36926E-14 7.24681E-16
 -1      5955 6.76515E-01 8.01396E+01-5.86135E-04 6.38340E-01 3.58546E-14-2.71844E-14
 -1      5956 7.86906E-01 7.98318E+01-4.40641E-04 6.53205E-01 2.35179E-14 3.71179E-14
 -1      5957 9.01784E-01 7.95267E+01-2.54092E-04 6.58538E-01-4.78809E-14-1.50956E-14
 -1      5958 1.01931E+00 7.92281E+01-2.74287E-05 6.53001E-01-3.11535E-15 1.31644E-14
 -1      5959 1.13724E+00 7.89401E+01 2.34723E-04 6.35402E-01-2.14846E-15-2.31347E-14
 -1      5960 6.35278E-03 8.27126E+01-4.90519E-04 9.41255E-02-1.86060E-14 1.30273E-14
 -1      5961 3.08665E-02 8.25298E+01-1.30420E-03 1.72530E-01 2.90837E-14-1.27936E-15
 -1      5962 6.95116E-02 8.23213E+01-1.17916E-03 2.39542E-01 9.50368E-15 9.37488E-15
 -1      5963 1.19776E-01 8.20909E+01-1.04882E-03 2.97338E-01 8.61550E-15 2.32895E-14
 -1      5964 1.80343E-01 8.18423E+01-9.51970E-04 3.47669E-01-2.49605E-14-4.76780E-14
 -1      5965 2.50282E-01 8.15785E+01-8.78209E-04 3.91837E-01-1.67411E-14 2.78072E-14
 -1      5966 3.28892E-01 8.13024E+01-8.15594E-04 4.30680E-01-1.17897E-14-8.77423E-15
 -1      5967 4.15584E-01 8.10165E+01-7.52485E-04 4.64580E-01 9.73526E-15-4.34986E-14
 -1      5968 5.09759E-01 8.07230E+01-6.78498E-04 4.93501E-01-5.17029E-15 4.42450E-14
 -1      5969 6.10709E-01 8.04246E+01-5.84804E-04 5.17044E-01 3.35931E-14-1.17011E-14
 -1      5970 7.17527E-01 8.01240E+01-4.64557E-04 5.34518E-01 2.77122E-14 5.57974E-15
 -1      5971 8.29040E-01 7.98239E+01-3.13276E-04 5.45029E-01 1.76665E-14 1.15710E-14
 -1      5972 9.43761E-01 7.95278E+01-1.29190E-04 5.47582E-01 8.57268E-15 7.73470E-15
 -1      5973 1.05988E+00 7.92392E+01 8.65001E-05 5.41187E-01-4.69102E-15-1.38184E-14
 -1      5974 1.17525E+00 7.89621E+01 3.29451E-04 5.24974E-01-6.54555E-15 2.24413E-14
 -1      5975 6.60800E-03 8.26383E+01-7.17610E-04 7.66741E-02-1.02459E-14-1.66889E-14
 -1      5976 3.28828E-02 8.24666E+01-1.40685E-03 1.40652E-01-1.92585E-14 5.89598E-14
 -1      5977 7.41695E-02 8.22671E+01-1.25512E-03 1.95309E-01 3.87993E-15-3.61135E-14
 -1      5978 1.27819E-01 8.20440E+01-1.10032E-03 2.42321E-01-1.08541E-14 7.71952E-17
 -1      5979 1.92278E-01 8.18014E+01-9.77428E-04 2.83054E-01-8.61138E-15 5.13695E-15
 -1      5980 2.66356E-01 8.15428E+01-8.77255E-04 3.18534E-01 3.53190E-15 1.14774E-14
 -1      5981 3.49091E-01 8.12713E+01-7.89236E-04 3.49433E-01 2.35592E-15-2.80852E-15
 -1      5982 4.39638E-01 8.09898E+01-7.02962E-04 3.76080E-01 1.71228E-14-1.30278E-14
 -1      5983 5.37169E-01 8.07009E+01-6.09182E-04 3.98479E-01-8.16602E-15-1.21444E-14
 -1      5984 6.40778E-01 8.04076E+01-5.00095E-04 4.16362E-01-1.56187E-14 1.43397E-14
 -1      5985 7.49404E-01 8.01126E+01-3.69754E-04 4.29235E-01 3.76256E-15-1.75342E-14
 -1      5986 8.61774E-01 7.98190E+01-2.14391E-04 4.36454E-01 7.39534E-15 2.62364E-14
 -1      5987 9.76361E-01 7.95302E+01-3.26899E-05 4.37300E-01-3.40915E-14-7.96628E-15
 -1      5988 1.09137E+00 7.92496E+01 1.74038E-04 4.31061E-01-1.52394E-14 2.03353E-15
 -1      5989 1.20476E+00 7.89811E+01 4.01763E-04 4.17117E-01-1.58186E-14 8.27290E-15
 -1      5990 6.79135E-03 8.25796E+01-8.90270E-04 5.82804E-02-1.13375E-14 1.01338E-14
 -1      5991 3.43710E-02 8.24166E+01-1.48378E-03 1.06976E-01-3.90516E-14-4.11607E-15
 -1      5992 7.76189E-02 8.22242E+01-1.31223E-03 1.48565E-01-5.55142E-14 2.16138E-14
 -1      5993 1.33788E-01 8.20071E+01-1.13921E-03 1.84268E-01 1.91512E-14-2.75734E-15
 -1      5994 2.01151E-01 8.17694E+01-9.96758E-04 2.15087E-01-1.82808E-14 1.16647E-14
 -1      5995 2.78320E-01 8.15151E+01-8.76674E-04 2.41781E-01 8.22096E-16-3.69171E-14
 -1      5996 3.64135E-01 8.12474E+01-7.69491E-04 2.64857E-01-1.79958E-14 2.87209E-14
 -1      5997 4.57561E-01 8.09695E+01-6.65780E-04 2.84571E-01-5.35779E-14 1.63263E-14
 -1      5998 5.57596E-01 8.06844E+01-5.57175E-04 3.00950E-01 9.13331E-15-3.59044E-15
 -1      5999 6.63186E-01 8.03950E+01-4.36658E-04 3.13819E-01 1.57998E-14-8.21739E-15
 -1      6000 7.73156E-01 8.01045E+01-2.98942E-04 3.22844E-01 1.17423E-14-1.73785E-14
 -1      6001 8.86158E-01 7.98160E+01-1.40765E-04 3.27582E-01-7.15194E-16 2.32930E-15
 -1      6002 1.00064E+00 7.95328E+01 3.88970E-05 3.27538E-01 3.68392E-14 6.37511E-15
 -1      6003 1.11482E+00 7.92584E+01 2.38706E-04 3.22223E-01-9.57470E-15 6.00214E-15
 -1      6004 1.22674E+00 7.89965E+01 4.54919E-04 3.11216E-01-9.15945E-15 2.82326E-16
 -1      6005 6.91423E-03 8.25372E+01-1.01143E-03 3.92130E-02 1.04928E-14-1.47872E-14
 -1      6006 3.53909E-02 8.23804E+01-1.53715E-03 7.20094E-02 1.41051E-14 2.84547E-14
 -1      6007 7.99893E-02 8.21933E+01-1.35196E-03 1.00014E-01 2.68685E-14 1.01377E-14
 -1      6008 1.37898E-01 8.19805E+01-1.16637E-03 1.24025E-01-1.91817E-15 2.14867E-14
 -1      6009 2.07268E-01 8.17465E+01-1.01033E-03 1.44697E-01-5.58836E-15-1.27121E-14
 -1      6010 2.86576E-01 8.14952E+01-8.76368E-04 1.62532E-01 1.20495E-14 1.33313E-15
 -1      6011 3.74523E-01 8.12304E+01-7.55822E-04 1.77870E-01 2.63818E-14 3.81422E-15
 -1      6012 4.69942E-01 8.09552E+01-6.39970E-04 1.90887E-01 2.24655E-14-1.04452E-14
 -1      6013 5.71709E-01 8.06728E+01-5.21079E-04 2.01610E-01-3.56940E-15-1.08533E-14
 -1      6014 6.78667E-01 8.03865E+01-3.92678E-04 2.09935E-01 8.89355E-15 3.03793E-15
 -1      6015 7.89564E-01 8.00993E+01-2.49936E-04 2.15657E-01-1.08613E-14 9.34279E-15
 -1      6016 9.03002E-01 7.98144E+01-8.99236E-05 2.18500E-01-1.45732E-14-6.89336E-15
 -1      6017 1.01741E+00 7.95352E+01 8.82032E-05 2.18155E-01-3.85656E-15 1.96718E-15
 -1      6018 1.13102E+00 7.92651E+01 2.83114E-04 2.14315E-01 9.54407E-15-1.47066E-14
 -1      6019 1.24192E+00 7.90078E+01 4.91292E-04 2.06722E-01-1.37929E-14 2.78948E-14
 -1      6020 6.98472E-03 8.25115E+01-1.08324E-03 1.97124E-02-9.53827E-16-1.29163E-14
 -1      6021 3.59856E-02 8.23586E+01-1.56854E-03 3.62089E-02-2.01001E-14 8.93296E-15
 -1      6022 8.13741E-02 8.21746E+01-1.37536E-03 5.02941E-02-1.03334E-14-3.84285E-15
 -1      6023 1.40302E-01 8.19644E+01-1.18241E-03 6.23611E-02-5.55505E-15-1.67700E-14
 -1      6024 2.10849E-01 8.17327E+01-1.01837E-03 7.27347E-02-3.96840E-15-1.73472E-15
 -1      6025 2.91413E-01 8.14833E+01-8.76236E-04 8.16645E-02-1.14448E-14 1.13759E-14
 -1      6026 3.80612E-01 8.12202E+01-7.47804E-04 8.93199E-02-4.57743E-15 6.20727E-15
 -1      6027 4.77201E-01 8.09467E+01-6.24794E-04 9.57909E-02-1.04781E-14 1.70870E-16
 -1      6028 5.79985E-01 8.06661E+01-4.99849E-04 1.01094E-01 2.55864E-15 1.05762E-14
 -1      6029 6.87747E-01 8.03815E+01-3.66827E-04 1.05181E-01-1.07177E-15-1.23040E-14
 -1      6030 7.99187E-01 8.00963E+01-2.21163E-04 1.07955E-01 1.82307E-14 4.11910E-15
 -1      6031 9.12879E-01 7.98135E+01-6.01141E-05 1.09283E-01 4.88403E-15 2.86750E-15
 -1      6032 1.02724E+00 7.95367E+01 1.17065E-04 1.09017E-01 1.81981E-15-1.03650E-15
 -1      6033 1.14052E+00 7.92693E+01 3.09059E-04 1.07010E-01 7.15844E-16-2.68405E-15
 -1      6034 1.25082E+00 7.90147E+01 5.12494E-04 1.03138E-01-3.50333E-15 1.40131E-14
 -1      6035-1.57417E-02 8.11870E+01-5.26429E-04-6.84037E-01-1.18565E-13-2.14722E-13
 -1      6036-8.08642E-03 8.13599E+01-2.75765E-03-3.47708E-01 1.37002E-13 1.58189E-14
 -1      6037-6.59851E-02 8.15232E+01 9.86396E-04-1.20822E+00 1.12344E-13-1.28300E-13
 -1      6038-5.36861E-02 8.15989E+01 1.46643E-04-9.27334E-01-1.44731E-13-9.79789E-14
 -1      6039-1.43755E-01 8.19031E+01 9.60261E-04-1.61879E+00 9.19577E-15 1.54526E-13
 -1      6040-1.35440E-01 8.19041E+01 4.01698E-04-1.37922E+00 9.08093E-14-6.99978E-14
 -1      6041-2.49447E-01 8.23202E+01 9.76898E-04-1.93979E+00 5.55736E-14 1.32273E-13
 -1      6042-2.50307E-01 8.22607E+01 6.36299E-04-1.72959E+00 1.16806E-13 2.01847E-13
 -1      6043-3.88779E-01 8.27722E+01 1.08522E-03-2.18749E+00 7.03168E-14-5.28154E-14
 -1      6044-4.00513E-01 8.26605E+01 9.37254E-04-1.99639E+00-6.30277E-14-5.25101E-14
 -1      6045-5.71186E-01 8.32602E+01 1.26091E-03-2.37118E+00-1.24071E-13 1.00649E-14
 -1      6046-5.92282E-01 8.31000E+01 1.32695E-03-2.19059E+00-1.41645E-13 2.13839E-14
 -1      6047-8.09517E-01 8.37873E+01 1.47340E-03-2.49327E+00-1.28376E-13-9.67559E-14
 -1      6048-8.35275E-01 8.35781E+01 1.81759E-03-2.31645E+00 2.23970E-14-1.49984E-13
 -1      6049-1.11997E+00 8.43567E+01 1.68196E-03-2.54884E+00-2.32273E-13 1.83638E-14
 -1      6050-1.14213E+00 8.40948E+01 2.42623E-03-2.37123E+00-4.30871E-14-9.17946E-14
 -1      6051-1.52192E+00 8.49699E+01 1.82009E-03-2.52429E+00-6.68285E-14 2.66887E-14
 -1      6052-1.52798E+00 8.46487E+01 3.16828E-03-2.34442E+00-3.34316E-14 2.65440E-13
 -1      6053-2.03729E+00 8.56235E+01 1.77344E-03-2.39532E+00-1.78954E-14 3.29545E-14
 -1      6054-2.00949E+00 8.52344E+01 4.04968E-03-2.21626E+00-6.28664E-14-1.88311E-13
 -1      6055-2.68872E+00 8.63039E+01 1.34807E-03-2.12418E+00-2.91420E-13-3.03457E-14
 -1      6056-2.60310E+00 8.58379E+01 5.05208E-03-1.95598E+00-2.30427E-13 5.28809E-14
 -1      6057-3.49561E+00 8.69792E+01 2.28568E-04-1.65660E+00 3.77476E-14 1.76161E-13
 -1      6058-3.32150E+00 8.64303E+01 6.11023E-03-1.51987E+00 8.28504E-14 5.78357E-14
 -1      6059-4.46639E+00 8.75860E+01-2.06882E-03-9.19778E-01 2.08569E-13-2.12854E-13
 -1      6060-4.16735E+00 8.69573E+01 7.07064E-03-8.50431E-01 1.63453E-13-1.18239E-14
 -1      6061-5.58479E+00 8.80105E+01-6.15810E-03 1.75898E-01-3.24740E-15-3.96280E-14
 -1      6062-5.12292E+00 8.73257E+01 7.66247E-03 1.21354E-01 1.69031E-14-1.06123E-13
 -1      6063-6.78854E+00 8.80631E+01-1.29361E-02 1.72568E+00-1.96440E-13 6.27970E-14
 -1      6064-6.13520E+00 8.73855E+01 7.40963E-03 1.46667E+00-2.18214E-13-1.38500E-14
 -1      6065-7.09578E+00 8.69123E+01 5.89589E-03 3.23627E+00-1.08691E-13 1.49769E-13
 -1      6066-2.20539E-02 8.17394E+01 1.66466E-03-6.39369E-01 2.09902E-14-1.34377E-13
 -1      6067-1.21677E-02 8.19623E+01 3.71708E-04-3.19305E-01 7.82707E-15 1.92667E-13
 -1      6068-1.00609E-01 8.19537E+01 1.62336E-03-1.12974E+00-2.89612E-13-6.97116E-14
 -1      6069-7.30168E-02 8.20692E+01 4.02517E-04-8.53040E-01-8.80788E-14-1.87502E-13
 -1      6070-2.18402E-01 8.22370E+01 1.36283E-03-1.50926E+00-9.66588E-15 1.53436E-14
 -1      6071-1.83859E-01 8.22680E+01 4.75540E-04-1.26692E+00-2.27561E-14 5.01335E-15
 -1      6072-3.73642E-01 8.25745E+01 1.23160E-03-1.79705E+00-1.84798E-13 1.43809E-13
 -1      6073-3.37389E-01 8.25366E+01 6.98625E-04-1.58102E+00 4.73302E-14 3.36823E-14
 -1      6074-5.69376E-01 8.29575E+01 1.20086E-03-2.00548E+00-1.99466E-15 4.54879E-14
 -1      6075-5.32862E-01 8.28603E+01 9.89978E-04-1.80872E+00-7.91572E-14 5.71539E-14
 -1      6076-8.12324E-01 8.33806E+01 1.22879E-03-2.14060E+00-9.68409E-14-1.08316E-14
 -1      6077-7.73554E-01 8.32294E+01 1.35896E-03-1.95748E+00-1.14360E-13-1.44156E-15
 -1      6078-1.11212E+00 8.38404E+01 1.26901E-03-2.20197E+00 2.21939E-13-9.59476E-14
 -1      6079-1.06582E+00 8.36367E+01 1.80475E-03-2.02879E+00 7.92005E-14 5.23843E-14
 -1      6080-1.48062E+00 8.43326E+01 1.26404E-03-2.18224E+00 2.05107E-13 8.49702E-14
 -1      6081-1.41811E+00 8.40753E+01 2.32836E-03-2.01780E+00-7.29920E-14-1.08605E-13
 -1      6082-1.93095E+00 8.48502E+01 1.13127E-03-2.06618E+00 8.83391E-14-3.97733E-14
 -1      6083-1.83991E+00 8.45364E+01 2.92353E-03-1.91284E+00-3.51698E-14 6.20195E-14
 -1      6084-2.47590E+00 8.53792E+01 7.46736E-04-1.82950E+00-4.85167E-14-4.52346E-14
 -1      6085-2.34011E+00 8.50058E+01 3.56846E-03-1.69462E+00 1.29907E-13-9.01753E-14
 -1      6086-3.12507E+00 8.58938E+01-7.42082E-05-1.43762E+00 4.56440E-14 2.27769E-15
 -1      6087-2.92453E+00 8.54595E+01 4.21256E-03-1.33559E+00 4.27366E-14 4.22440E-14
 -1      6088-3.87996E+00 8.63488E+01-1.59027E-03-8.45270E-01 2.68674E-14 1.52035E-13
 -1      6089-3.59193E+00 8.58585E+01 4.76015E-03-8.00038E-01-2.26694E-14-2.65100E-14
 -1      6090-4.72624E+00 8.66694E+01-4.14070E-03 1.70904E-03 1.19169E-13-2.22308E-13
 -1      6091-4.32807E+00 8.61399E+01 5.04673E-03-4.59145E-02-2.01630E-13 5.84845E-14
 -1      6092-5.62229E+00 8.67384E+01-8.05193E-03 1.15966E+00 1.22874E-13 1.04743E-13
 -1      6093-5.09734E+00 8.62089E+01 4.83405E-03 9.69572E-01-8.93244E-14-5.77385E-14
 -1      6094-6.48479E+00 8.63841E+01-1.35230E-02 2.67137E+00 3.19911E-13 1.39194E-14
 -1      6095-5.83281E+00 8.59290E+01 3.79625E-03 2.27795E+00 2.00479E-13 1.27731E-13
 -1      6096-6.42674E+00 8.51188E+01 1.66715E-03 3.87773E+00-2.85397E-13-9.22040E-14
 -1      6097-2.65488E-02 8.22486E+01 3.50850E-03-5.78583E-01 2.33136E-13-1.43898E-13
 -1      6098-1.51652E-02 8.25077E+01 3.07355E-03-2.83748E-01-1.82267E-13 1.20915E-13
 -1      6099-1.26350E-01 8.23485E+01 2.12413E-03-1.02293E+00-2.32515E-13-7.36655E-14
 -1      6100-8.65962E-02 8.24952E+01 6.02557E-04-7.59615E-01 2.39586E-13-3.14046E-13
 -1      6101-2.73933E-01 8.25366E+01 1.66235E-03-1.36231E+00 4.27516E-13 7.63447E-14
 -1      6102-2.17914E-01 8.25933E+01 5.09271E-04-1.12649E+00 1.07279E-13 3.14634E-13
 -1      6103-4.65388E-01 8.27920E+01 1.39612E-03-1.61056E+00 3.51455E-15-4.20323E-15
 -1      6104-3.98298E-01 8.27745E+01 7.03566E-04-1.39810E+00 2.23816E-13-2.26842E-13
 -1      6105-7.00879E-01 8.30999E+01 1.23059E-03-1.77617E+00 2.10709E-13 8.52729E-14
 -1      6106-6.24164E-01 8.30189E+01 9.62766E-04-1.58333E+00-9.27019E-14 2.15272E-13
 -1      6107-9.83922E-01 8.34494E+01 1.11231E-03-1.86225E+00 6.68111E-14-6.89501E-14
 -1      6108-8.95685E-01 8.33116E+01 1.28392E-03-1.68639E+00 7.35813E-14-1.49459E-13
 -1      6109-1.32029E+00 8.38312E+01 9.85517E-04-1.86635E+00-1.35884E-13-1.02553E-14
 -1      6110-1.21559E+00 8.36400E+01 1.65563E-03-1.70660E+00 4.17106E-14-2.49120E-14
 -1      6111-1.71685E+00 8.42344E+01 7.84877E-04-1.78005E+00-1.30264E-13 1.15525E-13
 -1      6112-1.58788E+00 8.39917E+01 2.06657E-03-1.63810E+00-1.84922E-14 8.50158E-14
 -1      6113-2.18015E+00 8.46448E+01 4.24883E-04-1.58856E+00-2.69097E-13-2.62637E-14
 -1      6114-2.01635E+00 8.43515E+01 2.49575E-03-1.46961E+00 1.16018E-14 5.50272E-14
 -1      6115-2.71425E+00 8.50406E+01-2.09223E-04-1.27031E+00 7.76497E-14-6.99631E-14
 -1      6116-2.50274E+00 8.46987E+01 2.90594E-03-1.18427E+00 5.26662E-15-1.85508E-13
 -1      6117-3.31758E+00 8.53880E+01-1.26816E-03-7.97162E-01 1.13409E-13 7.13700E-14
 -1      6118-3.04402E+00 8.50033E+01 3.23458E-03-7.60085E-01-2.33143E-13 2.48593E-13
 -1      6119-3.97827E+00 8.56355E+01-2.93384E-03-1.35946E-01 9.46743E-14-6.00353E-14
 -1      6120-3.62881E+00 8.52211E+01 3.38485E-03-1.71289E-01-1.89015E-14-9.45147E-14
 -1      6121-4.66781E+00 8.57070E+01-5.39293E-03 7.47411E-01-1.84942E-13-3.85872E-14
 -1      6122-4.23252E+00 8.52889E+01 3.22008E-03 6.08146E-01 7.74589E-14-8.27394E-14
 -1      6123-5.33325E+00 8.54951E+01-8.75494E-03 1.87919E+00 1.79315E-13 1.09843E-14
 -1      6124-4.81185E+00 8.51196E+01 2.57228E-03 1.59776E+00 1.01051E-13-2.56392E-14
 -1      6125-5.88962E+00 8.48580E+01-1.29143E-02 3.26233E+00-3.29535E-13-6.43097E-14
 -1      6126-5.29956E+00 8.45994E+01 1.27526E-03 2.79899E+00-7.27265E-14-1.37418E-13
 -1      6127-5.60248E+00 8.35931E+01-7.54309E-04 4.17779E+00 1.40415E-13 1.35641E-13
 -1      6128-2.92418E-02 8.27030E+01 4.96126E-03-5.06470E-01-1.86198E-13-5.85226E-14
 -1      6129-1.70987E-02 8.29854E+01 5.30817E-03-2.43576E-01 5.46396E-13 1.46751E-13
 -1      6130-1.43133E-01 8.26987E+01 2.47063E-03-8.96113E-01 1.90212E-13-2.38378E-13
 -1      6131-9.45908E-02 8.28686E+01 7.48911E-04-6.53654E-01-2.32842E-13-1.14030E-13
 -1      6132-3.10188E-01 8.27961E+01 1.85249E-03-1.18925E+00 1.74669E-13 8.84245E-14
 -1      6133-2.38026E-01 8.28742E+01 5.09925E-04-9.67716E-01-8.08208E-15 5.69770E-15
 -1      6134-5.24647E-01 8.29691E+01 1.47533E-03-1.39454E+00-1.48133E-13-7.57172E-14
 -1      6135-4.33930E-01 8.29711E+01 6.64801E-04-1.19346E+00-1.69227E-13-1.40588E-13
 -1      6136-7.83871E-01 8.31989E+01 1.19332E-03-1.51682E+00 2.52977E-14 8.84661E-14
 -1      6137-6.76227E-01 8.31358E+01 8.77672E-04-1.33554E+00 1.87472E-13 8.90486E-14
 -1      6138-1.08810E+00 8.34697E+01 9.47636E-04-1.55678E+00 2.14339E-13 4.01658E-14
 -1      6139-9.62157E-01 8.33494E+01 1.13594E-03-1.39539E+00-5.04377E-14 7.16545E-14
 -1      6140-1.43915E+00 8.37672E+01 6.79883E-04-1.51074E+00 1.38006E-13-5.30223E-14
 -1      6141-1.29096E+00 8.35951E+01 1.42090E-03-1.37079E+00 3.45991E-14 1.36349E-14
 -1      6142-1.83905E+00 8.40756E+01 3.25349E-04-1.37039E+00-1.73854E-14 9.03565E-14
 -1      6143-1.66245E+00 8.38561E+01 1.71354E-03-1.25573E+00 5.14554E-14-5.59674E-14
 -1      6144-2.28832E+00 8.43752E+01-1.93794E-04-1.12281E+00 2.23675E-14 3.89671E-14
 -1      6145-2.07544E+00 8.41127E+01 1.98545E-03-1.04037E+00-1.48014E-13 7.48273E-14
 -1      6146-2.78382E+00 8.46391E+01-9.71243E-04-7.50807E-01 2.08111E-13-5.11674E-14
 -1      6147-2.52582E+00 8.43403E+01 2.19475E-03-7.11478E-01-1.00787E-13 4.06793E-14
 -1      6148-3.31578E+00 8.48299E+01-2.11411E-03-2.34106E-01-4.46657E-13-4.53457E-14
 -1      6149-3.00419E+00 8.45057E+01 2.28142E-03-2.53423E-01-7.33164E-14-1.56600E-13
 -1      6150-3.86401E+00 8.48956E+01-3.72793E-03 4.48019E-01 2.34177E-13 1.42594E-15
 -1      6151-3.49294E+00 8.45646E+01 2.16530E-03 3.49577E-01-3.52496E-13 8.58827E-14
 -1      6152-4.39358E+00 8.47656E+01-5.88128E-03 1.31168E+00 1.51247E-13-3.34247E-14
 -1      6153-3.96293E+00 8.44583E+01 1.74998E-03 1.10946E+00 5.68087E-14 1.64452E-14
 -1      6154-4.85050E+00 8.43492E+01-8.53468E-03 2.35986E+00-1.50383E-13-9.93788E-14
 -1      6155-4.37051E+00 8.41124E+01 9.40125E-04 2.02781E+00-5.07129E-14-2.16077E-14
 -1      6156-5.15951E+00 8.35377E+01-1.14367E-02 3.56956E+00 2.49505E-13 2.55351E-14
 -1      6157-4.65600E+00 8.34387E+01-3.23921E-04 3.08626E+00 2.88762E-13 4.37705E-14
 -1      6158-4.74594E+00 8.23429E+01-1.99275E-03 4.23426E+00 3.80182E-14-3.18912E-14
 -1      6159-3.02767E-02 8.30950E+01 6.02665E-03-4.27685E-01 2.10897E-13-4.49953E-14
 -1      6160-1.80580E-02 8.33890E+01 7.06733E-03-2.01158E-01-2.55292E-13-6.64399E-15
 -1      6161-1.51530E-01 8.29989E+01 2.67293E-03-7.57374E-01-1.71873E-13-2.14436E-13
 -1      6162-9.75323E-02 8.31843E+01 8.45605E-04-5.41345E-01-7.21298E-14-9.18085E-14
 -1      6163-3.28413E-01 8.30120E+01 1.94432E-03-1.00097E+00-5.86857E-14 3.70199E-14
 -1      6164-2.45516E-01 8.31074E+01 4.85493E-04-7.99753E-01 1.42966E-13-6.16000E-15
 -1      6165-5.53716E-01 8.31053E+01 1.48437E-03-1.16235E+00 2.15472E-13-8.07323E-14
 -1      6166-4.46775E-01 8.31255E+01 5.96051E-04-9.78674E-01 3.19099E-13 7.62290E-14
 -1      6167-8.22322E-01 8.32568E+01 1.11053E-03-1.24315E+00-1.94237E-13 5.63612E-14
 -1      6168-6.93245E-01 8.32128E+01 7.56345E-04-1.07906E+00 3.89742E-13-8.51437E-14
 -1      6169-1.13145E+00 8.34473E+01 7.64027E-04-1.24217E+00 9.63101E-14 1.11794E-13
 -1      6170-9.79644E-01 8.33478E+01 9.46881E-04-1.10002E+00-3.18368E-14 1.73367E-13
 -1      6171-1.47932E+00 8.36588E+01 3.89407E-04-1.15513E+00-9.19152E-14-7.26554E-14
 -1      6172-1.30218E+00 8.35109E+01 1.14509E-03-1.03838E+00 7.40293E-14-2.04423E-13
 -1      6173-1.86373E+00 8.38719E+01-7.13929E-05-9.74644E-01 1.27363E-14 1.03891E-13
 -1      6174-1.65712E+00 8.36821E+01 1.32867E-03-8.88567E-01-5.50844E-14 1.79724E-13
 -1      6175-2.28037E+00 8.40634E+01-6.82447E-04-6.90502E-01 5.47323E-14 1.10797E-13
 -1      6176-2.03933E+00 8.38391E+01 1.46774E-03-6.42779E-01-6.04794E-14 4.01137E-14
 -1      6177-2.72081E+00 8.42043E+01-1.51212E-03-2.90499E-01-1.63824E-13-1.60785E-13
 -1      6178-2.44050E+00 8.39553E+01 1.52316E-03-2.91716E-01-1.33605E-13-1.16299E-13
 -1      6179-3.17017E+00 8.42568E+01-2.62558E-03 2.37844E-01 3.85483E-13-6.75293E-14
 -1      6180-2.84728E+00 8.39975E+01 1.44545E-03 1.74029E-01 5.13443E-14 5.83457E-14
 -1      6181-3.60443E+00 8.41721E+01-4.06691E-03 9.04229E-01 1.11820E-14 9.38277E-14
 -1      6182-3.23921E+00 8.39240E+01 1.17716E-03 7.61533E-01 3.61343E-14-1.20841E-13
 -1      6183-3.98788E+00 8.38894E+01-5.82596E-03 1.71066E+00-8.93799E-14-1.93734E-14
 -1      6184-3.58679E+00 8.36837E+01 6.61253E-04 1.47171E+00-3.12576E-13 9.07191E-14
 -1      6185-4.27171E+00 8.33363E+01-7.78789E-03 2.64425E+00-1.36613E-13-4.17930E-14
 -1      6186-3.85047E+00 8.32167E+01-1.40905E-04 2.29383E+00-6.85008E-14 2.70547E-14
 -1      6187-4.39500E+00 8.24349E+01-9.66845E-03 3.66784E+00-2.01391E-13 1.36627E-14
 -1      6188-3.98140E+00 8.24581E+01-1.22096E-03 3.19844E+00 1.11005E-14-8.16083E-14
 -1      6189-3.92567E+00 8.13468E+01-2.48076E-03 4.12967E+00-8.06404E-14 9.03444E-14
 -1      6190-2.98883E-02 8.34207E+01 6.72769E-03-3.46443E-01-3.91527E-14-6.62040E-14
 -1      6191-1.81787E-02 8.37162E+01 8.36813E-03-1.58557E-01-3.88647E-14 1.58311E-13
 -1      6192-1.52579E-01 8.32463E+01 2.74566E-03-6.14056E-01 1.61732E-13-4.43083E-14
 -1      6193-9.61845E-02 8.34405E+01 8.98398E-04-4.28118E-01 8.55045E-15-1.03396E-13
 -1      6194-3.30842E-01 8.31834E+01 1.95106E-03-8.07253E-01 2.65003E-13 1.26982E-13
 -1      6195-2.42279E-01 8.32922E+01 4.43610E-04-6.30602E-01-1.66669E-13 7.33909E-14
 -1      6196-5.56488E-01 8.32018E+01 1.43800E-03-9.25794E-01 3.04513E-14-1.27346E-13
 -1      6197-4.40324E-01 8.32387E+01 5.09921E-04-7.63731E-01-1.02924E-13-3.80598E-15
 -1      6198-8.22412E-01 8.32776E+01 1.00026E-03-9.68579E-01 6.95546E-14 1.02144E-13
 -1      6199-6.80849E-01 8.32533E+01 6.17660E-04-8.25352E-01 1.39284E-13-9.66102E-14
 -1      6200-1.12331E+00 8.33895E+01 5.83202E-04-9.33013E-01 2.83128E-13 1.12584E-14
 -1      6201-9.56611E-01 8.33132E+01 7.43118E-04-8.12775E-01-4.63065E-14 1.85407E-13
 -1      6202-1.45442E+00 8.35170E+01 1.38179E-04-8.14739E-01-5.79137E-15-1.44124E-13
 -1      6203-1.26142E+00 8.33968E+01 8.62837E-04-7.22283E-01-7.60104E-14-1.47384E-13
 -1      6204-1.81022E+00 8.36386E+01-3.82766E-04-6.07706E-01-2.44027E-13 1.19550E-13
 -1      6205-1.58884E+00 8.34827E+01 9.54644E-04-5.49054E-01-2.97887E-14-8.35946E-14
 -1      6206-2.18290E+00 8.37298E+01-1.02779E-03-3.04659E-01-2.62221E-14 8.37108E-14
 -1      6207-1.93090E+00 8.35476E+01 9.91152E-04-2.87481E-01 2.52107E-13 1.11324E-13
 -1      6208-2.56072E+00 8.37612E+01-1.84101E-03 1.01787E-01 1.02175E-14-1.26336E-13
 -1      6209-2.27670E+00 8.35646E+01 9.39992E-04 6.79972E-02-4.04850E-14 1.68060E-14
 -1      6210-2.92633E+00 8.36970E+01-2.85343E-03 6.17279E-01-2.68275E-14-1.18967E-14
 -1      6211-2.61102E+00 8.35022E+01 7.64949E-04 5.21421E-01-8.70328E-14-1.23269E-14
 -1      6212-3.25515E+00 8.34943E+01-4.06635E-03 1.24279E+00 2.01839E-13-3.05173E-14
 -1      6213-2.91301E+00 8.33234E+01 4.30384E-04 1.07301E+00 2.45274E-13-3.70190E-14
 -1      6214-3.51430E+00 8.31030E+01-5.42611E-03 1.97040E+00-2.62117E-14 3.79280E-14
 -1      6215-3.15545E+00 8.29857E+01-8.98021E-05 1.71591E+00 1.24515E-13 4.21330E-14
 -1      6216-3.66294E+00 8.24687E+01-6.79158E-03 2.77786E+00-2.34444E-13 6.86604E-14
 -1      6217-3.30494E+00 8.24430E+01-7.97279E-04 2.43199E+00 4.74811E-14-1.25941E-14
 -1      6218-3.65501E+00 8.15383E+01-7.90350E-03 3.62241E+00 5.04752E-14-1.08427E-13
 -1      6219-3.32388E+00 8.16501E+01-1.64993E-03 3.18714E+00-1.41527E-13 3.84276E-14
 -1      6220-3.17512E+00 8.05706E+01-2.53914E-03 3.92699E+00-2.69056E-14-1.37279E-13
 -1      6221-2.83593E-02 8.36792E+01 7.10370E-03-2.66325E-01-1.28033E-13-3.91007E-14
 -1      6222-1.76193E-02 8.39679E+01 9.24679E-03-1.17459E-01-4.41973E-14-7.63799E-14
 -1      6223-1.47586E-01 8.34404E+01 2.70882E-03-4.72418E-01-6.91582E-14-7.27925E-14
 -1      6224-9.14239E-02 8.36376E+01 9.14316E-04-3.18450E-01-5.91333E-14-1.91895E-14
 -1      6225-3.20269E-01 8.33112E+01 1.88829E-03-6.16397E-01 9.67976E-15 1.25190E-13
 -1      6226-2.30490E-01 8.34298E+01 3.91293E-04-4.66848E-01 3.19627E-13 1.17475E-14
 -1      6227-5.37730E-01 8.32614E+01 1.35058E-03-6.94621E-01-1.61685E-13-6.08402E-14
 -1      6228-4.18534E-01 8.33133E+01 4.17049E-04-5.56726E-01 8.49260E-14 2.29261E-14
 -1      6229-7.91447E-01 8.32664E+01 8.76735E-04-7.03817E-01 2.55252E-13 4.11650E-15
 -1      6230-6.45279E-01 8.32617E+01 4.76694E-04-5.83479E-01-8.96627E-14 2.78146E-14
 -1      6231-1.07420E+00 8.33040E+01 4.18998E-04-6.40410E-01-3.81062E-13 1.08941E-15
 -1      6232-9.02133E-01 8.32519E+01 5.44553E-04-5.43065E-01-3.93315E-14-9.81368E-14
 -1      6233-1.37903E+00 8.33526E+01-6.24015E-05-5.00255E-01-7.92153E-14-2.05634E-14
 -1      6234-1.18121E+00 8.32619E+01 5.98486E-04-4.31519E-01-1.63081E-14 1.23651E-14
 -1      6235-1.69804E+00 8.33899E+01-6.04084E-04-2.78765E-01 3.23774E-13 5.60316E-14
 -1      6236-1.47424E+00 8.32697E+01 6.18680E-04-2.44899E-01 1.23652E-13 1.58554E-13
 -1      6237-2.02122E+00 8.33913E+01-1.23890E-03 2.85178E-02-2.33223E-13 5.04319E-14
 -1      6238-1.77151E+00 8.32523E+01 5.82382E-04 2.03675E-02 1.60474E-13-4.40065E-14
 -1      6239-2.33520E+00 8.33289E+01-1.99075E-03 4.24818E-01 6.87315E-14-1.14179E-14
 -1      6240-2.06086E+00 8.31839E+01 4.65324E-04 3.66655E-01 7.90123E-14-4.03844E-15
 -1      6241-2.62216E+00 8.31704E+01-2.86606E-03 9.10360E-01-6.95364E-14-2.70756E-14
 -1      6242-2.32671E+00 8.30362E+01 2.43934E-04 7.93785E-01-3.00142E-14-3.29944E-14
 -1      6243-2.85907E+00 8.28795E+01-3.84063E-03 1.47985E+00-1.34960E-13-5.32803E-14
 -1      6244-2.54951E+00 8.27772E+01-9.98915E-05 1.29706E+00-2.51334E-13-8.21773E-14
 -1      6245-3.01765E+00 8.24168E+01-4.84268E-03 2.11921E+00-9.85323E-16 9.80466E-14
 -1      6246-2.70560E+00 8.23730E+01-5.71122E-04 1.86476E+00 5.47479E-15 9.71792E-14
 -1      6247-3.06569E+00 8.17429E+01-5.73519E-03 2.80178E+00 1.96362E-14-7.21645E-16
 -1      6248-2.76826E+00 8.17896E+01-1.15109E-03 2.47514E+00-1.97763E-14-2.84009E-14
 -1      6249-2.97028E+00 8.08246E+01-6.30545E-03 3.48472E+00-1.97285E-13-8.18234E-14
 -1      6250-2.70998E+00 8.09973E+01-1.78640E-03 3.09368E+00 8.74316E-14-3.49165E-14
 -1      6251-2.50681E+00 7.99772E+01-2.37944E-03 3.67109E+00-7.09120E-14 6.56142E-14
 -1      6252-2.59849E-02 8.38723E+01 7.20297E-03-1.90181E-01 2.33025E-13-4.41938E-14
 -1      6253-1.65431E-02 8.41479E+01 9.75185E-03-7.91475E-02-3.20039E-14 6.86812E-14
 -1      6254-1.37952E-01 8.35831E+01 2.58434E-03-3.37472E-01 1.53259E-13-7.62723E-14
 -1      6255-8.41407E-02 8.37783E+01 9.00633E-04-2.15795E-01 2.06895E-13-3.87052E-14
 -1      6256-2.99684E-01 8.33978E+01 1.77182E-03-4.34979E-01-7.82577E-14 2.12538E-14
 -1      6257-2.12356E-01 8.35229E+01 3.34286E-04-3.13563E-01 2.66315E-14-7.83019E-14
 -1      6258-5.02477E-01 8.32876E+01 1.23468E-03-4.76422E-01 1.00531E-13 5.66769E-14
 -1      6259-3.85397E-01 8.33526E+01 3.25474E-04-3.63803E-01-9.58990E-14 3.33553E-14
 -1      6260-7.36972E-01 8.32285E+01 7.50088E-04-4.56884E-01-1.59908E-13 1.54755E-14
 -1      6261-5.92728E-01 8.32425E+01 3.44156E-04-3.60085E-01-8.02019E-14-8.17298E-14
 -1      6262-9.94693E-01 8.31982E+01 2.78470E-04-3.72141E-01 1.50661E-13-2.46522E-14
 -1      6263-8.25015E-01 8.31702E+01 3.64379E-04-2.97413E-01-1.81449E-13 5.30999E-14
 -1      6264-1.26721E+00 8.31751E+01-2.10404E-04-2.18409E-01-2.92435E-14 9.39457E-14
 -1      6265-1.07336E+00 8.31140E+01 3.66726E-04-1.71768E-01 1.81347E-13-4.53595E-14
 -1      6266-1.54521E+00 8.31372E+01-7.42190E-04 7.52421E-03-1.81259E-13 2.13163E-14
 -1      6267-1.32844E+00 8.30527E+01 3.34913E-04 1.99533E-02-2.45133E-13 2.90531E-14
 -1      6268-1.81758E+00 8.30611E+01-1.33660E-03 3.07738E-01-7.80626E-17-1.12514E-14
 -1      6269-1.57974E+00 8.29640E+01 2.51532E-04 2.79614E-01-2.03416E-13-1.48631E-14
 -1      6270-2.07059E+00 8.29210E+01-2.00236E-03 6.82176E-01-2.62446E-13-1.08687E-13
 -1      6271-1.81485E+00 8.28246E+01 1.00050E-04 6.07107E-01-3.58056E-14-2.75197E-14
 -1      6272-2.28729E+00 8.26892E+01-2.73021E-03 1.12714E+00-1.67472E-13-5.18856E-14
 -1      6273-2.01891E+00 8.26094E+01-1.32725E-04 9.99221E-01-5.98185E-14-6.17284E-14
 -1      6274-2.44735E+00 8.23357E+01-3.48362E-03 1.63331E+00 1.95789E-13 8.03732E-14
 -1      6275-2.17451E+00 8.22921E+01-4.52453E-04 1.44811E+00 1.14381E-13 1.07449E-13
 -1      6276-2.52764E+00 8.18309E+01-4.18881E-03 2.18341E+00 1.74203E-13 7.97556E-14
 -1      6277-2.26205E+00 8.18463E+01-8.51578E-04 1.93946E+00 2.31688E-13-1.56819E-14
 -1      6278-2.50393E+00 8.11476E+01-4.72713E-03 2.74979E+00 6.15474E-14-8.63268E-14
 -1      6279-2.26101E+00 8.12479E+01-1.30281E-03 2.45062E+00-4.09152E-14 1.52586E-14
 -1      6280-2.35401E+00 8.02669E+01-4.93577E-03 3.29268E+00-6.33608E-15-2.30926E-14
 -1      6281-2.15226E+00 8.04788E+01-1.75389E-03 2.94913E+00-8.39676E-14-1.63689E-14
 -1      6282-1.92160E+00 7.95321E+01-2.12576E-03 3.39227E+00 1.05818E-15 4.74065E-14
 -1      6283-2.30454E-02 8.40042E+01 7.07733E-03-1.20116E-01 4.13211E-15 6.19158E-14
 -1      6284-1.51047E-02 8.42618E+01 9.93834E-03-4.45218E-02-4.93329E-14-4.69937E-14
 -1      6285-1.25037E-01 8.36774E+01 2.39418E-03-2.12952E-01 1.50303E-13-8.36761E-14
 -1      6286-7.51673E-02 8.38668E+01 8.64337E-04-1.22607E-01-3.90920E-15 1.11990E-13
 -1      6287-2.71991E-01 8.34466E+01 1.61656E-03-2.67867E-01-3.06261E-14-1.10016E-14
 -1      6288-1.89945E-01 8.35751E+01 2.76947E-04-1.74354E-01 3.50349E-14-1.38740E-13
 -1      6289-4.55573E-01 8.32848E+01 1.10076E-03-2.76677E-01 6.23503E-14-1.22534E-13
 -1      6290-3.44627E-01 8.33607E+01 2.40666E-04-1.89255E-01 7.31446E-15 6.94583E-15
 -1      6291-6.66127E-01 8.31692E+01 6.26784E-04-2.33297E-01-2.00233E-13 1.53887E-13
 -1      6292-5.28893E-01 8.32006E+01 2.26696E-04-1.59627E-01 3.01890E-14-4.73753E-14
 -1      6293-8.94526E-01 8.30787E+01 1.63475E-04-1.33115E-01 2.01132E-13-2.73843E-14
 -1      6294-7.33207E-01 8.30738E+01 2.09959E-04-7.98593E-02 1.73998E-13 2.39468E-13
 -1      6295-1.13157E+00 8.29924E+01-3.10255E-04 2.72579E-02-1.56040E-13-3.43822E-14
 -1      6296-9.48256E-01 8.29599E+01 1.74451E-04 5.40132E-02-4.10011E-14-1.88752E-13
 -1      6297-1.36731E+00 8.28895E+01-8.10421E-04 2.49871E-01-3.59713E-13 4.19352E-14
 -1      6298-1.16435E+00 8.28389E+01 1.07775E-04 2.44379E-01 4.56211E-14 4.84925E-14
 -1      6299-1.59041E+00 8.27483E+01-1.34638E-03 5.34956E-01 1.49862E-13-4.97762E-14
 -1      6300-1.37087E+00 8.26905E+01-2.33841E-06 4.91790E-01-1.13394E-13 5.43871E-14
 -1      6301-1.78764E+00 8.25461E+01-1.91645E-03 8.80091E-01-2.21817E-13-6.71165E-14
 -1      6302-1.55589E+00 8.24936E+01-1.65916E-04 7.94375E-01 1.88708E-13-1.85889E-13
 -1      6303-1.94371E+00 8.22593E+01-2.50275E-03 1.27903E+00-8.85468E-14 1.54345E-13
 -1      6304-1.70589E+00 8.22271E+01-3.88488E-04 1.14697E+00 1.75197E-13 1.47687E-13
 -1      6305-2.04143E+00 8.18645E+01-3.06530E-03 1.72024E+00 1.63942E-13 9.30471E-14
 -1      6306-1.80599E+00 8.18695E+01-6.67835E-04 1.53999E+00 1.34621E-14 8.70241E-14
 -1      6307-2.06265E+00 8.13396E+01-3.53705E-03 2.18539E+00-7.91062E-14-6.86569E-14
 -1      6308-1.84051E+00 8.14012E+01-9.90232E-04 1.95825E+00-3.42320E-14-5.30652E-14
 -1      6309-1.98989E+00 8.06672E+01-3.82227E-03 2.64798E+00 6.06000E-14-1.03514E-13
 -1      6310-1.79428E+00 8.08057E+01-1.32695E-03 2.37989E+00 1.35081E-13 1.74652E-14
 -1      6311-1.80913E+00 7.98382E+01-3.80233E-03 3.07281E+00-5.56187E-14-3.22381E-14
 -1      6312-1.65471E+00 8.00734E+01-1.63270E-03 2.77578E+00 3.09671E-13-1.41269E-13
 -1      6313-1.41450E+00 7.92047E+01-1.84749E-03 3.10999E+00 1.79662E-13 5.67324E-14
 -1      6314-1.97887E-02 8.40800E+01 6.77777E-03-5.75420E-02 1.46562E-13 1.07865E-14
 -1      6315-1.34410E-02 8.43166E+01 9.86304E-03-1.41321E-02-1.44242E-15 3.38549E-14
 -1      6316-1.10068E-01 8.37279E+01 2.15870E-03-1.01396E-01-1.27156E-13 7.02216E-15
 -1      6317-6.52322E-02 8.39083E+01 8.11741E-04-4.04377E-02-7.31780E-14-7.33510E-14
 -1      6318-2.39814E-01 8.34616E+01 1.43579E-03-1.18343E-01 2.31503E-13-7.28931E-14
 -1      6319-1.65070E-01 8.35910E+01 2.22298E-04-5.15071E-02 3.83803E-14-9.01015E-15
 -1      6320-4.01367E-01 8.32571E+01 9.57151E-04-9.89594E-02-1.57515E-13-4.13038E-14
 -1      6321-2.99469E-01 8.33418E+01 1.65822E-04-3.57344E-02 9.95991E-15 3.30812E-14
 -1      6322-5.85235E-01 8.30935E+01 5.10449E-04-3.64095E-02 6.19954E-14 1.94025E-13
 -1      6323-4.58704E-01 8.31404E+01 1.27593E-04 1.53157E-02-2.52656E-14-2.75127E-15
 -1      6324-7.82168E-01 8.29512E+01 7.24699E-05 7.41153E-02-8.52625E-14-3.35947E-14
 -1      6325-6.33477E-01 8.29676E+01 8.40818E-05 1.07596E-01 7.30281E-14 1.30864E-13
 -1      6326-9.82780E-01 8.28108E+01-3.69808E-04 2.35635E-01 1.51601E-13-1.03521E-13
 -1      6327-8.14560E-01 8.28049E+01 2.28586E-05 2.44957E-01 3.84243E-14-1.42997E-13
 -1      6328-1.17710E+00 8.26531E+01-8.24505E-04 4.49304E-01-2.54159E-14-2.53166E-14
 -1      6329-9.92411E-01 8.26340E+01-6.47642E-05 4.29234E-01 2.01951E-13-1.43253E-14
 -1      6330-1.35418E+00 8.24589E+01-1.29336E-03 7.14044E-01-9.77694E-14 8.39676E-14
 -1      6331-1.15685E+00 8.24366E+01-1.86623E-04 6.60064E-01-1.39637E-14 2.84633E-14
 -1      6332-1.50188E+00 8.22085E+01-1.76827E-03 1.02590E+00 2.56809E-13-1.64556E-14
 -1      6333-1.29687E+00 8.21948E+01-3.47736E-04 9.34456E-01 1.70492E-13 1.51025E-13
 -1      6334-1.60690E+00 8.18825E+01-2.22773E-03 1.37721E+00 1.33613E-13 5.75165E-14
 -1      6335-1.40062E+00 8.18906E+01-5.48475E-04 1.24617E+00 3.04667E-14-1.79908E-13
 -1      6336-1.65521E+00 8.14628E+01-2.63354E-03 1.75561E+00-4.90629E-15-1.72050E-14
 -1      6337-1.45575E+00 8.15074E+01-7.82274E-04 1.58500E+00-9.75831E-14 6.72865E-14
 -1      6338-1.63302E+00 8.09339E+01-2.92907E-03 2.14312E+00-2.04147E-13-1.57582E-14
 -1      6339-1.45011E+00 8.10306E+01-1.03341E-03 1.93600E+00-1.59276E-13-4.54636E-14
 -1      6340-1.52829E+00 8.02853E+01-3.04085E-03 2.51560E+00 1.79174E-13 2.75127E-15
 -1      6341-1.37289E+00 8.04500E+01-1.27554E-03 2.27907E+00-3.70181E-14 4.17895E-14
 -1      6342-1.33297E+00 7.95146E+01-2.88576E-03 2.84286E+00 1.89362E-13-3.87398E-14
 -1      6343-1.21639E+00 7.97613E+01-1.47211E-03 2.58894E+00-2.21120E-13 5.69961E-14
 -1      6344-9.77992E-01 7.89697E+01-1.57974E-03 2.83600E+00 4.75800E-14-1.29806E-13
 -1      6345-1.64202E-02 8.41065E+01 6.35149E-03-3.25994E-03-1.09619E-13-1.45613E-14
 -1      6346-1.16668E-02 8.43201E+01 9.58096E-03 1.17644E-02 3.94333E-14-6.35741E-14
 -1      6347-9.40918E-02 8.37395E+01 1.89580E-03-4.28827E-03 2.24885E-13-2.11289E-14
 -1      6348-5.49370E-02 8.39089E+01 7.48291E-04 2.99342E-02 5.51611E-14 5.11778E-14
 -1      6349-2.05385E-01 8.34473E+01 1.24080E-03 1.16936E-02 2.79544E-14-4.51028E-15
 -1      6350-1.39230E-01 8.35753E+01 1.72211E-04 5.38159E-02-8.95716E-14-1.04465E-14
 -1      6351-3.43539E-01 8.32089E+01 8.10210E-04 5.47801E-02-6.48787E-14 5.06262E-14
 -1      6352-2.52605E-01 8.33002E+01 1.02342E-04 9.54799E-02-1.37865E-13-2.76966E-14
 -1      6353-4.99588E-01 8.30058E+01 4.02718E-04 1.32204E-01 3.12104E-14 5.45085E-14
 -1      6354-3.86199E-01 8.30659E+01 4.75927E-05 1.63696E-01 4.17913E-14 4.30697E-14
 -1      6355-6.64578E-01 8.28202E+01 2.04361E-06 2.48827E-01-2.87126E-13-2.00361E-14
 -1      6356-5.31292E-01 8.28556E+01-1.36946E-05 2.64537E-01-2.42488E-14-5.08239E-14
 -1      6357-8.29393E-01 8.26348E+01-3.98139E-04 4.07357E-01-3.32640E-14-2.57294E-14
 -1      6358-6.79123E-01 8.26528E+01-9.05772E-05 4.01711E-01-1.19162E-13 7.22825E-14
 -1      6359-9.84499E-01 8.24324E+01-7.99864E-04 6.08326E-01 3.07208E-13-8.23230E-14
 -1      6360-8.20680E-01 8.24413E+01-1.88511E-04 5.76661E-01-1.09352E-13 8.65592E-14
 -1      6361-1.11975E+00 8.21962E+01-1.19966E-03 8.49826E-01-1.87032E-13 1.17264E-13
 -1      6362-9.46561E-01 8.22052E+01-3.11782E-04 7.88459E-01 2.12206E-13-2.12979E-13
 -1      6363-1.22438E+00 8.19097E+01-1.58594E-03 1.12707E+00-2.57161E-13-4.48599E-14
 -1      6364-1.04694E+00 8.19293E+01-4.61833E-04 1.03353E+00 6.12231E-14 1.71536E-13
 -1      6365-1.28717E+00 8.15574E+01-1.93681E-03 1.43184E+00-4.89047E-14-5.07094E-14
 -1      6366-1.11173E+00 8.15989E+01-6.35891E-04 1.30524E+00-1.37897E-13-1.40589E-13
 -1      6367-1.29697E+00 8.11255E+01-2.21847E-03 1.75187E+00 7.97886E-14-6.63566E-14
 -1      6368-1.13094E+00 8.12013E+01-8.25490E-04 1.59349E+00-1.17647E-14 5.77940E-14
 -1      6369-1.24364E+00 8.06035E+01-2.38542E-03 2.07045E+00-2.33654E-13 2.49696E-14
 -1      6370-1.09538E+00 8.07262E+01-1.01535E-03 1.88432E+00-1.40270E-14-7.01245E-14
 -1      6371-1.11933E+00 7.99861E+01-2.38333E-03 2.36629E+00-5.25613E-14 1.08837E-13
 -1      6372-9.97719E-01 8.01675E+01-1.18314E-03 2.15988E+00-1.48926E-14 4.64941E-14
 -1      6373-9.20186E-01 7.92750E+01-2.15602E-03 2.61407E+00 4.28477E-15 5.30895E-14
 -1      6374-8.33740E-01 7.95252E+01-1.30079E-03 2.39871E+00-4.07487E-15 1.01141E-13
 -1      6375-6.03875E-01 7.88066E+01-1.33807E-03 2.57678E+00-5.34035E-14-2.68535E-15
 -1      6376-1.31004E-02 8.40903E+01 5.84007E-03 4.24318E-02 1.59348E-13 1.25941E-14
 -1      6377-9.87294E-03 8.42805E+01 9.14292E-03 3.31433E-02-1.77827E-14 5.01266E-14
 -1      6378-7.79456E-02 8.37176E+01 1.62045E-03 7.77651E-02 4.91859E-14-5.65346E-14
 -1      6379-4.47511E-02 8.38746E+01 6.78497E-04 8.83501E-02 8.57881E-14 8.18443E-15
 -1      6380-1.70505E-01 8.34082E+01 1.04075E-03 1.21491E-01-4.64255E-14 2.69923E-14
 -1      6381-1.13603E-01 8.35331E+01 1.27658E-04 1.41360E-01-4.93527E-14-6.94514E-14
 -1      6382-2.85044E-01 8.31442E+01 6.64684E-04 1.83906E-01-1.90172E-13 1.68303E-14
 -1      6383-2.06130E-01 8.32401E+01 5.03239E-05 2.04203E-01-9.38854E-14 5.01092E-14
 -1      6384-4.13388E-01 8.29097E+01 3.03968E-04 2.72355E-01 2.09969E-13 7.79446E-14
 -1      6385-3.14511E-01 8.29810E+01-1.42742E-05 2.85648E-01 1.32846E-13 7.05096E-14
 -1      6386-5.47194E-01 8.26892E+01-5.19171E-05 3.91642E-01-2.41625E-15-9.06289E-14
 -1      6387-4.30842E-01 8.27412E+01-8.58492E-05 3.91716E-01-8.52390E-14-9.73180E-15
 -1      6388-6.77945E-01 8.24675E+01-4.04059E-04 5.44235E-01 2.68260E-14 5.14935E-14
 -1      6389-5.47091E-01 8.25065E+01-1.70495E-04 5.25958E-01-1.07367E-13-5.66144E-14
 -1      6390-7.96853E-01 8.22297E+01-7.50070E-04 7.30273E-01-3.59205E-14-3.09128E-15
 -1      6391-6.55035E-01 8.22630E+01-2.71035E-04 6.89564E-01-1.00344E-13-1.29410E-14
 -1      6392-8.94824E-01 8.19614E+01-1.08318E-03 9.47421E-01 5.95635E-14 2.98511E-14
 -1      6393-7.46257E-01 8.19972E+01-3.89089E-04 8.81325E-01-8.82860E-15 5.55458E-14
 -1      6394-9.62552E-01 8.16491E+01-1.39039E-03 1.19059E+00-4.04181E-14-9.85878E-14
 -1      6395-8.12229E-01 8.16965E+01-5.23717E-04 1.09748E+00-2.38345E-14-2.92023E-14
 -1      6396-9.90809E-01 8.12805E+01-1.65121E-03 1.45162E+00 2.00124E-13 3.36398E-14
 -1      6397-8.44539E-01 8.13492E+01-6.70478E-04 1.33150E+00 3.90066E-14-7.52176E-15
 -1      6398-9.70971E-01 8.08457E+01-1.83721E-03 1.71898E+00 1.17773E-13 7.52870E-16
 -1      6399-8.35302E-01 8.09457E+01-8.20548E-04 1.57388E+00 8.97789E-14 5.86059E-14
 -1      6400-8.95826E-01 8.03379E+01-1.91311E-03 1.97765E+00 8.19449E-14 6.25888E-15
 -1      6401-7.77787E-01 8.04791E+01-9.60324E-04 1.81204E+00 1.78746E-14-2.79325E-14
 -1      6402-7.60631E-01 7.97552E+01-1.83999E-03 2.20933E+00 9.59849E-14 5.74818E-14
 -1      6403-6.67257E-01 7.99465E+01-1.07183E-03 2.03051E+00 7.81233E-14 8.32667E-15
 -1      6404-5.64368E-01 7.91021E+01-1.58121E-03 2.39315E+00 1.49152E-14 2.82413E-15
 -1      6405-5.01965E-01 7.93502E+01-1.13429E-03 2.21138E+00-3.66096E-14-5.69475E-14
 -1      6406-2.84195E-01 7.86987E+01-1.12737E-03 2.33536E+00-2.38091E-14 4.85376E-14
 -1      6407-9.94596E-03 8.40386E+01 5.27861E-03 7.96275E-02 8.79691E-14 6.88477E-14
 -1      6408-8.12802E-03 8.42056E+01 8.59411E-03 5.01557E-02 9.67455E-14 1.72456E-13
 -1      6409-6.22645E-02 8.36678E+01 1.34453E-03 1.44847E-01-1.22404E-13-3.81153E-14
 -1      6410-3.50185E-02 8.38118E+01 6.05963E-04 1.35125E-01 2.47623E-14-1.35284E-13
 -1      6411-1.36539E-01 8.33488E+01 8.42837E-04 2.11192E-01 2.18116E-13-2.13475E-14
 -1      6412-8.90533E-02 8.34693E+01 8.89435E-05 2.11562E-01 4.66966E-14 8.47135E-14
 -1      6413-2.28119E-01 8.30668E+01 5.23992E-04 2.88790E-01 1.32017E-13 1.76144E-14
 -1      6414-1.61589E-01 8.31656E+01 9.01391E-06 2.91075E-01 1.29493E-13-6.28664E-14
 -1      6415-3.29789E-01 8.28086E+01 2.13892E-04 3.84877E-01-1.15636E-13 1.22923E-14
 -1      6416-2.45936E-01 8.28887E+01-5.99982E-05 3.82176E-01 1.02842E-13-8.25034E-15
 -1      6417-4.34031E-01 8.25610E+01-9.34553E-05 5.04120E-01-3.25814E-14 1.19765E-14
 -1      6418-3.35152E-01 8.26268E+01-1.35942E-04 4.90701E-01-7.52876E-14-4.87214E-14
 -1      6419-5.33145E-01 8.23110E+01-3.95272E-04 6.48800E-01 8.70356E-14-5.95080E-14
 -1      6420-4.22101E-01 8.23678E+01-2.22446E-04 6.20034E-01 1.29774E-13 6.90281E-14
 -1      6421-6.19276E-01 8.20460E+01-6.86163E-04 8.18857E-01-1.23974E-13 1.64313E-14
 -1      6422-4.99499E-01 8.21001E+01-3.20316E-04 7.71221E-01 3.63021E-14-5.76518E-14
 -1      6423-6.84486E-01 8.17542E+01-9.57507E-04 1.01183E+00 1.65043E-13 8.39571E-14
 -1      6424-5.60014E-01 8.18125E+01-4.29273E-04 9.42986E-01 1.54615E-14 2.83384E-14
 -1      6425-7.20932E-01 8.14245E+01-1.19620E-03 1.22271E+00 2.78427E-14-7.92526E-14
 -1      6426-5.96417E-01 8.14947E+01-5.46926E-04 1.13167E+00-8.86537E-14-1.72050E-14
 -1      6427-7.21187E-01 8.10475E+01-1.38403E-03 1.44381E+00-4.25675E-14 8.47551E-14
 -1      6428-6.01851E-01 8.11377E+01-6.68154E-04 1.33116E+00-1.07625E-13 2.01575E-14
 -1      6429-6.78739E-01 8.06164E+01-1.49789E-03 1.66467E+00 8.71976E-14-8.18789E-15
 -1      6430-5.70228E-01 8.07346E+01-7.84655E-04 1.53284E+00 2.04619E-14 7.71605E-15
 -1      6431-5.88668E-01 8.01271E+01-1.51117E-03 1.87216E+00-4.10262E-15-3.71890E-14
 -1      6432-4.96770E-01 8.02810E+01-8.84964E-04 1.72567E+00-1.15149E-13-8.47274E-14
 -1      6433-4.48473E-01 7.95802E+01-1.39677E-03 2.05082E+00 1.83430E-14-1.74478E-14
 -1      6434-3.78680E-01 7.97761E+01-9.55139E-04 1.89649E+00-1.65232E-13 2.77903E-14
 -1      6435-2.58972E-01 7.89814E+01-1.13177E-03 2.18367E+00-3.12597E-14 7.42809E-15
 -1      6436-2.15870E-01 7.92238E+01-9.80275E-04 2.03057E+00-9.69329E-14 6.42333E-14
 -1      6437-1.16712E-02 7.86328E+01-9.47200E-04 2.11256E+00-1.12519E-13-3.33344E-14
 -1      6438-7.03498E-03 8.39584E+01 4.69565E-03 1.08709E-01-1.41527E-14 7.02979E-14
 -1      6439-6.48016E-03 8.41032E+01 7.97342E-03 6.30743E-02 7.24360E-14 3.74804E-14
 -1      6440-4.74977E-02 8.35956E+01 1.07706E-03 1.97553E-01-1.04743E-14-2.50563E-14
 -1      6441-2.59724E-02 8.37263E+01 5.33466E-04 1.70910E-01-1.01186E-13-4.50508E-14
 -1      6442-1.04462E-01 8.32734E+01 6.52413E-04 2.81599E-01 3.17437E-14-2.88519E-14
 -1      6443-6.61748E-02 8.33885E+01 5.59272E-05 2.65352E-01 1.04205E-14 2.65205E-14
 -1      6444-1.74358E-01 8.29801E+01 3.90518E-04 3.70537E-01-5.24207E-14-2.06293E-14
 -1      6445-1.20042E-01 8.30802E+01-2.28219E-05 3.57319E-01-1.23261E-14 2.73774E-14
 -1      6446-2.51015E-01 8.27051E+01 1.31884E-04 4.71321E-01 4.04227E-14-5.76587E-14
 -1      6447-1.82035E-01 8.27921E+01-9.20538E-05 4.54877E-01-1.25639E-13-1.48145E-14
 -1      6448-3.27865E-01 8.24374E+01-1.26104E-04 5.88419E-01-5.85274E-15 6.15272E-14
 -1      6449-2.46245E-01 8.25146E+01-1.67917E-04 5.63578E-01-6.45456E-14-6.66481E-14
 -1      6450-3.98152E-01 8.21663E+01-3.78001E-04 7.23972E-01-6.65193E-14-3.64465E-14
 -1      6451-3.06516E-01 8.22380E+01-2.52087E-04 6.86632E-01 2.34383E-15 5.29195E-14
 -1      6452-4.55045E-01 8.18814E+01-6.16546E-04 8.77859E-01 6.58411E-14-4.46518E-15
 -1      6453-3.56578E-01 8.19528E+01-3.43904E-04 8.25019E-01-7.47223E-14 5.18335E-14
 -1      6454-4.91784E-01 8.15731E+01-8.32291E-04 1.04770E+00-1.72925E-13-1.17129E-14
 -1      6455-3.90197E-01 8.16500E+01-4.41824E-04 9.77535E-01 6.66048E-14-1.41564E-13
 -1      6456-5.01903E-01 8.12328E+01-1.01280E-03 1.22883E+00-2.91186E-14-7.71605E-15
 -1      6457-4.01386E-01 8.13215E+01-5.42673E-04 1.14082E+00-4.83908E-14 1.68580E-14
 -1      6458-4.79555E-01 8.08536E+01-1.14242E-03 1.41427E+00-4.23663E-14 6.28664E-14
 -1      6459-3.84674E-01 8.09605E+01-6.41272E-04 1.30934E+00 7.82456E-14 1.26475E-13
 -1      6460-4.19954E-01 8.04306E+01-1.20281E-03 1.59480E+00-1.10143E-13-6.28490E-14
 -1      6461-3.35478E-01 8.05622E+01-7.30262E-04 1.47554E+00-9.48304E-14-7.91762E-14
 -1      6462-3.19931E-01 7.99622E+01-1.17434E-03 1.75916E+00 1.55579E-14 3.44100E-14
 -1      6463-2.50551E-01 8.01242E+01-8.00335E-04 1.62990E+00 2.60547E-14-1.34059E-14
 -1      6464-1.78558E-01 7.94503E+01-1.03866E-03 1.89452E+00 1.12847E-13-5.26211E-14
 -1      6465-1.28499E-01 7.96472E+01-8.40988E-04 1.76143E+00-1.92844E-13 1.12018E-13
 -1      6466 2.21603E-03 7.89013E+01-7.82222E-04 1.98715E+00-1.42421E-15 5.99139E-14
 -1      6467 2.96840E-02 7.91357E+01-8.41825E-04 1.85812E+00 8.71560E-14-7.10126E-14
 -1      6468 2.20161E-01 7.85986E+01-7.94704E-04 1.90786E+00 8.16222E-14 4.33750E-14
 -1      6469-4.41307E-03 8.38562E+01 4.11348E-03 1.30252E-01-6.79430E-14-4.87596E-14
 -1      6470-4.96043E-03 8.39803E+01 7.31337E-03 7.22489E-02-3.57917E-14-3.77250E-14
 -1      6471-3.39343E-02 8.35060E+01 8.24476E-04 2.36829E-01 1.36041E-13 1.97065E-14
 -1      6472-1.77533E-02 8.36239E+01 4.63067E-04 1.96576E-01 1.91834E-14-4.99600E-16
 -1      6473-7.49102E-02 8.31860E+01 4.73257E-04 3.33973E-01-8.77683E-15-1.20216E-14
 -1      6474-4.53300E-02 8.32952E+01 2.81947E-05 3.03988E-01-3.77302E-15 1.81730E-14
 -1      6475-1.24796E-01 8.28872E+01 2.65843E-04 4.30743E-01-6.97506E-14-7.92907E-14
 -1      6476-8.21374E-02 8.29873E+01-4.66239E-05 4.04537E-01 3.61738E-14-3.24567E-14
 -1      6477-1.78493E-01 8.26013E+01 5.72698E-05 5.33691E-01-8.54794E-14-3.92880E-14
 -1      6478-1.23757E-01 8.26933E+01-1.13021E-04 5.05717E-01 1.39862E-15-4.56440E-14
 -1      6479-2.30437E-01 8.23197E+01-1.52695E-04 6.47040E-01-2.66579E-14 6.40182E-14
 -1      6480-1.65323E-01 8.24060E+01-1.85639E-04 6.12727E-01-4.36409E-14 5.17295E-15
 -1      6481-2.74865E-01 8.20338E+01-3.56937E-04 7.72817E-01-3.25420E-14-2.88866E-14
 -1      6482-2.01684E-01 8.21175E+01-2.64674E-04 7.28593E-01-4.17101E-14 4.58834E-14
 -1      6483-3.05993E-01 8.17352E+01-5.47204E-04 9.10934E-01-1.60294E-14 4.29934E-14
 -1      6484-2.27584E-01 8.18206E+01-3.48473E-04 8.54273E-01 5.08120E-14-6.85910E-14
 -1      6485-3.18200E-01 8.14164E+01-7.13919E-04 1.05923E+00 1.14665E-13-7.89542E-14
 -1      6486-2.37863E-01 8.15081E+01-4.34714E-04 9.88729E-01 2.37089E-13 9.49830E-14
 -1      6487-3.06274E-01 8.10708E+01-8.45709E-04 1.21353E+00 7.41985E-14 7.25878E-14
 -1      6488-2.27675E-01 8.11739E+01-5.19894E-04 1.12899E+00-2.21559E-14-7.26294E-14
 -1      6489-2.65718E-01 8.06936E+01-9.29422E-04 1.36768E+00-8.62947E-14-2.62429E-14
 -1      6490-1.92761E-01 8.08132E+01-5.99130E-04 1.27023E+00 1.18356E-13 3.46910E-14
 -1      6491-1.93136E-01 8.02818E+01-9.50727E-04 1.51374E+00-4.91968E-15-4.96131E-15
 -1      6492-1.29773E-01 8.04227E+01-6.66144E-04 1.40592E+00 2.39036E-14-4.13176E-14
 -1      6493-8.66701E-02 7.98351E+01-8.95416E-04 1.64221E+00-6.87176E-14 3.61447E-14
 -1      6494-3.66454E-02 8.00016E+01-7.13581E-04 1.52806E+00 2.47472E-13 3.66929E-14
 -1      6495 5.35291E-02 7.93564E+01-7.51414E-04 1.74255E+00 1.20329E-14-3.64188E-14
 -1      6496 8.70126E-02 7.95516E+01-7.33715E-04 1.62754E+00 2.46825E-14 6.73073E-15
 -1      6497 2.24876E-01 7.88525E+01-5.11427E-04 1.80380E+00-1.76900E-13 9.28424E-15
 -1      6498 2.39542E-01 7.90777E+01-7.19501E-04 1.69468E+00 8.47621E-14-1.16560E-13
 -1      6499 4.16944E-01 7.85880E+01-6.66239E-04 1.71997E+00 3.73798E-14 1.07955E-13
 -1      6500-2.10011E-03 8.37381E+01 3.54885E-03 1.44950E-01 3.97052E-14-5.60385E-14
 -1      6501-3.58611E-03 8.38434E+01 6.64047E-03 7.80700E-02 5.32890E-14 7.39790E-14
 -1      6502-2.17334E-02 8.34039E+01 5.90990E-04 2.63843E-01-7.04020E-14 6.44311E-14
 -1      6503-1.04283E-02 8.35098E+01 3.96229E-04 2.13116E-01 3.06907E-14-2.72005E-14
 -1      6504-4.82402E-02 8.30903E+01 3.07830E-04 3.69857E-01 1.20665E-13-3.51767E-14
 -1      6505-2.66982E-02 8.31935E+01 5.18839E-06 3.28911E-01-6.24544E-14 4.86486E-14
 -1      6506-8.00194E-02 8.27908E+01 1.50930E-04 4.71301E-01-8.37863E-14-5.17468E-14
 -1      6507-4.82008E-02 8.28900E+01-6.38501E-05 4.34543E-01 2.05972E-14-9.63604E-14
 -1      6508-1.13016E-01 8.24991E+01-1.05668E-05 5.74243E-01 2.04158E-13-7.57727E-15
 -1      6509-7.15706E-02 8.25947E+01-1.25340E-04 5.36855E-01 2.45463E-16 7.37500E-14
 -1      6510-1.42666E-01 8.22089E+01-1.75333E-04 6.82625E-01 1.39074E-13 5.37487E-14
 -1      6511-9.29477E-02 8.23021E+01-1.92617E-04 6.40646E-01-3.55111E-14-1.36141E-14
 -1      6512-1.64202E-01 8.19134E+01-3.35372E-04 7.98379E-01-1.24317E-13-3.94476E-15
 -1      6513-1.08161E-01 8.20067E+01-2.64808E-04 7.48749E-01 6.90522E-14-3.63320E-14
 -1      6514-1.72854E-01 8.16062E+01-4.82083E-04 9.21498E-01 1.39637E-14 3.71925E-15
 -1      6515-1.12937E-01 8.17028E+01-3.39645E-04 8.62124E-01 1.03229E-13 7.56895E-14
 -1      6516-1.64068E-01 8.12817E+01-6.06214E-04 1.05012E+00-1.63467E-13-3.51559E-14
 -1      6517-1.03119E-01 8.13851E+01-4.14383E-04 9.79939E-01-1.65836E-13-1.45182E-13
 -1      6518-1.33745E-01 8.09350E+01-6.97612E-04 1.18062E+00 1.03147E-13 3.81362E-14
 -1      6519-7.48893E-02 8.10492E+01-4.85489E-04 1.09966E+00-2.13254E-14 8.54282E-14
 -1      6520-7.85263E-02 8.05629E+01-7.45373E-04 1.30771E+00-5.25031E-14-5.32213E-14
 -1      6521-2.50295E-02 8.06918E+01-5.48547E-04 1.21718E+00-4.67044E-14-2.51119E-14
 -1      6522 3.88333E-03 8.01639E+01-7.38429E-04 1.42466E+00-3.23751E-14 5.46750E-14
 -1      6523 4.88027E-02 8.03111E+01-5.98336E-04 1.32699E+00 4.86052E-14-4.92315E-15
 -1      6524 1.14370E-01 7.97388E+01-6.66645E-04 1.52361E+00 1.54432E-13 3.66374E-15
 -1      6525 1.47771E-01 7.99073E+01-6.29157E-04 1.42243E+00-1.43514E-14 6.66342E-14
 -1      6526 2.52070E-01 7.92911E+01-5.22364E-04 1.59596E+00-3.39954E-14-5.48346E-14
 -1      6527 2.71567E-01 7.94828E+01-6.35447E-04 1.49605E+00-6.40165E-14-3.46390E-14
 -1      6528 4.14085E-01 7.88272E+01-3.02311E-04 1.63303E+00 1.40528E-13 1.37113E-14
 -1      6529 4.18146E-01 7.90426E+01-6.12584E-04 1.54013E+00-4.82912E-14 9.54792E-15
 -1      6530 5.83565E-01 7.85945E+01-5.58164E-04 1.54724E+00 7.04124E-15-3.74388E-14
 -1      6531-9.66432E-05 8.36096E+01 3.01377E-03 1.53553E-01 4.19977E-15 2.94903E-16
 -1      6532-2.36393E-03 8.36983E+01 5.97570E-03 8.09403E-02-1.56021E-14-2.80748E-14
 -1      6533-1.09531E-02 8.32938E+01 3.79037E-04 2.79874E-01 9.81481E-14 1.53454E-14
 -1      6534-4.00850E-03 8.33885E+01 3.33936E-04 2.21575E-01-7.51673E-14 8.22085E-14
 -1      6535-2.45942E-02 8.29897E+01 1.57527E-04 3.90940E-01-2.93916E-13 8.29198E-15
 -1      6536-1.03194E-02 8.30869E+01-1.37009E-05 3.41644E-01 2.54970E-14-7.92248E-14
 -1      6537-4.02606E-02 8.26932E+01 4.62745E-05 4.94247E-01 1.78310E-13-3.10862E-15
 -1      6538-1.83098E-02 8.27909E+01-7.58594E-05 4.49235E-01 2.12616E-14 5.43905E-14
 -1      6539-5.48791E-02 8.24000E+01-7.21373E-05 5.95328E-01-1.06736E-13-5.95357E-15
 -1      6540-2.55749E-02 8.24978E+01-1.31180E-04 5.50506E-01 1.18715E-13-1.66048E-14
 -1      6541-6.48471E-02 8.21054E+01-1.95465E-04 6.97825E-01-1.12489E-13-2.92127E-15
 -1      6542-2.91959E-02 8.22040E+01-1.91872E-04 6.49827E-01 1.38146E-13-3.12042E-14
 -1      6543-6.63463E-02 8.18047E+01-3.15423E-04 8.03573E-01 2.27653E-14 2.91295E-14
 -1      6544-2.59252E-02 8.19055E+01-2.56335E-04 7.49827E-01-7.97142E-14 4.83953E-14
 -1      6545-5.55653E-02 8.14932E+01-4.23516E-04 9.12673E-01-5.62925E-14 2.06432E-15
 -1      6546-1.24085E-02 8.15984E+01-3.21971E-04 8.51472E-01 8.35873E-14-6.45664E-14
 -1      6547-2.89186E-02 8.11666E+01-5.11084E-04 1.02359E+00 2.24881E-13-2.74988E-14
 -1      6548 1.45953E-02 8.12790E+01-3.85869E-04 9.54150E-01 5.92510E-14 1.65087E-13
 -1      6549 1.67188E-02 8.08220E+01-5.69213E-04 1.13325E+00-1.31239E-13 3.98015E-14
 -1      6550 5.79919E-02 8.09444E+01-4.44642E-04 1.05577E+00-6.15415E-15-1.53860E-13
 -1      6551 8.37585E-02 8.04571E+01-5.88933E-04 1.23722E+00 1.40769E-13 3.21965E-15
 -1      6552 1.20119E-01 8.05925E+01-4.94402E-04 1.15290E+00-1.74713E-13 1.45300E-13
 -1      6553 1.73629E-01 8.00718E+01-5.61750E-04 1.32989E+00-7.71752E-14-2.31759E-15
 -1      6554 2.02507E-01 8.02227E+01-5.30877E-04 1.24098E+00-2.18575E-16-1.00701E-13
 -1      6555 2.86507E-01 7.96675E+01-4.80527E-04 1.40481E+00-1.68916E-13 1.62127E-14
 -1      6556 3.05634E-01 7.98359E+01-5.49716E-04 1.31454E+00 2.33112E-14 1.42941E-15
 -1      6557 4.21072E-01 7.92481E+01-3.40633E-04 1.45507E+00 9.09689E-15-2.85778E-14
 -1      6558 4.28710E-01 7.94351E+01-5.46989E-04 1.36756E+00 7.64241E-14 2.45325E-14
 -1      6559 5.74324E-01 7.88196E+01-1.41291E-04 1.47382E+00 2.07351E-14 1.30625E-14
 -1      6560 5.69501E-01 7.90251E+01-5.19790E-04 1.39392E+00-4.62278E-14 2.08132E-14
 -1      6561 7.24232E-01 7.86130E+01-4.67202E-04 1.38785E+00-7.12121E-14-6.53887E-14
 -1      6562 1.61043E-03 8.34757E+01 2.51632E-03 1.56818E-01 4.65591E-14 5.73916E-14
 -1      6563-1.29290E-03 8.35501E+01 5.33529E-03 8.12551E-02-1.43323E-14 9.75730E-14
 -1      6564-1.57731E-03 8.31795E+01 1.89649E-04 2.86228E-01 4.70023E-15-2.06918E-14
 -1      6565 1.53417E-03 8.32644E+01 2.76790E-04 2.22985E-01 7.63200E-14-3.49096E-14
 -1      6566-3.95423E-03 8.28872E+01 2.29135E-05 3.98949E-01 1.10646E-13 5.12854E-14
 -1      6567 3.86630E-03 8.29788E+01-2.90746E-05 3.43703E-01 1.13516E-13 4.13732E-15
 -1      6568-5.49273E-03 8.25966E+01-4.79830E-05 5.01641E-01 2.91607E-14 1.55813E-14
 -1      6569 7.63614E-03 8.26925E+01-8.38497E-05 4.50503E-01 9.95089E-14 1.57166E-15
 -1      6570-4.01735E-03 8.23051E+01-1.27845E-04 5.99282E-01-5.32595E-14-1.16504E-14
 -1      6571 1.43918E-02 8.24042E+01-1.32375E-04 5.48848E-01-1.55518E-15 8.50708E-15
 -1      6572 3.18170E-03 8.20097E+01-2.13995E-04 6.95199E-01 1.38367E-13-3.65853E-14
 -1      6573 2.61960E-02 8.21121E+01-1.85895E-04 6.42668E-01-4.89851E-14 1.86223E-14
 -1      6574 1.90387E-02 8.17073E+01-2.98282E-04 7.91122E-01 2.15400E-14-4.61783E-15
 -1      6575 4.54491E-02 8.18137E+01-2.42347E-04 7.34381E-01 1.70705E-14-4.61957E-14
 -1      6576 4.64884E-02 8.13946E+01-3.72621E-04 8.87262E-01 3.84344E-15 1.29636E-14
 -1      6577 7.46680E-02 8.15064E+01-2.99017E-04 8.24953E-01 3.90898E-14-2.44180E-14
 -1      6578 8.82502E-02 8.10690E+01-4.29087E-04 9.82402E-01 6.30138E-16 6.76542E-15
 -1      6579 1.16272E-01 8.11881E+01-3.52998E-04 9.13974E-01 4.30789E-14 1.52343E-14
 -1      6580 1.46610E-01 8.07285E+01-4.59937E-04 1.07402E+00-1.71287E-14 5.37539E-14
 -1      6581 1.72373E-01 8.08569E+01-4.01146E-04 9.99771E-01 1.18060E-13 3.23491E-14
 -1      6582 2.23197E-01 8.03722E+01-4.57819E-04 1.15843E+00-9.46686E-14-1.67852E-14
 -1      6583 2.44568E-01 8.05120E+01-4.40094E-04 1.07955E+00 6.21638E-15-4.64351E-14
 -1      6584 3.18760E-01 8.00007E+01-4.16230E-04 1.23107E+00 7.25071E-14 1.83534E-15
 -1      6585 3.33733E-01 8.01535E+01-4.66382E-04 1.14956E+00-5.06396E-14 7.89473E-14
 -1      6586 4.32963E-01 7.96160E+01-3.30195E-04 1.28667E+00 5.02298E-14-2.04975E-14
 -1      6587 4.39829E-01 7.97830E+01-4.76722E-04 1.20540E+00-2.13579E-14-4.75054E-14
 -1      6588 5.64207E-01 7.92221E+01-1.97110E-04 1.31974E+00-1.07903E-13 1.83707E-15
 -1      6589 5.61744E-01 7.94037E+01-4.68389E-04 1.24225E+00 1.26500E-13 6.11663E-15
 -1      6590 7.09519E-01 7.88248E+01-1.76711E-05 1.32492E+00-1.22562E-13 2.62290E-15
 -1      6591 6.97171E-01 7.90204E+01-4.39663E-04 1.25527E+00-4.69694E-14-1.10936E-14
 -1      6592 8.42570E-01 7.86395E+01-3.90557E-04 1.24003E+00 1.14648E-14 5.72303E-14
 -1      6593 3.04309E-03 8.33407E+01 2.06149E-03 1.55477E-01-6.18446E-14 5.42118E-14
 -1      6594-3.66774E-04 8.34030E+01 4.73141E-03 7.93881E-02-2.56774E-14-2.44769E-14
 -1      6595 6.46113E-03 8.30644E+01 2.28162E-05 2.84184E-01-4.80692E-15-3.17680E-14
 -1      6596 6.25427E-03 8.31410E+01 2.25113E-04 2.18338E-01-1.92268E-14 1.71477E-14
 -1      6597 1.38090E-02 8.27854E+01-9.60672E-05 3.95575E-01-1.82580E-15 6.39246E-14
 -1      6598 1.59861E-02 8.28720E+01-4.14915E-05 3.36548E-01 1.04959E-14-2.03344E-14
 -1      6599 2.44929E-02 8.25027E+01-1.31964E-04 4.95490E-01 1.04386E-13-1.56229E-14
 -1      6600 2.98571E-02 8.25967E+01-8.88338E-05 4.40159E-01-9.11216E-14 3.15165E-14
 -1      6601 3.98865E-02 8.22154E+01-1.78002E-04 5.88348E-01-6.18646E-14-4.65825E-14
 -1      6602 4.86676E-02 8.23153E+01-1.30421E-04 5.33952E-01-1.69248E-14-7.68274E-14
 -1      6603 6.18908E-02 8.19220E+01-2.31410E-04 6.77150E-01-1.31545E-13-9.76129E-15
 -1      6604 7.37185E-02 8.20271E+01-1.76667E-04 6.21421E-01-5.69579E-14 2.31898E-14
 -1      6605 9.26383E-02 8.16205E+01-2.84460E-04 7.63519E-01-2.87777E-14-2.60902E-15
 -1      6606 1.06651E-01 8.17310E+01-2.25253E-04 7.04763E-01-3.60896E-14 1.83169E-14
 -1      6607 1.34277E-01 8.13092E+01-3.29657E-04 8.47758E-01 1.43258E-14 3.26128E-15
 -1      6608 1.49233E-01 8.14259E+01-2.73494E-04 7.84928E-01-3.30329E-14-1.24605E-14
 -1      6609 1.88764E-01 8.09865E+01-3.59873E-04 9.28943E-01 4.97566E-14 3.32893E-14
 -1      6610 2.03161E-01 8.11105E+01-3.18595E-04 8.61687E-01-2.14483E-14-2.22218E-15
 -1      6611 2.57671E-01 8.06517E+01-3.68426E-04 1.00504E+00-1.43852E-15 2.31273E-14
 -1      6612 2.69863E-01 8.07842E+01-3.57700E-04 9.33739E-01 3.33154E-15 1.85876E-14
 -1      6613 3.41982E-01 8.03047E+01-3.49298E-04 1.07308E+00 1.47589E-13-2.03101E-14
 -1      6614 3.50316E-01 8.04470E+01-3.87920E-04 9.98842E-01-6.94670E-14 2.40381E-14
 -1      6615 4.41919E-01 7.99467E+01-2.97498E-04 1.12934E+00 4.52373E-15-1.60861E-14
 -1      6616 4.44872E-01 8.00999E+01-4.06468E-04 1.05399E+00-8.44945E-14-4.99913E-14
 -1      6617 5.56772E-01 7.95802E+01-2.09590E-04 1.16963E+00-1.31969E-14 1.20841E-14
 -1      6618 5.53103E-01 7.97447E+01-4.10873E-04 1.09565E+00 5.14415E-14 3.63598E-15
 -1      6619 6.84786E-01 7.92091E+01-8.42841E-05 1.18958E+00 3.17298E-14-4.16472E-14
 -1      6620 6.73682E-01 7.93849E+01-3.99283E-04 1.12000E+00 3.32928E-14 2.40329E-14
 -1      6621 8.23090E-01 7.88389E+01 7.69212E-05 1.18503E+00 8.93209E-15 5.86163E-15
 -1      6622 8.04308E-01 7.90251E+01-3.70779E-04 1.12328E+00-1.25473E-13-1.27832E-14
 -1      6623 9.41696E-01 7.86710E+01-3.25927E-04 1.10208E+00 7.87738E-15-3.35357E-14
 -1      6624 4.22835E-03 8.32081E+01 1.65193E-03 1.50219E-01 8.93426E-14-1.74947E-14
 -1      6625 4.24019E-04 8.32609E+01 4.17293E-03 7.56831E-02-1.06182E-14 3.32408E-14
 -1      6626 1.32617E-02 8.29517E+01-1.22204E-04 2.74949E-01-7.42696E-14-3.36606E-14
 -1      6627 1.02218E-02 8.30214E+01 1.79017E-04 2.08552E-01 2.64840E-14-5.12611E-14
 -1      6628 2.88961E-02 8.26866E+01-1.99913E-04 3.82423E-01 2.72005E-15 1.80810E-14
 -1      6629 2.62075E-02 8.27689E+01-5.14492E-05 3.21541E-01-5.04215E-14 3.31159E-15
 -1      6630 5.00211E-02 8.24132E+01-2.05979E-04 4.77690E-01-4.02027E-14-5.15907E-15
 -1      6631 4.86459E-02 8.25054E+01-9.16406E-05 4.19894E-01 8.09222E-14 5.89806E-15
 -1      6632 7.73096E-02 8.21318E+01-2.22853E-04 5.64622E-01-2.85917E-14-1.95920E-14
 -1      6633 7.76968E-02 8.22320E+01-1.26496E-04 5.07745E-01-4.25519E-14-3.24567E-15
 -1      6634 1.11945E-01 8.18422E+01-2.47900E-04 6.45898E-01 2.44381E-14 3.67050E-14
 -1      6635 1.13997E-01 8.19492E+01-1.65715E-04 5.88156E-01-3.34437E-14-2.54328E-14
 -1      6636 1.55348E-01 8.15437E+01-2.73987E-04 7.23017E-01 5.81304E-14 1.64157E-14
 -1      6637 1.58519E-01 8.16572E+01-2.06869E-04 6.63101E-01-1.20021E-14 5.04111E-14
 -1      6638 2.08971E-01 8.12355E+01-2.94308E-04 7.96354E-01 5.33552E-14 1.62370E-15
 -1      6639 2.12376E-01 8.13558E+01-2.47397E-04 7.33495E-01 6.25472E-14-1.20546E-14
 -1      6640 2.74115E-01 8.09172E+01-3.02527E-04 8.65244E-01 1.42052E-15 4.64906E-16
 -1      6641 2.76635E-01 8.10447E+01-2.84683E-04 7.99260E-01 9.27622E-14 2.67460E-14
 -1      6642 3.51741E-01 8.05890E+01-2.92909E-04 9.28087E-01-1.31980E-13-8.98760E-15
 -1      6643 3.52142E-01 8.07242E+01-3.16162E-04 8.59411E-01 3.10095E-14-6.98677E-14
 -1      6644 4.42311E-01 8.02514E+01-2.60513E-04 9.82510E-01 1.66143E-15 2.04958E-14
 -1      6645 4.39359E-01 8.03951E+01-3.39372E-04 9.12186E-01-4.41270E-14 2.73618E-14
 -1      6646 5.45630E-01 7.99063E+01-2.01491E-04 1.02555E+00-4.93741E-14-4.23446E-14
 -1      6647 5.38219E-01 8.00589E+01-3.52066E-04 9.55206E-01 3.04570E-14-6.81920E-15
 -1      6648 6.60726E-01 7.95564E+01-1.13480E-04 1.05387E+00-1.26692E-13 3.35929E-14
 -1      6649 6.47999E-01 7.97178E+01-3.52391E-04 9.85673E-01 7.81493E-16-8.57821E-15
 -1      6650 7.85764E-01 7.92055E+01 3.97871E-06 1.06405E+00-2.32748E-14-1.73420E-14
 -1      6651 7.67237E-01 7.93754E+01-3.39115E-04 1.00059E+00 3.46077E-16 4.57689E-14
 -1      6652 9.18011E-01 7.88588E+01 1.49017E-04 1.05289E+00-2.93732E-14-2.38334E-14
 -1      6653 8.93677E-01 7.90359E+01-3.11845E-04 9.97048E-01 3.66400E-14-3.11869E-14
 -1      6654 1.02429E+00 7.87049E+01-2.71453E-04 9.72459E-01 3.68273E-14 2.23779E-14
 -1      6655 5.19538E-03 8.30814E+01 1.28852E-03 1.41670E-01-4.53457E-14-6.20441E-14
 -1      6656 1.09081E-03 8.31268E+01 3.66602E-03 7.04495E-02-4.72756E-14-1.53089E-15
 -1      6657 1.89411E-02 8.28439E+01-2.46631E-04 2.59639E-01 4.91412E-14-8.98413E-15
 -1      6658 1.35138E-02 8.29083E+01 1.38469E-04 1.94464E-01-2.54744E-15-1.36176E-15
 -1      6659 4.15471E-02 8.25927E+01-2.89415E-04 3.60976E-01-2.90714E-14-3.59122E-14
 -1      6660 3.47174E-02 8.26718E+01-5.93780E-05 2.99928E-01 1.04777E-14-4.87770E-14
 -1      6661 7.14819E-02 8.23293E+01-2.70465E-04 4.49990E-01 8.04174E-14 1.04083E-15
 -1      6662 6.43311E-02 8.24201E+01-9.29296E-05 3.91260E-01-5.23253E-14 3.87503E-14
 -1      6663 1.08817E-01 8.20549E+01-2.62600E-04 5.30031E-01-1.03559E-13-1.69621E-14
 -1      6664 1.01975E-01 8.21553E+01-1.21501E-04 4.71985E-01 2.46600E-14-7.88328E-14
 -1      6665 1.54112E-01 8.17705E+01-2.63458E-04 6.03454E-01 4.64255E-16 1.85529E-14
 -1      6666 1.47718E-01 8.18790E+01-1.54178E-04 5.44750E-01 8.78108E-14 6.05852E-14
 -1      6667 2.08166E-01 8.14762E+01-2.66588E-04 6.71629E-01-4.00097E-14 4.01693E-14
 -1      6668 2.01955E-01 8.15920E+01-1.88523E-04 6.11303E-01 2.18653E-14-2.85778E-14
 -1      6669 2.71831E-01 8.11724E+01-2.65905E-04 7.34975E-01-5.69052E-14 3.87156E-14
 -1      6670 2.65235E-01 8.12952E+01-2.22154E-04 6.72508E-01-9.24749E-15 1.26375E-14
 -1      6671 3.45840E-01 8.08594E+01-2.55829E-04 7.93039E-01-3.15999E-14-4.11667E-14
 -1      6672 3.38087E-01 8.09892E+01-2.52662E-04 7.28396E-01 1.69000E-15 2.15990E-14
 -1      6673 4.30649E-01 8.05381E+01-2.31448E-04 8.44593E-01-2.66508E-14-4.49987E-14
 -1      6674 4.20865E-01 8.06750E+01-2.77767E-04 7.78248E-01-5.87980E-14-2.67251E-14
 -1      6675 5.26289E-01 8.02099E+01-1.88688E-04 8.87772E-01 3.81071E-14 2.77781E-14
 -1      6676 5.13606E-01 8.03540E+01-2.95367E-04 8.20706E-01 1.56891E-14 2.59029E-14
 -1      6677 6.32244E-01 7.98768E+01-1.24557E-04 9.20241E-01 4.56766E-14-7.07767E-16
 -1      6678 6.15908E-01 8.00280E+01-3.03645E-04 8.53913E-01-2.47831E-14-2.88380E-14
 -1      6679 7.47352E-01 7.95417E+01-3.74327E-05 9.39389E-01-1.55310E-14 1.84748E-14
 -1      6680 7.26828E-01 7.96997E+01-3.01208E-04 8.75683E-01-7.62992E-14 4.32536E-14
 -1      6681 8.69749E-01 7.92085E+01 7.26458E-05 9.42561E-01-1.32038E-14-7.78023E-15
 -1      6682 8.44816E-01 7.93726E+01-2.87257E-04 8.83695E-01-3.94277E-14-3.47396E-14
 -1      6683 9.96851E-01 7.88821E+01 2.03699E-04 9.27301E-01-2.00482E-14 5.67081E-15
 -1      6684 9.67685E-01 7.90507E+01-2.61733E-04 8.75706E-01-3.02787E-14-4.83988E-15
 -1      6685 1.09263E+00 7.87392E+01-2.25652E-04 8.49781E-01-3.81232E-14 1.68632E-14
 -1      6686 5.97336E-03 8.29630E+01 9.70955E-04 1.30395E-01 1.07987E-14 4.47732E-15
 -1      6687 1.64553E-03 8.30034E+01 3.21484E-03 6.39612E-02-2.62203E-14 1.47599E-14
 -1      6688 2.36222E-02 8.27433E+01-3.51955E-04 2.39260E-01-2.63704E-14-1.11387E-14
 -1      6689 1.62085E-02 8.28039E+01 1.03345E-04 1.76819E-01-3.18339E-14-8.34055E-15
 -1      6690 5.20171E-02 8.25055E+01-3.65533E-04 3.32580E-01 2.09225E-14-1.64643E-14
 -1      6691 4.17066E-02 8.25824E+01-6.56410E-05 2.72828E-01-2.29469E-14 3.31297E-14
 -1      6692 8.92906E-02 8.22522E+01-3.25935E-04 4.13980E-01-3.71751E-15 3.65714E-14
 -1      6693 7.72492E-02 8.23421E+01-9.32137E-05 3.55655E-01-1.23126E-14-1.79422E-14
 -1      6694 1.35007E-01 8.19854E+01-2.97416E-04 4.86315E-01 7.08747E-14 9.10383E-15
 -1      6695 1.22010E-01 8.20860E+01-1.16108E-04 4.28256E-01 6.17800E-14 3.20455E-14
 -1      6696 1.89194E-01 8.17068E+01-2.77958E-04 5.51627E-01 5.16817E-15 9.42128E-15
 -1      6697 1.75579E-01 8.18164E+01-1.42883E-04 4.92887E-01-2.06920E-14-3.36710E-15
 -1      6698 2.52117E-01 8.14175E+01-2.61811E-04 6.11141E-01 3.71937E-14-1.20338E-14
 -1      6699 2.37865E-01 8.15351E+01-1.71154E-04 5.51067E-01-2.62396E-14-3.59886E-14
 -1      6700 3.24115E-01 8.11187E+01-2.43597E-04 6.65297E-01 5.52696E-14 2.51396E-14
 -1      6701 3.08935E-01 8.12434E+01-1.98747E-04 6.03590E-01 5.65748E-15 3.86705E-14
 -1      6702 4.05444E-01 8.08115E+01-2.18433E-04 7.13810E-01-6.58657E-14-1.72432E-14
 -1      6703 3.88864E-01 8.09428E+01-2.23465E-04 6.50565E-01-1.18905E-14-1.82371E-14
 -1      6704 4.96137E-01 8.04972E+01-1.82110E-04 7.55760E-01 2.05656E-14-2.05738E-14
 -1      6705 4.77598E-01 8.06350E+01-2.43288E-04 6.91486E-01-8.79728E-14 3.20924E-15
 -1      6706 5.95876E-01 8.01778E+01-1.31249E-04 7.89705E-01-1.47775E-13 1.82927E-14
 -1      6707 5.74827E-01 8.03216E+01-2.56417E-04 7.25325E-01 8.16491E-15-3.06664E-14
 -1      6708 7.03896E-01 7.98556E+01-6.34962E-05 8.13832E-01 2.51717E-14 4.22405E-15
 -1      6709 6.79881E-01 8.00050E+01-2.61371E-04 7.50656E-01-4.24561E-14 4.47090E-14
 -1      6710 8.18898E-01 7.95337E+01 2.22658E-05 8.26118E-01-6.24548E-14-1.53592E-14
 -1      6711 7.91650E-01 7.96881E+01-2.57095E-04 7.65793E-01 3.51394E-14-4.14356E-14
 -1      6712 9.39018E-01 7.92159E+01 1.25718E-04 8.24525E-01-3.52791E-14-3.50935E-15
 -1      6713 9.08530E-01 7.93742E+01-2.43084E-04 7.68958E-01 3.20416E-14 1.70489E-14
 -1      6714 1.06182E+00 7.89066E+01 2.44923E-04 8.07190E-01-5.35943E-14 7.87911E-15
 -1      6715 1.02841E+00 7.90675E+01-2.19485E-04 7.58449E-01 5.60489E-14 1.51840E-14
 -1      6716 1.14870E+00 7.87724E+01-1.87358E-04 7.32826E-01-4.64411E-14-1.01603E-14
 -1      6717 6.58997E-03 8.28553E+01 6.98152E-04 1.16889E-01 7.65221E-14 7.00481E-15
 -1      6718 2.09988E-03 8.28927E+01 2.82197E-03 5.64577E-02 4.37905E-14 3.60614E-14
 -1      6719 2.74255E-02 8.26517E+01-4.39772E-04 2.14710E-01 2.68136E-14-1.30781E-14
 -1      6720 1.83804E-02 8.27102E+01 7.34659E-05 1.56279E-01 5.17312E-14-3.17264E-14
 -1      6721 6.05584E-02 8.24264E+01-4.29297E-04 2.98443E-01-4.18116E-14 3.21410E-14
 -1      6722 4.73585E-02 8.25021E+01-7.05388E-05 2.41238E-01 5.26575E-15 8.15840E-15
 -1      6723 1.03859E-01 8.21828E+01-3.72939E-04 3.71087E-01 8.60466E-15 2.38750E-14
 -1      6724 8.77244E-02 8.22725E+01-9.28830E-05 3.14323E-01 1.06599E-15 1.64833E-14
 -1      6725 1.56471E-01 8.19236E+01-3.27463E-04 4.35035E-01 4.41613E-14 4.39059E-15
 -1      6726 1.38290E-01 8.20248E+01-1.10803E-04 3.77971E-01-9.61141E-14-1.27745E-14
 -1      6727 2.17976E-01 8.16511E+01-2.91214E-04 4.92024E-01-7.10493E-14-1.68060E-14
 -1      6728 1.98250E-01 8.17619E+01-1.32407E-04 4.34063E-01-4.50764E-14-1.60288E-15
 -1      6729 2.88193E-01 8.13672E+01-2.59123E-04 5.43129E-01 8.88668E-14-1.07206E-14
 -1      6730 2.67106E-01 8.14862E+01-1.55403E-04 4.83892E-01 1.99144E-14 2.62967E-14
 -1      6731 3.67027E-01 8.10736E+01-2.26470E-04 5.88783E-01-2.23931E-14 9.29291E-15
 -1      6732 3.44528E-01 8.11997E+01-1.77824E-04 5.28168E-01-2.49544E-14-3.18773E-14
 -1      6733 4.54338E-01 8.07721E+01-1.88992E-04 6.28828E-01 3.00075E-14-8.54178E-15
 -1      6734 4.30214E-01 8.09046E+01-1.97679E-04 5.67043E-01-5.16487E-14 1.56247E-14
 -1      6735 5.49810E-01 8.04646E+01-1.43075E-04 6.62590E-01 3.38835E-15-1.40166E-15
 -1      6736 5.23774E-01 8.06027E+01-2.13177E-04 6.00175E-01 3.21886E-14-1.06217E-14
 -1      6737 6.52847E-01 8.01533E+01-8.58932E-05 6.88977E-01 6.06722E-14-2.11151E-14
 -1      6738 6.24616E-01 8.02964E+01-2.22766E-04 6.26806E-01-1.33999E-14 1.26028E-14
 -1      6739 7.62487E-01 7.98408E+01-1.55651E-05 7.06602E-01-3.25651E-14 1.99788E-14
 -1      6740 7.31859E-01 7.99883E+01-2.25225E-04 6.45855E-01-4.11335E-14-1.60080E-14
 -1      6741 8.77335E-01 7.95304E+01 6.86855E-05 7.13918E-01 1.78681E-14-1.99181E-14
 -1      6742 8.44266E-01 7.96812E+01-2.19743E-04 6.56047E-01 2.28333E-15 2.40641E-14
 -1      6743 9.95544E-01 7.92257E+01 1.66398E-04 7.09378E-01-5.73647E-14 1.02210E-14
 -1      6744 9.60203E-01 7.93787E+01-2.06015E-04 6.56036E-01 1.22398E-14-1.05471E-15
 -1      6745 1.11481E+00 7.89310E+01 2.75757E-04 6.91590E-01-8.55973E-14-8.19830E-15
 -1      6746 1.07763E+00 7.90846E+01-1.84303E-04 6.44550E-01 2.57854E-14-2.49020E-14
 -1      6747 1.19414E+00 7.88033E+01-1.55658E-04 6.20529E-01 2.33745E-14 5.52804E-14
 -1      6748 7.07037E-03 8.27599E+01 4.68594E-04 1.01589E-01-4.80180E-14 9.80986E-15
 -1      6749 2.46469E-03 8.27965E+01 2.48887E-03 4.81465E-02 1.54729E-14 5.13634E-14
 -1      6750 3.04632E-02 8.25705E+01-5.11667E-04 1.86781E-01 1.01134E-14-1.53488E-14
 -1      6751 2.00975E-02 8.26285E+01 4.86285E-05 1.33419E-01-2.09303E-14-3.61603E-14
 -1      6752 6.74078E-02 8.23567E+01-4.81735E-04 2.59634E-01 2.00751E-14-1.51962E-15
 -1      6753 5.18409E-02 8.24323E+01-7.43151E-05 2.06034E-01-1.89041E-15-1.32359E-15
 -1      6754 1.15573E-01 8.21220E+01-4.12023E-04 3.22580E-01 1.30425E-14 3.08729E-14
 -1      6755 9.60544E-02 8.22122E+01-9.22282E-05 2.68370E-01 8.43292E-15-3.22485E-15
 -1      6756 1.73762E-01 8.18699E+01-3.52887E-04 3.77577E-01-4.17275E-14-3.66079E-14
 -1      6757 1.51262E-01 8.19721E+01-1.05927E-04 3.22383E-01-1.44910E-14 1.20216E-14
 -1      6758 2.41191E-01 8.16034E+01-3.03022E-04 4.26072E-01 1.11818E-14 3.13326E-14
 -1      6759 2.16339E-01 8.17154E+01-1.23143E-04 3.69605E-01-2.42159E-14-1.08628E-14
 -1      6760 3.17309E-01 8.13247E+01-2.57979E-04 4.68980E-01-2.96651E-14-1.51164E-14
 -1      6761 2.90460E-01 8.14451E+01-1.41688E-04 4.11104E-01-3.33629E-14-1.91860E-15
 -1      6762 4.01666E-01 8.10363E+01-2.13628E-04 5.06707E-01-1.61609E-14-2.12261E-14
 -1      6763 3.72967E-01 8.11637E+01-1.59793E-04 4.47490E-01 6.45361E-15-1.02245E-14
 -1      6764 4.93797E-01 8.07403E+01-1.66242E-04 5.39184E-01-3.20908E-14 2.18540E-14
 -1      6765 4.63255E-01 8.08736E+01-1.75650E-04 4.78934E-01 1.61830E-14 9.15587E-15
 -1      6766 5.93104E-01 8.04389E+01-1.12702E-04 5.65931E-01 1.23278E-14-5.38632E-15
 -1      6767 5.60661E-01 8.05772E+01-1.87664E-04 5.05215E-01 1.17439E-14-4.33334E-15
 -1      6768 6.98768E-01 8.01349E+01-5.06162E-05 5.86135E-01 2.24263E-14-7.50615E-15
 -1      6769 6.64369E-01 8.02772E+01-1.94482E-04 5.25785E-01-1.41868E-14-6.80012E-16
 -1      6770 8.09675E-01 7.98309E+01 2.15461E-05 5.98756E-01-3.49330E-16 2.34326E-14
 -1      6771 7.73334E-01 7.99763E+01-1.95080E-04 5.39848E-01-2.58443E-14 2.39739E-14
 -1      6772 9.24363E-01 7.95302E+01 1.04335E-04 6.02631E-01 2.72785E-14-1.80585E-15
 -1      6773 8.86223E-01 7.96776E+01-1.88821E-04 5.46452E-01 2.11927E-14-3.23214E-14
 -1      6774 1.04101E+00 7.92365E+01 1.97233E-04 5.96604E-01-2.58387E-15 6.98573E-15
 -1      6775 1.00139E+00 7.93846E+01-1.75532E-04 5.44602E-01-1.24597E-15 1.79006E-14
 -1      6776 1.15742E+00 7.89538E+01 2.98575E-04 5.79649E-01 4.14842E-14-1.87003E-15
 -1      6777 1.11685E+00 7.91009E+01-1.55536E-04 5.33360E-01-4.60786E-15 1.96926E-14
 -1      6778 1.23036E+00 7.88308E+01-1.29844E-04 5.11963E-01-3.78079E-14-5.31832E-14
 -1      6779 7.43661E-03 8.26785E+01 2.80596E-04 8.48696E-02-7.02867E-14 2.67061E-14
 -1      6780 2.74955E-03 8.27161E+01 2.21627E-03 3.92067E-02-3.90746E-14 1.05263E-14
 -1      6781 3.28358E-02 8.25012E+01-5.69114E-04 1.56166E-01 2.25223E-14 3.80841E-14
 -1      6782 2.14191E-02 8.25602E+01 2.86312E-05 1.08743E-01-1.47981E-14 8.92949E-15
 -1      6783 7.27775E-02 8.22971E+01-5.23809E-04 2.17100E-01 3.40604E-14-4.17062E-14
 -1      6784 5.53011E-02 8.23739E+01-7.71637E-05 1.67989E-01 1.53436E-15-1.38778E-15
 -1      6785 1.24779E-01 8.20704E+01-4.43705E-04 2.69582E-01-2.83029E-14 2.79290E-16
 -1      6786 1.02501E-01 8.21619E+01-9.14615E-05 2.18770E-01 1.12948E-14-3.87364E-14
 -1      6787 1.87378E-01 8.18248E+01-3.73828E-04 3.15172E-01-1.43071E-15-1.60184E-14
 -1      6788 1.61319E-01 8.19284E+01-1.01714E-04 2.62604E-01-3.00198E-14 1.63411E-15
 -1      6789 2.59494E-01 8.15637E+01-3.13185E-04 3.55032E-01 6.37773E-14 3.16431E-14
 -1      6790 2.30384E-01 8.16773E+01-1.15345E-04 3.00689E-01-1.78460E-14 7.87738E-15
 -1      6791 3.40282E-01 8.12899E+01-2.57868E-04 3.89918E-01-4.05275E-16-1.87593E-14
 -1      6792 3.08609E-01 8.14117E+01-1.30270E-04 3.33873E-01-1.90307E-14-7.41768E-15
 -1      6793 4.29006E-01 8.10061E+01-2.04251E-04 4.20186E-01 2.01306E-14-3.72272E-14
 -1      6794 3.95080E-01 8.11347E+01-1.44891E-04 3.62657E-01-8.58553E-15 1.72466E-14
 -1      6795 5.24941E-01 8.07150E+01-1.49057E-04 4.45825E-01-6.64015E-14 1.07345E-14
 -1      6796 4.88951E-01 8.08491E+01-1.57559E-04 3.87205E-01 2.86685E-14-1.98643E-14
 -1      6797 6.27265E-01 8.04191E+01-8.95662E-05 4.66502E-01-1.11284E-14 4.34722E-15
 -1      6798 5.89346E-01 8.05575E+01-1.66838E-04 4.07383E-01 4.35531E-14 3.85803E-15
 -1      6799 7.34986E-01 8.01212E+01-2.37246E-05 4.81630E-01 1.46265E-14-3.48332E-15
 -1      6800 6.95275E-01 8.02628E+01-1.71531E-04 4.22808E-01 1.52012E-14-3.79384E-15
 -1      6801 8.46872E-01 7.98244E+01 4.97413E-05 4.90445E-01-5.05340E-14 1.70124E-14
 -1      6802 8.05567E-01 7.99679E+01-1.70759E-04 4.32907E-01 2.09039E-14-1.33921E-15
 -1      6803 9.61414E-01 7.95319E+01 1.31234E-04 4.92094E-01-5.88505E-16-4.28477E-16
 -1      6804 9.18817E-01 7.96761E+01-1.64011E-04 4.36994E-01-3.14792E-14 1.44260E-14
 -1      6805 1.07681E+00 7.92472E+01 2.20224E-04 4.85732E-01 5.09675E-14-1.66707E-15
 -1      6806 1.03337E+00 7.93907E+01-1.51194E-04 4.34350E-01-4.62091E-14 3.99680E-15
 -1      6807 1.19098E+00 7.89742E+01 3.15203E-04 4.70619E-01 5.77403E-15-2.18575E-16
 -1      6808 1.14730E+00 7.91155E+01-1.32661E-04 4.24305E-01-7.15140E-16-1.83551E-14
 -1      6809 1.25848E+00 7.88542E+01-1.09372E-04 4.06323E-01 1.87411E-14 1.85702E-14
 -1      6810 7.70725E-03 8.26120E+01 1.32504E-04 6.70604E-02-1.47191E-14-2.06415E-14
 -1      6811 2.96254E-03 8.26526E+01 2.00439E-03 2.97936E-02-1.15654E-14-6.77410E-16
 -1      6812 3.46290E-02 8.24446E+01-6.13416E-04 1.23476E-01-6.04833E-14 4.23515E-14
 -1      6813 2.23950E-02 8.25061E+01 1.32892E-05 8.26925E-02 9.98680E-15-2.11168E-14
 -1      6814 7.68494E-02 8.22486E+01-5.56374E-04 1.71673E-01-3.01582E-14-1.94584E-14
 -1      6815 5.78624E-02 8.23277E+01-7.92342E-05 1.27783E-01-6.61502E-14 4.57967E-14
 -1      6816 1.31778E-01 8.20285E+01-4.68448E-04 2.13090E-01 9.32240E-15 6.03684E-15
 -1      6817 1.07283E-01 8.21222E+01-9.07337E-05 1.66390E-01 9.14243E-15-1.81313E-14
 -1      6818 1.97745E-01 8.17884E+01-3.90410E-04 2.48910E-01 2.54571E-15 6.03684E-16
 -1      6819 1.68793E-01 8.18941E+01-9.83174E-05 1.99623E-01-1.26717E-14 2.63366E-14
 -1      6820 2.73447E-01 8.15319E+01-3.21529E-04 2.80025E-01-7.30839E-15-1.45335E-14
 -1      6821 2.40834E-01 8.16475E+01-1.09170E-04 2.28363E-01 1.30460E-14-2.61371E-14
 -1      6822 3.57807E-01 8.12623E+01-2.58340E-04 3.07025E-01-3.74050E-15 1.64296E-14
 -1      6823 3.22124E-01 8.13859E+01-1.21298E-04 2.53243E-01 8.08793E-15-2.16493E-14
 -1      6824 4.49872E-01 8.09826E+01-1.97627E-04 3.30203E-01 6.64548E-15-4.90233E-15
 -1      6825 4.11556E-01 8.11126E+01-1.33243E-04 2.74646E-01-1.97279E-14 1.11890E-14
 -1      6826 5.48712E-01 8.06956E+01-1.36476E-04 3.49578E-01 5.97217E-15-1.81018E-14
 -1      6827 5.08101E-01 8.08306E+01-1.43483E-04 2.92711E-01-1.26811E-14-6.64573E-15
 -1      6828 6.53337E-01 8.04042E+01-7.24767E-05 3.64928E-01 2.84575E-14 7.89646E-15
 -1      6829 6.10725E-01 8.05428E+01-1.50704E-04 3.07362E-01-1.25982E-14 6.70297E-15
 -1      6830 7.62621E-01 8.01115E+01-3.83120E-06 3.75844E-01 7.18783E-15-1.71408E-14
 -1      6831 7.18307E-01 8.02524E+01-1.53828E-04 3.18342E-01-2.28728E-14-1.05038E-14
 -1      6832 8.75245E-01 7.98204E+01 7.05495E-05 3.81787E-01 2.10715E-14 1.49949E-14
 -1      6833 8.29581E-01 7.99623E+01-1.52078E-04 3.25261E-01 4.21005E-14 3.99333E-15
 -1      6834 9.89667E-01 7.95343E+01 1.50972E-04 3.82152E-01-1.31119E-14 1.76942E-16
 -1      6835 9.43095E-01 7.96758E+01-1.45028E-04 3.27648E-01-2.48586E-15-4.16334E-16
 -1      6836 1.10411E+00 7.92567E+01 2.36920E-04 3.76343E-01-4.26959E-15 2.64719E-15
 -1      6837 1.05719E+00 7.93964E+01-1.32639E-04 3.25006E-01-3.98943E-15-8.31106E-15
 -1      6838 1.21656E+00 7.89913E+01 3.27024E-04 3.63844E-01 2.56028E-14-9.88792E-16
 -1      6839 1.16998E+00 7.91275E+01-1.15271E-04 3.16878E-01-2.81134E-14 3.11296E-14
 -1      6840 1.27943E+00 7.88730E+01-9.38345E-05 3.02903E-01-2.58261E-14-2.49063E-14
 -1      6841 7.89721E-03 8.25615E+01 2.28449E-05 4.84466E-02-1.19384E-14-2.30076E-14
 -1      6842 3.11006E-03 8.26067E+01 1.85320E-03 2.00425E-02 3.27845E-14 1.76014E-14
 -1      6843 3.59123E-02 8.24015E+01-6.45661E-04 8.92472E-02 2.44331E-14 8.52703E-15
 -1      6844 2.30640E-02 8.24670E+01 2.44784E-06 5.56558E-02 1.98223E-14-1.38518E-14
 -1      6845 7.97720E-02 8.22117E+01-5.80147E-04 1.24096E-01-1.37568E-14 2.17881E-15
 -1      6846 5.96219E-02 8.22943E+01-8.06375E-05 8.60226E-02 4.25059E-14-8.67362E-18
 -1      6847 1.36811E-01 8.19967E+01-4.86646E-04 1.53994E-01 2.09199E-14 1.27693E-14
 -1      6848 1.10574E-01 8.20936E+01-9.01484E-05 1.12005E-01-1.53631E-15 4.14148E-14
 -1      6849 2.05211E-01 8.17609E+01-4.02744E-04 1.79771E-01 2.68980E-15 3.31506E-15
 -1      6850 1.73943E-01 8.18694E+01-9.58355E-05 1.34328E-01-1.08637E-15-3.22659E-15
 -1      6851 2.83506E-01 8.15081E+01-3.27912E-04 2.02056E-01 1.00950E-14-2.15800E-14
 -1      6852 2.48043E-01 8.16262E+01-1.04712E-04 1.53571E-01-1.52964E-14 2.44440E-14
 -1      6853 3.70452E-01 8.12418E+01-2.59024E-04 2.21272E-01-7.57998E-15 1.01030E-14
 -1      6854 3.31454E-01 8.13675E+01-1.14855E-04 1.70155E-01 2.05316E-14-5.87030E-15
 -1      6855 4.64932E-01 8.09652E+01-1.93176E-04 2.37637E-01 3.27163E-15 1.59872E-14
 -1      6856 4.22935E-01 8.10969E+01-1.24908E-04 1.84337E-01 1.25292E-14 7.70738E-15
 -1      6857 5.65873E-01 8.06815E+01-1.27722E-04 2.51178E-01 4.03318E-15-1.32810E-14
 -1      6858 5.21331E-01 8.08176E+01-1.33441E-04 1.96218E-01-5.20815E-15 3.25087E-15
 -1      6859 6.72159E-01 8.03937E+01-6.04841E-05 2.61758E-01-5.44710E-14-1.11716E-15
 -1      6860 6.25495E-01 8.05328E+01-1.39228E-04 2.05759E-01 5.15286E-15-1.49221E-14
 -1      6861 7.82568E-01 8.01048E+01 1.01545E-05 2.69110E-01-4.58791E-15-5.48693E-15
 -1      6862 7.34219E-01 8.02454E+01-1.41273E-04 2.12805E-01 9.73614E-16 1.67193E-14
 -1      6863 8.95721E-01 7.98180E+01 8.51548E-05 2.72876E-01 8.17597E-16-8.34749E-15
 -1      6864 8.46171E-01 7.99588E+01-1.38868E-04 2.17112E-01-6.85378E-15-1.15706E-15
 -1      6865 1.01005E+00 7.95367E+01 1.64764E-04 2.72657E-01 1.92901E-15-6.77236E-15
 -1      6866 9.59865E-01 7.96761E+01-1.31642E-04 2.18386E-01-3.97577E-16-7.72125E-15
 -1      6867 1.12380E+00 7.92644E+01 2.48486E-04 2.68059E-01 1.74570E-14 2.38871E-15
 -1      6868 1.07364E+00 7.94008E+01-1.19586E-04 2.16317E-01 7.78067E-15-9.86711E-15
 -1      6869 1.23502E+00 7.90047E+01 3.35061E-04 2.58743E-01-1.05796E-14 1.41102E-14
 -1      6870 1.18564E+00 7.91365E+01-1.03060E-04 2.10622E-01 1.85195E-14 9.86017E-15
 -1      6871 1.29390E+00 7.88867E+01-8.29352E-05 2.01080E-01 7.90427E-15-6.57027E-15
 -1      6872 8.01765E-03 8.25274E+01-4.95673E-05 2.92818E-02 1.93218E-14 7.99361E-15
 -1      6873 3.19671E-03 8.25789E+01 1.76257E-03 1.00743E-02-2.14271E-14-3.02909E-14
 -1      6874 3.67385E-02 8.23725E+01-6.66684E-04 5.39601E-02 4.17153E-14-4.42181E-15
 -1      6875 2.34541E-02 8.24434E+01-4.00903E-06 2.79835E-02-4.59702E-15 3.44048E-14
 -1      6876 8.16575E-02 8.21869E+01-5.95680E-04 7.50358E-02 1.55791E-14-7.82013E-15
 -1      6877 6.06495E-02 8.22742E+01-8.14499E-05 4.32577E-02-1.68912E-14 1.61416E-15
 -1      6878 1.40062E-01 8.19754E+01-4.98602E-04 9.30990E-02-2.35607E-14 1.67071E-14
 -1      6879 1.12498E-01 8.20763E+01-8.97726E-05 5.63214E-02-5.45928E-15-4.25701E-15
 -1      6880 2.10041E-01 8.17425E+01-4.10916E-04 1.08640E-01 4.47082E-15-1.79318E-14
 -1      6881 1.76958E-01 8.18545E+01-9.43261E-05 6.75324E-02-1.95167E-14 1.70992E-14
 -1      6882 2.90019E-01 8.14922E+01-3.32226E-04 1.22035E-01-2.09857E-14-1.03563E-15
 -1      6883 2.52265E-01 8.16133E+01-1.02022E-04 7.71788E-02-9.47961E-15-1.62544E-14
 -1      6884 3.78642E-01 8.12282E+01-2.59639E-04 1.33538E-01 1.82496E-14 8.13065E-15
 -1      6885 3.36922E-01 8.13565E+01-1.10979E-04 8.54699E-02-7.75251E-15-1.60982E-15
 -1      6886 4.74691E-01 8.09538E+01-1.90455E-04 1.43281E-01-1.21207E-14-2.64545E-15
 -1      6887 4.29606E-01 8.10876E+01-1.19904E-04 9.25354E-02 1.52021E-15 8.37178E-15
 -1      6888 5.76995E-01 8.06723E+01-1.22212E-04 1.51288E-01 1.28639E-14 3.46945E-17
 -1      6889 5.29089E-01 8.08100E+01-1.27425E-04 9.84279E-02 1.03239E-14 8.26075E-15
 -1      6890 6.84358E-01 8.03869E+01-5.28801E-05 1.57485E-01 3.31964E-14-7.31012E-15
 -1      6891 6.34158E-01 8.05268E+01-1.32366E-04 1.03132E-01 1.68355E-14 4.13558E-15
 -1      6892 7.95496E-01 8.01006E+01 1.90373E-05 1.61721E-01-5.56434E-15 7.24421E-15
 -1      6893 7.43551E-01 8.02414E+01-1.33779E-04 1.06573E-01 8.67741E-15-1.26774E-14
 -1      6894 9.08991E-01 7.98167E+01 9.44219E-05 1.63793E-01 2.86576E-15-1.45543E-15
 -1      6895 8.55901E-01 7.99568E+01-1.30998E-04 1.08636E-01-1.70339E-15 1.12983E-14
 -1      6896 1.02326E+00 7.95386E+01 1.73486E-04 1.63473E-01-1.42575E-14-9.24261E-15
 -1      6897 9.69700E-01 7.96764E+01-1.23680E-04 1.09179E-01 4.57235E-15-6.44623E-15
 -1      6898 1.13656E+00 7.92698E+01 2.55753E-04 1.60538E-01 1.88895E-14-1.60098E-14
 -1      6899 1.08328E+00 7.94036E+01-1.11833E-04 1.08054E-01 7.26020E-15 2.28637E-15
 -1      6900 1.24698E+00 7.90138E+01 3.40038E-04 1.54796E-01-2.78586E-15 6.48700E-15
 -1      6901 1.19483E+00 7.91420E+01-9.58156E-05 1.05125E-01-5.72654E-15-7.07767E-15
 -1      6902 1.30239E+00 7.88950E+01-7.64730E-05 1.00287E-01-8.81858E-15 5.66214E-15
 -1      6903 8.07602E-03 8.25103E+01-8.55610E-05 9.79578E-03-7.68970E-16 9.34322E-15
 -1      6904 3.71428E-02 8.23579E+01-6.77052E-04 1.80545E-02-2.88238E-14 1.41259E-14
 -1      6905 8.25813E-02 8.21744E+01-6.03351E-04 2.51072E-02-2.80552E-14 8.54351E-15
 -1      6906 1.41657E-01 8.19647E+01-5.04527E-04 3.11488E-02 9.99152E-15 3.50067E-15
 -1      6907 2.12411E-01 8.17333E+01-4.14986E-04 3.63418E-02-1.21414E-14-8.34402E-15
 -1      6908 2.93216E-01 8.14843E+01-3.34401E-04 4.08108E-02-9.08252E-15 6.47746E-15
 -1      6909 3.82665E-01 8.12214E+01-2.59993E-04 4.46404E-02 3.16107E-15 4.33681E-15
 -1      6910 4.79486E-01 8.09482E+01-1.89169E-04 4.78758E-02-6.69228E-15-2.56739E-16
 -1      6911 5.82460E-01 8.06678E+01-1.19554E-04 5.05255E-02-3.29427E-15 1.17701E-14
 -1      6912 6.90353E-01 8.03835E+01-4.91951E-05 5.25661E-02-3.16393E-15-8.05085E-15
 -1      6913 8.01849E-01 8.00986E+01 2.33472E-05 5.39490E-02 1.30767E-14-3.30291E-15
 -1      6914 9.15512E-01 7.98162E+01 9.89159E-05 5.46086E-02-6.95508E-15-9.03791E-16
 -1      6915 1.02976E+00 7.95397E+01 1.77708E-04 5.44709E-02-7.51786E-16-8.69443E-15
 -1      6916 1.14284E+00 7.92726E+01 2.59256E-04 5.34634E-02-8.32450E-15 1.44641E-14
 -1      6917 1.25286E+00 7.90184E+01 3.42414E-04 5.15247E-02 5.76145E-15 1.24952E-14
 -1      6918 1.45476E+00 7.85577E+01 9.37051E-04 8.94870E-02 5.33829E-15-7.52393E-15
 -1      6919 1.44763E+00 7.85451E+01 9.29593E-04 1.79608E-01 6.08704E-15 1.19869E-14
 -1      6920 1.43548E+00 7.85242E+01 9.16664E-04 2.71023E-01-3.81650E-15-7.52523E-15
 -1      6921 1.41792E+00 7.84951E+01 8.97467E-04 3.64444E-01-1.66002E-14-7.59202E-15
 -1      6922 1.39437E+00 7.84579E+01 8.70775E-04 4.60666E-01-3.83894E-15 4.34115E-16
 -1      6923 1.36408E+00 7.84130E+01 8.34810E-04 5.60592E-01-1.50943E-15-6.53531E-14
 -1      6924 1.32611E+00 7.83606E+01 7.87060E-04 6.65269E-01-1.17684E-14-3.07913E-14
 -1      6925 1.27934E+00 7.83012E+01 7.24016E-04 7.75921E-01 2.56362E-14-5.14146E-14
 -1      6926 1.22239E+00 7.82354E+01 6.40800E-04 8.93989E-01 8.37741E-15 6.09408E-15
 -1      6927 1.15363E+00 7.81638E+01 5.30639E-04 1.02117E+00-4.18502E-15 3.60007E-14
 -1      6928 1.07114E+00 7.80876E+01 3.84132E-04 1.15946E+00 6.04174E-14-7.54106E-14
 -1      6929 9.72604E-01 7.80080E+01 1.88229E-04 1.31120E+00 4.73467E-14-8.97112E-15
 -1      6930 8.55296E-01 7.79268E+01-7.51923E-05 1.47913E+00-2.99379E-14 1.31700E-14
 -1      6931 7.15918E-01 7.78464E+01-4.31279E-04 1.66640E+00-4.37714E-14 2.10361E-14
 -1      6932 5.50480E-01 7.77700E+01-9.14884E-04 1.87660E+00-7.03751E-14-3.12467E-14
 -1      6933 3.54100E-01 7.77020E+01-1.57418E-03 2.11379E+00 4.99956E-14-1.42074E-14
 -1      6934 1.20763E-01 7.76482E+01-2.47547E-03 2.38237E+00-1.53627E-14-9.03357E-14
 -1      6935-1.56992E-01 7.76167E+01-3.70934E-03 2.68700E+00 5.69250E-15-4.07677E-14
 -1      6936-4.88448E-01 7.76187E+01-5.39814E-03 3.03225E+00-1.08599E-13 2.69645E-14
 -1      6937-8.85132E-01 7.76694E+01-7.70422E-03 3.42202E+00-9.48200E-14-5.17225E-14
 -1      6938-1.36122E+00 7.77893E+01-1.08368E-02 3.85861E+00-4.16325E-14-9.19421E-14
 -1      6939-1.93377E+00 7.80068E+01-1.50518E-02 4.34103E+00-8.42208E-15 4.08493E-14
 -1      6940-2.62248E+00 7.83599E+01-2.06363E-02 4.86230E+00-6.24969E-14-5.34295E-14
 -1      6941-3.44826E+00 7.88990E+01-2.78409E-02 5.40522E+00 1.92207E-15 5.99347E-14
 -1      6942-4.42941E+00 7.96896E+01-3.67745E-02 5.93579E+00-1.63384E-13 1.76491E-14
 -1      6943-5.57286E+00 8.08135E+01-4.69597E-02 6.39386E+00-1.61210E-13 4.77743E-14
 -1      6944-6.85748E+00 8.23649E+01-5.73007E-02 6.68104E+00-3.65558E-14 4.28546E-14
 -1      6945-8.20255E+00 8.44396E+01-6.42284E-02 6.64734E+00-1.50959E-13-5.16948E-15
 -1      6946 1.54414E+00 7.83625E+01 1.14000E-03 7.97031E-02-1.17029E-14 3.99572E-15
 -1      6947 1.53805E+00 7.83472E+01 1.14065E-03 1.60063E-01 4.34429E-15 1.61865E-14
 -1      6948 1.52769E+00 7.83216E+01 1.14164E-03 2.41763E-01-1.59453E-14-3.64075E-16
 -1      6949 1.51272E+00 7.82858E+01 1.14274E-03 3.25546E-01-9.18753E-16-5.00706E-15
 -1      6950 1.49269E+00 7.82398E+01 1.14360E-03 4.12238E-01-3.06482E-15-7.11714E-15
 -1      6951 1.46699E+00 7.81836E+01 1.14359E-03 5.02788E-01-5.14627E-15 1.55826E-14
 -1      6952 1.43485E+00 7.81171E+01 1.14173E-03 5.98301E-01 4.21152E-14 8.54308E-15
 -1      6953 1.39537E+00 7.80404E+01 1.13643E-03 7.00079E-01 7.53304E-16 3.41684E-14
 -1      6954 1.34745E+00 7.79535E+01 1.12521E-03 8.09672E-01-2.05738E-15 1.79670E-14
 -1      6955 1.28978E+00 7.78566E+01 1.10429E-03 9.28928E-01 4.05826E-14-2.70049E-14
 -1      6956 1.22082E+00 7.77499E+01 1.06788E-03 1.06006E+00-2.57771E-14 5.53507E-15
 -1      6957 1.13872E+00 7.76336E+01 1.00734E-03 1.20571E+00-1.49811E-14 1.98769E-14
 -1      6958 1.04125E+00 7.75084E+01 9.09733E-04 1.36904E+00-2.26876E-14-5.61478E-14
 -1      6959 9.25711E-01 7.73751E+01 7.55905E-04 1.55381E+00 1.91435E-14-7.36139E-14
 -1      6960 7.88750E-01 7.72351E+01 5.17603E-04 1.76450E+00-1.56123E-13-2.01436E-14
 -1      6961 6.26168E-01 7.70905E+01 1.53308E-04 2.00639E+00-3.07913E-14-1.99051E-14
 -1      6962 4.32616E-01 7.69446E+01-3.97779E-04 2.28567E+00-3.72098E-14 2.97522E-14
 -1      6963 2.01194E-01 7.68024E+01-1.22439E-03 2.60948E+00-8.74205E-14-1.07865E-14
 -1      6964-7.70932E-02 7.66712E+01-2.45549E-03 2.98596E+00 3.46789E-14-6.40443E-14
 -1      6965-4.14059E-01 7.65621E+01-4.27730E-03 3.42404E+00-8.82176E-14 7.44439E-14
 -1      6966-8.25255E-01 7.64913E+01-6.95616E-03 3.93305E+00 7.55767E-14 7.36841E-14
 -1      6967-1.33108E+00 7.64828E+01-1.08661E-02 4.52177E+00-2.58486E-13-3.88578E-15
 -1      6968-1.95794E+00 7.65718E+01-1.65199E-02 5.19653E+00-2.80314E-14-2.10630E-14
 -1      6969-2.73912E+00 7.68089E+01-2.45722E-02 5.95767E+00 2.83454E-14 3.52392E-14
 -1      6970-3.71437E+00 7.72667E+01-3.58317E-02 6.79333E+00-7.32782E-14 1.43038E-13
 -1      6971-4.92572E+00 7.80473E+01-5.08241E-02 7.66849E+00 1.57071E-14-1.78052E-14
 -1      6972-6.40664E+00 7.92878E+01-7.04343E-02 8.50796E+00-2.91247E-14 3.31610E-14
 -1      6973-8.14639E+00 8.11689E+01-8.92971E-02 9.16852E+00-1.81992E-13-3.29320E-14
 -1      6974 1.62226E+00 7.81941E+01 1.32635E-03 6.80840E-02-9.22445E-15-1.01737E-14
 -1      6975 1.61721E+00 7.81763E+01 1.33515E-03 1.36796E-01 5.90370E-15-1.47410E-14
 -1      6976 1.60863E+00 7.81465E+01 1.35010E-03 2.06790E-01 7.63690E-15-6.48093E-15
 -1      6977 1.59626E+00 7.81046E+01 1.37167E-03 2.78778E-01-1.26362E-14-2.70573E-14
 -1      6978 1.57975E+00 7.80504E+01 1.40044E-03 3.53556E-01 4.40641E-15 3.36940E-14
 -1      6979 1.55863E+00 7.79836E+01 1.43711E-03 4.32039E-01-3.31276E-14-1.31390E-14
 -1      6980 1.53235E+00 7.79040E+01 1.48245E-03 5.15300E-01 6.85303E-15-2.26895E-14
 -1      6981 1.50023E+00 7.78111E+01 1.53715E-03 6.04614E-01-1.40834E-14-5.33315E-14
 -1      6982 1.46146E+00 7.77044E+01 1.60170E-03 7.01507E-01 1.37273E-14-2.45841E-14
 -1      6983 1.41511E+00 7.75834E+01 1.67612E-03 8.07821E-01-7.02797E-14-8.74648E-15
 -1      6984 1.36007E+00 7.74474E+01 1.75952E-03 9.25782E-01 3.52929E-14 1.71824E-14
 -1      6985 1.29504E+00 7.72957E+01 1.84953E-03 1.05810E+00 1.12747E-13 2.72204E-14
 -1      6986 1.21843E+00 7.71274E+01 1.94125E-03 1.20805E+00 8.11989E-14 7.02802E-14
 -1      6987 1.12833E+00 7.69418E+01 2.02582E-03 1.37966E+00-2.44076E-14 8.29892E-15
 -1      6988 1.02231E+00 7.67380E+01 2.08805E-03 1.57780E+00-4.73181E-14 1.96137E-14
 -1      6989 8.97279E-01 7.65156E+01 2.10284E-03 1.80843E+00-3.15980E-14-1.35985E-14
 -1      6990 7.49181E-01 7.62743E+01 2.02963E-03 2.07884E+00-6.85684E-14-3.97798E-14
 -1      6991 5.72588E-01 7.60148E+01 1.80373E-03 2.39787E+00-6.06112E-15 1.65683E-14
 -1      6992 3.60116E-01 7.57392E+01 1.32294E-03 2.77631E+00 1.24310E-14 1.98817E-14
 -1      6993 1.01582E-01 7.54515E+01 4.26618E-04 3.22714E+00-5.43489E-14 4.32120E-14
 -1      6994-2.17201E-01 7.51599E+01-1.13646E-03 3.76588E+00-6.69621E-14-1.05436E-14
 -1      6995-6.16102E-01 7.48781E+01-3.75679E-03 4.41063E+00-3.62210E-14-3.08503E-14
 -1      6996-1.12298E+00 7.46294E+01-8.03787E-03 5.18172E+00 8.68576E-14-4.91204E-14
 -1      6997-1.77665E+00 7.44519E+01-1.48863E-02 6.10024E+00 5.42622E-14-1.23960E-13
 -1      6998-2.63039E+00 7.44067E+01-2.56863E-02 7.18434E+00-9.95731E-15-6.21309E-14
 -1      6999-3.75429E+00 7.45907E+01-4.20732E-02 8.44109E+00 9.18571E-14 1.28092E-14
 -1      7000-5.23589E+00 7.51510E+01-6.76019E-02 9.85040E+00 1.45647E-13 1.63966E-14
 -1      7001-7.15579E+00 7.63216E+01-9.77054E-02 1.13318E+01 5.33549E-14 1.13104E-14
 -1      7002 1.68727E+00 7.80556E+01 1.48772E-03 5.48262E-02-1.84263E-14 4.56514E-15
 -1      7003 1.68318E+00 7.80356E+01 1.50403E-03 1.10202E-01 5.69369E-15 1.26080E-14
 -1      7004 1.67622E+00 7.80021E+01 1.53191E-03 1.66700E-01 1.54284E-14 1.74841E-14
 -1      7005 1.66623E+00 7.79549E+01 1.57247E-03 2.24945E-01-2.03268E-14 1.66733E-14
 -1      7006 1.65296E+00 7.78935E+01 1.62725E-03 2.85636E-01 2.92609E-14-1.04144E-14
 -1      7007 1.63607E+00 7.78176E+01 1.69828E-03 3.49582E-01 3.23500E-14-1.24380E-15
 -1      7008 1.61520E+00 7.77264E+01 1.78811E-03 4.17735E-01 3.56850E-14-1.58285E-14
 -1      7009 1.58990E+00 7.76193E+01 1.89985E-03 4.91228E-01-4.72010E-14-1.98556E-14
 -1      7010 1.55966E+00 7.74951E+01 2.03712E-03 5.71430E-01-2.86377E-14-1.23163E-14
 -1      7011 1.52389E+00 7.73526E+01 2.20411E-03 6.60005E-01 1.59512E-14-8.39823E-15
 -1      7012 1.48196E+00 7.71904E+01 2.40545E-03 7.58985E-01 3.49738E-14-4.31981E-14
 -1      7013 1.43312E+00 7.70067E+01 2.64607E-03 8.70861E-01-1.04243E-13-6.08758E-15
 -1      7014 1.37649E+00 7.67992E+01 2.93087E-03 9.98706E-01 3.56937E-14-5.57570E-14
 -1      7015 1.31101E+00 7.65655E+01 3.26410E-03 1.14632E+00-5.68877E-14-1.83521E-14
 -1      7016 1.23537E+00 7.63026E+01 3.64825E-03 1.31843E+00 2.75743E-14-3.32082E-14
 -1      7017 1.14782E+00 7.60069E+01 4.08220E-03 1.52092E+00 5.34260E-14 3.96939E-14
 -1      7018 1.04603E+00 7.56747E+01 4.55790E-03 1.76118E+00 4.56302E-14 6.74235E-14
 -1      7019 9.26706E-01 7.53015E+01 5.05477E-03 2.04852E+00 5.60611E-14-3.49634E-14
 -1      7020 7.85134E-01 7.48830E+01 5.53008E-03 2.39470E+00-6.42975E-14-3.29511E-15
 -1      7021 6.14425E-01 7.44147E+01 5.90250E-03 2.81466E+00 1.00630E-13-5.71505E-14
 -1      7022 4.04368E-01 7.38933E+01 6.02371E-03 3.32744E+00 7.92665E-14-7.13631E-14
 -1      7023 1.39681E-01 7.33174E+01 5.62979E-03 3.95727E+00-5.79051E-14-7.69940E-14
 -1      7024-2.02656E-01 7.26903E+01 4.25724E-03 4.73487E+00 5.06782E-14-5.52336E-14
 -1      7025-6.57445E-01 7.20238E+01 1.10605E-03 5.69866E+00 6.91461E-14-1.80481E-14
 -1      7026-1.27733E+00 7.13453E+01-5.23013E-03 6.89538E+00-1.54484E-13-5.50948E-15
 -1      7027-2.14103E+00 7.07105E+01-1.68731E-02 8.37838E+00-2.29244E-13 4.44089E-16
 -1      7028-3.36554E+00 7.02213E+01-3.88569E-02 1.02006E+01 1.96093E-14-9.45563E-14
 -1      7029-5.10395E+00 7.00788E+01-6.87428E-02 1.23915E+01-6.03129E-14 8.17540E-14
 -1      7030 1.73756E+00 7.79493E+01 1.61642E-03 4.02014E-02-5.20038E-15 1.84104E-14
 -1      7031 1.73425E+00 7.79276E+01 1.63900E-03 8.08299E-02 3.47595E-16 4.32542E-15
 -1      7032 1.72865E+00 7.78912E+01 1.67770E-03 1.22332E-01 2.90797E-14 5.96409E-15
 -1      7033 1.72064E+00 7.78397E+01 1.73418E-03 1.65193E-01-8.44940E-15 1.84811E-14
 -1      7034 1.71006E+00 7.77727E+01 1.81083E-03 2.09961E-01 2.95894E-14 8.34922E-15
 -1      7035 1.69670E+00 7.76894E+01 1.91088E-03 2.57267E-01 1.10940E-14 2.05129E-14
 -1      7036 1.68035E+00 7.75889E+01 2.03849E-03 3.07858E-01 1.75780E-14 7.80574E-14
 -1      7037 1.66075E+00 7.74702E+01 2.19893E-03 3.62629E-01-7.14463E-14 5.06155E-14
 -1      7038 1.63766E+00 7.73318E+01 2.39876E-03 4.22664E-01 4.94006E-15 3.00326E-14
 -1      7039 1.61083E+00 7.71719E+01 2.64608E-03 4.89288E-01-4.03787E-14 6.15805E-14
 -1      7040 1.58000E+00 7.69883E+01 2.95080E-03 5.64128E-01 9.45979E-14 4.10514E-14
 -1      7041 1.54495E+00 7.67782E+01 3.32502E-03 6.49200E-01 9.72738E-14-6.14597E-14
 -1      7042 1.50546E+00 7.65383E+01 3.78347E-03 7.47009E-01-1.33468E-13 5.43797E-14
 -1      7043 1.46130E+00 7.62645E+01 4.34396E-03 8.60689E-01 3.70277E-14 1.09543E-14
 -1      7044 1.41221E+00 7.59517E+01 5.02792E-03 9.94185E-01-1.49099E-14 1.98734E-14
 -1      7045 1.35785E+00 7.55939E+01 5.86088E-03 1.15250E+00-6.94878E-14 2.40402E-14
 -1      7046 1.29765E+00 7.51835E+01 6.87274E-03 1.34200E+00-6.45838E-15-1.52981E-14
 -1      7047 1.23071E+00 7.47114E+01 8.09743E-03 1.57092E+00 1.23946E-14 6.61693E-14
 -1      7048 1.15542E+00 7.41667E+01 9.57127E-03 1.84990E+00-5.80196E-14 6.47997E-14
 -1      7049 1.06904E+00 7.35361E+01 1.13285E-02 2.19292E+00 1.98765E-14 8.30672E-15
 -1      7050 9.66892E-01 7.28038E+01 1.33906E-02 2.61846E+00 4.46518E-15 1.25986E-13
 -1      7051 8.41054E-01 7.19511E+01 1.57439E-02 3.15119E+00 1.41588E-14 1.31483E-13
 -1      7052 6.78222E-01 7.09568E+01 1.82933E-02 3.82433E+00-3.91145E-14 1.22426E-13
 -1      7053 4.56091E-01 6.97975E+01 2.07630E-02 4.68290E+00 6.00943E-14 1.17684E-13
 -1      7054 1.37280E-01 6.84504E+01 2.25077E-02 5.78801E+00-2.16591E-13 3.57527E-14
 -1      7055-3.40920E-01 6.68985E+01 2.22016E-02 7.22208E+00-4.07591E-14-2.00465E-14
 -1      7056-1.08431E+00 6.51407E+01 1.61761E-02 9.09393E+00 2.04489E-14-6.78554E-14
 -1      7057-2.26152E+00 6.32338E+01 5.48502E-03 1.15374E+01 5.20278E-14-9.70890E-14
 -1      7058 1.77183E+00 7.78774E+01 1.70606E-03 2.45477E-02 3.97783E-15-1.01521E-14
 -1      7059 1.76909E+00 7.78544E+01 1.73315E-03 4.93663E-02 1.83233E-14-4.71702E-14
 -1      7060 1.76446E+00 7.78160E+01 1.77964E-03 7.47388E-02-1.79258E-14-2.80539E-14
 -1      7061 1.75786E+00 7.77615E+01 1.84759E-03 1.00974E-01-2.70387E-14-1.32154E-14
 -1      7062 1.74921E+00 7.76905E+01 1.94005E-03 1.28419E-01-2.17716E-14 1.63002E-14
 -1      7063 1.73838E+00 7.76020E+01 2.06111E-03 1.57477E-01 9.70227E-14-1.65528E-14
 -1      7064 1.72527E+00 7.74951E+01 2.21617E-03 1.88624E-01-3.60853E-14-5.41014E-14
 -1      7065 1.70978E+00 7.73683E+01 2.41217E-03 2.22433E-01 4.46275E-14-1.34428E-14
 -1      7066 1.69186E+00 7.72199E+01 2.65791E-03 2.59599E-01 7.54128E-14-2.46690E-14
 -1      7067 1.67148E+00 7.70476E+01 2.96452E-03 3.00977E-01 1.84236E-14-8.10684E-14
 -1      7068 1.64871E+00 7.68488E+01 3.34609E-03 3.47619E-01 3.66608E-14-2.16097E-14
 -1      7069 1.62371E+00 7.66199E+01 3.82046E-03 4.00835E-01-5.11466E-14 1.94948E-14
 -1      7070 1.59677E+00 7.63568E+01 4.41029E-03 4.62265E-01 2.91295E-14-3.47561E-14
 -1      7071 1.56831E+00 7.60541E+01 5.14463E-03 5.33974E-01-6.06633E-14 1.54952E-14
 -1      7072 1.53892E+00 7.57054E+01 6.06085E-03 6.18584E-01-5.38181E-14-7.82458E-14
 -1      7073 1.50939E+00 7.53022E+01 7.20750E-03 7.19446E-01 4.46136E-14-3.94732E-14
 -1      7074 1.48065E+00 7.48345E+01 8.64808E-03 8.40892E-01 1.38865E-14 4.97762E-14
 -1      7075 1.45379E+00 7.42892E+01 1.04664E-02 9.88567E-01 5.39499E-15 3.37386E-14
 -1      7076 1.42999E+00 7.36500E+01 1.27740E-02 1.16992E+00 9.56596E-14-1.95937E-14
 -1      7077 1.41031E+00 7.28963E+01 1.57199E-02 1.39489E+00-1.02158E-13-1.26972E-13
 -1      7078 1.39538E+00 7.20017E+01 1.95044E-02 1.67694E+00 9.47124E-14-8.05927E-14
 -1      7079 1.38484E+00 7.09322E+01 2.43963E-02 2.03452E+00-4.94049E-14-1.25643E-13
 -1      7080 1.37612E+00 6.96439E+01 3.07550E-02 2.49331E+00-6.98330E-14-5.38181E-14
 -1      7081 1.36238E+00 6.80798E+01 3.90382E-02 3.08961E+00 1.02765E-13-7.62758E-14
 -1      7082 1.32840E+00 6.61654E+01 4.98438E-02 3.87540E+00-2.97817E-14 2.04350E-15
 -1      7083 1.24246E+00 6.38034E+01 6.36910E-02 4.92594E+00 1.65798E-13-4.36040E-14
 -1      7084 1.04113E+00 6.08672E+01 8.09611E-02 6.35092E+00-1.59026E-13 9.18640E-14
 -1      7085 5.98276E-01 5.72054E+01 1.03672E-01 8.30821E+00-1.03237E-13 2.07820E-14
 -1      7086 1.78920E+00 7.78410E+01 1.75208E-03 8.25484E-03-8.19147E-15 2.28420E-15
 -1      7087 1.78675E+00 7.78175E+01 1.78152E-03 1.66024E-02 4.83272E-15 3.79100E-14
 -1      7088 1.78262E+00 7.77780E+01 1.83208E-03 2.51398E-02-2.45721E-14-9.50436E-15
 -1      7089 1.77677E+00 7.77220E+01 1.90604E-03 3.39727E-02 1.60095E-14 1.75845E-14
 -1      7090 1.76912E+00 7.76489E+01 2.00678E-03 4.32203E-02 4.34982E-16-2.06833E-14
 -1      7091 1.75961E+00 7.75578E+01 2.13888E-03 5.30209E-02-2.41153E-14-8.05164E-15
 -1      7092 1.74820E+00 7.74475E+01 2.30839E-03 6.35383E-02-7.48880E-15 1.04017E-14
 -1      7093 1.73486E+00 7.73166E+01 2.52315E-03 7.49694E-02 2.87652E-14-1.06015E-14
 -1      7094 1.71963E+00 7.71629E+01 2.79318E-03 8.75540E-02 5.77923E-15 8.28607E-15
 -1      7095 1.70264E+00 7.69843E+01 3.13129E-03 1.01587E-01 1.37815E-14 2.19756E-14
 -1      7096 1.68411E+00 7.67775E+01 3.55385E-03 1.17432E-01 1.81495E-14 2.67925E-14
 -1      7097 1.66441E+00 7.65389E+01 4.08188E-03 1.35544E-01-2.61570E-14 7.34053E-14
 -1      7098 1.64410E+00 7.62637E+01 4.74252E-03 1.56494E-01 7.14429E-14 2.99684E-14
 -1      7099 1.62396E+00 7.59460E+01 5.57114E-03 1.81002E-01 2.75786E-14-6.45924E-15
 -1      7100 1.60508E+00 7.55783E+01 6.61426E-03 2.09988E-01 2.37761E-14 1.11261E-13
 -1      7101 1.58883E+00 7.51513E+01 7.93372E-03 2.44631E-01 1.53280E-14 9.18005E-14
 -1      7102 1.57703E+00 7.46531E+01 9.61284E-03 2.86466E-01 7.79758E-14 7.86210E-14
 -1      7103 1.57193E+00 7.40688E+01 1.17653E-02 3.37505E-01 9.49726E-14-6.43611E-14
 -1      7104 1.57630E+00 7.33790E+01 1.45482E-02 4.00422E-01 3.93765E-14 3.84551E-14
 -1      7105 1.59350E+00 7.25588E+01 1.81826E-02 4.78820E-01 6.00388E-14 1.83617E-13
 -1      7106 1.62742E+00 7.15757E+01 2.29835E-02 5.77626E-01 2.29296E-14 1.05385E-13
 -1      7107 1.68243E+00 7.03868E+01 2.94069E-02 7.03681E-01 6.43478E-14 9.46617E-14
 -1      7108 1.76303E+00 6.89346E+01 3.81264E-02 8.66658E-01 1.51192E-13 7.17152E-14
 -1      7109 1.87293E+00 6.71411E+01 5.01342E-02 1.08048E+00 6.00214E-14 1.25767E-14
 -1      7110 2.01304E+00 6.48992E+01 6.69877E-02 1.36556E+00 3.02258E-14 1.34243E-13
 -1      7111 2.17623E+00 6.20582E+01 9.07894E-02 1.75237E+00 4.36248E-14 1.26061E-13
 -1      7112 2.33709E+00 5.84044E+01 1.25612E-01 2.28708E+00-2.03587E-13 2.64927E-14
 -1      7113 2.41931E+00 5.36309E+01 1.75413E-01 3.04002E+00-1.06734E-13-9.17183E-14
 -1      7114 1.78920E+00 7.78410E+01 1.75208E-03-8.25484E-03 2.82418E-15 3.37461E-15
 -1      7115 1.78675E+00 7.78175E+01 1.78152E-03-1.66024E-02-1.26396E-14-4.30566E-15
 -1      7116 1.78262E+00 7.77780E+01 1.83208E-03-2.51398E-02 2.34545E-14-2.35107E-14
 -1      7117 1.77677E+00 7.77220E+01 1.90604E-03-3.39727E-02-2.92451E-14-2.24980E-14
 -1      7118 1.76912E+00 7.76489E+01 2.00678E-03-4.32203E-02 2.16428E-14 1.80707E-15
 -1      7119 1.75961E+00 7.75578E+01 2.13888E-03-5.30209E-02-6.82137E-15 2.00425E-14
 -1      7120 1.74820E+00 7.74475E+01 2.30839E-03-6.35383E-02-4.35082E-14 3.65823E-15
 -1      7121 1.73486E+00 7.73166E+01 2.52315E-03-7.49694E-02-1.14969E-14 3.25907E-14
 -1      7122 1.71963E+00 7.71629E+01 2.79318E-03-8.75540E-02 5.16319E-14 3.32030E-14
 -1      7123 1.70264E+00 7.69843E+01 3.13129E-03-1.01587E-01 1.26756E-14-4.24921E-14
 -1      7124 1.68411E+00 7.67775E+01 3.55385E-03-1.17432E-01-7.42089E-14-4.04157E-14
 -1      7125 1.66441E+00 7.65389E+01 4.08188E-03-1.35544E-01 1.01282E-14-5.22424E-14
 -1      7126 1.64410E+00 7.62637E+01 4.74252E-03-1.56494E-01-1.06868E-13-5.55220E-16
 -1      7127 1.62396E+00 7.59460E+01 5.57114E-03-1.81002E-01 1.46940E-14-3.17577E-14
 -1      7128 1.60508E+00 7.55783E+01 6.61426E-03-2.09988E-01-3.41810E-14 8.06863E-15
 -1      7129 1.58883E+00 7.51513E+01 7.93372E-03-2.44631E-01-1.13451E-13-8.55638E-14
 -1      7130 1.57703E+00 7.46531E+01 9.61284E-03-2.86466E-01 1.12044E-13-9.92823E-14
 -1      7131 1.57193E+00 7.40688E+01 1.17653E-02-3.37505E-01-1.50260E-13 6.52928E-14
 -1      7132 1.57630E+00 7.33790E+01 1.45482E-02-4.00422E-01-6.00162E-14 3.03997E-14
 -1      7133 1.59350E+00 7.25588E+01 1.81826E-02-4.78820E-01-4.19630E-14-6.71620E-14
 -1      7134 1.62742E+00 7.15757E+01 2.29835E-02-5.77626E-01-8.21357E-14-4.89782E-14
 -1      7135 1.68243E+00 7.03868E+01 2.94069E-02-7.03681E-01 1.45127E-14-1.08793E-14
 -1      7136 1.76303E+00 6.89346E+01 3.81264E-02-8.66658E-01 9.16454E-14 1.52586E-14
 -1      7137 1.87293E+00 6.71411E+01 5.01342E-02-1.08048E+00-2.00805E-13 2.53408E-14
 -1      7138 2.01304E+00 6.48992E+01 6.69877E-02-1.36556E+00 9.03652E-14-9.16290E-14
 -1      7139 2.17623E+00 6.20582E+01 9.07894E-02-1.75237E+00-2.06710E-14-5.73395E-14
 -1      7140 2.33709E+00 5.84044E+01 1.25612E-01-2.28708E+00-4.25909E-14-7.01540E-14
 -1      7141 2.41931E+00 5.36309E+01 1.75413E-01-3.04002E+00-2.64372E-14 6.95624E-14
 -1      7142 1.77183E+00 7.78774E+01 1.70606E-03-2.45477E-02-1.07629E-15-6.69300E-15
 -1      7143 1.76909E+00 7.78544E+01 1.73315E-03-4.93663E-02 1.78348E-14 1.09126E-14
 -1      7144 1.76446E+00 7.78160E+01 1.77964E-03-7.47388E-02-1.63140E-14-2.10484E-14
 -1      7145 1.75786E+00 7.77615E+01 1.84759E-03-1.00974E-01-2.80015E-14 9.60939E-15
 -1      7146 1.74921E+00 7.76905E+01 1.94005E-03-1.28419E-01 1.70562E-14-2.57837E-14
 -1      7147 1.73838E+00 7.76020E+01 2.06111E-03-1.57477E-01 5.87993E-14 4.13736E-14
 -1      7148 1.72527E+00 7.74951E+01 2.21617E-03-1.88624E-01 1.52539E-14-1.64135E-14
 -1      7149 1.70978E+00 7.73683E+01 2.41217E-03-2.22433E-01 9.61210E-15-3.01104E-14
 -1      7150 1.69186E+00 7.72199E+01 2.65791E-03-2.59599E-01 4.95038E-14-2.87641E-14
 -1      7151 1.67148E+00 7.70476E+01 2.96452E-03-3.00977E-01-1.91956E-14 4.39763E-15
 -1      7152 1.64871E+00 7.68488E+01 3.34609E-03-3.47619E-01-2.82135E-14-2.68589E-14
 -1      7153 1.62371E+00 7.66199E+01 3.82046E-03-4.00835E-01 2.01427E-14-4.73102E-15
 -1      7154 1.59677E+00 7.63568E+01 4.41029E-03-4.62265E-01 1.69847E-14 1.47471E-14
 -1      7155 1.56831E+00 7.60541E+01 5.14463E-03-5.33974E-01 3.01538E-14 2.04216E-14
 -1      7156 1.53892E+00 7.57054E+01 6.06085E-03-6.18584E-01-1.89085E-14 4.41583E-14
 -1      7157 1.50939E+00 7.53022E+01 7.20750E-03-7.19446E-01-1.47625E-14 4.33980E-14
 -1      7158 1.48065E+00 7.48345E+01 8.64808E-03-8.40892E-01 9.53508E-14-2.40294E-14
 -1      7159 1.45379E+00 7.42892E+01 1.04664E-02-9.88567E-01-6.25611E-14-2.47116E-14
 -1      7160 1.42999E+00 7.36500E+01 1.27740E-02-1.16992E+00-3.33362E-14-1.05089E-13
 -1      7161 1.41031E+00 7.28963E+01 1.57199E-02-1.39489E+00-4.66502E-14 9.16151E-14
 -1      7162 1.39538E+00 7.20017E+01 1.95044E-02-1.67694E+00-4.59320E-14-7.14914E-14
 -1      7163 1.38484E+00 7.09322E+01 2.43963E-02-2.03452E+00 3.23665E-14-4.96912E-14
 -1      7164 1.37612E+00 6.96439E+01 3.07550E-02-2.49331E+00 1.15487E-13-3.82108E-14
 -1      7165 1.36238E+00 6.80798E+01 3.90382E-02-3.08961E+00-2.05287E-13-1.21370E-13
 -1      7166 1.32840E+00 6.61654E+01 4.98438E-02-3.87540E+00-2.50057E-13-2.25896E-14
 -1      7167 1.24246E+00 6.38034E+01 6.36910E-02-4.92594E+00-1.68775E-13-6.75501E-15
 -1      7168 1.04113E+00 6.08672E+01 8.09611E-02-6.35092E+00-4.81837E-14-4.01831E-14
 -1      7169 5.98276E-01 5.72054E+01 1.03672E-01-8.30821E+00-1.11980E-13-1.16566E-13
 -1      7170 1.73756E+00 7.79493E+01 1.61642E-03-4.02014E-02 2.88045E-15 3.29597E-15
 -1      7171 1.73425E+00 7.79276E+01 1.63900E-03-8.08299E-02-8.62472E-15-8.97329E-15
 -1      7172 1.72865E+00 7.78912E+01 1.67770E-03-1.22332E-01 2.74392E-14-7.30546E-15
 -1      7173 1.72064E+00 7.78397E+01 1.73418E-03-1.65193E-01-6.82332E-15-1.67076E-16
 -1      7174 1.71006E+00 7.77727E+01 1.81083E-03-2.09961E-01-2.06681E-14-2.46871E-14
 -1      7175 1.69670E+00 7.76894E+01 1.91088E-03-2.57267E-01 1.09118E-14-7.65011E-14
 -1      7176 1.68035E+00 7.75889E+01 2.03849E-03-3.07858E-01-3.18283E-14 1.95712E-14
 -1      7177 1.66075E+00 7.74702E+01 2.19893E-03-3.62629E-01 3.26323E-14 2.07182E-14
 -1      7178 1.63766E+00 7.73318E+01 2.39876E-03-4.22664E-01-6.91027E-15 1.53341E-14
 -1      7179 1.61083E+00 7.71719E+01 2.64608E-03-4.89288E-01-8.39359E-14 1.64868E-14
 -1      7180 1.58000E+00 7.69883E+01 2.95080E-03-5.64128E-01 1.06373E-14 4.88550E-14
 -1      7181 1.54495E+00 7.67782E+01 3.32502E-03-6.49200E-01-4.80345E-15-2.29385E-14
 -1      7182 1.50546E+00 7.65383E+01 3.78347E-03-7.47009E-01 6.38725E-15-3.82858E-14
 -1      7183 1.46130E+00 7.62645E+01 4.34396E-03-8.60689E-01 5.45362E-14 2.89235E-14
 -1      7184 1.41221E+00 7.59517E+01 5.02792E-03-9.94185E-01 6.59204E-14-1.24158E-13
 -1      7185 1.35785E+00 7.55939E+01 5.86088E-03-1.15250E+00-1.08283E-13-4.50594E-15
 -1      7186 1.29765E+00 7.51835E+01 6.87274E-03-1.34200E+00 2.66020E-14 8.41644E-15
 -1      7187 1.23071E+00 7.47114E+01 8.09743E-03-1.57092E+00 1.64563E-13 2.31959E-14
 -1      7188 1.15542E+00 7.41667E+01 9.57127E-03-1.84990E+00-3.99871E-14 1.44069E-15
 -1      7189 1.06904E+00 7.35361E+01 1.13285E-02-2.19292E+00 9.47367E-14-3.55957E-14
 -1      7190 9.66892E-01 7.28038E+01 1.33906E-02-2.61846E+00 1.03043E-14 3.43666E-14
 -1      7191 8.41054E-01 7.19511E+01 1.57439E-02-3.15119E+00-1.22714E-14 1.15168E-14
 -1      7192 6.78222E-01 7.09568E+01 1.82933E-02-3.82433E+00-1.12133E-13 5.37678E-14
 -1      7193 4.56091E-01 6.97975E+01 2.07630E-02-4.68290E+00-1.04305E-13 8.67015E-14
 -1      7194 1.37280E-01 6.84504E+01 2.25077E-02-5.78801E+00 2.52506E-14-3.07809E-14
 -1      7195-3.40920E-01 6.68985E+01 2.22016E-02-7.22208E+00-4.12864E-15 1.07969E-14
 -1      7196-1.08431E+00 6.51407E+01 1.61761E-02-9.09393E+00-1.21431E-13 2.26277E-14
 -1      7197-2.26152E+00 6.32338E+01 5.48502E-03-1.15374E+01 7.82152E-14 3.63737E-14
 -1      7198 1.68727E+00 7.80556E+01 1.48772E-03-5.48262E-02 1.02994E-14 1.32698E-14
 -1      7199 1.68318E+00 7.80356E+01 1.50403E-03-1.10202E-01 5.23670E-15 6.52386E-15
 -1      7200 1.67622E+00 7.80021E+01 1.53191E-03-1.66700E-01 1.56275E-14-1.50839E-14
 -1      7201 1.66623E+00 7.79549E+01 1.57247E-03-2.24945E-01-3.38677E-14 1.80884E-14
 -1      7202 1.65296E+00 7.78935E+01 1.62725E-03-2.85636E-01-1.89842E-14-2.03511E-14
 -1      7203 1.63607E+00 7.78176E+01 1.69828E-03-3.49582E-01 1.09363E-14-1.23298E-14
 -1      7204 1.61520E+00 7.77264E+01 1.78811E-03-4.17735E-01 5.64796E-14 4.30211E-15
 -1      7205 1.58990E+00 7.76193E+01 1.89985E-03-4.91228E-01 1.40144E-14-3.34173E-15
 -1      7206 1.55966E+00 7.74951E+01 2.03712E-03-5.71430E-01-2.68748E-14 4.28847E-14
 -1      7207 1.52389E+00 7.73526E+01 2.20411E-03-6.60005E-01-3.13955E-14-6.06199E-15
 -1      7208 1.48196E+00 7.71904E+01 2.40545E-03-7.58985E-01-9.03470E-14-1.86426E-14
 -1      7209 1.43312E+00 7.70067E+01 2.64607E-03-8.70861E-01 1.94671E-14 1.79583E-14
 -1      7210 1.37649E+00 7.67992E+01 2.93087E-03-9.98706E-01-4.90346E-14-3.25139E-14
 -1      7211 1.31101E+00 7.65655E+01 3.26410E-03-1.14632E+00-5.59899E-14-1.67839E-14
 -1      7212 1.23537E+00 7.63026E+01 3.64825E-03-1.31843E+00-1.11126E-14 7.32517E-14
 -1      7213 1.14782E+00 7.60069E+01 4.08220E-03-1.52092E+00 8.35946E-14-3.13126E-14
 -1      7214 1.04603E+00 7.56747E+01 4.55790E-03-1.76118E+00 6.82145E-14-3.45349E-14
 -1      7215 9.26706E-01 7.53015E+01 5.05477E-03-2.04852E+00 4.72868E-14 2.06788E-14
 -1      7216 7.85134E-01 7.48830E+01 5.53008E-03-2.39470E+00 8.63389E-14-1.82606E-14
 -1      7217 6.14425E-01 7.44147E+01 5.90250E-03-2.81466E+00-7.18783E-14-9.56752E-14
 -1      7218 4.04368E-01 7.38933E+01 6.02371E-03-3.32744E+00-8.26370E-14-4.33317E-14
 -1      7219 1.39681E-01 7.33174E+01 5.62979E-03-3.95727E+00-4.47836E-14 3.14228E-14
 -1      7220-2.02656E-01 7.26903E+01 4.25724E-03-4.73487E+00 6.51597E-14-4.61298E-14
 -1      7221-6.57445E-01 7.20238E+01 1.10605E-03-5.69866E+00 5.45050E-15 3.72306E-14
 -1      7222-1.27733E+00 7.13453E+01-5.23013E-03-6.89538E+00-6.10137E-14 2.70686E-14
 -1      7223-2.14103E+00 7.07105E+01-1.68731E-02-8.37838E+00 2.51264E-13-7.16788E-14
 -1      7224-3.36554E+00 7.02213E+01-3.88569E-02-1.02006E+01-1.07796E-13-6.41570E-14
 -1      7225-5.10395E+00 7.00788E+01-6.87428E-02-1.23915E+01 9.18710E-15 4.75731E-14
 -1      7226 1.62226E+00 7.81941E+01 1.32635E-03-6.80840E-02-7.66233E-15 2.70667E-14
 -1      7227 1.61721E+00 7.81763E+01 1.33515E-03-1.36796E-01 2.12590E-15 1.11625E-14
 -1      7228 1.60863E+00 7.81465E+01 1.35010E-03-2.06790E-01-9.88142E-15-9.80119E-15
 -1      7229 1.59626E+00 7.81046E+01 1.37167E-03-2.78778E-01-3.30857E-14-1.71339E-14
 -1      7230 1.57975E+00 7.80504E+01 1.40044E-03-3.53556E-01 1.91732E-14-1.03841E-14
 -1      7231 1.55863E+00 7.79836E+01 1.43711E-03-4.32039E-01-8.10918E-15 5.63403E-14
 -1      7232 1.53235E+00 7.79040E+01 1.48245E-03-5.15300E-01-1.63554E-14-1.28994E-14
 -1      7233 1.50023E+00 7.78111E+01 1.53715E-03-6.04614E-01 1.31631E-14-5.08716E-14
 -1      7234 1.46146E+00 7.77044E+01 1.60170E-03-7.01507E-01-6.56159E-15 4.01510E-14
 -1      7235 1.41511E+00 7.75834E+01 1.67612E-03-8.07821E-01-4.35498E-14 3.92364E-14
 -1      7236 1.36007E+00 7.74474E+01 1.75952E-03-9.25782E-01 2.84365E-14 1.01737E-14
 -1      7237 1.29504E+00 7.72957E+01 1.84953E-03-1.05810E+00 5.24667E-15-5.00992E-14
 -1      7238 1.21843E+00 7.71274E+01 1.94125E-03-1.20805E+00-3.14046E-14 1.00932E-13
 -1      7239 1.12833E+00 7.69418E+01 2.02582E-03-1.37966E+00 1.34181E-15 4.68115E-15
 -1      7240 1.02231E+00 7.67380E+01 2.08805E-03-1.57780E+00 1.96579E-14 7.73340E-15
 -1      7241 8.97279E-01 7.65156E+01 2.10284E-03-1.80843E+00-2.03075E-14-1.11126E-14
 -1      7242 7.49181E-01 7.62743E+01 2.02963E-03-2.07884E+00-1.06685E-15 4.28824E-15
 -1      7243 5.72588E-01 7.60148E+01 1.80373E-03-2.39787E+00-1.11307E-13 6.26235E-15
 -1      7244 3.60116E-01 7.57392E+01 1.32294E-03-2.77631E+00 3.99940E-14 5.08725E-14
 -1      7245 1.01582E-01 7.54515E+01 4.26618E-04-3.22714E+00-7.45619E-14 5.48190E-14
 -1      7246-2.17201E-01 7.51599E+01-1.13646E-03-3.76588E+00-1.14839E-14 8.17662E-14
 -1      7247-6.16102E-01 7.48781E+01-3.75679E-03-4.41063E+00-1.13206E-13-5.00294E-15
 -1      7248-1.12298E+00 7.46294E+01-8.03787E-03-5.18172E+00-4.01814E-14 4.80969E-14
 -1      7249-1.77665E+00 7.44519E+01-1.48863E-02-6.10024E+00-2.88141E-13 3.23110E-14
 -1      7250-2.63039E+00 7.44067E+01-2.56863E-02-7.18434E+00-3.34351E-14 9.69225E-14
 -1      7251-3.75429E+00 7.45907E+01-4.20732E-02-8.44109E+00 3.97946E-15 7.74519E-14
 -1      7252-5.23589E+00 7.51510E+01-6.76019E-02-9.85040E+00 5.64982E-14 1.44280E-13
 -1      7253-7.15579E+00 7.63216E+01-9.77054E-02-1.13318E+01-5.74540E-14 7.32192E-14
 -1      7254 1.54414E+00 7.83625E+01 1.14000E-03-7.97031E-02-3.04121E-14 1.27314E-14
 -1      7255 1.53805E+00 7.83472E+01 1.14065E-03-1.60063E-01 2.70348E-14 3.04691E-14
 -1      7256 1.52769E+00 7.83216E+01 1.14164E-03-2.41763E-01-2.33754E-16 4.60209E-14
 -1      7257 1.51272E+00 7.82858E+01 1.14274E-03-3.25546E-01-2.38874E-14-3.66018E-14
 -1      7258 1.49269E+00 7.82398E+01 1.14360E-03-4.12238E-01 3.81702E-14 2.96941E-14
 -1      7259 1.46699E+00 7.81836E+01 1.14359E-03-5.02788E-01-1.63686E-14-1.60839E-14
 -1      7260 1.43485E+00 7.81171E+01 1.14173E-03-5.98301E-01 3.26748E-14-9.78471E-15
 -1      7261 1.39537E+00 7.80404E+01 1.13643E-03-7.00079E-01 1.81430E-14-1.35551E-14
 -1      7262 1.34745E+00 7.79535E+01 1.12521E-03-8.09672E-01 8.35907E-14-3.16110E-15
 -1      7263 1.28978E+00 7.78566E+01 1.10429E-03-9.28928E-01-2.26668E-14 3.91575E-14
 -1      7264 1.22082E+00 7.77499E+01 1.06788E-03-1.06006E+00 7.15734E-14-5.33861E-16
 -1      7265 1.13872E+00 7.76336E+01 1.00734E-03-1.20571E+00 5.25881E-15 8.11972E-14
 -1      7266 1.04125E+00 7.75084E+01 9.09733E-04-1.36904E+00 9.51626E-14-8.44932E-14
 -1      7267 9.25711E-01 7.73751E+01 7.55905E-04-1.55381E+00 9.90093E-15 6.02296E-15
 -1      7268 7.88750E-01 7.72351E+01 5.17603E-04-1.76450E+00 1.97455E-14-6.66047E-14
 -1      7269 6.26168E-01 7.70905E+01 1.53308E-04-2.00639E+00-2.09598E-14 1.77740E-14
 -1      7270 4.32616E-01 7.69446E+01-3.97779E-04-2.28567E+00-4.40229E-14 3.60727E-14
 -1      7271 2.01194E-01 7.68024E+01-1.22439E-03-2.60948E+00 5.86510E-14-8.29180E-14
 -1      7272-7.70932E-02 7.66712E+01-2.45549E-03-2.98596E+00-3.41602E-14-2.01662E-14
 -1      7273-4.14059E-01 7.65621E+01-4.27730E-03-3.42404E+00 8.46285E-14 5.33740E-14
 -1      7274-8.25255E-01 7.64913E+01-6.95616E-03-3.93305E+00 1.43729E-13-4.88620E-14
 -1      7275-1.33108E+00 7.64828E+01-1.08661E-02-4.52177E+00-5.50202E-14 2.19824E-14
 -1      7276-1.95794E+00 7.65718E+01-1.65199E-02-5.19653E+00-1.01606E-13-2.94799E-14
 -1      7277-2.73912E+00 7.68089E+01-2.45722E-02-5.95767E+00 8.88387E-14-7.52280E-14
 -1      7278-3.71437E+00 7.72667E+01-3.58317E-02-6.79333E+00-2.27873E-14-1.30292E-13
 -1      7279-4.92572E+00 7.80473E+01-5.08241E-02-7.66849E+00 2.40331E-13-2.08278E-13
 -1      7280-6.40664E+00 7.92878E+01-7.04343E-02-8.50796E+00-1.03039E-14-1.79197E-13
 -1      7281-8.14639E+00 8.11689E+01-8.92971E-02-9.16852E+00-1.52916E-14-8.01859E-14
 -1      7282 1.45476E+00 7.85577E+01 9.37051E-04-8.94870E-02 1.33494E-14 2.76988E-14
 -1      7283 1.44763E+00 7.85451E+01 9.29593E-04-1.79608E-01-5.95574E-15 1.25425E-14
 -1      7284 1.43548E+00 7.85242E+01 9.16664E-04-2.71023E-01 2.00864E-14 3.32330E-14
 -1      7285 1.41792E+00 7.84951E+01 8.97467E-04-3.64444E-01-3.67532E-14-1.83742E-14
 -1      7286 1.39437E+00 7.84579E+01 8.70775E-04-4.60666E-01 1.34476E-14 2.66805E-14
 -1      7287 1.36408E+00 7.84130E+01 8.34810E-04-5.60592E-01-7.41876E-15 7.86263E-16
 -1      7288 1.32611E+00 7.83606E+01 7.87060E-04-6.65269E-01-3.97033E-14 5.55406E-14
 -1      7289 1.27934E+00 7.83012E+01 7.24016E-04-7.75921E-01 1.74557E-14 1.51901E-14
 -1      7290 1.22239E+00 7.82354E+01 6.40800E-04-8.93989E-01 2.83671E-14-2.38806E-14
 -1      7291 1.15363E+00 7.81638E+01 5.30639E-04-1.02117E+00 3.46945E-17 1.51225E-14
 -1      7292 1.07114E+00 7.80876E+01 3.84132E-04-1.15946E+00 3.54122E-14-3.56186E-14
 -1      7293 9.72604E-01 7.80080E+01 1.88229E-04-1.31120E+00-2.50616E-14 2.50798E-14
 -1      7294 8.55296E-01 7.79268E+01-7.51923E-05-1.47913E+00 1.80030E-14-3.72497E-14
 -1      7295 7.15918E-01 7.78464E+01-4.31279E-04-1.66640E+00-1.39916E-13-4.72877E-14
 -1      7296 5.50480E-01 7.77700E+01-9.14884E-04-1.87660E+00-7.24403E-14-7.01522E-15
 -1      7297 3.54100E-01 7.77020E+01-1.57418E-03-2.11379E+00-8.43535E-14 3.03143E-14
 -1      7298 1.20763E-01 7.76482E+01-2.47547E-03-2.38237E+00 4.13237E-14-5.56959E-14
 -1      7299-1.56992E-01 7.76167E+01-3.70934E-03-2.68700E+00-1.26520E-13-3.43545E-14
 -1      7300-4.88448E-01 7.76187E+01-5.39814E-03-3.03225E+00 9.69103E-15-3.83894E-15
 -1      7301-8.85132E-01 7.76694E+01-7.70422E-03-3.42202E+00 6.15497E-14-1.48544E-14
 -1      7302-1.36122E+00 7.77893E+01-1.08368E-02-3.85861E+00 7.83488E-15 1.06443E-14
 -1      7303-1.93377E+00 7.80068E+01-1.50518E-02-4.34103E+00-8.04374E-14 6.06980E-14
 -1      7304-2.62248E+00 7.83599E+01-2.06363E-02-4.86230E+00-6.51614E-14-4.26846E-14
 -1      7305-3.44826E+00 7.88990E+01-2.78409E-02-5.40522E+00 1.55796E-14-2.10283E-14
 -1      7306-4.42941E+00 7.96896E+01-3.67745E-02-5.93579E+00-1.00325E-13 1.72501E-14
 -1      7307-5.57286E+00 8.08135E+01-4.69597E-02-6.39386E+00 2.30345E-14 1.73722E-13
 -1      7308-6.85748E+00 8.23649E+01-5.73007E-02-6.68104E+00-1.16331E-13 1.12292E-13
 -1      7309-8.20255E+00 8.44396E+01-6.42284E-02-6.64734E+00 1.12375E-14 7.67164E-14
 -1      7310 1.40411E+00 7.86658E+01-5.61616E-05 9.34672E-02 8.51272E-15-1.13824E-14
 -1      7311 1.45609E+00 7.85621E+01 5.11284E-04 4.46979E-02-1.13231E-14 2.06692E-15
 -1      7312 1.39650E+00 7.86546E+01-6.16012E-05 1.87534E-01-3.46207E-15 3.35756E-15
 -1      7313 1.45138E+00 7.85537E+01 5.12081E-04 1.34410E-01 1.77829E-14-7.97105E-16
 -1      7314 1.38353E+00 7.86361E+01-7.07710E-05 2.82825E-01-1.57240E-14-3.23162E-14
 -1      7315 1.44179E+00 7.85370E+01 5.13582E-04 2.25081E-01 1.21795E-14 1.28647E-14
 -1      7316 1.36477E+00 7.86104E+01-8.38354E-05 3.80014E-01 3.13031E-15-9.75175E-15
 -1      7317 1.42702E+00 7.85120E+01 5.15587E-04 3.17397E-01-1.79969E-14-6.11663E-15
 -1      7318 1.33960E+00 7.85779E+01-1.01043E-04 4.79847E-01 3.73456E-14 2.19408E-14
 -1      7319 1.40657E+00 7.84789E+01 5.17777E-04 4.12106E-01-1.11786E-14-8.61550E-15
 -1      7320 1.30722E+00 7.85388E+01-1.22746E-04 5.83174E-01-4.18962E-14-3.81232E-14
 -1      7321 1.37979E+00 7.84379E+01 5.19674E-04 5.10055E-01 2.27951E-14-2.74824E-14
 -1      7322 1.26661E+00 7.84936E+01-1.49431E-04 6.90975E-01-1.37876E-14-7.19910E-15
 -1      7323 1.34584E+00 7.83893E+01 5.20600E-04 6.12215E-01-4.62824E-15-4.54289E-14
 -1      7324 1.21655E+00 7.84431E+01-1.81759E-04 8.04390E-01-8.67362E-16-3.90746E-14
 -1      7325 1.30368E+00 7.83335E+01 5.19599E-04 7.19718E-01 1.36263E-14-4.85046E-14
 -1      7326 1.15557E+00 7.83879E+01-2.20621E-04 9.24752E-01-3.62549E-14-2.91434E-15
 -1      7327 1.25208E+00 7.82709E+01 5.15341E-04 8.33890E-01-3.06742E-14-3.07428E-14
 -1      7328 1.08191E+00 7.83292E+01-2.67209E-04 1.05362E+00 1.10086E-14 5.30079E-14
 -1      7329 1.18954E+00 7.82024E+01 5.05969E-04 9.56294E-01-1.71980E-14 2.54102E-14
 -1      7330 9.93517E-01 7.82684E+01-3.23119E-04 1.19280E+00-7.11757E-14-2.54900E-14
 -1      7331 1.11429E+00 7.81286E+01 4.88896E-04 1.08877E+00-3.36727E-14-2.74954E-15
 -1      7332 8.87939E-01 7.82071E+01-3.90467E-04 1.34441E+00-1.88495E-14 7.72021E-14
 -1      7333 1.02423E+00 7.80509E+01 4.60506E-04 1.23348E+00 5.32560E-15-5.71522E-14
 -1      7334 7.62294E-01 7.81478E+01-4.72052E-04 1.51084E+00-9.22162E-14 1.11872E-14
 -1      7335 9.16880E-01 7.79708E+01 4.15735E-04 1.39295E+00-1.10086E-14 1.28526E-14
 -1      7336 6.13150E-01 7.80934E+01-5.71533E-04 1.69482E+00 2.94799E-14 3.46459E-14
 -1      7337 7.89239E-01 7.78903E+01 3.47483E-04 1.57012E+00-2.00326E-14 1.16799E-14
 -1      7338 4.36409E-01 7.80480E+01-6.93638E-04 1.89937E+00 3.90243E-14-3.30361E-14
 -1      7339 6.37708E-01 7.78123E+01 2.45771E-04 1.76834E+00 7.79446E-14-9.36057E-15
 -1      7340 2.27145E-01 7.80167E+01-8.44358E-04 2.12775E+00 9.27140E-14-7.94503E-15
 -1      7341 4.57909E-01 7.77405E+01 9.65756E-05 1.99143E+00 7.10716E-14-2.33633E-14
 -1      7342-2.05846E-02 7.80066E+01-1.03105E-03 2.38333E+00-4.22752E-14-5.17017E-14
 -1      7343 2.44466E-01 7.76802E+01-1.19819E-04 2.24361E+00 3.80460E-14-6.34666E-14
 -1      7344-3.13966E-01 7.80270E+01-1.26235E-03 2.66933E+00 2.15175E-14-3.81084E-14
 -1      7345-9.26397E-03 7.76385E+01-4.31083E-04 2.52939E+00 4.36179E-14-8.79539E-14
 -1      7346-6.61676E-01 7.80900E+01-1.54747E-03 2.98842E+00 5.45952E-14-1.05124E-14
 -1      7347-3.11533E-01 7.76248E+01-8.75925E-04 2.85338E+00 1.05849E-13-7.82360E-15
 -1      7348-1.07410E+00 7.82122E+01-1.89454E-03 3.34201E+00 6.46913E-14 3.06213E-14
 -1      7349-6.72599E-01 7.76526E+01-1.50818E-03 3.21981E+00-6.61450E-14 2.44527E-14
 -1      7350-1.56343E+00 7.84152E+01-2.30666E-03 3.72909E+00-1.06515E-13-3.85386E-14
 -1      7351-1.10515E+00 7.77397E+01-2.40191E-03 3.63184E+00-1.97828E-14-4.66224E-14
 -1      7352-2.14348E+00 7.87273E+01-2.77422E-03 4.14446E+00-1.31678E-13 7.79932E-15
 -1      7353-1.62465E+00 7.79108E+01-3.65749E-03 4.09018E+00 9.15414E-14-6.00214E-15
 -1      7354-2.82878E+00 7.91857E+01-3.25913E-03 4.57600E+00-1.46569E-13 8.56884E-14
 -1      7355-2.24941E+00 7.81990E+01-5.40680E-03 4.59100E+00 1.85497E-13-4.56371E-14
 -1      7356-3.63242E+00 7.98370E+01-3.67144E-03 5.00058E+00 5.82277E-14-6.16174E-15
 -1      7357-2.99988E+00 7.86486E+01-7.81606E-03 5.12249E+00-4.05370E-14-1.04083E-14
 -1      7358-4.56124E+00 8.07387E+01-3.81019E-03 5.37835E+00-1.18846E-13-1.04639E-13
 -1      7359-3.89631E+00 7.93171E+01-1.10765E-02 5.65955E+00 3.84432E-13 1.94150E-14
 -1      7360-5.60678E+00 8.19567E+01-3.34867E-03 5.64524E+00-2.04184E-13 1.14450E-13
 -1      7361-4.95309E+00 8.02774E+01-1.53623E-02 6.15593E+00 9.83303E-14 4.66155E-14
 -1      7362-6.72868E+00 8.35587E+01-1.64528E-03 5.70469E+00 2.23044E-13 5.51920E-14
 -1      7363-6.16675E+00 8.16158E+01-2.08219E-02 6.53363E+00 1.33171E-13 5.80785E-14
 -1      7364-7.82755E+00 8.56002E+01 2.44840E-03 5.42179E+00-2.70173E-13-7.57727E-15
 -1      7365-7.49306E+00 8.34248E+01-2.69262E-02 6.67031E+00-1.32824E-13-7.71605E-15
 -1      7366-8.80689E+00 8.57786E+01-3.49607E-02 6.39360E+00 1.13520E-13 2.69784E-14
 -1      7367 1.49787E+00 7.84581E+01-3.33341E-05 8.46605E-02 1.03661E-15 1.34649E-14
 -1      7368 1.54508E+00 7.83672E+01 5.88650E-04 3.98082E-02-2.04193E-14-8.34922E-15
 -1      7369 1.49125E+00 7.84441E+01-3.76130E-05 1.69969E-01 3.76110E-15-2.80158E-16
 -1      7370 1.54106E+00 7.83570E+01 5.91309E-04 1.19752E-01 1.16591E-14 1.82172E-14
 -1      7371 1.47999E+00 7.84209E+01-4.48105E-05 2.56599E-01 2.72915E-15 1.83195E-14
 -1      7372 1.53287E+00 7.83366E+01 5.96620E-04 2.00690E-01 6.58067E-15 2.85275E-15
 -1      7373 1.46371E+00 7.83884E+01-5.50341E-05 3.45280E-01 8.80762E-15 1.04309E-14
 -1      7374 1.52026E+00 7.83059E+01 6.04561E-04 2.83333E-01 4.81516E-15 1.30677E-14
 -1      7375 1.44189E+00 7.83467E+01-6.84530E-05 4.36826E-01 1.49282E-14-7.26415E-15
 -1      7376 1.50284E+00 7.82650E+01 6.15090E-04 3.68462E-01 1.88257E-14 1.79023E-15
 -1      7377 1.41387E+00 7.82960E+01-8.53185E-05 5.32166E-01-1.72423E-14-2.93446E-14
 -1      7378 1.48007E+00 7.82139E+01 6.28118E-04 4.56961E-01 2.69819E-14-3.87017E-15
 -1      7379 1.37880E+00 7.82365E+01-1.05995E-04 6.32379E-01 6.58171E-14-3.05918E-15
 -1      7380 1.45127E+00 7.81526E+01 6.43484E-04 5.49852E-01-3.45210E-14 6.08368E-15
 -1      7381 1.33566E+00 7.81684E+01-1.31003E-04 7.38732E-01-1.16448E-13 3.09301E-15
 -1      7382 1.41561E+00 7.80811E+01 6.60909E-04 6.48336E-01 2.49696E-14 1.94723E-14
 -1      7383 1.28320E+00 7.80920E+01-1.61081E-04 8.52725E-01 5.81844E-14-1.61555E-14
 -1      7384 1.37208E+00 7.79994E+01 6.79919E-04 7.53831E-01-3.31480E-14 3.46815E-14
 -1      7385 1.21998E+00 7.80077E+01-1.97272E-04 9.76136E-01 5.76136E-14-2.69750E-14
 -1      7386 1.31950E+00 7.79076E+01 6.99745E-04 8.68029E-01-7.84390E-14 2.61249E-15
 -1      7387 1.14426E+00 7.79163E+01-2.41036E-04 1.11108E+00 2.49280E-15-4.43395E-14
 -1      7388 1.25645E+00 7.78058E+01 7.19159E-04 9.92953E-01-2.88762E-14-2.99587E-15
 -1      7389 1.05398E+00 7.78184E+01-2.94414E-04 1.26004E+00 5.65971E-14-7.27370E-15
 -1      7390 1.18123E+00 7.76944E+01 7.36240E-04 1.13102E+00 8.18443E-14 3.17593E-14
 -1      7391 9.46661E-01 7.77154E+01-3.60242E-04 1.42599E+00 1.04909E-13-4.87440E-14
 -1      7392 1.09184E+00 7.75739E+01 7.48018E-04 1.28511E+00 1.26059E-13-2.96985E-14
 -1      7393 8.19335E-01 7.76089E+01-4.42440E-04 1.61239E+00-4.22561E-14-4.48166E-14
 -1      7394 9.85844E-01 7.74448E+01 7.49951E-04 1.45869E+00-4.69746E-14-8.54386E-14
 -1      7395 6.68358E-01 7.75013E+01-5.46385E-04 1.82329E+00 5.54071E-15-2.17500E-14
 -1      7396 8.60242E-01 7.73084E+01 7.35142E-04 1.65584E+00-2.55317E-14-4.75037E-14
 -1      7397 4.89232E-01 7.73959E+01-6.79396E-04 2.06335E+00 1.41553E-14-2.48274E-14
 -1      7398 7.11321E-01 7.71664E+01 6.93181E-04 1.88143E+00-1.80071E-13-2.77313E-14
 -1      7399 2.76338E-01 7.72976E+01-8.51314E-04 2.33788E+00-1.11598E-13-1.05124E-14
 -1      7400 5.34383E-01 7.70217E+01 6.08413E-04 2.14115E+00-7.74207E-14 1.89432E-15
 -1      7401 2.25856E-02 7.72131E+01-1.07515E-03 2.65279E+00-8.37559E-14-3.82888E-14
 -1      7402 3.23416E-01 7.68783E+01 4.57364E-04 2.44165E+00 1.26857E-13-8.35443E-15
 -1      7403-2.81035E-01 7.71520E+01-1.36765E-03 3.01440E+00-1.30836E-13 2.24057E-14
 -1      7404 7.06242E-02 7.67426E+01 2.04930E-04 2.79052E+00-9.08891E-14-5.53099E-14
 -1      7405-6.46005E-01 7.71279E+01-1.74945E-03 3.42910E+00 4.66016E-14 7.49401E-16
 -1      7406-2.34189E-01 7.66237E+01-2.01273E-04 3.19625E+00 6.01984E-14-1.91513E-14
 -1      7407-1.08692E+00 7.71602E+01-2.24396E-03 3.90264E+00-7.67997E-14 1.09079E-14
 -1      7408-6.04428E-01 7.65356E+01-8.39109E-04 3.66795E+00 1.96683E-14 6.18949E-14
 -1      7409-1.62212E+00 7.72759E+01-2.87362E-03 4.43874E+00 4.28824E-14-4.71775E-14
 -1      7410-1.05771E+00 7.64985E+01-1.82384E-03 4.21465E+00 6.41431E-14 2.54310E-14
 -1      7411-2.27414E+00 7.75131E+01-3.64837E-03 5.03683E+00 1.79336E-14-6.00353E-14
 -1      7412-1.61702E+00 7.65422E+01-3.32397E-03 4.84392E+00 1.15217E-13 7.77156E-15
 -1      7413-3.06936E+00 7.79243E+01-4.54720E-03 5.68798E+00-9.67282E-14-8.03246E-14
 -1      7414-2.31179E+00 7.67098E+01-5.58372E-03 5.55923E+00 4.78437E-15 1.68615E-14
 -1      7415-4.03581E+00 7.85811E+01-5.44626E-03 6.36848E+00-9.53231E-14 1.09898E-13
 -1      7416-3.17829E+00 7.70633E+01-8.94219E-03 6.35513E+00-2.94788E-13 1.15644E-13
 -1      7417-5.19710E+00 7.95777E+01-6.11613E-03 7.02958E+00-1.63811E-13-7.33719E-14
 -1      7418-4.25796E+00 7.76896E+01-1.38577E-02 7.20890E+00-4.95506E-14 7.04437E-14
 -1      7419-6.55753E+00 8.10324E+01-5.70075E-03 7.58262E+00 1.30011E-13-3.59712E-14
 -1      7420-5.59050E+00 7.87079E+01-2.08980E-02 8.06663E+00-3.29355E-13 4.49640E-15
 -1      7421-8.07381E+00 8.30790E+01-4.15918E-03 7.88016E+00-1.73292E-13-5.52614E-14
 -1      7422-7.19483E+00 8.02709E+01-3.04764E-02 8.82181E+00-1.06045E-13 2.48690E-14
 -1      7423-9.02859E+00 8.25663E+01-4.45495E-02 9.28859E+00-2.30614E-13-6.79456E-14
 -1      7424 1.58140E+00 7.82757E+01-1.05919E-05 7.39563E-02-9.00430E-15-3.89532E-15
 -1      7425 1.62283E+00 7.81991E+01 6.58627E-04 3.40030E-02 3.71280E-15-1.98947E-14
 -1      7426 1.57582E+00 7.82591E+01-1.36431E-05 1.48557E-01 1.92808E-14 2.28706E-14
 -1      7427 1.61948E+00 7.81873E+01 6.63137E-04 1.02322E-01-4.53977E-15-1.17918E-14
 -1      7428 1.56632E+00 7.82313E+01-1.87461E-05 2.24474E-01 5.62571E-15-3.91909E-14
 -1      7429 1.61269E+00 7.81635E+01 6.72243E-04 1.71592E-01 6.84956E-15-1.47365E-14
 -1      7430 1.55261E+00 7.81924E+01-2.59347E-05 3.02436E-01-3.21449E-14-1.20546E-14
 -1      7431 1.60225E+00 7.81276E+01 6.86113E-04 2.42493E-01 2.29023E-14 3.86063E-15
 -1      7432 1.53429E+00 7.81421E+01-3.52715E-05 3.83258E-01 1.07674E-14-1.58970E-14
 -1      7433 1.58785E+00 7.80796E+01 7.04999E-04 3.15777E-01 1.60523E-14 8.70831E-16
 -1      7434 1.51082E+00 7.80805E+01-4.68654E-05 4.67875E-01-5.10035E-14 5.22759E-14
 -1      7435 1.56909E+00 7.80191E+01 7.29237E-04 3.92295E-01-4.05882E-14 3.18929E-15
 -1      7436 1.48154E+00 7.80072E+01-6.08984E-05 5.57379E-01 4.57264E-14-5.94923E-15
 -1      7437 1.54546E+00 7.79459E+01 7.59236E-04 4.73037E-01 1.52621E-14 3.92915E-15
 -1      7438 1.44566E+00 7.79222E+01-7.76641E-05 6.53064E-01-2.38707E-14 4.98004E-14
 -1      7439 1.51633E+00 7.78597E+01 7.95473E-04 5.59173E-01-7.94009E-14-3.22520E-14
 -1      7440 1.40222E+00 7.78251E+01-9.76237E-05 7.56472E-01-2.69923E-15-3.59435E-15
 -1      7441 1.48098E+00 7.77599E+01 8.38465E-04 6.52096E-01 9.28077E-15-1.07735E-14
 -1      7442 1.35010E+00 7.77159E+01-1.21485E-04 8.69455E-01 4.03844E-14 5.00138E-14
 -1      7443 1.43852E+00 7.76461E+01 8.88725E-04 7.53484E-01-8.07149E-14-2.00898E-14
 -1      7444 1.28798E+00 7.75942E+01-1.50318E-04 9.94240E-01-1.74959E-13 3.48194E-14
 -1      7445 1.38795E+00 7.75176E+01 9.46691E-04 8.65360E-01 1.27348E-13-4.25701E-15
 -1      7446 1.21429E+00 7.74598E+01-1.85714E-04 1.13351E+00 5.62102E-14 5.77177E-14
 -1      7447 1.32807E+00 7.73738E+01 1.01260E-03 9.90179E-01-1.51882E-13 1.09981E-15
 -1      7448 1.12713E+00 7.73127E+01-2.30015E-04 1.29050E+00 3.31731E-14 3.90243E-14
 -1      7449 1.25744E+00 7.72138E+01 1.08629E-03 1.13092E+00 6.33972E-14 4.03861E-14
 -1      7450 1.02419E+00 7.71530E+01-2.86640E-04 1.46912E+00 3.72133E-14-9.15414E-15
 -1      7451 1.17434E+00 7.70369E+01 1.16686E-03 1.29122E+00-1.03965E-13 6.09582E-14
 -1      7452 9.02611E-01 7.69808E+01-3.60540E-04 1.67405E+00-6.61103E-14 3.01252E-14
 -1      7453 1.07662E+00 7.68424E+01 1.25215E-03 1.47550E+00 8.71525E-14 2.05651E-14
 -1      7454 7.58769E-01 7.67972E+01-4.58844E-04 1.91095E+00 5.36723E-15 1.86032E-14
 -1      7455 9.61572E-01 7.66294E+01 1.33789E-03 1.68914E+00 5.00294E-15-1.33400E-15
 -1      7456 5.88004E-01 7.66039E+01-5.91752E-04 2.18656E+00-1.00586E-13 1.25247E-14
 -1      7457 8.25684E-01 7.63978E+01 1.41635E-03 1.93873E+00-6.32064E-14-1.38431E-15
 -1      7458 3.84219E-01 7.64037E+01-7.73768E-04 2.50891E+00 9.23532E-14 3.40422E-14
 -1      7459 6.64315E-01 7.61478E+01 1.47419E-03 2.23228E+00-9.46118E-15-1.11647E-14
 -1      7460 1.39328E-01 7.62017E+01-1.02533E-03 2.88748E+00 4.14946E-14-4.71879E-14
 -1      7461 4.71206E-01 7.58809E+01 1.48899E-03 2.57953E+00 9.17461E-14 1.28716E-15
 -1      7462-1.57506E-01 7.60060E+01-1.37484E-03 3.33325E+00-1.37324E-13 2.82344E-14
 -1      7463 2.37791E-01 7.56001E+01 1.42371E-03 2.99228E+00-7.70495E-14 4.08874E-14
 -1      7464-5.20900E-01 7.58294E+01-1.86087E-03 3.85866E+00 2.03088E-13-1.63619E-14
 -1      7465-4.77965E-02 7.53119E+01 1.21779E-03 3.48468E+00 1.90126E-13-7.61197E-15
 -1      7466-9.70601E-01 7.56921E+01-2.53392E-03 4.47710E+00-1.44301E-13 1.88599E-14
 -1      7467-4.02121E-01 7.50273E+01 7.72792E-04 4.07340E+00-3.13916E-14-4.38261E-14
 -1      7468-1.53315E+00 7.56249E+01-3.45398E-03 5.20176E+00-9.51114E-14 1.17184E-13
 -1      7469-8.48389E-01 7.47652E+01-6.99214E-05 4.77751E+00-1.32533E-15-6.32688E-14
 -1      7470-2.24369E+00 7.56749E+01-4.68570E-03 6.04306E+00 7.32817E-14 7.67025E-14
 -1      7471-1.41904E+00 7.45569E+01-1.56689E-03 5.61756E+00 1.37251E-14-8.42798E-14
 -1      7472-3.14731E+00 7.59130E+01-6.23653E-03 7.00347E+00 4.42840E-14-1.86656E-14
 -1      7473-2.15895E+00 7.44527E+01-4.12005E-03 6.61309E+00 2.96152E-14-8.55843E-14
 -1      7474-4.29839E+00 7.64437E+01-8.12534E-03 8.06782E+00-2.13461E-13 2.43139E-14
 -1      7475-3.12873E+00 7.45318E+01-8.38390E-03 7.77690E+00 9.19542E-14-5.53030E-14
 -1      7476-5.75291E+00 7.74189E+01-9.40860E-03 9.18578E+00 3.40561E-14 7.36078E-14
 -1      7477-4.40612E+00 7.49183E+01-1.52713E-02 9.10288E+00 1.62856E-14-4.81282E-14
 -1      7478-7.55063E+00 7.90428E+01-1.20014E-02 1.02434E+01-2.24439E-14 4.37983E-14
 -1      7479-6.08024E+00 7.57950E+01-2.64132E-02 1.05435E+01-1.64521E-14 1.50435E-14
 -1      7480-8.22225E+00 7.74444E+01-4.36504E-02 1.19679E+01 4.38581E-14-1.77636E-15
 -1      7481 1.65277E+00 7.81217E+01 1.05695E-05 6.15111E-02-1.32259E-14 4.60118E-14
 -1      7482 1.68750E+00 7.80609E+01 7.18504E-04 2.73804E-02-2.67829E-14 5.20417E-16
 -1      7483 1.64818E+00 7.81028E+01 8.71669E-06 1.23613E-01 3.33266E-14-1.79527E-14
 -1      7484 1.68478E+00 7.80475E+01 7.24716E-04 8.24147E-02 1.73535E-14-7.14186E-15
 -1      7485 1.64037E+00 7.80710E+01 5.66427E-06 1.86922E-01 1.05809E-14-2.37067E-14
 -1      7486 1.67926E+00 7.80208E+01 7.37311E-04 1.38282E-01-4.61436E-15-7.06900E-16
 -1      7487 1.62913E+00 7.80263E+01 1.46118E-06 2.52107E-01 3.82827E-14-4.82774E-15
 -1      7488 1.67080E+00 7.79804E+01 7.56642E-04 1.95578E-01-3.54361E-15 1.56108E-14
 -1      7489 1.61416E+00 7.79683E+01-3.83374E-06 3.19921E-01-3.06786E-14 2.02329E-14
 -1      7490 1.65918E+00 7.79261E+01 7.83251E-04 2.54961E-01 2.01445E-14 2.78250E-15
 -1      7491 1.59506E+00 7.78967E+01-1.01634E-05 3.91227E-01-3.31159E-15-1.39472E-14
 -1      7492 1.64411E+00 7.78575E+01 8.17885E-04 3.17184E-01 2.30779E-14-9.92262E-16
 -1      7493 1.57137E+00 7.78110E+01-1.74905E-05 4.67041E-01 2.03709E-14-1.58745E-14
 -1      7494 1.62525E+00 7.77739E+01 8.61525E-04 3.83122E-01 2.62854E-14 4.08961E-15
 -1      7495 1.54251E+00 7.77105E+01-2.58241E-05 5.48573E-01-8.31626E-15-6.30416E-14
 -1      7496 1.60217E+00 7.76748E+01 9.15407E-04 4.53813E-01 4.07105E-14-3.01573E-14
 -1      7497 1.50783E+00 7.75946E+01-3.52607E-05 6.37275E-01-2.71866E-14 4.48946E-15
 -1      7498 1.57440E+00 7.75591E+01 9.81059E-04 5.30504E-01-5.96381E-14-1.01056E-14
 -1      7499 1.46657E+00 7.74623E+01-4.60428E-05 7.34907E-01 5.88037E-14-4.36266E-14
 -1      7500 1.54140E+00 7.74257E+01 1.06033E-03 6.14703E-01-7.04870E-14-2.00933E-14
 -1      7501 1.41784E+00 7.73125E+01-5.86474E-05 8.43606E-01 3.19397E-14-4.00608E-14
 -1      7502 1.50254E+00 7.72733E+01 1.15544E-03 7.08248E-01 3.45800E-14-2.35879E-14
 -1      7503 1.36061E+00 7.71440E+01-7.39150E-05 9.65981E-01 7.40172E-14-6.71130E-14
 -1      7504 1.45714E+00 7.71003E+01 1.26899E-03 8.13391E-01 9.12638E-15-5.83093E-14
 -1      7505 1.29366E+00 7.69553E+01-9.32401E-05 1.10523E+00 2.37969E-14 3.76539E-14
 -1      7506 1.40438E+00 7.69047E+01 1.40398E-03 9.32898E-01-1.32741E-14-4.77916E-14
 -1      7507 1.21549E+00 7.67445E+01-1.18854E-04 1.26527E+00-1.62030E-13-1.65042E-14
 -1      7508 1.34331E+00 7.66840E+01 1.56376E-03 1.07019E+00 3.42538E-14-5.43628E-14
 -1      7509 1.12423E+00 7.65100E+01-1.54246E-04 1.45092E+00 4.31218E-14-7.18869E-15
 -1      7510 1.27275E+00 7.64357E+01 1.75194E-03 1.22949E+00 2.74156E-14 1.73507E-14
 -1      7511 1.01746E+00 7.62497E+01-2.04785E-04 1.66816E+00 1.50858E-13-1.94948E-14
 -1      7512 1.19119E+00 7.61563E+01 1.97213E-03 1.41609E+00-2.59896E-14-7.83054E-15
 -1      7513 8.92006E-01 7.59615E+01-2.78666E-04 1.92433E+00 1.13749E-13 1.36766E-14
 -1      7514 1.09664E+00 7.58423E+01 2.22738E-03 1.63656E+00-6.22974E-14 4.29431E-14
 -1      7515 7.43521E-01 7.56438E+01-3.88315E-04 2.22858E+00 3.95933E-14-1.10474E-13
 -1      7516 9.86344E-01 7.54896E+01 2.51923E-03 1.89920E+00 7.07837E-14-1.58241E-14
 -1      7517 5.66008E-01 7.52955E+01-5.52506E-04 2.59222E+00 1.64889E-13 5.10217E-14
 -1      7518 8.56402E-01 7.50939E+01 2.84582E-03 2.21445E+00-5.00502E-14 3.32720E-15
 -1      7519 3.51017E-01 7.49167E+01-7.99504E-04 3.02932E+00 6.35603E-15-5.40679E-14
 -1      7520 7.01178E-01 7.46508E+01 3.19855E-03 2.59555E+00 1.54085E-13-1.08177E-14
 -1      7521 8.65027E-02 7.45102E+01-1.17164E-03 3.55724E+00-3.95031E-14-1.94844E-14
 -1      7522 5.12382E-01 7.41565E+01 3.55599E-03 3.05932E+00-8.80962E-14-8.55357E-14
 -1      7523-2.44842E-01 7.40831E+01-1.73180E-03 4.19724E+00 6.36505E-14-1.03972E-13
 -1      7524 2.77688E-01 7.36090E+01 3.87301E-03 3.62717E+00 5.05845E-14-8.25867E-14
 -1      7525-6.67993E-01 7.36502E+01-2.57087E-03 4.97495E+00-2.20657E-15-1.12035E-13
 -1      7526-2.13930E-02 7.30095E+01 4.06148E-03 4.32624E+00 8.72913E-15-6.15549E-14
 -1      7527-1.21898E+00 7.32388E+01-3.81947E-03 5.92015E+00-1.23873E-13-1.25344E-13
 -1      7528-4.12729E-01 7.23661E+01 3.95403E-03 5.19069E+00 1.41276E-14-9.77551E-14
 -1      7529-1.94937E+00 7.28975E+01-5.62043E-03 7.06510E+00-1.18669E-13 7.20257E-15
 -1      7530-9.38407E-01 7.16993E+01 3.24863E-03 6.26249E+00-6.86395E-14-6.25611E-14
 -1      7531-2.93165E+00 7.27092E+01-8.25549E-03 8.43947E+00-4.79755E-14-6.64746E-14
 -1      7532-1.66180E+00 7.10519E+01 1.36398E-03 7.59107E+00 3.42337E-13-1.03667E-14
 -1      7533-4.26224E+00 7.28134E+01-1.10699E-02 1.00575E+01-3.77226E-13-1.37390E-13
 -1      7534-2.67687E+00 7.05062E+01-2.57566E-03 9.22844E+00 9.42996E-14-8.62366E-14
 -1      7535-6.06310E+00 7.34272E+01-1.80320E-02 1.18919E+01-3.34184E-13 1.41831E-14
 -1      7536-4.11948E+00 7.02065E+01-1.10470E-02 1.12168E+01 3.76643E-14-1.95677E-14
 -1      7537-6.16260E+00 7.04337E+01-2.40646E-02 1.35492E+01 7.51899E-14 4.46865E-14
 -1      7538 1.71026E+00 7.79989E+01 2.87435E-05 4.75595E-02-9.18623E-15-2.43282E-14
 -1      7539 1.73751E+00 7.79548E+01 7.65841E-04 2.00760E-02-3.32969E-15 4.21581E-14
 -1      7540 1.70653E+00 7.79780E+01 2.79573E-05 9.56089E-02 9.32739E-15 3.28383E-14
 -1      7541 1.73530E+00 7.79403E+01 7.73467E-04 6.04406E-02-1.73850E-14 1.72544E-14
 -1      7542 1.70020E+00 7.79429E+01 2.67344E-05 1.44660E-01-1.18356E-14 1.30104E-15
 -1      7543 1.73084E+00 7.79113E+01 7.88968E-04 1.01453E-01 1.13715E-14 1.88963E-14
 -1      7544 1.69112E+00 7.78933E+01 2.52045E-05 1.95270E-01 4.66294E-15 1.99779E-14
 -1      7545 1.72403E+00 7.78673E+01 8.12854E-04 1.43577E-01-1.67288E-14 1.52703E-14
 -1      7546 1.67909E+00 7.78288E+01 2.35466E-05 2.48065E-01 2.77374E-14-3.36597E-14
 -1      7547 1.71472E+00 7.78080E+01 8.45917E-04 1.87327E-01 3.28531E-14-1.04170E-15
 -1      7548 1.66384E+00 7.77489E+01 2.19845E-05 3.03766E-01-2.51058E-14 3.98613E-14
 -1      7549 1.70273E+00 7.77328E+01 8.89270E-04 2.33290E-01-1.77514E-14 3.04938E-14
 -1      7550 1.64507E+00 7.76526E+01 2.07799E-05 3.63228E-01 1.29948E-14 1.47816E-14
 -1      7551 1.68784E+00 7.76409E+01 9.44390E-04 2.82153E-01 1.53783E-14 5.18639E-14
 -1      7552 1.62242E+00 7.75392E+01 2.02209E-05 4.27467E-01 3.66270E-14 4.21555E-14
 -1      7553 1.66982E+00 7.75313E+01 1.01319E-03 3.34733E-01-6.99961E-15 6.38300E-14
 -1      7554 1.59551E+00 7.74072E+01 2.06034E-05 4.97716E-01-6.13988E-14 3.68837E-14
 -1      7555 1.64841E+00 7.74027E+01 1.09812E-03 3.92014E-01 1.59560E-14 9.41894E-14
 -1      7556 1.56391E+00 7.72552E+01 2.22010E-05 5.75475E-01 5.20729E-14-1.29749E-14
 -1      7557 1.62335E+00 7.72535E+01 1.20223E-03 4.55195E-01 1.97602E-14 6.13251E-14
 -1      7558 1.52717E+00 7.70813E+01 2.52186E-05 6.62581E-01 2.49453E-15 8.21140E-14
 -1      7559 1.59439E+00 7.70816E+01 1.32940E-03 5.25745E-01 8.29475E-14 5.39794E-14
 -1      7560 1.48479E+00 7.68832E+01 2.97197E-05 7.61298E-01-7.00846E-14-2.41326E-14
 -1      7561 1.56128E+00 7.68846E+01 1.48446E-03 6.05475E-01 6.51007E-14 7.72299E-15
 -1      7562 1.43620E+00 7.66581E+01 3.55130E-05 8.74429E-01-2.72317E-14-5.53134E-14
 -1      7563 1.52379E+00 7.66595E+01 1.67343E-03 6.96632E-01-2.07542E-14-6.80705E-15
 -1      7564 1.38075E+00 7.64026E+01 4.19759E-05 1.00546E+00-2.79637E-15-3.99385E-14
 -1      7565 1.48170E+00 7.64024E+01 1.90388E-03 8.02020E-01 5.93345E-14 1.10242E-14
 -1      7566 1.31762E+00 7.61126E+01 4.77768E-05 1.15874E+00-3.55618E-14-8.59382E-15
 -1      7567 1.43474E+00 7.61089E+01 2.18522E-03 9.25155E-01-2.38178E-14 1.00033E-14
 -1      7568 1.24575E+00 7.57834E+01 5.04373E-05 1.33976E+00-9.36334E-14-3.93522E-14
 -1      7569 1.38263E+00 7.57734E+01 2.52926E-03 1.07048E+00-2.93029E-14 2.77348E-14
 -1      7570 1.16366E+00 7.54091E+01 4.56337E-05 1.55544E+00-4.61194E-14-1.05662E-14
 -1      7571 1.32490E+00 7.53889E+01 2.95067E-03 1.24363E+00 1.37324E-13 1.71634E-14
 -1      7572 1.06922E+00 7.49829E+01 2.60732E-05 1.81460E+00 7.17343E-14 3.16830E-14
 -1      7573 1.26084E+00 7.49473E+01 3.46770E-03 1.45186E+00 9.70578E-14 3.70017E-14
 -1      7574 9.59234E-01 7.44971E+01-2.03306E-05 2.12853E+00 7.97556E-14-2.51743E-14
 -1      7575 1.18921E+00 7.44385E+01 4.10275E-03 1.70450E+00-6.25194E-15 8.68697E-14
 -1      7576 8.28869E-01 7.39427E+01-1.13436E-04 2.51180E+00 9.27314E-14 9.40220E-16
 -1      7577 1.10793E+00 7.38504E+01 4.88286E-03 2.01376E+00-3.57145E-14 3.04617E-15
 -1      7578 6.70667E-01 7.33102E+01-2.85785E-04 2.98334E+00 1.67914E-13-1.85442E-14
 -1      7579 1.01338E+00 7.31686E+01 5.83950E-03 2.39567E+00 2.04142E-14 8.87519E-14
 -1      7580 4.73064E-01 7.25898E+01-5.90577E-04 3.56782E+00 2.79221E-14 4.17236E-14
 -1      7581 8.99512E-01 7.23758E+01 7.00687E-03 2.87155E+00-1.23838E-13 1.38837E-13
 -1      7582 2.18021E-01 7.17728E+01-1.11477E-03 4.29751E+00-3.18356E-14 1.09197E-13
 -1      7583 7.56119E-01 7.14522E+01 8.41642E-03 3.46995E+00-1.46841E-13 1.19835E-13
 -1      7584-1.22715E-01 7.08548E+01-1.99995E-03 5.21454E+00 4.18277E-14 6.81261E-14
 -1      7585 5.66142E-01 7.03761E+01 1.00830E-02 4.22939E+00 2.14079E-13 1.43156E-13
 -1      7586-5.93468E-01 6.98403E+01-3.46116E-03 6.37332E+00-1.55320E-13-5.48173E-14
 -1      7587 3.01080E-01 6.91249E+01 1.19780E-02 5.20202E+00 7.61891E-14 7.82985E-14
 -1      7588-1.26375E+00 6.87536E+01-5.91380E-03 7.84233E+00 8.45157E-15 1.18128E-13
 -1      7589-8.67907E-02 6.76798E+01 1.39291E-02 6.45828E+00-1.31478E-13 7.27474E-14
 -1      7590-2.24068E+00 6.76581E+01-9.21579E-03 9.70210E+00-1.28758E-13-7.73825E-14
 -1      7591-6.77037E-01 6.60354E+01 1.57019E-02 8.09125E+00-9.59510E-14-3.36398E-14
 -1      7592-3.69038E+00 6.66811E+01-1.83549E-02 1.20351E+01 9.07052E-14-2.70617E-14
 -1      7593-1.60410E+00 6.42143E+01 1.52194E-02 1.02207E+01-6.56419E-14-7.61058E-14
 -1      7594-3.07651E+00 6.23400E+01 1.65173E-02 1.29739E+01-1.39971E-13-7.44960E-14
 -1      7595 1.75242E+00 7.79095E+01 4.27031E-05 3.24068E-02-1.16530E-15-5.04761E-15
 -1      7596 1.77158E+00 7.78830E+01 7.98614E-04 1.22585E-02-2.23358E-14-7.60633E-15
 -1      7597 1.74936E+00 7.78871E+01 4.27573E-05 6.51640E-02 5.19203E-15-4.85141E-14
 -1      7598 1.76975E+00 7.78677E+01 8.07254E-04 3.69102E-02 1.68583E-14-2.62733E-14
 -1      7599 1.74418E+00 7.78494E+01 4.29784E-05 9.86375E-02-2.19143E-14-2.26876E-14
 -1      7600 1.76605E+00 7.78370E+01 8.24838E-04 6.19727E-02 8.14496E-15 1.02782E-16
 -1      7601 1.73679E+00 7.77962E+01 4.35642E-05 1.33226E-01-4.40238E-14 1.57036E-14
 -1      7602 1.76041E+00 7.77905E+01 8.51994E-04 8.77405E-02-3.49794E-14-1.29213E-14
 -1      7603 1.72705E+00 7.77269E+01 4.47951E-05 1.69378E-01-8.70571E-15 5.61903E-14
 -1      7604 1.75276E+00 7.77278E+01 8.89699E-04 1.14540E-01-6.20597E-15-6.18646E-15
 -1      7605 1.71480E+00 7.76406E+01 4.70373E-05 2.07614E-01 2.21012E-14-2.19308E-14
 -1      7606 1.74297E+00 7.76480E+01 9.39335E-04 1.42746E-01 5.48277E-14-7.96542E-15
 -1      7607 1.69988E+00 7.75364E+01 5.07465E-05 2.48548E-01 2.15357E-14-3.12077E-15
 -1      7608 1.73093E+00 7.75503E+01 1.00275E-03 1.72794E-01 3.92871E-14-4.84994E-14
 -1      7609 1.68209E+00 7.74129E+01 5.64714E-05 2.92915E-01-1.91340E-15 7.43325E-14
 -1      7610 1.71654E+00 7.74333E+01 1.08237E-03 2.05208E-01-9.72625E-14 3.70710E-15
 -1      7611 1.66128E+00 7.72687E+01 6.48571E-05 3.41611E-01 6.69239E-14-2.97514E-14
 -1      7612 1.69971E+00 7.72956E+01 1.18133E-03 2.40618E-01 5.12021E-14-2.48560E-14
 -1      7613 1.63730E+00 7.71016E+01 7.66459E-05 3.95727E-01 1.17788E-15 7.10976E-15
 -1      7614 1.68039E+00 7.71352E+01 1.30362E-03 2.79796E-01-1.89224E-14-9.75908E-14
 -1      7615 1.61005E+00 7.69091E+01 9.26750E-05 4.56612E-01-2.31221E-14 6.02816E-17
 -1      7616 1.65860E+00 7.69495E+01 1.45437E-03 3.23689E-01-1.60531E-14-4.10926E-14
 -1      7617 1.57947E+00 7.66881E+01 1.13867E-04 5.25936E-01-8.03455E-14 3.66200E-15
 -1      7618 1.63443E+00 7.67354E+01 1.64016E-03 3.73472E-01-1.24813E-14 1.74071E-14
 -1      7619 1.54557E+00 7.64348E+01 1.41206E-04 6.05781E-01-7.04298E-16 8.21565E-15
 -1      7620 1.60809E+00 7.64892E+01 1.86942E-03 4.30613E-01-8.68576E-14 5.48251E-14
 -1      7621 1.50841E+00 7.61442E+01 1.75695E-04 6.98763E-01-4.07313E-15 9.19403E-16
 -1      7622 1.57993E+00 7.62061E+01 2.15306E-03 4.96951E-01 2.93168E-14-9.88966E-15
 -1      7623 1.46814E+00 7.58106E+01 2.18266E-04 8.08184E-01 3.11487E-14-1.90481E-14
 -1      7624 1.55042E+00 7.58800E+01 2.50525E-03 5.74814E-01-1.43566E-14-3.25399E-14
 -1      7625 1.42490E+00 7.54266E+01 2.69624E-04 9.38246E-01-3.43406E-14 9.37722E-14
 -1      7626 1.52022E+00 7.55036E+01 2.94458E-03 6.67166E-01 5.48485E-14-3.06179E-14
 -1      7627 1.37883E+00 7.49831E+01 3.29954E-04 1.09434E+00 7.35592E-14-6.20216E-14
 -1      7628 1.49017E+00 7.50676E+01 3.49560E-03 7.77818E-01 5.34711E-14 6.41241E-14
 -1      7629 1.32993E+00 7.44689E+01 3.98396E-04 1.28346E+00 1.40936E-13 1.09935E-13
 -1      7630 1.46125E+00 7.45604E+01 4.19107E-03 9.11715E-01-7.25461E-14 6.73871E-14
 -1      7631 1.27787E+00 7.38701E+01 4.72087E-04 1.51473E+00-7.01522E-14-7.63348E-14
 -1      7632 1.43455E+00 7.39673E+01 5.07509E-03 1.07534E+00 8.15667E-14 4.58383E-14
 -1      7633 1.22166E+00 7.31691E+01 5.44420E-04 1.80022E+00 1.93512E-13-7.57033E-15
 -1      7634 1.41113E+00 7.32698E+01 6.20768E-03 1.27730E+00-8.79852E-15-7.44266E-14
 -1      7635 1.15911E+00 7.23444E+01 6.01778E-04 2.15606E+00-4.93147E-14 8.29059E-14
 -1      7636 1.39182E+00 7.24442E+01 7.67126E-03 1.52914E+00-7.00828E-14-9.72503E-14
 -1      7637 1.08579E+00 7.13690E+01 6.17743E-04 2.60409E+00 1.29730E-13-1.35655E-14
 -1      7638 1.37673E+00 7.14605E+01 9.58017E-03 1.84662E+00-3.94129E-15-1.01523E-13
 -1      7639 9.93472E-01 7.02094E+01 5.40950E-04 3.17412E+00-2.17326E-13-8.76729E-14
 -1      7640 1.36443E+00 7.02795E+01 1.20940E-02 2.25148E+00 6.95971E-14-1.18242E-13
 -1      7641 8.67164E-01 6.88242E+01 2.77662E-04 3.90743E+00-4.97241E-14 8.01789E-14
 -1      7642 1.35040E+00 6.88508E+01 1.54375E-02 2.77418E+00 9.53682E-14-1.09759E-13
 -1      7643 6.80065E-01 6.71637E+01-3.60722E-04 4.86145E+00-1.78996E-13 7.68968E-14
 -1      7644 1.32408E+00 6.71087E+01 1.99277E-02 3.45800E+00-9.21208E-14-5.29993E-14
 -1      7645 3.84559E-01 6.51696E+01-1.71179E-03 6.11648E+00-7.91034E-15-5.19029E-15
 -1      7646 1.26320E+00 6.49676E+01 2.59841E-02 4.36523E+00 5.96467E-14-7.05269E-14
 -1      7647-1.03910E-01 6.27805E+01-4.17713E-03 7.78345E+00 1.28397E-13 6.79179E-14
 -1      7648 1.12317E+00 6.23171E+01 3.43783E-02 5.58564E+00 2.16105E-13 5.00849E-14
 -1      7649-9.37887E-01 5.99375E+01-1.15382E-02 1.00121E+01 5.86475E-14-5.52891E-14
 -1      7650 8.12778E-01 5.90147E+01 4.46465E-02 7.25016E+00-4.73427E-13 6.49480E-14
 -1      7651 1.64741E-01 5.49136E+01 6.60804E-02 9.53226E+00 3.19023E-13-2.31482E-14
 -1      7652 1.77817E+00 7.78551E+01 5.14876E-05 1.64180E-02-6.15090E-15-1.77076E-14
 -1      7653 1.78885E+00 7.78467E+01 8.15378E-04 4.12219E-03-2.26365E-14 4.78350E-16
 -1      7654 1.77553E+00 7.78318E+01 5.20795E-05 3.30185E-02 2.29218E-14 2.05612E-14
 -1      7655 1.78721E+00 7.78311E+01 8.24546E-04 1.24128E-02 1.50869E-14-3.04867E-15
 -1      7656 1.77108E+00 7.77926E+01 5.32254E-05 4.99922E-02-1.23733E-14 6.57894E-15
 -1      7657 1.78390E+00 7.77995E+01 8.43218E-04 2.08440E-02-3.15234E-14 1.48384E-14
 -1      7658 1.76476E+00 7.77371E+01 5.51685E-05 6.75471E-02-6.29531E-15-1.37332E-14
 -1      7659 1.77888E+00 7.77517E+01 8.72082E-04 2.95169E-02 2.07807E-14 1.44083E-14
 -1      7660 1.75647E+00 7.76647E+01 5.82572E-05 8.59175E-02 8.00141E-15 1.41170E-14
 -1      7661 1.77209E+00 7.76872E+01 9.12215E-04 3.85435E-02-1.98635E-14-1.39667E-15
 -1      7662 1.74614E+00 7.75745E+01 6.29534E-05 1.05375E-01 6.65995E-14-1.19176E-14
 -1      7663 1.76345E+00 7.76050E+01 9.65140E-04 4.80519E-02 6.19817E-15-5.76201E-14
 -1      7664 1.73366E+00 7.74653E+01 6.98441E-05 1.26241E-01-4.06801E-14 5.02207E-14
 -1      7665 1.75290E+00 7.75043E+01 1.03291E-03 5.81924E-02-2.19356E-15 1.32307E-14
 -1      7666 1.71897E+00 7.73356E+01 7.96563E-05 1.48901E-01 5.61357E-15-5.92835E-14
 -1      7667 1.74041E+00 7.73836E+01 1.11822E-03 6.91446E-02 1.05228E-14-9.83155E-16
 -1      7668 1.70206E+00 7.71837E+01 9.32756E-05 1.73826E-01-3.69670E-14 2.65881E-14
 -1      7669 1.72598E+00 7.72412E+01 1.22456E-03 8.11259E-02 1.79232E-14 1.50428E-14
 -1      7670 1.68296E+00 7.70071E+01 1.11771E-04 2.01593E-01 2.90705E-14 7.77373E-15
 -1      7671 1.70966E+00 7.70749E+01 1.35645E-03 9.44021E-02 2.54467E-14 2.60561E-14
 -1      7672 1.66179E+00 7.68029E+01 1.36427E-04 2.32912E-01 9.53231E-15 5.69228E-14
 -1      7673 1.69163E+00 7.68821E+01 1.51971E-03 1.09301E-01 3.51680E-14 2.65494E-14
 -1      7674 1.63880E+00 7.65674E+01 1.68779E-04 2.68672E-01-3.79800E-14 4.71949E-14
 -1      7675 1.67217E+00 7.66592E+01 1.72185E-03 1.26230E-01-1.40631E-13 3.42356E-14
 -1      7676 1.61439E+00 7.62961E+01 2.10669E-04 3.09983E-01 1.12271E-13 5.90248E-14
 -1      7677 1.65171E+00 7.64020E+01 1.97264E-03 1.45698E-01 1.34684E-14 1.87669E-14
 -1      7678 1.58911E+00 7.59832E+01 2.64300E-04 3.58245E-01 9.12152E-14 1.94059E-14
 -1      7679 1.63092E+00 7.61052E+01 2.28486E-03 1.68346E-01 8.91370E-14 2.93929E-14
 -1      7680 1.56374E+00 7.56216E+01 3.32316E-04 4.15241E-01-3.61794E-14 5.69033E-14
 -1      7681 1.61068E+00 7.57620E+01 2.67535E-03 1.94990E-01-1.04881E-13 6.31001E-14
 -1      7682 1.53931E+00 7.52023E+01 4.17884E-04 4.83254E-01-4.24938E-14-2.78388E-14
 -1      7683 1.59219E+00 7.53641E+01 3.16654E-03 2.26670E-01 2.24369E-14 1.02069E-13
 -1      7684 1.51709E+00 7.47140E+01 5.24780E-04 5.65235E-01 8.42104E-14 1.71171E-13
 -1      7685 1.57700E+00 7.49009E+01 3.78867E-03 2.64733E-01-1.97207E-13 1.24000E-13
 -1      7686 1.49864E+00 7.41423E+01 6.57439E-04 6.65049E-01 1.16455E-13-1.19302E-13
 -1      7687 1.56706E+00 7.43588E+01 4.58293E-03 3.10936E-01 2.75543E-13 5.45310E-15
 -1      7688 1.48574E+00 7.34690E+01 8.20913E-04 7.87802E-01 5.67602E-14 3.31280E-14
 -1      7689 1.56481E+00 7.37206E+01 5.60628E-03 3.67598E-01-1.28654E-13-2.29547E-14
 -1      7690 1.48036E+00 7.26705E+01 1.02056E-03 9.40340E-01 5.69406E-14 5.40956E-14
 -1      7691 1.57321E+00 7.29641E+01 6.93858E-03 4.37825E-01-5.90500E-14 9.76320E-14
 -1      7692 1.48444E+00 7.17164E+01 1.26102E-03 1.13196E+00-1.16275E-13-4.22475E-14
 -1      7693 1.59572E+00 7.20606E+01 8.69355E-03 5.25827E-01-1.49269E-13 1.08313E-13
 -1      7694 1.49949E+00 7.05667E+01 1.54404E-03 1.37548E+00 2.47302E-14-2.61492E-14
 -1      7695 1.63630E+00 7.09720E+01 1.10361E-02 6.37408E-01 2.71214E-13 1.21425E-13
 -1      7696 1.52577E+00 6.91686E+01 1.86101E-03 1.68884E+00 4.27436E-15 1.87628E-14
 -1      7697 1.69914E+00 6.96480E+01 1.42088E-02 7.80698E-01-1.43344E-13 1.21847E-13
 -1      7698 1.56068E+00 6.74515E+01 2.18574E-03 2.09760E+00-2.50633E-14-1.09964E-13
 -1      7699 1.78807E+00 6.80206E+01 1.85774E-02 9.67289E-01-6.59889E-14 4.90163E-14
 -1      7700 1.59543E+00 6.53193E+01 2.41021E-03 2.63866E+00-5.90916E-14-1.03584E-13
 -1      7701 1.90514E+00 6.59967E+01 2.47010E-02 1.21400E+00-3.01564E-14 9.29500E-14
 -1      7702 1.60850E+00 6.26408E+01 2.38941E-03 3.36614E+00-2.40363E-14 1.49464E-14
 -1      7703 2.04729E+00 6.34468E+01 3.34369E-02 1.54570E+00-3.62210E-14 1.02678E-13
 -1      7704 1.55088E+00 5.92338E+01 1.34107E-03 4.35985E+00-4.08562E-14 6.85563E-14
 -1      7705 2.19907E+00 6.01879E+01 4.63264E-02 1.99955E+00-1.13493E-13 9.35432E-14
 -1      7706 1.31647E+00 5.48431E+01-1.94254E-03 5.73784E+00-1.27676E-14 5.04319E-14
 -1      7707 2.31230E+00 5.59574E+01 6.44328E-02 2.63237E+00 6.56142E-14-1.00336E-14
 -1      7708 2.27730E+00 5.03903E+01 1.00819E-01 3.52495E+00-2.51854E-13 4.70457E-15
 -1      7709 1.78683E+00 7.78369E+01 5.44857E-05 2.41489E-13-9.29400E-15-5.37190E-14
 -1      7710 1.78885E+00 7.78467E+01 8.15378E-04-4.12219E-03 1.55339E-14 4.90938E-15
 -1      7711 1.78433E+00 7.78133E+01 5.52626E-05 4.06233E-13-4.66857E-15 7.70780E-15
 -1      7712 1.78721E+00 7.78311E+01 8.24546E-04-1.24128E-02 6.54858E-15-6.49405E-15
 -1      7713 1.78014E+00 7.77735E+01 5.67269E-05 8.06374E-13-1.08117E-14-4.30306E-14
 -1      7714 1.78390E+00 7.77995E+01 8.43218E-04-2.08440E-02 2.61913E-14-1.20776E-14
 -1      7715 1.77418E+00 7.77173E+01 5.91377E-05 7.70069E-13-9.58955E-15 1.06125E-14
 -1      7716 1.77888E+00 7.77517E+01 8.72082E-04-2.95169E-02-5.90370E-14-4.01150E-14
 -1      7717 1.76639E+00 7.76438E+01 6.28673E-05 1.38308E-12 5.48199E-14-1.16836E-15
 -1      7718 1.77209E+00 7.76872E+01 9.12215E-04-3.85435E-02 1.98661E-14 2.58210E-14
 -1      7719 1.75671E+00 7.75523E+01 6.84113E-05 1.20770E-12-8.96505E-15 2.35782E-14
 -1      7720 1.76345E+00 7.76050E+01 9.65140E-04-4.80519E-02-4.93529E-15 2.90688E-14
 -1      7721 1.74507E+00 7.74414E+01 7.64032E-05 2.23559E-12 8.76382E-15-1.04294E-14
 -1      7722 1.75290E+00 7.75043E+01 1.03291E-03-5.81924E-02-6.33495E-14 1.03110E-14
 -1      7723 1.73145E+00 7.73096E+01 8.76332E-05 3.08342E-12-3.43978E-14 5.99597E-14
 -1      7724 1.74041E+00 7.73836E+01 1.11822E-03-6.91446E-02-3.74960E-14-4.71780E-15
 -1      7725 1.71588E+00 7.71551E+01 1.03073E-04 2.99890E-12 5.80508E-14 2.74584E-14
 -1      7726 1.72598E+00 7.72412E+01 1.22456E-03-8.11259E-02 8.64586E-15 2.79384E-14
 -1      7727 1.69845E+00 7.69752E+01 1.23909E-04 4.72442E-12-6.88425E-14-3.66209E-14
 -1      7728 1.70966E+00 7.70749E+01 1.35645E-03-9.44021E-02 1.04125E-13-1.53730E-14
 -1      7729 1.67938E+00 7.67670E+01 1.51585E-04 5.18670E-12-6.00249E-14 9.32921E-15
 -1      7730 1.69163E+00 7.68821E+01 1.51971E-03-1.09301E-01-7.43260E-14-7.51981E-14
 -1      7731 1.65901E+00 7.65266E+01 1.87861E-04 5.98057E-12-6.76612E-14-4.15277E-14
 -1      7732 1.67217E+00 7.66592E+01 1.72185E-03-1.26230E-01 3.77129E-14-7.41876E-14
 -1      7733 1.63788E+00 7.62491E+01 2.34891E-04 7.23062E-12 1.65742E-13-6.44099E-14
 -1      7734 1.65171E+00 7.64020E+01 1.97264E-03-1.45698E-01-3.91839E-14-4.90628E-14
 -1      7735 1.61671E+00 7.59286E+01 2.95322E-04 7.65812E-12-4.38746E-14 1.59465E-14
 -1      7736 1.63092E+00 7.61052E+01 2.28486E-03-1.68346E-01-6.12878E-14-1.86858E-14
 -1      7737 1.59653E+00 7.55573E+01 3.72433E-04 8.73262E-12-1.10974E-13 1.30832E-14
 -1      7738 1.61068E+00 7.57620E+01 2.67535E-03-1.94990E-01 1.46598E-13 4.08419E-15
 -1      7739 1.57866E+00 7.51258E+01 4.70317E-04 1.14285E-11 7.85830E-14-2.48533E-14
 -1      7740 1.59219E+00 7.53641E+01 3.16654E-03-2.26670E-01 6.75952E-14-5.24264E-14
 -1      7741 1.56479E+00 7.46220E+01 5.94114E-04 1.26649E-11 2.62637E-14-9.23347E-14
 -1      7742 1.57700E+00 7.49009E+01 3.78867E-03-2.64733E-01 1.83811E-14-9.10496E-14
 -1      7743 1.55704E+00 7.40303E+01 7.50307E-04 1.49099E-11-3.32998E-14 8.82784E-14
 -1      7744 1.56706E+00 7.43588E+01 4.58293E-03-3.10936E-01 6.62387E-14-2.02217E-14
 -1      7745 1.55799E+00 7.33310E+01 9.47053E-04 1.71082E-11-7.45029E-14 4.44246E-14
 -1      7746 1.56481E+00 7.37206E+01 5.60628E-03-3.67598E-01 1.24921E-13 8.77722E-14
 -1      7747 1.57070E+00 7.24982E+01 1.19451E-03 2.09239E-11-7.71605E-14-2.51066E-15
 -1      7748 1.57321E+00 7.29641E+01 6.93858E-03-4.37825E-01 5.75026E-14 2.01835E-15
 -1      7749 1.59870E+00 7.14983E+01 1.50482E-03 2.46971E-11-7.71744E-14 8.03372E-15
 -1      7750 1.59572E+00 7.20606E+01 8.69355E-03-5.25827E-01 5.86475E-14-5.19784E-14
 -1      7751 1.64576E+00 7.02866E+01 1.89169E-03 2.98203E-11 2.01228E-14 7.63391E-14
 -1      7752 1.63630E+00 7.09720E+01 1.10361E-02-6.37408E-01-1.06679E-13-4.08527E-14
 -1      7753 1.71553E+00 6.88030E+01 2.36545E-03 3.50505E-11 1.99354E-13 3.16063E-14
 -1      7754 1.69914E+00 6.96480E+01 1.42088E-02-7.80698E-01 1.54959E-13 2.61891E-14
 -1      7755 1.81043E+00 6.69654E+01 2.93126E-03 4.46255E-11-1.78024E-13 7.07705E-14
 -1      7756 1.78807E+00 6.80206E+01 1.85774E-02-9.67289E-01 4.49363E-14 3.69444E-14
 -1      7757 1.92928E+00 6.46600E+01 3.52386E-03 5.54793E-11-2.24182E-13 1.39260E-13
 -1      7758 1.90514E+00 6.59967E+01 2.47010E-02-1.21400E+00 8.38635E-14-1.18655E-14
 -1      7759 2.06213E+00 6.17257E+01 4.09864E-03 7.00210E-11-9.62563E-14-2.78074E-14
 -1      7760 2.04729E+00 6.34468E+01 3.34369E-02-1.54570E+00 2.68507E-13-4.12656E-14
 -1      7761 2.17694E+00 5.79302E+01 3.74285E-03 9.16740E-11-2.47025E-14-8.53701E-16
 -1      7762 2.19907E+00 6.01879E+01 4.63264E-02-1.99955E+00-3.51275E-13-6.82301E-14
 -1      7763 2.19269E+00 5.29336E+01 2.59690E-03 1.16609E-10-3.40228E-13-1.52170E-13
 -1      7764 2.31230E+00 5.59574E+01 6.44328E-02-2.63237E+00 1.55986E-13-3.50622E-14
 -1      7765 2.27730E+00 5.03903E+01 1.00819E-01-3.52495E+00-3.37286E-13-6.93889E-15
 -1      7766 1.77817E+00 7.78551E+01 5.14876E-05-1.64180E-02 6.17995E-16 2.42935E-14
 -1      7767 1.77158E+00 7.78830E+01 7.98614E-04-1.22585E-02-1.31952E-14 1.79847E-15
 -1      7768 1.77553E+00 7.78318E+01 5.20795E-05-3.30185E-02 1.51498E-14-1.33986E-15
 -1      7769 1.76975E+00 7.78677E+01 8.07254E-04-3.69102E-02 6.27992E-15 1.59662E-14
 -1      7770 1.77108E+00 7.77926E+01 5.32254E-05-4.99922E-02-2.96057E-14 2.02132E-14
 -1      7771 1.76605E+00 7.78370E+01 8.24838E-04-6.19727E-02-3.37031E-14-2.96790E-15
 -1      7772 1.76476E+00 7.77371E+01 5.51685E-05-6.75471E-02 5.07927E-15-4.34696E-14
 -1      7773 1.76041E+00 7.77905E+01 8.51994E-04-8.77405E-02 3.37438E-14 7.34048E-15
 -1      7774 1.75647E+00 7.76647E+01 5.82572E-05-8.59175E-02 3.65203E-14 2.71267E-14
 -1      7775 1.75276E+00 7.77278E+01 8.89699E-04-1.14540E-01-1.26323E-14-2.37709E-14
 -1      7776 1.74614E+00 7.75745E+01 6.29534E-05-1.05375E-01-9.20184E-15 1.10285E-15
 -1      7777 1.74297E+00 7.76480E+01 9.39335E-04-1.42746E-01-3.55271E-15 1.65449E-15
 -1      7778 1.73366E+00 7.74653E+01 6.98441E-05-1.26241E-01 6.81920E-15-2.65608E-14
 -1      7779 1.73093E+00 7.75503E+01 1.00275E-03-1.72794E-01-3.77424E-14-2.27379E-15
 -1      7780 1.71897E+00 7.73356E+01 7.96563E-05-1.48901E-01-6.31977E-14-4.34266E-14
 -1      7781 1.71654E+00 7.74333E+01 1.08237E-03-2.05208E-01 1.49256E-14-3.59842E-14
 -1      7782 1.70206E+00 7.71837E+01 9.32756E-05-1.73826E-01-2.14793E-14 5.51816E-15
 -1      7783 1.69971E+00 7.72956E+01 1.18133E-03-2.40618E-01-1.30604E-13-3.30977E-14
 -1      7784 1.68296E+00 7.70071E+01 1.11771E-04-2.01593E-01 5.94420E-14 2.19573E-15
 -1      7785 1.68039E+00 7.71352E+01 1.30362E-03-2.79796E-01 5.34520E-14-1.03446E-14
 -1      7786 1.66179E+00 7.68029E+01 1.36427E-04-2.32912E-01 5.75026E-14-6.40950E-14
 -1      7787 1.65860E+00 7.69495E+01 1.45437E-03-3.23689E-01 1.08989E-13-1.50028E-14
 -1      7788 1.63880E+00 7.65674E+01 1.68779E-04-2.68672E-01-5.76657E-14-2.19434E-14
 -1      7789 1.63443E+00 7.67354E+01 1.64016E-03-3.73472E-01-1.00576E-13-2.12673E-14
 -1      7790 1.61439E+00 7.62961E+01 2.10669E-04-3.09983E-01-1.72848E-14 3.01174E-14
 -1      7791 1.60809E+00 7.64892E+01 1.86942E-03-4.30613E-01-4.72643E-14 7.22903E-15
 -1      7792 1.58911E+00 7.59832E+01 2.64300E-04-3.58245E-01-1.25899E-13-5.85330E-14
 -1      7793 1.57993E+00 7.62061E+01 2.15306E-03-4.96951E-01 1.58207E-15 3.16127E-14
 -1      7794 1.56374E+00 7.56216E+01 3.32316E-04-4.15241E-01 2.78978E-14-1.66260E-14
 -1      7795 1.55042E+00 7.58800E+01 2.50525E-03-5.74814E-01-1.00614E-14-1.50999E-14
 -1      7796 1.53931E+00 7.52023E+01 4.17884E-04-4.83254E-01-5.24164E-14 4.93737E-14
 -1      7797 1.52022E+00 7.55036E+01 2.94458E-03-6.67166E-01 9.81056E-14 6.13329E-14
 -1      7798 1.51709E+00 7.47140E+01 5.24780E-04-5.65235E-01 7.89854E-14-3.66946E-14
 -1      7799 1.49017E+00 7.50676E+01 3.49560E-03-7.77818E-01 1.35291E-13 6.53037E-15
 -1      7800 1.49864E+00 7.41423E+01 6.57439E-04-6.65049E-01-3.30430E-14 1.51962E-14
 -1      7801 1.46125E+00 7.45604E+01 4.19107E-03-9.11715E-01-6.30329E-14-2.74086E-16
 -1      7802 1.48574E+00 7.34690E+01 8.20913E-04-7.87802E-01-5.37070E-14 2.15453E-15
 -1      7803 1.43455E+00 7.39673E+01 5.07509E-03-1.07534E+00-1.07428E-13-5.20799E-14
 -1      7804 1.48036E+00 7.26705E+01 1.02056E-03-9.40340E-01 4.92870E-14 2.19217E-14
 -1      7805 1.41113E+00 7.32698E+01 6.20768E-03-1.27730E+00 3.31679E-15 1.20598E-14
 -1      7806 1.48444E+00 7.17164E+01 1.26102E-03-1.13196E+00 4.35485E-14-4.26464E-14
 -1      7807 1.39182E+00 7.24442E+01 7.67126E-03-1.52914E+00 2.26263E-13 3.51316E-14
 -1      7808 1.49949E+00 7.05667E+01 1.54404E-03-1.37548E+00-8.21565E-14-1.02258E-13
 -1      7809 1.37673E+00 7.14605E+01 9.58017E-03-1.84662E+00 8.95742E-14-5.50775E-14
 -1      7810 1.52577E+00 6.91686E+01 1.86101E-03-1.68884E+00-1.74999E-14-1.43566E-14
 -1      7811 1.36443E+00 7.02795E+01 1.20940E-02-2.25148E+00-1.63328E-13-9.44661E-14
 -1      7812 1.56068E+00 6.74515E+01 2.18574E-03-2.09760E+00 1.84811E-13-1.47989E-13
 -1      7813 1.35040E+00 6.88508E+01 1.54375E-02-2.77418E+00 1.17878E-13-1.13826E-13
 -1      7814 1.59543E+00 6.53193E+01 2.41021E-03-2.63866E+00-1.51823E-14 2.38559E-14
 -1      7815 1.32408E+00 6.71087E+01 1.99277E-02-3.45800E+00-9.98784E-14-7.43294E-14
 -1      7816 1.60850E+00 6.26408E+01 2.38941E-03-3.36614E+00-3.20854E-14 3.75464E-14
 -1      7817 1.26320E+00 6.49676E+01 2.59841E-02-4.36523E+00 2.07306E-13-4.20913E-14
 -1      7818 1.55088E+00 5.92338E+01 1.34107E-03-4.35985E+00-2.91434E-14-6.25056E-14
 -1      7819 1.12317E+00 6.23171E+01 3.43783E-02-5.58564E+00 3.71925E-15-9.46465E-15
 -1      7820 1.31647E+00 5.48431E+01-1.94254E-03-5.73784E+00-7.99361E-15 6.46150E-14
 -1      7821 8.12778E-01 5.90147E+01 4.46465E-02-7.25016E+00 1.65562E-13-5.88973E-14
 -1      7822 1.64741E-01 5.49136E+01 6.60804E-02-9.53226E+00-1.60427E-14-4.52693E-14
 -1      7823 1.75242E+00 7.79095E+01 4.27031E-05-3.24068E-02-7.73828E-15-1.69101E-14
 -1      7824 1.73751E+00 7.79548E+01 7.65841E-04-2.00760E-02 1.91828E-15-1.31201E-14
 -1      7825 1.74936E+00 7.78871E+01 4.27573E-05-6.51640E-02-1.24703E-14-7.50181E-15
 -1      7826 1.73530E+00 7.79403E+01 7.73467E-04-6.04406E-02-1.71356E-14-8.32754E-15
 -1      7827 1.74418E+00 7.78494E+01 4.29784E-05-9.86375E-02-2.80756E-14-2.44986E-15
 -1      7828 1.73084E+00 7.79113E+01 7.88968E-04-1.01453E-01 2.04507E-14-1.02071E-14
 -1      7829 1.73679E+00 7.77962E+01 4.35642E-05-1.33226E-01-3.08521E-14 2.86923E-14
 -1      7830 1.72403E+00 7.78673E+01 8.12854E-04-1.43577E-01 1.66239E-14-2.39010E-14
 -1      7831 1.72705E+00 7.77269E+01 4.47951E-05-1.69378E-01 2.38420E-14-5.60550E-14
 -1      7832 1.71472E+00 7.78080E+01 8.45917E-04-1.87327E-01 1.45595E-14 2.62203E-15
 -1      7833 1.71480E+00 7.76406E+01 4.70373E-05-2.07614E-01-5.87889E-14 4.94327E-14
 -1      7834 1.70273E+00 7.77328E+01 8.89270E-04-2.33290E-01 6.44276E-15-3.08325E-14
 -1      7835 1.69988E+00 7.75364E+01 5.07465E-05-2.48548E-01 1.74140E-14 8.70224E-15
 -1      7836 1.68784E+00 7.76409E+01 9.44390E-04-2.82153E-01 9.19325E-14-4.13948E-14
 -1      7837 1.68209E+00 7.74129E+01 5.64714E-05-2.92915E-01 3.55549E-14 7.22599E-15
 -1      7838 1.66982E+00 7.75313E+01 1.01319E-03-3.34733E-01 1.38171E-14 3.47456E-14
 -1      7839 1.66128E+00 7.72687E+01 6.48571E-05-3.41611E-01 3.59868E-14-3.13347E-14
 -1      7840 1.64841E+00 7.74027E+01 1.09812E-03-3.92014E-01 4.13558E-14-4.55443E-14
 -1      7841 1.63730E+00 7.71016E+01 7.66459E-05-3.95727E-01-1.44161E-13-4.45833E-14
 -1      7842 1.62335E+00 7.72535E+01 1.20223E-03-4.55195E-01 5.12333E-14-4.49406E-14
 -1      7843 1.61005E+00 7.69091E+01 9.26750E-05-4.56612E-01 1.01429E-14 4.09729E-14
 -1      7844 1.59439E+00 7.70816E+01 1.32940E-03-5.25745E-01-1.71748E-13 1.47590E-14
 -1      7845 1.57947E+00 7.66881E+01 1.13867E-04-5.25936E-01-5.76865E-14-2.14282E-14
 -1      7846 1.56128E+00 7.68846E+01 1.48446E-03-6.05475E-01-9.66935E-15 1.67392E-14
 -1      7847 1.54557E+00 7.64348E+01 1.41206E-04-6.05781E-01 4.30697E-14 3.23691E-14
 -1      7848 1.52379E+00 7.66595E+01 1.67343E-03-6.96632E-01-1.60982E-14-7.55533E-14
 -1      7849 1.50841E+00 7.61442E+01 1.75695E-04-6.98763E-01 2.80331E-15 7.18609E-15
 -1      7850 1.48170E+00 7.64024E+01 1.90388E-03-8.02020E-01 3.12250E-17-4.01727E-14
 -1      7851 1.46814E+00 7.58106E+01 2.18266E-04-8.08184E-01 7.34551E-14-1.01889E-14
 -1      7852 1.43474E+00 7.61089E+01 2.18522E-03-9.25155E-01-1.28942E-13-6.18281E-14
 -1      7853 1.42490E+00 7.54266E+01 2.69624E-04-9.38246E-01 7.41039E-14 4.82843E-14
 -1      7854 1.38263E+00 7.57734E+01 2.52926E-03-1.07048E+00-1.54259E-13-9.19542E-14
 -1      7855 1.37883E+00 7.49831E+01 3.29954E-04-1.09434E+00-2.84148E-14 3.09076E-14
 -1      7856 1.32490E+00 7.53889E+01 2.95067E-03-1.24363E+00 1.69628E-13-1.52638E-14
 -1      7857 1.32993E+00 7.44689E+01 3.98396E-04-1.28346E+00 9.10175E-14 2.18783E-14
 -1      7858 1.26084E+00 7.49473E+01 3.46770E-03-1.45186E+00 3.24775E-14 2.28862E-14
 -1      7859 1.27787E+00 7.38701E+01 4.72087E-04-1.51473E+00-1.50574E-13-1.17163E-14
 -1      7860 1.18921E+00 7.44385E+01 4.10275E-03-1.70450E+00 3.98084E-14-1.25872E-14
 -1      7861 1.22166E+00 7.31691E+01 5.44420E-04-1.80022E+00-4.80033E-14-4.64767E-14
 -1      7862 1.10793E+00 7.38504E+01 4.88286E-03-2.01376E+00 7.25670E-14-2.65968E-14
 -1      7863 1.15911E+00 7.23444E+01 6.01778E-04-2.15606E+00-3.93088E-14 5.47895E-14
 -1      7864 1.01338E+00 7.31686E+01 5.83950E-03-2.39567E+00-4.67681E-14 8.91995E-15
 -1      7865 1.08579E+00 7.13690E+01 6.17743E-04-2.60409E+00 1.57513E-14-2.46331E-15
 -1      7866 8.99512E-01 7.23758E+01 7.00687E-03-2.87155E+00-5.05707E-14-2.96776E-14
 -1      7867 9.93472E-01 7.02094E+01 5.40950E-04-3.17412E+00 1.21333E-13 2.62984E-14
 -1      7868 7.56119E-01 7.14522E+01 8.41642E-03-3.46995E+00-3.82472E-14 3.35287E-14
 -1      7869 8.67164E-01 6.88242E+01 2.77662E-04-3.90743E+00-1.18877E-13 1.40693E-13
 -1      7870 5.66142E-01 7.03761E+01 1.00830E-02-4.22939E+00-1.31700E-14 1.06644E-13
 -1      7871 6.80065E-01 6.71637E+01-3.60722E-04-4.86145E+00-1.24900E-13-5.90500E-14
 -1      7872 3.01080E-01 6.91249E+01 1.19780E-02-5.20202E+00-1.07858E-13 7.61613E-14
 -1      7873 3.84559E-01 6.51696E+01-1.71179E-03-6.11648E+00-2.02283E-13-4.02456E-16
 -1      7874-8.67907E-02 6.76798E+01 1.39291E-02-6.45828E+00-1.08469E-13-4.51444E-14
 -1      7875-1.03910E-01 6.27805E+01-4.17713E-03-7.78345E+00-1.28231E-14 4.33265E-14
 -1      7876-6.77037E-01 6.60354E+01 1.57019E-02-8.09125E+00 9.02611E-14-3.13638E-14
 -1      7877-9.37887E-01 5.99375E+01-1.15382E-02-1.00121E+01-2.04031E-13 5.84532E-14
 -1      7878-1.60410E+00 6.42143E+01 1.52194E-02-1.02207E+01 3.03091E-14 2.49800E-14
 -1      7879-3.07651E+00 6.23400E+01 1.65173E-02-1.29739E+01-1.19071E-13 1.31006E-14
 -1      7880 1.71026E+00 7.79989E+01 2.87435E-05-4.75595E-02-1.63421E-14-9.61904E-16
 -1      7881 1.68750E+00 7.80609E+01 7.18504E-04-2.73804E-02-3.53428E-15 4.14209E-14
 -1      7882 1.70653E+00 7.79780E+01 2.79573E-05-9.56089E-02-8.37915E-15-1.16573E-14
 -1      7883 1.68478E+00 7.80475E+01 7.24716E-04-8.24147E-02 5.61790E-15-3.80672E-14
 -1      7884 1.70020E+00 7.79429E+01 2.67344E-05-1.44660E-01 2.88493E-14 1.70359E-14
 -1      7885 1.67926E+00 7.80208E+01 7.37311E-04-1.38282E-01 7.54345E-15-2.56292E-14
 -1      7886 1.69112E+00 7.78933E+01 2.52045E-05-1.95270E-01-5.27542E-14-1.39402E-14
 -1      7887 1.67080E+00 7.79804E+01 7.56642E-04-1.95578E-01 1.00722E-14-3.60476E-15
 -1      7888 1.67909E+00 7.78288E+01 2.35466E-05-2.48065E-01 3.26041E-15 1.47174E-14
 -1      7889 1.65918E+00 7.79261E+01 7.83251E-04-2.54961E-01-5.73977E-14-1.58294E-15
 -1      7890 1.66384E+00 7.77489E+01 2.19845E-05-3.03766E-01 3.64752E-14-4.68375E-15
 -1      7891 1.64411E+00 7.78575E+01 8.17885E-04-3.17184E-01 6.55431E-14-3.19484E-14
 -1      7892 1.64507E+00 7.76526E+01 2.07799E-05-3.63228E-01 2.29504E-15-4.93919E-14
 -1      7893 1.62525E+00 7.77739E+01 8.61525E-04-3.83122E-01-4.26447E-14-4.63518E-15
 -1      7894 1.62242E+00 7.75392E+01 2.02209E-05-4.27467E-01 5.57384E-14-4.73857E-14
 -1      7895 1.60217E+00 7.76748E+01 9.15407E-04-4.53813E-01-5.03356E-14 4.12352E-14
 -1      7896 1.59551E+00 7.74072E+01 2.06034E-05-4.97716E-01 9.34426E-14-4.51549E-14
 -1      7897 1.57440E+00 7.75591E+01 9.81059E-04-5.30504E-01 1.61676E-14 3.01582E-14
 -1      7898 1.56391E+00 7.72552E+01 2.22010E-05-5.75475E-01-6.52273E-14 6.71026E-14
 -1      7899 1.54140E+00 7.74257E+01 1.06033E-03-6.14703E-01-8.36657E-14 4.93919E-14
 -1      7900 1.52717E+00 7.70813E+01 2.52186E-05-6.62581E-01-3.49824E-14-3.41524E-14
 -1      7901 1.50254E+00 7.72733E+01 1.15544E-03-7.08248E-01 9.00339E-14-1.66950E-14
 -1      7902 1.48479E+00 7.68832E+01 2.97197E-05-7.61298E-01 2.53651E-14 4.49632E-14
 -1      7903 1.45714E+00 7.71003E+01 1.26899E-03-8.13391E-01 1.80099E-14 1.06035E-14
 -1      7904 1.43620E+00 7.66581E+01 3.55130E-05-8.74429E-01 1.37061E-13-9.87327E-14
 -1      7905 1.40438E+00 7.69047E+01 1.40398E-03-9.32898E-01 9.93129E-14-3.32078E-14
 -1      7906 1.38075E+00 7.64026E+01 4.19759E-05-1.00546E+00-7.75560E-14-4.78922E-14
 -1      7907 1.34331E+00 7.66840E+01 1.56376E-03-1.07019E+00-4.55122E-14-7.48707E-14
 -1      7908 1.31762E+00 7.61126E+01 4.77768E-05-1.15874E+00 1.59456E-14-3.04062E-14
 -1      7909 1.27275E+00 7.64357E+01 1.75194E-03-1.22949E+00-1.28925E-13-9.02577E-15
 -1      7910 1.24575E+00 7.57834E+01 5.04373E-05-1.33976E+00 4.71290E-14-5.82607E-14
 -1      7911 1.19119E+00 7.61563E+01 1.97213E-03-1.41609E+00-1.49453E-13-5.84602E-15
 -1      7912 1.16366E+00 7.54091E+01 4.56337E-05-1.55544E+00-6.99371E-14-1.04104E-13
 -1      7913 1.09664E+00 7.58423E+01 2.22738E-03-1.63656E+00 1.77219E-13-4.22544E-14
 -1      7914 1.06922E+00 7.49829E+01 2.60732E-05-1.81460E+00-1.57319E-13-2.27041E-14
 -1      7915 9.86344E-01 7.54896E+01 2.51923E-03-1.89920E+00-3.59712E-14-8.97719E-14
 -1      7916 9.59234E-01 7.44971E+01-2.03306E-05-2.12853E+00 8.62366E-14-5.29021E-14
 -1      7917 8.56402E-01 7.50939E+01 2.84582E-03-2.21445E+00-5.56499E-15-2.12677E-14
 -1      7918 8.28869E-01 7.39427E+01-1.13436E-04-2.51180E+00-1.32394E-14-1.56195E-14
 -1      7919 7.01178E-01 7.46508E+01 3.19855E-03-2.59555E+00 3.37230E-15-1.09229E-13
 -1      7920 6.70667E-01 7.33102E+01-2.85785E-04-2.98334E+00 1.22034E-13-4.94535E-14
 -1      7921 5.12382E-01 7.41565E+01 3.55599E-03-3.05932E+00-5.03486E-14-9.99756E-14
 -1      7922 4.73064E-01 7.25898E+01-5.90577E-04-3.56782E+00 9.15240E-14 7.50996E-14
 -1      7923 2.77688E-01 7.36090E+01 3.87301E-03-3.62717E+00-2.26930E-13 2.70686E-14
 -1      7924 2.18021E-01 7.17728E+01-1.11477E-03-4.29751E+00-1.35003E-13 4.85723E-15
 -1      7925-2.13930E-02 7.30095E+01 4.06148E-03-4.32624E+00 1.20390E-14 3.85803E-14
 -1      7926-1.22715E-01 7.08548E+01-1.99995E-03-5.21454E+00 4.69069E-14 2.49800E-14
 -1      7927-4.12729E-01 7.23661E+01 3.95403E-03-5.19069E+00-8.37663E-14 1.58207E-15
 -1      7928-5.93468E-01 6.98403E+01-3.46116E-03-6.37332E+00-1.10259E-13-4.06619E-14
 -1      7929-9.38407E-01 7.16993E+01 3.24863E-03-6.26249E+00-2.12608E-14 6.09651E-14
 -1      7930-1.26375E+00 6.87536E+01-5.91380E-03-7.84233E+00 1.04416E-13-6.16174E-14
 -1      7931-1.66180E+00 7.10519E+01 1.36398E-03-7.59107E+00-9.65339E-14 5.54973E-14
 -1      7932-2.24068E+00 6.76581E+01-9.21579E-03-9.70210E+00-3.99958E-14-7.40796E-14
 -1      7933-2.67687E+00 7.05062E+01-2.57566E-03-9.22844E+00 5.42622E-15-7.72715E-14
 -1      7934-3.69038E+00 6.66811E+01-1.83549E-02-1.20351E+01 1.43247E-13-2.45359E-14
 -1      7935-4.11948E+00 7.02065E+01-1.10470E-02-1.12168E+01 1.01530E-13-6.48370E-14
 -1      7936-6.16260E+00 7.04337E+01-2.40646E-02-1.35492E+01 2.20352E-13 1.87628E-14
 -1      7937 1.65277E+00 7.81217E+01 1.05695E-05-6.15111E-02-1.24384E-14-2.78744E-14
 -1      7938 1.62283E+00 7.81991E+01 6.58627E-04-3.40030E-02-4.19928E-15 1.52482E-15
 -1      7939 1.64818E+00 7.81028E+01 8.71669E-06-1.23613E-01 1.45571E-14 3.01096E-14
 -1      7940 1.61948E+00 7.81873E+01 6.63137E-04-1.02322E-01-2.77165E-15 4.98386E-14
 -1      7941 1.64037E+00 7.80710E+01 5.66427E-06-1.86922E-01 5.36073E-15-2.67841E-14
 -1      7942 1.61269E+00 7.81635E+01 6.72243E-04-1.71592E-01 2.10652E-14-3.94476E-14
 -1      7943 1.62913E+00 7.80263E+01 1.46118E-06-2.52107E-01-5.34733E-14 3.90313E-14
 -1      7944 1.60225E+00 7.81276E+01 6.86113E-04-2.42493E-01-6.65757E-14 1.64356E-14
 -1      7945 1.61416E+00 7.79683E+01-3.83374E-06-3.19921E-01 7.78717E-15 3.22312E-15
 -1      7946 1.58785E+00 7.80796E+01 7.04999E-04-3.15777E-01 4.56978E-14 1.53610E-14
 -1      7947 1.59506E+00 7.78967E+01-1.01634E-05-3.91227E-01-7.07420E-15 3.65402E-14
 -1      7948 1.56909E+00 7.80191E+01 7.29237E-04-3.92295E-01-5.92590E-14 1.13555E-14
 -1      7949 1.57137E+00 7.78110E+01-1.74905E-05-4.67041E-01-4.19040E-14 2.23493E-14
 -1      7950 1.54546E+00 7.79459E+01 7.59236E-04-4.73037E-01 4.04659E-14 2.90150E-14
 -1      7951 1.54251E+00 7.77105E+01-2.58241E-05-5.48573E-01 6.18412E-14 5.13929E-14
 -1      7952 1.51633E+00 7.78597E+01 7.95473E-04-5.59173E-01-6.76386E-14 2.05504E-14
 -1      7953 1.50783E+00 7.75946E+01-3.52607E-05-6.37275E-01 2.89126E-14 4.17886E-14
 -1      7954 1.48098E+00 7.77599E+01 8.38465E-04-6.52096E-01-2.01644E-14 2.49150E-14
 -1      7955 1.46657E+00 7.74623E+01-4.60428E-05-7.34907E-01 1.60982E-14-5.42292E-14
 -1      7956 1.43852E+00 7.76461E+01 8.88725E-04-7.53484E-01 7.40276E-14 4.74959E-14
 -1      7957 1.41784E+00 7.73125E+01-5.86474E-05-8.43606E-01-7.00863E-14 4.24417E-14
 -1      7958 1.38795E+00 7.75176E+01 9.46691E-04-8.65360E-01 1.41588E-14 1.33019E-14
 -1      7959 1.36061E+00 7.71440E+01-7.39150E-05-9.65981E-01 1.14329E-13-4.78471E-14
 -1      7960 1.32807E+00 7.73738E+01 1.01260E-03-9.90179E-01-2.42133E-14-7.54952E-15
 -1      7961 1.29366E+00 7.69553E+01-9.32401E-05-1.10523E+00 4.30749E-14 7.59497E-14
 -1      7962 1.25744E+00 7.72138E+01 1.08629E-03-1.13092E+00-5.77732E-14 3.57804E-14
 -1      7963 1.21549E+00 7.67445E+01-1.18854E-04-1.26527E+00 3.17975E-14 2.41820E-15
 -1      7964 1.17434E+00 7.70369E+01 1.16686E-03-1.29122E+00 1.46449E-13 1.34082E-13
 -1      7965 1.12423E+00 7.65100E+01-1.54246E-04-1.45092E+00 2.22496E-14-1.14214E-14
 -1      7966 1.07662E+00 7.68424E+01 1.25215E-03-1.47550E+00 5.35544E-14 8.12250E-14
 -1      7967 1.01746E+00 7.62497E+01-2.04785E-04-1.66816E+00 5.19446E-14 5.38805E-15
 -1      7968 9.61572E-01 7.66294E+01 1.33789E-03-1.68914E+00-2.06050E-14 3.45175E-14
 -1      7969 8.92006E-01 7.59615E+01-2.78666E-04-1.92433E+00-9.32379E-14-1.66568E-14
 -1      7970 8.25684E-01 7.63978E+01 1.41635E-03-1.93873E+00 6.14578E-14 1.54599E-14
 -1      7971 7.43521E-01 7.56438E+01-3.88315E-04-2.22858E+00-4.60187E-14-5.98237E-14
 -1      7972 6.64315E-01 7.61478E+01 1.47419E-03-2.23228E+00-2.11921E-13 6.65301E-14
 -1      7973 5.66008E-01 7.52955E+01-5.52506E-04-2.59222E+00 1.21667E-13-2.20240E-14
 -1      7974 4.71206E-01 7.58809E+01 1.48899E-03-2.57953E+00 1.83003E-13 4.33577E-14
 -1      7975 3.51017E-01 7.49167E+01-7.99504E-04-3.02932E+00 3.63667E-14-3.32928E-14
 -1      7976 2.37791E-01 7.56001E+01 1.42371E-03-2.99228E+00 1.28439E-14 2.45394E-14
 -1      7977 8.65027E-02 7.45102E+01-1.17164E-03-3.55724E+00 6.96734E-14 5.44634E-14
 -1      7978-4.77965E-02 7.53119E+01 1.21779E-03-3.48468E+00-1.01162E-13 4.61992E-14
 -1      7979-2.44842E-01 7.40831E+01-1.73180E-03-4.19724E+00-1.75041E-13-6.07292E-14
 -1      7980-4.02121E-01 7.50273E+01 7.72792E-04-4.07340E+00 9.28424E-14 3.39243E-14
 -1      7981-6.67993E-01 7.36502E+01-2.57087E-03-4.97495E+00-2.86438E-14-5.33323E-14
 -1      7982-8.48389E-01 7.47652E+01-6.99214E-05-4.77751E+00 2.31551E-14 4.75592E-14
 -1      7983-1.21898E+00 7.32388E+01-3.81947E-03-5.92015E+00 2.28983E-15-6.93889E-16
 -1      7984-1.41904E+00 7.45569E+01-1.56689E-03-5.61756E+00 1.64729E-14 3.88717E-14
 -1      7985-1.94937E+00 7.28975E+01-5.62043E-03-7.06510E+00 1.11994E-14 1.38653E-13
 -1      7986-2.15895E+00 7.44527E+01-4.12005E-03-6.61309E+00 1.21105E-13 1.29896E-14
 -1      7987-2.93165E+00 7.27092E+01-8.25549E-03-8.43947E+00 1.70725E-13 9.37583E-14
 -1      7988-3.12873E+00 7.45318E+01-8.38390E-03-7.77690E+00 9.58331E-14 3.43892E-14
 -1      7989-4.26224E+00 7.28134E+01-1.10699E-02-1.00575E+01 1.56888E-13 8.26283E-14
 -1      7990-4.40612E+00 7.49183E+01-1.52713E-02-9.10288E+00 6.64052E-14 1.62564E-13
 -1      7991-6.06310E+00 7.34272E+01-1.80320E-02-1.18919E+01-2.17083E-13 9.98368E-14
 -1      7992-6.08024E+00 7.57950E+01-2.64132E-02-1.05435E+01-3.07379E-13 1.37085E-13
 -1      7993-8.22225E+00 7.74444E+01-4.36504E-02-1.19679E+01-2.08384E-14 3.94684E-14
 -1      7994 1.58140E+00 7.82757E+01-1.05919E-05-7.39563E-02-1.48448E-14 2.39392E-14
 -1      7995 1.54508E+00 7.83672E+01 5.88650E-04-3.98082E-02-1.55303E-14-8.26075E-15
 -1      7996 1.57582E+00 7.82591E+01-1.36431E-05-1.48557E-01 1.80875E-14-1.33869E-14
 -1      7997 1.54106E+00 7.83570E+01 5.91309E-04-1.19752E-01 2.31534E-14-5.96346E-14
 -1      7998 1.56632E+00 7.82313E+01-1.87461E-05-2.24474E-01-2.07273E-14 1.31006E-14
 -1      7999 1.53287E+00 7.83366E+01 5.96620E-04-2.00690E-01-3.29832E-14 6.14135E-14
 -1      8000 1.55261E+00 7.81924E+01-2.59347E-05-3.02436E-01-2.94313E-14 7.66748E-16
 -1      8001 1.52026E+00 7.83059E+01 6.04561E-04-2.83333E-01 4.03757E-15-1.74739E-14
 -1      8002 1.53429E+00 7.81421E+01-3.52715E-05-3.83258E-01 3.10949E-14 2.67971E-14
 -1      8003 1.50284E+00 7.82650E+01 6.15090E-04-3.68462E-01 1.13043E-14-4.91256E-14
 -1      8004 1.51082E+00 7.80805E+01-4.68654E-05-4.67875E-01 4.81212E-15-6.60687E-14
 -1      8005 1.48007E+00 7.82139E+01 6.28118E-04-4.56961E-01 5.26662E-15 3.33449E-14
 -1      8006 1.48154E+00 7.80072E+01-6.08984E-05-5.57379E-01-7.09155E-14 1.88729E-14
 -1      8007 1.45127E+00 7.81526E+01 6.43484E-04-5.49852E-01 2.05495E-14-1.25655E-14
 -1      8008 1.44566E+00 7.79222E+01-7.76641E-05-6.53064E-01 6.66880E-14-8.35408E-14
 -1      8009 1.41561E+00 7.80811E+01 6.60909E-04-6.48336E-01 4.77205E-14-2.60191E-14
 -1      8010 1.40222E+00 7.78251E+01-9.76237E-05-7.56472E-01 1.16830E-13-2.48855E-14
 -1      8011 1.37208E+00 7.79994E+01 6.79919E-04-7.53831E-01-1.91670E-14-1.40886E-14
 -1      8012 1.35010E+00 7.77159E+01-1.21485E-04-8.69455E-01 6.63358E-14 1.38032E-14
 -1      8013 1.31950E+00 7.79076E+01 6.99745E-04-8.68029E-01-5.29195E-14 6.26842E-14
 -1      8014 1.28798E+00 7.75942E+01-1.50318E-04-9.94240E-01-1.15880E-14 4.21815E-14
 -1      8015 1.25645E+00 7.78058E+01 7.19159E-04-9.92953E-01 1.00782E-13 2.12035E-14
 -1      8016 1.21429E+00 7.74598E+01-1.85714E-04-1.13351E+00-1.75485E-14 6.49949E-14
 -1      8017 1.18123E+00 7.76944E+01 7.36240E-04-1.13102E+00 6.30399E-15 2.92474E-14
 -1      8018 1.12713E+00 7.73127E+01-2.30015E-04-1.29050E+00 3.05450E-14 7.38992E-16
 -1      8019 1.09184E+00 7.75739E+01 7.48018E-04-1.28511E+00-8.84189E-15-7.42306E-14
 -1      8020 1.02419E+00 7.71530E+01-2.86640E-04-1.46912E+00-1.46202E-14 2.91676E-14
 -1      8021 9.85844E-01 7.74448E+01 7.49951E-04-1.45869E+00-5.19862E-14-9.41434E-14
 -1      8022 9.02611E-01 7.69808E+01-3.60540E-04-1.67405E+00 6.75987E-14 2.70721E-14
 -1      8023 8.60242E-01 7.73084E+01 7.35142E-04-1.65584E+00 9.75782E-14-5.64011E-14
 -1      8024 7.58769E-01 7.67972E+01-4.58844E-04-1.91095E+00 2.72386E-14 2.33147E-15
 -1      8025 7.11321E-01 7.71664E+01 6.93181E-04-1.88143E+00 7.48984E-14-3.05658E-15
 -1      8026 5.88004E-01 7.66039E+01-5.91752E-04-2.18656E+00-6.72448E-14 1.06009E-13
 -1      8027 5.34383E-01 7.70217E+01 6.08413E-04-2.14115E+00-1.80918E-13-1.59595E-16
 -1      8028 3.84219E-01 7.64037E+01-7.73768E-04-2.50891E+00 1.98695E-14-3.51316E-14
 -1      8029 3.23416E-01 7.68783E+01 4.57364E-04-2.44165E+00 9.15448E-14-3.53849E-14
 -1      8030 1.39328E-01 7.62017E+01-1.02533E-03-2.88748E+00 4.57308E-14 4.86416E-14
 -1      8031 7.06242E-02 7.67426E+01 2.04930E-04-2.79052E+00-2.79880E-14-3.62696E-14
 -1      8032-1.57506E-01 7.60060E+01-1.37484E-03-3.33325E+00-4.67161E-14 4.15640E-14
 -1      8033-2.34189E-01 7.66237E+01-2.01273E-04-3.19625E+00 6.13433E-14 2.86993E-14
 -1      8034-5.20900E-01 7.58294E+01-1.86087E-03-3.85866E+00 9.23497E-14 4.55538E-14
 -1      8035-6.04428E-01 7.65356E+01-8.39109E-04-3.66795E+00-3.58186E-14-5.05845E-14
 -1      8036-9.70601E-01 7.56921E+01-2.53392E-03-4.47710E+00 7.03326E-14 2.86438E-14
 -1      8037-1.05771E+00 7.64985E+01-1.82384E-03-4.21465E+00-1.42629E-13-1.09704E-14
 -1      8038-1.53315E+00 7.56249E+01-3.45398E-03-5.20176E+00 6.76334E-14 4.37705E-14
 -1      8039-1.61702E+00 7.65422E+01-3.32397E-03-4.84392E+00 2.92752E-14-3.95309E-14
 -1      8040-2.24369E+00 7.56749E+01-4.68570E-03-6.04306E+00-7.45792E-14-7.37743E-14
 -1      8041-2.31179E+00 7.67098E+01-5.58372E-03-5.55923E+00 7.48290E-14-5.52197E-14
 -1      8042-3.14731E+00 7.59130E+01-6.23653E-03-7.00347E+00-5.52614E-14-1.35530E-13
 -1      8043-3.17829E+00 7.70633E+01-8.94219E-03-6.35513E+00 1.01238E-13-1.20515E-13
 -1      8044-4.29839E+00 7.64437E+01-8.12534E-03-8.06782E+00 2.05891E-13-1.74305E-13
 -1      8045-4.25796E+00 7.76896E+01-1.38577E-02-7.20890E+00-5.04978E-14-1.86393E-13
 -1      8046-5.75291E+00 7.74189E+01-9.40860E-03-9.18578E+00 2.56600E-14 2.91711E-14
 -1      8047-5.59050E+00 7.87079E+01-2.08980E-02-8.06663E+00-9.13245E-14-2.39919E-13
 -1      8048-7.55063E+00 7.90428E+01-1.20014E-02-1.02434E+01-1.36254E-13-7.71605E-14
 -1      8049-7.19483E+00 8.02709E+01-3.04764E-02-8.82181E+00 8.75688E-14-1.42497E-13
 -1      8050-9.02859E+00 8.25663E+01-4.45495E-02-9.28859E+00 2.03976E-13-8.27116E-14
 -1      8051 1.49787E+00 7.84581E+01-3.33341E-05-8.46605E-02-3.86431E-15 3.32130E-14
 -1      8052 1.45609E+00 7.85621E+01 5.11284E-04-4.46979E-02 1.06339E-14 4.09178E-14
 -1      8053 1.49125E+00 7.84441E+01-3.76130E-05-1.69969E-01 1.36631E-15 7.26155E-15
 -1      8054 1.45138E+00 7.85537E+01 5.12081E-04-1.34410E-01 1.00855E-14-4.03575E-14
 -1      8055 1.47999E+00 7.84209E+01-4.48105E-05-2.56599E-01 5.81870E-15 2.61770E-15
 -1      8056 1.44179E+00 7.85370E+01 5.13582E-04-2.25081E-01-3.21481E-14-1.14058E-14
 -1      8057 1.46371E+00 7.83884E+01-5.50341E-05-3.45280E-01 1.00657E-15-7.99534E-15
 -1      8058 1.42702E+00 7.85120E+01 5.15587E-04-3.17397E-01 3.49508E-14 4.80354E-14
 -1      8059 1.44189E+00 7.83467E+01-6.84530E-05-4.36826E-01 3.82350E-14 1.30191E-15
 -1      8060 1.40657E+00 7.84789E+01 5.17777E-04-4.12106E-01-3.94511E-14 1.50808E-14
 -1      8061 1.41387E+00 7.82960E+01-8.53185E-05-5.32166E-01-7.66696E-14 3.92342E-14
 -1      8062 1.37979E+00 7.84379E+01 5.19674E-04-5.10055E-01-5.65867E-15 6.59420E-14
 -1      8063 1.37880E+00 7.82365E+01-1.05995E-04-6.32379E-01 6.22887E-14 4.05665E-14
 -1      8064 1.34584E+00 7.83893E+01 5.20600E-04-6.12215E-01-3.31367E-14 2.90462E-14
 -1      8065 1.33566E+00 7.81684E+01-1.31003E-04-7.38732E-01 5.38241E-14-2.09936E-14
 -1      8066 1.30368E+00 7.83335E+01 5.19599E-04-7.19718E-01 2.48673E-14 4.09048E-14
 -1      8067 1.28320E+00 7.80920E+01-1.61081E-04-8.52725E-01-2.75838E-14 3.46979E-14
 -1      8068 1.25208E+00 7.82709E+01 5.15341E-04-8.33890E-01-3.16015E-14-1.16261E-14
 -1      8069 1.21998E+00 7.80077E+01-1.97272E-04-9.76136E-01-2.37241E-14-3.48662E-14
 -1      8070 1.18954E+00 7.82024E+01 5.05969E-04-9.56294E-01 2.54952E-14-3.00506E-14
 -1      8071 1.14426E+00 7.79163E+01-2.41036E-04-1.11108E+00 4.02282E-15 9.27036E-15
 -1      8072 1.11429E+00 7.81286E+01 4.88896E-04-1.08877E+00 2.83228E-14-8.57318E-14
 -1      8073 1.05398E+00 7.78184E+01-2.94414E-04-1.26004E+00 1.04786E-13-3.35322E-15
 -1      8074 1.02423E+00 7.80509E+01 4.60506E-04-1.23348E+00-2.61076E-15-6.37788E-14
 -1      8075 9.46661E-01 7.77154E+01-3.60242E-04-1.42599E+00 7.25982E-14-4.87110E-14
 -1      8076 9.16880E-01 7.79708E+01 4.15735E-04-1.39295E+00 6.53262E-14 4.39995E-14
 -1      8077 8.19335E-01 7.76089E+01-4.42440E-04-1.61239E+00 2.12625E-14-5.47964E-14
 -1      8078 7.89239E-01 7.78903E+01 3.47483E-04-1.57012E+00-2.31568E-14-4.58782E-14
 -1      8079 6.68358E-01 7.75013E+01-5.46385E-04-1.82329E+00-4.92488E-15 8.29198E-15
 -1      8080 6.37708E-01 7.78123E+01 2.45771E-04-1.76834E+00-1.08837E-14 1.01759E-14
 -1      8081 4.89232E-01 7.73959E+01-6.79396E-04-2.06335E+00 1.93456E-14 9.16038E-14
 -1      8082 4.57909E-01 7.77405E+01 9.65756E-05-1.99143E+00 3.40439E-14 3.25642E-14
 -1      8083 2.76338E-01 7.72976E+01-8.51314E-04-2.33788E+00-2.80539E-14-6.24292E-14
 -1      8084 2.44466E-01 7.76802E+01-1.19819E-04-2.24361E+00 2.27110E-14-1.35135E-14
 -1      8085 2.25856E-02 7.72131E+01-1.07515E-03-2.65279E+00 7.23033E-14-4.47975E-14
 -1      8086-9.26397E-03 7.76385E+01-4.31083E-04-2.52939E+00 1.05405E-13-9.90319E-14
 -1      8087-2.81035E-01 7.71520E+01-1.36765E-03-3.01440E+00 8.99281E-15 5.78843E-14
 -1      8088-3.11533E-01 7.76248E+01-8.75925E-04-2.85338E+00-9.57567E-14-9.85323E-16
 -1      8089-6.46005E-01 7.71279E+01-1.74945E-03-3.42910E+00-8.21530E-14-1.15741E-13
 -1      8090-6.72599E-01 7.76526E+01-1.50818E-03-3.21981E+00 1.52447E-13 2.16771E-14
 -1      8091-1.08692E+00 7.71602E+01-2.24396E-03-3.90264E+00 9.09724E-14-3.87190E-15
 -1      8092-1.10515E+00 7.77397E+01-2.40191E-03-3.63184E+00 1.32224E-13 3.99125E-14
 -1      8093-1.62212E+00 7.72759E+01-2.87362E-03-4.43874E+00-1.60323E-14 2.35575E-14
 -1      8094-1.62465E+00 7.79108E+01-3.65749E-03-4.09018E+00 3.65263E-14 5.47132E-14
 -1      8095-2.27414E+00 7.75131E+01-3.64837E-03-5.03683E+00 1.00350E-13-5.66908E-15
 -1      8096-2.24941E+00 7.81990E+01-5.40680E-03-4.59100E+00-1.85442E-14 1.96648E-14
 -1      8097-3.06936E+00 7.79243E+01-4.54720E-03-5.68798E+00 6.65266E-14 4.62269E-14
 -1      8098-2.99988E+00 7.86486E+01-7.81606E-03-5.12249E+00 2.50964E-13-2.64094E-14
 -1      8099-4.03581E+00 7.85811E+01-5.44626E-03-6.36848E+00-1.30545E-13 2.37310E-15
 -1      8100-3.89631E+00 7.93171E+01-1.10765E-02-5.65955E+00 1.11595E-13-1.05055E-14
 -1      8101-5.19710E+00 7.95777E+01-6.11613E-03-7.02958E+00 4.86126E-14 8.42659E-14
 -1      8102-4.95309E+00 8.02774E+01-1.53623E-02-6.15593E+00-4.35503E-14 1.44551E-13
 -1      8103-6.55753E+00 8.10324E+01-5.70075E-03-7.58262E+00-2.14776E-14-5.44842E-14
 -1      8104-6.16675E+00 8.16158E+01-2.08219E-02-6.53363E+00 1.24602E-13 1.68102E-13
 -1      8105-8.07381E+00 8.30790E+01-4.15918E-03-7.88016E+00 7.85483E-15-5.37625E-14
 -1      8106-7.49306E+00 8.34248E+01-2.69262E-02-6.67031E+00 1.50782E-13 1.00059E-13
 -1      8107-8.80689E+00 8.57786E+01-3.49607E-02-6.39360E+00-3.45279E-13 6.98330E-14
 -1      8108 1.40411E+00 7.86658E+01-5.61616E-05-9.34672E-02 2.88650E-14-5.19107E-14
 -1      8109 1.39650E+00 7.86546E+01-6.16012E-05-1.87534E-01-1.70447E-14 2.49280E-15
 -1      8110 1.38353E+00 7.86361E+01-7.07710E-05-2.82825E-01-5.75625E-15 5.79892E-14
 -1      8111 1.36477E+00 7.86104E+01-8.38354E-05-3.80014E-01-2.05387E-14-1.71486E-14
 -1      8112 1.33960E+00 7.85779E+01-1.01043E-04-4.79847E-01-9.43343E-15-3.84588E-15
 -1      8113 1.30722E+00 7.85388E+01-1.22746E-04-5.83174E-01-4.42779E-14 1.54651E-15
 -1      8114 1.26661E+00 7.84936E+01-1.49431E-04-6.90975E-01-2.68136E-14-1.48770E-14
 -1      8115 1.21655E+00 7.84431E+01-1.81759E-04-8.04390E-01 7.58204E-14-7.43242E-14
 -1      8116 1.15557E+00 7.83879E+01-2.20621E-04-9.24752E-01-4.97866E-14 3.76782E-14
 -1      8117 1.08191E+00 7.83292E+01-2.67209E-04-1.05362E+00 5.72806E-14-1.22992E-15
 -1      8118 9.93517E-01 7.82684E+01-3.23119E-04-1.19280E+00-2.71796E-14-3.99663E-14
 -1      8119 8.87939E-01 7.82071E+01-3.90467E-04-1.34441E+00 7.93809E-15 8.47551E-14
 -1      8120 7.62294E-01 7.81478E+01-4.72052E-04-1.51084E+00 5.17364E-14 2.43191E-14
 -1      8121 6.13150E-01 7.80934E+01-5.71533E-04-1.69482E+00-1.38988E-13 1.92554E-15
 -1      8122 4.36409E-01 7.80480E+01-6.93638E-04-1.89937E+00 1.22714E-14-4.77569E-14
 -1      8123 2.27145E-01 7.80167E+01-8.44358E-04-2.12775E+00-1.90837E-14 3.71127E-14
 -1      8124-2.05846E-02 7.80066E+01-1.03105E-03-2.38333E+00-1.16780E-13-8.73260E-15
 -1      8125-3.13966E-01 7.80270E+01-1.26235E-03-2.66933E+00-7.86003E-14 1.82042E-14
 -1      8126-6.61676E-01 7.80900E+01-1.54747E-03-2.98842E+00-5.09280E-14-5.54799E-14
 -1      8127-1.07410E+00 7.82122E+01-1.89454E-03-3.34201E+00 1.45602E-13 7.38923E-14
 -1      8128-1.56343E+00 7.84152E+01-2.30666E-03-3.72909E+00-1.37203E-13 8.76452E-14
 -1      8129-2.14348E+00 7.87273E+01-2.77422E-03-4.14446E+00 5.04336E-14-1.18364E-13
 -1      8130-2.82878E+00 7.91857E+01-3.25913E-03-4.57600E+00 3.31095E-13-7.23449E-14
 -1      8131-3.63242E+00 7.98370E+01-3.67144E-03-5.00058E+00-2.17429E-13 5.72042E-14
 -1      8132-4.56124E+00 8.07387E+01-3.81019E-03-5.37835E+00 2.19312E-13 5.30131E-15
 -1      8133-5.60678E+00 8.19567E+01-3.34867E-03-5.64524E+00-1.18364E-13 9.70890E-14
 -1      8134-6.72868E+00 8.35587E+01-1.64528E-03-5.70469E+00 2.37088E-13 4.76008E-14
 -1      8135-7.82755E+00 8.56002E+01 2.44840E-03-5.42179E+00 1.12299E-13 1.28675E-13
 -1      8136 1.25082E+00 7.90147E+01 5.12494E-04-1.03138E-01-1.23834E-14-2.64940E-14
 -1      8137 1.24192E+00 7.90078E+01 4.91292E-04-2.06722E-01-2.79507E-14 2.82942E-14
 -1      8138 1.22674E+00 7.89965E+01 4.54919E-04-3.11216E-01 6.24078E-15-1.56728E-14
 -1      8139 1.20476E+00 7.89811E+01 4.01763E-04-4.17117E-01 1.91400E-14-2.51500E-14
 -1      8140 1.17525E+00 7.89621E+01 3.29451E-04-5.24974E-01-3.80971E-14 6.25164E-14
 -1      8141 1.13724E+00 7.89401E+01 2.34723E-04-6.35402E-01-1.24228E-15-3.25798E-14
 -1      8142 1.08952E+00 7.89162E+01 1.13256E-04-7.49102E-01 4.19493E-14 5.10546E-14
 -1      8143 1.03063E+00 7.88912E+01-4.05793E-05-8.66874E-01 1.48362E-14 3.12805E-14
 -1      8144 9.58825E-01 7.88667E+01-2.34030E-04-9.89627E-01-3.36658E-14-1.35686E-14
 -1      8145 8.72051E-01 7.88444E+01-4.76372E-04-1.11839E+00-2.31967E-14 5.81219E-15
 -1      8146 7.67915E-01 7.88264E+01-7.79429E-04-1.25430E+00-4.30263E-14 5.01656E-14
 -1      8147 6.43641E-01 7.88156E+01-1.15821E-03-1.39859E+00 7.04883E-14 1.05497E-14
 -1      8148 4.96028E-01 7.88154E+01-1.63168E-03-1.55258E+00 2.80006E-14 1.09340E-14
 -1      8149 3.21393E-01 7.88300E+01-2.22359E-03-1.71756E+00 4.52971E-14 7.32608E-14
 -1      8150 1.15521E-01 7.88649E+01-2.96341E-03-1.89469E+00-5.06969E-14-1.54130E-15
 -1      8151-1.26387E-01 7.89266E+01-3.88695E-03-2.08486E+00-1.13789E-14 2.06102E-14
 -1      8152-4.09736E-01 7.90237E+01-5.03656E-03-2.28834E+00-3.22624E-14 8.51437E-14
 -1      8153-7.40515E-01 7.91664E+01-6.45997E-03-2.50439E+00-5.95726E-14 1.17614E-13
 -1      8154-1.12517E+00 7.93677E+01-8.20661E-03-2.73064E+00 6.56684E-14 7.18106E-14
 -1      8155-1.57026E+00 7.96435E+01-1.03191E-02-2.96218E+00 1.11630E-13 4.19699E-14
 -1      8156-2.08183E+00 8.00128E+01-1.28168E-02-3.19035E+00-1.76970E-13 1.14086E-13
 -1      8157-2.66409E+00 8.04986E+01-1.56647E-02-3.40101E+00-3.35884E-14 3.84050E-14
 -1      8158-3.31722E+00 8.11267E+01-1.87229E-02-3.57245E+00-2.61263E-14 1.61021E-13
 -1      8159-4.03359E+00 8.19253E+01-2.16639E-02-3.67279E+00 1.88852E-13-4.57238E-14
 -1      8160-4.79180E+00 8.29217E+01-2.38618E-02-3.65743E+00-7.45038E-14 3.19883E-15
 -1      8161-5.54772E+00 8.41367E+01-2.42621E-02-3.46738E+00-5.75321E-14 2.26451E-14
 -1      8162-6.22202E+00 8.55751E+01-2.12201E-02-3.03049E+00-1.07886E-13-2.89907E-14
 -1      8163-6.68655E+00 8.72101E+01-1.29426E-02-2.26947E+00 1.73285E-13-7.76670E-14
 -1      8164 1.14052E+00 7.92693E+01 3.09059E-04-1.07010E-01 3.86446E-14 4.19764E-14
 -1      8165 1.13102E+00 7.92651E+01 2.83114E-04-2.14315E-01-4.09648E-14-6.01893E-14
 -1      8166 1.11482E+00 7.92584E+01 2.38706E-04-3.22223E-01 1.41333E-14-4.40117E-14
 -1      8167 1.09137E+00 7.92496E+01 1.74038E-04-4.31061E-01-5.64219E-16 4.21863E-14
 -1      8168 1.05988E+00 7.92392E+01 8.65001E-05-5.41187E-01-4.91534E-15-2.09724E-14
 -1      8169 1.01931E+00 7.92281E+01-2.74287E-05-6.53001E-01 1.33645E-14-4.29257E-15
 -1      8170 9.68391E-01 7.92174E+01-1.72317E-04-7.66948E-01 1.28721E-14-5.00251E-15
 -1      8171 9.05576E-01 7.92082E+01-3.53952E-04-8.83522E-01-4.51655E-14-4.05752E-15
 -1      8172 8.29037E-01 7.92023E+01-5.79553E-04-1.00327E+00 2.78842E-14-4.85332E-15
 -1      8173 7.36646E-01 7.92017E+01-8.58028E-04-1.12677E+00-7.19589E-14 4.77405E-14
 -1      8174 6.25955E-01 7.92090E+01-1.20026E-03-1.25462E+00 1.86452E-14-7.63278E-15
 -1      8175 4.94177E-01 7.92272E+01-1.61941E-03-1.38740E+00-5.98163E-14 1.07921E-13
 -1      8176 3.38170E-01 7.92602E+01-2.13118E-03-1.52560E+00-1.50969E-13 4.66268E-14
 -1      8177 1.54432E-01 7.93125E+01-2.75394E-03-1.66952E+00 4.14946E-14 9.69624E-14
 -1      8178-6.08959E-02 7.93899E+01-3.50859E-03-1.81911E+00 4.82097E-14 6.31084E-14
 -1      8179-3.11980E-01 7.94992E+01-4.41780E-03-1.97375E+00 7.71818E-14 2.70608E-14
 -1      8180-6.03203E-01 7.96486E+01-5.50418E-03-2.13194E+00-1.07306E-14-1.08417E-13
 -1      8181-9.38968E-01 7.98479E+01-6.78664E-03-2.29086E+00-6.21777E-14-5.52683E-15
 -1      8182-1.32335E+00 8.01089E+01-8.27361E-03-2.44571E+00 3.91874E-14 1.46027E-13
 -1      8183-1.75950E+00 8.04450E+01-9.95145E-03-2.58901E+00-8.57645E-14 6.44432E-14
 -1      8184-2.24865E+00 8.08716E+01-1.17656E-02-2.70946E+00-1.35695E-14 6.50521E-14
 -1      8185-2.78851E+00 8.14051E+01-1.35918E-02-2.79084E+00-9.76640E-14 9.34634E-14
 -1      8186-3.37084E+00 8.20624E+01-1.51949E-02-2.81061E+00-9.51843E-15-3.73104E-14
 -1      8187-3.97785E+00 8.28583E+01-1.61775E-02-2.73878E+00-8.56173E-15 5.63265E-14
 -1      8188-4.57710E+00 8.38022E+01-1.59249E-02-2.53745E+00-3.83218E-14 1.66499E-14
 -1      8189-5.11509E+00 8.48922E+01-1.35927E-02-2.16214E+00-6.75432E-14 3.83062E-14
 -1      8190-5.50992E+00 8.61074E+01-8.14278E-03-1.56644E+00 2.73861E-13 2.24220E-13
 -1      8191-5.64577E+00 8.73978E+01 1.25639E-03-7.12570E-01 7.87426E-14-6.89865E-14
 -1      8192 1.02724E+00 7.95367E+01 1.17065E-04-1.09017E-01-5.36325E-15-2.74529E-14
 -1      8193 1.01741E+00 7.95352E+01 8.82032E-05-2.18155E-01 4.80683E-14 8.31626E-15
 -1      8194 1.00064E+00 7.95328E+01 3.88970E-05-3.27538E-01 5.81398E-15 1.48709E-15
 -1      8195 9.76361E-01 7.95302E+01-3.26899E-05-4.37300E-01-1.61095E-14-7.99664E-15
 -1      8196 9.43761E-01 7.95278E+01-1.29190E-04-5.47582E-01-9.64864E-15 5.51612E-14
 -1      8197 9.01784E-01 7.95267E+01-2.54092E-04-6.58538E-01-1.58584E-14-1.25152E-14
 -1      8198 8.49122E-01 7.95280E+01-4.11818E-04-7.70328E-01-1.14984E-14-2.74325E-14
 -1      8199 7.84206E-01 7.95330E+01-6.07809E-04-8.83115E-01-1.70864E-14-3.14935E-14
 -1      8200 7.05197E-01 7.95436E+01-8.48618E-04-9.97052E-01-2.05411E-14-4.44063E-14
 -1      8201 6.09983E-01 7.95619E+01-1.14199E-03-1.11225E+00-1.32307E-14-7.57042E-14
 -1      8202 4.96169E-01 7.95907E+01-1.49689E-03-1.22877E+00-9.19555E-14-9.09264E-14
 -1      8203 3.61088E-01 7.96331E+01-1.92349E-03-1.34653E+00-2.41651E-14-6.24735E-14
 -1      8204 2.01816E-01 7.96930E+01-2.43293E-03-1.46523E+00 4.28008E-14-1.10959E-13
 -1      8205 1.52119E-02 7.97750E+01-3.03687E-03-1.58426E+00-5.20781E-14-5.95253E-14
 -1      8206-2.02015E-01 7.98847E+01-3.74645E-03-1.70252E+00 1.23755E-14-6.74903E-14
 -1      8207-4.53177E-01 8.00284E+01-4.57063E-03-1.81819E+00 5.03469E-14-1.46972E-13
 -1      8208-7.41410E-01 8.02136E+01-5.51309E-03-1.92840E+00-2.41185E-14 3.68768E-14
 -1      8209-1.06935E+00 8.04489E+01-6.56744E-03-2.02888E+00 9.86696E-14-1.46926E-13
 -1      8210-1.43864E+00 8.07440E+01-7.70957E-03-2.11342E+00 5.64080E-14-7.40519E-14
 -1      8211-1.84916E+00 8.11091E+01-8.88643E-03-2.17327E+00 2.81581E-14-2.06418E-13
 -1      8212-2.29792E+00 8.15551E+01-1.00000E-02-2.19647E+00-5.46458E-14-1.23374E-13
 -1      8213-2.77744E+00 8.20921E+01-1.08866E-02-2.16715E+00 2.95022E-14-2.26033E-13
 -1      8214-3.27352E+00 8.27285E+01-1.12928E-02-2.06504E+00-3.08126E-14-7.00499E-14
 -1      8215-3.76227E+00 8.34679E+01-1.08550E-02-1.86548E+00-1.08065E-14-2.05032E-13
 -1      8216-4.20654E+00 8.43068E+01-9.09485E-03-1.54044E+00-4.10262E-15-1.78654E-13
 -1      8217-4.55211E+00 8.52291E+01-5.46203E-03-1.06145E+00 8.76365E-14-8.64950E-14
 -1      8218-4.72470E+00 8.62017E+01 5.42258E-04-4.05362E-01-8.87450E-14-2.40825E-13
 -1      8219-4.63011E+00 8.71692E+01 9.07089E-03 4.35845E-01 1.56583E-13 3.78378E-14
 -1      8220 9.12879E-01 7.98135E+01-6.01141E-05-1.09283E-01-1.74402E-14-3.19046E-14
 -1      8221 9.03002E-01 7.98144E+01-8.99236E-05-2.18500E-01-2.23245E-14-1.79622E-14
 -1      8222 8.86158E-01 7.98160E+01-1.40765E-04-3.27582E-01-1.77417E-14 2.18779E-14
 -1      8223 8.61774E-01 7.98190E+01-2.14391E-04-4.36454E-01 6.46650E-14-4.49510E-15
 -1      8224 8.29040E-01 7.98239E+01-3.13276E-04-5.45029E-01-2.92008E-14-1.36171E-14
 -1      8225 7.86906E-01 7.98318E+01-4.40641E-04-6.53205E-01 4.14629E-14-3.98279E-14
 -1      8226 7.34082E-01 7.98436E+01-6.00459E-04-7.60849E-01 4.21028E-14 7.27977E-15
 -1      8227 6.69030E-01 7.98610E+01-7.97461E-04-8.67788E-01 3.28897E-14-4.22926E-14
 -1      8228 5.89966E-01 7.98856E+01-1.03710E-03-9.73784E-01 4.00730E-14 3.07514E-14
 -1      8229 4.94866E-01 7.99197E+01-1.32547E-03-1.07850E+00 3.13139E-15 4.50057E-14
 -1      8230 3.81483E-01 7.99658E+01-1.66911E-03-1.18147E+00 3.33444E-14-5.50142E-14
 -1      8231 2.47368E-01 8.00272E+01-2.07470E-03-1.28201E+00-8.58617E-14-6.84262E-15
 -1      8232 8.99257E-02 8.01074E+01-2.54849E-03-1.37916E+00-4.58938E-14 8.99220E-14
 -1      8233-9.35093E-02 8.02109E+01-3.09534E-03-1.47153E+00 1.07840E-13 7.99794E-15
 -1      8234-3.05550E-01 8.03424E+01-3.71729E-03-1.55720E+00-6.36125E-14 4.28850E-14
 -1      8235-5.48571E-01 8.05078E+01-4.41129E-03-1.63345E+00 2.34383E-15-2.70175E-14
 -1      8236-8.24430E-01 8.07133E+01-5.16582E-03-1.69657E+00 2.24757E-14 1.40565E-14
 -1      8237-1.13407E+00 8.09658E+01-5.95607E-03-1.74150E+00-3.62277E-14 6.55205E-15
 -1      8238-1.47695E+00 8.12725E+01-6.73719E-03-1.76150E+00-4.83124E-14 3.34680E-14
 -1      8239-1.85025E+00 8.16405E+01-7.43549E-03-1.74777E+00 7.84362E-14 1.46485E-13
 -1      8240-2.24777E+00 8.20763E+01-7.93784E-03-1.68911E+00 3.61237E-14-4.76286E-14
 -1      8241-2.65851E+00 8.25844E+01-8.08053E-03-1.57171E+00-1.86337E-13 9.28459E-14
 -1      8242-3.06489E+00 8.31662E+01-7.64139E-03-1.37936E+00 1.04437E-13 2.67841E-14
 -1      8243-3.44067E+00 8.38179E+01-6.34204E-03-1.09414E+00 7.35393E-14 1.19684E-13
 -1      8244-3.74879E+00 8.45277E+01-3.87275E-03-6.98293E-01 3.38635E-14 1.85964E-13
 -1      8245-3.93983E+00 8.52729E+01 4.26685E-05-1.77555E-01-5.27235E-14 2.78857E-14
 -1      8246-3.95193E+00 8.60175E+01 5.52212E-03 4.73444E-01-1.07437E-13 9.58383E-14
 -1      8247-3.71400E+00 8.67108E+01 1.23107E-02 1.24357E+00-5.62085E-14 2.50581E-14
 -1      8248 7.99187E-01 8.00963E+01-2.21163E-04-1.07955E-01-4.46583E-16 3.12888E-14
 -1      8249 7.89564E-01 8.00993E+01-2.49936E-04-2.15657E-01-7.71727E-15-7.14242E-14
 -1      8250 7.73156E-01 8.01045E+01-2.98942E-04-3.22844E-01-3.64420E-14-3.46450E-14
 -1      8251 7.49404E-01 8.01126E+01-3.69754E-04-4.29235E-01 1.73369E-15-4.92674E-14
 -1      8252 7.17527E-01 8.01240E+01-4.64557E-04-5.34518E-01 1.11768E-14-2.57606E-15
 -1      8253 6.76515E-01 8.01396E+01-5.86135E-04-6.38340E-01 5.03190E-14-8.74301E-16
 -1      8254 6.25131E-01 8.01606E+01-7.37821E-04-7.40288E-01-2.23533E-14-2.97288E-15
 -1      8255 5.61916E-01 8.01883E+01-9.23420E-04-8.39868E-01 4.03274E-14 2.32644E-14
 -1      8256 4.85196E-01 8.02245E+01-1.14707E-03-9.36478E-01 1.79477E-14 4.76286E-14
 -1      8257 3.93098E-01 8.02710E+01-1.41304E-03-1.02937E+00-2.24891E-14 6.57781E-14
 -1      8258 2.83580E-01 8.03305E+01-1.72536E-03-1.11762E+00 7.78483E-14 7.77373E-14
 -1      8259 1.54484E-01 8.04057E+01-2.08731E-03-1.20004E+00-4.58169E-14 2.50017E-14
 -1      8260 3.60007E-03 8.04998E+01-2.50061E-03-1.27510E+00-1.02999E-14-6.72899E-14
 -1      8261-1.71214E-01 8.06168E+01-2.96431E-03-1.34086E+00 6.81837E-14-3.05173E-14
 -1      8262-3.71877E-01 8.07607E+01-3.47310E-03-1.39479E+00 2.72759E-14-2.02078E-14
 -1      8263-5.99860E-01 8.09362E+01-4.01504E-03-1.43365E+00-8.12634E-14 7.30908E-14
 -1      8264-8.55867E-01 8.11482E+01-4.56846E-03-1.45332E+00 8.00693E-14-1.07813E-14
 -1      8265-1.13941E+00 8.14019E+01-5.09791E-03-1.44853E+00 7.89687E-14-8.47473E-14
 -1      8266-1.44822E+00 8.17020E+01-5.54927E-03-1.41276E+00-3.01557E-14-7.48186E-15
 -1      8267-1.77753E+00 8.20526E+01-5.84422E-03-1.33800E+00-7.95000E-14-1.10710E-13
 -1      8268-2.11908E+00 8.24566E+01-5.87512E-03-1.21475E+00 5.86618E-14-1.80776E-14
 -1      8269-2.46004E+00 8.29141E+01-5.50224E-03-1.03221E+00-6.17557E-14 2.30788E-14
 -1      8270-2.78169E+00 8.34218E+01-4.55708E-03-7.78806E-01-9.50516E-14-8.48488E-14
 -1      8271-3.05821E+00 8.39712E+01-2.85740E-03-4.43377E-01-5.48650E-14-2.05044E-14
 -1      8272-3.25574E+00 8.45467E+01-2.41971E-04-1.71696E-02 1.44483E-13-5.47834E-14
 -1      8273-3.33232E+00 8.51243E+01 3.36670E-03 5.03051E-01-3.22674E-13-5.26228E-14
 -1      8274-3.23952E+00 8.56706E+01 7.86921E-03 1.11072E+00-9.95939E-14-9.02759E-14
 -1      8275-2.92673E+00 8.61438E+01 1.28489E-02 1.78427E+00-5.98063E-14-8.43830E-14
 -1      8276 6.87747E-01 8.03815E+01-3.66827E-04-1.05181E-01-1.37109E-14-6.39475E-14
 -1      8277 6.78667E-01 8.03865E+01-3.92678E-04-2.09935E-01 6.53516E-14-2.33672E-14
 -1      8278 6.63186E-01 8.03950E+01-4.36658E-04-3.13819E-01-4.90101E-14 3.86431E-14
 -1      8279 6.40778E-01 8.04076E+01-5.00095E-04-4.16362E-01-7.55738E-15 2.13805E-16
 -1      8280 6.10709E-01 8.04246E+01-5.84804E-04-5.17044E-01 5.87816E-15-4.09265E-15
 -1      8281 5.72037E-01 8.04471E+01-6.93035E-04-6.15284E-01-3.08630E-14 2.85861E-14
 -1      8282 5.23614E-01 8.04758E+01-8.27384E-04-7.10411E-01-6.84397E-15-5.93406E-14
 -1      8283 4.64096E-01 8.05120E+01-9.90662E-04-8.01649E-01-5.64672E-14-2.29374E-14
 -1      8284 3.91957E-01 8.05573E+01-1.18568E-03-8.88078E-01 2.47758E-14-1.95330E-14
 -1      8285 3.05519E-01 8.06134E+01-1.41495E-03-9.68604E-01 4.88687E-14-2.29001E-14
 -1      8286 2.02989E-01 8.06823E+01-1.68023E-03-1.04191E+00-1.55361E-14-4.82600E-15
 -1      8287 8.25215E-02 8.07666E+01-1.98192E-03-1.10642E+00-6.22707E-14 4.14148E-14
 -1      8288-5.76851E-02 8.08689E+01-2.31816E-03-1.16019E+00 2.95202E-14 4.46353E-14
 -1      8289-2.19264E-01 8.09923E+01-2.68367E-03-1.20088E+00 2.61325E-14-8.44810E-15
 -1      8290-4.03500E-01 8.11402E+01-3.06815E-03-1.22564E+00 6.93965E-15 6.00908E-15
 -1      8291-6.11081E-01 8.13160E+01-3.45434E-03-1.23099E+00 1.29778E-14-9.43958E-14
 -1      8292-8.41782E-01 8.15233E+01-3.81549E-03-1.21274E+00-1.35193E-14-5.83223E-14
 -1      8293-1.09404E+00 8.17653E+01-4.11257E-03-1.16592E+00-7.85130E-15-2.54033E-14
 -1      8294-1.36443E+00 8.20449E+01-4.29132E-03-1.08467E+00-2.65074E-13 7.58490E-14
 -1      8295-1.64701E+00 8.23635E+01-4.27988E-03-9.62326E-01-2.07426E-14 2.63244E-14
 -1      8296-1.93257E+00 8.27213E+01-3.98803E-03-7.91553E-01-8.38674E-15 2.13137E-14
 -1      8297-2.20784E+00 8.31154E+01-3.31006E-03-5.64783E-01 6.23833E-14 3.81960E-14
 -1      8298-2.45466E+00 8.35398E+01-2.13404E-03-2.74964E-01 2.06692E-13 3.88153E-14
 -1      8299-2.64943E+00 8.39836E+01-3.61203E-04 8.31916E-02 5.63499E-14 6.65188E-14
 -1      8300-2.76304E+00 8.44307E+01 2.06096E-03 5.11357E-01-4.39657E-14 2.92275E-14
 -1      8301-2.76171E+00 8.48586E+01 5.08952E-03 1.00509E+00-1.17163E-13 1.83620E-15
 -1      8302-2.60923E+00 8.52393E+01 8.52767E-03 1.55078E+00-2.20098E-13 1.22945E-13
 -1      8303-2.27134E+00 8.55410E+01 1.19470E-02 2.12255E+00-1.55338E-13 3.89448E-14
 -1      8304 5.79985E-01 8.06661E+01-4.99849E-04-1.01094E-01-3.36090E-14-2.97384E-14
 -1      8305 5.71709E-01 8.06728E+01-5.21079E-04-2.01610E-01-1.43614E-14 4.24031E-14
 -1      8306 5.57596E-01 8.06844E+01-5.57175E-04-3.00950E-01-9.98126E-15-3.64335E-15
 -1      8307 5.37169E-01 8.07009E+01-6.09182E-04-3.98479E-01 3.41072E-14 8.46935E-15
 -1      8308 5.09759E-01 8.07230E+01-6.78498E-04-4.93501E-01-2.73007E-14 3.92785E-14
 -1      8309 4.74513E-01 8.07513E+01-7.66805E-04-5.85238E-01-4.65025E-14 7.16614E-15
 -1      8310 4.30397E-01 8.07866E+01-8.75951E-04-6.72806E-01 4.57820E-14 3.92169E-14
 -1      8311 3.76211E-01 8.08298E+01-1.00779E-03-7.55191E-01-6.38845E-14 1.00604E-13
 -1      8312 3.10606E-01 8.08822E+01-1.16392E-03-8.31218E-01 3.53638E-14 3.77268E-14
 -1      8313 2.32121E-01 8.09452E+01-1.34537E-03-8.99515E-01-4.25836E-14 6.15411E-14
 -1      8314 1.39225E-01 8.10204E+01-1.55209E-03-9.58479E-01 6.43874E-14 3.43918E-14
 -1      8315 3.03953E-02 8.11098E+01-1.78235E-03-1.00623E+00 1.50056E-14 7.24247E-16
 -1      8316-9.57884E-02 8.12155E+01-2.03187E-03-1.04058E+00-3.26345E-15 7.62489E-14
 -1      8317-2.40504E-01 8.13396E+01-2.29277E-03-1.05895E+00 5.00204E-14 1.60462E-14
 -1      8318-4.04507E-01 8.14846E+01-2.55222E-03-1.05835E+00 4.11666E-15-1.97264E-14
 -1      8319-5.87882E-01 8.16530E+01-2.79094E-03-1.03532E+00 7.72183E-14 9.95272E-14
 -1      8320-7.89747E-01 8.18467E+01-2.98149E-03-9.85897E-01 6.91035E-15 8.45140E-14
 -1      8321-1.00786E+00 8.20677E+01-3.08660E-03-9.05649E-01 2.11062E-14 6.32957E-14
 -1      8322-1.23819E+00 8.23169E+01-3.05808E-03-7.89703E-01 2.11728E-14 4.80727E-14
 -1      8323-1.47434E+00 8.25939E+01-2.83670E-03-6.32927E-01-2.53431E-13-1.26787E-13
 -1      8324-1.70707E+00 8.28969E+01-2.35433E-03-4.30234E-01 1.39641E-14 5.53915E-14
 -1      8325-1.92371E+00 8.32215E+01-1.53971E-03-1.77107E-01-2.43155E-13-3.78187E-14
 -1      8326-2.10776E+00 8.35601E+01-3.29552E-04 1.29601E-01-1.50816E-13 2.25080E-15
 -1      8327-2.23883E+00 8.39016E+01 1.31308E-03 4.90522E-01-8.02891E-14-6.41726E-14
 -1      8328-2.29302E+00 8.42310E+01 3.37250E-03 9.02257E-01 7.94555E-14-1.07418E-13
 -1      8329-2.24418E+00 8.45292E+01 5.74713E-03 1.35555E+00-1.67808E-14 4.57533E-16
 -1      8330-2.06630E+00 8.47743E+01 8.21828E-03 1.83338E+00-2.15706E-13-8.22048E-14
 -1      8331-1.73721E+00 8.49432E+01 1.04143E-02 2.30930E+00 1.68355E-14-1.12681E-14
 -1      8332 4.77201E-01 8.09467E+01-6.24794E-04-9.57909E-02 1.65281E-14 8.49646E-14
 -1      8333 4.69942E-01 8.09552E+01-6.39970E-04-1.90887E-01-4.24984E-14-8.19449E-14
 -1      8334 4.57561E-01 8.09695E+01-6.65780E-04-2.84571E-01-1.91267E-15 2.80275E-14
 -1      8335 4.39638E-01 8.09898E+01-7.02962E-04-3.76080E-01 7.80080E-15-8.42265E-14
 -1      8336 4.15584E-01 8.10165E+01-7.52485E-04-4.64580E-01-6.86801E-16-4.41830E-14
 -1      8337 3.84651E-01 8.10500E+01-8.15464E-04-5.49144E-01-2.08029E-15 4.16854E-14
 -1      8338 3.45938E-01 8.10910E+01-8.93041E-04-6.28726E-01-3.75438E-14 1.91167E-15
 -1      8339 2.98406E-01 8.11400E+01-9.86212E-04-7.02135E-01 5.26900E-14-8.13282E-14
 -1      8340 2.40898E-01 8.11981E+01-1.09558E-03-7.68005E-01 3.32775E-14-3.73599E-14
 -1      8341 1.72180E-01 8.12661E+01-1.22102E-03-8.24770E-01 3.87304E-14-1.28743E-13
 -1      8342 9.09833E-02 8.13452E+01-1.36125E-03-8.70631E-01 2.23735E-15-7.50598E-14
 -1      8343-3.91413E-03 8.14367E+01-1.51322E-03-9.03533E-01 9.09995E-14 1.40686E-15
 -1      8344-1.13594E-01 8.15421E+01-1.67144E-03-9.21132E-01-2.59342E-14-1.14284E-14
 -1      8345-2.38862E-01 8.16626E+01-1.82705E-03-9.20777E-01-1.76375E-14-6.56714E-14
 -1      8346-3.80072E-01 8.17999E+01-1.96689E-03-8.99500E-01 1.59353E-14-3.57258E-14
 -1      8347-5.36905E-01 8.19551E+01-2.07240E-03-8.54019E-01-7.62833E-14-2.70712E-14
 -1      8348-7.08099E-01 8.21293E+01-2.11867E-03-7.80777E-01 3.68225E-14 3.90339E-14
 -1      8349-8.91115E-01 8.23228E+01-2.07384E-03-6.76018E-01-2.80255E-14-8.06568E-14
 -1      8350-1.08178E+00 8.25353E+01-1.89914E-03-5.35941E-01 9.81397E-14-2.07395E-14
 -1      8351-1.27387E+00 8.27652E+01-1.55035E-03-3.56940E-01-4.68929E-14-3.96671E-14
 -1      8352-1.45877E+00 8.30093E+01-9.81284E-04-1.35985E-01 1.11420E-13-8.81586E-14
 -1      8353-1.62511E+00 8.32624E+01-1.50340E-04 1.28842E-01-2.58430E-15 1.11030E-13
 -1      8354-1.75869E+00 8.35169E+01 9.69069E-04 4.37594E-01-1.52782E-13-7.36720E-14
 -1      8355-1.84265E+00 8.37625E+01 2.37369E-03 7.87516E-01 1.06926E-13 1.37827E-13
 -1      8356-1.85811E+00 8.39863E+01 4.01203E-03 1.17190E+00 5.33913E-14-1.44212E-14
 -1      8357-1.78549E+00 8.41731E+01 5.76461E-03 1.57890E+00 1.51542E-13-2.32772E-14
 -1      8358-1.60668E+00 8.43066E+01 7.43102E-03 1.99043E+00 2.92778E-14-2.81755E-14
 -1      8359-1.30802E+00 8.43713E+01 8.71822E-03 2.38160E+00-9.41842E-14-1.03046E-13
 -1      8360 3.80612E-01 8.12202E+01-7.47804E-04-8.93199E-02-4.41624E-14-8.42512E-15
 -1      8361 3.74523E-01 8.12304E+01-7.55822E-04-1.77870E-01 1.54955E-14 1.80177E-14
 -1      8362 3.64135E-01 8.12474E+01-7.69491E-04-2.64857E-01-9.25974E-15 1.75359E-14
 -1      8363 3.49091E-01 8.12713E+01-7.89236E-04-3.49433E-01 2.06124E-14-3.07749E-14
 -1      8364 3.28892E-01 8.13024E+01-8.15594E-04-4.30680E-01-1.08631E-14-3.67024E-15
 -1      8365 3.02907E-01 8.13410E+01-8.49133E-04-5.07573E-01-1.79680E-14-3.20516E-14
 -1      8366 2.70378E-01 8.13872E+01-8.90344E-04-5.78962E-01 1.03661E-14-6.44667E-14
 -1      8367 2.30436E-01 8.14415E+01-9.39489E-04-6.43545E-01-7.00542E-14-4.49250E-14
 -1      8368 1.82124E-01 8.15044E+01-9.96388E-04-6.99843E-01-4.96829E-14 4.07833E-15
 -1      8369 1.24430E-01 8.15763E+01-1.06013E-03-7.46175E-01 7.78683E-14-5.56846E-15
 -1      8370 5.63355E-02 8.16579E+01-1.12870E-03-7.80641E-01-3.96122E-14 1.79128E-14
 -1      8371-2.31133E-02 8.17498E+01-1.19854E-03-8.01107E-01 5.19843E-14 8.90026E-14
 -1      8372-1.14716E-01 8.18526E+01-1.26395E-03-8.05194E-01-1.55202E-13-2.99327E-15
 -1      8373-2.18995E-01 8.19670E+01-1.31652E-03-7.90285E-01 4.92738E-14 9.15882E-14
 -1      8374-3.36040E-01 8.20934E+01-1.34441E-03-7.53547E-01-9.67737E-14-5.16948E-15
 -1      8375-4.65314E-01 8.22321E+01-1.33181E-03-6.91978E-01 2.66809E-14 6.35941E-14
 -1      8376-6.05425E-01 8.23831E+01-1.25852E-03-6.02491E-01-4.94829E-14-6.67782E-15
 -1      8377-7.53859E-01 8.25456E+01-1.10005E-03-4.82050E-01-9.72765E-14 1.93966E-13
 -1      8378-9.06694E-01 8.27182E+01-8.28430E-04-3.27866E-01-1.67366E-13-3.56477E-14
 -1      8379-1.05832E+00 8.28985E+01-4.14343E-04-1.37689E-01 4.04534E-14-1.09304E-13
 -1      8380-1.20118E+00 8.30827E+01 1.69122E-04 8.98048E-02-2.76354E-14 6.08133E-14
 -1      8381-1.32566E+00 8.32654E+01 9.40439E-04 3.54501E-01 5.54366E-14-1.13092E-13
 -1      8382-1.42007E+00 8.34395E+01 1.90118E-03 6.54213E-01 7.48989E-15 2.89569E-14
 -1      8383-1.47104E+00 8.35963E+01 3.02537E-03 9.83941E-01-1.84567E-13-1.65996E-14
 -1      8384-1.46414E+00 8.37253E+01 4.24799E-03 1.33510E+00-1.93388E-13-2.09372E-14
 -1      8385-1.38516E+00 8.38153E+01 5.45493E-03 1.69479E+00 3.24562E-14 2.02152E-14
 -1      8386-1.22185E+00 8.38549E+01 6.48078E-03 2.04536E+00 5.95886E-14 6.43936E-14
 -1      8387-9.66202E-01 8.38346E+01 7.10931E-03 2.36444E+00-1.14362E-14-2.07694E-14
 -1      8388 2.91413E-01 8.14833E+01-8.76236E-04-8.16645E-02 2.39334E-14 3.17107E-15
 -1      8389 2.86576E-01 8.14952E+01-8.76368E-04-1.62532E-01-2.51352E-14-8.63892E-16
 -1      8390 2.78320E-01 8.15151E+01-8.76674E-04-2.41781E-01 4.47502E-14-3.03195E-14
 -1      8391 2.66356E-01 8.15428E+01-8.77255E-04-3.18534E-01-7.62615E-14 2.72941E-14
 -1      8392 2.50282E-01 8.15785E+01-8.78209E-04-3.91837E-01 9.17326E-14 4.80276E-14
 -1      8393 2.29586E-01 8.16222E+01-8.79565E-04-4.60632E-01-4.55108E-14 2.44145E-14
 -1      8394 2.03660E-01 8.16739E+01-8.81212E-04-5.23728E-01 6.08183E-14 5.38718E-15
 -1      8395 1.71807E-01 8.17335E+01-8.82772E-04-5.79785E-01-2.12642E-14 6.16824E-14
 -1      8396 1.33267E-01 8.18012E+01-8.83451E-04-6.27286E-01 3.89757E-14 4.53890E-14
 -1      8397 8.72412E-02 8.18769E+01-8.81827E-04-6.64522E-01 8.39812E-15 7.76098E-14
 -1      8398 3.29405E-02 8.19606E+01-8.75590E-04-6.89579E-01-4.00862E-14 2.48673E-14
 -1      8399-3.03576E-02 8.20524E+01-8.61228E-04-7.00338E-01 2.45158E-14 8.55045E-15
 -1      8400-1.03229E-01 8.21520E+01-8.33665E-04-6.94476E-01 1.87930E-13 5.81358E-14
 -1      8401-1.85998E-01 8.22593E+01-7.85885E-04-6.69499E-01 1.54730E-14 5.59587E-14
 -1      8402-2.78609E-01 8.23738E+01-7.08584E-04-6.22781E-01-2.85963E-14 1.11688E-13
 -1      8403-3.80469E-01 8.24948E+01-5.89956E-04-5.51649E-01-6.02445E-14-3.49035E-14
 -1      8404-4.90259E-01 8.26213E+01-4.15722E-04-4.53492E-01-8.63296E-16 8.87086E-14
 -1      8405-6.05733E-01 8.27517E+01-1.69614E-04-3.25934E-01-2.16799E-14-7.01479E-14
 -1      8406-7.23506E-01 8.28838E+01 1.65448E-04-1.67054E-01-6.72555E-14 5.05325E-14
 -1      8407-8.38857E-01 8.30145E+01 6.05213E-04 2.43133E-02-9.23567E-15 1.72543E-13
 -1      8408-9.45585E-01 8.31398E+01 1.16070E-03 2.48203E-01 1.02911E-13 1.21422E-13
 -1      8409-1.03596E+00 8.32547E+01 1.83341E-03 5.03073E-01-1.86290E-13 1.73649E-13
 -1      8410-1.10086E+00 8.33529E+01 2.60918E-03 7.85287E-01 6.18879E-14 1.13829E-13
 -1      8411-1.13008E+00 8.34273E+01 3.45140E-03 1.08858E+00 2.08807E-13 6.14127E-14
 -1      8412-1.11300E+00 8.34701E+01 4.29475E-03 1.40356E+00-1.32594E-13 1.43675E-13
 -1      8413-1.03962E+00 8.34735E+01 5.04144E-03 1.71736E+00 1.21214E-14-3.13411E-14
 -1      8414-9.01874E-01 8.34305E+01 5.56439E-03 2.01358E+00 8.24364E-14 8.84145E-15
 -1      8415-6.95319E-01 8.33362E+01 5.71296E-03 2.27266E+00-7.67494E-14 5.96259E-14
 -1      8416 2.10849E-01 8.17327E+01-1.01837E-03-7.27347E-02 2.44873E-14 2.75474E-14
 -1      8417 2.07268E-01 8.17465E+01-1.01033E-03-1.44697E-01 2.08257E-14 2.01948E-14
 -1      8418 2.01151E-01 8.17694E+01-9.96758E-04-2.15087E-01-2.54776E-14 1.76989E-14
 -1      8419 1.92278E-01 8.18014E+01-9.77428E-04-2.83054E-01 8.04803E-15-6.97159E-14
 -1      8420 1.80343E-01 8.18423E+01-9.51970E-04-3.47669E-01-5.19539E-14-7.19056E-14
 -1      8421 1.64958E-01 8.18917E+01-9.19864E-04-4.07899E-01 4.24630E-14-3.44460E-14
 -1      8422 1.45660E-01 8.19495E+01-8.80389E-04-4.62586E-01 2.85481E-14 1.10025E-14
 -1      8423 1.21923E-01 8.20153E+01-8.32560E-04-5.10422E-01-3.49926E-15-4.10358E-14
 -1      8424 9.31719E-02 8.20886E+01-7.75046E-04-5.49934E-01 1.66778E-14-7.64631E-14
 -1      8425 5.88107E-02 8.21690E+01-7.06059E-04-5.79469E-01 6.68195E-14 5.97959E-15
 -1      8426 1.82537E-02 8.22558E+01-6.23220E-04-5.97187E-01-1.06371E-14-9.13705E-14
 -1      8427-2.90248E-02 8.23483E+01-5.23412E-04-6.01069E-01-3.32563E-14-2.67902E-14
 -1      8428-8.34280E-02 8.24457E+01-4.02619E-04-5.88934E-01 1.43021E-14-7.51760E-14
 -1      8429-1.45155E-01 8.25467E+01-2.55797E-04-5.58475E-01 3.47387E-14-1.08377E-13
 -1      8430-2.14099E-01 8.26502E+01-7.68017E-05-5.07325E-01 4.06414E-14-1.20984E-13
 -1      8431-2.89726E-01 8.27545E+01 1.41532E-04-4.33147E-01-1.12863E-14-4.16811E-14
 -1      8432-3.70938E-01 8.28576E+01 4.07088E-04-3.33773E-01 1.78051E-13 4.42979E-14
 -1      8433-4.55919E-01 8.29571E+01 7.27785E-04-2.07377E-01-1.25598E-13-3.60423E-14
 -1      8434-5.41990E-01 8.30502E+01 1.11039E-03-5.27076E-02 7.56001E-14 2.22513E-14
 -1      8435-6.25478E-01 8.31333E+01 1.55865E-03 1.30623E-01-1.29176E-13-1.86770E-13
 -1      8436-7.01639E-01 8.32024E+01 2.07067E-03 3.41804E-01-6.17761E-14 1.56541E-14
 -1      8437-7.64655E-01 8.32528E+01 2.63557E-03 5.78442E-01-2.06350E-14-5.12368E-14
 -1      8438-8.07780E-01 8.32793E+01 3.22961E-03 8.36161E-01-1.06966E-13-4.39865E-14
 -1      8439-8.23638E-01 8.32764E+01 3.81246E-03 1.10823E+00 7.31663E-15-6.97103E-14
 -1      8440-8.04762E-01 8.32387E+01 4.32478E-03 1.38528E+00-1.91032E-13-1.01203E-13
 -1      8441-7.44352E-01 8.31614E+01 4.68809E-03 1.65519E+00-1.86306E-13-3.03018E-14
 -1      8442-6.37271E-01 8.30412E+01 4.81025E-03 1.90324E+00 1.17622E-13-4.38213E-14
 -1      8443-4.81187E-01 8.28767E+01 4.59278E-03 2.11271E+00 1.13384E-13-1.26682E-13
 -1      8444 1.40302E-01 8.19644E+01-1.18241E-03-6.23611E-02 4.88208E-14-2.78510E-15
 -1      8445 1.37898E-01 8.19805E+01-1.16637E-03-1.24025E-01-4.81857E-14-1.08529E-14
 -1      8446 1.33788E-01 8.20071E+01-1.13921E-03-1.84268E-01 3.24311E-14 2.16723E-14
 -1      8447 1.27819E-01 8.20440E+01-1.10032E-03-2.42321E-01-2.22348E-15 3.63065E-14
 -1      8448 1.19776E-01 8.20909E+01-1.04882E-03-2.97338E-01-3.27668E-15-9.26052E-14
 -1      8449 1.09389E-01 8.21472E+01-9.83563E-04-3.48379E-01-3.42098E-15-2.06137E-14
 -1      8450 9.63350E-02 8.22125E+01-9.03175E-04-3.94384E-01-2.53270E-16 3.52856E-14
 -1      8451 8.02478E-02 8.22860E+01-8.05996E-04-4.34158E-01-8.44034E-14 5.60784E-14
 -1      8452 6.07272E-02 8.23667E+01-6.90109E-04-4.66352E-01 7.58304E-14-2.93038E-14
 -1      8453 3.73586E-02 8.24538E+01-5.53326E-04-4.89454E-01 1.07132E-14 2.50269E-14
 -1      8454 9.73749E-03 8.25459E+01-3.93197E-04-5.01788E-01 8.73756E-14 1.41744E-14
 -1      8455-2.24967E-02 8.26416E+01-2.07032E-04-5.01522E-01-1.12621E-13 8.85732E-14
 -1      8456-5.96150E-02 8.27393E+01 8.05197E-06-4.86691E-01 6.16601E-14 2.40693E-14
 -1      8457-1.01741E-01 8.28369E+01 2.55024E-04-4.55242E-01-3.11035E-14-2.07568E-14
 -1      8458-1.48778E-01 8.29324E+01 5.36758E-04-4.05102E-01 1.38784E-14-1.01716E-13
 -1      8459-2.00327E-01 8.30230E+01 8.55717E-04-3.34273E-01-1.10430E-13 1.07087E-13
 -1      8460-2.55586E-01 8.31061E+01 1.21345E-03-2.40973E-01-3.85222E-15-1.84956E-14
 -1      8461-3.13250E-01 8.31782E+01 1.60987E-03-1.23804E-01 1.59881E-13-3.95812E-14
 -1      8462-3.71415E-01 8.32359E+01 2.04212E-03 1.80239E-02-1.32719E-13-1.81312E-13
 -1      8463-4.27492E-01 8.32752E+01 2.50327E-03 1.84437E-01 5.39759E-14 1.00925E-13
 -1      8464-4.78172E-01 8.32919E+01 2.98045E-03 3.74199E-01-7.86752E-14-4.51713E-14
 -1      8465-5.19438E-01 8.32817E+01 3.45298E-03 5.84598E-01-1.20931E-13 5.09705E-14
 -1      8466-5.46690E-01 8.32402E+01 3.89045E-03 8.11143E-01 2.63286E-13 2.06996E-14
 -1      8467-5.54972E-01 8.31633E+01 4.25142E-03 1.04731E+00-1.98134E-13 3.47691E-14
 -1      8468-5.39361E-01 8.30478E+01 4.48361E-03 1.28439E+00-1.33010E-14 1.73589E-13
 -1      8469-4.95496E-01 8.28914E+01 4.52589E-03 1.51152E+00-1.18260E-13 1.10654E-13
 -1      8470-4.20243E-01 8.26936E+01 4.31455E-03 1.71597E+00-7.55186E-14 1.53974E-14
 -1      8471-3.12437E-01 8.24563E+01 3.79068E-03 1.88373E+00 1.27719E-13 5.61114E-14
 -1      8472 8.13741E-02 8.21746E+01-1.37536E-03-5.02941E-02-2.19927E-14 4.75761E-14
 -1      8473 7.99893E-02 8.21933E+01-1.35196E-03-1.00014E-01 3.09359E-14-4.42753E-14
 -1      8474 7.76189E-02 8.22242E+01-1.31223E-03-1.48565E-01 2.48798E-14 3.70255E-14
 -1      8475 7.41695E-02 8.22671E+01-1.25512E-03-1.95309E-01-5.72312E-14 4.50490E-14
 -1      8476 6.95116E-02 8.23213E+01-1.17916E-03-2.39542E-01 4.31990E-15 7.02121E-14
 -1      8477 6.34808E-02 8.23862E+01-1.08250E-03-2.80480E-01-8.91756E-15 2.44986E-15
 -1      8478 5.58808E-02 8.24609E+01-9.62936E-04-3.17234E-01-8.42902E-15-1.28803E-15
 -1      8479 4.64881E-02 8.25444E+01-8.17987E-04-3.48795E-01 4.35272E-14-8.77770E-16
 -1      8480 3.50587E-02 8.26354E+01-6.44942E-04-3.74024E-01-1.17681E-14 6.88069E-14
 -1      8481 2.13390E-02 8.27322E+01-4.40976E-04-3.91640E-01-4.29617E-14 7.99343E-14
 -1      8482 5.08100E-03 8.28331E+01-2.03298E-04-4.00220E-01-5.03987E-14 2.76628E-14
 -1      8483-1.39368E-02 8.29360E+01 7.06623E-05-3.98211E-01 7.73014E-14 6.17562E-14
 -1      8484-3.58818E-02 8.30384E+01 3.82991E-04-3.83951E-01 1.17566E-13-3.21462E-14
 -1      8485-6.08313E-02 8.31374E+01 7.34954E-04-3.55713E-01 3.31898E-14-3.95482E-14
 -1      8486-8.87288E-02 8.32300E+01 1.12657E-03-3.11762E-01 7.28165E-14 3.16457E-14
 -1      8487-1.19331E-01 8.33125E+01 1.55603E-03-2.50454E-01-5.34805E-14-4.30107E-14
 -1      8488-1.52152E-01 8.33811E+01 2.01908E-03-1.70348E-01-5.22994E-14 9.07061E-14
 -1      8489-1.86396E-01 8.34317E+01 2.50815E-03-7.03721E-02 1.64518E-13 1.48686E-13
 -1      8490-2.20904E-01 8.34598E+01 3.01144E-03 4.99949E-02-2.51367E-14 7.95163E-14
 -1      8491-2.54107E-01 8.34608E+01 3.51195E-03 1.90495E-01-1.42468E-13 3.00393E-14
 -1      8492-2.84000E-01 8.34303E+01 3.98648E-03 3.49847E-01 1.12463E-13 4.24001E-14
 -1      8493-3.08166E-01 8.33638E+01 4.40493E-03 5.25499E-01-1.16069E-13-9.31130E-14
 -1      8494-3.23848E-01 8.32576E+01 4.73001E-03 7.13391E-01 7.17911E-14 2.70704E-15
 -1      8495-3.28101E-01 8.31086E+01 4.91791E-03 9.07791E-01 4.33607E-14-4.79989E-14
 -1      8496-3.18030E-01 8.29151E+01 4.92039E-03 1.10122E+00-3.14557E-14-3.72172E-14
 -1      8497-2.91110E-01 8.26769E+01 4.68822E-03 1.28455E+00-1.33218E-14 8.33133E-14
 -1      8498-2.45583E-01 8.23961E+01 4.17797E-03 1.44728E+00-1.93523E-13-1.44229E-13
 -1      8499-1.80884E-01 8.20772E+01 3.35948E-03 1.57813E+00 2.18835E-13 1.29096E-13
 -1      8500 3.59856E-02 8.23586E+01-1.56854E-03-3.62089E-02 2.83902E-14-1.41579E-14
 -1      8501 3.53909E-02 8.23804E+01-1.53715E-03-7.20094E-02-6.88186E-15-8.15190E-15
 -1      8502 3.43710E-02 8.24166E+01-1.48378E-03-1.06976E-01-2.95224E-14 1.77662E-14
 -1      8503 3.28828E-02 8.24666E+01-1.40685E-03-1.40652E-01-1.86327E-14-2.85562E-14
 -1      8504 3.08665E-02 8.25298E+01-1.30420E-03-1.72530E-01 1.75283E-14-4.66116E-14
 -1      8505 2.82461E-02 8.26054E+01-1.17312E-03-2.02037E-01 3.69088E-14-4.83762E-14
 -1      8506 2.49302E-02 8.26921E+01-1.01043E-03-2.28522E-01-1.10829E-14 6.55825E-14
 -1      8507 2.08145E-02 8.27888E+01-8.12556E-04-2.51242E-01-2.81400E-14 4.18754E-14
 -1      8508 1.57845E-02 8.28935E+01-5.75710E-04-2.69349E-01 2.28695E-14 7.20760E-14
 -1      8509 9.72032E-03 8.30045E+01-2.96074E-04-2.81888E-01-9.09949E-15-1.15541E-14
 -1      8510 2.50355E-03 8.31191E+01 2.99070E-05-2.87790E-01 1.87606E-14-2.05790E-14
 -1      8511-5.97321E-03 8.32348E+01 4.05163E-04-2.85885E-01 1.25800E-13 5.24580E-14
 -1      8512-1.57936E-02 8.33481E+01 8.31519E-04-2.74917E-01-8.94827E-14 6.75770E-14
 -1      8513-2.70009E-02 8.34554E+01 1.30910E-03-2.53576E-01 3.01187E-14 1.11883E-13
 -1      8514-3.95776E-02 8.35525E+01 1.83561E-03-2.20546E-01 2.15132E-14 1.45089E-13
 -1      8515-5.34209E-02 8.36348E+01 2.40550E-03-1.74579E-01-1.67617E-13 3.30274E-14
 -1      8516-6.83151E-02 8.36974E+01 3.00902E-03-1.14583E-01-5.34494E-14-6.91365E-14
 -1      8517-8.39024E-02 8.37348E+01 3.63125E-03-3.97537E-02 9.65591E-14 6.81061E-14
 -1      8518-9.96554E-02 8.37416E+01 4.25116E-03 5.02886E-02 2.04311E-14 3.86358E-14
 -1      8519-1.14855E-01 8.37122E+01 4.84082E-03 1.55320E-01-6.51467E-14 1.39585E-14
 -1      8520-1.28580E-01 8.36412E+01 5.36504E-03 2.74330E-01-1.66585E-13 7.20717E-14
 -1      8521-1.39715E-01 8.35238E+01 5.78158E-03 4.05333E-01-3.00814E-14-1.98938E-14
 -1      8522-1.46987E-01 8.33562E+01 6.04224E-03 5.45200E-01 7.10122E-14 2.37839E-14
 -1      8523-1.49039E-01 8.31357E+01 6.09519E-03 6.89542E-01 2.49567E-13 9.82599E-14
 -1      8524-1.44532E-01 8.28616E+01 5.88892E-03 8.32674E-01 1.75554E-14-5.44066E-14
 -1      8525-1.32304E-01 8.25352E+01 5.37721E-03 9.67708E-01-7.34569E-15 6.64873E-14
 -1      8526-1.11551E-01 8.21607E+01 4.52713E-03 1.08680E+00 1.97819E-14 6.59546E-14
 -1      8527-8.20228E-02 8.17451E+01 3.32582E-03 1.18157E+00 2.45975E-13 7.18245E-14
 -1      8528 6.98472E-03 8.25115E+01-1.08324E-03-1.97124E-02-1.94118E-14 5.39282E-15
 -1      8529 6.91423E-03 8.25372E+01-1.01143E-03-3.92130E-02-3.16270E-14 6.08814E-14
 -1      8530 6.79135E-03 8.25796E+01-8.90270E-04-5.82804E-02 4.14230E-15-9.33325E-15
 -1      8531 6.60800E-03 8.26383E+01-7.17610E-04-7.66741E-02 7.17959E-15 3.33583E-14
 -1      8532 6.35278E-03 8.27126E+01-4.90519E-04-9.41255E-02-4.08293E-14-1.11651E-13
 -1      8533 6.01109E-03 8.28013E+01-2.05409E-04-1.10328E-01 2.26071E-14 7.24798E-14
 -1      8534 5.56510E-03 8.29033E+01 1.41797E-04-1.24929E-01-4.43278E-14 1.98561E-14
 -1      8535 4.99403E-03 8.30170E+01 5.55439E-04-1.37521E-01 4.53457E-15-7.61995E-14
 -1      8536 4.27451E-03 8.31402E+01 1.03979E-03-1.47636E-01 2.09555E-14-1.39444E-13
 -1      8537 3.38121E-03 8.32707E+01 1.59861E-03-1.54739E-01-1.47855E-14 2.45064E-14
 -1      8538 2.28795E-03 8.34055E+01 2.23460E-03-1.58230E-01-2.62156E-14-4.12708E-14
 -1      8539 9.69175E-04 8.35411E+01 2.94860E-03-1.57442E-01 2.45507E-15-6.33174E-14
 -1      8540-5.97874E-04 8.36736E+01 3.73874E-03-1.51654E-01-4.60448E-14 2.14004E-14
 -1      8541-2.43024E-03 8.37984E+01 4.59925E-03-1.40107E-01 3.90400E-14 1.92381E-15
 -1      8542-4.53556E-03 8.39102E+01 5.51917E-03-1.22029E-01 3.02503E-14-1.21215E-13
 -1      8543-6.90746E-03 8.40032E+01 6.48091E-03-9.66778E-02 2.70407E-14-9.14095E-14
 -1      8544-9.52024E-03 8.40711E+01 7.45870E-03-6.33939E-02 8.98308E-14 1.59837E-14
 -1      8545-1.23231E-02 8.41070E+01 8.41709E-03-2.16706E-02-5.33925E-14 9.77864E-15
 -1      8546-1.52341E-02 8.41039E+01 9.30979E-03 2.87585E-02-2.01380E-13 3.51212E-14
 -1      8547-1.81353E-02 8.40547E+01 1.00790E-02 8.78193E-02 2.74672E-15 8.70918E-14
 -1      8548-2.08697E-02 8.39526E+01 1.06555E-02 1.54985E-01-8.29805E-14 7.61179E-14
 -1      8549-2.32412E-02 8.37914E+01 1.09607E-02 2.29164E-01 1.20468E-13 1.35665E-13
 -1      8550-2.50196E-02 8.35665E+01 1.09094E-02 3.08600E-01 1.03869E-13-7.81233E-15
 -1      8551-2.59531E-02 8.32746E+01 1.04159E-02 3.90795E-01-5.38250E-14 1.60028E-14
 -1      8552-2.57868E-02 8.29151E+01 9.40144E-03 4.72491E-01 4.66484E-14-1.34389E-14
 -1      8553-2.42908E-02 8.24902E+01 7.80409E-03 5.49715E-01 2.18877E-13-2.17285E-14
 -1      8554-2.12943E-02 8.20057E+01 5.59157E-03 6.17927E-01-2.56998E-13-2.82378E-14
 -1      8555-1.67170E-02 8.14711E+01 2.77190E-03 6.72270E-01 1.57542E-13 1.04618E-13
 -1      8556 1.30239E+00 7.88950E+01-7.64730E-05-1.00287E-01 9.75327E-15-4.82080E-15
 -1      8557 1.25286E+00 7.90184E+01 3.42414E-04-5.15247E-02-1.78692E-14 2.30579E-14
 -1      8558 1.29390E+00 7.88867E+01-8.29352E-05-2.01080E-01-3.82840E-14-3.23795E-14
 -1      8559 1.24698E+00 7.90138E+01 3.40038E-04-1.54796E-01 1.36761E-14 2.86594E-14
 -1      8560 1.27943E+00 7.88730E+01-9.38345E-05-3.02903E-01 3.56369E-14 1.25542E-14
 -1      8561 1.23502E+00 7.90047E+01 3.35061E-04-2.58743E-01-6.16035E-14 5.38840E-14
 -1      8562 1.25848E+00 7.88542E+01-1.09372E-04-4.06323E-01 2.75942E-14-7.04731E-15
 -1      8563 1.21656E+00 7.89913E+01 3.27024E-04-3.63844E-01 3.61620E-14 1.31076E-14
 -1      8564 1.23036E+00 7.88308E+01-1.29844E-04-5.11963E-01-4.84443E-14-5.77316E-14
 -1      8565 1.19098E+00 7.89742E+01 3.15203E-04-4.70619E-01 1.70068E-14 4.81420E-14
 -1      8566 1.19414E+00 7.88033E+01-1.55658E-04-6.20529E-01-1.62960E-14-7.63625E-15
 -1      8567 1.15742E+00 7.89538E+01 2.98575E-04-5.79649E-01-7.86073E-14 6.15376E-14
 -1      8568 1.14870E+00 7.87724E+01-1.87358E-04-7.32826E-01 9.22023E-14-2.03743E-14
 -1      8569 1.11481E+00 7.89310E+01 2.75757E-04-6.91590E-01-3.71439E-14-5.67376E-14
 -1      8570 1.09263E+00 7.87392E+01-2.25652E-04-8.49781E-01 4.10835E-14 2.20310E-14
 -1      8571 1.06182E+00 7.89066E+01 2.44923E-04-8.07190E-01 5.74332E-14 1.17215E-14
 -1      8572 1.02429E+00 7.87049E+01-2.71453E-04-9.72459E-01-1.25785E-14-7.74814E-14
 -1      8573 9.96851E-01 7.88821E+01 2.03699E-04-9.27301E-01 1.64738E-14 7.42722E-14
 -1      8574 9.41696E-01 7.86710E+01-3.25927E-04-1.10208E+00-7.05165E-16 4.66762E-14
 -1      8575 9.18011E-01 7.88588E+01 1.49017E-04-1.05289E+00 3.27707E-14-5.30756E-14
 -1      8576 8.42570E-01 7.86395E+01-3.90557E-04-1.24003E+00-1.22602E-13 8.35564E-14
 -1      8577 8.23090E-01 7.88389E+01 7.69212E-05-1.18503E+00-5.38875E-14 4.25701E-15
 -1      8578 7.24232E-01 7.86130E+01-4.67202E-04-1.38785E+00-9.66657E-14 1.08750E-14
 -1      8579 7.09519E-01 7.88248E+01-1.76711E-05-1.32492E+00 9.22526E-15 3.93366E-14
 -1      8580 5.83565E-01 7.85945E+01-5.58164E-04-1.54724E+00 8.02899E-14-4.24487E-14
 -1      8581 5.74324E-01 7.88196E+01-1.41291E-04-1.47382E+00 1.26465E-13 1.44485E-14
 -1      8582 4.16944E-01 7.85880E+01-6.66239E-04-1.71997E+00 7.74329E-14 1.89362E-14
 -1      8583 4.14085E-01 7.88272E+01-3.02311E-04-1.63303E+00-8.99159E-14 7.43780E-14
 -1      8584 2.20161E-01 7.85986E+01-7.94704E-04-1.90786E+00 5.32387E-14 9.44939E-14
 -1      8585 2.24876E-01 7.88525E+01-5.11427E-04-1.80380E+00-1.36781E-13 1.35239E-14
 -1      8586-1.16712E-02 7.86328E+01-9.47200E-04-2.11256E+00-8.24792E-14 4.66745E-14
 -1      8587 2.21603E-03 7.89013E+01-7.82222E-04-1.98715E+00 4.14200E-14 1.05489E-13
 -1      8588-2.84195E-01 7.86987E+01-1.12737E-03-2.33536E+00-3.65628E-14 1.31142E-13
 -1      8589-2.58972E-01 7.89814E+01-1.13177E-03-2.18367E+00 3.59851E-14 1.92034E-14
 -1      8590-6.03875E-01 7.88066E+01-1.33807E-03-2.57678E+00 1.00614E-14 3.96280E-14
 -1      8591-5.64368E-01 7.91021E+01-1.58121E-03-2.39315E+00 4.85549E-15 1.19005E-13
 -1      8592-9.77992E-01 7.89697E+01-1.57974E-03-2.83600E+00-3.95864E-14 3.07462E-14
 -1      8593-9.20186E-01 7.92750E+01-2.15602E-03-2.61407E+00 4.92315E-14 1.24262E-13
 -1      8594-1.41450E+00 7.92047E+01-1.84749E-03-3.10999E+00 6.55101E-14 2.44665E-14
 -1      8595-1.33297E+00 7.95146E+01-2.88576E-03-2.84286E+00 2.20414E-14-9.86017E-15
 -1      8596-1.92160E+00 7.95321E+01-2.12576E-03-3.39227E+00-1.51653E-13-3.76088E-14
 -1      8597-1.80913E+00 7.98382E+01-3.80233E-03-3.07281E+00 5.83734E-16 1.32019E-13
 -1      8598-2.50681E+00 7.99772E+01-2.37944E-03-3.67109E+00 8.32320E-14 1.50921E-13
 -1      8599-2.35401E+00 8.02669E+01-4.93577E-03-3.29268E+00-1.55901E-13 7.63278E-14
 -1      8600-3.17512E+00 8.05706E+01-2.53914E-03-3.92699E+00-2.62310E-13 2.98025E-14
 -1      8601-2.97028E+00 8.08246E+01-6.30545E-03-3.48472E+00 8.99387E-14 8.23439E-14
 -1      8602-3.92567E+00 8.13468E+01-2.48076E-03-4.12967E+00-1.72591E-13-4.75314E-15
 -1      8603-3.65501E+00 8.15383E+01-7.90350E-03-3.62241E+00 1.52632E-13 8.48072E-14
 -1      8604-4.74594E+00 8.23429E+01-1.99275E-03-4.23426E+00 1.08327E-13 3.84692E-14
 -1      8605-4.39500E+00 8.24349E+01-9.66845E-03-3.66784E+00 3.66632E-13-2.34465E-14
 -1      8606-5.60248E+00 8.35931E+01-7.54309E-04-4.17779E+00-8.01165E-14-4.81837E-14
 -1      8607-5.15951E+00 8.35377E+01-1.14367E-02-3.56956E+00 2.36568E-13 3.26128E-14
 -1      8608-6.42674E+00 8.51188E+01 1.66715E-03-3.87773E+00 1.43170E-13-4.73788E-14
 -1      8609-5.88962E+00 8.48580E+01-1.29143E-02-3.26233E+00-5.46785E-14 1.45578E-14
 -1      8610-7.09578E+00 8.69123E+01 5.89589E-03-3.23627E+00-4.29379E-14 6.80012E-15
 -1      8611-6.48479E+00 8.63841E+01-1.35230E-02-2.67137E+00 8.05189E-14-8.69582E-14
 -1      8612-6.78854E+00 8.80631E+01-1.29361E-02-1.72568E+00-2.46303E-13 7.69801E-14
 -1      8613 1.19483E+00 7.91420E+01-9.58156E-05-1.05125E-01 1.44713E-14-7.34135E-15
 -1      8614 1.14284E+00 7.92726E+01 2.59256E-04-5.34634E-02 5.61925E-14-5.65520E-16
 -1      8615 1.18564E+00 7.91365E+01-1.03060E-04-2.10622E-01-3.73855E-14 8.38114E-14
 -1      8616 1.13656E+00 7.92698E+01 2.55753E-04-1.60538E-01-2.46513E-14 2.65482E-14
 -1      8617 1.16998E+00 7.91275E+01-1.15271E-04-3.16878E-01 1.42514E-14-6.95503E-14
 -1      8618 1.12380E+00 7.92644E+01 2.48486E-04-2.68059E-01 1.52395E-15-2.89803E-14
 -1      8619 1.14730E+00 7.91155E+01-1.32661E-04-4.24305E-01-4.50317E-14 2.43191E-14
 -1      8620 1.10411E+00 7.92567E+01 2.36920E-04-3.76343E-01 1.94348E-14-2.27041E-14
 -1      8621 1.11685E+00 7.91009E+01-1.55536E-04-5.33360E-01-4.50594E-14 5.54747E-14
 -1      8622 1.07681E+00 7.92472E+01 2.20224E-04-4.85732E-01-4.58470E-14-2.02616E-15
 -1      8623 1.07763E+00 7.90846E+01-1.84303E-04-6.44550E-01 1.94215E-14-3.64396E-14
 -1      8624 1.04101E+00 7.92365E+01 1.97233E-04-5.96604E-01 5.91124E-14-2.39322E-14
 -1      8625 1.02841E+00 7.90675E+01-2.19485E-04-7.58449E-01-7.27543E-15-5.23435E-14
 -1      8626 9.95544E-01 7.92257E+01 1.66398E-04-7.09378E-01-6.58648E-14 1.35482E-14
 -1      8627 9.67685E-01 7.90507E+01-2.61733E-04-8.75706E-01-7.37431E-15 5.67428E-14
 -1      8628 9.39018E-01 7.92159E+01 1.25718E-04-8.24525E-01-8.82627E-15-7.48880E-15
 -1      8629 8.93677E-01 7.90359E+01-3.11845E-04-9.97048E-01 7.95371E-15 3.23977E-14
 -1      8630 8.69749E-01 7.92085E+01 7.26458E-05-9.42561E-01-7.70139E-14 6.26964E-14
 -1      8631 8.04308E-01 7.90251E+01-3.70779E-04-1.12328E+00-3.05259E-14-3.66322E-14
 -1      8632 7.85764E-01 7.92055E+01 3.97871E-06-1.06405E+00-3.20742E-14-1.85858E-14
 -1      8633 6.97171E-01 7.90204E+01-4.39663E-04-1.25527E+00-5.75625E-14 2.10908E-14
 -1      8634 6.84786E-01 7.92091E+01-8.42841E-05-1.18958E+00 1.17107E-13 3.52132E-14
 -1      8635 5.69501E-01 7.90251E+01-5.19790E-04-1.39392E+00 1.33227E-14 2.77209E-15
 -1      8636 5.64207E-01 7.92221E+01-1.97110E-04-1.31974E+00 1.09708E-13 5.92720E-14
 -1      8637 4.18146E-01 7.90426E+01-6.12584E-04-1.54013E+00 1.02470E-14 1.86757E-13
 -1      8638 4.21072E-01 7.92481E+01-3.40633E-04-1.45507E+00-1.69056E-13 1.16740E-13
 -1      8639 2.39542E-01 7.90777E+01-7.19501E-04-1.69468E+00 9.66935E-14 1.05749E-14
 -1      8640 2.52070E-01 7.92911E+01-5.22364E-04-1.59596E+00 7.70564E-14 1.16004E-13
 -1      8641 2.96840E-02 7.91357E+01-8.41825E-04-1.85812E+00 1.13253E-13-1.79023E-14
 -1      8642 5.35291E-02 7.93564E+01-7.51414E-04-1.74255E+00-9.20947E-14 7.30631E-14
 -1      8643-2.15870E-01 7.92238E+01-9.80275E-04-2.03057E+00 3.70398E-14 5.88869E-14
 -1      8644-1.78558E-01 7.94503E+01-1.03866E-03-1.89452E+00-1.84994E-13-8.11157E-15
 -1      8645-5.01965E-01 7.93502E+01-1.13429E-03-2.21138E+00-5.80438E-15-9.93927E-14
 -1      8646-4.48473E-01 7.95802E+01-1.39677E-03-2.05082E+00 1.50645E-13-6.18464E-14
 -1      8647-8.33740E-01 7.95252E+01-1.30079E-03-2.39871E+00 1.58429E-13 8.16881E-14
 -1      8648-7.60631E-01 7.97552E+01-1.83999E-03-2.20933E+00-1.71574E-13-7.74866E-14
 -1      8649-1.21639E+00 7.97613E+01-1.47211E-03-2.58894E+00-8.34905E-14-1.81105E-14
 -1      8650-1.11933E+00 7.99861E+01-2.38333E-03-2.36629E+00 3.19345E-14 3.38271E-15
 -1      8651-1.65471E+00 8.00734E+01-1.63270E-03-2.77578E+00-1.25140E-13 1.06547E-13
 -1      8652-1.52829E+00 8.02853E+01-3.04085E-03-2.51560E+00-6.36279E-14 6.61658E-14
 -1      8653-2.15226E+00 8.04788E+01-1.75389E-03-2.94913E+00 1.30169E-13 4.58383E-14
 -1      8654-1.98989E+00 8.06672E+01-3.82227E-03-2.64798E+00 2.40729E-13 5.46924E-14
 -1      8655-2.70998E+00 8.09973E+01-1.78640E-03-3.09368E+00-1.77310E-13-2.87409E-14
 -1      8656-2.50393E+00 8.11476E+01-4.72713E-03-2.74979E+00-5.31629E-14 9.61453E-14
 -1      8657-3.32388E+00 8.16501E+01-1.64993E-03-3.18714E+00-1.25539E-13-4.55191E-15
 -1      8658-3.06569E+00 8.17429E+01-5.73519E-03-2.80178E+00-2.09980E-14 2.88172E-14
 -1      8659-3.98140E+00 8.24581E+01-1.22096E-03-3.19844E+00-1.03329E-13-7.63556E-14
 -1      8660-3.66294E+00 8.24687E+01-6.79158E-03-2.77786E+00-9.73180E-15-2.91850E-14
 -1      8661-4.65600E+00 8.34387E+01-3.23921E-04-3.08626E+00-2.70409E-14-2.71727E-14
 -1      8662-4.27171E+00 8.33363E+01-7.78789E-03-2.64425E+00 9.35189E-14 8.95187E-14
 -1      8663-5.29956E+00 8.45994E+01 1.27526E-03-2.79899E+00-4.03289E-14 1.89238E-13
 -1      8664-4.85050E+00 8.43492E+01-8.53468E-03-2.35986E+00-2.20532E-13-5.69614E-14
 -1      8665-5.83281E+00 8.59290E+01 3.79625E-03-2.27795E+00-1.77428E-13 6.27415E-14
 -1      8666-5.33325E+00 8.54951E+01-8.75494E-03-1.87919E+00 7.13596E-14 1.61905E-13
 -1      8667-6.13520E+00 8.73855E+01 7.40963E-03-1.46667E+00-5.15560E-14-5.01682E-14
 -1      8668-5.62229E+00 8.67384E+01-8.05193E-03-1.15966E+00-1.12133E-13 5.77038E-14
 -1      8669-5.58479E+00 8.80105E+01-6.15810E-03-1.75898E-01-3.76366E-14-7.87148E-14
 -1      8670 1.08328E+00 7.94036E+01-1.11833E-04-1.08054E-01 1.55622E-14 2.71866E-14
 -1      8671 1.02976E+00 7.95397E+01 1.77708E-04-5.44709E-02-1.06946E-14-4.90233E-15
 -1      8672 1.07364E+00 7.94008E+01-1.19586E-04-2.16317E-01 2.95216E-14-4.11997E-14
 -1      8673 1.02326E+00 7.95386E+01 1.73486E-04-1.63473E-01 1.29475E-15-2.76029E-14
 -1      8674 1.05719E+00 7.93964E+01-1.32639E-04-3.25006E-01 9.54185E-15 6.04135E-14
 -1      8675 1.01005E+00 7.95367E+01 1.64764E-04-2.72657E-01 2.53705E-14 7.79932E-15
 -1      8676 1.03337E+00 7.93907E+01-1.51194E-04-4.34350E-01-4.86390E-14-3.16934E-15
 -1      8677 9.89667E-01 7.95343E+01 1.50972E-04-3.82152E-01-9.05372E-14 1.12063E-14
 -1      8678 1.00139E+00 7.93846E+01-1.75532E-04-5.44602E-01-2.38082E-14 1.83343E-14
 -1      8679 9.61414E-01 7.95319E+01 1.31234E-04-4.92094E-01 1.86162E-14 3.28522E-14
 -1      8680 9.60203E-01 7.93787E+01-2.06015E-04-6.56036E-01 1.55405E-14 5.25795E-15
 -1      8681 9.24363E-01 7.95302E+01 1.04335E-04-6.02631E-01-8.85984E-14 3.23110E-14
 -1      8682 9.08530E-01 7.93742E+01-2.43084E-04-7.68958E-01 4.44696E-15-5.57349E-14
 -1      8683 8.77335E-01 7.95304E+01 6.86855E-05-7.13918E-01 9.73223E-14 5.02549E-15
 -1      8684 8.44816E-01 7.93726E+01-2.87257E-04-8.83695E-01 5.98913E-15 5.15785E-14
 -1      8685 8.18898E-01 7.95337E+01 2.22658E-05-8.26118E-01 5.86952E-14-7.32539E-14
 -1      8686 7.67237E-01 7.93754E+01-3.39115E-04-1.00059E+00-9.00408E-14-3.69878E-14
 -1      8687 7.47352E-01 7.95417E+01-3.74327E-05-9.39389E-01-4.32666E-14-1.07064E-13
 -1      8688 6.73682E-01 7.93849E+01-3.99283E-04-1.12000E+00 4.26863E-14-1.98296E-14
 -1      8689 6.60726E-01 7.95564E+01-1.13480E-04-1.05387E+00 6.95086E-14-4.98906E-14
 -1      8690 5.61744E-01 7.94037E+01-4.68389E-04-1.24225E+00-1.14735E-14-6.77375E-14
 -1      8691 5.56772E-01 7.95802E+01-2.09590E-04-1.16963E+00-4.12517E-15-1.23294E-13
 -1      8692 4.28710E-01 7.94351E+01-5.46989E-04-1.36756E+00 2.74277E-14 3.77996E-14
 -1      8693 4.32963E-01 7.96160E+01-3.30195E-04-1.28667E+00-7.71631E-14-1.56420E-13
 -1      8694 2.71567E-01 7.94828E+01-6.35447E-04-1.49605E+00 1.50290E-13-1.40648E-13
 -1      8695 2.86507E-01 7.96675E+01-4.80527E-04-1.40481E+00 1.05287E-13-1.20470E-13
 -1      8696 8.70126E-02 7.95516E+01-7.33715E-04-1.62754E+00 5.43445E-14 7.56339E-16
 -1      8697 1.14370E-01 7.97388E+01-6.66645E-04-1.52361E+00-1.03145E-13-9.62529E-14
 -1      8698-1.28499E-01 7.96472E+01-8.40988E-04-1.76143E+00 9.50455E-15-5.01890E-14
 -1      8699-8.66701E-02 7.98351E+01-8.95416E-04-1.64221E+00-3.61412E-14-1.02689E-13
 -1      8700-3.78680E-01 7.97761E+01-9.55139E-04-1.89649E+00-5.69527E-14-4.32501E-14
 -1      8701-3.19931E-01 7.99622E+01-1.17434E-03-1.75916E+00-1.10304E-13-1.20192E-13
 -1      8702-6.67257E-01 7.99465E+01-1.07183E-03-2.03051E+00 5.43949E-14 8.24341E-15
 -1      8703-5.88668E-01 8.01271E+01-1.51117E-03-1.87216E+00 3.91302E-14-1.39458E-13
 -1      8704-9.97719E-01 8.01675E+01-1.18314E-03-2.15988E+00 8.53085E-14-1.53436E-13
 -1      8705-8.95826E-01 8.03379E+01-1.91311E-03-1.97765E+00-4.30784E-14-6.45629E-14
 -1      8706-1.37289E+00 8.04500E+01-1.27554E-03-2.27907E+00 1.38186E-13 6.02782E-14
 -1      8707-1.24364E+00 8.06035E+01-2.38542E-03-2.07045E+00-5.57601E-14-9.11320E-14
 -1      8708-1.79428E+00 8.08057E+01-1.32695E-03-2.37989E+00-2.25975E-13-1.29972E-13
 -1      8709-1.63302E+00 8.09339E+01-2.92907E-03-2.14312E+00-3.99715E-14-1.61725E-13
 -1      8710-2.26101E+00 8.12479E+01-1.30281E-03-2.45062E+00 1.61410E-13-3.88092E-14
 -1      8711-2.06265E+00 8.13396E+01-3.53705E-03-2.18539E+00-5.50995E-14-2.29726E-13
 -1      8712-2.76826E+00 8.17896E+01-1.15109E-03-2.47514E+00 1.28750E-13 7.21645E-15
 -1      8713-2.52764E+00 8.18309E+01-4.18881E-03-2.18341E+00 7.61331E-14-1.96981E-13
 -1      8714-3.30494E+00 8.24430E+01-7.97279E-04-2.43199E+00-2.92457E-13-1.78114E-13
 -1      8715-3.01765E+00 8.24168E+01-4.84268E-03-2.11921E+00 3.38073E-13-9.27591E-14
 -1      8716-3.85047E+00 8.32167E+01-1.40905E-04-2.29383E+00 2.60895E-13-3.67067E-15
 -1      8717-3.51430E+00 8.31030E+01-5.42611E-03-1.97040E+00 1.84098E-13-1.91534E-13
 -1      8718-4.37051E+00 8.41124E+01 9.40125E-04-2.02781E+00-3.62904E-14 4.26256E-14
 -1      8719-3.98788E+00 8.38894E+01-5.82596E-03-1.71066E+00-1.05742E-13-1.70003E-13
 -1      8720-4.81185E+00 8.51196E+01 2.57228E-03-1.59776E+00-7.93532E-14-1.40166E-13
 -1      8721-4.39358E+00 8.47656E+01-5.88128E-03-1.31168E+00 5.98618E-14-2.45817E-13
 -1      8722-5.09734E+00 8.62089E+01 4.83405E-03-9.69572E-01-6.17006E-14-7.91728E-14
 -1      8723-4.66781E+00 8.57070E+01-5.39293E-03-7.47411E-01 2.75821E-14-1.67096E-13
 -1      8724-5.12292E+00 8.73257E+01 7.66247E-03-1.21354E-01 3.55549E-14-4.71012E-14
 -1      8725-4.72624E+00 8.66694E+01-4.14070E-03-1.70904E-03 7.85483E-14-9.76719E-14
 -1      8726-4.46639E+00 8.75860E+01-2.06882E-03 9.19778E-01-1.60497E-13-2.88033E-14
 -1      8727 9.69700E-01 7.96764E+01-1.23680E-04-1.09179E-01-4.26287E-15-7.55125E-14
 -1      8728 9.15512E-01 7.98162E+01 9.89159E-05-5.46086E-02-3.42236E-14 1.61607E-14
 -1      8729 9.59865E-01 7.96761E+01-1.31642E-04-2.18386E-01 2.39929E-14-6.21551E-15
 -1      8730 9.08991E-01 7.98167E+01 9.44219E-05-1.63793E-01 3.46848E-14-1.34406E-14
 -1      8731 9.43095E-01 7.96758E+01-1.45028E-04-3.27648E-01-4.86544E-14 4.30211E-14
 -1      8732 8.95721E-01 7.98180E+01 8.51548E-05-2.72876E-01-6.04313E-15 3.09787E-14
 -1      8733 9.18817E-01 7.96761E+01-1.64011E-04-4.36994E-01 8.79396E-15-7.71518E-14
 -1      8734 8.75245E-01 7.98204E+01 7.05495E-05-3.81787E-01 1.66765E-14 4.55955E-14
 -1      8735 8.86223E-01 7.96776E+01-1.88821E-04-5.46452E-01-3.92594E-14-6.75675E-15
 -1      8736 8.46872E-01 7.98244E+01 4.97413E-05-4.90445E-01 2.84293E-14-6.84348E-15
 -1      8737 8.44266E-01 7.96812E+01-2.19743E-04-6.56047E-01 7.11931E-15 2.01228E-14
 -1      8738 8.09675E-01 7.98309E+01 2.15461E-05-5.98756E-01-1.02392E-15-4.95663E-14
 -1      8739 7.91650E-01 7.96881E+01-2.57095E-04-7.65793E-01 8.94354E-14 5.10876E-15
 -1      8740 7.62487E-01 7.98408E+01-1.55651E-05-7.06602E-01 1.07603E-13-6.12010E-15
 -1      8741 7.26828E-01 7.96997E+01-3.01208E-04-8.75683E-01 6.84314E-14 1.24796E-14
 -1      8742 7.03896E-01 7.98556E+01-6.34962E-05-8.13832E-01-1.59946E-14-2.24664E-14
 -1      8743 6.47999E-01 7.97178E+01-3.52391E-04-9.85673E-01-1.25594E-14-8.80528E-14
 -1      8744 6.32244E-01 7.98768E+01-1.24557E-04-9.20241E-01 9.69841E-14 1.28370E-16
 -1      8745 5.53103E-01 7.97447E+01-4.10873E-04-1.09565E+00 1.80680E-14-2.61388E-14
 -1      8746 5.45630E-01 7.99063E+01-2.01491E-04-1.02555E+00-4.02595E-14 5.06539E-14
 -1      8747 4.39829E-01 7.97830E+01-4.76722E-04-1.20540E+00-5.86007E-14 1.64833E-14
 -1      8748 4.41919E-01 7.99467E+01-2.97498E-04-1.12934E+00 2.92205E-14 1.44433E-14
 -1      8749 3.05634E-01 7.98359E+01-5.49716E-04-1.31454E+00-1.54035E-14-1.42648E-13
 -1      8750 3.18760E-01 8.00007E+01-4.16230E-04-1.23107E+00 9.58591E-14-3.64431E-14
 -1      8751 1.47771E-01 7.99073E+01-6.29157E-04-1.42243E+00-7.72412E-14 7.51274E-14
 -1      8752 1.73629E-01 8.00718E+01-5.61750E-04-1.32989E+00-8.74127E-14 8.24202E-14
 -1      8753-3.66454E-02 8.00016E+01-7.13581E-04-1.52806E+00 1.07770E-13-2.90844E-14
 -1      8754 3.88333E-03 8.01639E+01-7.38429E-04-1.42466E+00 5.28839E-14 3.11209E-14
 -1      8755-2.50551E-01 8.01242E+01-8.00335E-04-1.62990E+00 1.43704E-13 1.03251E-14
 -1      8756-1.93136E-01 8.02818E+01-9.50727E-04-1.51374E+00-5.52518E-14 2.03587E-14
 -1      8757-4.96770E-01 8.02810E+01-8.84964E-04-1.72567E+00-5.78530E-15-1.15324E-14
 -1      8758-4.19954E-01 8.04306E+01-1.20281E-03-1.59480E+00 2.21915E-14-2.98754E-14
 -1      8759-7.77787E-01 8.04791E+01-9.60324E-04-1.81204E+00 7.78579E-14-5.59379E-14
 -1      8760-6.78739E-01 8.06164E+01-1.49789E-03-1.66467E+00-5.33610E-14 8.30273E-14
 -1      8761-1.09538E+00 8.07262E+01-1.01535E-03-1.88432E+00-1.30757E-13-6.52534E-14
 -1      8762-9.70971E-01 8.08457E+01-1.83721E-03-1.71898E+00 4.10791E-14 7.36217E-14
 -1      8763-1.45011E+00 8.10306E+01-1.03341E-03-1.93600E+00 1.44244E-13-1.13104E-15
 -1      8764-1.29697E+00 8.11255E+01-2.21847E-03-1.75187E+00 5.03777E-14-7.21645E-16
 -1      8765-1.84051E+00 8.14012E+01-9.90232E-04-1.95825E+00 1.25087E-13 7.52870E-15
 -1      8766-1.65521E+00 8.14628E+01-2.63354E-03-1.75561E+00 1.42691E-13 8.90503E-14
 -1      8767-2.26205E+00 8.18463E+01-8.51578E-04-1.93946E+00-2.78865E-14-5.02931E-14
 -1      8768-2.04143E+00 8.18645E+01-3.06530E-03-1.72024E+00-9.59424E-14 7.10196E-14
 -1      8769-2.70560E+00 8.23730E+01-5.71122E-04-1.86476E+00-4.29171E-15-1.05235E-13
 -1      8770-2.44735E+00 8.23357E+01-3.48362E-03-1.63331E+00 1.83534E-14 2.50841E-15
 -1      8771-3.15545E+00 8.29857E+01-8.98021E-05-1.71591E+00 1.38205E-14 7.39547E-14
 -1      8772-2.85907E+00 8.28795E+01-3.84063E-03-1.47985E+00-1.43913E-14-3.94164E-14
 -1      8773-3.58679E+00 8.36837E+01 6.61253E-04-1.47171E+00 2.10595E-14-1.12535E-13
 -1      8774-3.25515E+00 8.34943E+01-4.06635E-03-1.24279E+00-1.36870E-14 6.02643E-14
 -1      8775-3.96293E+00 8.44583E+01 1.74998E-03-1.10946E+00 2.89074E-14 2.29053E-14
 -1      8776-3.60443E+00 8.41721E+01-4.06691E-03-9.04229E-01-3.89768E-13 1.61662E-13
 -1      8777-4.23252E+00 8.52889E+01 3.22008E-03-6.08146E-01 6.33243E-14-8.16014E-15
 -1      8778-3.86401E+00 8.48956E+01-3.72793E-03-4.48019E-01-9.63951E-14 1.39382E-13
 -1      8779-4.32807E+00 8.61399E+01 5.04673E-03 4.59145E-02 9.30922E-14-5.17988E-14
 -1      8780-3.97827E+00 8.56355E+01-2.93384E-03 1.35946E-01-3.05860E-13 1.70794E-13
 -1      8781-4.16735E+00 8.69573E+01 7.07064E-03 8.50431E-01-1.36349E-13 5.01196E-14
 -1      8782-3.87996E+00 8.63488E+01-1.59027E-03 8.45270E-01-2.12122E-14 1.55501E-13
 -1      8783-3.49561E+00 8.69792E+01 2.28568E-04 1.65660E+00-5.50254E-14 7.26190E-14
 -1      8784 8.55901E-01 7.99568E+01-1.30998E-04-1.08636E-01-1.62805E-14 6.24275E-14
 -1      8785 8.01849E-01 8.00986E+01 2.33472E-05-5.39490E-02-4.96422E-14 4.83572E-14
 -1      8786 8.46171E-01 7.99588E+01-1.38868E-04-2.17112E-01-7.79899E-15 2.31603E-14
 -1      8787 7.95496E-01 8.01006E+01 1.90373E-05-1.61721E-01 3.42387E-14 3.44169E-15
 -1      8788 8.29581E-01 7.99623E+01-1.52078E-04-3.25261E-01-2.72484E-14-9.04242E-14
 -1      8789 7.82568E-01 8.01048E+01 1.01545E-05-2.69110E-01-3.63819E-14-4.10227E-14
 -1      8790 8.05567E-01 7.99679E+01-1.70759E-04-4.32907E-01 1.21268E-14 4.06741E-14
 -1      8791 7.62621E-01 8.01115E+01-3.83120E-06-3.75844E-01 1.25128E-14-6.62491E-15
 -1      8792 7.73334E-01 7.99763E+01-1.95080E-04-5.39848E-01-1.26613E-15 6.87124E-15
 -1      8793 7.34986E-01 8.01212E+01-2.37246E-05-4.81630E-01 4.90580E-14-6.33556E-14
 -1      8794 7.31859E-01 7.99883E+01-2.25225E-04-6.45855E-01 4.06361E-14 1.46255E-14
 -1      8795 6.98768E-01 8.01349E+01-5.06162E-05-5.86135E-01-6.54513E-14-4.82600E-14
 -1      8796 6.79881E-01 8.00050E+01-2.61371E-04-7.50656E-01 4.69538E-14 6.15133E-15
 -1      8797 6.52847E-01 8.01533E+01-8.58932E-05-6.88977E-01 7.84746E-16 3.85317E-14
 -1      8798 6.15908E-01 8.00280E+01-3.03645E-04-8.53913E-01 4.98117E-14 4.33160E-15
 -1      8799 5.95876E-01 8.01778E+01-1.31249E-04-7.89705E-01-2.04502E-14 5.44183E-14
 -1      8800 5.38219E-01 8.00589E+01-3.52066E-04-9.55206E-01 5.02909E-14 1.63931E-14
 -1      8801 5.26289E-01 8.02099E+01-1.88688E-04-8.87772E-01 5.13318E-14 2.86420E-14
 -1      8802 4.44872E-01 8.00999E+01-4.06468E-04-1.05399E+00-6.64521E-14 3.31089E-14
 -1      8803 4.42311E-01 8.02514E+01-2.60513E-04-9.82510E-01-5.26723E-14 3.49304E-14
 -1      8804 3.33733E-01 8.01535E+01-4.66382E-04-1.14956E+00-3.92490E-14-2.11827E-14
 -1      8805 3.41982E-01 8.03047E+01-3.49298E-04-1.07308E+00 1.38936E-13 5.33740E-14
 -1      8806 2.02507E-01 8.02227E+01-5.30877E-04-1.24098E+00-1.82798E-13 1.04507E-13
 -1      8807 2.23197E-01 8.03722E+01-4.57819E-04-1.15843E+00-4.87587E-14 2.41057E-14
 -1      8808 4.88027E-02 8.03111E+01-5.98336E-04-1.32699E+00 1.23266E-13 3.42087E-14
 -1      8809 8.37585E-02 8.04571E+01-5.88933E-04-1.23722E+00 1.04779E-13 6.00145E-14
 -1      8810-1.29773E-01 8.04227E+01-6.66144E-04-1.40592E+00 9.00720E-14-3.16518E-14
 -1      8811-7.85263E-02 8.05629E+01-7.45373E-04-1.30771E+00 8.10810E-14-2.76515E-14
 -1      8812-3.35478E-01 8.05622E+01-7.30262E-04-1.47554E+00 4.31799E-14 4.30628E-14
 -1      8813-2.65718E-01 8.06936E+01-9.29422E-04-1.36768E+00 4.89318E-14 3.62314E-14
 -1      8814-5.70228E-01 8.07346E+01-7.84655E-04-1.53284E+00-4.53877E-14 4.76841E-14
 -1      8815-4.79555E-01 8.08536E+01-1.14242E-03-1.41427E+00-3.88925E-14 1.02505E-13
 -1      8816-8.35302E-01 8.09457E+01-8.20548E-04-1.57388E+00-6.19591E-14 3.71092E-14
 -1      8817-7.21187E-01 8.10475E+01-1.38403E-03-1.44381E+00-1.39979E-14-2.32175E-14
 -1      8818-1.13094E+00 8.12013E+01-8.25490E-04-1.59349E+00 7.95130E-14 8.01442E-14
 -1      8819-9.90809E-01 8.12805E+01-1.65121E-03-1.45162E+00-6.40644E-14-7.05443E-14
 -1      8820-1.45575E+00 8.15074E+01-7.82274E-04-1.58500E+00-1.52204E-13-6.58917E-14
 -1      8821-1.28717E+00 8.15574E+01-1.93681E-03-1.43184E+00 1.36941E-14-5.60975E-14
 -1      8822-1.80599E+00 8.18695E+01-6.67835E-04-1.53999E+00-7.68970E-14 7.41074E-14
 -1      8823-1.60690E+00 8.18825E+01-2.22773E-03-1.37721E+00-1.40116E-13-5.39152E-14
 -1      8824-2.17451E+00 8.22921E+01-4.52453E-04-1.44811E+00 1.15338E-13 7.02320E-14
 -1      8825-1.94371E+00 8.22593E+01-2.50275E-03-1.27903E+00 2.55806E-13-5.38632E-14
 -1      8826-2.54951E+00 8.27772E+01-9.98915E-05-1.29706E+00 2.56271E-14 8.86097E-14
 -1      8827-2.28729E+00 8.26892E+01-2.73021E-03-1.12714E+00-3.42209E-14 1.42490E-14
 -1      8828-2.91301E+00 8.33234E+01 4.30384E-04-1.07301E+00-2.72282E-14-3.21514E-14
 -1      8829-2.62216E+00 8.31704E+01-2.86606E-03-9.10360E-01 5.30825E-15-9.42996E-15
 -1      8830-3.23921E+00 8.39240E+01 1.17716E-03-7.61533E-01 1.26572E-13 1.49686E-13
 -1      8831-2.92633E+00 8.36970E+01-2.85343E-03-6.17279E-01-1.61059E-13 6.10623E-15
 -1      8832-3.49294E+00 8.45646E+01 2.16530E-03-3.49577E-01-8.71039E-14 6.67452E-14
 -1      8833-3.17017E+00 8.42568E+01-2.62558E-03-2.37844E-01 1.58352E-13-2.48829E-14
 -1      8834-3.62881E+00 8.52211E+01 3.38485E-03 1.71289E-01-1.16039E-13 5.11674E-14
 -1      8835-3.31578E+00 8.48299E+01-2.11411E-03 2.34106E-01-2.71727E-14-2.55143E-14
 -1      8836-3.59193E+00 8.58585E+01 4.76015E-03 8.00038E-01-2.57433E-15 6.66828E-15
 -1      8837-3.31758E+00 8.53880E+01-1.26816E-03 7.97162E-01-7.06310E-14-6.47121E-14
 -1      8838-3.32150E+00 8.64303E+01 6.11023E-03 1.51987E+00 3.82194E-14-9.51461E-14
 -1      8839-3.12507E+00 8.58938E+01-7.42082E-05 1.43762E+00-5.57193E-14-9.38485E-14
 -1      8840-2.68872E+00 8.63039E+01 1.34807E-03 2.12418E+00-1.17822E-13-3.52461E-14
 -1      8841 7.43551E-01 8.02414E+01-1.33779E-04-1.06573E-01 8.35944E-15-1.72778E-14
 -1      8842 6.90353E-01 8.03835E+01-4.91951E-05-5.25661E-02 8.57298E-14-5.72840E-14
 -1      8843 7.34219E-01 8.02454E+01-1.41273E-04-2.12805E-01 4.19875E-14 3.20455E-14
 -1      8844 6.84358E-01 8.03869E+01-5.28801E-05-1.57485E-01 7.69366E-15-2.19998E-14
 -1      8845 7.18307E-01 8.02524E+01-1.53828E-04-3.18342E-01-2.64492E-14-3.05589E-14
 -1      8846 6.72159E-01 8.03937E+01-6.04841E-05-2.61758E-01-1.27063E-14-1.71044E-15
 -1      8847 6.95275E-01 8.02628E+01-1.71531E-04-4.22808E-01-7.33690E-15-1.03643E-13
 -1      8848 6.53337E-01 8.04042E+01-7.24767E-05-3.64928E-01 2.47111E-15-2.80175E-14
 -1      8849 6.64369E-01 8.02772E+01-1.94482E-04-5.25785E-01-2.23755E-14-1.27173E-14
 -1      8850 6.27265E-01 8.04191E+01-8.95662E-05-4.66502E-01 1.00178E-14 1.71876E-14
 -1      8851 6.24616E-01 8.02964E+01-2.22766E-04-6.26806E-01-1.62574E-14-1.52083E-14
 -1      8852 5.93104E-01 8.04389E+01-1.12702E-04-5.65931E-01-2.52523E-14 9.19074E-14
 -1      8853 5.74827E-01 8.03216E+01-2.56417E-04-7.25325E-01-5.86343E-14-6.39037E-14
 -1      8854 5.49810E-01 8.04646E+01-1.43075E-04-6.62590E-01-5.41863E-15-3.00593E-14
 -1      8855 5.13606E-01 8.03540E+01-2.95367E-04-8.20706E-01-3.04722E-14-3.39607E-14
 -1      8856 4.96137E-01 8.04972E+01-1.82110E-04-7.55760E-01-5.87755E-14-2.91087E-14
 -1      8857 4.39359E-01 8.03951E+01-3.39372E-04-9.12186E-01 3.97547E-14 1.54078E-14
 -1      8858 4.30649E-01 8.05381E+01-2.31448E-04-8.44593E-01-6.67869E-17 1.18672E-14
 -1      8859 3.50316E-01 8.04470E+01-3.87920E-04-9.98842E-01-1.14383E-13-3.22485E-15
 -1      8860 3.51741E-01 8.05890E+01-2.92909E-04-9.28087E-01 3.43575E-14 8.64760E-15
 -1      8861 2.44568E-01 8.05120E+01-4.40094E-04-1.07955E+00-9.10582E-14 5.21666E-14
 -1      8862 2.57671E-01 8.06517E+01-3.68426E-04-1.00504E+00-1.30087E-14-6.39853E-14
 -1      8863 1.20119E-01 8.05925E+01-4.94402E-04-1.15290E+00-7.84546E-14-2.75058E-14
 -1      8864 1.46610E-01 8.07285E+01-4.59937E-04-1.07402E+00-1.93547E-14-1.68199E-14
 -1      8865-2.50295E-02 8.06918E+01-5.48547E-04-1.21718E+00-1.64560E-14-3.90278E-14
 -1      8866 1.67188E-02 8.08220E+01-5.69213E-04-1.13325E+00 1.21844E-13-6.64746E-15
 -1      8867-1.92761E-01 8.08132E+01-5.99130E-04-1.27023E+00 4.81386E-17 3.48332E-14
 -1      8868-1.33745E-01 8.09350E+01-6.97612E-04-1.18062E+00-6.56645E-14 7.62237E-15
 -1      8869-3.84674E-01 8.09605E+01-6.41272E-04-1.30934E+00-2.76914E-14 7.00655E-14
 -1      8870-3.06274E-01 8.10708E+01-8.45709E-04-1.21353E+00-3.25525E-14 2.83697E-14
 -1      8871-6.01851E-01 8.11377E+01-6.68154E-04-1.33116E+00-4.30125E-15 2.02408E-14
 -1      8872-5.01903E-01 8.12328E+01-1.01280E-03-1.22883E+00 1.05186E-13-5.27807E-14
 -1      8873-8.44539E-01 8.13492E+01-6.70478E-04-1.33150E+00 1.28855E-14 2.84842E-14
 -1      8874-7.20932E-01 8.14245E+01-1.19620E-03-1.22271E+00-1.22742E-13-5.99312E-14
 -1      8875-1.11173E+00 8.15989E+01-6.35891E-04-1.30524E+00 3.35573E-13-7.57623E-14
 -1      8876-9.62552E-01 8.16491E+01-1.39039E-03-1.19059E+00 1.32074E-13 2.88311E-15
 -1      8877-1.40062E+00 8.18906E+01-5.48475E-04-1.24617E+00-5.80650E-14 4.84751E-14
 -1      8878-1.22438E+00 8.19097E+01-1.58594E-03-1.12707E+00 1.18146E-13 1.01079E-13
 -1      8879-1.70589E+00 8.22271E+01-3.88488E-04-1.14697E+00 1.60969E-13-1.14304E-13
 -1      8880-1.50188E+00 8.22085E+01-1.76827E-03-1.02590E+00 1.51608E-13 5.53203E-14
 -1      8881-2.01891E+00 8.26094E+01-1.32725E-04-9.99221E-01-8.71785E-15 3.58498E-14
 -1      8882-1.78764E+00 8.25461E+01-1.91645E-03-8.80091E-01-1.05942E-13 3.07566E-14
 -1      8883-2.32671E+00 8.30362E+01 2.43934E-04-7.93785E-01-1.01540E-13 3.14332E-15
 -1      8884-2.07059E+00 8.29210E+01-2.00236E-03-6.82176E-01-2.82505E-13 4.90892E-14
 -1      8885-2.61102E+00 8.35022E+01 7.64949E-04-5.21421E-01-2.41439E-14-3.77268E-14
 -1      8886-2.33520E+00 8.33289E+01-1.99075E-03-4.24818E-01-5.98514E-14 1.38823E-13
 -1      8887-2.84728E+00 8.39975E+01 1.44545E-03-1.74029E-01 9.92401E-14-7.16788E-14
 -1      8888-2.56072E+00 8.37612E+01-1.84101E-03-1.01787E-01 1.94216E-13 7.25461E-15
 -1      8889-3.00419E+00 8.45057E+01 2.28142E-03 2.53423E-01 8.64274E-14 3.69427E-14
 -1      8890-2.72081E+00 8.42043E+01-1.51212E-03 2.90499E-01-9.84594E-14 1.20941E-13
 -1      8891-3.04402E+00 8.50033E+01 3.23458E-03 7.60085E-01-6.67591E-14-1.25237E-13
 -1      8892-2.78382E+00 8.46391E+01-9.71243E-04 7.50807E-01-3.11730E-14 6.20788E-14
 -1      8893-2.92453E+00 8.54595E+01 4.21256E-03 1.33559E+00 1.47007E-13-7.18557E-14
 -1      8894-2.71425E+00 8.50406E+01-2.09223E-04 1.27031E+00 8.13308E-14 3.14384E-14
 -1      8895-2.60310E+00 8.58379E+01 5.05208E-03 1.95598E+00 3.06213E-14 4.89925E-14
 -1      8896-2.47590E+00 8.53792E+01 7.46736E-04 1.82950E+00-6.77722E-14 1.42524E-13
 -1      8897-2.03729E+00 8.56235E+01 1.77344E-03 2.39532E+00 8.59729E-15 1.02649E-13
 -1      8898 6.34158E-01 8.05268E+01-1.32366E-04-1.03132E-01-1.66465E-14-8.32667E-15
 -1      8899 5.82460E-01 8.06678E+01-1.19554E-04-5.05255E-02-2.74971E-14 5.92859E-14
 -1      8900 6.25495E-01 8.05328E+01-1.39228E-04-2.05759E-01 1.94075E-14 4.52745E-14
 -1      8901 5.76995E-01 8.06723E+01-1.22212E-04-1.51288E-01-1.25194E-14 7.48273E-14
 -1      8902 6.10725E-01 8.05428E+01-1.50704E-04-3.07362E-01-1.29215E-14 1.91756E-14
 -1      8903 5.65873E-01 8.06815E+01-1.27722E-04-2.51178E-01-3.76679E-15-4.27089E-15
 -1      8904 5.89346E-01 8.05575E+01-1.66838E-04-4.07383E-01 4.47219E-14 7.27335E-14
 -1      8905 5.48712E-01 8.06956E+01-1.36476E-04-3.49578E-01-5.32533E-16-4.30385E-15
 -1      8906 5.60661E-01 8.05772E+01-1.87664E-04-5.05215E-01-1.22289E-14-4.02664E-14
 -1      8907 5.24941E-01 8.07150E+01-1.49057E-04-4.45825E-01 1.37678E-14 4.56475E-14
 -1      8908 5.23774E-01 8.06027E+01-2.13177E-04-6.00175E-01 2.23939E-14 6.00908E-15
 -1      8909 4.93797E-01 8.07403E+01-1.66242E-04-5.39184E-01-4.50849E-15 2.27457E-14
 -1      8910 4.77598E-01 8.06350E+01-2.43288E-04-6.91486E-01 7.59283E-14-2.03761E-14
 -1      8911 4.54338E-01 8.07721E+01-1.88992E-04-6.28828E-01 1.16980E-13 2.88797E-14
 -1      8912 4.20865E-01 8.06750E+01-2.77767E-04-7.78248E-01-8.40105E-14 3.52253E-14
 -1      8913 4.05444E-01 8.08115E+01-2.18433E-04-7.13810E-01-8.79847E-14 4.94969E-14
 -1      8914 3.52142E-01 8.07242E+01-3.16162E-04-8.59411E-01-4.78914E-15 4.12257E-14
 -1      8915 3.45840E-01 8.08594E+01-2.55829E-04-7.93039E-01 3.29493E-14 8.83668E-14
 -1      8916 2.69863E-01 8.07842E+01-3.57700E-04-9.33739E-01 1.10985E-13 2.79655E-14
 -1      8917 2.74115E-01 8.09172E+01-3.02527E-04-8.65244E-01-8.24273E-14 2.96395E-14
 -1      8918 1.72373E-01 8.08569E+01-4.01146E-04-9.99771E-01 8.68359E-15 1.01185E-13
 -1      8919 1.88764E-01 8.09865E+01-3.59873E-04-9.28943E-01-4.58506E-14 7.47440E-14
 -1      8920 5.79919E-02 8.09444E+01-4.44642E-04-1.05577E+00-5.92278E-15-6.75154E-14
 -1      8921 8.82502E-02 8.10690E+01-4.29087E-04-9.82402E-01-6.36971E-14 5.60680E-14
 -1      8922-7.48893E-02 8.10492E+01-4.85489E-04-1.09966E+00-6.57089E-14 4.41522E-14
 -1      8923-2.89186E-02 8.11666E+01-5.11084E-04-1.02359E+00-9.49332E-14-2.06501E-14
 -1      8924-2.27675E-01 8.11739E+01-5.19894E-04-1.12899E+00 8.45463E-14-6.76299E-14
 -1      8925-1.64068E-01 8.12817E+01-6.06214E-04-1.05012E+00 2.11806E-13 3.01911E-14
 -1      8926-4.01386E-01 8.13215E+01-5.42673E-04-1.14082E+00 7.93827E-14-3.15373E-14
 -1      8927-3.18200E-01 8.14164E+01-7.13919E-04-1.05923E+00-1.18436E-13-5.23297E-14
 -1      8928-5.96417E-01 8.14947E+01-5.46926E-04-1.13167E+00 1.81930E-13 1.26461E-14
 -1      8929-4.91784E-01 8.15731E+01-8.32291E-04-1.04770E+00 5.69066E-14 3.89480E-14
 -1      8930-8.12229E-01 8.16965E+01-5.23717E-04-1.09748E+00 2.15897E-14-5.39430E-14
 -1      8931-6.84486E-01 8.17542E+01-9.57507E-04-1.01183E+00 1.14278E-13 1.13007E-13
 -1      8932-1.04694E+00 8.19293E+01-4.61833E-04-1.03353E+00 1.02201E-13 9.98993E-14
 -1      8933-8.94824E-01 8.19614E+01-1.08318E-03-9.47421E-01-1.30182E-14 7.77295E-14
 -1      8934-1.29687E+00 8.21948E+01-3.47736E-04-9.34456E-01-9.82031E-14 1.94116E-14
 -1      8935-1.11975E+00 8.21962E+01-1.19966E-03-8.49826E-01 7.17193E-14 9.38763E-14
 -1      8936-1.55589E+00 8.24936E+01-1.65916E-04-7.94375E-01 8.12020E-14 1.51539E-13
 -1      8937-1.35418E+00 8.24589E+01-1.29336E-03-7.14044E-01-1.11215E-13-3.79488E-14
 -1      8938-1.81485E+00 8.28246E+01 1.00050E-04-6.07107E-01-1.40119E-13 3.17593E-14
 -1      8939-1.59041E+00 8.27483E+01-1.34638E-03-5.34956E-01 1.85311E-13 1.61537E-14
 -1      8940-2.06086E+00 8.31839E+01 4.65324E-04-3.66655E-01-1.13942E-13 7.99499E-14
 -1      8941-1.81758E+00 8.30611E+01-1.33660E-03-3.07738E-01 9.78939E-14-1.33192E-14
 -1      8942-2.27670E+00 8.35646E+01 9.39992E-04-6.79972E-02 1.16494E-13 5.20833E-14
 -1      8943-2.02122E+00 8.33913E+01-1.23890E-03-2.85178E-02 7.46972E-14-4.46310E-14
 -1      8944-2.44050E+00 8.39553E+01 1.52316E-03 2.91716E-01-1.04977E-13 6.23529E-14
 -1      8945-2.18290E+00 8.37298E+01-1.02779E-03 3.04659E-01 7.48568E-14 6.25437E-14
 -1      8946-2.52582E+00 8.43403E+01 2.19475E-03 7.11478E-01 2.47406E-14 8.67657E-14
 -1      8947-2.28037E+00 8.40634E+01-6.82447E-04 6.90502E-01-1.80843E-13-1.18142E-13
 -1      8948-2.50274E+00 8.46987E+01 2.90594E-03 1.18427E+00-3.02668E-13-2.50581E-14
 -1      8949-2.28832E+00 8.43752E+01-1.93794E-04 1.12281E+00 7.67789E-14-3.90660E-14
 -1      8950-2.34011E+00 8.50058E+01 3.56846E-03 1.69462E+00-2.75668E-13 1.27158E-13
 -1      8951-2.18015E+00 8.46448E+01 4.24883E-04 1.58856E+00 5.75304E-14-4.90736E-14
 -1      8952-2.00949E+00 8.52344E+01 4.04968E-03 2.21626E+00-4.46657E-14 5.80022E-14
 -1      8953-1.93095E+00 8.48502E+01 1.13127E-03 2.06618E+00-2.32175E-13-6.82080E-14
 -1      8954-1.52192E+00 8.49699E+01 1.82009E-03 2.52429E+00-6.03129E-14 3.71682E-14
 -1      8955 5.29089E-01 8.08100E+01-1.27425E-04-9.84279E-02 4.32857E-15-7.92057E-14
 -1      8956 4.79486E-01 8.09482E+01-1.89169E-04-4.78758E-02 6.34704E-14-1.60219E-14
 -1      8957 5.21331E-01 8.08176E+01-1.33441E-04-1.96218E-01-4.18523E-14-5.19029E-14
 -1      8958 4.74691E-01 8.09538E+01-1.90455E-04-1.43281E-01-4.64974E-14-7.66089E-14
 -1      8959 5.08101E-01 8.08306E+01-1.43483E-04-2.92711E-01-2.58508E-16-3.97425E-14
 -1      8960 4.64932E-01 8.09652E+01-1.93176E-04-2.37637E-01 4.63567E-15-4.01432E-14
 -1      8961 4.88951E-01 8.08491E+01-1.57559E-04-3.87205E-01 4.82946E-14-3.41203E-14
 -1      8962 4.49872E-01 8.09826E+01-1.97627E-04-3.30203E-01 3.74869E-14 2.46053E-14
 -1      8963 4.63255E-01 8.08736E+01-1.75650E-04-4.78934E-01-2.37444E-14 7.54865E-14
 -1      8964 4.29006E-01 8.10061E+01-2.04251E-04-4.20186E-01-1.66445E-14-7.21350E-14
 -1      8965 4.30214E-01 8.09046E+01-1.97679E-04-5.67043E-01 2.00298E-14-1.27155E-14
 -1      8966 4.01666E-01 8.10363E+01-2.13628E-04-5.06707E-01-1.92160E-14-5.42708E-14
 -1      8967 3.88864E-01 8.09428E+01-2.23465E-04-6.50565E-01-4.75516E-14 7.35367E-14
 -1      8968 3.67027E-01 8.10736E+01-2.26470E-04-5.88783E-01-7.93582E-15-1.13781E-14
 -1      8969 3.38087E-01 8.09892E+01-2.52662E-04-7.28396E-01 9.12378E-15-5.80924E-14
 -1      8970 3.24115E-01 8.11187E+01-2.43597E-04-6.65297E-01 3.80162E-14-5.68434E-14
 -1      8971 2.76635E-01 8.10447E+01-2.84683E-04-7.99260E-01 2.48712E-14-2.11949E-14
 -1      8972 2.71831E-01 8.11724E+01-2.65905E-04-7.34975E-01-7.68582E-14-9.81160E-14
 -1      8973 2.03161E-01 8.11105E+01-3.18595E-04-8.61687E-01-5.16916E-14-8.89497E-14
 -1      8974 2.08971E-01 8.12355E+01-2.94308E-04-7.96354E-01 1.33580E-13 7.81840E-15
 -1      8975 1.16272E-01 8.11881E+01-3.52998E-04-9.13974E-01 1.52060E-14-1.54078E-14
 -1      8976 1.34277E-01 8.13092E+01-3.29657E-04-8.47758E-01-5.56947E-14 1.10502E-15
 -1      8977 1.45953E-02 8.12790E+01-3.85869E-04-9.54150E-01-2.08841E-14 9.79078E-15
 -1      8978 4.64884E-02 8.13946E+01-3.72621E-04-8.87262E-01 9.73227E-14-7.62168E-14
 -1      8979-1.03119E-01 8.13851E+01-4.14383E-04-9.79939E-01 8.81321E-14-3.48159E-14
 -1      8980-5.55653E-02 8.14932E+01-4.23516E-04-9.12673E-01 7.31436E-14 3.25157E-14
 -1      8981-2.37863E-01 8.15081E+01-4.34714E-04-9.88729E-01-9.46075E-16 3.26579E-14
 -1      8982-1.72854E-01 8.16062E+01-4.82083E-04-9.21498E-01 1.26390E-13-6.28872E-14
 -1      8983-3.90197E-01 8.16500E+01-4.41824E-04-9.77535E-01-6.36730E-15-1.36204E-13
 -1      8984-3.05993E-01 8.17352E+01-5.47204E-04-9.10934E-01 1.11194E-13-5.24338E-14
 -1      8985-5.60014E-01 8.18125E+01-4.29273E-04-9.42986E-01-9.87575E-14 2.66905E-14
 -1      8986-4.55045E-01 8.18814E+01-6.16546E-04-8.77859E-01-1.51229E-13 2.85987E-14
 -1      8987-7.46257E-01 8.19972E+01-3.89089E-04-8.81325E-01 8.28732E-14 2.36998E-14
 -1      8988-6.19276E-01 8.20460E+01-6.86163E-04-8.18857E-01-6.24522E-14-1.64452E-15
 -1      8989-9.46561E-01 8.22052E+01-3.11782E-04-7.88459E-01-1.65493E-14-3.94164E-14
 -1      8990-7.96853E-01 8.22297E+01-7.50070E-04-7.30273E-01 8.03420E-14-2.82968E-14
 -1      8991-1.15685E+00 8.24366E+01-1.86623E-04-6.60064E-01 9.90098E-14-6.40737E-14
 -1      8992-9.84499E-01 8.24324E+01-7.99864E-04-6.08326E-01-4.57230E-14 1.73021E-14
 -1      8993-1.37087E+00 8.26905E+01-2.33841E-06-4.91790E-01 1.65727E-14-1.09648E-13
 -1      8994-1.17710E+00 8.26531E+01-8.24505E-04-4.49304E-01-5.07589E-14 8.92203E-14
 -1      8995-1.57974E+00 8.29640E+01 2.51532E-04-2.79614E-01-8.34584E-14-1.45578E-14
 -1      8996-1.36731E+00 8.28895E+01-8.10421E-04-2.49871E-01-1.34835E-13-9.26273E-14
 -1      8997-1.77151E+00 8.32523E+01 5.82382E-04-2.03675E-02-1.59924E-13-9.47298E-14
 -1      8998-1.54521E+00 8.31372E+01-7.42190E-04-7.52421E-03-4.07504E-14 1.74895E-14
 -1      8999-1.93090E+00 8.35476E+01 9.91152E-04 2.87481E-01 1.63706E-14 3.04617E-14
 -1      9000-1.69804E+00 8.33899E+01-6.04084E-04 2.78765E-01 5.33297E-14 6.96873E-14
 -1      9001-2.03933E+00 8.38391E+01 1.46774E-03 6.42779E-01-3.23734E-14-6.50192E-14
 -1      9002-1.81022E+00 8.36386E+01-3.82766E-04 6.07706E-01-3.32890E-13-7.02060E-14
 -1      9003-2.07544E+00 8.41127E+01 1.98545E-03 1.04037E+00 1.41692E-14-1.76839E-13
 -1      9004-1.86373E+00 8.38719E+01-7.13929E-05 9.74644E-01 7.03604E-15-6.12531E-14
 -1      9005-2.01635E+00 8.43515E+01 2.49575E-03 1.46961E+00 1.11536E-13-8.55999E-15
 -1      9006-1.83905E+00 8.40756E+01 3.25349E-04 1.37039E+00-1.11369E-13 3.67414E-14
 -1      9007-1.83991E+00 8.45364E+01 2.92353E-03 1.91284E+00 7.51621E-14-1.68692E-13
 -1      9008-1.71685E+00 8.42344E+01 7.84877E-04 1.78005E+00-8.54143E-14 8.27003E-14
 -1      9009-1.52798E+00 8.46487E+01 3.16828E-03 2.34442E+00 9.57220E-14-8.25780E-14
 -1      9010-1.48062E+00 8.43326E+01 1.26404E-03 2.18224E+00 1.69326E-13-1.03086E-13
 -1      9011-1.11997E+00 8.43567E+01 1.68196E-03 2.54884E+00 1.76782E-13-6.46080E-14
 -1      9012 4.29606E-01 8.10876E+01-1.19904E-04-9.25354E-02-7.89939E-15 5.23193E-14
 -1      9013 3.82665E-01 8.12214E+01-2.59993E-04-4.46404E-02-3.15516E-14 4.59684E-14
 -1      9014 4.22935E-01 8.10969E+01-1.24908E-04-1.84337E-01-1.14018E-14 2.68275E-14
 -1      9015 3.78642E-01 8.12282E+01-2.59639E-04-1.33538E-01 1.18432E-14 8.70918E-14
 -1      9016 4.11556E-01 8.11126E+01-1.33243E-04-2.74646E-01-2.67627E-14-2.67598E-14
 -1      9017 3.70452E-01 8.12418E+01-2.59024E-04-2.21272E-01 5.90234E-14 6.50521E-15
 -1      9018 3.95080E-01 8.11347E+01-1.44891E-04-3.62657E-01 1.72083E-14 1.08061E-13
 -1      9019 3.57807E-01 8.12623E+01-2.58340E-04-3.07025E-01-4.95002E-14 1.67002E-14
 -1      9020 3.72967E-01 8.11637E+01-1.59793E-04-4.47490E-01-3.46617E-14-1.18589E-13
 -1      9021 3.40282E-01 8.12899E+01-2.57868E-04-3.89918E-01 2.02176E-14 2.04645E-14
 -1      9022 3.44528E-01 8.11997E+01-1.77824E-04-5.28168E-01 1.41991E-14-5.94871E-14
 -1      9023 3.17309E-01 8.13247E+01-2.57979E-04-4.68980E-01-3.90909E-14-1.09097E-14
 -1      9024 3.08935E-01 8.12434E+01-1.98747E-04-6.03590E-01 1.37948E-14-1.30378E-13
 -1      9025 2.88193E-01 8.13672E+01-2.59123E-04-5.43129E-01 1.12218E-13-1.77410E-14
 -1      9026 2.65235E-01 8.12952E+01-2.22154E-04-6.72508E-01 8.22487E-15 2.73323E-14
 -1      9027 2.52117E-01 8.14175E+01-2.61811E-04-6.11141E-01 3.25248E-14-3.68386E-14
 -1      9028 2.12376E-01 8.13558E+01-2.47397E-04-7.33495E-01-3.83316E-14-3.20178E-14
 -1      9029 2.08166E-01 8.14762E+01-2.66588E-04-6.71629E-01 4.04505E-15 4.78992E-14
 -1      9030 1.49233E-01 8.14259E+01-2.73494E-04-7.84928E-01 2.82977E-14 8.76417E-14
 -1      9031 1.55348E-01 8.15437E+01-2.73987E-04-7.23017E-01 2.56392E-14-7.15261E-14
 -1      9032 7.46680E-02 8.15064E+01-2.99017E-04-8.24953E-01 1.10636E-14-8.82124E-14
 -1      9033 9.26383E-02 8.16205E+01-2.84460E-04-7.63519E-01 8.19698E-14-3.10862E-14
 -1      9034-1.24085E-02 8.15984E+01-3.21971E-04-8.51472E-01 9.03958E-14 1.99840E-15
 -1      9035 1.90387E-02 8.17073E+01-2.98282E-04-7.91122E-01 4.96906E-14-2.25948E-14
 -1      9036-1.12937E-01 8.17028E+01-3.39645E-04-8.62124E-01-1.17451E-13 5.66075E-14
 -1      9037-6.63463E-02 8.18047E+01-3.15423E-04-8.03573E-01-1.09205E-14 4.21538E-14
 -1      9038-2.27584E-01 8.18206E+01-3.48473E-04-8.54273E-01 4.85567E-14 8.60076E-15
 -1      9039-1.64202E-01 8.19134E+01-3.35372E-04-7.98379E-01-4.25224E-14 6.81920E-14
 -1      9040-3.56578E-01 8.19528E+01-3.43904E-04-8.25019E-01 5.74856E-14 1.73410E-13
 -1      9041-2.74865E-01 8.20338E+01-3.56937E-04-7.72817E-01-1.13696E-13 6.07743E-14
 -1      9042-4.99499E-01 8.21001E+01-3.20316E-04-7.71221E-01-1.07504E-13 4.13905E-15
 -1      9043-3.98152E-01 8.21663E+01-3.78001E-04-7.23972E-01-2.44490E-14 8.82489E-14
 -1      9044-6.55035E-01 8.22630E+01-2.71035E-04-6.89564E-01 1.13846E-13-9.31200E-15
 -1      9045-5.33145E-01 8.23110E+01-3.95272E-04-6.48800E-01-9.91080E-15-1.35794E-14
 -1      9046-8.20680E-01 8.24413E+01-1.88511E-04-5.76661E-01 1.49755E-13 8.70276E-14
 -1      9047-6.77945E-01 8.24675E+01-4.04059E-04-5.44235E-01 4.33838E-14 5.72632E-14
 -1      9048-9.92411E-01 8.26340E+01-6.47642E-05-4.29234E-01-5.32701E-14 1.55882E-13
 -1      9049-8.29393E-01 8.26348E+01-3.98139E-04-4.07357E-01-2.61733E-13-3.84554E-14
 -1      9050-1.16435E+00 8.28389E+01 1.07775E-04-2.44379E-01 7.05130E-14 1.03653E-13
 -1      9051-9.82780E-01 8.28108E+01-3.69808E-04-2.35635E-01 1.98217E-13-1.04250E-13
 -1      9052-1.32844E+00 8.30527E+01 3.34913E-04-1.99533E-02-5.32786E-14 2.70617E-15
 -1      9053-1.13157E+00 8.29924E+01-3.10255E-04-2.72579E-02-1.11194E-13-6.56419E-15
 -1      9054-1.47424E+00 8.32697E+01 6.18680E-04 2.44899E-01 5.49023E-14 4.42008E-14
 -1      9055-1.26721E+00 8.31751E+01-2.10404E-04 2.18409E-01-8.00189E-14-3.24185E-14
 -1      9056-1.58884E+00 8.34827E+01 9.54644E-04 5.49054E-01 2.57238E-13-9.09689E-15
 -1      9057-1.37903E+00 8.33526E+01-6.24015E-05 5.00255E-01 1.76543E-14-2.45359E-14
 -1      9058-1.65712E+00 8.36821E+01 1.32867E-03 8.88567E-01-9.13054E-14-1.38778E-14
 -1      9059-1.45442E+00 8.35170E+01 1.38179E-04 8.14739E-01 3.44030E-14-1.82909E-14
 -1      9060-1.66245E+00 8.38561E+01 1.71354E-03 1.25573E+00-1.15382E-13 1.75098E-13
 -1      9061-1.47932E+00 8.36588E+01 3.89407E-04 1.15513E+00-3.31280E-14-7.06622E-14
 -1      9062-1.58788E+00 8.39917E+01 2.06657E-03 1.63810E+00-3.87242E-14 5.05585E-15
 -1      9063-1.43915E+00 8.37672E+01 6.79883E-04 1.51074E+00-9.03774E-14 5.16948E-14
 -1      9064-1.41811E+00 8.40753E+01 2.32836E-03 2.01780E+00-1.48798E-13-3.57661E-14
 -1      9065-1.32029E+00 8.38312E+01 9.85517E-04 1.86635E+00-5.84602E-15 8.68429E-14
 -1      9066-1.14213E+00 8.40948E+01 2.42623E-03 2.37123E+00-3.58151E-14-7.59150E-14
 -1      9067-1.11212E+00 8.38404E+01 1.26901E-03 2.20197E+00 3.54005E-14-2.16632E-14
 -1      9068-8.09517E-01 8.37873E+01 1.47340E-03 2.49327E+00-5.22308E-14 1.87871E-14
 -1      9069 3.36922E-01 8.13565E+01-1.10979E-04-8.54699E-02 1.71448E-15 2.70565E-14
 -1      9070 2.93216E-01 8.14843E+01-3.34401E-04-4.08108E-02 2.47772E-14-1.36106E-14
 -1      9071 3.31454E-01 8.13675E+01-1.14855E-04-1.70155E-01 1.57397E-14 1.15359E-15
 -1      9072 2.90019E-01 8.14922E+01-3.32226E-04-1.22035E-01-1.40862E-14-1.66464E-14
 -1      9073 3.22124E-01 8.13859E+01-1.21298E-04-2.53243E-01 9.95959E-15-4.40759E-14
 -1      9074 2.83506E-01 8.15081E+01-3.27912E-04-2.02056E-01-2.54159E-14-5.49890E-14
 -1      9075 3.08609E-01 8.14117E+01-1.30270E-04-3.33873E-01-2.24422E-14-3.10533E-14
 -1      9076 2.73447E-01 8.15319E+01-3.21529E-04-2.80025E-01 1.72220E-14 2.45082E-14
 -1      9077 2.90460E-01 8.14451E+01-1.41688E-04-4.11104E-01 3.54992E-14 9.26516E-15
 -1      9078 2.59494E-01 8.15637E+01-3.13185E-04-3.55032E-01-1.86541E-14 1.31339E-13
 -1      9079 2.67106E-01 8.14862E+01-1.55403E-04-4.83892E-01-3.36755E-14 1.94358E-14
 -1      9080 2.41191E-01 8.16034E+01-3.03022E-04-4.26072E-01-3.39954E-14 5.13270E-14
 -1      9081 2.37865E-01 8.15351E+01-1.71154E-04-5.51067E-01 2.43386E-14-1.88079E-14
 -1      9082 2.17976E-01 8.16511E+01-2.91214E-04-4.92024E-01 2.70797E-14 2.47354E-14
 -1      9083 2.01955E-01 8.15920E+01-1.88523E-04-6.11303E-01 2.59890E-14 9.71376E-14
 -1      9084 1.89194E-01 8.17068E+01-2.77958E-04-5.51627E-01-1.00447E-14 6.05956E-14
 -1      9085 1.58519E-01 8.16572E+01-2.06869E-04-6.63101E-01-1.18502E-13-4.33681E-16
 -1      9086 1.54112E-01 8.17705E+01-2.63458E-04-6.03454E-01 1.44238E-14 3.21063E-14
 -1      9087 1.06651E-01 8.17310E+01-2.25253E-04-7.04763E-01 3.41938E-14-7.22478E-14
 -1      9088 1.11945E-01 8.18422E+01-2.47900E-04-6.45898E-01 8.73847E-14 2.17760E-14
 -1      9089 4.54491E-02 8.18137E+01-2.42347E-04-7.34381E-01 5.75135E-14 2.76411E-14
 -1      9090 6.18908E-02 8.19220E+01-2.31410E-04-6.77150E-01 3.33433E-14 3.29216E-14
 -1      9091-2.59252E-02 8.19055E+01-2.56335E-04-7.49827E-01 1.29690E-14-4.90892E-14
 -1      9092 3.18170E-03 8.20097E+01-2.13995E-04-6.95199E-01-4.00912E-14 7.85795E-14
 -1      9093-1.08161E-01 8.20067E+01-2.64808E-04-7.48749E-01 8.38682E-14-1.82562E-14
 -1      9094-6.48471E-02 8.21054E+01-1.95465E-04-6.97825E-01 5.64579E-14 1.71273E-13
 -1      9095-2.01684E-01 8.21175E+01-2.64674E-04-7.28593E-01-4.29758E-14-7.07767E-15
 -1      9096-1.42666E-01 8.22089E+01-1.75333E-04-6.82625E-01 1.72351E-13 1.31818E-13
 -1      9097-3.06516E-01 8.22380E+01-2.52087E-04-6.86632E-01-2.78064E-14-2.96638E-15
 -1      9098-2.30437E-01 8.23197E+01-1.52695E-04-6.47040E-01-4.82327E-14 4.02560E-14
 -1      9099-4.22101E-01 8.23678E+01-2.22446E-04-6.20034E-01-3.04646E-14 1.14977E-13
 -1      9100-3.27865E-01 8.24374E+01-1.26104E-04-5.88419E-01-1.75868E-13-3.29597E-15
 -1      9101-5.47091E-01 8.25065E+01-1.70495E-04-5.25958E-01-1.99320E-15-6.17145E-14
 -1      9102-4.34031E-01 8.25610E+01-9.34553E-05-5.04120E-01-1.73161E-14 3.35114E-14
 -1      9103-6.79123E-01 8.26528E+01-9.05772E-05-4.01711E-01 7.76406E-14 5.04527E-14
 -1      9104-5.47194E-01 8.26892E+01-5.19171E-05-3.91642E-01 1.23958E-13-1.29258E-13
 -1      9105-8.14560E-01 8.28049E+01 2.28586E-05-2.44957E-01-4.46056E-14-2.39263E-13
 -1      9106-6.64578E-01 8.28202E+01 2.04361E-06-2.48827E-01 6.59195E-14 5.25760E-14
 -1      9107-9.48256E-01 8.29599E+01 1.74451E-04-5.40132E-02-1.39939E-13 8.06993E-14
 -1      9108-7.82168E-01 8.29512E+01 7.24699E-05-7.41153E-02-1.11091E-13 3.96350E-14
 -1      9109-1.07336E+00 8.31140E+01 3.66726E-04 1.71768E-01 4.09575E-14-3.45210E-14
 -1      9110-8.94526E-01 8.30787E+01 1.63475E-04 1.33115E-01 4.64031E-14 1.34347E-13
 -1      9111-1.18121E+00 8.32619E+01 5.98486E-04 4.31519E-01-3.19497E-14 7.37795E-14
 -1      9112-9.94693E-01 8.31982E+01 2.78470E-04 3.72141E-01-5.97638E-14 7.94503E-15
 -1      9113-1.26142E+00 8.33968E+01 8.62837E-04 7.22283E-01-8.09634E-14 2.28983E-16
 -1      9114-1.07420E+00 8.33040E+01 4.18998E-04 6.40410E-01-2.28356E-13 1.61508E-13
 -1      9115-1.30218E+00 8.35109E+01 1.14509E-03 1.03838E+00 4.48053E-14-1.23207E-13
 -1      9116-1.12331E+00 8.33895E+01 5.83202E-04 9.33013E-01 1.45641E-13 1.96074E-13
 -1      9117-1.29096E+00 8.35951E+01 1.42090E-03 1.37079E+00-8.88629E-14-9.10209E-14
 -1      9118-1.13145E+00 8.34473E+01 7.64027E-04 1.24217E+00-9.13419E-14 1.29929E-13
 -1      9119-1.21559E+00 8.36400E+01 1.65563E-03 1.70660E+00-1.08326E-13 9.34304E-14
 -1      9120-1.08810E+00 8.34697E+01 9.47636E-04 1.55678E+00-5.12203E-14 1.20338E-14
 -1      9121-1.06582E+00 8.36367E+01 1.80475E-03 2.02879E+00 2.65760E-13 6.45872E-14
 -1      9122-9.83922E-01 8.34494E+01 1.11231E-03 1.86225E+00 9.46144E-14 6.44896E-14
 -1      9123-8.35275E-01 8.35781E+01 1.81759E-03 2.31645E+00-3.09907E-13 5.49855E-14
 -1      9124-8.12324E-01 8.33806E+01 1.22879E-03 2.14060E+00 1.38552E-13 9.31720E-15
 -1      9125-5.71186E-01 8.32602E+01 1.26091E-03 2.37118E+00 1.20795E-13-1.17018E-13
 -1      9126 2.52265E-01 8.16133E+01-1.02022E-04-7.71788E-02 4.03387E-14-5.76969E-15
 -1      9127 2.12411E-01 8.17333E+01-4.14986E-04-3.63418E-02-1.34231E-14 3.40578E-14
 -1      9128 2.48043E-01 8.16262E+01-1.04712E-04-1.53571E-01 2.46661E-14 1.34729E-13
 -1      9129 2.10041E-01 8.17425E+01-4.10916E-04-1.08640E-01 2.34703E-14 1.83811E-14
 -1      9130 2.40834E-01 8.16475E+01-1.09170E-04-2.28363E-01-2.22296E-14 2.74485E-14
 -1      9131 2.05211E-01 8.17609E+01-4.02744E-04-1.79771E-01 5.45190E-14 8.70172E-14
 -1      9132 2.30384E-01 8.16773E+01-1.15345E-04-3.00689E-01-5.77823E-14 3.39173E-14
 -1      9133 1.97745E-01 8.17884E+01-3.90410E-04-2.48910E-01-2.88654E-14-2.34292E-14
 -1      9134 2.16339E-01 8.17154E+01-1.23143E-04-3.69605E-01 5.88037E-14 3.65801E-14
 -1      9135 1.87378E-01 8.18248E+01-3.73828E-04-3.15172E-01 7.02129E-14-1.37782E-13
 -1      9136 1.98250E-01 8.17619E+01-1.32407E-04-4.34063E-01-3.04800E-14-3.17055E-14
 -1      9137 1.73762E-01 8.18699E+01-3.52887E-04-3.77577E-01-2.58240E-14 2.84009E-14
 -1      9138 1.75579E-01 8.18164E+01-1.42883E-04-4.92887E-01 9.26492E-14-6.12548E-14
 -1      9139 1.56471E-01 8.19236E+01-3.27463E-04-4.35035E-01 5.91372E-14-7.72993E-15
 -1      9140 1.47718E-01 8.18790E+01-1.54178E-04-5.44750E-01 3.39065E-14-3.43770E-14
 -1      9141 1.35007E-01 8.19854E+01-2.97416E-04-4.86315E-01-1.19392E-14-3.21826E-14
 -1      9142 1.13997E-01 8.19492E+01-1.65715E-04-5.88156E-01-8.06143E-14 1.69968E-14
 -1      9143 1.08817E-01 8.20549E+01-2.62600E-04-5.30031E-01 5.75382E-14-2.84425E-14
 -1      9144 7.37185E-02 8.20271E+01-1.76667E-04-6.21421E-01 2.84659E-14-5.25708E-14
 -1      9145 7.73096E-02 8.21318E+01-2.22853E-04-5.64622E-01 1.04751E-14-8.66703E-14
 -1      9146 2.61960E-02 8.21121E+01-1.85895E-04-6.42668E-01 1.06469E-15 2.03448E-14
 -1      9147 3.98865E-02 8.22154E+01-1.78002E-04-5.88348E-01-6.02504E-14 2.47372E-15
 -1      9148-2.91959E-02 8.22040E+01-1.91872E-04-6.49827E-01-8.71547E-14-6.70748E-14
 -1      9149-4.01735E-03 8.23051E+01-1.27845E-04-5.99282E-01 5.22716E-15-1.22461E-13
 -1      9150-9.29477E-02 8.23021E+01-1.92617E-04-6.40646E-01-3.29131E-14 5.85192E-14
 -1      9151-5.48791E-02 8.24000E+01-7.21373E-05-5.95328E-01-7.01540E-14-1.03362E-13
 -1      9152-1.65323E-01 8.24060E+01-1.85639E-04-6.12727E-01 1.46033E-14-5.12299E-14
 -1      9153-1.13016E-01 8.24991E+01-1.05668E-05-5.74243E-01 1.17216E-13-1.05541E-13
 -1      9154-2.46245E-01 8.25146E+01-1.67917E-04-5.63578E-01-5.56462E-14 4.51167E-14
 -1      9155-1.78493E-01 8.26013E+01 5.72698E-05-5.33691E-01-2.47640E-14-3.87468E-14
 -1      9156-3.35152E-01 8.26268E+01-1.35942E-04-4.90701E-01 9.02527E-14 4.48079E-14
 -1      9157-2.51015E-01 8.27051E+01 1.31884E-04-4.71321E-01-3.25996E-14-6.83863E-14
 -1      9158-4.30842E-01 8.27412E+01-8.58492E-05-3.91716E-01 1.33300E-14-1.21146E-13
 -1      9159-3.29789E-01 8.28086E+01 2.13892E-04-3.84877E-01 2.13856E-13 1.22645E-14
 -1      9160-5.31292E-01 8.28556E+01-1.36946E-05-2.64537E-01-1.80264E-13-6.99961E-14
 -1      9161-4.13388E-01 8.29097E+01 3.03968E-04-2.72355E-01-9.47289E-14-3.23942E-14
 -1      9162-6.33477E-01 8.29676E+01 8.40818E-05-1.07596E-01 2.86297E-14 3.38167E-14
 -1      9163-4.99588E-01 8.30058E+01 4.02718E-04-1.32204E-01-7.73538E-14-3.67067E-15
 -1      9164-7.33207E-01 8.30738E+01 2.09959E-04 7.98593E-02 4.73463E-14-3.55965E-14
 -1      9165-5.85235E-01 8.30935E+01 5.10449E-04 3.64095E-02 7.70830E-14-7.23692E-14
 -1      9166-8.25015E-01 8.31702E+01 3.64379E-04 2.97413E-01 6.70330E-15-6.27241E-14
 -1      9167-6.66127E-01 8.31692E+01 6.26784E-04 2.33297E-01 1.05324E-13-1.88367E-13
 -1      9168-9.02133E-01 8.32519E+01 5.44553E-04 5.43065E-01-1.91771E-14-1.25056E-13
 -1      9169-7.36972E-01 8.32285E+01 7.50088E-04 4.56884E-01-1.38240E-13-2.44110E-14
 -1      9170-9.56611E-01 8.33132E+01 7.43118E-04 8.12775E-01 1.07345E-13-3.59105E-14
 -1      9171-7.91447E-01 8.32664E+01 8.76735E-04 7.03817E-01-9.60412E-14 7.12971E-16
 -1      9172-9.79644E-01 8.33478E+01 9.46881E-04 1.10002E+00 1.16639E-13 9.05612E-14
 -1      9173-8.22412E-01 8.32776E+01 1.00026E-03 9.68579E-01 4.04646E-14-1.03063E-13
 -1      9174-9.62157E-01 8.33494E+01 1.13594E-03 1.39539E+00-1.64009E-14-1.20026E-14
 -1      9175-8.22322E-01 8.32568E+01 1.11053E-03 1.24315E+00 3.19770E-14-5.11405E-14
 -1      9176-8.95685E-01 8.33116E+01 1.28392E-03 1.68639E+00-2.90566E-16-1.14158E-13
 -1      9177-7.83871E-01 8.31989E+01 1.19332E-03 1.51682E+00-1.95608E-13-1.06972E-14
 -1      9178-7.73554E-01 8.32294E+01 1.35896E-03 1.95748E+00 1.66160E-13 6.66672E-14
 -1      9179-7.00879E-01 8.30999E+01 1.23059E-03 1.77617E+00-2.09049E-13 7.71952E-15
 -1      9180-5.92282E-01 8.31000E+01 1.32695E-03 2.19059E+00 1.42449E-13-9.65408E-14
 -1      9181-5.69376E-01 8.29575E+01 1.20086E-03 2.00548E+00 3.96988E-13-1.49710E-13
 -1      9182-3.88779E-01 8.27722E+01 1.08522E-03 2.18749E+00-3.12999E-14-7.31394E-14
 -1      9183 1.76958E-01 8.18545E+01-9.43261E-05-6.75324E-02 5.72158E-14-4.27037E-14
 -1      9184 1.41657E-01 8.19647E+01-5.04527E-04-3.11488E-02 9.39821E-14-1.64355E-13
 -1      9185 1.73943E-01 8.18694E+01-9.58355E-05-1.34328E-01-1.12926E-14 1.20529E-14
 -1      9186 1.40062E-01 8.19754E+01-4.98602E-04-9.30990E-02 1.99079E-14-6.69499E-14
 -1      9187 1.68793E-01 8.18941E+01-9.83174E-05-1.99623E-01-6.99159E-15 1.02567E-13
 -1      9188 1.36811E-01 8.19967E+01-4.86646E-04-1.53994E-01-6.95073E-14 2.14759E-15
 -1      9189 1.61319E-01 8.19284E+01-1.01714E-04-2.62604E-01-3.33826E-15-1.35697E-13
 -1      9190 1.31778E-01 8.20285E+01-4.68448E-04-2.13090E-01 8.33882E-14 3.11817E-14
 -1      9191 1.51262E-01 8.19721E+01-1.05927E-04-3.22383E-01-9.95731E-15 1.64903E-14
 -1      9192 1.24779E-01 8.20704E+01-4.43705E-04-2.69582E-01-6.34458E-14-7.46972E-15
 -1      9193 1.38290E-01 8.20248E+01-1.10803E-04-3.77971E-01-6.67305E-15-4.12500E-14
 -1      9194 1.15573E-01 8.21220E+01-4.12023E-04-3.22580E-01 7.15161E-14 4.08059E-14
 -1      9195 1.22010E-01 8.20860E+01-1.16108E-04-4.28256E-01-4.96226E-14 3.35235E-14
 -1      9196 1.03859E-01 8.21828E+01-3.72939E-04-3.71087E-01-4.32905E-14 3.13014E-14
 -1      9197 1.01975E-01 8.21553E+01-1.21501E-04-4.71985E-01-9.54731E-14 1.45023E-14
 -1      9198 8.92906E-02 8.22522E+01-3.25935E-04-4.13980E-01 3.71543E-14 5.49248E-14
 -1      9199 7.76968E-02 8.22320E+01-1.26496E-04-5.07745E-01 4.22193E-14 1.81594E-13
 -1      9200 7.14819E-02 8.23293E+01-2.70465E-04-4.49990E-01-3.79046E-14-6.61277E-15
 -1      9201 4.86676E-02 8.23153E+01-1.30421E-04-5.33952E-01-2.45468E-14-7.20517E-14
 -1      9202 5.00211E-02 8.24132E+01-2.05979E-04-4.77690E-01 1.41037E-14 3.17628E-15
 -1      9203 1.43918E-02 8.24042E+01-1.32375E-04-5.48848E-01 2.36352E-14-2.01471E-14
 -1      9204 2.44929E-02 8.25027E+01-1.31964E-04-4.95490E-01 4.30385E-14-1.08490E-14
 -1      9205-2.55749E-02 8.24978E+01-1.31180E-04-5.50506E-01-1.32166E-13-6.52568E-14
 -1      9206-5.49273E-03 8.25966E+01-4.79830E-05-5.01641E-01-1.06678E-13 2.36582E-14
 -1      9207-7.15706E-02 8.25947E+01-1.25340E-04-5.36855E-01-8.77033E-15-4.78957E-14
 -1      9208-4.02606E-02 8.26932E+01 4.62745E-05-4.94247E-01 1.49872E-13 9.78453E-14
 -1      9209-1.23757E-01 8.26933E+01-1.13021E-04-5.05717E-01 3.76812E-14 1.74780E-13
 -1      9210-8.00194E-02 8.27908E+01 1.50930E-04-4.71301E-01 1.96549E-14-2.98025E-14
 -1      9211-1.82035E-01 8.27921E+01-9.20538E-05-4.54877E-01-2.34066E-14-1.89154E-14
 -1      9212-1.24796E-01 8.28872E+01 2.65843E-04-4.30743E-01 7.28749E-14 2.82691E-14
 -1      9213-2.45936E-01 8.28887E+01-5.99982E-05-3.82176E-01-3.21076E-14-1.01443E-13
 -1      9214-1.74358E-01 8.29801E+01 3.90518E-04-3.70537E-01-4.65682E-14-1.86344E-14
 -1      9215-3.14511E-01 8.29810E+01-1.42742E-05-2.85648E-01 1.12406E-13-5.66942E-14
 -1      9216-2.28119E-01 8.30668E+01 5.23992E-04-2.88790E-01 1.04517E-15 9.06566E-15
 -1      9217-3.86199E-01 8.30659E+01 4.75927E-05-1.63696E-01 9.85817E-14 6.39488E-14
 -1      9218-2.85044E-01 8.31442E+01 6.64684E-04-1.83906E-01-1.01107E-13-2.45914E-14
 -1      9219-4.58704E-01 8.31404E+01 1.27593E-04-1.53157E-02-1.35650E-14 1.17677E-13
 -1      9220-3.43539E-01 8.32089E+01 8.10210E-04-5.47801E-02-1.14597E-13-2.28297E-13
 -1      9221-5.28893E-01 8.32006E+01 2.26696E-04 1.59627E-01-1.25524E-13-7.49539E-14
 -1      9222-4.01367E-01 8.32571E+01 9.57151E-04 9.89594E-02 1.98511E-13 3.42365E-14
 -1      9223-5.92728E-01 8.32425E+01 3.44156E-04 3.60085E-01-2.34310E-13-1.97481E-14
 -1      9224-4.55573E-01 8.32848E+01 1.10076E-03 2.76677E-01-1.31042E-13 1.08177E-13
 -1      9225-6.45279E-01 8.32617E+01 4.76694E-04 5.83479E-01-5.97339E-14 3.31176E-13
 -1      9226-5.02477E-01 8.32876E+01 1.23468E-03 4.76422E-01-1.09478E-13 2.59931E-14
 -1      9227-6.80849E-01 8.32533E+01 6.17660E-04 8.25352E-01-1.63638E-13-2.46851E-14
 -1      9228-5.37730E-01 8.32614E+01 1.35058E-03 6.94621E-01 2.53643E-13 1.31442E-13
 -1      9229-6.93245E-01 8.32128E+01 7.56345E-04 1.07906E+00-4.95107E-14-8.11972E-14
 -1      9230-5.56488E-01 8.32018E+01 1.43800E-03 9.25794E-01-4.30819E-14 2.41248E-14
 -1      9231-6.76227E-01 8.31358E+01 8.77672E-04 1.33554E+00-6.90914E-14 1.55900E-14
 -1      9232-5.53716E-01 8.31053E+01 1.48437E-03 1.16235E+00-3.78930E-13 2.92544E-14
 -1      9233-6.24164E-01 8.30189E+01 9.62766E-04 1.58333E+00 2.02164E-13 2.74858E-14
 -1      9234-5.24647E-01 8.29691E+01 1.47533E-03 1.39454E+00 1.34220E-13-1.11816E-14
 -1      9235-5.32862E-01 8.28603E+01 9.89978E-04 1.80872E+00-1.03563E-15 3.76522E-15
 -1      9236-4.65388E-01 8.27920E+01 1.39612E-03 1.61056E+00-1.82580E-13 4.55131E-14
 -1      9237-4.00513E-01 8.26605E+01 9.37254E-04 1.99639E+00 2.12717E-13 1.46810E-13
 -1      9238-3.73642E-01 8.25745E+01 1.23160E-03 1.79705E+00-9.86624E-14 4.38833E-14
 -1      9239-2.49447E-01 8.23202E+01 9.76898E-04 1.93979E+00 7.64389E-14 1.61100E-13
 -1      9240 1.12498E-01 8.20763E+01-8.97726E-05-5.63214E-02 3.23921E-14 3.76123E-14
 -1      9241 8.25813E-02 8.21744E+01-6.03351E-04-2.51072E-02-2.41014E-14-7.61544E-15
 -1      9242 1.10574E-01 8.20936E+01-9.01484E-05-1.12005E-01-3.03557E-14 9.32067E-15
 -1      9243 8.16575E-02 8.21869E+01-5.95680E-04-7.50358E-02-8.36180E-15 4.93876E-14
 -1      9244 1.07283E-01 8.21222E+01-9.07337E-05-1.66390E-01 1.22385E-14-5.83891E-14
 -1      9245 7.97720E-02 8.22117E+01-5.80147E-04-1.24096E-01-2.18697E-14-5.30166E-14
 -1      9246 1.02501E-01 8.21619E+01-9.14615E-05-2.18770E-01 4.50074E-15 8.65228E-14
 -1      9247 7.68494E-02 8.22486E+01-5.56374E-04-1.71673E-01 1.51372E-14 1.72570E-14
 -1      9248 9.60544E-02 8.22122E+01-9.22282E-05-2.68370E-01 5.67693E-14-3.44447E-14
 -1      9249 7.27775E-02 8.22971E+01-5.23809E-04-2.17100E-01 2.08093E-14 3.09874E-14
 -1      9250 8.77244E-02 8.22725E+01-9.28830E-05-3.14323E-01 1.07809E-14 8.83217E-14
 -1      9251 6.74078E-02 8.23567E+01-4.81735E-04-2.59634E-01-6.65058E-14 1.24033E-15
 -1      9252 7.72492E-02 8.23421E+01-9.32137E-05-3.55655E-01-4.67252E-14-8.72392E-14
 -1      9253 6.05584E-02 8.24264E+01-4.29297E-04-2.98443E-01 1.05612E-13 1.25715E-14
 -1      9254 6.43311E-02 8.24201E+01-9.29296E-05-3.91260E-01-8.06755E-14-4.30558E-14
 -1      9255 5.20171E-02 8.25055E+01-3.65533E-04-3.32580E-01-1.02383E-14 1.22128E-13
 -1      9256 4.86459E-02 8.25054E+01-9.16406E-05-4.19894E-01 7.36911E-14-9.36057E-15
 -1      9257 4.15471E-02 8.25927E+01-2.89415E-04-3.60976E-01 4.06966E-14 7.58144E-14
 -1      9258 2.98571E-02 8.25967E+01-8.88338E-05-4.40159E-01-1.93430E-14-4.79027E-14
 -1      9259 2.88961E-02 8.26866E+01-1.99913E-04-3.82423E-01-1.33574E-16 1.02970E-13
 -1      9260 7.63614E-03 8.26925E+01-8.38497E-05-4.50503E-01-1.64114E-14 3.47916E-14
 -1      9261 1.38090E-02 8.27854E+01-9.60673E-05-3.95575E-01 2.24733E-14 6.54529E-14
 -1      9262-1.83098E-02 8.27909E+01-7.58594E-05-4.49235E-01-2.10448E-14 2.30024E-14
 -1      9263-3.95423E-03 8.28872E+01 2.29135E-05-3.98949E-01-9.84482E-14 1.08118E-13
 -1      9264-4.82008E-02 8.28900E+01-6.38501E-05-4.34543E-01 1.10265E-13-1.05405E-13
 -1      9265-2.45942E-02 8.29897E+01 1.57527E-04-3.90940E-01 5.70585E-14 1.62335E-14
 -1      9266-8.21374E-02 8.29873E+01-4.66239E-05-4.04537E-01-4.70414E-15-4.90753E-14
 -1      9267-4.82402E-02 8.30903E+01 3.07830E-04-3.69857E-01-5.03356E-14-1.43406E-13
 -1      9268-1.20042E-01 8.30802E+01-2.28219E-05-3.57319E-01 3.99199E-14-1.18388E-13
 -1      9269-7.49102E-02 8.31860E+01 4.73257E-04-3.33973E-01 2.25384E-14-3.06005E-14
 -1      9270-1.61589E-01 8.31656E+01 9.01391E-06-2.91075E-01 4.69681E-14 3.06838E-14
 -1      9271-1.04462E-01 8.32734E+01 6.52413E-04-2.81599E-01-1.46340E-13-3.39589E-14
 -1      9272-2.06130E-01 8.32401E+01 5.03239E-05-2.04203E-01 3.38152E-14 1.02002E-13
 -1      9273-1.36539E-01 8.33488E+01 8.42837E-04-2.11192E-01 1.54783E-13-1.62127E-14
 -1      9274-2.52605E-01 8.33002E+01 1.02342E-04-9.54799E-02 5.78474E-14-7.72646E-14
 -1      9275-1.70505E-01 8.34082E+01 1.04075E-03-1.21491E-01 1.00550E-14 1.10589E-13
 -1      9276-2.99469E-01 8.33418E+01 1.65822E-04 3.57344E-02 1.65603E-13 3.29008E-14
 -1      9277-2.05385E-01 8.34473E+01 1.24080E-03-1.16936E-02-1.18992E-13 1.06963E-13
 -1      9278-3.44627E-01 8.33607E+01 2.40666E-04 1.89255E-01 2.40424E-14 1.41543E-13
 -1      9279-2.39814E-01 8.34616E+01 1.43579E-03 1.18343E-01-9.55828E-14 8.71941E-14
 -1      9280-3.85397E-01 8.33526E+01 3.25474E-04 3.63803E-01-6.90606E-14-7.77781E-14
 -1      9281-2.71991E-01 8.34466E+01 1.61656E-03 2.67867E-01 1.04480E-13 7.22478E-14
 -1      9282-4.18534E-01 8.33133E+01 4.17049E-04 5.56726E-01-7.00794E-14-2.22426E-13
 -1      9283-2.99684E-01 8.33978E+01 1.77182E-03 4.34979E-01-9.21433E-14-2.94903E-15
 -1      9284-4.40324E-01 8.32387E+01 5.09921E-04 7.63731E-01 2.05488E-13 1.15703E-13
 -1      9285-3.20269E-01 8.33112E+01 1.88829E-03 6.16397E-01 1.71253E-13-1.31770E-13
 -1      9286-4.46775E-01 8.31255E+01 5.96051E-04 9.78674E-01-1.89949E-13 2.02217E-14
 -1      9287-3.30842E-01 8.31834E+01 1.95106E-03 8.07253E-01 1.78857E-13-4.44002E-14
 -1      9288-4.33930E-01 8.29711E+01 6.64801E-04 1.19346E+00 6.61745E-14 5.67628E-14
 -1      9289-3.28413E-01 8.30120E+01 1.94432E-03 1.00097E+00 3.46719E-14 3.56052E-15
 -1      9290-3.98298E-01 8.27745E+01 7.03566E-04 1.39810E+00 3.38098E-14 6.44785E-14
 -1      9291-3.10188E-01 8.27961E+01 1.85249E-03 1.18925E+00 1.19904E-14 3.62071E-14
 -1      9292-3.37389E-01 8.25366E+01 6.98625E-04 1.58102E+00-9.81056E-14 6.50374E-14
 -1      9293-2.73933E-01 8.25366E+01 1.66235E-03 1.36231E+00-2.62377E-13-1.08317E-13
 -1      9294-2.50307E-01 8.22607E+01 6.36299E-04 1.72959E+00 4.40122E-13-1.07461E-13
 -1      9295-2.18402E-01 8.22370E+01 1.36283E-03 1.50926E+00 1.84826E-13-2.00413E-14
 -1      9296-1.43755E-01 8.19031E+01 9.60261E-04 1.61879E+00-5.48138E-14 6.32272E-14
 -1      9297 6.06495E-02 8.22742E+01-8.14499E-05-4.32577E-02 2.08507E-14-4.76875E-15
 -1      9298 3.71428E-02 8.23579E+01-6.77052E-04-1.80545E-02-1.22098E-14 5.57419E-14
 -1      9299 5.96219E-02 8.22943E+01-8.06375E-05-8.60226E-02 2.41328E-14-5.86597E-14
 -1      9300 3.67385E-02 8.23725E+01-6.66684E-04-5.39601E-02 7.53609E-14 7.93610E-14
 -1      9301 5.78624E-02 8.23277E+01-7.92342E-05-1.27783E-01-2.48855E-14-4.02976E-14
 -1      9302 3.59123E-02 8.24015E+01-6.45661E-04-8.92472E-02 9.17365E-15 7.86064E-14
 -1      9303 5.53011E-02 8.23739E+01-7.71637E-05-1.67989E-01-2.20665E-14 7.14741E-14
 -1      9304 3.46290E-02 8.24446E+01-6.13416E-04-1.23476E-01-8.04851E-14 1.37737E-14
 -1      9305 5.18409E-02 8.24323E+01-7.43151E-05-2.06034E-01-1.91579E-14-9.21312E-14
 -1      9306 3.28358E-02 8.25012E+01-5.69114E-04-1.56166E-01 6.26608E-14 3.04947E-14
 -1      9307 4.73585E-02 8.25021E+01-7.05388E-05-2.41238E-01 1.70940E-14-3.03368E-14
 -1      9308 3.04632E-02 8.25705E+01-5.11667E-04-1.86781E-01 3.69149E-15-9.41296E-14
 -1      9309 4.17066E-02 8.25824E+01-6.56410E-05-2.72828E-01-1.53540E-14 8.96817E-14
 -1      9310 2.74255E-02 8.26517E+01-4.39772E-04-2.14710E-01 5.43020E-14-4.69624E-14
 -1      9311 3.47174E-02 8.26718E+01-5.93780E-05-2.99928E-01 3.65454E-14-4.98022E-14
 -1      9312 2.36222E-02 8.27433E+01-3.51955E-04-2.39260E-01 2.06701E-14 1.44161E-13
 -1      9313 2.62075E-02 8.27689E+01-5.14492E-05-3.21541E-01-6.58258E-14 1.42959E-13
 -1      9314 1.89411E-02 8.28439E+01-2.46631E-04-2.59639E-01-1.33005E-13-3.41012E-14
 -1      9315 1.59861E-02 8.28720E+01-4.14915E-05-3.36548E-01-1.30399E-14-1.14599E-13
 -1      9316 1.32617E-02 8.29517E+01-1.22204E-04-2.74949E-01 1.58108E-13-5.34416E-14
 -1      9317 3.86630E-03 8.29788E+01-2.90746E-05-3.43703E-01-2.81147E-14-1.65475E-14
 -1      9318 6.46113E-03 8.30644E+01 2.28162E-05-2.84184E-01-8.46571E-14 1.91670E-14
 -1      9319-1.03194E-02 8.30869E+01-1.37009E-05-3.41644E-01 3.76435E-15 8.73190E-14
 -1      9320-1.57731E-03 8.31795E+01 1.89649E-04-2.86228E-01-8.20498E-14-4.63726E-14
 -1      9321-2.66982E-02 8.31935E+01 5.18839E-06-3.28911E-01 5.31667E-14 7.43884E-14
 -1      9322-1.09531E-02 8.32938E+01 3.79037E-04-2.79874E-01 6.98608E-14 8.48314E-14
 -1      9323-4.53300E-02 8.32952E+01 2.81947E-05-3.03988E-01 5.17555E-15-5.09731E-14
 -1      9324-2.17334E-02 8.34039E+01 5.90990E-04-2.63843E-01 2.05478E-14 1.02203E-13
 -1      9325-6.61748E-02 8.33885E+01 5.59272E-05-2.65352E-01-2.49020E-14 6.52291E-14
 -1      9326-3.39343E-02 8.35060E+01 8.24476E-04-2.36829E-01 2.46383E-14 5.50879E-14
 -1      9327-8.90533E-02 8.34693E+01 8.89435E-05-2.11562E-01 6.60483E-14-8.39849E-14
 -1      9328-4.74977E-02 8.35956E+01 1.07706E-03-1.97553E-01-1.63094E-14 1.52635E-13
 -1      9329-1.13603E-01 8.35331E+01 1.27658E-04-1.41360E-01 1.25016E-13 1.40443E-14
 -1      9330-6.22645E-02 8.36678E+01 1.34453E-03-1.44847E-01-2.24118E-14 9.47228E-14
 -1      9331-1.39230E-01 8.35753E+01 1.72211E-04-5.38159E-02-5.71717E-14 1.98834E-14
 -1      9332-7.79456E-02 8.37176E+01 1.62045E-03-7.77651E-02 2.34025E-13-9.19820E-14
 -1      9333-1.65070E-01 8.35910E+01 2.22298E-04 5.15071E-02 3.84586E-14 3.02675E-14
 -1      9334-9.40918E-02 8.37395E+01 1.89580E-03 4.28827E-03-7.29703E-14 4.99947E-14
 -1      9335-1.89945E-01 8.35751E+01 2.76947E-04 1.74354E-01-8.78282E-14 2.72074E-14
 -1      9336-1.10068E-01 8.37279E+01 2.15870E-03 1.01396E-01-1.95986E-13 5.55112E-14
 -1      9337-2.12356E-01 8.35229E+01 3.34286E-04 3.13563E-01-6.49333E-14 1.82354E-14
 -1      9338-1.25037E-01 8.36774E+01 2.39418E-03 2.12952E-01-6.89015E-14 6.97532E-14
 -1      9339-2.30490E-01 8.34298E+01 3.91293E-04 4.66848E-01 1.98140E-14-1.62856E-14
 -1      9340-1.37952E-01 8.35831E+01 2.58434E-03 3.37472E-01 7.70634E-14-2.25514E-14
 -1      9341-2.42279E-01 8.32922E+01 4.43610E-04 6.30602E-01-3.41463E-14 1.14971E-13
 -1      9342-1.47586E-01 8.34404E+01 2.70882E-03 4.72418E-01-1.49630E-13 1.19522E-14
 -1      9343-2.45516E-01 8.31074E+01 4.85493E-04 7.99753E-01-1.39144E-13 2.29001E-14
 -1      9344-1.52579E-01 8.32463E+01 2.74566E-03 6.14056E-01 2.57388E-13 1.75020E-13
 -1      9345-2.38026E-01 8.28742E+01 5.09925E-04 9.67716E-01-1.19339E-13 3.29858E-14
 -1      9346-1.51530E-01 8.29989E+01 2.67293E-03 7.57374E-01-2.43694E-13 1.72813E-14
 -1      9347-2.17914E-01 8.25933E+01 5.09271E-04 1.12649E+00-4.62581E-14 3.04585E-15
 -1      9348-1.43133E-01 8.26987E+01 2.47063E-03 8.96113E-01-4.54567E-14-1.16556E-13
 -1      9349-1.83859E-01 8.22680E+01 4.75540E-04 1.26692E+00 1.76824E-13-9.70318E-15
 -1      9350-1.26350E-01 8.23485E+01 2.12413E-03 1.02293E+00 1.72320E-13 9.95638E-14
 -1      9351-1.35440E-01 8.19041E+01 4.01698E-04 1.37922E+00-2.94625E-14-1.74740E-13
 -1      9352-1.00609E-01 8.19537E+01 1.62336E-03 1.12974E+00 1.55757E-13 1.51896E-13
 -1      9353-6.59851E-02 8.15232E+01 9.86396E-04 1.20822E+00-3.46403E-13-5.48797E-14
 -1      9354 2.34541E-02 8.24434E+01-4.00903E-06-2.79835E-02-2.42232E-15-1.00456E-13
 -1      9355 8.07602E-03 8.25103E+01-8.55610E-05-9.79578E-03-1.51736E-14-1.02756E-14
 -1      9356 2.30640E-02 8.24670E+01 2.44784E-06-5.56558E-02-8.54200E-15-3.20421E-14
 -1      9357 8.01765E-03 8.25274E+01-4.95673E-05-2.92818E-02-1.75704E-14 4.06073E-14
 -1      9358 2.23950E-02 8.25061E+01 1.32892E-05-8.26925E-02-1.57634E-14 1.64565E-13
 -1      9359 7.89721E-03 8.25615E+01 2.28449E-05-4.84466E-02-4.61133E-14 7.72915E-14
 -1      9360 2.14191E-02 8.25602E+01 2.86312E-05-1.08743E-01-1.74149E-14-2.16754E-14
 -1      9361 7.70725E-03 8.26120E+01 1.32504E-04-6.70604E-02 1.73013E-14 1.94471E-14
 -1      9362 2.00975E-02 8.26285E+01 4.86285E-05-1.33419E-01-1.83248E-14 1.00179E-13
 -1      9363 7.43661E-03 8.26785E+01 2.80596E-04-8.48696E-02 3.20265E-14-3.90590E-14
 -1      9364 1.83804E-02 8.27102E+01 7.34659E-05-1.56279E-01 1.64330E-14-7.86957E-14
 -1      9365 7.07037E-03 8.27599E+01 4.68594E-04-1.01589E-01-5.20417E-15-3.43996E-14
 -1      9366 1.62085E-02 8.28039E+01 1.03345E-04-1.76819E-01-6.63870E-14-1.02439E-13
 -1      9367 6.58997E-03 8.28553E+01 6.98152E-04-1.16889E-01-5.59119E-14-4.65513E-14
 -1      9368 1.35138E-02 8.29083E+01 1.38469E-04-1.94464E-01-6.80671E-14 1.29528E-13
 -1      9369 5.97336E-03 8.29630E+01 9.70955E-04-1.30395E-01-8.07462E-14-1.09437E-13
 -1      9370 1.02218E-02 8.30214E+01 1.79017E-04-2.08552E-01 2.56765E-14-1.99450E-13
 -1      9371 5.19538E-03 8.30814E+01 1.28852E-03-1.41670E-01 9.15457E-14-5.56569E-14
 -1      9372 6.25427E-03 8.31410E+01 2.25113E-04-2.18338E-01 9.60516E-15 8.12614E-14
 -1      9373 4.22835E-03 8.32081E+01 1.65193E-03-1.50219E-01-1.55285E-13-8.42208E-15
 -1      9374 1.53417E-03 8.32644E+01 2.76790E-04-2.22985E-01-1.70037E-13 1.36197E-13
 -1      9375 3.04309E-03 8.33407E+01 2.06149E-03-1.55477E-01-3.27394E-14-4.39839E-14
 -1      9376-4.00850E-03 8.33885E+01 3.33936E-04-2.21575E-01 1.30271E-13-8.74162E-14
 -1      9377 1.61043E-03 8.34757E+01 2.51632E-03-1.56818E-01 4.97866E-14-5.69891E-14
 -1      9378-1.04283E-02 8.35098E+01 3.96229E-04-2.13116E-01 8.00748E-15 6.33105E-14
 -1      9379-9.66432E-05 8.36096E+01 3.01377E-03-1.53553E-01 5.41407E-15-2.87964E-15
 -1      9380-1.77533E-02 8.36239E+01 4.63067E-04-1.96576E-01-2.64580E-14 1.27072E-13
 -1      9381-2.10011E-03 8.37381E+01 3.54885E-03-1.44950E-01-4.32059E-14 5.01196E-14
 -1      9382-2.59724E-02 8.37263E+01 5.33466E-04-1.70910E-01 9.70838E-15-9.29326E-14
 -1      9383-4.41307E-03 8.38562E+01 4.11348E-03-1.30252E-01 1.94639E-13-4.88845E-15
 -1      9384-3.50185E-02 8.38118E+01 6.05963E-04-1.35125E-01 2.10856E-15 2.21559E-14
 -1      9385-7.03498E-03 8.39584E+01 4.69565E-03-1.08709E-01-4.84907E-14-7.10161E-14
 -1      9386-4.47511E-02 8.38746E+01 6.78497E-04-8.83501E-02-4.78107E-14-1.73851E-13
 -1      9387-9.94596E-03 8.40386E+01 5.27861E-03-7.96275E-02 1.92615E-14-4.54636E-14
 -1      9388-5.49370E-02 8.39089E+01 7.48291E-04-2.99342E-02-8.22767E-14 9.79147E-14
 -1      9389-1.31004E-02 8.40903E+01 5.84007E-03-4.24318E-02-1.05633E-13 1.02057E-13
 -1      9390-6.52322E-02 8.39083E+01 8.11741E-04 4.04377E-02 1.36757E-13-1.02349E-14
 -1      9391-1.64202E-02 8.41065E+01 6.35149E-03 3.25994E-03 4.64303E-14-2.78597E-14
 -1      9392-7.51673E-02 8.38668E+01 8.64337E-04 1.22607E-01-8.03307E-14 8.00610E-14
 -1      9393-1.97887E-02 8.40800E+01 6.77777E-03 5.75420E-02 4.94691E-14-8.59209E-14
 -1      9394-8.41407E-02 8.37783E+01 9.00633E-04 2.15795E-01-6.27441E-14 2.11324E-14
 -1      9395-2.30454E-02 8.40042E+01 7.07733E-03 1.20116E-01 9.27496E-14 4.16681E-14
 -1      9396-9.14239E-02 8.36376E+01 9.14316E-04 3.18450E-01 1.75963E-13-1.49949E-14
 -1      9397-2.59849E-02 8.38723E+01 7.20297E-03 1.90181E-01 1.02572E-13 9.14338E-14
 -1      9398-9.61845E-02 8.34405E+01 8.98398E-04 4.28118E-01-1.67717E-13 1.18308E-14
 -1      9399-2.83593E-02 8.36792E+01 7.10370E-03 2.66325E-01 5.14293E-14 6.36123E-14
 -1      9400-9.75323E-02 8.31843E+01 8.45605E-04 5.41345E-01 3.39728E-14 1.04359E-13
 -1      9401-2.98883E-02 8.34207E+01 6.72769E-03 3.46443E-01-4.71494E-13-9.37722E-14
 -1      9402-9.45908E-02 8.28686E+01 7.48911E-04 6.53654E-01 2.82378E-13-1.90748E-13
 -1      9403-3.02767E-02 8.30950E+01 6.02665E-03 4.27685E-01 3.75221E-13 2.49176E-14
 -1      9404-8.65962E-02 8.24952E+01 6.02557E-04 7.59615E-01 4.65981E-14-3.66283E-14
 -1      9405-2.92418E-02 8.27030E+01 4.96126E-03 5.06470E-01 1.98969E-13 3.76556E-14
 -1      9406-7.30168E-02 8.20692E+01 4.02517E-04 8.53040E-01-1.00343E-13 1.54583E-13
 -1      9407-2.65488E-02 8.22486E+01 3.50850E-03 5.78583E-01-1.55910E-13 1.37908E-13
 -1      9408-5.36861E-02 8.15989E+01 1.46643E-04 9.27334E-01 2.89012E-13 3.61482E-14
 -1      9409-2.20539E-02 8.17394E+01 1.66466E-03 6.39369E-01 1.39760E-13 7.96151E-14
 -1      9410-1.57417E-02 8.11870E+01-5.26429E-04 6.84037E-01 9.77968E-14-3.27759E-14
 -1      9411 3.19671E-03 8.25789E+01 1.76257E-03-1.00743E-02-2.93413E-14-4.33030E-14
 -1      9412 3.11006E-03 8.26067E+01 1.85320E-03-2.00425E-02-2.58422E-14 1.01552E-13
 -1      9413 2.96254E-03 8.26526E+01 2.00439E-03-2.97936E-02 3.24827E-16-4.96114E-14
 -1      9414 2.74955E-03 8.27161E+01 2.21627E-03-3.92067E-02 4.19109E-15-5.31337E-14
 -1      9415 2.46469E-03 8.27965E+01 2.48887E-03-4.81465E-02-1.82701E-14 4.03982E-14
 -1      9416 2.09988E-03 8.28927E+01 2.82197E-03-5.64577E-02-9.86277E-15 1.95252E-14
 -1      9417 1.64553E-03 8.30034E+01 3.21484E-03-6.39612E-02-2.69507E-14 1.47451E-14
 -1      9418 1.09081E-03 8.31268E+01 3.66602E-03-7.04495E-02 4.81620E-14-7.20266E-14
 -1      9419 4.24019E-04 8.32609E+01 4.17293E-03-7.56831E-02 6.17431E-14 1.78446E-13
 -1      9420-3.66774E-04 8.34030E+01 4.73141E-03-7.93881E-02-5.19550E-14-1.54658E-13
 -1      9421-1.29290E-03 8.35501E+01 5.33529E-03-8.12551E-02-1.02977E-13-2.92995E-14
 -1      9422-2.36393E-03 8.36983E+01 5.97570E-03-8.09403E-02-6.24899E-14-1.82528E-14
 -1      9423-3.58611E-03 8.38434E+01 6.64047E-03-7.80700E-02-3.72636E-14 4.01103E-14
 -1      9424-4.96043E-03 8.39803E+01 7.31337E-03-7.22489E-02 1.46147E-13 1.24102E-14
 -1      9425-6.48016E-03 8.41032E+01 7.97342E-03-6.30743E-02-1.58640E-15 1.34972E-13
 -1      9426-8.12802E-03 8.42056E+01 8.59411E-03-5.01557E-02 1.02607E-13 5.68920E-14
 -1      9427-9.87294E-03 8.42805E+01 9.14292E-03-3.31433E-02-3.65593E-15 9.74776E-14
 -1      9428-1.16668E-02 8.43201E+01 9.58096E-03-1.17644E-02-2.85823E-14-2.01623E-13
 -1      9429-1.34410E-02 8.43166E+01 9.86304E-03 1.41321E-02 2.39437E-13 1.39576E-14
 -1      9430-1.51047E-02 8.42618E+01 9.93834E-03 4.45218E-02-2.74114E-13-2.06661E-13
 -1      9431-1.65431E-02 8.41479E+01 9.75185E-03 7.91475E-02 2.57246E-13 1.16331E-13
 -1      9432-1.76193E-02 8.39679E+01 9.24679E-03 1.17459E-01 1.78788E-13 1.31561E-14
 -1      9433-1.81787E-02 8.37162E+01 8.36813E-03 1.58557E-01-1.07310E-14 1.58762E-14
 -1      9434-1.80580E-02 8.33890E+01 7.06733E-03 2.01158E-01-1.82777E-13-1.47642E-13
 -1      9435-1.70987E-02 8.29854E+01 5.30817E-03 2.43576E-01 1.92891E-13 4.12673E-14
 -1      9436-1.51652E-02 8.25077E+01 3.07355E-03 2.83748E-01-1.05988E-13 3.19710E-14
 -1      9437-1.21677E-02 8.19623E+01 3.71708E-04 3.19305E-01-5.44634E-14 1.83042E-13
 -1      9438-8.08642E-03 8.13599E+01-2.75765E-03 3.47708E-01 2.49967E-13 5.81540E-14
 -1      9439-2.85768E-03 8.02799E+01-4.59606E-03 7.21189E-01 8.83581E-14 3.07063E-14
 -1      9440 2.87692E-03 8.08117E+01-1.23718E-04 1.26650E+00 1.75179E-13 4.23116E-14
 -1      9441 5.08072E-03 8.13391E+01 7.52305E-04 1.70081E+00-7.36876E-14-9.19230E-14
 -1      9442 1.86953E-04 8.18701E+01 1.68899E-03 2.05421E+00-1.37142E-13-2.77001E-14
 -1      9443-2.05034E-02 8.24140E+01 2.91083E-03 2.34804E+00 1.11611E-13 1.66972E-13
 -1      9444-6.86213E-02 8.29822E+01 4.49078E-03 2.59662E+00-2.25382E-13-1.11538E-13
 -1      9445-1.59200E-01 8.35879E+01 6.53109E-03 2.80793E+00 4.95697E-15-2.56808E-14
 -1      9446-3.11663E-01 8.42463E+01 9.16395E-03 2.98334E+00 9.90770E-14 6.62630E-14
 -1      9447-5.51130E-01 8.49736E+01 1.25350E-02 3.11623E+00-1.06208E-13-1.45561E-14
 -1      9448-9.09893E-01 8.57855E+01 1.67624E-02 3.18923E+00-1.10367E-13 8.48393E-14
 -1      9449-1.42871E+00 8.66941E+01 2.18369E-02 3.16961E+00-1.44152E-13-9.06393E-14
 -1      9450-2.15703E+00 8.77011E+01 2.74346E-02 3.00218E+00 2.24071E-13 3.07033E-14
 -1      9451-3.15041E+00 8.87834E+01 3.24808E-02 2.59954E+00 2.74371E-13-8.72838E-14
 -1      9452-4.46136E+00 8.98672E+01 3.45282E-02 1.83057E+00 1.67713E-14 1.64278E-15
 -1      9453-6.11535E+00 9.07851E+01 2.95217E-02 5.11833E-01 1.96329E-13 1.16216E-13
 -1      9454 5.78480E-03 7.96615E+01-8.93993E-03 7.04762E-01-1.23805E-13-6.74096E-14
 -1      9455 5.48306E-02 8.03232E+01-2.32216E-03 1.23815E+00 2.57858E-14-1.16974E-13
 -1      9456 1.19038E-01 8.09428E+01-1.06506E-03 1.66727E+00-1.98797E-13-1.55622E-14
 -1      9457 1.93108E-01 8.15392E+01-1.53443E-05 2.02409E+00-1.17515E-14 7.41959E-14
 -1      9458 2.67472E-01 8.21291E+01 1.18243E-03 2.33194E+00-1.82234E-13 2.96672E-14
 -1      9459 3.30807E-01 8.27304E+01 2.65659E-03 2.60786E+00-2.20460E-13 6.31769E-14
 -1      9460 3.69175E-01 8.33623E+01 4.56503E-03 2.86357E+00-7.62012E-14-4.38052E-14
 -1      9461 3.64526E-01 8.40462E+01 7.12235E-03 3.10572E+00-7.17777E-14 1.14984E-13
 -1      9462 2.92639E-01 8.48069E+01 1.06106E-02 3.33495E+00-1.25521E-13-6.29687E-14
 -1      9463 1.20392E-01 8.56723E+01 1.53826E-02 3.54346E+00 1.89893E-13 2.87791E-15
 -1      9464-1.97720E-01 8.66731E+01 2.18241E-02 3.71041E+00-6.91114E-15-7.41022E-14
 -1      9465-7.23548E-01 8.78393E+01 3.02532E-02 3.79376E+00-2.22190E-13-4.43100E-14
 -1      9466-1.53893E+00 8.91908E+01 4.04678E-02 3.71689E+00-3.56520E-14 1.02356E-13
 -1      9467-2.74522E+00 9.07149E+01 5.14222E-02 3.34829E+00 2.09832E-14-1.28927E-13
 -1      9468-4.45512E+00 9.23154E+01 5.71202E-02 2.47273E+00 4.93564E-14 1.15937E-13
 -1      9469 1.47724E-02 7.90705E+01-1.32865E-02 6.57313E-01 6.25801E-14-1.68927E-13
 -1      9470 1.08121E-01 7.98537E+01-4.58814E-03 1.15600E+00-4.51028E-14 7.59184E-14
 -1      9471 2.36015E-01 8.05565E+01-3.00982E-03 1.56090E+00 4.37679E-14-6.95329E-14
 -1      9472 3.91923E-01 8.12081E+01-1.94986E-03 1.90348E+00-1.07274E-13-9.87058E-16
 -1      9473 5.66389E-01 8.18324E+01-9.32671E-04 2.20740E+00 1.00791E-13 1.16429E-13
 -1      9474 7.49877E-01 8.24524E+01 2.03229E-04 2.49101E+00-2.22992E-13-5.96970E-14
 -1      9475 9.31739E-01 8.30915E+01 1.63559E-03 2.76882E+00 3.43501E-14 4.78853E-14
 -1      9476 1.09855E+00 8.37758E+01 3.60846E-03 3.05223E+00-4.15709E-14 1.12578E-13
 -1      9477 1.23181E+00 8.45354E+01 6.46765E-03 3.34934E+00 3.95153E-14-4.77604E-14
 -1      9478 1.30466E+00 8.54069E+01 1.07107E-02 3.66355E+00-1.92471E-13 1.69309E-15
 -1      9479 1.27711E+00 8.64356E+01 1.70360E-02 3.99024E+00 4.24358E-13-5.49595E-14
 -1      9480 1.08931E+00 8.76770E+01 2.63998E-02 4.30981E+00 1.48936E-13-6.35568E-14
 -1      9481 6.51884E-01 8.91948E+01 3.97398E-02 4.57443E+00 7.58768E-14 8.16430E-14
 -1      9482-1.63907E-01 9.10512E+01 5.84920E-02 4.68377E+00 2.23432E-14 2.18540E-14
 -1      9483-1.54416E+00 9.32661E+01 7.73911E-02 4.44158E+00-1.70072E-13 3.07601E-14
 -1      9484 2.33232E-02 7.85331E+01-1.73298E-02 5.79256E-01-1.59719E-13-2.48204E-13
 -1      9485 1.58439E-01 7.94242E+01-6.74165E-03 1.02079E+00 3.41793E-13-5.63091E-14
 -1      9486 3.46556E-01 8.01989E+01-4.91543E-03 1.38227E+00-1.22283E-13-3.42018E-14
 -1      9487 5.80453E-01 8.08957E+01-3.93096E-03 1.69209E+00 1.37119E-13 1.52989E-13
 -1      9488 8.51579E-01 8.15445E+01-3.21403E-03 1.97206E+00 8.16764E-14-1.99930E-13
 -1      9489 1.15330E+00 8.21720E+01-2.59663E-03 2.23998E+00-8.18772E-14 3.22242E-14
 -1      9490 1.47994E+00 8.28044E+01-1.92377E-03 2.51131E+00 1.09994E-13-1.26593E-13
 -1      9491 1.82533E+00 8.34694E+01-9.91103E-04 2.80029E+00 4.89261E-14 1.36641E-13
 -1      9492 2.18094E+00 8.41995E+01 4.99830E-04 3.12054E+00-4.66831E-14 1.36176E-14
 -1      9493 2.53307E+00 8.50349E+01 3.01597E-03 3.48503E+00 1.31260E-13-2.17604E-14
 -1      9494 2.85853E+00 8.60282E+01 7.30493E-03 3.90479E+00-1.90455E-13-5.36515E-14
 -1      9495 3.11758E+00 8.72509E+01 1.45878E-02 4.38518E+00-1.40516E-13-6.15098E-14
 -1      9496 3.24217E+00 8.87994E+01 2.66076E-02 4.91692E+00 1.95975E-13 7.06830E-14
 -1      9497 3.11961E+00 9.08027E+01 4.68761E-02 5.45616E+00 2.62984E-15-7.86246E-14
 -1      9498 2.55257E+00 9.34094E+01 7.28092E-02 5.88082E+00-8.16430E-14 2.81788E-14
 -1      9499 3.06276E-02 7.80741E+01-2.07503E-02 4.73635E-01-9.86659E-14-7.59497E-14
 -1      9500 2.01262E-01 7.90549E+01-8.58720E-03 8.37793E-01 1.99970E-14 3.23699E-14
 -1      9501 4.40720E-01 7.98885E+01-6.58771E-03 1.13827E+00 3.82021E-14-1.03372E-13
 -1      9502 7.41534E-01 8.06213E+01-5.72713E-03 1.39775E+00 5.39319E-14 1.10276E-13
 -1      9503 1.09648E+00 8.12877E+01-5.35858E-03 1.63398E+00-6.69529E-14 1.12001E-13
 -1      9504 1.50227E+00 8.19168E+01-5.32916E-03 1.86207E+00 1.95456E-13 1.06477E-14
 -1      9505 1.95880E+00 8.25358E+01-5.53972E-03 2.09596E+00 1.54564E-13-1.91794E-13
 -1      9506 2.46830E+00 8.31724E+01-5.88293E-03 2.34972E+00 7.29798E-15 7.21471E-14
 -1      9507 3.03434E+00 8.38582E+01-6.21001E-03 2.63864E+00-8.25572E-14-5.44148E-14
 -1      9508 3.66050E+00 8.46323E+01-6.27050E-03 2.98018E+00 1.41640E-14 5.92443E-14
 -1      9509 4.34810E+00 8.55474E+01-5.60286E-03 3.39463E+00-9.03132E-14 1.35933E-14
 -1      9510 5.09210E+00 8.66780E+01-3.33137E-03 3.90482E+00-3.84449E-14 4.92800E-14
 -1      9511 5.87294E+00 8.81346E+01 2.12207E-03 4.53334E+00 8.37941E-14-2.09506E-13
 -1      9512 6.64313E+00 9.00843E+01 1.44687E-02 5.29269E+00-3.65957E-14 3.53745E-14
 -1      9513 7.28559E+00 9.27755E+01 3.39067E-02 6.15687E+00-9.87682E-14 1.09635E-14
 -1      9514 3.59354E-02 7.77146E+01-2.32589E-02 3.46086E-01-2.20926E-14-1.39909E-13
 -1      9515 2.32440E-01 7.87628E+01-9.94263E-03 6.16766E-01 6.46419E-14 1.46098E-14
 -1      9516 5.09364E-01 7.96415E+01-7.83766E-03 8.42021E-01-7.82143E-14-8.28365E-14
 -1      9517 8.59276E-01 8.04025E+01-7.10130E-03 1.03658E+00-8.36089E-14 1.31430E-13
 -1      9518 1.27625E+00 8.10830E+01-7.03934E-03 1.21220E+00 3.94967E-14-7.14533E-14
 -1      9519 1.75989E+00 8.17135E+01-7.52265E-03 1.37922E+00-1.51066E-13 1.04278E-13
 -1      9520 2.31499E+00 8.23214E+01-8.51624E-03 1.54757E+00-7.74571E-14-3.80009E-14
 -1      9521 2.95114E+00 8.29332E+01-1.00258E-02 1.72784E+00 2.95460E-13 9.93650E-15
 -1      9522 3.68293E+00 8.35781E+01-1.20892E-02 1.93225E+00-4.53552E-14 6.44242E-14
 -1      9523 4.53027E+00 8.42918E+01-1.47580E-02 2.17583E+00 9.19560E-14-9.30298E-14
 -1      9524 5.51909E+00 8.51220E+01-1.80516E-02 2.47774E+00 2.13288E-13-2.26000E-14
 -1      9525 6.68170E+00 8.61383E+01-2.18703E-02 2.86289E+00 1.68018E-13-2.08167E-15
 -1      9526 8.05627E+00 8.74477E+01-2.57230E-02 3.36309E+00-1.01689E-13-1.21216E-13
 -1      9527 9.68432E+00 8.92247E+01-2.78527E-02 4.01596E+00-2.01159E-13-7.74103E-14
 -1      9528 1.15900E+01 9.17644E+01-2.71233E-02 4.85492E+00 2.85258E-14 2.63081E-13
 -1      9529 3.86692E-02 7.74699E+01-2.46366E-02 2.04444E-01-1.39081E-13-9.15448E-14
 -1      9530 2.48792E-01 7.85608E+01-1.06668E-02 3.71255E-01 2.17491E-15-4.62928E-14
 -1      9531 5.45467E-01 7.94702E+01-8.51445E-03 5.11982E-01-1.76491E-13-1.03043E-15
 -1      9532 9.21428E-01 8.02527E+01-7.85794E-03 6.31913E-01-2.00437E-13 6.53574E-14
 -1      9533 1.37156E+00 8.09469E+01-7.97767E-03 7.35465E-01-9.99338E-14 7.19702E-14
 -1      9534 1.89721E+00 8.15839E+01-8.76157E-03 8.26708E-01-7.17738E-14 1.35419E-13
 -1      9535 2.50598E+00 8.21906E+01-1.02171E-02 9.09738E-01-7.04988E-14-1.36339E-13
 -1      9536 3.21185E+00 8.27927E+01-1.24257E-02 9.89038E-01-2.07970E-13 2.10110E-13
 -1      9537 4.03594E+00 8.34176E+01-1.55539E-02 1.06987E+00 3.09314E-14-8.98795E-14
 -1      9538 5.00818E+00 8.40979E+01-1.98710E-02 1.15875E+00 5.16609E-14-5.21805E-15
 -1      9539 6.16990E+00 8.48772E+01-2.57669E-02 1.26413E+00 1.52960E-13 1.79648E-14
 -1      9540 7.57781E+00 8.58188E+01-3.37892E-02 1.39729E+00-1.98097E-14-7.11722E-14
 -1      9541 9.30945E+00 8.70224E+01-4.45038E-02 1.57341E+00 1.00215E-14-1.80411E-13
 -1      9542 1.14708E+01 8.86560E+01-5.83133E-02 1.81253E+00-4.02959E-14-1.02973E-14
 -1      9543 1.41985E+01 9.10234E+01-7.46112E-02 2.13841E+00 4.74551E-14 5.30825E-14
 -1      9544 3.85147E-02 7.73482E+01-2.47658E-02 5.80145E-02-1.10797E-14 1.34059E-14
 -1      9545 2.48595E-01 7.84554E+01-1.06830E-02 1.17351E-01-7.33881E-14-1.59924E-13
 -1      9546 5.45227E-01 7.93810E+01-8.53452E-03 1.70233E-01 1.36772E-13-1.54543E-13
 -1      9547 9.21330E-01 8.01793E+01-7.88651E-03 2.11992E-01 1.83258E-13 1.26066E-13
 -1      9548 1.37188E+00 8.08887E+01-8.01301E-03 2.39222E-01 6.33194E-14-1.09659E-13
 -1      9549 1.89829E+00 8.15400E+01-8.80183E-03 2.49222E-01 5.89210E-14 6.93300E-14
 -1      9550 2.50821E+00 8.21603E+01-1.02608E-02 2.39553E-01 1.27133E-13-1.33664E-13
 -1      9551 3.21564E+00 8.27750E+01-1.24719E-02 2.07615E-01 1.62308E-13 2.29622E-13
 -1      9552 4.04174E+00 8.34113E+01-1.56027E-02 1.50195E-01-1.27437E-13-1.76803E-14
 -1      9553 5.01645E+00 8.41020E+01-1.99241E-02 6.29246E-02-1.20251E-14-1.32311E-13
 -1      9554 6.18116E+00 8.48906E+01-2.58284E-02-6.04249E-02-1.51830E-13 1.64556E-13
 -1      9555 7.59263E+00 8.58403E+01-3.38677E-02-2.28866E-01 1.38604E-15-1.87357E-13
 -1      9556 9.32856E+00 8.70507E+01-4.46152E-02-4.55316E-01 5.52952E-14-4.82461E-14
 -1      9557 1.14953E+01 8.86900E+01-5.84929E-02-7.57508E-01 1.33392E-13 1.56819E-14
 -1      9558 1.42299E+01 9.10619E+01-7.49068E-02-1.15690E+00-9.97431E-14 1.19904E-14
 -1      9559 3.54724E-02 7.73493E+01-2.36483E-02-8.33820E-02 1.35951E-13-1.53249E-13
 -1      9560 2.31860E-01 7.84469E+01-9.99205E-03-1.27967E-01 4.25007E-16-6.79630E-14
 -1      9561 5.08673E-01 7.93742E+01-7.89873E-03-1.59893E-01-5.79333E-14-6.57564E-14
 -1      9562 8.59040E-01 8.01826E+01-7.18767E-03-1.93230E-01-1.48833E-14 2.48034E-13
 -1      9563 1.27730E+00 8.09086E+01-7.14568E-03-2.38697E-01-1.46753E-13-4.52624E-14
 -1      9564 1.76326E+00 8.15824E+01-7.64317E-03-3.05202E-01 6.51619E-14-7.26051E-14
 -1      9565 2.32182E+00 8.22309E+01-8.64611E-03-4.01003E-01 3.75017E-14 7.14706E-16
 -1      9566 2.96270E+00 8.28803E+01-1.01619E-02-5.34776E-01-9.50524E-14 5.42795E-14
 -1      9567 3.70051E+00 8.35597E+01-1.22308E-02-7.16689E-01 8.96141E-14-1.42397E-13
 -1      9568 4.55524E+00 8.43046E+01-1.49082E-02-9.59613E-01-2.13961E-14 2.21767E-13
 -1      9569 5.55286E+00 8.51627E+01-1.82195E-02-1.28056E+00 5.95982E-14 5.23748E-14
 -1      9570 6.72588E+00 8.62034E+01-2.20750E-02-1.70226E+00 2.38958E-14-6.09929E-14
 -1      9571 8.11278E+00 8.75339E+01-2.59984E-02-2.25448E+00 9.00564E-14-1.16150E-13
 -1      9572 9.75575E+00 8.93287E+01-2.82683E-02-2.97294E+00-5.56222E-14 1.31367E-13
 -1      9573 1.16802E+01 9.18831E+01-2.77635E-02-3.88952E+00-1.18031E-14 8.00332E-14
 -1      9574 2.98576E-02 7.74651E+01-2.14059E-02-2.10452E-01-1.30550E-13-7.04679E-14
 -1      9575 2.00335E-01 7.85285E+01-8.67281E-03-3.48635E-01 3.40084E-14 1.22562E-13
 -1      9576 4.39671E-01 7.94435E+01-6.69242E-03-4.56368E-01-1.07078E-13-7.24247E-14
 -1      9577 7.41335E-01 8.02557E+01-5.87341E-03-5.55580E-01-2.22689E-13 3.60580E-14
 -1      9578 1.09855E+00 8.09982E+01-5.53708E-03-6.62910E-01 2.66268E-13-1.80536E-13
 -1      9579 1.50831E+00 8.16996E+01-5.52955E-03-7.91957E-01-1.63648E-13 8.53241E-14
 -1      9580 1.97076E+00 8.23863E+01-5.75299E-03-9.54904E-01 4.67204E-14-1.77008E-13
 -1      9581 2.48823E+00 8.30858E+01-6.10227E-03-1.16386E+00-1.91041E-13 4.74263E-13
 -1      9582 3.06434E+00 8.38291E+01-6.43177E-03-1.43202E+00-2.91989E-14-2.25049E-13
 -1      9583 3.70269E+00 8.46553E+01-6.49534E-03-1.77472E+00-1.97226E-13-1.45876E-13
 -1      9584 4.40464E+00 8.56170E+01-5.83737E-03-2.21011E+00-2.39357E-13 2.06196E-13
 -1      9585 5.16522E+00 8.67888E+01-3.59035E-03-2.75902E+00-3.73451E-14-1.03771E-13
 -1      9586 5.96512E+00 8.82814E+01 1.81427E-03-3.44220E+00-1.82875E-13-2.23190E-13
 -1      9587 6.75731E+00 9.02625E+01 1.40741E-02-4.27072E+00-1.37446E-13 2.52902E-13
 -1      9588 7.42559E+00 9.29813E+01 3.34015E-02-5.21775E+00-1.32699E-13-1.47576E-13
 -1      9589 2.22497E-02 7.76803E+01-1.82620E-02-3.15387E-01 2.89950E-13 2.94126E-13
 -1      9590 1.57228E-01 7.86880E+01-6.86862E-03-5.31167E-01 6.51150E-14-2.17656E-13
 -1      9591 3.45315E-01 7.95773E+01-5.06852E-03-7.00819E-01-3.45035E-13 1.71117E-13
 -1      9592 5.80607E-01 8.03857E+01-4.14119E-03-8.51856E-01 2.26215E-13-2.11532E-14
 -1      9593 8.55157E-01 8.11416E+01-3.46735E-03-1.00482E+00-1.94883E-13-4.41244E-14
 -1      9594 1.16275E+00 8.18707E+01-2.87740E-03-1.17592E+00-6.92892E-14-1.22187E-13
 -1      9595 1.49795E+00 8.25981E+01-2.21776E-03-1.37871E+00-2.22721E-14 7.55090E-14
 -1      9596 1.85475E+00 8.33512E+01-1.28638E-03-1.62536E+00 1.25960E-13 2.61863E-13
 -1      9597 2.22460E+00 8.41619E+01 2.12270E-04-1.92734E+00 3.48627E-14-1.39451E-13
 -1      9598 2.59375E+00 8.50703E+01 2.74176E-03-2.29544E+00 1.41413E-13-6.37650E-14
 -1      9599 2.93885E+00 8.61291E+01 7.04636E-03-2.73858E+00-6.69326E-14 1.40700E-13
 -1      9600 3.22003E+00 8.74100E+01 1.43451E-02-3.26014E+00 2.31839E-13-1.28578E-14
 -1      9601 3.36910E+00 8.90100E+01 2.63829E-02-3.84914E+00-7.78544E-14-3.37202E-13
 -1      9602 3.27322E+00 9.10591E+01 4.66888E-02-4.46043E+00 9.63465E-14 1.09156E-13
 -1      9603 2.73482E+00 9.37077E+01 7.27191E-02-4.97112E+00 1.84464E-13-1.14977E-14
 -1      9604 1.34021E-02 7.79736E+01-1.45106E-02-3.92595E-01-1.03953E-14 1.73472E-16
 -1      9605 1.06724E-01 7.89082E+01-4.76428E-03-6.65912E-01 4.28390E-15-9.19993E-14
 -1      9606 2.34839E-01 7.97598E+01-3.21858E-03-8.80282E-01 1.28023E-13-1.94674E-13
 -1      9607 3.92914E-01 8.05558E+01-2.23051E-03-1.06614E+00 5.58269E-14 1.50997E-13
 -1      9608 5.72258E-01 8.13186E+01-1.26576E-03-1.24567E+00 1.80339E-13-1.46640E-13
 -1      9609 7.63839E-01 8.20696E+01-1.60567E-04-1.43543E+00 2.84980E-13 1.61766E-13
 -1      9610 9.57300E-01 8.28312E+01 1.26144E-03-1.64788E+00-8.71074E-14-1.61714E-13
 -1      9611 1.13932E+00 8.36288E+01 3.24212E-03-1.89218E+00 2.33541E-13 5.03209E-14
 -1      9612 1.29131E+00 8.44920E+01 6.12486E-03-2.17415E+00 3.34767E-14-2.18957E-14
 -1      9613 1.38619E+00 8.54574E+01 1.04051E-02-2.49492E+00 1.13867E-13 6.34458E-14
 -1      9614 1.38363E+00 8.65703E+01 1.67806E-02-2.84766E+00 1.15092E-13 1.36557E-13
 -1      9615 1.22329E+00 8.78868E+01 2.62106E-02-3.21074E+00-3.39281E-13-7.95371E-14
 -1      9616 8.15184E-01 8.94715E+01 3.96420E-02-3.53451E+00-2.26485E-13-2.69722E-13
 -1      9617 2.97243E-02 9.13878E+01 5.85391E-02-3.71711E+00-1.41116E-13 6.57183E-14
 -1      9618-1.32047E+00 9.36578E+01 7.76782E-02-3.56092E+00-1.97439E-13 1.91416E-13
 -1      9619 4.12909E-03 7.83205E+01-1.04766E-02-4.39097E-01-9.49414E-14 9.56214E-14
 -1      9620 5.33921E-02 7.91696E+01-2.55837E-03-7.47737E-01 8.70918E-14-1.45044E-13
 -1      9621 1.18296E-01 7.99729E+01-1.33984E-03-9.88122E-01 4.04442E-13 4.30003E-14
 -1      9622 1.95628E-01 8.07473E+01-3.76003E-04-1.19092E+00-6.17094E-14 7.44751E-14
 -1      9623 2.76738E-01 8.15076E+01 7.61484E-04-1.37777E+00 1.10105E-13-2.99816E-13
 -1      9624 3.50883E-01 8.22697E+01 2.20387E-03-1.56363E+00-5.33774E-14 1.41120E-14
 -1      9625 4.04427E-01 8.30516E+01 4.10761E-03-1.75796E+00-3.57171E-14-2.74433E-15
 -1      9626 4.19364E-01 8.38740E+01 6.68506E-03-1.96497E+00 1.45750E-13 9.31564E-14
 -1      9627 3.71279E-01 8.47611E+01 1.02160E-02-2.18280E+00 5.69423E-14 3.98605E-14
 -1      9628 2.26642E-01 8.57408E+01 1.50517E-02-2.40120E+00-3.99684E-13 8.55115E-14
 -1      9629-6.06601E-02 8.68441E+01 2.15779E-02-2.59697E+00-1.81247E-13-9.77551E-14
 -1      9630-5.53284E-01 8.81017E+01 3.01171E-02-2.72585E+00-1.08493E-13 1.19203E-13
 -1      9631-1.33411E+00 8.95344E+01 4.04745E-02-2.70916E+00 2.90303E-13-2.21462E-13
 -1      9632-2.50585E+00 9.11311E+01 5.16229E-02-2.41347E+00-5.16531E-14-1.31304E-13
 -1      9633-4.18300E+00 9.27975E+01 5.75903E-02-1.62146E+00-3.75561E-13 8.32060E-14
 -1      9634-4.78310E-03 7.86948E+01-6.47254E-03-4.54574E-01 1.57780E-13-1.16176E-13
 -1      9635 1.59473E-03 7.94513E+01-4.34439E-04-7.76106E-01-3.62158E-14 6.76924E-14
 -1      9636 5.27081E-03 8.01986E+01 3.97356E-04-1.02406E+00 7.57098E-14-1.45453E-13
 -1      9637 5.17002E-03 8.09422E+01 1.23491E-03-1.22692E+00 7.81566E-15 1.01499E-13
 -1      9638-6.34603E-03 8.16888E+01 2.39001E-03-1.40399E+00-3.31421E-13 9.93546E-14
 -1      9639-4.02645E-02 8.24478E+01 3.93915E-03-1.56723E+00-9.62672E-14 1.78694E-13
 -1      9640-1.11325E-01 8.32312E+01 5.98274E-03-1.72203E+00-1.49554E-13-3.39498E-13
 -1      9641-2.38986E-01 8.40531E+01 8.65025E-03-1.86702E+00 1.25589E-13 4.12420E-13
 -1      9642-4.48699E-01 8.49291E+01 1.20844E-02-1.99286E+00 5.92564E-14-2.20971E-13
 -1      9643-7.73362E-01 8.58752E+01 1.64013E-02-2.07948E+00 3.22728E-14-2.38299E-14
 -1      9644-1.25459E+00 8.69038E+01 2.15903E-02-2.09155E+00 1.78673E-13 2.27023E-14
 -1      9645-1.94292E+00 8.80173E+01 2.73288E-02-1.97144E+00 5.62224E-14 1.38389E-13
 -1      9646-2.89526E+00 8.91938E+01 3.25430E-02-1.62941E+00 1.98869E-14-3.60963E-13
 -1      9647-4.16574E+00 9.03611E+01 3.47889E-02-9.32015E-01 1.59914E-13 5.60836E-15
 -1      9648-5.78167E+00 9.13531E+01 3.00265E-02 3.06629E-01-2.35381E-13 1.09680E-13
 -1      9649-7.59607E-03 8.05921E+01-3.10327E-03 7.08034E-01 7.89022E-14-2.76792E-13
 -1      9650 3.24023E-03 8.00163E+01-1.01358E-02 3.73802E-01-1.07289E-13 1.86191E-13
 -1      9651-2.23407E-02 8.10571E+01 1.71514E-04 1.25072E+00-6.42833E-13 2.42029E-14
 -1      9652 1.93258E-03 8.05500E+01-5.17675E-04 9.93695E-01-7.63452E-14-3.39548E-13
 -1      9653-4.95949E-02 8.15347E+01 4.09223E-04 1.68055E+00 4.40764E-13 5.26315E-15
 -1      9654 3.79781E-03 8.10776E+01 1.40913E-04 1.48207E+00-4.60944E-13 4.19567E-13
 -1      9655-9.18849E-02 8.20278E+01 5.71244E-04 2.02578E+00-6.52695E-13 6.44762E-14
 -1      9656 1.68135E-03 8.16052E+01 3.56859E-04 1.87484E+00 2.50668E-13-2.72976E-13
 -1      9657-1.57127E-01 8.25416E+01 7.98973E-04 2.30622E+00 1.23084E-13 1.65458E-14
 -1      9658-1.20420E-02 8.21405E+01 6.17878E-04 2.19752E+00-5.47821E-14 3.61461E-13
 -1      9659-2.56582E-01 8.30840E+01 1.08976E-03 2.53452E+00-1.44504E-13-1.63914E-13
 -1      9660-4.76183E-02 8.26939E+01 9.73667E-04 2.46790E+00 5.64496E-14-2.85390E-13
 -1      9661-4.05084E-01 8.36648E+01 1.43349E-03 2.71671E+00 1.17809E-13 3.18079E-14
 -1      9662-1.18400E-01 8.32777E+01 1.46415E-03 2.69710E+00 2.47621E-13 1.20827E-13
 -1      9663-6.21683E-01 8.42949E+01 1.81345E-03 2.85172E+00-9.80917E-14 2.49731E-14
 -1      9664-2.41642E-01 8.39060E+01 2.14351E-03 2.88982E+00 1.07966E-13-4.86347E-14
 -1      9665-9.30443E-01 8.49854E+01 2.19291E-03 2.93004E+00 2.62276E-13 6.00041E-14
 -1      9666-4.39619E-01 8.45947E+01 3.08469E-03 3.04350E+00 2.02650E-14 2.26291E-13
 -1      9667-1.36115E+00 8.57452E+01 2.49197E-03 2.93108E+00 1.09524E-13-1.12084E-13
 -1      9668-7.40963E-01 8.53597E+01 4.38104E-03 3.14632E+00 8.52096E-14-4.18068E-14
 -1      9669-1.94937E+00 8.65770E+01 2.55023E-03 2.81904E+00-3.85650E-13 7.57068E-14
 -1      9670-1.18194E+00 8.62158E+01 6.14326E-03 3.17356E+00-1.45925E-13-1.55848E-14
 -1      9671-2.73482E+00 8.74696E+01 2.05748E-03 2.53716E+00 6.96387E-14-3.86952E-15
 -1      9672-1.80701E+00 8.71712E+01 8.48585E-03 3.08179E+00 5.84810E-14 8.52599E-14
 -1      9673-3.75609E+00 8.83840E+01 4.76758E-04 2.00063E+00-5.03764E-15-8.11920E-14
 -1      9674-2.66731E+00 8.82181E+01 1.14696E-02 2.80056E+00-2.37713E-13-1.43433E-13
 -1      9675-5.03798E+00 8.92297E+01-3.02390E-03 1.09026E+00-1.62675E-13 1.72640E-14
 -1      9676-3.81407E+00 8.93140E+01 1.50777E-02 2.22190E+00-6.34215E-15 4.66901E-14
 -1      9677-6.56957E+00 8.98262E+01-1.04480E-02-3.47583E-01 1.67089E-14 1.53932E-13
 -1      9678-5.28309E+00 9.03480E+01 1.86378E-02 1.19006E+00 1.61676E-13 1.85116E-13
 -1      9679-7.05579E+00 9.10828E+01 2.18848E-02-4.95994E-01 1.32144E-13-1.30618E-13
 -1      9680 2.20017E-03 7.99737E+01-5.91525E-03 7.06263E-01-1.17135E-13-1.81681E-13
 -1      9681 9.98356E-03 7.93187E+01-1.41940E-02 3.65435E-01 1.01918E-13 2.12261E-13
 -1      9682 2.89304E-02 8.05701E+01-7.31608E-04 1.24793E+00 2.00305E-13-7.42462E-15
 -1      9683 3.59657E-02 8.00046E+01-9.78718E-04 9.71086E-01 1.18343E-14-1.35801E-13
 -1      9684 6.10185E-02 8.11431E+01-1.97756E-04 1.68148E+00 3.17316E-14-1.08115E-13
 -1      9685 8.91365E-02 8.06410E+01-1.24889E-04 1.45082E+00-1.58623E-14-7.28584E-16
 -1      9686 9.40896E-02 8.17063E+01 1.24017E-04 2.03794E+00 2.75019E-13 9.23636E-14
 -1      9687 1.56944E-01 8.12460E+01 2.71696E-05 1.84259E+00-1.05221E-13-3.40214E-14
 -1      9688 1.18823E-01 8.22724E+01 4.79298E-04 2.33981E+00 6.45784E-14 1.49492E-13
 -1      9689 2.29867E-01 8.18360E+01 1.84307E-04 2.17383E+00 1.64746E-13 2.46275E-13
 -1      9690 1.23457E-01 8.28560E+01 8.89614E-04 2.60281E+00 1.77774E-14-9.79633E-14
 -1      9691 2.97266E-01 8.24282E+01 4.05432E-04 2.46463E+00-1.16403E-13-1.78496E-13
 -1      9692 9.30846E-02 8.34732E+01 1.36881E-03 2.83680E+00-6.27623E-14-9.01432E-14
 -1      9693 3.46416E-01 8.30408E+01 7.35807E-04 2.72932E+00 1.31090E-13-4.60881E-14
 -1      9694 8.36967E-03 8.41422E+01 1.92981E-03 3.04572E+00-8.82003E-14 9.28424E-14
 -1      9695 3.61204E-01 8.36940E+01 1.23661E-03 2.97704E+00 6.00353E-14 1.26843E-14
 -1      9696-1.56182E-01 8.48830E+01 2.57653E-03 3.22642E+00-8.24063E-14-2.06224E-14
 -1      9697 3.20362E-01 8.44107E+01 1.99653E-03 3.21144E+00 5.03625E-14 4.29240E-14
 -1      9698-4.34380E-01 8.57170E+01 3.28488E-03 3.36604E+00 7.92422E-14-3.35842E-15
 -1      9699 1.95090E-01 8.52170E+01 3.14250E-03 3.42901E+00 1.83666E-13-1.79495E-13
 -1      9700-8.70729E-01 8.66653E+01 3.96726E-03 3.43727E+00 6.54338E-14-8.94770E-15
 -1      9701-5.39706E-02 8.61421E+01 4.85321E-03 3.61565E+00-9.53890E-14 1.45974E-13
 -1      9702-1.52243E+00 8.77430E+01 4.38816E-03 3.39070E+00 1.64313E-14-1.32998E-13
 -1      9703-4.80312E-01 8.72170E+01 7.37010E-03 3.74034E+00-2.20407E-13-7.70078E-14
 -1      9704-2.45932E+00 8.89478E+01 4.04915E-03 3.14316E+00-8.42382E-14-4.13020E-14
 -1      9705-1.15488E+00 8.84684E+01 1.09899E-02 3.74460E+00-2.52853E-14-1.57263E-13
 -1      9706-3.75803E+00 9.02364E+01 1.87698E-03 2.56185E+00 1.48381E-13 4.45772E-14
 -1      9707-2.16719E+00 8.99048E+01 1.60442E-02 3.52591E+00-2.07612E-14 1.49769E-13
 -1      9708-5.48292E+00 9.14778E+01-3.99061E-03 1.44687E+00-2.73948E-13 9.55069E-14
 -1      9709-3.61766E+00 9.14834E+01 2.25777E-02 2.91335E+00-2.06501E-13 9.90787E-14
 -1      9710-5.59475E+00 9.30433E+01 3.07685E-02 1.64285E+00-7.64389E-14 6.12704E-14
 -1      9711 1.27707E-02 7.93698E+01-8.77430E-03 6.74720E-01-7.73860E-14-8.22120E-14
 -1      9712 1.68514E-02 7.86523E+01-1.81307E-02 3.40869E-01-9.56665E-14-6.81052E-14
 -1      9713 8.35958E-02 8.00920E+01-1.67010E-03 1.19313E+00 1.68639E-13-3.96766E-14
 -1      9714 7.08884E-02 7.94825E+01-1.44659E-03 9.06155E-01 1.19984E-13-3.62418E-14
 -1      9715 1.79032E-01 8.07529E+01-8.45101E-04 1.61202E+00-3.64569E-14 2.02477E-14
 -1      9716 1.76741E-01 8.02190E+01-4.16575E-04 1.35645E+00-1.72327E-14-7.81042E-14
 -1      9717 2.93373E-01 8.13766E+01-3.79753E-04 1.96316E+00-7.17395E-15 1.11210E-13
 -1      9718 3.16806E-01 8.08919E+01-3.53199E-04 1.72898E+00 1.46513E-13 5.88904E-14
 -1      9719 4.16874E-01 8.19833E+01 7.48676E-05 2.27023E+00-3.38204E-13 1.44794E-13
 -1      9720 4.80439E-01 8.15259E+01-3.35863E-04 2.05105E+00-1.50904E-13 3.09683E-14
 -1      9721 5.38820E-01 8.25934E+01 5.63464E-04 2.55100E+00-1.99190E-13-2.85397E-14
 -1      9722 6.57839E-01 8.21441E+01-3.03954E-04 2.34358E+00-3.52160E-13 2.49800E-16
 -1      9723 6.46500E-01 8.32280E+01 1.12159E-03 2.81863E+00 5.06713E-14-1.61468E-14
 -1      9724 8.38763E-01 8.27694E+01-2.16635E-04 2.62288E+00-3.10973E-13-6.13953E-14
 -1      9725 7.23553E-01 8.39107E+01 1.78957E-03 3.08213E+00 1.30659E-13 1.75429E-13
 -1      9726 1.01099E+00 8.34261E+01-2.13223E-05 2.90183E+00 2.00638E-14 2.44312E-13
 -1      9727 7.47687E-01 8.46685E+01 2.61241E-03 3.34579E+00-2.51209E-13 9.64506E-16
 -1      9728 1.15833E+00 8.41418E+01 3.62893E-04 3.19007E+00-5.96155E-14-1.60094E-13
 -1      9729 6.87508E-01 8.55333E+01 3.63141E-03 3.60720E+00 1.84394E-13-4.15223E-14
 -1      9730 1.25778E+00 8.49494E+01 1.06210E-03 3.49328E+00-1.09766E-13 6.02990E-14
 -1      9731 4.98214E-01 8.65423E+01 4.86321E-03 3.85319E+00 2.60306E-13-7.21159E-14
 -1      9732 1.27558E+00 8.58892E+01 2.27497E-03 3.81084E+00 2.02866E-13-1.74284E-13
 -1      9733 1.15943E-01 8.77373E+01 6.22440E-03 4.05209E+00 2.68605E-13-1.24928E-13
 -1      9734 1.16140E+00 8.70108E+01 4.30914E-03 4.13075E+00 4.66432E-14 5.89806E-14
 -1      9735-5.48603E-01 8.91586E+01 7.46524E-03 4.14022E+00 8.64031E-14 4.93078E-14
 -1      9736 8.40638E-01 8.83740E+01 7.64440E-03 4.41975E+00 5.19029E-15-1.12965E-13
 -1      9737-1.61604E+00 9.08284E+01 7.43281E-03 3.99903E+00-1.47549E-13-1.71183E-14
 -1      9738 2.04306E-01 9.00434E+01 1.29342E-02 4.60488E+00 8.00471E-14-1.85893E-14
 -1      9739-3.23271E+00 9.27109E+01 5.60459E-03 3.41980E+00 1.40082E-13 1.48718E-13
 -1      9740-8.97152E-01 9.20693E+01 2.12133E-02 4.54049E+00-2.89824E-13 1.45904E-13
 -1      9741-2.66513E+00 9.44289E+01 3.29596E-02 3.95678E+00-8.72635E-14 5.37730E-14
 -1      9742 2.32849E-02 7.88064E+01-1.15152E-02 6.12652E-01-1.15564E-13-2.21267E-13
 -1      9743 2.33100E-02 7.80471E+01-2.17162E-02 3.00297E-01 2.09537E-13 2.11761E-13
 -1      9744 1.37508E-01 7.96434E+01-2.59169E-03 1.08500E+00-1.72657E-13 5.52336E-15
 -1      9745 1.03879E-01 7.90067E+01-1.88584E-03 7.99504E-01-1.88530E-13-9.70612E-14
 -1      9746 2.95532E-01 8.03820E+01-1.49525E-03 1.46997E+00 8.46545E-16 8.50500E-14
 -1      9747 2.59534E-01 7.98311E+01-7.07267E-04 1.19967E+00 1.32699E-13 8.88387E-14
 -1      9748 4.90858E-01 8.10563E+01-9.09331E-04 1.79759E+00 1.24255E-13 1.28009E-13
 -1      9749 4.68287E-01 8.05614E+01-7.45475E-04 1.53420E+00 1.87291E-13 8.17957E-14
 -1      9750 7.14244E-01 8.16930E+01-3.87664E-04 2.09075E+00-9.65036E-14-3.97113E-14
 -1      9751 7.19090E-01 8.12298E+01-8.87566E-04 1.82796E+00 4.03661E-13 4.56857E-14
 -1      9752 9.57390E-01 8.23169E+01 1.33796E-04 2.36767E+00-1.06813E-13-9.98715E-14
 -1      9753 1.00396E+00 8.18638E+01-1.07748E-03 2.10066E+00 1.04893E-13 7.93532E-14
 -1      9754 1.21183E+00 8.29527E+01 7.06187E-04 2.64339E+00 2.13198E-13-3.41394E-15
 -1      9755 1.31654E+00 8.24895E+01-1.28874E-03 2.36879E+00 3.13503E-13-2.45685E-13
 -1      9756 1.46731E+00 8.36271E+01 1.38845E-03 2.93080E+00-6.72379E-14 1.60684E-13
 -1      9757 1.65073E+00 8.31335E+01-1.49366E-03 2.64707E+00-8.67813E-14 6.41154E-14
 -1      9758 1.70956E+00 8.43712E+01 2.25558E-03 3.24077E+00 4.79478E-14 9.70751E-15
 -1      9759 1.99890E+00 8.38253E+01-1.64642E-03 2.94923E+00-8.30030E-14 3.04895E-14
 -1      9760 1.91706E+00 8.52230E+01 3.40334E-03 3.58144E+00-3.00315E-14 8.95881E-14
 -1      9761 2.34956E+00 8.46003E+01-1.66739E-03 3.28838E+00-8.62851E-14 9.96841E-14
 -1      9762 2.05614E+00 8.62308E+01 4.95014E-03 3.95579E+00 1.16684E-13-7.25531E-14
 -1      9763 2.68369E+00 8.55040E+01-1.41398E-03 3.67623E+00-5.65908E-13-3.95517E-14
 -1      9764 2.07346E+00 8.74568E+01 6.99954E-03 4.35617E+00-3.88106E-13-1.58970E-13
 -1      9765 2.96899E+00 8.65968E+01-6.35077E-04 4.12068E+00 1.01252E-13-1.73153E-13
 -1      9766 1.88499E+00 8.89796E+01 9.64924E-03 4.75281E+00 3.32026E-13 1.19682E-13
 -1      9767 3.15063E+00 8.79607E+01 1.13524E-03 4.61949E+00 6.75016E-14 8.69582E-14
 -1      9768 1.35921E+00 9.08904E+01 1.21271E-02 5.07088E+00 1.14742E-13-3.94129E-14
 -1      9769 3.13604E+00 8.97063E+01 4.59413E-03 5.14600E+00 8.47655E-14 1.43247E-13
 -1      9770 3.03933E-01 9.32755E+01 1.58245E-02 5.14687E+00-1.46244E-13 5.50948E-15
 -1      9771 2.77697E+00 9.19757E+01 1.16104E-02 5.61839E+00-4.77396E-15-1.43996E-13
 -1      9772 1.81929E+00 9.49168E+01 2.19177E-02 5.83573E+00 4.32432E-14 7.41074E-15
 -1      9773 3.27976E-02 7.83089E+01-1.39422E-02 5.21762E-01-2.30978E-13-2.25139E-13
 -1      9774 2.88010E-02 7.75316E+01-2.47240E-02 2.45296E-01-2.82101E-14-1.05534E-13
 -1      9775 1.86046E-01 7.92448E+01-3.41861E-03 9.26507E-01 4.40755E-13-1.50394E-13
 -1      9776 1.31967E-01 7.85991E+01-2.26065E-03 6.55303E-01-2.05624E-13-1.06269E-13
 -1      9777 4.00523E-01 8.00490E+01-2.08952E-03 1.25902E+00-1.46468E-13 9.53820E-14
 -1      9778 3.30063E-01 7.94960E+01-9.65202E-04 9.86549E-01 1.12649E-13-1.47098E-13
 -1      9779 6.69429E-01 8.07643E+01-1.41161E-03 1.54491E+00 8.29788E-14 2.98879E-13
 -1      9780 5.97631E-01 8.02730E+01-1.10206E-03 1.26562E+00 1.97809E-13 1.82285E-13
 -1      9781 9.84665E-01 8.14226E+01-8.54312E-04 1.80413E+00-2.29871E-13 2.70478E-14
 -1      9782 9.23739E-01 8.09678E+01-1.39894E-03 1.51253E+00-1.84982E-14 5.34919E-14
 -1      9783 1.34118E+00 8.20518E+01-3.39897E-04 2.05326E+00 1.65223E-13-1.19349E-15
 -1      9784 1.30267E+00 8.16114E+01-1.80854E-03 1.74361E+00-3.50926E-14 2.00576E-13
 -1      9785 1.73600E+00 8.26786E+01 1.90201E-04 2.30711E+00-5.61183E-15-1.68365E-13
 -1      9786 1.73254E+00 8.22316E+01-2.32481E-03 1.97326E+00 6.62690E-14-2.78527E-13
 -1      9787 2.16703E+00 8.33307E+01 8.01094E-04 2.57992E+00-9.43343E-15 1.06679E-13
 -1      9788 2.21423E+00 8.28555E+01-2.95564E-03 2.21533E+00-6.74044E-14 2.14467E-13
 -1      9789 2.63151E+00 8.40399E+01 1.57847E-03 2.88627E+00 1.80848E-13 3.57492E-14
 -1      9790 2.75042E+00 8.35120E+01-3.71003E-03 2.48429E+00-2.38178E-14 9.29812E-14
 -1      9791 3.12384E+00 8.48458E+01 2.64378E-03 3.24149E+00-6.41848E-14 6.92918E-14
 -1      9792 3.34433E+00 8.42357E+01-4.59211E-03 2.79624E+00 1.94983E-15 6.80428E-14
 -1      9793 3.63192E+00 8.58008E+01 4.17641E-03 3.66133E+00-1.64861E-13-1.30562E-13
 -1      9794 3.99788E+00 8.50714E+01-5.58597E-03 3.16962E+00 1.67831E-13-9.72278E-14
 -1      9795 4.13100E+00 8.69770E+01 6.43130E-03 4.15985E+00 4.50515E-13-1.69309E-14
 -1      9796 4.70831E+00 8.60807E+01-6.63106E-03 3.62535E+00-5.27078E-14 1.98869E-13
 -1      9797 4.57301E+00 8.84767E+01 9.81977E-03 4.74329E+00-1.08316E-13-7.94087E-14
 -1      9798 5.46192E+00 8.73530E+01-7.52747E-03 4.18523E+00 8.57786E-14-2.93737E-13
 -1      9799 4.86682E+00 9.04444E+01 1.42745E-02 5.39441E+00-1.74111E-13-7.74381E-14
 -1      9800 6.22161E+00 8.90220E+01-8.00916E-03 4.86539E+00-1.07150E-13 2.41751E-14
 -1      9801 4.85443E+00 9.30809E+01 2.30955E-02 6.03552E+00 1.15130E-13 9.25926E-14
 -1      9802 6.90863E+00 9.12912E+01-6.26703E-03 5.65773E+00-2.43111E-13 6.97775E-14
 -1      9803 7.33613E+00 9.44568E+01-4.71897E-03 6.47567E+00-1.64480E-13 8.44325E-14
 -1      9804 4.03731E-02 7.79003E+01-1.58712E-02 4.06347E-01-4.10168E-13-2.40447E-13
 -1      9805 3.28143E-02 7.71298E+01-2.69552E-02 1.78809E-01 2.33383E-13-6.59611E-14
 -1      9806 2.24656E-01 7.89148E+01-4.07741E-03 7.25150E-01-9.19403E-15 7.92699E-14
 -1      9807 1.52425E-01 7.82780E+01-2.53782E-03 4.81231E-01-2.35126E-13 3.07809E-14
 -1      9808 4.84133E-01 7.97712E+01-2.56976E-03 9.89143E-01 2.08736E-13-3.13152E-14
 -1      9809 3.81475E-01 7.92301E+01-1.15915E-03 7.28503E-01 1.54304E-13 8.13238E-14
 -1      9810 8.12043E-01 8.05189E+01-1.82947E-03 1.21709E+00-8.84709E-17 8.97962E-14
 -1      9811 6.92122E-01 8.00431E+01-1.37430E-03 9.37810E-01-5.09937E-13-5.33462E-14
 -1      9812 1.20164E+00 8.11935E+01-1.26001E-03 1.42389E+00-2.97264E-14-1.67227E-14
 -1      9813 1.07378E+00 8.07588E+01-1.79439E-03 1.12227E+00 1.01234E-13 7.01869E-14
 -1      9814 1.65116E+00 8.18250E+01-7.75728E-04 1.62236E+00-2.49571E-13-1.94150E-14
 -1      9815 1.52280E+00 8.14104E+01-2.38121E-03 1.29285E+00 1.17216E-13-1.08052E-13
 -1      9816 2.16309E+00 8.24405E+01-3.17453E-04 1.82453E+00-1.25150E-13-1.94608E-13
 -1      9817 2.04120E+00 8.20262E+01-3.14865E-03 1.45959E+00-1.36186E-13-4.68653E-14
 -1      9818 2.74364E+00 8.30674E+01 1.75670E-04 2.04285E+00-2.35763E-13 3.44724E-14
 -1      9819 2.63603E+00 8.26329E+01-4.13951E-03 1.63265E+00 3.22815E-14-1.59872E-13
 -1      9820 3.40225E+00 8.37361E+01 7.82280E-04 2.29122E+00 6.72552E-14 4.54636E-14
 -1      9821 3.31923E+00 8.32578E+01-5.41913E-03 1.82325E+00-2.20615E-13 1.20598E-14
 -1      9822 4.15115E+00 8.44841E+01 1.61851E-03 2.58609E+00 8.55011E-14-5.42899E-14
 -1      9823 4.10784E+00 8.39328E+01-7.08309E-03 2.04477E+00 2.98123E-13 3.57214E-14
 -1      9824 5.00448E+00 8.53620E+01 2.87011E-03 2.94746E+00 3.29542E-13 2.04975E-14
 -1      9825 5.02445E+00 8.46985E+01-9.26487E-03 2.31392E+00-1.20348E-13 7.67580E-14
 -1      9826 5.97622E+00 8.64418E+01 4.85572E-03 3.39958E+00-2.69770E-13 1.05083E-13
 -1      9827 6.09753E+00 8.56118E+01-1.21539E-02 2.65209E+00-1.14075E-13 7.64527E-14
 -1      9828 7.07556E+00 8.78324E+01 8.14679E-03 3.97004E+00 4.88498E-14-2.77334E-13
 -1      9829 7.36118E+00 8.67580E+01-1.59618E-02 3.08663E+00 5.02237E-14-6.48925E-14
 -1      9830 8.29549E+00 8.97036E+01 1.34555E-02 4.68401E+00-1.16296E-14 1.68199E-14
 -1      9831 8.85193E+00 8.82713E+01-2.11528E-02 3.65043E+00 9.28008E-14-3.41671E-14
 -1      9832 9.59597E+00 9.23308E+01 2.49007E-02 5.54389E+00 3.56937E-14 1.47882E-13
 -1      9833 1.06027E+01 9.03769E+01-2.69444E-02 4.37630E+00-3.57908E-13 1.77636E-14
 -1      9834 1.25951E+01 9.34560E+01-3.87032E-02 5.26615E+00 6.66411E-14 4.99600E-14
 -1      9835 4.52149E-02 7.75985E+01-1.71489E-02 2.73078E-01-1.84831E-13-6.65440E-14
 -1      9836 3.49596E-02 7.68594E+01-2.82624E-02 1.04938E-01 3.06607E-13 1.69594E-13
 -1      9837 2.49479E-01 7.86682E+01-4.50524E-03 4.92552E-01-2.94122E-14-1.19349E-14
 -1      9838 1.63163E-01 7.80572E+01-2.69180E-03 2.87946E-01 5.62848E-14 4.63241E-14
 -1      9839 5.37977E-01 7.95627E+01-2.88486E-03 6.76148E-01-3.16251E-13 2.23432E-15
 -1      9840 4.08509E-01 7.90452E+01-1.26397E-03 4.41468E-01 1.12934E-13-1.72126E-13
 -1      9841 9.04147E-01 8.03354E+01-2.11018E-03 8.33902E-01-2.25726E-13 1.66867E-13
 -1      9842 7.41960E-01 7.98842E+01-1.52227E-03 5.71582E-01-9.12248E-14 1.80397E-13
 -1      9843 1.34234E+00 8.10243E+01-1.54116E-03 9.73986E-01 9.78566E-14 8.73052E-14
 -1      9844 1.15324E+00 8.06175E+01-2.01075E-03 6.83089E-01 2.09043E-14 2.66315E-14
 -1      9845 1.85323E+00 8.16602E+01-1.08841E-03 1.10364E+00-3.00946E-13-1.96371E-14
 -1      9846 1.63994E+00 8.12792E+01-2.69663E-03 7.80207E-01-4.01049E-13 2.34673E-14
 -1      9847 2.44335E+00 8.22702E+01-6.95216E-04 1.22996E+00 3.53212E-13-8.32667E-15
 -1      9848 2.20638E+00 8.18981E+01-3.60611E-03 8.66987E-01-7.00341E-14-1.63300E-13
 -1      9849 3.12513E+00 8.28809E+01-3.08534E-04 1.36054E+00 1.74523E-13 2.05350E-13
 -1      9850 2.86325E+00 8.24999E+01-4.80368E-03 9.47675E-01-4.02204E-14 3.46431E-13
 -1      9851 3.91734E+00 8.35207E+01 1.36644E-04 1.50423E+00 1.63227E-13-6.26443E-14
 -1      9852 3.62799E+00 8.31108E+01-6.39050E-03 1.02708E+00 9.38659E-14 6.55309E-14
 -1      9853 4.84635E+00 8.42241E+01 7.36726E-04 1.67195E+00 7.72160E-14 6.08819E-14
 -1      9854 4.52604E+00 8.37603E+01-8.52206E-03 1.11099E+00 3.55911E-13-6.53505E-14
 -1      9855 5.94791E+00 8.50377E+01 1.65256E-03 1.87776E+00 1.66499E-14-2.01644E-14
 -1      9856 5.59287E+00 8.44858E+01-1.14331E-02 1.20674E+00-1.78123E-13 4.27436E-15
 -1      9857 7.26976E+00 8.60287E+01 3.19496E-03 2.14011E+00 5.62744E-14-1.20820E-13
 -1      9858 6.87718E+00 8.53393E+01-1.54909E-02 1.32392E+00-3.31041E-13-1.56875E-13
 -1      9859 8.87467E+00 8.73019E+01 5.95226E-03 2.48306E+00 5.58165E-14-2.29816E-13
 -1      9860 8.44536E+00 8.63994E+01-2.12179E-02 1.47531E+00-2.98480E-13-5.08482E-14
 -1      9861 1.08426E+01 8.90308E+01 1.12087E-02 2.93621E+00-5.37487E-14-7.99916E-14
 -1      9862 1.03868E+01 8.77939E+01-2.96503E-02 1.67769E+00-1.09759E-13 3.84692E-14
 -1      9863 1.32722E+01 9.15204E+01 2.27939E-02 3.52845E+00-2.92433E-13 1.85574E-13
 -1      9864 1.28209E+01 8.97462E+01-4.10709E-02 1.95156E+00 1.57513E-13 4.22995E-14
 -1      9865 1.58781E+01 9.26664E+01-6.29605E-02 2.31218E+00 4.29379E-14 1.03806E-13
 -1      9866 4.67873E-02 7.74154E+01-1.76740E-02 1.30448E-01 6.10172E-14-1.11619E-13
 -1      9867 3.50258E-02 7.67295E+01-2.85680E-02 2.85626E-02 1.81858E-13-1.87503E-13
 -1      9868 2.57927E-01 7.85146E+01-4.66017E-03 2.43520E-01-4.84730E-13-8.53762E-14
 -1      9869 1.63047E-01 7.79436E+01-2.70878E-03 8.80996E-02 3.45874E-13-1.97162E-13
 -1      9870 5.56430E-01 7.94326E+01-3.00004E-03 3.40345E-01 4.99835E-13-2.78153E-13
 -1      9871 4.08312E-01 7.89480E+01-1.26569E-03 1.44434E-01 3.02206E-14 6.97359E-14
 -1      9872 9.35942E-01 8.02241E+01-2.21676E-03 4.21220E-01-2.09807E-13 2.10484E-13
 -1      9873 7.41825E-01 7.98030E+01-1.52344E-03 1.91947E-01 1.07616E-13 5.70100E-14
 -1      9874 1.39129E+00 8.09275E+01-1.65139E-03 4.86651E-01-2.85154E-14-2.35229E-14
 -1      9875 1.15339E+00 8.05518E+01-2.01194E-03 2.26635E-01 4.47914E-14 2.31301E-13
 -1      9876 1.92407E+00 8.15740E+01-1.21333E-03 5.37319E-01-5.15017E-13-4.69486E-14
 -1      9877 1.64069E+00 8.12284E+01-2.69764E-03 2.45477E-01 3.19933E-13-2.27887E-13
 -1      9878 2.54236E+00 8.21906E+01-8.47287E-04 5.74052E-01 1.85395E-13-4.90719E-14
 -1      9879 2.20810E+00 8.18612E+01-3.60678E-03 2.45938E-01 3.34973E-13 8.95256E-14
 -1      9880 3.26090E+00 8.28030E+01-5.03983E-04 5.97790E-01-2.47853E-13 2.67453E-13
 -1      9881 2.86632E+00 8.24760E+01-4.80401E-03 2.25544E-01-3.73833E-16 4.53526E-14
 -1      9882 4.10199E+00 8.34391E+01-1.25081E-04 6.09553E-01-5.45739E-13-2.68535E-14
 -1      9883 3.63286E+00 8.30990E+01-6.39074E-03 1.81453E-01-2.89045E-13 1.93318E-14
 -1      9884 5.09737E+00 8.41319E+01 3.75400E-04 6.10420E-01-6.76267E-14 3.88856E-14
 -1      9885 4.53315E+00 8.37594E+01-8.52283E-03 1.09974E-01-8.44559E-14 1.01572E-13
 -1      9886 6.29123E+00 8.49260E+01 1.14302E-03 6.01502E-01 1.23816E-13-2.57294E-14
 -1      9887 5.60272E+00 8.44947E+01-1.14357E-02 5.96716E-03-3.00194E-13 2.90878E-14
 -1      9888 7.74477E+00 8.58859E+01 2.47368E-03 5.83928E-01-8.25295E-14-8.96505E-14
 -1      9889 6.89031E+00 8.53569E+01-1.54975E-02-1.37926E-01-3.86937E-13 3.73035E-14
 -1      9890 9.54284E+00 8.71134E+01 4.93884E-03 5.58842E-01 9.46855E-15-1.42691E-13
 -1      9891 8.46243E+00 8.64245E+01-2.12329E-02-3.32225E-01 4.76910E-14-8.58758E-14
 -1      9892 1.18028E+01 8.87799E+01 1.00267E-02 5.27396E-01-2.05568E-13 4.35207E-14
 -1      9893 1.04088E+01 8.78254E+01-2.96815E-02-5.91441E-01-6.78867E-14 4.16889E-14
 -1      9894 1.46858E+01 9.11960E+01 2.12379E-02 4.90757E-01 4.82778E-14 5.97300E-14
 -1      9895 1.28491E+01 8.97828E+01-4.11323E-02-9.33793E-01 1.39652E-13 2.17160E-13
 -1      9896 1.59148E+01 9.27069E+01-6.30961E-02-1.37239E+00 9.38000E-14-3.66152E-13
 -1      9897 4.49016E-02 7.73550E+01-1.74122E-02-1.20666E-02 2.34121E-14-3.42781E-14
 -1      9898 3.30147E-02 7.67399E+01-2.78747E-02-4.51656E-02 1.51556E-13 3.53675E-14
 -1      9899 2.49098E-01 7.84575E+01-4.52770E-03-5.42143E-03 2.25394E-13-2.42167E-13
 -1      9900 1.52084E-01 7.79375E+01-2.58897E-03-1.04963E-01 3.42960E-13-1.59775E-13
 -1      9901 5.37528E-01 7.93844E+01-2.90316E-03 4.49464E-03-1.29530E-13-2.08694E-13
 -1      9902 3.80907E-01 7.89386E+01-1.16432E-03-1.42547E-01 3.71504E-13-4.84890E-14
 -1      9903 9.04001E-01 8.01887E+01-2.13606E-03 8.25504E-03-1.79794E-13 3.26891E-13
 -1      9904 6.91759E-01 7.97997E+01-1.37777E-03-1.74605E-01 1.04598E-13 1.85046E-13
 -1      9905 1.34305E+00 8.09080E+01-1.57387E-03-1.27746E-03 1.83747E-13-6.27276E-15
 -1      9906 1.07433E+00 8.05620E+01-1.79784E-03-2.13416E-01 7.35939E-14-4.47281E-14
 -1      9907 1.85546E+00 8.15727E+01-1.12649E-03-2.99644E-02-6.68120E-14-7.78683E-14
 -1      9908 1.52517E+00 8.12581E+01-2.38398E-03-2.68714E-01-6.65412E-13 1.17850E-13
 -1      9909 2.44789E+00 8.22099E+01-7.37281E-04-8.32192E-02 1.46425E-13-7.11653E-14
 -1      9910 2.04649E+00 8.19159E+01-3.15020E-03-3.48988E-01 3.16837E-13-1.29730E-13
 -1      9911 3.13281E+00 8.28456E+01-3.53390E-04-1.66757E-01 1.00140E-13 1.86046E-13
 -1      9912 2.64543E+00 8.25618E+01-4.13973E-03-4.62586E-01 4.96499E-13 2.51188E-13
 -1      9913 3.92904E+00 8.35083E+01 8.99171E-05-2.87373E-01 1.69323E-13-1.71002E-13
 -1      9914 3.33401E+00 8.32228E+01-5.41854E-03-6.18761E-01 4.79353E-13-1.65451E-13
 -1      9915 4.86300E+00 8.42326E+01 6.88677E-04-4.53845E-01 9.52276E-14 2.14551E-14
 -1      9916 4.12934E+00 8.39306E+01-7.08321E-03-8.28779E-01-3.43198E-13-2.35922E-14
 -1      9917 5.97050E+00 8.50647E+01 1.60322E-03-6.78029E-01 6.24677E-13 1.06443E-13
 -1      9918 5.05405E+00 8.47258E+01-9.26880E-03-1.10719E+00-1.38778E-16 1.98563E-13
 -1      9919 7.29943E+00 8.60720E+01 3.14386E-03-9.76172E-01 7.91069E-14-9.37861E-14
 -1      9920 6.13676E+00 8.56653E+01-1.21673E-02-1.47323E+00 1.31381E-13-1.97550E-13
 -1      9921 8.91287E+00 8.73593E+01 5.89753E-03-1.37017E+00-3.11973E-14-1.43302E-13
 -1      9922 7.41181E+00 8.68342E+01-1.59949E-02-1.95213E+00-9.38694E-14-1.32699E-13
 -1      9923 1.08914E+01 8.91001E+01 1.11525E-02-1.88751E+00-3.68594E-13 1.04639E-13
 -1      9924 8.91625E+00 8.83671E+01-2.12235E-02-2.57481E+00-1.47410E-13 2.93654E-14
 -1      9925 1.33346E+01 9.15995E+01 2.27243E-02-2.55518E+00 8.00748E-14 2.33702E-14
 -1      9926 1.06839E+01 9.04890E+01-2.70844E-02-3.37238E+00 1.19557E-13 5.64271E-14
 -1      9927 1.26984E+01 9.35817E+01-3.89962E-02-4.34554E+00-3.28071E-14-1.07803E-13
 -1      9928 3.97482E-02 7.74131E+01-1.64010E-02-1.44992E-01-1.42794E-14-1.43802E-13
 -1      9929 2.91410E-02 7.68814E+01-2.62658E-02-1.11373E-01-5.23106E-14-3.45744E-13
 -1      9930 2.23919E-01 7.84936E+01-4.12325E-03-2.37759E-01-1.32698E-13-2.81442E-14
 -1      9931 1.31423E-01 7.80316E+01-2.34660E-03-2.78610E-01 1.92834E-13-1.26704E-14
 -1      9932 4.83296E-01 7.94151E+01-2.60721E-03-3.08668E-01 2.68500E-13-6.99163E-14
 -1      9933 3.29191E-01 7.90107E+01-9.73935E-04-4.00522E-01-2.26577E-13-2.52576E-15
 -1      9934 8.11865E-01 8.02261E+01-1.88206E-03-3.75810E-01 6.14339E-14 9.34114E-14
 -1      9935 5.97178E-01 7.98682E+01-1.10776E-03-5.03112E-01-6.93259E-14 2.07265E-14
 -1      9936 1.20324E+00 8.09616E+01-1.32614E-03-4.53000E-01-1.94256E-13-1.56375E-13
 -1      9937 9.24900E-01 8.06408E+01-1.40432E-03-6.05484E-01-2.00627E-13-4.32987E-15
 -1      9938 1.65589E+00 8.16509E+01-8.52385E-04-5.51591E-01-4.99560E-13-6.80012E-15
 -1      9939 1.30700E+00 8.13588E+01-1.81235E-03-7.22649E-01-3.36259E-14-1.48853E-13
 -1      9940 2.17250E+00 8.23206E+01-4.01756E-04-6.81908E-01 1.47334E-13-5.37487E-14
 -1      9941 1.74185E+00 8.20492E+01-2.32597E-03-8.67368E-01 1.30292E-13 7.17482E-15
 -1      9942 2.75937E+00 8.29977E+01 8.62970E-05-8.54462E-01-1.02843E-13 3.38188E-13
 -1      9943 2.23050E+00 8.27384E+01-2.95362E-03-1.05163E+00-1.06151E-13 4.68930E-14
 -1      9944 3.42603E+00 8.37124E+01 6.89977E-04-1.08109E+00-2.87138E-13-2.95056E-13
 -1      9945 2.77572E+00 8.34551E+01-3.70516E-03-1.28788E+00-1.14946E-13-1.90681E-14
 -1      9946 4.18474E+00 8.45021E+01 1.52489E-03-1.37610E+00 1.78479E-13-3.93435E-14
 -1      9947 3.38077E+00 8.42336E+01-4.58593E-03-1.59010E+00 1.06512E-15-6.99163E-14
 -1      9948 5.04971E+00 8.54172E+01 2.77618E-03-1.75735E+00 9.98507E-15 1.04944E-13
 -1      9949 4.04761E+00 8.51186E+01-5.58182E-03-1.97458E+00 2.95014E-13 1.19613E-13
 -1      9950 6.03508E+00 8.65299E+01 4.76219E-03-2.24699E+00-3.33365E-13-5.38875E-14
 -1      9951 4.77351E+00 8.61718E+01-6.63495E-03-2.46019E+00 4.30142E-14 1.00531E-13
 -1      9952 7.15039E+00 8.79491E+01 8.05400E-03-2.87071E+00-1.35766E-13-2.17687E-13
 -1      9953 5.54495E+00 8.74828E+01-7.54978E-03-3.06679E+00-2.69229E-15-1.38334E-13
 -1      9954 8.38930E+00 8.98450E+01 1.33701E-02-3.65201E+00 1.73320E-13 2.28817E-13
 -1      9955 6.32517E+00 8.91853E+01-8.06627E-03-3.80888E+00-3.77198E-14-3.39173E-14
 -1      9956 9.71298E+00 9.24937E+01 2.48262E-02-4.59216E+00-3.74784E-13 6.38656E-14
 -1      9957 7.03607E+00 9.14839E+01-6.38648E-03-4.67718E+00-2.17160E-13 3.46945E-13
 -1      9958 7.49179E+00 9.46761E+01-4.94078E-03-5.58477E+00 2.50910E-14-1.95066E-13
 -1      9959 3.18653E-02 7.75780E+01-1.47446E-02-2.59856E-01 3.62941E-13 1.53155E-13
 -1      9960 2.37994E-02 7.71362E+01-2.38947E-02-1.65969E-01-3.54800E-13 2.52492E-13
 -1      9961 1.85002E-01 7.86135E+01-3.48978E-03-4.38732E-01 2.21099E-14-6.01880E-14
 -1      9962 1.03174E-01 7.82125E+01-2.00767E-03-4.22228E-01-1.29530E-13-7.29902E-14
 -1      9963 3.99427E-01 7.95158E+01-2.14791E-03-5.78903E-01 1.09247E-13 5.85504E-14
 -1      9964 2.58479E-01 7.91526E+01-7.19768E-04-6.13629E-01 1.12153E-13-3.79557E-14
 -1      9965 6.69462E-01 8.03265E+01-1.49264E-03-7.05199E-01 9.54887E-14-8.19483E-15
 -1      9966 4.67992E-01 7.99963E+01-7.53329E-04-7.72887E-01 2.13277E-14 1.30895E-13
 -1      9967 9.87532E-01 8.10765E+01-9.55393E-04-8.36386E-01 2.07331E-13-1.47528E-13
 -1      9968 7.21283E-01 8.07742E+01-8.94437E-04-9.23811E-01-4.13176E-13-1.31180E-13
 -1      9969 1.34895E+00 8.17926E+01-4.56311E-04-9.87479E-01 5.21732E-13-6.31439E-15
 -1      9970 1.01086E+00 8.15127E+01-1.08138E-03-1.08465E+00-1.61281E-13-9.46743E-14
 -1      9971 1.75098E+00 8.25008E+01 6.30417E-05-1.17147E+00-4.71515E-14-1.04958E-13
 -1      9972 1.33071E+00 8.22369E+01-1.28777E-03-1.27016E+00 2.96917E-13-5.69891E-14
 -1      9973 2.19166E+00 8.32283E+01 6.67417E-04-1.40060E+00 1.68122E-13 4.04871E-13
 -1      9974 1.67492E+00 8.29725E+01-1.48657E-03-1.49307E+00-1.84470E-14 1.92873E-13
 -1      9975 2.66827E+00 8.40066E+01 1.44204E-03-1.68733E+00-7.72646E-15-1.10634E-13
 -1      9976 2.03592E+00 8.37486E+01-1.63275E-03-1.76500E+00-5.27252E-14-9.15379E-14
 -1      9977 3.17519E+00 8.48750E+01 2.50791E-03-2.04482E+00-2.97540E-14-5.77316E-14
 -1      9978 2.40220E+00 8.46005E+01-1.64777E-03-2.09688E+00 2.37449E-14 6.36158E-14
 -1      9979 3.70029E+00 8.58860E+01 4.04420E-03-2.48672E+00-2.95527E-14 1.26232E-13
 -1      9980 2.75466E+00 8.55734E+01-1.39043E-03-2.49828E+00 8.04426E-14-9.14963E-14
 -1      9981 4.21880E+00 8.71119E+01 6.30629E-03-3.02510E+00-3.92561E-13-3.13638E-15
 -1      9982 3.06082E+00 8.67280E+01-6.11232E-04-2.97503E+00 1.08191E-13 2.28831E-13
 -1      9983 4.68276E+00 8.86555E+01 9.70773E-03-3.66446E+00 4.64961E-13-3.98598E-13
 -1      9984 3.26573E+00 8.81467E+01 1.15373E-03-3.52307E+00 1.24054E-13-1.91139E-13
 -1      9985 5.00120E+00 9.06619E+01 1.41878E-02-4.38618E+00-2.87104E-13 1.33282E-13
 -1      9986 3.27663E+00 8.99407E+01 4.60128E-03-4.11420E+00 1.77774E-13-9.72139E-14
 -1      9987 5.01645E+00 9.33333E+01 2.30642E-02-5.11183E+00-1.82521E-13-6.65579E-14
 -1      9988 2.94504E+00 9.22536E+01 1.15958E-02-4.66552E+00 1.22208E-13-5.04596E-14
 -1      9989 2.01624E+00 9.52355E+01 2.19171E-02-4.97556E+00 3.34732E-14 4.06897E-14
 -1      9990 2.20533E-02 7.78315E+01-1.26000E-02-3.50023E-01 2.26336E-13 3.85525E-13
 -1      9991 1.75053E-02 7.74799E+01-2.09664E-02-2.06033E-01-2.69298E-13 4.34444E-13
 -1      9992 1.36241E-01 7.88026E+01-2.69123E-03-5.96793E-01-1.33771E-13-1.46085E-13
 -1      9993 7.00890E-02 7.84618E+01-1.60591E-03-5.28210E-01 3.05558E-13-2.03081E-13
 -1      9994 2.94390E-01 7.96729E+01-1.57742E-03-7.90529E-01 4.40850E-13-2.30163E-14
 -1      9995 1.75693E-01 7.93485E+01-4.33242E-04-7.70595E-01-3.87078E-13-7.01522E-14
 -1      9996 4.91502E-01 8.04752E+01-1.02156E-03-9.60312E-01-2.44028E-14 2.34535E-14
 -1      9997 3.17050E-01 8.01683E+01-3.63285E-04-9.69536E-01-2.37230E-13-3.76296E-14
 -1      9998 7.19020E-01 8.12347E+01-5.26229E-04-1.12769E+00 2.82101E-14-1.87780E-13
 -1      9999 4.84306E-01 8.09441E+01-3.43882E-04-1.15111E+00-2.76894E-13-1.38362E-14
 -1     10000 9.69105E-01 8.19748E+01-2.44745E-05-1.30915E+00-1.18704E-13 7.78683E-14
 -1     10001 6.68268E-01 8.16972E+01-3.06995E-04-1.33458E+00-2.58613E-14 5.46230E-14
 -1     10002 1.23358E+00 8.27194E+01 5.34712E-04-1.51781E+00-7.66054E-14 9.93650E-15
 -1     10003 8.59090E-01 8.24494E+01-2.11823E-04-1.53435E+00-1.00522E-13 3.36745E-14
 -1     10004 1.50229E+00 8.34945E+01 1.20989E-03-1.76438E+00-1.61905E-13 2.22933E-13
 -1     10005 1.04475E+00 8.32241E+01-6.33402E-06-1.76113E+00-1.61832E-13 1.39160E-13
 -1     10006 1.76096E+00 8.43307E+01 2.07561E-03-2.05753E+00 2.72324E-13-1.11508E-13
 -1     10007 1.20906E+00 8.40483E+01 3.89671E-04-2.02231E+00 1.62079E-13-2.13773E-13
 -1     10008 1.98792E+00 8.52659E+01 3.22734E-03-2.40318E+00-4.69486E-14 5.46230E-14
 -1     10009 1.32890E+00 8.49546E+01 1.10152E-03-2.32129E+00 5.78496E-14 1.19578E-13
 -1     10010 2.14925E+00 8.63485E+01 4.78365E-03-2.80215E+00 3.73312E-15 1.37793E-13
 -1     10011 1.37017E+00 8.59833E+01 2.32718E-03-2.65520E+00 4.00860E-13-4.30211E-15
 -1     10012 2.19133E+00 8.76412E+01 6.84912E-03-3.24479E+00-1.76234E-13 5.72598E-14
 -1     10013 1.28216E+00 8.71845E+01 4.37401E-03-3.00991E+00 1.61399E-14 1.15505E-13
 -1     10014 2.02974E+00 8.92231E+01 9.52516E-03-3.69960E+00-2.95874E-13-5.04180E-13
 -1     10015 9.89700E-01 8.86185E+01 7.72210E-03-3.35024E+00 1.15186E-15-2.29525E-13
 -1     10016 1.53241E+00 9.11868E+01 1.20446E-02-4.09030E+00-1.30090E-13-2.74780E-14
 -1     10017 3.83054E-01 9.03509E+01 1.30298E-02-3.60154E+00-1.58318E-13-6.95416E-14
 -1     10018 5.06296E-01 9.36204E+01 1.58205E-02-4.25234E+00 6.98885E-14 1.42136E-13
 -1     10019-6.88456E-01 9.24338E+01 2.13289E-02-3.61669E+00-1.82215E-13 2.49210E-13
 -1     10020-2.42794E+00 9.48470E+01 3.31831E-02-3.12448E+00 8.89844E-14-7.79932E-14
 -1     10021 1.12532E-02 7.81509E+01-1.01550E-02-4.11252E-01-3.19383E-13 1.72903E-13
 -1     10022 1.08230E-02 7.78841E+01-1.77140E-02-2.30019E-01-1.22978E-13 5.65936E-14
 -1     10023 8.22323E-02 7.90425E+01-1.80239E-03-7.04578E-01-1.73301E-13-2.18700E-13
 -1     10024 3.51662E-02 7.87579E+01-1.17775E-03-5.92493E-01-7.86888E-14-9.80743E-14
 -1     10025 1.78160E-01 7.98696E+01-9.55105E-04-9.33765E-01 1.48229E-13-3.88439E-14
 -1     10026 8.83641E-02 7.95800E+01-1.46327E-04-8.65529E-01 2.87669E-13-2.43625E-14
 -1     10027 2.95215E-01 8.06546E+01-5.27206E-04-1.12945E+00 3.07970E-13 1.68122E-13
 -1     10028 1.58271E-01 8.03663E+01 1.45689E-05-1.08597E+00 1.31404E-13-3.40006E-15
 -1     10029 4.24494E-01 8.14157E+01-1.04956E-04-1.31371E+00 2.65025E-13-2.63997E-13
 -1     10030 2.36320E-01 8.11308E+01 1.75285E-04-1.27976E+00-5.60489E-14-3.17801E-15
 -1     10031 5.55829E-01 8.21717E+01 3.60001E-04-1.50240E+00-2.97894E-13-1.97273E-14
 -1     10032 3.12587E-01 8.18887E+01 4.03951E-04-1.46511E+00-2.31003E-13-5.96259E-14
 -1     10033 6.76808E-01 8.29425E+01 9.03075E-04-1.70654E+00 1.69913E-13-2.54241E-14
 -1     10034 3.74789E-01 8.26570E+01 7.45892E-04-1.65416E+00-1.09626E-13-2.11178E-13
 -1     10035 7.71148E-01 8.37510E+01 1.56413E-03-1.93279E+00 1.74281E-13 3.03021E-14
 -1     10036 4.06989E-01 8.34546E+01 1.26178E-03-1.85369E+00 3.72619E-15 1.81667E-13
 -1     10037 8.16424E-01 8.46238E+01 2.38771E-03-2.18306E+00 2.75571E-13-3.28626E-14
 -1     10038 3.87843E-01 8.43037E+01 2.03968E-03-2.06489E+00 3.19036E-13-1.82090E-13
 -1     10039 7.80931E-01 8.55926E+01 3.41476E-03-2.45258E+00-2.43208E-13 1.11862E-13
 -1     10040 2.88253E-01 8.52303E+01 3.20605E-03-2.28177E+00-1.45516E-13 1.30132E-13
 -1     10041 6.19385E-01 8.66950E+01 4.66211E-03-2.72590E+00-1.33782E-14-1.70489E-14
 -1     10042 6.83509E-02 8.62637E+01 4.93934E-03-2.48781E+00-1.25906E-13-5.67324E-14
 -1     10043 2.67278E-01 8.79731E+01 6.04712E-03-2.96923E+00-5.88973E-14-1.62093E-14
 -1     10044-3.26063E-01 8.74353E+01 7.48156E-03-2.64970E+00 2.66370E-13-8.00748E-15
 -1     10045-3.65541E-01 8.94684E+01 7.32301E-03-3.11697E+00-9.50628E-14-3.36328E-13
 -1     10046-9.66858E-01 8.87728E+01 1.11306E-02-2.70683E+00 5.28744E-14-8.01650E-14
 -1     10047-1.40085E+00 9.12044E+01 7.33834E-03-3.04879E+00 2.27540E-13-5.64063E-14
 -1     10048-1.94477E+00 9.02858E+01 1.62252E-02-2.55467E+00-1.74735E-13-2.61957E-13
 -1     10049-2.98668E+00 9.31472E+01 5.57787E-03-2.55427E+00 5.01571E-13 1.80246E-13
 -1     10050-3.36182E+00 9.19332E+01 2.28013E-02-2.02031E+00-2.88658E-15 1.68259E-13
 -1     10051-5.30847E+00 9.35563E+01 3.11432E-02-8.37399E-01-1.17295E-13 1.62051E-13
 -1     10052 4.16547E-04 7.85106E+01-7.60961E-03-4.41918E-01 5.76206E-14 8.64447E-14
 -1     10053 4.29360E-03 7.83187E+01-1.43744E-02-2.37778E-01 6.48689E-13 2.30056E-13
 -1     10054 2.76472E-02 7.93131E+01-9.02353E-04-7.59287E-01 3.73739E-13 2.02963E-14
 -1     10055 1.26325E-03 7.90781E+01-7.59155E-04-6.14623E-01 2.47115E-13-8.45435E-14
 -1     10056 6.08542E-02 8.00880E+01-3.40872E-04-1.00520E+00-4.18797E-14-9.91221E-14
 -1     10057 3.66812E-03 7.98283E+01 1.13592E-04-8.97988E-01 3.47229E-13-3.82402E-14
 -1     10058 9.79448E-02 8.08464E+01-6.38755E-05-1.20927E+00 1.74254E-13 2.42244E-13
 -1     10059 4.82679E-03 8.05725E+01 3.41067E-04-1.12237E+00-1.26640E-13-1.42553E-13
 -1     10060 1.30587E-01 8.15990E+01 2.53260E-04-1.39213E+00 3.52430E-13-1.73923E-13
 -1     10061-1.77198E-03 8.13158E+01 6.07549E-04-1.31148E+00 1.04552E-14 3.46972E-13
 -1     10062 1.47635E-01 8.23585E+01 6.36445E-04-1.56731E+00 7.85535E-14 8.60423E-16
 -1     10063-2.55580E-02 8.20662E+01 9.73966E-04-1.48089E+00 1.60569E-13-2.06168E-13
 -1     10064 1.34484E-01 8.31395E+01 1.09930E-03-1.74221E+00 1.30833E-13-7.26016E-14
 -1     10065-7.94163E-02 8.28345E+01 1.48033E-03-1.63925E+00 2.64892E-13-5.19029E-14
 -1     10066 7.18056E-02 8.39594E+01 1.65415E-03-1.91822E+00 1.03043E-13 2.77708E-13
 -1     10067-1.80470E-01 8.36335E+01 2.18029E-03-1.78859E+00 1.01832E-13 3.26544E-14
 -1     10068-6.61528E-02 8.48377E+01 2.30419E-03-2.08956E+00-1.96329E-13-6.26582E-14
 -1     10069-3.51174E-01 8.44782E+01 3.14618E-03-1.92361E+00-3.70329E-13-1.45689E-13
 -1     10070-3.13705E-01 8.57960E+01 3.02470E-03-2.24081E+00 6.01519E-13 1.50206E-13
 -1     10071-6.20628E-01 8.53847E+01 4.47088E-03-2.02979E+00 1.27939E-13 3.06977E-13
 -1     10072-7.16091E-01 8.68554E+01 3.72777E-03-2.34218E+00-1.53696E-13-4.85445E-14
 -1     10073-1.02582E+00 8.63677E+01 6.26495E-03-2.07974E+00-3.19605E-13-3.15657E-13
 -1     10074-1.33147E+00 8.80319E+01 4.17764E-03-2.34193E+00 2.65149E-13 1.40214E-13
 -1     10075-1.61220E+00 8.74361E+01 8.64345E-03-2.02751E+00-1.49436E-13 3.41241E-13
 -1     10076-2.23089E+00 8.93244E+01 3.87663E-03-2.15470E+00 1.46355E-13-4.07138E-13
 -1     10077-2.43211E+00 8.85831E+01 1.16679E-02-1.80026E+00 9.36473E-14-2.03242E-13
 -1     10078-3.49252E+00 9.06908E+01 1.74951E-03-1.64552E+00-5.11813E-14-8.56073E-14
 -1     10079-3.53825E+00 8.97676E+01 1.53276E-02-1.28772E+00 2.05710E-13-2.55374E-13
 -1     10080-5.18266E+00 9.20020E+01-4.07671E-03-6.12225E-01-9.49241E-14 1.33199E-13
 -1     10081-4.96821E+00 9.08800E+01 1.89337E-02-3.31736E-01 7.66998E-13 8.91578E-14
 -1     10082-6.70515E+00 9.16847E+01 2.23327E-02 1.27138E+00 9.32587E-15-7.16788E-14
 -1     10083-9.61415E-03 7.88850E+01-5.13334E-03-4.42887E-01 2.40738E-13-1.09406E-13
 -1     10084-2.33083E-02 7.95945E+01-4.63142E-05-7.62470E-01-2.62358E-13-7.13388E-14
 -1     10085-4.84704E-02 8.03107E+01 2.24838E-04-1.00740E+00 3.03109E-13 5.11119E-14
 -1     10086-8.49411E-02 8.10341E+01 3.34561E-04-1.20416E+00-1.67668E-13 4.27505E-14
 -1     10087-1.39504E-01 8.17671E+01 5.18529E-04-1.37033E+00-5.28704E-13-1.69656E-14
 -1     10088-2.22749E-01 8.25156E+01 7.79143E-04-1.51601E+00-2.08385E-13 7.26502E-14
 -1     10089-3.49230E-01 8.32877E+01 1.10590E-03-1.64444E+00-9.49935E-14-1.59060E-13
 -1     10090-5.38070E-01 8.40935E+01 1.48114E-03-1.75168E+00-2.00420E-13 2.63817E-14
 -1     10091-8.13744E-01 8.49437E+01 1.86705E-03-1.82532E+00 9.37930E-14-5.80959E-14
 -1     10092-1.20674E+00 8.58470E+01 2.18252E-03-1.84193E+00-2.62276E-13 1.34316E-13
 -1     10093-1.75359E+00 8.68068E+01 2.26601E-03-1.76300E+00 5.27668E-13 1.33355E-13
 -1     10094-2.49525E+00 8.78127E+01 1.80573E-03-1.52918E+00-6.25777E-13 1.91598E-13
 -1     10095-3.47175E+00 8.88269E+01 2.63304E-04-1.05322E+00 1.28314E-13-2.71723E-13
 -1     10096-4.70956E+00 8.97603E+01-3.19800E-03-2.13496E-01 6.79318E-14-7.28584E-14
 -1     10097-6.19969E+00 9.04337E+01-1.06081E-02 1.14617E+00-1.84575E-13 1.38223E-14
 -1     10098-1.90836E-02 7.94102E+01 1.31450E-04-4.04427E-01 8.16118E-14-1.34285E-13
 -1     10099-8.21784E-02 7.99874E+01 2.82319E-03-6.93440E-01-1.39299E-13-1.65404E-13
 -1     10100-1.76821E-01 8.06140E+01 2.80937E-03-9.10616E-01-1.45545E-13 6.73038E-14
 -1     10101-2.98837E-01 8.12760E+01 3.12105E-03-1.07529E+00 1.04678E-13 3.25739E-13
 -1     10102-4.51405E-01 8.19643E+01 3.84974E-03-1.19889E+00 2.70540E-13 3.77563E-14
 -1     10103-6.41990E-01 8.26745E+01 4.94663E-03-1.28581E+00-2.79124E-13-7.49522E-14
 -1     10104-8.81747E-01 8.34042E+01 6.36634E-03-1.33350E+00 2.92260E-13-1.17096E-13
 -1     10105-1.18511E+00 8.41520E+01 8.04020E-03-1.33207E+00 1.75540E-13 1.41071E-13
 -1     10106-1.56918E+00 8.49145E+01 9.83700E-03-1.26326E+00-8.64222E-14-1.47696E-13
 -1     10107-2.05253E+00 8.56825E+01 1.15001E-02-1.09881E+00 2.99386E-13 1.29954E-13
 -1     10108-2.65280E+00 8.64360E+01 1.25557E-02-7.98541E-01 1.01251E-13-2.03157E-13
 -1     10109-3.38215E+00 8.71350E+01 1.21868E-02-3.08673E-01-6.32445E-14 2.95289E-13
 -1     10110-4.23925E+00 8.77082E+01 9.12340E-03 4.38136E-01-1.76838E-14-2.83789E-13
 -1     10111-5.19657E+00 8.80359E+01 1.47395E-03 1.51811E+00 1.14218E-13-1.57619E-13
 -1     10112-6.18138E+00 8.79326E+01-1.25790E-02 3.00152E+00-5.86441E-14 2.00156E-13
 -1     10113-2.38210E-02 7.97141E+01 2.51432E-03-3.49999E-01-1.06645E-13-3.96721E-13
 -1     10114-1.10638E-01 8.02135E+01 3.89227E-03-6.01423E-01-2.03970E-13-4.17114E-14
 -1     10115-2.38332E-01 8.07823E+01 3.49387E-03-7.87435E-01-5.76882E-15 1.00890E-13
 -1     10116-4.00027E-01 8.13987E+01 3.50111E-03-9.21608E-01 2.08296E-13-1.22914E-13
 -1     10117-5.96021E-01 8.20471E+01 3.92237E-03-1.01089E+00-1.21225E-13 1.57088E-13
 -1     10118-8.30790E-01 8.27165E+01 4.66072E-03-1.05601E+00-1.31733E-13 2.74893E-14
 -1     10119-1.11200E+00 8.33981E+01 5.61510E-03-1.05145E+00 1.15871E-14 1.94006E-13
 -1     10120-1.44952E+00 8.40834E+01 6.65021E-03-9.85156E-01-2.32123E-14-4.75887E-14
 -1     10121-1.85416E+00 8.47608E+01 7.56128E-03-8.37928E-01 1.84367E-13-1.00257E-13
 -1     10122-2.33568E+00 8.54120E+01 8.02484E-03-5.82736E-01-2.71016E-13-8.31366E-14
 -1     10123-2.89969E+00 8.60068E+01 7.54184E-03-1.84312E-01-2.01079E-13 7.69915E-14
 -1     10124-3.54270E+00 8.64959E+01 5.38135E-03 4.00161E-01 9.72174E-14-9.60438E-14
 -1     10125-4.24483E+00 8.68026E+01 5.87935E-04 1.21779E+00 2.18036E-13-6.21551E-14
 -1     10126-4.96003E+00 8.68126E+01-7.92623E-03 2.31186E+00 9.83831E-14 3.79335E-13
 -1     10127-5.60447E+00 8.63677E+01-2.08663E-02 3.70533E+00 1.97412E-14-2.69590E-13
 -1     10128-2.69321E-02 7.99697E+01 4.23772E-03-2.82352E-01 3.17957E-13-1.78360E-13
 -1     10129-1.29881E-01 8.04028E+01 4.58083E-03-4.86788E-01-4.02464E-13-2.31470E-13
 -1     10130-2.79574E-01 8.09185E+01 3.84199E-03-6.35356E-01 2.35626E-13 7.25938E-14
 -1     10131-4.66636E-01 8.14892E+01 3.54214E-03-7.35677E-01 3.53623E-14-3.30040E-14
 -1     10132-6.88409E-01 8.20936E+01 3.63167E-03-7.90232E-01-1.55413E-13 3.34438E-13
 -1     10133-9.46127E-01 8.27152E+01 3.98050E-03-7.96442E-01-1.87611E-13-2.18640E-13
 -1     10134-1.24363E+00 8.33399E+01 4.45090E-03-7.46589E-01-4.04494E-14-2.15175E-14
 -1     10135-1.58603E+00 8.39530E+01 4.86973E-03-6.27693E-01 5.97933E-14 1.41920E-13
 -1     10136-1.97799E+00 8.45368E+01 5.00330E-03-4.21394E-01 2.46722E-13 3.14913E-14
 -1     10137-2.42152E+00 8.50668E+01 4.52754E-03-1.04086E-01 2.53503E-13-1.09850E-13
 -1     10138-2.91270E+00 8.55074E+01 3.00596E-03 3.52265E-01 3.10620E-13-7.39092E-14
 -1     10139-3.43734E+00 8.58066E+01-1.09321E-04 9.77871E-01-1.76401E-13-5.25855E-14
 -1     10140-3.96544E+00 8.58912E+01-5.41020E-03 1.80028E+00 1.10354E-13 2.32078E-13
 -1     10141-4.44494E+00 8.56624E+01-1.33548E-02 2.83543E+00-2.68500E-14-3.11541E-13
 -1     10142-4.79666E+00 8.49962E+01-2.38689E-02 4.07313E+00-1.02480E-13-9.62945E-14
 -1     10143-2.84853E-02 8.01685E+01 5.28539E-03-2.06599E-01-5.82303E-15-6.89683E-14
 -1     10144-1.40072E-01 8.05495E+01 4.89614E-03-3.58445E-01 1.09173E-13-4.91066E-13
 -1     10145-3.00903E-01 8.10196E+01 3.87896E-03-4.66511E-01-1.99856E-13 3.79289E-13
 -1     10146-4.99444E-01 8.15471E+01 3.29876E-03-5.32616E-01-1.85523E-13-5.85434E-14
 -1     10147-7.30303E-01 8.21066E+01 3.07291E-03-5.55014E-01-4.69145E-13-1.39082E-13
 -1     10148-9.91598E-01 8.26772E+01 3.05471E-03-5.28242E-01-1.31364E-13 2.73694E-13
 -1     10149-1.28354E+00 8.32404E+01 3.08957E-03-4.43047E-01-3.98405E-14-1.69888E-13
 -1     10150-1.60689E+00 8.37773E+01 2.99311E-03-2.86453E-01-3.23886E-14 1.52742E-13
 -1     10151-1.96118E+00 8.42663E+01 2.53778E-03-4.20515E-02 3.57116E-13-2.41033E-14
 -1     10152-2.34244E+00 8.46794E+01 1.44150E-03 3.09249E-01 2.70678E-13 9.06594E-15
 -1     10153-2.74038E+00 8.49798E+01-6.28658E-04 7.87642E-01-8.80494E-14-7.38220E-14
 -1     10154-3.13502E+00 8.51180E+01-4.02228E-03 1.41142E+00-6.09799E-14 2.15532E-13
 -1     10155-3.49307E+00 8.50296E+01-9.01528E-03 2.19184E+00 4.98877E-13-5.58217E-14
 -1     10156-3.76494E+00 8.46350E+01-1.56354E-02 3.12505E+00-2.85796E-14-1.00555E-13
 -1     10157-3.88404E+00 8.38443E+01-2.33905E-02 4.18097E+00 1.22684E-13 1.23082E-13
 -1     10158-2.86406E-02 8.03061E+01 5.67983E-03-1.27582E-01 1.62077E-13-2.59399E-13
 -1     10159-1.41920E-01 8.06510E+01 4.86478E-03-2.24879E-01 1.27801E-14 2.54224E-15
 -1     10160-3.03838E-01 8.10854E+01 3.64251E-03-2.92371E-01 9.90982E-14 1.40145E-13
 -1     10161-5.01145E-01 8.15749E+01 2.82993E-03-3.26468E-01 1.59819E-13-3.93522E-14
 -1     10162-7.26151E-01 8.20912E+01 2.33485E-03-3.21546E-01 9.93671E-14-1.20683E-13
 -1     10163-9.74293E-01 8.26108E+01 2.00877E-03-2.69660E-01 4.05358E-13 1.46980E-13
 -1     10164-1.24271E+00 8.31122E+01 1.69672E-03-1.60505E-01-3.19213E-14-3.47729E-13
 -1     10165-1.52868E+00 8.35738E+01 1.22274E-03 1.83463E-02-5.25672E-13 4.59338E-13
 -1     10166-1.82792E+00 8.39720E+01 3.87115E-04 2.80870E-01-2.38683E-13 3.46289E-13
 -1     10167-2.13256E+00 8.42784E+01-1.03137E-03 6.41487E-01-4.53869E-13-5.31636E-13
 -1     10168-2.42891E+00 8.44577E+01-3.25658E-03 1.11314E+00-1.51215E-13-3.49243E-15
 -1     10169-2.69518E+00 8.44661E+01-6.46926E-03 1.70421E+00 2.62815E-14 9.40133E-14
 -1     10170-2.89955E+00 8.42505E+01-1.07216E-02 2.41383E+00 1.87077E-14-4.33629E-14
 -1     10171-2.99947E+00 8.37511E+01-1.58045E-02 3.22561E+00-1.83445E-13 5.46872E-14
 -1     10172-2.94350E+00 8.29065E+01-2.10785E-02 4.09983E+00-1.66597E-13-5.74957E-14
 -1     10173-2.76146E-02 8.03817E+01 5.47181E-03-4.96324E-02-1.00223E-13 2.04858E-14
 -1     10174-1.36476E-01 8.07079E+01 4.52553E-03-9.37352E-02 4.23841E-13-2.13832E-13
 -1     10175-2.90619E-01 8.11180E+01 3.17517E-03-1.23227E-01 1.26852E-13 2.91796E-13
 -1     10176-4.75583E-01 8.15767E+01 2.19140E-03-1.29633E-01-1.67466E-15-3.91002E-13
 -1     10177-6.81946E-01 8.20544E+01 1.49247E-03-1.03829E-01-1.39002E-13 3.29606E-13
 -1     10178-9.03097E-01 8.25259E+01 9.39123E-04-3.57042E-02-3.10809E-14 5.13027E-14
 -1     10179-1.13388E+00 8.29681E+01 3.87302E-04 8.58156E-02 4.75842E-14-2.88957E-13
 -1     10180-1.36916E+00 8.33587E+01-3.19048E-04 2.72416E-01 1.96850E-13 1.80113E-13
 -1     10181-1.60226E+00 8.36738E+01-1.34266E-03 5.35667E-01 3.15788E-13-4.92781E-14
 -1     10182-1.82332E+00 8.38865E+01-2.84258E-03 8.85786E-01-2.45859E-13 5.87663E-14
 -1     10183-2.01770E+00 8.39651E+01-4.94936E-03 1.32973E+00 1.30402E-13 6.84244E-14
 -1     10184-2.16459E+00 8.38732E+01-7.72102E-03 1.86839E+00-4.91595E-14-2.41611E-13
 -1     10185-2.23636E+00 8.35695E+01-1.10757E-02 2.49291E+00 1.30241E-13-3.51802E-15
 -1     10186-2.19926E+00 8.30115E+01-1.47055E-02 3.18003E+00 8.24991E-14 3.46341E-13
 -1     10187-2.01633E+00 8.21611E+01-1.79906E-02 3.88746E+00-3.24801E-14-4.04588E-13
 -1     10188-2.56464E-02 8.03981E+01 4.72693E-03 2.35690E-02-2.90035E-13-4.70184E-14
 -1     10189-1.24939E-01 8.07232E+01 3.92095E-03 2.84074E-02-7.49378E-14-1.75618E-13
 -1     10190-2.63804E-01 8.11217E+01 2.51732E-03 3.20715E-02-4.14571E-13 2.22953E-13
 -1     10191-4.27058E-01 8.15585E+01 1.42939E-03 4.73663E-02-3.84871E-13 1.05996E-13
 -1     10192-6.04192E-01 8.20038E+01 6.01497E-04 8.65724E-02 1.76860E-13-1.39266E-13
 -1     10193-7.87275E-01 8.24321E+01-8.98081E-05 1.61753E-01 2.85412E-13-1.45047E-13
 -1     10194-9.69747E-01 8.28202E+01-7.71917E-04 2.84658E-01-2.63445E-14 1.76665E-13
 -1     10195-1.14512E+00 8.31462E+01-1.57674E-03 4.66306E-01-2.95135E-14-1.40662E-13
 -1     10196-1.30567E+00 8.33876E+01-2.63021E-03 7.16211E-01-5.55145E-13 4.06059E-13
 -1     10197-1.44115E+00 8.35203E+01-4.03813E-03 1.04120E+00-2.64027E-13-1.41730E-13
 -1     10198-1.53771E+00 8.35176E+01-5.86169E-03 1.44372E+00 5.38384E-14-2.01716E-13
 -1     10199-1.57725E+00 8.33507E+01-8.08165E-03 1.91956E+00-2.05728E-13-3.07151E-13
 -1     10200-1.53753E+00 8.29894E+01-1.05519E-02 2.45517E+00-1.38506E-13 3.65615E-13
 -1     10201-1.39355E+00 8.24059E+01-1.29517E-02 3.02464E+00-1.41651E-13-7.29920E-14
 -1     10202-1.12075E+00 8.15793E+01-1.47535E-02 3.58722E+00 3.74480E-13 6.19071E-14
 -1     10203-2.29681E-02 8.03608E+01 3.51536E-03 8.90237E-02 5.76412E-14-2.21590E-13
 -1     10204-1.08502E-01 8.07025E+01 3.09191E-03 1.36095E-01-4.13947E-14-2.08321E-13
 -1     10205-2.25919E-01 8.11024E+01 1.70334E-03 1.66161E-01 5.32410E-13 2.01423E-13
 -1     10206-3.59762E-01 8.15272E+01 5.78386E-04 1.95859E-01 1.73934E-14-6.32662E-14
 -1     10207-4.99082E-01 8.19476E+01-3.01400E-04 2.40357E-01-2.19027E-13 1.06492E-13
 -1     10208-6.35395E-01 8.23390E+01-1.04152E-03 3.13567E-01 1.06336E-14-8.74622E-14
 -1     10209-7.61614E-01 8.26792E+01-1.75182E-03 4.27969E-01-2.32997E-14 1.74675E-13
 -1     10210-8.70924E-01 8.29479E+01-2.54138E-03 5.94156E-01 2.30854E-13-2.42068E-14
 -1     10211-9.55689E-01 8.31252E+01-3.50508E-03 8.20110E-01-6.79093E-13-9.06111E-15
 -1     10212-1.00649E+00 8.31907E+01-4.70871E-03 1.11017E+00-2.32253E-13-6.20757E-14
 -1     10213-1.01142E+00 8.31234E+01-6.16807E-03 1.46368E+00 6.60796E-13-7.69987E-14
 -1     10214-9.55948E-01 8.29017E+01-7.82294E-03 1.87333E+00-2.85856E-13 3.53141E-13
 -1     10215-8.23402E-01 8.25054E+01-9.50923E-03 2.32335E+00-1.79134E-13-2.54565E-13
 -1     10216-5.96631E-01 8.19180E+01-1.09378E-02 2.78781E+00-3.35810E-13-2.15265E-13
 -1     10217-2.60857E-01 8.11314E+01-1.16934E-02 3.22969E+00 6.91842E-14-3.94459E-14
 -1     10218-1.97847E-02 8.02776E+01 1.90299E-03 1.44374E-01 1.41050E-14 3.07870E-14
 -1     10219-8.82255E-02 8.06529E+01 2.07297E-03 2.24922E-01 4.73488E-14 7.40293E-14
 -1     10220-1.79192E-01 8.10677E+01 7.59086E-04 2.73037E-01 3.01226E-13 3.58637E-14
 -1     10221-2.77340E-01 8.14905E+01-3.39069E-04 3.08805E-01-6.60151E-13-4.49386E-13
 -1     10222-3.71902E-01 8.18940E+01-1.19589E-03 3.50121E-01 1.90233E-13 5.44448E-13
 -1     10223-4.54588E-01 8.22551E+01-1.90066E-03 4.12751E-01-1.71222E-13-1.10684E-14
 -1     10224-5.18623E-01 8.25539E+01-2.54875E-03 5.10055E-01-2.93306E-13-4.75917E-13
 -1     10225-5.57771E-01 8.27725E+01-3.23135E-03 6.52527E-01 2.47083E-13 1.78847E-13
 -1     10226-5.65412E-01 8.28945E+01-4.02066E-03 8.47167E-01 3.51130E-13 4.00650E-14
 -1     10227-5.33805E-01 8.29039E+01-4.95601E-03 1.09667E+00 2.70083E-13-3.92003E-14
 -1     10228-4.53677E-01 8.27852E+01-6.02746E-03 1.39845E+00-7.75647E-14 3.68750E-13
 -1     10229-3.14297E-01 8.25238E+01-7.15912E-03 1.74358E+00 4.93316E-13 2.88268E-14
 -1     10230-1.04212E-01 8.21077E+01-8.19510E-03 2.11575E+00-1.52965E-13-1.65826E-13
 -1     10231 1.87208E-01 8.15295E+01-8.89519E-03 2.49052E+00 6.53106E-14-1.88750E-13
 -1     10232 5.67367E-01 8.07895E+01-8.94866E-03 2.83537E+00 4.61967E-13 3.36146E-14
 -1     10233-1.62593E-02 8.01584E+01-5.53110E-05 1.87806E-01-4.05755E-13 1.23850E-13
 -1     10234-6.49543E-02 8.05835E+01 8.89206E-04 2.91359E-01-1.65593E-13 2.37920E-13
 -1     10235-1.25370E-01 8.10260E+01-2.99228E-04 3.47796E-01 1.52290E-13-4.98677E-13
 -1     10236-1.82593E-01 8.14569E+01-1.31110E-03 3.80441E-01 2.75119E-13 4.04115E-13
 -1     10237-2.26624E-01 8.18512E+01-2.07375E-03 4.09885E-01 3.38405E-13-2.08784E-13
 -1     10238-2.50081E-01 8.21885E+01-2.66537E-03 4.53850E-01-3.25549E-13 1.92849E-13
 -1     10239-2.47284E-01 8.24516E+01-3.17285E-03 5.26781E-01 6.23794E-13-1.54549E-13
 -1     10240-2.13363E-01 8.26264E+01-3.67655E-03 6.39404E-01-6.76724E-14-2.69277E-13
 -1     10241-1.43441E-01 8.27003E+01-4.23498E-03 7.98221E-01 1.93645E-13 3.28414E-13
 -1     10242-3.20397E-02 8.26621E+01-4.87254E-03 1.00496E+00-1.97719E-13 5.88211E-14
 -1     10243 1.27184E-01 8.25017E+01-5.56779E-03 1.25598E+00 1.13508E-13-1.66392E-13
 -1     10244 3.41234E-01 8.22110E+01-6.24431E-03 1.54173E+00-1.34701E-13-9.93749E-14
 -1     10245 6.17021E-01 8.17844E+01-6.76625E-03 1.84633E+00-1.19887E-13 9.73696E-14
 -1     10246 9.60006E-01 8.12215E+01-6.94363E-03 2.14753E+00 8.93365E-14 6.12834E-14
 -1     10247 1.37229E+00 8.05285E+01-6.55163E-03 2.41730E+00 1.98615E-13 2.17299E-13
 -1     10248-1.25051E-02 8.00143E+01-2.32081E-03 2.17904E-01-6.99718E-14 9.39891E-14
 -1     10249-3.92546E-02 8.05047E+01-4.46118E-04 3.32506E-01-4.61907E-13 2.91711E-14
 -1     10250-6.55786E-02 8.09868E+01-1.46539E-03 3.86297E-01-3.88845E-13 9.10383E-15
 -1     10251-7.72610E-02 8.14350E+01-2.33448E-03 4.05847E-01 1.15181E-13 2.94148E-14
 -1     10252-6.56363E-02 8.18271E+01-2.93420E-03 4.14569E-01 3.28930E-13 1.87430E-13
 -1     10253-2.49199E-02 8.21459E+01-3.33982E-03 4.32320E-01-3.01283E-13-1.97643E-13
 -1     10254 4.87365E-02 8.23781E+01-3.63804E-03 4.74857E-01 1.08827E-13 4.40464E-14
 -1     10255 1.58144E-01 8.25136E+01-3.90655E-03 5.53414E-01-1.33214E-13 2.16892E-14
 -1     10256 3.05864E-01 8.25445E+01-4.19841E-03 6.74351E-01 1.78592E-13 6.09599E-14
 -1     10257 4.94749E-01 8.24644E+01-4.53174E-03 8.38877E-01 1.89563E-13-2.18470E-13
 -1     10258 7.28136E-01 8.22687E+01-4.88236E-03 1.04285E+00 2.70724E-13 3.40131E-14
 -1     10259 1.00960E+00 8.19547E+01-5.18052E-03 1.27665E+00 8.93938E-14-1.98423E-13
 -1     10260 1.34228E+00 8.15224E+01-5.31301E-03 1.52530E+00 6.06527E-13 1.35577E-14
 -1     10261 1.72771E+00 8.09763E+01-5.13321E-03 1.76885E+00 1.57978E-13 6.99900E-14
 -1     10262 2.16436E+00 8.03266E+01-4.48125E-03 1.98330E+00 6.04464E-14 2.37296E-13
 -1     10263-8.58053E-03 7.98582E+01-4.87494E-03 2.33497E-01-9.89009E-15 1.13312E-14
 -1     10264-1.13731E-02 8.04279E+01-1.93346E-03 3.45792E-01 3.35259E-13 3.79263E-14
 -1     10265-2.27908E-04 8.09608E+01-2.74316E-03 3.84754E-01-2.94856E-13-1.35151E-13
 -1     10266 3.81235E-02 8.14341E+01-3.41217E-03 3.80461E-01-5.17650E-13-1.81341E-13
 -1     10267 1.10440E-01 8.18294E+01-3.77903E-03 3.59442E-01-3.43370E-13 2.43357E-13
 -1     10268 2.20198E-01 8.21334E+01-3.92738E-03 3.43944E-01 9.05769E-14 1.65814E-14
 -1     10269 3.68693E-01 8.23374E+01-3.95400E-03 3.51244E-01-2.51187E-13 6.31439E-14
 -1     10270 5.56047E-01 8.24361E+01-3.94232E-03 3.93257E-01 2.85620E-13 1.45640E-13
 -1     10271 7.82050E-01 8.24266E+01-3.94674E-03 4.76376E-01-1.50014E-13-7.79437E-14
 -1     10272 1.04672E+00 8.23078E+01-3.98448E-03 6.01502E-01 4.26499E-14-2.86932E-14
 -1     10273 1.35045E+00 8.20799E+01-4.03250E-03 7.64206E-01-5.99751E-13 3.64234E-14
 -1     10274 1.69383E+00 8.17453E+01-4.02913E-03 9.55024E-01 4.87624E-13 8.91369E-14
 -1     10275 2.07697E+00 8.13084E+01-3.88067E-03 1.15993E+00 4.01700E-13 2.10637E-14
 -1     10276 2.49857E+00 8.07774E+01-3.47378E-03 1.36105E+00-2.62582E-13-2.72369E-14
 -1     10277 2.95481E+00 8.01650E+01-2.69424E-03 1.53776E+00 5.14259E-14-2.29075E-13
 -1     10278-4.48507E-03 7.97039E+01-7.72314E-03 2.33462E-01-7.08938E-15 4.95231E-13
 -1     10279 1.88041E-02 8.03661E+01-3.58891E-03 3.28646E-01 6.67856E-14-2.42166E-13
 -1     10280 7.10842E-02 8.09593E+01-4.14600E-03 3.39287E-01 3.06731E-13 7.83332E-14
 -1     10281 1.64391E-01 8.14640E+01-4.55055E-03 2.99557E-01 3.59722E-13-1.33131E-13
 -1     10282 3.02926E-01 8.18659E+01-4.60759E-03 2.39579E-01-3.63719E-14 2.02286E-14
 -1     10283 4.87072E-01 8.21565E+01-4.42420E-03 1.84308E-01 4.24757E-13 1.12754E-13
 -1     10284 7.14820E-01 8.23325E+01-4.11937E-03 1.52685E-01 4.61763E-13-3.88287E-13
 -1     10285 9.82995E-01 8.23943E+01-3.79048E-03 1.57325E-01-5.42622E-15 2.48204E-14
 -1     10286 1.28825E+00 8.23445E+01-3.49779E-03 2.04613E-01 2.37791E-13 5.19044E-13
 -1     10287 1.62764E+00 8.21871E+01-3.25945E-03 2.95077E-01-1.82026E-13-2.80493E-13
 -1     10288 1.99886E+00 8.19275E+01-3.05309E-03 4.23944E-01 1.87102E-13 2.90572E-13
 -1     10289 2.39996E+00 8.15722E+01-2.82227E-03 5.81801E-01 2.14552E-13-1.07367E-13
 -1     10290 2.82877E+00 8.11293E+01-2.48654E-03 7.55374E-01 3.33344E-14-2.63896E-13
 -1     10291 3.28214E+00 8.06097E+01-1.95495E-03 9.28456E-01 3.62663E-13-1.27663E-13
 -1     10292 3.75493E+00 8.00275E+01-1.14283E-03 1.08307E+00 9.13904E-14 4.22448E-13
 -1     10293-1.53535E-04 7.95667E+01-1.08994E-02 2.16527E-01-3.87617E-13-1.58918E-13
 -1     10294 5.18052E-02 8.03336E+01-5.44660E-03 2.78099E-01 3.80839E-13 5.31051E-14
 -1     10295 1.49700E-01 8.09950E+01-5.69666E-03 2.45406E-01-1.51515E-13 5.00659E-14
 -1     10296 3.03928E-01 8.15350E+01-5.75578E-03 1.57673E-01 2.53838E-13-1.65064E-13
 -1     10297 5.15312E-01 8.19439E+01-5.41082E-03 4.93113E-02-2.37718E-14-1.15184E-13
 -1     10298 7.80201E-01 8.22195E+01-4.81241E-03-5.16710E-02-9.17062E-14 2.27382E-13
 -1     10299 1.09244E+00 8.23648E+01-4.11580E-03-1.24646E-01-3.38252E-13-2.96823E-13
 -1     10300 1.44494E+00 8.23867E+01-3.43932E-03-1.56496E-01-1.45372E-13 3.25268E-13
 -1     10301 1.83090E+00 8.22939E+01-2.85041E-03-1.41161E-01-4.06473E-13-5.11157E-13
 -1     10302 2.24449E+00 8.20959E+01-2.36575E-03-7.88235E-02-3.89392E-13 2.96513E-13
 -1     10303 2.68093E+00 8.18026E+01-1.95911E-03 2.50687E-02 1.10396E-13 3.45399E-14
 -1     10304 3.13630E+00 8.14245E+01-1.57316E-03 1.60822E-01-2.48343E-13-3.41969E-13
 -1     10305 3.60690E+00 8.09725E+01-1.13275E-03 3.15533E-01-1.25384E-13 5.56523E-13
 -1     10306 4.08854E+00 8.04594E+01-5.59120E-04 4.74150E-01 1.45613E-13-2.00918E-13
 -1     10307 4.57564E+00 7.99001E+01 2.15587E-04 6.20630E-01 3.08188E-13 3.48445E-14
 -1     10308 4.55548E-03 7.94636E+01-1.44731E-02 1.81023E-01-1.70514E-13-5.20941E-13
 -1     10309 8.86637E-02 8.03465E+01-7.56231E-03 1.90328E-01-1.27855E-13 3.09829E-13
 -1     10310 2.38108E-01 8.10818E+01-7.42627E-03 9.74117E-02 1.34427E-13-4.51375E-14
 -1     10311 4.60993E-01 8.16578E+01-7.02849E-03-5.20114E-02 5.78114E-14-1.90672E-13
 -1     10312 7.53626E-01 8.20708E+01-6.16337E-03-2.18325E-01 9.08852E-13-3.09128E-14
 -1     10313 1.10712E+00 8.23260E+01-5.05214E-03-3.70151E-01 4.65183E-14 3.86356E-13
 -1     10314 1.51016E+00 8.24343E+01-3.90185E-03-4.85364E-01 3.81441E-13-1.13558E-13
 -1     10315 1.95116E+00 8.24101E+01-2.85593E-03-5.50860E-01-2.02807E-14 2.33051E-14
 -1     10316 2.41965E+00 8.22689E+01-1.98516E-03-5.61547E-01 9.12517E-14-3.13846E-14
 -1     10317 2.90701E+00 8.20258E+01-1.29704E-03-5.18962E-01 1.85751E-13 3.33665E-13
 -1     10318 3.40649E+00 8.16952E+01-7.52679E-04-4.29802E-01-2.94407E-13-4.40340E-13
 -1     10319 3.91282E+00 8.12907E+01-2.85159E-04-3.04547E-01 1.65147E-13 2.64326E-13
 -1     10320 4.42150E+00 8.08256E+01 1.83891E-04-1.56215E-01 3.67999E-13-2.65564E-13
 -1     10321 4.92805E+00 8.03138E+01 7.29968E-04 7.73958E-04-2.66294E-13 9.72077E-14
 -1     10322 5.42719E+00 7.97702E+01 1.41343E-03 1.51687E-01-3.00161E-13-9.21073E-14
 -1     10323 9.88199E-03 7.94136E+01-1.85595E-02 1.24579E-01 3.98257E-13-2.10228E-13
 -1     10324 1.31078E-01 8.04230E+01-1.00187E-02 6.00750E-02-1.34116E-14 1.22687E-13
 -1     10325 3.40294E-01 8.12353E+01-9.37192E-03-1.12342E-01-1.39205E-13-4.18797E-14
 -1     10326 6.42233E-01 8.18440E+01-8.35480E-03-3.38404E-01 2.38495E-13-1.45007E-13
 -1     10327 1.02702E+00 8.22534E+01-6.81172E-03-5.72160E-01-1.76177E-13 1.48359E-13
 -1     10328 1.47893E+00 8.24780E+01-5.07098E-03-7.78693E-01-2.43229E-13-9.39873E-14
 -1     10329 1.98031E+00 8.25389E+01-3.40658E-03-9.34945E-01-1.50583E-13-1.71477E-14
 -1     10330 2.51447E+00 8.24592E+01-1.98462E-03-1.02879E+00-3.73070E-14 1.73982E-13
 -1     10331 3.06722E+00 8.22617E+01-8.67066E-04-1.05717E+00 4.15251E-13-9.41703E-14
 -1     10332 3.62752E+00 8.19673E+01-3.74274E-05-1.02394E+00 6.15844E-14-1.59166E-13
 -1     10333 4.18729E+00 8.15943E+01 5.69136E-04-9.37835E-01 4.67491E-13 2.09871E-14
 -1     10334 4.74066E+00 8.11591E+01 1.03969E-03-8.10736E-01-8.31141E-14 1.14052E-13
 -1     10335 5.28315E+00 8.06767E+01 1.46408E-03-6.56291E-01-1.84443E-13 2.83673E-13
 -1     10336 5.81072E+00 8.01612E+01 1.92134E-03-4.88763E-01-2.57641E-13-2.96927E-14
 -1     10337 6.31898E+00 7.96272E+01 2.47035E-03-3.22070E-01 3.35338E-13 2.22811E-13
 -1     10338 1.62068E-02 7.94392E+01-2.33381E-02 4.37116E-02 2.14876E-13 2.18998E-13
 -1     10339 1.81690E-01 8.05845E+01-1.29326E-02-1.20152E-01 2.27719E-13-1.67161E-13
 -1     10340 4.62333E-01 8.14731E+01-1.15707E-02-3.94404E-01-2.29336E-13 3.69951E-13
 -1     10341 8.57526E-01 8.21057E+01-9.69034E-03-7.13365E-01 5.93119E-14-2.01689E-13
 -1     10342 1.34872E+00 8.24975E+01-7.25590E-03-1.02347E+00 1.87699E-13 1.48331E-13
 -1     10343 1.91114E+00 8.26759E+01-4.75004E-03-1.28646E+00-1.03634E-13-2.07799E-13
 -1     10344 2.51948E+00 8.26743E+01-2.52309E-03-1.47956E+00-2.24185E-13-1.76196E-14
 -1     10345 3.15143E+00 8.25261E+01-7.47735E-04-1.59326E+00-2.47271E-13 1.35841E-13
 -1     10346 3.78937E+00 8.22621E+01 5.48463E-04-1.62809E+00-1.35331E-13-1.49073E-14
 -1     10347 4.42057E+00 8.19086E+01 1.42996E-03-1.59152E+00 3.40431E-13 1.97712E-13
 -1     10348 5.03649E+00 8.14877E+01 2.00515E-03-1.49527E+00 1.13522E-13-1.90088E-13
 -1     10349 5.63164E+00 8.10176E+01 2.39236E-03-1.35328E+00 2.23767E-13 1.85722E-13
 -1     10350 6.20241E+00 8.05139E+01 2.69937E-03-1.18027E+00 2.00673E-14-4.01678E-13
 -1     10351 6.74594E+00 7.99907E+01 3.01262E-03-9.90707E-01-7.24941E-14 2.27422E-13
 -1     10352 7.25928E+00 7.94612E+01 3.39204E-03-7.98029E-01 1.14499E-13-1.02777E-13
 -1     10353 2.41310E-02 7.95670E+01-2.90832E-02-6.67926E-02 3.10021E-13 2.18957E-13
 -1     10354 2.44584E-01 8.08561E+01-1.64654E-02-3.61216E-01 2.68761E-14-2.97283E-13
 -1     10355 6.13412E-01 8.18148E+01-1.40448E-02-7.63539E-01-7.72698E-14 1.43170E-13
 -1     10356 1.12137E+00 8.24548E+01-1.09306E-02-1.19277E+00-1.56493E-13 3.78864E-13
 -1     10357 1.73742E+00 8.28072E+01-7.32030E-03-1.58649E+00-1.28231E-13-1.29018E-13
 -1     10358 2.42486E+00 8.29167E+01-3.90603E-03-1.90418E+00 3.46055E-13-3.56656E-13
 -1     10359 3.14927E+00 8.28323E+01-1.10426E-03-2.12561E+00 1.52482E-14-4.49571E-14
 -1     10360 3.88269E+00 8.25994E+01 9.48248E-04-2.24640E+00-5.06158E-14 2.45802E-14
 -1     10361 4.60486E+00 8.22570E+01 2.30427E-03-2.27290E+00 2.08437E-13 8.25581E-14
 -1     10362 5.30258E+00 8.18365E+01 3.11051E-03-2.21775E+00-5.02792E-14 5.56230E-14
 -1     10363 5.96816E+00 8.13625E+01 3.53896E-03-2.09663E+00-8.76348E-14-1.97469E-13
 -1     10364 6.59766E+00 8.08539E+01 3.74819E-03-1.92611E+00-7.16899E-13 2.41487E-13
 -1     10365 7.18928E+00 8.03262E+01 3.86645E-03-1.72228E+00 3.49391E-14-1.37722E-13
 -1     10366 7.74205E+00 7.97923E+01 3.98720E-03-1.49998E+00 8.96175E-14-1.08200E-13
 -1     10367 8.25494E+00 7.92640E+01 4.17018E-03-1.27231E+00 5.13894E-14 2.07902E-13
 -1     10368 3.46229E-02 7.98305E+01-3.62138E-02-2.14838E-01 5.88255E-13-3.37223E-13
 -1     10369 3.26186E-01 8.12686E+01-2.08310E-02-6.79103E-01 7.43659E-14-2.44266E-13
 -1     10370 8.07576E-01 8.22830E+01-1.67672E-02-1.24057E+00-6.49186E-14 2.32505E-13
 -1     10371 1.45512E+00 8.29029E+01-1.18578E-02-1.79776E+00-2.37449E-14-1.72265E-13
 -1     10372 2.21950E+00 8.31832E+01-6.71069E-03-2.27883E+00-8.41237E-14-2.34354E-13
 -1     10373 3.04841E+00 8.31929E+01-2.27240E-03-2.64366E+00-8.61707E-13 3.21167E-13
 -1     10374 3.89723E+00 8.30000E+01 1.03361E-03-2.87863E+00-4.22613E-14-1.93337E-13
 -1     10375 4.73316E+00 8.26637E+01 3.19615E-03-2.98827E+00 1.84377E-13-2.17933E-13
 -1     10376 5.53505E+00 8.22305E+01 4.42129E-03-2.98750E+00-3.39135E-13 3.87101E-13
 -1     10377 6.29121E+00 8.17356E+01 4.98031E-03-2.89584E+00-2.65472E-13-1.32686E-13
 -1     10378 6.99653E+00 8.12044E+01 5.12576E-03-2.73381E+00 2.95500E-13 2.51608E-13
 -1     10379 7.64999E+00 8.06555E+01 5.05847E-03-2.52087E+00 8.59278E-14-3.10069E-13
 -1     10380 8.25255E+00 8.01027E+01 4.92271E-03-2.27451E+00-6.58258E-13 1.89887E-13
 -1     10381 8.80580E+00 7.95571E+01 4.81301E-03-2.00985E+00 1.66998E-13-1.36608E-13
 -1     10382 9.31101E+00 7.90285E+01 4.78357E-03-1.73956E+00 1.32856E-13-1.65344E-13
 -1     10383 4.93263E-02 8.02727E+01-4.53992E-02-4.12650E-01-2.18490E-13-1.23845E-13
 -1     10384 4.36935E-01 8.18600E+01-2.63051E-02-1.09773E+00-2.13371E-14 9.74845E-14
 -1     10385 1.06682E+00 8.29024E+01-1.95780E-02-1.85507E+00 2.43795E-13-1.42754E-13
 -1     10386 1.89062E+00 8.34585E+01-1.20365E-02-2.55620E+00 1.56774E-13-5.99486E-14
 -1     10387 2.83210E+00 8.36203E+01-4.94950E-03-3.12126E+00 1.65978E-14 1.24820E-13
 -1     10388 3.81930E+00 8.34896E+01 5.11393E-04-3.51647E+00-4.39815E-13-1.84646E-13
 -1     10389 4.79757E+00 8.31581E+01 4.08648E-03-3.74146E+00-9.51461E-14 1.42211E-13
 -1     10390 5.73179E+00 8.26983E+01 6.05224E-03-3.81488E+00 2.91368E-13 3.94386E-13
 -1     10391 6.60315E+00 8.21631E+01 6.86613E-03-3.76342E+00 2.63470E-13-1.95705E-13
 -1     10392 7.40429E+00 8.15886E+01 6.96286E-03-3.61496E+00-1.34538E-13-9.57394E-14
 -1     10393 8.13489E+00 8.09990E+01 6.67840E-03-3.39519E+00 1.16851E-13-6.62057E-14
 -1     10394 8.79823E+00 8.04104E+01 6.24378E-03-3.12632E+00-7.43086E-14 2.75810E-13
 -1     10395 9.39899E+00 7.98338E+01 5.80447E-03-2.82682E+00 4.14582E-13 2.06127E-13
 -1     10396 9.94176E+00 7.92776E+01 5.44361E-03-2.51170E+00-2.68813E-14-1.19890E-13
 -1     10397 1.04303E+01 7.87489E+01 5.20097E-03-2.19286E+00 4.53994E-13-2.63377E-14
 -1     10398 7.11122E-02 8.09516E+01-5.76736E-02-6.79639E-01 1.88308E-13 8.84015E-15
 -1     10399 5.94517E-01 8.26783E+01-3.31670E-02-1.65356E+00 3.77091E-13 9.77829E-14
 -1     10400 1.42651E+00 8.36989E+01-2.20203E-02-2.64910E+00-2.48628E-13-3.66179E-13
 -1     10401 2.47593E+00 8.41240E+01-1.06700E-02-3.50383E+00 1.56580E-13 4.14800E-13
 -1     10402 3.62738E+00 8.41029E+01-1.32037E-03-4.13640E+00-3.15650E-13-1.24529E-13
 -1     10403 4.78627E+00 8.37817E+01 4.87480E-03-4.53104E+00 7.06709E-13-2.34630E-13
 -1     10404 5.89127E+00 8.32785E+01 8.19748E-03-4.71098E+00-2.92162E-13 3.70403E-13
 -1     10405 6.91048E+00 8.26771E+01 9.47084E-03-4.71546E+00-1.95871E-13 2.35428E-14
 -1     10406 7.83252E+00 8.20322E+01 9.50491E-03-4.58580E+00-2.48593E-13 3.72280E-14
 -1     10407 8.65811E+00 8.13772E+01 8.90336E-03-4.35881E+00-2.64136E-13-3.74449E-14
 -1     10408 9.39400E+00 8.07319E+01 8.05662E-03-4.06485E+00-5.01498E-13-5.12014E-14
 -1     10409 1.00491E+01 8.01076E+01 7.19208E-03-3.72793E+00 3.96280E-13-2.96499E-13
 -1     10410 1.06324E+01 7.95114E+01 6.42958E-03-3.36662E+00-4.22128E-14 1.87988E-13
 -1     10411 1.11516E+01 7.89480E+01 5.82284E-03-2.99506E+00 5.18575E-13-1.26543E-13
 -1     10412 1.16129E+01 7.84215E+01 5.38629E-03-2.62384E+00 8.79609E-14-4.58778E-14
 -1     10413 1.05787E-01 8.19482E+01-7.49857E-02-1.04794E+00-1.25521E-13 1.13742E-13
 -1     10414 8.30704E-01 8.37845E+01-4.15693E-02-2.40382E+00 7.27508E-14-2.25334E-13
 -1     10415 1.94597E+00 8.46962E+01-2.27842E-02-3.68254E+00 3.35267E-13 2.54227E-13
 -1     10416 3.28464E+00 8.48882E+01-6.21589E-03-4.68426E+00-1.46577E-13-5.58407E-14
 -1     10417 4.67770E+00 8.45983E+01 5.17163E-03-5.34458E+00 1.86684E-13-7.40588E-14
 -1     10418 6.01033E+00 8.40292E+01 1.11768E-02-5.68721E+00-4.86135E-13-1.38702E-13
 -1     10419 7.22445E+00 8.33233E+01 1.33115E-02-5.77329E+00 1.88276E-13 1.78664E-13
 -1     10420 8.30125E+00 8.25684E+01 1.32052E-02-5.66894E+00 3.78409E-13 1.86533E-13
 -1     10421 9.24378E+00 8.18135E+01 1.20508E-02-5.43121E+00 4.78336E-13-2.53655E-13
 -1     10422 1.00648E+01 8.10836E+01 1.05501E-02-5.10459E+00 3.32352E-13 3.08889E-13
 -1     10423 1.07802E+01 8.03904E+01 9.06672E-03-4.72215E+00 3.66315E-13-6.56736E-14
 -1     10424 1.14050E+01 7.97385E+01 7.76628E-03-4.30788E+00-3.24567E-14-3.92957E-13
 -1     10425 1.19525E+01 7.91297E+01 6.70705E-03-3.87902E+00 1.37345E-13-9.62533E-15
 -1     10426 1.24334E+01 7.85648E+01 5.89387E-03-3.44785E+00 3.39884E-13 1.24852E-13
 -1     10427 1.28558E+01 7.80447E+01 5.30623E-03-3.02301E+00-1.27016E-14 1.59965E-13
 -1     10428 1.63921E-01 8.33813E+01-9.98811E-02-1.57323E+00 7.72923E-14 1.45411E-13
 -1     10429 1.20510E+00 8.52525E+01-5.09813E-02-3.44006E+00 1.25691E-13-8.19553E-14
 -1     10430 2.72526E+00 8.59041E+01-1.95753E-02-5.03832E+00-2.96124E-13-1.62453E-13
 -1     10431 4.42833E+00 8.57122E+01 3.48047E-03-6.14395E+00-7.41074E-15 9.80951E-14
 -1     10432 6.07989E+00 8.50475E+01 1.56032E-02-6.75413E+00-4.19734E-14 1.04999E-13
 -1     10433 7.56264E+00 8.41739E+01 1.94210E-02-6.96685E+00-3.78579E-13 7.08877E-14
 -1     10434 8.84334E+00 8.32451E+01 1.89291E-02-6.89696E+00-8.13342E-14-7.16658E-14
 -1     10435 9.93093E+00 8.23375E+01 1.66888E-02-6.64010E+00-4.06682E-13-6.48028E-14
 -1     10436 1.08503E+01 8.14833E+01 1.40317E-02-6.26599E+00 3.87503E-14 7.33889E-14
 -1     10437 1.16292E+01 8.06924E+01 1.15616E-02-5.82257E+00-2.50730E-13 1.16492E-13
 -1     10438 1.22929E+01 7.99651E+01 9.48254E-03-5.34199E+00 2.34663E-13-4.17572E-13
 -1     10439 1.28624E+01 7.92978E+01 7.82589E-03-4.84557E+00 2.73705E-14 4.43359E-13
 -1     10440 1.33543E+01 7.86863E+01 6.55506E-03-4.34748E+00 1.72397E-14-2.67410E-13
 -1     10441 1.37812E+01 7.81275E+01 5.61274E-03-3.85702E+00-2.95618E-13 2.43946E-13
 -1     10442 1.41526E+01 7.76192E+01 4.94006E-03-3.38020E+00-1.94823E-13-1.24328E-13
 -1     10443 2.79259E-01 8.54304E+01-1.39652E-01-2.36000E+00 1.41963E-13-1.62093E-14
 -1     10444 1.84473E+00 8.71790E+01-5.58791E-02-4.91616E+00 2.88831E-13-4.48530E-14
 -1     10445 3.94891E+00 8.73003E+01-3.56299E-03-6.82656E+00-4.60777E-13-8.34922E-14
 -1     10446 6.07341E+00 8.65083E+01 2.20932E-02-7.91756E+00-2.51826E-13 9.48408E-14
 -1     10447 7.95254E+00 8.53535E+01 2.98512E-02-8.34190E+00-5.93345E-14-2.05164E-13
 -1     10448 9.51427E+00 8.41385E+01 2.85226E-02-8.31975E+00 2.37206E-13 2.57423E-13
 -1     10449 1.07835E+01 8.29909E+01 2.38396E-02-8.02571E+00 2.59223E-13 9.22225E-14
 -1     10450 1.18125E+01 8.19516E+01 1.89713E-02-7.57693E+00 2.01072E-13-4.71278E-13
 -1     10451 1.26521E+01 8.10229E+01 1.48252E-02-7.04612E+00 1.83031E-13 4.60782E-13
 -1     10452 1.33445E+01 8.01942E+01 1.15645E-02-6.47710E+00-1.16684E-13-9.84672E-14
 -1     10453 1.39224E+01 7.94522E+01 9.09638E-03-5.89614E+00 1.75786E-13-5.80352E-15
 -1     10454 1.44104E+01 7.87848E+01 7.26467E-03-5.31895E+00-3.44065E-14 1.13709E-13
 -1     10455 1.48266E+01 7.81825E+01 5.92630E-03-4.75487E+00-2.95822E-13 2.15434E-13
 -1     10456 1.51844E+01 7.76385E+01 4.96481E-03-4.20935E+00 1.27461E-13-2.83688E-13
 -1     10457 1.54933E+01 7.71484E+01 4.28999E-03-3.68532E+00 2.41997E-13 2.19707E-13
 -1     10458 4.94003E-01 8.83825E+01-1.99874E-01-3.61700E+00 1.15047E-14-5.48256E-13
 -1     10459 2.99685E+00 8.95965E+01-5.55694E-02-7.07992E+00-9.76302E-14 7.84504E-13
 -1     10460 5.90528E+00 8.87530E+01 2.66659E-02-9.15061E+00-3.80251E-14-4.41831E-13
 -1     10461 8.44648E+00 8.71043E+01 5.23957E-02-9.97881E+00 2.77105E-13-1.44723E-13
 -1     10462 1.04156E+01 8.53796E+01 4.59575E-02-1.00211E+01-2.17285E-13 3.67711E-13
 -1     10463 1.19117E+01 8.38364E+01 3.53626E-02-9.64809E+00-4.96402E-13 1.21150E-13
 -1     10464 1.30517E+01 8.25142E+01 2.60272E-02-9.07411E+00-9.16003E-14-2.24276E-13
 -1     10465 1.39336E+01 8.13890E+01 1.88827E-02-8.41173E+00 2.13395E-13-1.73796E-13
 -1     10466 1.46294E+01 8.04249E+01 1.38310E-02-7.72012E+00 6.49480E-15-8.82757E-14
 -1     10467 1.51892E+01 7.95889E+01 1.02831E-02-7.02966E+00 1.39333E-13 9.08787E-14
 -1     10468 1.56481E+01 7.88553E+01 7.80229E-03-6.35588E+00-1.25150E-13-1.77291E-13
 -1     10469 1.60303E+01 7.82050E+01 6.06062E-03-5.70650E+00-9.92192E-14 3.28835E-13
 -1     10470 1.63531E+01 7.76243E+01 4.83698E-03-5.08503E+00-2.48610E-13-2.10843E-13
 -1     10471 1.66283E+01 7.71040E+01 3.98121E-03-4.49264E+00-2.38642E-13 1.92550E-13
 -1     10472 1.68645E+01 7.66383E+01 3.39052E-03-3.92914E+00-3.69215E-13 1.11217E-13
 -1     10473 1.24435E+00 9.27986E+01-2.63136E-01-5.82634E+00 1.46133E-14-1.49186E-14
 -1     10474 5.43868E+00 9.26845E+01 8.97687E-02-1.03775E+01-3.98778E-13-4.53387E-13
 -1     10475 9.13702E+00 8.99261E+01 9.51290E-02-1.20628E+01-4.20552E-13 3.04066E-13
 -1     10476 1.17570E+01 8.72036E+01 7.79137E-02-1.21494E+01 1.47327E-13 1.23175E-13
 -1     10477 1.35235E+01 8.49717E+01 5.58029E-02-1.15996E+01-1.17892E-14 2.66022E-13
 -1     10478 1.47353E+01 8.32004E+01 3.52246E-02-1.08003E+01 9.24261E-15-7.21328E-13
 -1     10479 1.56034E+01 8.17941E+01 2.32315E-02-9.93349E+00-2.49849E-13 3.19265E-13
 -1     10480 1.62462E+01 8.06505E+01 1.55719E-02-9.06939E+00-5.10262E-13 1.94443E-13
 -1     10481 1.67384E+01 7.96987E+01 1.08050E-02-8.23633E+00 2.78316E-13-3.52844E-13
 -1     10482 1.71260E+01 7.88887E+01 7.73011E-03-7.44434E+00 3.71789E-13 2.31227E-13
 -1     10483 1.74387E+01 7.81866E+01 5.70232E-03-6.69584E+00 8.64968E-14-4.00823E-13
 -1     10484 1.76962E+01 7.75695E+01 4.33661E-03-5.98997E+00 2.25403E-13 2.12317E-13
 -1     10485 1.79118E+01 7.70217E+01 3.40410E-03-5.32456E+00 1.06876E-13 2.65158E-13
 -1     10486 1.80943E+01 7.65332E+01 2.76441E-03-4.69692E+00-2.64355E-13-2.59553E-13
 -1     10487 1.82502E+01 7.60973E+01 2.32815E-03-4.10415E+00 8.68507E-14 7.78639E-14
 -1     10488 2.32003E+00 9.93340E+01-5.27615E-01-1.07135E+01 7.57450E-14-2.76695E-13
 -1     10489 1.00693E+01 9.49427E+01 9.31157E-02-1.47335E+01 2.06501E-13 5.18127E-13
 -1     10490 1.41914E+01 9.01895E+01 2.11344E-01-1.50657E+01 1.26302E-13-3.67331E-13
 -1     10491 1.60299E+01 8.65187E+01 8.21993E-02-1.40073E+01 6.22558E-14 1.26846E-13
 -1     10492 1.71575E+01 8.40403E+01 4.65447E-02-1.27835E+01-5.37161E-13 2.62394E-14
 -1     10493 1.78550E+01 8.22318E+01 2.54734E-02-1.15968E+01-1.62571E-13 2.56298E-13
 -1     10494 1.83278E+01 8.08583E+01 1.53635E-02-1.04964E+01 4.04780E-13-3.07063E-14
 -1     10495 1.86634E+01 7.97684E+01 9.88597E-03-9.48478E+00 2.11359E-13-3.10630E-13
 -1     10496 1.89123E+01 7.88736E+01 6.71278E-03-8.55410E+00 1.86427E-13-1.37839E-13
 -1     10497 1.91036E+01 7.81181E+01 4.78956E-03-7.69487E+00 2.47361E-13 2.02220E-13
 -1     10498 1.92547E+01 7.74663E+01 3.55913E-03-6.89833E+00-3.99181E-13 2.96058E-13
 -1     10499 1.93769E+01 7.68950E+01 2.74431E-03-6.15697E+00-2.48444E-13-7.71345E-15
 -1     10500 1.94777E+01 7.63888E+01 2.18898E-03-5.46447E+00-1.32495E-13-7.19916E-13
 -1     10501 1.95619E+01 7.59378E+01 1.80441E-03-4.81545E+00 3.45501E-13 2.74468E-13
 -1     10502 1.96331E+01 7.55357E+01 1.53666E-03-4.20519E+00 3.99193E-13 3.30827E-13
 -1     10503 1.71468E+01 1.11146E+02 2.50637E+00-2.24263E+01 1.67866E-13-5.38458E-15
 -1     10504 1.90400E+01 9.45179E+01 1.71220E-01-1.96958E+01 3.85719E-13 1.33532E-13
 -1     10505 2.04051E+01 8.87009E+01 1.31315E-01-1.68929E+01-2.69382E-13 2.57801E-13
 -1     10506 2.07600E+01 8.50280E+01 5.07158E-02-1.49078E+01-6.46205E-13-5.86545E-13
 -1     10507 2.09453E+01 8.26978E+01 2.76300E-02-1.32822E+01-2.88450E-14-3.18079E-14
 -1     10508 2.10254E+01 8.10435E+01 1.99273E-02-1.19026E+01 3.14609E-14 2.04916E-13
 -1     10509 2.10610E+01 7.97961E+01 1.51927E-02-1.06975E+01 1.02210E-13 3.94417E-13
 -1     10510 2.10738E+01 7.88095E+01 1.28206E-02-9.62455E+00-6.00561E-14 8.12267E-14
 -1     10511 2.10740E+01 7.79996E+01 1.11665E-02-8.65545E+00-3.82191E-13-2.65159E-13
 -1     10512 2.10671E+01 7.73153E+01 9.99613E-03-7.77081E+00 5.54973E-14 1.24080E-13
 -1     10513 2.10560E+01 7.67242E+01 9.07678E-03-6.95674E+00 1.93456E-14-1.84174E-13
 -1     10514 2.10425E+01 7.62053E+01 8.32455E-03-6.20287E+00 7.36564E-15-4.33879E-13
 -1     10515 2.10277E+01 7.57450E+01 7.68684E-03-5.50121E+00 3.91416E-13 5.05542E-13
 -1     10516 2.10126E+01 7.53344E+01 7.13622E-03-4.84529E+00 1.52860E-13-1.68894E-13
 -1     10517 2.09977E+01 7.49681E+01 6.65639E-03-4.22971E+00 5.83630E-13 1.70310E-13
 -1     10518-1.79541E-02 7.92420E+01-2.91201E-03-4.18256E-01 3.77337E-14-1.34216E-13
 -1     10519-6.49911E-03 7.91468E+01-8.52682E-03-2.10793E-01-1.61753E-13-1.13975E-13
 -1     10520-6.63547E-02 7.98619E+01 7.10442E-04-7.21070E-01-2.70823E-13-1.75963E-13
 -1     10521-5.35583E-02 7.96911E+01-1.81514E-04-5.48750E-01-1.16261E-13 2.97366E-14
 -1     10522-1.40660E-01 8.05178E+01 7.22137E-04-9.50213E-01 3.09787E-14 1.47146E-13
 -1     10523-1.32802E-01 8.02953E+01 3.72901E-04-8.00896E-01-6.09825E-14-1.00017E-13
 -1     10524-2.38169E-01 8.12003E+01 6.78140E-04-1.12754E+00 2.35812E-13 2.31933E-13
 -1     10525-2.40607E-01 8.09412E+01 6.29367E-04-9.91207E-01-4.40570E-13 2.58446E-13
 -1     10526-3.63333E-01 8.19042E+01 7.37088E-04-1.26666E+00 2.38677E-13-1.68227E-13
 -1     10527-3.77775E-01 8.16170E+01 9.42929E-04-1.13496E+00-3.09588E-13-9.27210E-14
 -1     10528-5.24878E-01 8.26281E+01 8.80364E-04-1.37386E+00 4.20953E-13-3.56312E-14
 -1     10529-5.49555E-01 8.23161E+01 1.35102E-03-1.24007E+00-1.55966E-13 5.32456E-14
 -1     10530-7.35407E-01 8.33734E+01 1.07669E-03-1.44841E+00 1.73375E-13-1.15755E-13
 -1     10531-7.65142E-01 8.30354E+01 1.86599E-03-1.30747E+00-4.16004E-14-2.43628E-13
 -1     10532-1.01130E+00 8.41423E+01 1.28393E-03-1.48211E+00-1.57905E-13-1.07914E-13
 -1     10533-1.03719E+00 8.37734E+01 2.50417E-03-1.33103E+00 1.31492E-13-1.82347E-13
 -1     10534-1.37252E+00 8.49360E+01 1.43386E-03-1.45815E+00 2.15258E-13 4.99947E-14
 -1     10535-1.38127E+00 8.45282E+01 3.28009E-03-1.29676E+00 2.40051E-14 4.68035E-13
 -1     10536-1.84187E+00 8.57512E+01 1.41023E-03-1.34909E+00 5.44356E-14 1.03220E-13
 -1     10537-1.81489E+00 8.52941E+01 4.19888E-03-1.18159E+00 1.74888E-13-3.90405E-13
 -1     10538-2.44320E+00 8.65749E+01 1.01690E-03-1.11421E+00-5.24969E-13 5.68989E-14
 -1     10539-2.35566E+00 8.60579E+01 5.24144E-03-9.51527E-01-1.61732E-13 2.78597E-13
 -1     10540-3.19735E+00 8.73763E+01-6.40951E-05-6.96454E-01 4.04357E-13 2.21957E-13
 -1     10541-3.01766E+00 8.67912E+01 6.34195E-03-5.59890E-01-3.17260E-13 6.57868E-14
 -1     10542-4.11435E+00 8.80931E+01-2.32035E-03-2.03544E-02 1.29827E-13-2.41029E-13
 -1     10543-3.80516E+00 8.74414E+01 7.34612E-03 5.36265E-02-2.80068E-13 2.69056E-15
 -1     10544-5.17968E+00 8.86131E+01-6.36963E-03 1.00624E+00-2.27679E-13-1.23519E-13
 -1     10545-4.70219E+00 8.79164E+01 7.98263E-03 9.60688E-01 1.65659E-13-9.55833E-14
 -1     10546-6.33279E+00 8.87478E+01-1.31234E-02 2.48112E+00-6.23446E-13 7.53564E-14
 -1     10547-5.65741E+00 8.80677E+01 7.77224E-03 2.23500E+00-1.80619E-13-1.73306E-13
 -1     10548-6.56398E+00 8.76719E+01 6.29438E-03 3.92974E+00-2.23432E-15 4.47295E-13
 -1     10549-2.44118E-02 7.95631E+01-1.09837E-03-3.73389E-01 1.43670E-13-3.77722E-13
 -1     10550-1.02466E-02 7.94973E+01-6.21929E-03-1.82147E-01 2.15866E-13 1.43269E-13
 -1     10551-1.00043E-01 8.01013E+01 1.28300E-03-6.44802E-01-1.74045E-13-1.80547E-13
 -1     10552-7.21576E-02 7.99517E+01 2.41968E-05-4.75774E-01 1.92133E-13-2.72473E-13
 -1     10553-2.12529E-01 8.06986E+01 1.06689E-03-8.47253E-01-3.44845E-13 8.70241E-14
 -1     10554-1.78917E-01 8.04896E+01 4.40329E-04-6.93813E-01-2.03412E-13-2.18922E-14
 -1     10555-3.56561E-01 8.13371E+01 8.68288E-04-9.97151E-01-3.27688E-13 2.26694E-13
 -1     10556-3.22591E-01 8.10851E+01 6.89160E-04-8.53524E-01 1.53497E-14-3.94823E-14
 -1     10557-5.33800E-01 8.20044E+01 7.83784E-04-1.10373E+00-3.87712E-13 3.44932E-14
 -1     10558-5.00869E-01 8.17192E+01 9.96231E-04-9.65101E-01-1.62840E-13 1.92665E-13
 -1     10559-7.50235E-01 8.26928E+01 7.77935E-04-1.16954E+00-4.86451E-14-1.02911E-13
 -1     10560-7.15996E-01 8.23791E+01 1.38772E-03-1.03240E+00-5.00103E-13-1.23249E-13
 -1     10561-1.01532E+00 8.33968E+01 8.03273E-04-1.19052E+00-1.67411E-13-6.62456E-14
 -1     10562-9.73889E-01 8.30552E+01 1.86287E-03-1.05305E+00 4.74829E-14 2.74593E-13
 -1     10563-1.34122E+00 8.41113E+01 8.00382E-04-1.15564E+00 5.00752E-13 1.97273E-14
 -1     10564-1.28313E+00 8.37394E+01 2.42171E-03-1.01834E+00-3.99484E-13-5.37625E-14
 -1     10565-1.74182E+00 8.48289E+01 6.84280E-04-1.04607E+00-7.45078E-13-6.37129E-14
 -1     10566-1.65383E+00 8.44220E+01 3.05674E-03-9.12717E-01 1.05319E-13 1.94428E-14
 -1     10567-2.23103E+00 8.55360E+01 3.28331E-04-8.34088E-01-7.13318E-14-1.02682E-13
 -1     10568-2.09591E+00 8.50891E+01 3.74495E-03-7.13198E-01-2.29216E-13-5.15525E-14
 -1     10569-2.81987E+00 8.62075E+01-4.55106E-04-4.81896E-01-3.74430E-13 4.63970E-14
 -1     10570-2.61660E+00 8.57175E+01 4.43455E-03-3.88766E-01-2.98175E-13-5.57865E-14
 -1     10571-3.51149E+00 8.67995E+01-1.92810E-03 5.87609E-02-4.76216E-14 9.58053E-14
 -1     10572-3.21630E+00 8.62689E+01 5.02869E-03 9.95082E-02 2.41349E-13 6.51805E-14
 -1     10573-4.29333E+00 8.72385E+01-4.43448E-03 8.44807E-01 1.48076E-14-2.55823E-13
 -1     10574-3.88256E+00 8.66824E+01 5.36147E-03 7.96595E-01 8.85819E-14-6.78693E-14
 -1     10575-5.12556E+00 8.74090E+01-8.30502E-03 1.93513E+00 2.56878E-13 1.30909E-13
 -1     10576-4.58164E+00 8.68644E+01 5.19302E-03 1.74795E+00-7.81250E-14 8.89497E-14
 -1     10577-5.92657E+00 8.71406E+01-1.37474E-02 3.37491E+00 5.16198E-13-9.07052E-14
 -1     10578-5.24838E+00 8.66801E+01 4.19472E-03 2.98751E+00 3.21472E-13 2.19380E-13
 -1     10579-5.77660E+00 8.59494E+01 2.09826E-03 4.51590E+00-4.25771E-14-2.50328E-13
 -1     10580-2.89928E-02 7.98425E+01 3.33540E-04-3.12961E-01 5.19029E-14-3.75727E-13
 -1     10581-1.28500E-02 7.97914E+01-4.39959E-03-1.46642E-01 3.55480E-14 6.94306E-14
 -1     10582-1.24430E-01 8.03088E+01 1.70594E-03-5.41689E-01-1.87551E-13-2.12851E-13
 -1     10583-8.47139E-02 8.01712E+01 1.69664E-04-3.84839E-01 4.10491E-13-5.81164E-13
 -1     10584-2.64265E-01 8.08507E+01 1.29631E-03-7.09522E-01 3.59865E-13 1.44388E-13
 -1     10585-2.09858E-01 8.06506E+01 4.66480E-04-5.60941E-01 3.16184E-13 4.77396E-13
 -1     10586-4.40635E-01 8.14436E+01 9.56189E-04-8.26997E-01-1.60944E-13-9.72555E-14
 -1     10587-3.76800E-01 8.11977E+01 6.91093E-04-6.85231E-01 1.59710E-13-3.84529E-13
 -1     10588-6.52209E-01 8.20691E+01 7.33137E-04-8.98848E-01 2.75773E-13 2.62401E-13
 -1     10589-5.80252E-01 8.17879E+01 9.69672E-04-7.62727E-01 6.72121E-13 4.10973E-13
 -1     10590-9.01779E-01 8.27134E+01 5.80732E-04-9.24134E-01 4.91570E-13-1.06252E-13
 -1     10591-8.19322E-01 8.24030E+01 1.31807E-03-7.93404E-01 4.70464E-13-2.97311E-13
 -1     10592-1.19502E+00 8.33651E+01 4.41606E-04-8.96218E-01-2.24045E-13 1.67005E-13
 -1     10593-1.09637E+00 8.30278E+01 1.72482E-03-7.72142E-01-1.05261E-13 3.62939E-14
 -1     10594-1.53930E+00 8.40127E+01 2.47846E-04-8.02548E-01 4.92580E-13 6.41397E-14
 -1     10595-1.41568E+00 8.36486E+01 2.17719E-03-6.88639E-01 9.79355E-14 1.97550E-13
 -1     10596-1.94212E+00 8.46416E+01-8.91615E-05-6.24309E-01 1.35999E-13-7.46209E-14
 -1     10597-1.78188E+00 8.42498E+01 2.65259E-03-5.27281E-01-1.11522E-13 1.12924E-13
 -1     10598-2.40892E+00 8.52306E+01-6.87615E-04-3.36174E-01-1.70627E-13-1.43551E-13
 -1     10599-2.19801E+00 8.48109E+01 3.11211E-03-2.67149E-01-1.26142E-13-2.76112E-13
 -1     10600-2.93980E+00 8.57470E+01-1.70196E-03 9.34557E-02 3.70478E-13 1.20084E-13
 -1     10601-2.66272E+00 8.53029E+01 3.49154E-03 1.17539E-01 6.83273E-14 4.18460E-13
 -1     10602-3.52478E+00 8.61408E+01-3.31810E-03 7.00896E-01 1.91437E-13-3.88578E-14
 -1     10603-3.16651E+00 8.56831E+01 3.69242E-03 6.55933E-01 1.45935E-13-1.17109E-13
 -1     10604-4.13729E+00 8.63376E+01-5.72709E-03 1.52303E+00 4.07827E-13-4.11268E-14
 -1     10605-3.68686E+00 8.58900E+01 3.57640E-03 1.37708E+00-1.70763E-13-7.26433E-14
 -1     10606-4.72634E+00 8.62316E+01-9.04322E-03 2.58863E+00 3.59324E-13 4.03844E-15
 -1     10607-4.18252E+00 8.58384E+01 2.97357E-03 2.30316E+00-1.76491E-13-4.66016E-14
 -1     10608-5.20873E+00 8.56829E+01-1.31651E-02 3.90278E+00-5.54071E-13-1.60455E-13
 -1     10609-4.58817E+00 8.54166E+01 1.71540E-03 3.43784E+00-2.96457E-13-2.31010E-13
 -1     10610-4.81236E+00 8.44908E+01-2.83711E-04 4.74889E+00-2.79162E-13 1.32727E-13
 -1     10611-3.17044E-02 8.00695E+01 1.33358E-03-2.41998E-01 7.99014E-14-3.40158E-13
 -1     10612-1.43185E-02 8.00190E+01-3.11567E-03-1.06944E-01-4.14911E-14 3.10562E-13
 -1     10613-1.39358E-01 8.04766E+01 1.95943E-03-4.20543E-01 7.36613E-13-4.14630E-13
 -1     10614-9.13392E-02 8.03424E+01 2.56002E-04-2.82940E-01-3.45583E-13-3.63445E-13
 -1     10615-2.95507E-01 8.09694E+01 1.40238E-03-5.49093E-01-5.80229E-13 2.56763E-13
 -1     10616-2.25895E-01 8.07738E+01 4.58128E-04-4.12765E-01-6.07278E-13 2.21351E-14
 -1     10617-4.89990E-01 8.15179E+01 9.45301E-04-6.32300E-01 4.63157E-13-2.25202E-14
 -1     10618-4.03829E-01 8.12773E+01 6.48537E-04-4.99906E-01-5.25930E-13-1.19162E-13
 -1     10619-7.18581E-01 8.20991E+01 6.03011E-04-6.70533E-01-2.04243E-13 1.38053E-13
 -1     10620-6.17236E-01 8.18242E+01 8.85173E-04-5.44391E-01-4.30600E-13 1.39781E-13
 -1     10621-9.80825E-01 8.26942E+01 3.24285E-04-6.59757E-01-8.22320E-14 4.26742E-16
 -1     10622-8.62288E-01 8.23921E+01 1.17625E-03-5.42642E-01-2.50968E-13 6.41570E-14
 -1     10623-1.27859E+00 8.32871E+01 4.85262E-05-5.91477E-01 1.55717E-13-4.10488E-14
 -1     10624-1.13797E+00 8.29616E+01 1.50277E-03-4.87323E-01 1.89633E-13 9.88133E-14
 -1     10625-1.61461E+00 8.38609E+01-2.92356E-04-4.52708E-01-3.73717E-13 1.47689E-13
 -1     10626-1.44458E+00 8.35145E+01 1.84385E-03-3.67345E-01-1.64526E-13-1.20827E-13
 -1     10627-1.99064E+00 8.43963E+01-7.80131E-04-2.26076E-01-1.50605E-13-5.55563E-14
 -1     10628-1.78203E+00 8.40311E+01 2.16899E-03-1.68043E-01-3.63893E-14 2.13878E-13
 -1     10629-2.40521E+00 8.48670E+01-1.51274E-03 1.09717E-01 4.68622E-13-3.48141E-14
 -1     10630-2.14786E+00 8.44871E+01 2.43416E-03 1.28326E-01 2.25729E-13-3.87255E-14
 -1     10631-2.85052E+00 8.52373E+01-2.60167E-03 5.78658E-01-9.31373E-14-7.35748E-14
 -1     10632-2.53464E+00 8.48510E+01 2.57727E-03 5.41435E-01 6.26652E-14-1.34536E-14
 -1     10633-3.30857E+00 8.54568E+01-4.15690E-03 1.20474E+00-2.56562E-13-2.20032E-14
 -1     10634-2.92699E+00 8.50802E+01 2.51623E-03 1.09064E+00-7.61250E-13-1.06960E-13
 -1     10635-3.74661E+00 8.54570E+01-6.25132E-03 2.00689E+00 3.82798E-13 7.50823E-14
 -1     10636-3.29812E+00 8.51183E+01 2.15274E-03 1.79096E+00-4.14738E-14 1.81393E-13
 -1     10637-4.11281E+00 8.51494E+01-8.84951E-03 2.99048E+00-2.88006E-13-2.16577E-13
 -1     10638-3.60669E+00 8.48932E+01 1.38973E-03 2.64653E+00-3.95493E-13-1.05388E-13
 -1     10639-4.33387E+00 8.44273E+01-1.17032E-02 4.13443E+00 3.27278E-13 5.50809E-14
 -1     10640-3.79521E+00 8.43189E+01 1.65845E-04 3.64106E+00-2.90219E-13 2.51889E-13
 -1     10641-3.79217E+00 8.33034E+01-1.47086E-03 4.72554E+00 3.43208E-13-8.69235E-14
 -1     10642-3.26761E-02 8.02376E+01 1.89932E-03-1.65436E-01-6.28011E-13-3.21673E-13
 -1     10643-1.47301E-02 8.01750E+01-2.38501E-03-6.55706E-02-1.25264E-13-1.18580E-13
 -1     10644-1.45306E-01 8.06007E+01 2.05060E-03-2.90042E-01-6.98552E-13-2.36623E-13
 -1     10645-9.25017E-02 8.04617E+01 2.86493E-04-1.76733E-01 2.82975E-13-1.80758E-13
 -1     10646-3.07278E-01 8.10529E+01 1.39343E-03-3.77761E-01 3.65975E-14 3.55542E-13
 -1     10647-2.28173E-01 8.08576E+01 4.23056E-04-2.59246E-01 4.02217E-13 6.63115E-14
 -1     10648-5.06513E-01 8.15610E+01 8.48219E-04-4.27643E-01 5.75861E-13-1.03889E-13
 -1     10649-4.05819E-01 8.13247E+01 5.75234E-04-3.10281E-01 6.40521E-14 2.63463E-13
 -1     10650-7.36240E-01 8.20984E+01 4.12683E-04-4.35992E-01 1.37764E-13-2.61839E-14
 -1     10651-6.15444E-01 8.18318E+01 7.64637E-04-3.25245E-01-1.79173E-13-2.19394E-13
 -1     10652-9.93066E-01 8.26427E+01 3.61646E-05-3.96094E-01 3.26300E-13 2.49686E-13
 -1     10653-8.50736E-01 8.23532E+01 9.94652E-04-2.97374E-01 2.54493E-13 4.82270E-13
 -1     10654-1.27546E+00 8.31742E+01-3.39796E-04-2.98171E-01-2.72063E-13-2.48593E-13
 -1     10655-1.10782E+00 8.28669E+01 1.24208E-03-2.17557E-01 1.49112E-13-4.19628E-13
 -1     10656-1.58220E+00 8.36728E+01-7.77607E-04-1.29536E-01-2.06216E-13 3.81466E-13
 -1     10657-1.38372E+00 8.33518E+01 1.48218E-03-7.44378E-02-1.59777E-14 3.78577E-13
 -1     10658-1.91055E+00 8.41158E+01-1.34626E-03 1.24961E-01 1.68353E-13 1.36851E-13
 -1     10659-1.67476E+00 8.37858E+01 1.68240E-03 1.45190E-01-3.04022E-13-7.31516E-14
 -1     10660-2.25414E+00 8.44754E+01-2.11925E-03 4.81989E-01 6.24951E-14-3.39449E-13
 -1     10661-1.97465E+00 8.41433E+01 1.80095E-03 4.55553E-01-4.51170E-13-1.32851E-13
 -1     10662-2.60041E+00 8.47157E+01-3.16680E-03 9.57960E-01-5.43749E-13-1.09805E-13
 -1     10663-2.27245E+00 8.43930E+01 1.78592E-03 8.70406E-01-1.78199E-13-4.36482E-14
 -1     10664-2.92785E+00 8.47904E+01-4.53782E-03 1.56594E+00 3.82966E-13 1.28009E-13
 -1     10665-2.55029E+00 8.44957E+01 1.57766E-03 1.40056E+00 1.30327E-13-1.16303E-13
 -1     10666-3.20329E+00 8.46409E+01-6.22648E-03 2.31075E+00-5.97116E-13 9.26689E-15
 -1     10667-2.78141E+00 8.44028E+01 1.11728E-03 2.05001E+00 2.25797E-13 1.20043E-15
 -1     10668-3.38033E+00 8.41978E+01-8.12152E-03 3.18174E+00-1.64055E-13-4.21052E-14
 -1     10669-2.92887E+00 8.40575E+01 3.64576E-04 2.81052E+00-2.28905E-13 1.68809E-13
 -1     10670-3.40029E+00 8.33853E+01-9.94109E-03 4.14344E+00-2.05249E-13 4.74551E-14
 -1     10671-2.94632E+00 8.33977E+01-6.73200E-04 3.65450E+00 4.20114E-13-1.92166E-13
 -1     10672-2.78209E+00 8.23649E+01-1.89849E-03 4.52736E+00-5.08274E-16 1.67893E-13
 -1     10673-3.21272E-02 8.03443E+01 2.04676E-03-8.78215E-02-2.16054E-13-1.80661E-13
 -1     10674-1.42067E-02 8.02582E+01-2.20066E-03-2.47594E-02-6.17984E-13 2.34476E-13
 -1     10675-1.43206E-01 8.06800E+01 1.99088E-03-1.58226E-01 3.46800E-13-1.08771E-13
 -1     10676-8.88914E-02 8.05289E+01 2.66010E-04-7.22065E-02 4.62243E-14-2.89317E-14
 -1     10677-3.01548E-01 8.11023E+01 1.27973E-03-2.06391E-01 5.38308E-13 1.90152E-13
 -1     10678-2.18378E-01 8.09035E+01 3.68736E-04-1.09346E-01 5.97892E-13 3.90365E-14
 -1     10679-4.93618E-01 8.15762E+01 6.77091E-04-2.26235E-01 1.43084E-14-3.19599E-13
 -1     10680-3.85853E-01 8.13433E+01 4.83888E-04-1.27696E-01-2.53169E-13-1.26388E-13
 -1     10681-7.10624E-01 8.20729E+01 1.78076E-04-2.10364E-01-2.94076E-14 2.61034E-13
 -1     10682-5.79838E-01 8.18160E+01 6.27364E-04-1.18485E-01-2.09934E-14-2.07660E-13
 -1     10683-9.46789E-01 8.25679E+01-2.63412E-04-1.49744E-01-2.83000E-13 1.80050E-13
 -1     10684-7.92155E-01 8.22944E+01 8.00420E-04-7.21116E-02 5.06744E-13 4.79554E-13
 -1     10685-1.19789E+00 8.30392E+01-7.00089E-04-3.36974E-02 7.33945E-13-4.38658E-13
 -1     10686-1.01678E+00 8.27548E+01 9.78512E-04 2.20120E-02 8.05830E-14-2.61683E-13
 -1     10687-1.45973E+00 8.34649E+01-1.18547E-03 1.49803E-01-2.67114E-13 3.06394E-13
 -1     10688-1.24840E+00 8.31749E+01 1.13628E-03 1.75271E-01-5.28530E-14-1.80302E-13
 -1     10689-1.72652E+00 8.38214E+01-1.77382E-03 4.13471E-01 2.39442E-13 1.92488E-13
 -1     10690-1.48098E+00 8.35319E+01 1.24300E-03 3.99316E-01 1.38299E-13 1.08620E-13
 -1     10691-1.98901E+00 8.40811E+01-2.51540E-03 7.69527E-01 2.54374E-13-1.99910E-13
 -1     10692-1.70611E+00 8.38008E+01 1.26312E-03 7.05090E-01-7.64991E-14 8.38616E-14
 -1     10693-2.23264E+00 8.42110E+01-3.44705E-03 1.22776E+00 1.42933E-14 3.39520E-14
 -1     10694-1.91143E+00 8.39526E+01 1.15760E-03 1.10127E+00 1.60069E-13 9.47202E-14
 -1     10695-2.43574E+00 8.41707E+01-4.57534E-03 1.79259E+00-2.83202E-14-4.93217E-14
 -1     10696-2.07922E+00 8.39533E+01 8.88441E-04 1.59193E+00-1.52179E-13-2.64041E-13
 -1     10697-2.56832E+00 8.39135E+01-5.85105E-03 2.45885E+00-2.62767E-13-3.18738E-14
 -1     10698-2.18536E+00 8.37637E+01 4.27737E-04 2.17330E+00-4.80583E-15 2.77178E-13
 -1     10699-2.59234E+00 8.33880E+01-7.13642E-03 3.20637E+00 3.58288E-13 2.91808E-13
 -1     10700-2.19947E+00 8.33413E+01-2.27450E-04 2.82960E+00 7.84693E-14-1.58186E-13
 -1     10701-2.46425E+00 8.25444E+01-8.17430E-03 3.99384E+00-1.26680E-13-2.90296E-13
 -1     10702-2.08680E+00 8.26444E+01-1.03566E-03 3.52838E+00-4.29205E-13 6.98330E-14
 -1     10703-1.81273E+00 8.16399E+01-1.88835E-03 4.21628E+00-4.93737E-14-9.74013E-14
 -1     10704-3.03219E-02 8.03904E+01 1.80723E-03-1.31277E-02 8.06779E-14 1.00048E-13
 -1     10705-1.28906E-02 8.02715E+01-2.53778E-03 1.35967E-02 4.85839E-13-4.58054E-14
 -1     10706-1.34234E-01 8.07163E+01 1.79636E-03-3.21803E-02-6.44054E-13-1.60106E-13
 -1     10707-8.12953E-02 8.05467E+01 2.00590E-04 2.55019E-02-2.37965E-13 1.26538E-13
 -1     10708-2.80798E-01 8.11208E+01 1.07332E-03-4.45314E-02-2.30283E-13 2.12642E-13
 -1     10709-1.98436E-01 8.09149E+01 3.02021E-04 2.92164E-02-2.86289E-13 4.41661E-15
 -1     10710-4.55502E-01 8.15684E+01 4.43135E-04-3.95127E-02 5.47104E-14-1.05548E-13
 -1     10711-3.47395E-01 8.13380E+01 3.85332E-04 3.81582E-02 5.03104E-13 5.23921E-14
 -1     10712-6.48156E-01 8.20298E+01-8.90334E-05-6.39875E-03-7.94850E-15-5.49387E-15
 -1     10713-5.15853E-01 8.17837E+01 4.89048E-04 6.48312E-02-1.48493E-13-1.83326E-14
 -1     10714-8.51300E-01 8.24793E+01-5.62260E-04 6.58969E-02-7.60875E-13-4.46587E-14
 -1     10715-6.94459E-01 8.22245E+01 6.14519E-04 1.21401E-01 2.03256E-13-2.48537E-13
 -1     10716-1.05886E+00 8.28942E+01-1.02177E-03 1.88769E-01 2.40688E-13-7.42184E-14
 -1     10717-8.75848E-01 8.26363E+01 7.37865E-04 2.19776E-01 2.67186E-13-7.31429E-14
 -1     10718-1.26479E+00 8.32524E+01-1.51130E-03 3.73531E-01 3.16089E-13 1.33159E-13
 -1     10719-1.05337E+00 8.29970E+01 8.35150E-04 3.71357E-01-4.31941E-13 4.56810E-13
 -1     10720-1.46161E+00 8.35307E+01-2.07127E-03 6.30664E-01 2.82771E-13 2.24652E-13
 -1     10721-1.21981E+00 8.32846E+01 8.79482E-04 5.86441E-01-8.41670E-14-1.56593E-14
 -1     10722-1.63898E+00 8.37038E+01-2.73299E-03 9.68595E-01-3.71822E-13-1.04325E-13
 -1     10723-1.36608E+00 8.34761E+01 8.42782E-04 8.73258E-01-3.94233E-14 7.92991E-15
 -1     10724-1.78242E+00 8.37427E+01-3.50961E-03 1.39188E+00-7.82175E-13-1.50156E-13
 -1     10725-1.48012E+00 8.35462E+01 6.98279E-04 1.23653E+00-2.31556E-13-2.34723E-13
 -1     10726-1.87227E+00 8.36148E+01-4.38273E-03 1.89871E+00-3.52342E-13-1.91205E-13
 -1     10727-1.54596E+00 8.34671E+01 4.25401E-04 1.67551E+00 1.61435E-13-5.35058E-14
 -1     10728-1.88362E+00 8.32844E+01-5.28522E-03 2.47764E+00-1.06180E-13 2.46532E-13
 -1     10729-1.54360E+00 8.32090E+01 1.74777E-05 2.18147E+00-2.14098E-13 1.40762E-13
 -1     10730-1.78736E+00 8.27161E+01-6.08342E-03 3.10390E+00 2.82139E-13 1.09645E-13
 -1     10731-1.44972E+00 8.27420E+01-5.07780E-04 2.73488E+00-2.47337E-13 1.31145E-13
 -1     10732-1.55348E+00 8.18803E+01-6.56660E-03 3.73585E+00-3.56108E-13-1.70100E-13
 -1     10733-1.24002E+00 8.20407E+01-1.09719E-03 3.30258E+00 5.36376E-14-4.67612E-14
 -1     10734-8.93390E-01 8.10900E+01-1.65282E-03 3.83603E+00-1.07411E-13 1.11383E-13
 -1     10735-2.75326E-02 8.03802E+01 1.21973E-03 5.53322E-02-3.07178E-14-1.07081E-13
 -1     10736-1.09259E-02 8.02208E+01-3.36082E-03 4.79678E-02 1.32437E-14 2.29913E-13
 -1     10737-1.19634E-01 8.07139E+01 1.48431E-03 8.21061E-02 5.05183E-13-1.03582E-13
 -1     10738-7.04943E-02 8.05205E+01 9.63624E-05 1.12155E-01-4.26630E-13-2.96662E-13
 -1     10739-2.47638E-01 8.11133E+01 7.85742E-04 9.97404E-02-1.07283E-13 1.81553E-13
 -1     10740-1.70247E-01 8.08975E+01 2.28506E-04 1.50018E-01-3.48633E-13 1.11152E-13
 -1     10741-3.96509E-01 8.15441E+01 1.55288E-04 1.22959E-01-2.07877E-13 5.79450E-14
 -1     10742-2.93833E-01 8.13152E+01 2.87941E-04 1.79245E-01 1.04788E-13-4.77153E-14
 -1     10743-5.55316E-01 8.19769E+01-3.81290E-04 1.65508E-01 3.40329E-13 5.51711E-14
 -1     10744-4.28702E-01 8.17423E+01 3.61293E-04 2.15692E-01 5.14758E-14-2.74607E-14
 -1     10745-7.15675E-01 8.23866E+01-8.55048E-04 2.40370E-01-4.07281E-13-1.99996E-13
 -1     10746-5.65043E-01 8.21521E+01 4.51601E-04 2.73904E-01-1.69522E-13 1.41387E-13
 -1     10747-8.70561E-01 8.27506E+01-1.30357E-03 3.59637E-01 3.52107E-13 2.59183E-13
 -1     10748-6.94973E-01 8.25214E+01 5.36774E-04 3.67085E-01-3.05959E-13-1.35510E-13
 -1     10749-1.01311E+00 8.30480E+01-1.76168E-03 5.34076E-01-3.39929E-13 6.62239E-14
 -1     10750-8.11442E-01 8.28292E+01 5.95209E-04 5.06791E-01 2.03612E-13 1.37026E-13
 -1     10751-1.13543E+00 8.32575E+01-2.25849E-03 7.72378E-01-4.45919E-13 1.43167E-13
 -1     10752-9.07138E-01 8.30557E+01 6.04373E-04 7.02346E-01-1.19325E-13-1.37021E-13
 -1     10753-1.22748E+00 8.33572E+01-2.81163E-03 1.08004E+00-5.89771E-14-2.28585E-13
 -1     10754-9.73477E-01 8.31808E+01 5.43225E-04 9.59965E-01-6.92304E-13-5.56211E-14
 -1     10755-1.27626E+00 8.33230E+01-3.41961E-03 1.45786E+00 4.21676E-13-1.96130E-13
 -1     10756-9.99794E-01 8.31839E+01 3.95008E-04 1.28156E+00-3.94781E-13-1.88890E-14
 -1     10757-1.26539E+00 8.31300E+01-4.05235E-03 1.89995E+00 4.69416E-13 2.17205E-14
 -1     10758-9.72927E-01 8.30435E+01 1.51542E-04 1.66326E+00 6.59646E-14 3.75047E-15
 -1     10759-1.17554E+00 8.27529E+01-4.64097E-03 2.39150E+00-4.89359E-13 1.75825E-13
 -1     10760-8.77426E-01 8.27384E+01-1.81112E-04 2.09362E+00-1.07813E-13 1.97047E-14
 -1     10761-9.86025E-01 8.21692E+01-5.07014E-03 2.90652E+00-3.91583E-13-8.55219E-14
 -1     10762-6.96651E-01 8.22497E+01-5.76225E-04 2.55192E+00-1.94435E-13-1.96457E-13
 -1     10763-6.77812E-01 8.13644E+01-5.17900E-03 3.40609E+00 1.60129E-13-6.66099E-14
 -1     10764-4.15004E-01 8.15639E+01-9.81299E-04 3.00676E+00 5.38979E-14 3.36849E-14
 -1     10765-2.14203E-02 8.06786E+01-1.31652E-03 3.41579E+00-9.83970E-14-2.78354E-14
 -1     10766-2.40111E-02 8.03202E+01 3.24971E-04 1.14899E-01-1.02732E-12-1.57300E-13
 -1     10767-8.44302E-03 8.01144E+01-4.62976E-03 7.71637E-02 3.00211E-14-8.13048E-14
 -1     10768-1.00574E-01 8.06791E+01 1.07087E-03 1.79728E-01 5.49350E-13-5.50844E-14
 -1     10769-5.71828E-02 8.04578E+01-4.10283E-05 1.84358E-01 4.57288E-13 6.91461E-14
 -1     10770-2.04496E-01 8.10868E+01 4.26712E-04 2.19769E-01-7.14997E-13 2.11841E-13
 -1     10771-1.35493E-01 8.08585E+01 1.52435E-04 2.47836E-01 5.24876E-13-2.06654E-13
 -1     10772-3.20628E-01 8.15106E+01-1.80325E-04 2.53360E-01 3.86102E-14-2.60708E-13
 -1     10773-2.28126E-01 8.12824E+01 1.97729E-04 2.89017E-01-1.74143E-13 1.47046E-13
 -1     10774-4.37934E-01 8.19226E+01-6.95335E-04 2.97047E-01 1.27869E-13 3.27124E-13
 -1     10775-3.22861E-01 8.16999E+01 2.52043E-04 3.26844E-01-8.54893E-13-2.93224E-13
 -1     10776-5.47864E-01 8.22987E+01-1.14165E-03 3.65659E-01 4.73237E-13 2.44700E-14
 -1     10777-4.10115E-01 8.20858E+01 3.21040E-04 3.78162E-01 9.97952E-14 5.00317E-13
 -1     10778-6.43306E-01 8.26182E+01-1.55033E-03 4.72092E-01 2.39123E-13-1.88492E-13
 -1     10779-4.82274E-01 8.24188E+01 3.84721E-04 4.57546E-01-2.94261E-14-4.32361E-13
 -1     10780-7.17553E-01 8.28619E+01-1.94922E-03 6.26854E-01-5.98710E-13 7.09233E-14
 -1     10781-5.32752E-01 8.26804E+01 4.23825E-04 5.76946E-01-3.11124E-13-5.05481E-14
 -1     10782-7.63309E-01 8.30118E+01-2.35940E-03 8.37387E-01 2.78800E-13-1.04373E-13
 -1     10783-5.55054E-01 8.28535E+01 4.19759E-04 7.45141E-01 3.12989E-13 9.51201E-14
 -1     10784-7.71863E-01 8.30498E+01-2.78989E-03 1.10714E+00-3.44844E-13-3.00797E-14
 -1     10785-5.41964E-01 8.29221E+01 3.57223E-04 9.67020E-01 8.40997E-13-2.05026E-13
 -1     10786-7.32566E-01 8.29575E+01-3.23180E-03 1.43443E+00 2.81289E-13 2.58073E-13
 -1     10787-4.84984E-01 8.28703E+01 2.26804E-04 1.24270E+00-1.93595E-13 1.39384E-13
 -1     10788-6.32816E-01 8.27170E+01-3.65221E-03 1.81105E+00 7.43766E-13 2.60701E-13
 -1     10789-3.74180E-01 8.26830E+01 2.82716E-05 1.56649E+00 1.20341E-13 3.90750E-13
 -1     10790-4.58744E-01 8.23120E+01-3.98915E-03 2.22088E+00-3.05846E-13-3.05291E-13
 -1     10791-1.98597E-01 8.23465E+01-2.25782E-04 1.92584E+00-2.03445E-13 7.77503E-14
 -1     10792-1.96817E-01 8.17304E+01-4.15017E-03 2.63873E+00-9.55902E-14-2.40929E-13
 -1     10793 5.25930E-02 8.18506E+01-5.06664E-04 2.30043E+00 3.52315E-13-2.36557E-13
 -1     10794 1.63507E-01 8.09681E+01-4.01834E-03 3.02985E+00-6.16580E-13-9.26689E-15
 -1     10795 3.88136E-01 8.11910E+01-7.68250E-04 2.66180E+00-7.75699E-14-2.22433E-13
 -1     10796 8.11958E-01 8.03733E+01-9.49292E-04 2.97396E+00 4.51944E-13 1.35714E-13
 -1     10797-1.99686E-02 8.02194E+01-8.39512E-04 1.63498E-01 3.57873E-13 1.09079E-14
 -1     10798-5.54855E-03 7.99627E+01-6.30550E-03 1.00281E-01-9.49327E-14 1.21857E-13
 -1     10799-7.80334E-02 8.06200E+01 5.69143E-04 2.56738E-01-7.15196E-14 1.96346E-13
 -1     10800-4.19123E-02 8.03678E+01-2.06870E-04 2.39425E-01-1.36958E-13 1.38382E-13
 -1     10801-1.53398E-01 8.10490E+01 3.09209E-06 3.10130E-01 6.58930E-14-3.81865E-13
 -1     10802-9.54908E-02 8.08067E+01 7.67829E-05 3.18432E-01-4.72727E-13 1.40443E-13
 -1     10803-2.31128E-01 8.14759E+01-5.60545E-04 3.45322E-01 2.03033E-13-7.72056E-14
 -1     10804-1.52555E-01 8.12481E+01 1.18765E-04 3.62112E-01 1.68333E-13-1.27051E-14
 -1     10805-3.00692E-01 8.18748E+01-1.03099E-03 3.81568E-01 1.10582E-13 4.38299E-13
 -1     10806-2.01717E-01 8.16646E+01 1.66456E-04 3.92379E-01 6.34214E-13-1.49668E-13
 -1     10807-3.54099E-01 8.22240E+01-1.42522E-03 4.35591E-01-1.86443E-13 1.44948E-13
 -1     10808-2.34264E-01 8.20335E+01 2.28430E-04 4.28415E-01-1.60011E-14 3.82694E-13
 -1     10809-3.84960E-01 8.25049E+01-1.76981E-03 5.21272E-01 1.43502E-13-3.65350E-13
 -1     10810-2.43597E-01 8.23363E+01 2.86391E-04 4.86318E-01 1.69519E-13-3.86703E-13
 -1     10811-3.87565E-01 8.27017E+01-2.08820E-03 6.49190E-01 3.38340E-13-2.96742E-14
 -1     10812-2.24369E-01 8.25575E+01 3.22790E-04 5.78695E-01 5.86631E-14-3.00471E-14
 -1     10813-3.56034E-01 8.27998E+01-2.39679E-03 8.26058E-01 1.99040E-13 2.05808E-13
 -1     10814-1.71651E-01 8.26839E+01 3.22043E-04 7.14184E-01 3.16634E-13 7.32608E-14
 -1     10815-2.83674E-01 8.27858E+01-2.70024E-03 1.05404E+00 6.72237E-13-1.90137E-14
 -1     10816-8.02378E-02 8.27037E+01 2.73063E-04 8.96928E-01 6.04912E-13 2.18167E-13
 -1     10817-1.62664E-01 8.26469E+01-2.98733E-03 1.33000E+00-1.17680E-13 1.32219E-13
 -1     10818 5.57700E-02 8.26062E+01 1.71408E-04 1.12601E+00-8.29579E-14-4.21168E-13
 -1     10819 1.57806E-02 8.23716E+01-3.22750E-03 1.64463E+00 3.43409E-13 6.62586E-14
 -1     10820 2.42983E-01 8.23821E+01 2.14851E-05 1.39487E+00-1.02793E-13 2.88977E-13
 -1     10821 2.60644E-01 8.19511E+01-3.36922E-03 1.98182E+00 1.05506E-14-1.23788E-13
 -1     10822 4.88243E-01 8.20244E+01-1.61511E-04 1.69083E+00-5.19099E-13-2.15928E-13
 -1     10823 5.79652E-01 8.13812E+01-3.34197E-03 2.31824E+00 3.07011E-13-7.66158E-14
 -1     10824 7.97575E-01 8.15296E+01-3.50516E-04 1.99485E+00-3.99861E-13 1.33822E-13
 -1     10825 9.77127E-01 8.06652E+01-3.06390E-03 2.62368E+00 4.81708E-13 5.00086E-14
 -1     10826 1.17457E+00 8.09001E+01-5.07392E-04 2.28175E+00 1.50893E-13 1.50893E-13
 -1     10827 1.61830E+00 8.01465E+01-5.86784E-04 2.52134E+00 2.11095E-13-4.80900E-13
 -1     10828-1.55624E-02 8.00882E+01-2.24318E-03 1.99518E-01-3.57873E-15 2.70096E-14
 -1     10829-2.31809E-03 7.97778E+01-8.35423E-03 1.16633E-01-6.08746E-13-1.25469E-13
 -1     10830-5.27380E-02 8.05464E+01-1.21990E-05 3.09937E-01-1.32719E-13 9.16038E-14
 -1     10831-2.50532E-02 8.02613E+01-3.97651E-04 2.75182E-01 6.71078E-14 7.89299E-15
 -1     10832-9.58001E-02 8.10089E+01-4.81823E-04 3.66327E-01-1.08655E-13-2.27544E-13
 -1     10833-5.10983E-02 8.07520E+01 3.51948E-06 3.58257E-01-1.94293E-13 1.59688E-13
 -1     10834-1.30309E-01 8.14486E+01-9.85119E-04 3.93540E-01 8.06594E-14 1.06134E-13
 -1     10835-6.85557E-02 8.12214E+01 5.38308E-05 3.93966E-01-6.05684E-13-1.84051E-13
 -1     10836-1.46803E-01 8.18417E+01-1.39037E-03 4.13581E-01 4.99906E-13 8.33222E-14
 -1     10837-6.73268E-02 8.16448E+01 1.08036E-04 4.07259E-01-3.99563E-13 1.36318E-13
 -1     10838-1.38546E-01 8.21697E+01-1.71042E-03 4.45208E-01-1.16907E-12 3.42157E-14
 -1     10839-4.01961E-02 8.20027E+01 1.77274E-04 4.19810E-01-2.25972E-13-3.28366E-13
 -1     10840-1.00622E-01 8.24173E+01-1.97016E-03 5.03504E-01 7.09223E-13-2.91434E-14
 -1     10841 1.77207E-02 8.22801E+01 2.43981E-04 4.49441E-01-2.78100E-13 4.77299E-13
 -1     10842-2.90488E-02 8.25725E+01-2.19151E-03 5.99425E-01 5.29098E-13-2.38195E-13
 -1     10843 1.09824E-01 8.24655E+01 2.91293E-04 5.09665E-01-1.12738E-13 1.02583E-13
 -1     10844 7.99984E-02 8.26250E+01-2.38921E-03 7.39379E-01-2.51701E-13 2.35735E-13
 -1     10845 2.38855E-01 8.25498E+01 3.05532E-04 6.09293E-01 2.75596E-13-5.87369E-13
 -1     10846 2.30738E-01 8.25661E+01-2.56686E-03 9.24810E-01-3.43742E-13-6.51909E-14
 -1     10847 4.07550E-01 8.25262E+01 2.78465E-04 7.52121E-01-1.27003E-13 5.10232E-13
 -1     10848 4.27991E-01 8.23885E+01-2.71408E-03 1.15181E+00 6.00624E-13-8.37591E-14
 -1     10849 6.18993E-01 8.23892E+01 2.08876E-04 9.36697E-01 2.89428E-13-2.86529E-13
 -1     10850 6.76948E-01 8.20866E+01-2.80502E-03 1.41078E+00-2.81046E-13-2.08325E-13
 -1     10851 8.76591E-01 8.21348E+01 1.03723E-04 1.15616E+00 3.58297E-13-1.20947E-14
 -1     10852 9.82443E-01 8.16577E+01-2.79899E-03 1.68631E+00-3.21597E-13 1.59803E-14
 -1     10853 1.18361E+00 8.17615E+01-2.12684E-05 1.39821E+00 1.95399E-13-2.24930E-13
 -1     10854 1.34771E+00 8.11036E+01-2.64393E-03 1.95732E+00-2.36120E-13 2.20768E-13
 -1     10855 1.54226E+00 8.12713E+01-1.41969E-04 1.64538E+00-2.42979E-13 1.40487E-13
 -1     10856 1.77270E+00 8.04324E+01-2.28409E-03 2.19788E+00-2.04142E-13 2.72189E-13
 -1     10857 1.95242E+00 8.06711E+01-2.27703E-04 1.87564E+00 2.50390E-13 2.48020E-13
 -1     10858 2.41008E+00 7.99748E+01-2.45424E-04 2.06373E+00 3.52239E-13-1.08698E-14
 -1     10859-1.08883E-02 7.99386E+01-3.86547E-03 2.21665E-01 1.13484E-13 1.13021E-13
 -1     10860 1.20865E-03 7.95728E+01-1.07510E-02 1.25661E-01 2.83093E-13 9.73180E-14
 -1     10861-2.51036E-02 8.04690E+01-6.70124E-04 3.36606E-01 7.22531E-13-1.18107E-13
 -1     10862-6.76729E-03 8.01503E+01-6.11217E-04 2.89745E-01 7.05876E-14 1.64140E-13
 -1     10863-3.24863E-02 8.09768E+01-1.02886E-03 3.84423E-01-8.18878E-13 2.90878E-14
 -1     10864-2.63859E-03 8.07054E+01-6.60334E-05 3.64111E-01 3.02889E-13-4.92092E-13
 -1     10865-1.93283E-02 8.14375E+01-1.45655E-03 3.93307E-01-1.77658E-13 7.79932E-15
 -1     10866 2.34124E-02 8.12121E+01 5.21889E-06 3.80371E-01 3.50570E-14 3.50320E-13
 -1     10867 2.22065E-02 8.18311E+01-1.77695E-03 3.88217E-01 1.84797E-13 1.75981E-13
 -1     10868 7.97445E-02 8.16491E+01 7.98952E-05 3.66799E-01-5.10805E-13 8.19726E-14
 -1     10869 9.69071E-02 8.21424E+01-2.00192E-03 3.90168E-01 7.05326E-13-1.63133E-13
 -1     10870 1.71444E-01 8.20004E+01 1.70682E-04 3.47833E-01 1.89678E-13 1.26392E-14
 -1     10871 2.07504E-01 8.23603E+01-2.15798E-03 4.15659E-01-9.87700E-13 2.16660E-13
 -1     10872 3.00974E-01 8.22555E+01 2.59296E-04 3.43250E-01 1.27162E-13-2.39864E-13
 -1     10873 3.55599E-01 8.24773E+01-2.26858E-03 4.76250E-01-1.26732E-13-5.53203E-14
 -1     10874 4.69125E-01 8.24074E+01 3.28299E-04 3.67656E-01-2.68036E-13 1.70596E-13
 -1     10875 5.42459E-01 8.24880E+01-2.34949E-03 5.78311E-01 4.02598E-13 2.08340E-15
 -1     10876 6.75916E-01 8.24522E+01 3.64909E-04 4.30204E-01 8.70727E-14 1.39050E-13
 -1     10877 7.69548E-01 8.23887E+01-2.40541E-03 7.22893E-01-3.68042E-13-1.40141E-13
 -1     10878 9.21282E-01 8.23881E+01 3.62817E-04 5.34536E-01 9.77968E-14-2.03799E-13
 -1     10879 1.03870E+00 8.21772E+01-2.42838E-03 9.05713E-01 3.94955E-13 6.48062E-14
 -1     10880 1.20543E+00 8.22146E+01 3.23059E-04 6.78881E-01 4.36873E-14 1.43638E-13
 -1     10881 1.35189E+00 8.18531E+01-2.39778E-03 1.11725E+00 4.42792E-13-1.13541E-13
 -1     10882 1.52882E+00 8.19330E+01 2.54167E-04 8.56284E-01 3.63501E-13-4.26974E-14
 -1     10883 1.71057E+00 8.14188E+01-2.28229E-03 1.34302E+00 7.68191E-13-3.65159E-15
 -1     10884 1.89172E+00 8.15463E+01 1.71683E-04 1.05499E+00 7.05862E-13 1.92143E-13
 -1     10885 2.11464E+00 8.08805E+01-2.04402E-03 1.56417E+00 3.94414E-13 7.18176E-14
 -1     10886 2.29346E+00 8.10607E+01 9.68719E-05 1.25901E+00 6.13086E-13-2.22971E-13
 -1     10887 2.56117E+00 8.02494E+01-1.64551E-03 1.75846E+00-1.15283E-13 6.45491E-14
 -1     10888 2.73137E+00 8.04864E+01 5.44155E-05 1.44906E+00 1.64140E-13-7.27855E-14
 -1     10889 3.19968E+00 7.98388E+01 6.85006E-05 1.60385E+00 3.23401E-13 1.30375E-13
 -1     10890-5.97543E-03 7.97839E+01-5.69823E-03 2.28785E-01 3.33386E-13 2.92051E-13
 -1     10891 5.03204E-03 7.93619E+01-1.34826E-02 1.26845E-01 5.61357E-14 5.17017E-13
 -1     10892 4.80150E-03 8.04003E+01-1.40830E-03 3.34184E-01 2.13635E-13-5.93553E-14
 -1     10893 1.30180E-02 8.00484E+01-8.46857E-04 2.81249E-01 8.15079E-13-3.87870E-13
 -1     10894 3.65302E-02 8.09634E+01-1.64347E-03 3.60611E-01 3.30073E-13-1.30139E-13
 -1     10895 5.01694E-02 8.06792E+01-1.30739E-04 3.32733E-01 5.48857E-13 3.36488E-13
 -1     10896 1.01945E-01 8.14524E+01-1.97990E-03 3.40012E-01 1.64192E-14-9.64367E-14
 -1     10897 1.23987E-01 8.12311E+01-2.43234E-05 3.16984E-01 2.20674E-14-3.05436E-13
 -1     10898 2.06659E-01 8.18507E+01-2.19471E-03 3.00687E-01 7.04679E-14 9.84074E-14
 -1     10899 2.40588E-01 8.16862E+01 8.61360E-05 2.66131E-01 4.29018E-13-5.21493E-14
 -1     10900 3.52791E-01 8.21477E+01-2.30292E-03 2.66191E-01-7.12694E-14-7.16510E-14
 -1     10901 4.02225E-01 8.20331E+01 2.13072E-04 2.07776E-01 1.27409E-13 2.73323E-14
 -1     10902 5.40158E-01 8.23374E+01-2.33669E-03 2.54617E-01 7.62206E-13-2.12663E-13
 -1     10903 6.08187E-01 8.22665E+01 3.35574E-04 1.63880E-01 1.64188E-13 9.98750E-14
 -1     10904 7.67375E-01 8.24174E+01-2.32410E-03 2.78229E-01 1.19623E-13 8.99142E-14
 -1     10905 8.55983E-01 8.23849E+01 4.34327E-04 1.50216E-01 4.17222E-13-4.80796E-14
 -1     10906 1.03274E+00 8.23876E+01-2.28402E-03 3.43426E-01-6.60194E-13 2.35355E-13
 -1     10907 1.14243E+00 8.23902E+01 4.96769E-04 1.76265E-01-3.53502E-14-1.09975E-13
 -1     10908 1.33483E+00 8.22495E+01-2.22350E-03 4.50940E-01 6.80955E-13-1.28238E-13
 -1     10909 1.46443E+00 8.22857E+01 5.18203E-04 2.45459E-01-3.72830E-13 1.24147E-13
 -1     10910 1.67261E+00 8.20059E+01-2.13728E-03 5.96195E-01-2.74177E-13 2.75886E-13
 -1     10911 1.81936E+00 8.20762E+01 5.01773E-04 3.55647E-01-1.24192E-13 9.39439E-14
 -1     10912 2.04530E+00 8.16611E+01-2.00911E-03 7.69785E-01 7.79446E-14 4.63249E-14
 -1     10913 2.20507E+00 8.17676E+01 4.57552E-04 4.99710E-01-2.87492E-13 1.13278E-13
 -1     10914 2.45173E+00 8.12214E+01-1.81464E-03 9.58100E-01-9.92262E-14-2.19444E-13
 -1     10915 2.61944E+00 8.13670E+01 4.01127E-04 6.66273E-01-1.79648E-13-3.11316E-13
 -1     10916 2.88947E+00 8.06961E+01-1.52590E-03 1.14416E+00-1.61982E-13-9.23046E-14
 -1     10917 3.05974E+00 8.08837E+01 3.51704E-04 8.40559E-01 1.75041E-13-1.23241E-13
 -1     10918 3.35385E+00 8.00987E+01-1.11733E-03 1.30874E+00-7.27474E-14 1.42424E-13
 -1     10919 3.52176E+00 8.03300E+01 3.29695E-04 1.00543E+00 1.13451E-13 2.21179E-13
 -1     10920 3.99893E+00 7.97221E+01 3.53307E-04 1.14265E+00 3.35169E-13-2.03258E-14
 -1     10921-7.80121E-04 7.96388E+01-7.74819E-03 2.19672E-01 1.63105E-13 3.40075E-14
 -1     10922 9.19786E-03 7.91609E+01-1.65506E-02 1.19597E-01-3.85093E-13 2.91753E-13
 -1     10923 3.73031E-02 8.03537E+01-2.23832E-03 2.99912E-01-2.49979E-13-5.70793E-14
 -1     10924 3.46439E-02 7.99705E+01-1.10535E-03 2.47556E-01-3.21321E-13-3.54515E-13
 -1     10925 1.12110E-01 8.09809E+01-2.33630E-03 2.90735E-01 3.09945E-13 1.72889E-13
 -1     10926 1.08305E-01 8.06870E+01-1.89036E-04 2.60361E-01-7.41833E-13 1.92943E-13
 -1     10927 2.35088E-01 8.15031E+01-2.56249E-03 2.28602E-01-3.52130E-13-2.34028E-13
 -1     10928 2.35064E-01 8.12898E+01-3.04090E-05 1.98785E-01 1.98749E-13 1.17018E-13
 -1     10929 4.08920E-01 8.19080E+01-2.64708E-03 1.45735E-01-4.62706E-13-1.98591E-13
 -1     10930 4.18161E-01 8.17650E+01 1.33466E-04 9.96449E-02-3.05617E-13-1.35086E-13
 -1     10931 6.32212E-01 8.21906E+01-2.61381E-03 6.85634E-02 1.00642E-13 1.43940E-13
 -1     10932 6.56146E-01 8.21068E+01 3.11933E-04-5.77421E-03-4.50841E-13-8.62886E-14
 -1     10933 9.01090E-01 8.23508E+01-2.50519E-03 1.68626E-02-9.09550E-13-1.96895E-13
 -1     10934 9.44260E-01 8.23160E+01 4.79132E-04-9.31516E-02-4.75255E-13 6.93196E-15
 -1     10935 1.21058E+00 8.23922E+01-2.35697E-03 3.51324E-03 5.33958E-13 5.97994E-14
 -1     10936 1.27602E+00 8.23980E+01 6.12751E-04-1.45638E-01 7.98459E-14 3.92374E-13
 -1     10937 1.55568E+00 8.23207E+01-2.19263E-03 3.47691E-02 4.79200E-14-1.22225E-13
 -1     10938 1.64458E+00 8.23607E+01 7.00399E-04-1.53690E-01-1.14020E-13-6.23158E-13
 -1     10939 1.93201E+00 8.21429E+01-2.02169E-03 1.10844E-01-7.11653E-13 3.73989E-14
 -1     10940 2.04368E+00 8.22135E+01 7.39531E-04-1.14417E-01-1.17246E-13 9.98368E-14
 -1     10941 2.33596E+00 8.18665E+01-1.84071E-03 2.26671E-01 2.19783E-13 2.72312E-13
 -1     10942 2.46803E+00 8.19662E+01 7.36137E-04-3.06831E-02 1.09968E-13 2.47490E-13
 -1     10943 2.76446E+00 8.14998E+01-1.63596E-03 3.72743E-01-7.41199E-13-2.54828E-13
 -1     10944 2.91325E+00 8.16287E+01 7.02588E-04 8.98988E-02-2.51021E-13-1.02855E-13
 -1     10945 3.21446E+00 8.10525E+01-1.38727E-03 5.36023E-01-5.42462E-13 2.38267E-13
 -1     10946 3.37549E+00 8.12116E+01 6.55353E-04 2.35989E-01-2.91434E-14-2.17709E-13
 -1     10947 3.68209E+00 8.05361E+01-1.07259E-03 7.00943E-01 6.36456E-13-1.03018E-13
 -1     10948 3.85074E+00 8.07268E+01 6.12692E-04 3.93569E-01-4.05648E-13 6.94434E-13
 -1     10949 4.16187E+00 7.99652E+01-6.73290E-04 8.50559E-01-6.88095E-13 1.84056E-13
 -1     10950 4.33405E+00 8.01878E+01 5.92340E-04 5.47043E-01 1.32533E-15-5.20470E-13
 -1     10951 4.81883E+00 7.96108E+01 6.08707E-04 6.80448E-01-1.69392E-13 2.89253E-13
 -1     10952 4.82407E-03 7.95193E+01-1.00401E-02 1.92842E-01-5.56941E-13-3.37064E-13
 -1     10953 1.38061E-02 7.89866E+01-1.99743E-02 1.03141E-01 3.14287E-13-2.44554E-13
 -1     10954 7.31913E-02 8.03446E+01-3.18142E-03 2.30413E-01-2.55525E-13 1.47368E-13
 -1     10955 5.87779E-02 7.99332E+01-1.38900E-03 1.85896E-01-3.43101E-13 6.64885E-14
 -1     10956 1.96146E-01 8.10427E+01-3.12385E-03 1.69736E-01 2.32009E-13-3.54161E-14
 -1     10957 1.73597E-01 8.07440E+01-2.38048E-04 1.42186E-01-1.66565E-13 1.40790E-13
 -1     10958 3.83371E-01 8.16001E+01-3.21341E-03 5.29805E-02-2.02900E-13-2.86736E-13
 -1     10959 3.60063E-01 8.14008E+01-5.36118E-06 1.94564E-02-1.32720E-13-2.18103E-13
 -1     10960 6.33674E-01 8.20104E+01-3.13556E-03-8.29094E-02-5.00378E-13-1.76359E-13
 -1     10961 6.17621E-01 8.18947E+01 2.33269E-04-1.39604E-01 2.64816E-13-1.29952E-13
 -1     10962 9.41111E-01 8.22750E+01-2.93033E-03-2.08298E-01 1.45189E-13 2.91728E-13
 -1     10963 9.39977E-01 8.22268E+01 4.79837E-04-2.99418E-01-2.25479E-14-7.78544E-15
 -1     10964 1.29721E+00 8.24011E+01-2.65623E-03-3.01804E-01-2.25257E-13 1.60774E-14
 -1     10965 1.31724E+00 8.24058E+01 7.00909E-04-4.33250E-01-5.46785E-14 2.43784E-13
 -1     10966 1.69280E+00 8.23994E+01-2.35948E-03-3.50276E-01-4.09298E-13 2.10023E-13
 -1     10967 1.73816E+00 8.24449E+01 8.70650E-04-5.23542E-01 3.13756E-13-1.79780E-13
 -1     10968 2.11932E+00 8.22821E+01-2.06863E-03-3.48082E-01 4.27935E-13-3.64927E-13
 -1     10969 2.19181E+00 8.23594E+01 9.77890E-04-5.61274E-01-4.22967E-13 3.31152E-13
 -1     10970 2.56951E+00 8.20613E+01-1.79451E-03-2.96014E-01 6.85493E-14 3.82418E-13
 -1     10971 2.66872E+00 8.21646E+01 1.02394E-03-5.44747E-01 3.71099E-13-1.42582E-13
 -1     10972 3.03751E+00 8.17494E+01-1.53343E-03-2.00083E-01 4.34326E-13-2.27074E-13
 -1     10973 3.16121E+00 8.18753E+01 1.01933E-03-4.78144E-01-1.75276E-14 4.13281E-14
 -1     10974 3.51859E+00 8.13581E+01-1.27155E-03-7.03164E-02 2.25028E-13-7.59267E-14
 -1     10975 3.66325E+00 8.15054E+01 9.80132E-04-3.70112E-01-6.86950E-14-1.96431E-14
 -1     10976 4.00852E+00 8.08996E+01-9.89782E-04 8.03821E-02-2.17604E-14 2.90407E-13
 -1     10977 4.16991E+00 8.10684E+01 9.24854E-04-2.32444E-01 4.32765E-13 1.31830E-14
 -1     10978 4.50278E+00 8.03872E+01-6.68525E-04 2.37335E-01-4.56385E-13-4.63744E-14
 -1     10979 4.67663E+00 8.05776E+01 8.71908E-04-7.89022E-02-6.42680E-14 6.47866E-14
 -1     10980 4.99581E+00 7.98356E+01-2.92304E-04 3.85214E-01-6.14037E-13-5.57887E-14
 -1     10981 5.17847E+00 8.00472E+01 8.37591E-04 7.58976E-02 1.69378E-14-4.97133E-13
 -1     10982 5.66942E+00 7.94930E+01 8.33976E-04 2.17565E-01-2.55837E-14 3.99247E-13
 -1     10983 1.10660E-02 7.94436E+01-1.26212E-02 1.46265E-01-1.58279E-13-4.64240E-13
 -1     10984 1.90265E-02 7.88580E+01-2.37953E-02 7.63661E-02 1.61272E-13 9.58261E-14
 -1     10985 1.13842E-01 8.03900E+01-4.27096E-03 1.21167E-01 1.81083E-13 2.18353E-13
 -1     10986 8.65151E-02 7.99558E+01-1.70158E-03 9.24185E-02 1.86177E-13-6.10623E-16
 -1     10987 2.91832E-01 8.11633E+01-4.02931E-03-9.00608E-03 7.46261E-13-7.85969E-14
 -1     10988 2.48987E-01 8.08674E+01-2.72089E-04-2.83109E-02-5.08656E-14 2.17604E-13
 -1     10989 5.52149E-01 8.17547E+01-3.94248E-03-1.94655E-01 2.66683E-13-2.29400E-13
 -1     10990 5.04353E-01 8.15777E+01 6.43314E-05-2.29352E-01 2.23190E-14-4.23390E-13
 -1     10991 8.88386E-01 8.21648E+01-3.65747E-03-3.93088E-01 6.96349E-13 1.63355E-13
 -1     10992 8.46876E-01 8.20843E+01 4.04507E-04-4.60548E-01 6.18179E-13 1.93241E-13
 -1     10993 1.28868E+00 8.24036E+01-3.24112E-03-5.71215E-01 2.29636E-13 1.77892E-13
 -1     10994 1.26382E+00 8.23975E+01 7.36876E-04-6.81388E-01 2.33306E-13 1.18454E-13
 -1     10995 1.73889E+00 8.24873E+01-2.77450E-03-7.06409E-01 2.29594E-13 3.08885E-14
 -1     10996 1.73880E+00 8.25358E+01 1.01790E-03-8.62943E-01-3.24428E-13-1.89338E-13
 -1     10997 2.22503E+00 8.24347E+01-2.31634E-03-7.85979E-01 8.43492E-13-8.77007E-14
 -1     10998 2.25489E+00 8.25219E+01 1.21910E-03-9.87730E-01-1.88509E-13 2.09437E-13
 -1     10999 2.73483E+00 8.22649E+01-1.89898E-03-8.05758E-01-5.41178E-13-9.83900E-14
 -1     11000 2.79680E+00 8.23793E+01 1.33347E-03-1.04828E+00 4.83183E-13-5.05436E-13
 -1     11001 3.25838E+00 8.19960E+01-1.53168E-03-7.68347E-01-7.87703E-14 7.93358E-14
 -1     11002 3.35200E+00 8.21298E+01 1.36944E-03-1.04510E+00 4.33681E-13 2.84604E-13
 -1     11003 3.78812E+00 8.16441E+01-1.20699E-03-6.81379E-01-7.98445E-13-2.11749E-13
 -1     11004 3.91090E+00 8.17931E+01 1.34480E-03-9.84573E-01 7.43988E-14-2.13916E-13
 -1     11005 4.31832E+00 8.12244E+01-9.07570E-04-5.55967E-01-7.04090E-14 3.10739E-13
 -1     11006 4.46649E+00 8.13865E+01 1.28118E-03-8.77072E-01 9.79217E-14-2.59055E-14
 -1     11007 4.84432E+00 8.07507E+01-6.12262E-04-4.05385E-01 4.04496E-13 6.22354E-14
 -1     11008 5.01353E+00 8.09253E+01 1.20025E-03-7.35406E-01-3.14790E-13 5.10684E-13
 -1     11009 5.36171E+00 8.02371E+01-3.00954E-04-2.43923E-01-6.19088E-14-1.26640E-13
 -1     11010 5.54769E+00 8.04240E+01 1.12138E-03-5.73567E-01 3.14873E-13-3.00789E-13
 -1     11011 5.86553E+00 7.96983E+01 4.14169E-05-8.58557E-02 7.10182E-13 1.30341E-13
 -1     11012 6.06469E+00 7.98968E+01 1.06011E-03-4.05675E-01-6.00624E-13 6.85446E-14
 -1     11013 6.55964E+00 7.93583E+01 1.02694E-03-2.45064E-01-1.82701E-14-2.92336E-14
 -1     11014 1.83134E-02 7.94323E+01-1.55685E-02 7.70036E-02-6.19341E-13 1.93456E-14
 -1     11015 2.51265E-02 7.87970E+01-2.80834E-02 3.76218E-02-1.43342E-13-1.22125E-13
 -1     11016 1.61430E-01 8.05098E+01-5.55616E-03-3.41572E-02-4.07261E-14-4.57967E-16
 -1     11017 1.19556E-01 8.00605E+01-2.04813E-03-3.84207E-02 4.78180E-13 3.51150E-13
 -1     11018 4.04113E-01 8.13593E+01-5.08313E-03-2.54515E-01-4.98740E-13 6.30954E-14
 -1     11019 3.38971E-01 8.10770E+01-2.80053E-04-2.60245E-01-3.30420E-13-4.55594E-13
 -1     11020 7.49520E-01 8.19785E+01-4.75799E-03-5.24605E-01 3.22978E-13-2.10505E-13
 -1     11021 6.75975E-01 8.18355E+01 2.02243E-04-5.58945E-01-4.98108E-14 2.45262E-13
 -1     11022 1.18403E+00 8.23775E+01-4.20215E-03-7.94784E-01 3.96926E-13 1.76192E-13
 -1     11023 1.11746E+00 8.23428E+01 6.78078E-04-8.74826E-01 1.79613E-13 8.90538E-14
 -1     11024 1.68802E+00 8.25776E+01-3.52393E-03-1.02851E+00-2.50480E-13-1.48007E-13
 -1     11025 1.64196E+00 8.26217E+01 1.11373E-03-1.16193E+00-1.97800E-13-2.42140E-13
 -1     11026 2.24042E+00 8.26060E+01-2.83406E-03-1.20277E+00 2.88734E-13 3.33136E-14
 -1     11027 2.22487E+00 8.27034E+01 1.45428E-03-1.38989E+00-5.86337E-14 1.11688E-13
 -1     11028 2.82187E+00 8.24913E+01-2.20372E-03-1.30661E+00-2.16042E-13 6.35464E-14
 -1     11029 2.84271E+00 8.26224E+01 1.67257E-03-1.54274E+00 3.34455E-15-1.47587E-13
 -1     11030 3.41643E+00 8.22602E+01-1.66485E-03-1.33863E+00 7.62237E-13-1.33244E-13
 -1     11031 3.47568E+00 8.24112E+01 1.77171E-03-1.61616E+00-1.93665E-14 7.78513E-13
 -1     11032 4.01208E+00 8.19361E+01-1.21959E-03-1.30438E+00-4.50112E-13 1.31926E-13
 -1     11033 4.10863E+00 8.20983E+01 1.77263E-03-1.61433E+00 2.34895E-13-6.57436E-13
 -1     11034 4.60030E+00 8.15392E+01-8.51669E-04-1.21397E+00 4.08909E-13-9.64333E-14
 -1     11035 4.73091E+00 8.17078E+01 1.70393E-03-1.54691E+00 2.64989E-13 5.67308E-13
 -1     11036 5.17519E+00 8.10868E+01-5.36197E-04-1.08023E+00 3.03695E-13 2.94938E-14
 -1     11037 5.33542E+00 8.12596E+01 1.59465E-03-1.42682E+00 2.27499E-13-5.19422E-13
 -1     11038 5.73252E+00 8.05939E+01-2.46882E-04-9.17315E-01-6.53144E-13-9.90440E-15
 -1     11039 5.91752E+00 8.07703E+01 1.47038E-03-1.26841E+00 4.80518E-13-6.53739E-14
 -1     11040 6.26868E+00 8.00747E+01 3.92132E-05-7.39530E-01 7.11931E-15 8.65513E-14
 -1     11041 6.47388E+00 8.02547E+01 1.35156E-03-1.08630E+00-9.50628E-15 8.53289E-14
 -1     11042 6.77989E+00 7.95430E+01 3.38501E-04-5.60518E-01-5.48776E-13 6.90112E-14
 -1     11043 7.00153E+00 7.97262E+01 1.25297E-03-8.94463E-01 1.21320E-13 4.39464E-14
 -1     11044 7.49714E+00 7.91981E+01 1.18355E-03-7.05517E-01-2.38157E-13-1.31688E-13
 -1     11045 2.71410E-02 7.95103E+01-1.90008E-02-1.92935E-02 6.00216E-13 2.75321E-13
 -1     11046 3.25210E-02 7.88296E+01-3.29463E-02-1.55754E-02 7.40388E-13 3.92825E-13
 -1     11047 2.19305E-01 8.07273E+01-7.10828E-03-2.44666E-01-1.27183E-13-3.30111E-13
 -1     11048 1.60521E-01 8.02742E+01-2.43395E-03-2.14753E-01 4.68375E-16-2.46220E-13
 -1     11049 5.40451E-01 8.16494E+01-6.32357E-03-5.79330E-01 4.86621E-13 2.70339E-13
 -1     11050 4.50371E-01 8.13959E+01-2.40099E-04-5.66582E-01-1.25552E-13-1.25386E-13
 -1     11051 9.87384E-01 8.22835E+01-5.66238E-03-9.50619E-01-2.04933E-13 2.63609E-13
 -1     11052 8.86833E-01 8.21903E+01 4.49234E-04-9.84782E-01-4.57141E-13 2.25930E-13
 -1     11053 1.53625E+00 8.26533E+01-4.74456E-03-1.30067E+00-1.22680E-14-8.12544E-14
 -1     11054 1.44593E+00 8.26782E+01 1.10323E-03-1.39758E+00-4.74829E-13 1.53620E-13
 -1     11055 2.15716E+00 8.27954E+01-3.74014E-03-1.59008E+00 4.02837E-13-3.32206E-13
 -1     11056 2.09419E+00 8.28996E+01 1.65513E-03-1.75356E+00-1.69198E-13-7.09571E-14
 -1     11057 2.82071E+00 8.27510E+01-2.79527E-03-1.79716E+00 6.52450E-13-1.93214E-14
 -1     11058 2.79669E+00 8.29030E+01 2.04153E-03-2.02262E+00 3.63320E-14-2.07598E-13
 -1     11059 3.50182E+00 8.25597E+01-1.98873E-03-1.91475E+00 1.49519E-13 1.02064E-13
 -1     11060 3.52261E+00 8.27365E+01 2.24652E-03-2.19275E+00-4.74815E-13-1.64938E-13
 -1     11061 4.18139E+00 8.22562E+01-1.34283E-03-1.94608E+00-1.40585E-12 1.00975E-13
 -1     11062 4.24802E+00 8.24427E+01 2.29402E-03-2.26522E+00-8.06882E-13-3.35634E-14
 -1     11063 4.84617E+00 8.18693E+01-8.43552E-04-1.90106E+00 3.83443E-14 8.09595E-14
 -1     11064 4.95615E+00 8.20566E+01 2.22505E-03-2.24967E+00-1.56472E-13 4.12866E-13
 -1     11065 5.48776E+00 8.14221E+01-4.58967E-04-1.79327E+00-1.05858E-12-1.24959E-13
 -1     11066 5.63647E+00 8.16059E+01 2.08288E-03-2.16038E+00-6.41251E-13-5.07157E-13
 -1     11067 6.10117E+00 8.09331E+01-1.52247E-04-1.63790E+00 5.89237E-13 2.00416E-13
 -1     11068 6.28303E+00 8.11119E+01 1.90507E-03-2.01352E+00-3.21645E-13 6.64946E-13
 -1     11069 6.68348E+00 8.04178E+01 1.10587E-04-1.45030E+00 3.91021E-13-3.35410E-13
 -1     11070 6.89282E+00 8.05917E+01 1.72067E-03-1.82543E+00-7.51489E-13-2.86327E-13
 -1     11071 7.23262E+00 7.98895E+01 3.56701E-04-1.24510E+00 1.36086E-13 1.00267E-13
 -1     11072 7.46436E+00 8.00590E+01 1.55030E-03-1.61160E+00 3.17593E-14-9.59933E-14
 -1     11073 7.74651E+00 7.93609E+01 6.04593E-04-1.03554E+00-1.37890E-13 5.67445E-14
 -1     11074 7.99658E+00 7.95262E+01 1.40710E-03-1.38597E+00 3.93206E-13 1.16614E-13
 -1     11075 8.48806E+00 7.90047E+01 1.29779E-03-1.16060E+00-2.65739E-13 1.13111E-13
 -1     11076 3.84519E-02 7.97075E+01-2.30991E-02-1.49175E-01-5.60083E-13 8.99281E-15
 -1     11077 4.18625E-02 7.89884E+01-3.85486E-02-8.70135E-02 1.18343E-13 1.06581E-14
 -1     11078 2.92660E-01 8.10705E+01-9.02724E-03-5.23658E-01 4.78232E-13-2.98706E-13
 -1     11079 2.13522E-01 8.06301E+01-2.86329E-03-4.48693E-01-2.49752E-13 2.01228E-15
 -1     11080 7.12146E-01 8.20544E+01-7.79342E-03-1.00106E+00 6.07819E-13 3.23658E-13
 -1     11081 5.93671E-01 8.18512E+01-1.10051E-04-9.65971E-01 2.76029E-14 2.13163E-14
 -1     11082 1.28318E+00 8.26811E+01-6.64198E-03-1.49104E+00 3.40825E-13 1.49741E-13
 -1     11083 1.15467E+00 8.26589E+01 8.76941E-04-1.52805E+00-5.75373E-14-1.18655E-14
 -1     11084 1.96707E+00 8.29944E+01-5.23415E-03-1.92657E+00-7.26114E-13-1.86233E-13
 -1     11085 1.85600E+00 8.30959E+01 1.75785E-03-2.04828E+00 3.56923E-13-3.60337E-13
 -1     11086 2.72042E+00 8.30517E+01-3.82685E-03-2.26718E+00-1.27204E-13-2.05114E-14
 -1     11087 2.64763E+00 8.32272E+01 2.42331E-03-2.47094E+00-6.70297E-13 3.02099E-13
 -1     11088 3.50410E+00 8.29117E+01-2.60158E-03-2.49560E+00-2.27429E-13-2.47580E-13
 -1     11089 3.48194E+00 8.31237E+01 2.81577E-03-2.76969E+00 8.86444E-14-8.20038E-14
 -1     11090 4.28760E+00 8.26264E+01-1.63006E-03-2.61156E+00-1.52552E-13-1.47885E-13
 -1     11091 4.32065E+00 8.28496E+01 2.95164E-03-2.94046E+00-1.01988E-13-2.51348E-13
 -1     11092 5.04980E+00 8.22386E+01-9.07791E-04-2.62543E+00 6.37448E-13 3.34573E-13
 -1     11093 5.13686E+00 8.24579E+01 2.89243E-03-2.99329E+00 2.41182E-13 2.53682E-13
 -1     11094 5.77780E+00 8.17813E+01-3.91228E-04-2.55310E+00 3.41137E-13-7.97765E-14
 -1     11095 5.91400E+00 8.19890E+01 2.70807E-03-2.94559E+00-5.59372E-13-3.68247E-14
 -1     11096 6.46481E+00 8.12792E+01-2.46831E-05-2.41257E+00 9.47561E-13-7.34308E-15
 -1     11097 6.64349E+00 8.14727E+01 2.45901E-03-2.81746E+00 1.85331E-13 4.28633E-14
 -1     11098 7.10800E+00 8.07511E+01 2.44516E-04-2.22178E+00-1.44044E-13-3.88327E-14
 -1     11099 7.32206E+00 8.09304E+01 2.19021E-03-2.62889E+00 1.68671E-13-2.00208E-13
 -1     11100 7.70673E+00 8.02114E+01 4.59366E-04-1.99752E+00 4.23439E-13 4.86941E-14
 -1     11101 7.94948E+00 8.03779E+01 1.93185E-03-2.39837E+00 6.21933E-14 4.04347E-14
 -1     11102 8.26118E+00 7.96721E+01 6.51348E-04-1.75474E+00 2.68986E-13-1.58163E-13
 -1     11103 8.52693E+00 7.98273E+01 1.70232E-03-2.14216E+00-3.54515E-13 2.18518E-13
 -1     11104 8.77139E+00 7.91440E+01 8.40623E-04-1.50632E+00-4.45116E-13-8.01139E-15
 -1     11105 9.05574E+00 7.92889E+01 1.51132E-03-1.87414E+00-1.77157E-13-1.90035E-14
 -1     11106 9.53670E+00 7.87719E+01 1.36210E-03-1.60571E+00-1.52947E-13-1.81093E-13
 -1     11107 5.37284E-02 8.00626E+01-2.81414E-02-3.22647E-01 4.57401E-13-2.61222E-13
 -1     11108 5.42134E-02 7.93155E+01-4.51255E-02-1.82553E-01-4.27811E-13 3.94268E-14
 -1     11109 3.89744E-01 8.15738E+01-1.14625E-02-8.90846E-01 2.37935E-14-1.00295E-13
 -1     11110 2.85209E-01 8.11707E+01-3.32792E-03-7.58612E-01-1.16809E-13-2.63595E-13
 -1     11111 9.36602E-01 8.25978E+01-9.53840E-03-1.54461E+00 7.11445E-14 1.01960E-13
 -1     11112 7.85396E-01 8.24753E+01 1.95306E-04-1.48554E+00 1.26822E-13 8.60700E-14
 -1     11113 1.66269E+00 8.31810E+01-7.65155E-03-2.17014E+00-4.74620E-15-1.51781E-13
 -1     11114 1.50634E+00 8.32579E+01 1.60710E-03-2.21772E+00-9.07469E-14-4.30211E-14
 -1     11115 2.50751E+00 8.33981E+01-5.57761E-03-2.69157E+00-2.13767E-13-9.32032E-14
 -1     11116 2.38189E+00 8.35967E+01 2.75853E-03-2.85128E+00-2.23432E-13 1.58346E-14
 -1     11117 3.41021E+00 8.33351E+01-3.68695E-03-3.07150E+00 4.06813E-13 2.14800E-13
 -1     11118 3.33924E+00 8.35935E+01 3.49670E-03-3.33013E+00-1.85532E-13-1.24623E-13
 -1     11119 4.32128E+00 8.30717E+01-2.17798E-03-3.30234E+00 1.74506E-13-2.72560E-14
 -1     11120 4.31619E+00 8.33475E+01 3.80881E-03-3.63812E+00 7.86593E-14 3.53148E-13
 -1     11121 5.20615E+00 8.26735E+01-1.08180E-03-3.39519E+00 4.28407E-13 5.43385E-14
 -1     11122 5.26820E+00 8.29411E+01 3.78234E-03-3.78506E+00-2.25674E-13-3.94199E-14
 -1     11123 6.04411E+00 8.21897E+01-3.38535E-04-3.37049E+00 5.54633E-13 7.17829E-14
 -1     11124 6.16817E+00 8.24365E+01 3.53962E-03-3.79398E+00 5.28258E-14 1.99916E-13
 -1     11125 6.82494E+00 8.16558E+01 1.42116E-04-3.25177E+00-5.45099E-13-1.04552E-13
 -1     11126 7.00269E+00 8.18771E+01 3.18608E-03-3.69230E+00-3.80460E-14-3.71871E-13
 -1     11127 7.54541E+00 8.10964E+01 4.47191E-04-3.06206E+00-4.93543E-13 4.06498E-14
 -1     11128 7.76756E+00 8.12924E+01 2.79703E-03-3.50683E+00 2.93175E-13-6.00232E-14
 -1     11129 8.20630E+00 8.05285E+01 6.46957E-04-2.82214E+00 4.33223E-13-1.49745E-13
 -1     11130 8.46398E+00 8.07017E+01 2.41951E-03-3.26147E+00 4.60118E-14 2.67459E-13
 -1     11131 8.81021E+00 7.99646E+01 7.92506E-04-2.55003E+00 9.20444E-14 2.26930E-13
 -1     11132 9.09573E+00 8.01181E+01 2.07961E-03-2.97650E+00-2.91413E-13-2.14818E-13
 -1     11133 9.36014E+00 7.94144E+01 9.17902E-04-2.26079E+00 4.26797E-13-1.22941E-13
 -1     11134 9.66728E+00 7.95509E+01 1.78959E-03-2.66861E+00 8.05071E-13 5.03094E-13
 -1     11135 9.85854E+00 7.88862E+01 1.04328E-03-1.96671E+00 1.05797E-13-3.12692E-13
 -1     11136 1.01827E+01 7.90076E+01 1.55304E-03-2.35122E+00 4.43395E-14-5.84698E-13
 -1     11137 1.06452E+01 7.84951E+01 1.36818E-03-2.03478E+00-9.41885E-14 9.91711E-14
 -1     11138 7.54435E-02 8.06262E+01-3.45615E-02-5.55451E-01-8.59902E-13-1.45661E-13
 -1     11139 7.13852E-02 7.98682E+01-5.30958E-02-3.11605E-01-4.93453E-13-6.01463E-14
 -1     11140 5.24179E-01 8.22800E+01-1.45919E-02-1.37603E+00 5.18634E-13 8.86791E-14
 -1     11141 3.86868E-01 8.19520E+01-3.80551E-03-1.17308E+00 3.86781E-13 2.65371E-13
 -1     11142 1.24134E+00 8.33042E+01-1.15636E-02-2.24532E+00-3.60115E-13-2.30760E-13
 -1     11143 1.05253E+00 8.33060E+01 8.49467E-04-2.16527E+00-4.01665E-13-1.59900E-13
 -1     11144 2.16452E+00 8.37880E+01-8.56669E-03-3.01943E+00-1.71071E-13 1.99590E-13
 -1     11145 1.98343E+00 8.40003E+01 2.86967E-03-3.09304E+00-1.28675E-13 2.68757E-13
 -1     11146 3.20117E+00 8.38536E+01-5.60993E-03-3.61728E+00-7.19230E-13-1.68296E-13
 -1     11147 3.07318E+00 8.41724E+01 4.28282E-03-3.83568E+00-1.44093E-13-5.24331E-13
 -1     11148 4.26915E+00 8.36253E+01-3.17981E-03-4.01315E+00 1.58484E-13-1.00690E-13
 -1     11149 4.21889E+00 8.39765E+01 4.95853E-03-4.34633E+00 2.91295E-13 2.49425E-13
 -1     11150 5.30975E+00 8.32075E+01-1.43537E-03-4.21744E+00-5.21791E-13 4.06251E-13
 -1     11151 5.34386E+00 8.35468E+01 5.02409E-03-4.63020E+00 3.39020E-13-1.10315E-13
 -1     11152 6.28814E+00 8.26775E+01-3.03329E-04-4.25843E+00-6.04544E-13 2.77330E-13
 -1     11153 6.40147E+00 8.29834E+01 4.69599E-03-4.71934E+00-2.72449E-13 2.47136E-13
 -1     11154 7.18797E+00 8.20886E+01 3.72432E-04-4.16975E+00 4.36803E-14-1.74420E-13
 -1     11155 7.36953E+00 8.23539E+01 4.17528E-03-4.65429E+00-2.57641E-13-1.57405E-13
 -1     11156 8.00502E+00 8.14753E+01 7.46451E-04-3.98361E+00-1.38452E-13-3.45834E-14
 -1     11157 8.24206E+00 8.17006E+01 3.59942E-03-4.47413E+00-4.04676E-14 1.68528E-13
 -1     11158 8.74193E+00 8.08592E+01 9.40172E-04-3.72803E+00-5.33802E-13-1.33820E-13
 -1     11159 9.02227E+00 8.10489E+01 3.04646E-03-4.21235E+00 2.43229E-13 2.93922E-13
 -1     11160 9.40450E+00 8.02540E+01 1.03853E-03-3.42612E+00-2.47448E-13-8.27073E-15
 -1     11161 9.71765E+00 8.04135E+01 2.55399E-03-3.89600E+00-2.89116E-13-4.44865E-13
 -1     11162 9.99939E+00 7.96686E+01 1.09635E-03-3.09648E+00 3.80078E-13 2.76214E-13
 -1     11163 1.03369E+01 7.98029E+01 2.13576E-03-3.54626E+00 3.77955E-13 3.73633E-13
 -1     11164 1.05327E+01 7.91097E+01 1.14639E-03-2.75371E+00-9.00752E-13-1.87477E-13
 -1     11165 1.08882E+01 7.92230E+01 1.79275E-03-3.17942E+00-6.65523E-13-3.59247E-13
 -1     11166 1.10095E+01 7.85827E+01 1.20589E-03-2.40908E+00 3.00523E-14-6.09920E-14
 -1     11167 1.13785E+01 7.86778E+01 1.51966E-03-2.80779E+00 3.02536E-14 1.94185E-13
 -1     11168 1.18130E+01 7.81714E+01 1.30835E-03-2.44046E+00 4.10505E-14-1.65910E-13
 -1     11169 1.08315E-01 8.14687E+01-4.30963E-02-8.72862E-01 4.85723E-13 9.67282E-14
 -1     11170 9.66698E-02 8.07291E+01-6.28536E-02-4.89478E-01 4.51722E-14 2.35229E-14
 -1     11171 7.19415E-01 8.32429E+01-1.88006E-02-2.02511E+00-2.99399E-13-1.24026E-13
 -1     11172 5.38495E-01 8.30493E+01-4.14943E-03-1.73790E+00 2.59320E-13-1.32477E-13
 -1     11173 1.67130E+00 8.41970E+01-1.38626E-02-3.15333E+00 1.31228E-13 3.23352E-14
 -1     11174 1.44067E+00 8.43854E+01 2.17643E-03-3.06466E+00 1.97203E-14 2.03032E-13
 -1     11175 2.84724E+00 8.44965E+01-9.14813E-03-4.07819E+00-1.11536E-13 6.57807E-14
 -1     11176 2.65139E+00 8.48894E+01 4.96881E-03-4.20588E+00 1.73070E-13-6.40599E-14
 -1     11177 4.10903E+00 8.43362E+01-5.05709E-03-4.72525E+00 2.43042E-13-1.01266E-13
 -1     11178 4.00166E+00 8.47977E+01 6.53568E-03-5.03295E+00-3.38202E-13 7.03326E-14
 -1     11179 5.35180E+00 8.38898E+01-2.11944E-03-5.09654E+00 1.45856E-13-1.79808E-13
 -1     11180 5.35239E+00 8.43377E+01 6.85559E-03-5.52895E+00 7.09433E-13-6.86118E-14
 -1     11181 6.51344E+00 8.32861E+01-2.88400E-04-5.23269E+00 1.48756E-13 2.01790E-13
 -1     11182 6.61806E+00 8.36818E+01 6.39393E-03-5.73834E+00-9.16073E-14-2.02793E-13
 -1     11183 7.56615E+00 8.26099E+01 7.20722E-04-5.18562E+00 1.21181E-13 1.23030E-13
 -1     11184 7.75942E+00 8.29418E+01 5.58109E-03-5.72543E+00 7.62446E-14 4.19172E-13
 -1     11185 8.50401E+00 8.19122E+01 1.20441E-03-5.00422E+00 3.46279E-13-8.02448E-14
 -1     11186 8.76732E+00 8.21825E+01 4.69103E-03-5.55177E+00 3.21826E-13-2.19670E-13
 -1     11187 9.33282E+00 8.12218E+01 1.38875E-03-4.72917E+00-7.11098E-14 1.92189E-13
 -1     11188 9.64866E+00 8.14387E+01 3.86016E-03-5.26789E+00-1.34753E-14 2.65632E-13
 -1     11189 1.00633E+01 8.05544E+01 1.42178E-03-4.39225E+00-8.28101E-13-9.69192E-14
 -1     11190 1.04170E+01 8.07271E+01 3.14281E-03-4.91228E+00 1.93116E-13-3.65284E-13
 -1     11191 1.07075E+01 7.99179E+01 1.39259E-03-4.01757E+00 5.64750E-13-2.83233E-13
 -1     11192 1.10875E+01 8.00551E+01 2.54942E-03-4.51328E+00-3.06657E-13 2.42705E-13
 -1     11193 1.12763E+01 7.93166E+01 1.35124E-03-3.62313E+00-7.43357E-13 8.97173E-14
 -1     11194 1.16741E+01 7.94255E+01 2.07152E-03-4.09135E+00-2.98116E-13-3.66156E-13
 -1     11195 1.17790E+01 7.87534E+01 1.32341E-03-3.22221E+00 3.61461E-13-6.52560E-15
 -1     11196 1.21887E+01 7.88391E+01 1.69406E-03-3.66116E+00 1.75776E-13 2.92825E-13
 -1     11197 1.22230E+01 7.82309E+01 1.31985E-03-2.82448E+00 2.65343E-14 1.41344E-13
 -1     11198 1.26406E+01 7.82969E+01 1.40095E-03-3.23311E+00-4.38816E-14-3.26033E-14
 -1     11199 1.30368E+01 7.77999E+01 1.17724E-03-2.81438E+00-3.82069E-13 2.88502E-14
 -1     11200 1.60497E-01 8.26906E+01-5.48075E-02-1.31891E+00 3.65180E-13 8.50431E-14
 -1     11201 1.36547E-01 8.20199E+01-7.62977E-02-7.44326E-01 3.92936E-13 3.23769E-13
 -1     11202 1.01870E+00 8.45296E+01-2.39808E-02-2.91136E+00-9.40775E-14-1.34781E-13
 -1     11203 7.79188E-01 8.45682E+01-4.01075E-03-2.52985E+00-2.87798E-13-1.33310E-13
 -1     11204 2.30200E+00 8.52913E+01-1.59781E-02-4.33902E+00-1.51892E-13 6.38933E-14
 -1     11205 2.03150E+00 8.57551E+01 5.16901E-03-4.27318E+00 1.09718E-13-1.62259E-13
 -1     11206 3.80030E+00 8.52801E+01-8.82384E-03-5.39126E+00 1.89640E-13-4.15640E-14
 -1     11207 3.61571E+00 8.59055E+01 8.76238E-03-5.62086E+00-3.12139E-13 2.03060E-13
 -1     11208 5.31457E+00 8.47995E+01-3.51715E-03-6.03021E+00-7.33164E-14 1.04673E-13
 -1     11209 5.26984E+00 8.54187E+01 9.69798E-03-6.46932E+00-7.97251E-13-1.10537E-13
 -1     11210 6.72475E+00 8.40797E+01-3.05614E-04-6.31311E+00-2.56073E-13-9.24261E-14
 -1     11211 6.82244E+00 8.46162E+01 9.05613E-03-6.87188E+00-4.31252E-13 1.34344E-13
 -1     11212 7.97967E+00 8.32657E+01 1.30010E-03-6.32592E+00 6.27581E-13 6.87991E-14
 -1     11213 8.19709E+00 8.36993E+01 7.69376E-03-6.93699E+00 1.32006E-13 6.89934E-14
 -1     11214 9.07080E+00 8.24380E+01 1.94698E-03-6.14891E+00-4.70568E-13 1.04399E-13
 -1     11215 9.37868E+00 8.27754E+01 6.22458E-03-6.76966E+00-5.39860E-13-1.93259E-13
 -1     11216 1.00102E+01 8.16367E+01 2.09118E-03-5.84553E+00-2.71588E-14-7.90141E-14
 -1     11217 1.03819E+01 8.18937E+01 4.92307E-03-6.45188E+00-1.71821E-13 3.29241E-13
 -1     11218 1.08175E+01 8.08791E+01 2.00670E-03-5.46223E+00-5.33198E-13 1.27446E-13
 -1     11219 1.12318E+01 8.10725E+01 3.85706E-03-6.04188E+00 3.17010E-13-3.26912E-13
 -1     11220 1.15130E+01 8.01711E+01 1.84304E-03-5.03185E+00 8.79435E-14-2.80834E-13
 -1     11221 1.19541E+01 8.03153E+01 3.01575E-03-5.57928E+00 7.24976E-14 2.70668E-13
 -1     11222 1.21149E+01 7.95132E+01 1.67433E-03-4.57725E+00-4.51188E-13 1.67349E-14
 -1     11223 1.25717E+01 7.96198E+01 2.36394E-03-5.09054E+00 3.58602E-14-2.36118E-13
 -1     11224 1.26383E+01 7.89044E+01 1.53414E-03-4.11424E+00 9.37736E-13-7.46686E-14
 -1     11225 1.31031E+01 7.89819E+01 1.86354E-03-4.59326E+00 3.85844E-13 3.48893E-13
 -1     11226 1.30951E+01 7.83436E+01 1.43462E-03-3.65371E+00-2.77389E-13 2.32024E-13
 -1     11227 1.35632E+01 7.83978E+01 1.48169E-03-4.09908E+00-1.36113E-13-3.36701E-13
 -1     11228 1.34942E+01 7.78302E+01 1.37670E-03-3.20303E+00 4.01484E-14 4.10089E-15
 -1     11229 1.39628E+01 7.78650E+01 1.19198E-03-3.61560E+00-5.41435E-13-1.53162E-13
 -1     11230 1.43100E+01 7.73820E+01 9.73808E-04-3.14764E+00-9.99686E-14 2.92973E-13
 -1     11231 2.54317E-01 8.44420E+01-7.27140E-02-1.96830E+00 3.97377E-13 1.23623E-13
 -1     11232 2.04950E-01 8.39495E+01-9.10902E-02-1.12348E+00 6.53366E-14 1.58151E-13
 -1     11233 1.50470E+00 8.62136E+01-3.24098E-02-4.15220E+00-2.11581E-13-1.87766E-13
 -1     11234 1.18491E+00 8.66471E+01-2.91409E-03-3.68268E+00 3.03924E-14-1.79801E-13
 -1     11235 3.26570E+00 8.65722E+01-1.75877E-02-5.89638E+00 1.80772E-13-1.15158E-13
 -1     11236 2.97164E+00 8.74322E+01 9.72558E-03-5.92234E+00-5.60385E-14 1.49075E-13
 -1     11237 5.15868E+00 8.60737E+01-6.67020E-03-6.99946E+00 8.42104E-14 9.45077E-14
 -1     11238 5.04299E+00 8.69775E+01 1.42356E-02-7.40673E+00-1.30007E-13-2.52798E-13
 -1     11239 6.92610E+00 8.51670E+01-4.30743E-04-7.52609E+00 3.33122E-13-2.48274E-14
 -1     11240 7.01713E+00 8.59371E+01 1.38145E-02-8.14727E+00 1.05360E-13 2.39128E-13
 -1     11241 8.46145E+00 8.41287E+01 2.35549E-03-7.62979E+00-2.48135E-13 1.53575E-13
 -1     11242 8.72314E+00 8.47238E+01 1.10850E-02-8.33679E+00 7.06213E-13-1.71155E-13
 -1     11243 9.75186E+00 8.30970E+01 3.24081E-03-7.45390E+00 6.82010E-13 2.44076E-15
 -1     11244 1.01344E+01 8.35353E+01 8.44733E-03-8.17226E+00 1.11661E-13 3.76517E-13
 -1     11245 1.08240E+01 8.21289E+01 3.23625E-03-7.10499E+00-1.65284E-14-2.67334E-13
 -1     11246 1.12841E+01 8.24432E+01 6.30002E-03-7.79780E+00-1.90417E-13-4.27352E-13
 -1     11247 1.17146E+01 8.12416E+01 2.90970E-03-6.65490E+00-4.67737E-13 2.28980E-13
 -1     11248 1.22204E+01 8.14633E+01 4.67225E-03-7.30674E+00 1.40971E-13 1.99972E-13
 -1     11249 1.24589E+01 8.04350E+01 2.51072E-03-6.15009E+00 1.78274E-13-7.76983E-15
 -1     11250 1.29886E+01 8.05889E+01 3.47824E-03-6.75647E+00-1.87073E-13-5.38623E-14
 -1     11251 1.30863E+01 7.97028E+01 2.14454E-03-5.62013E+00-2.46192E-14-2.04304E-13
 -1     11252 1.36256E+01 7.98073E+01 2.60760E-03-6.18157E+00-5.04111E-13 9.85410E-14
 -1     11253 1.36199E+01 7.90372E+01 1.84696E-03-5.08377E+00 3.34871E-13 2.70010E-13
 -1     11254 1.41600E+01 7.91056E+01 1.97087E-03-5.60278E+00-3.76116E-13 1.66584E-13
 -1     11255 1.40777E+01 7.84316E+01 1.62363E-03-4.55292E+00-2.42216E-13 1.59560E-14
 -1     11256 1.46132E+01 7.84729E+01 1.50222E-03-5.03250E+00 3.69496E-13-3.16094E-13
 -1     11257 1.44728E+01 7.78812E+01 1.46842E-03-4.03501E+00 6.70318E-13 3.31679E-15
 -1     11258 1.50010E+01 7.79013E+01 1.15488E-03-4.47809E+00-4.09131E-13 3.32989E-13
 -1     11259 1.48150E+01 7.73827E+01 1.37079E-03-3.53459E+00 2.73108E-13 8.03455E-14
 -1     11260 1.53349E+01 7.73852E+01 8.96233E-04-3.94369E+00 4.47663E-13-7.19199E-14
 -1     11261 1.56229E+01 7.69213E+01 7.03251E-04-3.43140E+00-2.36512E-13-2.34066E-13
 -1     11262 4.22745E-01 8.69659E+01-9.64514E-02-2.98905E+00-3.65791E-13-2.67286E-13
 -1     11263 3.38120E-01 8.68286E+01-1.29172E-01-1.75482E+00 6.06543E-13 6.57530E-14
 -1     11264 2.35652E+00 8.83757E+01-3.63515E-02-5.94740E+00 1.96593E-13 3.82028E-13
 -1     11265 1.95946E+00 8.95142E+01 1.17517E-02-5.44719E+00-2.11081E-13 1.34004E-13
 -1     11266 4.78883E+00 8.79659E+01-1.54017E-02-7.93372E+00-2.03976E-13-3.27058E-13
 -1     11267 4.55957E+00 8.93694E+01 2.54018E-02-8.19419E+00-2.16077E-13 2.62818E-13
 -1     11268 7.11766E+00 8.67476E+01-1.11869E-03-8.90914E+00-2.19713E-13-4.10227E-14
 -1     11269 7.19516E+00 8.79366E+01 2.26603E-02-9.59834E+00 5.86031E-13-4.29157E-13
 -1     11270 9.06853E+00 8.53245E+01 4.58715E-03-9.16028E+00-1.45300E-13 2.54973E-13
 -1     11271 9.40908E+00 8.61922E+01 1.68437E-02-1.00055E+01 4.58245E-14 4.33611E-14
 -1     11272 1.06265E+01 8.39576E+01 5.63106E-03-8.97403E+00 7.65263E-13 1.92244E-13
 -1     11273 1.11372E+01 8.45518E+01 1.17728E-02-9.82966E+00-6.15896E-14 4.09401E-13
 -1     11274 1.18553E+01 8.27319E+01 5.19404E-03-8.54630E+00-5.54418E-13-1.41591E-13
 -1     11275 1.24585E+01 8.31272E+01 7.95747E-03-9.35258E+00-5.37098E-13-4.27172E-13
 -1     11276 1.28285E+01 8.16561E+01 4.33269E-03-7.99404E+00-3.83443E-14-3.90817E-13
 -1     11277 1.34744E+01 8.19139E+01 5.43202E-03-8.73373E+00-2.96291E-14 2.57634E-13
 -1     11278 1.36087E+01 8.07142E+01 3.49031E-03-7.38448E+00-2.78944E-14 1.71918E-13
 -1     11279 1.42678E+01 8.08783E+01 3.76989E-03-8.05724E+00 4.24549E-13-1.31617E-13
 -1     11280 1.42436E+01 7.98850E+01 2.80014E-03-6.75551E+00-3.44835E-13-3.62037E-15
 -1     11281 1.48990E+01 7.99852E+01 2.65629E-03-7.36705E+00-2.26541E-13-2.13246E-13
 -1     11282 1.47682E+01 7.91495E+01 2.27047E-03-6.12846E+00-6.74183E-13 8.97546E-15
 -1     11283 1.54108E+01 7.92055E+01 1.90103E-03-6.68583E+00 5.67518E-13 1.71325E-13
 -1     11284 1.52078E+01 7.84922E+01 1.88175E-03-5.51525E+00-1.56056E-14 2.25061E-13
 -1     11285 1.58331E+01 7.85171E+01 1.37505E-03-6.02508E+00 2.87312E-13-1.62346E-13
 -1     11286 1.55805E+01 7.79019E+01 1.60654E-03-4.92243E+00 2.87104E-13 8.42191E-14
 -1     11287 1.61868E+01 7.79041E+01 1.00103E-03-5.39039E+00-6.34812E-13 1.81346E-13
 -1     11288 1.58994E+01 7.73706E+01 1.42017E-03-4.35336E+00-7.18106E-14-1.16684E-13
 -1     11289 1.64866E+01 7.73554E+01 7.29392E-04-4.78410E+00-2.69659E-13 6.05800E-14
 -1     11290 1.61736E+01 7.68932E+01 1.30185E-03-3.80943E+00-4.67751E-13 7.37570E-14
 -1     11291 1.67428E+01 7.68635E+01 5.28882E-04-4.20672E+00-4.21101E-13-2.35213E-13
 -1     11292 1.69627E+01 7.64239E+01 3.79043E-04-3.65764E+00-2.10013E-13 3.85665E-13
 -1     11293 8.60642E-01 9.05808E+01-1.58513E-01-4.64858E+00 4.36262E-13-2.28900E-13
 -1     11294 6.09531E-01 9.15000E+01-1.17941E-01-2.80963E+00-8.32112E-14 1.06054E-13
 -1     11295 3.96268E+00 9.09154E+01-6.19531E-02-8.59811E+00-2.90212E-13 2.31981E-13
 -1     11296 3.44011E+00 9.31120E+01-2.96347E-02-8.29619E+00-3.30069E-13-4.38899E-13
 -1     11297 7.27744E+00 8.92397E+01-2.50307E-03-1.05264E+01-1.69864E-14-8.65696E-14
 -1     11298 7.29319E+00 9.13107E+01 4.32657E-02-1.12661E+01 2.67231E-13 5.36890E-13
 -1     11299 9.91002E+00 8.70882E+01 9.09678E-03-1.10297E+01 8.69027E-14-1.33771E-13
 -1     11300 1.04159E+01 8.84559E+01 3.08559E-02-1.21042E+01 1.11633E-13-5.11623E-13
 -1     11301 1.18433E+01 8.51324E+01 1.05349E-02-1.07972E+01 2.96041E-13 4.31271E-13
 -1     11302 1.25888E+01 8.59744E+01 1.64203E-02-1.18578E+01 1.12937E-13 6.42840E-13
 -1     11303 1.32435E+01 8.34930E+01 8.82947E-03-1.02222E+01 2.05919E-13-4.13414E-13
 -1     11304 1.40865E+01 8.40003E+01 9.29592E-03-1.11800E+01-2.17770E-13-3.39430E-13
 -1     11305 1.42758E+01 8.21380E+01 6.58985E-03-9.50594E+00-5.10758E-13 1.24178E-13
 -1     11306 1.51410E+01 8.24376E+01 5.65816E-03-1.03496E+01-6.60860E-14-1.33123E-13
 -1     11307 1.50562E+01 8.10098E+01 4.92315E-03-8.74425E+00-8.65419E-14 6.90593E-14
 -1     11308 1.59053E+01 8.11806E+01 3.45257E-03-9.48693E+00 4.87527E-14 4.80092E-13
 -1     11309 1.56614E+01 8.00556E+01 3.67886E-03-7.98229E+00-5.00155E-14-2.37352E-13
 -1     11310 1.64789E+01 8.01452E+01 2.22444E-03-8.64090E+00 7.84345E-13-2.08621E-13
 -1     11311 1.61423E+01 7.92351E+01 2.80610E-03-7.24098E+00 5.27481E-13 1.60965E-13
 -1     11312 1.69227E+01 7.92725E+01 1.45693E-03-7.83040E+00 6.34798E-13 3.37692E-13
 -1     11313 1.65328E+01 7.85190E+01 2.19615E-03-6.52958E+00-2.71921E-13-2.99923E-13
 -1     11314 1.72754E+01 7.85220E+01 9.73561E-04-7.06176E+00 5.93969E-14-4.36276E-13
 -1     11315 1.68560E+01 7.78864E+01 1.77508E-03-5.85165E+00 1.25726E-13 2.06227E-13
 -1     11316 1.75622E+01 7.78662E+01 6.49745E-04-6.33584E+00 4.91593E-13 1.18142E-13
 -1     11317 1.71274E+01 7.73230E+01 1.48869E-03-5.20790E+00-5.62606E-14 9.27695E-14
 -1     11318 1.77998E+01 7.72863E+01 4.24150E-04-5.65121E+00 3.01759E-13-1.21333E-13
 -1     11319 1.73580E+01 7.68192E+01 1.29930E-03-4.59759E+00 3.15498E-13 5.48693E-15
 -1     11320 1.79996E+01 7.67698E+01 2.59982E-04-5.00551E+00-2.27970E-13 1.70412E-13
 -1     11321 1.75552E+01 7.63688E+01 1.18003E-03-4.01917E+00 5.33122E-13 1.68046E-13
 -1     11322 1.81694E+01 7.63086E+01 1.36353E-04-4.39600E+00-2.09804E-13 4.16681E-15
 -1     11323 1.83143E+01 7.58977E+01 4.06388E-05-3.81978E+00-1.86802E-13 9.33489E-14
 -1     11324 1.66367E+00 9.62531E+01-1.70588E-01-8.08225E+00-5.91083E-13-3.24879E-13
 -1     11325 1.93871E+00 9.99026E+01 6.04588E-03-5.42080E+00-4.74287E-13-1.14964E-13
 -1     11326 7.26011E+00 9.36731E+01-1.60210E-02-1.24079E+01 9.44800E-14 6.22974E-14
 -1     11327 7.42262E+00 9.78706E+01 1.84132E-01-1.31717E+01 7.57172E-14-1.46272E-13
 -1     11328 1.12957E+01 8.98926E+01 2.36710E-02-1.34735E+01-1.02029E-13 7.34517E-14
 -1     11329 1.21822E+01 9.22817E+01 6.33357E-02-1.49273E+01 7.08433E-13 1.35031E-14
 -1     11330 1.37179E+01 8.68192E+01 2.43851E-02-1.30688E+01-7.94365E-14 1.91874E-13
 -1     11331 1.49037E+01 8.80662E+01 1.05081E-02-1.44630E+01 2.04337E-13 4.08576E-13
 -1     11332 1.52418E+01 8.44755E+01 1.45763E-02-1.21956E+01-5.24275E-13 1.67054E-13
 -1     11333 1.65207E+01 8.51256E+01 1.04306E-02-1.33496E+01-7.70356E-13-4.05856E-13
 -1     11334 1.62464E+01 8.27026E+01 1.04125E-02-1.12071E+01 2.97540E-13-3.60406E-13
 -1     11335 1.74579E+01 8.30408E+01 3.32702E-03-1.21568E+01-3.98293E-14 4.60069E-13
 -1     11336 1.69385E+01 8.13186E+01 6.93503E-03-1.02232E+01 4.76008E-14 1.32394E-13
 -1     11337 1.80651E+01 8.14864E+01 2.21907E-03-1.10232E+01-1.84269E-13-3.45078E-13
 -1     11338 1.74396E+01 8.02057E+01 4.83708E-03-9.28439E+00-1.37168E-13 4.44332E-14
 -1     11339 1.84789E+01 8.02751E+01 1.16216E-03-9.97291E+00 8.72552E-13 1.28703E-13
 -1     11340 1.78165E+01 7.92845E+01 3.47436E-03-8.40148E+00 1.31520E-13-3.18155E-13
 -1     11341 1.87769E+01 7.92952E+01 7.75117E-04-9.00576E+00-5.31755E-13-1.45613E-13
 -1     11342 1.81097E+01 7.85031E+01 2.58585E-03-7.57498E+00-7.80431E-13 1.54772E-13
 -1     11343 1.90004E+01 7.84778E+01 5.36513E-04-8.11355E+00 4.03566E-13-2.61857E-13
 -1     11344 1.83439E+01 7.78271E+01 1.99757E-03-6.80172E+00 3.96572E-13 7.29486E-14
 -1     11345 1.91738E+01 7.77792E+01 4.01270E-04-7.28765E+00 4.25049E-13 3.43236E-13
 -1     11346 1.85353E+01 7.72334E+01 1.60476E-03-6.07750E+00 2.63324E-13 9.77933E-14
 -1     11347 1.93118E+01 7.71710E+01 3.05169E-04-6.52017E+00-1.11265E-13 3.32033E-13
 -1     11348 1.86945E+01 7.67068E+01 1.34368E-03-5.39805E+00 6.42347E-13-4.04267E-13
 -1     11349 1.94242E+01 7.66343E+01 2.28700E-04-5.80437E+00-2.39142E-13-1.51809E-13
 -1     11350 1.88287E+01 7.62374E+01 1.17343E-03-4.75929E+00-7.14998E-13 2.54761E-14
 -1     11351 1.95173E+01 7.61571E+01 1.61002E-04-5.13451E+00 2.28560E-13-4.40706E-13
 -1     11352 1.89429E+01 7.58186E+01 1.06692E-03-4.15740E+00 1.59948E-13 3.02636E-13
 -1     11353 1.95953E+01 7.57314E+01 9.81066E-05-4.50560E+00-1.81972E-13 3.70273E-13
 -1     11354 1.96613E+01 7.53525E+01 3.86525E-05-3.91323E+00 2.36179E-13-1.82833E-13
 -1     11355 6.91589E+00 1.01442E+02-7.41635E-01-1.49116E+01-6.24056E-13-2.19928E-13
 -1     11356 7.15140E+00 1.12315E+02-1.65663E-01-1.20999E+01 2.80442E-13-2.91378E-13
 -1     11357 1.41114E+01 9.51028E+01 1.26947E-01-1.71606E+01 1.40332E-13 5.32990E-13
 -1     11358 1.50805E+01 1.00607E+02-1.06815E-01-1.97041E+01-1.11022E-14 4.68126E-13
 -1     11359 1.69065E+01 8.93148E+01 1.76814E-02-1.60052E+01 2.82163E-13 1.02002E-14
 -1     11360 1.96107E+01 9.10970E+01 7.02264E-02-1.80352E+01-2.49800E-13 1.93873E-13
 -1     11361 1.83584E+01 8.57788E+01 3.36188E-02-1.44961E+01-3.07476E-13-3.69899E-13
 -1     11362 2.03992E+01 8.65667E+01-2.61142E-03-1.57931E+01-7.08045E-13-3.92936E-13
 -1     11363 1.90374E+01 8.33633E+01 1.79539E-02-1.30567E+01 4.25771E-14-5.34017E-14
 -1     11364 2.08064E+01 8.37312E+01 1.47324E-02-1.40463E+01-4.75925E-13 1.52239E-14
 -1     11365 1.94430E+01 8.16365E+01 1.12479E-02-1.17669E+01-4.36082E-13 3.99659E-13
 -1     11366 2.09564E+01 8.17947E+01 9.51975E-03-1.25590E+01-1.40471E-13-1.50976E-13
 -1     11367 1.96997E+01 8.03267E+01 7.70829E-03-1.06093E+01 1.18611E-12 2.97186E-13
 -1     11368 2.10273E+01 8.03743E+01 9.92795E-03-1.12775E+01-2.54699E-13 6.77097E-13
 -1     11369 1.98739E+01 7.92889E+01 5.54240E-03-9.56409E+00 3.13027E-13-1.61378E-13
 -1     11370 2.10573E+01 7.92736E+01 9.27202E-03-1.01442E+01-3.66249E-13-2.17354E-13
 -1     11371 1.99978E+01 7.84367E+01 4.23627E-03-8.61221E+00 3.84970E-13-3.08850E-13
 -1     11372 2.10672E+01 7.83851E+01 8.85995E-03-9.12706E+00-6.99163E-14 7.09155E-15
 -1     11373 2.00893E+01 7.77169E+01 3.37646E-03-7.73891E+00 5.68837E-13 5.46230E-14
 -1     11374 2.10660E+01 7.76440E+01 8.39020E-03-8.20275E+00 1.67436E-13-9.41053E-14
 -1     11375 2.01588E+01 7.70956E+01 2.79977E-03-6.93261E+00 3.81639E-15 8.49147E-14
 -1     11376 2.10583E+01 7.70101E+01 7.92834E-03-7.35521E+00 1.12380E-12-2.42376E-13
 -1     11377 2.02129E+01 7.65506E+01 2.40058E-03-6.18424E+00-7.53141E-13-1.00774E-13
 -1     11378 2.10468E+01 7.64576E+01 7.46854E-03-6.57258E+00-2.91371E-13-1.70444E-13
 -1     11379 2.02557E+01 7.60675E+01 2.12058E-03-5.48657E+00-3.43142E-13-2.02203E-13
 -1     11380 2.10332E+01 7.59697E+01 7.02008E-03-5.84584E+00 1.18600E-13 1.88793E-13
 -1     11381 2.02903E+01 7.56368E+01 1.92287E-03-4.83362E+00 1.51511E-12 7.37188E-14
 -1     11382 2.10186E+01 7.55352E+01 6.58773E-03-5.16787E+00 1.00614E-14 2.79863E-13
 -1     11383 2.03185E+01 7.52528E+01 1.78371E-03-4.22028E+00-4.91177E-13 3.50279E-13
 -1     11384 2.10037E+01 7.51474E+01 6.17643E-03-4.53280E+00 1.11477E-12-9.52502E-14
 -1     11385 2.09893E+01 7.48019E+01 5.79061E-03-3.93561E+00-6.79734E-14-5.00607E-14
 -1     11386 1.99519E+01 1.06575E+02 1.42459E-01-2.26876E+01 7.65832E-13 9.31477E-14
 -1     11387 2.43967E+01 9.35184E+01 3.38712E-01-1.96642E+01-7.31970E-13-5.13478E-14
 -1     11388 2.34466E+01 8.75587E+01 1.35766E-01-1.67602E+01 3.85664E-13-2.60791E-13
 -1     11389 2.30368E+01 8.41629E+01 6.59651E-02-1.48050E+01-4.52527E-13-2.22433E-13
 -1     11390 2.27560E+01 8.19821E+01 5.12678E-02-1.31916E+01-6.41709E-14 2.60625E-13
 -1     11391 2.25449E+01 8.04250E+01 3.99056E-02-1.18290E+01 5.29993E-13 1.45522E-13
 -1     11392 2.23785E+01 7.92496E+01 3.39748E-02-1.06363E+01-5.50809E-13 1.63508E-13
 -1     11393 2.22417E+01 7.83177E+01 2.95595E-02-9.57282E+00 3.72424E-13 3.22797E-14
 -1     11394 2.21262E+01 7.75520E+01 2.63743E-02-8.61073E+00-8.25860E-13 1.10328E-15
 -1     11395 2.20262E+01 7.69043E+01 2.38735E-02-7.73145E+00 8.79435E-14 6.81399E-15
 -1     11396 2.19380E+01 7.63444E+01 2.18556E-02-6.92161E+00 1.96246E-13-6.81101E-13
 -1     11397 2.18593E+01 7.58525E+01 2.01762E-02-6.17123E+00 2.10866E-13 2.00628E-13
 -1     11398 2.17885E+01 7.54159E+01 1.87514E-02-5.47259E+00 5.66068E-13 2.94331E-13
 -1     11399 2.17246E+01 7.50263E+01 1.75264E-02-4.81943E+00-1.12022E-12 1.71179E-13
 -1     11400 2.16672E+01 7.46786E+01 1.64657E-02-4.20647E+00 4.89799E-13 3.02317E-13
 -1     11401 2.09703E+01 7.43560E+01 5.87734E-03-3.09886E+00 6.44727E-14 1.69052E-13
 -1     11402 1.97448E+01 7.48645E+01 1.23145E-03-3.08209E+00-3.45755E-13 2.81239E-13
 -1     11403 1.84979E+01 7.53688E+01 1.85583E-03-3.00911E+00 2.68164E-13-1.14240E-13
 -1     11404 1.72415E+01 7.58570E+01 2.74654E-03-2.88190E+00 2.77001E-14-1.36689E-13
 -1     11405 1.59894E+01 7.63203E+01 3.55054E-03-2.70362E+00 2.28312E-13 3.32845E-13
 -1     11406 1.47545E+01 7.67514E+01 4.20904E-03-2.47855E+00-1.82502E-13-1.75097E-13
 -1     11407 1.35481E+01 7.71442E+01 4.69427E-03-2.21190E+00-2.39029E-13-3.55883E-13
 -1     11408 1.23792E+01 7.74942E+01 4.99436E-03-1.90935E+00 2.04958E-14-6.31554E-14
 -1     11409 1.12549E+01 7.77987E+01 5.11028E-03-1.57665E+00-1.04772E-13 1.31141E-13
 -1     11410 1.01794E+01 7.80566E+01 5.05186E-03-1.21919E+00 2.37784E-13 1.17689E-13
 -1     11411 9.15501E+00 7.82683E+01 4.83300E-03-8.41622E-01 7.13440E-14-2.31431E-13
 -1     11412 8.18148E+00 7.84360E+01 4.46686E-03-4.47572E-01 5.11414E-14-1.47938E-13
 -1     11413 7.25667E+00 7.85629E+01 3.96134E-03-3.94564E-02 1.55060E-13 2.82339E-14
 -1     11414 6.37655E+00 7.86535E+01 3.31509E-03 3.81639E-01 5.08956E-13 2.22351E-13
 -1     11415 5.53534E+00 7.87139E+01 2.51354E-03 8.15976E-01 2.35973E-13-1.68081E-13
 -1     11416 4.72562E+00 7.87511E+01 1.52487E-03 1.26511E+00-1.43665E-13-2.46597E-13
 -1     11417 3.93825E+00 7.87742E+01 2.95219E-04 1.73175E+00 6.22193E-14-2.76973E-13
 -1     11418 3.16231E+00 7.87942E+01-1.25711E-03 2.21950E+00-9.70161E-14 6.17024E-14
 -1     11419 2.38482E+00 7.88252E+01-3.24867E-03 2.73242E+00-1.82437E-13 1.76451E-13
 -1     11420 1.59047E+00 7.88850E+01-5.83847E-03 3.27441E+00 4.65029E-13 2.83818E-14
 -1     11421 7.61298E-01 7.89970E+01-9.23437E-03 3.84806E+00-2.84245E-13-2.83263E-14
 -1     11422-1.23498E-01 7.91918E+01-1.36924E-02 4.45293E+00 5.11900E-13 2.97106E-13
 -1     11423-1.08725E+00 7.95096E+01-1.95003E-02 5.08274E+00 2.96149E-13-2.11112E-13
 -1     11424-2.15433E+00 8.00029E+01-2.69095E-02 5.72106E+00 1.63191E-13 8.87589E-14
 -1     11425-3.34634E+00 8.07391E+01-3.60276E-02 6.33465E+00-9.37644E-14-1.57121E-13
 -1     11426-4.67323E+00 8.18016E+01-4.63722E-02 6.86398E+00 1.61907E-13 2.61131E-13
 -1     11427-6.11649E+00 8.32863E+01-5.68326E-02 7.21113E+00 1.53688E-14 3.19973E-13
 -1     11428-7.59749E+00 8.52899E+01-6.38176E-02 7.22632E+00 1.88946E-14 8.70901E-14
 -1     11429 2.09586E+01 7.41085E+01 5.56722E-03-2.57532E+00 3.24237E-14-2.95597E-15
 -1     11430 1.97879E+01 7.45932E+01 1.14871E-03-2.56157E+00 3.10450E-13-7.69784E-15
 -1     11431 1.85942E+01 7.50742E+01 1.74010E-03-2.50070E+00-5.50197E-13 1.25334E-13
 -1     11432 1.73885E+01 7.55400E+01 2.58982E-03-2.39439E+00 3.57710E-13-7.16697E-14
 -1     11433 1.61838E+01 7.59824E+01 3.37410E-03-2.24512E+00 1.17673E-13-3.37297E-13
 -1     11434 1.49920E+01 7.63943E+01 4.04517E-03-2.05611E+00-2.52727E-13-1.92920E-13
 -1     11435 1.38237E+01 7.67694E+01 4.58082E-03-1.83118E+00-2.22785E-13 3.21752E-14
 -1     11436 1.26879E+01 7.71028E+01 4.97023E-03-1.57449E+00 2.33603E-13 7.70651E-14
 -1     11437 1.15916E+01 7.73910E+01 5.21222E-03-1.29019E+00 3.27412E-14 3.12005E-14
 -1     11438 1.05398E+01 7.76318E+01 5.31294E-03-9.82110E-01 2.32571E-13-2.55815E-14
 -1     11439 9.53547E+00 7.78241E+01 5.28263E-03-6.53444E-01 9.38936E-14 1.14385E-14
 -1     11440 8.57955E+00 7.79684E+01 5.13210E-03-3.06476E-01 7.65551E-14 2.78689E-13
 -1     11441 7.67121E+00 7.80659E+01 4.86899E-03 5.76336E-02-7.99430E-14-2.23398E-13
 -1     11442 6.80782E+00 7.81191E+01 4.49399E-03 4.39015E-01-6.53661E-14-3.04553E-13
 -1     11443 5.98510E+00 7.81314E+01 3.99676E-03 8.39213E-01-2.28715E-13 8.29350E-14
 -1     11444 5.19705E+00 7.81072E+01 3.35107E-03 1.26126E+00 3.87466E-13 3.52353E-14
 -1     11445 4.43592E+00 7.80524E+01 2.50852E-03 1.70975E+00-4.20115E-13 1.21278E-13
 -1     11446 3.69192E+00 7.79746E+01 1.38991E-03 2.19077E+00 4.13558E-15-7.57467E-15
 -1     11447 2.95288E+00 7.78838E+01-1.26857E-04 2.71191E+00 9.46812E-15-1.38058E-14
 -1     11448 2.20359E+00 7.77938E+01-2.22359E-03 3.28193E+00 1.41376E-13 7.09554E-14
 -1     11449 1.42501E+00 7.77232E+01-5.16434E-03 3.91032E+00 6.77756E-14 9.65287E-14
 -1     11450 5.93210E-01 7.76984E+01-9.32277E-03 4.60625E+00 1.41373E-13-2.63227E-13
 -1     11451-3.21732E-01 7.77569E+01-1.52128E-02 5.37660E+00-3.57499E-13 2.98858E-14
 -1     11452-1.35654E+00 7.79514E+01-2.34916E-02 6.22235E+00 1.70933E-13 2.03060E-13
 -1     11453-2.55435E+00 7.83568E+01-3.49706E-02 7.13224E+00 8.83963E-14 9.13332E-14
 -1     11454-3.96036E+00 7.90769E+01-5.01754E-02 8.07176E+00-2.38858E-13-1.16226E-14
 -1     11455-5.61099E+00 8.02509E+01-6.99839E-02 8.96597E+00-1.39693E-13-1.09288E-13
 -1     11456-7.49791E+00 8.20613E+01-8.89945E-02 9.67147E+00-1.84152E-13-1.78232E-13
 -1     11457 2.09486E+01 7.39006E+01 5.30927E-03-2.07501E+00-2.24680E-13-3.01315E-13
 -1     11458 1.98233E+01 7.43653E+01 1.09711E-03-2.06398E+00-4.35135E-13-5.25331E-14
 -1     11459 1.86736E+01 7.48265E+01 1.67564E-03-2.01456E+00-1.15047E-13 6.93113E-14
 -1     11460 1.75101E+01 7.52731E+01 2.50401E-03-1.92817E+00-1.40254E-13-2.08547E-13
 -1     11461 1.63448E+01 7.56971E+01 3.28192E-03-1.80669E+00-3.61962E-13 2.20691E-13
 -1     11462 1.51893E+01 7.60915E+01 3.97079E-03-1.65251E+00-3.60640E-13 2.00796E-13
 -1     11463 1.40538E+01 7.64498E+01 4.55394E-03-1.46837E+00 1.72235E-13-3.79102E-15
 -1     11464 1.29471E+01 7.67667E+01 5.02322E-03-1.25723E+00 1.89166E-13-2.96282E-13
 -1     11465 1.18765E+01 7.70381E+01 5.37804E-03-1.02199E+00 1.26432E-13-1.11038E-13
 -1     11466 1.08472E+01 7.72605E+01 5.62419E-03-7.65247E-01 3.74544E-14-9.40162E-14
 -1     11467 9.86322E+00 7.74318E+01 5.77187E-03-4.89044E-01-2.26253E-13 3.01328E-14
 -1     11468 8.92640E+00 7.75506E+01 5.83325E-03-1.94614E-01 3.02695E-13-1.35475E-13
 -1     11469 8.03716E+00 7.76165E+01 5.81975E-03 1.17833E-01 3.73897E-13 2.58851E-13
 -1     11470 7.19430E+00 7.76294E+01 5.73906E-03 4.49314E-01 3.58946E-13 1.54008E-13
 -1     11471 6.39509E+00 7.75903E+01 5.59170E-03 8.02263E-01-1.82934E-13 3.88101E-14
 -1     11472 5.63528E+00 7.75004E+01 5.36665E-03 1.18072E+00 3.63088E-13 1.49416E-13
 -1     11473 4.90896E+00 7.73617E+01 5.03539E-03 1.59056E+00-1.35406E-13-1.52864E-13
 -1     11474 4.20833E+00 7.71773E+01 4.54307E-03 2.03968E+00 1.18624E-13 9.50733E-14
 -1     11475 3.52324E+00 7.69516E+01 3.79499E-03 2.53830E+00-6.91461E-14-8.89054E-14
 -1     11476 2.84048E+00 7.66913E+01 2.63586E-03 3.09922E+00-6.61485E-14-8.36414E-14
 -1     11477 2.14265E+00 7.64067E+01 8.17608E-04 3.73801E+00-1.94712E-13-2.52428E-13
 -1     11478 1.40654E+00 7.61140E+01-2.04934E-03 4.47308E+00-2.40478E-13-1.76399E-13
 -1     11479 6.00924E-01 7.58387E+01-6.56995E-03 5.32521E+00-3.63248E-13 2.95736E-14
 -1     11480-3.16421E-01 7.56211E+01-1.36549E-02 6.31603E+00 7.44890E-15-2.64309E-13
 -1     11481-1.40217E+00 7.55244E+01-2.46960E-02 7.46430E+00 3.78343E-14-5.47201E-14
 -1     11482-2.72981E+00 7.56476E+01-4.13374E-02 8.77761E+00-3.48409E-13-3.43649E-13
 -1     11483-4.39019E+00 7.61405E+01-6.71500E-02 1.02362E+01 2.11834E-13-4.91412E-14
 -1     11484-6.46700E+00 7.72393E+01-9.75437E-02 1.17594E+01 1.45597E-13 2.02699E-13
 -1     11485 2.09404E+01 7.37329E+01 5.10281E-03-1.59383E+00-1.34795E-13-3.77370E-13
 -1     11486 1.98515E+01 7.41814E+01 1.06693E-03-1.58535E+00-3.22502E-14-6.07487E-14
 -1     11487 1.87369E+01 7.46266E+01 1.64456E-03-1.54705E+00 2.26262E-13-1.69918E-13
 -1     11488 1.76069E+01 7.50574E+01 2.46429E-03-1.48005E+00-1.42128E-13 2.20117E-13
 -1     11489 1.64733E+01 7.54660E+01 3.24425E-03-1.38576E+00 3.71661E-13-8.60228E-14
 -1     11490 1.53473E+01 7.58454E+01 3.95319E-03-1.26586E+00-1.36027E-13 8.38698E-14
 -1     11491 1.42387E+01 7.61889E+01 4.57948E-03-1.12227E+00 1.57799E-13-3.10828E-14
 -1     11492 1.31564E+01 7.64908E+01 5.11821E-03-9.57001E-01-5.83231E-14 5.86484E-14
 -1     11493 1.21077E+01 7.67463E+01 5.57083E-03-7.71997E-01-2.49746E-13-1.41392E-13
 -1     11494 1.10986E+01 7.69513E+01 5.94479E-03-5.68924E-01 9.35970E-14-1.91056E-13
 -1     11495 1.01334E+01 7.71022E+01 6.25250E-03-3.48972E-01 2.40448E-13 1.92040E-14
 -1     11496 9.21503E+00 7.71965E+01 6.51001E-03-1.12651E-01-2.24275E-13 7.57506E-14
 -1     11497 8.34503E+00 7.72316E+01 6.73537E-03 1.40417E-01 3.63765E-13-2.90900E-13
 -1     11498 7.52351E+00 7.72057E+01 6.94683E-03 4.11706E-01 2.34240E-13-2.86263E-13
 -1     11499 6.74933E+00 7.71169E+01 7.16076E-03 7.04004E-01 5.05394E-14-2.66352E-13
 -1     11500 6.02007E+00 7.69632E+01 7.38901E-03 1.02167E+00-7.20257E-15-1.00937E-13
 -1     11501 5.33198E+00 7.67426E+01 7.63513E-03 1.37093E+00-1.42969E-13 3.10102E-13
 -1     11502 4.67981E+00 7.64529E+01 7.88848E-03 1.76031E+00-1.80828E-14-1.12439E-13
 -1     11503 4.05645E+00 7.60919E+01 8.11445E-03 2.20109E+00-2.46018E-14 2.49124E-14
 -1     11504 3.45224E+00 7.56574E+01 8.23790E-03 2.70801E+00 4.72161E-13-7.10100E-14
 -1     11505 2.85403E+00 7.51484E+01 8.11474E-03 3.30015E+00-3.09180E-13-3.41515E-14
 -1     11506 2.24339E+00 7.45658E+01 7.48313E-03 4.00195E+00 1.05013E-13-1.63270E-13
 -1     11507 1.59407E+00 7.39149E+01 5.87906E-03 4.84454E+00-8.06161E-14-1.36179E-13
 -1     11508 8.67968E-01 7.32097E+01 2.49862E-03 5.86684E+00 2.77309E-13 4.89123E-14
 -1     11509 9.05576E-03 7.24796E+01-4.07410E-03 7.11622E+00 3.39583E-13 1.63869E-13
 -1     11510-1.06484E+00 7.17826E+01-1.59762E-02 8.64668E+00 3.09350E-13 2.63886E-13
 -1     11511-2.47433E+00 7.12229E+01-3.82804E-02 1.05118E+01-2.03587E-14-1.02841E-13
 -1     11512-4.37622E+00 7.10043E+01-6.85482E-02 1.27414E+01 1.47979E-13-1.55154E-14
 -1     11513 2.09342E+01 7.36061E+01 4.94776E-03-1.12765E+00 2.32765E-14 7.36176E-13
 -1     11514 1.98725E+01 7.40425E+01 1.05075E-03-1.12163E+00 2.05756E-14 3.07449E-13
 -1     11515 1.87842E+01 7.44755E+01 1.63311E-03-1.09430E+00 2.29886E-14 4.13854E-13
 -1     11516 1.76795E+01 7.48942E+01 2.45135E-03-1.04648E+00-2.70100E-13 1.55215E-13
 -1     11517 1.65697E+01 7.52909E+01 3.23728E-03-9.79138E-01 1.31324E-13 5.92072E-13
 -1     11518 1.54659E+01 7.56583E+01 3.96519E-03-8.93394E-01-3.74685E-13 9.44648E-14
 -1     11519 1.43780E+01 7.59898E+01 4.62757E-03-7.90497E-01 2.87860E-14 4.72720E-13
 -1     11520 1.33146E+01 7.62795E+01 5.22260E-03-6.71736E-01-2.78021E-13 2.24344E-13
 -1     11521 1.22834E+01 7.65217E+01 5.75423E-03-5.38320E-01-4.74511E-13 4.80835E-13
 -1     11522 1.12906E+01 7.67118E+01 6.23232E-03-3.91238E-01-1.56009E-13 4.41707E-13
 -1     11523 1.03411E+01 7.68454E+01 6.67252E-03-2.31115E-01 2.45326E-13 1.36552E-13
 -1     11524 9.43866E+00 7.69184E+01 7.09573E-03-5.80458E-02 8.19657E-14-2.52678E-13
 -1     11525 8.58562E+00 7.69272E+01 7.52763E-03 1.28569E-01 2.99785E-13 7.70133E-14
 -1     11526 7.78332E+00 7.68678E+01 7.99819E-03 3.30203E-01-2.85386E-13 2.03657E-14
 -1     11527 7.03202E+00 7.67360E+01 8.54132E-03 5.49407E-01 1.65340E-13 2.53354E-13
 -1     11528 6.33105E+00 7.65270E+01 9.19465E-03 7.90065E-01-1.20907E-13 2.60854E-13
 -1     11529 5.67878E+00 7.62349E+01 9.99933E-03 1.05771E+00 6.52187E-14-2.88879E-14
 -1     11530 5.07262E+00 7.58525E+01 1.09993E-02 1.35996E+00 5.64583E-14 2.19660E-13
 -1     11531 4.50884E+00 7.53709E+01 1.22395E-02 1.70711E+00-1.91028E-13-1.29645E-14
 -1     11532 3.98219E+00 7.47789E+01 1.37612E-02 2.11297E+00-2.49380E-13 1.97018E-13
 -1     11533 3.48523E+00 7.40630E+01 1.55917E-02 2.59604E+00-3.19401E-13 4.98279E-13
 -1     11534 3.00708E+00 7.32065E+01 1.77210E-02 3.18117E+00-9.00009E-14 3.31568E-13
 -1     11535 2.53136E+00 7.21902E+01 2.00560E-02 3.90190E+00 1.27977E-13 1.34016E-13
 -1     11536 2.03259E+00 7.09928E+01 2.23205E-02 4.80371E+00 4.94660E-13 5.03209E-14
 -1     11537 1.47015E+00 6.95932E+01 2.38641E-02 5.94830E+00-5.57929E-13-1.21750E-13
 -1     11538 7.77970E-01 6.79764E+01 2.33494E-02 7.41885E+00 2.98164E-14-5.18544E-14
 -1     11539-1.53331E-01 6.61430E+01 1.70700E-02 9.32516E+00-5.59899E-14-8.66113E-14
 -1     11540-1.49628E+00 6.41522E+01 6.06785E-03 1.18022E+01-3.60961E-14-9.21069E-14
 -1     11541 2.09300E+01 7.35211E+01 4.84424E-03-6.72256E-01-1.46275E-13-2.65414E-13
 -1     11542 1.98866E+01 7.39494E+01 1.04303E-03-6.68647E-01-3.57941E-13-1.95936E-13
 -1     11543 1.88158E+01 7.43741E+01 1.63113E-03-6.52249E-01-1.46419E-13-2.22956E-13
 -1     11544 1.77278E+01 7.47846E+01 2.45080E-03-6.23555E-01-3.67704E-13-1.16646E-13
 -1     11545 1.66341E+01 7.51731E+01 3.24291E-03-5.83127E-01-7.32157E-14-6.26882E-13
 -1     11546 1.55452E+01 7.55323E+01 3.98550E-03-5.31608E-01 6.84335E-13 1.89051E-13
 -1     11547 1.44712E+01 7.58555E+01 4.67399E-03-4.69698E-01-4.70434E-13-5.12472E-13
 -1     11548 1.34208E+01 7.61363E+01 5.30894E-03-3.98111E-01 1.43451E-13-3.32796E-14
 -1     11549 1.24017E+01 7.63691E+01 5.89640E-03-3.17499E-01 5.44790E-13-1.81460E-13
 -1     11550 1.14204E+01 7.65484E+01 6.44851E-03-2.28374E-01 2.40958E-13-3.58224E-13
 -1     11551 1.04823E+01 7.66692E+01 6.98384E-03-1.31012E-01-1.76779E-13-1.71698E-13
 -1     11552 9.59141E+00 7.67268E+01 7.52763E-03-2.53562E-02-2.70488E-13 3.81730E-14
 -1     11553 8.75098E+00 7.67163E+01 8.11216E-03 8.90976E-02 3.10429E-13-1.41012E-13
 -1     11554 7.96315E+00 7.66323E+01 8.77740E-03 2.13419E-01-2.54099E-13 1.97670E-13
 -1     11555 7.22927E+00 7.64689E+01 9.57230E-03 3.49389E-01-2.17541E-13-2.44362E-13
 -1     11556 6.55001E+00 7.62191E+01 1.05569E-02 4.99684E-01 4.53967E-13-2.17039E-13
 -1     11557 5.92547E+00 7.58740E+01 1.18058E-02 6.68118E-01 6.68562E-14-8.12293E-14
 -1     11558 5.35526E+00 7.54224E+01 1.34128E-02 8.59969E-01 3.72851E-13-7.05768E-14
 -1     11559 4.83861E+00 7.48500E+01 1.54984E-02 1.08246E+00 1.26912E-14 6.40876E-14
 -1     11560 4.37424E+00 7.41382E+01 1.82198E-02 1.34543E+00-6.65787E-15-3.41904E-13
 -1     11561 3.96017E+00 7.32624E+01 2.17840E-02 1.66235E+00 1.39264E-13-3.92955E-13
 -1     11562 3.59320E+00 7.21910E+01 2.64658E-02 2.05179E+00 4.75096E-13-3.36484E-13
 -1     11563 3.26784E+00 7.08818E+01 3.26298E-02 2.53965E+00 8.16014E-15-1.21222E-13
 -1     11564 2.97421E+00 6.92796E+01 4.07388E-02 3.16255E+00-1.63786E-13-2.52340E-13
 -1     11565 2.69402E+00 6.73115E+01 5.13949E-02 3.97293E+00-3.29028E-13 2.16598E-14
 -1     11566 2.39246E+00 6.48816E+01 6.51212E-02 5.04670E+00-1.10849E-13-2.77868E-14
 -1     11567 2.00287E+00 6.18643E+01 8.22968E-02 6.49450E+00-2.86007E-13 5.02931E-14
 -1     11568 1.39564E+00 5.81093E+01 1.04948E-01 8.47559E+00 1.98355E-13 6.27623E-14
 -1     11569 2.09279E+01 7.34785E+01 4.79243E-03-2.23361E-01 1.73007E-13 6.93435E-13
 -1     11570 1.98936E+01 7.39026E+01 1.04010E-03-2.22159E-01-1.61668E-13 2.81635E-13
 -1     11571 1.88316E+01 7.43232E+01 1.63184E-03-2.16692E-01 1.16301E-13 3.55958E-13
 -1     11572 1.77520E+01 7.47296E+01 2.45295E-03-2.07124E-01 5.82583E-13 4.46010E-13
 -1     11573 1.66663E+01 7.51139E+01 3.24884E-03-1.93642E-01-3.07766E-13 3.12381E-13
 -1     11574 1.55850E+01 7.54690E+01 3.99942E-03-1.76453E-01 4.65322E-14-3.04356E-13
 -1     11575 1.45180E+01 7.57878E+01 4.70163E-03-1.55784E-01 9.62754E-14 2.71026E-13
 -1     11576 1.34742E+01 7.60641E+01 5.35733E-03-1.31862E-01-3.53143E-13 1.93900E-13
 -1     11577 1.24613E+01 7.62919E+01 5.97376E-03-1.04892E-01-2.84417E-13-8.39751E-14
 -1     11578 1.14860E+01 7.64655E+01 6.56439E-03-7.50309E-02 4.09438E-13 3.28444E-13
 -1     11579 1.05537E+01 7.65797E+01 7.14952E-03-4.23539E-02-1.63189E-13 2.66515E-13
 -1     11580 9.66894E+00 7.66291E+01 7.75692E-03-6.82150E-03-1.40960E-13 4.14096E-13
 -1     11581 8.83522E+00 7.66083E+01 8.42266E-03 3.17590E-02 1.22985E-13 4.24880E-13
 -1     11582 8.05516E+00 7.65113E+01 9.19248E-03 7.37772E-02-1.10606E-14 5.46326E-14
 -1     11583 7.33068E+00 7.63313E+01 1.01240E-02 1.19872E-01 2.67935E-13 5.43768E-13
 -1     11584 6.66320E+00 7.60598E+01 1.12903E-02 1.70996E-01-2.88259E-13 1.49602E-13
 -1     11585 6.05377E+00 7.56864E+01 1.27856E-02 2.28510E-01-3.85792E-13 3.67671E-13
 -1     11586 5.50329E+00 7.51979E+01 1.47336E-02 2.94303E-01 2.14162E-13-1.57129E-13
 -1     11587 5.01266E+00 7.45767E+01 1.73010E-02 3.70973E-01 1.34802E-13 1.14124E-13
 -1     11588 4.58299E+00 7.37999E+01 2.07170E-02 4.62087E-01-1.22867E-13 2.08903E-13
 -1     11589 4.21563E+00 7.28370E+01 2.53043E-02 5.72576E-01-9.25891E-14 1.40840E-13
 -1     11590 3.91222E+00 7.16470E+01 3.15263E-02 7.09324E-01 3.95739E-13 3.78371E-13
 -1     11591 3.67436E+00 7.01743E+01 4.00643E-02 8.82082E-01-2.06314E-13 1.09078E-13
 -1     11592 3.50286E+00 6.83426E+01 5.19196E-02 1.10489E+00 5.21805E-15 2.97784E-13
 -1     11593 3.39568E+00 6.60461E+01 6.86622E-02 1.39834E+00-1.16920E-14 1.95783E-13
 -1     11594 3.34281E+00 6.31353E+01 9.24124E-02 1.79316E+00-3.28126E-13 3.02171E-13
 -1     11595 3.31596E+00 5.93968E+01 1.27282E-01 2.33591E+00-3.20508E-13 2.40414E-13
 -1     11596 3.23591E+00 5.45235E+01 1.77269E-01 3.09758E+00-7.28792E-13-1.40818E-13
 -1     11597 2.09279E+01 7.34785E+01 4.79243E-03 2.23361E-01 8.79210E-13-3.49197E-13
 -1     11598 1.98936E+01 7.39026E+01 1.04010E-03 2.22159E-01-3.13981E-13-2.57021E-13
 -1     11599 1.88316E+01 7.43232E+01 1.63184E-03 2.16692E-01-2.65749E-13-1.78003E-13
 -1     11600 1.77520E+01 7.47296E+01 2.45295E-03 2.07124E-01 2.58255E-13-4.76071E-13
 -1     11601 1.66663E+01 7.51139E+01 3.24884E-03 1.93642E-01 3.19219E-13 2.00838E-15
 -1     11602 1.55850E+01 7.54690E+01 3.99942E-03 1.76453E-01 1.47002E-13-8.19359E-14
 -1     11603 1.45180E+01 7.57878E+01 4.70163E-03 1.55784E-01-4.45633E-13 1.51265E-14
 -1     11604 1.34742E+01 7.60641E+01 5.35733E-03 1.31862E-01 2.04954E-13 1.95657E-14
 -1     11605 1.24613E+01 7.62919E+01 5.97376E-03 1.04892E-01 2.05645E-13 2.37834E-13
 -1     11606 1.14860E+01 7.64655E+01 6.56439E-03 7.50309E-02 4.07598E-13-3.20924E-13
 -1     11607 1.05537E+01 7.65797E+01 7.14952E-03 4.23539E-02-2.14360E-13-5.74177E-13
 -1     11608 9.66894E+00 7.66291E+01 7.75692E-03 6.82150E-03 3.44658E-13-2.41037E-13
 -1     11609 8.83522E+00 7.66083E+01 8.42266E-03-3.17590E-02-3.79485E-13 4.55203E-14
 -1     11610 8.05516E+00 7.65113E+01 9.19248E-03-7.37772E-02 4.24973E-13-1.25548E-13
 -1     11611 7.33068E+00 7.63313E+01 1.01240E-02-1.19872E-01 1.00926E-13-8.50841E-14
 -1     11612 6.66320E+00 7.60598E+01 1.12903E-02-1.70996E-01-4.14099E-13-8.99996E-14
 -1     11613 6.05377E+00 7.56864E+01 1.27856E-02-2.28510E-01 8.98413E-14-3.35209E-13
 -1     11614 5.50329E+00 7.51979E+01 1.47336E-02-2.94303E-01-1.54182E-14 3.61749E-13
 -1     11615 5.01266E+00 7.45767E+01 1.73010E-02-3.70973E-01 1.59279E-13-6.93369E-15
 -1     11616 4.58299E+00 7.37999E+01 2.07170E-02-4.62087E-01 1.60580E-13-1.29744E-13
 -1     11617 4.21563E+00 7.28370E+01 2.53043E-02-5.72576E-01 2.86517E-13-6.00464E-14
 -1     11618 3.91222E+00 7.16470E+01 3.15263E-02-7.09324E-01-6.42056E-14 1.77727E-14
 -1     11619 3.67436E+00 7.01743E+01 4.00643E-02-8.82082E-01 1.77469E-13 7.93883E-14
 -1     11620 3.50286E+00 6.83426E+01 5.19196E-02-1.10489E+00 1.72570E-14-3.46841E-14
 -1     11621 3.39568E+00 6.60461E+01 6.86622E-02-1.39834E+00 1.76331E-13-1.18017E-13
 -1     11622 3.34281E+00 6.31353E+01 9.24124E-02-1.79316E+00 2.47607E-13-3.11041E-13
 -1     11623 3.31596E+00 5.93968E+01 1.27282E-01-2.33591E+00-1.52933E-14-1.03632E-13
 -1     11624 3.23591E+00 5.45235E+01 1.77269E-01-3.09758E+00-2.06779E-14 8.89705E-14
 -1     11625 2.09300E+01 7.35211E+01 4.84424E-03 6.72256E-01-4.56492E-14-1.20228E-13
 -1     11626 1.98866E+01 7.39494E+01 1.04303E-03 6.68647E-01-2.62321E-13 2.75303E-13
 -1     11627 1.88158E+01 7.43741E+01 1.63113E-03 6.52249E-01 2.81129E-14-1.85480E-13
 -1     11628 1.77278E+01 7.47846E+01 2.45080E-03 6.23555E-01-3.44325E-14 1.96566E-13
 -1     11629 1.66341E+01 7.51731E+01 3.24291E-03 5.83127E-01 1.38351E-13-1.42295E-13
 -1     11630 1.55452E+01 7.55323E+01 3.98550E-03 5.31608E-01 4.09603E-14 2.29612E-13
 -1     11631 1.44712E+01 7.58555E+01 4.67399E-03 4.69698E-01 9.95540E-14-2.17587E-13
 -1     11632 1.34208E+01 7.61363E+01 5.30894E-03 3.98111E-01-7.10099E-13-2.61045E-13
 -1     11633 1.24017E+01 7.63691E+01 5.89640E-03 3.17499E-01 1.16573E-15-3.27620E-13
 -1     11634 1.14204E+01 7.65484E+01 6.44851E-03 2.28374E-01-2.47111E-13 9.46256E-14
 -1     11635 1.04823E+01 7.66692E+01 6.98384E-03 1.31012E-01-3.62630E-13 9.05361E-14
 -1     11636 9.59141E+00 7.67268E+01 7.52763E-03 2.53562E-02-1.41380E-13 5.37254E-14
 -1     11637 8.75098E+00 7.67163E+01 8.11216E-03-8.90976E-02 2.69878E-13-3.67685E-13
 -1     11638 7.96315E+00 7.66323E+01 8.77740E-03-2.13419E-01 4.91378E-14 8.79499E-14
 -1     11639 7.22927E+00 7.64689E+01 9.57230E-03-3.49389E-01 2.15231E-13 8.51042E-14
 -1     11640 6.55001E+00 7.62191E+01 1.05569E-02-4.99684E-01 9.44904E-14 8.08143E-14
 -1     11641 5.92547E+00 7.58740E+01 1.18058E-02-6.68118E-01 2.50713E-13-8.27006E-14
 -1     11642 5.35526E+00 7.54224E+01 1.34128E-02-8.59969E-01-5.86885E-13-1.64198E-13
 -1     11643 4.83861E+00 7.48500E+01 1.54984E-02-1.08246E+00 2.76099E-14-2.82504E-13
 -1     11644 4.37424E+00 7.41382E+01 1.82198E-02-1.34543E+00 1.36662E-14 2.22777E-13
 -1     11645 3.96017E+00 7.32624E+01 2.17840E-02-1.66235E+00 1.24553E-14-1.13475E-13
 -1     11646 3.59320E+00 7.21910E+01 2.64658E-02-2.05179E+00 2.37144E-13-2.49855E-13
 -1     11647 3.26784E+00 7.08818E+01 3.26298E-02-2.53965E+00 2.72074E-14 8.75671E-14
 -1     11648 2.97421E+00 6.92796E+01 4.07388E-02-3.16255E+00-4.08659E-13-1.07506E-13
 -1     11649 2.69402E+00 6.73115E+01 5.13949E-02-3.97293E+00-2.35804E-13-1.14520E-13
 -1     11650 2.39246E+00 6.48816E+01 6.51212E-02-5.04670E+00 2.35770E-13 7.38749E-14
 -1     11651 2.00287E+00 6.18643E+01 8.22968E-02-6.49450E+00-2.17590E-13-1.41893E-13
 -1     11652 1.39564E+00 5.81093E+01 1.04948E-01-8.47559E+00-6.31301E-14-1.35780E-13
 -1     11653 2.09342E+01 7.36061E+01 4.94776E-03 1.12765E+00 3.37601E-13-1.86886E-13
 -1     11654 1.98725E+01 7.40425E+01 1.05075E-03 1.12163E+00-2.58713E-13-2.34557E-13
 -1     11655 1.87842E+01 7.44755E+01 1.63311E-03 1.09430E+00-1.03575E-13-8.04586E-14
 -1     11656 1.76795E+01 7.48942E+01 2.45135E-03 1.04648E+00-1.49398E-13-1.58294E-13
 -1     11657 1.65697E+01 7.52909E+01 3.23728E-03 9.79138E-01 2.78926E-13 3.51358E-13
 -1     11658 1.54659E+01 7.56583E+01 3.96519E-03 8.93394E-01-1.90972E-13-2.57503E-13
 -1     11659 1.43780E+01 7.59898E+01 4.62757E-03 7.90497E-01-2.78067E-13 2.42048E-13
 -1     11660 1.33146E+01 7.62795E+01 5.22260E-03 6.71736E-01-9.39370E-14 9.29052E-14
 -1     11661 1.22834E+01 7.65217E+01 5.75423E-03 5.38320E-01-7.56322E-14-3.38865E-14
 -1     11662 1.12906E+01 7.67118E+01 6.23232E-03 3.91238E-01 1.39028E-13-1.83001E-13
 -1     11663 1.03411E+01 7.68454E+01 6.67252E-03 2.31115E-01 4.39669E-13 5.46877E-14
 -1     11664 9.43866E+00 7.69184E+01 7.09573E-03 5.80458E-02-1.38778E-17-3.86861E-14
 -1     11665 8.58562E+00 7.69272E+01 7.52763E-03-1.28569E-01-5.36137E-13 8.16736E-14
 -1     11666 7.78332E+00 7.68678E+01 7.99819E-03-3.30203E-01-5.03157E-13 5.51417E-14
 -1     11667 7.03202E+00 7.67360E+01 8.54132E-03-5.49407E-01-1.83051E-13-3.19196E-13
 -1     11668 6.33105E+00 7.65270E+01 9.19465E-03-7.90065E-01-4.13416E-13-6.57686E-14
 -1     11669 5.67878E+00 7.62349E+01 9.99933E-03-1.05771E+00-3.22721E-13 2.46495E-13
 -1     11670 5.07262E+00 7.58525E+01 1.09993E-02-1.35996E+00 1.47476E-13 9.18441E-14
 -1     11671 4.50884E+00 7.53709E+01 1.22395E-02-1.70711E+00 4.99961E-13 9.01232E-14
 -1     11672 3.98219E+00 7.47789E+01 1.37612E-02-2.11297E+00 5.48173E-16-2.05266E-13
 -1     11673 3.48523E+00 7.40630E+01 1.55917E-02-2.59604E+00-7.20361E-14 1.33758E-13
 -1     11674 3.00708E+00 7.32065E+01 1.77210E-02-3.18117E+00 3.80251E-15-1.11591E-13
 -1     11675 2.53136E+00 7.21902E+01 2.00560E-02-3.90190E+00-1.88110E-13-5.64132E-15
 -1     11676 2.03259E+00 7.09928E+01 2.23205E-02-4.80371E+00-9.26897E-14-2.26208E-14
 -1     11677 1.47015E+00 6.95932E+01 2.38641E-02-5.94830E+00 5.98271E-14 2.82691E-14
 -1     11678 7.77970E-01 6.79764E+01 2.33494E-02-7.41885E+00-2.35652E-13 5.76483E-14
 -1     11679-1.53331E-01 6.61430E+01 1.70700E-02-9.32516E+00-3.04756E-13 1.09648E-13
 -1     11680-1.49628E+00 6.41522E+01 6.06785E-03-1.18022E+01 6.16479E-13 8.06855E-14
 -1     11681 2.09404E+01 7.37329E+01 5.10281E-03 1.59383E+00-2.18735E-13 2.11026E-13
 -1     11682 1.98515E+01 7.41814E+01 1.06693E-03 1.58535E+00-2.47077E-14 6.67261E-15
 -1     11683 1.87369E+01 7.46266E+01 1.64456E-03 1.54705E+00 1.81719E-13 1.30422E-13
 -1     11684 1.76069E+01 7.50574E+01 2.46429E-03 1.48005E+00-8.82645E-14 1.04837E-13
 -1     11685 1.64733E+01 7.54660E+01 3.24425E-03 1.38576E+00-1.84264E-13-4.89410E-13
 -1     11686 1.53473E+01 7.58454E+01 3.95319E-03 1.26586E+00 4.29977E-13-5.80157E-14
 -1     11687 1.42387E+01 7.61889E+01 4.57948E-03 1.12227E+00-2.37447E-13 4.41886E-14
 -1     11688 1.31564E+01 7.64908E+01 5.11821E-03 9.57001E-01-4.47493E-13-1.10551E-13
 -1     11689 1.21077E+01 7.67463E+01 5.57083E-03 7.71997E-01-6.14439E-15 8.33671E-14
 -1     11690 1.10986E+01 7.69513E+01 5.94479E-03 5.68924E-01 2.73618E-14-1.29096E-14
 -1     11691 1.01334E+01 7.71022E+01 6.25250E-03 3.48972E-01-1.01738E-13 3.62768E-14
 -1     11692 9.21503E+00 7.71965E+01 6.51001E-03 1.12651E-01 1.53311E-13 2.92169E-14
 -1     11693 8.34503E+00 7.72316E+01 6.73537E-03-1.40417E-01-9.72243E-14-2.02053E-13
 -1     11694 7.52351E+00 7.72057E+01 6.94683E-03-4.11706E-01-2.72497E-13 1.23623E-13
 -1     11695 6.74933E+00 7.71169E+01 7.16076E-03-7.04004E-01 2.50636E-13 1.39654E-14
 -1     11696 6.02007E+00 7.69632E+01 7.38901E-03-1.02167E+00 8.95777E-14-8.15628E-14
 -1     11697 5.33198E+00 7.67426E+01 7.63513E-03-1.37093E+00 1.47857E-13-2.48961E-13
 -1     11698 4.67981E+00 7.64529E+01 7.88848E-03-1.76031E+00 4.96301E-13-2.32178E-13
 -1     11699 4.05645E+00 7.60919E+01 8.11445E-03-2.20109E+00 1.42251E-13-7.55958E-14
 -1     11700 3.45224E+00 7.56574E+01 8.23790E-03-2.70801E+00 1.06859E-13-2.60464E-13
 -1     11701 2.85403E+00 7.51484E+01 8.11474E-03-3.30015E+00 1.10915E-13 3.20178E-14
 -1     11702 2.24339E+00 7.45658E+01 7.48313E-03-4.00195E+00-5.96231E-13 2.09862E-13
 -1     11703 1.59407E+00 7.39149E+01 5.87906E-03-4.84454E+00 1.28026E-13 3.96488E-14
 -1     11704 8.67968E-01 7.32097E+01 2.49862E-03-5.86684E+00 9.06705E-14 2.26003E-13
 -1     11705 9.05576E-03 7.24796E+01-4.07410E-03-7.11622E+00-1.12192E-13-1.83673E-14
 -1     11706-1.06484E+00 7.17826E+01-1.59762E-02-8.64668E+00 2.46414E-13-2.08791E-13
 -1     11707-2.47433E+00 7.12229E+01-3.82804E-02-1.05118E+01 1.46598E-13-2.19373E-13
 -1     11708-4.37622E+00 7.10043E+01-6.85482E-02-1.27414E+01 6.42056E-14 8.49876E-14
 -1     11709 2.09486E+01 7.39006E+01 5.30927E-03 2.07501E+00 3.01969E-13 5.48793E-14
 -1     11710 1.98233E+01 7.43653E+01 1.09711E-03 2.06398E+00 1.82361E-13 2.23462E-13
 -1     11711 1.86736E+01 7.48265E+01 1.67564E-03 2.01456E+00-1.03128E-13 2.18037E-14
 -1     11712 1.75101E+01 7.52731E+01 2.50401E-03 1.92817E+00-1.15498E-14 1.62064E-13
 -1     11713 1.63448E+01 7.56971E+01 3.28192E-03 1.80669E+00 2.66299E-13 2.93579E-13
 -1     11714 1.51893E+01 7.60915E+01 3.97079E-03 1.65251E+00 3.10092E-13 3.05542E-13
 -1     11715 1.40538E+01 7.64498E+01 4.55394E-03 1.46837E+00 2.90757E-14-4.12196E-14
 -1     11716 1.29471E+01 7.67667E+01 5.02322E-03 1.25723E+00 1.85588E-13 6.63499E-14
 -1     11717 1.18765E+01 7.70381E+01 5.37804E-03 1.02199E+00-4.38469E-14 1.25823E-13
 -1     11718 1.08472E+01 7.72605E+01 5.62419E-03 7.65247E-01 1.15810E-13 3.68858E-13
 -1     11719 9.86322E+00 7.74318E+01 5.77187E-03 4.89044E-01 2.19425E-14 2.59370E-13
 -1     11720 8.92640E+00 7.75506E+01 5.83325E-03 1.94614E-01 2.36377E-13 4.63405E-14
 -1     11721 8.03716E+00 7.76165E+01 5.81975E-03-1.17833E-01-6.65423E-14 2.02204E-13
 -1     11722 7.19430E+00 7.76294E+01 5.73906E-03-4.49314E-01 2.10710E-13-1.39671E-13
 -1     11723 6.39509E+00 7.75903E+01 5.59170E-03-8.02263E-01-2.31083E-13 5.36854E-15
 -1     11724 5.63528E+00 7.75004E+01 5.36665E-03-1.18072E+00 2.60014E-13-1.24784E-13
 -1     11725 4.90896E+00 7.73617E+01 5.03539E-03-1.59056E+00-5.87981E-13 7.34308E-14
 -1     11726 4.20833E+00 7.71773E+01 4.54307E-03-2.03968E+00 3.86264E-13 1.50198E-13
 -1     11727 3.52324E+00 7.69516E+01 3.79499E-03-2.53830E+00 9.83900E-14 4.01641E-14
 -1     11728 2.84048E+00 7.66913E+01 2.63586E-03-3.09922E+00 2.76616E-13 2.23091E-13
 -1     11729 2.14265E+00 7.64067E+01 8.17608E-04-3.73801E+00-3.16431E-13 4.57342E-14
 -1     11730 1.40654E+00 7.61140E+01-2.04934E-03-4.47308E+00-3.00877E-13-6.85840E-14
 -1     11731 6.00924E-01 7.58387E+01-6.56995E-03-5.32521E+00 8.72358E-14-3.90139E-14
 -1     11732-3.16421E-01 7.56211E+01-1.36549E-02-6.31603E+00-1.86590E-13-6.69742E-14
 -1     11733-1.40217E+00 7.55244E+01-2.46960E-02-7.46430E+00 2.53353E-13 1.18967E-13
 -1     11734-2.72981E+00 7.56476E+01-4.13374E-02-8.77761E+00 1.11078E-13 1.07823E-13
 -1     11735-4.39019E+00 7.61405E+01-6.71500E-02-1.02362E+01-3.79211E-14 4.62103E-13
 -1     11736-6.46700E+00 7.72393E+01-9.75437E-02-1.17594E+01-2.20296E-13-5.30825E-14
 -1     11737 2.09586E+01 7.41085E+01 5.56722E-03 2.57532E+00-2.06240E-13-1.92130E-13
 -1     11738 1.97879E+01 7.45932E+01 1.14871E-03 2.56157E+00 4.95472E-14-3.67768E-13
 -1     11739 1.85942E+01 7.50742E+01 1.74010E-03 2.50070E+00 1.59772E-13 2.62251E-14
 -1     11740 1.73885E+01 7.55400E+01 2.58982E-03 2.39439E+00-8.36674E-14-5.96981E-13
 -1     11741 1.61838E+01 7.59824E+01 3.37410E-03 2.24512E+00-2.73849E-13-1.81638E-13
 -1     11742 1.49920E+01 7.63943E+01 4.04517E-03 2.05611E+00-4.58937E-13 8.93339E-15
 -1     11743 1.38237E+01 7.67694E+01 4.58082E-03 1.83118E+00 1.46343E-13-7.12958E-14
 -1     11744 1.26879E+01 7.71028E+01 4.97023E-03 1.57449E+00-3.67937E-13 4.68078E-14
 -1     11745 1.15916E+01 7.73910E+01 5.21222E-03 1.29019E+00 7.02424E-14 9.06094E-14
 -1     11746 1.05398E+01 7.76318E+01 5.31294E-03 9.82110E-01 1.67867E-13-7.93636E-17
 -1     11747 9.53547E+00 7.78241E+01 5.28263E-03 6.53444E-01-2.23398E-14-2.78206E-13
 -1     11748 8.57955E+00 7.79684E+01 5.13210E-03 3.06476E-01 4.50905E-13-7.78154E-15
 -1     11749 7.67121E+00 7.80659E+01 4.86899E-03-5.76336E-02 1.30937E-14-6.92961E-14
 -1     11750 6.80782E+00 7.81191E+01 4.49399E-03-4.39015E-01 3.00721E-13-1.79609E-13
 -1     11751 5.98510E+00 7.81314E+01 3.99676E-03-8.39213E-01-2.71861E-13-1.22570E-13
 -1     11752 5.19705E+00 7.81072E+01 3.35107E-03-1.26126E+00 1.87874E-13 1.05862E-13
 -1     11753 4.43592E+00 7.80524E+01 2.50852E-03-1.70975E+00 2.69250E-13 2.64337E-14
 -1     11754 3.69192E+00 7.79746E+01 1.38991E-03-2.19077E+00 8.17419E-14-3.63277E-14
 -1     11755 2.95288E+00 7.78838E+01-1.26857E-04-2.71191E+00 2.11289E-15 8.90954E-14
 -1     11756 2.20359E+00 7.77938E+01-2.22359E-03-3.28193E+00 3.26971E-13 8.20056E-14
 -1     11757 1.42501E+00 7.77232E+01-5.16434E-03-3.91032E+00-1.14683E-13-1.05322E-13
 -1     11758 5.93210E-01 7.76984E+01-9.32277E-03-4.60625E+00-8.22779E-14 1.72050E-14
 -1     11759-3.21732E-01 7.77569E+01-1.52128E-02-5.37660E+00-4.05405E-14-1.29063E-14
 -1     11760-1.35654E+00 7.79514E+01-2.34916E-02-6.22235E+00-1.93753E-13-1.62648E-14
 -1     11761-2.55435E+00 7.83568E+01-3.49706E-02-7.13224E+00 3.36070E-13-3.67831E-14
 -1     11762-3.96036E+00 7.90769E+01-5.01754E-02-8.07176E+00-1.16997E-13-1.94907E-13
 -1     11763-5.61099E+00 8.02509E+01-6.99839E-02-8.96597E+00-2.68562E-13-2.66627E-13
 -1     11764-7.49791E+00 8.20613E+01-8.89945E-02-9.67147E+00-1.57576E-13-1.06776E-13
 -1     11765 2.09703E+01 7.43560E+01 5.87734E-03 3.09886E+00-4.48374E-13 2.34281E-13
 -1     11766 1.97448E+01 7.48645E+01 1.23145E-03 3.08209E+00-4.07993E-13-1.32099E-13
 -1     11767 1.84979E+01 7.53688E+01 1.85583E-03 3.00911E+00 3.63234E-13 2.05699E-13
 -1     11768 1.72415E+01 7.58570E+01 2.74654E-03 2.88190E+00 1.14594E-13 3.28805E-13
 -1     11769 1.59894E+01 7.63203E+01 3.55054E-03 2.70362E+00 1.08837E-14 7.02207E-14
 -1     11770 1.47545E+01 7.67514E+01 4.20904E-03 2.47855E+00-1.62353E-13 5.30825E-16
 -1     11771 1.35481E+01 7.71442E+01 4.69427E-03 2.21190E+00 4.64977E-13-1.61720E-14
 -1     11772 1.23792E+01 7.74942E+01 4.99436E-03 1.90935E+00-1.79761E-13 2.97101E-13
 -1     11773 1.12549E+01 7.77987E+01 5.11028E-03 1.57665E+00-3.02040E-13 1.04828E-13
 -1     11774 1.01794E+01 7.80566E+01 5.05186E-03 1.21919E+00 2.90443E-13-1.08868E-13
 -1     11775 9.15501E+00 7.82683E+01 4.83300E-03 8.41622E-01-1.55851E-13-8.61240E-14
 -1     11776 8.18148E+00 7.84360E+01 4.46686E-03 4.47572E-01 2.50508E-13 1.12692E-13
 -1     11777 7.25667E+00 7.85629E+01 3.96134E-03 3.94564E-02 2.09091E-13-1.41796E-14
 -1     11778 6.37655E+00 7.86535E+01 3.31509E-03-3.81639E-01 3.03963E-13 9.00334E-14
 -1     11779 5.53534E+00 7.87139E+01 2.51354E-03-8.15976E-01 3.29714E-13 3.91332E-14
 -1     11780 4.72562E+00 7.87511E+01 1.52487E-03-1.26511E+00-2.44428E-13 2.36242E-13
 -1     11781 3.93825E+00 7.87742E+01 2.95219E-04-1.73175E+00-4.07141E-13-1.35496E-13
 -1     11782 3.16231E+00 7.87942E+01-1.25711E-03-2.21950E+00-2.93614E-13-8.71230E-14
 -1     11783 2.38482E+00 7.88252E+01-3.24867E-03-2.73242E+00-3.70674E-13-3.50336E-14
 -1     11784 1.59047E+00 7.88850E+01-5.83847E-03-3.27441E+00 1.22524E-14-3.81049E-14
 -1     11785 7.61298E-01 7.89970E+01-9.23437E-03-3.84806E+00-2.40839E-13 1.84592E-13
 -1     11786-1.23498E-01 7.91918E+01-1.36924E-02-4.45293E+00-7.12895E-13 1.91923E-13
 -1     11787-1.08725E+00 7.95096E+01-1.95003E-02-5.08274E+00 1.51962E-13-4.36803E-15
 -1     11788-2.15433E+00 8.00029E+01-2.69095E-02-5.72106E+00-3.87993E-13-1.32918E-13
 -1     11789-3.34634E+00 8.07391E+01-3.60276E-02-6.33465E+00-3.44516E-15-2.24126E-14
 -1     11790-4.67323E+00 8.18016E+01-4.63722E-02-6.86398E+00 3.61506E-13 2.43722E-13
 -1     11791-6.11649E+00 8.32863E+01-5.68326E-02-7.21113E+00-3.10238E-14 1.67352E-13
 -1     11792-7.59749E+00 8.52899E+01-6.38176E-02-7.22632E+00-3.95992E-13 2.66231E-13
 -1     11793 2.09757E+01 7.44960E+01 5.43306E-03-3.37071E+00-5.21139E-13 2.22253E-14
 -1     11794 2.15704E+01 7.40974E+01 1.47528E-02-3.08078E+00 2.18024E-13 1.95535E-13
 -1     11795 1.97173E+01 7.50171E+01-1.94515E-05-3.35222E+00 4.05051E-13 4.21798E-14
 -1     11796 2.03611E+01 7.46115E+01 1.62573E-03-3.09259E+00 9.13158E-14 2.61310E-13
 -1     11797 1.84383E+01 7.55338E+01-3.81653E-05-3.27278E+00-1.92506E-13-3.46043E-13
 -1     11798 1.91235E+01 7.51191E+01 9.82988E-04-3.04766E+00 5.65381E-14 3.68577E-14
 -1     11799 1.71514E+01 7.60335E+01 2.61857E-04-3.13448E+00 4.34923E-13-3.68474E-13
 -1     11800 1.78692E+01 7.56145E+01 1.08935E-03-2.94747E+00-1.11994E-13-2.54198E-13
 -1     11801 1.58711E+01 7.65075E+01 5.54180E-04-2.94091E+00-3.13582E-13 2.54831E-13
 -1     11802 1.66124E+01 7.60894E+01 1.21841E-03-2.79457E+00-5.93338E-13 3.33691E-14
 -1     11803 1.46111E+01 7.69481E+01 8.05116E-04-2.69704E+00 4.52784E-13 6.08567E-14
 -1     11804 1.53666E+01 7.65358E+01 1.31896E-03-2.59272E+00 1.68025E-13-5.30661E-14
 -1     11805 1.33829E+01 7.73494E+01 1.00326E-03-2.40892E+00 2.45665E-13 4.44818E-14
 -1     11806 1.41441E+01 7.69470E+01 1.38262E-03-2.34668E+00-5.50671E-13-3.86414E-13
 -1     11807 1.21960E+01 7.77072E+01 1.14314E-03-2.08318E+00 1.71946E-13-8.17575E-15
 -1     11808 1.29550E+01 7.73179E+01 1.40715E-03-2.06190E+00-2.12677E-14-3.68448E-13
 -1     11809 1.10572E+01 7.80190E+01 1.22373E-03-1.72652E+00-1.89612E-13-2.12946E-14
 -1     11810 1.18074E+01 7.76448E+01 1.39338E-03-1.74415E+00 1.76803E-14 3.58567E-14
 -1     11811 9.97044E+00 7.82845E+01 1.24740E-03-1.34525E+00-1.10023E-13 1.66340E-13
 -1     11812 1.07070E+01 7.79258E+01 1.34419E-03-1.39900E+00-2.77701E-13 1.41013E-13
 -1     11813 8.93743E+00 7.85049E+01 1.21853E-03-9.44883E-01 7.96169E-14 6.85606E-14
 -1     11814 9.65698E+00 7.81606E+01 1.26330E-03-1.03150E+00-5.71938E-13-1.57147E-13
 -1     11815 7.95737E+00 7.86830E+01 1.14226E-03-5.29821E-01-1.75679E-13 1.19252E-13
 -1     11816 8.65833E+00 7.83505E+01 1.15397E-03-6.45804E-01 1.70218E-13-1.51402E-13
 -1     11817 7.02741E+00 7.88232E+01 1.02335E-03-1.03194E-01-1.50921E-13-1.12358E-13
 -1     11818 7.70986E+00 7.84981E+01 1.01775E-03-2.44943E-01-2.13052E-13-5.43706E-14
 -1     11819 6.14281E+00 7.89311E+01 8.65268E-04 3.33209E-01-2.46025E-13 2.00332E-13
 -1     11820 6.80843E+00 7.86073E+01 8.53429E-04 1.69324E-01-5.85372E-13 1.75606E-14
 -1     11821 5.29718E+00 7.90137E+01 6.69617E-04 7.78914E-01-4.55788E-13-3.58245E-13
 -1     11822 5.94913E+00 7.86834E+01 6.55832E-04 5.96576E-01 3.44724E-14-4.72816E-14
 -1     11823 4.48255E+00 7.90794E+01 4.35710E-04 1.23463E+00-8.59868E-14 3.71647E-14
 -1     11824 5.12537E+00 7.87329E+01 4.14594E-04 1.03772E+00-4.77764E-13-2.54406E-13
 -1     11825 3.68946E+00 7.91383E+01 1.60437E-04 1.70200E+00 1.92915E-13-2.26546E-13
 -1     11826 4.32891E+00 7.87640E+01 1.12556E-04 1.49487E+00 4.69250E-13-3.03042E-13
 -1     11827 2.90689E+00 7.92030E+01-1.61551E-04 2.18327E+00-1.95288E-13-8.59660E-14
 -1     11828 3.54978E+00 7.87867E+01-2.76375E-04 1.97118E+00 4.67820E-14-8.31869E-14
 -1     11829 2.12222E+00 7.92888E+01-5.37064E-04 2.68069E+00 1.38778E-16 2.19234E-13
 -1     11830 2.77612E+00 7.88135E+01-7.90146E-04 2.47050E+00 2.74641E-13 1.22666E-13
 -1     11831 1.32106E+00 7.94149E+01-9.72494E-04 3.19573E+00-4.95382E-13 5.47028E-14
 -1     11832 1.99393E+00 7.88606E+01-1.48248E-03 2.99681E+00-1.84935E-13 2.05783E-13
 -1     11833 4.87257E-01 7.96055E+01-1.46973E-03 3.72779E+00 2.01235E-13 3.96627E-14
 -1     11834 1.18671E+00 7.89487E+01-2.42786E-03 3.55338E+00 2.16487E-13 7.03188E-14
 -1     11835-3.96832E-01 7.98916E+01-2.01833E-03 4.27235E+00 6.13468E-14 7.16718E-14
 -1     11836 3.35222E-01 7.91047E+01-3.72743E-03 4.14138E+00 1.24900E-14 1.26649E-13
 -1     11837-1.34943E+00 8.03122E+01-2.57946E-03 4.81809E+00 4.23973E-13-6.67036E-14
 -1     11838-5.82525E-01 7.93642E+01-5.51415E-03 4.75761E+00 6.57210E-13-8.51680E-14
 -1     11839-2.38710E+00 8.09160E+01-3.06235E-03 5.34275E+00 2.75526E-13 7.34551E-14
 -1     11840-1.59055E+00 7.97734E+01-7.95539E-03 5.39099E+00-4.54935E-13-1.78572E-13
 -1     11841-3.51995E+00 8.17623E+01-3.26470E-03 5.80733E+00-5.54119E-13-1.33574E-13
 -1     11842-2.71250E+00 8.03921E+01-1.12436E-02 6.01718E+00 1.73479E-13-7.52731E-14
 -1     11843-4.74246E+00 8.29185E+01-2.85795E-03 6.14855E+00 2.42471E-13 2.69409E-13
 -1     11844-3.96591E+00 8.12947E+01-1.55530E-02 6.59065E+00-4.31981E-13 1.50574E-14
 -1     11845-6.01685E+00 8.44535E+01-1.19693E-03 6.27047E+00-2.54657E-14 6.35325E-14
 -1     11846-5.35017E+00 8.25693E+01-2.10322E-02 7.03394E+00 1.78366E-13 3.55632E-13
 -1     11847-7.24576E+00 8.64237E+01 2.86490E-03 6.03867E+00-2.14051E-13-1.09968E-13
 -1     11848-6.82345E+00 8.43094E+01-2.71455E-02 7.22505E+00-4.84800E-13 2.11164E-13
 -1     11849-8.26227E+00 8.65903E+01-3.51633E-02 6.99181E+00 3.08586E-13 1.38334E-13
 -1     11850 2.09633E+01 7.42289E+01 5.11092E-03-2.83403E+00-2.19574E-13 2.77152E-13
 -1     11851 2.15310E+01 7.38624E+01 1.40770E-02-2.55987E+00-8.34884E-13 3.17822E-13
 -1     11852 1.97645E+01 7.47243E+01-7.08055E-05-2.81882E+00 5.52711E-13 3.38601E-14
 -1     11853 2.03770E+01 7.43523E+01 1.58258E-03-2.57023E+00-1.09752E-13 3.51073E-14
 -1     11854 1.85436E+01 7.52158E+01-9.77779E-05-2.75201E+00-3.60358E-13 1.08732E-13
 -1     11855 1.91935E+01 7.48363E+01 9.74108E-04-2.53288E+00-2.37789E-13 1.13503E-13
 -1     11856 1.73121E+01 7.56918E+01 1.77340E-04-2.63541E+00 4.31981E-13 2.51934E-13
 -1     11857 1.79914E+01 7.53089E+01 1.08109E-03-2.44922E+00-4.14085E-13 7.18349E-14
 -1     11858 1.60832E+01 7.61439E+01 4.48295E-04-2.47184E+00-9.80271E-13-3.91780E-13
 -1     11859 1.67838E+01 7.57621E+01 1.21465E-03-2.32134E+00 6.04725E-13-1.51087E-13
 -1     11860 1.48695E+01 7.65647E+01 6.86025E-04-2.26505E+00 4.02012E-13-4.23594E-13
 -1     11861 1.55834E+01 7.61885E+01 1.32788E-03-2.15208E+00 5.61426E-14-3.20364E-13
 -1     11862 1.36819E+01 7.69483E+01 8.81153E-04-2.01953E+00 3.23658E-13-2.38902E-13
 -1     11863 1.44015E+01 7.65813E+01 1.41389E-03-1.94500E+00-2.40225E-13-5.35622E-14
 -1     11864 1.25294E+01 7.72899E+01 1.02860E-03-1.74017E+00-1.52878E-13-1.46910E-13
 -1     11865 1.32480E+01 7.69350E+01 1.47075E-03-1.70408E+00-3.23810E-13 1.36157E-13
 -1     11866 1.14191E+01 7.75863E+01 1.12652E-03-1.43189E+00-5.70377E-15 7.74237E-14
 -1     11867 1.21308E+01 7.72454E+01 1.49887E-03-1.43352E+00-4.58487E-13 1.50512E-13
 -1     11868 1.03555E+01 7.78360E+01 1.17561E-03-1.09929E+00 4.55178E-13-9.88823E-14
 -1     11869 1.10561E+01 7.75097E+01 1.50047E-03-1.13732E+00-3.20396E-13 9.88068E-14
 -1     11870 9.34130E+00 7.80385E+01 1.17825E-03-7.46262E-01-1.85199E-14-3.21374E-13
 -1     11871 1.00277E+01 7.77261E+01 1.47871E-03-8.19017E-01 3.05166E-13 8.74808E-14
 -1     11872 8.37682E+00 7.81952E+01 1.13756E-03-3.75754E-01-4.49085E-14 2.28572E-14
 -1     11873 9.04754E+00 7.78945E+01 1.43681E-03-4.81357E-01-1.50477E-13 2.24862E-13
 -1     11874 7.46055E+00 7.83082E+01 1.05646E-03 1.04598E-02 6.40009E-13-1.74721E-13
 -1     11875 8.11576E+00 7.80155E+01 1.37709E-03-1.26083E-01-1.13604E-13 5.97682E-14
 -1     11876 6.58919E+00 7.83812E+01 9.36780E-04 4.11910E-01 4.39357E-13-1.69966E-13
 -1     11877 7.23057E+00 7.80912E+01 1.29996E-03 2.46275E-01 2.74808E-13-3.03763E-13
 -1     11878 5.75770E+00 7.84187E+01 7.78503E-04 8.29507E-01 2.16813E-13 1.42270E-13
 -1     11879 6.38850E+00 7.81243E+01 1.20288E-03 6.36537E-01 2.86680E-13-1.37407E-13
 -1     11880 4.95942E+00 7.84269E+01 5.79048E-04 1.26555E+00 4.33389E-13-3.71831E-13
 -1     11881 5.58443E+00 7.81189E+01 1.07899E-03 1.04697E+00 1.78572E-13 7.29625E-15
 -1     11882 4.18595E+00 7.84131E+01 3.32570E-04 1.72368E+00-3.70204E-13 1.57919E-13
 -1     11883 4.81151E+00 7.80801E+01 9.15352E-04 1.48137E+00-4.83016E-14-1.22992E-15
 -1     11884 3.42703E+00 7.83871E+01 2.93064E-05 2.20874E+00 9.59857E-14-9.56943E-14
 -1     11885 4.06108E+00 7.80147E+01 6.90433E-04 1.94504E+00 2.39170E-13 5.60871E-14
 -1     11886 2.67021E+00 7.83612E+01-3.44953E-04 2.72654E+00-1.78087E-13 1.06078E-13
 -1     11887 3.32227E+00 7.79317E+01 3.70325E-04 2.44480E+00-1.32047E-14-4.90372E-14
 -1     11888 1.90042E+00 7.83517E+01-8.08933E-04 3.28337E+00 1.57881E-13-3.37265E-14
 -1     11889 2.58157E+00 7.78428E+01-9.68007E-05 2.98876E+00-3.37730E-13-5.90639E-14
 -1     11890 1.09942E+00 7.83804E+01-1.38466E-03 3.88517E+00-9.46951E-14-6.21031E-14
 -1     11891 1.82215E+00 7.77646E+01-7.88817E-04 3.58605E+00-1.09635E-13 9.21103E-14
 -1     11892 2.45235E-01 7.84769E+01-2.09358E-03 4.53617E+00 2.01922E-15-2.37171E-13
 -1     11893 1.02284E+00 7.77197E+01-1.82151E-03 4.24597E+00-4.70089E-13-1.11064E-13
 -1     11894-6.88226E-01 7.86815E+01-2.94485E-03 5.23638E+00 7.59122E-13-4.56440E-14
 -1     11895 1.57147E-01 7.77403E+01-3.36441E-03 4.97656E+00-8.03316E-14-1.14284E-13
 -1     11896-1.73081E+00 7.90488E+01-3.91668E-03 5.97760E+00-1.44891E-13-1.86323E-13
 -1     11897-8.07847E-01 7.78717E+01-5.66325E-03 5.78190E+00 1.52531E-13 1.59622E-13
 -1     11898-2.91386E+00 7.96524E+01-4.88397E-03 6.73678E+00-1.19391E-13-4.22162E-14
 -1     11899-1.91183E+00 7.81779E+01-9.05914E-03 6.65715E+00 6.43860E-14 1.16490E-13
 -1     11900-4.26410E+00 8.05883E+01-5.61473E-03 7.46572E+00-6.91291E-13-1.24387E-13
 -1     11901-3.19953E+00 7.87479E+01-1.40125E-02 7.58015E+00 1.71689E-13 4.11615E-14
 -1     11902-5.78861E+00 8.19765E+01-5.24889E-03 8.07610E+00 4.87888E-13 1.28453E-13
 -1     11903-4.71374E+00 7.97029E+01-2.10940E-02 8.49741E+00-5.14835E-13-2.00950E-14
 -1     11904-7.44634E+00 8.39524E+01-3.73175E-03 8.42053E+00-2.73948E-13-1.32561E-13
 -1     11905-6.47610E+00 8.11974E+01-3.07135E-02 9.30244E+00 1.30919E-13-1.08691E-13
 -1     11906-8.44631E+00 8.34208E+01-4.48303E-02 9.80898E+00 1.23249E-13-1.58235E-13
 -1     11907 2.09524E+01 7.40012E+01 4.82841E-03-2.32262E+00 3.56368E-13-3.57450E-13
 -1     11908 2.14980E+01 7.36650E+01 1.35156E-02-2.06225E+00 8.83148E-13-6.22273E-13
 -1     11909 1.98038E+01 7.44746E+01-1.16397E-04-2.31028E+00 2.87069E-13 2.25179E-13
 -1     11910 2.03900E+01 7.41346E+01 1.55578E-03-2.07096E+00-1.58616E-13-3.45135E-13
 -1     11911 1.86315E+01 7.49446E+01-1.44308E-04-2.25522E+00 6.91697E-13 9.97154E-14
 -1     11912 1.92512E+01 7.45986E+01 9.78636E-04-2.04070E+00-2.67009E-13-1.88963E-14
 -1     11913 1.74464E+01 7.53998E+01 1.15049E-04-2.15899E+00-3.94282E-13-1.10864E-13
 -1     11914 1.80922E+01 7.50517E+01 1.08840E-03-1.97275E+00 6.37046E-13-9.21485E-14
 -1     11915 1.62609E+01 7.58321E+01 3.72113E-04-2.02377E+00-2.85799E-13 3.07590E-13
 -1     11916 1.69256E+01 7.54862E+01 1.22747E-03-1.86876E+00 3.08156E-14 7.05954E-14
 -1     11917 1.50868E+01 7.62345E+01 6.01526E-04-1.85235E+00-5.00780E-13 3.42193E-13
 -1     11918 1.57631E+01 7.58946E+01 1.35254E-03-1.73086E+00 7.47319E-14 2.46352E-13
 -1     11919 1.39346E+01 7.66006E+01 7.95751E-04-1.64800E+00 2.99066E-14 2.40486E-13
 -1     11920 1.46158E+01 7.62702E+01 1.45821E-03-1.56163E+00-9.36473E-14 1.66344E-13
 -1     11921 1.28132E+01 7.69254E+01 9.50466E-04-1.41425E+00-2.25195E-13 4.03651E-13
 -1     11922 1.34932E+01 7.66073E+01 1.54327E-03-1.36394E+00-3.57367E-13-7.05659E-14
 -1     11923 1.17295E+01 7.72049E+01 1.06369E-03-1.15462E+00-3.05957E-13 4.82474E-14
 -1     11924 1.24033E+01 7.69010E+01 1.60847E-03-1.14073E+00 1.33026E-13-2.22990E-13
 -1     11925 1.06889E+01 7.74364E+01 1.13538E-03-8.72306E-01 2.74961E-13 3.42887E-13
 -1     11926 1.13525E+01 7.71476E+01 1.65615E-03-8.94768E-01 4.47649E-13-1.26550E-13
 -1     11927 9.69470E+00 7.76183E+01 1.16694E-03-5.69894E-01-2.35811E-13 1.81410E-13
 -1     11928 1.03453E+01 7.73442E+01 1.68986E-03-6.28393E-01 4.76376E-13-3.92039E-14
 -1     11929 8.74835E+00 7.77499E+01 1.16044E-03-2.49132E-01 3.44683E-13 3.09641E-13
 -1     11930 9.38460E+00 7.74892E+01 1.71371E-03-3.43257E-01-1.11605E-13-1.13277E-13
 -1     11931 7.84962E+00 7.78318E+01 1.11793E-03 8.93099E-02 3.58429E-13 1.43574E-13
 -1     11932 8.47159E+00 7.75815E+01 1.73175E-03-4.01003E-02 3.04097E-13 1.21869E-13
 -1     11933 6.99659E+00 7.78652E+01 1.04061E-03 4.46021E-01 1.28432E-13 5.72459E-16
 -1     11934 7.60583E+00 7.76211E+01 1.74727E-03 2.81460E-01 5.95218E-13 2.40159E-13
 -1     11935 6.18576E+00 7.78521E+01 9.28069E-04 8.23006E-01-1.33067E-13 3.05745E-15
 -1     11936 6.78535E+00 7.76082E+01 1.76196E-03 6.23127E-01-1.51393E-13 9.86563E-14
 -1     11937 5.41202E+00 7.77955E+01 7.77355E-04 1.22382E+00 2.11609E-13 1.37813E-13
 -1     11938 6.00666E+00 7.75440E+01 1.77492E-03 9.88110E-01 6.73364E-13 8.81760E-14
 -1     11939 4.66856E+00 7.76995E+01 5.81961E-04 1.65371E+00-6.27297E-13 2.86403E-14
 -1     11940 5.26472E+00 7.74301E+01 1.78119E-03 1.38132E+00 5.53724E-15 4.32189E-14
 -1     11941 3.94668E+00 7.75696E+01 3.30515E-04 2.11970E+00 5.49193E-13 6.61068E-14
 -1     11942 4.55274E+00 7.72692E+01 1.76955E-03 1.80961E+00-1.83395E-14-1.31600E-13
 -1     11943 3.23529E+00 7.74133E+01 5.13688E-06 2.63070E+00 1.28092E-13-2.64865E-13
 -1     11944 3.86188E+00 7.70650E+01 1.71910E-03 2.28196E+00 2.76161E-13-9.96876E-14
 -1     11945 2.52036E+00 7.72412E+01-4.20581E-04 3.19752E+00-2.57981E-13 1.27308E-13
 -1     11946 3.18065E+00 7.68232E+01 1.59372E-03 2.80980E+00-4.02442E-13-5.44877E-14
 -1     11947 1.78390E+00 7.70687E+01-9.83724E-04 3.83269E+00 2.04420E-13 3.16205E-14
 -1     11948 2.49405E+00 7.65523E+01 1.33324E-03 3.40721E+00-2.18374E-13-1.93640E-13
 -1     11949 1.00275E+00 7.69181E+01-1.73376E-03 4.54994E+00-3.61218E-13 7.60919E-14
 -1     11950 1.78223E+00 7.62660E+01 8.38991E-04 4.09105E+00-7.68607E-13-2.24057E-13
 -1     11951 1.46918E-01 7.68226E+01-2.73000E-03 5.36297E+00-1.29549E-14 1.78815E-13
 -1     11952 1.01862E+00 7.59855E+01-4.84943E-05 4.88076E+00-7.63972E-15-1.15727E-13
 -1     11953-8.22159E-01 7.68316E+01-4.03667E-03 6.28279E+00 1.66880E-14 9.79772E-14
 -1     11954 1.67395E-01 7.57440E+01-1.58739E-03 5.79741E+00-2.26236E-13-1.39985E-13
 -1     11955-1.95293E+00 7.70180E+01-5.66057E-03 7.31244E+00 5.61357E-14 1.92901E-14
 -1     11956-8.19728E-01 7.55942E+01-4.18233E-03 6.86111E+00 4.27602E-13-6.45872E-14
 -1     11957-3.30308E+00 7.74885E+01-7.61951E-03 8.43728E+00-1.67429E-13 2.42584E-14
 -1     11958-2.00675E+00 7.56176E+01-8.49193E-03 8.08521E+00 9.61176E-14-1.24095E-13
 -1     11959-4.93167E+00 7.83971E+01-8.96413E-03 9.60721E+00 1.57069E-13-1.55431E-14
 -1     11960-3.47477E+00 7.59403E+01-1.54356E-02 9.46405E+00-1.02439E-13-3.05367E-13
 -1     11961-6.88123E+00 7.99503E+01-1.16049E-02 1.07081E+01 1.80422E-13 5.65936E-14
 -1     11962-5.31615E+00 7.67475E+01-2.66486E-02 1.09501E+01 1.07830E-13 5.48728E-14
 -1     11963-7.60490E+00 7.83247E+01-4.39977E-02 1.24121E+01 4.72899E-13 9.88654E-14
 -1     11964 2.09432E+01 7.38132E+01 4.58995E-03-1.83237E+00 1.13798E-14-4.43305E-13
 -1     11965 2.14713E+01 7.35058E+01 1.30667E-02-1.58383E+00 2.21975E-13-3.27443E-13
 -1     11966 1.98355E+01 7.42687E+01-1.55387E-04-1.82267E+00-8.02344E-14-3.78491E-13
 -1     11967 2.04002E+01 7.39589E+01 1.54015E-03-1.59073E+00-5.57221E-13-2.89135E-13
 -1     11968 1.87028E+01 7.47207E+01-1.80202E-04-1.77888E+00-1.68074E-13-1.16228E-13
 -1     11969 1.92971E+01 7.44068E+01 9.89941E-04-1.56732E+00-2.47719E-13-2.03321E-13
 -1     11970 1.75555E+01 7.51584E+01 6.96774E-05-1.70227E+00 3.13985E-14 9.30939E-15
 -1     11971 1.81726E+01 7.48440E+01 1.10348E-03-1.51465E+00 7.71605E-15-1.42542E-14
 -1     11972 1.64056E+01 7.55737E+01 3.18197E-04-1.59449E+00 4.82003E-13-7.14220E-14
 -1     11973 1.70386E+01 7.52629E+01 1.24827E-03-1.43397E+00-9.63812E-15 8.29007E-14
 -1     11974 1.52644E+01 7.59597E+01 5.42930E-04-1.45757E+00 1.64042E-13-8.86747E-14
 -1     11975 1.59067E+01 7.56561E+01 1.38394E-03-1.32683E+00-5.23748E-14-7.57068E-14
 -1     11976 1.41420E+01 7.63098E+01 7.37915E-04-1.29383E+00-1.32679E-13-1.41299E-13
 -1     11977 1.47876E+01 7.60168E+01 1.50644E-03-1.19505E+00 4.12344E-13-1.06260E-13
 -1     11978 1.30471E+01 7.66186E+01 8.99699E-04-1.10573E+00 3.35072E-13-2.84486E-13
 -1     11979 1.36905E+01 7.63390E+01 1.61544E-03-1.04060E+00 1.69781E-13-1.22271E-13
 -1     11980 1.19872E+01 7.68815E+01 1.02656E-03-8.95691E-01-6.77916E-13-2.46902E-13
 -1     11981 1.26238E+01 7.66172E+01 1.71235E-03-8.65471E-01-1.48562E-14-1.26750E-13
 -1     11982 1.09678E+01 7.70947E+01 1.11836E-03-6.65821E-01-6.14370E-13-2.15463E-13
 -1     11983 1.15938E+01 7.68470E+01 1.80017E-03-6.71481E-01-1.25656E-12-2.04496E-13
 -1     11984 9.99298E+00 7.72554E+01 1.17614E-03-4.17721E-01-2.06078E-13-2.64759E-13
 -1     11985 1.06059E+01 7.70247E+01 1.88334E-03-4.60074E-01 3.36203E-13-1.58830E-13
 -1     11986 9.06522E+00 7.73616E+01 1.20173E-03-1.52245E-01-4.46303E-13-2.40368E-13
 -1     11987 9.66364E+00 7.71471E+01 1.96745E-03-2.32116E-01-5.12791E-13-6.64464E-14
 -1     11988 8.18541E+00 7.74116E+01 1.19712E-03 1.30709E-01 4.90954E-13 9.34808E-14
 -1     11989 8.76918E+00 7.72117E+01 2.05891E-03 1.23117E-02 3.40422E-13-2.82360E-13
 -1     11990 7.35301E+00 7.74046E+01 1.16384E-03 4.32402E-01 3.97772E-13-5.38831E-14
 -1     11991 7.92334E+00 7.72162E+01 2.16465E-03 2.74112E-01 2.57711E-14-3.46744E-13
 -1     11992 6.56607E+00 7.73399E+01 1.10224E-03 7.55469E-01-3.19009E-13-5.44269E-15
 -1     11993 7.12560E+00 7.71589E+01 2.29172E-03 5.55392E-01-3.35960E-13-2.68648E-13
 -1     11994 5.82126E+00 7.72174E+01 1.01068E-03 1.10414E+00 3.74971E-13 5.33497E-14
 -1     11995 6.37417E+00 7.70376E+01 2.44687E-03 8.59689E-01-5.24247E-13-2.55787E-13
 -1     11996 5.11374E+00 7.70369E+01 8.84339E-04 1.48449E+00-6.80844E-14-9.92956E-15
 -1     11997 5.66598E+00 7.68506E+01 2.63591E-03 1.19226E+00 4.05467E-13 1.51353E-13
 -1     11998 4.43700E+00 7.67990E+01 7.13797E-04 1.90479E+00 3.41595E-13-2.11890E-13
 -1     11999 4.99657E+00 7.65957E+01 2.86262E-03 1.56041E+00 4.63511E-13 2.18211E-14
 -1     12000 3.78247E+00 7.65048E+01 4.82815E-04 2.37583E+00-3.50775E-13 1.74694E-13
 -1     12001 4.35982E+00 7.62707E+01 3.12692E-03 1.97395E+00-3.26086E-13-6.25593E-14
 -1     12002 3.13879E+00 7.61570E+01 1.65183E-04 2.91148E+00 6.06779E-13-1.93307E-13
 -1     12003 3.74751E+00 7.58735E+01 3.42145E-03 2.44579E+00-2.23030E-13-1.03771E-14
 -1     12004 2.49082E+00 7.57606E+01-2.79865E-04 3.52913E+00 1.71980E-13-1.22496E-13
 -1     12005 3.14847E+00 7.54026E+01 3.72558E-03 2.99267E+00-7.17759E-14-1.58835E-13
 -1     12006 1.81804E+00 7.53250E+01-9.14128E-04 4.25032E+00 3.23075E-14-2.78791E-13
 -1     12007 2.54733E+00 7.48581E+01 3.99441E-03 3.63613E+00-3.25018E-14-1.35295E-13
 -1     12008 1.09216E+00 7.48672E+01-1.82790E-03 5.10109E+00-4.50862E-13-1.99507E-13
 -1     12009 1.92239E+00 7.42435E+01 4.13945E-03 4.40362E+00-2.92696E-13-1.86462E-13
 -1     12010 2.73793E-01 7.44166E+01-3.15178E-03 6.11176E+00-1.27051E-13-1.19932E-13
 -1     12011 1.24252E+00 7.35691E+01 3.99218E-03 5.32975E+00-3.71730E-13-1.04881E-13
 -1     12012-6.91983E-01 7.40242E+01-5.02873E-03 7.31518E+00 2.26541E-13 1.95080E-13
 -1     12013 4.62301E-01 7.28575E+01 3.24814E-03 6.45706E+00 3.12070E-13-3.52496E-15
 -1     12014-1.88108E+00 7.37749E+01-7.74181E-03 8.74161E+00-4.98532E-13-2.21184E-13
 -1     12015-4.85054E-01 7.21535E+01 1.32153E-03 7.83562E+00 3.84734E-13 2.53048E-13
 -1     12016-3.39336E+00 7.38106E+01-1.06317E-02 1.04057E+01-3.51247E-14-1.53377E-13
 -1     12017-1.69701E+00 7.15418E+01-2.67184E-03 9.51807E+00-1.22818E-13 3.43336E-14
 -1     12018-5.35417E+00 7.43513E+01-1.76782E-02 1.22803E+01 1.98189E-13 9.18710E-15
 -1     12019-3.31311E+00 7.11691E+01-1.12207E-02 1.15472E+01 4.62852E-13-1.31367E-13
 -1     12020-5.51013E+00 7.13198E+01-2.43862E-02 1.39158E+01-6.07847E-14-2.13163E-14
 -1     12021 2.09360E+01 7.36659E+01 4.39964E-03-1.35920E+00-5.55923E-13 4.33866E-13
 -1     12022 2.14511E+01 7.33854E+01 1.27295E-02-1.12046E+00 6.71043E-13 6.66683E-13
 -1     12023 1.98601E+01 7.41072E+01-1.86801E-04-1.35199E+00-5.62994E-13 4.25861E-13
 -1     12024 2.04077E+01 7.38262E+01 1.53179E-03-1.12546E+00-6.03635E-13 5.16120E-13
 -1     12025 1.87581E+01 7.45451E+01-2.06852E-04-1.31923E+00-1.41546E-13-7.22417E-14
 -1     12026 1.93315E+01 7.42618E+01 1.00290E-03-1.10877E+00-1.19210E-14 3.90387E-13
 -1     12027 1.76402E+01 7.49687E+01 3.77490E-05-1.26188E+00-5.69655E-13 3.03532E-13
 -1     12028 1.82327E+01 7.46869E+01 1.12021E-03-1.07118E+00-7.00134E-13 2.87994E-13
 -1     12029 1.65180E+01 7.53703E+01 2.81411E-04-1.18113E+00-2.62665E-13-4.43751E-14
 -1     12030 1.71233E+01 7.50938E+01 1.27014E-03-1.01358E+00 3.36411E-13 4.42749E-13
 -1     12031 1.54026E+01 7.57428E+01 5.03940E-04-1.07839E+00 2.14342E-13 5.31836E-14
 -1     12032 1.60145E+01 7.54751E+01 1.41457E-03-9.37017E-01-4.10644E-14 4.34063E-13
 -1     12033 1.43039E+01 7.60794E+01 7.00650E-04-9.55220E-01 6.82614E-13-3.57453E-14
 -1     12034 1.49168E+01 7.58239E+01 1.55054E-03-8.42681E-01-1.05124E-14 1.94174E-13
 -1     12035 1.32306E+01 7.63743E+01 8.68909E-04-8.13271E-01 4.14023E-13 1.78152E-14
 -1     12036 1.38395E+01 7.61338E+01 1.67856E-03-7.31848E-01 4.84793E-13 4.25545E-13
 -1     12037 1.21903E+01 7.66224E+01 1.00744E-03-6.54102E-01-1.94220E-13 2.67534E-13
 -1     12038 1.27909E+01 7.63992E+01 1.80077E-03-6.05778E-01-1.42983E-13 5.41312E-13
 -1     12039 1.11890E+01 7.68191E+01 1.11629E-03-4.79030E-01-1.72765E-13-9.43568E-14
 -1     12040 1.17777E+01 7.66150E+01 1.92101E-03-4.65579E-01 4.29545E-13 3.71808E-13
 -1     12041 1.02314E+01 7.69606E+01 1.19665E-03-2.88948E-01-1.23887E-13 4.27641E-13
 -1     12042 1.08056E+01 7.67764E+01 2.04479E-03-3.12070E-01-2.41425E-13 2.30484E-13
 -1     12043 9.32058E+00 7.70433E+01 1.25054E-03-8.41429E-02 5.15740E-13-2.26755E-13
 -1     12044 9.87896E+00 7.68794E+01 2.17934E-03-1.45623E-01 7.37466E-14-1.01291E-13
 -1     12045 8.45864E+00 7.70642E+01 1.28046E-03 1.35889E-01-2.76779E-13-3.10221E-13
 -1     12046 9.00066E+00 7.69201E+01 2.33355E-03 3.39992E-02-7.23727E-15-1.76428E-13
 -1     12047 7.64623E+00 7.70203E+01 1.28893E-03 3.72641E-01-5.48797E-14 2.36313E-14
 -1     12048 8.17258E+00 7.68945E+01 2.51807E-03 2.27814E-01-1.00440E-13 4.67200E-14
 -1     12049 6.88290E+00 7.69083E+01 1.27794E-03 6.28806E-01-1.37411E-13-1.79768E-13
 -1     12050 7.39550E+00 7.67988E+01 2.74547E-03 4.37812E-01-1.37952E-13 1.15108E-13
 -1     12051 6.16704E+00 7.67250E+01 1.24835E-03 9.08535E-01-6.27338E-13-3.24345E-13
 -1     12052 6.66916E+00 7.66282E+01 3.03050E-03 6.67179E-01-2.80054E-14 2.69408E-13
 -1     12053 5.49595E+00 7.64661E+01 1.19898E-03 1.21775E+00 2.89921E-13 8.34315E-14
 -1     12054 5.99239E+00 7.63774E+01 3.39056E-03 9.20580E-01-8.12135E-13 5.86883E-14
 -1     12055 4.86566E+00 7.61270E+01 1.12541E-03 1.56459E+00 1.33407E-13-6.09270E-14
 -1     12056 5.36308E+00 7.60400E+01 3.84622E-03 1.20453E+00 3.34836E-13 1.41682E-13
 -1     12057 4.27071E+00 7.57019E+01 1.01808E-03 1.95990E+00-1.71044E-13-1.59008E-13
 -1     12058 4.77807E+00 7.56078E+01 4.42185E-03 1.52791E+00 5.18356E-13 1.39016E-13
 -1     12059 3.70362E+00 7.51842E+01 8.59249E-04 2.41809E+00-2.55587E-13 1.16313E-13
 -1     12060 4.23292E+00 7.50708E+01 5.14607E-03 1.90264E+00-5.86114E-13 3.21323E-14
 -1     12061 3.15408E+00 7.45664E+01 6.18065E-04 2.95810E+00 3.65041E-13 6.41605E-14
 -1     12062 3.72139E+00 7.44166E+01 6.05155E-03 2.34471E+00 3.12764E-13 4.44512E-13
 -1     12063 2.60748E+00 7.38410E+01 2.42549E-04 3.60481E+00-1.50560E-13 3.06422E-14
 -1     12064 3.23452E+00 7.36303E+01 7.17331E-03 2.87551E+00 1.02002E-13 4.82440E-13
 -1     12065 2.04262E+00 7.30014E+01-3.53560E-04 4.39083E+00-2.29400E-13 1.66527E-13
 -1     12066 2.75911E+00 7.26941E+01 8.54322E-03 3.52386E+00-3.26558E-13 2.10415E-13
 -1     12067 1.42802E+00 7.20452E+01-1.31185E-03 5.35880E+00 1.60066E-13-5.87932E-14
 -1     12068 2.27496E+00 7.15882E+01 1.01761E-02 4.32866E+00 2.75807E-13 7.36911E-14
 -1     12069 7.16040E-01 7.09791E+01-2.84797E-03 6.56372E+00 1.36752E-13-1.70003E-13
 -1     12070 1.75036E+00 7.02919E+01 1.20426E-02 5.34256E+00-5.70877E-13-1.08136E-13
 -1     12071-1.66226E-01 6.98290E+01-5.38031E-03 8.07479E+00 1.91930E-13 2.76418E-13
 -1     12072 1.13429E+00 6.87883E+01 1.39682E-02 6.63672E+00-2.51632E-13-2.63817E-14
 -1     12073-1.32945E+00 6.86610E+01-8.76441E-03 9.97332E+00-7.08877E-14-5.58997E-14
 -1     12074 3.43767E-01 6.70741E+01 1.57136E-02 8.30503E+00 3.64292E-13-3.39173E-14
 -1     12075-2.94360E+00 6.76048E+01-1.80194E-02 1.23426E+01 2.23599E-13-1.29285E-13
 -1     12076-7.59362E-01 6.51735E+01 1.51912E-02 1.04683E+01-4.21052E-13-4.72955E-14
 -1     12077-2.38786E+00 6.32132E+01 1.64007E-02 1.32550E+01 8.37663E-14-1.52156E-13
 -1     12078 2.09307E+01 7.35599E+01 4.26099E-03-8.98921E-01-6.30551E-13-3.95363E-13
 -1     12079 2.14376E+01 7.33047E+01 1.25043E-02-6.67919E-01-5.90888E-13-2.62165E-13
 -1     12080 1.98776E+01 7.39910E+01-2.09839E-04-8.94136E-01 8.33639E-14-1.67457E-13
 -1     12081 2.04128E+01 7.37372E+01 1.52780E-03-6.70943E-01-6.71532E-13-1.84757E-13
 -1     12082 1.87975E+01 7.44187E+01-2.25241E-04-8.72306E-01 2.85806E-13 2.97852E-14
 -1     12083 1.93544E+01 7.41646E+01 1.01368E-03-6.60934E-01 3.00510E-13-1.00310E-13
 -1     12084 1.77006E+01 7.48322E+01 1.66999E-05-8.34090E-01-1.51122E-13-2.34709E-13
 -1     12085 1.82728E+01 7.45815E+01 1.13397E-03-6.38380E-01-2.66905E-13-4.99414E-14
 -1     12086 1.65983E+01 7.52237E+01 2.57864E-04-7.80247E-01-2.51743E-13 2.00376E-13
 -1     12087 1.71798E+01 7.49802E+01 1.28777E-03-6.03810E-01-1.04555E-13-3.82461E-13
 -1     12088 1.55015E+01 7.55860E+01 4.79636E-04-7.11661E-01 9.68739E-14-6.54520E-14
 -1     12089 1.60865E+01 7.53533E+01 1.43846E-03-5.57827E-01-2.06259E-13-1.70108E-13
 -1     12090 1.44200E+01 7.59123E+01 6.78270E-04-6.29301E-01 8.06577E-14 2.75192E-14
 -1     12091 1.50032E+01 7.56937E+01 1.58389E-03-5.01107E-01-1.41158E-13-1.27491E-13
 -1     12092 1.33627E+01 7.61965E+01 8.51798E-04-5.34162E-01 1.31686E-13 2.97779E-13
 -1     12093 1.39394E+01 7.59951E+01 1.72518E-03-4.34361E-01 1.44329E-14-2.31892E-13
 -1     12094 1.23371E+01 7.64331E+01 9.99390E-04-4.27165E-01 1.41637E-13 2.34621E-15
 -1     12095 1.29032E+01 7.62513E+01 1.86513E-03-3.58278E-01-2.27943E-13-6.98447E-14
 -1     12096 1.13496E+01 7.66167E+01 1.12140E-03-3.09053E-01-4.23814E-13-8.06857E-14
 -1     12097 1.19018E+01 7.64569E+01 2.00824E-03-2.73446E-01 6.67418E-13-2.91082E-13
 -1     12098 1.04053E+01 7.67428E+01 1.21931E-03-1.80267E-01 5.04950E-13-2.96261E-13
 -1     12099 1.09410E+01 7.66065E+01 2.16100E-03-1.80266E-01 2.01769E-13-3.01651E-13
 -1     12100 9.50816E+00 7.68068E+01 1.29559E-03-4.08132E-02-4.38538E-15-4.13719E-14
 -1     12101 1.00256E+01 7.66954E+01 2.33198E-03-7.88565E-02 1.48256E-13 9.43278E-15
 -1     12102 8.66082E+00 7.68044E+01 1.35346E-03 1.09872E-01-1.22159E-13 2.25023E-13
 -1     12103 9.15921E+00 7.67185E+01 2.53214E-03 3.10536E-02-1.11744E-13 1.31182E-13
 -1     12104 7.86503E+00 7.67308E+01 1.39662E-03 2.73074E-01-5.83006E-14-3.41220E-14
 -1     12105 8.34444E+00 7.66709E+01 2.77520E-03 1.50238E-01 1.85713E-13 1.29254E-13
 -1     12106 7.12155E+00 7.65808E+01 1.42898E-03 4.50982E-01-4.18478E-13 1.58991E-13
 -1     12107 7.58300E+00 7.65469E+01 3.07823E-03 2.80107E-01 3.61843E-13 4.84664E-14
 -1     12108 6.43031E+00 7.63483E+01 1.45431E-03 6.46900E-01 4.28213E-13 3.74719E-13
 -1     12109 6.87584E+00 7.63400E+01 3.46268E-03 4.22867E-01-3.73035E-13-1.50427E-13
 -1     12110 5.79047E+00 7.60257E+01 1.47576E-03 8.65540E-01-4.75529E-13-2.98431E-13
 -1     12111 6.22329E+00 7.60421E+01 3.95576E-03 5.81733E-01 7.78350E-13-4.06073E-14
 -1     12112 5.20046E+00 7.56037E+01 1.49526E-03 1.11340E+00 6.70873E-13 3.46813E-13
 -1     12113 5.62515E+00 7.56432E+01 4.59263E-03 7.61208E-01-1.66880E-13 1.02453E-14
 -1     12114 4.65790E+00 7.50702E+01 1.51248E-03 1.39932E+00-6.20171E-13-1.46397E-13
 -1     12115 5.08078E+00 7.51305E+01 5.41952E-03 9.67480E-01 1.10328E-14 7.57979E-14
 -1     12116 4.15937E+00 7.44099E+01 1.52300E-03 1.73524E+00-8.59729E-14 1.76040E-14
 -1     12117 4.58908E+00 7.44875E+01 6.49827E-03 1.20899E+00-7.41907E-14-8.04166E-14
 -1     12118 3.69997E+00 7.36032E+01 1.51505E-03 2.13731E+00-6.73253E-13 2.16042E-13
 -1     12119 4.14837E+00 7.36926E+01 7.91284E-03 1.49725E+00-4.76133E-13-3.25955E-13
 -1     12120 3.27242E+00 7.26252E+01 1.46367E-03 2.62749E+00 4.46074E-13-3.16656E-14
 -1     12121 3.75604E+00 7.27175E+01 9.77899E-03 1.84807E+00 2.43680E-13-3.03049E-13
 -1     12122 2.86544E+00 7.14443E+01 1.31853E-03 3.23590E+00-2.57766E-13-1.80578E-13
 -1     12123 3.40776E+00 7.15253E+01 1.22576E-02 2.28335E+00 3.14027E-13-2.42549E-13
 -1     12124 2.46095E+00 7.00212E+01 9.86343E-04 4.00417E+00 8.98032E-14-6.81608E-14
 -1     12125 3.09601E+00 7.00673E+01 1.55748E-02 2.83384E+00 3.66401E-13-1.75027E-13
 -1     12126 2.02899E+00 6.83077E+01 2.78247E-04 4.99030E+00 1.15852E-13 8.21565E-14
 -1     12127 2.80719E+00 6.82795E+01 2.00494E-02 3.54321E+00 1.30479E-13-8.08659E-14
 -1     12128 1.51871E+00 6.62472E+01-1.14558E-03 6.27529E+00-4.53471E-13-2.44804E-14
 -1     12129 2.51593E+00 6.60779E+01 2.61028E-02 4.47427E+00 2.53408E-14-7.35176E-14
 -1     12130 8.42180E-01 6.37799E+01-3.68716E-03 7.97105E+00 2.52298E-13-4.32987E-15
 -1     12131 2.17450E+00 6.33530E+01 3.45096E-02 5.71758E+00-8.87346E-14 2.58127E-15
 -1     12132-1.56883E-01 6.08484E+01-1.11570E-02 1.02286E+01-1.26982E-13 1.56153E-13
 -1     12133 1.68836E+00 5.99638E+01 4.48075E-02 7.40521E+00-6.43929E-14 1.05888E-13
 -1     12134 8.86527E-01 5.57638E+01 6.63110E-02 9.71231E+00 1.10412E-13 1.78191E-14
 -1     12135 2.09275E+01 7.34960E+01 4.17667E-03-4.47290E-01-3.73077E-13 5.42980E-13
 -1     12136 2.14308E+01 7.32642E+01 1.23916E-02-2.21912E-01-1.94764E-13 5.80938E-13
 -1     12137 1.98881E+01 7.39210E+01-2.23904E-04-4.44902E-01 4.86465E-13 5.45857E-14
 -1     12138 2.04153E+01 7.36925E+01 1.52628E-03-2.22924E-01-2.99996E-13 5.52025E-13
 -1     12139 1.88212E+01 7.43425E+01-2.36022E-04-4.33986E-01-2.28845E-14 3.39844E-13
 -1     12140 1.93658E+01 7.41158E+01 1.01971E-03-2.19587E-01 3.35600E-13 3.08721E-13
 -1     12141 1.77369E+01 7.47498E+01 4.76562E-06-4.14874E-01-3.91062E-13 8.78204E-14
 -1     12142 1.82928E+01 7.45285E+01 1.14163E-03-2.12068E-01 5.93782E-13 4.04997E-13
 -1     12143 1.66465E+01 7.51351E+01 2.44825E-04-3.87939E-01-2.49613E-13-1.62261E-13
 -1     12144 1.72080E+01 7.49231E+01 1.29751E-03-2.00540E-01 3.30722E-13 3.58879E-13
 -1     12145 1.55610E+01 7.54911E+01 4.66483E-04-3.53606E-01 1.15949E-14 4.22999E-14
 -1     12146 1.61225E+01 7.52920E+01 1.45148E-03-1.85202E-01-7.40380E-14-7.11664E-14
 -1     12147 1.44900E+01 7.58110E+01 6.66573E-04-3.12336E-01 2.32245E-14 7.14413E-14
 -1     12148 1.50465E+01 7.56282E+01 1.60179E-03-1.66272E-01 2.33688E-13 7.24166E-14
 -1     12149 1.34424E+01 7.60885E+01 8.43556E-04-2.64596E-01 2.57849E-14-1.24590E-13
 -1     12150 1.39895E+01 7.59252E+01 1.74992E-03-1.43978E-01-2.53027E-13 2.80101E-13
 -1     12151 1.24259E+01 7.63177E+01 9.96921E-04-2.10811E-01 2.44971E-13-1.49446E-13
 -1     12152 1.29597E+01 7.61766E+01 1.89901E-03-1.18539E-01-9.79355E-14 4.72188E-14
 -1     12153 1.14471E+01 7.64930E+01 1.12728E-03-1.51310E-01-4.75731E-14 1.78661E-13
 -1     12154 1.19643E+01 7.63768E+01 2.05398E-03-9.01362E-02-4.35971E-13 1.90317E-13
 -1     12155 1.05113E+01 7.66091E+01 1.23639E-03-8.62641E-02-1.34670E-13 2.24599E-13
 -1     12156 1.10094E+01 7.65202E+01 2.22184E-03-5.88897E-02 3.93297E-14 3.53247E-13
 -1     12157 9.62291E+00 7.66611E+01 1.32710E-03-1.56186E-02-4.51250E-13 4.37529E-13
 -1     12158 1.00999E+01 7.66016E+01 2.41195E-03-2.48198E-02-3.36599E-13 4.31760E-13
 -1     12159 8.78512E+00 7.66435E+01 1.40322E-03 6.09814E-02-2.14356E-13 3.57162E-14
 -1     12160 9.23983E+00 7.66155E+01 2.63643E-03 1.21861E-02 5.23553E-13 4.02369E-13
 -1     12161 8.00030E+00 7.65507E+01 1.46943E-03 1.44274E-01-2.60174E-13 2.37438E-13
 -1     12162 8.43216E+00 7.65563E+01 2.91071E-03 5.24148E-02-6.34624E-13 2.86005E-13
 -1     12163 7.27003E+00 7.63761E+01 1.53112E-03 2.35481E-01 9.12673E-14 7.17724E-14
 -1     12164 7.67914E+00 7.64173E+01 3.25444E-03 9.63744E-02 1.36113E-13 3.25616E-13
 -1     12165 6.59527E+00 7.61116E+01 1.59438E-03 3.36433E-01-4.76570E-13-1.79508E-13
 -1     12166 6.98236E+00 7.61911E+01 3.69285E-03 1.44854E-01 1.31041E-13 2.87517E-13
 -1     12167 5.97650E+00 7.57475E+01 1.66583E-03 4.49738E-01 1.53620E-13 5.99419E-13
 -1     12168 6.34298E+00 7.58681E+01 4.25879E-03 1.98998E-01 1.86753E-13 3.10476E-13
 -1     12169 5.41384E+00 7.52710E+01 1.75266E-03 5.79011E-01 1.67463E-13-2.75563E-13
 -1     12170 5.76188E+00 7.54364E+01 4.99593E-03 2.60417E-01 4.91385E-13 1.00299E-13
 -1     12171 4.90718E+00 7.46657E+01 1.86246E-03 7.29211E-01 5.58609E-13 2.82841E-13
 -1     12172 5.23986E+00 7.48806E+01 5.96340E-03 3.31329E-01 2.44277E-13-2.00417E-14
 -1     12173 4.45618E+00 7.39102E+01 2.00284E-03 9.07111E-01 4.86167E-13-3.29485E-14
 -1     12174 4.77779E+00 7.41803E+01 7.24304E-03 4.14784E-01 2.59515E-14 2.42015E-13
 -1     12175 4.06018E+00 7.29759E+01 2.18043E-03 1.12202E+00-4.37081E-13-1.61326E-13
 -1     12176 4.37673E+00 7.33087E+01 8.95034E-03 5.14979E-01 2.54519E-14 1.38417E-13
 -1     12177 3.71792E+00 7.18250E+01 2.39868E-03 1.38683E+00 3.17357E-13-1.01308E-14
 -1     12178 4.03799E+00 7.22299E+01 1.12519E-02 6.37740E-01 1.96163E-13 2.17443E-13
 -1     12179 3.42674E+00 7.04064E+01 2.65038E-03 1.71964E+00 4.24327E-13 5.54140E-14
 -1     12180 3.76292E+00 7.08954E+01 1.43924E-02 7.91255E-01 1.63147E-13 3.33884E-13
 -1     12181 3.18106E+00 6.86512E+01 2.91044E-03 2.14622E+00-5.12604E-13 3.86219E-14
 -1     12182 3.55245E+00 6.92388E+01 1.87397E-02 9.87214E-01 6.94722E-14 2.24152E-13
 -1     12183 2.96909E+00 6.64649E+01 3.07143E-03 2.70380E+00-7.99194E-13-1.11175E-13
 -1     12184 3.40568E+00 6.71686E+01 2.48565E-02 1.24258E+00-3.68594E-14 3.37530E-13
 -1     12185 2.76627E+00 6.37173E+01 2.98869E-03 3.44698E+00-3.76477E-13 3.76088E-14
 -1     12186 3.31662E+00 6.45567E+01 3.36058E-02 1.58244E+00-7.33302E-14 2.72816E-13
 -1     12187 2.52055E+00 6.02270E+01 1.87666E-03 4.45623E+00-1.34226E-13 7.14151E-14
 -1     12188 3.26693E+00 6.12207E+01 4.65382E-02 2.04426E+00 9.20652E-14 3.10932E-13
 -1     12189 2.12259E+00 5.57390E+01-1.47452E-03 5.85070E+00 3.77476E-15-2.59098E-14
 -1     12190 3.20554E+00 5.68980E+01 6.47306E-02 2.68539E+00 4.47864E-13-2.21628E-14
 -1     12191 3.01988E+00 5.12227E+01 1.01332E-01 3.58741E+00-7.87703E-14-4.46032E-14
 -1     12192 2.09265E+01 7.34747E+01 4.14837E-03-8.06288E-12 3.21035E-13-1.56494E-14
 -1     12193 2.14308E+01 7.32642E+01 1.23916E-02 2.21912E-01 9.97813E-14-2.25135E-13
 -1     12194 1.98916E+01 7.38976E+01-2.28633E-04-7.04901E-12-1.03570E-13-1.69935E-13
 -1     12195 2.04153E+01 7.36925E+01 1.52628E-03 2.22924E-01 1.26316E-13-2.88586E-13
 -1     12196 1.88291E+01 7.43170E+01-2.39574E-04-6.19653E-12-3.00641E-13-2.91096E-13
 -1     12197 1.93658E+01 7.41158E+01 1.01971E-03 2.19587E-01-9.26342E-15-1.70996E-13
 -1     12198 1.77489E+01 7.47222E+01 9.02767E-07-7.62770E-12-1.06026E-13 1.47174E-13
 -1     12199 1.82928E+01 7.45285E+01 1.14163E-03 2.12068E-01 6.78693E-14-3.64245E-13
 -1     12200 1.66626E+01 7.51054E+01 2.40660E-04-5.30160E-12 3.08795E-13 1.47738E-13
 -1     12201 1.72080E+01 7.49231E+01 1.29751E-03 2.00540E-01 1.26149E-13-2.01131E-13
 -1     12202 1.55808E+01 7.54593E+01 4.62339E-04-2.75414E-12 5.64521E-13-1.66238E-13
 -1     12203 1.61225E+01 7.52920E+01 1.45148E-03 1.85202E-01 4.40661E-13 9.97856E-15
 -1     12204 1.45133E+01 7.57771E+01 6.62967E-04 1.53929E-13-6.77645E-13 2.51489E-13
 -1     12205 1.50465E+01 7.56282E+01 1.60179E-03 1.66272E-01-7.10335E-13-4.31177E-14
 -1     12206 1.34690E+01 7.60523E+01 8.41154E-04-2.39701E-12-1.75811E-13-8.46066E-15
 -1     12207 1.39895E+01 7.59252E+01 1.74992E-03 1.43978E-01 1.10398E-14-6.84547E-14
 -1     12208 1.24556E+01 7.62789E+01 9.96505E-04-4.91903E-13-9.13852E-15 3.45826E-13
 -1     12209 1.29597E+01 7.61766E+01 1.89901E-03 1.18539E-01 3.03438E-14 1.27536E-13
 -1     12210 1.14798E+01 7.64513E+01 1.12973E-03 2.45868E-12 2.25965E-13-2.17174E-13
 -1     12211 1.19643E+01 7.63768E+01 2.05398E-03 9.01362E-02 5.21347E-13-5.68705E-14
 -1     12212 1.05469E+01 7.65641E+01 1.24270E-03 3.81306E-12 1.32706E-13-4.13262E-14
 -1     12213 1.10094E+01 7.65202E+01 2.22184E-03 5.88897E-02-3.57873E-13-5.44311E-13
 -1     12214 9.66154E+00 7.66119E+01 1.33839E-03 3.89040E-12-1.42872E-13-1.77702E-13
 -1     12215 1.00999E+01 7.66016E+01 2.41195E-03 2.48198E-02-1.46910E-13-5.76424E-13
 -1     12216 8.82706E+00 7.65891E+01 1.42087E-03 7.00817E-12 3.91145E-13-7.08473E-14
 -1     12217 9.23983E+00 7.66155E+01 2.63643E-03-1.21861E-02-2.24244E-13-1.44692E-13
 -1     12218 8.04607E+00 7.64896E+01 1.49515E-03 6.22070E-12 3.03924E-14-2.00867E-13
 -1     12219 8.43216E+00 7.65563E+01 2.91071E-03-5.24148E-02 1.84443E-13-1.18513E-13
 -1     12220 7.32044E+00 7.63064E+01 1.56723E-03 6.55580E-12-2.64677E-13 6.96991E-14
 -1     12221 7.67914E+00 7.64173E+01 3.25444E-03-9.63744E-02-3.28119E-13-1.66214E-13
 -1     12222 6.65148E+00 7.60309E+01 1.64404E-03 6.80623E-12-8.58688E-14-5.58230E-14
 -1     12223 6.98236E+00 7.61911E+01 3.69285E-03-1.44854E-01 3.40422E-14-8.14496E-14
 -1     12224 6.04014E+00 7.56523E+01 1.73354E-03 9.45346E-12 3.52766E-13-3.36961E-13
 -1     12225 6.34298E+00 7.58681E+01 4.25879E-03-1.98998E-01 5.48860E-13-2.80853E-13
 -1     12226 5.48717E+00 7.51568E+01 1.84496E-03 1.01555E-11-1.22000E-13 1.26955E-15
 -1     12227 5.76188E+00 7.54364E+01 4.99593E-03-2.60417E-01 1.35017E-13-5.53355E-14
 -1     12228 4.99328E+00 7.45264E+01 1.98898E-03 1.45553E-11 5.06539E-13 2.29710E-15
 -1     12229 5.23986E+00 7.48806E+01 5.96340E-03-3.31329E-01-5.00683E-13 2.72573E-13
 -1     12230 4.55927E+00 7.37374E+01 2.17806E-03 1.82520E-11 1.41581E-13-7.19565E-14
 -1     12231 4.77779E+00 7.41803E+01 7.24304E-03-4.14784E-01 1.12466E-13-1.20056E-14
 -1     12232 4.18612E+00 7.27581E+01 2.42638E-03 2.28043E-11 5.94441E-13-7.58966E-15
 -1     12233 4.37673E+00 7.33087E+01 8.95034E-03-5.14979E-01-3.66485E-13-5.43315E-14
 -1     12234 3.87487E+00 7.15455E+01 2.74945E-03 2.64686E-11 5.45397E-14 1.86603E-13
 -1     12235 4.03799E+00 7.22299E+01 1.12519E-02-6.37740E-01 4.56690E-13-6.65622E-14
 -1     12236 3.62627E+00 7.00416E+01 3.15915E-03 3.49059E-11-2.93640E-13 1.12430E-13
 -1     12237 3.76292E+00 7.08954E+01 1.43924E-02-7.91255E-01-3.96072E-14 7.36789E-14
 -1     12238 3.43982E+00 6.81659E+01 3.66209E-03 4.21357E-11-1.49603E-13 1.35817E-13
 -1     12239 3.55245E+00 6.92388E+01 1.87397E-02-9.87214E-01 2.17729E-13 3.33067E-14
 -1     12240 3.31139E+00 6.58058E+01 4.19399E-03 5.37662E-11-1.15519E-13 2.30682E-13
 -1     12241 3.40568E+00 6.71686E+01 2.48565E-02-1.24258E+00-7.55701E-13-8.34922E-15
 -1     12242 3.22810E+00 6.28013E+01 4.71211E-03 7.27161E-11-3.31957E-14-1.03589E-13
 -1     12243 3.31662E+00 6.45567E+01 3.36058E-02-1.58244E+00 2.92766E-13-8.50570E-14
 -1     12244 3.15502E+00 5.89205E+01 4.29906E-03 8.92816E-11-3.85469E-13 1.32538E-13
 -1     12245 3.26693E+00 6.12207E+01 4.65382E-02-2.04426E+00 5.30131E-14-1.99743E-13
 -1     12246 3.00821E+00 5.38228E+01 3.11026E-03 1.20380E-10-1.33671E-13-3.23302E-13
 -1     12247 3.20554E+00 5.68980E+01 6.47306E-02-2.68539E+00 3.39173E-14-6.91877E-14
 -1     12248 3.01988E+00 5.12227E+01 1.01332E-01-3.58741E+00-3.90132E-13-7.71744E-14
 -1     12249 2.09275E+01 7.34960E+01 4.17667E-03 4.47290E-01 9.31373E-13-9.99643E-14
 -1     12250 2.14376E+01 7.33047E+01 1.25043E-02 6.67919E-01 7.07944E-13-2.36261E-14
 -1     12251 1.98881E+01 7.39210E+01-2.23904E-04 4.44902E-01-2.31530E-13 2.83898E-13
 -1     12252 2.04128E+01 7.37372E+01 1.52780E-03 6.70943E-01 4.52173E-13 1.06574E-13
 -1     12253 1.88212E+01 7.43425E+01-2.36022E-04 4.33986E-01 2.46428E-13 3.47118E-13
 -1     12254 1.93544E+01 7.41646E+01 1.01368E-03 6.60934E-01-3.30430E-14 1.32842E-13
 -1     12255 1.77369E+01 7.47498E+01 4.76562E-06 4.14874E-01-2.56350E-13-3.39685E-13
 -1     12256 1.82728E+01 7.45815E+01 1.13397E-03 6.38380E-01-4.53096E-13 1.73520E-14
 -1     12257 1.66465E+01 7.51351E+01 2.44825E-04 3.87939E-01 3.37508E-13-1.49019E-14
 -1     12258 1.71798E+01 7.49802E+01 1.28777E-03 6.03810E-01-2.90962E-13 9.42059E-14
 -1     12259 1.55610E+01 7.54911E+01 4.66483E-04 3.53606E-01 2.88422E-13 7.20851E-14
 -1     12260 1.60865E+01 7.53533E+01 1.43846E-03 5.57827E-01 2.14884E-13 1.45305E-13
 -1     12261 1.44900E+01 7.58110E+01 6.66573E-04 3.12336E-01 2.26770E-13-2.87987E-13
 -1     12262 1.50032E+01 7.56937E+01 1.58389E-03 5.01107E-01 4.61672E-13 2.39140E-14
 -1     12263 1.34424E+01 7.60885E+01 8.43556E-04 2.64596E-01-2.84481E-13-1.60378E-13
 -1     12264 1.39394E+01 7.59951E+01 1.72518E-03 4.34361E-01-2.89588E-13-3.53410E-13
 -1     12265 1.24259E+01 7.63177E+01 9.96921E-04 2.10811E-01 5.50553E-13-2.27269E-13
 -1     12266 1.29032E+01 7.62513E+01 1.86513E-03 3.58278E-01 4.72067E-13-4.13088E-13
 -1     12267 1.14471E+01 7.64930E+01 1.12728E-03 1.51310E-01 4.28289E-13 1.90441E-13
 -1     12268 1.19018E+01 7.64569E+01 2.00824E-03 2.73446E-01-1.34739E-13-1.35052E-13
 -1     12269 1.05113E+01 7.66091E+01 1.23639E-03 8.62641E-02-3.35502E-13-3.89626E-13
 -1     12270 1.09410E+01 7.66065E+01 2.16100E-03 1.80266E-01 4.70540E-13 1.79250E-13
 -1     12271 9.62291E+00 7.66611E+01 1.32710E-03 1.56186E-02-1.97592E-13-7.54345E-15
 -1     12272 1.00256E+01 7.66954E+01 2.33198E-03 7.88565E-02-2.67147E-14 6.86285E-14
 -1     12273 8.78512E+00 7.66435E+01 1.40322E-03-6.09814E-02 1.62620E-13-1.78659E-14
 -1     12274 9.15921E+00 7.67185E+01 2.53214E-03-3.10536E-02 5.04839E-13-9.92008E-14
 -1     12275 8.00030E+00 7.65507E+01 1.46943E-03-1.44274E-01-4.67237E-13-6.14266E-14
 -1     12276 8.34444E+00 7.66709E+01 2.77520E-03-1.50238E-01-2.43278E-14-1.49878E-13
 -1     12277 7.27003E+00 7.63761E+01 1.53112E-03-2.35481E-01-2.99344E-13 2.81541E-14
 -1     12278 7.58300E+00 7.65469E+01 3.07823E-03-2.80107E-01-2.57100E-13 5.97673E-14
 -1     12279 6.59527E+00 7.61116E+01 1.59438E-03-3.36433E-01 2.35978E-13 9.60568E-14
 -1     12280 6.87584E+00 7.63400E+01 3.46268E-03-4.22867E-01 7.83054E-14 1.02615E-13
 -1     12281 5.97650E+00 7.57475E+01 1.66583E-03-4.49738E-01-1.68740E-13-1.24635E-13
 -1     12282 6.22329E+00 7.60421E+01 3.95576E-03-5.81733E-01 1.74291E-13 6.06789E-14
 -1     12283 5.41384E+00 7.52710E+01 1.75266E-03-5.79011E-01 3.80591E-13 1.29535E-13
 -1     12284 5.62515E+00 7.56432E+01 4.59263E-03-7.61208E-01-2.39878E-13-4.05266E-14
 -1     12285 4.90718E+00 7.46657E+01 1.86246E-03-7.29211E-01 2.96763E-13 1.78693E-13
 -1     12286 5.08078E+00 7.51305E+01 5.41952E-03-9.67480E-01 2.60958E-13-1.89381E-13
 -1     12287 4.45618E+00 7.39102E+01 2.00284E-03-9.07111E-01 2.14176E-13 9.59510E-14
 -1     12288 4.58908E+00 7.44875E+01 6.49827E-03-1.20899E+00 3.38757E-13-1.90715E-14
 -1     12289 4.06018E+00 7.29759E+01 2.18043E-03-1.12202E+00 1.43108E-13-6.33243E-14
 -1     12290 4.14837E+00 7.36926E+01 7.91284E-03-1.49725E+00 8.89566E-15 4.86590E-14
 -1     12291 3.71792E+00 7.18250E+01 2.39868E-03-1.38683E+00 2.05877E-13-2.45068E-13
 -1     12292 3.75604E+00 7.27175E+01 9.77899E-03-1.84807E+00-2.32259E-13-1.84991E-13
 -1     12293 3.42674E+00 7.04064E+01 2.65038E-03-1.71964E+00 5.45952E-14-2.19755E-14
 -1     12294 3.40776E+00 7.15253E+01 1.22576E-02-2.28335E+00-6.91114E-14-1.38164E-13
 -1     12295 3.18106E+00 6.86512E+01 2.91044E-03-2.14622E+00-2.37588E-14-6.87228E-14
 -1     12296 3.09601E+00 7.00673E+01 1.55748E-02-2.83384E+00-6.26194E-13 1.15394E-14
 -1     12297 2.96909E+00 6.64649E+01 3.07143E-03-2.70380E+00-3.89466E-13-6.43097E-14
 -1     12298 2.80719E+00 6.82795E+01 2.00494E-02-3.54321E+00-6.33715E-13-1.63258E-13
 -1     12299 2.76627E+00 6.37173E+01 2.98869E-03-3.44698E+00 2.67286E-13 1.76470E-13
 -1     12300 2.51593E+00 6.60779E+01 2.61028E-02-4.47427E+00 5.77927E-13-6.85840E-14
 -1     12301 2.52055E+00 6.02270E+01 1.87666E-03-4.45623E+00-1.99590E-13-2.81636E-13
 -1     12302 2.17450E+00 6.33530E+01 3.45096E-02-5.71758E+00 1.10773E-13 7.84095E-15
 -1     12303 2.12259E+00 5.57390E+01-1.47452E-03-5.85070E+00-5.57387E-13 1.29841E-13
 -1     12304 1.68836E+00 5.99638E+01 4.48075E-02-7.40521E+00-5.28466E-14-7.66609E-14
 -1     12305 8.86527E-01 5.57638E+01 6.63110E-02-9.71231E+00 1.11966E-13-3.86913E-14
 -1     12306 2.09307E+01 7.35599E+01 4.26099E-03 8.98921E-01 1.22777E-13-6.31890E-14
 -1     12307 2.14511E+01 7.33854E+01 1.27295E-02 1.12046E+00-1.03216E-13-3.57405E-13
 -1     12308 1.98776E+01 7.39910E+01-2.09839E-04 8.94136E-01 2.12788E-13-1.04438E-13
 -1     12309 2.04077E+01 7.38262E+01 1.53179E-03 1.12546E+00 1.31936E-13-2.34548E-13
 -1     12310 1.87975E+01 7.44187E+01-2.25241E-04 8.72306E-01-1.36044E-13-1.54540E-13
 -1     12311 1.93315E+01 7.42618E+01 1.00290E-03 1.10877E+00-1.87905E-14-2.92617E-13
 -1     12312 1.77006E+01 7.48322E+01 1.66999E-05 8.34090E-01 1.25386E-13 2.25822E-13
 -1     12313 1.82327E+01 7.46869E+01 1.12021E-03 1.07118E+00 1.54043E-13-3.31538E-13
 -1     12314 1.65983E+01 7.52237E+01 2.57864E-04 7.80247E-01-3.08656E-13 2.29757E-13
 -1     12315 1.71233E+01 7.50938E+01 1.27014E-03 1.01358E+00-5.46764E-13-9.40363E-14
 -1     12316 1.55015E+01 7.55860E+01 4.79636E-04 7.11661E-01 2.45935E-13 1.47106E-13
 -1     12317 1.60145E+01 7.54751E+01 1.41457E-03 9.37017E-01 3.12389E-13-4.36556E-14
 -1     12318 1.44200E+01 7.59123E+01 6.78270E-04 6.29301E-01 5.68559E-13-2.34144E-14
 -1     12319 1.49168E+01 7.58239E+01 1.55054E-03 8.42681E-01 1.75818E-13-8.18521E-14
 -1     12320 1.33627E+01 7.61965E+01 8.51798E-04 5.34162E-01-5.43010E-13 3.01100E-14
 -1     12321 1.38395E+01 7.61338E+01 1.67856E-03 7.31848E-01-6.65856E-14 2.30663E-13
 -1     12322 1.23371E+01 7.64331E+01 9.99390E-04 4.27165E-01 6.71824E-14 6.91105E-14
 -1     12323 1.27909E+01 7.63992E+01 1.80077E-03 6.05778E-01-3.22853E-13 3.85976E-16
 -1     12324 1.13496E+01 7.66167E+01 1.12140E-03 3.09053E-01-4.11060E-13-1.42397E-13
 -1     12325 1.17777E+01 7.66150E+01 1.92101E-03 4.65579E-01 1.63300E-13-1.18380E-13
 -1     12326 1.04053E+01 7.67428E+01 1.21931E-03 1.80267E-01 3.83533E-13 5.84015E-13
 -1     12327 1.08056E+01 7.67764E+01 2.04479E-03 3.12070E-01-1.33088E-13-4.90918E-14
 -1     12328 9.50816E+00 7.68068E+01 1.29559E-03 4.08132E-02 1.69184E-13-2.21798E-13
 -1     12329 9.87896E+00 7.68794E+01 2.17934E-03 1.45623E-01 2.66273E-13 3.96601E-14
 -1     12330 8.66082E+00 7.68044E+01 1.35346E-03-1.09872E-01 6.08125E-14 2.01299E-13
 -1     12331 9.00066E+00 7.69201E+01 2.33355E-03-3.39992E-02-9.37653E-14-7.39903E-15
 -1     12332 7.86503E+00 7.67308E+01 1.39662E-03-2.73074E-01-1.39791E-13 1.17365E-13
 -1     12333 8.17258E+00 7.68945E+01 2.51807E-03-2.27814E-01 5.31700E-13 3.69453E-14
 -1     12334 7.12155E+00 7.65808E+01 1.42898E-03-4.50982E-01 2.56219E-13-9.48018E-14
 -1     12335 7.39550E+00 7.67988E+01 2.74547E-03-4.37812E-01-1.81660E-14-1.64670E-13
 -1     12336 6.43031E+00 7.63483E+01 1.45431E-03-6.46900E-01 2.96430E-13 2.00456E-13
 -1     12337 6.66916E+00 7.66282E+01 3.03050E-03-6.67179E-01-2.21649E-13-2.63672E-13
 -1     12338 5.79047E+00 7.60257E+01 1.47576E-03-8.65540E-01 1.13187E-13 1.72657E-13
 -1     12339 5.99239E+00 7.63774E+01 3.39056E-03-9.20580E-01 6.16986E-13 9.72226E-14
 -1     12340 5.20046E+00 7.56037E+01 1.49526E-03-1.11340E+00-3.19952E-13 1.49221E-14
 -1     12341 5.36308E+00 7.60400E+01 3.84622E-03-1.20453E+00 4.45685E-13 1.80668E-13
 -1     12342 4.65790E+00 7.50702E+01 1.51248E-03-1.39932E+00-4.27131E-13-1.02826E-13
 -1     12343 4.77807E+00 7.56078E+01 4.42185E-03-1.52791E+00 7.08322E-14 2.44769E-14
 -1     12344 4.15937E+00 7.44099E+01 1.52300E-03-1.73524E+00 7.15261E-14 1.21517E-14
 -1     12345 4.23292E+00 7.50708E+01 5.14607E-03-1.90264E+00 1.71432E-13-1.89369E-13
 -1     12346 3.69997E+00 7.36032E+01 1.51505E-03-2.13731E+00 5.04943E-13 5.39777E-14
 -1     12347 3.72139E+00 7.44166E+01 6.05155E-03-2.34471E+00 9.85323E-15-9.41296E-14
 -1     12348 3.27242E+00 7.26252E+01 1.46367E-03-2.62749E+00-3.38160E-13-3.93088E-15
 -1     12349 3.23452E+00 7.36303E+01 7.17331E-03-2.87551E+00-1.72376E-13 4.62477E-14
 -1     12350 2.86544E+00 7.14443E+01 1.31853E-03-3.23590E+00 4.32987E-13 1.47465E-13
 -1     12351 2.75911E+00 7.26941E+01 8.54322E-03-3.52386E+00-2.59098E-13 1.23443E-14
 -1     12352 2.46095E+00 7.00212E+01 9.86343E-04-4.00417E+00-7.15511E-13 7.63209E-14
 -1     12353 2.27496E+00 7.15882E+01 1.01761E-02-4.32866E+00 4.65461E-14 1.95677E-14
 -1     12354 2.02899E+00 6.83077E+01 2.78247E-04-4.99030E+00-2.64150E-13-4.87527E-14
 -1     12355 1.75036E+00 7.02919E+01 1.20426E-02-5.34256E+00-8.94562E-14-8.13238E-15
 -1     12356 1.51871E+00 6.62472E+01-1.14558E-03-6.27529E+00 7.17371E-13 2.32592E-14
 -1     12357 1.13429E+00 6.87883E+01 1.39682E-02-6.63672E+00-7.70550E-13-2.83384E-14
 -1     12358 8.42180E-01 6.37799E+01-3.68716E-03-7.97105E+00 1.54710E-13 2.16521E-13
 -1     12359 3.43767E-01 6.70741E+01 1.57136E-02-8.30503E+00-2.11997E-13 9.63951E-14
 -1     12360-1.56883E-01 6.08484E+01-1.11570E-02-1.02286E+01-4.07674E-13 1.20876E-13
 -1     12361-7.59362E-01 6.51735E+01 1.51912E-02-1.04683E+01-1.78468E-14 9.18987E-14
 -1     12362-2.38786E+00 6.32132E+01 1.64007E-02-1.32550E+01 2.80304E-13 5.28466E-14
 -1     12363 2.09360E+01 7.36659E+01 4.39964E-03 1.35920E+00-1.05811E-13 4.08458E-14
 -1     12364 2.14713E+01 7.35058E+01 1.30667E-02 1.58383E+00-4.06654E-13 9.98576E-14
 -1     12365 1.98601E+01 7.41072E+01-1.86801E-04 1.35199E+00-9.42316E-13-1.18307E-13
 -1     12366 2.04002E+01 7.39589E+01 1.54015E-03 1.59073E+00-2.11671E-13 1.26689E-13
 -1     12367 1.87581E+01 7.45451E+01-2.06852E-04 1.31923E+00 8.07757E-13-1.90411E-13
 -1     12368 1.92971E+01 7.44068E+01 9.89941E-04 1.56732E+00-4.19109E-14-2.64302E-14
 -1     12369 1.76402E+01 7.49687E+01 3.77490E-05 1.26188E+00-1.46508E-13-6.57210E-13
 -1     12370 1.81726E+01 7.48440E+01 1.10348E-03 1.51465E+00 2.25632E-13 1.17972E-13
 -1     12371 1.65180E+01 7.53703E+01 2.81411E-04 1.18113E+00-4.61770E-13-3.45961E-13
 -1     12372 1.70386E+01 7.52629E+01 1.24827E-03 1.43397E+00-9.09738E-13-2.49291E-13
 -1     12373 1.54026E+01 7.57428E+01 5.03940E-04 1.07839E+00 1.60288E-15-3.81722E-13
 -1     12374 1.59067E+01 7.56561E+01 1.38394E-03 1.32683E+00 4.43139E-13-2.45511E-13
 -1     12375 1.43039E+01 7.60794E+01 7.00650E-04 9.55220E-01-3.80342E-13-7.34222E-15
 -1     12376 1.47876E+01 7.60168E+01 1.50644E-03 1.19505E+00-1.63133E-13 6.65900E-14
 -1     12377 1.32306E+01 7.63743E+01 8.68909E-04 8.13271E-01-1.88266E-13-1.33201E-13
 -1     12378 1.36905E+01 7.63390E+01 1.61544E-03 1.04060E+00 1.23700E-13 2.94244E-14
 -1     12379 1.21903E+01 7.66224E+01 1.00744E-03 6.54102E-01 1.69365E-13-3.04821E-13
 -1     12380 1.26238E+01 7.66172E+01 1.71235E-03 8.65471E-01 3.08510E-13 2.46183E-14
 -1     12381 1.11890E+01 7.68191E+01 1.11629E-03 4.79030E-01-4.57384E-13 7.20409E-14
 -1     12382 1.15938E+01 7.68470E+01 1.80017E-03 6.71481E-01-6.81510E-13 3.12562E-14
 -1     12383 1.02314E+01 7.69606E+01 1.19665E-03 2.88948E-01 1.96128E-13-4.89645E-13
 -1     12384 1.06059E+01 7.70247E+01 1.88334E-03 4.60074E-01 1.59830E-13-6.02448E-14
 -1     12385 9.32058E+00 7.70433E+01 1.25054E-03 8.41429E-02-6.33521E-13 1.05731E-13
 -1     12386 9.66364E+00 7.71471E+01 1.96745E-03 2.32116E-01-1.99701E-13-1.20477E-14
 -1     12387 8.45864E+00 7.70642E+01 1.28046E-03-1.35889E-01 1.64549E-13-3.75708E-13
 -1     12388 8.76918E+00 7.72117E+01 2.05891E-03-1.23117E-02 4.17236E-13-1.52060E-13
 -1     12389 7.64623E+00 7.70203E+01 1.28893E-03-3.72641E-01-5.52489E-13-1.76621E-13
 -1     12390 7.92334E+00 7.72162E+01 2.16465E-03-2.74112E-01 2.16938E-13-8.23317E-14
 -1     12391 6.88290E+00 7.69083E+01 1.27794E-03-6.28806E-01 4.61998E-13-4.56354E-14
 -1     12392 7.12560E+00 7.71589E+01 2.29172E-03-5.55392E-01 5.02855E-13-1.18239E-14
 -1     12393 6.16704E+00 7.67250E+01 1.24835E-03-9.08535E-01 2.15696E-13-2.67696E-13
 -1     12394 6.37417E+00 7.70376E+01 2.44687E-03-8.59689E-01 2.28068E-13-1.13926E-13
 -1     12395 5.49595E+00 7.64661E+01 1.19898E-03-1.21775E+00-1.70759E-13-1.74603E-13
 -1     12396 5.66598E+00 7.68506E+01 2.63591E-03-1.19226E+00 1.81549E-13-3.15990E-13
 -1     12397 4.86566E+00 7.61270E+01 1.12541E-03-1.56459E+00 2.85279E-13-7.59670E-14
 -1     12398 4.99657E+00 7.65957E+01 2.86262E-03-1.56041E+00-4.24882E-13-3.01717E-13
 -1     12399 4.27071E+00 7.57019E+01 1.01808E-03-1.95990E+00 4.09769E-13-2.01814E-13
 -1     12400 4.35982E+00 7.62707E+01 3.12692E-03-1.97395E+00 4.21545E-13-2.26161E-13
 -1     12401 3.70362E+00 7.51842E+01 8.59249E-04-2.41809E+00 3.31984E-13-1.94417E-13
 -1     12402 3.74751E+00 7.58735E+01 3.42145E-03-2.44579E+00-3.46202E-13-2.46574E-13
 -1     12403 3.15408E+00 7.45664E+01 6.18065E-04-2.95810E+00-5.15865E-13 2.80644E-14
 -1     12404 3.14847E+00 7.54026E+01 3.72558E-03-2.99267E+00-4.55178E-13-1.21490E-13
 -1     12405 2.60748E+00 7.38410E+01 2.42549E-04-3.60481E+00-2.73115E-13 7.86107E-14
 -1     12406 2.54733E+00 7.48581E+01 3.99441E-03-3.63613E+00 4.66030E-13 1.62072E-13
 -1     12407 2.04262E+00 7.30014E+01-3.53560E-04-4.39083E+00-7.92422E-14-1.08018E-13
 -1     12408 1.92239E+00 7.42435E+01 4.13945E-03-4.40362E+00 1.18433E-13 1.26191E-13
 -1     12409 1.42802E+00 7.20452E+01-1.31185E-03-5.35880E+00-2.12913E-13 1.55230E-13
 -1     12410 1.24252E+00 7.35691E+01 3.99218E-03-5.32975E+00 6.74460E-14 1.79801E-13
 -1     12411 7.16040E-01 7.09791E+01-2.84797E-03-6.56372E+00-2.91461E-13-6.51840E-14
 -1     12412 4.62301E-01 7.28575E+01 3.24814E-03-6.45706E+00 4.24341E-13 1.55861E-13
 -1     12413-1.66226E-01 6.98290E+01-5.38031E-03-8.07479E+00-2.27568E-13-9.04277E-14
 -1     12414-4.85054E-01 7.21535E+01 1.32153E-03-7.83562E+00 1.99007E-13-1.09676E-13
 -1     12415-1.32945E+00 6.86610E+01-8.76441E-03-9.97332E+00 4.24660E-15-2.58488E-13
 -1     12416-1.69701E+00 7.15418E+01-2.67184E-03-9.51807E+00-4.81282E-13-2.37588E-13
 -1     12417-2.94360E+00 6.76048E+01-1.80194E-02-1.23426E+01 1.23818E-13-8.04357E-14
 -1     12418-3.31311E+00 7.11691E+01-1.12207E-02-1.15472E+01-8.36553E-14-1.22180E-13
 -1     12419-5.51013E+00 7.13198E+01-2.43862E-02-1.39158E+01-1.74555E-13-5.16254E-14
 -1     12420 2.09432E+01 7.38132E+01 4.58995E-03 1.83237E+00-4.42348E-13 1.05273E-13
 -1     12421 2.14980E+01 7.36650E+01 1.35156E-02 2.06225E+00 3.82305E-13 3.57440E-13
 -1     12422 1.98355E+01 7.42687E+01-1.55387E-04 1.82267E+00-4.62942E-13 2.52265E-13
 -1     12423 2.03900E+01 7.41346E+01 1.55578E-03 2.07096E+00-3.96072E-14 1.83454E-13
 -1     12424 1.87028E+01 7.47207E+01-1.80202E-04 1.77888E+00 7.72452E-13-3.93973E-14
 -1     12425 1.92512E+01 7.45986E+01 9.78636E-04 2.04070E+00 5.86059E-14 8.71733E-14
 -1     12426 1.75555E+01 7.51584E+01 6.96774E-05 1.70227E+00 3.60552E-13 6.77748E-13
 -1     12427 1.80922E+01 7.50517E+01 1.08840E-03 1.97275E+00-4.77965E-13 2.40145E-13
 -1     12428 1.64056E+01 7.55737E+01 3.18197E-04 1.59449E+00-7.01474E-13 3.51759E-14
 -1     12429 1.69256E+01 7.54862E+01 1.22747E-03 1.86876E+00 2.78881E-13 4.07846E-13
 -1     12430 1.52644E+01 7.59597E+01 5.42930E-04 1.45757E+00-4.57023E-13 5.91346E-13
 -1     12431 1.57631E+01 7.58946E+01 1.35254E-03 1.73086E+00-8.23251E-13 2.87621E-13
 -1     12432 1.41420E+01 7.63098E+01 7.37915E-04 1.29383E+00 1.30111E-13 5.92694E-14
 -1     12433 1.46158E+01 7.62702E+01 1.45821E-03 1.56163E+00 3.10758E-13 1.58467E-13
 -1     12434 1.30471E+01 7.66186E+01 8.99699E-04 1.10573E+00 1.05443E-13 4.38916E-13
 -1     12435 1.34932E+01 7.66073E+01 1.54327E-03 1.36394E+00-4.81108E-13 3.54161E-14
 -1     12436 1.19872E+01 7.68815E+01 1.02656E-03 8.95691E-01-5.12784E-15 2.34745E-13
 -1     12437 1.24033E+01 7.69010E+01 1.60847E-03 1.14073E+00-1.55889E-13 6.42975E-14
 -1     12438 1.09678E+01 7.70947E+01 1.11836E-03 6.65821E-01 4.09811E-14-1.25374E-13
 -1     12439 1.13525E+01 7.71476E+01 1.65615E-03 8.94768E-01 2.74621E-13 2.65165E-13
 -1     12440 9.99298E+00 7.72554E+01 1.17614E-03 4.17721E-01-5.46910E-13 1.99007E-13
 -1     12441 1.03453E+01 7.73442E+01 1.68986E-03 6.28393E-01-2.11865E-13 3.45989E-13
 -1     12442 9.06522E+00 7.73616E+01 1.20173E-03 1.52245E-01 6.18533E-14 1.31501E-13
 -1     12443 9.38460E+00 7.74892E+01 1.71371E-03 3.43257E-01-2.00014E-13 1.90569E-13
 -1     12444 8.18541E+00 7.74116E+01 1.19712E-03-1.30709E-01-3.47389E-13-1.56125E-15
 -1     12445 8.47159E+00 7.75815E+01 1.73175E-03 4.01003E-02-2.66544E-13 1.58474E-13
 -1     12446 7.35301E+00 7.74046E+01 1.16384E-03-4.32402E-01 8.19553E-14 1.31081E-13
 -1     12447 7.60583E+00 7.76211E+01 1.74727E-03-2.81460E-01-2.33015E-13 1.26263E-13
 -1     12448 6.56607E+00 7.73399E+01 1.10224E-03-7.55469E-01-8.89289E-14-1.71802E-13
 -1     12449 6.78535E+00 7.76082E+01 1.76196E-03-6.23127E-01-1.29667E-13-4.05578E-14
 -1     12450 5.82126E+00 7.72174E+01 1.01068E-03-1.10414E+00-1.72501E-14-3.07428E-14
 -1     12451 6.00666E+00 7.75440E+01 1.77492E-03-9.88110E-01-1.64875E-13-4.07192E-14
 -1     12452 5.11374E+00 7.70369E+01 8.84339E-04-1.48449E+00 1.30458E-13-1.28149E-13
 -1     12453 5.26472E+00 7.74301E+01 1.78119E-03-1.38132E+00 4.63712E-13 2.15782E-14
 -1     12454 4.43700E+00 7.67990E+01 7.13797E-04-1.90479E+00 6.52534E-14 3.39017E-14
 -1     12455 4.55274E+00 7.72692E+01 1.76955E-03-1.80961E+00-3.47930E-13 1.20733E-13
 -1     12456 3.78247E+00 7.65048E+01 4.82815E-04-2.37583E+00 7.54674E-14-7.64597E-14
 -1     12457 3.86188E+00 7.70650E+01 1.71910E-03-2.28196E+00 2.38060E-13 1.00950E-13
 -1     12458 3.13879E+00 7.61570E+01 1.65183E-04-2.91148E+00 1.50782E-13 6.57113E-14
 -1     12459 3.18065E+00 7.68232E+01 1.59372E-03-2.80980E+00-3.15539E-13 2.38636E-13
 -1     12460 2.49082E+00 7.57606E+01-2.79865E-04-3.52913E+00 1.85407E-13-7.31880E-14
 -1     12461 2.49405E+00 7.65523E+01 1.33324E-03-3.40721E+00-1.49734E-13 9.49310E-14
 -1     12462 1.81804E+00 7.53250E+01-9.14128E-04-4.25032E+00-6.37046E-13 1.01544E-13
 -1     12463 1.78223E+00 7.62660E+01 8.38991E-04-4.09105E+00-3.77018E-13 1.36696E-14
 -1     12464 1.09216E+00 7.48672E+01-1.82790E-03-5.10109E+00 7.23172E-14-5.33462E-14
 -1     12465 1.01862E+00 7.59855E+01-4.84943E-05-4.88076E+00 2.32245E-13-8.88178E-14
 -1     12466 2.73793E-01 7.44166E+01-3.15178E-03-6.11176E+00 2.30732E-13 6.93889E-15
 -1     12467 1.67395E-01 7.57440E+01-1.58739E-03-5.79741E+00-5.81479E-15-1.06457E-13
 -1     12468-6.91983E-01 7.40242E+01-5.02873E-03-7.31518E+00-6.63219E-14 1.77247E-13
 -1     12469-8.19728E-01 7.55942E+01-4.18233E-03-6.86111E+00-3.22645E-13-1.01169E-14
 -1     12470-1.88108E+00 7.37749E+01-7.74181E-03-8.74161E+00 1.37251E-14 3.03646E-14
 -1     12471-2.00675E+00 7.56176E+01-8.49193E-03-8.08521E+00 6.16174E-14 6.68909E-14
 -1     12472-3.39336E+00 7.38106E+01-1.06317E-02-1.04057E+01-4.59799E-13 8.84293E-14
 -1     12473-3.47477E+00 7.59403E+01-1.54356E-02-9.46405E+00 4.47142E-13 3.03840E-13
 -1     12474-5.35417E+00 7.43513E+01-1.76782E-02-1.22803E+01-1.54571E-13 1.45106E-13
 -1     12475-5.31615E+00 7.67475E+01-2.66486E-02-1.09501E+01-3.40485E-13 2.35006E-13
 -1     12476-7.60490E+00 7.83247E+01-4.39977E-02-1.24121E+01 6.44554E-14 1.73528E-13
 -1     12477 2.09524E+01 7.40012E+01 4.82841E-03 2.32262E+00 3.82167E-13 2.25202E-14
 -1     12478 2.15310E+01 7.38624E+01 1.40770E-02 2.55987E+00-7.92789E-13-5.17858E-13
 -1     12479 1.98038E+01 7.44746E+01-1.16397E-04 2.31028E+00 1.01148E-13-1.25030E-13
 -1     12480 2.03770E+01 7.43523E+01 1.58258E-03 2.57023E+00 7.00863E-13-4.06062E-13
 -1     12481 1.86315E+01 7.49446E+01-1.44308E-04 2.25522E+00-3.46737E-13 6.42455E-14
 -1     12482 1.91935E+01 7.48363E+01 9.74108E-04 2.53288E+00-1.13819E-13-1.57188E-13
 -1     12483 1.74464E+01 7.53998E+01 1.15049E-04 2.15899E+00 2.28387E-13-1.91853E-13
 -1     12484 1.79914E+01 7.53089E+01 1.08109E-03 2.44922E+00 1.99001E-13-2.60065E-13
 -1     12485 1.62609E+01 7.58321E+01 3.72113E-04 2.02377E+00 7.90479E-14 1.28493E-13
 -1     12486 1.67838E+01 7.57621E+01 1.21465E-03 2.32134E+00-3.51864E-13-4.39681E-13
 -1     12487 1.50868E+01 7.62345E+01 6.01526E-04 1.85235E+00-4.08854E-13-5.15127E-13
 -1     12488 1.55834E+01 7.61885E+01 1.32788E-03 2.15208E+00 5.70821E-13-1.55429E-13
 -1     12489 1.39346E+01 7.66006E+01 7.95751E-04 1.64800E+00-5.83353E-14 2.88684E-14
 -1     12490 1.44015E+01 7.65813E+01 1.41389E-03 1.94500E+00-4.93057E-13-9.29630E-14
 -1     12491 1.28132E+01 7.69254E+01 9.50466E-04 1.41425E+00 2.54463E-13-5.09702E-13
 -1     12492 1.32480E+01 7.69350E+01 1.47075E-03 1.70408E+00 4.18797E-13-8.66876E-14
 -1     12493 1.17295E+01 7.72049E+01 1.06369E-03 1.15462E+00-2.91059E-13-2.13656E-13
 -1     12494 1.21308E+01 7.72454E+01 1.49887E-03 1.43352E+00 4.30815E-13 7.21818E-14
 -1     12495 1.06889E+01 7.74364E+01 1.13538E-03 8.72306E-01-1.96509E-14 3.08935E-13
 -1     12496 1.10561E+01 7.75097E+01 1.50047E-03 1.13732E+00-5.09807E-13 1.44666E-13
 -1     12497 9.69470E+00 7.76183E+01 1.16694E-03 5.69894E-01-2.57031E-13 2.76684E-14
 -1     12498 1.00277E+01 7.77261E+01 1.47871E-03 8.19017E-01-5.14033E-14-1.07605E-13
 -1     12499 8.74835E+00 7.77499E+01 1.16044E-03 2.49132E-01 1.37959E-13-3.79271E-14
 -1     12500 9.04754E+00 7.78945E+01 1.43681E-03 4.81357E-01 2.75266E-13-1.54650E-13
 -1     12501 7.84962E+00 7.78318E+01 1.11793E-03-8.93099E-02 8.90954E-15 1.87999E-13
 -1     12502 8.11576E+00 7.80155E+01 1.37709E-03 1.26083E-01 2.05003E-13-1.02470E-13
 -1     12503 6.99659E+00 7.78652E+01 1.04061E-03-4.46021E-01-1.31312E-13-1.16972E-14
 -1     12504 7.23057E+00 7.80912E+01 1.29996E-03-2.46275E-01-1.92860E-13-1.86453E-13
 -1     12505 6.18576E+00 7.78521E+01 9.28069E-04-8.23006E-01 5.10605E-13 3.71263E-13
 -1     12506 6.38850E+00 7.81243E+01 1.20288E-03-6.36537E-01-2.24813E-13-1.15502E-13
 -1     12507 5.41202E+00 7.77955E+01 7.77355E-04-1.22382E+00 2.27283E-13-2.07447E-13
 -1     12508 5.58443E+00 7.81189E+01 1.07899E-03-1.04697E+00 6.30024E-13 1.75884E-14
 -1     12509 4.66856E+00 7.76995E+01 5.81961E-04-1.65371E+00-2.16181E-13 4.13754E-13
 -1     12510 4.81151E+00 7.80801E+01 9.15352E-04-1.48137E+00-9.25329E-13 1.55764E-13
 -1     12511 3.94668E+00 7.75696E+01 3.30515E-04-2.11970E+00 1.09933E-13-1.00718E-13
 -1     12512 4.06108E+00 7.80147E+01 6.90433E-04-1.94504E+00 2.54741E-13-6.93889E-16
 -1     12513 3.23529E+00 7.74133E+01 5.13687E-06-2.63070E+00-1.79724E-13 2.87301E-13
 -1     12514 3.32227E+00 7.79317E+01 3.70325E-04-2.44480E+00-4.67126E-14 1.02997E-13
 -1     12515 2.52036E+00 7.72412E+01-4.20581E-04-3.19752E+00-2.26694E-14 9.21069E-14
 -1     12516 2.58157E+00 7.78428E+01-9.68007E-05-2.98876E+00 3.63917E-13 6.96526E-14
 -1     12517 1.78390E+00 7.70687E+01-9.83724E-04-3.83269E+00-1.23332E-13-5.40956E-14
 -1     12518 1.82215E+00 7.77646E+01-7.88817E-04-3.58605E+00-3.67817E-13 8.33708E-15
 -1     12519 1.00275E+00 7.69181E+01-1.73376E-03-4.54994E+00 2.21365E-13-2.71866E-14
 -1     12520 1.02284E+00 7.77197E+01-1.82151E-03-4.24597E+00 1.42469E-13-7.88397E-14
 -1     12521 1.46918E-01 7.68226E+01-2.73000E-03-5.36297E+00-1.83797E-13 2.81858E-14
 -1     12522 1.57147E-01 7.77403E+01-3.36441E-03-4.97656E+00-1.71078E-13 5.20070E-14
 -1     12523-8.22159E-01 7.68316E+01-4.03667E-03-6.28279E+00-2.98497E-13-2.28650E-13
 -1     12524-8.07847E-01 7.78717E+01-5.66325E-03-5.78190E+00-2.10429E-13-3.45418E-14
 -1     12525-1.95293E+00 7.70180E+01-5.66057E-03-7.31244E+00-8.09075E-15-1.70614E-13
 -1     12526-1.91183E+00 7.81779E+01-9.05914E-03-6.65715E+00 6.16868E-14-4.02456E-14
 -1     12527-3.30308E+00 7.74885E+01-7.61951E-03-8.43728E+00 1.16740E-13-2.08639E-13
 -1     12528-3.19953E+00 7.87479E+01-1.40125E-02-7.58015E+00 5.41324E-13-1.21236E-13
 -1     12529-4.93167E+00 7.83971E+01-8.96413E-03-9.60721E+00-2.82600E-13 1.20570E-13
 -1     12530-4.71374E+00 7.97029E+01-2.10940E-02-8.49741E+00 2.16563E-14-3.09031E-13
 -1     12531-6.88123E+00 7.99503E+01-1.16049E-02-1.07081E+01 3.68641E-13-2.06613E-13
 -1     12532-6.47610E+00 8.11974E+01-3.07135E-02-9.30244E+00 4.19783E-13-2.10110E-13
 -1     12533-8.44631E+00 8.34208E+01-4.48303E-02-9.80898E+00-9.33559E-14-1.68893E-13
 -1     12534 2.09633E+01 7.42289E+01 5.11092E-03 2.83403E+00-7.42462E-16-4.50943E-13
 -1     12535 2.15704E+01 7.40974E+01 1.47528E-02 3.08078E+00 5.14446E-13 4.03226E-13
 -1     12536 1.97645E+01 7.47243E+01-7.08055E-05 2.81882E+00 5.11292E-13-2.42507E-13
 -1     12537 2.03611E+01 7.46115E+01 1.62573E-03 3.09259E+00-3.13242E-13 4.74586E-14
 -1     12538 1.85436E+01 7.52158E+01-9.77779E-05 2.75201E+00-6.30052E-15 2.67675E-13
 -1     12539 1.91235E+01 7.51191E+01 9.82988E-04 3.04766E+00-3.67498E-13 8.86756E-14
 -1     12540 1.73121E+01 7.56918E+01 1.77340E-04 2.63541E+00 2.06619E-13-6.91808E-14
 -1     12541 1.78692E+01 7.56145E+01 1.08935E-03 2.94747E+00-1.23498E-13 2.57358E-13
 -1     12542 1.60832E+01 7.61439E+01 4.48295E-04 2.47184E+00 6.89067E-13-1.20589E-13
 -1     12543 1.66124E+01 7.60894E+01 1.21841E-03 2.79457E+00-9.74984E-14 2.19852E-13
 -1     12544 1.48695E+01 7.65647E+01 6.86025E-04 2.26505E+00-7.75213E-14 2.99621E-13
 -1     12545 1.53666E+01 7.65358E+01 1.31896E-03 2.59272E+00-2.64191E-13 1.83218E-13
 -1     12546 1.36819E+01 7.69483E+01 8.81153E-04 2.01953E+00 5.04034E-13 3.98171E-14
 -1     12547 1.41441E+01 7.69470E+01 1.38262E-03 2.34668E+00 1.83811E-13-1.77133E-14
 -1     12548 1.25294E+01 7.72899E+01 1.02860E-03 1.74017E+00-4.83995E-13 3.60266E-13
 -1     12549 1.29550E+01 7.73179E+01 1.40715E-03 2.06190E+00 2.00326E-13 1.61677E-13
 -1     12550 1.14191E+01 7.75863E+01 1.12652E-03 1.43189E+00-3.22763E-13 4.49425E-13
 -1     12551 1.18074E+01 7.76448E+01 1.39338E-03 1.74415E+00-5.17447E-13 2.36184E-13
 -1     12552 1.03555E+01 7.78360E+01 1.17561E-03 1.09929E+00 6.66647E-13-1.51087E-13
 -1     12553 1.07070E+01 7.79258E+01 1.34419E-03 1.39900E+00 2.26867E-13 1.70185E-14
 -1     12554 9.34130E+00 7.80385E+01 1.17825E-03 7.46262E-01 5.78954E-13-4.71212E-14
 -1     12555 9.65698E+00 7.81606E+01 1.26330E-03 1.03150E+00 4.01887E-13-1.12153E-13
 -1     12556 8.37682E+00 7.81952E+01 1.13756E-03 3.75754E-01 4.02733E-13-9.09403E-14
 -1     12557 8.65833E+00 7.83505E+01 1.15397E-03 6.45804E-01 6.70436E-14 1.05324E-14
 -1     12558 7.46055E+00 7.83082E+01 1.05646E-03-1.04598E-02-1.67498E-13-2.80867E-13
 -1     12559 7.70986E+00 7.84981E+01 1.01775E-03 2.44943E-01 4.56107E-13-1.21248E-14
 -1     12560 6.58919E+00 7.83812E+01 9.36780E-04-4.11910E-01 1.52739E-13-8.62175E-14
 -1     12561 6.80843E+00 7.86073E+01 8.53429E-04-1.69324E-01-3.02730E-13 3.19883E-15
 -1     12562 5.75770E+00 7.84187E+01 7.78503E-04-8.29507E-01-4.68056E-13-3.81493E-13
 -1     12563 5.94913E+00 7.86834E+01 6.55832E-04-5.96576E-01-2.04142E-14 9.23619E-14
 -1     12564 4.95942E+00 7.84269E+01 5.79048E-04-1.26555E+00-2.80831E-13 3.72443E-13
 -1     12565 5.12537E+00 7.87329E+01 4.14594E-04-1.03772E+00-6.54948E-13 9.52155E-14
 -1     12566 4.18595E+00 7.84131E+01 3.32570E-04-1.72368E+00-1.24740E-13-2.25001E-13
 -1     12567 4.32891E+00 7.87640E+01 1.12556E-04-1.49487E+00 3.44134E-13 2.18853E-14
 -1     12568 3.42703E+00 7.83871E+01 2.93064E-05-2.20874E+00-4.99024E-13 4.31391E-14
 -1     12569 3.54978E+00 7.87867E+01-2.76375E-04-1.97118E+00-3.68386E-14-5.66162E-14
 -1     12570 2.67021E+00 7.83612E+01-3.44953E-04-2.72654E+00 2.97103E-13-1.18232E-13
 -1     12571 2.77612E+00 7.88135E+01-7.90146E-04-2.47050E+00 3.65485E-13-3.06977E-14
 -1     12572 1.90042E+00 7.83517E+01-8.08933E-04-3.28337E+00 2.28845E-14-2.92301E-14
 -1     12573 1.99393E+00 7.88606E+01-1.48248E-03-2.99681E+00-1.49464E-14-6.48613E-14
 -1     12574 1.09942E+00 7.83804E+01-1.38466E-03-3.88517E+00-4.93744E-13 6.86950E-14
 -1     12575 1.18671E+00 7.89487E+01-2.42786E-03-3.55338E+00 7.58005E-14 5.14415E-14
 -1     12576 2.45235E-01 7.84769E+01-2.09358E-03-4.53617E+00-2.57842E-13 3.46945E-17
 -1     12577 3.35222E-01 7.91047E+01-3.72743E-03-4.14138E+00 6.96873E-14 2.01499E-13
 -1     12578-6.88226E-01 7.86815E+01-2.94485E-03-5.23638E+00 3.15879E-13 2.60972E-14
 -1     12579-5.82525E-01 7.93642E+01-5.51415E-03-4.75761E+00-2.25979E-13 7.61613E-14
 -1     12580-1.73081E+00 7.90488E+01-3.91668E-03-5.97760E+00-2.30052E-13 1.22971E-13
 -1     12581-1.59055E+00 7.97734E+01-7.95539E-03-5.39099E+00 5.66144E-14-1.50574E-15
 -1     12582-2.91386E+00 7.96524E+01-4.88397E-03-6.73678E+00 3.80911E-13 3.84137E-14
 -1     12583-2.71250E+00 8.03921E+01-1.12436E-02-6.01718E+00-5.76622E-14-9.88654E-14
 -1     12584-4.26410E+00 8.05883E+01-5.61473E-03-7.46572E+00-5.19237E-14 3.82749E-14
 -1     12585-3.96591E+00 8.12947E+01-1.55530E-02-6.59065E+00-1.69219E-13 1.81993E-13
 -1     12586-5.78861E+00 8.19765E+01-5.24889E-03-8.07610E+00-2.17979E-13-1.51656E-13
 -1     12587-5.35017E+00 8.25693E+01-2.10322E-02-7.03394E+00 2.70126E-13 2.58016E-13
 -1     12588-7.44634E+00 8.39524E+01-3.73175E-03-8.42053E+00 2.72067E-13 2.78388E-14
 -1     12589-6.82345E+00 8.43094E+01-2.71455E-02-7.22505E+00 4.73836E-13 1.95371E-13
 -1     12590-8.26227E+00 8.65903E+01-3.51633E-02-6.99181E+00-6.71102E-13 2.91350E-13
 -1     12591 2.09757E+01 7.44960E+01 5.43306E-03 3.37071E+00 1.15338E-13 6.10314E-13
 -1     12592 1.97173E+01 7.50171E+01-1.94515E-05 3.35222E+00 2.76557E-13 2.93784E-13
 -1     12593 1.84383E+01 7.55338E+01-3.81653E-05 3.27278E+00 2.45873E-13-1.07091E-13
 -1     12594 1.71514E+01 7.60335E+01 2.61857E-04 3.13448E+00 5.28605E-14 1.64816E-13
 -1     12595 1.58711E+01 7.65075E+01 5.54180E-04 2.94091E+00 2.43784E-13 2.17524E-13
 -1     12596 1.46111E+01 7.69481E+01 8.05116E-04 2.69704E+00 2.10665E-14 3.23813E-13
 -1     12597 1.33829E+01 7.73494E+01 1.00326E-03 2.40892E+00-1.26898E-13-1.83530E-13
 -1     12598 1.21960E+01 7.77072E+01 1.14314E-03 2.08318E+00-2.30489E-13 2.38785E-15
 -1     12599 1.10572E+01 7.80190E+01 1.22373E-03 1.72652E+00-6.24639E-14-2.43044E-13
 -1     12600 9.97044E+00 7.82845E+01 1.24740E-03 1.34525E+00 1.26246E-13 1.49516E-13
 -1     12601 8.93743E+00 7.85049E+01 1.21853E-03 9.44883E-01 2.91406E-13-1.96189E-14
 -1     12602 7.95737E+00 7.86830E+01 1.14226E-03 5.29821E-01 1.78857E-13 1.82836E-13
 -1     12603 7.02741E+00 7.88232E+01 1.02335E-03 1.03194E-01-1.45391E-13 2.21660E-13
 -1     12604 6.14281E+00 7.89311E+01 8.65268E-04-3.33209E-01-2.80172E-13 4.30930E-13
 -1     12605 5.29718E+00 7.90137E+01 6.69617E-04-7.78914E-01-6.59195E-16 1.21859E-13
 -1     12606 4.48255E+00 7.90794E+01 4.35710E-04-1.23463E+00-4.00305E-14-5.08343E-14
 -1     12607 3.68946E+00 7.91383E+01 1.60437E-04-1.70200E+00 8.76244E-14 1.28196E-13
 -1     12608 2.90689E+00 7.92030E+01-1.61551E-04-2.18327E+00 4.71949E-13-3.19050E-14
 -1     12609 2.12222E+00 7.92888E+01-5.37064E-04-2.68069E+00 3.32533E-13 2.51181E-13
 -1     12610 1.32106E+00 7.94149E+01-9.72494E-04-3.19573E+00 4.89886E-14-1.39111E-13
 -1     12611 4.87257E-01 7.96055E+01-1.46973E-03-3.72779E+00 5.34572E-14-1.74860E-15
 -1     12612-3.96832E-01 7.98916E+01-2.01833E-03-4.27235E+00-5.40470E-13-7.49817E-14
 -1     12613-1.34943E+00 8.03122E+01-2.57946E-03-4.81809E+00-1.41730E-13 1.26024E-13
 -1     12614-2.38710E+00 8.09160E+01-3.06235E-03-5.34275E+00 3.50546E-13-9.70474E-14
 -1     12615-3.51995E+00 8.17623E+01-3.26470E-03-5.80733E+00-3.43513E-13 1.62273E-13
 -1     12616-4.74246E+00 8.29185E+01-2.85795E-03-6.14855E+00 2.17134E-13 1.85768E-13
 -1     12617-6.01685E+00 8.44535E+01-1.19693E-03-6.27047E+00 2.69527E-13 1.02793E-13
 -1     12618-7.24576E+00 8.64237E+01 2.86490E-03-6.03867E+00-3.63418E-13 1.75443E-13
 -3
    1PSTEP                         3           1           1          
  100CL  101 1.000000000       12618                     0    1           1
 -4  ERROR       1    1
 -5  STR(%)      1    1    0    0
 -1         1 4.92495E+00
 -1         2 5.14331E+00
 -1         3 5.14331E+00
 -1         4 4.92495E+00
 -1         5 3.13068E-01
 -1         6 3.24522E-01
 -1         7 3.24522E-01
 -1         8 3.13068E-01
 -1         9 6.38029E+00
 -1        10 1.07461E-01
 -1        11 1.06473E-01
 -1        12 1.13508E-02
 -1        13 2.24940E-02
 -1        14 2.24940E-02
 -1        15 1.13508E-02
 -1        16 1.06473E-01
 -1        17 1.07461E-01
 -1        18 6.38029E+00
 -1        19 9.25897E-02
 -1        20 9.25897E-02
 -1        21 3.46035E-01
 -1        22 3.76497E-01
 -1        23 4.05767E-01
 -1        24 4.32154E-01
 -1        25 4.55292E-01
 -1        26 4.79780E-01
 -1        27 5.84222E-01
 -1        28 7.70165E-01
 -1        29 1.01677E+00
 -1        30 1.33180E+00
 -1        31 1.73929E+00
 -1        32 2.26258E+00
 -1        33 2.92251E+00
 -1        34 4.92495E+00
 -1        35 3.29552E-01
 -1        36 3.61266E-01
 -1        37 3.91132E-01
 -1        38 4.18961E-01
 -1        39 4.43723E-01
 -1        40 4.67536E-01
 -1        41 5.32001E-01
 -1        42 6.77193E-01
 -1        43 8.93465E-01
 -1        44 1.17428E+00
 -1        45 1.53555E+00
 -1        46 2.00093E+00
 -1        47 2.59254E+00
 -1        48 3.92373E+00
 -1        49 4.92495E+00
 -1        50 3.57668E-01
 -1        51 3.87964E-01
 -1        52 4.16806E-01
 -1        53 4.42568E-01
 -1        54 4.64930E-01
 -1        55 4.88193E-01
 -1        56 5.92867E-01
 -1        57 7.80176E-01
 -1        58 1.02810E+00
 -1        59 1.34483E+00
 -1        60 1.75481E+00
 -1        61 2.28235E+00
 -1        62 2.95048E+00
 -1        63 5.14331E+00
 -1        64 3.41095E-01
 -1        65 3.72816E-01
 -1        66 4.02385E-01
 -1        67 4.29687E-01
 -1        68 4.53749E-01
 -1        69 4.76561E-01
 -1        70 5.40530E-01
 -1        71 6.86522E-01
 -1        72 9.04137E-01
 -1        73 1.18647E+00
 -1        74 1.54982E+00
 -1        75 2.01858E+00
 -1        76 2.61641E+00
 -1        77 4.04690E+00
 -1        78 5.14331E+00
 -1        79 3.57668E-01
 -1        80 3.87964E-01
 -1        81 4.16806E-01
 -1        82 4.42568E-01
 -1        83 4.64930E-01
 -1        84 4.88193E-01
 -1        85 5.92867E-01
 -1        86 7.80176E-01
 -1        87 1.02810E+00
 -1        88 1.34483E+00
 -1        89 1.75481E+00
 -1        90 2.28235E+00
 -1        91 2.95048E+00
 -1        92 5.14331E+00
 -1        93 3.41095E-01
 -1        94 3.72816E-01
 -1        95 4.02385E-01
 -1        96 4.29687E-01
 -1        97 4.53749E-01
 -1        98 4.76561E-01
 -1        99 5.40530E-01
 -1       100 6.86522E-01
 -1       101 9.04137E-01
 -1       102 1.18647E+00
 -1       103 1.54982E+00
 -1       104 2.01858E+00
 -1       105 2.61641E+00
 -1       106 4.04690E+00
 -1       107 5.14331E+00
 -1       108 3.46035E-01
 -1       109 3.76497E-01
 -1       110 4.05767E-01
 -1       111 4.32154E-01
 -1       112 4.55292E-01
 -1       113 4.79780E-01
 -1       114 5.84222E-01
 -1       115 7.70165E-01
 -1       116 1.01677E+00
 -1       117 1.33180E+00
 -1       118 1.73929E+00
 -1       119 2.26258E+00
 -1       120 2.92251E+00
 -1       121 4.92495E+00
 -1       122 3.29552E-01
 -1       123 3.61266E-01
 -1       124 3.91132E-01
 -1       125 4.18961E-01
 -1       126 4.43723E-01
 -1       127 4.67536E-01
 -1       128 5.32001E-01
 -1       129 6.77193E-01
 -1       130 8.93465E-01
 -1       131 1.17428E+00
 -1       132 1.53555E+00
 -1       133 2.00093E+00
 -1       134 2.59254E+00
 -1       135 3.92373E+00
 -1       136 4.92495E+00
 -1       137 2.41702E+00
 -1       138 2.15085E+00
 -1       139 1.86486E+00
 -1       140 1.57863E+00
 -1       141 1.30339E+00
 -1       142 1.04389E+00
 -1       143 8.02282E-01
 -1       144 8.12397E-01
 -1       145 1.05346E+00
 -1       146 1.31236E+00
 -1       147 1.58696E+00
 -1       148 1.87262E+00
 -1       149 2.15821E+00
 -1       150 2.42899E+00
 -1       151 3.67098E+00
 -1       152 2.28394E+00
 -1       153 2.00786E+00
 -1       154 1.72175E+00
 -1       155 1.44101E+00
 -1       156 1.17364E+00
 -1       157 9.23084E-01
 -1       158 8.07340E-01
 -1       159 9.32927E-01
 -1       160 1.18291E+00
 -1       161 1.44966E+00
 -1       162 1.72979E+00
 -1       163 2.01542E+00
 -1       164 2.29360E+00
 -1       165 3.78615E+00
 -1       166 2.17712E+01
 -1       167 3.94927E+01
 -1       168 3.94927E+01
 -1       169 1.60851E+01
 -1       170 6.70149E+00
 -1       171 2.61692E+00
 -1       172 1.83278E+00
 -1       173 1.83278E+00
 -1       174 2.61692E+00
 -1       175 6.70149E+00
 -1       176 1.60851E+01
 -1       177 3.94927E+01
 -1       178 3.94927E+01
 -1       179 2.17712E+01
 -1       180 1.34572E+01
 -1       181 3.06320E+01
 -1       182 3.94927E+01
 -1       183 2.77889E+01
 -1       184 1.13933E+01
 -1       185 4.65921E+00
 -1       186 2.22485E+00
 -1       187 1.83278E+00
 -1       188 2.22485E+00
 -1       189 4.65921E+00
 -1       190 1.13933E+01
 -1       191 2.77889E+01
 -1       192 3.94927E+01
 -1       193 3.06320E+01
 -1       194 1.34572E+01
 -1       195 2.42899E+00
 -1       196 2.15821E+00
 -1       197 1.87262E+00
 -1       198 1.58696E+00
 -1       199 1.31236E+00
 -1       200 1.05346E+00
 -1       201 8.12397E-01
 -1       202 8.02282E-01
 -1       203 1.04389E+00
 -1       204 1.30339E+00
 -1       205 1.57863E+00
 -1       206 1.86486E+00
 -1       207 2.15085E+00
 -1       208 2.41702E+00
 -1       209 3.78615E+00
 -1       210 2.29360E+00
 -1       211 2.01542E+00
 -1       212 1.72979E+00
 -1       213 1.44966E+00
 -1       214 1.18291E+00
 -1       215 9.32927E-01
 -1       216 8.07340E-01
 -1       217 9.23084E-01
 -1       218 1.17364E+00
 -1       219 1.44101E+00
 -1       220 1.72175E+00
 -1       221 2.00786E+00
 -1       222 2.28394E+00
 -1       223 3.67098E+00
 -1       224 2.13162E+01
 -1       225 3.94631E+01
 -1       226 3.94631E+01
 -1       227 1.62949E+01
 -1       228 6.85339E+00
 -1       229 2.63364E+00
 -1       230 1.84342E+00
 -1       231 1.84342E+00
 -1       232 2.63364E+00
 -1       233 6.85339E+00
 -1       234 1.62949E+01
 -1       235 3.94631E+01
 -1       236 3.94631E+01
 -1       237 2.13162E+01
 -1       238 1.31206E+01
 -1       239 3.03897E+01
 -1       240 3.94631E+01
 -1       241 2.78790E+01
 -1       242 1.15741E+01
 -1       243 4.74351E+00
 -1       244 2.23853E+00
 -1       245 1.84342E+00
 -1       246 2.23853E+00
 -1       247 4.74351E+00
 -1       248 1.15741E+01
 -1       249 2.78790E+01
 -1       250 3.94631E+01
 -1       251 3.03897E+01
 -1       252 1.31206E+01
 -1       253 3.25901E-01
 -1       254 3.25901E-01
 -1       255 3.09520E-01
 -1       256 3.04875E-01
 -1       257 3.85741E-01
 -1       258 3.85741E-01
 -1       259 3.76803E-01
 -1       260 3.75148E-01
 -1       261 3.78812E-01
 -1       262 3.78812E-01
 -1       263 2.93052E-01
 -1       264 3.22014E-01
 -1       265 3.38073E-01
 -1       266 3.38073E-01
 -1       267 3.19485E-01
 -1       268 3.25901E-01
 -1       269 3.17711E-01
 -1       270 3.07198E-01
 -1       271 3.45308E-01
 -1       272 3.85741E-01
 -1       273 3.81272E-01
 -1       274 3.75976E-01
 -1       275 3.76980E-01
 -1       276 3.78812E-01
 -1       277 3.35932E-01
 -1       278 3.07533E-01
 -1       279 3.30044E-01
 -1       280 3.38073E-01
 -1       281 3.31297E-01
 -1       282 4.57961E-01
 -1       283 6.19872E-01
 -1       284 7.79200E-01
 -1       285 1.18883E+00
 -1       286 1.58723E+00
 -1       287 1.66192E+00
 -1       288 1.66192E+00
 -1       289 1.66192E+00
 -1       290 1.66192E+00
 -1       291 1.58723E+00
 -1       292 1.18883E+00
 -1       293 7.79200E-01
 -1       294 6.19872E-01
 -1       295 4.57961E-01
 -1       296 3.91241E-01
 -1       297 5.38916E-01
 -1       298 6.99536E-01
 -1       299 9.84015E-01
 -1       300 1.38803E+00
 -1       301 1.62458E+00
 -1       302 1.66192E+00
 -1       303 1.66192E+00
 -1       304 1.66192E+00
 -1       305 1.62458E+00
 -1       306 1.38803E+00
 -1       307 9.84015E-01
 -1       308 6.99536E-01
 -1       309 5.38916E-01
 -1       310 3.91241E-01
 -1       311 3.38073E-01
 -1       312 3.38073E-01
 -1       313 3.22014E-01
 -1       314 2.93052E-01
 -1       315 3.78812E-01
 -1       316 3.78812E-01
 -1       317 3.75148E-01
 -1       318 3.76803E-01
 -1       319 3.85741E-01
 -1       320 3.85741E-01
 -1       321 3.04875E-01
 -1       322 3.09520E-01
 -1       323 3.25901E-01
 -1       324 3.25901E-01
 -1       325 3.31297E-01
 -1       326 3.38073E-01
 -1       327 3.30044E-01
 -1       328 3.07533E-01
 -1       329 3.35932E-01
 -1       330 3.78812E-01
 -1       331 3.76980E-01
 -1       332 3.75976E-01
 -1       333 3.81272E-01
 -1       334 3.85741E-01
 -1       335 3.45308E-01
 -1       336 3.07198E-01
 -1       337 3.17711E-01
 -1       338 3.25901E-01
 -1       339 3.19485E-01
 -1       340 4.41807E-01
 -1       341 6.04133E-01
 -1       342 7.72460E-01
 -1       343 1.18146E+00
 -1       344 1.57992E+00
 -1       345 1.65723E+00
 -1       346 1.65723E+00
 -1       347 1.65723E+00
 -1       348 1.65723E+00
 -1       349 1.57992E+00
 -1       350 1.18146E+00
 -1       351 7.72460E-01
 -1       352 6.04133E-01
 -1       353 4.41807E-01
 -1       354 3.77437E-01
 -1       355 5.22970E-01
 -1       356 6.88296E-01
 -1       357 9.76959E-01
 -1       358 1.38069E+00
 -1       359 1.61857E+00
 -1       360 1.65723E+00
 -1       361 1.65723E+00
 -1       362 1.65723E+00
 -1       363 1.61857E+00
 -1       364 1.38069E+00
 -1       365 9.76959E-01
 -1       366 6.88296E-01
 -1       367 5.22970E-01
 -1       368 3.77437E-01
 -1       369 6.38029E+00
 -1       370 1.62446E+00
 -1       371 9.61699E-01
 -1       372 7.65091E-01
 -1       373 6.01012E-01
 -1       374 4.83876E-01
 -1       375 3.92974E-01
 -1       376 3.21800E-01
 -1       377 2.64309E-01
 -1       378 2.17033E-01
 -1       379 1.77551E-01
 -1       380 1.49207E-01
 -1       381 1.28838E-01
 -1       382 1.16114E-01
 -1       383 1.04271E-01
 -1       384 9.22618E-02
 -1       385 8.02321E-02
 -1       386 6.83336E-02
 -1       387 5.67373E-02
 -1       388 4.56441E-02
 -1       389 3.52910E-02
 -1       390 2.59549E-02
 -1       391 2.69078E-02
 -1       392 3.60571E-02
 -1       393 4.75007E-02
 -1       394 6.08041E-02
 -1       395 7.53797E-02
 -1       396 9.04849E-02
 -1       397 6.38029E+00
 -1       398 4.00237E+00
 -1       399 1.29308E+00
 -1       400 8.63395E-01
 -1       401 6.83052E-01
 -1       402 5.42444E-01
 -1       403 4.38425E-01
 -1       404 3.57387E-01
 -1       405 2.93054E-01
 -1       406 2.40671E-01
 -1       407 1.97292E-01
 -1       408 1.63379E-01
 -1       409 1.39023E-01
 -1       410 1.22476E-01
 -1       411 1.10193E-01
 -1       412 9.82665E-02
 -1       413 8.62470E-02
 -1       414 7.42828E-02
 -1       415 6.25354E-02
 -1       416 5.11907E-02
 -1       417 4.04675E-02
 -1       418 3.06229E-02
 -1       419 2.64314E-02
 -1       420 3.14824E-02
 -1       421 4.17789E-02
 -1       422 5.41524E-02
 -1       423 6.80919E-02
 -1       424 8.29323E-02
 -1       425 9.89728E-02
 -1       426 1.21456E-01
 -1       427 1.32684E-01
 -1       428 1.40059E-01
 -1       429 1.42707E-01
 -1       430 1.42707E-01
 -1       431 1.40087E-01
 -1       432 1.43776E-01
 -1       433 1.53200E-01
 -1       434 1.57528E-01
 -1       435 1.57528E-01
 -1       436 1.56444E-01
 -1       437 1.50095E-01
 -1       438 1.39037E-01
 -1       439 1.24144E-01
 -1       440 1.14458E-01
 -1       441 1.27070E-01
 -1       442 1.36371E-01
 -1       443 1.41383E-01
 -1       444 1.42707E-01
 -1       445 1.41397E-01
 -1       446 1.41932E-01
 -1       447 1.48488E-01
 -1       448 1.55364E-01
 -1       449 1.57528E-01
 -1       450 1.56986E-01
 -1       451 1.53270E-01
 -1       452 1.44566E-01
 -1       453 1.31591E-01
 -1       454 1.15308E-01
 -1       455 8.47913E-02
 -1       456 6.60129E-02
 -1       457 5.49892E-02
 -1       458 5.73475E-02
 -1       459 5.76712E-02
 -1       460 5.76712E-02
 -1       461 5.63411E-02
 -1       462 5.37321E-02
 -1       463 5.01937E-02
 -1       464 4.60380E-02
 -1       465 4.38829E-02
 -1       466 4.54577E-02
 -1       467 4.59038E-02
 -1       468 4.59038E-02
 -1       469 4.54164E-02
 -1       470 4.41768E-02
 -1       471 4.23491E-02
 -1       472 4.00786E-02
 -1       473 3.74920E-02
 -1       474 3.46981E-02
 -1       475 3.17889E-02
 -1       476 2.88416E-02
 -1       477 2.59203E-02
 -1       478 2.30780E-02
 -1       479 2.03584E-02
 -1       480 1.77978E-02
 -1       481 1.54263E-02
 -1       482 1.32698E-02
 -1       483 9.56322E-02
 -1       484 7.54021E-02
 -1       485 6.05011E-02
 -1       486 5.61684E-02
 -1       487 5.75094E-02
 -1       488 5.76712E-02
 -1       489 5.70061E-02
 -1       490 5.50366E-02
 -1       491 5.19629E-02
 -1       492 4.81158E-02
 -1       493 4.49604E-02
 -1       494 4.46703E-02
 -1       495 4.56807E-02
 -1       496 4.59038E-02
 -1       497 4.56601E-02
 -1       498 4.47966E-02
 -1       499 4.32629E-02
 -1       500 4.12138E-02
 -1       501 3.87853E-02
 -1       502 3.60950E-02
 -1       503 3.32435E-02
 -1       504 3.03152E-02
 -1       505 2.73809E-02
 -1       506 2.44992E-02
 -1       507 2.17182E-02
 -1       508 1.90781E-02
 -1       509 1.66120E-02
 -1       510 1.43480E-02
 -1       511 1.23103E-02
 -1       512 1.43537E-02
 -1       513 1.70847E-02
 -1       514 1.93979E-02
 -1       515 2.13295E-02
 -1       516 2.29172E-02
 -1       517 2.41891E-02
 -1       518 2.51633E-02
 -1       519 2.58483E-02
 -1       520 2.62444E-02
 -1       521 2.63451E-02
 -1       522 2.63451E-02
 -1       523 2.61394E-02
 -1       524 2.56456E-02
 -1       525 2.49059E-02
 -1       526 2.38701E-02
 -1       527 1.28522E-02
 -1       528 1.57192E-02
 -1       529 1.82413E-02
 -1       530 2.03637E-02
 -1       531 2.21233E-02
 -1       532 2.35532E-02
 -1       533 2.46762E-02
 -1       534 2.55058E-02
 -1       535 2.60464E-02
 -1       536 2.62948E-02
 -1       537 2.63451E-02
 -1       538 2.62423E-02
 -1       539 2.58925E-02
 -1       540 2.52757E-02
 -1       541 2.43880E-02
 -1       542 2.31821E-02
 -1       543 2.08505E-02
 -1       544 1.87745E-02
 -1       545 1.63712E-02
 -1       546 1.36667E-02
 -1       547 1.06989E-02
 -1       548 7.51608E-03
 -1       549 4.17643E-03
 -1       550 4.17643E-03
 -1       551 7.51608E-03
 -1       552 1.06989E-02
 -1       553 1.36667E-02
 -1       554 1.63712E-02
 -1       555 1.87745E-02
 -1       556 2.08505E-02
 -1       557 2.16723E-02
 -1       558 1.98125E-02
 -1       559 1.75728E-02
 -1       560 1.50190E-02
 -1       561 1.21828E-02
 -1       562 9.10747E-03
 -1       563 5.84626E-03
 -1       564 4.17643E-03
 -1       565 5.84626E-03
 -1       566 9.10747E-03
 -1       567 1.21828E-02
 -1       568 1.50190E-02
 -1       569 1.75728E-02
 -1       570 1.98125E-02
 -1       571 2.16723E-02
 -1       572 2.38701E-02
 -1       573 2.49059E-02
 -1       574 2.56456E-02
 -1       575 2.61394E-02
 -1       576 2.63451E-02
 -1       577 2.63451E-02
 -1       578 2.62444E-02
 -1       579 2.58483E-02
 -1       580 2.51633E-02
 -1       581 2.41891E-02
 -1       582 2.29172E-02
 -1       583 2.13295E-02
 -1       584 1.93979E-02
 -1       585 1.70847E-02
 -1       586 1.43537E-02
 -1       587 2.31821E-02
 -1       588 2.43880E-02
 -1       589 2.52757E-02
 -1       590 2.58925E-02
 -1       591 2.62423E-02
 -1       592 2.63451E-02
 -1       593 2.62948E-02
 -1       594 2.60464E-02
 -1       595 2.55058E-02
 -1       596 2.46762E-02
 -1       597 2.35532E-02
 -1       598 2.21233E-02
 -1       599 2.03637E-02
 -1       600 1.82413E-02
 -1       601 1.57192E-02
 -1       602 1.28522E-02
 -1       603 1.32698E-02
 -1       604 1.54263E-02
 -1       605 1.77978E-02
 -1       606 2.03584E-02
 -1       607 2.30780E-02
 -1       608 2.59203E-02
 -1       609 2.88416E-02
 -1       610 3.17889E-02
 -1       611 3.46981E-02
 -1       612 3.74920E-02
 -1       613 4.00786E-02
 -1       614 4.23491E-02
 -1       615 4.41768E-02
 -1       616 4.54164E-02
 -1       617 4.59038E-02
 -1       618 4.59038E-02
 -1       619 4.54577E-02
 -1       620 4.38829E-02
 -1       621 4.60380E-02
 -1       622 5.01937E-02
 -1       623 5.37321E-02
 -1       624 5.63411E-02
 -1       625 5.76712E-02
 -1       626 5.76712E-02
 -1       627 5.73475E-02
 -1       628 5.49892E-02
 -1       629 6.60129E-02
 -1       630 8.47913E-02
 -1       631 1.23103E-02
 -1       632 1.43480E-02
 -1       633 1.66120E-02
 -1       634 1.90781E-02
 -1       635 2.17182E-02
 -1       636 2.44992E-02
 -1       637 2.73809E-02
 -1       638 3.03152E-02
 -1       639 3.32435E-02
 -1       640 3.60950E-02
 -1       641 3.87853E-02
 -1       642 4.12138E-02
 -1       643 4.32629E-02
 -1       644 4.47966E-02
 -1       645 4.56601E-02
 -1       646 4.59038E-02
 -1       647 4.56807E-02
 -1       648 4.46703E-02
 -1       649 4.49604E-02
 -1       650 4.81158E-02
 -1       651 5.19629E-02
 -1       652 5.50366E-02
 -1       653 5.70061E-02
 -1       654 5.76712E-02
 -1       655 5.75094E-02
 -1       656 5.61684E-02
 -1       657 6.05011E-02
 -1       658 7.54021E-02
 -1       659 9.56322E-02
 -1       660 1.24144E-01
 -1       661 1.39037E-01
 -1       662 1.50095E-01
 -1       663 1.56444E-01
 -1       664 1.57528E-01
 -1       665 1.57528E-01
 -1       666 1.53200E-01
 -1       667 1.43776E-01
 -1       668 1.40087E-01
 -1       669 1.42707E-01
 -1       670 1.42707E-01
 -1       671 1.40059E-01
 -1       672 1.32684E-01
 -1       673 1.21456E-01
 -1       674 1.15308E-01
 -1       675 1.31591E-01
 -1       676 1.44566E-01
 -1       677 1.53270E-01
 -1       678 1.56986E-01
 -1       679 1.57528E-01
 -1       680 1.55364E-01
 -1       681 1.48488E-01
 -1       682 1.41932E-01
 -1       683 1.41397E-01
 -1       684 1.42707E-01
 -1       685 1.41383E-01
 -1       686 1.36371E-01
 -1       687 1.27070E-01
 -1       688 1.14458E-01
 -1       689 9.04849E-02
 -1       690 7.53797E-02
 -1       691 6.08041E-02
 -1       692 4.75007E-02
 -1       693 3.60571E-02
 -1       694 2.69078E-02
 -1       695 2.59549E-02
 -1       696 3.52910E-02
 -1       697 4.56441E-02
 -1       698 5.67373E-02
 -1       699 6.83336E-02
 -1       700 8.02321E-02
 -1       701 9.22618E-02
 -1       702 1.04271E-01
 -1       703 1.16114E-01
 -1       704 1.28838E-01
 -1       705 1.49207E-01
 -1       706 1.77551E-01
 -1       707 2.17033E-01
 -1       708 2.64309E-01
 -1       709 3.21800E-01
 -1       710 3.92974E-01
 -1       711 4.83876E-01
 -1       712 6.01012E-01
 -1       713 7.65091E-01
 -1       714 9.61699E-01
 -1       715 1.62446E+00
 -1       716 6.38029E+00
 -1       717 9.89728E-02
 -1       718 8.29323E-02
 -1       719 6.80919E-02
 -1       720 5.41524E-02
 -1       721 4.17789E-02
 -1       722 3.14824E-02
 -1       723 2.64314E-02
 -1       724 3.06229E-02
 -1       725 4.04675E-02
 -1       726 5.11907E-02
 -1       727 6.25354E-02
 -1       728 7.42828E-02
 -1       729 8.62470E-02
 -1       730 9.82665E-02
 -1       731 1.10193E-01
 -1       732 1.22476E-01
 -1       733 1.39023E-01
 -1       734 1.63379E-01
 -1       735 1.97292E-01
 -1       736 2.40671E-01
 -1       737 2.93054E-01
 -1       738 3.57387E-01
 -1       739 4.38425E-01
 -1       740 5.42444E-01
 -1       741 6.83052E-01
 -1       742 8.63395E-01
 -1       743 1.29308E+00
 -1       744 4.00237E+00
 -1       745 6.38029E+00
 -1       746 6.38029E+00
 -1       747 1.36794E+00
 -1       748 5.73400E-01
 -1       749 4.66413E-01
 -1       750 3.43437E-01
 -1       751 2.79935E-01
 -1       752 2.33901E-01
 -1       753 2.01629E-01
 -1       754 1.77286E-01
 -1       755 1.58329E-01
 -1       756 1.42989E-01
 -1       757 1.30179E-01
 -1       758 1.19161E-01
 -1       759 1.09437E-01
 -1       760 1.00660E-01
 -1       761 6.38029E+00
 -1       762 3.87411E+00
 -1       763 9.70670E-01
 -1       764 5.19906E-01
 -1       765 4.04925E-01
 -1       766 3.11686E-01
 -1       767 2.56918E-01
 -1       768 2.17765E-01
 -1       769 1.89458E-01
 -1       770 1.67808E-01
 -1       771 1.50659E-01
 -1       772 1.36584E-01
 -1       773 1.24670E-01
 -1       774 1.14299E-01
 -1       775 1.05048E-01
 -1       776 9.66247E-02
 -1       777 8.51806E-02
 -1       778 7.80456E-02
 -1       779 7.12850E-02
 -1       780 6.48645E-02
 -1       781 5.87739E-02
 -1       782 5.30195E-02
 -1       783 4.76168E-02
 -1       784 4.76168E-02
 -1       785 5.30195E-02
 -1       786 5.87739E-02
 -1       787 6.48645E-02
 -1       788 7.12850E-02
 -1       789 7.80456E-02
 -1       790 8.51806E-02
 -1       791 8.88852E-02
 -1       792 8.16131E-02
 -1       793 7.46653E-02
 -1       794 6.80747E-02
 -1       795 6.18192E-02
 -1       796 5.58967E-02
 -1       797 5.03181E-02
 -1       798 4.76168E-02
 -1       799 5.03181E-02
 -1       800 5.58967E-02
 -1       801 6.18192E-02
 -1       802 6.80747E-02
 -1       803 7.46653E-02
 -1       804 8.16131E-02
 -1       805 8.88852E-02
 -1       806 1.00660E-01
 -1       807 1.09437E-01
 -1       808 1.19161E-01
 -1       809 1.30179E-01
 -1       810 1.42989E-01
 -1       811 1.58329E-01
 -1       812 1.77286E-01
 -1       813 2.01629E-01
 -1       814 2.33901E-01
 -1       815 2.79935E-01
 -1       816 3.43437E-01
 -1       817 4.66413E-01
 -1       818 5.73400E-01
 -1       819 1.36794E+00
 -1       820 6.38029E+00
 -1       821 9.66247E-02
 -1       822 1.05048E-01
 -1       823 1.14299E-01
 -1       824 1.24670E-01
 -1       825 1.36584E-01
 -1       826 1.50659E-01
 -1       827 1.67808E-01
 -1       828 1.89458E-01
 -1       829 2.17765E-01
 -1       830 2.56918E-01
 -1       831 3.11686E-01
 -1       832 4.04925E-01
 -1       833 5.19906E-01
 -1       834 9.70670E-01
 -1       835 3.87411E+00
 -1       836 6.38029E+00
 -1       837 1.83270E-01
 -1       838 1.66450E-01
 -1       839 1.46930E-01
 -1       840 1.25613E-01
 -1       841 1.06265E-01
 -1       842 9.04645E-02
 -1       843 8.03779E-02
 -1       844 7.98256E-02
 -1       845 7.98313E-02
 -1       846 8.02396E-02
 -1       847 8.16030E-02
 -1       848 8.43850E-02
 -1       849 8.90085E-02
 -1       850 9.60616E-02
 -1       851 1.07461E-01
 -1       852 2.48169E-01
 -1       853 1.74860E-01
 -1       854 1.56690E-01
 -1       855 1.36271E-01
 -1       856 1.15939E-01
 -1       857 9.83646E-02
 -1       858 8.54212E-02
 -1       859 8.01017E-02
 -1       860 7.98284E-02
 -1       861 8.00354E-02
 -1       862 8.09213E-02
 -1       863 8.29940E-02
 -1       864 8.66967E-02
 -1       865 9.25350E-02
 -1       866 1.01761E-01
 -1       867 1.07461E-01
 -1       868 1.99924E-01
 -1       869 1.67751E-01
 -1       870 1.46830E-01
 -1       871 1.23650E-01
 -1       872 1.02005E-01
 -1       873 8.33697E-02
 -1       874 6.94149E-02
 -1       875 6.63492E-02
 -1       876 6.73782E-02
 -1       877 6.90817E-02
 -1       878 7.20484E-02
 -1       879 7.67582E-02
 -1       880 8.36124E-02
 -1       881 9.31208E-02
 -1       882 1.06473E-01
 -1       883 2.62223E-01
 -1       884 1.83837E-01
 -1       885 1.57290E-01
 -1       886 1.35240E-01
 -1       887 1.12827E-01
 -1       888 9.26872E-02
 -1       889 7.63923E-02
 -1       890 6.78821E-02
 -1       891 6.68637E-02
 -1       892 6.82300E-02
 -1       893 7.05651E-02
 -1       894 7.44033E-02
 -1       895 8.01853E-02
 -1       896 8.83666E-02
 -1       897 9.97969E-02
 -1       898 1.06473E-01
 -1       899 3.13798E-01
 -1       900 3.13798E-01
 -1       901 2.95795E-01
 -1       902 2.68101E-01
 -1       903 2.36419E-01
 -1       904 2.04523E-01
 -1       905 1.74631E-01
 -1       906 1.47856E-01
 -1       907 1.24586E-01
 -1       908 1.04777E-01
 -1       909 8.95097E-02
 -1       910 7.71701E-02
 -1       911 6.66642E-02
 -1       912 5.80137E-02
 -1       913 5.27750E-02
 -1       914 4.86168E-02
 -1       915 4.48221E-02
 -1       916 4.13826E-02
 -1       917 3.82790E-02
 -1       918 3.54866E-02
 -1       919 3.29797E-02
 -1       920 3.07333E-02
 -1       921 2.89877E-02
 -1       922 2.74995E-02
 -1       923 2.61739E-02
 -1       924 2.50093E-02
 -1       925 2.40060E-02
 -1       926 2.31660E-02
 -1       927 3.19160E-01
 -1       928 3.13798E-01
 -1       929 3.04796E-01
 -1       930 2.81948E-01
 -1       931 2.52260E-01
 -1       932 2.20471E-01
 -1       933 1.89577E-01
 -1       934 1.61243E-01
 -1       935 1.36221E-01
 -1       936 1.14681E-01
 -1       937 9.71433E-02
 -1       938 8.33399E-02
 -1       939 7.19172E-02
 -1       940 6.23390E-02
 -1       941 5.53943E-02
 -1       942 5.06959E-02
 -1       943 4.67194E-02
 -1       944 4.31023E-02
 -1       945 3.98308E-02
 -1       946 3.68828E-02
 -1       947 3.42332E-02
 -1       948 3.18565E-02
 -1       949 2.98605E-02
 -1       950 2.82436E-02
 -1       951 2.68367E-02
 -1       952 2.55916E-02
 -1       953 2.45076E-02
 -1       954 2.35860E-02
 -1       955 2.28300E-02
 -1       956 3.13798E-01
 -1       957 3.13798E-01
 -1       958 2.95795E-01
 -1       959 2.68101E-01
 -1       960 2.36419E-01
 -1       961 2.04523E-01
 -1       962 1.74631E-01
 -1       963 1.47856E-01
 -1       964 1.24586E-01
 -1       965 1.04777E-01
 -1       966 8.95097E-02
 -1       967 7.71701E-02
 -1       968 6.66642E-02
 -1       969 5.80137E-02
 -1       970 5.27750E-02
 -1       971 4.86168E-02
 -1       972 4.48221E-02
 -1       973 4.13826E-02
 -1       974 3.82790E-02
 -1       975 3.54866E-02
 -1       976 3.29797E-02
 -1       977 3.07333E-02
 -1       978 2.89877E-02
 -1       979 2.74995E-02
 -1       980 2.61739E-02
 -1       981 2.50093E-02
 -1       982 2.40060E-02
 -1       983 2.31660E-02
 -1       984 3.19160E-01
 -1       985 3.13798E-01
 -1       986 3.04796E-01
 -1       987 2.81948E-01
 -1       988 2.52260E-01
 -1       989 2.20471E-01
 -1       990 1.89577E-01
 -1       991 1.61243E-01
 -1       992 1.36221E-01
 -1       993 1.14681E-01
 -1       994 9.71433E-02
 -1       995 8.33399E-02
 -1       996 7.19172E-02
 -1       997 6.23390E-02
 -1       998 5.53943E-02
 -1       999 5.06959E-02
 -1      1000 4.67194E-02
 -1      1001 4.31023E-02
 -1      1002 3.98308E-02
 -1      1003 3.68828E-02
 -1      1004 3.42332E-02
 -1      1005 3.18565E-02
 -1      1006 2.98605E-02
 -1      1007 2.82436E-02
 -1      1008 2.68367E-02
 -1      1009 2.55916E-02
 -1      1010 2.45076E-02
 -1      1011 2.35860E-02
 -1      1012 2.28300E-02
 -1      1013 1.99924E-01
 -1      1014 1.67751E-01
 -1      1015 1.46830E-01
 -1      1016 1.23650E-01
 -1      1017 1.02005E-01
 -1      1018 8.33697E-02
 -1      1019 6.94149E-02
 -1      1020 6.63492E-02
 -1      1021 6.73782E-02
 -1      1022 6.90817E-02
 -1      1023 7.20484E-02
 -1      1024 7.67582E-02
 -1      1025 8.36124E-02
 -1      1026 9.31208E-02
 -1      1027 1.06473E-01
 -1      1028 2.62223E-01
 -1      1029 1.83837E-01
 -1      1030 1.57290E-01
 -1      1031 1.35240E-01
 -1      1032 1.12827E-01
 -1      1033 9.26872E-02
 -1      1034 7.63923E-02
 -1      1035 6.78821E-02
 -1      1036 6.68637E-02
 -1      1037 6.82300E-02
 -1      1038 7.05651E-02
 -1      1039 7.44033E-02
 -1      1040 8.01853E-02
 -1      1041 8.83666E-02
 -1      1042 9.97969E-02
 -1      1043 1.06473E-01
 -1      1044 1.83270E-01
 -1      1045 1.66450E-01
 -1      1046 1.46930E-01
 -1      1047 1.25613E-01
 -1      1048 1.06265E-01
 -1      1049 9.04645E-02
 -1      1050 8.03779E-02
 -1      1051 7.98256E-02
 -1      1052 7.98313E-02
 -1      1053 8.02396E-02
 -1      1054 8.16030E-02
 -1      1055 8.43850E-02
 -1      1056 8.90085E-02
 -1      1057 9.60616E-02
 -1      1058 1.07461E-01
 -1      1059 2.48169E-01
 -1      1060 1.74860E-01
 -1      1061 1.56690E-01
 -1      1062 1.36271E-01
 -1      1063 1.15939E-01
 -1      1064 9.83646E-02
 -1      1065 8.54212E-02
 -1      1066 8.01017E-02
 -1      1067 7.98284E-02
 -1      1068 8.00354E-02
 -1      1069 8.09213E-02
 -1      1070 8.29940E-02
 -1      1071 8.66967E-02
 -1      1072 9.25350E-02
 -1      1073 1.01761E-01
 -1      1074 1.07461E-01
 -1      1075 2.98331E-01
 -1      1076 2.98331E-01
 -1      1077 2.81424E-01
 -1      1078 2.54927E-01
 -1      1079 2.24560E-01
 -1      1080 1.94126E-01
 -1      1081 1.65885E-01
 -1      1082 1.40999E-01
 -1      1083 1.19902E-01
 -1      1084 1.02596E-01
 -1      1085 8.88427E-02
 -1      1086 7.88317E-02
 -1      1087 7.19887E-02
 -1      1088 6.72693E-02
 -1      1089 6.44748E-02
 -1      1090 6.38063E-02
 -1      1091 6.54855E-02
 -1      1092 6.81917E-02
 -1      1093 7.16697E-02
 -1      1094 7.56462E-02
 -1      1095 7.98314E-02
 -1      1096 8.39255E-02
 -1      1097 8.76317E-02
 -1      1098 9.06744E-02
 -1      1099 9.28212E-02
 -1      1100 9.39026E-02
 -1      1101 9.39026E-02
 -1      1102 9.38296E-02
 -1      1103 3.05699E-01
 -1      1104 2.98331E-01
 -1      1105 2.89877E-01
 -1      1106 2.68175E-01
 -1      1107 2.39744E-01
 -1      1108 2.09343E-01
 -1      1109 1.80005E-01
 -1      1110 1.53442E-01
 -1      1111 1.30451E-01
 -1      1112 1.11249E-01
 -1      1113 9.57192E-02
 -1      1114 8.38372E-02
 -1      1115 7.54102E-02
 -1      1116 6.96290E-02
 -1      1117 6.58721E-02
 -1      1118 6.41405E-02
 -1      1119 6.46459E-02
 -1      1120 6.68386E-02
 -1      1121 6.99307E-02
 -1      1122 7.36579E-02
 -1      1123 7.77388E-02
 -1      1124 8.18784E-02
 -1      1125 8.57786E-02
 -1      1126 8.91531E-02
 -1      1127 9.17478E-02
 -1      1128 9.33619E-02
 -1      1129 9.39026E-02
 -1      1130 9.38661E-02
 -1      1131 9.32097E-02
 -1      1132 2.98331E-01
 -1      1133 2.98331E-01
 -1      1134 2.81424E-01
 -1      1135 2.54927E-01
 -1      1136 2.24560E-01
 -1      1137 1.94126E-01
 -1      1138 1.65885E-01
 -1      1139 1.40999E-01
 -1      1140 1.19902E-01
 -1      1141 1.02596E-01
 -1      1142 8.88427E-02
 -1      1143 7.88317E-02
 -1      1144 7.19887E-02
 -1      1145 6.72693E-02
 -1      1146 6.44748E-02
 -1      1147 6.38063E-02
 -1      1148 6.54855E-02
 -1      1149 6.81917E-02
 -1      1150 7.16697E-02
 -1      1151 7.56462E-02
 -1      1152 7.98314E-02
 -1      1153 8.39255E-02
 -1      1154 8.76317E-02
 -1      1155 9.06744E-02
 -1      1156 9.28212E-02
 -1      1157 9.39026E-02
 -1      1158 9.39026E-02
 -1      1159 9.38296E-02
 -1      1160 3.05699E-01
 -1      1161 2.98331E-01
 -1      1162 2.89877E-01
 -1      1163 2.68175E-01
 -1      1164 2.39744E-01
 -1      1165 2.09343E-01
 -1      1166 1.80005E-01
 -1      1167 1.53442E-01
 -1      1168 1.30451E-01
 -1      1169 1.11249E-01
 -1      1170 9.57192E-02
 -1      1171 8.38372E-02
 -1      1172 7.54102E-02
 -1      1173 6.96290E-02
 -1      1174 6.58721E-02
 -1      1175 6.41405E-02
 -1      1176 6.46459E-02
 -1      1177 6.68386E-02
 -1      1178 6.99307E-02
 -1      1179 7.36579E-02
 -1      1180 7.77388E-02
 -1      1181 8.18784E-02
 -1      1182 8.57786E-02
 -1      1183 8.91531E-02
 -1      1184 9.17478E-02
 -1      1185 9.33619E-02
 -1      1186 9.39026E-02
 -1      1187 9.38661E-02
 -1      1188 9.32097E-02
 -1      1189 2.41702E+00
 -1      1190 2.15085E+00
 -1      1191 1.86486E+00
 -1      1192 1.57863E+00
 -1      1193 1.31856E+00
 -1      1194 1.08436E+00
 -1      1195 8.46022E-01
 -1      1196 8.55587E-01
 -1      1197 1.09312E+00
 -1      1198 1.32637E+00
 -1      1199 1.58696E+00
 -1      1200 1.87262E+00
 -1      1201 2.15821E+00
 -1      1202 2.42899E+00
 -1      1203 1.93830E+00
 -1      1204 1.77476E+00
 -1      1205 1.69971E+00
 -1      1206 1.53262E+00
 -1      1207 1.31856E+00
 -1      1208 1.08436E+00
 -1      1209 8.46022E-01
 -1      1210 8.55587E-01
 -1      1211 1.09312E+00
 -1      1212 1.32637E+00
 -1      1213 1.53932E+00
 -1      1214 1.70510E+00
 -1      1215 1.77849E+00
 -1      1216 1.95050E+00
 -1      1217 1.44805E+00
 -1      1218 1.44495E+00
 -1      1219 1.44495E+00
 -1      1220 1.40117E+00
 -1      1221 1.26460E+00
 -1      1222 1.07015E+00
 -1      1223 8.45425E-01
 -1      1224 8.54303E-01
 -1      1225 1.07798E+00
 -1      1226 1.27117E+00
 -1      1227 1.40629E+00
 -1      1228 1.44849E+00
 -1      1229 1.44849E+00
 -1      1230 1.46305E+00
 -1      1231 1.11638E+00
 -1      1232 1.18817E+00
 -1      1233 1.23586E+00
 -1      1234 1.23586E+00
 -1      1235 1.17708E+00
 -1      1236 1.03221E+00
 -1      1237 8.30760E-01
 -1      1238 8.38856E-01
 -1      1239 1.03904E+00
 -1      1240 1.18247E+00
 -1      1241 1.23982E+00
 -1      1242 1.23982E+00
 -1      1243 1.19097E+00
 -1      1244 1.12847E+00
 -1      1245 8.48062E-01
 -1      1246 9.63245E-01
 -1      1247 1.05630E+00
 -1      1248 1.06040E+00
 -1      1249 1.06040E+00
 -1      1250 9.68812E-01
 -1      1251 8.00115E-01
 -1      1252 8.07268E-01
 -1      1253 9.74578E-01
 -1      1254 1.06482E+00
 -1      1255 1.06482E+00
 -1      1256 1.05974E+00
 -1      1257 9.66315E-01
 -1      1258 8.58532E-01
 -1      1259 6.73285E-01
 -1      1260 7.89126E-01
 -1      1261 8.86833E-01
 -1      1262 9.28062E-01
 -1      1263 9.28062E-01
 -1      1264 8.83958E-01
 -1      1265 7.53799E-01
 -1      1266 7.59897E-01
 -1      1267 8.88753E-01
 -1      1268 9.31928E-01
 -1      1269 9.31928E-01
 -1      1270 8.90456E-01
 -1      1271 7.93138E-01
 -1      1272 6.77950E-01
 -1      1273 5.86923E-01
 -1      1274 6.63141E-01
 -1      1275 7.41216E-01
 -1      1276 7.93385E-01
 -1      1277 7.93385E-01
 -1      1278 7.83705E-01
 -1      1279 6.93210E-01
 -1      1280 6.98204E-01
 -1      1281 7.87754E-01
 -1      1282 7.97212E-01
 -1      1283 7.97212E-01
 -1      1284 7.45571E-01
 -1      1285 6.68380E-01
 -1      1286 5.92969E-01
 -1      1287 5.32600E-01
 -1      1288 5.74670E-01
 -1      1289 6.23789E-01
 -1      1290 6.67252E-01
 -1      1291 6.75799E-01
 -1      1292 6.75799E-01
 -1      1293 6.21258E-01
 -1      1294 6.25186E-01
 -1      1295 6.79430E-01
 -1      1296 6.79430E-01
 -1      1297 6.71509E-01
 -1      1298 6.29196E-01
 -1      1299 5.81193E-01
 -1      1300 5.39907E-01
 -1      1301 4.95346E-01
 -1      1302 5.11987E-01
 -1      1303 5.32238E-01
 -1      1304 5.56009E-01
 -1      1305 5.67885E-01
 -1      1306 5.67885E-01
 -1      1307 5.42020E-01
 -1      1308 5.45016E-01
 -1      1309 5.71463E-01
 -1      1310 5.71463E-01
 -1      1311 5.61046E-01
 -1      1312 5.38834E-01
 -1      1313 5.19746E-01
 -1      1314 5.03789E-01
 -1      1315 4.65993E-01
 -1      1316 4.65993E-01
 -1      1317 4.65524E-01
 -1      1318 4.61781E-01
 -1      1319 4.66146E-01
 -1      1320 4.66146E-01
 -1      1321 4.60154E-01
 -1      1322 4.62424E-01
 -1      1323 4.70000E-01
 -1      1324 4.70000E-01
 -1      1325 4.69221E-01
 -1      1326 4.74431E-01
 -1      1327 4.75457E-01
 -1      1328 4.75457E-01
 -1      1329 4.39315E-01
 -1      1330 4.39315E-01
 -1      1331 4.28469E-01
 -1      1332 4.05864E-01
 -1      1333 3.83834E-01
 -1      1334 3.80155E-01
 -1      1335 3.89052E-01
 -1      1336 3.89052E-01
 -1      1337 3.81949E-01
 -1      1338 3.90929E-01
 -1      1339 4.14816E-01
 -1      1340 4.38421E-01
 -1      1341 4.49685E-01
 -1      1342 4.49685E-01
 -1      1343 4.12649E-01
 -1      1344 4.12649E-01
 -1      1345 3.96406E-01
 -1      1346 3.60955E-01
 -1      1347 3.20047E-01
 -1      1348 3.45269E-01
 -1      1349 3.47150E-01
 -1      1350 3.47150E-01
 -1      1351 3.43646E-01
 -1      1352 3.28208E-01
 -1      1353 3.70964E-01
 -1      1354 4.07279E-01
 -1      1355 4.23789E-01
 -1      1356 4.23789E-01
 -1      1357 3.84884E-01
 -1      1358 3.84884E-01
 -1      1359 3.66799E-01
 -1      1360 3.23397E-01
 -1      1361 2.83189E-01
 -1      1362 3.25601E-01
 -1      1363 3.25601E-01
 -1      1364 3.23338E-01
 -1      1365 3.23338E-01
 -1      1366 2.79817E-01
 -1      1367 3.34328E-01
 -1      1368 3.78439E-01
 -1      1369 3.96623E-01
 -1      1370 3.96623E-01
 -1      1371 3.56286E-01
 -1      1372 3.56286E-01
 -1      1373 3.38439E-01
 -1      1374 2.90672E-01
 -1      1375 2.78756E-01
 -1      1376 3.10240E-01
 -1      1377 3.10240E-01
 -1      1378 3.08282E-01
 -1      1379 3.08282E-01
 -1      1380 2.72479E-01
 -1      1381 3.02353E-01
 -1      1382 3.50645E-01
 -1      1383 3.68393E-01
 -1      1384 3.68393E-01
 -1      1385 2.41702E+00
 -1      1386 3.67098E+00
 -1      1387 2.15085E+00
 -1      1388 2.28394E+00
 -1      1389 1.86486E+00
 -1      1390 2.00786E+00
 -1      1391 1.57863E+00
 -1      1392 1.72175E+00
 -1      1393 1.31097E+00
 -1      1394 1.44859E+00
 -1      1395 1.06412E+00
 -1      1396 1.20146E+00
 -1      1397 8.24152E-01
 -1      1398 9.65189E-01
 -1      1399 8.33992E-01
 -1      1400 8.50805E-01
 -1      1401 1.07329E+00
 -1      1402 9.74356E-01
 -1      1403 1.31936E+00
 -1      1404 1.20975E+00
 -1      1405 1.58696E+00
 -1      1406 1.45667E+00
 -1      1407 1.87262E+00
 -1      1408 1.72979E+00
 -1      1409 2.15821E+00
 -1      1410 2.01542E+00
 -1      1411 2.42899E+00
 -1      1412 2.29360E+00
 -1      1413 3.78615E+00
 -1      1414 2.17766E+00
 -1      1415 2.43040E+00
 -1      1416 1.96281E+00
 -1      1417 1.85653E+00
 -1      1418 1.78229E+00
 -1      1419 1.73724E+00
 -1      1420 1.55562E+00
 -1      1421 1.61617E+00
 -1      1422 1.31856E+00
 -1      1423 1.42559E+00
 -1      1424 1.08436E+00
 -1      1425 1.20146E+00
 -1      1426 8.46022E-01
 -1      1427 9.65189E-01
 -1      1428 8.55587E-01
 -1      1429 8.50805E-01
 -1      1430 1.09312E+00
 -1      1431 9.74356E-01
 -1      1432 1.32637E+00
 -1      1433 1.20975E+00
 -1      1434 1.56314E+00
 -1      1435 1.43285E+00
 -1      1436 1.78886E+00
 -1      1437 1.62221E+00
 -1      1438 1.96835E+00
 -1      1439 1.74179E+00
 -1      1440 2.18974E+00
 -1      1441 1.86449E+00
 -1      1442 2.45049E+00
 -1      1443 1.69317E+00
 -1      1444 1.85531E+00
 -1      1445 1.60985E+00
 -1      1446 1.44650E+00
 -1      1447 1.57233E+00
 -1      1448 1.44495E+00
 -1      1449 1.46690E+00
 -1      1450 1.42306E+00
 -1      1451 1.29158E+00
 -1      1452 1.33288E+00
 -1      1453 1.07725E+00
 -1      1454 1.16737E+00
 -1      1455 8.45723E-01
 -1      1456 9.57785E-01
 -1      1457 8.54945E-01
 -1      1458 8.49864E-01
 -1      1459 1.08555E+00
 -1      1460 9.66141E-01
 -1      1461 1.29877E+00
 -1      1462 1.17457E+00
 -1      1463 1.47281E+00
 -1      1464 1.33873E+00
 -1      1465 1.57680E+00
 -1      1466 1.42739E+00
 -1      1467 1.61349E+00
 -1      1468 1.44849E+00
 -1      1469 1.70677E+00
 -1      1470 1.45577E+00
 -1      1471 1.87270E+00
 -1      1472 1.28221E+00
 -1      1473 1.42784E+00
 -1      1474 1.31656E+00
 -1      1475 1.15228E+00
 -1      1476 1.34041E+00
 -1      1477 1.21202E+00
 -1      1478 1.31852E+00
 -1      1479 1.23586E+00
 -1      1480 1.22084E+00
 -1      1481 1.20647E+00
 -1      1482 1.05118E+00
 -1      1483 1.10465E+00
 -1      1484 8.38092E-01
 -1      1485 9.31486E-01
 -1      1486 8.46579E-01
 -1      1487 8.34808E-01
 -1      1488 1.05851E+00
 -1      1489 9.38947E-01
 -1      1490 1.22682E+00
 -1      1491 1.11075E+00
 -1      1492 1.32305E+00
 -1      1493 1.21114E+00
 -1      1494 1.34416E+00
 -1      1495 1.23982E+00
 -1      1496 1.31973E+00
 -1      1497 1.21539E+00
 -1      1498 1.29576E+00
 -1      1499 1.15972E+00
 -1      1500 1.44164E+00
 -1      1501 9.82222E-01
 -1      1502 1.08993E+00
 -1      1503 1.07571E+00
 -1      1504 9.05654E-01
 -1      1505 1.14608E+00
 -1      1506 1.00977E+00
 -1      1507 1.14813E+00
 -1      1508 1.05835E+00
 -1      1509 1.11874E+00
 -1      1510 1.06040E+00
 -1      1511 1.00051E+00
 -1      1512 1.01461E+00
 -1      1513 8.15437E-01
 -1      1514 8.84463E-01
 -1      1515 8.23062E-01
 -1      1516 8.03691E-01
 -1      1517 1.00681E+00
 -1      1518 8.90923E-01
 -1      1519 1.12364E+00
 -1      1520 1.01970E+00
 -1      1521 1.15232E+00
 -1      1522 1.06482E+00
 -1      1523 1.14978E+00
 -1      1524 1.06228E+00
 -1      1525 1.07864E+00
 -1      1526 1.01303E+00
 -1      1527 9.93503E-01
 -1      1528 9.12423E-01
 -1      1529 1.10168E+00
 -1      1530 7.60674E-01
 -1      1531 8.45025E-01
 -1      1532 8.76186E-01
 -1      1533 7.31206E-01
 -1      1534 9.71568E-01
 -1      1535 8.37980E-01
 -1      1536 9.94232E-01
 -1      1537 9.07448E-01
 -1      1538 9.94232E-01
 -1      1539 9.28062E-01
 -1      1540 9.26385E-01
 -1      1541 9.06010E-01
 -1      1542 7.76957E-01
 -1      1543 8.18879E-01
 -1      1544 7.83583E-01
 -1      1545 7.56848E-01
 -1      1546 9.31665E-01
 -1      1547 8.24325E-01
 -1      1548 9.98372E-01
 -1      1549 9.10340E-01
 -1      1550 9.98372E-01
 -1      1551 9.31928E-01
 -1      1552 9.75097E-01
 -1      1553 9.11192E-01
 -1      1554 8.79726E-01
 -1      1555 8.41797E-01
 -1      1556 7.68241E-01
 -1      1557 7.35544E-01
 -1      1558 8.53023E-01
 -1      1559 6.30104E-01
 -1      1560 6.78544E-01
 -1      1561 7.26134E-01
 -1      1562 6.25032E-01
 -1      1563 8.14025E-01
 -1      1564 7.02178E-01
 -1      1565 8.60723E-01
 -1      1566 7.67300E-01
 -1      1567 8.60723E-01
 -1      1568 7.93385E-01
 -1      1569 8.33832E-01
 -1      1570 7.88545E-01
 -1      1571 7.23504E-01
 -1      1572 7.38458E-01
 -1      1573 7.29050E-01
 -1      1574 6.95707E-01
 -1      1575 8.38253E-01
 -1      1576 7.42979E-01
 -1      1577 8.64570E-01
 -1      1578 7.92483E-01
 -1      1579 8.64570E-01
 -1      1580 7.97212E-01
 -1      1581 8.18013E-01
 -1      1582 7.71391E-01
 -1      1583 7.30759E-01
 -1      1584 7.06975E-01
 -1      1585 6.35459E-01
 -1      1586 6.30675E-01
 -1      1587 6.86573E-01
 -1      1588 5.59761E-01
 -1      1589 5.58411E-01
 -1      1590 6.18905E-01
 -1      1591 5.53635E-01
 -1      1592 6.82502E-01
 -1      1593 5.99229E-01
 -1      1594 7.30318E-01
 -1      1595 6.45520E-01
 -1      1596 7.34592E-01
 -1      1597 6.71525E-01
 -1      1598 7.29752E-01
 -1      1599 6.75799E-01
 -1      1600 6.57234E-01
 -1      1601 6.48528E-01
 -1      1602 6.61695E-01
 -1      1603 6.23222E-01
 -1      1604 7.33592E-01
 -1      1605 6.52308E-01
 -1      1606 7.38321E-01
 -1      1607 6.79430E-01
 -1      1608 7.34360E-01
 -1      1609 6.75470E-01
 -1      1610 6.87383E-01
 -1      1611 6.50353E-01
 -1      1612 6.24787E-01
 -1      1613 6.05195E-01
 -1      1614 5.66438E-01
 -1      1615 5.60550E-01
 -1      1616 5.66387E-01
 -1      1617 5.13973E-01
 -1      1618 4.87563E-01
 -1      1619 5.43328E-01
 -1      1620 5.03666E-01
 -1      1621 5.78014E-01
 -1      1622 5.22113E-01
 -1      1623 6.11630E-01
 -1      1624 5.44124E-01
 -1      1625 6.21842E-01
 -1      1626 5.61947E-01
 -1      1627 6.21842E-01
 -1      1628 5.67885E-01
 -1      1629 5.81639E-01
 -1      1630 5.54953E-01
 -1      1631 5.85101E-01
 -1      1632 5.43518E-01
 -1      1633 6.25447E-01
 -1      1634 5.58239E-01
 -1      1635 6.25447E-01
 -1      1636 5.71463E-01
 -1      1637 6.16277E-01
 -1      1638 5.66254E-01
 -1      1639 5.84015E-01
 -1      1640 5.49940E-01
 -1      1641 5.50470E-01
 -1      1642 5.29290E-01
 -1      1643 5.21848E-01
 -1      1644 5.11768E-01
 -1      1645 4.95991E-01
 -1      1646 4.80669E-01
 -1      1647 4.60642E-01
 -1      1648 4.88990E-01
 -1      1649 4.65993E-01
 -1      1650 4.98881E-01
 -1      1651 4.65758E-01
 -1      1652 5.08895E-01
 -1      1653 4.63652E-01
 -1      1654 5.17016E-01
 -1      1655 4.63964E-01
 -1      1656 5.17016E-01
 -1      1657 4.66146E-01
 -1      1658 5.01087E-01
 -1      1659 4.63150E-01
 -1      1660 5.03720E-01
 -1      1661 4.61289E-01
 -1      1662 5.20732E-01
 -1      1663 4.66212E-01
 -1      1664 5.20732E-01
 -1      1665 4.70000E-01
 -1      1666 5.15133E-01
 -1      1667 4.69610E-01
 -1      1668 5.06633E-01
 -1      1669 4.71826E-01
 -1      1670 4.97602E-01
 -1      1671 4.74944E-01
 -1      1672 4.89623E-01
 -1      1673 4.75457E-01
 -1      1674 4.70194E-01
 -1      1675 4.52654E-01
 -1      1676 4.35734E-01
 -1      1677 4.52654E-01
 -1      1678 4.39315E-01
 -1      1679 4.46996E-01
 -1      1680 4.33892E-01
 -1      1681 4.33822E-01
 -1      1682 4.17166E-01
 -1      1683 4.24990E-01
 -1      1684 3.94849E-01
 -1      1685 4.23151E-01
 -1      1686 3.81995E-01
 -1      1687 4.24603E-01
 -1      1688 3.84604E-01
 -1      1689 4.25738E-01
 -1      1690 3.89052E-01
 -1      1691 4.25975E-01
 -1      1692 3.85501E-01
 -1      1693 4.30465E-01
 -1      1694 3.86439E-01
 -1      1695 4.42018E-01
 -1      1696 4.02873E-01
 -1      1697 4.56426E-01
 -1      1698 4.26619E-01
 -1      1699 4.62571E-01
 -1      1700 4.44053E-01
 -1      1701 4.62571E-01
 -1      1702 4.49685E-01
 -1      1703 4.46126E-01
 -1      1704 4.25982E-01
 -1      1705 4.09208E-01
 -1      1706 4.25982E-01
 -1      1707 4.12649E-01
 -1      1708 4.12437E-01
 -1      1709 4.04527E-01
 -1      1710 3.83409E-01
 -1      1711 3.78680E-01
 -1      1712 3.51941E-01
 -1      1713 3.40501E-01
 -1      1714 3.62712E-01
 -1      1715 3.32658E-01
 -1      1716 3.68101E-01
 -1      1717 3.46210E-01
 -1      1718 3.68101E-01
 -1      1719 3.47150E-01
 -1      1720 3.62798E-01
 -1      1721 3.45398E-01
 -1      1722 3.59569E-01
 -1      1723 3.35927E-01
 -1      1724 3.92890E-01
 -1      1725 3.49586E-01
 -1      1726 4.22850E-01
 -1      1727 3.89121E-01
 -1      1728 4.36737E-01
 -1      1729 4.15534E-01
 -1      1730 4.36737E-01
 -1      1731 4.23789E-01
 -1      1732 4.20298E-01
 -1      1733 3.98767E-01
 -1      1734 3.80691E-01
 -1      1735 3.98767E-01
 -1      1736 3.84884E-01
 -1      1737 3.81602E-01
 -1      1738 3.75842E-01
 -1      1739 3.42176E-01
 -1      1740 3.45098E-01
 -1      1741 3.01618E-01
 -1      1742 3.03293E-01
 -1      1743 3.35435E-01
 -1      1744 3.04395E-01
 -1      1745 3.36376E-01
 -1      1746 3.25601E-01
 -1      1747 3.35244E-01
 -1      1748 3.24470E-01
 -1      1749 3.33492E-01
 -1      1750 3.23338E-01
 -1      1751 3.04012E-01
 -1      1752 3.01577E-01
 -1      1753 3.52646E-01
 -1      1754 3.07072E-01
 -1      1755 3.92859E-01
 -1      1756 3.56383E-01
 -1      1757 4.10206E-01
 -1      1758 3.87531E-01
 -1      1759 4.10206E-01
 -1      1760 3.96623E-01
 -1      1761 3.92293E-01
 -1      1762 3.70585E-01
 -1      1763 3.51161E-01
 -1      1764 3.70585E-01
 -1      1765 3.56286E-01
 -1      1766 3.52619E-01
 -1      1767 3.47362E-01
 -1      1768 3.07035E-01
 -1      1769 3.14556E-01
 -1      1770 2.80972E-01
 -1      1771 2.84714E-01
 -1      1772 3.17921E-01
 -1      1773 2.94498E-01
 -1      1774 3.17921E-01
 -1      1775 3.10240E-01
 -1      1776 3.15810E-01
 -1      1777 3.09261E-01
 -1      1778 3.15810E-01
 -1      1779 3.08282E-01
 -1      1780 2.76148E-01
 -1      1781 2.90381E-01
 -1      1782 3.18340E-01
 -1      1783 2.87416E-01
 -1      1784 3.64542E-01
 -1      1785 3.26499E-01
 -1      1786 3.82508E-01
 -1      1787 3.59519E-01
 -1      1788 3.82508E-01
 -1      1789 3.68393E-01
 -1      1790 3.63031E-01
 -1      1791 3.41094E-01
 -1      1792 3.41094E-01
 -1      1793 3.23979E-01
 -1      1794 2.97774E-01
 -1      1795 3.32248E-01
 -1      1796 3.47990E-01
 -1      1797 3.43522E-01
 -1      1798 3.41715E-01
 -1      1799 3.43547E-01
 -1      1800 3.25646E-01
 -1      1801 2.97702E-01
 -1      1802 3.36330E-01
 -1      1803 3.53233E-01
 -1      1804 3.53233E-01
 -1      1805 2.17712E+01
 -1      1806 3.94927E+01
 -1      1807 3.94927E+01
 -1      1808 1.60851E+01
 -1      1809 6.70149E+00
 -1      1810 2.73820E+00
 -1      1811 2.02009E+00
 -1      1812 2.02009E+00
 -1      1813 2.73820E+00
 -1      1814 6.70149E+00
 -1      1815 1.60851E+01
 -1      1816 3.94927E+01
 -1      1817 3.94927E+01
 -1      1818 2.17712E+01
 -1      1819 1.17107E+01
 -1      1820 2.41282E+01
 -1      1821 2.41282E+01
 -1      1822 2.16547E+01
 -1      1823 4.94829E+00
 -1      1824 2.73820E+00
 -1      1825 2.07234E+00
 -1      1826 2.07234E+00
 -1      1827 2.73820E+00
 -1      1828 4.94829E+00
 -1      1829 2.16547E+01
 -1      1830 2.41282E+01
 -1      1831 2.41282E+01
 -1      1832 1.17107E+01
 -1      1833 4.51950E+00
 -1      1834 1.23524E+01
 -1      1835 2.16547E+01
 -1      1836 2.16547E+01
 -1      1837 2.54018E+00
 -1      1838 2.52135E+00
 -1      1839 2.07234E+00
 -1      1840 2.07234E+00
 -1      1841 2.52135E+00
 -1      1842 2.54018E+00
 -1      1843 2.16547E+01
 -1      1844 2.16547E+01
 -1      1845 1.23524E+01
 -1      1846 4.51950E+00
 -1      1847 2.54595E+00
 -1      1848 5.68470E+00
 -1      1849 1.30124E+01
 -1      1850 1.51208E+01
 -1      1851 1.51208E+01
 -1      1852 2.02243E+00
 -1      1853 1.98165E+00
 -1      1854 1.98165E+00
 -1      1855 2.02243E+00
 -1      1856 1.51208E+01
 -1      1857 1.51208E+01
 -1      1858 1.30124E+01
 -1      1859 5.68470E+00
 -1      1860 2.54595E+00
 -1      1861 1.98216E+00
 -1      1862 2.78931E+00
 -1      1863 7.21295E+00
 -1      1864 1.51208E+01
 -1      1865 1.51208E+01
 -1      1866 1.88082E+00
 -1      1867 1.92297E+00
 -1      1868 1.92297E+00
 -1      1869 1.88082E+00
 -1      1870 1.51208E+01
 -1      1871 1.51208E+01
 -1      1872 7.21295E+00
 -1      1873 2.78931E+00
 -1      1874 1.98216E+00
 -1      1875 1.56659E+00
 -1      1876 2.24604E+00
 -1      1877 3.17432E+00
 -1      1878 9.70526E+00
 -1      1879 1.33997E+01
 -1      1880 1.33997E+01
 -1      1881 2.57261E+00
 -1      1882 2.57261E+00
 -1      1883 1.33997E+01
 -1      1884 1.33997E+01
 -1      1885 9.70526E+00
 -1      1886 3.17432E+00
 -1      1887 2.24604E+00
 -1      1888 1.56659E+00
 -1      1889 1.24737E+00
 -1      1890 1.83881E+00
 -1      1891 2.58628E+00
 -1      1892 5.72890E+00
 -1      1893 1.33997E+01
 -1      1894 1.64083E+01
 -1      1895 1.64083E+01
 -1      1896 1.64083E+01
 -1      1897 1.64083E+01
 -1      1898 1.33997E+01
 -1      1899 5.72890E+00
 -1      1900 2.58628E+00
 -1      1901 1.83881E+00
 -1      1902 1.24737E+00
 -1      1903 9.96091E-01
 -1      1904 1.52134E+00
 -1      1905 2.18214E+00
 -1      1906 3.03216E+00
 -1      1907 9.09612E+00
 -1      1908 1.64083E+01
 -1      1909 1.64083E+01
 -1      1910 1.64083E+01
 -1      1911 1.64083E+01
 -1      1912 9.09612E+00
 -1      1913 3.03216E+00
 -1      1914 2.18214E+00
 -1      1915 1.52134E+00
 -1      1916 9.96091E-01
 -1      1917 7.95352E-01
 -1      1918 1.26708E+00
 -1      1919 1.86112E+00
 -1      1920 2.61331E+00
 -1      1921 5.76829E+00
 -1      1922 1.12720E+01
 -1      1923 1.12720E+01
 -1      1924 1.12720E+01
 -1      1925 1.12720E+01
 -1      1926 5.76829E+00
 -1      1927 2.61331E+00
 -1      1928 1.86112E+00
 -1      1929 1.26708E+00
 -1      1930 7.95352E-01
 -1      1931 6.34748E-01
 -1      1932 1.05967E+00
 -1      1933 1.59905E+00
 -1      1934 2.27423E+00
 -1      1935 3.10495E+00
 -1      1936 7.21477E+00
 -1      1937 7.21477E+00
 -1      1938 7.21477E+00
 -1      1939 7.21477E+00
 -1      1940 3.10495E+00
 -1      1941 2.27423E+00
 -1      1942 1.59905E+00
 -1      1943 1.05967E+00
 -1      1944 6.34748E-01
 -1      1945 5.34001E-01
 -1      1946 8.88279E-01
 -1      1947 1.38037E+00
 -1      1948 1.99141E+00
 -1      1949 2.70855E+00
 -1      1950 3.88884E+00
 -1      1951 3.88884E+00
 -1      1952 3.88884E+00
 -1      1953 3.88884E+00
 -1      1954 2.70855E+00
 -1      1955 1.99141E+00
 -1      1956 1.38037E+00
 -1      1957 8.88279E-01
 -1      1958 5.34001E-01
 -1      1959 4.60378E-01
 -1      1960 7.45280E-01
 -1      1961 1.19458E+00
 -1      1962 1.74929E+00
 -1      1963 2.37297E+00
 -1      1964 2.74450E+00
 -1      1965 2.74450E+00
 -1      1966 2.74450E+00
 -1      1967 2.74450E+00
 -1      1968 2.37297E+00
 -1      1969 1.74929E+00
 -1      1970 1.19458E+00
 -1      1971 7.45280E-01
 -1      1972 4.60378E-01
 -1      1973 3.96568E-01
 -1      1974 6.25312E-01
 -1      1975 1.03454E+00
 -1      1976 1.53762E+00
 -1      1977 2.07885E+00
 -1      1978 2.32419E+00
 -1      1979 2.32419E+00
 -1      1980 2.32419E+00
 -1      1981 2.32419E+00
 -1      1982 2.07885E+00
 -1      1983 1.53762E+00
 -1      1984 1.03454E+00
 -1      1985 6.25312E-01
 -1      1986 3.96568E-01
 -1      1987 3.39251E-01
 -1      1988 5.34102E-01
 -1      1989 8.93969E-01
 -1      1990 1.34913E+00
 -1      1991 1.81697E+00
 -1      1992 1.96613E+00
 -1      1993 1.96613E+00
 -1      1994 1.96613E+00
 -1      1995 1.96613E+00
 -1      1996 1.81697E+00
 -1      1997 1.34913E+00
 -1      1998 8.93969E-01
 -1      1999 5.34102E-01
 -1      2000 3.39251E-01
 -1      2001 2.17712E+01
 -1      2002 1.34572E+01
 -1      2003 3.94927E+01
 -1      2004 3.06320E+01
 -1      2005 3.94927E+01
 -1      2006 3.94927E+01
 -1      2007 1.60851E+01
 -1      2008 2.77889E+01
 -1      2009 6.70149E+00
 -1      2010 1.13933E+01
 -1      2011 2.67756E+00
 -1      2012 4.71985E+00
 -1      2013 1.92644E+00
 -1      2014 2.37915E+00
 -1      2015 1.92644E+00
 -1      2016 2.02009E+00
 -1      2017 2.67756E+00
 -1      2018 2.37915E+00
 -1      2019 6.70149E+00
 -1      2020 4.71985E+00
 -1      2021 1.60851E+01
 -1      2022 1.13933E+01
 -1      2023 3.94927E+01
 -1      2024 2.77889E+01
 -1      2025 3.94927E+01
 -1      2026 3.94927E+01
 -1      2027 2.17712E+01
 -1      2028 3.06320E+01
 -1      2029 1.34572E+01
 -1      2030 1.67409E+01
 -1      2031 7.33059E+00
 -1      2032 3.18105E+01
 -1      2033 1.79195E+01
 -1      2034 3.18105E+01
 -1      2035 2.41282E+01
 -1      2036 1.88699E+01
 -1      2037 2.28915E+01
 -1      2038 5.82489E+00
 -1      2039 1.33015E+01
 -1      2040 2.73820E+00
 -1      2041 3.84325E+00
 -1      2042 2.04622E+00
 -1      2043 2.40527E+00
 -1      2044 2.04622E+00
 -1      2045 2.07234E+00
 -1      2046 2.73820E+00
 -1      2047 2.40527E+00
 -1      2048 5.82489E+00
 -1      2049 3.84325E+00
 -1      2050 1.88699E+01
 -1      2051 1.33015E+01
 -1      2052 3.18105E+01
 -1      2053 2.28915E+01
 -1      2054 3.18105E+01
 -1      2055 2.41282E+01
 -1      2056 1.67409E+01
 -1      2057 1.79195E+01
 -1      2058 7.33059E+00
 -1      2059 8.11510E+00
 -1      2060 3.40092E+00
 -1      2061 1.82403E+01
 -1      2062 8.43596E+00
 -1      2063 2.28915E+01
 -1      2064 1.70036E+01
 -1      2065 2.16547E+01
 -1      2066 2.16547E+01
 -1      2067 3.74424E+00
 -1      2068 1.20974E+01
 -1      2069 2.62977E+00
 -1      2070 2.53076E+00
 -1      2071 2.07234E+00
 -1      2072 2.29684E+00
 -1      2073 2.07234E+00
 -1      2074 2.07234E+00
 -1      2075 2.62977E+00
 -1      2076 2.29684E+00
 -1      2077 3.74424E+00
 -1      2078 2.53076E+00
 -1      2079 2.16547E+01
 -1      2080 1.20974E+01
 -1      2081 2.28915E+01
 -1      2082 2.16547E+01
 -1      2083 1.82403E+01
 -1      2084 1.70036E+01
 -1      2085 8.11510E+00
 -1      2086 8.43596E+00
 -1      2087 3.40092E+00
 -1      2088 3.53272E+00
 -1      2089 2.15038E+00
 -1      2090 9.01856E+00
 -1      2091 4.11533E+00
 -1      2092 1.73335E+01
 -1      2093 9.34853E+00
 -1      2094 1.83878E+01
 -1      2095 1.40666E+01
 -1      2096 8.83049E+00
 -1      2097 1.51208E+01
 -1      2098 2.27189E+00
 -1      2099 8.57161E+00
 -1      2100 2.02699E+00
 -1      2101 2.00204E+00
 -1      2102 2.02699E+00
 -1      2103 1.98165E+00
 -1      2104 2.27189E+00
 -1      2105 2.00204E+00
 -1      2106 8.83049E+00
 -1      2107 8.57161E+00
 -1      2108 1.83878E+01
 -1      2109 1.51208E+01
 -1      2110 1.73335E+01
 -1      2111 1.40666E+01
 -1      2112 9.01856E+00
 -1      2113 9.34853E+00
 -1      2114 3.53272E+00
 -1      2115 4.11533E+00
 -1      2116 2.15038E+00
 -1      2117 2.26406E+00
 -1      2118 1.66350E+00
 -1      2119 4.23701E+00
 -1      2120 2.38574E+00
 -1      2121 1.01127E+01
 -1      2122 5.00113E+00
 -1      2123 1.51208E+01
 -1      2124 1.11669E+01
 -1      2125 1.51208E+01
 -1      2126 1.51208E+01
 -1      2127 1.95163E+00
 -1      2128 8.50081E+00
 -1      2129 1.95231E+00
 -1      2130 1.90189E+00
 -1      2131 1.95231E+00
 -1      2132 1.92297E+00
 -1      2133 1.95163E+00
 -1      2134 1.90189E+00
 -1      2135 1.51208E+01
 -1      2136 8.50081E+00
 -1      2137 1.51208E+01
 -1      2138 1.51208E+01
 -1      2139 1.01127E+01
 -1      2140 1.11669E+01
 -1      2141 4.23701E+00
 -1      2142 5.00113E+00
 -1      2143 2.26406E+00
 -1      2144 2.38574E+00
 -1      2145 1.66350E+00
 -1      2146 1.77438E+00
 -1      2147 1.29735E+00
 -1      2148 2.51768E+00
 -1      2149 1.90632E+00
 -1      2150 5.19364E+00
 -1      2151 2.71018E+00
 -1      2152 1.24130E+01
 -1      2153 6.43979E+00
 -1      2154 1.42603E+01
 -1      2155 1.15525E+01
 -1      2156 7.64028E+00
 -1      2157 1.33997E+01
 -1      2158 2.24779E+00
 -1      2159 7.98617E+00
 -1      2160 2.24779E+00
 -1      2161 2.57261E+00
 -1      2162 7.64028E+00
 -1      2163 7.98617E+00
 -1      2164 1.42603E+01
 -1      2165 1.33997E+01
 -1      2166 1.24130E+01
 -1      2167 1.15525E+01
 -1      2168 5.19364E+00
 -1      2169 6.43979E+00
 -1      2170 2.51768E+00
 -1      2171 2.71018E+00
 -1      2172 1.77438E+00
 -1      2173 1.90632E+00
 -1      2174 1.29735E+00
 -1      2175 1.40698E+00
 -1      2176 1.01378E+00
 -1      2177 2.04242E+00
 -1      2178 1.54309E+00
 -1      2179 2.88030E+00
 -1      2180 2.21254E+00
 -1      2181 7.71708E+00
 -1      2182 4.15759E+00
 -1      2183 1.33997E+01
 -1      2184 9.56432E+00
 -1      2185 1.49040E+01
 -1      2186 1.49040E+01
 -1      2187 9.49048E+00
 -1      2188 1.64083E+01
 -1      2189 9.49048E+00
 -1      2190 1.64083E+01
 -1      2191 1.49040E+01
 -1      2192 1.64083E+01
 -1      2193 1.33997E+01
 -1      2194 1.49040E+01
 -1      2195 7.71708E+00
 -1      2196 9.56432E+00
 -1      2197 2.88030E+00
 -1      2198 4.15759E+00
 -1      2199 2.04242E+00
 -1      2200 2.21254E+00
 -1      2201 1.40698E+00
 -1      2202 1.54309E+00
 -1      2203 1.01378E+00
 -1      2204 1.12173E+00
 -1      2205 7.94479E-01
 -1      2206 1.68007E+00
 -1      2207 1.25871E+00
 -1      2208 2.38421E+00
 -1      2209 1.85174E+00
 -1      2210 4.38053E+00
 -1      2211 2.60715E+00
 -1      2212 1.12479E+01
 -1      2213 6.06414E+00
 -1      2214 1.64083E+01
 -1      2215 1.27522E+01
 -1      2216 1.64083E+01
 -1      2217 1.64083E+01
 -1      2218 1.64083E+01
 -1      2219 1.64083E+01
 -1      2220 1.64083E+01
 -1      2221 1.64083E+01
 -1      2222 1.12479E+01
 -1      2223 1.27522E+01
 -1      2224 4.38053E+00
 -1      2225 6.06414E+00
 -1      2226 2.38421E+00
 -1      2227 2.60715E+00
 -1      2228 1.68007E+00
 -1      2229 1.85174E+00
 -1      2230 1.12173E+00
 -1      2231 1.25871E+00
 -1      2232 7.94479E-01
 -1      2233 8.95722E-01
 -1      2234 6.41772E-01
 -1      2235 1.39421E+00
 -1      2236 1.03122E+00
 -1      2237 2.02163E+00
 -1      2238 1.56410E+00
 -1      2239 2.82273E+00
 -1      2240 2.23721E+00
 -1      2241 7.43220E+00
 -1      2242 4.19080E+00
 -1      2243 1.38402E+01
 -1      2244 8.52015E+00
 -1      2245 1.38402E+01
 -1      2246 1.12720E+01
 -1      2247 1.38402E+01
 -1      2248 1.12720E+01
 -1      2249 1.38402E+01
 -1      2250 1.12720E+01
 -1      2251 7.43220E+00
 -1      2252 8.52015E+00
 -1      2253 2.82273E+00
 -1      2254 4.19080E+00
 -1      2255 2.02163E+00
 -1      2256 2.23721E+00
 -1      2257 1.39421E+00
 -1      2258 1.56410E+00
 -1      2259 8.95722E-01
 -1      2260 1.03122E+00
 -1      2261 6.41772E-01
 -1      2262 7.15050E-01
 -1      2263 5.49839E-01
 -1      2264 1.16338E+00
 -1      2265 8.47210E-01
 -1      2266 1.73009E+00
 -1      2267 1.32936E+00
 -1      2268 2.44377E+00
 -1      2269 1.93664E+00
 -1      2270 4.43662E+00
 -1      2271 2.68959E+00
 -1      2272 9.24339E+00
 -1      2273 5.15986E+00
 -1      2274 9.24339E+00
 -1      2275 7.21477E+00
 -1      2276 9.24339E+00
 -1      2277 7.21477E+00
 -1      2278 9.24339E+00
 -1      2279 7.21477E+00
 -1      2280 4.43662E+00
 -1      2281 5.15986E+00
 -1      2282 2.44377E+00
 -1      2283 2.68959E+00
 -1      2284 1.73009E+00
 -1      2285 1.93664E+00
 -1      2286 1.16338E+00
 -1      2287 1.32936E+00
 -1      2288 7.15050E-01
 -1      2289 8.47210E-01
 -1      2290 5.49839E-01
 -1      2291 5.84375E-01
 -1      2292 4.88285E-01
 -1      2293 9.73975E-01
 -1      2294 7.11140E-01
 -1      2295 1.48971E+00
 -1      2296 1.13432E+00
 -1      2297 2.13282E+00
 -1      2298 1.68589E+00
 -1      2299 2.90675E+00
 -1      2300 2.34998E+00
 -1      2301 5.55181E+00
 -1      2302 3.29870E+00
 -1      2303 5.55181E+00
 -1      2304 3.88884E+00
 -1      2305 5.55181E+00
 -1      2306 3.88884E+00
 -1      2307 5.55181E+00
 -1      2308 3.88884E+00
 -1      2309 2.90675E+00
 -1      2310 3.29870E+00
 -1      2311 2.13282E+00
 -1      2312 2.34998E+00
 -1      2313 1.48971E+00
 -1      2314 1.68589E+00
 -1      2315 9.73975E-01
 -1      2316 1.13432E+00
 -1      2317 5.84375E-01
 -1      2318 7.11140E-01
 -1      2319 4.88285E-01
 -1      2320 4.97190E-01
 -1      2321 4.38592E-01
 -1      2322 8.16779E-01
 -1      2323 6.02829E-01
 -1      2324 1.28747E+00
 -1      2325 9.69929E-01
 -1      2326 1.87035E+00
 -1      2327 1.47193E+00
 -1      2328 2.54076E+00
 -1      2329 2.06113E+00
 -1      2330 3.31667E+00
 -1      2331 2.55873E+00
 -1      2332 3.31667E+00
 -1      2333 2.74450E+00
 -1      2334 3.31667E+00
 -1      2335 2.74450E+00
 -1      2336 3.31667E+00
 -1      2337 2.74450E+00
 -1      2338 2.54076E+00
 -1      2339 2.55873E+00
 -1      2340 1.87035E+00
 -1      2341 2.06113E+00
 -1      2342 1.28747E+00
 -1      2343 1.47193E+00
 -1      2344 8.16779E-01
 -1      2345 9.69929E-01
 -1      2346 4.97190E-01
 -1      2347 6.02829E-01
 -1      2348 4.38592E-01
 -1      2349 4.28473E-01
 -1      2350 3.92266E-01
 -1      2351 6.85296E-01
 -1      2352 5.10940E-01
 -1      2353 1.11456E+00
 -1      2354 8.29926E-01
 -1      2355 1.64345E+00
 -1      2356 1.28608E+00
 -1      2357 2.22591E+00
 -1      2358 1.80824E+00
 -1      2359 2.53434E+00
 -1      2360 2.20152E+00
 -1      2361 2.53434E+00
 -1      2362 2.32419E+00
 -1      2363 2.53434E+00
 -1      2364 2.32419E+00
 -1      2365 2.53434E+00
 -1      2366 2.32419E+00
 -1      2367 2.22591E+00
 -1      2368 2.20152E+00
 -1      2369 1.64345E+00
 -1      2370 1.80824E+00
 -1      2371 1.11456E+00
 -1      2372 1.28608E+00
 -1      2373 6.85296E-01
 -1      2374 8.29926E-01
 -1      2375 4.28473E-01
 -1      2376 5.10940E-01
 -1      2377 3.92266E-01
 -1      2378 3.67909E-01
 -1      2379 3.48460E-01
 -1      2380 5.79707E-01
 -1      2381 4.36676E-01
 -1      2382 9.64255E-01
 -1      2383 7.14036E-01
 -1      2384 1.44337E+00
 -1      2385 1.12155E+00
 -1      2386 1.94791E+00
 -1      2387 1.58305E+00
 -1      2388 2.14516E+00
 -1      2389 1.89155E+00
 -1      2390 2.14516E+00
 -1      2391 1.96613E+00
 -1      2392 2.14516E+00
 -1      2393 1.96613E+00
 -1      2394 2.14516E+00
 -1      2395 1.96613E+00
 -1      2396 1.94791E+00
 -1      2397 1.89155E+00
 -1      2398 1.44337E+00
 -1      2399 1.58305E+00
 -1      2400 9.64255E-01
 -1      2401 1.12155E+00
 -1      2402 5.79707E-01
 -1      2403 7.14036E-01
 -1      2404 3.67909E-01
 -1      2405 4.36676E-01
 -1      2406 3.48460E-01
 -1      2407 3.98606E-01
 -1      2408 5.76987E-01
 -1      2409 8.36585E-01
 -1      2410 1.26898E+00
 -1      2411 1.70210E+00
 -1      2412 1.81402E+00
 -1      2413 1.81402E+00
 -1      2414 1.81402E+00
 -1      2415 1.81402E+00
 -1      2416 1.70210E+00
 -1      2417 1.26898E+00
 -1      2418 8.36585E-01
 -1      2419 5.76987E-01
 -1      2420 3.98606E-01
 -1      2421 2.42899E+00
 -1      2422 2.15821E+00
 -1      2423 1.87262E+00
 -1      2424 1.58696E+00
 -1      2425 1.32637E+00
 -1      2426 1.09312E+00
 -1      2427 8.55587E-01
 -1      2428 8.46022E-01
 -1      2429 1.08436E+00
 -1      2430 1.31856E+00
 -1      2431 1.57863E+00
 -1      2432 1.86486E+00
 -1      2433 2.15085E+00
 -1      2434 2.41702E+00
 -1      2435 1.95050E+00
 -1      2436 1.77849E+00
 -1      2437 1.70510E+00
 -1      2438 1.53932E+00
 -1      2439 1.32637E+00
 -1      2440 1.09312E+00
 -1      2441 8.55587E-01
 -1      2442 8.46022E-01
 -1      2443 1.08436E+00
 -1      2444 1.31856E+00
 -1      2445 1.53262E+00
 -1      2446 1.69971E+00
 -1      2447 1.77476E+00
 -1      2448 1.93830E+00
 -1      2449 1.46305E+00
 -1      2450 1.44849E+00
 -1      2451 1.44849E+00
 -1      2452 1.40629E+00
 -1      2453 1.27117E+00
 -1      2454 1.07798E+00
 -1      2455 8.54303E-01
 -1      2456 8.45425E-01
 -1      2457 1.07015E+00
 -1      2458 1.26460E+00
 -1      2459 1.40117E+00
 -1      2460 1.44495E+00
 -1      2461 1.44495E+00
 -1      2462 1.44805E+00
 -1      2463 1.12847E+00
 -1      2464 1.19097E+00
 -1      2465 1.23982E+00
 -1      2466 1.23982E+00
 -1      2467 1.18247E+00
 -1      2468 1.03904E+00
 -1      2469 8.38856E-01
 -1      2470 8.30760E-01
 -1      2471 1.03221E+00
 -1      2472 1.17708E+00
 -1      2473 1.23586E+00
 -1      2474 1.23586E+00
 -1      2475 1.18817E+00
 -1      2476 1.11638E+00
 -1      2477 8.58532E-01
 -1      2478 9.66315E-01
 -1      2479 1.05974E+00
 -1      2480 1.06482E+00
 -1      2481 1.06482E+00
 -1      2482 9.74578E-01
 -1      2483 8.07268E-01
 -1      2484 8.00115E-01
 -1      2485 9.68812E-01
 -1      2486 1.06040E+00
 -1      2487 1.06040E+00
 -1      2488 1.05630E+00
 -1      2489 9.63245E-01
 -1      2490 8.48062E-01
 -1      2491 6.77950E-01
 -1      2492 7.93138E-01
 -1      2493 8.90456E-01
 -1      2494 9.31928E-01
 -1      2495 9.31928E-01
 -1      2496 8.88753E-01
 -1      2497 7.59897E-01
 -1      2498 7.53799E-01
 -1      2499 8.83958E-01
 -1      2500 9.28062E-01
 -1      2501 9.28062E-01
 -1      2502 8.86833E-01
 -1      2503 7.89126E-01
 -1      2504 6.73285E-01
 -1      2505 5.92969E-01
 -1      2506 6.68380E-01
 -1      2507 7.45571E-01
 -1      2508 7.97212E-01
 -1      2509 7.97212E-01
 -1      2510 7.87754E-01
 -1      2511 6.98204E-01
 -1      2512 6.93210E-01
 -1      2513 7.83705E-01
 -1      2514 7.93385E-01
 -1      2515 7.93385E-01
 -1      2516 7.41216E-01
 -1      2517 6.63141E-01
 -1      2518 5.86923E-01
 -1      2519 5.39907E-01
 -1      2520 5.81193E-01
 -1      2521 6.29196E-01
 -1      2522 6.71509E-01
 -1      2523 6.79430E-01
 -1      2524 6.79430E-01
 -1      2525 6.25186E-01
 -1      2526 6.21258E-01
 -1      2527 6.75799E-01
 -1      2528 6.75799E-01
 -1      2529 6.67252E-01
 -1      2530 6.23789E-01
 -1      2531 5.74670E-01
 -1      2532 5.32600E-01
 -1      2533 5.03789E-01
 -1      2534 5.19746E-01
 -1      2535 5.38834E-01
 -1      2536 5.61046E-01
 -1      2537 5.71463E-01
 -1      2538 5.71463E-01
 -1      2539 5.45016E-01
 -1      2540 5.42020E-01
 -1      2541 5.67885E-01
 -1      2542 5.67885E-01
 -1      2543 5.56009E-01
 -1      2544 5.32238E-01
 -1      2545 5.11987E-01
 -1      2546 4.95346E-01
 -1      2547 4.75457E-01
 -1      2548 4.75457E-01
 -1      2549 4.74431E-01
 -1      2550 4.69221E-01
 -1      2551 4.70000E-01
 -1      2552 4.70000E-01
 -1      2553 4.62424E-01
 -1      2554 4.60154E-01
 -1      2555 4.66146E-01
 -1      2556 4.66146E-01
 -1      2557 4.61781E-01
 -1      2558 4.65524E-01
 -1      2559 4.65993E-01
 -1      2560 4.65993E-01
 -1      2561 4.49685E-01
 -1      2562 4.49685E-01
 -1      2563 4.38421E-01
 -1      2564 4.14816E-01
 -1      2565 3.90929E-01
 -1      2566 3.81949E-01
 -1      2567 3.89052E-01
 -1      2568 3.89052E-01
 -1      2569 3.80155E-01
 -1      2570 3.83834E-01
 -1      2571 4.05864E-01
 -1      2572 4.28469E-01
 -1      2573 4.39315E-01
 -1      2574 4.39315E-01
 -1      2575 4.23789E-01
 -1      2576 4.23789E-01
 -1      2577 4.07279E-01
 -1      2578 3.70964E-01
 -1      2579 3.28208E-01
 -1      2580 3.43646E-01
 -1      2581 3.47150E-01
 -1      2582 3.47150E-01
 -1      2583 3.45269E-01
 -1      2584 3.20047E-01
 -1      2585 3.60955E-01
 -1      2586 3.96406E-01
 -1      2587 4.12649E-01
 -1      2588 4.12649E-01
 -1      2589 3.96623E-01
 -1      2590 3.96623E-01
 -1      2591 3.78439E-01
 -1      2592 3.34328E-01
 -1      2593 2.79817E-01
 -1      2594 3.23338E-01
 -1      2595 3.23338E-01
 -1      2596 3.25601E-01
 -1      2597 3.25601E-01
 -1      2598 2.83189E-01
 -1      2599 3.23397E-01
 -1      2600 3.66799E-01
 -1      2601 3.84884E-01
 -1      2602 3.84884E-01
 -1      2603 3.68393E-01
 -1      2604 3.68393E-01
 -1      2605 3.50645E-01
 -1      2606 3.02353E-01
 -1      2607 2.72479E-01
 -1      2608 3.08282E-01
 -1      2609 3.08282E-01
 -1      2610 3.10240E-01
 -1      2611 3.10240E-01
 -1      2612 2.78756E-01
 -1      2613 2.90672E-01
 -1      2614 3.38439E-01
 -1      2615 3.56286E-01
 -1      2616 3.56286E-01
 -1      2617 2.42899E+00
 -1      2618 3.78615E+00
 -1      2619 2.15821E+00
 -1      2620 2.29360E+00
 -1      2621 1.87262E+00
 -1      2622 2.01542E+00
 -1      2623 1.58696E+00
 -1      2624 1.72979E+00
 -1      2625 1.31936E+00
 -1      2626 1.45667E+00
 -1      2627 1.07329E+00
 -1      2628 1.20975E+00
 -1      2629 8.33992E-01
 -1      2630 9.74356E-01
 -1      2631 8.24152E-01
 -1      2632 8.50805E-01
 -1      2633 1.06412E+00
 -1      2634 9.65189E-01
 -1      2635 1.31097E+00
 -1      2636 1.20146E+00
 -1      2637 1.57863E+00
 -1      2638 1.44859E+00
 -1      2639 1.86486E+00
 -1      2640 1.72175E+00
 -1      2641 2.15085E+00
 -1      2642 2.00786E+00
 -1      2643 2.41702E+00
 -1      2644 2.28394E+00
 -1      2645 3.67098E+00
 -1      2646 2.18974E+00
 -1      2647 2.45049E+00
 -1      2648 1.96835E+00
 -1      2649 1.86449E+00
 -1      2650 1.78886E+00
 -1      2651 1.74179E+00
 -1      2652 1.56314E+00
 -1      2653 1.62221E+00
 -1      2654 1.32637E+00
 -1      2655 1.43285E+00
 -1      2656 1.09312E+00
 -1      2657 1.20975E+00
 -1      2658 8.55587E-01
 -1      2659 9.74356E-01
 -1      2660 8.46022E-01
 -1      2661 8.50805E-01
 -1      2662 1.08436E+00
 -1      2663 9.65189E-01
 -1      2664 1.31856E+00
 -1      2665 1.20146E+00
 -1      2666 1.55562E+00
 -1      2667 1.42559E+00
 -1      2668 1.78229E+00
 -1      2669 1.61617E+00
 -1      2670 1.96281E+00
 -1      2671 1.73724E+00
 -1      2672 2.17766E+00
 -1      2673 1.85653E+00
 -1      2674 2.43040E+00
 -1      2675 1.70677E+00
 -1      2676 1.87270E+00
 -1      2677 1.61349E+00
 -1      2678 1.45577E+00
 -1      2679 1.57680E+00
 -1      2680 1.44849E+00
 -1      2681 1.47281E+00
 -1      2682 1.42739E+00
 -1      2683 1.29877E+00
 -1      2684 1.33873E+00
 -1      2685 1.08555E+00
 -1      2686 1.17457E+00
 -1      2687 8.54945E-01
 -1      2688 9.66141E-01
 -1      2689 8.45723E-01
 -1      2690 8.49864E-01
 -1      2691 1.07725E+00
 -1      2692 9.57785E-01
 -1      2693 1.29158E+00
 -1      2694 1.16737E+00
 -1      2695 1.46690E+00
 -1      2696 1.33288E+00
 -1      2697 1.57233E+00
 -1      2698 1.42306E+00
 -1      2699 1.60985E+00
 -1      2700 1.44495E+00
 -1      2701 1.69317E+00
 -1      2702 1.44650E+00
 -1      2703 1.85531E+00
 -1      2704 1.29576E+00
 -1      2705 1.44164E+00
 -1      2706 1.31973E+00
 -1      2707 1.15972E+00
 -1      2708 1.34416E+00
 -1      2709 1.21539E+00
 -1      2710 1.32305E+00
 -1      2711 1.23982E+00
 -1      2712 1.22682E+00
 -1      2713 1.21114E+00
 -1      2714 1.05851E+00
 -1      2715 1.11075E+00
 -1      2716 8.46579E-01
 -1      2717 9.38947E-01
 -1      2718 8.38092E-01
 -1      2719 8.34808E-01
 -1      2720 1.05118E+00
 -1      2721 9.31486E-01
 -1      2722 1.22084E+00
 -1      2723 1.10465E+00
 -1      2724 1.31852E+00
 -1      2725 1.20647E+00
 -1      2726 1.34041E+00
 -1      2727 1.23586E+00
 -1      2728 1.31656E+00
 -1      2729 1.21202E+00
 -1      2730 1.28221E+00
 -1      2731 1.15228E+00
 -1      2732 1.42784E+00
 -1      2733 9.93503E-01
 -1      2734 1.10168E+00
 -1      2735 1.07864E+00
 -1      2736 9.12423E-01
 -1      2737 1.14978E+00
 -1      2738 1.01303E+00
 -1      2739 1.15232E+00
 -1      2740 1.06228E+00
 -1      2741 1.12364E+00
 -1      2742 1.06482E+00
 -1      2743 1.00681E+00
 -1      2744 1.01970E+00
 -1      2745 8.23062E-01
 -1      2746 8.90923E-01
 -1      2747 8.15437E-01
 -1      2748 8.03691E-01
 -1      2749 1.00051E+00
 -1      2750 8.84463E-01
 -1      2751 1.11874E+00
 -1      2752 1.01461E+00
 -1      2753 1.14813E+00
 -1      2754 1.06040E+00
 -1      2755 1.14608E+00
 -1      2756 1.05835E+00
 -1      2757 1.07571E+00
 -1      2758 1.00977E+00
 -1      2759 9.82222E-01
 -1      2760 9.05654E-01
 -1      2761 1.08993E+00
 -1      2762 7.68241E-01
 -1      2763 8.53023E-01
 -1      2764 8.79726E-01
 -1      2765 7.35544E-01
 -1      2766 9.75097E-01
 -1      2767 8.41797E-01
 -1      2768 9.98372E-01
 -1      2769 9.11192E-01
 -1      2770 9.98372E-01
 -1      2771 9.31928E-01
 -1      2772 9.31665E-01
 -1      2773 9.10340E-01
 -1      2774 7.83583E-01
 -1      2775 8.24325E-01
 -1      2776 7.76957E-01
 -1      2777 7.56848E-01
 -1      2778 9.26385E-01
 -1      2779 8.18879E-01
 -1      2780 9.94232E-01
 -1      2781 9.06010E-01
 -1      2782 9.94232E-01
 -1      2783 9.28062E-01
 -1      2784 9.71568E-01
 -1      2785 9.07448E-01
 -1      2786 8.76186E-01
 -1      2787 8.37980E-01
 -1      2788 7.60674E-01
 -1      2789 7.31206E-01
 -1      2790 8.45025E-01
 -1      2791 6.35459E-01
 -1      2792 6.86573E-01
 -1      2793 7.30759E-01
 -1      2794 6.30675E-01
 -1      2795 8.18013E-01
 -1      2796 7.06975E-01
 -1      2797 8.64570E-01
 -1      2798 7.71391E-01
 -1      2799 8.64570E-01
 -1      2800 7.97212E-01
 -1      2801 8.38253E-01
 -1      2802 7.92483E-01
 -1      2803 7.29050E-01
 -1      2804 7.42979E-01
 -1      2805 7.23504E-01
 -1      2806 6.95707E-01
 -1      2807 8.33832E-01
 -1      2808 7.38458E-01
 -1      2809 8.60723E-01
 -1      2810 7.88545E-01
 -1      2811 8.60723E-01
 -1      2812 7.93385E-01
 -1      2813 8.14025E-01
 -1      2814 7.67300E-01
 -1      2815 7.26134E-01
 -1      2816 7.02178E-01
 -1      2817 6.30104E-01
 -1      2818 6.25032E-01
 -1      2819 6.78544E-01
 -1      2820 5.66438E-01
 -1      2821 5.66387E-01
 -1      2822 6.24787E-01
 -1      2823 5.60550E-01
 -1      2824 6.87383E-01
 -1      2825 6.05195E-01
 -1      2826 7.34360E-01
 -1      2827 6.50353E-01
 -1      2828 7.38321E-01
 -1      2829 6.75470E-01
 -1      2830 7.33592E-01
 -1      2831 6.79430E-01
 -1      2832 6.61695E-01
 -1      2833 6.52308E-01
 -1      2834 6.57234E-01
 -1      2835 6.23222E-01
 -1      2836 7.29752E-01
 -1      2837 6.48528E-01
 -1      2838 7.34592E-01
 -1      2839 6.75799E-01
 -1      2840 7.30318E-01
 -1      2841 6.71525E-01
 -1      2842 6.82502E-01
 -1      2843 6.45520E-01
 -1      2844 6.18905E-01
 -1      2845 5.99229E-01
 -1      2846 5.59761E-01
 -1      2847 5.53635E-01
 -1      2848 5.58411E-01
 -1      2849 5.21848E-01
 -1      2850 4.95991E-01
 -1      2851 5.50470E-01
 -1      2852 5.11768E-01
 -1      2853 5.84015E-01
 -1      2854 5.29290E-01
 -1      2855 6.16277E-01
 -1      2856 5.49940E-01
 -1      2857 6.25447E-01
 -1      2858 5.66254E-01
 -1      2859 6.25447E-01
 -1      2860 5.71463E-01
 -1      2861 5.85101E-01
 -1      2862 5.58239E-01
 -1      2863 5.81639E-01
 -1      2864 5.43518E-01
 -1      2865 6.21842E-01
 -1      2866 5.54953E-01
 -1      2867 6.21842E-01
 -1      2868 5.67885E-01
 -1      2869 6.11630E-01
 -1      2870 5.61947E-01
 -1      2871 5.78014E-01
 -1      2872 5.44124E-01
 -1      2873 5.43328E-01
 -1      2874 5.22113E-01
 -1      2875 5.13973E-01
 -1      2876 5.03666E-01
 -1      2877 4.87563E-01
 -1      2878 4.89623E-01
 -1      2879 4.70194E-01
 -1      2880 4.97602E-01
 -1      2881 4.75457E-01
 -1      2882 5.06633E-01
 -1      2883 4.74944E-01
 -1      2884 5.15133E-01
 -1      2885 4.71826E-01
 -1      2886 5.20732E-01
 -1      2887 4.69610E-01
 -1      2888 5.20732E-01
 -1      2889 4.70000E-01
 -1      2890 5.03720E-01
 -1      2891 4.66212E-01
 -1      2892 5.01087E-01
 -1      2893 4.61289E-01
 -1      2894 5.17016E-01
 -1      2895 4.63150E-01
 -1      2896 5.17016E-01
 -1      2897 4.66146E-01
 -1      2898 5.08895E-01
 -1      2899 4.63964E-01
 -1      2900 4.98881E-01
 -1      2901 4.63652E-01
 -1      2902 4.88990E-01
 -1      2903 4.65758E-01
 -1      2904 4.80669E-01
 -1      2905 4.65993E-01
 -1      2906 4.60642E-01
 -1      2907 4.62571E-01
 -1      2908 4.46126E-01
 -1      2909 4.62571E-01
 -1      2910 4.49685E-01
 -1      2911 4.56426E-01
 -1      2912 4.44053E-01
 -1      2913 4.42018E-01
 -1      2914 4.26619E-01
 -1      2915 4.30465E-01
 -1      2916 4.02873E-01
 -1      2917 4.25975E-01
 -1      2918 3.86439E-01
 -1      2919 4.25738E-01
 -1      2920 3.85501E-01
 -1      2921 4.24603E-01
 -1      2922 3.89052E-01
 -1      2923 4.23151E-01
 -1      2924 3.84604E-01
 -1      2925 4.24990E-01
 -1      2926 3.81995E-01
 -1      2927 4.33822E-01
 -1      2928 3.94849E-01
 -1      2929 4.46996E-01
 -1      2930 4.17166E-01
 -1      2931 4.52654E-01
 -1      2932 4.33892E-01
 -1      2933 4.52654E-01
 -1      2934 4.39315E-01
 -1      2935 4.35734E-01
 -1      2936 4.36737E-01
 -1      2937 4.20298E-01
 -1      2938 4.36737E-01
 -1      2939 4.23789E-01
 -1      2940 4.22850E-01
 -1      2941 4.15534E-01
 -1      2942 3.92890E-01
 -1      2943 3.89121E-01
 -1      2944 3.59569E-01
 -1      2945 3.49586E-01
 -1      2946 3.62798E-01
 -1      2947 3.35927E-01
 -1      2948 3.68101E-01
 -1      2949 3.45398E-01
 -1      2950 3.68101E-01
 -1      2951 3.47150E-01
 -1      2952 3.62712E-01
 -1      2953 3.46210E-01
 -1      2954 3.51941E-01
 -1      2955 3.32658E-01
 -1      2956 3.83409E-01
 -1      2957 3.40501E-01
 -1      2958 4.12437E-01
 -1      2959 3.78680E-01
 -1      2960 4.25982E-01
 -1      2961 4.04527E-01
 -1      2962 4.25982E-01
 -1      2963 4.12649E-01
 -1      2964 4.09208E-01
 -1      2965 4.10206E-01
 -1      2966 3.92293E-01
 -1      2967 4.10206E-01
 -1      2968 3.96623E-01
 -1      2969 3.92859E-01
 -1      2970 3.87531E-01
 -1      2971 3.52646E-01
 -1      2972 3.56383E-01
 -1      2973 3.04012E-01
 -1      2974 3.07072E-01
 -1      2975 3.33492E-01
 -1      2976 3.01577E-01
 -1      2977 3.35244E-01
 -1      2978 3.23338E-01
 -1      2979 3.36376E-01
 -1      2980 3.24470E-01
 -1      2981 3.35435E-01
 -1      2982 3.25601E-01
 -1      2983 3.01618E-01
 -1      2984 3.04395E-01
 -1      2985 3.42176E-01
 -1      2986 3.03293E-01
 -1      2987 3.81602E-01
 -1      2988 3.45098E-01
 -1      2989 3.98767E-01
 -1      2990 3.75842E-01
 -1      2991 3.98767E-01
 -1      2992 3.84884E-01
 -1      2993 3.80691E-01
 -1      2994 3.82508E-01
 -1      2995 3.63031E-01
 -1      2996 3.82508E-01
 -1      2997 3.68393E-01
 -1      2998 3.64542E-01
 -1      2999 3.59519E-01
 -1      3000 3.18340E-01
 -1      3001 3.26499E-01
 -1      3002 2.76148E-01
 -1      3003 2.87416E-01
 -1      3004 3.15810E-01
 -1      3005 2.90381E-01
 -1      3006 3.15810E-01
 -1      3007 3.08282E-01
 -1      3008 3.17921E-01
 -1      3009 3.09261E-01
 -1      3010 3.17921E-01
 -1      3011 3.10240E-01
 -1      3012 2.80972E-01
 -1      3013 2.94498E-01
 -1      3014 3.07035E-01
 -1      3015 2.84714E-01
 -1      3016 3.52619E-01
 -1      3017 3.14556E-01
 -1      3018 3.70585E-01
 -1      3019 3.47362E-01
 -1      3020 3.70585E-01
 -1      3021 3.56286E-01
 -1      3022 3.51161E-01
 -1      3023 3.53233E-01
 -1      3024 3.53233E-01
 -1      3025 3.36330E-01
 -1      3026 2.97702E-01
 -1      3027 3.25646E-01
 -1      3028 3.43547E-01
 -1      3029 3.41715E-01
 -1      3030 3.43522E-01
 -1      3031 3.47990E-01
 -1      3032 3.32248E-01
 -1      3033 2.97774E-01
 -1      3034 3.23979E-01
 -1      3035 3.41094E-01
 -1      3036 3.41094E-01
 -1      3037 2.13162E+01
 -1      3038 3.94631E+01
 -1      3039 3.94631E+01
 -1      3040 1.62949E+01
 -1      3041 6.85339E+00
 -1      3042 2.75429E+00
 -1      3043 2.03233E+00
 -1      3044 2.03233E+00
 -1      3045 2.75429E+00
 -1      3046 6.85339E+00
 -1      3047 1.62949E+01
 -1      3048 3.94631E+01
 -1      3049 3.94631E+01
 -1      3050 2.13162E+01
 -1      3051 1.15001E+01
 -1      3052 2.39222E+01
 -1      3053 2.39222E+01
 -1      3054 2.14930E+01
 -1      3055 5.03548E+00
 -1      3056 2.75429E+00
 -1      3057 2.08478E+00
 -1      3058 2.08478E+00
 -1      3059 2.75429E+00
 -1      3060 5.03548E+00
 -1      3061 2.14930E+01
 -1      3062 2.39222E+01
 -1      3063 2.39222E+01
 -1      3064 1.15001E+01
 -1      3065 4.38852E+00
 -1      3066 1.21992E+01
 -1      3067 2.14930E+01
 -1      3068 2.14930E+01
 -1      3069 2.54142E+00
 -1      3070 2.53177E+00
 -1      3071 2.08478E+00
 -1      3072 2.08478E+00
 -1      3073 2.53177E+00
 -1      3074 2.54142E+00
 -1      3075 2.14930E+01
 -1      3076 2.14930E+01
 -1      3077 1.21992E+01
 -1      3078 4.38852E+00
 -1      3079 2.52845E+00
 -1      3080 5.56853E+00
 -1      3081 1.28717E+01
 -1      3082 1.49640E+01
 -1      3083 1.49640E+01
 -1      3084 2.02474E+00
 -1      3085 1.99183E+00
 -1      3086 1.99183E+00
 -1      3087 2.02474E+00
 -1      3088 1.49640E+01
 -1      3089 1.49640E+01
 -1      3090 1.28717E+01
 -1      3091 5.56853E+00
 -1      3092 2.52845E+00
 -1      3093 1.96772E+00
 -1      3094 2.77255E+00
 -1      3095 7.09652E+00
 -1      3096 1.49640E+01
 -1      3097 1.49640E+01
 -1      3098 1.91814E+00
 -1      3099 1.95161E+00
 -1      3100 1.95161E+00
 -1      3101 1.91814E+00
 -1      3102 1.49640E+01
 -1      3103 1.49640E+01
 -1      3104 7.09652E+00
 -1      3105 2.77255E+00
 -1      3106 1.96772E+00
 -1      3107 1.55412E+00
 -1      3108 2.23177E+00
 -1      3109 3.09569E+00
 -1      3110 9.57471E+00
 -1      3111 1.32398E+01
 -1      3112 1.32398E+01
 -1      3113 2.62984E+00
 -1      3114 2.62984E+00
 -1      3115 1.32398E+01
 -1      3116 1.32398E+01
 -1      3117 9.57471E+00
 -1      3118 3.09569E+00
 -1      3119 2.23177E+00
 -1      3120 1.55412E+00
 -1      3121 1.23635E+00
 -1      3122 1.82631E+00
 -1      3123 2.57132E+00
 -1      3124 5.61911E+00
 -1      3125 1.32398E+01
 -1      3126 1.62325E+01
 -1      3127 1.62325E+01
 -1      3128 1.62325E+01
 -1      3129 1.62325E+01
 -1      3130 1.32398E+01
 -1      3131 5.61911E+00
 -1      3132 2.57132E+00
 -1      3133 1.82631E+00
 -1      3134 1.23635E+00
 -1      3135 9.86237E-01
 -1      3136 1.51022E+00
 -1      3137 2.16903E+00
 -1      3138 3.01550E+00
 -1      3139 8.96604E+00
 -1      3140 1.62325E+01
 -1      3141 1.62325E+01
 -1      3142 1.62325E+01
 -1      3143 1.62325E+01
 -1      3144 8.96604E+00
 -1      3145 3.01550E+00
 -1      3146 2.16903E+00
 -1      3147 1.51022E+00
 -1      3148 9.86237E-01
 -1      3149 7.86505E-01
 -1      3150 1.25709E+00
 -1      3151 1.84947E+00
 -1      3152 2.59885E+00
 -1      3153 5.66060E+00
 -1      3154 1.11452E+01
 -1      3155 1.11452E+01
 -1      3156 1.11452E+01
 -1      3157 1.11452E+01
 -1      3158 5.66060E+00
 -1      3159 2.59885E+00
 -1      3160 1.84947E+00
 -1      3161 1.25709E+00
 -1      3162 7.86505E-01
 -1      3163 6.26163E-01
 -1      3164 1.05065E+00
 -1      3165 1.58859E+00
 -1      3166 2.26153E+00
 -1      3167 3.08471E+00
 -1      3168 7.11981E+00
 -1      3169 7.11981E+00
 -1      3170 7.11981E+00
 -1      3171 7.11981E+00
 -1      3172 3.08471E+00
 -1      3173 2.26153E+00
 -1      3174 1.58859E+00
 -1      3175 1.05065E+00
 -1      3176 6.26163E-01
 -1      3177 5.25713E-01
 -1      3178 8.80096E-01
 -1      3179 1.37092E+00
 -1      3180 1.98015E+00
 -1      3181 2.69496E+00
 -1      3182 3.81631E+00
 -1      3183 3.81631E+00
 -1      3184 3.81631E+00
 -1      3185 3.81631E+00
 -1      3186 2.69496E+00
 -1      3187 1.98015E+00
 -1      3188 1.37092E+00
 -1      3189 8.80096E-01
 -1      3190 5.25713E-01
 -1      3191 4.51625E-01
 -1      3192 7.37824E-01
 -1      3193 1.18600E+00
 -1      3194 1.73924E+00
 -1      3195 2.36139E+00
 -1      3196 2.73454E+00
 -1      3197 2.73454E+00
 -1      3198 2.73454E+00
 -1      3199 2.73454E+00
 -1      3200 2.36139E+00
 -1      3201 1.73924E+00
 -1      3202 1.18600E+00
 -1      3203 7.37824E-01
 -1      3204 4.51625E-01
 -1      3205 3.87833E-01
 -1      3206 6.18457E-01
 -1      3207 1.02671E+00
 -1      3208 1.52861E+00
 -1      3209 2.06895E+00
 -1      3210 2.31644E+00
 -1      3211 2.31644E+00
 -1      3212 2.31644E+00
 -1      3213 2.31644E+00
 -1      3214 2.06895E+00
 -1      3215 1.52861E+00
 -1      3216 1.02671E+00
 -1      3217 6.18457E-01
 -1      3218 3.87833E-01
 -1      3219 3.30505E-01
 -1      3220 5.25845E-01
 -1      3221 8.86770E-01
 -1      3222 1.34102E+00
 -1      3223 1.80847E+00
 -1      3224 1.96009E+00
 -1      3225 1.96009E+00
 -1      3226 1.96009E+00
 -1      3227 1.96009E+00
 -1      3228 1.80847E+00
 -1      3229 1.34102E+00
 -1      3230 8.86770E-01
 -1      3231 5.25845E-01
 -1      3232 3.30505E-01
 -1      3233 2.13162E+01
 -1      3234 1.31206E+01
 -1      3235 3.94631E+01
 -1      3236 3.03897E+01
 -1      3237 3.94631E+01
 -1      3238 3.94631E+01
 -1      3239 1.62949E+01
 -1      3240 2.78790E+01
 -1      3241 6.85339E+00
 -1      3242 1.15741E+01
 -1      3243 2.69396E+00
 -1      3244 4.80384E+00
 -1      3245 1.93787E+00
 -1      3246 2.39331E+00
 -1      3247 1.93787E+00
 -1      3248 2.03233E+00
 -1      3249 2.69396E+00
 -1      3250 2.39331E+00
 -1      3251 6.85339E+00
 -1      3252 4.80384E+00
 -1      3253 1.62949E+01
 -1      3254 1.15741E+01
 -1      3255 3.94631E+01
 -1      3256 2.78790E+01
 -1      3257 3.94631E+01
 -1      3258 3.94631E+01
 -1      3259 2.13162E+01
 -1      3260 3.03897E+01
 -1      3261 1.31206E+01
 -1      3262 1.64082E+01
 -1      3263 7.21132E+00
 -1      3264 3.16927E+01
 -1      3265 1.77112E+01
 -1      3266 3.16927E+01
 -1      3267 2.39222E+01
 -1      3268 1.88939E+01
 -1      3269 2.27076E+01
 -1      3270 5.94443E+00
 -1      3271 1.32643E+01
 -1      3272 2.75429E+00
 -1      3273 3.89489E+00
 -1      3274 2.05855E+00
 -1      3275 2.41954E+00
 -1      3276 2.05855E+00
 -1      3277 2.08478E+00
 -1      3278 2.75429E+00
 -1      3279 2.41954E+00
 -1      3280 5.94443E+00
 -1      3281 3.89489E+00
 -1      3282 1.88939E+01
 -1      3283 1.32643E+01
 -1      3284 3.16927E+01
 -1      3285 2.27076E+01
 -1      3286 3.16927E+01
 -1      3287 2.39222E+01
 -1      3288 1.64082E+01
 -1      3289 1.77112E+01
 -1      3290 7.21132E+00
 -1      3291 7.94433E+00
 -1      3292 3.32555E+00
 -1      3293 1.80607E+01
 -1      3294 8.29388E+00
 -1      3295 2.27076E+01
 -1      3296 1.68461E+01
 -1      3297 2.14930E+01
 -1      3298 2.14930E+01
 -1      3299 3.78845E+00
 -1      3300 1.20172E+01
 -1      3301 2.64303E+00
 -1      3302 2.53660E+00
 -1      3303 2.08478E+00
 -1      3304 2.30827E+00
 -1      3305 2.08478E+00
 -1      3306 2.08478E+00
 -1      3307 2.64303E+00
 -1      3308 2.30827E+00
 -1      3309 3.78845E+00
 -1      3310 2.53660E+00
 -1      3311 2.14930E+01
 -1      3312 1.20172E+01
 -1      3313 2.27076E+01
 -1      3314 2.14930E+01
 -1      3315 1.80607E+01
 -1      3316 1.68461E+01
 -1      3317 7.94433E+00
 -1      3318 8.29388E+00
 -1      3319 3.32555E+00
 -1      3320 3.45848E+00
 -1      3321 2.13387E+00
 -1      3322 8.88389E+00
 -1      3323 4.04849E+00
 -1      3324 1.71824E+01
 -1      3325 9.22012E+00
 -1      3326 1.82285E+01
 -1      3327 1.39178E+01
 -1      3328 8.75270E+00
 -1      3329 1.49640E+01
 -1      3330 2.27825E+00
 -1      3331 8.49436E+00
 -1      3332 2.03831E+00
 -1      3333 2.00829E+00
 -1      3334 2.03831E+00
 -1      3335 1.99183E+00
 -1      3336 2.27825E+00
 -1      3337 2.00829E+00
 -1      3338 8.75270E+00
 -1      3339 8.49436E+00
 -1      3340 1.82285E+01
 -1      3341 1.49640E+01
 -1      3342 1.71824E+01
 -1      3343 1.39178E+01
 -1      3344 8.88389E+00
 -1      3345 9.22012E+00
 -1      3346 3.45848E+00
 -1      3347 4.04849E+00
 -1      3348 2.13387E+00
 -1      3349 2.24809E+00
 -1      3350 1.64976E+00
 -1      3351 4.17054E+00
 -1      3352 2.37014E+00
 -1      3353 9.98411E+00
 -1      3354 4.93453E+00
 -1      3355 1.49640E+01
 -1      3356 1.10302E+01
 -1      3357 1.49640E+01
 -1      3358 1.49640E+01
 -1      3359 1.97144E+00
 -1      3360 8.44106E+00
 -1      3361 1.97172E+00
 -1      3362 1.93488E+00
 -1      3363 1.97172E+00
 -1      3364 1.95161E+00
 -1      3365 1.97144E+00
 -1      3366 1.93488E+00
 -1      3367 1.49640E+01
 -1      3368 8.44106E+00
 -1      3369 1.49640E+01
 -1      3370 1.49640E+01
 -1      3371 9.98411E+00
 -1      3372 1.10302E+01
 -1      3373 4.17054E+00
 -1      3374 4.93453E+00
 -1      3375 2.24809E+00
 -1      3376 2.37014E+00
 -1      3377 1.64976E+00
 -1      3378 1.76092E+00
 -1      3379 1.28544E+00
 -1      3380 2.50216E+00
 -1      3381 1.89295E+00
 -1      3382 5.09611E+00
 -1      3383 2.66373E+00
 -1      3384 1.22693E+01
 -1      3385 6.33520E+00
 -1      3386 1.41019E+01
 -1      3387 1.14073E+01
 -1      3388 7.57897E+00
 -1      3389 1.32398E+01
 -1      3390 2.29072E+00
 -1      3391 7.93481E+00
 -1      3392 2.29072E+00
 -1      3393 2.62984E+00
 -1      3394 7.57897E+00
 -1      3395 7.93481E+00
 -1      3396 1.41019E+01
 -1      3397 1.32398E+01
 -1      3398 1.22693E+01
 -1      3399 1.14073E+01
 -1      3400 5.09611E+00
 -1      3401 6.33520E+00
 -1      3402 2.50216E+00
 -1      3403 2.66373E+00
 -1      3404 1.76092E+00
 -1      3405 1.89295E+00
 -1      3406 1.28544E+00
 -1      3407 1.39523E+00
 -1      3408 1.00326E+00
 -1      3409 2.02904E+00
 -1      3410 1.53133E+00
 -1      3411 2.83351E+00
 -1      3412 2.19882E+00
 -1      3413 7.59691E+00
 -1      3414 4.09522E+00
 -1      3415 1.32398E+01
 -1      3416 9.42945E+00
 -1      3417 1.47361E+01
 -1      3418 1.47361E+01
 -1      3419 9.43115E+00
 -1      3420 1.62325E+01
 -1      3421 9.43115E+00
 -1      3422 1.62325E+01
 -1      3423 1.47361E+01
 -1      3424 1.62325E+01
 -1      3425 1.32398E+01
 -1      3426 1.47361E+01
 -1      3427 7.59691E+00
 -1      3428 9.42945E+00
 -1      3429 2.83351E+00
 -1      3430 4.09522E+00
 -1      3431 2.02904E+00
 -1      3432 2.19882E+00
 -1      3433 1.39523E+00
 -1      3434 1.53133E+00
 -1      3435 1.00326E+00
 -1      3436 1.11129E+00
 -1      3437 7.85229E-01
 -1      3438 1.66826E+00
 -1      3439 1.24823E+00
 -1      3440 2.37018E+00
 -1      3441 1.83962E+00
 -1      3442 4.31730E+00
 -1      3443 2.59226E+00
 -1      3444 1.11029E+01
 -1      3445 5.99077E+00
 -1      3446 1.62325E+01
 -1      3447 1.25993E+01
 -1      3448 1.62325E+01
 -1      3449 1.62325E+01
 -1      3450 1.62325E+01
 -1      3451 1.62325E+01
 -1      3452 1.62325E+01
 -1      3453 1.62325E+01
 -1      3454 1.11029E+01
 -1      3455 1.25993E+01
 -1      3456 4.31730E+00
 -1      3457 5.99077E+00
 -1      3458 2.37018E+00
 -1      3459 2.59226E+00
 -1      3460 1.66826E+00
 -1      3461 1.83962E+00
 -1      3462 1.11129E+00
 -1      3463 1.24823E+00
 -1      3464 7.85229E-01
 -1      3465 8.86371E-01
 -1      3466 6.33143E-01
 -1      3467 1.38365E+00
 -1      3468 1.02180E+00
 -1      3469 2.00925E+00
 -1      3470 1.55328E+00
 -1      3471 2.80717E+00
 -1      3472 2.22416E+00
 -1      3473 7.31332E+00
 -1      3474 4.12972E+00
 -1      3475 1.36888E+01
 -1      3476 8.40291E+00
 -1      3477 1.36888E+01
 -1      3478 1.11452E+01
 -1      3479 1.36888E+01
 -1      3480 1.11452E+01
 -1      3481 1.36888E+01
 -1      3482 1.11452E+01
 -1      3483 7.31332E+00
 -1      3484 8.40291E+00
 -1      3485 2.80717E+00
 -1      3486 4.12972E+00
 -1      3487 2.00925E+00
 -1      3488 2.22416E+00
 -1      3489 1.38365E+00
 -1      3490 1.55328E+00
 -1      3491 8.86371E-01
 -1      3492 1.02180E+00
 -1      3493 6.33143E-01
 -1      3494 7.06334E-01
 -1      3495 5.40727E-01
 -1      3496 1.15387E+00
 -1      3497 8.38405E-01
 -1      3498 1.71903E+00
 -1      3499 1.31962E+00
 -1      3500 2.43019E+00
 -1      3501 1.92506E+00
 -1      3502 4.37265E+00
 -1      3503 2.67312E+00
 -1      3504 9.13251E+00
 -1      3505 5.10226E+00
 -1      3506 9.13251E+00
 -1      3507 7.11981E+00
 -1      3508 9.13251E+00
 -1      3509 7.11981E+00
 -1      3510 9.13251E+00
 -1      3511 7.11981E+00
 -1      3512 4.37265E+00
 -1      3513 5.10226E+00
 -1      3514 2.43019E+00
 -1      3515 2.67312E+00
 -1      3516 1.71903E+00
 -1      3517 1.92506E+00
 -1      3518 1.15387E+00
 -1      3519 1.31962E+00
 -1      3520 7.06334E-01
 -1      3521 8.38405E-01
 -1      3522 5.40727E-01
 -1      3523 5.75938E-01
 -1      3524 4.78933E-01
 -1      3525 9.65372E-01
 -1      3526 7.02904E-01
 -1      3527 1.47976E+00
 -1      3528 1.12551E+00
 -1      3529 2.12084E+00
 -1      3530 1.67554E+00
 -1      3531 2.88984E+00
 -1      3532 2.33756E+00
 -1      3533 5.46806E+00
 -1      3534 3.25564E+00
 -1      3535 5.46806E+00
 -1      3536 3.81631E+00
 -1      3537 5.46806E+00
 -1      3538 3.81631E+00
 -1      3539 5.46806E+00
 -1      3540 3.81631E+00
 -1      3541 2.88984E+00
 -1      3542 3.25564E+00
 -1      3543 2.12084E+00
 -1      3544 2.33756E+00
 -1      3545 1.47976E+00
 -1      3546 1.67554E+00
 -1      3547 9.65372E-01
 -1      3548 1.12551E+00
 -1      3549 5.75938E-01
 -1      3550 7.02904E-01
 -1      3551 4.78933E-01
 -1      3552 4.88669E-01
 -1      3553 4.28696E-01
 -1      3554 8.08960E-01
 -1      3555 5.94725E-01
 -1      3556 1.27846E+00
 -1      3557 9.61912E-01
 -1      3558 1.85970E+00
 -1      3559 1.46262E+00
 -1      3560 2.52818E+00
 -1      3561 2.05031E+00
 -1      3562 3.27543E+00
 -1      3563 2.54797E+00
 -1      3564 3.27543E+00
 -1      3565 2.73454E+00
 -1      3566 3.27543E+00
 -1      3567 2.73454E+00
 -1      3568 3.27543E+00
 -1      3569 2.73454E+00
 -1      3570 2.52818E+00
 -1      3571 2.54797E+00
 -1      3572 1.85970E+00
 -1      3573 2.05031E+00
 -1      3574 1.27846E+00
 -1      3575 1.46262E+00
 -1      3576 8.08960E-01
 -1      3577 9.61912E-01
 -1      3578 4.88669E-01
 -1      3579 5.94725E-01
 -1      3580 4.28696E-01
 -1      3581 4.19729E-01
 -1      3582 3.82165E-01
 -1      3583 6.78141E-01
 -1      3584 5.03145E-01
 -1      3585 1.10636E+00
 -1      3586 8.22585E-01
 -1      3587 1.63393E+00
 -1      3588 1.27766E+00
 -1      3589 2.21517E+00
 -1      3590 1.79878E+00
 -1      3591 2.52549E+00
 -1      3592 2.19269E+00
 -1      3593 2.52549E+00
 -1      3594 2.31644E+00
 -1      3595 2.52549E+00
 -1      3596 2.31644E+00
 -1      3597 2.52549E+00
 -1      3598 2.31644E+00
 -1      3599 2.21517E+00
 -1      3600 2.19269E+00
 -1      3601 1.63393E+00
 -1      3602 1.79878E+00
 -1      3603 1.10636E+00
 -1      3604 1.27766E+00
 -1      3605 6.78141E-01
 -1      3606 8.22585E-01
 -1      3607 4.19729E-01
 -1      3608 5.03145E-01
 -1      3609 3.82165E-01
 -1      3610 3.59169E-01
 -1      3611 3.38270E-01
 -1      3612 5.72151E-01
 -1      3613 4.28175E-01
 -1      3614 9.56741E-01
 -1      3615 7.06307E-01
 -1      3616 1.43482E+00
 -1      3617 1.11390E+00
 -1      3618 1.93871E+00
 -1      3619 1.57475E+00
 -1      3620 2.13826E+00
 -1      3621 1.88428E+00
 -1      3622 2.13826E+00
 -1      3623 1.96009E+00
 -1      3624 2.13826E+00
 -1      3625 1.96009E+00
 -1      3626 2.13826E+00
 -1      3627 1.96009E+00
 -1      3628 1.93871E+00
 -1      3629 1.88428E+00
 -1      3630 1.43482E+00
 -1      3631 1.57475E+00
 -1      3632 9.56741E-01
 -1      3633 1.11390E+00
 -1      3634 5.72151E-01
 -1      3635 7.06307E-01
 -1      3636 3.59169E-01
 -1      3637 4.28175E-01
 -1      3638 3.38270E-01
 -1      3639 3.86156E-01
 -1      3640 5.64989E-01
 -1      3641 8.29615E-01
 -1      3642 1.26124E+00
 -1      3643 1.69419E+00
 -1      3644 1.80866E+00
 -1      3645 1.80866E+00
 -1      3646 1.80866E+00
 -1      3647 1.80866E+00
 -1      3648 1.69419E+00
 -1      3649 1.26124E+00
 -1      3650 8.29615E-01
 -1      3651 5.64989E-01
 -1      3652 3.86156E-01
 -1      3653 6.38029E+00
 -1      3654 1.36794E+00
 -1      3655 5.73400E-01
 -1      3656 4.66413E-01
 -1      3657 3.43437E-01
 -1      3658 2.79935E-01
 -1      3659 2.33901E-01
 -1      3660 2.01629E-01
 -1      3661 1.77286E-01
 -1      3662 1.58329E-01
 -1      3663 1.42989E-01
 -1      3664 1.30367E-01
 -1      3665 1.19776E-01
 -1      3666 1.10351E-01
 -1      3667 1.01776E-01
 -1      3668 1.62446E+00
 -1      3669 6.12949E-01
 -1      3670 5.57080E-01
 -1      3671 3.72686E-01
 -1      3672 3.06003E-01
 -1      3673 2.60958E-01
 -1      3674 2.24047E-01
 -1      3675 1.96308E-01
 -1      3676 1.74460E-01
 -1      3677 1.56972E-01
 -1      3678 1.42560E-01
 -1      3679 1.30367E-01
 -1      3680 1.19776E-01
 -1      3681 1.10351E-01
 -1      3682 1.01776E-01
 -1      3683 9.61699E-01
 -1      3684 6.12949E-01
 -1      3685 4.22376E-01
 -1      3686 2.86437E-01
 -1      3687 2.24987E-01
 -1      3688 2.15251E-01
 -1      3689 1.97805E-01
 -1      3690 1.80426E-01
 -1      3691 1.64581E-01
 -1      3692 1.50727E-01
 -1      3693 1.38620E-01
 -1      3694 1.27944E-01
 -1      3695 1.18378E-01
 -1      3696 1.09651E-01
 -1      3697 1.01547E-01
 -1      3698 7.65091E-01
 -1      3699 4.16815E-01
 -1      3700 2.99738E-01
 -1      3701 2.57702E-01
 -1      3702 1.93465E-01
 -1      3703 1.60735E-01
 -1      3704 1.60735E-01
 -1      3705 1.56321E-01
 -1      3706 1.48635E-01
 -1      3707 1.39990E-01
 -1      3708 1.31314E-01
 -1      3709 1.22948E-01
 -1      3710 1.14965E-01
 -1      3711 1.07330E-01
 -1      3712 9.99734E-02
 -1      3713 6.01012E-01
 -1      3714 3.82377E-01
 -1      3715 2.18639E-01
 -1      3716 1.98640E-01
 -1      3717 1.70086E-01
 -1      3718 1.36266E-01
 -1      3719 1.27899E-01
 -1      3720 1.28667E-01
 -1      3721 1.28667E-01
 -1      3722 1.25857E-01
 -1      3723 1.21238E-01
 -1      3724 1.15716E-01
 -1      3725 1.09741E-01
 -1      3726 1.03525E-01
 -1      3727 9.71574E-02
 -1      3728 4.83876E-01
 -1      3729 3.44005E-01
 -1      3730 2.03709E-01
 -1      3731 1.40129E-01
 -1      3732 1.37523E-01
 -1      3733 1.20465E-01
 -1      3734 1.01978E-01
 -1      3735 1.07202E-01
 -1      3736 1.09891E-01
 -1      3737 1.09891E-01
 -1      3738 1.09368E-01
 -1      3739 1.06872E-01
 -1      3740 1.03120E-01
 -1      3741 9.85219E-02
 -1      3742 9.33132E-02
 -1      3743 3.92974E-01
 -1      3744 2.99758E-01
 -1      3745 2.01143E-01
 -1      3746 1.17871E-01
 -1      3747 1.03585E-01
 -1      3748 1.00022E-01
 -1      3749 8.92085E-02
 -1      3750 8.63815E-02
 -1      3751 9.36067E-02
 -1      3752 9.67583E-02
 -1      3753 9.71502E-02
 -1      3754 9.71502E-02
 -1      3755 9.56225E-02
 -1      3756 9.27050E-02
 -1      3757 8.87330E-02
 -1      3758 3.21800E-01
 -1      3759 2.57774E-01
 -1      3760 1.87584E-01
 -1      3761 1.17871E-01
 -1      3762 7.86311E-02
 -1      3763 7.86311E-02
 -1      3764 7.56768E-02
 -1      3765 6.85633E-02
 -1      3766 7.82043E-02
 -1      3767 8.43454E-02
 -1      3768 8.72667E-02
 -1      3769 8.77966E-02
 -1      3770 8.77966E-02
 -1      3771 8.64983E-02
 -1      3772 8.37543E-02
 -1      3773 2.64309E-01
 -1      3774 2.19735E-01
 -1      3775 1.69351E-01
 -1      3776 1.16260E-01
 -1      3777 6.99401E-02
 -1      3778 6.13261E-02
 -1      3779 6.13261E-02
 -1      3780 5.91453E-02
 -1      3781 6.44675E-02
 -1      3782 7.28410E-02
 -1      3783 7.78265E-02
 -1      3784 8.01447E-02
 -1      3785 8.03189E-02
 -1      3786 8.03189E-02
 -1      3787 7.87263E-02
 -1      3788 2.17033E-01
 -1      3789 1.86044E-01
 -1      3790 1.49839E-01
 -1      3791 1.09511E-01
 -1      3792 6.99401E-02
 -1      3793 4.74296E-02
 -1      3794 4.90353E-02
 -1      3795 4.90353E-02
 -1      3796 5.27998E-02
 -1      3797 6.27087E-02
 -1      3798 6.92846E-02
 -1      3799 7.30854E-02
 -1      3800 7.45426E-02
 -1      3801 7.45426E-02
 -1      3802 7.39848E-02
 -1      3803 1.77551E-01
 -1      3804 1.56456E-01
 -1      3805 1.30667E-01
 -1      3806 1.00176E-01
 -1      3807 6.86392E-02
 -1      3808 3.99768E-02
 -1      3809 3.89733E-02
 -1      3810 4.02074E-02
 -1      3811 4.41184E-02
 -1      3812 5.41923E-02
 -1      3813 6.19429E-02
 -1      3814 6.69382E-02
 -1      3815 6.94863E-02
 -1      3816 6.98350E-02
 -1      3817 6.98350E-02
 -1      3818 1.49207E-01
 -1      3819 1.30610E-01
 -1      3820 1.12657E-01
 -1      3821 8.98083E-02
 -1      3822 6.48419E-02
 -1      3823 3.99768E-02
 -1      3824 2.93790E-02
 -1      3825 3.26128E-02
 -1      3826 3.73200E-02
 -1      3827 4.73653E-02
 -1      3828 5.59697E-02
 -1      3829 6.19257E-02
 -1      3830 6.54026E-02
 -1      3831 6.65450E-02
 -1      3832 6.65450E-02
 -1      3833 1.28838E-01
 -1      3834 1.08152E-01
 -1      3835 9.62166E-02
 -1      3836 7.93581E-02
 -1      3837 5.97288E-02
 -1      3838 3.91622E-02
 -1      3839 2.04386E-02
 -1      3840 2.50997E-02
 -1      3841 3.13184E-02
 -1      3842 4.21798E-02
 -1      3843 5.14262E-02
 -1      3844 5.81855E-02
 -1      3845 6.24829E-02
 -1      3846 6.43443E-02
 -1      3847 6.43443E-02
 -1      3848 1.16114E-01
 -1      3849 9.13845E-02
 -1      3850 8.15501E-02
 -1      3851 6.94240E-02
 -1      3852 5.41133E-02
 -1      3853 3.71432E-02
 -1      3854 1.97751E-02
 -1      3855 1.77823E-02
 -1      3856 2.65671E-02
 -1      3857 3.85068E-02
 -1      3858 4.82920E-02
 -1      3859 5.57840E-02
 -1      3860 6.08639E-02
 -1      3861 6.39552E-02
 -1      3862 6.44748E-02
 -1      3863 1.04271E-01
 -1      3864 7.99854E-02
 -1      3865 6.87632E-02
 -1      3866 6.03951E-02
 -1      3867 4.85652E-02
 -1      3868 3.45583E-02
 -1      3869 1.94925E-02
 -1      3870 1.22681E-02
 -1      3871 2.40418E-02
 -1      3872 3.61631E-02
 -1      3873 4.64844E-02
 -1      3874 5.49717E-02
 -1      3875 6.18359E-02
 -1      3876 6.60620E-02
 -1      3877 6.72693E-02
 -1      3878 9.22618E-02
 -1      3879 7.30105E-02
 -1      3880 5.96533E-02
 -1      3881 5.25341E-02
 -1      3882 4.34935E-02
 -1      3883 3.18926E-02
 -1      3884 1.87221E-02
 -1      3885 9.37159E-03
 -1      3886 2.25456E-02
 -1      3887 3.49277E-02
 -1      3888 4.62663E-02
 -1      3889 5.64171E-02
 -1      3890 6.44661E-02
 -1      3891 6.98481E-02
 -1      3892 7.19887E-02
 -1      3893 8.02321E-02
 -1      3894 6.61211E-02
 -1      3895 5.39503E-02
 -1      3896 4.60259E-02
 -1      3897 3.91994E-02
 -1      3898 2.95210E-02
 -1      3899 2.19233E-02
 -1      3900 1.59116E-02
 -1      3901 2.17618E-02
 -1      3902 3.47328E-02
 -1      3903 4.74428E-02
 -1      3904 5.89066E-02
 -1      3905 6.84641E-02
 -1      3906 7.53731E-02
 -1      3907 7.88317E-02
 -1      3908 6.83336E-02
 -1      3909 5.90094E-02
 -1      3910 5.07265E-02
 -1      3911 4.27920E-02
 -1      3912 3.73619E-02
 -1      3913 3.23451E-02
 -1      3914 2.73682E-02
 -1      3915 2.23351E-02
 -1      3916 2.13638E-02
 -1      3917 3.51573E-02
 -1      3918 4.91058E-02
 -1      3919 6.22096E-02
 -1      3920 7.36949E-02
 -1      3921 8.26366E-02
 -1      3922 8.79695E-02
 -1      3923 5.67373E-02
 -1      3924 5.19173E-02
 -1      3925 4.73034E-02
 -1      3926 4.23988E-02
 -1      3927 3.92327E-02
 -1      3928 3.61187E-02
 -1      3929 3.26306E-02
 -1      3930 2.87182E-02
 -1      3931 2.42078E-02
 -1      3932 3.54428E-02
 -1      3933 5.08872E-02
 -1      3934 6.60004E-02
 -1      3935 7.99212E-02
 -1      3936 9.15462E-02
 -1      3937 9.95167E-02
 -1      3938 4.56441E-02
 -1      3939 4.50748E-02
 -1      3940 4.39180E-02
 -1      3941 4.18991E-02
 -1      3942 4.10069E-02
 -1      3943 3.97353E-02
 -1      3944 3.77623E-02
 -1      3945 3.50846E-02
 -1      3946 3.15528E-02
 -1      3947 3.54428E-02
 -1      3948 5.23273E-02
 -1      3949 6.98322E-02
 -1      3950 8.67648E-02
 -1      3951 1.01869E-01
 -1      3952 1.13480E-01
 -1      3953 3.87092E-02
 -1      3954 4.07765E-02
 -1      3955 4.14424E-02
 -1      3956 4.27634E-02
 -1      3957 4.32253E-02
 -1      3958 4.32253E-02
 -1      3959 4.27517E-02
 -1      3960 4.13926E-02
 -1      3961 3.90247E-02
 -1      3962 3.55959E-02
 -1      3963 5.28593E-02
 -1      3964 7.31057E-02
 -1      3965 9.36574E-02
 -1      3966 1.13166E-01
 -1      3967 1.29681E-01
 -1      3968 3.30484E-02
 -1      3969 3.80584E-02
 -1      3970 4.14037E-02
 -1      3971 4.45283E-02
 -1      3972 4.65585E-02
 -1      3973 4.75197E-02
 -1      3974 4.75255E-02
 -1      3975 4.75255E-02
 -1      3976 4.64883E-02
 -1      3977 4.41029E-02
 -1      3978 5.28593E-02
 -1      3979 7.50414E-02
 -1      3980 9.97849E-02
 -1      3981 1.24701E-01
 -1      3982 1.47636E-01
 -1      3983 3.69977E-02
 -1      3984 4.27175E-02
 -1      3985 4.46404E-02
 -1      3986 4.63731E-02
 -1      3987 4.96477E-02
 -1      3988 5.19200E-02
 -1      3989 5.32869E-02
 -1      3990 5.37125E-02
 -1      3991 5.37125E-02
 -1      3992 5.29063E-02
 -1      3993 5.18013E-02
 -1      3994 7.50414E-02
 -1      3995 1.04032E-01
 -1      3996 1.35341E-01
 -1      3997 1.66403E-01
 -1      3998 4.43310E-02
 -1      3999 4.89230E-02
 -1      4000 5.03146E-02
 -1      4001 5.03146E-02
 -1      4002 5.23581E-02
 -1      4003 5.57474E-02
 -1      4004 5.84035E-02
 -1      4005 6.03645E-02
 -1      4006 6.13857E-02
 -1      4007 6.13857E-02
 -1      4008 6.08842E-02
 -1      4009 7.46602E-02
 -1      4010 1.04943E-01
 -1      4011 1.43445E-01
 -1      4012 1.84382E-01
 -1      4013 5.32334E-02
 -1      4014 5.62707E-02
 -1      4015 5.68890E-02
 -1      4016 5.68890E-02
 -1      4017 5.54054E-02
 -1      4018 5.87569E-02
 -1      4019 6.25415E-02
 -1      4020 6.60182E-02
 -1      4021 6.90307E-02
 -1      4022 7.10509E-02
 -1      4023 7.10683E-02
 -1      4024 7.10683E-02
 -1      4025 1.04943E-01
 -1      4026 1.46775E-01
 -1      4027 1.99103E-01
 -1      4028 6.32742E-02
 -1      4029 6.43517E-02
 -1      4030 6.43517E-02
 -1      4031 6.39782E-02
 -1      4032 6.23090E-02
 -1      4033 6.06954E-02
 -1      4034 6.53385E-02
 -1      4035 7.01802E-02
 -1      4036 7.52044E-02
 -1      4037 8.00181E-02
 -1      4038 8.37013E-02
 -1      4039 8.45866E-02
 -1      4040 1.00717E-01
 -1      4041 1.46775E-01
 -1      4042 2.07042E-01
 -1      4043 7.53797E-02
 -1      4044 7.39198E-02
 -1      4045 7.26765E-02
 -1      4046 7.11194E-02
 -1      4047 6.92054E-02
 -1      4048 6.67974E-02
 -1      4049 6.64632E-02
 -1      4050 7.23531E-02
 -1      4051 7.91997E-02
 -1      4052 8.68407E-02
 -1      4053 9.45934E-02
 -1      4054 1.00958E-01
 -1      4055 1.03220E-01
 -1      4056 1.42487E-01
 -1      4057 2.07042E-01
 -1      4058 9.04849E-02
 -1      4059 8.45429E-02
 -1      4060 8.06896E-02
 -1      4061 7.77876E-02
 -1      4062 7.55605E-02
 -1      4063 7.37430E-02
 -1      4064 7.19364E-02
 -1      4065 7.24576E-02
 -1      4066 8.03187E-02
 -1      4067 9.04645E-02
 -1      4068 1.02275E-01
 -1      4069 1.14685E-01
 -1      4070 1.25333E-01
 -1      4071 1.29962E-01
 -1      4072 2.03491E-01
 -1      4073 6.38029E+00
 -1      4074 6.38029E+00
 -1      4075 1.36794E+00
 -1      4076 3.87411E+00
 -1      4077 5.73400E-01
 -1      4078 9.70670E-01
 -1      4079 4.66413E-01
 -1      4080 5.19906E-01
 -1      4081 3.43437E-01
 -1      4082 4.04925E-01
 -1      4083 2.79935E-01
 -1      4084 3.11686E-01
 -1      4085 2.33901E-01
 -1      4086 2.56918E-01
 -1      4087 2.01629E-01
 -1      4088 2.17765E-01
 -1      4089 1.77286E-01
 -1      4090 1.89458E-01
 -1      4091 1.58329E-01
 -1      4092 1.67808E-01
 -1      4093 1.42989E-01
 -1      4094 1.50659E-01
 -1      4095 1.30273E-01
 -1      4096 1.36678E-01
 -1      4097 1.19469E-01
 -1      4098 1.25072E-01
 -1      4099 1.09894E-01
 -1      4100 1.15064E-01
 -1      4101 1.01218E-01
 -1      4102 1.06063E-01
 -1      4103 9.78029E-02
 -1      4104 4.00237E+00
 -1      4105 1.62446E+00
 -1      4106 9.90445E-01
 -1      4107 1.11870E+00
 -1      4108 5.65240E-01
 -1      4109 5.85014E-01
 -1      4110 4.19549E-01
 -1      4111 4.64883E-01
 -1      4112 3.24720E-01
 -1      4113 3.39345E-01
 -1      4114 2.70447E-01
 -1      4115 2.83481E-01
 -1      4116 2.28974E-01
 -1      4117 2.42502E-01
 -1      4118 1.98968E-01
 -1      4119 2.10177E-01
 -1      4120 1.75873E-01
 -1      4121 1.85384E-01
 -1      4122 1.57650E-01
 -1      4123 1.65716E-01
 -1      4124 1.42775E-01
 -1      4125 1.49766E-01
 -1      4126 1.30367E-01
 -1      4127 1.36463E-01
 -1      4128 1.19776E-01
 -1      4129 1.25072E-01
 -1      4130 1.10351E-01
 -1      4131 1.15064E-01
 -1      4132 1.01776E-01
 -1      4133 1.06063E-01
 -1      4134 9.78394E-02
 -1      4135 1.29308E+00
 -1      4136 9.61699E-01
 -1      4137 6.12949E-01
 -1      4138 7.87324E-01
 -1      4139 4.89728E-01
 -1      4140 5.17662E-01
 -1      4141 3.29561E-01
 -1      4142 3.54407E-01
 -1      4143 2.65495E-01
 -1      4144 2.55712E-01
 -1      4145 2.38104E-01
 -1      4146 2.20119E-01
 -1      4147 2.10926E-01
 -1      4148 2.06528E-01
 -1      4149 1.88367E-01
 -1      4150 1.89115E-01
 -1      4151 1.69520E-01
 -1      4152 1.72503E-01
 -1      4153 1.53849E-01
 -1      4154 1.57654E-01
 -1      4155 1.40590E-01
 -1      4156 1.44673E-01
 -1      4157 1.29156E-01
 -1      4158 1.33282E-01
 -1      4159 1.19077E-01
 -1      4160 1.23161E-01
 -1      4161 1.10001E-01
 -1      4162 1.14014E-01
 -1      4163 1.01662E-01
 -1      4164 1.05599E-01
 -1      4165 9.77250E-02
 -1      4166 8.63395E-01
 -1      4167 7.65091E-01
 -1      4168 5.14882E-01
 -1      4169 5.90953E-01
 -1      4170 3.61057E-01
 -1      4171 3.58276E-01
 -1      4172 2.72070E-01
 -1      4173 2.78720E-01
 -1      4174 2.09226E-01
 -1      4175 2.25584E-01
 -1      4176 1.87993E-01
 -1      4177 1.77100E-01
 -1      4178 1.79270E-01
 -1      4179 1.60735E-01
 -1      4180 1.68373E-01
 -1      4181 1.58528E-01
 -1      4182 1.56608E-01
 -1      4183 1.52478E-01
 -1      4184 1.45359E-01
 -1      4185 1.44312E-01
 -1      4186 1.34967E-01
 -1      4187 1.35652E-01
 -1      4188 1.25446E-01
 -1      4189 1.27131E-01
 -1      4190 1.16671E-01
 -1      4191 1.18956E-01
 -1      4192 1.08491E-01
 -1      4193 1.11148E-01
 -1      4194 1.00760E-01
 -1      4195 1.03652E-01
 -1      4196 9.63973E-02
 -1      4197 6.83052E-01
 -1      4198 6.01012E-01
 -1      4199 3.99596E-01
 -1      4200 4.91695E-01
 -1      4201 2.59188E-01
 -1      4202 3.00508E-01
 -1      4203 2.28171E-01
 -1      4204 2.08639E-01
 -1      4205 1.81775E-01
 -1      4206 1.84363E-01
 -1      4207 1.48500E-01
 -1      4208 1.53176E-01
 -1      4209 1.44317E-01
 -1      4210 1.32083E-01
 -1      4211 1.42494E-01
 -1      4212 1.28283E-01
 -1      4213 1.38651E-01
 -1      4214 1.28667E-01
 -1      4215 1.32924E-01
 -1      4216 1.27262E-01
 -1      4217 1.26276E-01
 -1      4218 1.23548E-01
 -1      4219 1.19332E-01
 -1      4220 1.18477E-01
 -1      4221 1.12353E-01
 -1      4222 1.12729E-01
 -1      4223 1.05428E-01
 -1      4224 1.06633E-01
 -1      4225 9.85654E-02
 -1      4226 1.00341E-01
 -1      4227 9.39159E-02
 -1      4228 5.42444E-01
 -1      4229 4.83876E-01
 -1      4230 3.63191E-01
 -1      4231 4.13940E-01
 -1      4232 2.11174E-01
 -1      4233 2.73857E-01
 -1      4234 1.69384E-01
 -1      4235 1.71919E-01
 -1      4236 1.53804E-01
 -1      4237 1.38826E-01
 -1      4238 1.28365E-01
 -1      4239 1.28994E-01
 -1      4240 1.14939E-01
 -1      4241 1.11222E-01
 -1      4242 1.17935E-01
 -1      4243 1.04590E-01
 -1      4244 1.19279E-01
 -1      4245 1.08546E-01
 -1      4246 1.17874E-01
 -1      4247 1.09891E-01
 -1      4248 1.15303E-01
 -1      4249 1.09630E-01
 -1      4250 1.11294E-01
 -1      4251 1.08120E-01
 -1      4252 1.06430E-01
 -1      4253 1.04996E-01
 -1      4254 1.01023E-01
 -1      4255 1.00821E-01
 -1      4256 9.52353E-02
 -1      4257 9.59176E-02
 -1      4258 9.04725E-02
 -1      4259 4.38425E-01
 -1      4260 3.92974E-01
 -1      4261 3.21882E-01
 -1      4262 3.46366E-01
 -1      4263 2.02426E-01
 -1      4264 2.50450E-01
 -1      4265 1.29000E-01
 -1      4266 1.59507E-01
 -1      4267 1.20554E-01
 -1      4268 1.10728E-01
 -1      4269 1.10244E-01
 -1      4270 1.01804E-01
 -1      4271 9.55933E-02
 -1      4272 9.46153E-02
 -1      4273 9.67918E-02
 -1      4274 8.77950E-02
 -1      4275 1.01749E-01
 -1      4276 8.99941E-02
 -1      4277 1.03325E-01
 -1      4278 9.51825E-02
 -1      4279 1.03259E-01
 -1      4280 9.69542E-02
 -1      4281 1.02011E-01
 -1      4282 9.71502E-02
 -1      4283 9.93711E-02
 -1      4284 9.63864E-02
 -1      4285 9.56135E-02
 -1      4286 9.41638E-02
 -1      4287 9.10231E-02
 -1      4288 9.07190E-02
 -1      4289 8.63293E-02
 -1      4290 3.57387E-01
 -1      4291 3.21800E-01
 -1      4292 2.78766E-01
 -1      4293 2.89787E-01
 -1      4294 1.94363E-01
 -1      4295 2.22679E-01
 -1      4296 1.17871E-01
 -1      4297 1.52728E-01
 -1      4298 9.11081E-02
 -1      4299 9.82513E-02
 -1      4300 8.93266E-02
 -1      4301 7.86311E-02
 -1      4302 8.24427E-02
 -1      4303 7.71540E-02
 -1      4304 7.74724E-02
 -1      4305 7.21200E-02
 -1      4306 8.59055E-02
 -1      4307 7.33838E-02
 -1      4308 9.05519E-02
 -1      4309 8.12748E-02
 -1      4310 9.22084E-02
 -1      4311 8.58060E-02
 -1      4312 9.24734E-02
 -1      4313 8.75316E-02
 -1      4314 9.17095E-02
 -1      4315 8.77966E-02
 -1      4316 8.96017E-02
 -1      4317 8.71475E-02
 -1      4318 8.62436E-02
 -1      4319 8.51263E-02
 -1      4320 8.17928E-02
 -1      4321 2.93054E-01
 -1      4322 2.64309E-01
 -1      4323 2.38754E-01
 -1      4324 2.42022E-01
 -1      4325 1.78467E-01
 -1      4326 1.94543E-01
 -1      4327 1.17066E-01
 -1      4328 1.42805E-01
 -1      4329 7.42856E-02
 -1      4330 9.31001E-02
 -1      4331 6.99786E-02
 -1      4332 6.56331E-02
 -1      4333 6.85014E-02
 -1      4334 6.13261E-02
 -1      4335 6.38543E-02
 -1      4336 6.02357E-02
 -1      4337 7.13359E-02
 -1      4338 6.18064E-02
 -1      4339 7.85932E-02
 -1      4340 6.86543E-02
 -1      4341 8.25466E-02
 -1      4342 7.53338E-02
 -1      4343 8.39706E-02
 -1      4344 7.89856E-02
 -1      4345 8.40577E-02
 -1      4346 8.02318E-02
 -1      4347 8.34086E-02
 -1      4348 8.03189E-02
 -1      4349 8.12403E-02
 -1      4350 7.95226E-02
 -1      4351 7.71862E-02
 -1      4352 2.40671E-01
 -1      4353 2.17033E-01
 -1      4354 2.02889E-01
 -1      4355 2.01539E-01
 -1      4356 1.59595E-01
 -1      4357 1.67942E-01
 -1      4358 1.12885E-01
 -1      4359 1.29675E-01
 -1      4360 6.99401E-02
 -1      4361 8.97253E-02
 -1      4362 5.43778E-02
 -1      4363 5.86848E-02
 -1      4364 5.51807E-02
 -1      4365 4.82325E-02
 -1      4366 5.40903E-02
 -1      4367 4.90353E-02
 -1      4368 5.86336E-02
 -1      4369 5.09175E-02
 -1      4370 6.77749E-02
 -1      4371 5.77542E-02
 -1      4372 7.35555E-02
 -1      4373 6.59966E-02
 -1      4374 7.66150E-02
 -1      4375 7.11850E-02
 -1      4376 7.74307E-02
 -1      4377 7.38140E-02
 -1      4378 7.74307E-02
 -1      4379 7.45426E-02
 -1      4380 7.63555E-02
 -1      4381 7.42637E-02
 -1      4382 7.28272E-02
 -1      4383 1.97292E-01
 -1      4384 1.77551E-01
 -1      4385 1.71250E-01
 -1      4386 1.67003E-01
 -1      4387 1.40253E-01
 -1      4388 1.43561E-01
 -1      4389 1.04843E-01
 -1      4390 1.15422E-01
 -1      4391 6.92896E-02
 -1      4392 8.44076E-02
 -1      4393 4.37032E-02
 -1      4394 5.43080E-02
 -1      4395 4.40043E-02
 -1      4396 3.94751E-02
 -1      4397 4.46213E-02
 -1      4398 3.95903E-02
 -1      4399 4.84591E-02
 -1      4400 4.21629E-02
 -1      4401 5.84505E-02
 -1      4402 4.91554E-02
 -1      4403 6.56137E-02
 -1      4404 5.80676E-02
 -1      4405 7.00118E-02
 -1      4406 6.44405E-02
 -1      4407 7.20144E-02
 -1      4408 6.82122E-02
 -1      4409 7.21888E-02
 -1      4410 6.96607E-02
 -1      4411 7.19099E-02
 -1      4412 6.98350E-02
 -1      4413 6.90134E-02
 -1      4414 1.63379E-01
 -1      4415 1.49207E-01
 -1      4416 1.43533E-01
 -1      4417 1.39909E-01
 -1      4418 1.21662E-01
 -1      4419 1.21634E-01
 -1      4420 9.49921E-02
 -1      4421 1.01233E-01
 -1      4422 6.67405E-02
 -1      4423 7.73251E-02
 -1      4424 3.99768E-02
 -1      4425 5.24093E-02
 -1      4426 3.41761E-02
 -1      4427 3.46779E-02
 -1      4428 3.64101E-02
 -1      4429 3.09959E-02
 -1      4430 4.07192E-02
 -1      4431 3.49664E-02
 -1      4432 5.07788E-02
 -1      4433 4.23426E-02
 -1      4434 5.89563E-02
 -1      4435 5.16675E-02
 -1      4436 6.44320E-02
 -1      4437 5.89477E-02
 -1      4438 6.74445E-02
 -1      4439 6.36642E-02
 -1      4440 6.81900E-02
 -1      4441 6.59738E-02
 -1      4442 6.81900E-02
 -1      4443 6.65450E-02
 -1      4444 6.60153E-02
 -1      4445 1.39023E-01
 -1      4446 1.28838E-01
 -1      4447 1.19381E-01
 -1      4448 1.18495E-01
 -1      4449 1.04437E-01
 -1      4450 1.02184E-01
 -1      4451 8.45832E-02
 -1      4452 8.77873E-02
 -1      4453 6.22853E-02
 -1      4454 6.95435E-02
 -1      4455 3.95695E-02
 -1      4456 4.94455E-02
 -1      4457 2.49088E-02
 -1      4458 2.98004E-02
 -1      4459 2.88563E-02
 -1      4460 2.27692E-02
 -1      4461 3.43192E-02
 -1      4462 2.82091E-02
 -1      4463 4.47726E-02
 -1      4464 3.67491E-02
 -1      4465 5.36979E-02
 -1      4466 4.68030E-02
 -1      4467 6.00556E-02
 -1      4468 5.48059E-02
 -1      4469 6.39428E-02
 -1      4470 6.03342E-02
 -1      4471 6.54447E-02
 -1      4472 6.34136E-02
 -1      4473 6.54447E-02
 -1      4474 6.43443E-02
 -1      4475 6.40753E-02
 -1      4476 1.22476E-01
 -1      4477 1.16114E-01
 -1      4478 9.97683E-02
 -1      4479 1.03749E-01
 -1      4480 8.88833E-02
 -1      4481 8.64673E-02
 -1      4482 7.43911E-02
 -1      4483 7.54871E-02
 -1      4484 5.69211E-02
 -1      4485 6.17687E-02
 -1      4486 3.81527E-02
 -1      4487 4.56282E-02
 -1      4488 2.01069E-02
 -1      4489 2.84591E-02
 -1      4490 2.14410E-02
 -1      4491 1.87787E-02
 -1      4492 2.89428E-02
 -1      4493 2.21747E-02
 -1      4494 4.03433E-02
 -1      4495 3.25369E-02
 -1      4496 4.98591E-02
 -1      4497 4.33994E-02
 -1      4498 5.69847E-02
 -1      4499 5.20380E-02
 -1      4500 6.16734E-02
 -1      4501 5.83239E-02
 -1      4502 6.41498E-02
 -1      4503 6.24095E-02
 -1      4504 6.44095E-02
 -1      4505 6.42150E-02
 -1      4506 6.44748E-02
 -1      4507 1.10193E-01
 -1      4508 1.04271E-01
 -1      4509 8.56849E-02
 -1      4510 9.21283E-02
 -1      4511 7.51567E-02
 -1      4512 7.43743E-02
 -1      4513 6.49096E-02
 -1      4514 6.45791E-02
 -1      4515 5.13393E-02
 -1      4516 5.44801E-02
 -1      4517 3.58508E-02
 -1      4518 4.15618E-02
 -1      4519 1.96338E-02
 -1      4520 2.70254E-02
 -1      4521 1.50252E-02
 -1      4522 1.58803E-02
 -1      4523 2.53045E-02
 -1      4524 1.81550E-02
 -1      4525 3.73349E-02
 -1      4526 3.01025E-02
 -1      4527 4.73882E-02
 -1      4528 4.13237E-02
 -1      4529 5.53778E-02
 -1      4530 5.07280E-02
 -1      4531 6.13499E-02
 -1      4532 5.84038E-02
 -1      4533 6.50086E-02
 -1      4534 6.39490E-02
 -1      4535 6.58721E-02
 -1      4536 6.66657E-02
 -1      4537 6.72693E-02
 -1      4538 9.82665E-02
 -1      4539 9.22618E-02
 -1      4540 7.64979E-02
 -1      4541 8.26361E-02
 -1      4542 6.42082E-02
 -1      4543 6.63319E-02
 -1      4544 5.64646E-02
 -1      4545 5.60937E-02
 -1      4546 4.60294E-02
 -1      4547 4.80138E-02
 -1      4548 3.32254E-02
 -1      4549 3.76931E-02
 -1      4550 1.91073E-02
 -1      4551 2.53073E-02
 -1      4552 1.08198E-02
 -1      4553 1.40468E-02
 -1      4554 2.32937E-02
 -1      4555 1.59586E-02
 -1      4556 3.55454E-02
 -1      4557 2.87367E-02
 -1      4558 4.63753E-02
 -1      4559 4.05970E-02
 -1      4560 5.56944E-02
 -1      4561 5.13417E-02
 -1      4562 6.31510E-02
 -1      4563 6.04416E-02
 -1      4564 6.79551E-02
 -1      4565 6.71571E-02
 -1      4566 6.96290E-02
 -1      4567 7.09184E-02
 -1      4568 7.19887E-02
 -1      4569 8.62470E-02
 -1      4570 8.02321E-02
 -1      4571 6.95658E-02
 -1      4572 7.31766E-02
 -1      4573 5.68018E-02
 -1      4574 6.00357E-02
 -1      4575 4.92800E-02
 -1      4576 4.99881E-02
 -1      4577 4.13465E-02
 -1      4578 4.26126E-02
 -1      4579 3.07068E-02
 -1      4580 3.43602E-02
 -1      4581 2.03227E-02
 -1      4582 2.57221E-02
 -1      4583 1.26416E-02
 -1      4584 1.89174E-02
 -1      4585 2.21537E-02
 -1      4586 1.88367E-02
 -1      4587 3.48303E-02
 -1      4588 2.82473E-02
 -1      4589 4.68546E-02
 -1      4590 4.10878E-02
 -1      4591 5.76619E-02
 -1      4592 5.31747E-02
 -1      4593 6.64651E-02
 -1      4594 6.36854E-02
 -1      4595 7.26106E-02
 -1      4596 7.19186E-02
 -1      4597 7.54102E-02
 -1      4598 7.71024E-02
 -1      4599 7.88317E-02
 -1      4600 7.42828E-02
 -1      4601 6.83336E-02
 -1      4602 6.25652E-02
 -1      4603 6.36715E-02
 -1      4604 5.23384E-02
 -1      4605 5.48679E-02
 -1      4606 4.44089E-02
 -1      4607 4.67592E-02
 -1      4608 3.82806E-02
 -1      4609 4.00769E-02
 -1      4610 3.09330E-02
 -1      4611 3.48535E-02
 -1      4612 2.46457E-02
 -1      4613 2.98567E-02
 -1      4614 1.91233E-02
 -1      4615 2.48516E-02
 -1      4616 2.15628E-02
 -1      4617 2.18494E-02
 -1      4618 3.49451E-02
 -1      4619 2.82606E-02
 -1      4620 4.82743E-02
 -1      4621 4.21316E-02
 -1      4622 6.05581E-02
 -1      4623 5.56577E-02
 -1      4624 7.10795E-02
 -1      4625 6.79522E-02
 -1      4626 7.90049E-02
 -1      4627 7.81658E-02
 -1      4628 8.34006E-02
 -1      4629 8.53031E-02
 -1      4630 8.84061E-02
 -1      4631 6.25354E-02
 -1      4632 5.67373E-02
 -1      4633 5.54633E-02
 -1      4634 5.43273E-02
 -1      4635 4.90150E-02
 -1      4636 4.96103E-02
 -1      4637 4.25954E-02
 -1      4638 4.48511E-02
 -1      4639 3.82973E-02
 -1      4640 4.08157E-02
 -1      4641 3.42319E-02
 -1      4642 3.76757E-02
 -1      4643 2.99994E-02
 -1      4644 3.43747E-02
 -1      4645 2.55266E-02
 -1      4646 3.06744E-02
 -1      4647 2.27858E-02
 -1      4648 2.64630E-02
 -1      4649 3.53001E-02
 -1      4650 2.98253E-02
 -1      4651 4.99965E-02
 -1      4652 4.31650E-02
 -1      4653 6.41050E-02
 -1      4654 5.84438E-02
 -1      4655 7.68081E-02
 -1      4656 7.29608E-02
 -1      4657 8.70914E-02
 -1      4658 8.57337E-02
 -1      4659 9.37431E-02
 -1      4660 9.55315E-02
 -1      4661 1.01056E-01
 -1      4662 5.11907E-02
 -1      4663 4.56441E-02
 -1      4664 4.84960E-02
 -1      4665 4.53595E-02
 -1      4666 4.56107E-02
 -1      4667 4.44964E-02
 -1      4668 4.21489E-02
 -1      4669 4.29086E-02
 -1      4670 4.01198E-02
 -1      4671 4.14530E-02
 -1      4672 3.79270E-02
 -1      4673 4.03711E-02
 -1      4674 3.51964E-02
 -1      4675 3.87488E-02
 -1      4676 3.19014E-02
 -1      4677 3.64234E-02
 -1      4678 2.78803E-02
 -1      4679 3.33187E-02
 -1      4680 3.54428E-02
 -1      4681 3.34978E-02
 -1      4682 5.16073E-02
 -1      4683 4.38851E-02
 -1      4684 6.79163E-02
 -1      4685 6.10797E-02
 -1      4686 8.33430E-02
 -1      4687 7.82985E-02
 -1      4688 9.67078E-02
 -1      4689 9.43171E-02
 -1      4690 1.06499E-01
 -1      4691 1.07675E-01
 -1      4692 1.16691E-01
 -1      4693 4.21766E-02
 -1      4694 3.70001E-02
 -1      4695 4.29256E-02
 -1      4696 3.97428E-02
 -1      4697 4.26802E-02
 -1      4698 4.11094E-02
 -1      4699 4.23313E-02
 -1      4700 4.21029E-02
 -1      4701 4.21161E-02
 -1      4702 4.29943E-02
 -1      4703 4.14803E-02
 -1      4704 4.32253E-02
 -1      4705 4.02570E-02
 -1      4706 4.29885E-02
 -1      4707 3.82386E-02
 -1      4708 4.20722E-02
 -1      4709 3.52888E-02
 -1      4710 4.02087E-02
 -1      4711 3.55194E-02
 -1      4712 3.73103E-02
 -1      4713 5.25933E-02
 -1      4714 4.42276E-02
 -1      4715 7.14689E-02
 -1      4716 6.29825E-02
 -1      4717 9.02111E-02
 -1      4718 8.33816E-02
 -1      4719 1.07518E-01
 -1      4720 1.03412E-01
 -1      4721 1.21581E-01
 -1      4722 1.21424E-01
 -1      4723 1.35340E-01
 -1      4724 3.58788E-02
 -1      4725 2.95016E-02
 -1      4726 3.94174E-02
 -1      4727 3.55534E-02
 -1      4728 4.14231E-02
 -1      4729 3.97311E-02
 -1      4730 4.36459E-02
 -1      4731 4.29660E-02
 -1      4732 4.48919E-02
 -1      4733 4.55434E-02
 -1      4734 4.53725E-02
 -1      4735 4.70391E-02
 -1      4736 4.51386E-02
 -1      4737 4.75226E-02
 -1      4738 4.44590E-02
 -1      4739 4.75255E-02
 -1      4740 4.27565E-02
 -1      4741 4.70069E-02
 -1      4742 3.98494E-02
 -1      4743 4.52956E-02
 -1      4744 5.28593E-02
 -1      4745 4.84811E-02
 -1      4746 7.40735E-02
 -1      4747 6.39504E-02
 -1      4748 9.67212E-02
 -1      4749 8.74132E-02
 -1      4750 1.18934E-01
 -1      4751 1.12243E-01
 -1      4752 1.38659E-01
 -1      4753 1.36169E-01
 -1      4754 1.56761E-01
 -1      4755 3.50230E-02
 -1      4756 3.19527E-02
 -1      4757 4.03880E-02
 -1      4758 3.98576E-02
 -1      4759 4.30221E-02
 -1      4760 4.36790E-02
 -1      4761 4.54507E-02
 -1      4762 4.55067E-02
 -1      4763 4.81031E-02
 -1      4764 4.80104E-02
 -1      4765 4.97199E-02
 -1      4766 5.07839E-02
 -1      4767 5.04062E-02
 -1      4768 5.26035E-02
 -1      4769 5.06190E-02
 -1      4770 5.34997E-02
 -1      4771 5.01004E-02
 -1      4772 5.37125E-02
 -1      4773 4.85046E-02
 -1      4774 5.33094E-02
 -1      4775 5.23303E-02
 -1      4776 5.23538E-02
 -1      4777 7.50414E-02
 -1      4778 6.34213E-02
 -1      4779 1.01909E-01
 -1      4780 8.95368E-02
 -1      4781 1.30021E-01
 -1      4782 1.19687E-01
 -1      4783 1.57020E-01
 -1      4784 1.50872E-01
 -1      4785 1.80264E-01
 -1      4786 4.06644E-02
 -1      4787 4.01941E-02
 -1      4788 4.58203E-02
 -1      4789 4.66270E-02
 -1      4790 4.74775E-02
 -1      4791 4.96188E-02
 -1      4792 4.83438E-02
 -1      4793 5.03146E-02
 -1      4794 5.10029E-02
 -1      4795 5.13364E-02
 -1      4796 5.38337E-02
 -1      4797 5.40528E-02
 -1      4798 5.58452E-02
 -1      4799 5.70755E-02
 -1      4800 5.70385E-02
 -1      4801 5.93840E-02
 -1      4802 5.75491E-02
 -1      4803 6.08751E-02
 -1      4804 5.71460E-02
 -1      4805 6.13857E-02
 -1      4806 5.63427E-02
 -1      4807 6.11349E-02
 -1      4808 7.48508E-02
 -1      4809 6.77722E-02
 -1      4810 1.04488E-01
 -1      4811 8.98015E-02
 -1      4812 1.39393E-01
 -1      4813 1.24194E-01
 -1      4814 1.75393E-01
 -1      4815 1.63913E-01
 -1      4816 2.04471E-01
 -1      4817 4.87822E-02
 -1      4818 5.03670E-02
 -1      4819 5.25969E-02
 -1      4820 5.47520E-02
 -1      4821 5.36018E-02
 -1      4822 5.65799E-02
 -1      4823 5.36018E-02
 -1      4824 5.68890E-02
 -1      4825 5.38818E-02
 -1      4826 5.61472E-02
 -1      4827 5.72522E-02
 -1      4828 5.70812E-02
 -1      4829 6.04725E-02
 -1      4830 6.06492E-02
 -1      4831 6.31914E-02
 -1      4832 6.42798E-02
 -1      4833 6.52082E-02
 -1      4834 6.75244E-02
 -1      4835 6.62183E-02
 -1      4836 7.00408E-02
 -1      4837 6.59762E-02
 -1      4838 7.10596E-02
 -1      4839 7.28642E-02
 -1      4840 7.10683E-02
 -1      4841 1.04943E-01
 -1      4842 8.80056E-02
 -1      4843 1.45110E-01
 -1      4844 1.25859E-01
 -1      4845 1.91743E-01
 -1      4846 1.72939E-01
 -1      4847 2.27015E-01
 -1      4848 5.82538E-02
 -1      4849 6.20391E-02
 -1      4850 6.03112E-02
 -1      4851 6.38129E-02
 -1      4852 6.06204E-02
 -1      4853 6.43517E-02
 -1      4854 6.04336E-02
 -1      4855 6.41649E-02
 -1      4856 5.88572E-02
 -1      4857 6.31436E-02
 -1      4858 5.97261E-02
 -1      4859 6.15022E-02
 -1      4860 6.39400E-02
 -1      4861 6.30169E-02
 -1      4862 6.80992E-02
 -1      4863 6.77593E-02
 -1      4864 7.21175E-02
 -1      4865 7.26923E-02
 -1      4866 7.55345E-02
 -1      4867 7.76113E-02
 -1      4868 7.73848E-02
 -1      4869 8.18597E-02
 -1      4870 7.78274E-02
 -1      4871 8.41439E-02
 -1      4872 1.02830E-01
 -1      4873 9.26516E-02
 -1      4874 1.46775E-01
 -1      4875 1.23746E-01
 -1      4876 2.03073E-01
 -1      4877 1.76909E-01
 -1      4878 2.44233E-01
 -1      4879 6.93270E-02
 -1      4880 7.53797E-02
 -1      4881 6.91358E-02
 -1      4882 7.46498E-02
 -1      4883 6.85141E-02
 -1      4884 7.32981E-02
 -1      4885 6.75488E-02
 -1      4886 7.18979E-02
 -1      4887 6.57572E-02
 -1      4888 7.01624E-02
 -1      4889 6.37464E-02
 -1      4890 6.80014E-02
 -1      4891 6.59009E-02
 -1      4892 6.66303E-02
 -1      4893 7.12666E-02
 -1      4894 6.94082E-02
 -1      4895 7.72020E-02
 -1      4896 7.57764E-02
 -1      4897 8.34294E-02
 -1      4898 8.30202E-02
 -1      4899 8.91473E-02
 -1      4900 9.07171E-02
 -1      4901 9.27724E-02
 -1      4902 9.77758E-02
 -1      4903 1.01969E-01
 -1      4904 1.02089E-01
 -1      4905 1.44631E-01
 -1      4906 1.22854E-01
 -1      4907 2.07042E-01
 -1      4908 1.74764E-01
 -1      4909 2.52686E-01
 -1      4910 8.29323E-02
 -1      4911 9.04849E-02
 -1      4912 7.92314E-02
 -1      4913 8.75139E-02
 -1      4914 7.66830E-02
 -1      4915 8.26163E-02
 -1      4916 7.44535E-02
 -1      4917 7.92386E-02
 -1      4918 7.23829E-02
 -1      4919 7.66740E-02
 -1      4920 7.02702E-02
 -1      4921 7.46517E-02
 -1      4922 6.91998E-02
 -1      4923 7.28397E-02
 -1      4924 7.24053E-02
 -1      4925 7.21970E-02
 -1      4926 7.97592E-02
 -1      4927 7.63882E-02
 -1      4928 8.86526E-02
 -1      4929 8.53916E-02
 -1      4930 9.84342E-02
 -1      4931 9.63697E-02
 -1      4932 1.07821E-01
 -1      4933 1.08480E-01
 -1      4934 1.14277E-01
 -1      4935 1.20009E-01
 -1      4936 1.36225E-01
 -1      4937 1.27648E-01
 -1      4938 2.05267E-01
 -1      4939 1.66727E-01
 -1      4940 2.50911E-01
 -1      4941 9.89728E-02
 -1      4942 9.03023E-02
 -1      4943 8.48490E-02
 -1      4944 8.10863E-02
 -1      4945 7.85817E-02
 -1      4946 7.69913E-02
 -1      4947 7.58838E-02
 -1      4948 7.61416E-02
 -1      4949 8.03483E-02
 -1      4950 9.04645E-02
 -1      4951 1.04270E-01
 -1      4952 1.20149E-01
 -1      4953 1.36131E-01
 -1      4954 1.48206E-01
 -1      4955 1.93381E-01
 -1      4956 1.21456E-01
 -1      4957 1.04868E-01
 -1      4958 9.48590E-02
 -1      4959 8.86418E-02
 -1      4960 8.53435E-02
 -1      4961 8.54273E-02
 -1      4962 8.79064E-02
 -1      4963 9.13121E-02
 -1      4964 9.48126E-02
 -1      4965 9.70251E-02
 -1      4966 1.06265E-01
 -1      4967 1.25917E-01
 -1      4968 1.56108E-01
 -1      4969 1.90294E-01
 -1      4970 2.22883E-01
 -1      4971 1.32684E-01
 -1      4972 1.11232E-01
 -1      4973 9.84397E-02
 -1      4974 9.06333E-02
 -1      4975 8.66620E-02
 -1      4976 8.78711E-02
 -1      4977 9.23353E-02
 -1      4978 9.90237E-02
 -1      4979 1.07564E-01
 -1      4980 1.17209E-01
 -1      4981 1.26407E-01
 -1      4982 1.32050E-01
 -1      4983 1.56108E-01
 -1      4984 1.99820E-01
 -1      4985 2.55974E-01
 -1      4986 1.40059E-01
 -1      4987 1.14504E-01
 -1      4988 9.93326E-02
 -1      4989 9.06333E-02
 -1      4990 8.66620E-02
 -1      4991 8.78711E-02
 -1      4992 9.23353E-02
 -1      4993 1.00887E-01
 -1      4994 1.13170E-01
 -1      4995 1.29000E-01
 -1      4996 1.48073E-01
 -1      4997 1.68985E-01
 -1      4998 1.87987E-01
 -1      4999 2.05373E-01
 -1      5000 2.65316E-01
 -1      5001 1.42707E-01
 -1      5002 1.14504E-01
 -1      5003 9.93326E-02
 -1      5004 9.00427E-02
 -1      5005 8.52418E-02
 -1      5006 8.65125E-02
 -1      5007 9.20548E-02
 -1      5008 1.00887E-01
 -1      5009 1.13170E-01
 -1      5010 1.29000E-01
 -1      5011 1.54464E-01
 -1      5012 1.87325E-01
 -1      5013 2.27293E-01
 -1      5014 2.70283E-01
 -1      5015 3.04875E-01
 -1      5016 1.42707E-01
 -1      5017 1.14256E-01
 -1      5018 9.73510E-02
 -1      5019 8.68217E-02
 -1      5020 8.10977E-02
 -1      5021 8.12433E-02
 -1      5022 8.66883E-02
 -1      5023 9.59954E-02
 -1      5024 1.09770E-01
 -1      5025 1.28902E-01
 -1      5026 1.54464E-01
 -1      5027 1.87325E-01
 -1      5028 2.30780E-01
 -1      5029 2.99333E-01
 -1      5030 3.85741E-01
 -1      5031 1.40087E-01
 -1      5032 1.10337E-01
 -1      5033 9.25746E-02
 -1      5034 8.12208E-02
 -1      5035 7.46219E-02
 -1      5036 7.26718E-02
 -1      5037 7.68720E-02
 -1      5038 8.48657E-02
 -1      5039 9.74405E-02
 -1      5040 1.15919E-01
 -1      5041 1.42308E-01
 -1      5042 1.79406E-01
 -1      5043 2.30780E-01
 -1      5044 2.99333E-01
 -1      5045 3.85741E-01
 -1      5046 1.43776E-01
 -1      5047 1.13846E-01
 -1      5048 9.46299E-02
 -1      5049 8.07412E-02
 -1      5050 7.07395E-02
 -1      5051 6.38281E-02
 -1      5052 6.43457E-02
 -1      5053 6.97368E-02
 -1      5054 7.89626E-02
 -1      5055 9.32575E-02
 -1      5056 1.14701E-01
 -1      5057 1.46677E-01
 -1      5058 1.94643E-01
 -1      5059 2.66910E-01
 -1      5060 3.76803E-01
 -1      5061 1.53200E-01
 -1      5062 1.21135E-01
 -1      5063 1.00745E-01
 -1      5064 8.64943E-02
 -1      5065 7.67841E-02
 -1      5066 7.07644E-02
 -1      5067 6.83944E-02
 -1      5068 7.22204E-02
 -1      5069 8.01545E-02
 -1      5070 9.34410E-02
 -1      5071 1.14162E-01
 -1      5072 1.45690E-01
 -1      5073 1.93436E-01
 -1      5074 2.65570E-01
 -1      5075 3.75148E-01
 -1      5076 1.57528E-01
 -1      5077 1.25241E-01
 -1      5078 1.04817E-01
 -1      5079 9.09324E-02
 -1      5080 8.19748E-02
 -1      5081 7.71132E-02
 -1      5082 7.84644E-02
 -1      5083 8.50155E-02
 -1      5084 9.63833E-02
 -1      5085 1.13871E-01
 -1      5086 1.39445E-01
 -1      5087 1.75830E-01
 -1      5088 2.26458E-01
 -1      5089 2.94001E-01
 -1      5090 3.78812E-01
 -1      5091 1.57528E-01
 -1      5092 1.25739E-01
 -1      5093 1.06304E-01
 -1      5094 9.33508E-02
 -1      5095 8.53729E-02
 -1      5096 8.16566E-02
 -1      5097 8.55105E-02
 -1      5098 9.34399E-02
 -1      5099 1.06021E-01
 -1      5100 1.24098E-01
 -1      5101 1.48671E-01
 -1      5102 1.80501E-01
 -1      5103 2.26458E-01
 -1      5104 2.94001E-01
 -1      5105 3.78812E-01
 -1      5106 1.56444E-01
 -1      5107 1.25739E-01
 -1      5108 1.06304E-01
 -1      5109 9.33508E-02
 -1      5110 8.62629E-02
 -1      5111 8.38542E-02
 -1      5112 8.78887E-02
 -1      5113 9.54034E-02
 -1      5114 1.06517E-01
 -1      5115 1.24098E-01
 -1      5116 1.48671E-01
 -1      5117 1.80501E-01
 -1      5118 2.19250E-01
 -1      5119 2.60637E-01
 -1      5120 2.93052E-01
 -1      5121 1.50095E-01
 -1      5122 1.22490E-01
 -1      5123 1.04874E-01
 -1      5124 9.32356E-02
 -1      5125 8.62629E-02
 -1      5126 8.38542E-02
 -1      5127 8.78887E-02
 -1      5128 9.54034E-02
 -1      5129 1.06517E-01
 -1      5130 1.21262E-01
 -1      5131 1.39257E-01
 -1      5132 1.58999E-01
 -1      5133 1.76627E-01
 -1      5134 2.03720E-01
 -1      5135 2.71268E-01
 -1      5136 1.39037E-01
 -1      5137 1.15653E-01
 -1      5138 1.00453E-01
 -1      5139 9.03493E-02
 -1      5140 8.42789E-02
 -1      5141 8.20054E-02
 -1      5142 8.50695E-02
 -1      5143 9.05423E-02
 -1      5144 9.80002E-02
 -1      5145 1.06634E-01
 -1      5146 1.14820E-01
 -1      5147 1.25196E-01
 -1      5148 1.57296E-01
 -1      5149 2.03720E-01
 -1      5150 2.60856E-01
 -1      5151 1.24144E-01
 -1      5152 1.05653E-01
 -1      5153 9.32296E-02
 -1      5154 8.47505E-02
 -1      5155 7.94302E-02
 -1      5156 7.67625E-02
 -1      5157 7.75180E-02
 -1      5158 7.98769E-02
 -1      5159 8.24730E-02
 -1      5160 8.44401E-02
 -1      5161 1.02005E-01
 -1      5162 1.25196E-01
 -1      5163 1.57296E-01
 -1      5164 1.92931E-01
 -1      5165 2.26445E-01
 -1      5166 1.14458E-01
 -1      5167 1.21456E-01
 -1      5168 1.00465E-01
 -1      5169 1.13162E-01
 -1      5170 9.19337E-02
 -1      5171 9.98637E-02
 -1      5172 8.65134E-02
 -1      5173 9.17504E-02
 -1      5174 8.34733E-02
 -1      5175 8.69927E-02
 -1      5176 8.28334E-02
 -1      5177 8.53854E-02
 -1      5178 8.38688E-02
 -1      5179 8.66668E-02
 -1      5180 8.55688E-02
 -1      5181 8.96092E-02
 -1      5182 8.75952E-02
 -1      5183 9.30623E-02
 -1      5184 9.37448E-02
 -1      5185 9.59188E-02
 -1      5186 1.06265E-01
 -1      5187 1.01645E-01
 -1      5188 1.25765E-01
 -1      5189 1.16091E-01
 -1      5190 1.51519E-01
 -1      5191 1.41013E-01
 -1      5192 1.78372E-01
 -1      5193 1.73201E-01
 -1      5194 2.03077E-01
 -1      5195 2.06589E-01
 -1      5196 2.74392E-01
 -1      5197 1.27070E-01
 -1      5198 1.32684E-01
 -1      5199 1.08050E-01
 -1      5200 1.21958E-01
 -1      5201 9.66494E-02
 -1      5202 1.04836E-01
 -1      5203 8.96376E-02
 -1      5204 9.45365E-02
 -1      5205 8.60028E-02
 -1      5206 8.86477E-02
 -1      5207 8.66492E-02
 -1      5208 8.72666E-02
 -1      5209 9.01208E-02
 -1      5210 9.01032E-02
 -1      5211 9.51679E-02
 -1      5212 9.56795E-02
 -1      5213 1.01188E-01
 -1      5214 1.03294E-01
 -1      5215 1.07117E-01
 -1      5216 1.12386E-01
 -1      5217 1.16336E-01
 -1      5218 1.21808E-01
 -1      5219 1.28984E-01
 -1      5220 1.29229E-01
 -1      5221 1.56108E-01
 -1      5222 1.44079E-01
 -1      5223 1.95057E-01
 -1      5224 1.77964E-01
 -1      5225 2.39429E-01
 -1      5226 2.27897E-01
 -1      5227 2.90938E-01
 -1      5228 1.36371E-01
 -1      5229 1.40059E-01
 -1      5230 1.12868E-01
 -1      5231 1.27282E-01
 -1      5232 9.88861E-02
 -1      5233 1.06918E-01
 -1      5234 9.06333E-02
 -1      5235 9.49830E-02
 -1      5236 8.66620E-02
 -1      5237 8.86477E-02
 -1      5238 8.78711E-02
 -1      5239 8.72666E-02
 -1      5240 9.23353E-02
 -1      5241 9.01032E-02
 -1      5242 9.99552E-02
 -1      5243 9.66110E-02
 -1      5244 1.10367E-01
 -1      5245 1.07029E-01
 -1      5246 1.23104E-01
 -1      5247 1.21085E-01
 -1      5248 1.37240E-01
 -1      5249 1.38536E-01
 -1      5250 1.50518E-01
 -1      5251 1.58529E-01
 -1      5252 1.72048E-01
 -1      5253 1.78486E-01
 -1      5254 2.02596E-01
 -1      5255 1.96680E-01
 -1      5256 2.60645E-01
 -1      5257 2.35344E-01
 -1      5258 2.87418E-01
 -1      5259 1.41383E-01
 -1      5260 1.42707E-01
 -1      5261 1.14504E-01
 -1      5262 1.28606E-01
 -1      5263 9.93326E-02
 -1      5264 1.06918E-01
 -1      5265 9.03380E-02
 -1      5266 9.46876E-02
 -1      5267 8.59519E-02
 -1      5268 8.76422E-02
 -1      5269 8.71918E-02
 -1      5270 8.58771E-02
 -1      5271 9.21950E-02
 -1      5272 8.92837E-02
 -1      5273 1.00887E-01
 -1      5274 9.64708E-02
 -1      5275 1.13170E-01
 -1      5276 1.07029E-01
 -1      5277 1.29000E-01
 -1      5278 1.21085E-01
 -1      5279 1.51268E-01
 -1      5280 1.41732E-01
 -1      5281 1.78155E-01
 -1      5282 1.70894E-01
 -1      5283 2.07640E-01
 -1      5284 2.07309E-01
 -1      5285 2.37828E-01
 -1      5286 2.48788E-01
 -1      5287 2.85096E-01
 -1      5288 2.87579E-01
 -1      5289 3.04875E-01
 -1      5290 1.42707E-01
 -1      5291 1.42707E-01
 -1      5292 1.14380E-01
 -1      5293 1.28482E-01
 -1      5294 9.83418E-02
 -1      5295 1.05804E-01
 -1      5296 8.84322E-02
 -1      5297 9.20864E-02
 -1      5298 8.31698E-02
 -1      5299 8.39597E-02
 -1      5300 8.38779E-02
 -1      5301 8.11705E-02
 -1      5302 8.93716E-02
 -1      5303 8.39658E-02
 -1      5304 9.84411E-02
 -1      5305 9.13418E-02
 -1      5306 1.11470E-01
 -1      5307 1.02883E-01
 -1      5308 1.28951E-01
 -1      5309 1.19336E-01
 -1      5310 1.54464E-01
 -1      5311 1.41683E-01
 -1      5312 1.87325E-01
 -1      5313 1.70894E-01
 -1      5314 2.29036E-01
 -1      5315 2.09052E-01
 -1      5316 2.84808E-01
 -1      5317 2.65056E-01
 -1      5318 3.45308E-01
 -1      5319 3.42537E-01
 -1      5320 3.85741E-01
 -1      5321 1.41397E-01
 -1      5322 1.40087E-01
 -1      5323 1.12297E-01
 -1      5324 1.25212E-01
 -1      5325 9.49628E-02
 -1      5326 1.01456E-01
 -1      5327 8.40213E-02
 -1      5328 8.68977E-02
 -1      5329 7.78598E-02
 -1      5330 7.79214E-02
 -1      5331 7.69575E-02
 -1      5332 7.36469E-02
 -1      5333 8.17801E-02
 -1      5334 7.47719E-02
 -1      5335 9.04306E-02
 -1      5336 8.08689E-02
 -1      5337 1.03605E-01
 -1      5338 9.11531E-02
 -1      5339 1.22410E-01
 -1      5340 1.06680E-01
 -1      5341 1.48386E-01
 -1      5342 1.29114E-01
 -1      5343 1.83366E-01
 -1      5344 1.60857E-01
 -1      5345 2.30780E-01
 -1      5346 2.05093E-01
 -1      5347 2.99333E-01
 -1      5348 2.65056E-01
 -1      5349 3.85741E-01
 -1      5350 3.42537E-01
 -1      5351 3.85741E-01
 -1      5352 1.41932E-01
 -1      5353 1.43776E-01
 -1      5354 1.12091E-01
 -1      5355 1.28811E-01
 -1      5356 9.36022E-02
 -1      5357 1.04238E-01
 -1      5358 8.09810E-02
 -1      5359 8.76855E-02
 -1      5360 7.26807E-02
 -1      5361 7.57403E-02
 -1      5362 6.82500E-02
 -1      5363 6.72838E-02
 -1      5364 7.06088E-02
 -1      5365 6.40869E-02
 -1      5366 7.73013E-02
 -1      5367 6.70413E-02
 -1      5368 8.82015E-02
 -1      5369 7.43497E-02
 -1      5370 1.04588E-01
 -1      5371 8.61100E-02
 -1      5372 1.28504E-01
 -1      5373 1.03979E-01
 -1      5374 1.63042E-01
 -1      5375 1.30689E-01
 -1      5376 2.12711E-01
 -1      5377 1.70660E-01
 -1      5378 2.83121E-01
 -1      5379 2.30776E-01
 -1      5380 3.81272E-01
 -1      5381 3.21857E-01
 -1      5382 3.76803E-01
 -1      5383 1.48488E-01
 -1      5384 1.53200E-01
 -1      5385 1.17490E-01
 -1      5386 1.37168E-01
 -1      5387 9.76876E-02
 -1      5388 1.10940E-01
 -1      5389 8.36177E-02
 -1      5390 9.36198E-02
 -1      5391 7.37618E-02
 -1      5392 8.16392E-02
 -1      5393 6.72963E-02
 -1      5394 7.37742E-02
 -1      5395 6.63700E-02
 -1      5396 6.95794E-02
 -1      5397 7.09786E-02
 -1      5398 7.03074E-02
 -1      5399 7.95585E-02
 -1      5400 7.61875E-02
 -1      5401 9.33492E-02
 -1      5402 8.67978E-02
 -1      5403 1.14431E-01
 -1      5404 1.03802E-01
 -1      5405 1.46184E-01
 -1      5406 1.29926E-01
 -1      5407 1.94039E-01
 -1      5408 1.69563E-01
 -1      5409 2.66240E-01
 -1      5410 2.29503E-01
 -1      5411 3.75976E-01
 -1      5412 3.20359E-01
 -1      5413 3.75148E-01
 -1      5414 1.55364E-01
 -1      5415 1.57528E-01
 -1      5416 1.23188E-01
 -1      5417 1.41385E-01
 -1      5418 1.02781E-01
 -1      5419 1.15029E-01
 -1      5420 8.87133E-02
 -1      5421 9.78746E-02
 -1      5422 7.93794E-02
 -1      5423 8.64536E-02
 -1      5424 7.39388E-02
 -1      5425 7.95440E-02
 -1      5426 7.34294E-02
 -1      5427 7.77888E-02
 -1      5428 7.86180E-02
 -1      5429 8.17400E-02
 -1      5430 8.82689E-02
 -1      5431 9.06994E-02
 -1      5432 1.03656E-01
 -1      5433 1.05127E-01
 -1      5434 1.26804E-01
 -1      5435 1.26658E-01
 -1      5436 1.60760E-01
 -1      5437 1.57638E-01
 -1      5438 2.09947E-01
 -1      5439 2.01144E-01
 -1      5440 2.79786E-01
 -1      5441 2.60229E-01
 -1      5442 3.76980E-01
 -1      5443 3.36407E-01
 -1      5444 3.78812E-01
 -1      5445 1.57528E-01
 -1      5446 1.57528E-01
 -1      5447 1.25490E-01
 -1      5448 1.41634E-01
 -1      5449 1.05560E-01
 -1      5450 1.16022E-01
 -1      5451 9.21416E-02
 -1      5452 9.98274E-02
 -1      5453 8.36738E-02
 -1      5454 8.93618E-02
 -1      5455 7.93849E-02
 -1      5456 8.35147E-02
 -1      5457 8.19874E-02
 -1      5458 8.35836E-02
 -1      5459 8.92277E-02
 -1      5460 8.94752E-02
 -1      5461 1.01202E-01
 -1      5462 9.97306E-02
 -1      5463 1.18985E-01
 -1      5464 1.15060E-01
 -1      5465 1.44058E-01
 -1      5466 1.36384E-01
 -1      5467 1.78166E-01
 -1      5468 1.64586E-01
 -1      5469 2.26458E-01
 -1      5470 2.03480E-01
 -1      5471 2.94001E-01
 -1      5472 2.60229E-01
 -1      5473 3.78812E-01
 -1      5474 3.36407E-01
 -1      5475 3.78812E-01
 -1      5476 1.56986E-01
 -1      5477 1.56444E-01
 -1      5478 1.25739E-01
 -1      5479 1.41092E-01
 -1      5480 1.06304E-01
 -1      5481 1.16022E-01
 -1      5482 9.33508E-02
 -1      5483 9.98274E-02
 -1      5484 8.58179E-02
 -1      5485 8.98068E-02
 -1      5486 8.27554E-02
 -1      5487 8.50585E-02
 -1      5488 8.66996E-02
 -1      5489 8.58714E-02
 -1      5490 9.44216E-02
 -1      5491 9.16461E-02
 -1      5492 1.06269E-01
 -1      5493 1.00960E-01
 -1      5494 1.24098E-01
 -1      5495 1.15307E-01
 -1      5496 1.48671E-01
 -1      5497 1.36384E-01
 -1      5498 1.80501E-01
 -1      5499 1.64586E-01
 -1      5500 2.22854E-01
 -1      5501 1.99876E-01
 -1      5502 2.77319E-01
 -1      5503 2.39944E-01
 -1      5504 3.35932E-01
 -1      5505 2.76844E-01
 -1      5506 2.93052E-01
 -1      5507 1.53270E-01
 -1      5508 1.50095E-01
 -1      5509 1.24115E-01
 -1      5510 1.36293E-01
 -1      5511 1.05589E-01
 -1      5512 1.13682E-01
 -1      5513 9.32932E-02
 -1      5514 9.90548E-02
 -1      5515 8.62629E-02
 -1      5516 8.97492E-02
 -1      5517 8.38542E-02
 -1      5518 8.50585E-02
 -1      5519 8.78887E-02
 -1      5520 8.58714E-02
 -1      5521 9.54034E-02
 -1      5522 9.16461E-02
 -1      5523 1.06517E-01
 -1      5524 1.00960E-01
 -1      5525 1.22680E-01
 -1      5526 1.13889E-01
 -1      5527 1.43964E-01
 -1      5528 1.30259E-01
 -1      5529 1.69750E-01
 -1      5530 1.49128E-01
 -1      5531 1.97939E-01
 -1      5532 1.67813E-01
 -1      5533 2.32178E-01
 -1      5534 1.90174E-01
 -1      5535 2.82160E-01
 -1      5536 2.37494E-01
 -1      5537 2.96641E-01
 -1      5538 1.44566E-01
 -1      5539 1.39037E-01
 -1      5540 1.19072E-01
 -1      5541 1.27345E-01
 -1      5542 1.02664E-01
 -1      5543 1.08053E-01
 -1      5544 9.17925E-02
 -1      5545 9.54013E-02
 -1      5546 8.52709E-02
 -1      5547 8.73141E-02
 -1      5548 8.29298E-02
 -1      5549 8.31421E-02
 -1      5550 8.64791E-02
 -1      5551 8.35375E-02
 -1      5552 9.29728E-02
 -1      5553 8.78059E-02
 -1      5554 1.02258E-01
 -1      5555 9.42712E-02
 -1      5556 1.13948E-01
 -1      5557 1.02317E-01
 -1      5558 1.27038E-01
 -1      5559 1.10727E-01
 -1      5560 1.42097E-01
 -1      5561 1.20008E-01
 -1      5562 1.66961E-01
 -1      5563 1.41246E-01
 -1      5564 2.03720E-01
 -1      5565 1.80508E-01
 -1      5566 2.66062E-01
 -1      5567 2.32288E-01
 -1      5568 2.99465E-01
 -1      5569 1.31591E-01
 -1      5570 1.24144E-01
 -1      5571 1.10653E-01
 -1      5572 1.14898E-01
 -1      5573 9.68415E-02
 -1      5574 9.94413E-02
 -1      5575 8.75499E-02
 -1      5576 8.89901E-02
 -1      5577 8.18545E-02
 -1      5578 8.20904E-02
 -1      5579 7.93840E-02
 -1      5580 7.80964E-02
 -1      5581 8.12938E-02
 -1      5582 7.71403E-02
 -1      5583 8.52096E-02
 -1      5584 7.86974E-02
 -1      5585 9.02366E-02
 -1      5586 8.11749E-02
 -1      5587 9.55369E-02
 -1      5588 8.34565E-02
 -1      5589 1.08412E-01
 -1      5590 9.32224E-02
 -1      5591 1.25196E-01
 -1      5592 1.13600E-01
 -1      5593 1.57296E-01
 -1      5594 1.41246E-01
 -1      5595 1.98325E-01
 -1      5596 1.75113E-01
 -1      5597 2.43650E-01
 -1      5598 2.09688E-01
 -1      5599 2.82259E-01
 -1      5600 1.15308E-01
 -1      5601 9.93868E-02
 -1      5602 8.84210E-02
 -1      5603 8.07544E-02
 -1      5604 7.57393E-02
 -1      5605 7.29221E-02
 -1      5606 7.24481E-02
 -1      5607 7.31131E-02
 -1      5608 7.59440E-02
 -1      5609 8.39049E-02
 -1      5610 1.02005E-01
 -1      5611 1.24423E-01
 -1      5612 1.52063E-01
 -1      5613 1.80341E-01
 -1      5614 2.13184E-01
 -1      5615 8.47913E-02
 -1      5616 7.69476E-02
 -1      5617 7.07407E-02
 -1      5618 6.58027E-02
 -1      5619 6.19164E-02
 -1      5620 5.88198E-02
 -1      5621 5.60829E-02
 -1      5622 5.74587E-02
 -1      5623 6.88630E-02
 -1      5624 8.20658E-02
 -1      5625 9.65379E-02
 -1      5626 1.11190E-01
 -1      5627 1.23642E-01
 -1      5628 1.43801E-01
 -1      5629 2.19505E-01
 -1      5630 6.60129E-02
 -1      5631 6.25164E-02
 -1      5632 5.88595E-02
 -1      5633 5.53267E-02
 -1      5634 5.19110E-02
 -1      5635 4.84578E-02
 -1      5636 4.66872E-02
 -1      5637 5.61145E-02
 -1      5638 6.65166E-02
 -1      5639 7.73021E-02
 -1      5640 8.77654E-02
 -1      5641 9.63938E-02
 -1      5642 1.06416E-01
 -1      5643 1.58628E-01
 -1      5644 2.22255E-01
 -1      5645 5.49892E-02
 -1      5646 4.78559E-02
 -1      5647 4.64693E-02
 -1      5648 4.42114E-02
 -1      5649 4.12450E-02
 -1      5650 3.75191E-02
 -1      5651 4.37293E-02
 -1      5652 5.26998E-02
 -1      5653 6.14232E-02
 -1      5654 6.94774E-02
 -1      5655 7.59275E-02
 -1      5656 8.07832E-02
 -1      5657 1.17565E-01
 -1      5658 1.62279E-01
 -1      5659 2.22255E-01
 -1      5660 5.73475E-02
 -1      5661 3.66297E-02
 -1      5662 3.40784E-02
 -1      5663 3.29488E-02
 -1      5664 3.04307E-02
 -1      5665 3.10757E-02
 -1      5666 3.96469E-02
 -1      5667 4.74652E-02
 -1      5668 5.43308E-02
 -1      5669 5.96926E-02
 -1      5670 6.25344E-02
 -1      5671 8.89846E-02
 -1      5672 1.21311E-01
 -1      5673 1.62279E-01
 -1      5674 2.13373E-01
 -1      5675 5.76712E-02
 -1      5676 3.75397E-02
 -1      5677 2.32451E-02
 -1      5678 2.19627E-02
 -1      5679 1.98981E-02
 -1      5680 2.66824E-02
 -1      5681 3.44256E-02
 -1      5682 4.09564E-02
 -1      5683 4.59906E-02
 -1      5684 4.89306E-02
 -1      5685 6.86307E-02
 -1      5686 9.25485E-02
 -1      5687 1.21311E-01
 -1      5688 1.58132E-01
 -1      5689 1.97560E-01
 -1      5690 5.76712E-02
 -1      5691 3.80300E-02
 -1      5692 2.31869E-02
 -1      5693 1.21885E-02
 -1      5694 1.34776E-02
 -1      5695 2.16987E-02
 -1      5696 2.84783E-02
 -1      5697 3.37129E-02
 -1      5698 3.86594E-02
 -1      5699 5.39870E-02
 -1      5700 7.19745E-02
 -1      5701 9.25485E-02
 -1      5702 1.19708E-01
 -1      5703 1.49018E-01
 -1      5704 1.78317E-01
 -1      5705 5.63411E-02
 -1      5706 3.80300E-02
 -1      5707 2.43201E-02
 -1      5708 1.29719E-02
 -1      5709 1.01294E-02
 -1      5710 1.64262E-02
 -1      5711 2.26002E-02
 -1      5712 3.20081E-02
 -1      5713 4.35445E-02
 -1      5714 5.71582E-02
 -1      5715 7.26562E-02
 -1      5716 9.23756E-02
 -1      5717 1.14527E-01
 -1      5718 1.37141E-01
 -1      5719 1.58077E-01
 -1      5720 5.37321E-02
 -1      5721 3.75380E-02
 -1      5722 2.48301E-02
 -1      5723 1.58953E-02
 -1      5724 1.66338E-02
 -1      5725 2.13040E-02
 -1      5726 2.79181E-02
 -1      5727 3.63875E-02
 -1      5728 4.66048E-02
 -1      5729 5.83887E-02
 -1      5730 7.26562E-02
 -1      5731 8.96008E-02
 -1      5732 1.07187E-01
 -1      5733 1.24101E-01
 -1      5734 1.38396E-01
 -1      5735 5.01937E-02
 -1      5736 3.62648E-02
 -1      5737 2.48301E-02
 -1      5738 1.98239E-02
 -1      5739 2.20042E-02
 -1      5740 2.60982E-02
 -1      5741 3.19409E-02
 -1      5742 3.93732E-02
 -1      5743 4.82053E-02
 -1      5744 5.83887E-02
 -1      5745 7.14181E-02
 -1      5746 8.51538E-02
 -1      5747 9.87521E-02
 -1      5748 1.10982E-01
 -1      5749 1.20167E-01
 -1      5750 4.60380E-02
 -1      5751 3.44024E-02
 -1      5752 2.71157E-02
 -1      5753 2.47273E-02
 -1      5754 2.63011E-02
 -1      5755 2.98000E-02
 -1      5756 3.48383E-02
 -1      5757 4.12116E-02
 -1      5758 4.86784E-02
 -1      5759 5.81717E-02
 -1      5760 6.88801E-02
 -1      5761 7.97548E-02
 -1      5762 8.99822E-02
 -1      5763 9.84678E-02
 -1      5764 1.03827E-01
 -1      5765 4.38829E-02
 -1      5766 3.56244E-02
 -1      5767 3.09677E-02
 -1      5768 2.86068E-02
 -1      5769 2.96110E-02
 -1      5770 3.25324E-02
 -1      5771 3.67821E-02
 -1      5772 4.21310E-02
 -1      5773 4.86784E-02
 -1      5774 5.69265E-02
 -1      5775 6.55348E-02
 -1      5776 7.39360E-02
 -1      5777 8.13857E-02
 -1      5778 8.69471E-02
 -1      5779 8.95097E-02
 -1      5780 4.54577E-02
 -1      5781 3.79927E-02
 -1      5782 3.37294E-02
 -1      5783 3.14835E-02
 -1      5784 3.20360E-02
 -1      5785 3.44237E-02
 -1      5786 3.79352E-02
 -1      5787 4.23334E-02
 -1      5788 4.83117E-02
 -1      5789 5.49936E-02
 -1      5790 6.17572E-02
 -1      5791 6.80715E-02
 -1      5792 7.32800E-02
 -1      5793 7.66031E-02
 -1      5794 7.71701E-02
 -1      5795 4.59038E-02
 -1      5796 3.93136E-02
 -1      5797 3.55200E-02
 -1      5798 3.34600E-02
 -1      5799 3.36843E-02
 -1      5800 3.55999E-02
 -1      5801 3.84464E-02
 -1      5802 4.23334E-02
 -1      5803 4.73442E-02
 -1      5804 5.26395E-02
 -1      5805 5.78214E-02
 -1      5806 6.24106E-02
 -1      5807 6.58434E-02
 -1      5808 6.74849E-02
 -1      5809 6.74849E-02
 -1      5810 4.59038E-02
 -1      5811 3.97402E-02
 -1      5812 3.64654E-02
 -1      5813 3.46468E-02
 -1      5814 3.46651E-02
 -1      5815 3.61796E-02
 -1      5816 3.84473E-02
 -1      5817 4.19915E-02
 -1      5818 4.59684E-02
 -1      5819 5.00660E-02
 -1      5820 5.39196E-02
 -1      5821 5.71081E-02
 -1      5822 5.91575E-02
 -1      5823 5.95589E-02
 -1      5824 5.95589E-02
 -1      5825 4.54164E-02
 -1      5826 3.97402E-02
 -1      5827 3.66920E-02
 -1      5828 3.51564E-02
 -1      5829 3.50836E-02
 -1      5830 3.62719E-02
 -1      5831 3.84473E-02
 -1      5832 4.12493E-02
 -1      5833 4.43357E-02
 -1      5834 4.74208E-02
 -1      5835 5.01798E-02
 -1      5836 5.22499E-02
 -1      5837 5.32393E-02
 -1      5838 5.32393E-02
 -1      5839 5.27451E-02
 -1      5840 4.41768E-02
 -1      5841 3.94209E-02
 -1      5842 3.66920E-02
 -1      5843 3.51564E-02
 -1      5844 3.50836E-02
 -1      5845 3.62719E-02
 -1      5846 3.80521E-02
 -1      5847 4.02243E-02
 -1      5848 4.25618E-02
 -1      5849 4.48088E-02
 -1      5850 4.66819E-02
 -1      5851 4.78742E-02
 -1      5852 4.80657E-02
 -1      5853 4.80657E-02
 -1      5854 4.69413E-02
 -1      5855 4.23491E-02
 -1      5856 3.84955E-02
 -1      5857 3.63219E-02
 -1      5858 3.50985E-02
 -1      5859 3.50389E-02
 -1      5860 3.59746E-02
 -1      5861 3.73580E-02
 -1      5862 3.90114E-02
 -1      5863 4.07337E-02
 -1      5864 4.23012E-02
 -1      5865 4.34709E-02
 -1      5866 4.39868E-02
 -1      5867 4.39868E-02
 -1      5868 4.35905E-02
 -1      5869 4.20379E-02
 -1      5870 4.00786E-02
 -1      5871 3.70918E-02
 -1      5872 3.54696E-02
 -1      5873 3.45770E-02
 -1      5874 3.46217E-02
 -1      5875 3.53745E-02
 -1      5876 3.64473E-02
 -1      5877 3.76858E-02
 -1      5878 3.89154E-02
 -1      5879 3.99443E-02
 -1      5880 4.05672E-02
 -1      5881 4.05733E-02
 -1      5882 4.05733E-02
 -1      5883 3.97560E-02
 -1      5884 3.89550E-02
 -1      5885 3.74920E-02
 -1      5886 3.53251E-02
 -1      5887 3.42402E-02
 -1      5888 3.36883E-02
 -1      5889 3.39140E-02
 -1      5890 3.45473E-02
 -1      5891 3.53885E-02
 -1      5892 3.63066E-02
 -1      5893 3.71532E-02
 -1      5894 3.77661E-02
 -1      5895 3.79748E-02
 -1      5896 3.79748E-02
 -1      5897 3.76074E-02
 -1      5898 3.65005E-02
 -1      5899 3.66223E-02
 -1      5900 3.46981E-02
 -1      5901 3.32970E-02
 -1      5902 3.27283E-02
 -1      5903 3.26199E-02
 -1      5904 3.29890E-02
 -1      5905 3.35585E-02
 -1      5906 3.42385E-02
 -1      5907 3.49201E-02
 -1      5908 3.54794E-02
 -1      5909 3.57817E-02
 -1      5910 3.57817E-02
 -1      5911 3.56870E-02
 -1      5912 3.50569E-02
 -1      5913 3.37630E-02
 -1      5914 3.44571E-02
 -1      5915 3.17889E-02
 -1      5916 3.10961E-02
 -1      5917 3.11487E-02
 -1      5918 3.14549E-02
 -1      5919 3.19106E-02
 -1      5920 3.24642E-02
 -1      5921 3.30442E-02
 -1      5922 3.35621E-02
 -1      5923 3.39164E-02
 -1      5924 3.39971E-02
 -1      5925 3.39971E-02
 -1      5926 3.36907E-02
 -1      5927 3.28871E-02
 -1      5928 3.16026E-02
 -1      5929 3.24636E-02
 -1      5930 2.88416E-02
 -1      5931 2.91812E-02
 -1      5932 2.96440E-02
 -1      5933 3.01662E-02
 -1      5934 3.07345E-02
 -1      5935 3.13119E-02
 -1      5936 3.18438E-02
 -1      5937 3.22599E-02
 -1      5938 3.24788E-02
 -1      5939 3.24788E-02
 -1      5940 3.24122E-02
 -1      5941 3.19696E-02
 -1      5942 3.10639E-02
 -1      5943 3.02184E-02
 -1      5944 3.06414E-02
 -1      5945 2.64689E-02
 -1      5946 2.72824E-02
 -1      5947 2.80652E-02
 -1      5948 2.88081E-02
 -1      5949 2.95082E-02
 -1      5950 3.01416E-02
 -1      5951 3.06681E-02
 -1      5952 3.10340E-02
 -1      5953 3.11757E-02
 -1      5954 3.11757E-02
 -1      5955 3.10232E-02
 -1      5956 3.05056E-02
 -1      5957 2.95550E-02
 -1      5958 2.89342E-02
 -1      5959 2.89877E-02
 -1      5960 2.41624E-02
 -1      5961 2.53753E-02
 -1      5962 2.64633E-02
 -1      5963 2.74269E-02
 -1      5964 2.82722E-02
 -1      5965 2.89862E-02
 -1      5966 2.95419E-02
 -1      5967 2.98998E-02
 -1      5968 3.00116E-02
 -1      5969 3.00116E-02
 -1      5970 2.98235E-02
 -1      5971 2.92805E-02
 -1      5972 2.83305E-02
 -1      5973 2.77611E-02
 -1      5974 2.77611E-02
 -1      5975 2.19250E-02
 -1      5976 2.35056E-02
 -1      5977 2.48816E-02
 -1      5978 2.60619E-02
 -1      5979 2.70599E-02
 -1      5980 2.78726E-02
 -1      5981 2.84843E-02
 -1      5982 2.88679E-02
 -1      5983 2.89882E-02
 -1      5984 2.89882E-02
 -1      5985 2.88050E-02
 -1      5986 2.82765E-02
 -1      5987 2.73631E-02
 -1      5988 2.69109E-02
 -1      5989 2.67086E-02
 -1      5990 1.97953E-02
 -1      5991 2.17119E-02
 -1      5992 2.33567E-02
 -1      5993 2.47457E-02
 -1      5994 2.58989E-02
 -1      5995 2.68222E-02
 -1      5996 2.75096E-02
 -1      5997 2.79450E-02
 -1      5998 2.81043E-02
 -1      5999 2.81043E-02
 -1      6000 2.79585E-02
 -1      6001 2.74765E-02
 -1      6002 2.67009E-02
 -1      6003 2.62284E-02
 -1      6004 2.57847E-02
 -1      6005 1.78060E-02
 -1      6006 2.00267E-02
 -1      6007 2.19187E-02
 -1      6008 2.35048E-02
 -1      6009 2.48111E-02
 -1      6010 2.58511E-02
 -1      6011 2.66279E-02
 -1      6012 2.71345E-02
 -1      6013 2.73564E-02
 -1      6014 2.73564E-02
 -1      6015 2.72738E-02
 -1      6016 2.68641E-02
 -1      6017 2.61989E-02
 -1      6018 2.56572E-02
 -1      6019 2.49978E-02
 -1      6020 1.59843E-02
 -1      6021 1.84769E-02
 -1      6022 2.05925E-02
 -1      6023 2.23607E-02
 -1      6024 2.38132E-02
 -1      6025 2.49711E-02
 -1      6026 2.58451E-02
 -1      6027 2.64366E-02
 -1      6028 2.67390E-02
 -1      6029 2.67400E-02
 -1      6030 2.67400E-02
 -1      6031 2.64236E-02
 -1      6032 2.58456E-02
 -1      6033 2.52117E-02
 -1      6034 2.43563E-02
 -1      6035 9.56322E-02
 -1      6036 8.47913E-02
 -1      6037 8.50342E-02
 -1      6038 8.08695E-02
 -1      6039 7.71766E-02
 -1      6040 7.38441E-02
 -1      6041 7.12805E-02
 -1      6042 6.82717E-02
 -1      6043 6.69824E-02
 -1      6044 6.38596E-02
 -1      6045 6.39507E-02
 -1      6046 6.03681E-02
 -1      6047 6.17305E-02
 -1      6048 5.74513E-02
 -1      6049 6.19040E-02
 -1      6050 5.67708E-02
 -1      6051 6.91390E-02
 -1      6052 6.31609E-02
 -1      6053 8.27177E-02
 -1      6054 7.54644E-02
 -1      6055 9.92713E-02
 -1      6056 8.93019E-02
 -1      6057 1.17420E-01
 -1      6058 1.03864E-01
 -1      6059 1.35236E-01
 -1      6060 1.17416E-01
 -1      6061 1.55776E-01
 -1      6062 1.33721E-01
 -1      6063 2.09714E-01
 -1      6064 1.81653E-01
 -1      6065 2.66651E-01
 -1      6066 7.54021E-02
 -1      6067 6.60129E-02
 -1      6068 6.97320E-02
 -1      6069 6.42647E-02
 -1      6070 6.48001E-02
 -1      6071 6.06879E-02
 -1      6072 6.05647E-02
 -1      6073 5.70931E-02
 -1      6074 5.69137E-02
 -1      6075 5.36189E-02
 -1      6076 5.36388E-02
 -1      6077 5.01844E-02
 -1      6078 5.13850E-02
 -1      6079 4.75725E-02
 -1      6080 5.67866E-02
 -1      6081 5.14009E-02
 -1      6082 6.76898E-02
 -1      6083 6.13156E-02
 -1      6084 7.96840E-02
 -1      6085 7.19094E-02
 -1      6086 9.21517E-02
 -1      6087 8.25338E-02
 -1      6088 1.03792E-01
 -1      6089 9.20796E-02
 -1      6090 1.15029E-01
 -1      6091 1.01405E-01
 -1      6092 1.51215E-01
 -1      6093 1.32522E-01
 -1      6094 2.20880E-01
 -1      6095 1.90442E-01
 -1      6096 2.68027E-01
 -1      6097 6.05011E-02
 -1      6098 5.49892E-02
 -1      6099 5.51861E-02
 -1      6100 5.14225E-02
 -1      6101 5.26644E-02
 -1      6102 4.71626E-02
 -1      6103 4.97691E-02
 -1      6104 4.53404E-02
 -1      6105 4.65780E-02
 -1      6106 4.27282E-02
 -1      6107 4.29884E-02
 -1      6108 3.93820E-02
 -1      6109 4.52082E-02
 -1      6110 4.06242E-02
 -1      6111 5.44072E-02
 -1      6112 4.82146E-02
 -1      6113 6.39699E-02
 -1      6114 5.70615E-02
 -1      6115 7.33897E-02
 -1      6116 6.54503E-02
 -1      6117 8.18465E-02
 -1      6118 7.27025E-02
 -1      6119 8.85885E-02
 -1      6120 7.83554E-02
 -1      6121 1.11990E-01
 -1      6122 9.91740E-02
 -1      6123 1.60454E-01
 -1      6124 1.39922E-01
 -1      6125 2.22255E-01
 -1      6126 1.92267E-01
 -1      6127 2.59025E-01
 -1      6128 5.61684E-02
 -1      6129 5.73475E-02
 -1      6130 4.22428E-02
 -1      6131 4.69886E-02
 -1      6132 4.02738E-02
 -1      6133 3.53540E-02
 -1      6134 3.85801E-02
 -1      6135 3.35136E-02
 -1      6136 3.58379E-02
 -1      6137 3.16897E-02
 -1      6138 3.42974E-02
 -1      6139 3.07532E-02
 -1      6140 4.16881E-02
 -1      6141 3.53613E-02
 -1      6142 5.00825E-02
 -1      6143 4.35560E-02
 -1      6144 5.78770E-02
 -1      6145 5.08980E-02
 -1      6146 6.45850E-02
 -1      6147 5.70117E-02
 -1      6148 6.92310E-02
 -1      6149 6.11135E-02
 -1      6150 8.48839E-02
 -1      6151 7.57595E-02
 -1      6152 1.19438E-01
 -1      6153 1.05148E-01
 -1      6154 1.62279E-01
 -1      6155 1.41795E-01
 -1      6156 2.17814E-01
 -1      6157 1.87826E-01
 -1      6158 2.40737E-01
 -1      6159 5.75094E-02
 -1      6160 5.76712E-02
 -1      6161 3.70847E-02
 -1      6162 4.76055E-02
 -1      6163 2.86617E-02
 -1      6164 3.03924E-02
 -1      6165 2.74557E-02
 -1      6166 2.26039E-02
 -1      6167 2.51644E-02
 -1      6168 2.09304E-02
 -1      6169 2.88790E-02
 -1      6170 2.32903E-02
 -1      6171 3.70362E-02
 -1      6172 3.05540E-02
 -1      6173 4.42108E-02
 -1      6174 3.76910E-02
 -1      6175 5.01607E-02
 -1      6176 4.34735E-02
 -1      6177 5.43116E-02
 -1      6178 4.74606E-02
 -1      6179 6.55825E-02
 -1      6180 5.87807E-02
 -1      6181 9.07666E-02
 -1      6182 8.05896E-02
 -1      6183 1.21311E-01
 -1      6184 1.06930E-01
 -1      6185 1.60206E-01
 -1      6186 1.39722E-01
 -1      6187 2.05466E-01
 -1      6188 1.77846E-01
 -1      6189 2.16990E-01
 -1      6190 5.76712E-02
 -1      6191 5.76712E-02
 -1      6192 3.77849E-02
 -1      6193 4.78506E-02
 -1      6194 2.32160E-02
 -1      6195 3.06085E-02
 -1      6196 1.70756E-02
 -1      6197 1.76877E-02
 -1      6198 1.66879E-02
 -1      6199 1.28330E-02
 -1      6200 2.41906E-02
 -1      6201 1.75882E-02
 -1      6202 3.14520E-02
 -1      6203 2.50885E-02
 -1      6204 3.73346E-02
 -1      6205 3.10956E-02
 -1      6206 4.23250E-02
 -1      6207 3.61861E-02
 -1      6208 5.14588E-02
 -1      6209 4.63232E-02
 -1      6210 7.03026E-02
 -1      6211 6.29807E-02
 -1      6212 9.25485E-02
 -1      6213 8.22615E-02
 -1      6214 1.20509E-01
 -1      6215 1.06128E-01
 -1      6216 1.53575E-01
 -1      6217 1.34363E-01
 -1      6218 1.87938E-01
 -1      6219 1.63667E-01
 -1      6220 1.91420E-01
 -1      6221 5.70061E-02
 -1      6222 5.63411E-02
 -1      6223 3.80300E-02
 -1      6224 4.71856E-02
 -1      6225 2.37535E-02
 -1      6226 3.11751E-02
 -1      6227 1.25802E-02
 -1      6228 1.86460E-02
 -1      6229 1.18035E-02
 -1      6230 1.15506E-02
 -1      6231 1.90625E-02
 -1      6232 1.32778E-02
 -1      6233 2.55393E-02
 -1      6234 1.95132E-02
 -1      6235 3.28605E-02
 -1      6236 2.73042E-02
 -1      6237 4.11019E-02
 -1      6238 3.77763E-02
 -1      6239 5.55726E-02
 -1      6240 5.03513E-02
 -1      6241 7.23153E-02
 -1      6242 6.49072E-02
 -1      6243 9.24621E-02
 -1      6244 8.25159E-02
 -1      6245 1.17117E-01
 -1      6246 1.03451E-01
 -1      6247 1.43080E-01
 -1      6248 1.25834E-01
 -1      6249 1.68197E-01
 -1      6250 1.47609E-01
 -1      6251 1.66354E-01
 -1      6252 5.50366E-02
 -1      6253 5.37321E-02
 -1      6254 3.77840E-02
 -1      6255 4.56350E-02
 -1      6256 2.45751E-02
 -1      6257 3.11840E-02
 -1      6258 1.44336E-02
 -1      6259 2.03627E-02
 -1      6260 1.33816E-02
 -1      6261 1.62646E-02
 -1      6262 1.88651E-02
 -1      6263 1.89689E-02
 -1      6264 2.52591E-02
 -1      6265 2.46110E-02
 -1      6266 3.41978E-02
 -1      6267 3.21528E-02
 -1      6268 4.50746E-02
 -1      6269 4.14962E-02
 -1      6270 5.77734E-02
 -1      6271 5.24967E-02
 -1      6272 7.26562E-02
 -1      6273 6.55224E-02
 -1      6274 9.09882E-02
 -1      6275 8.11285E-02
 -1      6276 1.10857E-01
 -1      6277 9.83937E-02
 -1      6278 1.30621E-01
 -1      6279 1.15644E-01
 -1      6280 1.48236E-01
 -1      6281 1.31248E-01
 -1      6282 1.43126E-01
 -1      6283 5.19629E-02
 -1      6284 5.01937E-02
 -1      6285 3.69014E-02
 -1      6286 4.32292E-02
 -1      6287 2.48301E-02
 -1      6288 3.05474E-02
 -1      6289 1.78596E-02
 -1      6290 2.23270E-02
 -1      6291 1.93190E-02
 -1      6292 2.09140E-02
 -1      6293 2.37011E-02
 -1      6294 2.40512E-02
 -1      6295 2.99295E-02
 -1      6296 2.90196E-02
 -1      6297 3.78804E-02
 -1      6298 3.56570E-02
 -1      6299 4.74050E-02
 -1      6300 4.37892E-02
 -1      6301 5.83887E-02
 -1      6302 5.32970E-02
 -1      6303 7.20371E-02
 -1      6304 6.49034E-02
 -1      6305 8.73773E-02
 -1      6306 7.82859E-02
 -1      6307 1.02969E-01
 -1      6308 9.19529E-02
 -1      6309 1.17541E-01
 -1      6310 1.04867E-01
 -1      6311 1.29281E-01
 -1      6312 1.15574E-01
 -1      6313 1.22377E-01
 -1      6314 4.81158E-02
 -1      6315 4.60380E-02
 -1      6316 3.53336E-02
 -1      6317 4.02202E-02
 -1      6318 2.59729E-02
 -1      6319 3.07590E-02
 -1      6320 2.22756E-02
 -1      6321 2.59215E-02
 -1      6322 2.41527E-02
 -1      6323 2.55142E-02
 -1      6324 2.79491E-02
 -1      6325 2.80505E-02
 -1      6326 3.33896E-02
 -1      6327 3.23192E-02
 -1      6328 4.02924E-02
 -1      6329 3.80249E-02
 -1      6330 4.84418E-02
 -1      6331 4.49450E-02
 -1      6332 5.82802E-02
 -1      6333 5.34251E-02
 -1      6334 7.01491E-02
 -1      6335 6.35259E-02
 -1      6336 8.24543E-02
 -1      6337 7.43175E-02
 -1      6338 9.43672E-02
 -1      6339 8.48685E-02
 -1      6340 1.04725E-01
 -1      6341 9.42250E-02
 -1      6342 1.11997E-01
 -1      6343 1.01147E-01
 -1      6344 1.04302E-01
 -1      6345 4.49604E-02
 -1      6346 4.38829E-02
 -1      6347 3.50134E-02
 -1      6348 3.97536E-02
 -1      6349 2.90417E-02
 -1      6350 3.32960E-02
 -1      6351 2.66671E-02
 -1      6352 2.97872E-02
 -1      6353 2.79561E-02
 -1      6354 2.91089E-02
 -1      6355 3.11662E-02
 -1      6356 3.10717E-02
 -1      6357 3.58102E-02
 -1      6358 3.46572E-02
 -1      6359 4.16713E-02
 -1      6360 3.94565E-02
 -1      6361 4.86784E-02
 -1      6362 4.54047E-02
 -1      6363 5.75491E-02
 -1      6364 5.28025E-02
 -1      6365 6.72074E-02
 -1      6366 6.12306E-02
 -1      6367 7.68454E-02
 -1      6368 6.97354E-02
 -1      6369 8.56840E-02
 -1      6370 7.76608E-02
 -1      6371 9.27075E-02
 -1      6372 8.41664E-02
 -1      6373 9.66684E-02
 -1      6374 8.82284E-02
 -1      6375 8.95097E-02
 -1      6376 4.46703E-02
 -1      6377 4.54577E-02
 -1      6378 3.68086E-02
 -1      6379 4.17252E-02
 -1      6380 3.23485E-02
 -1      6381 3.58611E-02
 -1      6382 3.00452E-02
 -1      6383 3.26065E-02
 -1      6384 3.08235E-02
 -1      6385 3.17598E-02
 -1      6386 3.34781E-02
 -1      6387 3.32298E-02
 -1      6388 3.73587E-02
 -1      6389 3.61795E-02
 -1      6390 4.22322E-02
 -1      6391 4.01343E-02
 -1      6392 4.84950E-02
 -1      6393 4.53225E-02
 -1      6394 5.59600E-02
 -1      6395 5.16526E-02
 -1      6396 6.36460E-02
 -1      6397 5.83754E-02
 -1      6398 7.10037E-02
 -1      6399 6.49143E-02
 -1      6400 7.73328E-02
 -1      6401 7.06757E-02
 -1      6402 8.17751E-02
 -1      6403 7.49416E-02
 -1      6404 8.33399E-02
 -1      6405 7.68866E-02
 -1      6406 7.71701E-02
 -1      6407 4.56807E-02
 -1      6408 4.59038E-02
 -1      6409 3.86532E-02
 -1      6410 4.26087E-02
 -1      6411 3.46247E-02
 -1      6412 3.74168E-02
 -1      6413 3.24718E-02
 -1      6414 3.44900E-02
 -1      6415 3.28601E-02
 -1      6416 3.35722E-02
 -1      6417 3.50118E-02
 -1      6418 3.46421E-02
 -1      6419 3.81908E-02
 -1      6420 3.70232E-02
 -1      6421 4.23334E-02
 -1      6422 4.03899E-02
 -1      6423 4.78279E-02
 -1      6424 4.48388E-02
 -1      6425 5.38165E-02
 -1      6426 4.99918E-02
 -1      6427 5.97893E-02
 -1      6428 5.52304E-02
 -1      6429 6.52410E-02
 -1      6430 6.01160E-02
 -1      6431 6.95617E-02
 -1      6432 6.41270E-02
 -1      6433 7.20440E-02
 -1      6434 6.66642E-02
 -1      6435 7.23275E-02
 -1      6436 6.74849E-02
 -1      6437 6.70746E-02
 -1      6438 4.59038E-02
 -1      6439 4.59038E-02
 -1      6440 3.95269E-02
 -1      6441 4.28220E-02
 -1      6442 3.59927E-02
 -1      6443 3.81028E-02
 -1      6444 3.40534E-02
 -1      6445 3.55561E-02
 -1      6446 3.41747E-02
 -1      6447 3.46560E-02
 -1      6448 3.58898E-02
 -1      6449 3.54224E-02
 -1      6450 3.84469E-02
 -1      6451 3.73135E-02
 -1      6452 4.21625E-02
 -1      6453 4.02194E-02
 -1      6454 4.66563E-02
 -1      6455 4.39800E-02
 -1      6456 5.13527E-02
 -1      6457 4.80172E-02
 -1      6458 5.58705E-02
 -1      6459 5.19928E-02
 -1      6460 5.97593E-02
 -1      6461 5.55139E-02
 -1      6462 6.25005E-02
 -1      6463 5.81328E-02
 -1      6464 6.35219E-02
 -1      6465 5.93582E-02
 -1      6466 6.35219E-02
 -1      6467 5.95589E-02
 -1      6468 5.87863E-02
 -1      6469 4.56601E-02
 -1      6470 4.54164E-02
 -1      6471 3.97402E-02
 -1      6472 4.25783E-02
 -1      6473 3.65787E-02
 -1      6474 3.82161E-02
 -1      6475 3.49016E-02
 -1      6476 3.59242E-02
 -1      6477 3.48744E-02
 -1      6478 3.51200E-02
 -1      6479 3.62258E-02
 -1      6480 3.56778E-02
 -1      6481 3.84473E-02
 -1      6482 3.73596E-02
 -1      6483 4.16204E-02
 -1      6484 3.98483E-02
 -1      6485 4.51521E-02
 -1      6486 4.27925E-02
 -1      6487 4.87434E-02
 -1      6488 4.58783E-02
 -1      6489 5.20497E-02
 -1      6490 4.88003E-02
 -1      6491 5.46790E-02
 -1      6492 5.12149E-02
 -1      6493 5.61984E-02
 -1      6494 5.27446E-02
 -1      6495 5.63991E-02
 -1      6496 5.32393E-02
 -1      6497 5.61520E-02
 -1      6498 5.29922E-02
 -1      6499 5.27600E-02
 -1      6500 4.47966E-02
 -1      6501 4.41768E-02
 -1      6502 3.95806E-02
 -1      6503 4.17989E-02
 -1      6504 3.66920E-02
 -1      6505 3.80565E-02
 -1      6506 3.51564E-02
 -1      6507 3.59242E-02
 -1      6508 3.50836E-02
 -1      6509 3.51200E-02
 -1      6510 3.62719E-02
 -1      6511 3.56778E-02
 -1      6512 3.82497E-02
 -1      6513 3.71620E-02
 -1      6514 4.07368E-02
 -1      6515 3.91382E-02
 -1      6516 4.34487E-02
 -1      6517 4.13931E-02
 -1      6518 4.61148E-02
 -1      6519 4.36853E-02
 -1      6520 4.84309E-02
 -1      6521 4.57454E-02
 -1      6522 5.00621E-02
 -1      6523 4.72781E-02
 -1      6524 5.06525E-02
 -1      6525 4.79699E-02
 -1      6526 5.06525E-02
 -1      6527 4.80657E-02
 -1      6528 4.98432E-02
 -1      6529 4.75035E-02
 -1      6530 4.77791E-02
 -1      6531 4.32629E-02
 -1      6532 4.23491E-02
 -1      6533 3.89582E-02
 -1      6534 4.04223E-02
 -1      6535 3.65069E-02
 -1      6536 3.74087E-02
 -1      6537 3.51274E-02
 -1      6538 3.57102E-02
 -1      6539 3.50613E-02
 -1      6540 3.50687E-02
 -1      6541 3.61233E-02
 -1      6542 3.55067E-02
 -1      6543 3.77050E-02
 -1      6544 3.66663E-02
 -1      6545 3.96179E-02
 -1      6546 3.81847E-02
 -1      6547 4.16477E-02
 -1      6548 3.98725E-02
 -1      6549 4.35550E-02
 -1      6550 4.15174E-02
 -1      6551 4.50764E-02
 -1      6552 4.28860E-02
 -1      6553 4.59305E-02
 -1      6554 4.37288E-02
 -1      6555 4.60262E-02
 -1      6556 4.39868E-02
 -1      6557 4.58281E-02
 -1      6558 4.37887E-02
 -1      6559 4.44896E-02
 -1      6560 4.28142E-02
 -1      6561 4.34300E-02
 -1      6562 4.12138E-02
 -1      6563 4.00786E-02
 -1      6564 3.77936E-02
 -1      6565 3.85852E-02
 -1      6566 3.58957E-02
 -1      6567 3.62807E-02
 -1      6568 3.48377E-02
 -1      6569 3.50233E-02
 -1      6570 3.48303E-02
 -1      6571 3.45993E-02
 -1      6572 3.56745E-02
 -1      6573 3.49981E-02
 -1      6574 3.69026E-02
 -1      6575 3.59109E-02
 -1      6576 3.83486E-02
 -1      6577 3.70665E-02
 -1      6578 3.98246E-02
 -1      6579 3.83006E-02
 -1      6580 4.11227E-02
 -1      6581 3.94299E-02
 -1      6582 4.20191E-02
 -1      6583 4.02557E-02
 -1      6584 4.22800E-02
 -1      6585 4.05702E-02
 -1      6586 4.22800E-02
 -1      6587 4.05733E-02
 -1      6588 4.16733E-02
 -1      6589 4.01647E-02
 -1      6590 4.04964E-02
 -1      6591 3.93555E-02
 -1      6592 4.01688E-02
 -1      6593 3.87853E-02
 -1      6594 3.74920E-02
 -1      6595 3.62085E-02
 -1      6596 3.64086E-02
 -1      6597 3.48549E-02
 -1      6598 3.47827E-02
 -1      6599 3.41327E-02
 -1      6600 3.39643E-02
 -1      6601 3.42678E-02
 -1      6602 3.38012E-02
 -1      6603 3.49609E-02
 -1      6604 3.42307E-02
 -1      6605 3.59179E-02
 -1      6606 3.49679E-02
 -1      6607 3.69962E-02
 -1      6608 3.58475E-02
 -1      6609 3.80343E-02
 -1      6610 3.67299E-02
 -1      6611 3.88552E-02
 -1      6612 3.74596E-02
 -1      6613 3.92710E-02
 -1      6614 3.78704E-02
 -1      6615 3.92740E-02
 -1      6616 3.79748E-02
 -1      6617 3.90904E-02
 -1      6618 3.77911E-02
 -1      6619 3.81283E-02
 -1      6620 3.70539E-02
 -1      6621 3.77886E-02
 -1      6622 3.65614E-02
 -1      6623 3.74506E-02
 -1      6624 3.60950E-02
 -1      6625 3.46981E-02
 -1      6626 3.43111E-02
 -1      6627 3.39976E-02
 -1      6628 3.34843E-02
 -1      6629 3.30127E-02
 -1      6630 3.31541E-02
 -1      6631 3.26741E-02
 -1      6632 3.34515E-02
 -1      6633 3.28045E-02
 -1      6634 3.40529E-02
 -1      6635 3.32737E-02
 -1      6636 3.48135E-02
 -1      6637 3.38985E-02
 -1      6638 3.56134E-02
 -1      6639 3.45793E-02
 -1      6640 3.63163E-02
 -1      6641 3.51998E-02
 -1      6642 3.67739E-02
 -1      6643 3.56305E-02
 -1      6644 3.68782E-02
 -1      6645 3.57817E-02
 -1      6646 3.68309E-02
 -1      6647 3.57343E-02
 -1      6648 3.63321E-02
 -1      6649 3.53719E-02
 -1      6650 3.51317E-02
 -1      6651 3.44099E-02
 -1      6652 3.55397E-02
 -1      6653 3.41101E-02
 -1      6654 3.49719E-02
 -1      6655 3.32435E-02
 -1      6656 3.17889E-02
 -1      6657 3.21966E-02
 -1      6658 3.14425E-02
 -1      6659 3.19385E-02
 -1      6660 3.11224E-02
 -1      6661 3.20374E-02
 -1      6662 3.13018E-02
 -1      6663 3.24498E-02
 -1      6664 3.16828E-02
 -1      6665 3.30113E-02
 -1      6666 3.21874E-02
 -1      6667 3.36413E-02
 -1      6668 3.27542E-02
 -1      6669 3.42411E-02
 -1      6670 3.33031E-02
 -1      6671 3.46979E-02
 -1      6672 3.37392E-02
 -1      6673 3.48894E-02
 -1      6674 3.39567E-02
 -1      6675 3.48894E-02
 -1      6676 3.39971E-02
 -1      6677 3.46888E-02
 -1      6678 3.38439E-02
 -1      6679 3.39720E-02
 -1      6680 3.32889E-02
 -1      6681 3.26828E-02
 -1      6682 3.22449E-02
 -1      6683 3.34604E-02
 -1      6684 3.20331E-02
 -1      6685 3.27217E-02
 -1      6686 3.03152E-02
 -1      6687 2.88416E-02
 -1      6688 3.01387E-02
 -1      6689 2.90114E-02
 -1      6690 3.03964E-02
 -1      6691 2.94126E-02
 -1      6692 3.08106E-02
 -1      6693 2.99051E-02
 -1      6694 3.13226E-02
 -1      6695 3.04504E-02
 -1      6696 3.18881E-02
 -1      6697 3.10232E-02
 -1      6698 3.24440E-02
 -1      6699 3.15778E-02
 -1      6700 3.29110E-02
 -1      6701 3.20518E-02
 -1      6702 3.31976E-02
 -1      6703 3.23693E-02
 -1      6704 3.32379E-02
 -1      6705 3.24788E-02
 -1      6706 3.32046E-02
 -1      6707 3.24455E-02
 -1      6708 3.28301E-02
 -1      6709 3.21909E-02
 -1      6710 3.19755E-02
 -1      6711 3.15168E-02
 -1      6712 3.09105E-02
 -1      6713 3.06412E-02
 -1      6714 3.15525E-02
 -1      6715 3.04299E-02
 -1      6716 3.06873E-02
 -1      6717 2.76552E-02
 -1      6718 2.61946E-02
 -1      6719 2.82318E-02
 -1      6720 2.68757E-02
 -1      6721 2.88546E-02
 -1      6722 2.76738E-02
 -1      6723 2.94872E-02
 -1      6724 2.84367E-02
 -1      6725 3.01214E-02
 -1      6726 2.91582E-02
 -1      6727 3.07268E-02
 -1      6728 2.98249E-02
 -1      6729 3.12559E-02
 -1      6730 3.04049E-02
 -1      6731 3.16469E-02
 -1      6732 3.08511E-02
 -1      6733 3.18272E-02
 -1      6734 3.11048E-02
 -1      6735 3.18272E-02
 -1      6736 3.11757E-02
 -1      6737 3.17177E-02
 -1      6738 3.10994E-02
 -1      6739 3.12376E-02
 -1      6740 3.07644E-02
 -1      6741 3.03095E-02
 -1      6742 3.00303E-02
 -1      6743 2.95763E-02
 -1      6744 2.92446E-02
 -1      6745 2.98145E-02
 -1      6746 2.89609E-02
 -1      6747 2.89877E-02
 -1      6748 2.53156E-02
 -1      6749 2.36202E-02
 -1      6750 2.63289E-02
 -1      6751 2.47688E-02
 -1      6752 2.72642E-02
 -1      6753 2.59193E-02
 -1      6754 2.81175E-02
 -1      6755 2.69451E-02
 -1      6756 2.88902E-02
 -1      6757 2.78495E-02
 -1      6758 2.95639E-02
 -1      6759 2.86292E-02
 -1      6760 3.01050E-02
 -1      6761 2.92640E-02
 -1      6762 3.04669E-02
 -1      6763 2.97209E-02
 -1      6764 3.05936E-02
 -1      6765 2.99557E-02
 -1      6766 3.05936E-02
 -1      6767 3.00116E-02
 -1      6768 3.04234E-02
 -1      6769 2.99176E-02
 -1      6770 2.98930E-02
 -1      6771 2.95520E-02
 -1      6772 2.89428E-02
 -1      6773 2.88055E-02
 -1      6774 2.83476E-02
 -1      6775 2.80458E-02
 -1      6776 2.83744E-02
 -1      6777 2.77611E-02
 -1      6778 2.76303E-02
 -1      6779 2.30437E-02
 -1      6780 2.11417E-02
 -1      6781 2.44404E-02
 -1      6782 2.27153E-02
 -1      6783 2.56724E-02
 -1      6784 2.41936E-02
 -1      6785 2.67444E-02
 -1      6786 2.54718E-02
 -1      6787 2.76660E-02
 -1      6788 2.65609E-02
 -1      6789 2.84294E-02
 -1      6790 2.74662E-02
 -1      6791 2.90131E-02
 -1      6792 2.81784E-02
 -1      6793 2.93839E-02
 -1      6794 2.86761E-02
 -1      6795 2.94999E-02
 -1      6796 2.89280E-02
 -1      6797 2.94999E-02
 -1      6798 2.89882E-02
 -1      6799 2.93143E-02
 -1      6800 2.88966E-02
 -1      6801 2.87785E-02
 -1      6802 2.85408E-02
 -1      6803 2.78468E-02
 -1      6804 2.78198E-02
 -1      6805 2.73360E-02
 -1      6806 2.71370E-02
 -1      6807 2.72348E-02
 -1      6808 2.68097E-02
 -1      6809 2.64412E-02
 -1      6810 2.08601E-02
 -1      6811 1.87966E-02
 -1      6812 2.26088E-02
 -1      6813 2.07536E-02
 -1      6814 2.41191E-02
 -1      6815 2.25343E-02
 -1      6816 2.54038E-02
 -1      6817 2.40512E-02
 -1      6818 2.64794E-02
 -1      6819 2.53223E-02
 -1      6820 2.73474E-02
 -1      6821 2.63605E-02
 -1      6822 2.79969E-02
 -1      6823 2.71659E-02
 -1      6824 2.84064E-02
 -1      6825 2.77273E-02
 -1      6826 2.85462E-02
 -1      6827 2.80246E-02
 -1      6828 2.85462E-02
 -1      6829 2.81043E-02
 -1      6830 2.83818E-02
 -1      6831 2.80314E-02
 -1      6832 2.78765E-02
 -1      6833 2.77175E-02
 -1      6834 2.70320E-02
 -1      6835 2.70887E-02
 -1      6836 2.65696E-02
 -1      6837 2.64646E-02
 -1      6838 2.62466E-02
 -1      6839 2.60065E-02
 -1      6840 2.53970E-02
 -1      6841 1.88006E-02
 -1      6842 1.66161E-02
 -1      6843 2.08693E-02
 -1      6844 1.89163E-02
 -1      6845 2.26377E-02
 -1      6846 2.09727E-02
 -1      6847 2.41253E-02
 -1      6848 2.27118E-02
 -1      6849 2.53550E-02
 -1      6850 2.41580E-02
 -1      6851 2.63367E-02
 -1      6852 2.53311E-02
 -1      6853 2.70687E-02
 -1      6854 2.62395E-02
 -1      6855 2.75397E-02
 -1      6856 2.68812E-02
 -1      6857 2.77303E-02
 -1      6858 2.72454E-02
 -1      6859 2.77303E-02
 -1      6860 2.73564E-02
 -1      6861 2.76161E-02
 -1      6862 2.73151E-02
 -1      6863 2.71703E-02
 -1      6864 2.70690E-02
 -1      6865 2.64499E-02
 -1      6866 2.65315E-02
 -1      6867 2.59428E-02
 -1      6868 2.59281E-02
 -1      6869 2.53912E-02
 -1      6870 2.53275E-02
 -1      6871 2.45019E-02
 -1      6872 1.68951E-02
 -1      6873 1.46270E-02
 -1      6874 1.92518E-02
 -1      6875 1.72306E-02
 -1      6876 2.12556E-02
 -1      6877 1.95347E-02
 -1      6878 2.29328E-02
 -1      6879 2.14766E-02
 -1      6880 2.43121E-02
 -1      6881 2.30870E-02
 -1      6882 2.54111E-02
 -1      6883 2.43922E-02
 -1      6884 2.62365E-02
 -1      6885 2.54081E-02
 -1      6886 2.67855E-02
 -1      6887 2.61408E-02
 -1      6888 2.70477E-02
 -1      6889 2.65878E-02
 -1      6890 2.70482E-02
 -1      6891 2.67395E-02
 -1      6892 2.70069E-02
 -1      6893 2.67400E-02
 -1      6894 2.66439E-02
 -1      6895 2.65818E-02
 -1      6896 2.60223E-02
 -1      6897 2.61346E-02
 -1      6898 2.54345E-02
 -1      6899 2.55287E-02
 -1      6900 2.46770E-02
 -1      6901 2.47840E-02
 -1      6902 2.37611E-02
 -1      6903 1.51690E-02
 -1      6904 1.77808E-02
 -1      6905 1.99952E-02
 -1      6906 2.18451E-02
 -1      6907 2.33652E-02
 -1      6908 2.45801E-02
 -1      6909 2.55042E-02
 -1      6910 2.61424E-02
 -1      6911 2.64917E-02
 -1      6912 2.65426E-02
 -1      6913 2.65426E-02
 -1      6914 2.62815E-02
 -1      6915 2.57456E-02
 -1      6916 2.50588E-02
 -1      6917 2.41132E-02
 -1      6918 2.17083E-02
 -1      6919 2.27427E-02
 -1      6920 2.39550E-02
 -1      6921 2.53499E-02
 -1      6922 2.69359E-02
 -1      6923 2.87251E-02
 -1      6924 3.07333E-02
 -1      6925 3.29797E-02
 -1      6926 3.57357E-02
 -1      6927 3.90782E-02
 -1      6928 4.28708E-02
 -1      6929 4.71796E-02
 -1      6930 5.20769E-02
 -1      6931 5.76382E-02
 -1      6932 6.39365E-02
 -1      6933 7.10314E-02
 -1      6934 7.89516E-02
 -1      6935 8.92550E-02
 -1      6936 1.04777E-01
 -1      6937 1.24586E-01
 -1      6938 1.48283E-01
 -1      6939 1.81463E-01
 -1      6940 2.21102E-01
 -1      6941 2.67145E-01
 -1      6942 3.18406E-01
 -1      6943 3.71762E-01
 -1      6944 4.21577E-01
 -1      6945 4.57961E-01
 -1      6946 1.98088E-02
 -1      6947 2.10215E-02
 -1      6948 2.24193E-02
 -1      6949 2.40142E-02
 -1      6950 2.58228E-02
 -1      6951 2.78675E-02
 -1      6952 3.01766E-02
 -1      6953 3.27852E-02
 -1      6954 3.57357E-02
 -1      6955 3.90782E-02
 -1      6956 4.32669E-02
 -1      6957 4.82818E-02
 -1      6958 5.40999E-02
 -1      6959 6.08703E-02
 -1      6960 6.87642E-02
 -1      6961 7.79735E-02
 -1      6962 8.87034E-02
 -1      6963 1.01157E-01
 -1      6964 1.15502E-01
 -1      6965 1.31814E-01
 -1      6966 1.53287E-01
 -1      6967 1.83617E-01
 -1      6968 2.21102E-01
 -1      6969 2.80012E-01
 -1      6970 3.52170E-01
 -1      6971 4.36491E-01
 -1      6972 5.29109E-01
 -1      6973 6.19872E-01
 -1      6974 1.75651E-02
 -1      6975 1.89312E-02
 -1      6976 2.04821E-02
 -1      6977 2.22356E-02
 -1      6978 2.42158E-02
 -1      6979 2.64538E-02
 -1      6980 2.89892E-02
 -1      6981 3.18710E-02
 -1      6982 3.51596E-02
 -1      6983 3.89285E-02
 -1      6984 4.32669E-02
 -1      6985 4.82818E-02
 -1      6986 5.42123E-02
 -1      6987 6.18270E-02
 -1      6988 7.08898E-02
 -1      6989 8.17261E-02
 -1      6990 9.47322E-02
 -1      6991 1.10384E-01
 -1      6992 1.29239E-01
 -1      6993 1.51922E-01
 -1      6994 1.79083E-01
 -1      6995 2.11273E-01
 -1      6996 2.48713E-01
 -1      6997 3.00050E-01
 -1      6998 3.71799E-01
 -1      6999 4.65193E-01
 -1      7000 6.08059E-01
 -1      7001 7.72849E-01
 -1      7002 1.49952E-02
 -1      7003 1.64816E-02
 -1      7004 1.81430E-02
 -1      7005 2.00021E-02
 -1      7006 2.20886E-02
 -1      7007 2.44401E-02
 -1      7008 2.71042E-02
 -1      7009 3.01405E-02
 -1      7010 3.36228E-02
 -1      7011 3.76431E-02
 -1      7012 4.23152E-02
 -1      7013 4.77801E-02
 -1      7014 5.42123E-02
 -1      7015 6.18270E-02
 -1      7016 7.08898E-02
 -1      7017 8.17261E-02
 -1      7018 9.54733E-02
 -1      7019 1.13086E-01
 -1      7020 1.34976E-01
 -1      7021 1.62353E-01
 -1      7022 1.96776E-01
 -1      7023 2.40212E-01
 -1      7024 2.95041E-01
 -1      7025 3.63892E-01
 -1      7026 4.49136E-01
 -1      7027 5.51422E-01
 -1      7028 7.03656E-01
 -1      7029 8.98714E-01
 -1      7030 1.21298E-02
 -1      7031 1.36960E-02
 -1      7032 1.54177E-02
 -1      7033 1.73206E-02
 -1      7034 1.94376E-02
 -1      7035 2.18096E-02
 -1      7036 2.44882E-02
 -1      7037 2.75381E-02
 -1      7038 3.10402E-02
 -1      7039 3.50961E-02
 -1      7040 3.98336E-02
 -1      7041 4.54141E-02
 -1      7042 5.20421E-02
 -1      7043 5.99781E-02
 -1      7044 6.95553E-02
 -1      7045 8.12024E-02
 -1      7046 9.54733E-02
 -1      7047 1.13086E-01
 -1      7048 1.34976E-01
 -1      7049 1.62353E-01
 -1      7050 1.96776E-01
 -1      7051 2.45070E-01
 -1      7052 3.10523E-01
 -1      7053 3.98885E-01
 -1      7054 5.19472E-01
 -1      7055 6.84829E-01
 -1      7056 9.10754E-01
 -1      7057 1.21090E+00
 -1      7058 9.01167E-03
 -1      7059 1.06121E-02
 -1      7060 1.23392E-02
 -1      7061 1.42194E-02
 -1      7062 1.62856E-02
 -1      7063 1.85787E-02
 -1      7064 2.11493E-02
 -1      7065 2.40609E-02
 -1      7066 2.73931E-02
 -1      7067 3.12462E-02
 -1      7068 3.57477E-02
 -1      7069 4.10601E-02
 -1      7070 4.73921E-02
 -1      7071 5.50145E-02
 -1      7072 6.42807E-02
 -1      7073 7.56580E-02
 -1      7074 8.97700E-02
 -1      7075 1.07460E-01
 -1      7076 1.29881E-01
 -1      7077 1.58634E-01
 -1      7078 1.95965E-01
 -1      7079 2.45070E-01
 -1      7080 3.10523E-01
 -1      7081 3.98885E-01
 -1      7082 5.19472E-01
 -1      7083 6.84829E-01
 -1      7084 9.65891E-01
 -1      7085 1.42540E+00
 -1      7086 5.69521E-03
 -1      7087 7.28197E-03
 -1      7088 8.95808E-03
 -1      7089 1.07486E-02
 -1      7090 1.26836E-02
 -1      7091 1.47997E-02
 -1      7092 1.71415E-02
 -1      7093 1.97649E-02
 -1      7094 2.27393E-02
 -1      7095 2.61523E-02
 -1      7096 3.01149E-02
 -1      7097 3.47691E-02
 -1      7098 4.02977E-02
 -1      7099 4.69392E-02
 -1      7100 5.50074E-02
 -1      7101 6.49207E-02
 -1      7102 7.72450E-02
 -1      7103 9.27581E-02
 -1      7104 1.12548E-01
 -1      7105 1.38167E-01
 -1      7106 1.71880E-01
 -1      7107 2.17078E-01
 -1      7108 2.78971E-01
 -1      7109 3.65816E-01
 -1      7110 4.91147E-01
 -1      7111 6.77820E-01
 -1      7112 9.65891E-01
 -1      7113 1.42540E+00
 -1      7114 5.69521E-03
 -1      7115 7.28197E-03
 -1      7116 8.95808E-03
 -1      7117 1.07486E-02
 -1      7118 1.26836E-02
 -1      7119 1.47997E-02
 -1      7120 1.71415E-02
 -1      7121 1.97649E-02
 -1      7122 2.27393E-02
 -1      7123 2.61523E-02
 -1      7124 3.01149E-02
 -1      7125 3.47691E-02
 -1      7126 4.02977E-02
 -1      7127 4.69392E-02
 -1      7128 5.50074E-02
 -1      7129 6.49207E-02
 -1      7130 7.72450E-02
 -1      7131 9.27581E-02
 -1      7132 1.12548E-01
 -1      7133 1.38167E-01
 -1      7134 1.71880E-01
 -1      7135 2.17078E-01
 -1      7136 2.78971E-01
 -1      7137 3.65816E-01
 -1      7138 4.91147E-01
 -1      7139 6.77820E-01
 -1      7140 9.65891E-01
 -1      7141 1.42540E+00
 -1      7142 9.01167E-03
 -1      7143 1.06121E-02
 -1      7144 1.23392E-02
 -1      7145 1.42194E-02
 -1      7146 1.62856E-02
 -1      7147 1.85787E-02
 -1      7148 2.11493E-02
 -1      7149 2.40609E-02
 -1      7150 2.73931E-02
 -1      7151 3.12462E-02
 -1      7152 3.57477E-02
 -1      7153 4.10601E-02
 -1      7154 4.73921E-02
 -1      7155 5.50145E-02
 -1      7156 6.42807E-02
 -1      7157 7.56580E-02
 -1      7158 8.97700E-02
 -1      7159 1.07460E-01
 -1      7160 1.29881E-01
 -1      7161 1.58634E-01
 -1      7162 1.95965E-01
 -1      7163 2.45070E-01
 -1      7164 3.10523E-01
 -1      7165 3.98885E-01
 -1      7166 5.19472E-01
 -1      7167 6.84829E-01
 -1      7168 9.65891E-01
 -1      7169 1.42540E+00
 -1      7170 1.21298E-02
 -1      7171 1.36960E-02
 -1      7172 1.54177E-02
 -1      7173 1.73206E-02
 -1      7174 1.94376E-02
 -1      7175 2.18096E-02
 -1      7176 2.44882E-02
 -1      7177 2.75381E-02
 -1      7178 3.10402E-02
 -1      7179 3.50961E-02
 -1      7180 3.98336E-02
 -1      7181 4.54141E-02
 -1      7182 5.20421E-02
 -1      7183 5.99781E-02
 -1      7184 6.95553E-02
 -1      7185 8.12024E-02
 -1      7186 9.54733E-02
 -1      7187 1.13086E-01
 -1      7188 1.34976E-01
 -1      7189 1.62353E-01
 -1      7190 1.96776E-01
 -1      7191 2.45070E-01
 -1      7192 3.10523E-01
 -1      7193 3.98885E-01
 -1      7194 5.19472E-01
 -1      7195 6.84829E-01
 -1      7196 9.10754E-01
 -1      7197 1.21090E+00
 -1      7198 1.49952E-02
 -1      7199 1.64816E-02
 -1      7200 1.81430E-02
 -1      7201 2.00021E-02
 -1      7202 2.20886E-02
 -1      7203 2.44401E-02
 -1      7204 2.71042E-02
 -1      7205 3.01405E-02
 -1      7206 3.36228E-02
 -1      7207 3.76431E-02
 -1      7208 4.23152E-02
 -1      7209 4.77801E-02
 -1      7210 5.42123E-02
 -1      7211 6.18270E-02
 -1      7212 7.08898E-02
 -1      7213 8.17261E-02
 -1      7214 9.54733E-02
 -1      7215 1.13086E-01
 -1      7216 1.34976E-01
 -1      7217 1.62353E-01
 -1      7218 1.96776E-01
 -1      7219 2.40212E-01
 -1      7220 2.95041E-01
 -1      7221 3.63892E-01
 -1      7222 4.49136E-01
 -1      7223 5.51422E-01
 -1      7224 7.03656E-01
 -1      7225 8.98714E-01
 -1      7226 1.75651E-02
 -1      7227 1.89312E-02
 -1      7228 2.04821E-02
 -1      7229 2.22356E-02
 -1      7230 2.42158E-02
 -1      7231 2.64538E-02
 -1      7232 2.89892E-02
 -1      7233 3.18710E-02
 -1      7234 3.51596E-02
 -1      7235 3.89285E-02
 -1      7236 4.32669E-02
 -1      7237 4.82818E-02
 -1      7238 5.42123E-02
 -1      7239 6.18270E-02
 -1      7240 7.08898E-02
 -1      7241 8.17261E-02
 -1      7242 9.47322E-02
 -1      7243 1.10384E-01
 -1      7244 1.29239E-01
 -1      7245 1.51922E-01
 -1      7246 1.79083E-01
 -1      7247 2.11273E-01
 -1      7248 2.48713E-01
 -1      7249 3.00050E-01
 -1      7250 3.71799E-01
 -1      7251 4.65193E-01
 -1      7252 6.08059E-01
 -1      7253 7.72849E-01
 -1      7254 1.98088E-02
 -1      7255 2.10215E-02
 -1      7256 2.24193E-02
 -1      7257 2.40142E-02
 -1      7258 2.58228E-02
 -1      7259 2.78675E-02
 -1      7260 3.01766E-02
 -1      7261 3.27852E-02
 -1      7262 3.57357E-02
 -1      7263 3.90782E-02
 -1      7264 4.32669E-02
 -1      7265 4.82818E-02
 -1      7266 5.40999E-02
 -1      7267 6.08703E-02
 -1      7268 6.87642E-02
 -1      7269 7.79735E-02
 -1      7270 8.87034E-02
 -1      7271 1.01157E-01
 -1      7272 1.15502E-01
 -1      7273 1.31814E-01
 -1      7274 1.53287E-01
 -1      7275 1.83617E-01
 -1      7276 2.21102E-01
 -1      7277 2.80012E-01
 -1      7278 3.52170E-01
 -1      7279 4.36491E-01
 -1      7280 5.29109E-01
 -1      7281 6.19872E-01
 -1      7282 2.17083E-02
 -1      7283 2.27427E-02
 -1      7284 2.39550E-02
 -1      7285 2.53499E-02
 -1      7286 2.69359E-02
 -1      7287 2.87251E-02
 -1      7288 3.07333E-02
 -1      7289 3.29797E-02
 -1      7290 3.57357E-02
 -1      7291 3.90782E-02
 -1      7292 4.28708E-02
 -1      7293 4.71796E-02
 -1      7294 5.20769E-02
 -1      7295 5.76382E-02
 -1      7296 6.39365E-02
 -1      7297 7.10314E-02
 -1      7298 7.89516E-02
 -1      7299 8.92550E-02
 -1      7300 1.04777E-01
 -1      7301 1.24586E-01
 -1      7302 1.48283E-01
 -1      7303 1.81463E-01
 -1      7304 2.21102E-01
 -1      7305 2.67145E-01
 -1      7306 3.18406E-01
 -1      7307 3.71762E-01
 -1      7308 4.21577E-01
 -1      7309 4.57961E-01
 -1      7310 2.24371E-02
 -1      7311 2.12794E-02
 -1      7312 2.33744E-02
 -1      7313 2.22255E-02
 -1      7314 2.44822E-02
 -1      7315 2.33489E-02
 -1      7316 2.57619E-02
 -1      7317 2.46524E-02
 -1      7318 2.72177E-02
 -1      7319 2.61429E-02
 -1      7320 2.88564E-02
 -1      7321 2.78305E-02
 -1      7322 3.07333E-02
 -1      7323 2.97292E-02
 -1      7324 3.29797E-02
 -1      7325 3.18565E-02
 -1      7326 3.56112E-02
 -1      7327 3.43577E-02
 -1      7328 3.86786E-02
 -1      7329 3.74069E-02
 -1      7330 4.21267E-02
 -1      7331 4.09745E-02
 -1      7332 4.60008E-02
 -1      7333 4.50252E-02
 -1      7334 5.03469E-02
 -1      7335 4.96282E-02
 -1      7336 5.52066E-02
 -1      7337 5.48575E-02
 -1      7338 6.09751E-02
 -1      7339 6.07873E-02
 -1      7340 6.88478E-02
 -1      7341 6.74840E-02
 -1      7342 7.80609E-02
 -1      7343 7.49915E-02
 -1      7344 8.93824E-02
 -1      7345 8.41033E-02
 -1      7346 1.04777E-01
 -1      7347 9.70159E-02
 -1      7348 1.24586E-01
 -1      7349 1.14681E-01
 -1      7350 1.48070E-01
 -1      7351 1.36435E-01
 -1      7352 1.78047E-01
 -1      7353 1.64873E-01
 -1      7354 2.12813E-01
 -1      7355 2.01283E-01
 -1      7356 2.51782E-01
 -1      7357 2.44124E-01
 -1      7358 2.93253E-01
 -1      7359 2.92776E-01
 -1      7360 3.33779E-01
 -1      7361 3.45084E-01
 -1      7362 3.67687E-01
 -1      7363 3.96670E-01
 -1      7364 3.85880E-01
 -1      7365 4.39769E-01
 -1      7366 4.57961E-01
 -1      7367 2.07586E-02
 -1      7368 1.92917E-02
 -1      7369 2.18821E-02
 -1      7370 2.04151E-02
 -1      7371 2.31872E-02
 -1      7372 2.17204E-02
 -1      7373 2.46820E-02
 -1      7374 2.32168E-02
 -1      7375 2.63793E-02
 -1      7376 2.49185E-02
 -1      7377 2.82963E-02
 -1      7378 2.68451E-02
 -1      7379 3.04550E-02
 -1      7380 2.90220E-02
 -1      7381 3.28825E-02
 -1      7382 3.14809E-02
 -1      7383 3.57357E-02
 -1      7384 3.42605E-02
 -1      7385 3.90782E-02
 -1      7386 3.74069E-02
 -1      7387 4.30689E-02
 -1      7388 4.11725E-02
 -1      7389 4.77307E-02
 -1      7390 4.57743E-02
 -1      7391 5.30884E-02
 -1      7392 5.11908E-02
 -1      7393 5.92543E-02
 -1      7394 5.74851E-02
 -1      7395 6.63504E-02
 -1      7396 6.48173E-02
 -1      7397 7.45025E-02
 -1      7398 7.33689E-02
 -1      7399 8.38275E-02
 -1      7400 8.33384E-02
 -1      7401 9.52059E-02
 -1      7402 9.49301E-02
 -1      7403 1.10139E-01
 -1      7404 1.08329E-01
 -1      7405 1.28200E-01
 -1      7406 1.23658E-01
 -1      7407 1.50785E-01
 -1      7408 1.42551E-01
 -1      7409 1.82540E-01
 -1      7410 1.68452E-01
 -1      7411 2.21102E-01
 -1      7412 2.02360E-01
 -1      7413 2.73578E-01
 -1      7414 2.50557E-01
 -1      7415 3.35288E-01
 -1      7416 3.16091E-01
 -1      7417 4.04127E-01
 -1      7418 3.94331E-01
 -1      7419 4.75343E-01
 -1      7420 4.82800E-01
 -1      7421 5.38916E-01
 -1      7422 5.74490E-01
 -1      7423 6.19872E-01
 -1      7424 1.86869E-02
 -1      7425 1.69681E-02
 -1      7426 1.99763E-02
 -1      7427 1.82481E-02
 -1      7428 2.14507E-02
 -1      7429 1.97067E-02
 -1      7430 2.31249E-02
 -1      7431 2.13588E-02
 -1      7432 2.50193E-02
 -1      7433 2.32257E-02
 -1      7434 2.71607E-02
 -1      7435 2.53348E-02
 -1      7436 2.95829E-02
 -1      7437 2.77215E-02
 -1      7438 3.23281E-02
 -1      7439 3.04301E-02
 -1      7440 3.54476E-02
 -1      7441 3.35153E-02
 -1      7442 3.90033E-02
 -1      7443 3.70440E-02
 -1      7444 4.32669E-02
 -1      7445 4.10977E-02
 -1      7446 4.82818E-02
 -1      7447 4.57743E-02
 -1      7448 5.41561E-02
 -1      7449 5.12470E-02
 -1      7450 6.13487E-02
 -1      7451 5.80196E-02
 -1      7452 6.98270E-02
 -1      7453 6.63584E-02
 -1      7454 7.98498E-02
 -1      7455 7.63079E-02
 -1      7456 9.17178E-02
 -1      7457 8.82291E-02
 -1      7458 1.05770E-01
 -1      7459 1.02558E-01
 -1      7460 1.22370E-01
 -1      7461 1.19811E-01
 -1      7462 1.41868E-01
 -1      7463 1.40581E-01
 -1      7464 1.66185E-01
 -1      7465 1.65503E-01
 -1      7466 1.97445E-01
 -1      7467 1.95178E-01
 -1      7468 2.34908E-01
 -1      7469 2.29993E-01
 -1      7470 2.90031E-01
 -1      7471 2.74381E-01
 -1      7472 3.61985E-01
 -1      7473 3.35924E-01
 -1      7474 4.50842E-01
 -1      7475 4.18496E-01
 -1      7476 5.68584E-01
 -1      7477 5.36626E-01
 -1      7478 6.96360E-01
 -1      7479 6.90454E-01
 -1      7480 7.76025E-01
 -1      7481 1.62801E-02
 -1      7482 1.43310E-02
 -1      7483 1.77064E-02
 -1      7484 1.57384E-02
 -1      7485 1.93126E-02
 -1      7486 1.73123E-02
 -1      7487 2.11188E-02
 -1      7488 1.90726E-02
 -1      7489 2.31522E-02
 -1      7490 2.10453E-02
 -1      7491 2.54470E-02
 -1      7492 2.32643E-02
 -1      7493 2.80467E-02
 -1      7494 2.57722E-02
 -1      7495 3.10058E-02
 -1      7496 2.86224E-02
 -1      7497 3.43912E-02
 -1      7498 3.18816E-02
 -1      7499 3.82858E-02
 -1      7500 3.56329E-02
 -1      7501 4.27911E-02
 -1      7502 3.99791E-02
 -1      7503 4.80309E-02
 -1      7504 4.50477E-02
 -1      7505 5.42123E-02
 -1      7506 5.09962E-02
 -1      7507 6.18270E-02
 -1      7508 5.80196E-02
 -1      7509 7.08898E-02
 -1      7510 6.63584E-02
 -1      7511 8.17261E-02
 -1      7512 7.63079E-02
 -1      7513 9.51028E-02
 -1      7514 8.85997E-02
 -1      7515 1.11735E-01
 -1      7516 1.04280E-01
 -1      7517 1.32107E-01
 -1      7518 1.24031E-01
 -1      7519 1.57137E-01
 -1      7520 1.48664E-01
 -1      7521 1.87929E-01
 -1      7522 1.79564E-01
 -1      7523 2.25742E-01
 -1      7524 2.18494E-01
 -1      7525 2.71877E-01
 -1      7526 2.67627E-01
 -1      7527 3.31971E-01
 -1      7528 3.29467E-01
 -1      7529 4.10468E-01
 -1      7530 4.06514E-01
 -1      7531 5.08308E-01
 -1      7532 5.00279E-01
 -1      7533 6.55857E-01
 -1      7534 6.27539E-01
 -1      7535 8.35781E-01
 -1      7536 8.01185E-01
 -1      7537 1.04377E+00
 -1      7538 1.35625E-02
 -1      7539 1.14143E-02
 -1      7540 1.50888E-02
 -1      7541 1.29129E-02
 -1      7542 1.67803E-02
 -1      7543 1.45568E-02
 -1      7544 1.86614E-02
 -1      7545 1.63692E-02
 -1      7546 2.07631E-02
 -1      7547 1.83791E-02
 -1      7548 2.31248E-02
 -1      7549 2.06236E-02
 -1      7550 2.57962E-02
 -1      7551 2.31489E-02
 -1      7552 2.88393E-02
 -1      7553 2.60132E-02
 -1      7554 3.23315E-02
 -1      7555 2.92892E-02
 -1      7556 3.63696E-02
 -1      7557 3.30682E-02
 -1      7558 4.10744E-02
 -1      7559 3.74648E-02
 -1      7560 4.65971E-02
 -1      7561 4.26238E-02
 -1      7562 5.31272E-02
 -1      7563 4.87281E-02
 -1      7564 6.09025E-02
 -1      7565 5.60101E-02
 -1      7566 7.02225E-02
 -1      7567 6.47667E-02
 -1      7568 8.14643E-02
 -1      7569 7.53789E-02
 -1      7570 9.54733E-02
 -1      7571 8.83379E-02
 -1      7572 1.13086E-01
 -1      7573 1.04280E-01
 -1      7574 1.34976E-01
 -1      7575 1.24031E-01
 -1      7576 1.62353E-01
 -1      7577 1.48664E-01
 -1      7578 1.96776E-01
 -1      7579 1.79564E-01
 -1      7580 2.42641E-01
 -1      7581 2.20923E-01
 -1      7582 3.02782E-01
 -1      7583 2.77797E-01
 -1      7584 3.81388E-01
 -1      7585 3.54704E-01
 -1      7586 4.84304E-01
 -1      7587 4.59179E-01
 -1      7588 6.18126E-01
 -1      7589 6.02151E-01
 -1      7590 8.07205E-01
 -1      7591 7.97792E-01
 -1      7592 1.05481E+00
 -1      7593 1.06083E+00
 -1      7594 1.39907E+00
 -1      7595 1.05707E-02
 -1      7596 8.26388E-03
 -1      7597 1.21541E-02
 -1      7598 9.81191E-03
 -1      7599 1.38784E-02
 -1      7600 1.14757E-02
 -1      7601 1.57700E-02
 -1      7602 1.32793E-02
 -1      7603 1.78616E-02
 -1      7604 1.52525E-02
 -1      7605 2.01942E-02
 -1      7606 1.74322E-02
 -1      7607 2.28188E-02
 -1      7608 1.98640E-02
 -1      7609 2.57995E-02
 -1      7610 2.26051E-02
 -1      7611 2.92166E-02
 -1      7612 2.57270E-02
 -1      7613 3.31711E-02
 -1      7614 2.93196E-02
 -1      7615 3.77906E-02
 -1      7616 3.34969E-02
 -1      7617 4.32371E-02
 -1      7618 3.84039E-02
 -1      7619 4.97171E-02
 -1      7620 4.42261E-02
 -1      7621 5.74963E-02
 -1      7622 5.12033E-02
 -1      7623 6.69180E-02
 -1      7624 5.96476E-02
 -1      7625 7.84302E-02
 -1      7626 6.99694E-02
 -1      7627 9.26217E-02
 -1      7628 8.27140E-02
 -1      7629 1.10273E-01
 -1      7630 9.86149E-02
 -1      7631 1.32428E-01
 -1      7632 1.18670E-01
 -1      7633 1.60493E-01
 -1      7634 1.44257E-01
 -1      7635 1.96371E-01
 -1      7636 1.77300E-01
 -1      7637 2.45070E-01
 -1      7638 2.20518E-01
 -1      7639 3.10523E-01
 -1      7640 2.77797E-01
 -1      7641 3.98885E-01
 -1      7642 3.54704E-01
 -1      7643 5.19472E-01
 -1      7644 4.59179E-01
 -1      7645 6.84829E-01
 -1      7646 6.02151E-01
 -1      7647 9.38323E-01
 -1      7648 8.25360E-01
 -1      7649 1.31815E+00
 -1      7650 1.19565E+00
 -1      7651 1.54366E+00
 -1      7652 7.35344E-03
 -1      7653 4.93582E-03
 -1      7654 8.94706E-03
 -1      7655 6.48859E-03
 -1      7656 1.06486E-02
 -1      7657 8.12003E-03
 -1      7658 1.24840E-02
 -1      7659 9.85335E-03
 -1      7660 1.44846E-02
 -1      7661 1.17161E-02
 -1      7662 1.66892E-02
 -1      7663 1.37417E-02
 -1      7664 1.91454E-02
 -1      7665 1.59706E-02
 -1      7666 2.19129E-02
 -1      7667 1.84532E-02
 -1      7668 2.50662E-02
 -1      7669 2.12521E-02
 -1      7670 2.86993E-02
 -1      7671 2.44458E-02
 -1      7672 3.29313E-02
 -1      7673 2.81336E-02
 -1      7674 3.79146E-02
 -1      7675 3.24420E-02
 -1      7676 4.38449E-02
 -1      7677 3.75334E-02
 -1      7678 5.09769E-02
 -1      7679 4.36185E-02
 -1      7680 5.96441E-02
 -1      7681 5.09733E-02
 -1      7682 7.02894E-02
 -1      7683 5.99640E-02
 -1      7684 8.35075E-02
 -1      7685 7.10828E-02
 -1      7686 1.00109E-01
 -1      7687 8.50015E-02
 -1      7688 1.21214E-01
 -1      7689 1.02653E-01
 -1      7690 1.48400E-01
 -1      7691 1.25357E-01
 -1      7692 1.83923E-01
 -1      7693 1.55023E-01
 -1      7694 2.31074E-01
 -1      7695 1.94479E-01
 -1      7696 2.94747E-01
 -1      7697 2.48024E-01
 -1      7698 3.82350E-01
 -1      7699 3.22393E-01
 -1      7700 5.05309E-01
 -1      7701 4.28481E-01
 -1      7702 6.81325E-01
 -1      7703 5.84483E-01
 -1      7704 9.65891E-01
 -1      7705 8.21856E-01
 -1      7706 1.42540E+00
 -1      7707 1.19565E+00
 -1      7708 1.54366E+00
 -1      7709 5.69521E-03
 -1      7710 4.93582E-03
 -1      7711 7.28197E-03
 -1      7712 6.48859E-03
 -1      7713 8.95808E-03
 -1      7714 8.12003E-03
 -1      7715 1.07486E-02
 -1      7716 9.85335E-03
 -1      7717 1.26836E-02
 -1      7718 1.17161E-02
 -1      7719 1.47997E-02
 -1      7720 1.37417E-02
 -1      7721 1.71415E-02
 -1      7722 1.59706E-02
 -1      7723 1.97649E-02
 -1      7724 1.84532E-02
 -1      7725 2.27393E-02
 -1      7726 2.12521E-02
 -1      7727 2.61523E-02
 -1      7728 2.44458E-02
 -1      7729 3.01149E-02
 -1      7730 2.81336E-02
 -1      7731 3.47691E-02
 -1      7732 3.24420E-02
 -1      7733 4.02977E-02
 -1      7734 3.75334E-02
 -1      7735 4.69392E-02
 -1      7736 4.36185E-02
 -1      7737 5.50074E-02
 -1      7738 5.09733E-02
 -1      7739 6.49207E-02
 -1      7740 5.99640E-02
 -1      7741 7.72450E-02
 -1      7742 7.10828E-02
 -1      7743 9.27581E-02
 -1      7744 8.50015E-02
 -1      7745 1.12548E-01
 -1      7746 1.02653E-01
 -1      7747 1.38167E-01
 -1      7748 1.25357E-01
 -1      7749 1.71880E-01
 -1      7750 1.55023E-01
 -1      7751 2.17078E-01
 -1      7752 1.94479E-01
 -1      7753 2.78971E-01
 -1      7754 2.48024E-01
 -1      7755 3.65816E-01
 -1      7756 3.22393E-01
 -1      7757 4.91147E-01
 -1      7758 4.28481E-01
 -1      7759 6.77820E-01
 -1      7760 5.84483E-01
 -1      7761 9.65891E-01
 -1      7762 8.21856E-01
 -1      7763 1.42540E+00
 -1      7764 1.19565E+00
 -1      7765 1.54366E+00
 -1      7766 7.35344E-03
 -1      7767 8.26388E-03
 -1      7768 8.94706E-03
 -1      7769 9.81191E-03
 -1      7770 1.06486E-02
 -1      7771 1.14757E-02
 -1      7772 1.24840E-02
 -1      7773 1.32793E-02
 -1      7774 1.44846E-02
 -1      7775 1.52525E-02
 -1      7776 1.66892E-02
 -1      7777 1.74322E-02
 -1      7778 1.91454E-02
 -1      7779 1.98640E-02
 -1      7780 2.19129E-02
 -1      7781 2.26051E-02
 -1      7782 2.50662E-02
 -1      7783 2.57270E-02
 -1      7784 2.86993E-02
 -1      7785 2.93196E-02
 -1      7786 3.29313E-02
 -1      7787 3.34969E-02
 -1      7788 3.79146E-02
 -1      7789 3.84039E-02
 -1      7790 4.38449E-02
 -1      7791 4.42261E-02
 -1      7792 5.09769E-02
 -1      7793 5.12033E-02
 -1      7794 5.96441E-02
 -1      7795 5.96476E-02
 -1      7796 7.02894E-02
 -1      7797 6.99694E-02
 -1      7798 8.35075E-02
 -1      7799 8.27140E-02
 -1      7800 1.00109E-01
 -1      7801 9.86149E-02
 -1      7802 1.21214E-01
 -1      7803 1.18670E-01
 -1      7804 1.48400E-01
 -1      7805 1.44257E-01
 -1      7806 1.83923E-01
 -1      7807 1.77300E-01
 -1      7808 2.31074E-01
 -1      7809 2.20518E-01
 -1      7810 2.94747E-01
 -1      7811 2.77797E-01
 -1      7812 3.82350E-01
 -1      7813 3.54704E-01
 -1      7814 5.05309E-01
 -1      7815 4.59179E-01
 -1      7816 6.81325E-01
 -1      7817 6.02151E-01
 -1      7818 9.65891E-01
 -1      7819 8.25360E-01
 -1      7820 1.42540E+00
 -1      7821 1.19565E+00
 -1      7822 1.54366E+00
 -1      7823 1.05707E-02
 -1      7824 1.14143E-02
 -1      7825 1.21541E-02
 -1      7826 1.29129E-02
 -1      7827 1.38784E-02
 -1      7828 1.45568E-02
 -1      7829 1.57700E-02
 -1      7830 1.63692E-02
 -1      7831 1.78616E-02
 -1      7832 1.83791E-02
 -1      7833 2.01942E-02
 -1      7834 2.06236E-02
 -1      7835 2.28188E-02
 -1      7836 2.31489E-02
 -1      7837 2.57995E-02
 -1      7838 2.60132E-02
 -1      7839 2.92166E-02
 -1      7840 2.92892E-02
 -1      7841 3.31711E-02
 -1      7842 3.30682E-02
 -1      7843 3.77906E-02
 -1      7844 3.74648E-02
 -1      7845 4.32371E-02
 -1      7846 4.26238E-02
 -1      7847 4.97171E-02
 -1      7848 4.87281E-02
 -1      7849 5.74963E-02
 -1      7850 5.60101E-02
 -1      7851 6.69180E-02
 -1      7852 6.47667E-02
 -1      7853 7.84302E-02
 -1      7854 7.53789E-02
 -1      7855 9.26217E-02
 -1      7856 8.83379E-02
 -1      7857 1.10273E-01
 -1      7858 1.04280E-01
 -1      7859 1.32428E-01
 -1      7860 1.24031E-01
 -1      7861 1.60493E-01
 -1      7862 1.48664E-01
 -1      7863 1.96371E-01
 -1      7864 1.79564E-01
 -1      7865 2.45070E-01
 -1      7866 2.20923E-01
 -1      7867 3.10523E-01
 -1      7868 2.77797E-01
 -1      7869 3.98885E-01
 -1      7870 3.54704E-01
 -1      7871 5.19472E-01
 -1      7872 4.59179E-01
 -1      7873 6.84829E-01
 -1      7874 6.02151E-01
 -1      7875 9.38323E-01
 -1      7876 7.97792E-01
 -1      7877 1.31815E+00
 -1      7878 1.06083E+00
 -1      7879 1.39907E+00
 -1      7880 1.35625E-02
 -1      7881 1.43310E-02
 -1      7882 1.50888E-02
 -1      7883 1.57384E-02
 -1      7884 1.67803E-02
 -1      7885 1.73123E-02
 -1      7886 1.86614E-02
 -1      7887 1.90726E-02
 -1      7888 2.07631E-02
 -1      7889 2.10453E-02
 -1      7890 2.31248E-02
 -1      7891 2.32643E-02
 -1      7892 2.57962E-02
 -1      7893 2.57722E-02
 -1      7894 2.88393E-02
 -1      7895 2.86224E-02
 -1      7896 3.23315E-02
 -1      7897 3.18816E-02
 -1      7898 3.63696E-02
 -1      7899 3.56329E-02
 -1      7900 4.10744E-02
 -1      7901 3.99791E-02
 -1      7902 4.65971E-02
 -1      7903 4.50477E-02
 -1      7904 5.31272E-02
 -1      7905 5.09962E-02
 -1      7906 6.09025E-02
 -1      7907 5.80196E-02
 -1      7908 7.02225E-02
 -1      7909 6.63584E-02
 -1      7910 8.14643E-02
 -1      7911 7.63079E-02
 -1      7912 9.54733E-02
 -1      7913 8.85997E-02
 -1      7914 1.13086E-01
 -1      7915 1.04280E-01
 -1      7916 1.34976E-01
 -1      7917 1.24031E-01
 -1      7918 1.62353E-01
 -1      7919 1.48664E-01
 -1      7920 1.96776E-01
 -1      7921 1.79564E-01
 -1      7922 2.42641E-01
 -1      7923 2.18494E-01
 -1      7924 3.02782E-01
 -1      7925 2.67627E-01
 -1      7926 3.81388E-01
 -1      7927 3.29467E-01
 -1      7928 4.84304E-01
 -1      7929 4.06514E-01
 -1      7930 6.18126E-01
 -1      7931 5.00279E-01
 -1      7932 8.07205E-01
 -1      7933 6.27539E-01
 -1      7934 1.05481E+00
 -1      7935 8.01185E-01
 -1      7936 1.04377E+00
 -1      7937 1.62801E-02
 -1      7938 1.69681E-02
 -1      7939 1.77064E-02
 -1      7940 1.82481E-02
 -1      7941 1.93126E-02
 -1      7942 1.97067E-02
 -1      7943 2.11188E-02
 -1      7944 2.13588E-02
 -1      7945 2.31522E-02
 -1      7946 2.32257E-02
 -1      7947 2.54470E-02
 -1      7948 2.53348E-02
 -1      7949 2.80467E-02
 -1      7950 2.77215E-02
 -1      7951 3.10058E-02
 -1      7952 3.04301E-02
 -1      7953 3.43912E-02
 -1      7954 3.35153E-02
 -1      7955 3.82858E-02
 -1      7956 3.70440E-02
 -1      7957 4.27911E-02
 -1      7958 4.10977E-02
 -1      7959 4.80309E-02
 -1      7960 4.57743E-02
 -1      7961 5.42123E-02
 -1      7962 5.12470E-02
 -1      7963 6.18270E-02
 -1      7964 5.80196E-02
 -1      7965 7.08898E-02
 -1      7966 6.63584E-02
 -1      7967 8.17261E-02
 -1      7968 7.63079E-02
 -1      7969 9.51028E-02
 -1      7970 8.82291E-02
 -1      7971 1.11735E-01
 -1      7972 1.02558E-01
 -1      7973 1.32107E-01
 -1      7974 1.19811E-01
 -1      7975 1.57137E-01
 -1      7976 1.40581E-01
 -1      7977 1.87929E-01
 -1      7978 1.65503E-01
 -1      7979 2.25742E-01
 -1      7980 1.95178E-01
 -1      7981 2.71877E-01
 -1      7982 2.29993E-01
 -1      7983 3.31971E-01
 -1      7984 2.74381E-01
 -1      7985 4.10468E-01
 -1      7986 3.35924E-01
 -1      7987 5.08308E-01
 -1      7988 4.18496E-01
 -1      7989 6.55857E-01
 -1      7990 5.36626E-01
 -1      7991 8.35781E-01
 -1      7992 6.90454E-01
 -1      7993 7.76025E-01
 -1      7994 1.86869E-02
 -1      7995 1.92917E-02
 -1      7996 1.99763E-02
 -1      7997 2.04151E-02
 -1      7998 2.14507E-02
 -1      7999 2.17204E-02
 -1      8000 2.31249E-02
 -1      8001 2.32168E-02
 -1      8002 2.50193E-02
 -1      8003 2.49185E-02
 -1      8004 2.71607E-02
 -1      8005 2.68451E-02
 -1      8006 2.95829E-02
 -1      8007 2.90220E-02
 -1      8008 3.23281E-02
 -1      8009 3.14809E-02
 -1      8010 3.54476E-02
 -1      8011 3.42605E-02
 -1      8012 3.90033E-02
 -1      8013 3.74069E-02
 -1      8014 4.32669E-02
 -1      8015 4.11725E-02
 -1      8016 4.82818E-02
 -1      8017 4.57743E-02
 -1      8018 5.41561E-02
 -1      8019 5.11908E-02
 -1      8020 6.13487E-02
 -1      8021 5.74851E-02
 -1      8022 6.98270E-02
 -1      8023 6.48173E-02
 -1      8024 7.98498E-02
 -1      8025 7.33689E-02
 -1      8026 9.17178E-02
 -1      8027 8.33384E-02
 -1      8028 1.05770E-01
 -1      8029 9.49301E-02
 -1      8030 1.22370E-01
 -1      8031 1.08329E-01
 -1      8032 1.41868E-01
 -1      8033 1.23658E-01
 -1      8034 1.66185E-01
 -1      8035 1.42551E-01
 -1      8036 1.97445E-01
 -1      8037 1.68452E-01
 -1      8038 2.34908E-01
 -1      8039 2.02360E-01
 -1      8040 2.90031E-01
 -1      8041 2.50557E-01
 -1      8042 3.61985E-01
 -1      8043 3.16091E-01
 -1      8044 4.50842E-01
 -1      8045 3.94331E-01
 -1      8046 5.68584E-01
 -1      8047 4.82800E-01
 -1      8048 6.96360E-01
 -1      8049 5.74490E-01
 -1      8050 6.19872E-01
 -1      8051 2.07586E-02
 -1      8052 2.12794E-02
 -1      8053 2.18821E-02
 -1      8054 2.22255E-02
 -1      8055 2.31872E-02
 -1      8056 2.33489E-02
 -1      8057 2.46820E-02
 -1      8058 2.46524E-02
 -1      8059 2.63793E-02
 -1      8060 2.61429E-02
 -1      8061 2.82963E-02
 -1      8062 2.78305E-02
 -1      8063 3.04550E-02
 -1      8064 2.97292E-02
 -1      8065 3.28825E-02
 -1      8066 3.18565E-02
 -1      8067 3.57357E-02
 -1      8068 3.43577E-02
 -1      8069 3.90782E-02
 -1      8070 3.74069E-02
 -1      8071 4.30689E-02
 -1      8072 4.09745E-02
 -1      8073 4.77307E-02
 -1      8074 4.50252E-02
 -1      8075 5.30884E-02
 -1      8076 4.96282E-02
 -1      8077 5.92543E-02
 -1      8078 5.48575E-02
 -1      8079 6.63504E-02
 -1      8080 6.07873E-02
 -1      8081 7.45025E-02
 -1      8082 6.74840E-02
 -1      8083 8.38275E-02
 -1      8084 7.49915E-02
 -1      8085 9.52059E-02
 -1      8086 8.41033E-02
 -1      8087 1.10139E-01
 -1      8088 9.70159E-02
 -1      8089 1.28200E-01
 -1      8090 1.14681E-01
 -1      8091 1.50785E-01
 -1      8092 1.36435E-01
 -1      8093 1.82540E-01
 -1      8094 1.64873E-01
 -1      8095 2.21102E-01
 -1      8096 2.01283E-01
 -1      8097 2.73578E-01
 -1      8098 2.44124E-01
 -1      8099 3.35288E-01
 -1      8100 2.92776E-01
 -1      8101 4.04127E-01
 -1      8102 3.45084E-01
 -1      8103 4.75343E-01
 -1      8104 3.96670E-01
 -1      8105 5.38916E-01
 -1      8106 4.39769E-01
 -1      8107 4.57961E-01
 -1      8108 2.24371E-02
 -1      8109 2.33744E-02
 -1      8110 2.44822E-02
 -1      8111 2.57619E-02
 -1      8112 2.72177E-02
 -1      8113 2.88564E-02
 -1      8114 3.07333E-02
 -1      8115 3.29797E-02
 -1      8116 3.56112E-02
 -1      8117 3.86786E-02
 -1      8118 4.21267E-02
 -1      8119 4.60008E-02
 -1      8120 5.03469E-02
 -1      8121 5.52066E-02
 -1      8122 6.09751E-02
 -1      8123 6.88478E-02
 -1      8124 7.80609E-02
 -1      8125 8.93824E-02
 -1      8126 1.04777E-01
 -1      8127 1.24586E-01
 -1      8128 1.48070E-01
 -1      8129 1.78047E-01
 -1      8130 2.12813E-01
 -1      8131 2.51782E-01
 -1      8132 2.93253E-01
 -1      8133 3.33779E-01
 -1      8134 3.67687E-01
 -1      8135 3.85880E-01
 -1      8136 2.43563E-02
 -1      8137 2.49978E-02
 -1      8138 2.57847E-02
 -1      8139 2.67086E-02
 -1      8140 2.77611E-02
 -1      8141 2.89877E-02
 -1      8142 3.06414E-02
 -1      8143 3.24636E-02
 -1      8144 3.44571E-02
 -1      8145 3.66223E-02
 -1      8146 3.89550E-02
 -1      8147 4.20379E-02
 -1      8148 4.69413E-02
 -1      8149 5.27451E-02
 -1      8150 5.95589E-02
 -1      8151 6.74849E-02
 -1      8152 7.71701E-02
 -1      8153 8.95097E-02
 -1      8154 1.03827E-01
 -1      8155 1.20167E-01
 -1      8156 1.38396E-01
 -1      8157 1.58077E-01
 -1      8158 1.78317E-01
 -1      8159 1.97560E-01
 -1      8160 2.13373E-01
 -1      8161 2.22255E-01
 -1      8162 2.22255E-01
 -1      8163 2.19505E-01
 -1      8164 2.52117E-02
 -1      8165 2.56572E-02
 -1      8166 2.62284E-02
 -1      8167 2.69109E-02
 -1      8168 2.77611E-02
 -1      8169 2.89342E-02
 -1      8170 3.02184E-02
 -1      8171 3.16026E-02
 -1      8172 3.37630E-02
 -1      8173 3.65005E-02
 -1      8174 3.97560E-02
 -1      8175 4.35905E-02
 -1      8176 4.80657E-02
 -1      8177 5.32393E-02
 -1      8178 5.95589E-02
 -1      8179 6.74849E-02
 -1      8180 7.66031E-02
 -1      8181 8.69471E-02
 -1      8182 9.84678E-02
 -1      8183 1.10982E-01
 -1      8184 1.24101E-01
 -1      8185 1.37141E-01
 -1      8186 1.49018E-01
 -1      8187 1.58132E-01
 -1      8188 1.62279E-01
 -1      8189 1.62279E-01
 -1      8190 1.58628E-01
 -1      8191 1.43801E-01
 -1      8192 2.58456E-02
 -1      8193 2.61989E-02
 -1      8194 2.67009E-02
 -1      8195 2.73631E-02
 -1      8196 2.83305E-02
 -1      8197 2.95550E-02
 -1      8198 3.10639E-02
 -1      8199 3.28871E-02
 -1      8200 3.50569E-02
 -1      8201 3.76074E-02
 -1      8202 4.05733E-02
 -1      8203 4.39868E-02
 -1      8204 4.80657E-02
 -1      8205 5.32393E-02
 -1      8206 5.91575E-02
 -1      8207 6.58434E-02
 -1      8208 7.32800E-02
 -1      8209 8.13857E-02
 -1      8210 8.99822E-02
 -1      8211 9.87521E-02
 -1      8212 1.07187E-01
 -1      8213 1.14527E-01
 -1      8214 1.19708E-01
 -1      8215 1.21311E-01
 -1      8216 1.21311E-01
 -1      8217 1.17565E-01
 -1      8218 1.06416E-01
 -1      8219 1.23642E-01
 -1      8220 2.64236E-02
 -1      8221 2.68641E-02
 -1      8222 2.74765E-02
 -1      8223 2.82765E-02
 -1      8224 2.92805E-02
 -1      8225 3.05056E-02
 -1      8226 3.19696E-02
 -1      8227 3.36907E-02
 -1      8228 3.56870E-02
 -1      8229 3.79748E-02
 -1      8230 4.05733E-02
 -1      8231 4.39868E-02
 -1      8232 4.78742E-02
 -1      8233 5.22499E-02
 -1      8234 5.71081E-02
 -1      8235 6.24106E-02
 -1      8236 6.80715E-02
 -1      8237 7.39360E-02
 -1      8238 7.97548E-02
 -1      8239 8.51538E-02
 -1      8240 8.96008E-02
 -1      8241 9.23756E-02
 -1      8242 9.25485E-02
 -1      8243 9.25485E-02
 -1      8244 8.89846E-02
 -1      8245 8.07832E-02
 -1      8246 9.63938E-02
 -1      8247 1.11190E-01
 -1      8248 2.67400E-02
 -1      8249 2.72738E-02
 -1      8250 2.79585E-02
 -1      8251 2.88050E-02
 -1      8252 2.98235E-02
 -1      8253 3.10232E-02
 -1      8254 3.24122E-02
 -1      8255 3.39971E-02
 -1      8256 3.57817E-02
 -1      8257 3.79748E-02
 -1      8258 4.05672E-02
 -1      8259 4.34709E-02
 -1      8260 4.66819E-02
 -1      8261 5.01798E-02
 -1      8262 5.39196E-02
 -1      8263 5.78214E-02
 -1      8264 6.17572E-02
 -1      8265 6.55348E-02
 -1      8266 6.88801E-02
 -1      8267 7.14181E-02
 -1      8268 7.26562E-02
 -1      8269 7.26562E-02
 -1      8270 7.19745E-02
 -1      8271 6.86307E-02
 -1      8272 6.25344E-02
 -1      8273 7.59275E-02
 -1      8274 8.77654E-02
 -1      8275 9.65379E-02
 -1      8276 2.67400E-02
 -1      8277 2.73564E-02
 -1      8278 2.81043E-02
 -1      8279 2.89882E-02
 -1      8280 3.00116E-02
 -1      8281 3.11757E-02
 -1      8282 3.24788E-02
 -1      8283 3.39971E-02
 -1      8284 3.57817E-02
 -1      8285 3.77661E-02
 -1      8286 3.99443E-02
 -1      8287 4.23012E-02
 -1      8288 4.48088E-02
 -1      8289 4.74208E-02
 -1      8290 5.00660E-02
 -1      8291 5.26395E-02
 -1      8292 5.49936E-02
 -1      8293 5.69265E-02
 -1      8294 5.81717E-02
 -1      8295 5.83887E-02
 -1      8296 5.83887E-02
 -1      8297 5.71582E-02
 -1      8298 5.39870E-02
 -1      8299 4.89306E-02
 -1      8300 5.96926E-02
 -1      8301 6.94774E-02
 -1      8302 7.73021E-02
 -1      8303 8.20658E-02
 -1      8304 2.67390E-02
 -1      8305 2.73564E-02
 -1      8306 2.81043E-02
 -1      8307 2.89882E-02
 -1      8308 3.00116E-02
 -1      8309 3.11757E-02
 -1      8310 3.24788E-02
 -1      8311 3.39164E-02
 -1      8312 3.54794E-02
 -1      8313 3.71532E-02
 -1      8314 3.89154E-02
 -1      8315 4.07337E-02
 -1      8316 4.25618E-02
 -1      8317 4.43357E-02
 -1      8318 4.59684E-02
 -1      8319 4.73442E-02
 -1      8320 4.83117E-02
 -1      8321 4.86784E-02
 -1      8322 4.86784E-02
 -1      8323 4.82053E-02
 -1      8324 4.66048E-02
 -1      8325 4.35445E-02
 -1      8326 3.86594E-02
 -1      8327 4.59906E-02
 -1      8328 5.43308E-02
 -1      8329 6.14232E-02
 -1      8330 6.65166E-02
 -1      8331 6.88630E-02
 -1      8332 2.64366E-02
 -1      8333 2.71345E-02
 -1      8334 2.79450E-02
 -1      8335 2.88679E-02
 -1      8336 2.98998E-02
 -1      8337 3.10340E-02
 -1      8338 3.22599E-02
 -1      8339 3.35621E-02
 -1      8340 3.49201E-02
 -1      8341 3.63066E-02
 -1      8342 3.76858E-02
 -1      8343 3.90114E-02
 -1      8344 4.02243E-02
 -1      8345 4.12493E-02
 -1      8346 4.19915E-02
 -1      8347 4.23334E-02
 -1      8348 4.23334E-02
 -1      8349 4.21310E-02
 -1      8350 4.12116E-02
 -1      8351 3.93732E-02
 -1      8352 3.63875E-02
 -1      8353 3.20081E-02
 -1      8354 3.37129E-02
 -1      8355 4.09564E-02
 -1      8356 4.74652E-02
 -1      8357 5.26998E-02
 -1      8358 5.61145E-02
 -1      8359 5.74587E-02
 -1      8360 2.58451E-02
 -1      8361 2.66279E-02
 -1      8362 2.75096E-02
 -1      8363 2.84843E-02
 -1      8364 2.95419E-02
 -1      8365 3.06681E-02
 -1      8366 3.18438E-02
 -1      8367 3.30442E-02
 -1      8368 3.42385E-02
 -1      8369 3.53885E-02
 -1      8370 3.64473E-02
 -1      8371 3.73580E-02
 -1      8372 3.80521E-02
 -1      8373 3.84473E-02
 -1      8374 3.84473E-02
 -1      8375 3.84464E-02
 -1      8376 3.79352E-02
 -1      8377 3.67821E-02
 -1      8378 3.48383E-02
 -1      8379 3.19409E-02
 -1      8380 2.79181E-02
 -1      8381 2.26002E-02
 -1      8382 2.84783E-02
 -1      8383 3.44256E-02
 -1      8384 3.96469E-02
 -1      8385 4.37293E-02
 -1      8386 4.66872E-02
 -1      8387 5.60829E-02
 -1      8388 2.49711E-02
 -1      8389 2.58511E-02
 -1      8390 2.68222E-02
 -1      8391 2.78726E-02
 -1      8392 2.89862E-02
 -1      8393 3.01416E-02
 -1      8394 3.13119E-02
 -1      8395 3.24642E-02
 -1      8396 3.35585E-02
 -1      8397 3.45473E-02
 -1      8398 3.53745E-02
 -1      8399 3.59746E-02
 -1      8400 3.62719E-02
 -1      8401 3.62719E-02
 -1      8402 3.61796E-02
 -1      8403 3.55999E-02
 -1      8404 3.44237E-02
 -1      8405 3.25324E-02
 -1      8406 2.98000E-02
 -1      8407 2.60982E-02
 -1      8408 2.13040E-02
 -1      8409 1.64262E-02
 -1      8410 2.16987E-02
 -1      8411 2.66824E-02
 -1      8412 3.10757E-02
 -1      8413 3.75191E-02
 -1      8414 4.84578E-02
 -1      8415 5.88198E-02
 -1      8416 2.38132E-02
 -1      8417 2.48111E-02
 -1      8418 2.58989E-02
 -1      8419 2.70599E-02
 -1      8420 2.82722E-02
 -1      8421 2.95082E-02
 -1      8422 3.07345E-02
 -1      8423 3.19106E-02
 -1      8424 3.29890E-02
 -1      8425 3.39140E-02
 -1      8426 3.46217E-02
 -1      8427 3.50389E-02
 -1      8428 3.50836E-02
 -1      8429 3.50836E-02
 -1      8430 3.46651E-02
 -1      8431 3.36843E-02
 -1      8432 3.20360E-02
 -1      8433 2.96110E-02
 -1      8434 2.63011E-02
 -1      8435 2.20042E-02
 -1      8436 1.66338E-02
 -1      8437 1.01294E-02
 -1      8438 1.34776E-02
 -1      8439 1.98981E-02
 -1      8440 3.04307E-02
 -1      8441 4.12450E-02
 -1      8442 5.19110E-02
 -1      8443 6.19164E-02
 -1      8444 2.23607E-02
 -1      8445 2.35048E-02
 -1      8446 2.47457E-02
 -1      8447 2.60619E-02
 -1      8448 2.74269E-02
 -1      8449 2.88081E-02
 -1      8450 3.01662E-02
 -1      8451 3.14549E-02
 -1      8452 3.26199E-02
 -1      8453 3.36883E-02
 -1      8454 3.45770E-02
 -1      8455 3.50985E-02
 -1      8456 3.51564E-02
 -1      8457 3.51564E-02
 -1      8458 3.46468E-02
 -1      8459 3.34600E-02
 -1      8460 3.14835E-02
 -1      8461 2.86068E-02
 -1      8462 2.47273E-02
 -1      8463 1.98239E-02
 -1      8464 1.58953E-02
 -1      8465 1.29719E-02
 -1      8466 1.21885E-02
 -1      8467 2.19627E-02
 -1      8468 3.29488E-02
 -1      8469 4.42114E-02
 -1      8470 5.53267E-02
 -1      8471 6.58027E-02
 -1      8472 2.05925E-02
 -1      8473 2.19187E-02
 -1      8474 2.33567E-02
 -1      8475 2.48816E-02
 -1      8476 2.64633E-02
 -1      8477 2.80652E-02
 -1      8478 2.96440E-02
 -1      8479 3.11487E-02
 -1      8480 3.27283E-02
 -1      8481 3.42402E-02
 -1      8482 3.54696E-02
 -1      8483 3.63219E-02
 -1      8484 3.66920E-02
 -1      8485 3.66920E-02
 -1      8486 3.64654E-02
 -1      8487 3.55200E-02
 -1      8488 3.37294E-02
 -1      8489 3.09677E-02
 -1      8490 2.71157E-02
 -1      8491 2.48301E-02
 -1      8492 2.48301E-02
 -1      8493 2.43201E-02
 -1      8494 2.31869E-02
 -1      8495 2.32451E-02
 -1      8496 3.40784E-02
 -1      8497 4.64693E-02
 -1      8498 5.88595E-02
 -1      8499 7.07407E-02
 -1      8500 1.84769E-02
 -1      8501 2.00267E-02
 -1      8502 2.17119E-02
 -1      8503 2.35056E-02
 -1      8504 2.53753E-02
 -1      8505 2.72824E-02
 -1      8506 2.91812E-02
 -1      8507 3.10961E-02
 -1      8508 3.32970E-02
 -1      8509 3.53251E-02
 -1      8510 3.70918E-02
 -1      8511 3.84955E-02
 -1      8512 3.94209E-02
 -1      8513 3.97402E-02
 -1      8514 3.97402E-02
 -1      8515 3.93136E-02
 -1      8516 3.79927E-02
 -1      8517 3.56244E-02
 -1      8518 3.44024E-02
 -1      8519 3.62648E-02
 -1      8520 3.75380E-02
 -1      8521 3.80300E-02
 -1      8522 3.80300E-02
 -1      8523 3.75397E-02
 -1      8524 3.66297E-02
 -1      8525 4.78559E-02
 -1      8526 6.25164E-02
 -1      8527 7.69476E-02
 -1      8528 1.59843E-02
 -1      8529 1.78060E-02
 -1      8530 1.97953E-02
 -1      8531 2.19250E-02
 -1      8532 2.41624E-02
 -1      8533 2.64689E-02
 -1      8534 2.88416E-02
 -1      8535 3.17889E-02
 -1      8536 3.46981E-02
 -1      8537 3.74920E-02
 -1      8538 4.00786E-02
 -1      8539 4.23491E-02
 -1      8540 4.41768E-02
 -1      8541 4.54164E-02
 -1      8542 4.59038E-02
 -1      8543 4.59038E-02
 -1      8544 4.54577E-02
 -1      8545 4.38829E-02
 -1      8546 4.60380E-02
 -1      8547 5.01937E-02
 -1      8548 5.37321E-02
 -1      8549 5.63411E-02
 -1      8550 5.76712E-02
 -1      8551 5.76712E-02
 -1      8552 5.73475E-02
 -1      8553 5.49892E-02
 -1      8554 6.60129E-02
 -1      8555 8.47913E-02
 -1      8556 2.37611E-02
 -1      8557 2.41132E-02
 -1      8558 2.45019E-02
 -1      8559 2.46770E-02
 -1      8560 2.53970E-02
 -1      8561 2.53912E-02
 -1      8562 2.64412E-02
 -1      8563 2.62466E-02
 -1      8564 2.76303E-02
 -1      8565 2.72348E-02
 -1      8566 2.89877E-02
 -1      8567 2.83744E-02
 -1      8568 3.06873E-02
 -1      8569 2.98145E-02
 -1      8570 3.27217E-02
 -1      8571 3.15525E-02
 -1      8572 3.49719E-02
 -1      8573 3.34604E-02
 -1      8574 3.74506E-02
 -1      8575 3.55397E-02
 -1      8576 4.01688E-02
 -1      8577 3.77886E-02
 -1      8578 4.34300E-02
 -1      8579 4.04964E-02
 -1      8580 4.77791E-02
 -1      8581 4.44896E-02
 -1      8582 5.27600E-02
 -1      8583 4.98432E-02
 -1      8584 5.87863E-02
 -1      8585 5.61520E-02
 -1      8586 6.70746E-02
 -1      8587 6.35219E-02
 -1      8588 7.71701E-02
 -1      8589 7.23275E-02
 -1      8590 8.95097E-02
 -1      8591 8.33399E-02
 -1      8592 1.04302E-01
 -1      8593 9.66684E-02
 -1      8594 1.22377E-01
 -1      8595 1.11997E-01
 -1      8596 1.43126E-01
 -1      8597 1.29281E-01
 -1      8598 1.66354E-01
 -1      8599 1.48236E-01
 -1      8600 1.91420E-01
 -1      8601 1.68197E-01
 -1      8602 2.16990E-01
 -1      8603 1.87938E-01
 -1      8604 2.40737E-01
 -1      8605 2.05466E-01
 -1      8606 2.59025E-01
 -1      8607 2.17814E-01
 -1      8608 2.68027E-01
 -1      8609 2.22255E-01
 -1      8610 2.66651E-01
 -1      8611 2.20880E-01
 -1      8612 2.09714E-01
 -1      8613 2.47840E-02
 -1      8614 2.50588E-02
 -1      8615 2.53275E-02
 -1      8616 2.54345E-02
 -1      8617 2.60065E-02
 -1      8618 2.59428E-02
 -1      8619 2.68097E-02
 -1      8620 2.65696E-02
 -1      8621 2.77611E-02
 -1      8622 2.73360E-02
 -1      8623 2.89609E-02
 -1      8624 2.83476E-02
 -1      8625 3.04299E-02
 -1      8626 2.95763E-02
 -1      8627 3.20331E-02
 -1      8628 3.09105E-02
 -1      8629 3.41101E-02
 -1      8630 3.26828E-02
 -1      8631 3.65614E-02
 -1      8632 3.51317E-02
 -1      8633 3.93555E-02
 -1      8634 3.81283E-02
 -1      8635 4.28142E-02
 -1      8636 4.16733E-02
 -1      8637 4.75035E-02
 -1      8638 4.58281E-02
 -1      8639 5.29922E-02
 -1      8640 5.06525E-02
 -1      8641 5.95589E-02
 -1      8642 5.63991E-02
 -1      8643 6.74849E-02
 -1      8644 6.35219E-02
 -1      8645 7.68866E-02
 -1      8646 7.20440E-02
 -1      8647 8.82284E-02
 -1      8648 8.17751E-02
 -1      8649 1.01147E-01
 -1      8650 9.27075E-02
 -1      8651 1.15574E-01
 -1      8652 1.04725E-01
 -1      8653 1.31248E-01
 -1      8654 1.17541E-01
 -1      8655 1.47609E-01
 -1      8656 1.30621E-01
 -1      8657 1.63667E-01
 -1      8658 1.43080E-01
 -1      8659 1.77846E-01
 -1      8660 1.53575E-01
 -1      8661 1.87826E-01
 -1      8662 1.60206E-01
 -1      8663 1.92267E-01
 -1      8664 1.62279E-01
 -1      8665 1.90442E-01
 -1      8666 1.60454E-01
 -1      8667 1.81653E-01
 -1      8668 1.51215E-01
 -1      8669 1.55776E-01
 -1      8670 2.55287E-02
 -1      8671 2.57456E-02
 -1      8672 2.59281E-02
 -1      8673 2.60223E-02
 -1      8674 2.64646E-02
 -1      8675 2.64499E-02
 -1      8676 2.71370E-02
 -1      8677 2.70320E-02
 -1      8678 2.80458E-02
 -1      8679 2.78468E-02
 -1      8680 2.92446E-02
 -1      8681 2.89428E-02
 -1      8682 3.06412E-02
 -1      8683 3.03095E-02
 -1      8684 3.22449E-02
 -1      8685 3.19755E-02
 -1      8686 3.44099E-02
 -1      8687 3.39720E-02
 -1      8688 3.70539E-02
 -1      8689 3.63321E-02
 -1      8690 4.01647E-02
 -1      8691 3.90904E-02
 -1      8692 4.37887E-02
 -1      8693 4.22800E-02
 -1      8694 4.80657E-02
 -1      8695 4.60262E-02
 -1      8696 5.32393E-02
 -1      8697 5.06525E-02
 -1      8698 5.93582E-02
 -1      8699 5.61984E-02
 -1      8700 6.66642E-02
 -1      8701 6.25005E-02
 -1      8702 7.49416E-02
 -1      8703 6.95617E-02
 -1      8704 8.41664E-02
 -1      8705 7.73328E-02
 -1      8706 9.42250E-02
 -1      8707 8.56840E-02
 -1      8708 1.04867E-01
 -1      8709 9.43672E-02
 -1      8710 1.15644E-01
 -1      8711 1.02969E-01
 -1      8712 1.25834E-01
 -1      8713 1.10857E-01
 -1      8714 1.34363E-01
 -1      8715 1.17117E-01
 -1      8716 1.39722E-01
 -1      8717 1.20509E-01
 -1      8718 1.41795E-01
 -1      8719 1.21311E-01
 -1      8720 1.39922E-01
 -1      8721 1.19438E-01
 -1      8722 1.32522E-01
 -1      8723 1.11990E-01
 -1      8724 1.33721E-01
 -1      8725 1.15029E-01
 -1      8726 1.35236E-01
 -1      8727 2.61346E-02
 -1      8728 2.62815E-02
 -1      8729 2.65315E-02
 -1      8730 2.66439E-02
 -1      8731 2.70887E-02
 -1      8732 2.71703E-02
 -1      8733 2.78198E-02
 -1      8734 2.78765E-02
 -1      8735 2.88055E-02
 -1      8736 2.87785E-02
 -1      8737 3.00303E-02
 -1      8738 2.98930E-02
 -1      8739 3.15168E-02
 -1      8740 3.12376E-02
 -1      8741 3.32889E-02
 -1      8742 3.28301E-02
 -1      8743 3.53719E-02
 -1      8744 3.46888E-02
 -1      8745 3.77911E-02
 -1      8746 3.68309E-02
 -1      8747 4.05733E-02
 -1      8748 3.92740E-02
 -1      8749 4.39868E-02
 -1      8750 4.22800E-02
 -1      8751 4.79699E-02
 -1      8752 4.59305E-02
 -1      8753 5.27446E-02
 -1      8754 5.00621E-02
 -1      8755 5.81328E-02
 -1      8756 5.46790E-02
 -1      8757 6.41270E-02
 -1      8758 5.97593E-02
 -1      8759 7.06757E-02
 -1      8760 6.52410E-02
 -1      8761 7.76608E-02
 -1      8762 7.10037E-02
 -1      8763 8.48685E-02
 -1      8764 7.68454E-02
 -1      8765 9.19529E-02
 -1      8766 8.24543E-02
 -1      8767 9.83937E-02
 -1      8768 8.73773E-02
 -1      8769 1.03451E-01
 -1      8770 9.09882E-02
 -1      8771 1.06128E-01
 -1      8772 9.24621E-02
 -1      8773 1.06930E-01
 -1      8774 9.25485E-02
 -1      8775 1.05148E-01
 -1      8776 9.07666E-02
 -1      8777 9.91740E-02
 -1      8778 8.48839E-02
 -1      8779 1.01405E-01
 -1      8780 8.85885E-02
 -1      8781 1.17416E-01
 -1      8782 1.03792E-01
 -1      8783 1.17420E-01
 -1      8784 2.65818E-02
 -1      8785 2.65426E-02
 -1      8786 2.70690E-02
 -1      8787 2.70069E-02
 -1      8788 2.77175E-02
 -1      8789 2.76161E-02
 -1      8790 2.85408E-02
 -1      8791 2.83818E-02
 -1      8792 2.95520E-02
 -1      8793 2.93143E-02
 -1      8794 3.07644E-02
 -1      8795 3.04234E-02
 -1      8796 3.21909E-02
 -1      8797 3.17177E-02
 -1      8798 3.38439E-02
 -1      8799 3.32046E-02
 -1      8800 3.57343E-02
 -1      8801 3.48894E-02
 -1      8802 3.79748E-02
 -1      8803 3.68782E-02
 -1      8804 4.05702E-02
 -1      8805 3.92710E-02
 -1      8806 4.37288E-02
 -1      8807 4.20191E-02
 -1      8808 4.72781E-02
 -1      8809 4.50764E-02
 -1      8810 5.12149E-02
 -1      8811 4.84309E-02
 -1      8812 5.55139E-02
 -1      8813 5.20497E-02
 -1      8814 6.01160E-02
 -1      8815 5.58705E-02
 -1      8816 6.49143E-02
 -1      8817 5.97893E-02
 -1      8818 6.97354E-02
 -1      8819 6.36460E-02
 -1      8820 7.43175E-02
 -1      8821 6.72074E-02
 -1      8822 7.82859E-02
 -1      8823 7.01491E-02
 -1      8824 8.11285E-02
 -1      8825 7.20371E-02
 -1      8826 8.25159E-02
 -1      8827 7.26562E-02
 -1      8828 8.22615E-02
 -1      8829 7.23153E-02
 -1      8830 8.05896E-02
 -1      8831 7.03026E-02
 -1      8832 7.57595E-02
 -1      8833 6.55825E-02
 -1      8834 7.83554E-02
 -1      8835 6.92310E-02
 -1      8836 9.20796E-02
 -1      8837 8.18465E-02
 -1      8838 1.03864E-01
 -1      8839 9.21517E-02
 -1      8840 9.92713E-02
 -1      8841 2.67400E-02
 -1      8842 2.65426E-02
 -1      8843 2.73151E-02
 -1      8844 2.70482E-02
 -1      8845 2.80314E-02
 -1      8846 2.77303E-02
 -1      8847 2.88966E-02
 -1      8848 2.85462E-02
 -1      8849 2.99176E-02
 -1      8850 2.94999E-02
 -1      8851 3.10994E-02
 -1      8852 3.05936E-02
 -1      8853 3.24455E-02
 -1      8854 3.18272E-02
 -1      8855 3.39971E-02
 -1      8856 3.32379E-02
 -1      8857 3.57817E-02
 -1      8858 3.48894E-02
 -1      8859 3.78704E-02
 -1      8860 3.67739E-02
 -1      8861 4.02557E-02
 -1      8862 3.88552E-02
 -1      8863 4.28860E-02
 -1      8864 4.11227E-02
 -1      8865 4.57454E-02
 -1      8866 4.35550E-02
 -1      8867 4.88003E-02
 -1      8868 4.61148E-02
 -1      8869 5.19928E-02
 -1      8870 4.87434E-02
 -1      8871 5.52304E-02
 -1      8872 5.13527E-02
 -1      8873 5.83754E-02
 -1      8874 5.38165E-02
 -1      8875 6.12306E-02
 -1      8876 5.59600E-02
 -1      8877 6.35259E-02
 -1      8878 5.75491E-02
 -1      8879 6.49034E-02
 -1      8880 5.82802E-02
 -1      8881 6.55224E-02
 -1      8882 5.83887E-02
 -1      8883 6.49072E-02
 -1      8884 5.77734E-02
 -1      8885 6.29807E-02
 -1      8886 5.55726E-02
 -1      8887 5.87807E-02
 -1      8888 5.14588E-02
 -1      8889 6.11135E-02
 -1      8890 5.43116E-02
 -1      8891 7.27025E-02
 -1      8892 6.45850E-02
 -1      8893 8.25338E-02
 -1      8894 7.33897E-02
 -1      8895 8.93019E-02
 -1      8896 7.96840E-02
 -1      8897 8.27177E-02
 -1      8898 2.67395E-02
 -1      8899 2.64917E-02
 -1      8900 2.73564E-02
 -1      8901 2.70477E-02
 -1      8902 2.81043E-02
 -1      8903 2.77303E-02
 -1      8904 2.89882E-02
 -1      8905 2.85462E-02
 -1      8906 3.00116E-02
 -1      8907 2.94999E-02
 -1      8908 3.11757E-02
 -1      8909 3.05936E-02
 -1      8910 3.24788E-02
 -1      8911 3.18272E-02
 -1      8912 3.39567E-02
 -1      8913 3.31976E-02
 -1      8914 3.56305E-02
 -1      8915 3.46979E-02
 -1      8916 3.74596E-02
 -1      8917 3.63163E-02
 -1      8918 3.94299E-02
 -1      8919 3.80343E-02
 -1      8920 4.15174E-02
 -1      8921 3.98246E-02
 -1      8922 4.36853E-02
 -1      8923 4.16477E-02
 -1      8924 4.58783E-02
 -1      8925 4.34487E-02
 -1      8926 4.80172E-02
 -1      8927 4.51521E-02
 -1      8928 4.99918E-02
 -1      8929 4.66563E-02
 -1      8930 5.16526E-02
 -1      8931 4.78279E-02
 -1      8932 5.28025E-02
 -1      8933 4.84950E-02
 -1      8934 5.34251E-02
 -1      8935 4.86784E-02
 -1      8936 5.32970E-02
 -1      8937 4.84418E-02
 -1      8938 5.24967E-02
 -1      8939 4.74050E-02
 -1      8940 5.03513E-02
 -1      8941 4.50746E-02
 -1      8942 4.63232E-02
 -1      8943 4.11019E-02
 -1      8944 4.74606E-02
 -1      8945 4.23250E-02
 -1      8946 5.70117E-02
 -1      8947 5.01607E-02
 -1      8948 6.54503E-02
 -1      8949 5.78770E-02
 -1      8950 7.19094E-02
 -1      8951 6.39699E-02
 -1      8952 7.54644E-02
 -1      8953 6.76898E-02
 -1      8954 6.91390E-02
 -1      8955 2.65878E-02
 -1      8956 2.61424E-02
 -1      8957 2.72454E-02
 -1      8958 2.67855E-02
 -1      8959 2.80246E-02
 -1      8960 2.75397E-02
 -1      8961 2.89280E-02
 -1      8962 2.84064E-02
 -1      8963 2.99557E-02
 -1      8964 2.93839E-02
 -1      8965 3.11048E-02
 -1      8966 3.04669E-02
 -1      8967 3.23693E-02
 -1      8968 3.16469E-02
 -1      8969 3.37392E-02
 -1      8970 3.29110E-02
 -1      8971 3.51998E-02
 -1      8972 3.42411E-02
 -1      8973 3.67299E-02
 -1      8974 3.56134E-02
 -1      8975 3.83006E-02
 -1      8976 3.69962E-02
 -1      8977 3.98725E-02
 -1      8978 3.83486E-02
 -1      8979 4.13931E-02
 -1      8980 3.96179E-02
 -1      8981 4.27925E-02
 -1      8982 4.07368E-02
 -1      8983 4.39800E-02
 -1      8984 4.16204E-02
 -1      8985 4.48388E-02
 -1      8986 4.21625E-02
 -1      8987 4.53225E-02
 -1      8988 4.23334E-02
 -1      8989 4.54047E-02
 -1      8990 4.22322E-02
 -1      8991 4.49450E-02
 -1      8992 4.16713E-02
 -1      8993 4.37892E-02
 -1      8994 4.02924E-02
 -1      8995 4.14962E-02
 -1      8996 3.78804E-02
 -1      8997 3.77763E-02
 -1      8998 3.41978E-02
 -1      8999 3.61861E-02
 -1      9000 3.28605E-02
 -1      9001 4.34735E-02
 -1      9002 3.73346E-02
 -1      9003 5.08980E-02
 -1      9004 4.42108E-02
 -1      9005 5.70615E-02
 -1      9006 5.00825E-02
 -1      9007 6.13156E-02
 -1      9008 5.44072E-02
 -1      9009 6.31609E-02
 -1      9010 5.67866E-02
 -1      9011 6.19040E-02
 -1      9012 2.61408E-02
 -1      9013 2.55042E-02
 -1      9014 2.68812E-02
 -1      9015 2.62365E-02
 -1      9016 2.77273E-02
 -1      9017 2.70687E-02
 -1      9018 2.86761E-02
 -1      9019 2.79969E-02
 -1      9020 2.97209E-02
 -1      9021 2.90131E-02
 -1      9022 3.08511E-02
 -1      9023 3.01050E-02
 -1      9024 3.20518E-02
 -1      9025 3.12559E-02
 -1      9026 3.33031E-02
 -1      9027 3.24440E-02
 -1      9028 3.45793E-02
 -1      9029 3.36413E-02
 -1      9030 3.58475E-02
 -1      9031 3.48135E-02
 -1      9032 3.70665E-02
 -1      9033 3.59179E-02
 -1      9034 3.81847E-02
 -1      9035 3.69026E-02
 -1      9036 3.91382E-02
 -1      9037 3.77050E-02
 -1      9038 3.98483E-02
 -1      9039 3.82497E-02
 -1      9040 4.02194E-02
 -1      9041 3.84473E-02
 -1      9042 4.03899E-02
 -1      9043 3.84469E-02
 -1      9044 4.01343E-02
 -1      9045 3.81908E-02
 -1      9046 3.94565E-02
 -1      9047 3.73587E-02
 -1      9048 3.80249E-02
 -1      9049 3.58102E-02
 -1      9050 3.56570E-02
 -1      9051 3.33896E-02
 -1      9052 3.21528E-02
 -1      9053 2.99295E-02
 -1      9054 2.73042E-02
 -1      9055 2.52591E-02
 -1      9056 3.10956E-02
 -1      9057 2.55393E-02
 -1      9058 3.76910E-02
 -1      9059 3.14520E-02
 -1      9060 4.35560E-02
 -1      9061 3.70362E-02
 -1      9062 4.82146E-02
 -1      9063 4.16881E-02
 -1      9064 5.14009E-02
 -1      9065 4.52082E-02
 -1      9066 5.67708E-02
 -1      9067 5.13850E-02
 -1      9068 6.17305E-02
 -1      9069 2.54081E-02
 -1      9070 2.45801E-02
 -1      9071 2.62395E-02
 -1      9072 2.54111E-02
 -1      9073 2.71659E-02
 -1      9074 2.63367E-02
 -1      9075 2.81784E-02
 -1      9076 2.73474E-02
 -1      9077 2.92640E-02
 -1      9078 2.84294E-02
 -1      9079 3.04049E-02
 -1      9080 2.95639E-02
 -1      9081 3.15778E-02
 -1      9082 3.07268E-02
 -1      9083 3.27542E-02
 -1      9084 3.18881E-02
 -1      9085 3.38985E-02
 -1      9086 3.30113E-02
 -1      9087 3.49679E-02
 -1      9088 3.40529E-02
 -1      9089 3.59109E-02
 -1      9090 3.49609E-02
 -1      9091 3.66663E-02
 -1      9092 3.56745E-02
 -1      9093 3.71620E-02
 -1      9094 3.61233E-02
 -1      9095 3.73596E-02
 -1      9096 3.62719E-02
 -1      9097 3.73135E-02
 -1      9098 3.62258E-02
 -1      9099 3.70232E-02
 -1      9100 3.58898E-02
 -1      9101 3.61795E-02
 -1      9102 3.50118E-02
 -1      9103 3.46572E-02
 -1      9104 3.34781E-02
 -1      9105 3.23192E-02
 -1      9106 3.11662E-02
 -1      9107 2.90196E-02
 -1      9108 2.79491E-02
 -1      9109 2.46110E-02
 -1      9110 2.37011E-02
 -1      9111 1.95132E-02
 -1      9112 1.88651E-02
 -1      9113 2.50885E-02
 -1      9114 1.90625E-02
 -1      9115 3.05540E-02
 -1      9116 2.41906E-02
 -1      9117 3.53613E-02
 -1      9118 2.88790E-02
 -1      9119 4.06242E-02
 -1      9120 3.42974E-02
 -1      9121 4.75725E-02
 -1      9122 4.29884E-02
 -1      9123 5.74513E-02
 -1      9124 5.36388E-02
 -1      9125 6.39507E-02
 -1      9126 2.43922E-02
 -1      9127 2.33652E-02
 -1      9128 2.53311E-02
 -1      9129 2.43121E-02
 -1      9130 2.63605E-02
 -1      9131 2.53550E-02
 -1      9132 2.74662E-02
 -1      9133 2.64794E-02
 -1      9134 2.86292E-02
 -1      9135 2.76660E-02
 -1      9136 2.98249E-02
 -1      9137 2.88902E-02
 -1      9138 3.10232E-02
 -1      9139 3.01214E-02
 -1      9140 3.21874E-02
 -1      9141 3.13226E-02
 -1      9142 3.32737E-02
 -1      9143 3.24498E-02
 -1      9144 3.42307E-02
 -1      9145 3.34515E-02
 -1      9146 3.49981E-02
 -1      9147 3.42678E-02
 -1      9148 3.55067E-02
 -1      9149 3.48303E-02
 -1      9150 3.56778E-02
 -1      9151 3.50613E-02
 -1      9152 3.56778E-02
 -1      9153 3.50836E-02
 -1      9154 3.54224E-02
 -1      9155 3.48744E-02
 -1      9156 3.46421E-02
 -1      9157 3.41747E-02
 -1      9158 3.32298E-02
 -1      9159 3.28601E-02
 -1      9160 3.10717E-02
 -1      9161 3.08235E-02
 -1      9162 2.80505E-02
 -1      9163 2.79561E-02
 -1      9164 2.40512E-02
 -1      9165 2.41527E-02
 -1      9166 1.89689E-02
 -1      9167 1.93190E-02
 -1      9168 1.32778E-02
 -1      9169 1.33816E-02
 -1      9170 1.75882E-02
 -1      9171 1.18035E-02
 -1      9172 2.32903E-02
 -1      9173 1.66879E-02
 -1      9174 3.07532E-02
 -1      9175 2.51644E-02
 -1      9176 3.93820E-02
 -1      9177 3.58379E-02
 -1      9178 5.01844E-02
 -1      9179 4.65780E-02
 -1      9180 6.03681E-02
 -1      9181 5.69137E-02
 -1      9182 6.69824E-02
 -1      9183 2.30870E-02
 -1      9184 2.18451E-02
 -1      9185 2.41580E-02
 -1      9186 2.29328E-02
 -1      9187 2.53223E-02
 -1      9188 2.41253E-02
 -1      9189 2.65609E-02
 -1      9190 2.54038E-02
 -1      9191 2.78495E-02
 -1      9192 2.67444E-02
 -1      9193 2.91582E-02
 -1      9194 2.81175E-02
 -1      9195 3.04504E-02
 -1      9196 2.94872E-02
 -1      9197 3.16828E-02
 -1      9198 3.08106E-02
 -1      9199 3.28045E-02
 -1      9200 3.20374E-02
 -1      9201 3.38012E-02
 -1      9202 3.31541E-02
 -1      9203 3.45993E-02
 -1      9204 3.41327E-02
 -1      9205 3.50687E-02
 -1      9206 3.48377E-02
 -1      9207 3.51200E-02
 -1      9208 3.51274E-02
 -1      9209 3.51200E-02
 -1      9210 3.51564E-02
 -1      9211 3.46560E-02
 -1      9212 3.49016E-02
 -1      9213 3.35722E-02
 -1      9214 3.40534E-02
 -1      9215 3.17598E-02
 -1      9216 3.24718E-02
 -1      9217 2.91089E-02
 -1      9218 3.00452E-02
 -1      9219 2.55142E-02
 -1      9220 2.66671E-02
 -1      9221 2.09140E-02
 -1      9222 2.22756E-02
 -1      9223 1.62646E-02
 -1      9224 1.78596E-02
 -1      9225 1.15506E-02
 -1      9226 1.44336E-02
 -1      9227 1.28330E-02
 -1      9228 1.25802E-02
 -1      9229 2.09304E-02
 -1      9230 1.70756E-02
 -1      9231 3.16897E-02
 -1      9232 2.74557E-02
 -1      9233 4.27282E-02
 -1      9234 3.85801E-02
 -1      9235 5.36189E-02
 -1      9236 4.97691E-02
 -1      9237 6.38596E-02
 -1      9238 6.05647E-02
 -1      9239 7.12805E-02
 -1      9240 2.14766E-02
 -1      9241 1.99952E-02
 -1      9242 2.27118E-02
 -1      9243 2.12556E-02
 -1      9244 2.40512E-02
 -1      9245 2.26377E-02
 -1      9246 2.54718E-02
 -1      9247 2.41191E-02
 -1      9248 2.69451E-02
 -1      9249 2.56724E-02
 -1      9250 2.84367E-02
 -1      9251 2.72642E-02
 -1      9252 2.99051E-02
 -1      9253 2.88546E-02
 -1      9254 3.13018E-02
 -1      9255 3.03964E-02
 -1      9256 3.26741E-02
 -1      9257 3.19385E-02
 -1      9258 3.39643E-02
 -1      9259 3.34843E-02
 -1      9260 3.50233E-02
 -1      9261 3.48549E-02
 -1      9262 3.57102E-02
 -1      9263 3.58957E-02
 -1      9264 3.59242E-02
 -1      9265 3.65069E-02
 -1      9266 3.59242E-02
 -1      9267 3.66920E-02
 -1      9268 3.55561E-02
 -1      9269 3.65787E-02
 -1      9270 3.44900E-02
 -1      9271 3.59927E-02
 -1      9272 3.26065E-02
 -1      9273 3.46247E-02
 -1      9274 2.97872E-02
 -1      9275 3.23485E-02
 -1      9276 2.59215E-02
 -1      9277 2.90417E-02
 -1      9278 2.23270E-02
 -1      9279 2.59729E-02
 -1      9280 2.03627E-02
 -1      9281 2.48301E-02
 -1      9282 1.86460E-02
 -1      9283 2.45751E-02
 -1      9284 1.76877E-02
 -1      9285 2.37535E-02
 -1      9286 2.26039E-02
 -1      9287 2.32160E-02
 -1      9288 3.35136E-02
 -1      9289 2.86617E-02
 -1      9290 4.53404E-02
 -1      9291 4.02738E-02
 -1      9292 5.70931E-02
 -1      9293 5.26644E-02
 -1      9294 6.82717E-02
 -1      9295 6.48001E-02
 -1      9296 7.71766E-02
 -1      9297 1.95347E-02
 -1      9298 1.77808E-02
 -1      9299 2.09727E-02
 -1      9300 1.92518E-02
 -1      9301 2.25343E-02
 -1      9302 2.08693E-02
 -1      9303 2.41936E-02
 -1      9304 2.26088E-02
 -1      9305 2.59193E-02
 -1      9306 2.44404E-02
 -1      9307 2.76738E-02
 -1      9308 2.63289E-02
 -1      9309 2.94126E-02
 -1      9310 2.82318E-02
 -1      9311 3.11224E-02
 -1      9312 3.01387E-02
 -1      9313 3.30127E-02
 -1      9314 3.21966E-02
 -1      9315 3.47827E-02
 -1      9316 3.43111E-02
 -1      9317 3.62807E-02
 -1      9318 3.62085E-02
 -1      9319 3.74087E-02
 -1      9320 3.77936E-02
 -1      9321 3.80565E-02
 -1      9322 3.89582E-02
 -1      9323 3.82161E-02
 -1      9324 3.95806E-02
 -1      9325 3.81028E-02
 -1      9326 3.97402E-02
 -1      9327 3.74168E-02
 -1      9328 3.95269E-02
 -1      9329 3.58611E-02
 -1      9330 3.86532E-02
 -1      9331 3.32960E-02
 -1      9332 3.68086E-02
 -1      9333 3.07590E-02
 -1      9334 3.50134E-02
 -1      9335 3.05474E-02
 -1      9336 3.53336E-02
 -1      9337 3.11840E-02
 -1      9338 3.69014E-02
 -1      9339 3.11751E-02
 -1      9340 3.77840E-02
 -1      9341 3.06085E-02
 -1      9342 3.80300E-02
 -1      9343 3.03924E-02
 -1      9344 3.77849E-02
 -1      9345 3.53540E-02
 -1      9346 3.70847E-02
 -1      9347 4.71626E-02
 -1      9348 4.22428E-02
 -1      9349 6.06879E-02
 -1      9350 5.51861E-02
 -1      9351 7.38441E-02
 -1      9352 6.97320E-02
 -1      9353 8.50342E-02
 -1      9354 1.72306E-02
 -1      9355 1.51690E-02
 -1      9356 1.89163E-02
 -1      9357 1.68951E-02
 -1      9358 2.07536E-02
 -1      9359 1.88006E-02
 -1      9360 2.27153E-02
 -1      9361 2.08601E-02
 -1      9362 2.47688E-02
 -1      9363 2.30437E-02
 -1      9364 2.68757E-02
 -1      9365 2.53156E-02
 -1      9366 2.90114E-02
 -1      9367 2.76552E-02
 -1      9368 3.14425E-02
 -1      9369 3.03152E-02
 -1      9370 3.39976E-02
 -1      9371 3.32435E-02
 -1      9372 3.64086E-02
 -1      9373 3.60950E-02
 -1      9374 3.85852E-02
 -1      9375 3.87853E-02
 -1      9376 4.04223E-02
 -1      9377 4.12138E-02
 -1      9378 4.17989E-02
 -1      9379 4.32629E-02
 -1      9380 4.25783E-02
 -1      9381 4.47966E-02
 -1      9382 4.28220E-02
 -1      9383 4.56601E-02
 -1      9384 4.26087E-02
 -1      9385 4.59038E-02
 -1      9386 4.17252E-02
 -1      9387 4.56807E-02
 -1      9388 3.97536E-02
 -1      9389 4.46703E-02
 -1      9390 4.02202E-02
 -1      9391 4.49604E-02
 -1      9392 4.32292E-02
 -1      9393 4.81158E-02
 -1      9394 4.56350E-02
 -1      9395 5.19629E-02
 -1      9396 4.71856E-02
 -1      9397 5.50366E-02
 -1      9398 4.78506E-02
 -1      9399 5.70061E-02
 -1      9400 4.76055E-02
 -1      9401 5.76712E-02
 -1      9402 4.69886E-02
 -1      9403 5.75094E-02
 -1      9404 5.14225E-02
 -1      9405 5.61684E-02
 -1      9406 6.42647E-02
 -1      9407 6.05011E-02
 -1      9408 8.08695E-02
 -1      9409 7.54021E-02
 -1      9410 9.56322E-02
 -1      9411 1.46270E-02
 -1      9412 1.66161E-02
 -1      9413 1.87966E-02
 -1      9414 2.11417E-02
 -1      9415 2.36202E-02
 -1      9416 2.61946E-02
 -1      9417 2.88416E-02
 -1      9418 3.17889E-02
 -1      9419 3.46981E-02
 -1      9420 3.74920E-02
 -1      9421 4.00786E-02
 -1      9422 4.23491E-02
 -1      9423 4.41768E-02
 -1      9424 4.54164E-02
 -1      9425 4.59038E-02
 -1      9426 4.59038E-02
 -1      9427 4.54577E-02
 -1      9428 4.38829E-02
 -1      9429 4.60380E-02
 -1      9430 5.01937E-02
 -1      9431 5.37321E-02
 -1      9432 5.63411E-02
 -1      9433 5.76712E-02
 -1      9434 5.76712E-02
 -1      9435 5.73475E-02
 -1      9436 5.49892E-02
 -1      9437 6.60129E-02
 -1      9438 8.47913E-02
 -1      9439 1.24144E-01
 -1      9440 1.05653E-01
 -1      9441 9.32296E-02
 -1      9442 8.47505E-02
 -1      9443 7.94302E-02
 -1      9444 7.67625E-02
 -1      9445 7.75180E-02
 -1      9446 7.98769E-02
 -1      9447 8.24730E-02
 -1      9448 8.44401E-02
 -1      9449 1.02005E-01
 -1      9450 1.25196E-01
 -1      9451 1.57296E-01
 -1      9452 1.92931E-01
 -1      9453 2.26445E-01
 -1      9454 1.39037E-01
 -1      9455 1.15653E-01
 -1      9456 1.00453E-01
 -1      9457 9.03493E-02
 -1      9458 8.42789E-02
 -1      9459 8.20054E-02
 -1      9460 8.50695E-02
 -1      9461 9.05423E-02
 -1      9462 9.80002E-02
 -1      9463 1.06634E-01
 -1      9464 1.14820E-01
 -1      9465 1.25196E-01
 -1      9466 1.57296E-01
 -1      9467 2.03720E-01
 -1      9468 2.60856E-01
 -1      9469 1.50095E-01
 -1      9470 1.22490E-01
 -1      9471 1.04874E-01
 -1      9472 9.32356E-02
 -1      9473 8.62629E-02
 -1      9474 8.38542E-02
 -1      9475 8.78887E-02
 -1      9476 9.54034E-02
 -1      9477 1.06517E-01
 -1      9478 1.21262E-01
 -1      9479 1.39257E-01
 -1      9480 1.58999E-01
 -1      9481 1.76627E-01
 -1      9482 2.03720E-01
 -1      9483 2.71268E-01
 -1      9484 1.56444E-01
 -1      9485 1.25739E-01
 -1      9486 1.06304E-01
 -1      9487 9.33508E-02
 -1      9488 8.62629E-02
 -1      9489 8.38542E-02
 -1      9490 8.78887E-02
 -1      9491 9.54034E-02
 -1      9492 1.06517E-01
 -1      9493 1.24098E-01
 -1      9494 1.48671E-01
 -1      9495 1.80501E-01
 -1      9496 2.19250E-01
 -1      9497 2.60637E-01
 -1      9498 2.93052E-01
 -1      9499 1.57528E-01
 -1      9500 1.25739E-01
 -1      9501 1.06304E-01
 -1      9502 9.33508E-02
 -1      9503 8.53729E-02
 -1      9504 8.16566E-02
 -1      9505 8.55105E-02
 -1      9506 9.34399E-02
 -1      9507 1.06021E-01
 -1      9508 1.24098E-01
 -1      9509 1.48671E-01
 -1      9510 1.80501E-01
 -1      9511 2.26458E-01
 -1      9512 2.94001E-01
 -1      9513 3.78812E-01
 -1      9514 1.57528E-01
 -1      9515 1.25241E-01
 -1      9516 1.04817E-01
 -1      9517 9.09324E-02
 -1      9518 8.19748E-02
 -1      9519 7.71132E-02
 -1      9520 7.84644E-02
 -1      9521 8.50155E-02
 -1      9522 9.63833E-02
 -1      9523 1.13871E-01
 -1      9524 1.39445E-01
 -1      9525 1.75830E-01
 -1      9526 2.26458E-01
 -1      9527 2.94001E-01
 -1      9528 3.78812E-01
 -1      9529 1.53200E-01
 -1      9530 1.21135E-01
 -1      9531 1.00745E-01
 -1      9532 8.64943E-02
 -1      9533 7.67841E-02
 -1      9534 7.07644E-02
 -1      9535 6.83944E-02
 -1      9536 7.22204E-02
 -1      9537 8.01545E-02
 -1      9538 9.34410E-02
 -1      9539 1.14162E-01
 -1      9540 1.45690E-01
 -1      9541 1.93436E-01
 -1      9542 2.65570E-01
 -1      9543 3.75148E-01
 -1      9544 1.43776E-01
 -1      9545 1.13846E-01
 -1      9546 9.46299E-02
 -1      9547 8.07412E-02
 -1      9548 7.07395E-02
 -1      9549 6.38281E-02
 -1      9550 6.43457E-02
 -1      9551 6.97368E-02
 -1      9552 7.89626E-02
 -1      9553 9.32575E-02
 -1      9554 1.14701E-01
 -1      9555 1.46677E-01
 -1      9556 1.94643E-01
 -1      9557 2.66910E-01
 -1      9558 3.76803E-01
 -1      9559 1.40087E-01
 -1      9560 1.10337E-01
 -1      9561 9.25746E-02
 -1      9562 8.12208E-02
 -1      9563 7.46219E-02
 -1      9564 7.26718E-02
 -1      9565 7.68720E-02
 -1      9566 8.48657E-02
 -1      9567 9.74405E-02
 -1      9568 1.15919E-01
 -1      9569 1.42308E-01
 -1      9570 1.79406E-01
 -1      9571 2.30780E-01
 -1      9572 2.99333E-01
 -1      9573 3.85741E-01
 -1      9574 1.42707E-01
 -1      9575 1.14256E-01
 -1      9576 9.73510E-02
 -1      9577 8.68217E-02
 -1      9578 8.10977E-02
 -1      9579 8.12433E-02
 -1      9580 8.66883E-02
 -1      9581 9.59954E-02
 -1      9582 1.09770E-01
 -1      9583 1.28902E-01
 -1      9584 1.54464E-01
 -1      9585 1.87325E-01
 -1      9586 2.30780E-01
 -1      9587 2.99333E-01
 -1      9588 3.85741E-01
 -1      9589 1.42707E-01
 -1      9590 1.14504E-01
 -1      9591 9.93326E-02
 -1      9592 9.00427E-02
 -1      9593 8.52418E-02
 -1      9594 8.65125E-02
 -1      9595 9.20548E-02
 -1      9596 1.00887E-01
 -1      9597 1.13170E-01
 -1      9598 1.29000E-01
 -1      9599 1.54464E-01
 -1      9600 1.87325E-01
 -1      9601 2.27293E-01
 -1      9602 2.70283E-01
 -1      9603 3.04875E-01
 -1      9604 1.40059E-01
 -1      9605 1.14504E-01
 -1      9606 9.93326E-02
 -1      9607 9.06333E-02
 -1      9608 8.66620E-02
 -1      9609 8.78711E-02
 -1      9610 9.23353E-02
 -1      9611 1.00887E-01
 -1      9612 1.13170E-01
 -1      9613 1.29000E-01
 -1      9614 1.48073E-01
 -1      9615 1.68985E-01
 -1      9616 1.87987E-01
 -1      9617 2.05373E-01
 -1      9618 2.65316E-01
 -1      9619 1.32684E-01
 -1      9620 1.11232E-01
 -1      9621 9.84397E-02
 -1      9622 9.06333E-02
 -1      9623 8.66620E-02
 -1      9624 8.78711E-02
 -1      9625 9.23353E-02
 -1      9626 9.90237E-02
 -1      9627 1.07564E-01
 -1      9628 1.17209E-01
 -1      9629 1.26407E-01
 -1      9630 1.32050E-01
 -1      9631 1.56108E-01
 -1      9632 1.99820E-01
 -1      9633 2.55974E-01
 -1      9634 1.21456E-01
 -1      9635 1.04868E-01
 -1      9636 9.48590E-02
 -1      9637 8.86418E-02
 -1      9638 8.53435E-02
 -1      9639 8.54273E-02
 -1      9640 8.79064E-02
 -1      9641 9.13121E-02
 -1      9642 9.48126E-02
 -1      9643 9.70251E-02
 -1      9644 1.06265E-01
 -1      9645 1.25917E-01
 -1      9646 1.56108E-01
 -1      9647 1.90294E-01
 -1      9648 2.22883E-01
 -1      9649 1.15308E-01
 -1      9650 1.24144E-01
 -1      9651 9.93868E-02
 -1      9652 1.14898E-01
 -1      9653 8.84210E-02
 -1      9654 9.94413E-02
 -1      9655 8.07544E-02
 -1      9656 8.89901E-02
 -1      9657 7.57393E-02
 -1      9658 8.20904E-02
 -1      9659 7.29221E-02
 -1      9660 7.80964E-02
 -1      9661 7.24481E-02
 -1      9662 7.71403E-02
 -1      9663 7.31131E-02
 -1      9664 7.86974E-02
 -1      9665 7.59440E-02
 -1      9666 8.11749E-02
 -1      9667 8.39049E-02
 -1      9668 8.34565E-02
 -1      9669 1.02005E-01
 -1      9670 9.32224E-02
 -1      9671 1.24423E-01
 -1      9672 1.13600E-01
 -1      9673 1.52063E-01
 -1      9674 1.41246E-01
 -1      9675 1.80341E-01
 -1      9676 1.75113E-01
 -1      9677 2.13184E-01
 -1      9678 2.09688E-01
 -1      9679 2.82259E-01
 -1      9680 1.31591E-01
 -1      9681 1.39037E-01
 -1      9682 1.10653E-01
 -1      9683 1.27345E-01
 -1      9684 9.68415E-02
 -1      9685 1.08053E-01
 -1      9686 8.75499E-02
 -1      9687 9.54013E-02
 -1      9688 8.18545E-02
 -1      9689 8.73141E-02
 -1      9690 7.93840E-02
 -1      9691 8.31421E-02
 -1      9692 8.12938E-02
 -1      9693 8.35375E-02
 -1      9694 8.52096E-02
 -1      9695 8.78059E-02
 -1      9696 9.02366E-02
 -1      9697 9.42712E-02
 -1      9698 9.55369E-02
 -1      9699 1.02317E-01
 -1      9700 1.08412E-01
 -1      9701 1.10727E-01
 -1      9702 1.25196E-01
 -1      9703 1.20008E-01
 -1      9704 1.57296E-01
 -1      9705 1.41246E-01
 -1      9706 1.98325E-01
 -1      9707 1.80508E-01
 -1      9708 2.43650E-01
 -1      9709 2.32288E-01
 -1      9710 2.99465E-01
 -1      9711 1.44566E-01
 -1      9712 1.50095E-01
 -1      9713 1.19072E-01
 -1      9714 1.36293E-01
 -1      9715 1.02664E-01
 -1      9716 1.13682E-01
 -1      9717 9.17925E-02
 -1      9718 9.90548E-02
 -1      9719 8.52709E-02
 -1      9720 8.97492E-02
 -1      9721 8.29298E-02
 -1      9722 8.50585E-02
 -1      9723 8.64791E-02
 -1      9724 8.58714E-02
 -1      9725 9.29728E-02
 -1      9726 9.16461E-02
 -1      9727 1.02258E-01
 -1      9728 1.00960E-01
 -1      9729 1.13948E-01
 -1      9730 1.13889E-01
 -1      9731 1.27038E-01
 -1      9732 1.30259E-01
 -1      9733 1.42097E-01
 -1      9734 1.49128E-01
 -1      9735 1.66961E-01
 -1      9736 1.67813E-01
 -1      9737 2.03720E-01
 -1      9738 1.90174E-01
 -1      9739 2.66062E-01
 -1      9740 2.37494E-01
 -1      9741 2.96641E-01
 -1      9742 1.53270E-01
 -1      9743 1.56444E-01
 -1      9744 1.24115E-01
 -1      9745 1.41092E-01
 -1      9746 1.05589E-01
 -1      9747 1.16022E-01
 -1      9748 9.32932E-02
 -1      9749 9.98274E-02
 -1      9750 8.62629E-02
 -1      9751 8.98068E-02
 -1      9752 8.38542E-02
 -1      9753 8.50585E-02
 -1      9754 8.78887E-02
 -1      9755 8.58714E-02
 -1      9756 9.54034E-02
 -1      9757 9.16461E-02
 -1      9758 1.06517E-01
 -1      9759 1.00960E-01
 -1      9760 1.22680E-01
 -1      9761 1.15307E-01
 -1      9762 1.43964E-01
 -1      9763 1.36384E-01
 -1      9764 1.69750E-01
 -1      9765 1.64586E-01
 -1      9766 1.97939E-01
 -1      9767 1.99876E-01
 -1      9768 2.32178E-01
 -1      9769 2.39944E-01
 -1      9770 2.82160E-01
 -1      9771 2.76844E-01
 -1      9772 2.93052E-01
 -1      9773 1.56986E-01
 -1      9774 1.57528E-01
 -1      9775 1.25739E-01
 -1      9776 1.41634E-01
 -1      9777 1.06304E-01
 -1      9778 1.16022E-01
 -1      9779 9.33508E-02
 -1      9780 9.98274E-02
 -1      9781 8.58179E-02
 -1      9782 8.93618E-02
 -1      9783 8.27554E-02
 -1      9784 8.35147E-02
 -1      9785 8.66996E-02
 -1      9786 8.35836E-02
 -1      9787 9.44216E-02
 -1      9788 8.94752E-02
 -1      9789 1.06269E-01
 -1      9790 9.97306E-02
 -1      9791 1.24098E-01
 -1      9792 1.15060E-01
 -1      9793 1.48671E-01
 -1      9794 1.36384E-01
 -1      9795 1.80501E-01
 -1      9796 1.64586E-01
 -1      9797 2.22854E-01
 -1      9798 2.03480E-01
 -1      9799 2.77319E-01
 -1      9800 2.60229E-01
 -1      9801 3.35932E-01
 -1      9802 3.36407E-01
 -1      9803 3.78812E-01
 -1      9804 1.57528E-01
 -1      9805 1.57528E-01
 -1      9806 1.25490E-01
 -1      9807 1.41385E-01
 -1      9808 1.05560E-01
 -1      9809 1.15029E-01
 -1      9810 9.21416E-02
 -1      9811 9.78746E-02
 -1      9812 8.36738E-02
 -1      9813 8.64536E-02
 -1      9814 7.93849E-02
 -1      9815 7.95440E-02
 -1      9816 8.19874E-02
 -1      9817 7.77888E-02
 -1      9818 8.92277E-02
 -1      9819 8.17400E-02
 -1      9820 1.01202E-01
 -1      9821 9.06994E-02
 -1      9822 1.18985E-01
 -1      9823 1.05127E-01
 -1      9824 1.44058E-01
 -1      9825 1.26658E-01
 -1      9826 1.78166E-01
 -1      9827 1.57638E-01
 -1      9828 2.26458E-01
 -1      9829 2.01144E-01
 -1      9830 2.94001E-01
 -1      9831 2.60229E-01
 -1      9832 3.78812E-01
 -1      9833 3.36407E-01
 -1      9834 3.78812E-01
 -1      9835 1.55364E-01
 -1      9836 1.53200E-01
 -1      9837 1.23188E-01
 -1      9838 1.37168E-01
 -1      9839 1.02781E-01
 -1      9840 1.10940E-01
 -1      9841 8.87133E-02
 -1      9842 9.36198E-02
 -1      9843 7.93794E-02
 -1      9844 8.16392E-02
 -1      9845 7.39388E-02
 -1      9846 7.37742E-02
 -1      9847 7.34294E-02
 -1      9848 6.95794E-02
 -1      9849 7.86180E-02
 -1      9850 7.03074E-02
 -1      9851 8.82689E-02
 -1      9852 7.61875E-02
 -1      9853 1.03656E-01
 -1      9854 8.67978E-02
 -1      9855 1.26804E-01
 -1      9856 1.03802E-01
 -1      9857 1.60760E-01
 -1      9858 1.29926E-01
 -1      9859 2.09947E-01
 -1      9860 1.69563E-01
 -1      9861 2.79786E-01
 -1      9862 2.29503E-01
 -1      9863 3.76980E-01
 -1      9864 3.20359E-01
 -1      9865 3.75148E-01
 -1      9866 1.48488E-01
 -1      9867 1.43776E-01
 -1      9868 1.17490E-01
 -1      9869 1.28811E-01
 -1      9870 9.76876E-02
 -1      9871 1.04238E-01
 -1      9872 8.36177E-02
 -1      9873 8.76855E-02
 -1      9874 7.37618E-02
 -1      9875 7.57403E-02
 -1      9876 6.72963E-02
 -1      9877 6.72838E-02
 -1      9878 6.63700E-02
 -1      9879 6.40869E-02
 -1      9880 7.09786E-02
 -1      9881 6.70413E-02
 -1      9882 7.95585E-02
 -1      9883 7.43497E-02
 -1      9884 9.33492E-02
 -1      9885 8.61100E-02
 -1      9886 1.14431E-01
 -1      9887 1.03979E-01
 -1      9888 1.46184E-01
 -1      9889 1.30689E-01
 -1      9890 1.94039E-01
 -1      9891 1.70660E-01
 -1      9892 2.66240E-01
 -1      9893 2.30776E-01
 -1      9894 3.75976E-01
 -1      9895 3.21857E-01
 -1      9896 3.76803E-01
 -1      9897 1.41932E-01
 -1      9898 1.40087E-01
 -1      9899 1.12091E-01
 -1      9900 1.25212E-01
 -1      9901 9.36022E-02
 -1      9902 1.01456E-01
 -1      9903 8.09810E-02
 -1      9904 8.68977E-02
 -1      9905 7.26807E-02
 -1      9906 7.79214E-02
 -1      9907 6.82500E-02
 -1      9908 7.36469E-02
 -1      9909 7.06088E-02
 -1      9910 7.47719E-02
 -1      9911 7.73013E-02
 -1      9912 8.08689E-02
 -1      9913 8.82015E-02
 -1      9914 9.11531E-02
 -1      9915 1.04588E-01
 -1      9916 1.06680E-01
 -1      9917 1.28504E-01
 -1      9918 1.29114E-01
 -1      9919 1.63042E-01
 -1      9920 1.60857E-01
 -1      9921 2.12711E-01
 -1      9922 2.05093E-01
 -1      9923 2.83121E-01
 -1      9924 2.65056E-01
 -1      9925 3.81272E-01
 -1      9926 3.42537E-01
 -1      9927 3.85741E-01
 -1      9928 1.41397E-01
 -1      9929 1.42707E-01
 -1      9930 1.12297E-01
 -1      9931 1.28482E-01
 -1      9932 9.49628E-02
 -1      9933 1.05804E-01
 -1      9934 8.40213E-02
 -1      9935 9.20864E-02
 -1      9936 7.78598E-02
 -1      9937 8.39597E-02
 -1      9938 7.69575E-02
 -1      9939 8.11705E-02
 -1      9940 8.17801E-02
 -1      9941 8.39658E-02
 -1      9942 9.04306E-02
 -1      9943 9.13418E-02
 -1      9944 1.03605E-01
 -1      9945 1.02883E-01
 -1      9946 1.22410E-01
 -1      9947 1.19336E-01
 -1      9948 1.48386E-01
 -1      9949 1.41683E-01
 -1      9950 1.83366E-01
 -1      9951 1.70894E-01
 -1      9952 2.30780E-01
 -1      9953 2.09052E-01
 -1      9954 2.99333E-01
 -1      9955 2.65056E-01
 -1      9956 3.85741E-01
 -1      9957 3.42537E-01
 -1      9958 3.85741E-01
 -1      9959 1.42707E-01
 -1      9960 1.42707E-01
 -1      9961 1.14380E-01
 -1      9962 1.28606E-01
 -1      9963 9.83418E-02
 -1      9964 1.06918E-01
 -1      9965 8.84322E-02
 -1      9966 9.46876E-02
 -1      9967 8.31698E-02
 -1      9968 8.76422E-02
 -1      9969 8.38779E-02
 -1      9970 8.58771E-02
 -1      9971 8.93716E-02
 -1      9972 8.92837E-02
 -1      9973 9.84411E-02
 -1      9974 9.64708E-02
 -1      9975 1.11470E-01
 -1      9976 1.07029E-01
 -1      9977 1.28951E-01
 -1      9978 1.21085E-01
 -1      9979 1.54464E-01
 -1      9980 1.41732E-01
 -1      9981 1.87325E-01
 -1      9982 1.70894E-01
 -1      9983 2.29036E-01
 -1      9984 2.07309E-01
 -1      9985 2.84808E-01
 -1      9986 2.48788E-01
 -1      9987 3.45308E-01
 -1      9988 2.87579E-01
 -1      9989 3.04875E-01
 -1      9990 1.41383E-01
 -1      9991 1.40059E-01
 -1      9992 1.14504E-01
 -1      9993 1.27282E-01
 -1      9994 9.93326E-02
 -1      9995 1.06918E-01
 -1      9996 9.03380E-02
 -1      9997 9.49830E-02
 -1      9998 8.59519E-02
 -1      9999 8.86477E-02
 -1     10000 8.71918E-02
 -1     10001 8.72666E-02
 -1     10002 9.21950E-02
 -1     10003 9.01032E-02
 -1     10004 1.00887E-01
 -1     10005 9.66110E-02
 -1     10006 1.13170E-01
 -1     10007 1.07029E-01
 -1     10008 1.29000E-01
 -1     10009 1.21085E-01
 -1     10010 1.51268E-01
 -1     10011 1.38536E-01
 -1     10012 1.78155E-01
 -1     10013 1.58529E-01
 -1     10014 2.07640E-01
 -1     10015 1.78486E-01
 -1     10016 2.37828E-01
 -1     10017 1.96680E-01
 -1     10018 2.85096E-01
 -1     10019 2.35344E-01
 -1     10020 2.87418E-01
 -1     10021 1.36371E-01
 -1     10022 1.32684E-01
 -1     10023 1.12868E-01
 -1     10024 1.21958E-01
 -1     10025 9.88861E-02
 -1     10026 1.04836E-01
 -1     10027 9.06333E-02
 -1     10028 9.45365E-02
 -1     10029 8.66620E-02
 -1     10030 8.86477E-02
 -1     10031 8.78711E-02
 -1     10032 8.72666E-02
 -1     10033 9.23353E-02
 -1     10034 9.01032E-02
 -1     10035 9.99552E-02
 -1     10036 9.56795E-02
 -1     10037 1.10367E-01
 -1     10038 1.03294E-01
 -1     10039 1.23104E-01
 -1     10040 1.12386E-01
 -1     10041 1.37240E-01
 -1     10042 1.21808E-01
 -1     10043 1.50518E-01
 -1     10044 1.29229E-01
 -1     10045 1.72048E-01
 -1     10046 1.44079E-01
 -1     10047 2.02596E-01
 -1     10048 1.77964E-01
 -1     10049 2.60645E-01
 -1     10050 2.27897E-01
 -1     10051 2.90938E-01
 -1     10052 1.27070E-01
 -1     10053 1.21456E-01
 -1     10054 1.08050E-01
 -1     10055 1.13162E-01
 -1     10056 9.66494E-02
 -1     10057 9.98637E-02
 -1     10058 8.96376E-02
 -1     10059 9.17504E-02
 -1     10060 8.60028E-02
 -1     10061 8.69927E-02
 -1     10062 8.66492E-02
 -1     10063 8.53854E-02
 -1     10064 9.01208E-02
 -1     10065 8.66668E-02
 -1     10066 9.51679E-02
 -1     10067 8.96092E-02
 -1     10068 1.01188E-01
 -1     10069 9.30623E-02
 -1     10070 1.07117E-01
 -1     10071 9.59188E-02
 -1     10072 1.16336E-01
 -1     10073 1.01645E-01
 -1     10074 1.28984E-01
 -1     10075 1.16091E-01
 -1     10076 1.56108E-01
 -1     10077 1.41013E-01
 -1     10078 1.95057E-01
 -1     10079 1.73201E-01
 -1     10080 2.39429E-01
 -1     10081 2.06589E-01
 -1     10082 2.74392E-01
 -1     10083 1.14458E-01
 -1     10084 1.00465E-01
 -1     10085 9.19337E-02
 -1     10086 8.65134E-02
 -1     10087 8.34733E-02
 -1     10088 8.28334E-02
 -1     10089 8.38688E-02
 -1     10090 8.55688E-02
 -1     10091 8.75952E-02
 -1     10092 9.37448E-02
 -1     10093 1.06265E-01
 -1     10094 1.25765E-01
 -1     10095 1.51519E-01
 -1     10096 1.78372E-01
 -1     10097 2.03077E-01
 -1     10098 9.04849E-02
 -1     10099 8.45429E-02
 -1     10100 8.06896E-02
 -1     10101 7.77876E-02
 -1     10102 7.55605E-02
 -1     10103 7.37430E-02
 -1     10104 7.19364E-02
 -1     10105 7.24576E-02
 -1     10106 8.03187E-02
 -1     10107 9.04645E-02
 -1     10108 1.02275E-01
 -1     10109 1.14685E-01
 -1     10110 1.25333E-01
 -1     10111 1.29962E-01
 -1     10112 2.03491E-01
 -1     10113 7.53797E-02
 -1     10114 7.39198E-02
 -1     10115 7.26765E-02
 -1     10116 7.11194E-02
 -1     10117 6.92054E-02
 -1     10118 6.67974E-02
 -1     10119 6.64632E-02
 -1     10120 7.23531E-02
 -1     10121 7.91997E-02
 -1     10122 8.68407E-02
 -1     10123 9.45934E-02
 -1     10124 1.00958E-01
 -1     10125 1.03220E-01
 -1     10126 1.42487E-01
 -1     10127 2.07042E-01
 -1     10128 6.32742E-02
 -1     10129 6.43517E-02
 -1     10130 6.43517E-02
 -1     10131 6.39782E-02
 -1     10132 6.23090E-02
 -1     10133 6.06954E-02
 -1     10134 6.53385E-02
 -1     10135 7.01802E-02
 -1     10136 7.52044E-02
 -1     10137 8.00181E-02
 -1     10138 8.37013E-02
 -1     10139 8.45866E-02
 -1     10140 1.00717E-01
 -1     10141 1.46775E-01
 -1     10142 2.07042E-01
 -1     10143 5.32334E-02
 -1     10144 5.62707E-02
 -1     10145 5.68890E-02
 -1     10146 5.68890E-02
 -1     10147 5.54054E-02
 -1     10148 5.87569E-02
 -1     10149 6.25415E-02
 -1     10150 6.60182E-02
 -1     10151 6.90307E-02
 -1     10152 7.10509E-02
 -1     10153 7.10683E-02
 -1     10154 7.10683E-02
 -1     10155 1.04943E-01
 -1     10156 1.46775E-01
 -1     10157 1.99103E-01
 -1     10158 4.43310E-02
 -1     10159 4.89230E-02
 -1     10160 5.03146E-02
 -1     10161 5.03146E-02
 -1     10162 5.23581E-02
 -1     10163 5.57474E-02
 -1     10164 5.84035E-02
 -1     10165 6.03645E-02
 -1     10166 6.13857E-02
 -1     10167 6.13857E-02
 -1     10168 6.08842E-02
 -1     10169 7.46602E-02
 -1     10170 1.04943E-01
 -1     10171 1.43445E-01
 -1     10172 1.84382E-01
 -1     10173 3.69977E-02
 -1     10174 4.27175E-02
 -1     10175 4.46404E-02
 -1     10176 4.63731E-02
 -1     10177 4.96477E-02
 -1     10178 5.19200E-02
 -1     10179 5.32869E-02
 -1     10180 5.37125E-02
 -1     10181 5.37125E-02
 -1     10182 5.29063E-02
 -1     10183 5.18013E-02
 -1     10184 7.50414E-02
 -1     10185 1.04032E-01
 -1     10186 1.35341E-01
 -1     10187 1.66403E-01
 -1     10188 3.30484E-02
 -1     10189 3.80584E-02
 -1     10190 4.14037E-02
 -1     10191 4.45283E-02
 -1     10192 4.65585E-02
 -1     10193 4.75197E-02
 -1     10194 4.75255E-02
 -1     10195 4.75255E-02
 -1     10196 4.64883E-02
 -1     10197 4.41029E-02
 -1     10198 5.28593E-02
 -1     10199 7.50414E-02
 -1     10200 9.97849E-02
 -1     10201 1.24701E-01
 -1     10202 1.47636E-01
 -1     10203 3.87092E-02
 -1     10204 4.07765E-02
 -1     10205 4.14424E-02
 -1     10206 4.27634E-02
 -1     10207 4.32253E-02
 -1     10208 4.32253E-02
 -1     10209 4.27517E-02
 -1     10210 4.13926E-02
 -1     10211 3.90247E-02
 -1     10212 3.55959E-02
 -1     10213 5.28593E-02
 -1     10214 7.31057E-02
 -1     10215 9.36574E-02
 -1     10216 1.13166E-01
 -1     10217 1.29681E-01
 -1     10218 4.56441E-02
 -1     10219 4.50748E-02
 -1     10220 4.39180E-02
 -1     10221 4.18991E-02
 -1     10222 4.10069E-02
 -1     10223 3.97353E-02
 -1     10224 3.77623E-02
 -1     10225 3.50846E-02
 -1     10226 3.15528E-02
 -1     10227 3.54428E-02
 -1     10228 5.23273E-02
 -1     10229 6.98322E-02
 -1     10230 8.67648E-02
 -1     10231 1.01869E-01
 -1     10232 1.13480E-01
 -1     10233 5.67373E-02
 -1     10234 5.19173E-02
 -1     10235 4.73034E-02
 -1     10236 4.23988E-02
 -1     10237 3.92327E-02
 -1     10238 3.61187E-02
 -1     10239 3.26306E-02
 -1     10240 2.87182E-02
 -1     10241 2.42078E-02
 -1     10242 3.54428E-02
 -1     10243 5.08872E-02
 -1     10244 6.60004E-02
 -1     10245 7.99212E-02
 -1     10246 9.15462E-02
 -1     10247 9.95167E-02
 -1     10248 6.83336E-02
 -1     10249 5.90094E-02
 -1     10250 5.07265E-02
 -1     10251 4.27920E-02
 -1     10252 3.73619E-02
 -1     10253 3.23451E-02
 -1     10254 2.73682E-02
 -1     10255 2.23351E-02
 -1     10256 2.13638E-02
 -1     10257 3.51573E-02
 -1     10258 4.91058E-02
 -1     10259 6.22096E-02
 -1     10260 7.36949E-02
 -1     10261 8.26366E-02
 -1     10262 8.79695E-02
 -1     10263 8.02321E-02
 -1     10264 6.61211E-02
 -1     10265 5.39503E-02
 -1     10266 4.60259E-02
 -1     10267 3.91994E-02
 -1     10268 2.95210E-02
 -1     10269 2.19233E-02
 -1     10270 1.59116E-02
 -1     10271 2.17618E-02
 -1     10272 3.47328E-02
 -1     10273 4.74428E-02
 -1     10274 5.89066E-02
 -1     10275 6.84641E-02
 -1     10276 7.53731E-02
 -1     10277 7.88317E-02
 -1     10278 9.22618E-02
 -1     10279 7.30105E-02
 -1     10280 5.96533E-02
 -1     10281 5.25341E-02
 -1     10282 4.34935E-02
 -1     10283 3.18926E-02
 -1     10284 1.87221E-02
 -1     10285 9.37159E-03
 -1     10286 2.25456E-02
 -1     10287 3.49277E-02
 -1     10288 4.62663E-02
 -1     10289 5.64171E-02
 -1     10290 6.44661E-02
 -1     10291 6.98481E-02
 -1     10292 7.19887E-02
 -1     10293 1.04271E-01
 -1     10294 7.99854E-02
 -1     10295 6.87632E-02
 -1     10296 6.03951E-02
 -1     10297 4.85652E-02
 -1     10298 3.45583E-02
 -1     10299 1.94925E-02
 -1     10300 1.22681E-02
 -1     10301 2.40418E-02
 -1     10302 3.61631E-02
 -1     10303 4.64844E-02
 -1     10304 5.49717E-02
 -1     10305 6.18359E-02
 -1     10306 6.60620E-02
 -1     10307 6.72693E-02
 -1     10308 1.16114E-01
 -1     10309 9.13845E-02
 -1     10310 8.15501E-02
 -1     10311 6.94240E-02
 -1     10312 5.41133E-02
 -1     10313 3.71432E-02
 -1     10314 1.97751E-02
 -1     10315 1.77823E-02
 -1     10316 2.65671E-02
 -1     10317 3.85068E-02
 -1     10318 4.82920E-02
 -1     10319 5.57840E-02
 -1     10320 6.08639E-02
 -1     10321 6.39552E-02
 -1     10322 6.44748E-02
 -1     10323 1.28838E-01
 -1     10324 1.08152E-01
 -1     10325 9.62166E-02
 -1     10326 7.93581E-02
 -1     10327 5.97288E-02
 -1     10328 3.91622E-02
 -1     10329 2.04386E-02
 -1     10330 2.50997E-02
 -1     10331 3.13184E-02
 -1     10332 4.21798E-02
 -1     10333 5.14262E-02
 -1     10334 5.81855E-02
 -1     10335 6.24829E-02
 -1     10336 6.43443E-02
 -1     10337 6.43443E-02
 -1     10338 1.49207E-01
 -1     10339 1.30610E-01
 -1     10340 1.12657E-01
 -1     10341 8.98083E-02
 -1     10342 6.48419E-02
 -1     10343 3.99768E-02
 -1     10344 2.93790E-02
 -1     10345 3.26128E-02
 -1     10346 3.73200E-02
 -1     10347 4.73653E-02
 -1     10348 5.59697E-02
 -1     10349 6.19257E-02
 -1     10350 6.54026E-02
 -1     10351 6.65450E-02
 -1     10352 6.65450E-02
 -1     10353 1.77551E-01
 -1     10354 1.56456E-01
 -1     10355 1.30667E-01
 -1     10356 1.00176E-01
 -1     10357 6.86392E-02
 -1     10358 3.99768E-02
 -1     10359 3.89733E-02
 -1     10360 4.02074E-02
 -1     10361 4.41184E-02
 -1     10362 5.41923E-02
 -1     10363 6.19429E-02
 -1     10364 6.69382E-02
 -1     10365 6.94863E-02
 -1     10366 6.98350E-02
 -1     10367 6.98350E-02
 -1     10368 2.17033E-01
 -1     10369 1.86044E-01
 -1     10370 1.49839E-01
 -1     10371 1.09511E-01
 -1     10372 6.99401E-02
 -1     10373 4.74296E-02
 -1     10374 4.90353E-02
 -1     10375 4.90353E-02
 -1     10376 5.27998E-02
 -1     10377 6.27087E-02
 -1     10378 6.92846E-02
 -1     10379 7.30854E-02
 -1     10380 7.45426E-02
 -1     10381 7.45426E-02
 -1     10382 7.39848E-02
 -1     10383 2.64309E-01
 -1     10384 2.19735E-01
 -1     10385 1.69351E-01
 -1     10386 1.16260E-01
 -1     10387 6.99401E-02
 -1     10388 6.13261E-02
 -1     10389 6.13261E-02
 -1     10390 5.91453E-02
 -1     10391 6.44675E-02
 -1     10392 7.28410E-02
 -1     10393 7.78265E-02
 -1     10394 8.01447E-02
 -1     10395 8.03189E-02
 -1     10396 8.03189E-02
 -1     10397 7.87263E-02
 -1     10398 3.21800E-01
 -1     10399 2.57774E-01
 -1     10400 1.87584E-01
 -1     10401 1.17871E-01
 -1     10402 7.86311E-02
 -1     10403 7.86311E-02
 -1     10404 7.56768E-02
 -1     10405 6.85633E-02
 -1     10406 7.82043E-02
 -1     10407 8.43454E-02
 -1     10408 8.72667E-02
 -1     10409 8.77966E-02
 -1     10410 8.77966E-02
 -1     10411 8.64983E-02
 -1     10412 8.37543E-02
 -1     10413 3.92974E-01
 -1     10414 2.99758E-01
 -1     10415 2.01143E-01
 -1     10416 1.17871E-01
 -1     10417 1.03585E-01
 -1     10418 1.00022E-01
 -1     10419 8.92085E-02
 -1     10420 8.63815E-02
 -1     10421 9.36067E-02
 -1     10422 9.67583E-02
 -1     10423 9.71502E-02
 -1     10424 9.71502E-02
 -1     10425 9.56225E-02
 -1     10426 9.27050E-02
 -1     10427 8.87330E-02
 -1     10428 4.83876E-01
 -1     10429 3.44005E-01
 -1     10430 2.03709E-01
 -1     10431 1.40129E-01
 -1     10432 1.37523E-01
 -1     10433 1.20465E-01
 -1     10434 1.01978E-01
 -1     10435 1.07202E-01
 -1     10436 1.09891E-01
 -1     10437 1.09891E-01
 -1     10438 1.09368E-01
 -1     10439 1.06872E-01
 -1     10440 1.03120E-01
 -1     10441 9.85219E-02
 -1     10442 9.33132E-02
 -1     10443 6.01012E-01
 -1     10444 3.82377E-01
 -1     10445 2.18639E-01
 -1     10446 1.98640E-01
 -1     10447 1.70086E-01
 -1     10448 1.36266E-01
 -1     10449 1.27899E-01
 -1     10450 1.28667E-01
 -1     10451 1.28667E-01
 -1     10452 1.25857E-01
 -1     10453 1.21238E-01
 -1     10454 1.15716E-01
 -1     10455 1.09741E-01
 -1     10456 1.03525E-01
 -1     10457 9.71574E-02
 -1     10458 7.65091E-01
 -1     10459 4.16815E-01
 -1     10460 2.99738E-01
 -1     10461 2.57702E-01
 -1     10462 1.93465E-01
 -1     10463 1.60735E-01
 -1     10464 1.60735E-01
 -1     10465 1.56321E-01
 -1     10466 1.48635E-01
 -1     10467 1.39990E-01
 -1     10468 1.31314E-01
 -1     10469 1.22948E-01
 -1     10470 1.14965E-01
 -1     10471 1.07330E-01
 -1     10472 9.99734E-02
 -1     10473 9.61699E-01
 -1     10474 6.12949E-01
 -1     10475 4.22376E-01
 -1     10476 2.86437E-01
 -1     10477 2.24987E-01
 -1     10478 2.15251E-01
 -1     10479 1.97805E-01
 -1     10480 1.80426E-01
 -1     10481 1.64581E-01
 -1     10482 1.50727E-01
 -1     10483 1.38620E-01
 -1     10484 1.27944E-01
 -1     10485 1.18378E-01
 -1     10486 1.09651E-01
 -1     10487 1.01547E-01
 -1     10488 1.62446E+00
 -1     10489 6.12949E-01
 -1     10490 5.57080E-01
 -1     10491 3.72686E-01
 -1     10492 3.06003E-01
 -1     10493 2.60958E-01
 -1     10494 2.24047E-01
 -1     10495 1.96308E-01
 -1     10496 1.74460E-01
 -1     10497 1.56972E-01
 -1     10498 1.42560E-01
 -1     10499 1.30367E-01
 -1     10500 1.19776E-01
 -1     10501 1.10351E-01
 -1     10502 1.01776E-01
 -1     10503 6.38029E+00
 -1     10504 1.36794E+00
 -1     10505 5.73400E-01
 -1     10506 4.66413E-01
 -1     10507 3.43437E-01
 -1     10508 2.79935E-01
 -1     10509 2.33901E-01
 -1     10510 2.01629E-01
 -1     10511 1.77286E-01
 -1     10512 1.58329E-01
 -1     10513 1.42989E-01
 -1     10514 1.30367E-01
 -1     10515 1.19776E-01
 -1     10516 1.10351E-01
 -1     10517 1.01776E-01
 -1     10518 9.89728E-02
 -1     10519 9.04849E-02
 -1     10520 9.03023E-02
 -1     10521 8.75139E-02
 -1     10522 8.48490E-02
 -1     10523 8.26163E-02
 -1     10524 8.10863E-02
 -1     10525 7.92386E-02
 -1     10526 7.85817E-02
 -1     10527 7.66740E-02
 -1     10528 7.69913E-02
 -1     10529 7.46517E-02
 -1     10530 7.58838E-02
 -1     10531 7.28397E-02
 -1     10532 7.61416E-02
 -1     10533 7.21970E-02
 -1     10534 8.03483E-02
 -1     10535 7.63882E-02
 -1     10536 9.04645E-02
 -1     10537 8.53916E-02
 -1     10538 1.04270E-01
 -1     10539 9.63697E-02
 -1     10540 1.20149E-01
 -1     10541 1.08480E-01
 -1     10542 1.36131E-01
 -1     10543 1.20009E-01
 -1     10544 1.48206E-01
 -1     10545 1.27648E-01
 -1     10546 1.93381E-01
 -1     10547 1.66727E-01
 -1     10548 2.50911E-01
 -1     10549 8.29323E-02
 -1     10550 7.53797E-02
 -1     10551 7.92314E-02
 -1     10552 7.46498E-02
 -1     10553 7.66830E-02
 -1     10554 7.32981E-02
 -1     10555 7.44535E-02
 -1     10556 7.18979E-02
 -1     10557 7.23829E-02
 -1     10558 7.01624E-02
 -1     10559 7.02702E-02
 -1     10560 6.80014E-02
 -1     10561 6.91998E-02
 -1     10562 6.66303E-02
 -1     10563 7.24053E-02
 -1     10564 6.94082E-02
 -1     10565 7.97592E-02
 -1     10566 7.57764E-02
 -1     10567 8.86526E-02
 -1     10568 8.30202E-02
 -1     10569 9.84342E-02
 -1     10570 9.07171E-02
 -1     10571 1.07821E-01
 -1     10572 9.77758E-02
 -1     10573 1.14277E-01
 -1     10574 1.02089E-01
 -1     10575 1.36225E-01
 -1     10576 1.22854E-01
 -1     10577 2.05267E-01
 -1     10578 1.74764E-01
 -1     10579 2.52686E-01
 -1     10580 6.93270E-02
 -1     10581 6.20391E-02
 -1     10582 6.91358E-02
 -1     10583 6.38129E-02
 -1     10584 6.85141E-02
 -1     10585 6.43517E-02
 -1     10586 6.75488E-02
 -1     10587 6.41649E-02
 -1     10588 6.57572E-02
 -1     10589 6.31436E-02
 -1     10590 6.37464E-02
 -1     10591 6.15022E-02
 -1     10592 6.59009E-02
 -1     10593 6.30169E-02
 -1     10594 7.12666E-02
 -1     10595 6.77593E-02
 -1     10596 7.72020E-02
 -1     10597 7.26923E-02
 -1     10598 8.34294E-02
 -1     10599 7.76113E-02
 -1     10600 8.91473E-02
 -1     10601 8.18597E-02
 -1     10602 9.27724E-02
 -1     10603 8.41439E-02
 -1     10604 1.01969E-01
 -1     10605 9.26516E-02
 -1     10606 1.44631E-01
 -1     10607 1.23746E-01
 -1     10608 2.07042E-01
 -1     10609 1.76909E-01
 -1     10610 2.44233E-01
 -1     10611 5.82538E-02
 -1     10612 5.03670E-02
 -1     10613 6.03112E-02
 -1     10614 5.47520E-02
 -1     10615 6.06204E-02
 -1     10616 5.65799E-02
 -1     10617 6.04336E-02
 -1     10618 5.68890E-02
 -1     10619 5.88572E-02
 -1     10620 5.61472E-02
 -1     10621 5.97261E-02
 -1     10622 5.70812E-02
 -1     10623 6.39400E-02
 -1     10624 6.06492E-02
 -1     10625 6.80992E-02
 -1     10626 6.42798E-02
 -1     10627 7.21175E-02
 -1     10628 6.75244E-02
 -1     10629 7.55345E-02
 -1     10630 7.00408E-02
 -1     10631 7.73848E-02
 -1     10632 7.10596E-02
 -1     10633 7.78274E-02
 -1     10634 7.10683E-02
 -1     10635 1.02830E-01
 -1     10636 8.80056E-02
 -1     10637 1.46775E-01
 -1     10638 1.25859E-01
 -1     10639 2.03073E-01
 -1     10640 1.72939E-01
 -1     10641 2.27015E-01
 -1     10642 4.87822E-02
 -1     10643 4.01941E-02
 -1     10644 5.25969E-02
 -1     10645 4.66270E-02
 -1     10646 5.36018E-02
 -1     10647 4.96188E-02
 -1     10648 5.36018E-02
 -1     10649 5.03146E-02
 -1     10650 5.38818E-02
 -1     10651 5.13364E-02
 -1     10652 5.72522E-02
 -1     10653 5.40528E-02
 -1     10654 6.04725E-02
 -1     10655 5.70755E-02
 -1     10656 6.31914E-02
 -1     10657 5.93840E-02
 -1     10658 6.52082E-02
 -1     10659 6.08751E-02
 -1     10660 6.62183E-02
 -1     10661 6.13857E-02
 -1     10662 6.59762E-02
 -1     10663 6.11349E-02
 -1     10664 7.28642E-02
 -1     10665 6.77722E-02
 -1     10666 1.04943E-01
 -1     10667 8.98015E-02
 -1     10668 1.45110E-01
 -1     10669 1.24194E-01
 -1     10670 1.91743E-01
 -1     10671 1.63913E-01
 -1     10672 2.04471E-01
 -1     10673 4.06644E-02
 -1     10674 3.19527E-02
 -1     10675 4.58203E-02
 -1     10676 3.98576E-02
 -1     10677 4.74775E-02
 -1     10678 4.36790E-02
 -1     10679 4.83438E-02
 -1     10680 4.55067E-02
 -1     10681 5.10029E-02
 -1     10682 4.80104E-02
 -1     10683 5.38337E-02
 -1     10684 5.07839E-02
 -1     10685 5.58452E-02
 -1     10686 5.26035E-02
 -1     10687 5.70385E-02
 -1     10688 5.34997E-02
 -1     10689 5.75491E-02
 -1     10690 5.37125E-02
 -1     10691 5.71460E-02
 -1     10692 5.33094E-02
 -1     10693 5.63427E-02
 -1     10694 5.23538E-02
 -1     10695 7.48508E-02
 -1     10696 6.34213E-02
 -1     10697 1.04488E-01
 -1     10698 8.95368E-02
 -1     10699 1.39393E-01
 -1     10700 1.19687E-01
 -1     10701 1.75393E-01
 -1     10702 1.50872E-01
 -1     10703 1.80264E-01
 -1     10704 3.50230E-02
 -1     10705 2.95016E-02
 -1     10706 4.03880E-02
 -1     10707 3.55534E-02
 -1     10708 4.30221E-02
 -1     10709 3.97311E-02
 -1     10710 4.54507E-02
 -1     10711 4.29660E-02
 -1     10712 4.81031E-02
 -1     10713 4.55434E-02
 -1     10714 4.97199E-02
 -1     10715 4.70391E-02
 -1     10716 5.04062E-02
 -1     10717 4.75226E-02
 -1     10718 5.06190E-02
 -1     10719 4.75255E-02
 -1     10720 5.01004E-02
 -1     10721 4.70069E-02
 -1     10722 4.85046E-02
 -1     10723 4.52956E-02
 -1     10724 5.23303E-02
 -1     10725 4.84811E-02
 -1     10726 7.50414E-02
 -1     10727 6.39504E-02
 -1     10728 1.01909E-01
 -1     10729 8.74132E-02
 -1     10730 1.30021E-01
 -1     10731 1.12243E-01
 -1     10732 1.57020E-01
 -1     10733 1.36169E-01
 -1     10734 1.56761E-01
 -1     10735 3.58788E-02
 -1     10736 3.70001E-02
 -1     10737 3.94174E-02
 -1     10738 3.97428E-02
 -1     10739 4.14231E-02
 -1     10740 4.11094E-02
 -1     10741 4.36459E-02
 -1     10742 4.21029E-02
 -1     10743 4.48919E-02
 -1     10744 4.29943E-02
 -1     10745 4.53725E-02
 -1     10746 4.32253E-02
 -1     10747 4.51386E-02
 -1     10748 4.29885E-02
 -1     10749 4.44590E-02
 -1     10750 4.20722E-02
 -1     10751 4.27565E-02
 -1     10752 4.02087E-02
 -1     10753 3.98494E-02
 -1     10754 3.73103E-02
 -1     10755 5.28593E-02
 -1     10756 4.42276E-02
 -1     10757 7.40735E-02
 -1     10758 6.29825E-02
 -1     10759 9.67212E-02
 -1     10760 8.33816E-02
 -1     10761 1.18934E-01
 -1     10762 1.03412E-01
 -1     10763 1.38659E-01
 -1     10764 1.21424E-01
 -1     10765 1.35340E-01
 -1     10766 4.21766E-02
 -1     10767 4.56441E-02
 -1     10768 4.29256E-02
 -1     10769 4.53595E-02
 -1     10770 4.26802E-02
 -1     10771 4.44964E-02
 -1     10772 4.23313E-02
 -1     10773 4.29086E-02
 -1     10774 4.21161E-02
 -1     10775 4.14530E-02
 -1     10776 4.14803E-02
 -1     10777 4.03711E-02
 -1     10778 4.02570E-02
 -1     10779 3.87488E-02
 -1     10780 3.82386E-02
 -1     10781 3.64234E-02
 -1     10782 3.52888E-02
 -1     10783 3.33187E-02
 -1     10784 3.55194E-02
 -1     10785 3.34978E-02
 -1     10786 5.25933E-02
 -1     10787 4.38851E-02
 -1     10788 7.14689E-02
 -1     10789 6.10797E-02
 -1     10790 9.02111E-02
 -1     10791 7.82985E-02
 -1     10792 1.07518E-01
 -1     10793 9.43171E-02
 -1     10794 1.21581E-01
 -1     10795 1.07675E-01
 -1     10796 1.16691E-01
 -1     10797 5.11907E-02
 -1     10798 5.67373E-02
 -1     10799 4.84960E-02
 -1     10800 5.43273E-02
 -1     10801 4.56107E-02
 -1     10802 4.96103E-02
 -1     10803 4.21489E-02
 -1     10804 4.48511E-02
 -1     10805 4.01198E-02
 -1     10806 4.08157E-02
 -1     10807 3.79270E-02
 -1     10808 3.76757E-02
 -1     10809 3.51964E-02
 -1     10810 3.43747E-02
 -1     10811 3.19014E-02
 -1     10812 3.06744E-02
 -1     10813 2.78803E-02
 -1     10814 2.64630E-02
 -1     10815 3.54428E-02
 -1     10816 2.98253E-02
 -1     10817 5.16073E-02
 -1     10818 4.31650E-02
 -1     10819 6.79163E-02
 -1     10820 5.84438E-02
 -1     10821 8.33430E-02
 -1     10822 7.29608E-02
 -1     10823 9.67078E-02
 -1     10824 8.57337E-02
 -1     10825 1.06499E-01
 -1     10826 9.55315E-02
 -1     10827 1.01056E-01
 -1     10828 6.25354E-02
 -1     10829 6.83336E-02
 -1     10830 5.54633E-02
 -1     10831 6.36715E-02
 -1     10832 4.90150E-02
 -1     10833 5.48679E-02
 -1     10834 4.25954E-02
 -1     10835 4.67592E-02
 -1     10836 3.82973E-02
 -1     10837 4.00769E-02
 -1     10838 3.42319E-02
 -1     10839 3.48535E-02
 -1     10840 2.99994E-02
 -1     10841 2.98567E-02
 -1     10842 2.55266E-02
 -1     10843 2.48516E-02
 -1     10844 2.27858E-02
 -1     10845 2.18494E-02
 -1     10846 3.53001E-02
 -1     10847 2.82606E-02
 -1     10848 4.99965E-02
 -1     10849 4.21316E-02
 -1     10850 6.41050E-02
 -1     10851 5.56577E-02
 -1     10852 7.68081E-02
 -1     10853 6.79522E-02
 -1     10854 8.70914E-02
 -1     10855 7.81658E-02
 -1     10856 9.37431E-02
 -1     10857 8.53031E-02
 -1     10858 8.84061E-02
 -1     10859 7.42828E-02
 -1     10860 8.02321E-02
 -1     10861 6.25652E-02
 -1     10862 7.31766E-02
 -1     10863 5.23384E-02
 -1     10864 6.00357E-02
 -1     10865 4.44089E-02
 -1     10866 4.99881E-02
 -1     10867 3.82806E-02
 -1     10868 4.26126E-02
 -1     10869 3.09330E-02
 -1     10870 3.43602E-02
 -1     10871 2.46457E-02
 -1     10872 2.57221E-02
 -1     10873 1.91233E-02
 -1     10874 1.89174E-02
 -1     10875 2.15628E-02
 -1     10876 1.88367E-02
 -1     10877 3.49451E-02
 -1     10878 2.82473E-02
 -1     10879 4.82743E-02
 -1     10880 4.10878E-02
 -1     10881 6.05581E-02
 -1     10882 5.31747E-02
 -1     10883 7.10795E-02
 -1     10884 6.36854E-02
 -1     10885 7.90049E-02
 -1     10886 7.19186E-02
 -1     10887 8.34006E-02
 -1     10888 7.71024E-02
 -1     10889 7.88317E-02
 -1     10890 8.62470E-02
 -1     10891 9.22618E-02
 -1     10892 6.95658E-02
 -1     10893 8.26361E-02
 -1     10894 5.68018E-02
 -1     10895 6.63319E-02
 -1     10896 4.92800E-02
 -1     10897 5.60937E-02
 -1     10898 4.13465E-02
 -1     10899 4.80138E-02
 -1     10900 3.07068E-02
 -1     10901 3.76931E-02
 -1     10902 2.03227E-02
 -1     10903 2.53073E-02
 -1     10904 1.26416E-02
 -1     10905 1.40468E-02
 -1     10906 2.21537E-02
 -1     10907 1.59586E-02
 -1     10908 3.48303E-02
 -1     10909 2.87367E-02
 -1     10910 4.68546E-02
 -1     10911 4.05970E-02
 -1     10912 5.76619E-02
 -1     10913 5.13417E-02
 -1     10914 6.64651E-02
 -1     10915 6.04416E-02
 -1     10916 7.26106E-02
 -1     10917 6.71571E-02
 -1     10918 7.54102E-02
 -1     10919 7.09184E-02
 -1     10920 7.19887E-02
 -1     10921 9.82665E-02
 -1     10922 1.04271E-01
 -1     10923 7.64979E-02
 -1     10924 9.21283E-02
 -1     10925 6.42082E-02
 -1     10926 7.43743E-02
 -1     10927 5.64646E-02
 -1     10928 6.45791E-02
 -1     10929 4.60294E-02
 -1     10930 5.44801E-02
 -1     10931 3.32254E-02
 -1     10932 4.15618E-02
 -1     10933 1.91073E-02
 -1     10934 2.70254E-02
 -1     10935 1.08198E-02
 -1     10936 1.58803E-02
 -1     10937 2.32937E-02
 -1     10938 1.81550E-02
 -1     10939 3.55454E-02
 -1     10940 3.01025E-02
 -1     10941 4.63753E-02
 -1     10942 4.13237E-02
 -1     10943 5.56944E-02
 -1     10944 5.07280E-02
 -1     10945 6.31510E-02
 -1     10946 5.84038E-02
 -1     10947 6.79551E-02
 -1     10948 6.39490E-02
 -1     10949 6.96290E-02
 -1     10950 6.66657E-02
 -1     10951 6.72693E-02
 -1     10952 1.10193E-01
 -1     10953 1.16114E-01
 -1     10954 8.56849E-02
 -1     10955 1.03749E-01
 -1     10956 7.51567E-02
 -1     10957 8.64673E-02
 -1     10958 6.49096E-02
 -1     10959 7.54871E-02
 -1     10960 5.13393E-02
 -1     10961 6.17687E-02
 -1     10962 3.58508E-02
 -1     10963 4.56282E-02
 -1     10964 1.96338E-02
 -1     10965 2.84591E-02
 -1     10966 1.50252E-02
 -1     10967 1.87787E-02
 -1     10968 2.53045E-02
 -1     10969 2.21747E-02
 -1     10970 3.73349E-02
 -1     10971 3.25369E-02
 -1     10972 4.73882E-02
 -1     10973 4.33994E-02
 -1     10974 5.53778E-02
 -1     10975 5.20380E-02
 -1     10976 6.13499E-02
 -1     10977 5.83239E-02
 -1     10978 6.50086E-02
 -1     10979 6.24095E-02
 -1     10980 6.58721E-02
 -1     10981 6.42150E-02
 -1     10982 6.44748E-02
 -1     10983 1.22476E-01
 -1     10984 1.28838E-01
 -1     10985 9.97683E-02
 -1     10986 1.18495E-01
 -1     10987 8.88833E-02
 -1     10988 1.02184E-01
 -1     10989 7.43911E-02
 -1     10990 8.77873E-02
 -1     10991 5.69211E-02
 -1     10992 6.95435E-02
 -1     10993 3.81527E-02
 -1     10994 4.94455E-02
 -1     10995 2.01069E-02
 -1     10996 2.98004E-02
 -1     10997 2.14410E-02
 -1     10998 2.27692E-02
 -1     10999 2.89428E-02
 -1     11000 2.82091E-02
 -1     11001 4.03433E-02
 -1     11002 3.67491E-02
 -1     11003 4.98591E-02
 -1     11004 4.68030E-02
 -1     11005 5.69847E-02
 -1     11006 5.48059E-02
 -1     11007 6.16734E-02
 -1     11008 6.03342E-02
 -1     11009 6.41498E-02
 -1     11010 6.34136E-02
 -1     11011 6.44095E-02
 -1     11012 6.43443E-02
 -1     11013 6.40753E-02
 -1     11014 1.39023E-01
 -1     11015 1.49207E-01
 -1     11016 1.19381E-01
 -1     11017 1.39909E-01
 -1     11018 1.04437E-01
 -1     11019 1.21634E-01
 -1     11020 8.45832E-02
 -1     11021 1.01233E-01
 -1     11022 6.22853E-02
 -1     11023 7.73251E-02
 -1     11024 3.95695E-02
 -1     11025 5.24093E-02
 -1     11026 2.49088E-02
 -1     11027 3.46779E-02
 -1     11028 2.88563E-02
 -1     11029 3.09959E-02
 -1     11030 3.43192E-02
 -1     11031 3.49664E-02
 -1     11032 4.47726E-02
 -1     11033 4.23426E-02
 -1     11034 5.36979E-02
 -1     11035 5.16675E-02
 -1     11036 6.00556E-02
 -1     11037 5.89477E-02
 -1     11038 6.39428E-02
 -1     11039 6.36642E-02
 -1     11040 6.54447E-02
 -1     11041 6.59738E-02
 -1     11042 6.54447E-02
 -1     11043 6.65450E-02
 -1     11044 6.60153E-02
 -1     11045 1.63379E-01
 -1     11046 1.77551E-01
 -1     11047 1.43533E-01
 -1     11048 1.67003E-01
 -1     11049 1.21662E-01
 -1     11050 1.43561E-01
 -1     11051 9.49921E-02
 -1     11052 1.15422E-01
 -1     11053 6.67405E-02
 -1     11054 8.44076E-02
 -1     11055 3.99768E-02
 -1     11056 5.43080E-02
 -1     11057 3.41761E-02
 -1     11058 3.94751E-02
 -1     11059 3.64101E-02
 -1     11060 3.95903E-02
 -1     11061 4.07192E-02
 -1     11062 4.21629E-02
 -1     11063 5.07788E-02
 -1     11064 4.91554E-02
 -1     11065 5.89563E-02
 -1     11066 5.80676E-02
 -1     11067 6.44320E-02
 -1     11068 6.44405E-02
 -1     11069 6.74445E-02
 -1     11070 6.82122E-02
 -1     11071 6.81900E-02
 -1     11072 6.96607E-02
 -1     11073 6.81900E-02
 -1     11074 6.98350E-02
 -1     11075 6.90134E-02
 -1     11076 1.97292E-01
 -1     11077 2.17033E-01
 -1     11078 1.71250E-01
 -1     11079 2.01539E-01
 -1     11080 1.40253E-01
 -1     11081 1.67942E-01
 -1     11082 1.04843E-01
 -1     11083 1.29675E-01
 -1     11084 6.92896E-02
 -1     11085 8.97253E-02
 -1     11086 4.37032E-02
 -1     11087 5.86848E-02
 -1     11088 4.40043E-02
 -1     11089 4.82325E-02
 -1     11090 4.46213E-02
 -1     11091 4.90353E-02
 -1     11092 4.84591E-02
 -1     11093 5.09175E-02
 -1     11094 5.84505E-02
 -1     11095 5.77542E-02
 -1     11096 6.56137E-02
 -1     11097 6.59966E-02
 -1     11098 7.00118E-02
 -1     11099 7.11850E-02
 -1     11100 7.20144E-02
 -1     11101 7.38140E-02
 -1     11102 7.21888E-02
 -1     11103 7.45426E-02
 -1     11104 7.19099E-02
 -1     11105 7.42637E-02
 -1     11106 7.28272E-02
 -1     11107 2.40671E-01
 -1     11108 2.64309E-01
 -1     11109 2.02889E-01
 -1     11110 2.42022E-01
 -1     11111 1.59595E-01
 -1     11112 1.94543E-01
 -1     11113 1.12885E-01
 -1     11114 1.42805E-01
 -1     11115 6.99401E-02
 -1     11116 9.31001E-02
 -1     11117 5.43778E-02
 -1     11118 6.56331E-02
 -1     11119 5.51807E-02
 -1     11120 6.13261E-02
 -1     11121 5.40903E-02
 -1     11122 6.02357E-02
 -1     11123 5.86336E-02
 -1     11124 6.18064E-02
 -1     11125 6.77749E-02
 -1     11126 6.86543E-02
 -1     11127 7.35555E-02
 -1     11128 7.53338E-02
 -1     11129 7.66150E-02
 -1     11130 7.89856E-02
 -1     11131 7.74307E-02
 -1     11132 8.02318E-02
 -1     11133 7.74307E-02
 -1     11134 8.03189E-02
 -1     11135 7.63555E-02
 -1     11136 7.95226E-02
 -1     11137 7.71862E-02
 -1     11138 2.93054E-01
 -1     11139 3.21800E-01
 -1     11140 2.38754E-01
 -1     11141 2.89787E-01
 -1     11142 1.78467E-01
 -1     11143 2.22679E-01
 -1     11144 1.17066E-01
 -1     11145 1.52728E-01
 -1     11146 7.42856E-02
 -1     11147 9.82513E-02
 -1     11148 6.99786E-02
 -1     11149 7.86311E-02
 -1     11150 6.85014E-02
 -1     11151 7.71540E-02
 -1     11152 6.38543E-02
 -1     11153 7.21200E-02
 -1     11154 7.13359E-02
 -1     11155 7.33838E-02
 -1     11156 7.85932E-02
 -1     11157 8.12748E-02
 -1     11158 8.25466E-02
 -1     11159 8.58060E-02
 -1     11160 8.39706E-02
 -1     11161 8.75316E-02
 -1     11162 8.40577E-02
 -1     11163 8.77966E-02
 -1     11164 8.34086E-02
 -1     11165 8.71475E-02
 -1     11166 8.12403E-02
 -1     11167 8.51263E-02
 -1     11168 8.17928E-02
 -1     11169 3.57387E-01
 -1     11170 3.92974E-01
 -1     11171 2.78766E-01
 -1     11172 3.46366E-01
 -1     11173 1.94363E-01
 -1     11174 2.50450E-01
 -1     11175 1.17871E-01
 -1     11176 1.59507E-01
 -1     11177 9.11081E-02
 -1     11178 1.10728E-01
 -1     11179 8.93266E-02
 -1     11180 1.01804E-01
 -1     11181 8.24427E-02
 -1     11182 9.46153E-02
 -1     11183 7.74724E-02
 -1     11184 8.77950E-02
 -1     11185 8.59055E-02
 -1     11186 8.99941E-02
 -1     11187 9.05519E-02
 -1     11188 9.51825E-02
 -1     11189 9.22084E-02
 -1     11190 9.69542E-02
 -1     11191 9.24734E-02
 -1     11192 9.71502E-02
 -1     11193 9.17095E-02
 -1     11194 9.63864E-02
 -1     11195 8.96017E-02
 -1     11196 9.41638E-02
 -1     11197 8.62436E-02
 -1     11198 9.07190E-02
 -1     11199 8.63293E-02
 -1     11200 4.38425E-01
 -1     11201 4.83876E-01
 -1     11202 3.21882E-01
 -1     11203 4.13940E-01
 -1     11204 2.02426E-01
 -1     11205 2.73857E-01
 -1     11206 1.29000E-01
 -1     11207 1.71919E-01
 -1     11208 1.20554E-01
 -1     11209 1.38826E-01
 -1     11210 1.10244E-01
 -1     11211 1.28994E-01
 -1     11212 9.55933E-02
 -1     11213 1.11222E-01
 -1     11214 9.67918E-02
 -1     11215 1.04590E-01
 -1     11216 1.01749E-01
 -1     11217 1.08546E-01
 -1     11218 1.03325E-01
 -1     11219 1.09891E-01
 -1     11220 1.03259E-01
 -1     11221 1.09630E-01
 -1     11222 1.02011E-01
 -1     11223 1.08120E-01
 -1     11224 9.93711E-02
 -1     11225 1.04996E-01
 -1     11226 9.56135E-02
 -1     11227 1.00821E-01
 -1     11228 9.10231E-02
 -1     11229 9.59176E-02
 -1     11230 9.04725E-02
 -1     11231 5.42444E-01
 -1     11232 6.01012E-01
 -1     11233 3.63191E-01
 -1     11234 4.91695E-01
 -1     11235 2.11174E-01
 -1     11236 3.00508E-01
 -1     11237 1.69384E-01
 -1     11238 2.08639E-01
 -1     11239 1.53804E-01
 -1     11240 1.84363E-01
 -1     11241 1.28365E-01
 -1     11242 1.53176E-01
 -1     11243 1.14939E-01
 -1     11244 1.32083E-01
 -1     11245 1.17935E-01
 -1     11246 1.28283E-01
 -1     11247 1.19279E-01
 -1     11248 1.28667E-01
 -1     11249 1.17874E-01
 -1     11250 1.27262E-01
 -1     11251 1.15303E-01
 -1     11252 1.23548E-01
 -1     11253 1.11294E-01
 -1     11254 1.18477E-01
 -1     11255 1.06430E-01
 -1     11256 1.12729E-01
 -1     11257 1.01023E-01
 -1     11258 1.06633E-01
 -1     11259 9.52353E-02
 -1     11260 1.00341E-01
 -1     11261 9.39159E-02
 -1     11262 6.83052E-01
 -1     11263 7.65091E-01
 -1     11264 3.99596E-01
 -1     11265 5.90953E-01
 -1     11266 2.59188E-01
 -1     11267 3.58276E-01
 -1     11268 2.28171E-01
 -1     11269 2.78720E-01
 -1     11270 1.81775E-01
 -1     11271 2.25584E-01
 -1     11272 1.48500E-01
 -1     11273 1.77100E-01
 -1     11274 1.44317E-01
 -1     11275 1.60735E-01
 -1     11276 1.42494E-01
 -1     11277 1.58528E-01
 -1     11278 1.38651E-01
 -1     11279 1.52478E-01
 -1     11280 1.32924E-01
 -1     11281 1.44312E-01
 -1     11282 1.26276E-01
 -1     11283 1.35652E-01
 -1     11284 1.19332E-01
 -1     11285 1.27131E-01
 -1     11286 1.12353E-01
 -1     11287 1.18956E-01
 -1     11288 1.05428E-01
 -1     11289 1.11148E-01
 -1     11290 9.85654E-02
 -1     11291 1.03652E-01
 -1     11292 9.63973E-02
 -1     11293 8.63395E-01
 -1     11294 9.61699E-01
 -1     11295 5.14882E-01
 -1     11296 7.87324E-01
 -1     11297 3.61057E-01
 -1     11298 5.17662E-01
 -1     11299 2.72070E-01
 -1     11300 3.54407E-01
 -1     11301 2.09226E-01
 -1     11302 2.55712E-01
 -1     11303 1.87993E-01
 -1     11304 2.20119E-01
 -1     11305 1.79270E-01
 -1     11306 2.06528E-01
 -1     11307 1.68373E-01
 -1     11308 1.89115E-01
 -1     11309 1.56608E-01
 -1     11310 1.72503E-01
 -1     11311 1.45359E-01
 -1     11312 1.57654E-01
 -1     11313 1.34967E-01
 -1     11314 1.44673E-01
 -1     11315 1.25446E-01
 -1     11316 1.33282E-01
 -1     11317 1.16671E-01
 -1     11318 1.23161E-01
 -1     11319 1.08491E-01
 -1     11320 1.14014E-01
 -1     11321 1.00760E-01
 -1     11322 1.05599E-01
 -1     11323 9.77250E-02
 -1     11324 1.29308E+00
 -1     11325 1.62446E+00
 -1     11326 6.12949E-01
 -1     11327 1.11870E+00
 -1     11328 4.89728E-01
 -1     11329 5.85014E-01
 -1     11330 3.29561E-01
 -1     11331 4.64883E-01
 -1     11332 2.65495E-01
 -1     11333 3.39345E-01
 -1     11334 2.38104E-01
 -1     11335 2.83481E-01
 -1     11336 2.10926E-01
 -1     11337 2.42502E-01
 -1     11338 1.88367E-01
 -1     11339 2.10177E-01
 -1     11340 1.69520E-01
 -1     11341 1.85384E-01
 -1     11342 1.53849E-01
 -1     11343 1.65716E-01
 -1     11344 1.40590E-01
 -1     11345 1.49766E-01
 -1     11346 1.29156E-01
 -1     11347 1.36463E-01
 -1     11348 1.19077E-01
 -1     11349 1.25072E-01
 -1     11350 1.10001E-01
 -1     11351 1.15064E-01
 -1     11352 1.01662E-01
 -1     11353 1.06063E-01
 -1     11354 9.78394E-02
 -1     11355 4.00237E+00
 -1     11356 6.38029E+00
 -1     11357 9.90445E-01
 -1     11358 3.87411E+00
 -1     11359 5.65240E-01
 -1     11360 9.70670E-01
 -1     11361 4.19549E-01
 -1     11362 5.19906E-01
 -1     11363 3.24720E-01
 -1     11364 4.04925E-01
 -1     11365 2.70447E-01
 -1     11366 3.11686E-01
 -1     11367 2.28974E-01
 -1     11368 2.56918E-01
 -1     11369 1.98968E-01
 -1     11370 2.17765E-01
 -1     11371 1.75873E-01
 -1     11372 1.89458E-01
 -1     11373 1.57650E-01
 -1     11374 1.67808E-01
 -1     11375 1.42775E-01
 -1     11376 1.50659E-01
 -1     11377 1.30367E-01
 -1     11378 1.36678E-01
 -1     11379 1.19776E-01
 -1     11380 1.25072E-01
 -1     11381 1.10351E-01
 -1     11382 1.15064E-01
 -1     11383 1.01776E-01
 -1     11384 1.06063E-01
 -1     11385 9.78029E-02
 -1     11386 6.38029E+00
 -1     11387 1.36794E+00
 -1     11388 5.73400E-01
 -1     11389 4.66413E-01
 -1     11390 3.43437E-01
 -1     11391 2.79935E-01
 -1     11392 2.33901E-01
 -1     11393 2.01629E-01
 -1     11394 1.77286E-01
 -1     11395 1.58329E-01
 -1     11396 1.42989E-01
 -1     11397 1.30273E-01
 -1     11398 1.19469E-01
 -1     11399 1.09894E-01
 -1     11400 1.01218E-01
 -1     11401 8.64821E-02
 -1     11402 8.67318E-02
 -1     11403 8.67318E-02
 -1     11404 8.59556E-02
 -1     11405 8.42375E-02
 -1     11406 8.17191E-02
 -1     11407 7.85923E-02
 -1     11408 7.50877E-02
 -1     11409 7.14606E-02
 -1     11410 6.79789E-02
 -1     11411 6.49141E-02
 -1     11412 6.25365E-02
 -1     11413 6.11154E-02
 -1     11414 6.22363E-02
 -1     11415 6.53540E-02
 -1     11416 7.05936E-02
 -1     11417 7.83003E-02
 -1     11418 8.88427E-02
 -1     11419 1.02596E-01
 -1     11420 1.19902E-01
 -1     11421 1.43021E-01
 -1     11422 1.74206E-01
 -1     11423 2.12070E-01
 -1     11424 2.56507E-01
 -1     11425 3.06284E-01
 -1     11426 3.58235E-01
 -1     11427 4.06703E-01
 -1     11428 4.41807E-01
 -1     11429 7.93317E-02
 -1     11430 7.96401E-02
 -1     11431 7.96401E-02
 -1     11432 7.90088E-02
 -1     11433 7.75199E-02
 -1     11434 7.52964E-02
 -1     11435 7.25007E-02
 -1     11436 6.93279E-02
 -1     11437 6.59978E-02
 -1     11438 6.27471E-02
 -1     11439 5.98239E-02
 -1     11440 5.74857E-02
 -1     11441 5.60006E-02
 -1     11442 5.67542E-02
 -1     11443 6.00532E-02
 -1     11444 6.94226E-02
 -1     11445 8.13456E-02
 -1     11446 9.48698E-02
 -1     11447 1.10174E-01
 -1     11448 1.27341E-01
 -1     11449 1.49212E-01
 -1     11450 1.78880E-01
 -1     11451 2.13869E-01
 -1     11452 2.70551E-01
 -1     11453 3.41106E-01
 -1     11454 4.23861E-01
 -1     11455 5.14913E-01
 -1     11456 6.04133E-01
 -1     11457 7.24911E-02
 -1     11458 7.27650E-02
 -1     11459 7.27650E-02
 -1     11460 7.21545E-02
 -1     11461 7.07398E-02
 -1     11462 6.86298E-02
 -1     11463 6.59632E-02
 -1     11464 6.29053E-02
 -1     11465 5.96435E-02
 -1     11466 5.63827E-02
 -1     11467 5.33421E-02
 -1     11468 5.07549E-02
 -1     11469 4.88717E-02
 -1     11470 5.09025E-02
 -1     11471 5.94340E-02
 -1     11472 7.19026E-02
 -1     11473 8.63936E-02
 -1     11474 1.03385E-01
 -1     11475 1.23439E-01
 -1     11476 1.47182E-01
 -1     11477 1.75263E-01
 -1     11478 2.08235E-01
 -1     11479 2.46319E-01
 -1     11480 2.94763E-01
 -1     11481 3.65845E-01
 -1     11482 4.53679E-01
 -1     11483 5.94802E-01
 -1     11484 7.57793E-01
 -1     11485 6.59283E-02
 -1     11486 6.60881E-02
 -1     11487 6.60881E-02
 -1     11488 6.53980E-02
 -1     11489 6.39352E-02
 -1     11490 6.17960E-02
 -1     11491 5.90983E-02
 -1     11492 5.59806E-02
 -1     11493 5.25987E-02
 -1     11494 4.91237E-02
 -1     11495 4.57395E-02
 -1     11496 4.26439E-02
 -1     11497 4.01184E-02
 -1     11498 4.85903E-02
 -1     11499 5.94340E-02
 -1     11500 7.19026E-02
 -1     11501 8.63936E-02
 -1     11502 1.05520E-01
 -1     11503 1.28842E-01
 -1     11504 1.57481E-01
 -1     11505 1.92991E-01
 -1     11506 2.37331E-01
 -1     11507 2.92869E-01
 -1     11508 3.62213E-01
 -1     11509 4.47713E-01
 -1     11510 5.49998E-01
 -1     11511 6.96496E-01
 -1     11512 8.90199E-01
 -1     11513 5.96362E-02
 -1     11514 5.96362E-02
 -1     11515 5.96137E-02
 -1     11516 5.87637E-02
 -1     11517 5.71583E-02
 -1     11518 5.48815E-02
 -1     11519 5.20320E-02
 -1     11520 4.87225E-02
 -1     11521 4.50781E-02
 -1     11522 4.12336E-02
 -1     11523 3.73323E-02
 -1     11524 3.35256E-02
 -1     11525 3.49098E-02
 -1     11526 4.50574E-02
 -1     11527 5.67066E-02
 -1     11528 7.02747E-02
 -1     11529 8.63080E-02
 -1     11530 1.05520E-01
 -1     11531 1.28842E-01
 -1     11532 1.57481E-01
 -1     11533 1.92991E-01
 -1     11534 2.42617E-01
 -1     11535 3.08890E-01
 -1     11536 3.97805E-01
 -1     11537 5.18626E-01
 -1     11538 6.83813E-01
 -1     11539 9.09041E-01
 -1     11540 1.20783E+00
 -1     11541 5.36251E-02
 -1     11542 5.36251E-02
 -1     11543 5.33628E-02
 -1     11544 5.22901E-02
 -1     11545 5.04721E-02
 -1     11546 4.79805E-02
 -1     11547 4.48959E-02
 -1     11548 4.13069E-02
 -1     11549 3.73079E-02
 -1     11550 3.29969E-02
 -1     11551 2.84731E-02
 -1     11552 2.38348E-02
 -1     11553 2.85479E-02
 -1     11554 3.86557E-02
 -1     11555 5.02752E-02
 -1     11556 6.38532E-02
 -1     11557 7.99983E-02
 -1     11558 9.95425E-02
 -1     11559 1.23631E-01
 -1     11560 1.53857E-01
 -1     11561 1.92458E-01
 -1     11562 2.42617E-01
 -1     11563 3.08890E-01
 -1     11564 3.97805E-01
 -1     11565 5.18626E-01
 -1     11566 6.83813E-01
 -1     11567 9.65518E-01
 -1     11568 1.42341E+00
 -1     11569 4.79159E-02
 -1     11570 4.79159E-02
 -1     11571 4.73665E-02
 -1     11572 4.60240E-02
 -1     11573 4.39452E-02
 -1     11574 4.11901E-02
 -1     11575 3.78226E-02
 -1     11576 3.39091E-02
 -1     11577 2.95157E-02
 -1     11578 2.47050E-02
 -1     11579 1.95318E-02
 -1     11580 1.40400E-02
 -1     11581 2.00110E-02
 -1     11582 2.94102E-02
 -1     11583 4.01091E-02
 -1     11584 5.24985E-02
 -1     11585 6.71235E-02
 -1     11586 8.47458E-02
 -1     11587 1.06442E-01
 -1     11588 1.33754E-01
 -1     11589 1.68938E-01
 -1     11590 2.15373E-01
 -1     11591 2.78250E-01
 -1     11592 3.65798E-01
 -1     11593 4.91498E-01
 -1     11594 6.78112E-01
 -1     11595 9.65518E-01
 -1     11596 1.42341E+00
 -1     11597 4.79159E-02
 -1     11598 4.79159E-02
 -1     11599 4.73665E-02
 -1     11600 4.60240E-02
 -1     11601 4.39452E-02
 -1     11602 4.11901E-02
 -1     11603 3.78226E-02
 -1     11604 3.39091E-02
 -1     11605 2.95157E-02
 -1     11606 2.47050E-02
 -1     11607 1.95318E-02
 -1     11608 1.40400E-02
 -1     11609 2.00110E-02
 -1     11610 2.94102E-02
 -1     11611 4.01091E-02
 -1     11612 5.24985E-02
 -1     11613 6.71235E-02
 -1     11614 8.47458E-02
 -1     11615 1.06442E-01
 -1     11616 1.33754E-01
 -1     11617 1.68938E-01
 -1     11618 2.15373E-01
 -1     11619 2.78250E-01
 -1     11620 3.65798E-01
 -1     11621 4.91498E-01
 -1     11622 6.78112E-01
 -1     11623 9.65518E-01
 -1     11624 1.42341E+00
 -1     11625 5.36251E-02
 -1     11626 5.36251E-02
 -1     11627 5.33628E-02
 -1     11628 5.22901E-02
 -1     11629 5.04721E-02
 -1     11630 4.79805E-02
 -1     11631 4.48959E-02
 -1     11632 4.13069E-02
 -1     11633 3.73079E-02
 -1     11634 3.29969E-02
 -1     11635 2.84731E-02
 -1     11636 2.38348E-02
 -1     11637 2.85479E-02
 -1     11638 3.86557E-02
 -1     11639 5.02752E-02
 -1     11640 6.38532E-02
 -1     11641 7.99983E-02
 -1     11642 9.95425E-02
 -1     11643 1.23631E-01
 -1     11644 1.53857E-01
 -1     11645 1.92458E-01
 -1     11646 2.42617E-01
 -1     11647 3.08890E-01
 -1     11648 3.97805E-01
 -1     11649 5.18626E-01
 -1     11650 6.83813E-01
 -1     11651 9.65518E-01
 -1     11652 1.42341E+00
 -1     11653 5.96362E-02
 -1     11654 5.96362E-02
 -1     11655 5.96137E-02
 -1     11656 5.87637E-02
 -1     11657 5.71583E-02
 -1     11658 5.48815E-02
 -1     11659 5.20320E-02
 -1     11660 4.87225E-02
 -1     11661 4.50781E-02
 -1     11662 4.12336E-02
 -1     11663 3.73323E-02
 -1     11664 3.35256E-02
 -1     11665 3.49098E-02
 -1     11666 4.50574E-02
 -1     11667 5.67066E-02
 -1     11668 7.02747E-02
 -1     11669 8.63080E-02
 -1     11670 1.05520E-01
 -1     11671 1.28842E-01
 -1     11672 1.57481E-01
 -1     11673 1.92991E-01
 -1     11674 2.42617E-01
 -1     11675 3.08890E-01
 -1     11676 3.97805E-01
 -1     11677 5.18626E-01
 -1     11678 6.83813E-01
 -1     11679 9.09041E-01
 -1     11680 1.20783E+00
 -1     11681 6.59283E-02
 -1     11682 6.60881E-02
 -1     11683 6.60881E-02
 -1     11684 6.53980E-02
 -1     11685 6.39352E-02
 -1     11686 6.17960E-02
 -1     11687 5.90983E-02
 -1     11688 5.59806E-02
 -1     11689 5.25987E-02
 -1     11690 4.91237E-02
 -1     11691 4.57395E-02
 -1     11692 4.26439E-02
 -1     11693 4.01184E-02
 -1     11694 4.85903E-02
 -1     11695 5.94340E-02
 -1     11696 7.19026E-02
 -1     11697 8.63936E-02
 -1     11698 1.05520E-01
 -1     11699 1.28842E-01
 -1     11700 1.57481E-01
 -1     11701 1.92991E-01
 -1     11702 2.37331E-01
 -1     11703 2.92869E-01
 -1     11704 3.62213E-01
 -1     11705 4.47713E-01
 -1     11706 5.49998E-01
 -1     11707 6.96496E-01
 -1     11708 8.90199E-01
 -1     11709 7.24911E-02
 -1     11710 7.27650E-02
 -1     11711 7.27650E-02
 -1     11712 7.21545E-02
 -1     11713 7.07398E-02
 -1     11714 6.86298E-02
 -1     11715 6.59632E-02
 -1     11716 6.29053E-02
 -1     11717 5.96435E-02
 -1     11718 5.63827E-02
 -1     11719 5.33421E-02
 -1     11720 5.07549E-02
 -1     11721 4.88717E-02
 -1     11722 5.09025E-02
 -1     11723 5.94340E-02
 -1     11724 7.19026E-02
 -1     11725 8.63936E-02
 -1     11726 1.03385E-01
 -1     11727 1.23439E-01
 -1     11728 1.47182E-01
 -1     11729 1.75263E-01
 -1     11730 2.08235E-01
 -1     11731 2.46319E-01
 -1     11732 2.94763E-01
 -1     11733 3.65845E-01
 -1     11734 4.53679E-01
 -1     11735 5.94802E-01
 -1     11736 7.57793E-01
 -1     11737 7.93317E-02
 -1     11738 7.96401E-02
 -1     11739 7.96401E-02
 -1     11740 7.90088E-02
 -1     11741 7.75199E-02
 -1     11742 7.52964E-02
 -1     11743 7.25007E-02
 -1     11744 6.93279E-02
 -1     11745 6.59978E-02
 -1     11746 6.27471E-02
 -1     11747 5.98239E-02
 -1     11748 5.74857E-02
 -1     11749 5.60006E-02
 -1     11750 5.67542E-02
 -1     11751 6.00532E-02
 -1     11752 6.94226E-02
 -1     11753 8.13456E-02
 -1     11754 9.48698E-02
 -1     11755 1.10174E-01
 -1     11756 1.27341E-01
 -1     11757 1.49212E-01
 -1     11758 1.78880E-01
 -1     11759 2.13869E-01
 -1     11760 2.70551E-01
 -1     11761 3.41106E-01
 -1     11762 4.23861E-01
 -1     11763 5.14913E-01
 -1     11764 6.04133E-01
 -1     11765 8.64821E-02
 -1     11766 8.67318E-02
 -1     11767 8.67318E-02
 -1     11768 8.59556E-02
 -1     11769 8.42375E-02
 -1     11770 8.17191E-02
 -1     11771 7.85923E-02
 -1     11772 7.50877E-02
 -1     11773 7.14606E-02
 -1     11774 6.79789E-02
 -1     11775 6.49141E-02
 -1     11776 6.25365E-02
 -1     11777 6.11154E-02
 -1     11778 6.22363E-02
 -1     11779 6.53540E-02
 -1     11780 7.05936E-02
 -1     11781 7.83003E-02
 -1     11782 8.88427E-02
 -1     11783 1.02596E-01
 -1     11784 1.19902E-01
 -1     11785 1.43021E-01
 -1     11786 1.74206E-01
 -1     11787 2.12070E-01
 -1     11788 2.56507E-01
 -1     11789 3.06284E-01
 -1     11790 3.58235E-01
 -1     11791 4.06703E-01
 -1     11792 4.41807E-01
 -1     11793 9.01559E-02
 -1     11794 8.58314E-02
 -1     11795 9.03172E-02
 -1     11796 8.66069E-02
 -1     11797 9.03172E-02
 -1     11798 8.67318E-02
 -1     11799 8.93884E-02
 -1     11800 8.63437E-02
 -1     11801 8.74560E-02
 -1     11802 8.50966E-02
 -1     11803 8.46754E-02
 -1     11804 8.29783E-02
 -1     11805 8.12589E-02
 -1     11806 8.01557E-02
 -1     11807 7.74595E-02
 -1     11808 7.68400E-02
 -1     11809 7.35534E-02
 -1     11810 7.32741E-02
 -1     11811 6.98243E-02
 -1     11812 6.97198E-02
 -1     11813 6.65529E-02
 -1     11814 6.64465E-02
 -1     11815 6.40110E-02
 -1     11816 6.37253E-02
 -1     11817 6.24608E-02
 -1     11818 6.18260E-02
 -1     11819 6.33555E-02
 -1     11820 6.16758E-02
 -1     11821 6.63116E-02
 -1     11822 6.37951E-02
 -1     11823 7.12911E-02
 -1     11824 6.79738E-02
 -1     11825 7.85660E-02
 -1     11826 7.44470E-02
 -1     11827 8.88427E-02
 -1     11828 8.35715E-02
 -1     11829 1.02596E-01
 -1     11830 9.57192E-02
 -1     11831 1.19902E-01
 -1     11832 1.11249E-01
 -1     11833 1.42010E-01
 -1     11834 1.31462E-01
 -1     11835 1.70045E-01
 -1     11836 1.58614E-01
 -1     11837 2.03098E-01
 -1     11838 1.93138E-01
 -1     11839 2.40534E-01
 -1     11840 2.34289E-01
 -1     11841 2.80605E-01
 -1     11842 2.81395E-01
 -1     11843 3.19830E-01
 -1     11844 3.32259E-01
 -1     11845 3.52517E-01
 -1     11846 3.82469E-01
 -1     11847 3.70069E-01
 -1     11848 4.24255E-01
 -1     11849 4.41807E-01
 -1     11850 8.29069E-02
 -1     11851 7.86887E-02
 -1     11852 8.31860E-02
 -1     11853 7.94859E-02
 -1     11854 8.31860E-02
 -1     11855 7.96401E-02
 -1     11856 8.24822E-02
 -1     11857 7.93245E-02
 -1     11858 8.08787E-02
 -1     11859 7.82643E-02
 -1     11860 7.85077E-02
 -1     11861 7.64081E-02
 -1     11862 7.55465E-02
 -1     11863 7.38986E-02
 -1     11864 7.22078E-02
 -1     11865 7.09143E-02
 -1     11866 6.87292E-02
 -1     11867 6.76628E-02
 -1     11868 6.53630E-02
 -1     11869 6.43724E-02
 -1     11870 6.23690E-02
 -1     11871 6.12855E-02
 -1     11872 6.00111E-02
 -1     11873 5.86548E-02
 -1     11874 5.85580E-02
 -1     11875 5.67432E-02
 -1     11876 5.94953E-02
 -1     11877 5.63774E-02
 -1     11878 6.27036E-02
 -1     11879 5.84037E-02
 -1     11880 7.00081E-02
 -1     11881 6.47379E-02
 -1     11882 7.98230E-02
 -1     11883 7.53841E-02
 -1     11884 9.18562E-02
 -1     11885 8.81077E-02
 -1     11886 1.06385E-01
 -1     11887 1.02522E-01
 -1     11888 1.23622E-01
 -1     11889 1.18757E-01
 -1     11890 1.46117E-01
 -1     11891 1.38276E-01
 -1     11892 1.76543E-01
 -1     11893 1.64046E-01
 -1     11894 2.12970E-01
 -1     11895 1.96375E-01
 -1     11896 2.63529E-01
 -1     11897 2.42210E-01
 -1     11898 3.23695E-01
 -1     11899 3.05828E-01
 -1     11900 3.91048E-01
 -1     11901 3.82483E-01
 -1     11902 4.60808E-01
 -1     11903 4.69387E-01
 -1     11904 5.22970E-01
 -1     11905 5.59523E-01
 -1     11906 6.04133E-01
 -1     11907 7.59114E-02
 -1     11908 7.18880E-02
 -1     11909 7.62026E-02
 -1     11910 7.26280E-02
 -1     11911 7.62026E-02
 -1     11912 7.27650E-02
 -1     11913 7.55816E-02
 -1     11914 7.24597E-02
 -1     11915 7.41298E-02
 -1     11916 7.14471E-02
 -1     11917 7.19631E-02
 -1     11918 6.96848E-02
 -1     11919 6.92319E-02
 -1     11920 6.72965E-02
 -1     11921 6.61166E-02
 -1     11922 6.44342E-02
 -1     11923 6.28206E-02
 -1     11924 6.12744E-02
 -1     11925 5.95649E-02
 -1     11926 5.80131E-02
 -1     11927 5.65830E-02
 -1     11928 5.48624E-02
 -1     11929 5.41203E-02
 -1     11930 5.20485E-02
 -1     11931 5.24361E-02
 -1     11932 4.98133E-02
 -1     11933 5.38284E-02
 -1     11934 4.98871E-02
 -1     11935 5.97436E-02
 -1     11936 5.51683E-02
 -1     11937 7.06626E-02
 -1     11938 6.56683E-02
 -1     11939 8.38696E-02
 -1     11940 7.91481E-02
 -1     11941 9.91276E-02
 -1     11942 9.48894E-02
 -1     11943 1.16806E-01
 -1     11944 1.13412E-01
 -1     11945 1.37261E-01
 -1     11946 1.35310E-01
 -1     11947 1.62237E-01
 -1     11948 1.61222E-01
 -1     11949 1.93558E-01
 -1     11950 1.91749E-01
 -1     11951 2.30094E-01
 -1     11952 2.27277E-01
 -1     11953 2.82657E-01
 -1     11954 2.70541E-01
 -1     11955 3.53475E-01
 -1     11956 3.30304E-01
 -1     11957 4.38770E-01
 -1     11958 4.09762E-01
 -1     11959 5.54858E-01
 -1     11960 5.24240E-01
 -1     11961 6.80963E-01
 -1     11962 6.76297E-01
 -1     11963 7.65126E-01
 -1     11964 6.92097E-02
 -1     11965 6.53964E-02
 -1     11966 6.94265E-02
 -1     11967 6.60082E-02
 -1     11968 6.94265E-02
 -1     11969 6.60881E-02
 -1     11970 6.87762E-02
 -1     11971 6.57430E-02
 -1     11972 6.73375E-02
 -1     11973 6.46666E-02
 -1     11974 6.52129E-02
 -1     11975 6.28656E-02
 -1     11976 6.25308E-02
 -1     11977 6.04472E-02
 -1     11978 5.94429E-02
 -1     11979 5.75395E-02
 -1     11980 5.61211E-02
 -1     11981 5.42896E-02
 -1     11982 5.27532E-02
 -1     11983 5.08612E-02
 -1     11984 4.95408E-02
 -1     11985 4.74316E-02
 -1     11986 4.66994E-02
 -1     11987 4.41917E-02
 -1     11988 4.44950E-02
 -1     11989 4.13811E-02
 -1     11990 4.97464E-02
 -1     11991 4.43543E-02
 -1     11992 5.94340E-02
 -1     11993 5.40122E-02
 -1     11994 7.19026E-02
 -1     11995 6.56683E-02
 -1     11996 8.63936E-02
 -1     11997 7.91481E-02
 -1     11998 1.04453E-01
 -1     11999 9.59569E-02
 -1     12000 1.26140E-01
 -1     12001 1.17181E-01
 -1     12002 1.52331E-01
 -1     12003 1.43161E-01
 -1     12004 1.84127E-01
 -1     12005 1.75236E-01
 -1     12006 2.22783E-01
 -1     12007 2.15161E-01
 -1     12008 2.69594E-01
 -1     12009 2.65100E-01
 -1     12010 3.28488E-01
 -1     12011 3.27541E-01
 -1     12012 4.06779E-01
 -1     12013 4.04963E-01
 -1     12014 5.01838E-01
 -1     12015 4.98855E-01
 -1     12016 6.45649E-01
 -1     12017 6.23247E-01
 -1     12018 8.23996E-01
 -1     12019 7.93348E-01
 -1     12020 1.03583E+00
 -1     12021 6.27822E-02
 -1     12022 5.92051E-02
 -1     12023 6.28621E-02
 -1     12024 5.96362E-02
 -1     12025 6.28509E-02
 -1     12026 5.96249E-02
 -1     12027 6.20809E-02
 -1     12028 5.91887E-02
 -1     12029 6.05468E-02
 -1     12030 5.79610E-02
 -1     12031 5.83387E-02
 -1     12032 5.60199E-02
 -1     12033 5.55652E-02
 -1     12034 5.34567E-02
 -1     12035 5.23516E-02
 -1     12036 5.03773E-02
 -1     12037 4.88384E-02
 -1     12038 4.69003E-02
 -1     12039 4.51787E-02
 -1     12040 4.31559E-02
 -1     12041 4.15359E-02
 -1     12042 3.92830E-02
 -1     12043 3.80847E-02
 -1     12044 3.54289E-02
 -1     12045 3.75141E-02
 -1     12046 3.42177E-02
 -1     12047 4.68238E-02
 -1     12048 3.99836E-02
 -1     12049 5.80703E-02
 -1     12050 5.08820E-02
 -1     12051 7.10886E-02
 -1     12052 6.34907E-02
 -1     12053 8.63508E-02
 -1     12054 7.82913E-02
 -1     12055 1.05520E-01
 -1     12056 9.59141E-02
 -1     12057 1.28842E-01
 -1     12058 1.17181E-01
 -1     12059 1.57481E-01
 -1     12060 1.43161E-01
 -1     12061 1.92991E-01
 -1     12062 1.75236E-01
 -1     12063 2.39974E-01
 -1     12064 2.17804E-01
 -1     12065 3.00880E-01
 -1     12066 2.75754E-01
 -1     12067 3.80009E-01
 -1     12068 3.53348E-01
 -1     12069 4.83169E-01
 -1     12070 4.58215E-01
 -1     12071 6.16906E-01
 -1     12072 6.01220E-01
 -1     12073 8.02769E-01
 -1     12074 7.96427E-01
 -1     12075 1.04901E+00
 -1     12076 1.05843E+00
 -1     12077 1.39387E+00
 -1     12078 5.66306E-02
 -1     12079 5.33223E-02
 -1     12080 5.66306E-02
 -1     12081 5.36251E-02
 -1     12082 5.64882E-02
 -1     12083 5.34939E-02
 -1     12084 5.55269E-02
 -1     12085 5.28265E-02
 -1     12086 5.38152E-02
 -1     12087 5.13811E-02
 -1     12088 5.14310E-02
 -1     12089 4.92263E-02
 -1     12090 4.84639E-02
 -1     12091 4.64382E-02
 -1     12092 4.50147E-02
 -1     12093 4.31014E-02
 -1     12094 4.11930E-02
 -1     12095 3.93074E-02
 -1     12096 3.71153E-02
 -1     12097 3.51524E-02
 -1     12098 3.29027E-02
 -1     12099 3.07350E-02
 -1     12100 2.86802E-02
 -1     12101 2.61539E-02
 -1     12102 3.17289E-02
 -1     12103 2.61913E-02
 -1     12104 4.18566E-02
 -1     12105 3.36018E-02
 -1     12106 5.34909E-02
 -1     12107 4.44655E-02
 -1     12108 6.70639E-02
 -1     12109 5.70642E-02
 -1     12110 8.31531E-02
 -1     12111 7.19257E-02
 -1     12112 1.02531E-01
 -1     12113 8.97704E-02
 -1     12114 1.26236E-01
 -1     12115 1.11587E-01
 -1     12116 1.55669E-01
 -1     12117 1.38744E-01
 -1     12118 1.92725E-01
 -1     12119 1.73158E-01
 -1     12120 2.42617E-01
 -1     12121 2.17538E-01
 -1     12122 3.08890E-01
 -1     12123 2.75754E-01
 -1     12124 3.97805E-01
 -1     12125 3.53348E-01
 -1     12126 5.18626E-01
 -1     12127 4.58215E-01
 -1     12128 6.83813E-01
 -1     12129 6.01220E-01
 -1     12130 9.37280E-01
 -1     12131 8.24666E-01
 -1     12132 1.31562E+00
 -1     12133 1.19447E+00
 -1     12134 1.54032E+00
 -1     12135 5.07705E-02
 -1     12136 4.77663E-02
 -1     12137 5.07705E-02
 -1     12138 4.79159E-02
 -1     12139 5.03647E-02
 -1     12140 4.76412E-02
 -1     12141 4.91571E-02
 -1     12142 4.66953E-02
 -1     12143 4.72087E-02
 -1     12144 4.49846E-02
 -1     12145 4.45853E-02
 -1     12146 4.25676E-02
 -1     12147 4.13592E-02
 -1     12148 3.95063E-02
 -1     12149 3.76080E-02
 -1     12150 3.58658E-02
 -1     12151 3.34118E-02
 -1     12152 3.17124E-02
 -1     12153 2.88510E-02
 -1     12154 2.71103E-02
 -1     12155 2.40025E-02
 -1     12156 2.21184E-02
 -1     12157 1.89374E-02
 -1     12158 1.67859E-02
 -1     12159 2.42794E-02
 -1     12160 1.70255E-02
 -1     12161 3.40330E-02
 -1     12162 2.47106E-02
 -1     12163 4.51921E-02
 -1     12164 3.47596E-02
 -1     12165 5.81758E-02
 -1     12166 4.63038E-02
 -1     12167 7.35609E-02
 -1     12168 5.98110E-02
 -1     12169 9.21441E-02
 -1     12170 7.59346E-02
 -1     12171 1.15036E-01
 -1     12172 9.55937E-02
 -1     12173 1.43805E-01
 -1     12174 1.20098E-01
 -1     12175 1.80698E-01
 -1     12176 1.51346E-01
 -1     12177 2.28995E-01
 -1     12178 1.92155E-01
 -1     12179 2.93570E-01
 -1     12180 2.46811E-01
 -1     12181 3.81802E-01
 -1     12182 3.22024E-01
 -1     12183 5.05062E-01
 -1     12184 4.28648E-01
 -1     12185 6.80963E-01
 -1     12186 5.84805E-01
 -1     12187 9.65518E-01
 -1     12188 8.21815E-01
 -1     12189 1.42341E+00
 -1     12190 1.19447E+00
 -1     12191 1.54032E+00
 -1     12192 4.79159E-02
 -1     12193 4.77663E-02
 -1     12194 4.79159E-02
 -1     12195 4.79159E-02
 -1     12196 4.73665E-02
 -1     12197 4.76412E-02
 -1     12198 4.60240E-02
 -1     12199 4.66953E-02
 -1     12200 4.39452E-02
 -1     12201 4.49846E-02
 -1     12202 4.11901E-02
 -1     12203 4.25676E-02
 -1     12204 3.78226E-02
 -1     12205 3.95063E-02
 -1     12206 3.39091E-02
 -1     12207 3.58658E-02
 -1     12208 2.95157E-02
 -1     12209 3.17124E-02
 -1     12210 2.47050E-02
 -1     12211 2.71103E-02
 -1     12212 1.95318E-02
 -1     12213 2.21184E-02
 -1     12214 1.40400E-02
 -1     12215 1.67859E-02
 -1     12216 2.00110E-02
 -1     12217 1.70255E-02
 -1     12218 2.94102E-02
 -1     12219 2.47106E-02
 -1     12220 4.01091E-02
 -1     12221 3.47596E-02
 -1     12222 5.24985E-02
 -1     12223 4.63038E-02
 -1     12224 6.71235E-02
 -1     12225 5.98110E-02
 -1     12226 8.47458E-02
 -1     12227 7.59346E-02
 -1     12228 1.06442E-01
 -1     12229 9.55937E-02
 -1     12230 1.33754E-01
 -1     12231 1.20098E-01
 -1     12232 1.68938E-01
 -1     12233 1.51346E-01
 -1     12234 2.15373E-01
 -1     12235 1.92155E-01
 -1     12236 2.78250E-01
 -1     12237 2.46811E-01
 -1     12238 3.65798E-01
 -1     12239 3.22024E-01
 -1     12240 4.91498E-01
 -1     12241 4.28648E-01
 -1     12242 6.78112E-01
 -1     12243 5.84805E-01
 -1     12244 9.65518E-01
 -1     12245 8.21815E-01
 -1     12246 1.42341E+00
 -1     12247 1.19447E+00
 -1     12248 1.54032E+00
 -1     12249 5.07705E-02
 -1     12250 5.33223E-02
 -1     12251 5.07705E-02
 -1     12252 5.36251E-02
 -1     12253 5.03647E-02
 -1     12254 5.34939E-02
 -1     12255 4.91571E-02
 -1     12256 5.28265E-02
 -1     12257 4.72087E-02
 -1     12258 5.13811E-02
 -1     12259 4.45853E-02
 -1     12260 4.92263E-02
 -1     12261 4.13592E-02
 -1     12262 4.64382E-02
 -1     12263 3.76080E-02
 -1     12264 4.31014E-02
 -1     12265 3.34118E-02
 -1     12266 3.93074E-02
 -1     12267 2.88510E-02
 -1     12268 3.51524E-02
 -1     12269 2.40025E-02
 -1     12270 3.07350E-02
 -1     12271 1.89374E-02
 -1     12272 2.61539E-02
 -1     12273 2.42794E-02
 -1     12274 2.61913E-02
 -1     12275 3.40330E-02
 -1     12276 3.36018E-02
 -1     12277 4.51921E-02
 -1     12278 4.44655E-02
 -1     12279 5.81758E-02
 -1     12280 5.70642E-02
 -1     12281 7.35609E-02
 -1     12282 7.19257E-02
 -1     12283 9.21441E-02
 -1     12284 8.97704E-02
 -1     12285 1.15036E-01
 -1     12286 1.11587E-01
 -1     12287 1.43805E-01
 -1     12288 1.38744E-01
 -1     12289 1.80698E-01
 -1     12290 1.73158E-01
 -1     12291 2.28995E-01
 -1     12292 2.17538E-01
 -1     12293 2.93570E-01
 -1     12294 2.75754E-01
 -1     12295 3.81802E-01
 -1     12296 3.53348E-01
 -1     12297 5.05062E-01
 -1     12298 4.58215E-01
 -1     12299 6.80963E-01
 -1     12300 6.01220E-01
 -1     12301 9.65518E-01
 -1     12302 8.24666E-01
 -1     12303 1.42341E+00
 -1     12304 1.19447E+00
 -1     12305 1.54032E+00
 -1     12306 5.66306E-02
 -1     12307 5.92051E-02
 -1     12308 5.66306E-02
 -1     12309 5.96362E-02
 -1     12310 5.64882E-02
 -1     12311 5.96249E-02
 -1     12312 5.55269E-02
 -1     12313 5.91887E-02
 -1     12314 5.38152E-02
 -1     12315 5.79610E-02
 -1     12316 5.14310E-02
 -1     12317 5.60199E-02
 -1     12318 4.84639E-02
 -1     12319 5.34567E-02
 -1     12320 4.50147E-02
 -1     12321 5.03773E-02
 -1     12322 4.11930E-02
 -1     12323 4.69003E-02
 -1     12324 3.71153E-02
 -1     12325 4.31559E-02
 -1     12326 3.29027E-02
 -1     12327 3.92830E-02
 -1     12328 2.86802E-02
 -1     12329 3.54289E-02
 -1     12330 3.17289E-02
 -1     12331 3.42177E-02
 -1     12332 4.18566E-02
 -1     12333 3.99836E-02
 -1     12334 5.34909E-02
 -1     12335 5.08820E-02
 -1     12336 6.70639E-02
 -1     12337 6.34907E-02
 -1     12338 8.31531E-02
 -1     12339 7.82913E-02
 -1     12340 1.02531E-01
 -1     12341 9.59141E-02
 -1     12342 1.26236E-01
 -1     12343 1.17181E-01
 -1     12344 1.55669E-01
 -1     12345 1.43161E-01
 -1     12346 1.92725E-01
 -1     12347 1.75236E-01
 -1     12348 2.42617E-01
 -1     12349 2.17804E-01
 -1     12350 3.08890E-01
 -1     12351 2.75754E-01
 -1     12352 3.97805E-01
 -1     12353 3.53348E-01
 -1     12354 5.18626E-01
 -1     12355 4.58215E-01
 -1     12356 6.83813E-01
 -1     12357 6.01220E-01
 -1     12358 9.37280E-01
 -1     12359 7.96427E-01
 -1     12360 1.31562E+00
 -1     12361 1.05843E+00
 -1     12362 1.39387E+00
 -1     12363 6.27822E-02
 -1     12364 6.53964E-02
 -1     12365 6.28621E-02
 -1     12366 6.60082E-02
 -1     12367 6.28509E-02
 -1     12368 6.60881E-02
 -1     12369 6.20809E-02
 -1     12370 6.57430E-02
 -1     12371 6.05468E-02
 -1     12372 6.46666E-02
 -1     12373 5.83387E-02
 -1     12374 6.28656E-02
 -1     12375 5.55652E-02
 -1     12376 6.04472E-02
 -1     12377 5.23516E-02
 -1     12378 5.75395E-02
 -1     12379 4.88384E-02
 -1     12380 5.42896E-02
 -1     12381 4.51787E-02
 -1     12382 5.08612E-02
 -1     12383 4.15359E-02
 -1     12384 4.74316E-02
 -1     12385 3.80847E-02
 -1     12386 4.41917E-02
 -1     12387 3.75141E-02
 -1     12388 4.13811E-02
 -1     12389 4.68238E-02
 -1     12390 4.43543E-02
 -1     12391 5.80703E-02
 -1     12392 5.40122E-02
 -1     12393 7.10886E-02
 -1     12394 6.56683E-02
 -1     12395 8.63508E-02
 -1     12396 7.91481E-02
 -1     12397 1.05520E-01
 -1     12398 9.59569E-02
 -1     12399 1.28842E-01
 -1     12400 1.17181E-01
 -1     12401 1.57481E-01
 -1     12402 1.43161E-01
 -1     12403 1.92991E-01
 -1     12404 1.75236E-01
 -1     12405 2.39974E-01
 -1     12406 2.15161E-01
 -1     12407 3.00880E-01
 -1     12408 2.65100E-01
 -1     12409 3.80009E-01
 -1     12410 3.27541E-01
 -1     12411 4.83169E-01
 -1     12412 4.04963E-01
 -1     12413 6.16906E-01
 -1     12414 4.98855E-01
 -1     12415 8.02769E-01
 -1     12416 6.23247E-01
 -1     12417 1.04901E+00
 -1     12418 7.93348E-01
 -1     12419 1.03583E+00
 -1     12420 6.92097E-02
 -1     12421 7.18880E-02
 -1     12422 6.94265E-02
 -1     12423 7.26280E-02
 -1     12424 6.94265E-02
 -1     12425 7.27650E-02
 -1     12426 6.87762E-02
 -1     12427 7.24597E-02
 -1     12428 6.73375E-02
 -1     12429 7.14471E-02
 -1     12430 6.52129E-02
 -1     12431 6.96848E-02
 -1     12432 6.25308E-02
 -1     12433 6.72965E-02
 -1     12434 5.94429E-02
 -1     12435 6.44342E-02
 -1     12436 5.61211E-02
 -1     12437 6.12744E-02
 -1     12438 5.27532E-02
 -1     12439 5.80131E-02
 -1     12440 4.95408E-02
 -1     12441 5.48624E-02
 -1     12442 4.66994E-02
 -1     12443 5.20485E-02
 -1     12444 4.44950E-02
 -1     12445 4.98133E-02
 -1     12446 4.97464E-02
 -1     12447 4.98871E-02
 -1     12448 5.94340E-02
 -1     12449 5.51683E-02
 -1     12450 7.19026E-02
 -1     12451 6.56683E-02
 -1     12452 8.63936E-02
 -1     12453 7.91481E-02
 -1     12454 1.04453E-01
 -1     12455 9.48894E-02
 -1     12456 1.26140E-01
 -1     12457 1.13412E-01
 -1     12458 1.52331E-01
 -1     12459 1.35310E-01
 -1     12460 1.84127E-01
 -1     12461 1.61222E-01
 -1     12462 2.22783E-01
 -1     12463 1.91749E-01
 -1     12464 2.69594E-01
 -1     12465 2.27277E-01
 -1     12466 3.28488E-01
 -1     12467 2.70541E-01
 -1     12468 4.06779E-01
 -1     12469 3.30304E-01
 -1     12470 5.01838E-01
 -1     12471 4.09762E-01
 -1     12472 6.45649E-01
 -1     12473 5.24240E-01
 -1     12474 8.23996E-01
 -1     12475 6.76297E-01
 -1     12476 7.65126E-01
 -1     12477 7.59114E-02
 -1     12478 7.86887E-02
 -1     12479 7.62026E-02
 -1     12480 7.94859E-02
 -1     12481 7.62026E-02
 -1     12482 7.96401E-02
 -1     12483 7.55816E-02
 -1     12484 7.93245E-02
 -1     12485 7.41298E-02
 -1     12486 7.82643E-02
 -1     12487 7.19631E-02
 -1     12488 7.64081E-02
 -1     12489 6.92319E-02
 -1     12490 7.38986E-02
 -1     12491 6.61166E-02
 -1     12492 7.09143E-02
 -1     12493 6.28206E-02
 -1     12494 6.76628E-02
 -1     12495 5.95649E-02
 -1     12496 6.43724E-02
 -1     12497 5.65830E-02
 -1     12498 6.12855E-02
 -1     12499 5.41203E-02
 -1     12500 5.86548E-02
 -1     12501 5.24361E-02
 -1     12502 5.67432E-02
 -1     12503 5.38284E-02
 -1     12504 5.63774E-02
 -1     12505 5.97436E-02
 -1     12506 5.84037E-02
 -1     12507 7.06626E-02
 -1     12508 6.47379E-02
 -1     12509 8.38696E-02
 -1     12510 7.53841E-02
 -1     12511 9.91276E-02
 -1     12512 8.81077E-02
 -1     12513 1.16806E-01
 -1     12514 1.02522E-01
 -1     12515 1.37261E-01
 -1     12516 1.18757E-01
 -1     12517 1.62237E-01
 -1     12518 1.38276E-01
 -1     12519 1.93558E-01
 -1     12520 1.64046E-01
 -1     12521 2.30094E-01
 -1     12522 1.96375E-01
 -1     12523 2.82657E-01
 -1     12524 2.42210E-01
 -1     12525 3.53475E-01
 -1     12526 3.05828E-01
 -1     12527 4.38770E-01
 -1     12528 3.82483E-01
 -1     12529 5.54858E-01
 -1     12530 4.69387E-01
 -1     12531 6.80963E-01
 -1     12532 5.59523E-01
 -1     12533 6.04133E-01
 -1     12534 8.29069E-02
 -1     12535 8.58314E-02
 -1     12536 8.31860E-02
 -1     12537 8.66069E-02
 -1     12538 8.31860E-02
 -1     12539 8.67318E-02
 -1     12540 8.24822E-02
 -1     12541 8.63437E-02
 -1     12542 8.08787E-02
 -1     12543 8.50966E-02
 -1     12544 7.85077E-02
 -1     12545 8.29783E-02
 -1     12546 7.55465E-02
 -1     12547 8.01557E-02
 -1     12548 7.22078E-02
 -1     12549 7.68400E-02
 -1     12550 6.87292E-02
 -1     12551 7.32741E-02
 -1     12552 6.53630E-02
 -1     12553 6.97198E-02
 -1     12554 6.23690E-02
 -1     12555 6.64465E-02
 -1     12556 6.00111E-02
 -1     12557 6.37253E-02
 -1     12558 5.85580E-02
 -1     12559 6.18260E-02
 -1     12560 5.94953E-02
 -1     12561 6.16758E-02
 -1     12562 6.27036E-02
 -1     12563 6.37951E-02
 -1     12564 7.00081E-02
 -1     12565 6.79738E-02
 -1     12566 7.98230E-02
 -1     12567 7.44470E-02
 -1     12568 9.18562E-02
 -1     12569 8.35715E-02
 -1     12570 1.06385E-01
 -1     12571 9.57192E-02
 -1     12572 1.23622E-01
 -1     12573 1.11249E-01
 -1     12574 1.46117E-01
 -1     12575 1.31462E-01
 -1     12576 1.76543E-01
 -1     12577 1.58614E-01
 -1     12578 2.12970E-01
 -1     12579 1.93138E-01
 -1     12580 2.63529E-01
 -1     12581 2.34289E-01
 -1     12582 3.23695E-01
 -1     12583 2.81395E-01
 -1     12584 3.91048E-01
 -1     12585 3.32259E-01
 -1     12586 4.60808E-01
 -1     12587 3.82469E-01
 -1     12588 5.22970E-01
 -1     12589 4.24255E-01
 -1     12590 4.41807E-01
 -1     12591 9.01559E-02
 -1     12592 9.03172E-02
 -1     12593 9.03172E-02
 -1     12594 8.93884E-02
 -1     12595 8.74560E-02
 -1     12596 8.46754E-02
 -1     12597 8.12589E-02
 -1     12598 7.74595E-02
 -1     12599 7.35534E-02
 -1     12600 6.98243E-02
 -1     12601 6.65529E-02
 -1     12602 6.40110E-02
 -1     12603 6.24608E-02
 -1     12604 6.33555E-02
 -1     12605 6.63116E-02
 -1     12606 7.12911E-02
 -1     12607 7.85660E-02
 -1     12608 8.88427E-02
 -1     12609 1.02596E-01
 -1     12610 1.19902E-01
 -1     12611 1.42010E-01
 -1     12612 1.70045E-01
 -1     12613 2.03098E-01
 -1     12614 2.40534E-01
 -1     12615 2.80605E-01
 -1     12616 3.19830E-01
 -1     12617 3.52517E-01
 -1     12618 3.70069E-01
 -3
 9999
