# vtk DataFile Version 5.1
vtk output
ASCII
DATASET UNSTRUCTURED_GRID
POINTS 12618 float
2.5 2.5 0 2.5 -2.5 0 -2.5 -2.5 0 
-2.5 2.5 0 8 8 0 8 -8 0 
-8 -8 0 -8 8 0 25 37.5 0 
25 8 0 25 -8 0 25 -37.5 0 
8 -37.5 0 -8 -37.5 0 -25 -37.5 0 
-25 -8 0 -25 8 0 -25 37.5 0 
-8 37.5 0 8 37.5 0 7.3074 7.3074 0 
6.68406 6.68406 0 6.12305 6.12305 0 5.61815 5.61815 0 
5.16373 5.16373 0 4.75476 4.75476 0 4.38668 4.38668 0 
4.05541 4.05541 0 3.75727 3.75727 0 3.48895 3.48895 0 
3.24745 3.24745 0 3.03011 3.03011 0 2.83449 2.83449 0 
2.65844 2.65844 0 7.6537 7.6537 0 6.99573 6.99573 0 
6.40356 6.40356 0 5.8706 5.8706 0 5.39094 5.39094 0 
4.95925 4.95925 0 4.57072 4.57072 0 4.22105 4.22105 0 
3.90634 3.90634 0 3.62311 3.62311 0 3.3682 3.3682 0 
3.13878 3.13878 0 2.9323 2.9323 0 2.74647 2.74647 0 
2.57922 2.57922 0 7.3074 -7.3074 0 6.68406 -6.68406 0 
6.12305 -6.12305 0 5.61815 -5.61815 0 5.16373 -5.16373 0 
4.75476 -4.75476 0 4.38668 -4.38668 0 4.05541 -4.05541 0 
3.75727 -3.75727 0 3.48895 -3.48895 0 3.24745 -3.24745 0 
3.03011 -3.03011 0 2.83449 -2.83449 0 2.65844 -2.65844 0 
7.6537 -7.6537 0 6.99573 -6.99573 0 6.40356 -6.40356 0 
5.8706 -5.8706 0 5.39094 -5.39094 0 4.95925 -4.95925 0 
4.57072 -4.57072 0 4.22105 -4.22105 0 3.90634 -3.90634 0 
3.62311 -3.62311 0 3.3682 -3.3682 0 3.13878 -3.13878 0 
2.9323 -2.9323 0 2.74647 -2.74647 0 2.57922 -2.57922 0 
-7.3074 -7.3074 0 -6.68406 -6.68406 0 -6.12305 -6.12305 0 
-5.61815 -5.61815 0 -5.16373 -5.16373 0 -4.75476 -4.75476 0 
-4.38668 -4.38668 0 -4.05541 -4.05541 0 -3.75727 -3.75727 0 
-3.48895 -3.48895 0 -3.24745 -3.24745 0 -3.03011 -3.03011 0 
-2.83449 -2.83449 0 -2.65844 -2.65844 0 -7.6537 -7.6537 0 
-6.99573 -6.99573 0 -6.40356 -6.40356 0 -5.8706 -5.8706 0 
-5.39094 -5.39094 0 -4.95925 -4.95925 0 -4.57072 -4.57072 0 
-4.22105 -4.22105 0 -3.90634 -3.90634 0 -3.62311 -3.62311 0 
-3.3682 -3.3682 0 -3.13878 -3.13878 0 -2.9323 -2.9323 0 
-2.74647 -2.74647 0 -2.57922 -2.57922 0 -7.3074 7.3074 0 
-6.68406 6.68406 0 -6.12305 6.12305 0 -5.61815 5.61815 0 
-5.16373 5.16373 0 -4.75476 4.75476 0 -4.38668 4.38668 0 
-4.05541 4.05541 0 -3.75727 3.75727 0 -3.48895 3.48895 0 
-3.24745 3.24745 0 -3.03011 3.03011 0 -2.83449 2.83449 0 
-2.65844 2.65844 0 -7.6537 7.6537 0 -6.99573 6.99573 0 
-6.40356 6.40356 0 -5.8706 5.8706 0 -5.39094 5.39094 0 
-4.95925 4.95925 0 -4.57072 4.57072 0 -4.22105 4.22105 0 
-3.90634 3.90634 0 -3.62311 3.62311 0 -3.3682 3.3682 0 
-3.13878 3.13878 0 -2.9323 2.9323 0 -2.74647 2.74647 0 
-2.57922 2.57922 0 2.74763 2.22498 0 2.96515 1.92559 0 
3.15018 1.6051 0 3.30071 1.26702 0 3.41506 0.915064 0 
3.49201 0.553079 0 3.53069 0.185036 0 3.53069 -0.185036 0 
3.49201 -0.553079 0 3.41506 -0.915064 0 3.30071 -1.26702 0 
3.15018 -1.6051 0 2.96515 -1.92559 0 2.74763 -2.22498 0 
2.62741 2.36573 0 2.86031 2.07813 0 3.06186 1.76777 0 
3.22987 1.43803 0 3.36249 1.09254 0 3.45827 0.735079 0 
3.51617 0.369564 0 3.53553 -7.28188e-09 0 3.51617 -0.369564 0 
3.45827 -0.735079 0 3.36249 -1.09254 0 3.22987 -1.43803 0 
3.06186 -1.76777 0 2.86031 -2.07813 0 2.62741 -2.36573 0 
2.22498 -2.74763 0 1.92559 -2.96515 0 1.6051 -3.15018 0 
1.26702 -3.30071 0 0.915064 -3.41506 0 0.553079 -3.49201 0 
0.185036 -3.53069 0 -0.185036 -3.53069 0 -0.553079 -3.49201 0 
-0.915064 -3.41506 0 -1.26702 -3.30071 0 -1.6051 -3.15018 0 
-1.92559 -2.96515 0 -2.22498 -2.74763 0 2.36573 -2.62741 0 
2.07813 -2.86031 0 1.76777 -3.06186 0 1.43803 -3.22987 0 
1.09254 -3.36249 0 0.735079 -3.45827 0 0.369564 -3.51617 0 
-7.28188e-09 -3.53553 0 -0.369564 -3.51617 0 -0.735079 -3.45827 0 
-1.09254 -3.36249 0 -1.43803 -3.22987 0 -1.76777 -3.06186 0 
-2.07813 -2.86031 0 -2.36573 -2.62741 0 -2.74763 -2.22498 0 
-2.96515 -1.92559 0 -3.15018 -1.6051 0 -3.30071 -1.26702 0 
-3.41506 -0.915064 0 -3.49201 -0.553079 0 -3.53069 -0.185036 0 
-3.53069 0.185036 0 -3.49201 0.553079 0 -3.41506 0.915064 0 
-3.30071 1.26702 0 -3.15018 1.6051 0 -2.96515 1.92559 0 
-2.74763 2.22498 0 -2.62741 -2.36573 0 -2.86031 -2.07813 0 
-3.06186 -1.76777 0 -3.22987 -1.43803 0 -3.36249 -1.09254 0 
-3.45827 -0.735079 0 -3.51617 -0.369564 0 -3.53553 7.28188e-09 0 
-3.51617 0.369564 0 -3.45827 0.735079 0 -3.36249 1.09254 0 
-3.22987 1.43803 0 -3.06186 1.76777 0 -2.86031 2.07813 0 
-2.62741 2.36573 0 -2.22498 2.74763 0 -1.92559 2.96515 0 
-1.6051 3.15018 0 -1.26702 3.30071 0 -0.915064 3.41506 0 
-0.553079 3.49201 0 -0.185036 3.53069 0 0.185036 3.53069 0 
0.553079 3.49201 0 0.915064 3.41506 0 1.26702 3.30071 0 
1.6051 3.15018 0 1.92559 2.96515 0 2.22498 2.74763 0 
-2.36573 2.62741 0 -2.07813 2.86031 0 -1.76777 3.06186 0 
-1.43803 3.22987 0 -1.09254 3.36249 0 -0.735079 3.45827 0 
-0.369564 3.51617 0 7.28188e-09 3.53553 0 0.369564 3.51617 0 
0.735079 3.45827 0 1.09254 3.36249 0 1.43803 3.22987 0 
1.76777 3.06186 0 2.07813 2.86031 0 2.36573 2.62741 0 
8 6.93333 0 8 5.86667 0 8 4.8 0 
8 3.73333 0 8 2.66667 0 8 1.6 0 
8 0.533333 0 8 -0.533333 0 8 -1.6 0 
8 -2.66667 0 8 -3.73333 0 8 -4.8 0 
8 -5.86667 0 8 -6.93333 0 8 7.46667 0 
8 6.4 0 8 5.33333 0 8 4.26667 0 
8 3.2 0 8 2.13333 0 8 1.06667 0 
8 2.21778e-11 0 8 -1.06667 0 8 -2.13333 0 
8 -3.2 0 8 -4.26667 0 8 -5.33333 0 
8 -6.4 0 8 -7.46667 0 6.93333 -8 0 
5.86667 -8 0 4.8 -8 0 3.73333 -8 0 
2.66667 -8 0 1.6 -8 0 0.533333 -8 0 
-0.533333 -8 0 -1.6 -8 0 -2.66667 -8 0 
-3.73333 -8 0 -4.8 -8 0 -5.86667 -8 0 
-6.93333 -8 0 7.46667 -8 0 6.4 -8 0 
5.33333 -8 0 4.26667 -8 0 3.2 -8 0 
2.13333 -8 0 1.06667 -8 0 2.21778e-11 -8 0 
-1.06667 -8 0 -2.13333 -8 0 -3.2 -8 0 
-4.26667 -8 0 -5.33333 -8 0 -6.4 -8 0 
-7.46667 -8 0 -8 -6.93333 0 -8 -5.86667 0 
-8 -4.8 0 -8 -3.73333 0 -8 -2.66667 0 
-8 -1.6 0 -8 -0.533333 0 -8 0.533333 0 
-8 1.6 0 -8 2.66667 0 -8 3.73333 0 
-8 4.8 0 -8 5.86667 0 -8 6.93333 0 
-8 -7.46667 0 -8 -6.4 0 -8 -5.33333 0 
-8 -4.26667 0 -8 -3.2 0 -8 -2.13333 0 
-8 -1.06667 0 -8 -2.21778e-11 0 -8 1.06667 0 
-8 2.13333 0 -8 3.2 0 -8 4.26667 0 
-8 5.33333 0 -8 6.4 0 -8 7.46667 0 
-6.93333 8 0 -5.86667 8 0 -4.8 8 0 
-3.73333 8 0 -2.66667 8 0 -1.6 8 0 
-0.533333 8 0 0.533333 8 0 1.6 8 0 
2.66667 8 0 3.73333 8 0 4.8 8 0 
5.86667 8 0 6.93333 8 0 -7.46667 8 0 
-6.4 8 0 -5.33333 8 0 -4.26667 8 0 
-3.2 8 0 -2.13333 8 0 -1.06667 8 0 
-2.21778e-11 8 0 1.06667 8 0 2.13333 8 0 
3.2 8 0 4.26667 8 0 5.33333 8 0 
6.4 8 0 7.46667 8 0 25 36.4828 0 
25 35.4655 0 25 34.4483 0 25 33.431 0 
25 32.4138 0 25 31.3966 0 25 30.3793 0 
25 29.3621 0 25 28.3448 0 25 27.3276 0 
25 26.3103 0 25 25.2931 0 25 24.2759 0 
25 23.2586 0 25 22.2414 0 25 21.2241 0 
25 20.2069 0 25 19.1897 0 25 18.1724 0 
25 17.1552 0 25 16.1379 0 25 15.1207 0 
25 14.1034 0 25 13.0862 0 25 12.069 0 
25 11.0517 0 25 10.0345 0 25 9.01724 0 
25 36.9914 0 25 35.9741 0 25 34.9569 0 
25 33.9397 0 25 32.9224 0 25 31.9052 0 
25 30.8879 0 25 29.8707 0 25 28.8534 0 
25 27.8362 0 25 26.819 0 25 25.8017 0 
25 24.7845 0 25 23.7672 0 25 22.75 0 
25 21.7328 0 25 20.7155 0 25 19.6983 0 
25 18.681 0 25 17.6638 0 25 16.6466 0 
25 15.6293 0 25 14.6121 0 25 13.5948 0 
25 12.5776 0 25 11.5603 0 25 10.5431 0 
25 9.52586 0 25 8.50862 0 25 6.93333 0 
25 5.86667 0 25 4.8 0 25 3.73333 0 
25 2.66667 0 25 1.6 0 25 0.533333 0 
25 -0.533333 0 25 -1.6 0 25 -2.66667 0 
25 -3.73333 0 25 -4.8 0 25 -5.86667 0 
25 -6.93333 0 25 7.46667 0 25 6.4 0 
25 5.33333 0 25 4.26667 0 25 3.2 0 
25 2.13333 0 25 1.06667 0 25 2.21778e-11 0 
25 -1.06667 0 25 -2.13333 0 25 -3.2 0 
25 -4.26667 0 25 -5.33333 0 25 -6.4 0 
25 -7.46667 0 25 -9.01724 0 25 -10.0345 0 
25 -11.0517 0 25 -12.069 0 25 -13.0862 0 
25 -14.1034 0 25 -15.1207 0 25 -16.1379 0 
25 -17.1552 0 25 -18.1724 0 25 -19.1897 0 
25 -20.2069 0 25 -21.2241 0 25 -22.2414 0 
25 -23.2586 0 25 -24.2759 0 25 -25.2931 0 
25 -26.3103 0 25 -27.3276 0 25 -28.3448 0 
25 -29.3621 0 25 -30.3793 0 25 -31.3966 0 
25 -32.4138 0 25 -33.431 0 25 -34.4483 0 
25 -35.4655 0 25 -36.4828 0 25 -8.50862 0 
25 -9.52586 0 25 -10.5431 0 25 -11.5603 0 
25 -12.5776 0 25 -13.5948 0 25 -14.6121 0 
25 -15.6293 0 25 -16.6466 0 25 -17.6638 0 
25 -18.681 0 25 -19.6983 0 25 -20.7155 0 
25 -21.7328 0 25 -22.75 0 25 -23.7672 0 
25 -24.7845 0 25 -25.8017 0 25 -26.819 0 
25 -27.8362 0 25 -28.8534 0 25 -29.8707 0 
25 -30.8879 0 25 -31.9052 0 25 -32.9224 0 
25 -33.9397 0 25 -34.9569 0 25 -35.9741 0 
25 -36.9914 0 23.9375 -37.5 0 22.875 -37.5 0 
21.8125 -37.5 0 20.75 -37.5 0 19.6875 -37.5 0 
18.625 -37.5 0 17.5625 -37.5 0 16.5 -37.5 0 
15.4375 -37.5 0 14.375 -37.5 0 13.3125 -37.5 0 
12.25 -37.5 0 11.1875 -37.5 0 10.125 -37.5 0 
9.0625 -37.5 0 24.4688 -37.5 0 23.4062 -37.5 0 
22.3438 -37.5 0 21.2812 -37.5 0 20.2188 -37.5 0 
19.1562 -37.5 0 18.0938 -37.5 0 17.0312 -37.5 0 
15.9688 -37.5 0 14.9062 -37.5 0 13.8438 -37.5 0 
12.7812 -37.5 0 11.7188 -37.5 0 10.6562 -37.5 0 
9.59375 -37.5 0 8.53125 -37.5 0 6.93333 -37.5 0 
5.86667 -37.5 0 4.8 -37.5 0 3.73333 -37.5 0 
2.66667 -37.5 0 1.6 -37.5 0 0.533333 -37.5 0 
-0.533333 -37.5 0 -1.6 -37.5 0 -2.66667 -37.5 0 
-3.73333 -37.5 0 -4.8 -37.5 0 -5.86667 -37.5 0 
-6.93333 -37.5 0 7.46667 -37.5 0 6.4 -37.5 0 
5.33333 -37.5 0 4.26667 -37.5 0 3.2 -37.5 0 
2.13333 -37.5 0 1.06667 -37.5 0 2.21778e-11 -37.5 0 
-1.06667 -37.5 0 -2.13333 -37.5 0 -3.2 -37.5 0 
-4.26667 -37.5 0 -5.33333 -37.5 0 -6.4 -37.5 0 
-7.46667 -37.5 0 -9.0625 -37.5 0 -10.125 -37.5 0 
-11.1875 -37.5 0 -12.25 -37.5 0 -13.3125 -37.5 0 
-14.375 -37.5 0 -15.4375 -37.5 0 -16.5 -37.5 0 
-17.5625 -37.5 0 -18.625 -37.5 0 -19.6875 -37.5 0 
-20.75 -37.5 0 -21.8125 -37.5 0 -22.875 -37.5 0 
-23.9375 -37.5 0 -8.53125 -37.5 0 -9.59375 -37.5 0 
-10.6562 -37.5 0 -11.7188 -37.5 0 -12.7812 -37.5 0 
-13.8438 -37.5 0 -14.9062 -37.5 0 -15.9688 -37.5 0 
-17.0312 -37.5 0 -18.0938 -37.5 0 -19.1562 -37.5 0 
-20.2188 -37.5 0 -21.2812 -37.5 0 -22.3438 -37.5 0 
-23.4062 -37.5 0 -24.4688 -37.5 0 -25 -36.4828 0 
-25 -35.4655 0 -25 -34.4483 0 -25 -33.431 0 
-25 -32.4138 0 -25 -31.3966 0 -25 -30.3793 0 
-25 -29.3621 0 -25 -28.3448 0 -25 -27.3276 0 
-25 -26.3103 0 -25 -25.2931 0 -25 -24.2759 0 
-25 -23.2586 0 -25 -22.2414 0 -25 -21.2241 0 
-25 -20.2069 0 -25 -19.1897 0 -25 -18.1724 0 
-25 -17.1552 0 -25 -16.1379 0 -25 -15.1207 0 
-25 -14.1034 0 -25 -13.0862 0 -25 -12.069 0 
-25 -11.0517 0 -25 -10.0345 0 -25 -9.01724 0 
-25 -36.9914 0 -25 -35.9741 0 -25 -34.9569 0 
-25 -33.9397 0 -25 -32.9224 0 -25 -31.9052 0 
-25 -30.8879 0 -25 -29.8707 0 -25 -28.8534 0 
-25 -27.8362 0 -25 -26.819 0 -25 -25.8017 0 
-25 -24.7845 0 -25 -23.7672 0 -25 -22.75 0 
-25 -21.7328 0 -25 -20.7155 0 -25 -19.6983 0 
-25 -18.681 0 -25 -17.6638 0 -25 -16.6466 0 
-25 -15.6293 0 -25 -14.6121 0 -25 -13.5948 0 
-25 -12.5776 0 -25 -11.5603 0 -25 -10.5431 0 
-25 -9.52586 0 -25 -8.50862 0 -25 -6.93333 0 
-25 -5.86667 0 -25 -4.8 0 -25 -3.73333 0 
-25 -2.66667 0 -25 -1.6 0 -25 -0.533333 0 
-25 0.533333 0 -25 1.6 0 -25 2.66667 0 
-25 3.73333 0 -25 4.8 0 -25 5.86667 0 
-25 6.93333 0 -25 -7.46667 0 -25 -6.4 0 
-25 -5.33333 0 -25 -4.26667 0 -25 -3.2 0 
-25 -2.13333 0 -25 -1.06667 0 -25 -2.21778e-11 0 
-25 1.06667 0 -25 2.13333 0 -25 3.2 0 
-25 4.26667 0 -25 5.33333 0 -25 6.4 0 
-25 7.46667 0 -25 9.01724 0 -25 10.0345 0 
-25 11.0517 0 -25 12.069 0 -25 13.0862 0 
-25 14.1034 0 -25 15.1207 0 -25 16.1379 0 
-25 17.1552 0 -25 18.1724 0 -25 19.1897 0 
-25 20.2069 0 -25 21.2241 0 -25 22.2414 0 
-25 23.2586 0 -25 24.2759 0 -25 25.2931 0 
-25 26.3103 0 -25 27.3276 0 -25 28.3448 0 
-25 29.3621 0 -25 30.3793 0 -25 31.3966 0 
-25 32.4138 0 -25 33.431 0 -25 34.4483 0 
-25 35.4655 0 -25 36.4828 0 -25 8.50862 0 
-25 9.52586 0 -25 10.5431 0 -25 11.5603 0 
-25 12.5776 0 -25 13.5948 0 -25 14.6121 0 
-25 15.6293 0 -25 16.6466 0 -25 17.6638 0 
-25 18.681 0 -25 19.6983 0 -25 20.7155 0 
-25 21.7328 0 -25 22.75 0 -25 23.7672 0 
-25 24.7845 0 -25 25.8017 0 -25 26.819 0 
-25 27.8362 0 -25 28.8534 0 -25 29.8707 0 
-25 30.8879 0 -25 31.9052 0 -25 32.9224 0 
-25 33.9397 0 -25 34.9569 0 -25 35.9741 0 
-25 36.9914 0 -23.9375 37.5 0 -22.875 37.5 0 
-21.8125 37.5 0 -20.75 37.5 0 -19.6875 37.5 0 
-18.625 37.5 0 -17.5625 37.5 0 -16.5 37.5 0 
-15.4375 37.5 0 -14.375 37.5 0 -13.3125 37.5 0 
-12.25 37.5 0 -11.1875 37.5 0 -10.125 37.5 0 
-9.0625 37.5 0 -24.4688 37.5 0 -23.4062 37.5 0 
-22.3438 37.5 0 -21.2812 37.5 0 -20.2188 37.5 0 
-19.1562 37.5 0 -18.0938 37.5 0 -17.0312 37.5 0 
-15.9688 37.5 0 -14.9062 37.5 0 -13.8438 37.5 0 
-12.7812 37.5 0 -11.7188 37.5 0 -10.6562 37.5 0 
-9.59375 37.5 0 -8.53125 37.5 0 -6.93333 37.5 0 
-5.86667 37.5 0 -4.8 37.5 0 -3.73333 37.5 0 
-2.66667 37.5 0 -1.6 37.5 0 -0.533333 37.5 0 
0.533333 37.5 0 1.6 37.5 0 2.66667 37.5 0 
3.73333 37.5 0 4.8 37.5 0 5.86667 37.5 0 
6.93333 37.5 0 -7.46667 37.5 0 -6.4 37.5 0 
-5.33333 37.5 0 -4.26667 37.5 0 -3.2 37.5 0 
-2.13333 37.5 0 -1.06667 37.5 0 -2.21778e-11 37.5 0 
1.06667 37.5 0 2.13333 37.5 0 3.2 37.5 0 
4.26667 37.5 0 5.33333 37.5 0 6.4 37.5 0 
7.46667 37.5 0 9.0625 37.5 0 10.125 37.5 0 
11.1875 37.5 0 12.25 37.5 0 13.3125 37.5 0 
14.375 37.5 0 15.4375 37.5 0 16.5 37.5 0 
17.5625 37.5 0 18.625 37.5 0 19.6875 37.5 0 
20.75 37.5 0 21.8125 37.5 0 22.875 37.5 0 
23.9375 37.5 0 8.53125 37.5 0 9.59375 37.5 0 
10.6562 37.5 0 11.7188 37.5 0 12.7812 37.5 0 
13.8438 37.5 0 14.9062 37.5 0 15.9688 37.5 0 
17.0312 37.5 0 18.0938 37.5 0 19.1562 37.5 0 
20.2188 37.5 0 21.2812 37.5 0 22.3438 37.5 0 
23.4062 37.5 0 24.4688 37.5 0 9.0625 8 0 
10.125 8 0 11.1875 8 0 12.25 8 0 
13.3125 8 0 14.375 8 0 15.4375 8 0 
16.5 8 0 17.5625 8 0 18.625 8 0 
19.6875 8 0 20.75 8 0 21.8125 8 0 
22.875 8 0 23.9375 8 0 8.53125 8 0 
9.59375 8 0 10.6562 8 0 11.7188 8 0 
12.7812 8 0 13.8438 8 0 14.9062 8 0 
15.9688 8 0 17.0312 8 0 18.0938 8 0 
19.1562 8 0 20.2188 8 0 21.2812 8 0 
22.3438 8 0 23.4062 8 0 24.4688 8 0 
9.0625 -8 0 10.125 -8 0 11.1875 -8 0 
12.25 -8 0 13.3125 -8 0 14.375 -8 0 
15.4375 -8 0 16.5 -8 0 17.5625 -8 0 
18.625 -8 0 19.6875 -8 0 20.75 -8 0 
21.8125 -8 0 22.875 -8 0 23.9375 -8 0 
8.53125 -8 0 9.59375 -8 0 10.6562 -8 0 
11.7188 -8 0 12.7812 -8 0 13.8438 -8 0 
14.9062 -8 0 15.9688 -8 0 17.0312 -8 0 
18.0938 -8 0 19.1562 -8 0 20.2188 -8 0 
21.2812 -8 0 22.3438 -8 0 23.4062 -8 0 
24.4688 -8 0 8 -9.01724 0 8 -10.0345 0 
8 -11.0517 0 8 -12.069 0 8 -13.0862 0 
8 -14.1034 0 8 -15.1207 0 8 -16.1379 0 
8 -17.1552 0 8 -18.1724 0 8 -19.1897 0 
8 -20.2069 0 8 -21.2241 0 8 -22.2414 0 
8 -23.2586 0 8 -24.2759 0 8 -25.2931 0 
8 -26.3103 0 8 -27.3276 0 8 -28.3448 0 
8 -29.3621 0 8 -30.3793 0 8 -31.3966 0 
8 -32.4138 0 8 -33.431 0 8 -34.4483 0 
8 -35.4655 0 8 -36.4828 0 8 -8.50862 0 
8 -9.52586 0 8 -10.5431 0 8 -11.5603 0 
8 -12.5776 0 8 -13.5948 0 8 -14.6121 0 
8 -15.6293 0 8 -16.6466 0 8 -17.6638 0 
8 -18.681 0 8 -19.6983 0 8 -20.7155 0 
8 -21.7328 0 8 -22.75 0 8 -23.7672 0 
8 -24.7845 0 8 -25.8017 0 8 -26.819 0 
8 -27.8362 0 8 -28.8534 0 8 -29.8707 0 
8 -30.8879 0 8 -31.9052 0 8 -32.9224 0 
8 -33.9397 0 8 -34.9569 0 8 -35.9741 0 
8 -36.9914 0 -8 -9.01724 0 -8 -10.0345 0 
-8 -11.0517 0 -8 -12.069 0 -8 -13.0862 0 
-8 -14.1034 0 -8 -15.1207 0 -8 -16.1379 0 
-8 -17.1552 0 -8 -18.1724 0 -8 -19.1897 0 
-8 -20.2069 0 -8 -21.2241 0 -8 -22.2414 0 
-8 -23.2586 0 -8 -24.2759 0 -8 -25.2931 0 
-8 -26.3103 0 -8 -27.3276 0 -8 -28.3448 0 
-8 -29.3621 0 -8 -30.3793 0 -8 -31.3966 0 
-8 -32.4138 0 -8 -33.431 0 -8 -34.4483 0 
-8 -35.4655 0 -8 -36.4828 0 -8 -8.50862 0 
-8 -9.52586 0 -8 -10.5431 0 -8 -11.5603 0 
-8 -12.5776 0 -8 -13.5948 0 -8 -14.6121 0 
-8 -15.6293 0 -8 -16.6466 0 -8 -17.6638 0 
-8 -18.681 0 -8 -19.6983 0 -8 -20.7155 0 
-8 -21.7328 0 -8 -22.75 0 -8 -23.7672 0 
-8 -24.7845 0 -8 -25.8017 0 -8 -26.819 0 
-8 -27.8362 0 -8 -28.8534 0 -8 -29.8707 0 
-8 -30.8879 0 -8 -31.9052 0 -8 -32.9224 0 
-8 -33.9397 0 -8 -34.9569 0 -8 -35.9741 0 
-8 -36.9914 0 -9.0625 -8 0 -10.125 -8 0 
-11.1875 -8 0 -12.25 -8 0 -13.3125 -8 0 
-14.375 -8 0 -15.4375 -8 0 -16.5 -8 0 
-17.5625 -8 0 -18.625 -8 0 -19.6875 -8 0 
-20.75 -8 0 -21.8125 -8 0 -22.875 -8 0 
-23.9375 -8 0 -8.53125 -8 0 -9.59375 -8 0 
-10.6562 -8 0 -11.7188 -8 0 -12.7812 -8 0 
-13.8438 -8 0 -14.9062 -8 0 -15.9688 -8 0 
-17.0312 -8 0 -18.0938 -8 0 -19.1562 -8 0 
-20.2188 -8 0 -21.2812 -8 0 -22.3438 -8 0 
-23.4062 -8 0 -24.4688 -8 0 -9.0625 8 0 
-10.125 8 0 -11.1875 8 0 -12.25 8 0 
-13.3125 8 0 -14.375 8 0 -15.4375 8 0 
-16.5 8 0 -17.5625 8 0 -18.625 8 0 
-19.6875 8 0 -20.75 8 0 -21.8125 8 0 
-22.875 8 0 -23.9375 8 0 -8.53125 8 0 
-9.59375 8 0 -10.6562 8 0 -11.7188 8 0 
-12.7812 8 0 -13.8438 8 0 -14.9062 8 0 
-15.9688 8 0 -17.0312 8 0 -18.0938 8 0 
-19.1562 8 0 -20.2188 8 0 -21.2812 8 0 
-22.3438 8 0 -23.4062 8 0 -24.4688 8 0 
-8 9.01724 0 -8 10.0345 0 -8 11.0517 0 
-8 12.069 0 -8 13.0862 0 -8 14.1034 0 
-8 15.1207 0 -8 16.1379 0 -8 17.1552 0 
-8 18.1724 0 -8 19.1897 0 -8 20.2069 0 
-8 21.2241 0 -8 22.2414 0 -8 23.2586 0 
-8 24.2759 0 -8 25.2931 0 -8 26.3103 0 
-8 27.3276 0 -8 28.3448 0 -8 29.3621 0 
-8 30.3793 0 -8 31.3966 0 -8 32.4138 0 
-8 33.431 0 -8 34.4483 0 -8 35.4655 0 
-8 36.4828 0 -8 8.50862 0 -8 9.52586 0 
-8 10.5431 0 -8 11.5603 0 -8 12.5776 0 
-8 13.5948 0 -8 14.6121 0 -8 15.6293 0 
-8 16.6466 0 -8 17.6638 0 -8 18.681 0 
-8 19.6983 0 -8 20.7155 0 -8 21.7328 0 
-8 22.75 0 -8 23.7672 0 -8 24.7845 0 
-8 25.8017 0 -8 26.819 0 -8 27.8362 0 
-8 28.8534 0 -8 29.8707 0 -8 30.8879 0 
-8 31.9052 0 -8 32.9224 0 -8 33.9397 0 
-8 34.9569 0 -8 35.9741 0 -8 36.9914 0 
8 9.01724 0 8 10.0345 0 8 11.0517 0 
8 12.069 0 8 13.0862 0 8 14.1034 0 
8 15.1207 0 8 16.1379 0 8 17.1552 0 
8 18.1724 0 8 19.1897 0 8 20.2069 0 
8 21.2241 0 8 22.2414 0 8 23.2586 0 
8 24.2759 0 8 25.2931 0 8 26.3103 0 
8 27.3276 0 8 28.3448 0 8 29.3621 0 
8 30.3793 0 8 31.3966 0 8 32.4138 0 
8 33.431 0 8 34.4483 0 8 35.4655 0 
8 36.4828 0 8 8.50862 0 8 9.52586 0 
8 10.5431 0 8 11.5603 0 8 12.5776 0 
8 13.5948 0 8 14.6121 0 8 15.6293 0 
8 16.6466 0 8 17.6638 0 8 18.681 0 
8 19.6983 0 8 20.7155 0 8 21.7328 0 
8 22.75 0 8 23.7672 0 8 24.7845 0 
8 25.8017 0 8 26.819 0 8 27.8362 0 
8 28.8534 0 8 29.8707 0 8 30.8879 0 
8 31.9052 0 8 32.9224 0 8 33.9397 0 
8 34.9569 0 8 35.9741 0 8 36.9914 0 
2.89894 2.36062 0 3.11019 2.03912 0 3.2899 1.69714 0 
3.43608 1.33807 0 3.54715 0.965524 0 3.62187 0.583239 0 
3.65944 0.195069 0 3.65944 -0.195069 0 3.62187 -0.583239 0 
3.54715 -0.965524 0 3.43608 -1.33807 0 3.2899 -1.69714 0 
3.11019 -2.03912 0 2.89894 -2.36062 0 3.06706 2.51133 0 
3.27135 2.16527 0 3.44514 1.7994 0 3.5865 1.41702 0 
3.69391 1.02159 0 3.76617 0.61675 0 3.8025 0.206218 0 
3.8025 -0.206218 0 3.76617 -0.61675 0 3.69391 -1.02159 0 
3.5865 -1.41702 0 3.44514 -1.7994 0 3.27135 -2.16527 0 
3.06706 -2.51133 0 3.25386 2.67879 0 3.45042 2.30544 0 
3.61762 1.91303 0 3.75364 1.50473 0 3.85697 1.08389 0 
3.9265 0.653984 0 3.96145 0.218605 0 3.96145 -0.218605 0 
3.9265 -0.653984 0 3.85697 -1.08389 0 3.75364 -1.50473 0 
3.61762 -1.91303 0 3.45042 -2.30544 0 3.25386 -2.67879 0 
3.46142 2.86485 0 3.64938 2.46118 0 3.80927 2.03929 0 
3.93934 1.60219 0 4.03816 1.15311 0 4.10464 0.695356 0 
4.13807 0.232369 0 4.13807 -0.232369 0 4.10464 -0.695356 0 
4.03816 -1.15311 0 3.93934 -1.60219 0 3.80927 -2.03929 0 
3.64938 -2.46118 0 3.46142 -2.86485 0 3.69205 3.07158 0 
3.87046 2.63423 0 4.02222 2.17957 0 4.14568 1.71049 0 
4.23947 1.23002 0 4.30258 0.741324 0 4.33431 0.247662 0 
4.33431 -0.247662 0 4.30258 -0.741324 0 4.23947 -1.23002 0 
4.14568 -1.71049 0 4.02222 -2.17957 0 3.87046 -2.63423 0 
3.69205 -3.07158 0 3.94829 3.30129 0 4.11609 2.8265 0 
4.25883 2.33544 0 4.37494 1.83081 0 4.46316 1.31547 0 
4.52251 0.7924 0 4.55235 0.264655 0 4.55235 -0.264655 0 
4.52251 -0.7924 0 4.46316 -1.31547 0 4.37494 -1.83081 0 
4.25883 -2.33544 0 4.11609 -2.8265 0 3.94829 -3.30129 0 
4.23301 3.55652 0 4.38902 3.04014 0 4.52172 2.50863 0 
4.62968 1.9645 0 4.7117 1.41042 0 4.76688 0.849151 0 
4.79462 0.283535 0 4.79462 -0.283535 0 4.76688 -0.849151 0 
4.7117 -1.41042 0 4.62968 -1.9645 0 4.52172 -2.50863 0 
4.38902 -3.04014 0 4.23301 -3.55652 0 4.54937 3.8401 0 
4.69227 3.27751 0 4.81383 2.70106 0 4.91272 2.11305 0 
4.98785 1.51592 0 5.0384 0.912208 0 5.06381 0.304513 0 
5.06381 -0.304513 0 5.0384 -0.912208 0 4.98785 -1.51592 0 
4.91272 -2.11305 0 4.81383 -2.70106 0 4.69227 -3.27751 0 
4.54937 -3.8401 0 4.90087 4.1552 0 5.02922 3.54126 0 
5.1384 2.91487 0 5.22721 2.2781 0 5.29469 1.63314 0 
5.34009 0.982271 0 5.36291 0.327822 0 5.36291 -0.327822 0 
5.34009 -0.982271 0 5.29469 -1.63314 0 5.22721 -2.2781 0 
5.1384 -2.91487 0 5.02922 -3.54126 0 4.90087 -4.1552 0 
5.29143 4.50531 0 5.4036 3.83431 0 5.49902 3.15244 0 
5.57664 2.46149 0 5.63562 1.76339 0 5.67529 1.06012 0 
5.69524 0.353721 0 5.69524 -0.353721 0 5.67529 -1.06012 0 
5.63562 -1.76339 0 5.57664 -2.46149 0 5.49902 -3.15244 0 
5.4036 -3.83431 0 5.29143 -4.50531 0 5.72539 4.89432 0 
5.81959 4.15993 0 5.89972 3.4164 0 5.9649 2.66526 0 
6.01443 1.90811 0 6.04775 1.14662 0 6.0645 0.382498 0 
6.0645 -0.382498 0 6.04775 -1.14662 0 6.01443 -1.90811 0 
5.9649 -2.66526 0 5.89972 -3.4164 0 5.81959 -4.15993 0 
5.72539 -4.89432 0 6.20756 5.32655 0 6.28179 4.52172 0 
6.34494 3.7097 0 6.3963 2.89167 0 6.43533 2.06891 0 
6.46159 1.24272 0 6.47479 0.414472 0 6.47479 -0.414472 0 
6.46159 -1.24272 0 6.43533 -2.06891 0 6.3963 -2.89167 0 
6.34494 -3.7097 0 6.28179 -4.52172 0 6.20756 -5.32655 0 
6.74331 5.8068 0 6.79535 4.92372 0 6.83962 4.03558 0 
6.87564 3.14324 0 6.903 2.24757 0 6.92141 1.34951 0 
6.93066 0.449999 0 6.93066 -0.449999 0 6.92141 -1.34951 0 
6.903 -2.24757 0 6.87564 -3.14324 0 6.83962 -4.03558 0 
6.79535 -4.92372 0 6.74331 -5.8068 0 7.33858 6.34042 0 
7.36597 5.37038 0 7.38928 4.39767 0 7.40823 3.42276 0 
7.42263 2.44609 0 7.43232 1.46816 0 7.43719 0.489473 0 
7.43719 -0.489473 0 7.43232 -1.46816 0 7.42263 -2.44609 0 
7.40823 -3.42276 0 7.38928 -4.39767 0 7.36597 -5.37038 0 
7.33858 -6.34042 0 2.82328 2.2928 0 2.77869 2.50953 0 
3.03767 1.98236 0 3.00457 2.19987 0 3.22004 1.65112 0 
3.20005 1.86813 0 3.36839 1.30255 0 3.36299 1.5176 0 
3.48111 0.940294 0 3.49162 1.1518 0 3.55694 0.568159 0 
3.58451 0.774382 0 3.59506 0.190052 0 3.64066 0.389154 0 
3.59506 -0.190052 0 3.65944 -6.74261e-09 0 3.55694 -0.568159 0 
3.64066 -0.389154 0 3.48111 -0.940294 0 3.58451 -0.774382 0 
3.36839 -1.30255 0 3.49162 -1.1518 0 3.22004 -1.65112 0 
3.36299 -1.5176 0 3.03767 -1.98236 0 3.20005 -1.86813 0 
2.82328 -2.2928 0 3.00457 -2.19987 0 2.77869 -2.50953 0 
2.983 2.43598 0 2.95078 2.67291 0 3.19077 2.1022 0 
3.16921 2.3383 0 3.36752 1.74827 0 3.35824 1.98234 0 
3.51129 1.37754 0 3.51582 1.60821 0 3.62053 0.993557 0 
3.6402 1.2193 0 3.69402 0.599995 0 3.73004 0.819171 0 
3.73097 0.200644 0 3.78433 0.411484 0 3.73097 -0.200644 0 
3.8025 -6.5197e-09 0 3.69402 -0.599995 0 3.78433 -0.411484 0 
3.62053 -0.993558 0 3.73004 -0.819171 0 3.51129 -1.37754 0 
3.6402 -1.2193 0 3.36752 -1.74827 0 3.51582 -1.60821 0 
3.19077 -2.1022 0 3.35824 -1.98234 0 2.983 -2.43598 0 
3.16921 -2.3383 0 2.95078 -2.67291 0 3.16046 2.59506 0 
3.14198 2.85445 0 3.36089 2.23536 0 3.35214 2.49211 0 
3.53138 1.85622 0 3.53402 2.10924 0 3.67007 1.46087 0 
3.68563 1.70888 0 3.77544 1.05274 0 3.8053 1.29431 0 
3.84633 0.635367 0 3.89174 0.868936 0 3.88198 0.212412 0 
3.94398 0.436295 0 3.88198 -0.212412 0 3.96145 -6.27202e-09 0 
3.84633 -0.635367 0 3.94398 -0.436295 0 3.77544 -1.05274 0 
3.89174 -0.868936 0 3.67007 -1.46087 0 3.8053 -1.29431 0 
3.53138 -1.85622 0 3.68563 -1.70888 0 3.36089 -2.23536 0 
3.53402 -2.10924 0 3.16046 -2.59506 0 3.35214 -2.49211 0 
3.14198 -2.85445 0 3.35764 2.77182 0 3.35444 3.05615 0 
3.5499 2.38331 0 3.5554 2.66302 0 3.71345 1.97616 0 
3.72933 2.25023 0 3.84649 1.55346 0 3.87431 1.82074 0 
3.94756 1.1185 0 3.98875 1.37765 0 4.01557 0.67467 0 
4.0714 0.924231 0 4.04976 0.225487 0 4.12136 0.463863 0 
4.04976 -0.225487 0 4.13807 -5.99683e-09 0 4.01557 -0.67467 0 
4.12136 -0.463863 0 3.94756 -1.1185 0 4.0714 -0.924231 0 
3.84649 -1.55346 0 3.98875 -1.37765 0 3.71345 -1.97616 0 
3.87431 -1.82074 0 3.5499 -2.38331 0 3.72933 -2.25023 0 
3.35764 -2.77182 0 3.5554 -2.66302 0 3.35444 -3.05615 0 
3.57674 2.96822 0 3.5905 3.28026 0 3.75992 2.54771 0 
3.78125 2.85291 0 3.91575 2.10943 0 3.94634 2.4069 0 
4.04251 1.65634 0 4.08395 1.94503 0 4.13881 1.19156 0 
4.19257 1.47025 0 4.20361 0.71834 0 4.27103 0.98567 0 
4.23619 0.240016 0 4.31844 0.494493 0 4.23619 -0.240016 0 
4.33431 -5.69105e-09 0 4.20361 -0.71834 0 4.31844 -0.494493 0 
4.13881 -1.19156 0 4.27103 -0.98567 0 4.04251 -1.65634 0 
4.19257 -1.47025 0 3.91575 -2.10943 0 4.08395 -1.94503 0 
3.75992 -2.54771 0 3.94634 -2.4069 0 3.57674 -2.96822 0 
3.78125 -2.85291 0 3.5905 -3.28026 0 3.82017 3.18644 0 
3.85278 3.52928 0 3.99327 2.73036 0 4.03219 3.06389 0 
4.14052 2.2575 0 4.18746 2.58097 0 4.26031 1.77065 0 
4.31688 2.08312 0 4.35132 1.27274 0 4.41905 1.57314 0 
4.41255 0.766862 0 4.49283 1.05394 0 4.44333 0.256159 0 
4.53743 0.528527 0 4.44333 -0.256159 0 4.55235 -5.35131e-09 0 
4.41255 -0.766862 0 4.53743 -0.528527 0 4.35132 -1.27274 0 
4.49283 -1.05394 0 4.26031 -1.77065 0 4.41905 -1.57314 0 
4.14052 -2.2575 0 4.31688 -2.08312 0 3.99327 -2.73036 0 
4.18746 -2.58097 0 3.82017 -3.18644 0 4.03219 -3.06389 0 
3.85278 -3.52928 0 4.09065 3.4289 0 4.14421 3.80597 0 
4.25255 2.93332 0 4.31101 3.29833 0 4.39028 2.42203 0 
4.45537 2.77438 0 4.50231 1.89766 0 4.5757 2.23656 0 
4.58743 1.36295 0 4.67069 1.68746 0 4.64469 0.820776 0 
4.73929 1.12979 0 4.67349 0.274095 0 4.78075 0.566343 0 
4.67349 -0.274095 0 4.79462 -4.97381e-09 0 4.64469 -0.820776 0 
4.78075 -0.566343 0 4.58743 -1.36295 0 4.73929 -1.12979 0 
4.50231 -1.89766 0 4.67069 -1.68746 0 4.39028 -2.42203 0 
4.5757 -2.23656 0 4.25255 -2.93332 0 4.45537 -2.77438 0 
4.09065 -3.4289 0 4.31101 -3.29833 0 4.14421 -3.80597 0 
4.39119 3.69831 0 4.46802 4.11339 0 4.54064 3.15882 0 
4.62082 3.55881 0 4.66778 2.60484 0 4.75305 2.98928 0 
4.7712 2.03878 0 4.86328 2.40705 0 4.84977 1.46317 0 
4.95028 1.81449 0 4.90264 0.88068 0 5.01312 1.21406 0 
4.92922 0.294024 0 5.0511 0.608361 0 4.92922 -0.294024 0 
5.06381 -4.55437e-09 0 4.90264 -0.88068 0 5.0511 -0.608361 0 
4.84977 -1.46317 0 5.01312 -1.21406 0 4.7712 -2.03878 0 
4.95028 -1.81449 0 4.66778 -2.60484 0 4.86328 -2.40705 0 
4.54064 -3.15882 0 4.75305 -2.98928 0 4.39119 -3.69831 0 
4.62082 -3.55881 0 4.46802 -4.11339 0 4.72512 3.99765 0 
4.82781 4.45498 0 4.86074 3.40938 0 4.96504 3.84823 0 
4.97611 2.80796 0 5.08381 3.22806 0 5.06996 2.19558 0 
5.1828 2.59649 0 5.14127 1.57453 0 5.26095 1.95562 0 
5.18924 0.947239 0 5.31739 1.30771 0 5.21336 0.316168 0 
5.3515 0.655047 0 5.21336 -0.316168 0 5.36291 -4.08832e-09 0 
5.18924 -0.947239 0 5.3515 -0.655047 0 5.14127 -1.57453 0 
5.31739 -1.30771 0 5.06996 -2.19558 0 5.26095 -1.95562 0 
4.97611 -2.80796 0 5.1828 -2.59649 0 4.86074 -3.40938 0 
5.08381 -3.22806 0 4.72512 -3.99765 0 4.96504 -3.84823 0 
4.82781 -4.45498 0 5.09615 4.33025 0 5.22758 4.83452 0 
5.21641 3.68779 0 5.34752 4.16981 0 5.31871 3.03365 0 
5.45131 3.49338 0 5.40193 2.3698 0 5.53783 2.80697 0 
5.46515 1.69827 0 5.60613 2.11244 0 5.50769 1.02119 0 
5.65546 1.41175 0 5.52908 0.340772 0 5.68527 0.70692 0 
5.52908 -0.340772 0 5.69524 -3.57049e-09 0 5.50769 -1.02119 0 
5.68527 -0.70692 0 5.46515 -1.69827 0 5.65546 -1.41175 0 
5.40193 -2.3698 0 5.60613 -2.11244 0 5.31871 -3.03365 0 
5.53783 -2.80697 0 5.21641 -3.68779 0 5.45131 -3.49338 0 
5.09615 -4.33025 0 5.34752 -4.16981 0 5.22758 -4.83452 0 
5.50841 4.69981 0 5.67177 5.25623 0 5.61159 3.99712 0 
5.77249 4.52712 0 5.69937 3.28442 0 5.85965 3.78817 0 
5.77077 2.56338 0 5.93231 3.04083 0 5.82502 1.83575 0 
5.98967 2.28669 0 5.86152 1.10337 0 6.03109 1.52736 0 
5.87987 0.36811 0 6.05613 0.764557 0 5.87987 -0.36811 0 
6.0645 -2.99513e-09 0 5.86152 -1.10337 0 6.05613 -0.764557 0 
5.82502 -1.83575 0 6.03109 -1.52736 0 5.77077 -2.56338 0 
5.98967 -2.28669 0 5.69937 -3.28442 0 5.93231 -3.04083 0 
5.61159 -3.99712 0 5.85965 -3.78817 0 5.50841 -4.69981 0 
5.77249 -4.52712 0 5.67177 -5.25623 0 5.96647 5.11043 0 
6.16531 5.7248 0 6.05069 4.34083 0 6.24468 4.92414 0 
6.12233 3.56305 0 6.31336 4.11571 0 6.1806 2.77847 0 
6.37062 3.30069 0 6.22488 1.98851 0 6.41582 2.48029 0 
6.25467 1.19467 0 6.44846 1.65582 0 6.26965 0.398485 0 
6.46819 0.828598 0 6.26965 -0.398485 0 6.47479 -2.35583e-09 0 
6.25467 -1.19467 0 6.46819 -0.828598 0 6.22488 -1.98851 0 
6.44846 -1.65582 0 6.1806 -2.77847 0 6.41582 -2.48029 0 
6.12233 -3.56305 0 6.37062 -3.30069 0 6.05069 -4.34083 0 
6.31336 -4.11571 0 5.96647 -5.11043 0 6.24468 -4.92414 0 
6.16531 -5.7248 0 6.47543 5.56668 0 6.71368 6.24543 0 
6.53857 4.72272 0 6.76933 5.36526 0 6.59228 3.87264 0 
6.81749 4.47965 0 6.63597 3.01746 0 6.85763 3.58941 0 
6.66917 2.15824 0 6.88932 2.69541 0 6.6915 1.29612 0 
6.9122 1.79854 0 6.70273 0.432236 0 6.92604 0.899755 0 
6.70273 -0.432236 0 6.93066 -1.6455e-09 0 6.6915 -1.29612 0 
6.92604 -0.899755 0 6.66917 -2.15824 0 6.9122 -1.79854 0 
6.63597 -3.01746 0 6.88932 -2.69541 0 6.59228 -3.87264 0 
6.85763 -3.58941 0 6.53857 -4.72272 0 6.81749 -4.47965 0 
6.47543 -5.56668 0 6.76933 -5.36526 0 6.71368 -6.24543 0 
7.04094 6.07361 0 7.32299 6.82391 0 7.08066 5.14705 0 
7.35228 5.8554 0 7.11445 4.21663 0 7.37762 4.88403 0 
7.14193 3.283 0 7.39875 3.91022 0 7.16282 2.34683 0 
7.41543 2.93442 0 7.17686 1.40884 0 7.42748 1.95713 0 
7.18393 0.469736 0 7.43476 0.978819 0 7.18393 -0.469736 0 
7.43719 -8.5625e-10 0 7.17686 -1.40884 0 7.43476 -0.978819 0 
7.16282 -2.34683 0 7.42748 -1.95713 0 7.14193 -3.283 0 
7.41543 -2.93442 0 7.11445 -4.21663 0 7.39875 -3.91022 0 
7.08066 -5.14705 0 7.37762 -4.88403 0 7.04094 -6.07361 0 
7.35228 -5.8554 0 7.32299 -6.82391 0 7.66929 6.63688 0 
7.68299 5.61852 0 7.69464 4.59884 0 7.70412 3.57805 0 
7.71132 2.55638 0 7.71616 1.53408 0 7.7186 0.511403 0 
7.7186 -0.511403 0 7.71616 -1.53408 0 7.71132 -2.55638 0 
7.70412 -3.57805 0 7.69464 -4.59884 0 7.68299 -5.61852 0 
7.66929 -6.63688 0 2.36062 -2.89894 0 2.03912 -3.11019 0 
1.69714 -3.2899 0 1.33807 -3.43608 0 0.965524 -3.54715 0 
0.583239 -3.62187 0 0.195069 -3.65944 0 -0.195069 -3.65944 0 
-0.583239 -3.62187 0 -0.965524 -3.54715 0 -1.33807 -3.43608 0 
-1.69714 -3.2899 0 -2.03912 -3.11019 0 -2.36062 -2.89894 0 
2.51133 -3.06706 0 2.16527 -3.27135 0 1.7994 -3.44514 0 
1.41702 -3.5865 0 1.02159 -3.69391 0 0.61675 -3.76617 0 
0.206218 -3.8025 0 -0.206218 -3.8025 0 -0.61675 -3.76617 0 
-1.02159 -3.69391 0 -1.41702 -3.5865 0 -1.7994 -3.44514 0 
-2.16527 -3.27135 0 -2.51133 -3.06706 0 2.67879 -3.25386 0 
2.30544 -3.45042 0 1.91303 -3.61762 0 1.50473 -3.75364 0 
1.08389 -3.85697 0 0.653984 -3.9265 0 0.218605 -3.96145 0 
-0.218605 -3.96145 0 -0.653984 -3.9265 0 -1.08389 -3.85697 0 
-1.50473 -3.75364 0 -1.91303 -3.61762 0 -2.30544 -3.45042 0 
-2.67879 -3.25386 0 2.86485 -3.46142 0 2.46118 -3.64938 0 
2.03929 -3.80927 0 1.60219 -3.93934 0 1.15311 -4.03816 0 
0.695356 -4.10464 0 0.232369 -4.13807 0 -0.232369 -4.13807 0 
-0.695356 -4.10464 0 -1.15311 -4.03816 0 -1.60219 -3.93934 0 
-2.03929 -3.80927 0 -2.46118 -3.64938 0 -2.86485 -3.46142 0 
3.07158 -3.69205 0 2.63423 -3.87046 0 2.17957 -4.02222 0 
1.71049 -4.14568 0 1.23002 -4.23947 0 0.741324 -4.30258 0 
0.247662 -4.33431 0 -0.247662 -4.33431 0 -0.741324 -4.30258 0 
-1.23002 -4.23947 0 -1.71049 -4.14568 0 -2.17957 -4.02222 0 
-2.63423 -3.87046 0 -3.07158 -3.69205 0 3.30129 -3.94829 0 
2.8265 -4.11609 0 2.33544 -4.25883 0 1.83081 -4.37494 0 
1.31547 -4.46316 0 0.7924 -4.52251 0 0.264655 -4.55235 0 
-0.264655 -4.55235 0 -0.7924 -4.52251 0 -1.31547 -4.46316 0 
-1.83081 -4.37494 0 -2.33544 -4.25883 0 -2.8265 -4.11609 0 
-3.30129 -3.94829 0 3.55652 -4.23301 0 3.04014 -4.38902 0 
2.50863 -4.52172 0 1.9645 -4.62968 0 1.41042 -4.7117 0 
0.849151 -4.76688 0 0.283535 -4.79462 0 -0.283535 -4.79462 0 
-0.849151 -4.76688 0 -1.41042 -4.7117 0 -1.9645 -4.62968 0 
-2.50863 -4.52172 0 -3.04014 -4.38902 0 -3.55652 -4.23301 0 
3.8401 -4.54937 0 3.27751 -4.69227 0 2.70106 -4.81383 0 
2.11305 -4.91272 0 1.51592 -4.98785 0 0.912208 -5.0384 0 
0.304513 -5.06381 0 -0.304513 -5.06381 0 -0.912208 -5.0384 0 
-1.51592 -4.98785 0 -2.11305 -4.91272 0 -2.70106 -4.81383 0 
-3.27751 -4.69227 0 -3.8401 -4.54937 0 4.1552 -4.90087 0 
3.54126 -5.02922 0 2.91487 -5.1384 0 2.2781 -5.22721 0 
1.63314 -5.29469 0 0.982271 -5.34009 0 0.327822 -5.36291 0 
-0.327822 -5.36291 0 -0.982271 -5.34009 0 -1.63314 -5.29469 0 
-2.2781 -5.22721 0 -2.91487 -5.1384 0 -3.54126 -5.02922 0 
-4.1552 -4.90087 0 4.50531 -5.29143 0 3.83431 -5.4036 0 
3.15244 -5.49902 0 2.46149 -5.57664 0 1.76339 -5.63562 0 
1.06012 -5.67529 0 0.353721 -5.69524 0 -0.353721 -5.69524 0 
-1.06012 -5.67529 0 -1.76339 -5.63562 0 -2.46149 -5.57664 0 
-3.15244 -5.49902 0 -3.83431 -5.4036 0 -4.50531 -5.29143 0 
4.89432 -5.72539 0 4.15993 -5.81959 0 3.4164 -5.89972 0 
2.66526 -5.9649 0 1.90811 -6.01443 0 1.14662 -6.04775 0 
0.382498 -6.0645 0 -0.382498 -6.0645 0 -1.14662 -6.04775 0 
-1.90811 -6.01443 0 -2.66526 -5.9649 0 -3.4164 -5.89972 0 
-4.15993 -5.81959 0 -4.89432 -5.72539 0 5.32655 -6.20756 0 
4.52172 -6.28179 0 3.7097 -6.34494 0 2.89167 -6.3963 0 
2.06891 -6.43533 0 1.24272 -6.46159 0 0.414472 -6.47479 0 
-0.414472 -6.47479 0 -1.24272 -6.46159 0 -2.06891 -6.43533 0 
-2.89167 -6.3963 0 -3.7097 -6.34494 0 -4.52172 -6.28179 0 
-5.32655 -6.20756 0 5.8068 -6.74331 0 4.92372 -6.79535 0 
4.03558 -6.83962 0 3.14324 -6.87564 0 2.24757 -6.903 0 
1.34951 -6.92141 0 0.449999 -6.93066 0 -0.449999 -6.93066 0 
-1.34951 -6.92141 0 -2.24757 -6.903 0 -3.14324 -6.87564 0 
-4.03558 -6.83962 0 -4.92372 -6.79535 0 -5.8068 -6.74331 0 
6.34042 -7.33858 0 5.37038 -7.36597 0 4.39767 -7.38928 0 
3.42276 -7.40823 0 2.44609 -7.42263 0 1.46816 -7.43232 0 
0.489473 -7.43719 0 -0.489473 -7.43719 0 -1.46816 -7.43232 0 
-2.44609 -7.42263 0 -3.42276 -7.40823 0 -4.39767 -7.38928 0 
-5.37038 -7.36597 0 -6.34042 -7.33858 0 2.2928 -2.82328 0 
2.50953 -2.77869 0 1.98236 -3.03767 0 2.19987 -3.00457 0 
1.65112 -3.22004 0 1.86813 -3.20005 0 1.30255 -3.36839 0 
1.5176 -3.36299 0 0.940294 -3.48111 0 1.1518 -3.49162 0 
0.568159 -3.55694 0 0.774382 -3.58451 0 0.190052 -3.59506 0 
0.389154 -3.64066 0 -0.190052 -3.59506 0 -6.74261e-09 -3.65944 0 
-0.568159 -3.55694 0 -0.389154 -3.64066 0 -0.940294 -3.48111 0 
-0.774382 -3.58451 0 -1.30255 -3.36839 0 -1.1518 -3.49162 0 
-1.65112 -3.22004 0 -1.5176 -3.36299 0 -1.98236 -3.03767 0 
-1.86813 -3.20005 0 -2.2928 -2.82328 0 -2.19987 -3.00457 0 
-2.50953 -2.77869 0 2.43598 -2.983 0 2.67291 -2.95078 0 
2.1022 -3.19077 0 2.3383 -3.16921 0 1.74827 -3.36752 0 
1.98234 -3.35824 0 1.37754 -3.51129 0 1.60821 -3.51582 0 
0.993557 -3.62053 0 1.2193 -3.6402 0 0.599995 -3.69402 0 
0.819171 -3.73004 0 0.200644 -3.73097 0 0.411484 -3.78433 0 
-0.200644 -3.73097 0 -6.5197e-09 -3.8025 0 -0.599995 -3.69402 0 
-0.411484 -3.78433 0 -0.993558 -3.62053 0 -0.819171 -3.73004 0 
-1.37754 -3.51129 0 -1.2193 -3.6402 0 -1.74827 -3.36752 0 
-1.60821 -3.51582 0 -2.1022 -3.19077 0 -1.98234 -3.35824 0 
-2.43598 -2.983 0 -2.3383 -3.16921 0 -2.67291 -2.95078 0 
2.59506 -3.16046 0 2.85445 -3.14198 0 2.23536 -3.36089 0 
2.49211 -3.35214 0 1.85622 -3.53138 0 2.10924 -3.53402 0 
1.46087 -3.67007 0 1.70888 -3.68563 0 1.05274 -3.77544 0 
1.29431 -3.8053 0 0.635367 -3.84633 0 0.868936 -3.89174 0 
0.212412 -3.88198 0 0.436295 -3.94398 0 -0.212412 -3.88198 0 
-6.27202e-09 -3.96145 0 -0.635367 -3.84633 0 -0.436295 -3.94398 0 
-1.05274 -3.77544 0 -0.868936 -3.89174 0 -1.46087 -3.67007 0 
-1.29431 -3.8053 0 -1.85622 -3.53138 0 -1.70888 -3.68563 0 
-2.23536 -3.36089 0 -2.10924 -3.53402 0 -2.59506 -3.16046 0 
-2.49211 -3.35214 0 -2.85445 -3.14198 0 2.77182 -3.35764 0 
3.05615 -3.35444 0 2.38331 -3.5499 0 2.66302 -3.5554 0 
1.97616 -3.71345 0 2.25023 -3.72933 0 1.55346 -3.84649 0 
1.82074 -3.87431 0 1.1185 -3.94756 0 1.37765 -3.98875 0 
0.67467 -4.01557 0 0.924231 -4.0714 0 0.225487 -4.04976 0 
0.463863 -4.12136 0 -0.225487 -4.04976 0 -5.99683e-09 -4.13807 0 
-0.67467 -4.01557 0 -0.463863 -4.12136 0 -1.1185 -3.94756 0 
-0.924231 -4.0714 0 -1.55346 -3.84649 0 -1.37765 -3.98875 0 
-1.97616 -3.71345 0 -1.82074 -3.87431 0 -2.38331 -3.5499 0 
-2.25023 -3.72933 0 -2.77182 -3.35764 0 -2.66302 -3.5554 0 
-3.05615 -3.35444 0 2.96822 -3.57674 0 3.28026 -3.5905 0 
2.54771 -3.75992 0 2.85291 -3.78125 0 2.10943 -3.91575 0 
2.4069 -3.94634 0 1.65634 -4.04251 0 1.94503 -4.08395 0 
1.19156 -4.13881 0 1.47025 -4.19257 0 0.71834 -4.20361 0 
0.98567 -4.27103 0 0.240016 -4.23619 0 0.494493 -4.31844 0 
-0.240016 -4.23619 0 -5.69105e-09 -4.33431 0 -0.71834 -4.20361 0 
-0.494493 -4.31844 0 -1.19156 -4.13881 0 -0.98567 -4.27103 0 
-1.65634 -4.04251 0 -1.47025 -4.19257 0 -2.10943 -3.91575 0 
-1.94503 -4.08395 0 -2.54771 -3.75992 0 -2.4069 -3.94634 0 
-2.96822 -3.57674 0 -2.85291 -3.78125 0 -3.28026 -3.5905 0 
3.18644 -3.82017 0 3.52928 -3.85278 0 2.73036 -3.99327 0 
3.06389 -4.03219 0 2.2575 -4.14052 0 2.58097 -4.18746 0 
1.77065 -4.26031 0 2.08312 -4.31688 0 1.27274 -4.35132 0 
1.57314 -4.41905 0 0.766862 -4.41255 0 1.05394 -4.49283 0 
0.256159 -4.44333 0 0.528527 -4.53743 0 -0.256159 -4.44333 0 
-5.35131e-09 -4.55235 0 -0.766862 -4.41255 0 -0.528527 -4.53743 0 
-1.27274 -4.35132 0 -1.05394 -4.49283 0 -1.77065 -4.26031 0 
-1.57314 -4.41905 0 -2.2575 -4.14052 0 -2.08312 -4.31688 0 
-2.73036 -3.99327 0 -2.58097 -4.18746 0 -3.18644 -3.82017 0 
-3.06389 -4.03219 0 -3.52928 -3.85278 0 3.4289 -4.09065 0 
3.80597 -4.14421 0 2.93332 -4.25255 0 3.29833 -4.31101 0 
2.42203 -4.39028 0 2.77438 -4.45537 0 1.89766 -4.50231 0 
2.23656 -4.5757 0 1.36295 -4.58743 0 1.68746 -4.67069 0 
0.820776 -4.64469 0 1.12979 -4.73929 0 0.274095 -4.67349 0 
0.566343 -4.78075 0 -0.274095 -4.67349 0 -4.97381e-09 -4.79462 0 
-0.820776 -4.64469 0 -0.566343 -4.78075 0 -1.36295 -4.58743 0 
-1.12979 -4.73929 0 -1.89766 -4.50231 0 -1.68746 -4.67069 0 
-2.42203 -4.39028 0 -2.23656 -4.5757 0 -2.93332 -4.25255 0 
-2.77438 -4.45537 0 -3.4289 -4.09065 0 -3.29833 -4.31101 0 
-3.80597 -4.14421 0 3.69831 -4.39119 0 4.11339 -4.46802 0 
3.15882 -4.54064 0 3.55881 -4.62082 0 2.60484 -4.66778 0 
2.98928 -4.75305 0 2.03878 -4.7712 0 2.40705 -4.86328 0 
1.46317 -4.84977 0 1.81449 -4.95028 0 0.88068 -4.90264 0 
1.21406 -5.01312 0 0.294024 -4.92922 0 0.608361 -5.0511 0 
-0.294024 -4.92922 0 -4.55437e-09 -5.06381 0 -0.88068 -4.90264 0 
-0.608361 -5.0511 0 -1.46317 -4.84977 0 -1.21406 -5.01312 0 
-2.03878 -4.7712 0 -1.81449 -4.95028 0 -2.60484 -4.66778 0 
-2.40705 -4.86328 0 -3.15882 -4.54064 0 -2.98928 -4.75305 0 
-3.69831 -4.39119 0 -3.55881 -4.62082 0 -4.11339 -4.46802 0 
3.99765 -4.72512 0 4.45498 -4.82781 0 3.40938 -4.86074 0 
3.84823 -4.96504 0 2.80796 -4.97611 0 3.22806 -5.08381 0 
2.19558 -5.06996 0 2.59649 -5.1828 0 1.57453 -5.14127 0 
1.95562 -5.26095 0 0.947239 -5.18924 0 1.30771 -5.31739 0 
0.316168 -5.21336 0 0.655047 -5.3515 0 -0.316168 -5.21336 0 
-4.08832e-09 -5.36291 0 -0.947239 -5.18924 0 -0.655047 -5.3515 0 
-1.57453 -5.14127 0 -1.30771 -5.31739 0 -2.19558 -5.06996 0 
-1.95562 -5.26095 0 -2.80796 -4.97611 0 -2.59649 -5.1828 0 
-3.40938 -4.86074 0 -3.22806 -5.08381 0 -3.99765 -4.72512 0 
-3.84823 -4.96504 0 -4.45498 -4.82781 0 4.33025 -5.09615 0 
4.83452 -5.22758 0 3.68779 -5.21641 0 4.16981 -5.34752 0 
3.03365 -5.31871 0 3.49338 -5.45131 0 2.3698 -5.40193 0 
2.80697 -5.53783 0 1.69827 -5.46515 0 2.11244 -5.60613 0 
1.02119 -5.50769 0 1.41175 -5.65546 0 0.340772 -5.52908 0 
0.70692 -5.68527 0 -0.340772 -5.52908 0 -3.57049e-09 -5.69524 0 
-1.02119 -5.50769 0 -0.70692 -5.68527 0 -1.69827 -5.46515 0 
-1.41175 -5.65546 0 -2.3698 -5.40193 0 -2.11244 -5.60613 0 
-3.03365 -5.31871 0 -2.80697 -5.53783 0 -3.68779 -5.21641 0 
-3.49338 -5.45131 0 -4.33025 -5.09615 0 -4.16981 -5.34752 0 
-4.83452 -5.22758 0 4.69981 -5.50841 0 5.25623 -5.67177 0 
3.99712 -5.61159 0 4.52712 -5.77249 0 3.28442 -5.69937 0 
3.78817 -5.85965 0 2.56338 -5.77077 0 3.04083 -5.93231 0 
1.83575 -5.82502 0 2.28669 -5.98967 0 1.10337 -5.86152 0 
1.52736 -6.03109 0 0.36811 -5.87987 0 0.764557 -6.05613 0 
-0.36811 -5.87987 0 -2.99513e-09 -6.0645 0 -1.10337 -5.86152 0 
-0.764557 -6.05613 0 -1.83575 -5.82502 0 -1.52736 -6.03109 0 
-2.56338 -5.77077 0 -2.28669 -5.98967 0 -3.28442 -5.69937 0 
-3.04083 -5.93231 0 -3.99712 -5.61159 0 -3.78817 -5.85965 0 
-4.69981 -5.50841 0 -4.52712 -5.77249 0 -5.25623 -5.67177 0 
5.11043 -5.96647 0 5.7248 -6.16531 0 4.34083 -6.05069 0 
4.92414 -6.24468 0 3.56305 -6.12233 0 4.11571 -6.31336 0 
2.77847 -6.1806 0 3.30069 -6.37062 0 1.98851 -6.22488 0 
2.48029 -6.41582 0 1.19467 -6.25467 0 1.65582 -6.44846 0 
0.398485 -6.26965 0 0.828598 -6.46819 0 -0.398485 -6.26965 0 
-2.35583e-09 -6.47479 0 -1.19467 -6.25467 0 -0.828598 -6.46819 0 
-1.98851 -6.22488 0 -1.65582 -6.44846 0 -2.77847 -6.1806 0 
-2.48029 -6.41582 0 -3.56305 -6.12233 0 -3.30069 -6.37062 0 
-4.34083 -6.05069 0 -4.11571 -6.31336 0 -5.11043 -5.96647 0 
-4.92414 -6.24468 0 -5.7248 -6.16531 0 5.56668 -6.47543 0 
6.24543 -6.71368 0 4.72272 -6.53857 0 5.36526 -6.76933 0 
3.87264 -6.59228 0 4.47965 -6.81749 0 3.01746 -6.63597 0 
3.58941 -6.85763 0 2.15824 -6.66917 0 2.69541 -6.88932 0 
1.29612 -6.6915 0 1.79854 -6.9122 0 0.432236 -6.70273 0 
0.899755 -6.92604 0 -0.432236 -6.70273 0 -1.6455e-09 -6.93066 0 
-1.29612 -6.6915 0 -0.899755 -6.92604 0 -2.15824 -6.66917 0 
-1.79854 -6.9122 0 -3.01746 -6.63597 0 -2.69541 -6.88932 0 
-3.87264 -6.59228 0 -3.58941 -6.85763 0 -4.72272 -6.53857 0 
-4.47965 -6.81749 0 -5.56668 -6.47543 0 -5.36526 -6.76933 0 
-6.24543 -6.71368 0 6.07361 -7.04094 0 6.82391 -7.32299 0 
5.14705 -7.08066 0 5.8554 -7.35228 0 4.21663 -7.11445 0 
4.88403 -7.37762 0 3.283 -7.14193 0 3.91022 -7.39875 0 
2.34683 -7.16282 0 2.93442 -7.41543 0 1.40884 -7.17686 0 
1.95713 -7.42748 0 0.469736 -7.18393 0 0.978819 -7.43476 0 
-0.469736 -7.18393 0 -8.5625e-10 -7.43719 0 -1.40884 -7.17686 0 
-0.978819 -7.43476 0 -2.34683 -7.16282 0 -1.95713 -7.42748 0 
-3.283 -7.14193 0 -2.93442 -7.41543 0 -4.21663 -7.11445 0 
-3.91022 -7.39875 0 -5.14705 -7.08066 0 -4.88403 -7.37762 0 
-6.07361 -7.04094 0 -5.8554 -7.35228 0 -6.82391 -7.32299 0 
6.63688 -7.66929 0 5.61852 -7.68299 0 4.59884 -7.69464 0 
3.57805 -7.70412 0 2.55638 -7.71132 0 1.53408 -7.71616 0 
0.511403 -7.7186 0 -0.511403 -7.7186 0 -1.53408 -7.71616 0 
-2.55638 -7.71132 0 -3.57805 -7.70412 0 -4.59884 -7.69464 0 
-5.61852 -7.68299 0 -6.63688 -7.66929 0 -2.89894 -2.36062 0 
-3.11019 -2.03912 0 -3.2899 -1.69714 0 -3.43608 -1.33807 0 
-3.54715 -0.965524 0 -3.62187 -0.583239 0 -3.65944 -0.195069 0 
-3.65944 0.195069 0 -3.62187 0.583239 0 -3.54715 0.965524 0 
-3.43608 1.33807 0 -3.2899 1.69714 0 -3.11019 2.03912 0 
-2.89894 2.36062 0 -3.06706 -2.51133 0 -3.27135 -2.16527 0 
-3.44514 -1.7994 0 -3.5865 -1.41702 0 -3.69391 -1.02159 0 
-3.76617 -0.61675 0 -3.8025 -0.206218 0 -3.8025 0.206218 0 
-3.76617 0.61675 0 -3.69391 1.02159 0 -3.5865 1.41702 0 
-3.44514 1.7994 0 -3.27135 2.16527 0 -3.06706 2.51133 0 
-3.25386 -2.67879 0 -3.45042 -2.30544 0 -3.61762 -1.91303 0 
-3.75364 -1.50473 0 -3.85697 -1.08389 0 -3.9265 -0.653984 0 
-3.96145 -0.218605 0 -3.96145 0.218605 0 -3.9265 0.653984 0 
-3.85697 1.08389 0 -3.75364 1.50473 0 -3.61762 1.91303 0 
-3.45042 2.30544 0 -3.25386 2.67879 0 -3.46142 -2.86485 0 
-3.64938 -2.46118 0 -3.80927 -2.03929 0 -3.93934 -1.60219 0 
-4.03816 -1.15311 0 -4.10464 -0.695356 0 -4.13807 -0.232369 0 
-4.13807 0.232369 0 -4.10464 0.695356 0 -4.03816 1.15311 0 
-3.93934 1.60219 0 -3.80927 2.03929 0 -3.64938 2.46118 0 
-3.46142 2.86485 0 -3.69205 -3.07158 0 -3.87046 -2.63423 0 
-4.02222 -2.17957 0 -4.14568 -1.71049 0 -4.23947 -1.23002 0 
-4.30258 -0.741324 0 -4.33431 -0.247662 0 -4.33431 0.247662 0 
-4.30258 0.741324 0 -4.23947 1.23002 0 -4.14568 1.71049 0 
-4.02222 2.17957 0 -3.87046 2.63423 0 -3.69205 3.07158 0 
-3.94829 -3.30129 0 -4.11609 -2.8265 0 -4.25883 -2.33544 0 
-4.37494 -1.83081 0 -4.46316 -1.31547 0 -4.52251 -0.7924 0 
-4.55235 -0.264655 0 -4.55235 0.264655 0 -4.52251 0.7924 0 
-4.46316 1.31547 0 -4.37494 1.83081 0 -4.25883 2.33544 0 
-4.11609 2.8265 0 -3.94829 3.30129 0 -4.23301 -3.55652 0 
-4.38902 -3.04014 0 -4.52172 -2.50863 0 -4.62968 -1.9645 0 
-4.7117 -1.41042 0 -4.76688 -0.849151 0 -4.79462 -0.283535 0 
-4.79462 0.283535 0 -4.76688 0.849151 0 -4.7117 1.41042 0 
-4.62968 1.9645 0 -4.52172 2.50863 0 -4.38902 3.04014 0 
-4.23301 3.55652 0 -4.54937 -3.8401 0 -4.69227 -3.27751 0 
-4.81383 -2.70106 0 -4.91272 -2.11305 0 -4.98785 -1.51592 0 
-5.0384 -0.912208 0 -5.06381 -0.304513 0 -5.06381 0.304513 0 
-5.0384 0.912208 0 -4.98785 1.51592 0 -4.91272 2.11305 0 
-4.81383 2.70106 0 -4.69227 3.27751 0 -4.54937 3.8401 0 
-4.90087 -4.1552 0 -5.02922 -3.54126 0 -5.1384 -2.91487 0 
-5.22721 -2.2781 0 -5.29469 -1.63314 0 -5.34009 -0.982271 0 
-5.36291 -0.327822 0 -5.36291 0.327822 0 -5.34009 0.982271 0 
-5.29469 1.63314 0 -5.22721 2.2781 0 -5.1384 2.91487 0 
-5.02922 3.54126 0 -4.90087 4.1552 0 -5.29143 -4.50531 0 
-5.4036 -3.83431 0 -5.49902 -3.15244 0 -5.57664 -2.46149 0 
-5.63562 -1.76339 0 -5.67529 -1.06012 0 -5.69524 -0.353721 0 
-5.69524 0.353721 0 -5.67529 1.06012 0 -5.63562 1.76339 0 
-5.57664 2.46149 0 -5.49902 3.15244 0 -5.4036 3.83431 0 
-5.29143 4.50531 0 -5.72539 -4.89432 0 -5.81959 -4.15993 0 
-5.89972 -3.4164 0 -5.9649 -2.66526 0 -6.01443 -1.90811 0 
-6.04775 -1.14662 0 -6.0645 -0.382498 0 -6.0645 0.382498 0 
-6.04775 1.14662 0 -6.01443 1.90811 0 -5.9649 2.66526 0 
-5.89972 3.4164 0 -5.81959 4.15993 0 -5.72539 4.89432 0 
-6.20756 -5.32655 0 -6.28179 -4.52172 0 -6.34494 -3.7097 0 
-6.3963 -2.89167 0 -6.43533 -2.06891 0 -6.46159 -1.24272 0 
-6.47479 -0.414472 0 -6.47479 0.414472 0 -6.46159 1.24272 0 
-6.43533 2.06891 0 -6.3963 2.89167 0 -6.34494 3.7097 0 
-6.28179 4.52172 0 -6.20756 5.32655 0 -6.74331 -5.8068 0 
-6.79535 -4.92372 0 -6.83962 -4.03558 0 -6.87564 -3.14324 0 
-6.903 -2.24757 0 -6.92141 -1.34951 0 -6.93066 -0.449999 0 
-6.93066 0.449999 0 -6.92141 1.34951 0 -6.903 2.24757 0 
-6.87564 3.14324 0 -6.83962 4.03558 0 -6.79535 4.92372 0 
-6.74331 5.8068 0 -7.33858 -6.34042 0 -7.36597 -5.37038 0 
-7.38928 -4.39767 0 -7.40823 -3.42276 0 -7.42263 -2.44609 0 
-7.43232 -1.46816 0 -7.43719 -0.489473 0 -7.43719 0.489473 0 
-7.43232 1.46816 0 -7.42263 2.44609 0 -7.40823 3.42276 0 
-7.38928 4.39767 0 -7.36597 5.37038 0 -7.33858 6.34042 0 
-2.82328 -2.2928 0 -2.77869 -2.50953 0 -3.03767 -1.98236 0 
-3.00457 -2.19987 0 -3.22004 -1.65112 0 -3.20005 -1.86813 0 
-3.36839 -1.30255 0 -3.36299 -1.5176 0 -3.48111 -0.940294 0 
-3.49162 -1.1518 0 -3.55694 -0.568159 0 -3.58451 -0.774382 0 
-3.59506 -0.190052 0 -3.64066 -0.389154 0 -3.59506 0.190052 0 
-3.65944 6.74261e-09 0 -3.55694 0.568159 0 -3.64066 0.389154 0 
-3.48111 0.940294 0 -3.58451 0.774382 0 -3.36839 1.30255 0 
-3.49162 1.1518 0 -3.22004 1.65112 0 -3.36299 1.5176 0 
-3.03767 1.98236 0 -3.20005 1.86813 0 -2.82328 2.2928 0 
-3.00457 2.19987 0 -2.77869 2.50953 0 -2.983 -2.43598 0 
-2.95078 -2.67291 0 -3.19077 -2.1022 0 -3.16921 -2.3383 0 
-3.36752 -1.74827 0 -3.35824 -1.98234 0 -3.51129 -1.37754 0 
-3.51582 -1.60821 0 -3.62053 -0.993557 0 -3.6402 -1.2193 0 
-3.69402 -0.599995 0 -3.73004 -0.819171 0 -3.73097 -0.200644 0 
-3.78433 -0.411484 0 -3.73097 0.200644 0 -3.8025 6.5197e-09 0 
-3.69402 0.599995 0 -3.78433 0.411484 0 -3.62053 0.993558 0 
-3.73004 0.819171 0 -3.51129 1.37754 0 -3.6402 1.2193 0 
-3.36752 1.74827 0 -3.51582 1.60821 0 -3.19077 2.1022 0 
-3.35824 1.98234 0 -2.983 2.43598 0 -3.16921 2.3383 0 
-2.95078 2.67291 0 -3.16046 -2.59506 0 -3.14198 -2.85445 0 
-3.36089 -2.23536 0 -3.35214 -2.49211 0 -3.53138 -1.85622 0 
-3.53402 -2.10924 0 -3.67007 -1.46087 0 -3.68563 -1.70888 0 
-3.77544 -1.05274 0 -3.8053 -1.29431 0 -3.84633 -0.635367 0 
-3.89174 -0.868936 0 -3.88198 -0.212412 0 -3.94398 -0.436295 0 
-3.88198 0.212412 0 -3.96145 6.27202e-09 0 -3.84633 0.635367 0 
-3.94398 0.436295 0 -3.77544 1.05274 0 -3.89174 0.868936 0 
-3.67007 1.46087 0 -3.8053 1.29431 0 -3.53138 1.85622 0 
-3.68563 1.70888 0 -3.36089 2.23536 0 -3.53402 2.10924 0 
-3.16046 2.59506 0 -3.35214 2.49211 0 -3.14198 2.85445 0 
-3.35764 -2.77182 0 -3.35444 -3.05615 0 -3.5499 -2.38331 0 
-3.5554 -2.66302 0 -3.71345 -1.97616 0 -3.72933 -2.25023 0 
-3.84649 -1.55346 0 -3.87431 -1.82074 0 -3.94756 -1.1185 0 
-3.98875 -1.37765 0 -4.01557 -0.67467 0 -4.0714 -0.924231 0 
-4.04976 -0.225487 0 -4.12136 -0.463863 0 -4.04976 0.225487 0 
-4.13807 5.99683e-09 0 -4.01557 0.67467 0 -4.12136 0.463863 0 
-3.94756 1.1185 0 -4.0714 0.924231 0 -3.84649 1.55346 0 
-3.98875 1.37765 0 -3.71345 1.97616 0 -3.87431 1.82074 0 
-3.5499 2.38331 0 -3.72933 2.25023 0 -3.35764 2.77182 0 
-3.5554 2.66302 0 -3.35444 3.05615 0 -3.57674 -2.96822 0 
-3.5905 -3.28026 0 -3.75992 -2.54771 0 -3.78125 -2.85291 0 
-3.91575 -2.10943 0 -3.94634 -2.4069 0 -4.04251 -1.65634 0 
-4.08395 -1.94503 0 -4.13881 -1.19156 0 -4.19257 -1.47025 0 
-4.20361 -0.71834 0 -4.27103 -0.98567 0 -4.23619 -0.240016 0 
-4.31844 -0.494493 0 -4.23619 0.240016 0 -4.33431 5.69105e-09 0 
-4.20361 0.71834 0 -4.31844 0.494493 0 -4.13881 1.19156 0 
-4.27103 0.98567 0 -4.04251 1.65634 0 -4.19257 1.47025 0 
-3.91575 2.10943 0 -4.08395 1.94503 0 -3.75992 2.54771 0 
-3.94634 2.4069 0 -3.57674 2.96822 0 -3.78125 2.85291 0 
-3.5905 3.28026 0 -3.82017 -3.18644 0 -3.85278 -3.52928 0 
-3.99327 -2.73036 0 -4.03219 -3.06389 0 -4.14052 -2.2575 0 
-4.18746 -2.58097 0 -4.26031 -1.77065 0 -4.31688 -2.08312 0 
-4.35132 -1.27274 0 -4.41905 -1.57314 0 -4.41255 -0.766862 0 
-4.49283 -1.05394 0 -4.44333 -0.256159 0 -4.53743 -0.528527 0 
-4.44333 0.256159 0 -4.55235 5.35131e-09 0 -4.41255 0.766862 0 
-4.53743 0.528527 0 -4.35132 1.27274 0 -4.49283 1.05394 0 
-4.26031 1.77065 0 -4.41905 1.57314 0 -4.14052 2.2575 0 
-4.31688 2.08312 0 -3.99327 2.73036 0 -4.18746 2.58097 0 
-3.82017 3.18644 0 -4.03219 3.06389 0 -3.85278 3.52928 0 
-4.09065 -3.4289 0 -4.14421 -3.80597 0 -4.25255 -2.93332 0 
-4.31101 -3.29833 0 -4.39028 -2.42203 0 -4.45537 -2.77438 0 
-4.50231 -1.89766 0 -4.5757 -2.23656 0 -4.58743 -1.36295 0 
-4.67069 -1.68746 0 -4.64469 -0.820776 0 -4.73929 -1.12979 0 
-4.67349 -0.274095 0 -4.78075 -0.566343 0 -4.67349 0.274095 0 
-4.79462 4.97381e-09 0 -4.64469 0.820776 0 -4.78075 0.566343 0 
-4.58743 1.36295 0 -4.73929 1.12979 0 -4.50231 1.89766 0 
-4.67069 1.68746 0 -4.39028 2.42203 0 -4.5757 2.23656 0 
-4.25255 2.93332 0 -4.45537 2.77438 0 -4.09065 3.4289 0 
-4.31101 3.29833 0 -4.14421 3.80597 0 -4.39119 -3.69831 0 
-4.46802 -4.11339 0 -4.54064 -3.15882 0 -4.62082 -3.55881 0 
-4.66778 -2.60484 0 -4.75305 -2.98928 0 -4.7712 -2.03878 0 
-4.86328 -2.40705 0 -4.84977 -1.46317 0 -4.95028 -1.81449 0 
-4.90264 -0.88068 0 -5.01312 -1.21406 0 -4.92922 -0.294024 0 
-5.0511 -0.608361 0 -4.92922 0.294024 0 -5.06381 4.55437e-09 0 
-4.90264 0.88068 0 -5.0511 0.608361 0 -4.84977 1.46317 0 
-5.01312 1.21406 0 -4.7712 2.03878 0 -4.95028 1.81449 0 
-4.66778 2.60484 0 -4.86328 2.40705 0 -4.54064 3.15882 0 
-4.75305 2.98928 0 -4.39119 3.69831 0 -4.62082 3.55881 0 
-4.46802 4.11339 0 -4.72512 -3.99765 0 -4.82781 -4.45498 0 
-4.86074 -3.40938 0 -4.96504 -3.84823 0 -4.97611 -2.80796 0 
-5.08381 -3.22806 0 -5.06996 -2.19558 0 -5.1828 -2.59649 0 
-5.14127 -1.57453 0 -5.26095 -1.95562 0 -5.18924 -0.947239 0 
-5.31739 -1.30771 0 -5.21336 -0.316168 0 -5.3515 -0.655047 0 
-5.21336 0.316168 0 -5.36291 4.08832e-09 0 -5.18924 0.947239 0 
-5.3515 0.655047 0 -5.14127 1.57453 0 -5.31739 1.30771 0 
-5.06996 2.19558 0 -5.26095 1.95562 0 -4.97611 2.80796 0 
-5.1828 2.59649 0 -4.86074 3.40938 0 -5.08381 3.22806 0 
-4.72512 3.99765 0 -4.96504 3.84823 0 -4.82781 4.45498 0 
-5.09615 -4.33025 0 -5.22758 -4.83452 0 -5.21641 -3.68779 0 
-5.34752 -4.16981 0 -5.31871 -3.03365 0 -5.45131 -3.49338 0 
-5.40193 -2.3698 0 -5.53783 -2.80697 0 -5.46515 -1.69827 0 
-5.60613 -2.11244 0 -5.50769 -1.02119 0 -5.65546 -1.41175 0 
-5.52908 -0.340772 0 -5.68527 -0.70692 0 -5.52908 0.340772 0 
-5.69524 3.57049e-09 0 -5.50769 1.02119 0 -5.68527 0.70692 0 
-5.46515 1.69827 0 -5.65546 1.41175 0 -5.40193 2.3698 0 
-5.60613 2.11244 0 -5.31871 3.03365 0 -5.53783 2.80697 0 
-5.21641 3.68779 0 -5.45131 3.49338 0 -5.09615 4.33025 0 
-5.34752 4.16981 0 -5.22758 4.83452 0 -5.50841 -4.69981 0 
-5.67177 -5.25623 0 -5.61159 -3.99712 0 -5.77249 -4.52712 0 
-5.69937 -3.28442 0 -5.85965 -3.78817 0 -5.77077 -2.56338 0 
-5.93231 -3.04083 0 -5.82502 -1.83575 0 -5.98967 -2.28669 0 
-5.86152 -1.10337 0 -6.03109 -1.52736 0 -5.87987 -0.36811 0 
-6.05613 -0.764557 0 -5.87987 0.36811 0 -6.0645 2.99513e-09 0 
-5.86152 1.10337 0 -6.05613 0.764557 0 -5.82502 1.83575 0 
-6.03109 1.52736 0 -5.77077 2.56338 0 -5.98967 2.28669 0 
-5.69937 3.28442 0 -5.93231 3.04083 0 -5.61159 3.99712 0 
-5.85965 3.78817 0 -5.50841 4.69981 0 -5.77249 4.52712 0 
-5.67177 5.25623 0 -5.96647 -5.11043 0 -6.16531 -5.7248 0 
-6.05069 -4.34083 0 -6.24468 -4.92414 0 -6.12233 -3.56305 0 
-6.31336 -4.11571 0 -6.1806 -2.77847 0 -6.37062 -3.30069 0 
-6.22488 -1.98851 0 -6.41582 -2.48029 0 -6.25467 -1.19467 0 
-6.44846 -1.65582 0 -6.26965 -0.398485 0 -6.46819 -0.828598 0 
-6.26965 0.398485 0 -6.47479 2.35583e-09 0 -6.25467 1.19467 0 
-6.46819 0.828598 0 -6.22488 1.98851 0 -6.44846 1.65582 0 
-6.1806 2.77847 0 -6.41582 2.48029 0 -6.12233 3.56305 0 
-6.37062 3.30069 0 -6.05069 4.34083 0 -6.31336 4.11571 0 
-5.96647 5.11043 0 -6.24468 4.92414 0 -6.16531 5.7248 0 
-6.47543 -5.56668 0 -6.71368 -6.24543 0 -6.53857 -4.72272 0 
-6.76933 -5.36526 0 -6.59228 -3.87264 0 -6.81749 -4.47965 0 
-6.63597 -3.01746 0 -6.85763 -3.58941 0 -6.66917 -2.15824 0 
-6.88932 -2.69541 0 -6.6915 -1.29612 0 -6.9122 -1.79854 0 
-6.70273 -0.432236 0 -6.92604 -0.899755 0 -6.70273 0.432236 0 
-6.93066 1.6455e-09 0 -6.6915 1.29612 0 -6.92604 0.899755 0 
-6.66917 2.15824 0 -6.9122 1.79854 0 -6.63597 3.01746 0 
-6.88932 2.69541 0 -6.59228 3.87264 0 -6.85763 3.58941 0 
-6.53857 4.72272 0 -6.81749 4.47965 0 -6.47543 5.56668 0 
-6.76933 5.36526 0 -6.71368 6.24543 0 -7.04094 -6.07361 0 
-7.32299 -6.82391 0 -7.08066 -5.14705 0 -7.35228 -5.8554 0 
-7.11445 -4.21663 0 -7.37762 -4.88403 0 -7.14193 -3.283 0 
-7.39875 -3.91022 0 -7.16282 -2.34683 0 -7.41543 -2.93442 0 
-7.17686 -1.40884 0 -7.42748 -1.95713 0 -7.18393 -0.469736 0 
-7.43476 -0.978819 0 -7.18393 0.469736 0 -7.43719 8.5625e-10 0 
-7.17686 1.40884 0 -7.43476 0.978819 0 -7.16282 2.34683 0 
-7.42748 1.95713 0 -7.14193 3.283 0 -7.41543 2.93442 0 
-7.11445 4.21663 0 -7.39875 3.91022 0 -7.08066 5.14705 0 
-7.37762 4.88403 0 -7.04094 6.07361 0 -7.35228 5.8554 0 
-7.32299 6.82391 0 -7.66929 -6.63688 0 -7.68299 -5.61852 0 
-7.69464 -4.59884 0 -7.70412 -3.57805 0 -7.71132 -2.55638 0 
-7.71616 -1.53408 0 -7.7186 -0.511403 0 -7.7186 0.511403 0 
-7.71616 1.53408 0 -7.71132 2.55638 0 -7.70412 3.57805 0 
-7.69464 4.59884 0 -7.68299 5.61852 0 -7.66929 6.63688 0 
-2.36062 2.89894 0 -2.03912 3.11019 0 -1.69714 3.2899 0 
-1.33807 3.43608 0 -0.965524 3.54715 0 -0.583239 3.62187 0 
-0.195069 3.65944 0 0.195069 3.65944 0 0.583239 3.62187 0 
0.965524 3.54715 0 1.33807 3.43608 0 1.69714 3.2899 0 
2.03912 3.11019 0 2.36062 2.89894 0 -2.51133 3.06706 0 
-2.16527 3.27135 0 -1.7994 3.44514 0 -1.41702 3.5865 0 
-1.02159 3.69391 0 -0.61675 3.76617 0 -0.206218 3.8025 0 
0.206218 3.8025 0 0.61675 3.76617 0 1.02159 3.69391 0 
1.41702 3.5865 0 1.7994 3.44514 0 2.16527 3.27135 0 
2.51133 3.06706 0 -2.67879 3.25386 0 -2.30544 3.45042 0 
-1.91303 3.61762 0 -1.50473 3.75364 0 -1.08389 3.85697 0 
-0.653984 3.9265 0 -0.218605 3.96145 0 0.218605 3.96145 0 
0.653984 3.9265 0 1.08389 3.85697 0 1.50473 3.75364 0 
1.91303 3.61762 0 2.30544 3.45042 0 2.67879 3.25386 0 
-2.86485 3.46142 0 -2.46118 3.64938 0 -2.03929 3.80927 0 
-1.60219 3.93934 0 -1.15311 4.03816 0 -0.695356 4.10464 0 
-0.232369 4.13807 0 0.232369 4.13807 0 0.695356 4.10464 0 
1.15311 4.03816 0 1.60219 3.93934 0 2.03929 3.80927 0 
2.46118 3.64938 0 2.86485 3.46142 0 -3.07158 3.69205 0 
-2.63423 3.87046 0 -2.17957 4.02222 0 -1.71049 4.14568 0 
-1.23002 4.23947 0 -0.741324 4.30258 0 -0.247662 4.33431 0 
0.247662 4.33431 0 0.741324 4.30258 0 1.23002 4.23947 0 
1.71049 4.14568 0 2.17957 4.02222 0 2.63423 3.87046 0 
3.07158 3.69205 0 -3.30129 3.94829 0 -2.8265 4.11609 0 
-2.33544 4.25883 0 -1.83081 4.37494 0 -1.31547 4.46316 0 
-0.7924 4.52251 0 -0.264655 4.55235 0 0.264655 4.55235 0 
0.7924 4.52251 0 1.31547 4.46316 0 1.83081 4.37494 0 
2.33544 4.25883 0 2.8265 4.11609 0 3.30129 3.94829 0 
-3.55652 4.23301 0 -3.04014 4.38902 0 -2.50863 4.52172 0 
-1.9645 4.62968 0 -1.41042 4.7117 0 -0.849151 4.76688 0 
-0.283535 4.79462 0 0.283535 4.79462 0 0.849151 4.76688 0 
1.41042 4.7117 0 1.9645 4.62968 0 2.50863 4.52172 0 
3.04014 4.38902 0 3.55652 4.23301 0 -3.8401 4.54937 0 
-3.27751 4.69227 0 -2.70106 4.81383 0 -2.11305 4.91272 0 
-1.51592 4.98785 0 -0.912208 5.0384 0 -0.304513 5.06381 0 
0.304513 5.06381 0 0.912208 5.0384 0 1.51592 4.98785 0 
2.11305 4.91272 0 2.70106 4.81383 0 3.27751 4.69227 0 
3.8401 4.54937 0 -4.1552 4.90087 0 -3.54126 5.02922 0 
-2.91487 5.1384 0 -2.2781 5.22721 0 -1.63314 5.29469 0 
-0.982271 5.34009 0 -0.327822 5.36291 0 0.327822 5.36291 0 
0.982271 5.34009 0 1.63314 5.29469 0 2.2781 5.22721 0 
2.91487 5.1384 0 3.54126 5.02922 0 4.1552 4.90087 0 
-4.50531 5.29143 0 -3.83431 5.4036 0 -3.15244 5.49902 0 
-2.46149 5.57664 0 -1.76339 5.63562 0 -1.06012 5.67529 0 
-0.353721 5.69524 0 0.353721 5.69524 0 1.06012 5.67529 0 
1.76339 5.63562 0 2.46149 5.57664 0 3.15244 5.49902 0 
3.83431 5.4036 0 4.50531 5.29143 0 -4.89432 5.72539 0 
-4.15993 5.81959 0 -3.4164 5.89972 0 -2.66526 5.9649 0 
-1.90811 6.01443 0 -1.14662 6.04775 0 -0.382498 6.0645 0 
0.382498 6.0645 0 1.14662 6.04775 0 1.90811 6.01443 0 
2.66526 5.9649 0 3.4164 5.89972 0 4.15993 5.81959 0 
4.89432 5.72539 0 -5.32655 6.20756 0 -4.52172 6.28179 0 
-3.7097 6.34494 0 -2.89167 6.3963 0 -2.06891 6.43533 0 
-1.24272 6.46159 0 -0.414472 6.47479 0 0.414472 6.47479 0 
1.24272 6.46159 0 2.06891 6.43533 0 2.89167 6.3963 0 
3.7097 6.34494 0 4.52172 6.28179 0 5.32655 6.20756 0 
-5.8068 6.74331 0 -4.92372 6.79535 0 -4.03558 6.83962 0 
-3.14324 6.87564 0 -2.24757 6.903 0 -1.34951 6.92141 0 
-0.449999 6.93066 0 0.449999 6.93066 0 1.34951 6.92141 0 
2.24757 6.903 0 3.14324 6.87564 0 4.03558 6.83962 0 
4.92372 6.79535 0 5.8068 6.74331 0 -6.34042 7.33858 0 
-5.37038 7.36597 0 -4.39767 7.38928 0 -3.42276 7.40823 0 
-2.44609 7.42263 0 -1.46816 7.43232 0 -0.489473 7.43719 0 
0.489473 7.43719 0 1.46816 7.43232 0 2.44609 7.42263 0 
3.42276 7.40823 0 4.39767 7.38928 0 5.37038 7.36597 0 
6.34042 7.33858 0 -2.2928 2.82328 0 -2.50953 2.77869 0 
-1.98236 3.03767 0 -2.19987 3.00457 0 -1.65112 3.22004 0 
-1.86813 3.20005 0 -1.30255 3.36839 0 -1.5176 3.36299 0 
-0.940294 3.48111 0 -1.1518 3.49162 0 -0.568159 3.55694 0 
-0.774382 3.58451 0 -0.190052 3.59506 0 -0.389154 3.64066 0 
0.190052 3.59506 0 6.74261e-09 3.65944 0 0.568159 3.55694 0 
0.389154 3.64066 0 0.940294 3.48111 0 0.774382 3.58451 0 
1.30255 3.36839 0 1.1518 3.49162 0 1.65112 3.22004 0 
1.5176 3.36299 0 1.98236 3.03767 0 1.86813 3.20005 0 
2.2928 2.82328 0 2.19987 3.00457 0 2.50953 2.77869 0 
-2.43598 2.983 0 -2.67291 2.95078 0 -2.1022 3.19077 0 
-2.3383 3.16921 0 -1.74827 3.36752 0 -1.98234 3.35824 0 
-1.37754 3.51129 0 -1.60821 3.51582 0 -0.993557 3.62053 0 
-1.2193 3.6402 0 -0.599995 3.69402 0 -0.819171 3.73004 0 
-0.200644 3.73097 0 -0.411484 3.78433 0 0.200644 3.73097 0 
6.5197e-09 3.8025 0 0.599995 3.69402 0 0.411484 3.78433 0 
0.993558 3.62053 0 0.819171 3.73004 0 1.37754 3.51129 0 
1.2193 3.6402 0 1.74827 3.36752 0 1.60821 3.51582 0 
2.1022 3.19077 0 1.98234 3.35824 0 2.43598 2.983 0 
2.3383 3.16921 0 2.67291 2.95078 0 -2.59506 3.16046 0 
-2.85445 3.14198 0 -2.23536 3.36089 0 -2.49211 3.35214 0 
-1.85622 3.53138 0 -2.10924 3.53402 0 -1.46087 3.67007 0 
-1.70888 3.68563 0 -1.05274 3.77544 0 -1.29431 3.8053 0 
-0.635367 3.84633 0 -0.868936 3.89174 0 -0.212412 3.88198 0 
-0.436295 3.94398 0 0.212412 3.88198 0 6.27202e-09 3.96145 0 
0.635367 3.84633 0 0.436295 3.94398 0 1.05274 3.77544 0 
0.868936 3.89174 0 1.46087 3.67007 0 1.29431 3.8053 0 
1.85622 3.53138 0 1.70888 3.68563 0 2.23536 3.36089 0 
2.10924 3.53402 0 2.59506 3.16046 0 2.49211 3.35214 0 
2.85445 3.14198 0 -2.77182 3.35764 0 -3.05615 3.35444 0 
-2.38331 3.5499 0 -2.66302 3.5554 0 -1.97616 3.71345 0 
-2.25023 3.72933 0 -1.55346 3.84649 0 -1.82074 3.87431 0 
-1.1185 3.94756 0 -1.37765 3.98875 0 -0.67467 4.01557 0 
-0.924231 4.0714 0 -0.225487 4.04976 0 -0.463863 4.12136 0 
0.225487 4.04976 0 5.99683e-09 4.13807 0 0.67467 4.01557 0 
0.463863 4.12136 0 1.1185 3.94756 0 0.924231 4.0714 0 
1.55346 3.84649 0 1.37765 3.98875 0 1.97616 3.71345 0 
1.82074 3.87431 0 2.38331 3.5499 0 2.25023 3.72933 0 
2.77182 3.35764 0 2.66302 3.5554 0 3.05615 3.35444 0 
-2.96822 3.57674 0 -3.28026 3.5905 0 -2.54771 3.75992 0 
-2.85291 3.78125 0 -2.10943 3.91575 0 -2.4069 3.94634 0 
-1.65634 4.04251 0 -1.94503 4.08395 0 -1.19156 4.13881 0 
-1.47025 4.19257 0 -0.71834 4.20361 0 -0.98567 4.27103 0 
-0.240016 4.23619 0 -0.494493 4.31844 0 0.240016 4.23619 0 
5.69105e-09 4.33431 0 0.71834 4.20361 0 0.494493 4.31844 0 
1.19156 4.13881 0 0.98567 4.27103 0 1.65634 4.04251 0 
1.47025 4.19257 0 2.10943 3.91575 0 1.94503 4.08395 0 
2.54771 3.75992 0 2.4069 3.94634 0 2.96822 3.57674 0 
2.85291 3.78125 0 3.28026 3.5905 0 -3.18644 3.82017 0 
-3.52928 3.85278 0 -2.73036 3.99327 0 -3.06389 4.03219 0 
-2.2575 4.14052 0 -2.58097 4.18746 0 -1.77065 4.26031 0 
-2.08312 4.31688 0 -1.27274 4.35132 0 -1.57314 4.41905 0 
-0.766862 4.41255 0 -1.05394 4.49283 0 -0.256159 4.44333 0 
-0.528527 4.53743 0 0.256159 4.44333 0 5.35131e-09 4.55235 0 
0.766862 4.41255 0 0.528527 4.53743 0 1.27274 4.35132 0 
1.05394 4.49283 0 1.77065 4.26031 0 1.57314 4.41905 0 
2.2575 4.14052 0 2.08312 4.31688 0 2.73036 3.99327 0 
2.58097 4.18746 0 3.18644 3.82017 0 3.06389 4.03219 0 
3.52928 3.85278 0 -3.4289 4.09065 0 -3.80597 4.14421 0 
-2.93332 4.25255 0 -3.29833 4.31101 0 -2.42203 4.39028 0 
-2.77438 4.45537 0 -1.89766 4.50231 0 -2.23656 4.5757 0 
-1.36295 4.58743 0 -1.68746 4.67069 0 -0.820776 4.64469 0 
-1.12979 4.73929 0 -0.274095 4.67349 0 -0.566343 4.78075 0 
0.274095 4.67349 0 4.97381e-09 4.79462 0 0.820776 4.64469 0 
0.566343 4.78075 0 1.36295 4.58743 0 1.12979 4.73929 0 
1.89766 4.50231 0 1.68746 4.67069 0 2.42203 4.39028 0 
2.23656 4.5757 0 2.93332 4.25255 0 2.77438 4.45537 0 
3.4289 4.09065 0 3.29833 4.31101 0 3.80597 4.14421 0 
-3.69831 4.39119 0 -4.11339 4.46802 0 -3.15882 4.54064 0 
-3.55881 4.62082 0 -2.60484 4.66778 0 -2.98928 4.75305 0 
-2.03878 4.7712 0 -2.40705 4.86328 0 -1.46317 4.84977 0 
-1.81449 4.95028 0 -0.88068 4.90264 0 -1.21406 5.01312 0 
-0.294024 4.92922 0 -0.608361 5.0511 0 0.294024 4.92922 0 
4.55437e-09 5.06381 0 0.88068 4.90264 0 0.608361 5.0511 0 
1.46317 4.84977 0 1.21406 5.01312 0 2.03878 4.7712 0 
1.81449 4.95028 0 2.60484 4.66778 0 2.40705 4.86328 0 
3.15882 4.54064 0 2.98928 4.75305 0 3.69831 4.39119 0 
3.55881 4.62082 0 4.11339 4.46802 0 -3.99765 4.72512 0 
-4.45498 4.82781 0 -3.40938 4.86074 0 -3.84823 4.96504 0 
-2.80796 4.97611 0 -3.22806 5.08381 0 -2.19558 5.06996 0 
-2.59649 5.1828 0 -1.57453 5.14127 0 -1.95562 5.26095 0 
-0.947239 5.18924 0 -1.30771 5.31739 0 -0.316168 5.21336 0 
-0.655047 5.3515 0 0.316168 5.21336 0 4.08832e-09 5.36291 0 
0.947239 5.18924 0 0.655047 5.3515 0 1.57453 5.14127 0 
1.30771 5.31739 0 2.19558 5.06996 0 1.95562 5.26095 0 
2.80796 4.97611 0 2.59649 5.1828 0 3.40938 4.86074 0 
3.22806 5.08381 0 3.99765 4.72512 0 3.84823 4.96504 0 
4.45498 4.82781 0 -4.33025 5.09615 0 -4.83452 5.22758 0 
-3.68779 5.21641 0 -4.16981 5.34752 0 -3.03365 5.31871 0 
-3.49338 5.45131 0 -2.3698 5.40193 0 -2.80697 5.53783 0 
-1.69827 5.46515 0 -2.11244 5.60613 0 -1.02119 5.50769 0 
-1.41175 5.65546 0 -0.340772 5.52908 0 -0.70692 5.68527 0 
0.340772 5.52908 0 3.57049e-09 5.69524 0 1.02119 5.50769 0 
0.70692 5.68527 0 1.69827 5.46515 0 1.41175 5.65546 0 
2.3698 5.40193 0 2.11244 5.60613 0 3.03365 5.31871 0 
2.80697 5.53783 0 3.68779 5.21641 0 3.49338 5.45131 0 
4.33025 5.09615 0 4.16981 5.34752 0 4.83452 5.22758 0 
-4.69981 5.50841 0 -5.25623 5.67177 0 -3.99712 5.61159 0 
-4.52712 5.77249 0 -3.28442 5.69937 0 -3.78817 5.85965 0 
-2.56338 5.77077 0 -3.04083 5.93231 0 -1.83575 5.82502 0 
-2.28669 5.98967 0 -1.10337 5.86152 0 -1.52736 6.03109 0 
-0.36811 5.87987 0 -0.764557 6.05613 0 0.36811 5.87987 0 
2.99513e-09 6.0645 0 1.10337 5.86152 0 0.764557 6.05613 0 
1.83575 5.82502 0 1.52736 6.03109 0 2.56338 5.77077 0 
2.28669 5.98967 0 3.28442 5.69937 0 3.04083 5.93231 0 
3.99712 5.61159 0 3.78817 5.85965 0 4.69981 5.50841 0 
4.52712 5.77249 0 5.25623 5.67177 0 -5.11043 5.96647 0 
-5.7248 6.16531 0 -4.34083 6.05069 0 -4.92414 6.24468 0 
-3.56305 6.12233 0 -4.11571 6.31336 0 -2.77847 6.1806 0 
-3.30069 6.37062 0 -1.98851 6.22488 0 -2.48029 6.41582 0 
-1.19467 6.25467 0 -1.65582 6.44846 0 -0.398485 6.26965 0 
-0.828598 6.46819 0 0.398485 6.26965 0 2.35583e-09 6.47479 0 
1.19467 6.25467 0 0.828598 6.46819 0 1.98851 6.22488 0 
1.65582 6.44846 0 2.77847 6.1806 0 2.48029 6.41582 0 
3.56305 6.12233 0 3.30069 6.37062 0 4.34083 6.05069 0 
4.11571 6.31336 0 5.11043 5.96647 0 4.92414 6.24468 0 
5.7248 6.16531 0 -5.56668 6.47543 0 -6.24543 6.71368 0 
-4.72272 6.53857 0 -5.36526 6.76933 0 -3.87264 6.59228 0 
-4.47965 6.81749 0 -3.01746 6.63597 0 -3.58941 6.85763 0 
-2.15824 6.66917 0 -2.69541 6.88932 0 -1.29612 6.6915 0 
-1.79854 6.9122 0 -0.432236 6.70273 0 -0.899755 6.92604 0 
0.432236 6.70273 0 1.6455e-09 6.93066 0 1.29612 6.6915 0 
0.899755 6.92604 0 2.15824 6.66917 0 1.79854 6.9122 0 
3.01746 6.63597 0 2.69541 6.88932 0 3.87264 6.59228 0 
3.58941 6.85763 0 4.72272 6.53857 0 4.47965 6.81749 0 
5.56668 6.47543 0 5.36526 6.76933 0 6.24543 6.71368 0 
-6.07361 7.04094 0 -6.82391 7.32299 0 -5.14705 7.08066 0 
-5.8554 7.35228 0 -4.21663 7.11445 0 -4.88403 7.37762 0 
-3.283 7.14193 0 -3.91022 7.39875 0 -2.34683 7.16282 0 
-2.93442 7.41543 0 -1.40884 7.17686 0 -1.95713 7.42748 0 
-0.469736 7.18393 0 -0.978819 7.43476 0 0.469736 7.18393 0 
8.5625e-10 7.43719 0 1.40884 7.17686 0 0.978819 7.43476 0 
2.34683 7.16282 0 1.95713 7.42748 0 3.283 7.14193 0 
2.93442 7.41543 0 4.21663 7.11445 0 3.91022 7.39875 0 
5.14705 7.08066 0 4.88403 7.37762 0 6.07361 7.04094 0 
5.8554 7.35228 0 6.82391 7.32299 0 -6.63688 7.66929 0 
-5.61852 7.68299 0 -4.59884 7.69464 0 -3.57805 7.70412 0 
-2.55638 7.71132 0 -1.53408 7.71616 0 -0.511403 7.7186 0 
0.511403 7.7186 0 1.53408 7.71616 0 2.55638 7.71132 0 
3.57805 7.70412 0 4.59884 7.69464 0 5.61852 7.68299 0 
6.63688 7.66929 0 23.9375 36.4828 0 22.875 36.4828 0 
21.8125 36.4828 0 20.75 36.4828 0 19.6875 36.4828 0 
18.625 36.4828 0 17.5625 36.4828 0 16.5 36.4828 0 
15.4375 36.4828 0 14.375 36.4828 0 13.3125 36.4828 0 
12.25 36.4828 0 11.1875 36.4828 0 10.125 36.4828 0 
9.0625 36.4828 0 23.9375 35.4655 0 22.875 35.4655 0 
21.8125 35.4655 0 20.75 35.4655 0 19.6875 35.4655 0 
18.625 35.4655 0 17.5625 35.4655 0 16.5 35.4655 0 
15.4375 35.4655 0 14.375 35.4655 0 13.3125 35.4655 0 
12.25 35.4655 0 11.1875 35.4655 0 10.125 35.4655 0 
9.0625 35.4655 0 23.9375 34.4483 0 22.875 34.4483 0 
21.8125 34.4483 0 20.75 34.4483 0 19.6875 34.4483 0 
18.625 34.4483 0 17.5625 34.4483 0 16.5 34.4483 0 
15.4375 34.4483 0 14.375 34.4483 0 13.3125 34.4483 0 
12.25 34.4483 0 11.1875 34.4483 0 10.125 34.4483 0 
9.0625 34.4483 0 23.9375 33.431 0 22.875 33.431 0 
21.8125 33.431 0 20.75 33.431 0 19.6875 33.431 0 
18.625 33.431 0 17.5625 33.431 0 16.5 33.431 0 
15.4375 33.431 0 14.375 33.431 0 13.3125 33.431 0 
12.25 33.431 0 11.1875 33.431 0 10.125 33.431 0 
9.0625 33.431 0 23.9375 32.4138 0 22.875 32.4138 0 
21.8125 32.4138 0 20.75 32.4138 0 19.6875 32.4138 0 
18.625 32.4138 0 17.5625 32.4138 0 16.5 32.4138 0 
15.4375 32.4138 0 14.375 32.4138 0 13.3125 32.4138 0 
12.25 32.4138 0 11.1875 32.4138 0 10.125 32.4138 0 
9.0625 32.4138 0 23.9375 31.3966 0 22.875 31.3966 0 
21.8125 31.3966 0 20.75 31.3966 0 19.6875 31.3966 0 
18.625 31.3966 0 17.5625 31.3966 0 16.5 31.3966 0 
15.4375 31.3966 0 14.375 31.3966 0 13.3125 31.3966 0 
12.25 31.3966 0 11.1875 31.3966 0 10.125 31.3966 0 
9.0625 31.3966 0 23.9375 30.3793 0 22.875 30.3793 0 
21.8125 30.3793 0 20.75 30.3793 0 19.6875 30.3793 0 
18.625 30.3793 0 17.5625 30.3793 0 16.5 30.3793 0 
15.4375 30.3793 0 14.375 30.3793 0 13.3125 30.3793 0 
12.25 30.3793 0 11.1875 30.3793 0 10.125 30.3793 0 
9.0625 30.3793 0 23.9375 29.3621 0 22.875 29.3621 0 
21.8125 29.3621 0 20.75 29.3621 0 19.6875 29.3621 0 
18.625 29.3621 0 17.5625 29.3621 0 16.5 29.3621 0 
15.4375 29.3621 0 14.375 29.3621 0 13.3125 29.3621 0 
12.25 29.3621 0 11.1875 29.3621 0 10.125 29.3621 0 
9.0625 29.3621 0 23.9375 28.3448 0 22.875 28.3448 0 
21.8125 28.3448 0 20.75 28.3448 0 19.6875 28.3448 0 
18.625 28.3448 0 17.5625 28.3448 0 16.5 28.3448 0 
15.4375 28.3448 0 14.375 28.3448 0 13.3125 28.3448 0 
12.25 28.3448 0 11.1875 28.3448 0 10.125 28.3448 0 
9.0625 28.3448 0 23.9375 27.3276 0 22.875 27.3276 0 
21.8125 27.3276 0 20.75 27.3276 0 19.6875 27.3276 0 
18.625 27.3276 0 17.5625 27.3276 0 16.5 27.3276 0 
15.4375 27.3276 0 14.375 27.3276 0 13.3125 27.3276 0 
12.25 27.3276 0 11.1875 27.3276 0 10.125 27.3276 0 
9.0625 27.3276 0 23.9375 26.3103 0 22.875 26.3103 0 
21.8125 26.3103 0 20.75 26.3103 0 19.6875 26.3103 0 
18.625 26.3103 0 17.5625 26.3103 0 16.5 26.3103 0 
15.4375 26.3103 0 14.375 26.3103 0 13.3125 26.3103 0 
12.25 26.3103 0 11.1875 26.3103 0 10.125 26.3103 0 
9.0625 26.3103 0 23.9375 25.2931 0 22.875 25.2931 0 
21.8125 25.2931 0 20.75 25.2931 0 19.6875 25.2931 0 
18.625 25.2931 0 17.5625 25.2931 0 16.5 25.2931 0 
15.4375 25.2931 0 14.375 25.2931 0 13.3125 25.2931 0 
12.25 25.2931 0 11.1875 25.2931 0 10.125 25.2931 0 
9.0625 25.2931 0 23.9375 24.2759 0 22.875 24.2759 0 
21.8125 24.2759 0 20.75 24.2759 0 19.6875 24.2759 0 
18.625 24.2759 0 17.5625 24.2759 0 16.5 24.2759 0 
15.4375 24.2759 0 14.375 24.2759 0 13.3125 24.2759 0 
12.25 24.2759 0 11.1875 24.2759 0 10.125 24.2759 0 
9.0625 24.2759 0 23.9375 23.2586 0 22.875 23.2586 0 
21.8125 23.2586 0 20.75 23.2586 0 19.6875 23.2586 0 
18.625 23.2586 0 17.5625 23.2586 0 16.5 23.2586 0 
15.4375 23.2586 0 14.375 23.2586 0 13.3125 23.2586 0 
12.25 23.2586 0 11.1875 23.2586 0 10.125 23.2586 0 
9.0625 23.2586 0 23.9375 22.2414 0 22.875 22.2414 0 
21.8125 22.2414 0 20.75 22.2414 0 19.6875 22.2414 0 
18.625 22.2414 0 17.5625 22.2414 0 16.5 22.2414 0 
15.4375 22.2414 0 14.375 22.2414 0 13.3125 22.2414 0 
12.25 22.2414 0 11.1875 22.2414 0 10.125 22.2414 0 
9.0625 22.2414 0 23.9375 21.2241 0 22.875 21.2241 0 
21.8125 21.2241 0 20.75 21.2241 0 19.6875 21.2241 0 
18.625 21.2241 0 17.5625 21.2241 0 16.5 21.2241 0 
15.4375 21.2241 0 14.375 21.2241 0 13.3125 21.2241 0 
12.25 21.2241 0 11.1875 21.2241 0 10.125 21.2241 0 
9.0625 21.2241 0 23.9375 20.2069 0 22.875 20.2069 0 
21.8125 20.2069 0 20.75 20.2069 0 19.6875 20.2069 0 
18.625 20.2069 0 17.5625 20.2069 0 16.5 20.2069 0 
15.4375 20.2069 0 14.375 20.2069 0 13.3125 20.2069 0 
12.25 20.2069 0 11.1875 20.2069 0 10.125 20.2069 0 
9.0625 20.2069 0 23.9375 19.1897 0 22.875 19.1897 0 
21.8125 19.1897 0 20.75 19.1897 0 19.6875 19.1897 0 
18.625 19.1897 0 17.5625 19.1897 0 16.5 19.1897 0 
15.4375 19.1897 0 14.375 19.1897 0 13.3125 19.1897 0 
12.25 19.1897 0 11.1875 19.1897 0 10.125 19.1897 0 
9.0625 19.1897 0 23.9375 18.1724 0 22.875 18.1724 0 
21.8125 18.1724 0 20.75 18.1724 0 19.6875 18.1724 0 
18.625 18.1724 0 17.5625 18.1724 0 16.5 18.1724 0 
15.4375 18.1724 0 14.375 18.1724 0 13.3125 18.1724 0 
12.25 18.1724 0 11.1875 18.1724 0 10.125 18.1724 0 
9.0625 18.1724 0 23.9375 17.1552 0 22.875 17.1552 0 
21.8125 17.1552 0 20.75 17.1552 0 19.6875 17.1552 0 
18.625 17.1552 0 17.5625 17.1552 0 16.5 17.1552 0 
15.4375 17.1552 0 14.375 17.1552 0 13.3125 17.1552 0 
12.25 17.1552 0 11.1875 17.1552 0 10.125 17.1552 0 
9.0625 17.1552 0 23.9375 16.1379 0 22.875 16.1379 0 
21.8125 16.1379 0 20.75 16.1379 0 19.6875 16.1379 0 
18.625 16.1379 0 17.5625 16.1379 0 16.5 16.1379 0 
15.4375 16.1379 0 14.375 16.1379 0 13.3125 16.1379 0 
12.25 16.1379 0 11.1875 16.1379 0 10.125 16.1379 0 
9.0625 16.1379 0 23.9375 15.1207 0 22.875 15.1207 0 
21.8125 15.1207 0 20.75 15.1207 0 19.6875 15.1207 0 
18.625 15.1207 0 17.5625 15.1207 0 16.5 15.1207 0 
15.4375 15.1207 0 14.375 15.1207 0 13.3125 15.1207 0 
12.25 15.1207 0 11.1875 15.1207 0 10.125 15.1207 0 
9.0625 15.1207 0 23.9375 14.1034 0 22.875 14.1034 0 
21.8125 14.1034 0 20.75 14.1034 0 19.6875 14.1034 0 
18.625 14.1034 0 17.5625 14.1034 0 16.5 14.1034 0 
15.4375 14.1034 0 14.375 14.1034 0 13.3125 14.1034 0 
12.25 14.1034 0 11.1875 14.1034 0 10.125 14.1034 0 
9.0625 14.1034 0 23.9375 13.0862 0 22.875 13.0862 0 
21.8125 13.0862 0 20.75 13.0862 0 19.6875 13.0862 0 
18.625 13.0862 0 17.5625 13.0862 0 16.5 13.0862 0 
15.4375 13.0862 0 14.375 13.0862 0 13.3125 13.0862 0 
12.25 13.0862 0 11.1875 13.0862 0 10.125 13.0862 0 
9.0625 13.0862 0 23.9375 12.069 0 22.875 12.069 0 
21.8125 12.069 0 20.75 12.069 0 19.6875 12.069 0 
18.625 12.069 0 17.5625 12.069 0 16.5 12.069 0 
15.4375 12.069 0 14.375 12.069 0 13.3125 12.069 0 
12.25 12.069 0 11.1875 12.069 0 10.125 12.069 0 
9.0625 12.069 0 23.9375 11.0517 0 22.875 11.0517 0 
21.8125 11.0517 0 20.75 11.0517 0 19.6875 11.0517 0 
18.625 11.0517 0 17.5625 11.0517 0 16.5 11.0517 0 
15.4375 11.0517 0 14.375 11.0517 0 13.3125 11.0517 0 
12.25 11.0517 0 11.1875 11.0517 0 10.125 11.0517 0 
9.0625 11.0517 0 23.9375 10.0345 0 22.875 10.0345 0 
21.8125 10.0345 0 20.75 10.0345 0 19.6875 10.0345 0 
18.625 10.0345 0 17.5625 10.0345 0 16.5 10.0345 0 
15.4375 10.0345 0 14.375 10.0345 0 13.3125 10.0345 0 
12.25 10.0345 0 11.1875 10.0345 0 10.125 10.0345 0 
9.0625 10.0345 0 23.9375 9.01724 0 22.875 9.01724 0 
21.8125 9.01724 0 20.75 9.01724 0 19.6875 9.01724 0 
18.625 9.01724 0 17.5625 9.01724 0 16.5 9.01724 0 
15.4375 9.01724 0 14.375 9.01724 0 13.3125 9.01724 0 
12.25 9.01724 0 11.1875 9.01724 0 10.125 9.01724 0 
9.0625 9.01724 0 23.9375 36.9914 0 24.4688 36.4828 0 
22.875 36.9914 0 23.4062 36.4828 0 21.8125 36.9914 0 
22.3438 36.4828 0 20.75 36.9914 0 21.2812 36.4828 0 
19.6875 36.9914 0 20.2188 36.4828 0 18.625 36.9914 0 
19.1562 36.4828 0 17.5625 36.9914 0 18.0938 36.4828 0 
16.5 36.9914 0 17.0312 36.4828 0 15.4375 36.9914 0 
15.9688 36.4828 0 14.375 36.9914 0 14.9062 36.4828 0 
13.3125 36.9914 0 13.8438 36.4828 0 12.25 36.9914 0 
12.7812 36.4828 0 11.1875 36.9914 0 11.7188 36.4828 0 
10.125 36.9914 0 10.6562 36.4828 0 9.0625 36.9914 0 
9.59375 36.4828 0 8.53125 36.4828 0 23.9375 35.9741 0 
24.4688 35.4655 0 22.875 35.9741 0 23.4062 35.4655 0 
21.8125 35.9741 0 22.3438 35.4655 0 20.75 35.9741 0 
21.2812 35.4655 0 19.6875 35.9741 0 20.2188 35.4655 0 
18.625 35.9741 0 19.1562 35.4655 0 17.5625 35.9741 0 
18.0938 35.4655 0 16.5 35.9741 0 17.0312 35.4655 0 
15.4375 35.9741 0 15.9688 35.4655 0 14.375 35.9741 0 
14.9062 35.4655 0 13.3125 35.9741 0 13.8438 35.4655 0 
12.25 35.9741 0 12.7812 35.4655 0 11.1875 35.9741 0 
11.7188 35.4655 0 10.125 35.9741 0 10.6562 35.4655 0 
9.0625 35.9741 0 9.59375 35.4655 0 8.53125 35.4655 0 
23.9375 34.9569 0 24.4688 34.4483 0 22.875 34.9569 0 
23.4062 34.4483 0 21.8125 34.9569 0 22.3438 34.4483 0 
20.75 34.9569 0 21.2812 34.4483 0 19.6875 34.9569 0 
20.2188 34.4483 0 18.625 34.9569 0 19.1562 34.4483 0 
17.5625 34.9569 0 18.0938 34.4483 0 16.5 34.9569 0 
17.0312 34.4483 0 15.4375 34.9569 0 15.9688 34.4483 0 
14.375 34.9569 0 14.9062 34.4483 0 13.3125 34.9569 0 
13.8438 34.4483 0 12.25 34.9569 0 12.7812 34.4483 0 
11.1875 34.9569 0 11.7188 34.4483 0 10.125 34.9569 0 
10.6562 34.4483 0 9.0625 34.9569 0 9.59375 34.4483 0 
8.53125 34.4483 0 23.9375 33.9397 0 24.4688 33.431 0 
22.875 33.9397 0 23.4062 33.431 0 21.8125 33.9397 0 
22.3438 33.431 0 20.75 33.9397 0 21.2812 33.431 0 
19.6875 33.9397 0 20.2188 33.431 0 18.625 33.9397 0 
19.1562 33.431 0 17.5625 33.9397 0 18.0938 33.431 0 
16.5 33.9397 0 17.0312 33.431 0 15.4375 33.9397 0 
15.9688 33.431 0 14.375 33.9397 0 14.9062 33.431 0 
13.3125 33.9397 0 13.8438 33.431 0 12.25 33.9397 0 
12.7812 33.431 0 11.1875 33.9397 0 11.7188 33.431 0 
10.125 33.9397 0 10.6562 33.431 0 9.0625 33.9397 0 
9.59375 33.431 0 8.53125 33.431 0 23.9375 32.9224 0 
24.4688 32.4138 0 22.875 32.9224 0 23.4062 32.4138 0 
21.8125 32.9224 0 22.3438 32.4138 0 20.75 32.9224 0 
21.2812 32.4138 0 19.6875 32.9224 0 20.2188 32.4138 0 
18.625 32.9224 0 19.1562 32.4138 0 17.5625 32.9224 0 
18.0938 32.4138 0 16.5 32.9224 0 17.0312 32.4138 0 
15.4375 32.9224 0 15.9688 32.4138 0 14.375 32.9224 0 
14.9062 32.4138 0 13.3125 32.9224 0 13.8438 32.4138 0 
12.25 32.9224 0 12.7812 32.4138 0 11.1875 32.9224 0 
11.7188 32.4138 0 10.125 32.9224 0 10.6562 32.4138 0 
9.0625 32.9224 0 9.59375 32.4138 0 8.53125 32.4138 0 
23.9375 31.9052 0 24.4688 31.3966 0 22.875 31.9052 0 
23.4062 31.3966 0 21.8125 31.9052 0 22.3438 31.3966 0 
20.75 31.9052 0 21.2812 31.3966 0 19.6875 31.9052 0 
20.2188 31.3966 0 18.625 31.9052 0 19.1562 31.3966 0 
17.5625 31.9052 0 18.0938 31.3966 0 16.5 31.9052 0 
17.0312 31.3966 0 15.4375 31.9052 0 15.9688 31.3966 0 
14.375 31.9052 0 14.9062 31.3966 0 13.3125 31.9052 0 
13.8438 31.3966 0 12.25 31.9052 0 12.7812 31.3966 0 
11.1875 31.9052 0 11.7188 31.3966 0 10.125 31.9052 0 
10.6562 31.3966 0 9.0625 31.9052 0 9.59375 31.3966 0 
8.53125 31.3966 0 23.9375 30.8879 0 24.4688 30.3793 0 
22.875 30.8879 0 23.4062 30.3793 0 21.8125 30.8879 0 
22.3438 30.3793 0 20.75 30.8879 0 21.2812 30.3793 0 
19.6875 30.8879 0 20.2188 30.3793 0 18.625 30.8879 0 
19.1562 30.3793 0 17.5625 30.8879 0 18.0938 30.3793 0 
16.5 30.8879 0 17.0312 30.3793 0 15.4375 30.8879 0 
15.9688 30.3793 0 14.375 30.8879 0 14.9062 30.3793 0 
13.3125 30.8879 0 13.8438 30.3793 0 12.25 30.8879 0 
12.7812 30.3793 0 11.1875 30.8879 0 11.7188 30.3793 0 
10.125 30.8879 0 10.6562 30.3793 0 9.0625 30.8879 0 
9.59375 30.3793 0 8.53125 30.3793 0 23.9375 29.8707 0 
24.4688 29.3621 0 22.875 29.8707 0 23.4062 29.3621 0 
21.8125 29.8707 0 22.3438 29.3621 0 20.75 29.8707 0 
21.2812 29.3621 0 19.6875 29.8707 0 20.2188 29.3621 0 
18.625 29.8707 0 19.1562 29.3621 0 17.5625 29.8707 0 
18.0938 29.3621 0 16.5 29.8707 0 17.0312 29.3621 0 
15.4375 29.8707 0 15.9688 29.3621 0 14.375 29.8707 0 
14.9062 29.3621 0 13.3125 29.8707 0 13.8438 29.3621 0 
12.25 29.8707 0 12.7812 29.3621 0 11.1875 29.8707 0 
11.7188 29.3621 0 10.125 29.8707 0 10.6562 29.3621 0 
9.0625 29.8707 0 9.59375 29.3621 0 8.53125 29.3621 0 
23.9375 28.8534 0 24.4688 28.3448 0 22.875 28.8534 0 
23.4062 28.3448 0 21.8125 28.8534 0 22.3438 28.3448 0 
20.75 28.8534 0 21.2812 28.3448 0 19.6875 28.8534 0 
20.2188 28.3448 0 18.625 28.8534 0 19.1562 28.3448 0 
17.5625 28.8534 0 18.0938 28.3448 0 16.5 28.8534 0 
17.0312 28.3448 0 15.4375 28.8534 0 15.9688 28.3448 0 
14.375 28.8534 0 14.9062 28.3448 0 13.3125 28.8534 0 
13.8438 28.3448 0 12.25 28.8534 0 12.7812 28.3448 0 
11.1875 28.8534 0 11.7188 28.3448 0 10.125 28.8534 0 
10.6562 28.3448 0 9.0625 28.8534 0 9.59375 28.3448 0 
8.53125 28.3448 0 23.9375 27.8362 0 24.4688 27.3276 0 
22.875 27.8362 0 23.4062 27.3276 0 21.8125 27.8362 0 
22.3438 27.3276 0 20.75 27.8362 0 21.2812 27.3276 0 
19.6875 27.8362 0 20.2188 27.3276 0 18.625 27.8362 0 
19.1562 27.3276 0 17.5625 27.8362 0 18.0938 27.3276 0 
16.5 27.8362 0 17.0312 27.3276 0 15.4375 27.8362 0 
15.9688 27.3276 0 14.375 27.8362 0 14.9062 27.3276 0 
13.3125 27.8362 0 13.8438 27.3276 0 12.25 27.8362 0 
12.7812 27.3276 0 11.1875 27.8362 0 11.7188 27.3276 0 
10.125 27.8362 0 10.6562 27.3276 0 9.0625 27.8362 0 
9.59375 27.3276 0 8.53125 27.3276 0 23.9375 26.819 0 
24.4688 26.3103 0 22.875 26.819 0 23.4062 26.3103 0 
21.8125 26.819 0 22.3438 26.3103 0 20.75 26.819 0 
21.2812 26.3103 0 19.6875 26.819 0 20.2188 26.3103 0 
18.625 26.819 0 19.1562 26.3103 0 17.5625 26.819 0 
18.0938 26.3103 0 16.5 26.819 0 17.0312 26.3103 0 
15.4375 26.819 0 15.9688 26.3103 0 14.375 26.819 0 
14.9062 26.3103 0 13.3125 26.819 0 13.8438 26.3103 0 
12.25 26.819 0 12.7812 26.3103 0 11.1875 26.819 0 
11.7188 26.3103 0 10.125 26.819 0 10.6562 26.3103 0 
9.0625 26.819 0 9.59375 26.3103 0 8.53125 26.3103 0 
23.9375 25.8017 0 24.4688 25.2931 0 22.875 25.8017 0 
23.4062 25.2931 0 21.8125 25.8017 0 22.3438 25.2931 0 
20.75 25.8017 0 21.2812 25.2931 0 19.6875 25.8017 0 
20.2188 25.2931 0 18.625 25.8017 0 19.1562 25.2931 0 
17.5625 25.8017 0 18.0938 25.2931 0 16.5 25.8017 0 
17.0312 25.2931 0 15.4375 25.8017 0 15.9688 25.2931 0 
14.375 25.8017 0 14.9062 25.2931 0 13.3125 25.8017 0 
13.8438 25.2931 0 12.25 25.8017 0 12.7812 25.2931 0 
11.1875 25.8017 0 11.7188 25.2931 0 10.125 25.8017 0 
10.6562 25.2931 0 9.0625 25.8017 0 9.59375 25.2931 0 
8.53125 25.2931 0 23.9375 24.7845 0 24.4688 24.2759 0 
22.875 24.7845 0 23.4062 24.2759 0 21.8125 24.7845 0 
22.3438 24.2759 0 20.75 24.7845 0 21.2812 24.2759 0 
19.6875 24.7845 0 20.2188 24.2759 0 18.625 24.7845 0 
19.1562 24.2759 0 17.5625 24.7845 0 18.0938 24.2759 0 
16.5 24.7845 0 17.0312 24.2759 0 15.4375 24.7845 0 
15.9688 24.2759 0 14.375 24.7845 0 14.9062 24.2759 0 
13.3125 24.7845 0 13.8438 24.2759 0 12.25 24.7845 0 
12.7812 24.2759 0 11.1875 24.7845 0 11.7188 24.2759 0 
10.125 24.7845 0 10.6562 24.2759 0 9.0625 24.7845 0 
9.59375 24.2759 0 8.53125 24.2759 0 23.9375 23.7672 0 
24.4688 23.2586 0 22.875 23.7672 0 23.4062 23.2586 0 
21.8125 23.7672 0 22.3438 23.2586 0 20.75 23.7672 0 
21.2812 23.2586 0 19.6875 23.7672 0 20.2188 23.2586 0 
18.625 23.7672 0 19.1562 23.2586 0 17.5625 23.7672 0 
18.0938 23.2586 0 16.5 23.7672 0 17.0312 23.2586 0 
15.4375 23.7672 0 15.9688 23.2586 0 14.375 23.7672 0 
14.9062 23.2586 0 13.3125 23.7672 0 13.8438 23.2586 0 
12.25 23.7672 0 12.7812 23.2586 0 11.1875 23.7672 0 
11.7188 23.2586 0 10.125 23.7672 0 10.6562 23.2586 0 
9.0625 23.7672 0 9.59375 23.2586 0 8.53125 23.2586 0 
23.9375 22.75 0 24.4688 22.2414 0 22.875 22.75 0 
23.4062 22.2414 0 21.8125 22.75 0 22.3438 22.2414 0 
20.75 22.75 0 21.2812 22.2414 0 19.6875 22.75 0 
20.2188 22.2414 0 18.625 22.75 0 19.1562 22.2414 0 
17.5625 22.75 0 18.0938 22.2414 0 16.5 22.75 0 
17.0312 22.2414 0 15.4375 22.75 0 15.9688 22.2414 0 
14.375 22.75 0 14.9062 22.2414 0 13.3125 22.75 0 
13.8438 22.2414 0 12.25 22.75 0 12.7812 22.2414 0 
11.1875 22.75 0 11.7188 22.2414 0 10.125 22.75 0 
10.6562 22.2414 0 9.0625 22.75 0 9.59375 22.2414 0 
8.53125 22.2414 0 23.9375 21.7328 0 24.4688 21.2241 0 
22.875 21.7328 0 23.4062 21.2241 0 21.8125 21.7328 0 
22.3438 21.2241 0 20.75 21.7328 0 21.2812 21.2241 0 
19.6875 21.7328 0 20.2188 21.2241 0 18.625 21.7328 0 
19.1562 21.2241 0 17.5625 21.7328 0 18.0938 21.2241 0 
16.5 21.7328 0 17.0312 21.2241 0 15.4375 21.7328 0 
15.9688 21.2241 0 14.375 21.7328 0 14.9062 21.2241 0 
13.3125 21.7328 0 13.8438 21.2241 0 12.25 21.7328 0 
12.7812 21.2241 0 11.1875 21.7328 0 11.7188 21.2241 0 
10.125 21.7328 0 10.6562 21.2241 0 9.0625 21.7328 0 
9.59375 21.2241 0 8.53125 21.2241 0 23.9375 20.7155 0 
24.4688 20.2069 0 22.875 20.7155 0 23.4062 20.2069 0 
21.8125 20.7155 0 22.3438 20.2069 0 20.75 20.7155 0 
21.2812 20.2069 0 19.6875 20.7155 0 20.2188 20.2069 0 
18.625 20.7155 0 19.1562 20.2069 0 17.5625 20.7155 0 
18.0938 20.2069 0 16.5 20.7155 0 17.0312 20.2069 0 
15.4375 20.7155 0 15.9688 20.2069 0 14.375 20.7155 0 
14.9062 20.2069 0 13.3125 20.7155 0 13.8438 20.2069 0 
12.25 20.7155 0 12.7812 20.2069 0 11.1875 20.7155 0 
11.7188 20.2069 0 10.125 20.7155 0 10.6562 20.2069 0 
9.0625 20.7155 0 9.59375 20.2069 0 8.53125 20.2069 0 
23.9375 19.6983 0 24.4688 19.1897 0 22.875 19.6983 0 
23.4062 19.1897 0 21.8125 19.6983 0 22.3438 19.1897 0 
20.75 19.6983 0 21.2812 19.1897 0 19.6875 19.6983 0 
20.2188 19.1897 0 18.625 19.6983 0 19.1562 19.1897 0 
17.5625 19.6983 0 18.0938 19.1897 0 16.5 19.6983 0 
17.0312 19.1897 0 15.4375 19.6983 0 15.9688 19.1897 0 
14.375 19.6983 0 14.9062 19.1897 0 13.3125 19.6983 0 
13.8438 19.1897 0 12.25 19.6983 0 12.7812 19.1897 0 
11.1875 19.6983 0 11.7188 19.1897 0 10.125 19.6983 0 
10.6562 19.1897 0 9.0625 19.6983 0 9.59375 19.1897 0 
8.53125 19.1897 0 23.9375 18.681 0 24.4688 18.1724 0 
22.875 18.681 0 23.4062 18.1724 0 21.8125 18.681 0 
22.3438 18.1724 0 20.75 18.681 0 21.2812 18.1724 0 
19.6875 18.681 0 20.2188 18.1724 0 18.625 18.681 0 
19.1562 18.1724 0 17.5625 18.681 0 18.0938 18.1724 0 
16.5 18.681 0 17.0312 18.1724 0 15.4375 18.681 0 
15.9688 18.1724 0 14.375 18.681 0 14.9062 18.1724 0 
13.3125 18.681 0 13.8438 18.1724 0 12.25 18.681 0 
12.7812 18.1724 0 11.1875 18.681 0 11.7188 18.1724 0 
10.125 18.681 0 10.6562 18.1724 0 9.0625 18.681 0 
9.59375 18.1724 0 8.53125 18.1724 0 23.9375 17.6638 0 
24.4688 17.1552 0 22.875 17.6638 0 23.4062 17.1552 0 
21.8125 17.6638 0 22.3438 17.1552 0 20.75 17.6638 0 
21.2812 17.1552 0 19.6875 17.6638 0 20.2188 17.1552 0 
18.625 17.6638 0 19.1562 17.1552 0 17.5625 17.6638 0 
18.0938 17.1552 0 16.5 17.6638 0 17.0312 17.1552 0 
15.4375 17.6638 0 15.9688 17.1552 0 14.375 17.6638 0 
14.9062 17.1552 0 13.3125 17.6638 0 13.8438 17.1552 0 
12.25 17.6638 0 12.7812 17.1552 0 11.1875 17.6638 0 
11.7188 17.1552 0 10.125 17.6638 0 10.6562 17.1552 0 
9.0625 17.6638 0 9.59375 17.1552 0 8.53125 17.1552 0 
23.9375 16.6466 0 24.4688 16.1379 0 22.875 16.6466 0 
23.4062 16.1379 0 21.8125 16.6466 0 22.3438 16.1379 0 
20.75 16.6466 0 21.2812 16.1379 0 19.6875 16.6466 0 
20.2188 16.1379 0 18.625 16.6466 0 19.1562 16.1379 0 
17.5625 16.6466 0 18.0938 16.1379 0 16.5 16.6466 0 
17.0312 16.1379 0 15.4375 16.6466 0 15.9688 16.1379 0 
14.375 16.6466 0 14.9062 16.1379 0 13.3125 16.6466 0 
13.8438 16.1379 0 12.25 16.6466 0 12.7812 16.1379 0 
11.1875 16.6466 0 11.7188 16.1379 0 10.125 16.6466 0 
10.6562 16.1379 0 9.0625 16.6466 0 9.59375 16.1379 0 
8.53125 16.1379 0 23.9375 15.6293 0 24.4688 15.1207 0 
22.875 15.6293 0 23.4062 15.1207 0 21.8125 15.6293 0 
22.3438 15.1207 0 20.75 15.6293 0 21.2812 15.1207 0 
19.6875 15.6293 0 20.2188 15.1207 0 18.625 15.6293 0 
19.1562 15.1207 0 17.5625 15.6293 0 18.0938 15.1207 0 
16.5 15.6293 0 17.0312 15.1207 0 15.4375 15.6293 0 
15.9688 15.1207 0 14.375 15.6293 0 14.9062 15.1207 0 
13.3125 15.6293 0 13.8438 15.1207 0 12.25 15.6293 0 
12.7812 15.1207 0 11.1875 15.6293 0 11.7188 15.1207 0 
10.125 15.6293 0 10.6562 15.1207 0 9.0625 15.6293 0 
9.59375 15.1207 0 8.53125 15.1207 0 23.9375 14.6121 0 
24.4688 14.1034 0 22.875 14.6121 0 23.4062 14.1034 0 
21.8125 14.6121 0 22.3438 14.1034 0 20.75 14.6121 0 
21.2812 14.1034 0 19.6875 14.6121 0 20.2188 14.1034 0 
18.625 14.6121 0 19.1562 14.1034 0 17.5625 14.6121 0 
18.0938 14.1034 0 16.5 14.6121 0 17.0312 14.1034 0 
15.4375 14.6121 0 15.9688 14.1034 0 14.375 14.6121 0 
14.9062 14.1034 0 13.3125 14.6121 0 13.8438 14.1034 0 
12.25 14.6121 0 12.7812 14.1034 0 11.1875 14.6121 0 
11.7188 14.1034 0 10.125 14.6121 0 10.6562 14.1034 0 
9.0625 14.6121 0 9.59375 14.1034 0 8.53125 14.1034 0 
23.9375 13.5948 0 24.4688 13.0862 0 22.875 13.5948 0 
23.4062 13.0862 0 21.8125 13.5948 0 22.3438 13.0862 0 
20.75 13.5948 0 21.2812 13.0862 0 19.6875 13.5948 0 
20.2188 13.0862 0 18.625 13.5948 0 19.1562 13.0862 0 
17.5625 13.5948 0 18.0938 13.0862 0 16.5 13.5948 0 
17.0312 13.0862 0 15.4375 13.5948 0 15.9688 13.0862 0 
14.375 13.5948 0 14.9062 13.0862 0 13.3125 13.5948 0 
13.8438 13.0862 0 12.25 13.5948 0 12.7812 13.0862 0 
11.1875 13.5948 0 11.7188 13.0862 0 10.125 13.5948 0 
10.6562 13.0862 0 9.0625 13.5948 0 9.59375 13.0862 0 
8.53125 13.0862 0 23.9375 12.5776 0 24.4688 12.069 0 
22.875 12.5776 0 23.4062 12.069 0 21.8125 12.5776 0 
22.3438 12.069 0 20.75 12.5776 0 21.2812 12.069 0 
19.6875 12.5776 0 20.2188 12.069 0 18.625 12.5776 0 
19.1562 12.069 0 17.5625 12.5776 0 18.0938 12.069 0 
16.5 12.5776 0 17.0312 12.069 0 15.4375 12.5776 0 
15.9688 12.069 0 14.375 12.5776 0 14.9062 12.069 0 
13.3125 12.5776 0 13.8438 12.069 0 12.25 12.5776 0 
12.7812 12.069 0 11.1875 12.5776 0 11.7188 12.069 0 
10.125 12.5776 0 10.6562 12.069 0 9.0625 12.5776 0 
9.59375 12.069 0 8.53125 12.069 0 23.9375 11.5603 0 
24.4688 11.0517 0 22.875 11.5603 0 23.4062 11.0517 0 
21.8125 11.5603 0 22.3438 11.0517 0 20.75 11.5603 0 
21.2812 11.0517 0 19.6875 11.5603 0 20.2188 11.0517 0 
18.625 11.5603 0 19.1562 11.0517 0 17.5625 11.5603 0 
18.0938 11.0517 0 16.5 11.5603 0 17.0312 11.0517 0 
15.4375 11.5603 0 15.9688 11.0517 0 14.375 11.5603 0 
14.9062 11.0517 0 13.3125 11.5603 0 13.8438 11.0517 0 
12.25 11.5603 0 12.7812 11.0517 0 11.1875 11.5603 0 
11.7188 11.0517 0 10.125 11.5603 0 10.6562 11.0517 0 
9.0625 11.5603 0 9.59375 11.0517 0 8.53125 11.0517 0 
23.9375 10.5431 0 24.4688 10.0345 0 22.875 10.5431 0 
23.4062 10.0345 0 21.8125 10.5431 0 22.3438 10.0345 0 
20.75 10.5431 0 21.2812 10.0345 0 19.6875 10.5431 0 
20.2188 10.0345 0 18.625 10.5431 0 19.1562 10.0345 0 
17.5625 10.5431 0 18.0938 10.0345 0 16.5 10.5431 0 
17.0312 10.0345 0 15.4375 10.5431 0 15.9688 10.0345 0 
14.375 10.5431 0 14.9062 10.0345 0 13.3125 10.5431 0 
13.8438 10.0345 0 12.25 10.5431 0 12.7812 10.0345 0 
11.1875 10.5431 0 11.7188 10.0345 0 10.125 10.5431 0 
10.6562 10.0345 0 9.0625 10.5431 0 9.59375 10.0345 0 
8.53125 10.0345 0 23.9375 9.52586 0 24.4688 9.01724 0 
22.875 9.52586 0 23.4062 9.01724 0 21.8125 9.52586 0 
22.3438 9.01724 0 20.75 9.52586 0 21.2812 9.01724 0 
19.6875 9.52586 0 20.2188 9.01724 0 18.625 9.52586 0 
19.1562 9.01724 0 17.5625 9.52586 0 18.0938 9.01724 0 
16.5 9.52586 0 17.0312 9.01724 0 15.4375 9.52586 0 
15.9688 9.01724 0 14.375 9.52586 0 14.9062 9.01724 0 
13.3125 9.52586 0 13.8438 9.01724 0 12.25 9.52586 0 
12.7812 9.01724 0 11.1875 9.52586 0 11.7188 9.01724 0 
10.125 9.52586 0 10.6562 9.01724 0 9.0625 9.52586 0 
9.59375 9.01724 0 8.53125 9.01724 0 23.9375 8.50862 0 
22.875 8.50862 0 21.8125 8.50862 0 20.75 8.50862 0 
19.6875 8.50862 0 18.625 8.50862 0 17.5625 8.50862 0 
16.5 8.50862 0 15.4375 8.50862 0 14.375 8.50862 0 
13.3125 8.50862 0 12.25 8.50862 0 11.1875 8.50862 0 
10.125 8.50862 0 9.0625 8.50862 0 23.9375 6.93333 0 
22.875 6.93333 0 21.8125 6.93333 0 20.75 6.93333 0 
19.6875 6.93333 0 18.625 6.93333 0 17.5625 6.93333 0 
16.5 6.93333 0 15.4375 6.93333 0 14.375 6.93333 0 
13.3125 6.93333 0 12.25 6.93333 0 11.1875 6.93333 0 
10.125 6.93333 0 9.0625 6.93333 0 23.9375 5.86667 0 
22.875 5.86667 0 21.8125 5.86667 0 20.75 5.86667 0 
19.6875 5.86667 0 18.625 5.86667 0 17.5625 5.86667 0 
16.5 5.86667 0 15.4375 5.86667 0 14.375 5.86667 0 
13.3125 5.86667 0 12.25 5.86667 0 11.1875 5.86667 0 
10.125 5.86667 0 9.0625 5.86667 0 23.9375 4.8 0 
22.875 4.8 0 21.8125 4.8 0 20.75 4.8 0 
19.6875 4.8 0 18.625 4.8 0 17.5625 4.8 0 
16.5 4.8 0 15.4375 4.8 0 14.375 4.8 0 
13.3125 4.8 0 12.25 4.8 0 11.1875 4.8 0 
10.125 4.8 0 9.0625 4.8 0 23.9375 3.73333 0 
22.875 3.73333 0 21.8125 3.73333 0 20.75 3.73333 0 
19.6875 3.73333 0 18.625 3.73333 0 17.5625 3.73333 0 
16.5 3.73333 0 15.4375 3.73333 0 14.375 3.73333 0 
13.3125 3.73333 0 12.25 3.73333 0 11.1875 3.73333 0 
10.125 3.73333 0 9.0625 3.73333 0 23.9375 2.66667 0 
22.875 2.66667 0 21.8125 2.66667 0 20.75 2.66667 0 
19.6875 2.66667 0 18.625 2.66667 0 17.5625 2.66667 0 
16.5 2.66667 0 15.4375 2.66667 0 14.375 2.66667 0 
13.3125 2.66667 0 12.25 2.66667 0 11.1875 2.66667 0 
10.125 2.66667 0 9.0625 2.66667 0 23.9375 1.6 0 
22.875 1.6 0 21.8125 1.6 0 20.75 1.6 0 
19.6875 1.6 0 18.625 1.6 0 17.5625 1.6 0 
16.5 1.6 0 15.4375 1.6 0 14.375 1.6 0 
13.3125 1.6 0 12.25 1.6 0 11.1875 1.6 0 
10.125 1.6 0 9.0625 1.6 0 23.9375 0.533333 0 
22.875 0.533333 0 21.8125 0.533333 0 20.75 0.533333 0 
19.6875 0.533333 0 18.625 0.533333 0 17.5625 0.533333 0 
16.5 0.533333 0 15.4375 0.533333 0 14.375 0.533333 0 
13.3125 0.533333 0 12.25 0.533333 0 11.1875 0.533333 0 
10.125 0.533333 0 9.0625 0.533333 0 23.9375 -0.533333 0 
22.875 -0.533333 0 21.8125 -0.533333 0 20.75 -0.533333 0 
19.6875 -0.533333 0 18.625 -0.533333 0 17.5625 -0.533333 0 
16.5 -0.533333 0 15.4375 -0.533333 0 14.375 -0.533333 0 
13.3125 -0.533333 0 12.25 -0.533333 0 11.1875 -0.533333 0 
10.125 -0.533333 0 9.0625 -0.533333 0 23.9375 -1.6 0 
22.875 -1.6 0 21.8125 -1.6 0 20.75 -1.6 0 
19.6875 -1.6 0 18.625 -1.6 0 17.5625 -1.6 0 
16.5 -1.6 0 15.4375 -1.6 0 14.375 -1.6 0 
13.3125 -1.6 0 12.25 -1.6 0 11.1875 -1.6 0 
10.125 -1.6 0 9.0625 -1.6 0 23.9375 -2.66667 0 
22.875 -2.66667 0 21.8125 -2.66667 0 20.75 -2.66667 0 
19.6875 -2.66667 0 18.625 -2.66667 0 17.5625 -2.66667 0 
16.5 -2.66667 0 15.4375 -2.66667 0 14.375 -2.66667 0 
13.3125 -2.66667 0 12.25 -2.66667 0 11.1875 -2.66667 0 
10.125 -2.66667 0 9.0625 -2.66667 0 23.9375 -3.73333 0 
22.875 -3.73333 0 21.8125 -3.73333 0 20.75 -3.73333 0 
19.6875 -3.73333 0 18.625 -3.73333 0 17.5625 -3.73333 0 
16.5 -3.73333 0 15.4375 -3.73333 0 14.375 -3.73333 0 
13.3125 -3.73333 0 12.25 -3.73333 0 11.1875 -3.73333 0 
10.125 -3.73333 0 9.0625 -3.73333 0 23.9375 -4.8 0 
22.875 -4.8 0 21.8125 -4.8 0 20.75 -4.8 0 
19.6875 -4.8 0 18.625 -4.8 0 17.5625 -4.8 0 
16.5 -4.8 0 15.4375 -4.8 0 14.375 -4.8 0 
13.3125 -4.8 0 12.25 -4.8 0 11.1875 -4.8 0 
10.125 -4.8 0 9.0625 -4.8 0 23.9375 -5.86667 0 
22.875 -5.86667 0 21.8125 -5.86667 0 20.75 -5.86667 0 
19.6875 -5.86667 0 18.625 -5.86667 0 17.5625 -5.86667 0 
16.5 -5.86667 0 15.4375 -5.86667 0 14.375 -5.86667 0 
13.3125 -5.86667 0 12.25 -5.86667 0 11.1875 -5.86667 0 
10.125 -5.86667 0 9.0625 -5.86667 0 23.9375 -6.93333 0 
22.875 -6.93333 0 21.8125 -6.93333 0 20.75 -6.93333 0 
19.6875 -6.93333 0 18.625 -6.93333 0 17.5625 -6.93333 0 
16.5 -6.93333 0 15.4375 -6.93333 0 14.375 -6.93333 0 
13.3125 -6.93333 0 12.25 -6.93333 0 11.1875 -6.93333 0 
10.125 -6.93333 0 9.0625 -6.93333 0 23.9375 7.46667 0 
24.4688 6.93333 0 22.875 7.46667 0 23.4062 6.93333 0 
21.8125 7.46667 0 22.3438 6.93333 0 20.75 7.46667 0 
21.2812 6.93333 0 19.6875 7.46667 0 20.2188 6.93333 0 
18.625 7.46667 0 19.1562 6.93333 0 17.5625 7.46667 0 
18.0938 6.93333 0 16.5 7.46667 0 17.0312 6.93333 0 
15.4375 7.46667 0 15.9688 6.93333 0 14.375 7.46667 0 
14.9062 6.93333 0 13.3125 7.46667 0 13.8438 6.93333 0 
12.25 7.46667 0 12.7812 6.93333 0 11.1875 7.46667 0 
11.7188 6.93333 0 10.125 7.46667 0 10.6562 6.93333 0 
9.0625 7.46667 0 9.59375 6.93333 0 8.53125 6.93333 0 
23.9375 6.4 0 24.4688 5.86667 0 22.875 6.4 0 
23.4062 5.86667 0 21.8125 6.4 0 22.3438 5.86667 0 
20.75 6.4 0 21.2812 5.86667 0 19.6875 6.4 0 
20.2188 5.86667 0 18.625 6.4 0 19.1562 5.86667 0 
17.5625 6.4 0 18.0938 5.86667 0 16.5 6.4 0 
17.0312 5.86667 0 15.4375 6.4 0 15.9688 5.86667 0 
14.375 6.4 0 14.9062 5.86667 0 13.3125 6.4 0 
13.8438 5.86667 0 12.25 6.4 0 12.7812 5.86667 0 
11.1875 6.4 0 11.7188 5.86667 0 10.125 6.4 0 
10.6562 5.86667 0 9.0625 6.4 0 9.59375 5.86667 0 
8.53125 5.86667 0 23.9375 5.33333 0 24.4688 4.8 0 
22.875 5.33333 0 23.4062 4.8 0 21.8125 5.33333 0 
22.3438 4.8 0 20.75 5.33333 0 21.2812 4.8 0 
19.6875 5.33333 0 20.2188 4.8 0 18.625 5.33333 0 
19.1562 4.8 0 17.5625 5.33333 0 18.0938 4.8 0 
16.5 5.33333 0 17.0312 4.8 0 15.4375 5.33333 0 
15.9688 4.8 0 14.375 5.33333 0 14.9062 4.8 0 
13.3125 5.33333 0 13.8438 4.8 0 12.25 5.33333 0 
12.7812 4.8 0 11.1875 5.33333 0 11.7188 4.8 0 
10.125 5.33333 0 10.6562 4.8 0 9.0625 5.33333 0 
9.59375 4.8 0 8.53125 4.8 0 23.9375 4.26667 0 
24.4688 3.73333 0 22.875 4.26667 0 23.4062 3.73333 0 
21.8125 4.26667 0 22.3438 3.73333 0 20.75 4.26667 0 
21.2812 3.73333 0 19.6875 4.26667 0 20.2188 3.73333 0 
18.625 4.26667 0 19.1562 3.73333 0 17.5625 4.26667 0 
18.0938 3.73333 0 16.5 4.26667 0 17.0312 3.73333 0 
15.4375 4.26667 0 15.9688 3.73333 0 14.375 4.26667 0 
14.9062 3.73333 0 13.3125 4.26667 0 13.8438 3.73333 0 
12.25 4.26667 0 12.7812 3.73333 0 11.1875 4.26667 0 
11.7188 3.73333 0 10.125 4.26667 0 10.6562 3.73333 0 
9.0625 4.26667 0 9.59375 3.73333 0 8.53125 3.73333 0 
23.9375 3.2 0 24.4688 2.66667 0 22.875 3.2 0 
23.4062 2.66667 0 21.8125 3.2 0 22.3438 2.66667 0 
20.75 3.2 0 21.2812 2.66667 0 19.6875 3.2 0 
20.2188 2.66667 0 18.625 3.2 0 19.1562 2.66667 0 
17.5625 3.2 0 18.0938 2.66667 0 16.5 3.2 0 
17.0312 2.66667 0 15.4375 3.2 0 15.9688 2.66667 0 
14.375 3.2 0 14.9062 2.66667 0 13.3125 3.2 0 
13.8438 2.66667 0 12.25 3.2 0 12.7812 2.66667 0 
11.1875 3.2 0 11.7188 2.66667 0 10.125 3.2 0 
10.6562 2.66667 0 9.0625 3.2 0 9.59375 2.66667 0 
8.53125 2.66667 0 23.9375 2.13333 0 24.4688 1.6 0 
22.875 2.13333 0 23.4062 1.6 0 21.8125 2.13333 0 
22.3438 1.6 0 20.75 2.13333 0 21.2812 1.6 0 
19.6875 2.13333 0 20.2188 1.6 0 18.625 2.13333 0 
19.1562 1.6 0 17.5625 2.13333 0 18.0938 1.6 0 
16.5 2.13333 0 17.0312 1.6 0 15.4375 2.13333 0 
15.9688 1.6 0 14.375 2.13333 0 14.9062 1.6 0 
13.3125 2.13333 0 13.8438 1.6 0 12.25 2.13333 0 
12.7812 1.6 0 11.1875 2.13333 0 11.7188 1.6 0 
10.125 2.13333 0 10.6562 1.6 0 9.0625 2.13333 0 
9.59375 1.6 0 8.53125 1.6 0 23.9375 1.06667 0 
24.4688 0.533333 0 22.875 1.06667 0 23.4062 0.533333 0 
21.8125 1.06667 0 22.3438 0.533333 0 20.75 1.06667 0 
21.2812 0.533333 0 19.6875 1.06667 0 20.2188 0.533333 0 
18.625 1.06667 0 19.1562 0.533333 0 17.5625 1.06667 0 
18.0938 0.533333 0 16.5 1.06667 0 17.0312 0.533333 0 
15.4375 1.06667 0 15.9688 0.533333 0 14.375 1.06667 0 
14.9062 0.533333 0 13.3125 1.06667 0 13.8438 0.533333 0 
12.25 1.06667 0 12.7812 0.533333 0 11.1875 1.06667 0 
11.7188 0.533333 0 10.125 1.06667 0 10.6562 0.533333 0 
9.0625 1.06667 0 9.59375 0.533333 0 8.53125 0.533333 0 
23.9375 2.06978e-11 0 24.4688 -0.533333 0 22.875 2.06977e-11 0 
23.4062 -0.533333 0 21.8125 2.06978e-11 0 22.3438 -0.533333 0 
20.75 2.06974e-11 0 21.2812 -0.533333 0 19.6875 2.06976e-11 0 
20.2188 -0.533333 0 18.625 2.06977e-11 0 19.1562 -0.533333 0 
17.5625 2.06976e-11 0 18.0938 -0.533333 0 16.5 2.06977e-11 0 
17.0312 -0.533333 0 15.4375 2.06976e-11 0 15.9688 -0.533333 0 
14.375 2.06977e-11 0 14.9062 -0.533333 0 13.3125 2.06977e-11 0 
13.8438 -0.533333 0 12.25 2.06977e-11 0 12.7812 -0.533333 0 
11.1875 2.06977e-11 0 11.7188 -0.533333 0 10.125 2.06977e-11 0 
10.6562 -0.533333 0 9.0625 2.06977e-11 0 9.59375 -0.533333 0 
8.53125 -0.533333 0 23.9375 -1.06667 0 24.4688 -1.6 0 
22.875 -1.06667 0 23.4062 -1.6 0 21.8125 -1.06667 0 
22.3438 -1.6 0 20.75 -1.06667 0 21.2812 -1.6 0 
19.6875 -1.06667 0 20.2188 -1.6 0 18.625 -1.06667 0 
19.1562 -1.6 0 17.5625 -1.06667 0 18.0938 -1.6 0 
16.5 -1.06667 0 17.0312 -1.6 0 15.4375 -1.06667 0 
15.9688 -1.6 0 14.375 -1.06667 0 14.9062 -1.6 0 
13.3125 -1.06667 0 13.8438 -1.6 0 12.25 -1.06667 0 
12.7812 -1.6 0 11.1875 -1.06667 0 11.7188 -1.6 0 
10.125 -1.06667 0 10.6562 -1.6 0 9.0625 -1.06667 0 
9.59375 -1.6 0 8.53125 -1.6 0 23.9375 -2.13333 0 
24.4688 -2.66667 0 22.875 -2.13333 0 23.4062 -2.66667 0 
21.8125 -2.13333 0 22.3438 -2.66667 0 20.75 -2.13333 0 
21.2812 -2.66667 0 19.6875 -2.13333 0 20.2188 -2.66667 0 
18.625 -2.13333 0 19.1562 -2.66667 0 17.5625 -2.13333 0 
18.0938 -2.66667 0 16.5 -2.13333 0 17.0312 -2.66667 0 
15.4375 -2.13333 0 15.9688 -2.66667 0 14.375 -2.13333 0 
14.9062 -2.66667 0 13.3125 -2.13333 0 13.8438 -2.66667 0 
12.25 -2.13333 0 12.7812 -2.66667 0 11.1875 -2.13333 0 
11.7188 -2.66667 0 10.125 -2.13333 0 10.6562 -2.66667 0 
9.0625 -2.13333 0 9.59375 -2.66667 0 8.53125 -2.66667 0 
23.9375 -3.2 0 24.4688 -3.73333 0 22.875 -3.2 0 
23.4062 -3.73333 0 21.8125 -3.2 0 22.3438 -3.73333 0 
20.75 -3.2 0 21.2812 -3.73333 0 19.6875 -3.2 0 
20.2188 -3.73333 0 18.625 -3.2 0 19.1562 -3.73333 0 
17.5625 -3.2 0 18.0938 -3.73333 0 16.5 -3.2 0 
17.0312 -3.73333 0 15.4375 -3.2 0 15.9688 -3.73333 0 
14.375 -3.2 0 14.9062 -3.73333 0 13.3125 -3.2 0 
13.8438 -3.73333 0 12.25 -3.2 0 12.7812 -3.73333 0 
11.1875 -3.2 0 11.7188 -3.73333 0 10.125 -3.2 0 
10.6562 -3.73333 0 9.0625 -3.2 0 9.59375 -3.73333 0 
8.53125 -3.73333 0 23.9375 -4.26667 0 24.4688 -4.8 0 
22.875 -4.26667 0 23.4062 -4.8 0 21.8125 -4.26667 0 
22.3438 -4.8 0 20.75 -4.26667 0 21.2812 -4.8 0 
19.6875 -4.26667 0 20.2188 -4.8 0 18.625 -4.26667 0 
19.1562 -4.8 0 17.5625 -4.26667 0 18.0938 -4.8 0 
16.5 -4.26667 0 17.0312 -4.8 0 15.4375 -4.26667 0 
15.9688 -4.8 0 14.375 -4.26667 0 14.9062 -4.8 0 
13.3125 -4.26667 0 13.8438 -4.8 0 12.25 -4.26667 0 
12.7812 -4.8 0 11.1875 -4.26667 0 11.7188 -4.8 0 
10.125 -4.26667 0 10.6562 -4.8 0 9.0625 -4.26667 0 
9.59375 -4.8 0 8.53125 -4.8 0 23.9375 -5.33333 0 
24.4688 -5.86667 0 22.875 -5.33333 0 23.4062 -5.86667 0 
21.8125 -5.33333 0 22.3438 -5.86667 0 20.75 -5.33333 0 
21.2812 -5.86667 0 19.6875 -5.33333 0 20.2188 -5.86667 0 
18.625 -5.33333 0 19.1562 -5.86667 0 17.5625 -5.33333 0 
18.0938 -5.86667 0 16.5 -5.33333 0 17.0312 -5.86667 0 
15.4375 -5.33333 0 15.9688 -5.86667 0 14.375 -5.33333 0 
14.9062 -5.86667 0 13.3125 -5.33333 0 13.8438 -5.86667 0 
12.25 -5.33333 0 12.7812 -5.86667 0 11.1875 -5.33333 0 
11.7188 -5.86667 0 10.125 -5.33333 0 10.6562 -5.86667 0 
9.0625 -5.33333 0 9.59375 -5.86667 0 8.53125 -5.86667 0 
23.9375 -6.4 0 24.4688 -6.93333 0 22.875 -6.4 0 
23.4062 -6.93333 0 21.8125 -6.4 0 22.3438 -6.93333 0 
20.75 -6.4 0 21.2812 -6.93333 0 19.6875 -6.4 0 
20.2188 -6.93333 0 18.625 -6.4 0 19.1562 -6.93333 0 
17.5625 -6.4 0 18.0938 -6.93333 0 16.5 -6.4 0 
17.0312 -6.93333 0 15.4375 -6.4 0 15.9688 -6.93333 0 
14.375 -6.4 0 14.9062 -6.93333 0 13.3125 -6.4 0 
13.8438 -6.93333 0 12.25 -6.4 0 12.7812 -6.93333 0 
11.1875 -6.4 0 11.7188 -6.93333 0 10.125 -6.4 0 
10.6562 -6.93333 0 9.0625 -6.4 0 9.59375 -6.93333 0 
8.53125 -6.93333 0 23.9375 -7.46667 0 22.875 -7.46667 0 
21.8125 -7.46667 0 20.75 -7.46667 0 19.6875 -7.46667 0 
18.625 -7.46667 0 17.5625 -7.46667 0 16.5 -7.46667 0 
15.4375 -7.46667 0 14.375 -7.46667 0 13.3125 -7.46667 0 
12.25 -7.46667 0 11.1875 -7.46667 0 10.125 -7.46667 0 
9.0625 -7.46667 0 23.9375 -9.01724 0 22.875 -9.01724 0 
21.8125 -9.01724 0 20.75 -9.01724 0 19.6875 -9.01724 0 
18.625 -9.01724 0 17.5625 -9.01724 0 16.5 -9.01724 0 
15.4375 -9.01724 0 14.375 -9.01724 0 13.3125 -9.01724 0 
12.25 -9.01724 0 11.1875 -9.01724 0 10.125 -9.01724 0 
9.0625 -9.01724 0 23.9375 -10.0345 0 22.875 -10.0345 0 
21.8125 -10.0345 0 20.75 -10.0345 0 19.6875 -10.0345 0 
18.625 -10.0345 0 17.5625 -10.0345 0 16.5 -10.0345 0 
15.4375 -10.0345 0 14.375 -10.0345 0 13.3125 -10.0345 0 
12.25 -10.0345 0 11.1875 -10.0345 0 10.125 -10.0345 0 
9.0625 -10.0345 0 23.9375 -11.0517 0 22.875 -11.0517 0 
21.8125 -11.0517 0 20.75 -11.0517 0 19.6875 -11.0517 0 
18.625 -11.0517 0 17.5625 -11.0517 0 16.5 -11.0517 0 
15.4375 -11.0517 0 14.375 -11.0517 0 13.3125 -11.0517 0 
12.25 -11.0517 0 11.1875 -11.0517 0 10.125 -11.0517 0 
9.0625 -11.0517 0 23.9375 -12.069 0 22.875 -12.069 0 
21.8125 -12.069 0 20.75 -12.069 0 19.6875 -12.069 0 
18.625 -12.069 0 17.5625 -12.069 0 16.5 -12.069 0 
15.4375 -12.069 0 14.375 -12.069 0 13.3125 -12.069 0 
12.25 -12.069 0 11.1875 -12.069 0 10.125 -12.069 0 
9.0625 -12.069 0 23.9375 -13.0862 0 22.875 -13.0862 0 
21.8125 -13.0862 0 20.75 -13.0862 0 19.6875 -13.0862 0 
18.625 -13.0862 0 17.5625 -13.0862 0 16.5 -13.0862 0 
15.4375 -13.0862 0 14.375 -13.0862 0 13.3125 -13.0862 0 
12.25 -13.0862 0 11.1875 -13.0862 0 10.125 -13.0862 0 
9.0625 -13.0862 0 23.9375 -14.1034 0 22.875 -14.1034 0 
21.8125 -14.1034 0 20.75 -14.1034 0 19.6875 -14.1034 0 
18.625 -14.1034 0 17.5625 -14.1034 0 16.5 -14.1034 0 
15.4375 -14.1034 0 14.375 -14.1034 0 13.3125 -14.1034 0 
12.25 -14.1034 0 11.1875 -14.1034 0 10.125 -14.1034 0 
9.0625 -14.1034 0 23.9375 -15.1207 0 22.875 -15.1207 0 
21.8125 -15.1207 0 20.75 -15.1207 0 19.6875 -15.1207 0 
18.625 -15.1207 0 17.5625 -15.1207 0 16.5 -15.1207 0 
15.4375 -15.1207 0 14.375 -15.1207 0 13.3125 -15.1207 0 
12.25 -15.1207 0 11.1875 -15.1207 0 10.125 -15.1207 0 
9.0625 -15.1207 0 23.9375 -16.1379 0 22.875 -16.1379 0 
21.8125 -16.1379 0 20.75 -16.1379 0 19.6875 -16.1379 0 
18.625 -16.1379 0 17.5625 -16.1379 0 16.5 -16.1379 0 
15.4375 -16.1379 0 14.375 -16.1379 0 13.3125 -16.1379 0 
12.25 -16.1379 0 11.1875 -16.1379 0 10.125 -16.1379 0 
9.0625 -16.1379 0 23.9375 -17.1552 0 22.875 -17.1552 0 
21.8125 -17.1552 0 20.75 -17.1552 0 19.6875 -17.1552 0 
18.625 -17.1552 0 17.5625 -17.1552 0 16.5 -17.1552 0 
15.4375 -17.1552 0 14.375 -17.1552 0 13.3125 -17.1552 0 
12.25 -17.1552 0 11.1875 -17.1552 0 10.125 -17.1552 0 
9.0625 -17.1552 0 23.9375 -18.1724 0 22.875 -18.1724 0 
21.8125 -18.1724 0 20.75 -18.1724 0 19.6875 -18.1724 0 
18.625 -18.1724 0 17.5625 -18.1724 0 16.5 -18.1724 0 
15.4375 -18.1724 0 14.375 -18.1724 0 13.3125 -18.1724 0 
12.25 -18.1724 0 11.1875 -18.1724 0 10.125 -18.1724 0 
9.0625 -18.1724 0 23.9375 -19.1897 0 22.875 -19.1897 0 
21.8125 -19.1897 0 20.75 -19.1897 0 19.6875 -19.1897 0 
18.625 -19.1897 0 17.5625 -19.1897 0 16.5 -19.1897 0 
15.4375 -19.1897 0 14.375 -19.1897 0 13.3125 -19.1897 0 
12.25 -19.1897 0 11.1875 -19.1897 0 10.125 -19.1897 0 
9.0625 -19.1897 0 23.9375 -20.2069 0 22.875 -20.2069 0 
21.8125 -20.2069 0 20.75 -20.2069 0 19.6875 -20.2069 0 
18.625 -20.2069 0 17.5625 -20.2069 0 16.5 -20.2069 0 
15.4375 -20.2069 0 14.375 -20.2069 0 13.3125 -20.2069 0 
12.25 -20.2069 0 11.1875 -20.2069 0 10.125 -20.2069 0 
9.0625 -20.2069 0 23.9375 -21.2241 0 22.875 -21.2241 0 
21.8125 -21.2241 0 20.75 -21.2241 0 19.6875 -21.2241 0 
18.625 -21.2241 0 17.5625 -21.2241 0 16.5 -21.2241 0 
15.4375 -21.2241 0 14.375 -21.2241 0 13.3125 -21.2241 0 
12.25 -21.2241 0 11.1875 -21.2241 0 10.125 -21.2241 0 
9.0625 -21.2241 0 23.9375 -22.2414 0 22.875 -22.2414 0 
21.8125 -22.2414 0 20.75 -22.2414 0 19.6875 -22.2414 0 
18.625 -22.2414 0 17.5625 -22.2414 0 16.5 -22.2414 0 
15.4375 -22.2414 0 14.375 -22.2414 0 13.3125 -22.2414 0 
12.25 -22.2414 0 11.1875 -22.2414 0 10.125 -22.2414 0 
9.0625 -22.2414 0 23.9375 -23.2586 0 22.875 -23.2586 0 
21.8125 -23.2586 0 20.75 -23.2586 0 19.6875 -23.2586 0 
18.625 -23.2586 0 17.5625 -23.2586 0 16.5 -23.2586 0 
15.4375 -23.2586 0 14.375 -23.2586 0 13.3125 -23.2586 0 
12.25 -23.2586 0 11.1875 -23.2586 0 10.125 -23.2586 0 
9.0625 -23.2586 0 23.9375 -24.2759 0 22.875 -24.2759 0 
21.8125 -24.2759 0 20.75 -24.2759 0 19.6875 -24.2759 0 
18.625 -24.2759 0 17.5625 -24.2759 0 16.5 -24.2759 0 
15.4375 -24.2759 0 14.375 -24.2759 0 13.3125 -24.2759 0 
12.25 -24.2759 0 11.1875 -24.2759 0 10.125 -24.2759 0 
9.0625 -24.2759 0 23.9375 -25.2931 0 22.875 -25.2931 0 
21.8125 -25.2931 0 20.75 -25.2931 0 19.6875 -25.2931 0 
18.625 -25.2931 0 17.5625 -25.2931 0 16.5 -25.2931 0 
15.4375 -25.2931 0 14.375 -25.2931 0 13.3125 -25.2931 0 
12.25 -25.2931 0 11.1875 -25.2931 0 10.125 -25.2931 0 
9.0625 -25.2931 0 23.9375 -26.3103 0 22.875 -26.3103 0 
21.8125 -26.3103 0 20.75 -26.3103 0 19.6875 -26.3103 0 
18.625 -26.3103 0 17.5625 -26.3103 0 16.5 -26.3103 0 
15.4375 -26.3103 0 14.375 -26.3103 0 13.3125 -26.3103 0 
12.25 -26.3103 0 11.1875 -26.3103 0 10.125 -26.3103 0 
9.0625 -26.3103 0 23.9375 -27.3276 0 22.875 -27.3276 0 
21.8125 -27.3276 0 20.75 -27.3276 0 19.6875 -27.3276 0 
18.625 -27.3276 0 17.5625 -27.3276 0 16.5 -27.3276 0 
15.4375 -27.3276 0 14.375 -27.3276 0 13.3125 -27.3276 0 
12.25 -27.3276 0 11.1875 -27.3276 0 10.125 -27.3276 0 
9.0625 -27.3276 0 23.9375 -28.3448 0 22.875 -28.3448 0 
21.8125 -28.3448 0 20.75 -28.3448 0 19.6875 -28.3448 0 
18.625 -28.3448 0 17.5625 -28.3448 0 16.5 -28.3448 0 
15.4375 -28.3448 0 14.375 -28.3448 0 13.3125 -28.3448 0 
12.25 -28.3448 0 11.1875 -28.3448 0 10.125 -28.3448 0 
9.0625 -28.3448 0 23.9375 -29.3621 0 22.875 -29.3621 0 
21.8125 -29.3621 0 20.75 -29.3621 0 19.6875 -29.3621 0 
18.625 -29.3621 0 17.5625 -29.3621 0 16.5 -29.3621 0 
15.4375 -29.3621 0 14.375 -29.3621 0 13.3125 -29.3621 0 
12.25 -29.3621 0 11.1875 -29.3621 0 10.125 -29.3621 0 
9.0625 -29.3621 0 23.9375 -30.3793 0 22.875 -30.3793 0 
21.8125 -30.3793 0 20.75 -30.3793 0 19.6875 -30.3793 0 
18.625 -30.3793 0 17.5625 -30.3793 0 16.5 -30.3793 0 
15.4375 -30.3793 0 14.375 -30.3793 0 13.3125 -30.3793 0 
12.25 -30.3793 0 11.1875 -30.3793 0 10.125 -30.3793 0 
9.0625 -30.3793 0 23.9375 -31.3966 0 22.875 -31.3966 0 
21.8125 -31.3966 0 20.75 -31.3966 0 19.6875 -31.3966 0 
18.625 -31.3966 0 17.5625 -31.3966 0 16.5 -31.3966 0 
15.4375 -31.3966 0 14.375 -31.3966 0 13.3125 -31.3966 0 
12.25 -31.3966 0 11.1875 -31.3966 0 10.125 -31.3966 0 
9.0625 -31.3966 0 23.9375 -32.4138 0 22.875 -32.4138 0 
21.8125 -32.4138 0 20.75 -32.4138 0 19.6875 -32.4138 0 
18.625 -32.4138 0 17.5625 -32.4138 0 16.5 -32.4138 0 
15.4375 -32.4138 0 14.375 -32.4138 0 13.3125 -32.4138 0 
12.25 -32.4138 0 11.1875 -32.4138 0 10.125 -32.4138 0 
9.0625 -32.4138 0 23.9375 -33.431 0 22.875 -33.431 0 
21.8125 -33.431 0 20.75 -33.431 0 19.6875 -33.431 0 
18.625 -33.431 0 17.5625 -33.431 0 16.5 -33.431 0 
15.4375 -33.431 0 14.375 -33.431 0 13.3125 -33.431 0 
12.25 -33.431 0 11.1875 -33.431 0 10.125 -33.431 0 
9.0625 -33.431 0 23.9375 -34.4483 0 22.875 -34.4483 0 
21.8125 -34.4483 0 20.75 -34.4483 0 19.6875 -34.4483 0 
18.625 -34.4483 0 17.5625 -34.4483 0 16.5 -34.4483 0 
15.4375 -34.4483 0 14.375 -34.4483 0 13.3125 -34.4483 0 
12.25 -34.4483 0 11.1875 -34.4483 0 10.125 -34.4483 0 
9.0625 -34.4483 0 23.9375 -35.4655 0 22.875 -35.4655 0 
21.8125 -35.4655 0 20.75 -35.4655 0 19.6875 -35.4655 0 
18.625 -35.4655 0 17.5625 -35.4655 0 16.5 -35.4655 0 
15.4375 -35.4655 0 14.375 -35.4655 0 13.3125 -35.4655 0 
12.25 -35.4655 0 11.1875 -35.4655 0 10.125 -35.4655 0 
9.0625 -35.4655 0 23.9375 -36.4828 0 22.875 -36.4828 0 
21.8125 -36.4828 0 20.75 -36.4828 0 19.6875 -36.4828 0 
18.625 -36.4828 0 17.5625 -36.4828 0 16.5 -36.4828 0 
15.4375 -36.4828 0 14.375 -36.4828 0 13.3125 -36.4828 0 
12.25 -36.4828 0 11.1875 -36.4828 0 10.125 -36.4828 0 
9.0625 -36.4828 0 23.9375 -8.50862 0 24.4688 -9.01724 0 
22.875 -8.50862 0 23.4062 -9.01724 0 21.8125 -8.50862 0 
22.3438 -9.01724 0 20.75 -8.50862 0 21.2812 -9.01724 0 
19.6875 -8.50862 0 20.2188 -9.01724 0 18.625 -8.50862 0 
19.1562 -9.01724 0 17.5625 -8.50862 0 18.0938 -9.01724 0 
16.5 -8.50862 0 17.0312 -9.01724 0 15.4375 -8.50862 0 
15.9688 -9.01724 0 14.375 -8.50862 0 14.9062 -9.01724 0 
13.3125 -8.50862 0 13.8438 -9.01724 0 12.25 -8.50862 0 
12.7812 -9.01724 0 11.1875 -8.50862 0 11.7188 -9.01724 0 
10.125 -8.50862 0 10.6562 -9.01724 0 9.0625 -8.50862 0 
9.59375 -9.01724 0 8.53125 -9.01724 0 23.9375 -9.52586 0 
24.4688 -10.0345 0 22.875 -9.52586 0 23.4062 -10.0345 0 
21.8125 -9.52586 0 22.3438 -10.0345 0 20.75 -9.52586 0 
21.2812 -10.0345 0 19.6875 -9.52586 0 20.2188 -10.0345 0 
18.625 -9.52586 0 19.1562 -10.0345 0 17.5625 -9.52586 0 
18.0938 -10.0345 0 16.5 -9.52586 0 17.0312 -10.0345 0 
15.4375 -9.52586 0 15.9688 -10.0345 0 14.375 -9.52586 0 
14.9062 -10.0345 0 13.3125 -9.52586 0 13.8438 -10.0345 0 
12.25 -9.52586 0 12.7812 -10.0345 0 11.1875 -9.52586 0 
11.7188 -10.0345 0 10.125 -9.52586 0 10.6562 -10.0345 0 
9.0625 -9.52586 0 9.59375 -10.0345 0 8.53125 -10.0345 0 
23.9375 -10.5431 0 24.4688 -11.0517 0 22.875 -10.5431 0 
23.4062 -11.0517 0 21.8125 -10.5431 0 22.3438 -11.0517 0 
20.75 -10.5431 0 21.2812 -11.0517 0 19.6875 -10.5431 0 
20.2188 -11.0517 0 18.625 -10.5431 0 19.1562 -11.0517 0 
17.5625 -10.5431 0 18.0938 -11.0517 0 16.5 -10.5431 0 
17.0312 -11.0517 0 15.4375 -10.5431 0 15.9688 -11.0517 0 
14.375 -10.5431 0 14.9062 -11.0517 0 13.3125 -10.5431 0 
13.8438 -11.0517 0 12.25 -10.5431 0 12.7812 -11.0517 0 
11.1875 -10.5431 0 11.7188 -11.0517 0 10.125 -10.5431 0 
10.6562 -11.0517 0 9.0625 -10.5431 0 9.59375 -11.0517 0 
8.53125 -11.0517 0 23.9375 -11.5603 0 24.4688 -12.069 0 
22.875 -11.5603 0 23.4062 -12.069 0 21.8125 -11.5603 0 
22.3438 -12.069 0 20.75 -11.5603 0 21.2812 -12.069 0 
19.6875 -11.5603 0 20.2188 -12.069 0 18.625 -11.5603 0 
19.1562 -12.069 0 17.5625 -11.5603 0 18.0938 -12.069 0 
16.5 -11.5603 0 17.0312 -12.069 0 15.4375 -11.5603 0 
15.9688 -12.069 0 14.375 -11.5603 0 14.9062 -12.069 0 
13.3125 -11.5603 0 13.8438 -12.069 0 12.25 -11.5603 0 
12.7812 -12.069 0 11.1875 -11.5603 0 11.7188 -12.069 0 
10.125 -11.5603 0 10.6562 -12.069 0 9.0625 -11.5603 0 
9.59375 -12.069 0 8.53125 -12.069 0 23.9375 -12.5776 0 
24.4688 -13.0862 0 22.875 -12.5776 0 23.4062 -13.0862 0 
21.8125 -12.5776 0 22.3438 -13.0862 0 20.75 -12.5776 0 
21.2812 -13.0862 0 19.6875 -12.5776 0 20.2188 -13.0862 0 
18.625 -12.5776 0 19.1562 -13.0862 0 17.5625 -12.5776 0 
18.0938 -13.0862 0 16.5 -12.5776 0 17.0312 -13.0862 0 
15.4375 -12.5776 0 15.9688 -13.0862 0 14.375 -12.5776 0 
14.9062 -13.0862 0 13.3125 -12.5776 0 13.8438 -13.0862 0 
12.25 -12.5776 0 12.7812 -13.0862 0 11.1875 -12.5776 0 
11.7188 -13.0862 0 10.125 -12.5776 0 10.6562 -13.0862 0 
9.0625 -12.5776 0 9.59375 -13.0862 0 8.53125 -13.0862 0 
23.9375 -13.5948 0 24.4688 -14.1034 0 22.875 -13.5948 0 
23.4062 -14.1034 0 21.8125 -13.5948 0 22.3438 -14.1034 0 
20.75 -13.5948 0 21.2812 -14.1034 0 19.6875 -13.5948 0 
20.2188 -14.1034 0 18.625 -13.5948 0 19.1562 -14.1034 0 
17.5625 -13.5948 0 18.0938 -14.1034 0 16.5 -13.5948 0 
17.0312 -14.1034 0 15.4375 -13.5948 0 15.9688 -14.1034 0 
14.375 -13.5948 0 14.9062 -14.1034 0 13.3125 -13.5948 0 
13.8438 -14.1034 0 12.25 -13.5948 0 12.7812 -14.1034 0 
11.1875 -13.5948 0 11.7188 -14.1034 0 10.125 -13.5948 0 
10.6562 -14.1034 0 9.0625 -13.5948 0 9.59375 -14.1034 0 
8.53125 -14.1034 0 23.9375 -14.6121 0 24.4688 -15.1207 0 
22.875 -14.6121 0 23.4062 -15.1207 0 21.8125 -14.6121 0 
22.3438 -15.1207 0 20.75 -14.6121 0 21.2812 -15.1207 0 
19.6875 -14.6121 0 20.2188 -15.1207 0 18.625 -14.6121 0 
19.1562 -15.1207 0 17.5625 -14.6121 0 18.0938 -15.1207 0 
16.5 -14.6121 0 17.0312 -15.1207 0 15.4375 -14.6121 0 
15.9688 -15.1207 0 14.375 -14.6121 0 14.9062 -15.1207 0 
13.3125 -14.6121 0 13.8438 -15.1207 0 12.25 -14.6121 0 
12.7812 -15.1207 0 11.1875 -14.6121 0 11.7188 -15.1207 0 
10.125 -14.6121 0 10.6562 -15.1207 0 9.0625 -14.6121 0 
9.59375 -15.1207 0 8.53125 -15.1207 0 23.9375 -15.6293 0 
24.4688 -16.1379 0 22.875 -15.6293 0 23.4062 -16.1379 0 
21.8125 -15.6293 0 22.3438 -16.1379 0 20.75 -15.6293 0 
21.2812 -16.1379 0 19.6875 -15.6293 0 20.2188 -16.1379 0 
18.625 -15.6293 0 19.1562 -16.1379 0 17.5625 -15.6293 0 
18.0938 -16.1379 0 16.5 -15.6293 0 17.0312 -16.1379 0 
15.4375 -15.6293 0 15.9688 -16.1379 0 14.375 -15.6293 0 
14.9062 -16.1379 0 13.3125 -15.6293 0 13.8438 -16.1379 0 
12.25 -15.6293 0 12.7812 -16.1379 0 11.1875 -15.6293 0 
11.7188 -16.1379 0 10.125 -15.6293 0 10.6562 -16.1379 0 
9.0625 -15.6293 0 9.59375 -16.1379 0 8.53125 -16.1379 0 
23.9375 -16.6466 0 24.4688 -17.1552 0 22.875 -16.6466 0 
23.4062 -17.1552 0 21.8125 -16.6466 0 22.3438 -17.1552 0 
20.75 -16.6466 0 21.2812 -17.1552 0 19.6875 -16.6466 0 
20.2188 -17.1552 0 18.625 -16.6466 0 19.1562 -17.1552 0 
17.5625 -16.6466 0 18.0938 -17.1552 0 16.5 -16.6466 0 
17.0312 -17.1552 0 15.4375 -16.6466 0 15.9688 -17.1552 0 
14.375 -16.6466 0 14.9062 -17.1552 0 13.3125 -16.6466 0 
13.8438 -17.1552 0 12.25 -16.6466 0 12.7812 -17.1552 0 
11.1875 -16.6466 0 11.7188 -17.1552 0 10.125 -16.6466 0 
10.6562 -17.1552 0 9.0625 -16.6466 0 9.59375 -17.1552 0 
8.53125 -17.1552 0 23.9375 -17.6638 0 24.4688 -18.1724 0 
22.875 -17.6638 0 23.4062 -18.1724 0 21.8125 -17.6638 0 
22.3438 -18.1724 0 20.75 -17.6638 0 21.2812 -18.1724 0 
19.6875 -17.6638 0 20.2188 -18.1724 0 18.625 -17.6638 0 
19.1562 -18.1724 0 17.5625 -17.6638 0 18.0938 -18.1724 0 
16.5 -17.6638 0 17.0312 -18.1724 0 15.4375 -17.6638 0 
15.9688 -18.1724 0 14.375 -17.6638 0 14.9062 -18.1724 0 
13.3125 -17.6638 0 13.8438 -18.1724 0 12.25 -17.6638 0 
12.7812 -18.1724 0 11.1875 -17.6638 0 11.7188 -18.1724 0 
10.125 -17.6638 0 10.6562 -18.1724 0 9.0625 -17.6638 0 
9.59375 -18.1724 0 8.53125 -18.1724 0 23.9375 -18.681 0 
24.4688 -19.1897 0 22.875 -18.681 0 23.4062 -19.1897 0 
21.8125 -18.681 0 22.3438 -19.1897 0 20.75 -18.681 0 
21.2812 -19.1897 0 19.6875 -18.681 0 20.2188 -19.1897 0 
18.625 -18.681 0 19.1562 -19.1897 0 17.5625 -18.681 0 
18.0938 -19.1897 0 16.5 -18.681 0 17.0312 -19.1897 0 
15.4375 -18.681 0 15.9688 -19.1897 0 14.375 -18.681 0 
14.9062 -19.1897 0 13.3125 -18.681 0 13.8438 -19.1897 0 
12.25 -18.681 0 12.7812 -19.1897 0 11.1875 -18.681 0 
11.7188 -19.1897 0 10.125 -18.681 0 10.6562 -19.1897 0 
9.0625 -18.681 0 9.59375 -19.1897 0 8.53125 -19.1897 0 
23.9375 -19.6983 0 24.4688 -20.2069 0 22.875 -19.6983 0 
23.4062 -20.2069 0 21.8125 -19.6983 0 22.3438 -20.2069 0 
20.75 -19.6983 0 21.2812 -20.2069 0 19.6875 -19.6983 0 
20.2188 -20.2069 0 18.625 -19.6983 0 19.1562 -20.2069 0 
17.5625 -19.6983 0 18.0938 -20.2069 0 16.5 -19.6983 0 
17.0312 -20.2069 0 15.4375 -19.6983 0 15.9688 -20.2069 0 
14.375 -19.6983 0 14.9062 -20.2069 0 13.3125 -19.6983 0 
13.8438 -20.2069 0 12.25 -19.6983 0 12.7812 -20.2069 0 
11.1875 -19.6983 0 11.7188 -20.2069 0 10.125 -19.6983 0 
10.6562 -20.2069 0 9.0625 -19.6983 0 9.59375 -20.2069 0 
8.53125 -20.2069 0 23.9375 -20.7155 0 24.4688 -21.2241 0 
22.875 -20.7155 0 23.4062 -21.2241 0 21.8125 -20.7155 0 
22.3438 -21.2241 0 20.75 -20.7155 0 21.2812 -21.2241 0 
19.6875 -20.7155 0 20.2188 -21.2241 0 18.625 -20.7155 0 
19.1562 -21.2241 0 17.5625 -20.7155 0 18.0938 -21.2241 0 
16.5 -20.7155 0 17.0312 -21.2241 0 15.4375 -20.7155 0 
15.9688 -21.2241 0 14.375 -20.7155 0 14.9062 -21.2241 0 
13.3125 -20.7155 0 13.8438 -21.2241 0 12.25 -20.7155 0 
12.7812 -21.2241 0 11.1875 -20.7155 0 11.7188 -21.2241 0 
10.125 -20.7155 0 10.6562 -21.2241 0 9.0625 -20.7155 0 
9.59375 -21.2241 0 8.53125 -21.2241 0 23.9375 -21.7328 0 
24.4688 -22.2414 0 22.875 -21.7328 0 23.4062 -22.2414 0 
21.8125 -21.7328 0 22.3438 -22.2414 0 20.75 -21.7328 0 
21.2812 -22.2414 0 19.6875 -21.7328 0 20.2188 -22.2414 0 
18.625 -21.7328 0 19.1562 -22.2414 0 17.5625 -21.7328 0 
18.0938 -22.2414 0 16.5 -21.7328 0 17.0312 -22.2414 0 
15.4375 -21.7328 0 15.9688 -22.2414 0 14.375 -21.7328 0 
14.9062 -22.2414 0 13.3125 -21.7328 0 13.8438 -22.2414 0 
12.25 -21.7328 0 12.7812 -22.2414 0 11.1875 -21.7328 0 
11.7188 -22.2414 0 10.125 -21.7328 0 10.6562 -22.2414 0 
9.0625 -21.7328 0 9.59375 -22.2414 0 8.53125 -22.2414 0 
23.9375 -22.75 0 24.4688 -23.2586 0 22.875 -22.75 0 
23.4062 -23.2586 0 21.8125 -22.75 0 22.3438 -23.2586 0 
20.75 -22.75 0 21.2812 -23.2586 0 19.6875 -22.75 0 
20.2188 -23.2586 0 18.625 -22.75 0 19.1562 -23.2586 0 
17.5625 -22.75 0 18.0938 -23.2586 0 16.5 -22.75 0 
17.0312 -23.2586 0 15.4375 -22.75 0 15.9688 -23.2586 0 
14.375 -22.75 0 14.9062 -23.2586 0 13.3125 -22.75 0 
13.8438 -23.2586 0 12.25 -22.75 0 12.7812 -23.2586 0 
11.1875 -22.75 0 11.7188 -23.2586 0 10.125 -22.75 0 
10.6562 -23.2586 0 9.0625 -22.75 0 9.59375 -23.2586 0 
8.53125 -23.2586 0 23.9375 -23.7672 0 24.4688 -24.2759 0 
22.875 -23.7672 0 23.4062 -24.2759 0 21.8125 -23.7672 0 
22.3438 -24.2759 0 20.75 -23.7672 0 21.2812 -24.2759 0 
19.6875 -23.7672 0 20.2188 -24.2759 0 18.625 -23.7672 0 
19.1562 -24.2759 0 17.5625 -23.7672 0 18.0938 -24.2759 0 
16.5 -23.7672 0 17.0312 -24.2759 0 15.4375 -23.7672 0 
15.9688 -24.2759 0 14.375 -23.7672 0 14.9062 -24.2759 0 
13.3125 -23.7672 0 13.8438 -24.2759 0 12.25 -23.7672 0 
12.7812 -24.2759 0 11.1875 -23.7672 0 11.7188 -24.2759 0 
10.125 -23.7672 0 10.6562 -24.2759 0 9.0625 -23.7672 0 
9.59375 -24.2759 0 8.53125 -24.2759 0 23.9375 -24.7845 0 
24.4688 -25.2931 0 22.875 -24.7845 0 23.4062 -25.2931 0 
21.8125 -24.7845 0 22.3438 -25.2931 0 20.75 -24.7845 0 
21.2812 -25.2931 0 19.6875 -24.7845 0 20.2188 -25.2931 0 
18.625 -24.7845 0 19.1562 -25.2931 0 17.5625 -24.7845 0 
18.0938 -25.2931 0 16.5 -24.7845 0 17.0312 -25.2931 0 
15.4375 -24.7845 0 15.9688 -25.2931 0 14.375 -24.7845 0 
14.9062 -25.2931 0 13.3125 -24.7845 0 13.8438 -25.2931 0 
12.25 -24.7845 0 12.7812 -25.2931 0 11.1875 -24.7845 0 
11.7188 -25.2931 0 10.125 -24.7845 0 10.6562 -25.2931 0 
9.0625 -24.7845 0 9.59375 -25.2931 0 8.53125 -25.2931 0 
23.9375 -25.8017 0 24.4688 -26.3103 0 22.875 -25.8017 0 
23.4062 -26.3103 0 21.8125 -25.8017 0 22.3438 -26.3103 0 
20.75 -25.8017 0 21.2812 -26.3103 0 19.6875 -25.8017 0 
20.2188 -26.3103 0 18.625 -25.8017 0 19.1562 -26.3103 0 
17.5625 -25.8017 0 18.0938 -26.3103 0 16.5 -25.8017 0 
17.0312 -26.3103 0 15.4375 -25.8017 0 15.9688 -26.3103 0 
14.375 -25.8017 0 14.9062 -26.3103 0 13.3125 -25.8017 0 
13.8438 -26.3103 0 12.25 -25.8017 0 12.7812 -26.3103 0 
11.1875 -25.8017 0 11.7188 -26.3103 0 10.125 -25.8017 0 
10.6562 -26.3103 0 9.0625 -25.8017 0 9.59375 -26.3103 0 
8.53125 -26.3103 0 23.9375 -26.819 0 24.4688 -27.3276 0 
22.875 -26.819 0 23.4062 -27.3276 0 21.8125 -26.819 0 
22.3438 -27.3276 0 20.75 -26.819 0 21.2812 -27.3276 0 
19.6875 -26.819 0 20.2188 -27.3276 0 18.625 -26.819 0 
19.1562 -27.3276 0 17.5625 -26.819 0 18.0938 -27.3276 0 
16.5 -26.819 0 17.0312 -27.3276 0 15.4375 -26.819 0 
15.9688 -27.3276 0 14.375 -26.819 0 14.9062 -27.3276 0 
13.3125 -26.819 0 13.8438 -27.3276 0 12.25 -26.819 0 
12.7812 -27.3276 0 11.1875 -26.819 0 11.7188 -27.3276 0 
10.125 -26.819 0 10.6562 -27.3276 0 9.0625 -26.819 0 
9.59375 -27.3276 0 8.53125 -27.3276 0 23.9375 -27.8362 0 
24.4688 -28.3448 0 22.875 -27.8362 0 23.4062 -28.3448 0 
21.8125 -27.8362 0 22.3438 -28.3448 0 20.75 -27.8362 0 
21.2812 -28.3448 0 19.6875 -27.8362 0 20.2188 -28.3448 0 
18.625 -27.8362 0 19.1562 -28.3448 0 17.5625 -27.8362 0 
18.0938 -28.3448 0 16.5 -27.8362 0 17.0312 -28.3448 0 
15.4375 -27.8362 0 15.9688 -28.3448 0 14.375 -27.8362 0 
14.9062 -28.3448 0 13.3125 -27.8362 0 13.8438 -28.3448 0 
12.25 -27.8362 0 12.7812 -28.3448 0 11.1875 -27.8362 0 
11.7188 -28.3448 0 10.125 -27.8362 0 10.6562 -28.3448 0 
9.0625 -27.8362 0 9.59375 -28.3448 0 8.53125 -28.3448 0 
23.9375 -28.8534 0 24.4688 -29.3621 0 22.875 -28.8534 0 
23.4062 -29.3621 0 21.8125 -28.8534 0 22.3438 -29.3621 0 
20.75 -28.8534 0 21.2812 -29.3621 0 19.6875 -28.8534 0 
20.2188 -29.3621 0 18.625 -28.8534 0 19.1562 -29.3621 0 
17.5625 -28.8534 0 18.0938 -29.3621 0 16.5 -28.8534 0 
17.0312 -29.3621 0 15.4375 -28.8534 0 15.9688 -29.3621 0 
14.375 -28.8534 0 14.9062 -29.3621 0 13.3125 -28.8534 0 
13.8438 -29.3621 0 12.25 -28.8534 0 12.7812 -29.3621 0 
11.1875 -28.8534 0 11.7188 -29.3621 0 10.125 -28.8534 0 
10.6562 -29.3621 0 9.0625 -28.8534 0 9.59375 -29.3621 0 
8.53125 -29.3621 0 23.9375 -29.8707 0 24.4688 -30.3793 0 
22.875 -29.8707 0 23.4062 -30.3793 0 21.8125 -29.8707 0 
22.3438 -30.3793 0 20.75 -29.8707 0 21.2812 -30.3793 0 
19.6875 -29.8707 0 20.2188 -30.3793 0 18.625 -29.8707 0 
19.1562 -30.3793 0 17.5625 -29.8707 0 18.0938 -30.3793 0 
16.5 -29.8707 0 17.0312 -30.3793 0 15.4375 -29.8707 0 
15.9688 -30.3793 0 14.375 -29.8707 0 14.9062 -30.3793 0 
13.3125 -29.8707 0 13.8438 -30.3793 0 12.25 -29.8707 0 
12.7812 -30.3793 0 11.1875 -29.8707 0 11.7188 -30.3793 0 
10.125 -29.8707 0 10.6562 -30.3793 0 9.0625 -29.8707 0 
9.59375 -30.3793 0 8.53125 -30.3793 0 23.9375 -30.8879 0 
24.4688 -31.3966 0 22.875 -30.8879 0 23.4062 -31.3966 0 
21.8125 -30.8879 0 22.3438 -31.3966 0 20.75 -30.8879 0 
21.2812 -31.3966 0 19.6875 -30.8879 0 20.2188 -31.3966 0 
18.625 -30.8879 0 19.1562 -31.3966 0 17.5625 -30.8879 0 
18.0938 -31.3966 0 16.5 -30.8879 0 17.0312 -31.3966 0 
15.4375 -30.8879 0 15.9688 -31.3966 0 14.375 -30.8879 0 
14.9062 -31.3966 0 13.3125 -30.8879 0 13.8438 -31.3966 0 
12.25 -30.8879 0 12.7812 -31.3966 0 11.1875 -30.8879 0 
11.7188 -31.3966 0 10.125 -30.8879 0 10.6562 -31.3966 0 
9.0625 -30.8879 0 9.59375 -31.3966 0 8.53125 -31.3966 0 
23.9375 -31.9052 0 24.4688 -32.4138 0 22.875 -31.9052 0 
23.4062 -32.4138 0 21.8125 -31.9052 0 22.3438 -32.4138 0 
20.75 -31.9052 0 21.2812 -32.4138 0 19.6875 -31.9052 0 
20.2188 -32.4138 0 18.625 -31.9052 0 19.1562 -32.4138 0 
17.5625 -31.9052 0 18.0938 -32.4138 0 16.5 -31.9052 0 
17.0312 -32.4138 0 15.4375 -31.9052 0 15.9688 -32.4138 0 
14.375 -31.9052 0 14.9062 -32.4138 0 13.3125 -31.9052 0 
13.8438 -32.4138 0 12.25 -31.9052 0 12.7812 -32.4138 0 
11.1875 -31.9052 0 11.7188 -32.4138 0 10.125 -31.9052 0 
10.6562 -32.4138 0 9.0625 -31.9052 0 9.59375 -32.4138 0 
8.53125 -32.4138 0 23.9375 -32.9224 0 24.4688 -33.431 0 
22.875 -32.9224 0 23.4062 -33.431 0 21.8125 -32.9224 0 
22.3438 -33.431 0 20.75 -32.9224 0 21.2812 -33.431 0 
19.6875 -32.9224 0 20.2188 -33.431 0 18.625 -32.9224 0 
19.1562 -33.431 0 17.5625 -32.9224 0 18.0938 -33.431 0 
16.5 -32.9224 0 17.0312 -33.431 0 15.4375 -32.9224 0 
15.9688 -33.431 0 14.375 -32.9224 0 14.9062 -33.431 0 
13.3125 -32.9224 0 13.8438 -33.431 0 12.25 -32.9224 0 
12.7812 -33.431 0 11.1875 -32.9224 0 11.7188 -33.431 0 
10.125 -32.9224 0 10.6562 -33.431 0 9.0625 -32.9224 0 
9.59375 -33.431 0 8.53125 -33.431 0 23.9375 -33.9397 0 
24.4688 -34.4483 0 22.875 -33.9397 0 23.4062 -34.4483 0 
21.8125 -33.9397 0 22.3438 -34.4483 0 20.75 -33.9397 0 
21.2812 -34.4483 0 19.6875 -33.9397 0 20.2188 -34.4483 0 
18.625 -33.9397 0 19.1562 -34.4483 0 17.5625 -33.9397 0 
18.0938 -34.4483 0 16.5 -33.9397 0 17.0312 -34.4483 0 
15.4375 -33.9397 0 15.9688 -34.4483 0 14.375 -33.9397 0 
14.9062 -34.4483 0 13.3125 -33.9397 0 13.8438 -34.4483 0 
12.25 -33.9397 0 12.7812 -34.4483 0 11.1875 -33.9397 0 
11.7188 -34.4483 0 10.125 -33.9397 0 10.6562 -34.4483 0 
9.0625 -33.9397 0 9.59375 -34.4483 0 8.53125 -34.4483 0 
23.9375 -34.9569 0 24.4688 -35.4655 0 22.875 -34.9569 0 
23.4062 -35.4655 0 21.8125 -34.9569 0 22.3438 -35.4655 0 
20.75 -34.9569 0 21.2812 -35.4655 0 19.6875 -34.9569 0 
20.2188 -35.4655 0 18.625 -34.9569 0 19.1562 -35.4655 0 
17.5625 -34.9569 0 18.0938 -35.4655 0 16.5 -34.9569 0 
17.0312 -35.4655 0 15.4375 -34.9569 0 15.9688 -35.4655 0 
14.375 -34.9569 0 14.9062 -35.4655 0 13.3125 -34.9569 0 
13.8438 -35.4655 0 12.25 -34.9569 0 12.7812 -35.4655 0 
11.1875 -34.9569 0 11.7188 -35.4655 0 10.125 -34.9569 0 
10.6562 -35.4655 0 9.0625 -34.9569 0 9.59375 -35.4655 0 
8.53125 -35.4655 0 23.9375 -35.9741 0 24.4688 -36.4828 0 
22.875 -35.9741 0 23.4062 -36.4828 0 21.8125 -35.9741 0 
22.3438 -36.4828 0 20.75 -35.9741 0 21.2812 -36.4828 0 
19.6875 -35.9741 0 20.2188 -36.4828 0 18.625 -35.9741 0 
19.1562 -36.4828 0 17.5625 -35.9741 0 18.0938 -36.4828 0 
16.5 -35.9741 0 17.0312 -36.4828 0 15.4375 -35.9741 0 
15.9688 -36.4828 0 14.375 -35.9741 0 14.9062 -36.4828 0 
13.3125 -35.9741 0 13.8438 -36.4828 0 12.25 -35.9741 0 
12.7812 -36.4828 0 11.1875 -35.9741 0 11.7188 -36.4828 0 
10.125 -35.9741 0 10.6562 -36.4828 0 9.0625 -35.9741 0 
9.59375 -36.4828 0 8.53125 -36.4828 0 23.9375 -36.9914 0 
22.875 -36.9914 0 21.8125 -36.9914 0 20.75 -36.9914 0 
19.6875 -36.9914 0 18.625 -36.9914 0 17.5625 -36.9914 0 
16.5 -36.9914 0 15.4375 -36.9914 0 14.375 -36.9914 0 
13.3125 -36.9914 0 12.25 -36.9914 0 11.1875 -36.9914 0 
10.125 -36.9914 0 9.0625 -36.9914 0 6.93333 -36.4828 0 
6.93333 -35.4655 0 6.93333 -34.4483 0 6.93333 -33.431 0 
6.93333 -32.4138 0 6.93333 -31.3966 0 6.93333 -30.3793 0 
6.93333 -29.3621 0 6.93333 -28.3448 0 6.93333 -27.3276 0 
6.93333 -26.3103 0 6.93333 -25.2931 0 6.93333 -24.2759 0 
6.93333 -23.2586 0 6.93333 -22.2414 0 6.93333 -21.2241 0 
6.93333 -20.2069 0 6.93333 -19.1897 0 6.93333 -18.1724 0 
6.93333 -17.1552 0 6.93333 -16.1379 0 6.93333 -15.1207 0 
6.93333 -14.1034 0 6.93333 -13.0862 0 6.93333 -12.069 0 
6.93333 -11.0517 0 6.93333 -10.0345 0 6.93333 -9.01724 0 
5.86667 -36.4828 0 5.86667 -35.4655 0 5.86667 -34.4483 0 
5.86667 -33.431 0 5.86667 -32.4138 0 5.86667 -31.3966 0 
5.86667 -30.3793 0 5.86667 -29.3621 0 5.86667 -28.3448 0 
5.86667 -27.3276 0 5.86667 -26.3103 0 5.86667 -25.2931 0 
5.86667 -24.2759 0 5.86667 -23.2586 0 5.86667 -22.2414 0 
5.86667 -21.2241 0 5.86667 -20.2069 0 5.86667 -19.1897 0 
5.86667 -18.1724 0 5.86667 -17.1552 0 5.86667 -16.1379 0 
5.86667 -15.1207 0 5.86667 -14.1034 0 5.86667 -13.0862 0 
5.86667 -12.069 0 5.86667 -11.0517 0 5.86667 -10.0345 0 
5.86667 -9.01724 0 4.8 -36.4828 0 4.8 -35.4655 0 
4.8 -34.4483 0 4.8 -33.431 0 4.8 -32.4138 0 
4.8 -31.3966 0 4.8 -30.3793 0 4.8 -29.3621 0 
4.8 -28.3448 0 4.8 -27.3276 0 4.8 -26.3103 0 
4.8 -25.2931 0 4.8 -24.2759 0 4.8 -23.2586 0 
4.8 -22.2414 0 4.8 -21.2241 0 4.8 -20.2069 0 
4.8 -19.1897 0 4.8 -18.1724 0 4.8 -17.1552 0 
4.8 -16.1379 0 4.8 -15.1207 0 4.8 -14.1034 0 
4.8 -13.0862 0 4.8 -12.069 0 4.8 -11.0517 0 
4.8 -10.0345 0 4.8 -9.01724 0 3.73333 -36.4828 0 
3.73333 -35.4655 0 3.73333 -34.4483 0 3.73333 -33.431 0 
3.73333 -32.4138 0 3.73333 -31.3966 0 3.73333 -30.3793 0 
3.73333 -29.3621 0 3.73333 -28.3448 0 3.73333 -27.3276 0 
3.73333 -26.3103 0 3.73333 -25.2931 0 3.73333 -24.2759 0 
3.73333 -23.2586 0 3.73333 -22.2414 0 3.73333 -21.2241 0 
3.73333 -20.2069 0 3.73333 -19.1897 0 3.73333 -18.1724 0 
3.73333 -17.1552 0 3.73333 -16.1379 0 3.73333 -15.1207 0 
3.73333 -14.1034 0 3.73333 -13.0862 0 3.73333 -12.069 0 
3.73333 -11.0517 0 3.73333 -10.0345 0 3.73333 -9.01724 0 
2.66667 -36.4828 0 2.66667 -35.4655 0 2.66667 -34.4483 0 
2.66667 -33.431 0 2.66667 -32.4138 0 2.66667 -31.3966 0 
2.66667 -30.3793 0 2.66667 -29.3621 0 2.66667 -28.3448 0 
2.66667 -27.3276 0 2.66667 -26.3103 0 2.66667 -25.2931 0 
2.66667 -24.2759 0 2.66667 -23.2586 0 2.66667 -22.2414 0 
2.66667 -21.2241 0 2.66667 -20.2069 0 2.66667 -19.1897 0 
2.66667 -18.1724 0 2.66667 -17.1552 0 2.66667 -16.1379 0 
2.66667 -15.1207 0 2.66667 -14.1034 0 2.66667 -13.0862 0 
2.66667 -12.069 0 2.66667 -11.0517 0 2.66667 -10.0345 0 
2.66667 -9.01724 0 1.6 -36.4828 0 1.6 -35.4655 0 
1.6 -34.4483 0 1.6 -33.431 0 1.6 -32.4138 0 
1.6 -31.3966 0 1.6 -30.3793 0 1.6 -29.3621 0 
1.6 -28.3448 0 1.6 -27.3276 0 1.6 -26.3103 0 
1.6 -25.2931 0 1.6 -24.2759 0 1.6 -23.2586 0 
1.6 -22.2414 0 1.6 -21.2241 0 1.6 -20.2069 0 
1.6 -19.1897 0 1.6 -18.1724 0 1.6 -17.1552 0 
1.6 -16.1379 0 1.6 -15.1207 0 1.6 -14.1034 0 
1.6 -13.0862 0 1.6 -12.069 0 1.6 -11.0517 0 
1.6 -10.0345 0 1.6 -9.01724 0 0.533333 -36.4828 0 
0.533333 -35.4655 0 0.533333 -34.4483 0 0.533333 -33.431 0 
0.533333 -32.4138 0 0.533333 -31.3966 0 0.533333 -30.3793 0 
0.533333 -29.3621 0 0.533333 -28.3448 0 0.533333 -27.3276 0 
0.533333 -26.3103 0 0.533333 -25.2931 0 0.533333 -24.2759 0 
0.533333 -23.2586 0 0.533333 -22.2414 0 0.533333 -21.2241 0 
0.533333 -20.2069 0 0.533333 -19.1897 0 0.533333 -18.1724 0 
0.533333 -17.1552 0 0.533333 -16.1379 0 0.533333 -15.1207 0 
0.533333 -14.1034 0 0.533333 -13.0862 0 0.533333 -12.069 0 
0.533333 -11.0517 0 0.533333 -10.0345 0 0.533333 -9.01724 0 
-0.533333 -36.4828 0 -0.533333 -35.4655 0 -0.533333 -34.4483 0 
-0.533333 -33.431 0 -0.533333 -32.4138 0 -0.533333 -31.3966 0 
-0.533333 -30.3793 0 -0.533333 -29.3621 0 -0.533333 -28.3448 0 
-0.533333 -27.3276 0 -0.533333 -26.3103 0 -0.533333 -25.2931 0 
-0.533333 -24.2759 0 -0.533333 -23.2586 0 -0.533333 -22.2414 0 
-0.533333 -21.2241 0 -0.533333 -20.2069 0 -0.533333 -19.1897 0 
-0.533333 -18.1724 0 -0.533333 -17.1552 0 -0.533333 -16.1379 0 
-0.533333 -15.1207 0 -0.533333 -14.1034 0 -0.533333 -13.0862 0 
-0.533333 -12.069 0 -0.533333 -11.0517 0 -0.533333 -10.0345 0 
-0.533333 -9.01724 0 -1.6 -36.4828 0 -1.6 -35.4655 0 
-1.6 -34.4483 0 -1.6 -33.431 0 -1.6 -32.4138 0 
-1.6 -31.3966 0 -1.6 -30.3793 0 -1.6 -29.3621 0 
-1.6 -28.3448 0 -1.6 -27.3276 0 -1.6 -26.3103 0 
-1.6 -25.2931 0 -1.6 -24.2759 0 -1.6 -23.2586 0 
-1.6 -22.2414 0 -1.6 -21.2241 0 -1.6 -20.2069 0 
-1.6 -19.1897 0 -1.6 -18.1724 0 -1.6 -17.1552 0 
-1.6 -16.1379 0 -1.6 -15.1207 0 -1.6 -14.1034 0 
-1.6 -13.0862 0 -1.6 -12.069 0 -1.6 -11.0517 0 
-1.6 -10.0345 0 -1.6 -9.01724 0 -2.66667 -36.4828 0 
-2.66667 -35.4655 0 -2.66667 -34.4483 0 -2.66667 -33.431 0 
-2.66667 -32.4138 0 -2.66667 -31.3966 0 -2.66667 -30.3793 0 
-2.66667 -29.3621 0 -2.66667 -28.3448 0 -2.66667 -27.3276 0 
-2.66667 -26.3103 0 -2.66667 -25.2931 0 -2.66667 -24.2759 0 
-2.66667 -23.2586 0 -2.66667 -22.2414 0 -2.66667 -21.2241 0 
-2.66667 -20.2069 0 -2.66667 -19.1897 0 -2.66667 -18.1724 0 
-2.66667 -17.1552 0 -2.66667 -16.1379 0 -2.66667 -15.1207 0 
-2.66667 -14.1034 0 -2.66667 -13.0862 0 -2.66667 -12.069 0 
-2.66667 -11.0517 0 -2.66667 -10.0345 0 -2.66667 -9.01724 0 
-3.73333 -36.4828 0 -3.73333 -35.4655 0 -3.73333 -34.4483 0 
-3.73333 -33.431 0 -3.73333 -32.4138 0 -3.73333 -31.3966 0 
-3.73333 -30.3793 0 -3.73333 -29.3621 0 -3.73333 -28.3448 0 
-3.73333 -27.3276 0 -3.73333 -26.3103 0 -3.73333 -25.2931 0 
-3.73333 -24.2759 0 -3.73333 -23.2586 0 -3.73333 -22.2414 0 
-3.73333 -21.2241 0 -3.73333 -20.2069 0 -3.73333 -19.1897 0 
-3.73333 -18.1724 0 -3.73333 -17.1552 0 -3.73333 -16.1379 0 
-3.73333 -15.1207 0 -3.73333 -14.1034 0 -3.73333 -13.0862 0 
-3.73333 -12.069 0 -3.73333 -11.0517 0 -3.73333 -10.0345 0 
-3.73333 -9.01724 0 -4.8 -36.4828 0 -4.8 -35.4655 0 
-4.8 -34.4483 0 -4.8 -33.431 0 -4.8 -32.4138 0 
-4.8 -31.3966 0 -4.8 -30.3793 0 -4.8 -29.3621 0 
-4.8 -28.3448 0 -4.8 -27.3276 0 -4.8 -26.3103 0 
-4.8 -25.2931 0 -4.8 -24.2759 0 -4.8 -23.2586 0 
-4.8 -22.2414 0 -4.8 -21.2241 0 -4.8 -20.2069 0 
-4.8 -19.1897 0 -4.8 -18.1724 0 -4.8 -17.1552 0 
-4.8 -16.1379 0 -4.8 -15.1207 0 -4.8 -14.1034 0 
-4.8 -13.0862 0 -4.8 -12.069 0 -4.8 -11.0517 0 
-4.8 -10.0345 0 -4.8 -9.01724 0 -5.86667 -36.4828 0 
-5.86667 -35.4655 0 -5.86667 -34.4483 0 -5.86667 -33.431 0 
-5.86667 -32.4138 0 -5.86667 -31.3966 0 -5.86667 -30.3793 0 
-5.86667 -29.3621 0 -5.86667 -28.3448 0 -5.86667 -27.3276 0 
-5.86667 -26.3103 0 -5.86667 -25.2931 0 -5.86667 -24.2759 0 
-5.86667 -23.2586 0 -5.86667 -22.2414 0 -5.86667 -21.2241 0 
-5.86667 -20.2069 0 -5.86667 -19.1897 0 -5.86667 -18.1724 0 
-5.86667 -17.1552 0 -5.86667 -16.1379 0 -5.86667 -15.1207 0 
-5.86667 -14.1034 0 -5.86667 -13.0862 0 -5.86667 -12.069 0 
-5.86667 -11.0517 0 -5.86667 -10.0345 0 -5.86667 -9.01724 0 
-6.93333 -36.4828 0 -6.93333 -35.4655 0 -6.93333 -34.4483 0 
-6.93333 -33.431 0 -6.93333 -32.4138 0 -6.93333 -31.3966 0 
-6.93333 -30.3793 0 -6.93333 -29.3621 0 -6.93333 -28.3448 0 
-6.93333 -27.3276 0 -6.93333 -26.3103 0 -6.93333 -25.2931 0 
-6.93333 -24.2759 0 -6.93333 -23.2586 0 -6.93333 -22.2414 0 
-6.93333 -21.2241 0 -6.93333 -20.2069 0 -6.93333 -19.1897 0 
-6.93333 -18.1724 0 -6.93333 -17.1552 0 -6.93333 -16.1379 0 
-6.93333 -15.1207 0 -6.93333 -14.1034 0 -6.93333 -13.0862 0 
-6.93333 -12.069 0 -6.93333 -11.0517 0 -6.93333 -10.0345 0 
-6.93333 -9.01724 0 7.46667 -36.4828 0 6.93333 -36.9914 0 
7.46667 -35.4655 0 6.93333 -35.9741 0 7.46667 -34.4483 0 
6.93333 -34.9569 0 7.46667 -33.431 0 6.93333 -33.9397 0 
7.46667 -32.4138 0 6.93333 -32.9224 0 7.46667 -31.3966 0 
6.93333 -31.9052 0 7.46667 -30.3793 0 6.93333 -30.8879 0 
7.46667 -29.3621 0 6.93333 -29.8707 0 7.46667 -28.3448 0 
6.93333 -28.8534 0 7.46667 -27.3276 0 6.93333 -27.8362 0 
7.46667 -26.3103 0 6.93333 -26.819 0 7.46667 -25.2931 0 
6.93333 -25.8017 0 7.46667 -24.2759 0 6.93333 -24.7845 0 
7.46667 -23.2586 0 6.93333 -23.7672 0 7.46667 -22.2414 0 
6.93333 -22.75 0 7.46667 -21.2241 0 6.93333 -21.7328 0 
7.46667 -20.2069 0 6.93333 -20.7155 0 7.46667 -19.1897 0 
6.93333 -19.6983 0 7.46667 -18.1724 0 6.93333 -18.681 0 
7.46667 -17.1552 0 6.93333 -17.6638 0 7.46667 -16.1379 0 
6.93333 -16.6466 0 7.46667 -15.1207 0 6.93333 -15.6293 0 
7.46667 -14.1034 0 6.93333 -14.6121 0 7.46667 -13.0862 0 
6.93333 -13.5948 0 7.46667 -12.069 0 6.93333 -12.5776 0 
7.46667 -11.0517 0 6.93333 -11.5603 0 7.46667 -10.0345 0 
6.93333 -10.5431 0 7.46667 -9.01724 0 6.93333 -9.52586 0 
6.93333 -8.50862 0 6.4 -36.4828 0 5.86667 -36.9914 0 
6.4 -35.4655 0 5.86667 -35.9741 0 6.4 -34.4483 0 
5.86667 -34.9569 0 6.4 -33.431 0 5.86667 -33.9397 0 
6.4 -32.4138 0 5.86667 -32.9224 0 6.4 -31.3966 0 
5.86667 -31.9052 0 6.4 -30.3793 0 5.86667 -30.8879 0 
6.4 -29.3621 0 5.86667 -29.8707 0 6.4 -28.3448 0 
5.86667 -28.8534 0 6.4 -27.3276 0 5.86667 -27.8362 0 
6.4 -26.3103 0 5.86667 -26.819 0 6.4 -25.2931 0 
5.86667 -25.8017 0 6.4 -24.2759 0 5.86667 -24.7845 0 
6.4 -23.2586 0 5.86667 -23.7672 0 6.4 -22.2414 0 
5.86667 -22.75 0 6.4 -21.2241 0 5.86667 -21.7328 0 
6.4 -20.2069 0 5.86667 -20.7155 0 6.4 -19.1897 0 
5.86667 -19.6983 0 6.4 -18.1724 0 5.86667 -18.681 0 
6.4 -17.1552 0 5.86667 -17.6638 0 6.4 -16.1379 0 
5.86667 -16.6466 0 6.4 -15.1207 0 5.86667 -15.6293 0 
6.4 -14.1034 0 5.86667 -14.6121 0 6.4 -13.0862 0 
5.86667 -13.5948 0 6.4 -12.069 0 5.86667 -12.5776 0 
6.4 -11.0517 0 5.86667 -11.5603 0 6.4 -10.0345 0 
5.86667 -10.5431 0 6.4 -9.01724 0 5.86667 -9.52586 0 
5.86667 -8.50862 0 5.33333 -36.4828 0 4.8 -36.9914 0 
5.33333 -35.4655 0 4.8 -35.9741 0 5.33333 -34.4483 0 
4.8 -34.9569 0 5.33333 -33.431 0 4.8 -33.9397 0 
5.33333 -32.4138 0 4.8 -32.9224 0 5.33333 -31.3966 0 
4.8 -31.9052 0 5.33333 -30.3793 0 4.8 -30.8879 0 
5.33333 -29.3621 0 4.8 -29.8707 0 5.33333 -28.3448 0 
4.8 -28.8534 0 5.33333 -27.3276 0 4.8 -27.8362 0 
5.33333 -26.3103 0 4.8 -26.819 0 5.33333 -25.2931 0 
4.8 -25.8017 0 5.33333 -24.2759 0 4.8 -24.7845 0 
5.33333 -23.2586 0 4.8 -23.7672 0 5.33333 -22.2414 0 
4.8 -22.75 0 5.33333 -21.2241 0 4.8 -21.7328 0 
5.33333 -20.2069 0 4.8 -20.7155 0 5.33333 -19.1897 0 
4.8 -19.6983 0 5.33333 -18.1724 0 4.8 -18.681 0 
5.33333 -17.1552 0 4.8 -17.6638 0 5.33333 -16.1379 0 
4.8 -16.6466 0 5.33333 -15.1207 0 4.8 -15.6293 0 
5.33333 -14.1034 0 4.8 -14.6121 0 5.33333 -13.0862 0 
4.8 -13.5948 0 5.33333 -12.069 0 4.8 -12.5776 0 
5.33333 -11.0517 0 4.8 -11.5603 0 5.33333 -10.0345 0 
4.8 -10.5431 0 5.33333 -9.01724 0 4.8 -9.52586 0 
4.8 -8.50862 0 4.26667 -36.4828 0 3.73333 -36.9914 0 
4.26667 -35.4655 0 3.73333 -35.9741 0 4.26667 -34.4483 0 
3.73333 -34.9569 0 4.26667 -33.431 0 3.73333 -33.9397 0 
4.26667 -32.4138 0 3.73333 -32.9224 0 4.26667 -31.3966 0 
3.73333 -31.9052 0 4.26667 -30.3793 0 3.73333 -30.8879 0 
4.26667 -29.3621 0 3.73333 -29.8707 0 4.26667 -28.3448 0 
3.73333 -28.8534 0 4.26667 -27.3276 0 3.73333 -27.8362 0 
4.26667 -26.3103 0 3.73333 -26.819 0 4.26667 -25.2931 0 
3.73333 -25.8017 0 4.26667 -24.2759 0 3.73333 -24.7845 0 
4.26667 -23.2586 0 3.73333 -23.7672 0 4.26667 -22.2414 0 
3.73333 -22.75 0 4.26667 -21.2241 0 3.73333 -21.7328 0 
4.26667 -20.2069 0 3.73333 -20.7155 0 4.26667 -19.1897 0 
3.73333 -19.6983 0 4.26667 -18.1724 0 3.73333 -18.681 0 
4.26667 -17.1552 0 3.73333 -17.6638 0 4.26667 -16.1379 0 
3.73333 -16.6466 0 4.26667 -15.1207 0 3.73333 -15.6293 0 
4.26667 -14.1034 0 3.73333 -14.6121 0 4.26667 -13.0862 0 
3.73333 -13.5948 0 4.26667 -12.069 0 3.73333 -12.5776 0 
4.26667 -11.0517 0 3.73333 -11.5603 0 4.26667 -10.0345 0 
3.73333 -10.5431 0 4.26667 -9.01724 0 3.73333 -9.52586 0 
3.73333 -8.50862 0 3.2 -36.4828 0 2.66667 -36.9914 0 
3.2 -35.4655 0 2.66667 -35.9741 0 3.2 -34.4483 0 
2.66667 -34.9569 0 3.2 -33.431 0 2.66667 -33.9397 0 
3.2 -32.4138 0 2.66667 -32.9224 0 3.2 -31.3966 0 
2.66667 -31.9052 0 3.2 -30.3793 0 2.66667 -30.8879 0 
3.2 -29.3621 0 2.66667 -29.8707 0 3.2 -28.3448 0 
2.66667 -28.8534 0 3.2 -27.3276 0 2.66667 -27.8362 0 
3.2 -26.3103 0 2.66667 -26.819 0 3.2 -25.2931 0 
2.66667 -25.8017 0 3.2 -24.2759 0 2.66667 -24.7845 0 
3.2 -23.2586 0 2.66667 -23.7672 0 3.2 -22.2414 0 
2.66667 -22.75 0 3.2 -21.2241 0 2.66667 -21.7328 0 
3.2 -20.2069 0 2.66667 -20.7155 0 3.2 -19.1897 0 
2.66667 -19.6983 0 3.2 -18.1724 0 2.66667 -18.681 0 
3.2 -17.1552 0 2.66667 -17.6638 0 3.2 -16.1379 0 
2.66667 -16.6466 0 3.2 -15.1207 0 2.66667 -15.6293 0 
3.2 -14.1034 0 2.66667 -14.6121 0 3.2 -13.0862 0 
2.66667 -13.5948 0 3.2 -12.069 0 2.66667 -12.5776 0 
3.2 -11.0517 0 2.66667 -11.5603 0 3.2 -10.0345 0 
2.66667 -10.5431 0 3.2 -9.01724 0 2.66667 -9.52586 0 
2.66667 -8.50862 0 2.13333 -36.4828 0 1.6 -36.9914 0 
2.13333 -35.4655 0 1.6 -35.9741 0 2.13333 -34.4483 0 
1.6 -34.9569 0 2.13333 -33.431 0 1.6 -33.9397 0 
2.13333 -32.4138 0 1.6 -32.9224 0 2.13333 -31.3966 0 
1.6 -31.9052 0 2.13333 -30.3793 0 1.6 -30.8879 0 
2.13333 -29.3621 0 1.6 -29.8707 0 2.13333 -28.3448 0 
1.6 -28.8534 0 2.13333 -27.3276 0 1.6 -27.8362 0 
2.13333 -26.3103 0 1.6 -26.819 0 2.13333 -25.2931 0 
1.6 -25.8017 0 2.13333 -24.2759 0 1.6 -24.7845 0 
2.13333 -23.2586 0 1.6 -23.7672 0 2.13333 -22.2414 0 
1.6 -22.75 0 2.13333 -21.2241 0 1.6 -21.7328 0 
2.13333 -20.2069 0 1.6 -20.7155 0 2.13333 -19.1897 0 
1.6 -19.6983 0 2.13333 -18.1724 0 1.6 -18.681 0 
2.13333 -17.1552 0 1.6 -17.6638 0 2.13333 -16.1379 0 
1.6 -16.6466 0 2.13333 -15.1207 0 1.6 -15.6293 0 
2.13333 -14.1034 0 1.6 -14.6121 0 2.13333 -13.0862 0 
1.6 -13.5948 0 2.13333 -12.069 0 1.6 -12.5776 0 
2.13333 -11.0517 0 1.6 -11.5603 0 2.13333 -10.0345 0 
1.6 -10.5431 0 2.13333 -9.01724 0 1.6 -9.52586 0 
1.6 -8.50862 0 1.06667 -36.4828 0 0.533333 -36.9914 0 
1.06667 -35.4655 0 0.533333 -35.9741 0 1.06667 -34.4483 0 
0.533333 -34.9569 0 1.06667 -33.431 0 0.533333 -33.9397 0 
1.06667 -32.4138 0 0.533333 -32.9224 0 1.06667 -31.3966 0 
0.533333 -31.9052 0 1.06667 -30.3793 0 0.533333 -30.8879 0 
1.06667 -29.3621 0 0.533333 -29.8707 0 1.06667 -28.3448 0 
0.533333 -28.8534 0 1.06667 -27.3276 0 0.533333 -27.8362 0 
1.06667 -26.3103 0 0.533333 -26.819 0 1.06667 -25.2931 0 
0.533333 -25.8017 0 1.06667 -24.2759 0 0.533333 -24.7845 0 
1.06667 -23.2586 0 0.533333 -23.7672 0 1.06667 -22.2414 0 
0.533333 -22.75 0 1.06667 -21.2241 0 0.533333 -21.7328 0 
1.06667 -20.2069 0 0.533333 -20.7155 0 1.06667 -19.1897 0 
0.533333 -19.6983 0 1.06667 -18.1724 0 0.533333 -18.681 0 
1.06667 -17.1552 0 0.533333 -17.6638 0 1.06667 -16.1379 0 
0.533333 -16.6466 0 1.06667 -15.1207 0 0.533333 -15.6293 0 
1.06667 -14.1034 0 0.533333 -14.6121 0 1.06667 -13.0862 0 
0.533333 -13.5948 0 1.06667 -12.069 0 0.533333 -12.5776 0 
1.06667 -11.0517 0 0.533333 -11.5603 0 1.06667 -10.0345 0 
0.533333 -10.5431 0 1.06667 -9.01724 0 0.533333 -9.52586 0 
0.533333 -8.50862 0 2.06978e-11 -36.4828 0 -0.533333 -36.9914 0 
2.06976e-11 -35.4655 0 -0.533333 -35.9741 0 2.06979e-11 -34.4483 0 
-0.533333 -34.9569 0 2.06977e-11 -33.431 0 -0.533333 -33.9397 0 
2.06979e-11 -32.4138 0 -0.533333 -32.9224 0 2.0698e-11 -31.3966 0 
-0.533333 -31.9052 0 2.06977e-11 -30.3793 0 -0.533333 -30.8879 0 
2.06976e-11 -29.3621 0 -0.533333 -29.8707 0 2.06977e-11 -28.3448 0 
-0.533333 -28.8534 0 2.0698e-11 -27.3276 0 -0.533333 -27.8362 0 
2.06976e-11 -26.3103 0 -0.533333 -26.819 0 2.06977e-11 -25.2931 0 
-0.533333 -25.8017 0 2.06976e-11 -24.2759 0 -0.533333 -24.7845 0 
2.06977e-11 -23.2586 0 -0.533333 -23.7672 0 2.06977e-11 -22.2414 0 
-0.533333 -22.75 0 2.0698e-11 -21.2241 0 -0.533333 -21.7328 0 
2.06974e-11 -20.2069 0 -0.533333 -20.7155 0 2.06974e-11 -19.1897 0 
-0.533333 -19.6983 0 2.06977e-11 -18.1724 0 -0.533333 -18.681 0 
2.06979e-11 -17.1552 0 -0.533333 -17.6638 0 2.06977e-11 -16.1379 0 
-0.533333 -16.6466 0 2.06977e-11 -15.1207 0 -0.533333 -15.6293 0 
2.06979e-11 -14.1034 0 -0.533333 -14.6121 0 2.06972e-11 -13.0862 0 
-0.533333 -13.5948 0 2.06977e-11 -12.069 0 -0.533333 -12.5776 0 
2.06979e-11 -11.0517 0 -0.533333 -11.5603 0 2.06974e-11 -10.0345 0 
-0.533333 -10.5431 0 2.06974e-11 -9.01724 0 -0.533333 -9.52586 0 
-0.533333 -8.50862 0 -1.06667 -36.4828 0 -1.6 -36.9914 0 
-1.06667 -35.4655 0 -1.6 -35.9741 0 -1.06667 -34.4483 0 
-1.6 -34.9569 0 -1.06667 -33.431 0 -1.6 -33.9397 0 
-1.06667 -32.4138 0 -1.6 -32.9224 0 -1.06667 -31.3966 0 
-1.6 -31.9052 0 -1.06667 -30.3793 0 -1.6 -30.8879 0 
-1.06667 -29.3621 0 -1.6 -29.8707 0 -1.06667 -28.3448 0 
-1.6 -28.8534 0 -1.06667 -27.3276 0 -1.6 -27.8362 0 
-1.06667 -26.3103 0 -1.6 -26.819 0 -1.06667 -25.2931 0 
-1.6 -25.8017 0 -1.06667 -24.2759 0 -1.6 -24.7845 0 
-1.06667 -23.2586 0 -1.6 -23.7672 0 -1.06667 -22.2414 0 
-1.6 -22.75 0 -1.06667 -21.2241 0 -1.6 -21.7328 0 
-1.06667 -20.2069 0 -1.6 -20.7155 0 -1.06667 -19.1897 0 
-1.6 -19.6983 0 -1.06667 -18.1724 0 -1.6 -18.681 0 
-1.06667 -17.1552 0 -1.6 -17.6638 0 -1.06667 -16.1379 0 
-1.6 -16.6466 0 -1.06667 -15.1207 0 -1.6 -15.6293 0 
-1.06667 -14.1034 0 -1.6 -14.6121 0 -1.06667 -13.0862 0 
-1.6 -13.5948 0 -1.06667 -12.069 0 -1.6 -12.5776 0 
-1.06667 -11.0517 0 -1.6 -11.5603 0 -1.06667 -10.0345 0 
-1.6 -10.5431 0 -1.06667 -9.01724 0 -1.6 -9.52586 0 
-1.6 -8.50862 0 -2.13333 -36.4828 0 -2.66667 -36.9914 0 
-2.13333 -35.4655 0 -2.66667 -35.9741 0 -2.13333 -34.4483 0 
-2.66667 -34.9569 0 -2.13333 -33.431 0 -2.66667 -33.9397 0 
-2.13333 -32.4138 0 -2.66667 -32.9224 0 -2.13333 -31.3966 0 
-2.66667 -31.9052 0 -2.13333 -30.3793 0 -2.66667 -30.8879 0 
-2.13333 -29.3621 0 -2.66667 -29.8707 0 -2.13333 -28.3448 0 
-2.66667 -28.8534 0 -2.13333 -27.3276 0 -2.66667 -27.8362 0 
-2.13333 -26.3103 0 -2.66667 -26.819 0 -2.13333 -25.2931 0 
-2.66667 -25.8017 0 -2.13333 -24.2759 0 -2.66667 -24.7845 0 
-2.13333 -23.2586 0 -2.66667 -23.7672 0 -2.13333 -22.2414 0 
-2.66667 -22.75 0 -2.13333 -21.2241 0 -2.66667 -21.7328 0 
-2.13333 -20.2069 0 -2.66667 -20.7155 0 -2.13333 -19.1897 0 
-2.66667 -19.6983 0 -2.13333 -18.1724 0 -2.66667 -18.681 0 
-2.13333 -17.1552 0 -2.66667 -17.6638 0 -2.13333 -16.1379 0 
-2.66667 -16.6466 0 -2.13333 -15.1207 0 -2.66667 -15.6293 0 
-2.13333 -14.1034 0 -2.66667 -14.6121 0 -2.13333 -13.0862 0 
-2.66667 -13.5948 0 -2.13333 -12.069 0 -2.66667 -12.5776 0 
-2.13333 -11.0517 0 -2.66667 -11.5603 0 -2.13333 -10.0345 0 
-2.66667 -10.5431 0 -2.13333 -9.01724 0 -2.66667 -9.52586 0 
-2.66667 -8.50862 0 -3.2 -36.4828 0 -3.73333 -36.9914 0 
-3.2 -35.4655 0 -3.73333 -35.9741 0 -3.2 -34.4483 0 
-3.73333 -34.9569 0 -3.2 -33.431 0 -3.73333 -33.9397 0 
-3.2 -32.4138 0 -3.73333 -32.9224 0 -3.2 -31.3966 0 
-3.73333 -31.9052 0 -3.2 -30.3793 0 -3.73333 -30.8879 0 
-3.2 -29.3621 0 -3.73333 -29.8707 0 -3.2 -28.3448 0 
-3.73333 -28.8534 0 -3.2 -27.3276 0 -3.73333 -27.8362 0 
-3.2 -26.3103 0 -3.73333 -26.819 0 -3.2 -25.2931 0 
-3.73333 -25.8017 0 -3.2 -24.2759 0 -3.73333 -24.7845 0 
-3.2 -23.2586 0 -3.73333 -23.7672 0 -3.2 -22.2414 0 
-3.73333 -22.75 0 -3.2 -21.2241 0 -3.73333 -21.7328 0 
-3.2 -20.2069 0 -3.73333 -20.7155 0 -3.2 -19.1897 0 
-3.73333 -19.6983 0 -3.2 -18.1724 0 -3.73333 -18.681 0 
-3.2 -17.1552 0 -3.73333 -17.6638 0 -3.2 -16.1379 0 
-3.73333 -16.6466 0 -3.2 -15.1207 0 -3.73333 -15.6293 0 
-3.2 -14.1034 0 -3.73333 -14.6121 0 -3.2 -13.0862 0 
-3.73333 -13.5948 0 -3.2 -12.069 0 -3.73333 -12.5776 0 
-3.2 -11.0517 0 -3.73333 -11.5603 0 -3.2 -10.0345 0 
-3.73333 -10.5431 0 -3.2 -9.01724 0 -3.73333 -9.52586 0 
-3.73333 -8.50862 0 -4.26667 -36.4828 0 -4.8 -36.9914 0 
-4.26667 -35.4655 0 -4.8 -35.9741 0 -4.26667 -34.4483 0 
-4.8 -34.9569 0 -4.26667 -33.431 0 -4.8 -33.9397 0 
-4.26667 -32.4138 0 -4.8 -32.9224 0 -4.26667 -31.3966 0 
-4.8 -31.9052 0 -4.26667 -30.3793 0 -4.8 -30.8879 0 
-4.26667 -29.3621 0 -4.8 -29.8707 0 -4.26667 -28.3448 0 
-4.8 -28.8534 0 -4.26667 -27.3276 0 -4.8 -27.8362 0 
-4.26667 -26.3103 0 -4.8 -26.819 0 -4.26667 -25.2931 0 
-4.8 -25.8017 0 -4.26667 -24.2759 0 -4.8 -24.7845 0 
-4.26667 -23.2586 0 -4.8 -23.7672 0 -4.26667 -22.2414 0 
-4.8 -22.75 0 -4.26667 -21.2241 0 -4.8 -21.7328 0 
-4.26667 -20.2069 0 -4.8 -20.7155 0 -4.26667 -19.1897 0 
-4.8 -19.6983 0 -4.26667 -18.1724 0 -4.8 -18.681 0 
-4.26667 -17.1552 0 -4.8 -17.6638 0 -4.26667 -16.1379 0 
-4.8 -16.6466 0 -4.26667 -15.1207 0 -4.8 -15.6293 0 
-4.26667 -14.1034 0 -4.8 -14.6121 0 -4.26667 -13.0862 0 
-4.8 -13.5948 0 -4.26667 -12.069 0 -4.8 -12.5776 0 
-4.26667 -11.0517 0 -4.8 -11.5603 0 -4.26667 -10.0345 0 
-4.8 -10.5431 0 -4.26667 -9.01724 0 -4.8 -9.52586 0 
-4.8 -8.50862 0 -5.33333 -36.4828 0 -5.86667 -36.9914 0 
-5.33333 -35.4655 0 -5.86667 -35.9741 0 -5.33333 -34.4483 0 
-5.86667 -34.9569 0 -5.33333 -33.431 0 -5.86667 -33.9397 0 
-5.33333 -32.4138 0 -5.86667 -32.9224 0 -5.33333 -31.3966 0 
-5.86667 -31.9052 0 -5.33333 -30.3793 0 -5.86667 -30.8879 0 
-5.33333 -29.3621 0 -5.86667 -29.8707 0 -5.33333 -28.3448 0 
-5.86667 -28.8534 0 -5.33333 -27.3276 0 -5.86667 -27.8362 0 
-5.33333 -26.3103 0 -5.86667 -26.819 0 -5.33333 -25.2931 0 
-5.86667 -25.8017 0 -5.33333 -24.2759 0 -5.86667 -24.7845 0 
-5.33333 -23.2586 0 -5.86667 -23.7672 0 -5.33333 -22.2414 0 
-5.86667 -22.75 0 -5.33333 -21.2241 0 -5.86667 -21.7328 0 
-5.33333 -20.2069 0 -5.86667 -20.7155 0 -5.33333 -19.1897 0 
-5.86667 -19.6983 0 -5.33333 -18.1724 0 -5.86667 -18.681 0 
-5.33333 -17.1552 0 -5.86667 -17.6638 0 -5.33333 -16.1379 0 
-5.86667 -16.6466 0 -5.33333 -15.1207 0 -5.86667 -15.6293 0 
-5.33333 -14.1034 0 -5.86667 -14.6121 0 -5.33333 -13.0862 0 
-5.86667 -13.5948 0 -5.33333 -12.069 0 -5.86667 -12.5776 0 
-5.33333 -11.0517 0 -5.86667 -11.5603 0 -5.33333 -10.0345 0 
-5.86667 -10.5431 0 -5.33333 -9.01724 0 -5.86667 -9.52586 0 
-5.86667 -8.50862 0 -6.4 -36.4828 0 -6.93333 -36.9914 0 
-6.4 -35.4655 0 -6.93333 -35.9741 0 -6.4 -34.4483 0 
-6.93333 -34.9569 0 -6.4 -33.431 0 -6.93333 -33.9397 0 
-6.4 -32.4138 0 -6.93333 -32.9224 0 -6.4 -31.3966 0 
-6.93333 -31.9052 0 -6.4 -30.3793 0 -6.93333 -30.8879 0 
-6.4 -29.3621 0 -6.93333 -29.8707 0 -6.4 -28.3448 0 
-6.93333 -28.8534 0 -6.4 -27.3276 0 -6.93333 -27.8362 0 
-6.4 -26.3103 0 -6.93333 -26.819 0 -6.4 -25.2931 0 
-6.93333 -25.8017 0 -6.4 -24.2759 0 -6.93333 -24.7845 0 
-6.4 -23.2586 0 -6.93333 -23.7672 0 -6.4 -22.2414 0 
-6.93333 -22.75 0 -6.4 -21.2241 0 -6.93333 -21.7328 0 
-6.4 -20.2069 0 -6.93333 -20.7155 0 -6.4 -19.1897 0 
-6.93333 -19.6983 0 -6.4 -18.1724 0 -6.93333 -18.681 0 
-6.4 -17.1552 0 -6.93333 -17.6638 0 -6.4 -16.1379 0 
-6.93333 -16.6466 0 -6.4 -15.1207 0 -6.93333 -15.6293 0 
-6.4 -14.1034 0 -6.93333 -14.6121 0 -6.4 -13.0862 0 
-6.93333 -13.5948 0 -6.4 -12.069 0 -6.93333 -12.5776 0 
-6.4 -11.0517 0 -6.93333 -11.5603 0 -6.4 -10.0345 0 
-6.93333 -10.5431 0 -6.4 -9.01724 0 -6.93333 -9.52586 0 
-6.93333 -8.50862 0 -7.46667 -36.4828 0 -7.46667 -35.4655 0 
-7.46667 -34.4483 0 -7.46667 -33.431 0 -7.46667 -32.4138 0 
-7.46667 -31.3966 0 -7.46667 -30.3793 0 -7.46667 -29.3621 0 
-7.46667 -28.3448 0 -7.46667 -27.3276 0 -7.46667 -26.3103 0 
-7.46667 -25.2931 0 -7.46667 -24.2759 0 -7.46667 -23.2586 0 
-7.46667 -22.2414 0 -7.46667 -21.2241 0 -7.46667 -20.2069 0 
-7.46667 -19.1897 0 -7.46667 -18.1724 0 -7.46667 -17.1552 0 
-7.46667 -16.1379 0 -7.46667 -15.1207 0 -7.46667 -14.1034 0 
-7.46667 -13.0862 0 -7.46667 -12.069 0 -7.46667 -11.0517 0 
-7.46667 -10.0345 0 -7.46667 -9.01724 0 -9.0625 -36.4828 0 
-9.0625 -35.4655 0 -9.0625 -34.4483 0 -9.0625 -33.431 0 
-9.0625 -32.4138 0 -9.0625 -31.3966 0 -9.0625 -30.3793 0 
-9.0625 -29.3621 0 -9.0625 -28.3448 0 -9.0625 -27.3276 0 
-9.0625 -26.3103 0 -9.0625 -25.2931 0 -9.0625 -24.2759 0 
-9.0625 -23.2586 0 -9.0625 -22.2414 0 -9.0625 -21.2241 0 
-9.0625 -20.2069 0 -9.0625 -19.1897 0 -9.0625 -18.1724 0 
-9.0625 -17.1552 0 -9.0625 -16.1379 0 -9.0625 -15.1207 0 
-9.0625 -14.1034 0 -9.0625 -13.0862 0 -9.0625 -12.069 0 
-9.0625 -11.0517 0 -9.0625 -10.0345 0 -9.0625 -9.01724 0 
-10.125 -36.4828 0 -10.125 -35.4655 0 -10.125 -34.4483 0 
-10.125 -33.431 0 -10.125 -32.4138 0 -10.125 -31.3966 0 
-10.125 -30.3793 0 -10.125 -29.3621 0 -10.125 -28.3448 0 
-10.125 -27.3276 0 -10.125 -26.3103 0 -10.125 -25.2931 0 
-10.125 -24.2759 0 -10.125 -23.2586 0 -10.125 -22.2414 0 
-10.125 -21.2241 0 -10.125 -20.2069 0 -10.125 -19.1897 0 
-10.125 -18.1724 0 -10.125 -17.1552 0 -10.125 -16.1379 0 
-10.125 -15.1207 0 -10.125 -14.1034 0 -10.125 -13.0862 0 
-10.125 -12.069 0 -10.125 -11.0517 0 -10.125 -10.0345 0 
-10.125 -9.01724 0 -11.1875 -36.4828 0 -11.1875 -35.4655 0 
-11.1875 -34.4483 0 -11.1875 -33.431 0 -11.1875 -32.4138 0 
-11.1875 -31.3966 0 -11.1875 -30.3793 0 -11.1875 -29.3621 0 
-11.1875 -28.3448 0 -11.1875 -27.3276 0 -11.1875 -26.3103 0 
-11.1875 -25.2931 0 -11.1875 -24.2759 0 -11.1875 -23.2586 0 
-11.1875 -22.2414 0 -11.1875 -21.2241 0 -11.1875 -20.2069 0 
-11.1875 -19.1897 0 -11.1875 -18.1724 0 -11.1875 -17.1552 0 
-11.1875 -16.1379 0 -11.1875 -15.1207 0 -11.1875 -14.1034 0 
-11.1875 -13.0862 0 -11.1875 -12.069 0 -11.1875 -11.0517 0 
-11.1875 -10.0345 0 -11.1875 -9.01724 0 -12.25 -36.4828 0 
-12.25 -35.4655 0 -12.25 -34.4483 0 -12.25 -33.431 0 
-12.25 -32.4138 0 -12.25 -31.3966 0 -12.25 -30.3793 0 
-12.25 -29.3621 0 -12.25 -28.3448 0 -12.25 -27.3276 0 
-12.25 -26.3103 0 -12.25 -25.2931 0 -12.25 -24.2759 0 
-12.25 -23.2586 0 -12.25 -22.2414 0 -12.25 -21.2241 0 
-12.25 -20.2069 0 -12.25 -19.1897 0 -12.25 -18.1724 0 
-12.25 -17.1552 0 -12.25 -16.1379 0 -12.25 -15.1207 0 
-12.25 -14.1034 0 -12.25 -13.0862 0 -12.25 -12.069 0 
-12.25 -11.0517 0 -12.25 -10.0345 0 -12.25 -9.01724 0 
-13.3125 -36.4828 0 -13.3125 -35.4655 0 -13.3125 -34.4483 0 
-13.3125 -33.431 0 -13.3125 -32.4138 0 -13.3125 -31.3966 0 
-13.3125 -30.3793 0 -13.3125 -29.3621 0 -13.3125 -28.3448 0 
-13.3125 -27.3276 0 -13.3125 -26.3103 0 -13.3125 -25.2931 0 
-13.3125 -24.2759 0 -13.3125 -23.2586 0 -13.3125 -22.2414 0 
-13.3125 -21.2241 0 -13.3125 -20.2069 0 -13.3125 -19.1897 0 
-13.3125 -18.1724 0 -13.3125 -17.1552 0 -13.3125 -16.1379 0 
-13.3125 -15.1207 0 -13.3125 -14.1034 0 -13.3125 -13.0862 0 
-13.3125 -12.069 0 -13.3125 -11.0517 0 -13.3125 -10.0345 0 
-13.3125 -9.01724 0 -14.375 -36.4828 0 -14.375 -35.4655 0 
-14.375 -34.4483 0 -14.375 -33.431 0 -14.375 -32.4138 0 
-14.375 -31.3966 0 -14.375 -30.3793 0 -14.375 -29.3621 0 
-14.375 -28.3448 0 -14.375 -27.3276 0 -14.375 -26.3103 0 
-14.375 -25.2931 0 -14.375 -24.2759 0 -14.375 -23.2586 0 
-14.375 -22.2414 0 -14.375 -21.2241 0 -14.375 -20.2069 0 
-14.375 -19.1897 0 -14.375 -18.1724 0 -14.375 -17.1552 0 
-14.375 -16.1379 0 -14.375 -15.1207 0 -14.375 -14.1034 0 
-14.375 -13.0862 0 -14.375 -12.069 0 -14.375 -11.0517 0 
-14.375 -10.0345 0 -14.375 -9.01724 0 -15.4375 -36.4828 0 
-15.4375 -35.4655 0 -15.4375 -34.4483 0 -15.4375 -33.431 0 
-15.4375 -32.4138 0 -15.4375 -31.3966 0 -15.4375 -30.3793 0 
-15.4375 -29.3621 0 -15.4375 -28.3448 0 -15.4375 -27.3276 0 
-15.4375 -26.3103 0 -15.4375 -25.2931 0 -15.4375 -24.2759 0 
-15.4375 -23.2586 0 -15.4375 -22.2414 0 -15.4375 -21.2241 0 
-15.4375 -20.2069 0 -15.4375 -19.1897 0 -15.4375 -18.1724 0 
-15.4375 -17.1552 0 -15.4375 -16.1379 0 -15.4375 -15.1207 0 
-15.4375 -14.1034 0 -15.4375 -13.0862 0 -15.4375 -12.069 0 
-15.4375 -11.0517 0 -15.4375 -10.0345 0 -15.4375 -9.01724 0 
-16.5 -36.4828 0 -16.5 -35.4655 0 -16.5 -34.4483 0 
-16.5 -33.431 0 -16.5 -32.4138 0 -16.5 -31.3966 0 
-16.5 -30.3793 0 -16.5 -29.3621 0 -16.5 -28.3448 0 
-16.5 -27.3276 0 -16.5 -26.3103 0 -16.5 -25.2931 0 
-16.5 -24.2759 0 -16.5 -23.2586 0 -16.5 -22.2414 0 
-16.5 -21.2241 0 -16.5 -20.2069 0 -16.5 -19.1897 0 
-16.5 -18.1724 0 -16.5 -17.1552 0 -16.5 -16.1379 0 
-16.5 -15.1207 0 -16.5 -14.1034 0 -16.5 -13.0862 0 
-16.5 -12.069 0 -16.5 -11.0517 0 -16.5 -10.0345 0 
-16.5 -9.01724 0 -17.5625 -36.4828 0 -17.5625 -35.4655 0 
-17.5625 -34.4483 0 -17.5625 -33.431 0 -17.5625 -32.4138 0 
-17.5625 -31.3966 0 -17.5625 -30.3793 0 -17.5625 -29.3621 0 
-17.5625 -28.3448 0 -17.5625 -27.3276 0 -17.5625 -26.3103 0 
-17.5625 -25.2931 0 -17.5625 -24.2759 0 -17.5625 -23.2586 0 
-17.5625 -22.2414 0 -17.5625 -21.2241 0 -17.5625 -20.2069 0 
-17.5625 -19.1897 0 -17.5625 -18.1724 0 -17.5625 -17.1552 0 
-17.5625 -16.1379 0 -17.5625 -15.1207 0 -17.5625 -14.1034 0 
-17.5625 -13.0862 0 -17.5625 -12.069 0 -17.5625 -11.0517 0 
-17.5625 -10.0345 0 -17.5625 -9.01724 0 -18.625 -36.4828 0 
-18.625 -35.4655 0 -18.625 -34.4483 0 -18.625 -33.431 0 
-18.625 -32.4138 0 -18.625 -31.3966 0 -18.625 -30.3793 0 
-18.625 -29.3621 0 -18.625 -28.3448 0 -18.625 -27.3276 0 
-18.625 -26.3103 0 -18.625 -25.2931 0 -18.625 -24.2759 0 
-18.625 -23.2586 0 -18.625 -22.2414 0 -18.625 -21.2241 0 
-18.625 -20.2069 0 -18.625 -19.1897 0 -18.625 -18.1724 0 
-18.625 -17.1552 0 -18.625 -16.1379 0 -18.625 -15.1207 0 
-18.625 -14.1034 0 -18.625 -13.0862 0 -18.625 -12.069 0 
-18.625 -11.0517 0 -18.625 -10.0345 0 -18.625 -9.01724 0 
-19.6875 -36.4828 0 -19.6875 -35.4655 0 -19.6875 -34.4483 0 
-19.6875 -33.431 0 -19.6875 -32.4138 0 -19.6875 -31.3966 0 
-19.6875 -30.3793 0 -19.6875 -29.3621 0 -19.6875 -28.3448 0 
-19.6875 -27.3276 0 -19.6875 -26.3103 0 -19.6875 -25.2931 0 
-19.6875 -24.2759 0 -19.6875 -23.2586 0 -19.6875 -22.2414 0 
-19.6875 -21.2241 0 -19.6875 -20.2069 0 -19.6875 -19.1897 0 
-19.6875 -18.1724 0 -19.6875 -17.1552 0 -19.6875 -16.1379 0 
-19.6875 -15.1207 0 -19.6875 -14.1034 0 -19.6875 -13.0862 0 
-19.6875 -12.069 0 -19.6875 -11.0517 0 -19.6875 -10.0345 0 
-19.6875 -9.01724 0 -20.75 -36.4828 0 -20.75 -35.4655 0 
-20.75 -34.4483 0 -20.75 -33.431 0 -20.75 -32.4138 0 
-20.75 -31.3966 0 -20.75 -30.3793 0 -20.75 -29.3621 0 
-20.75 -28.3448 0 -20.75 -27.3276 0 -20.75 -26.3103 0 
-20.75 -25.2931 0 -20.75 -24.2759 0 -20.75 -23.2586 0 
-20.75 -22.2414 0 -20.75 -21.2241 0 -20.75 -20.2069 0 
-20.75 -19.1897 0 -20.75 -18.1724 0 -20.75 -17.1552 0 
-20.75 -16.1379 0 -20.75 -15.1207 0 -20.75 -14.1034 0 
-20.75 -13.0862 0 -20.75 -12.069 0 -20.75 -11.0517 0 
-20.75 -10.0345 0 -20.75 -9.01724 0 -21.8125 -36.4828 0 
-21.8125 -35.4655 0 -21.8125 -34.4483 0 -21.8125 -33.431 0 
-21.8125 -32.4138 0 -21.8125 -31.3966 0 -21.8125 -30.3793 0 
-21.8125 -29.3621 0 -21.8125 -28.3448 0 -21.8125 -27.3276 0 
-21.8125 -26.3103 0 -21.8125 -25.2931 0 -21.8125 -24.2759 0 
-21.8125 -23.2586 0 -21.8125 -22.2414 0 -21.8125 -21.2241 0 
-21.8125 -20.2069 0 -21.8125 -19.1897 0 -21.8125 -18.1724 0 
-21.8125 -17.1552 0 -21.8125 -16.1379 0 -21.8125 -15.1207 0 
-21.8125 -14.1034 0 -21.8125 -13.0862 0 -21.8125 -12.069 0 
-21.8125 -11.0517 0 -21.8125 -10.0345 0 -21.8125 -9.01724 0 
-22.875 -36.4828 0 -22.875 -35.4655 0 -22.875 -34.4483 0 
-22.875 -33.431 0 -22.875 -32.4138 0 -22.875 -31.3966 0 
-22.875 -30.3793 0 -22.875 -29.3621 0 -22.875 -28.3448 0 
-22.875 -27.3276 0 -22.875 -26.3103 0 -22.875 -25.2931 0 
-22.875 -24.2759 0 -22.875 -23.2586 0 -22.875 -22.2414 0 
-22.875 -21.2241 0 -22.875 -20.2069 0 -22.875 -19.1897 0 
-22.875 -18.1724 0 -22.875 -17.1552 0 -22.875 -16.1379 0 
-22.875 -15.1207 0 -22.875 -14.1034 0 -22.875 -13.0862 0 
-22.875 -12.069 0 -22.875 -11.0517 0 -22.875 -10.0345 0 
-22.875 -9.01724 0 -23.9375 -36.4828 0 -23.9375 -35.4655 0 
-23.9375 -34.4483 0 -23.9375 -33.431 0 -23.9375 -32.4138 0 
-23.9375 -31.3966 0 -23.9375 -30.3793 0 -23.9375 -29.3621 0 
-23.9375 -28.3448 0 -23.9375 -27.3276 0 -23.9375 -26.3103 0 
-23.9375 -25.2931 0 -23.9375 -24.2759 0 -23.9375 -23.2586 0 
-23.9375 -22.2414 0 -23.9375 -21.2241 0 -23.9375 -20.2069 0 
-23.9375 -19.1897 0 -23.9375 -18.1724 0 -23.9375 -17.1552 0 
-23.9375 -16.1379 0 -23.9375 -15.1207 0 -23.9375 -14.1034 0 
-23.9375 -13.0862 0 -23.9375 -12.069 0 -23.9375 -11.0517 0 
-23.9375 -10.0345 0 -23.9375 -9.01724 0 -8.53125 -36.4828 0 
-9.0625 -36.9914 0 -8.53125 -35.4655 0 -9.0625 -35.9741 0 
-8.53125 -34.4483 0 -9.0625 -34.9569 0 -8.53125 -33.431 0 
-9.0625 -33.9397 0 -8.53125 -32.4138 0 -9.0625 -32.9224 0 
-8.53125 -31.3966 0 -9.0625 -31.9052 0 -8.53125 -30.3793 0 
-9.0625 -30.8879 0 -8.53125 -29.3621 0 -9.0625 -29.8707 0 
-8.53125 -28.3448 0 -9.0625 -28.8534 0 -8.53125 -27.3276 0 
-9.0625 -27.8362 0 -8.53125 -26.3103 0 -9.0625 -26.819 0 
-8.53125 -25.2931 0 -9.0625 -25.8017 0 -8.53125 -24.2759 0 
-9.0625 -24.7845 0 -8.53125 -23.2586 0 -9.0625 -23.7672 0 
-8.53125 -22.2414 0 -9.0625 -22.75 0 -8.53125 -21.2241 0 
-9.0625 -21.7328 0 -8.53125 -20.2069 0 -9.0625 -20.7155 0 
-8.53125 -19.1897 0 -9.0625 -19.6983 0 -8.53125 -18.1724 0 
-9.0625 -18.681 0 -8.53125 -17.1552 0 -9.0625 -17.6638 0 
-8.53125 -16.1379 0 -9.0625 -16.6466 0 -8.53125 -15.1207 0 
-9.0625 -15.6293 0 -8.53125 -14.1034 0 -9.0625 -14.6121 0 
-8.53125 -13.0862 0 -9.0625 -13.5948 0 -8.53125 -12.069 0 
-9.0625 -12.5776 0 -8.53125 -11.0517 0 -9.0625 -11.5603 0 
-8.53125 -10.0345 0 -9.0625 -10.5431 0 -8.53125 -9.01724 0 
-9.0625 -9.52586 0 -9.0625 -8.50862 0 -9.59375 -36.4828 0 
-10.125 -36.9914 0 -9.59375 -35.4655 0 -10.125 -35.9741 0 
-9.59375 -34.4483 0 -10.125 -34.9569 0 -9.59375 -33.431 0 
-10.125 -33.9397 0 -9.59375 -32.4138 0 -10.125 -32.9224 0 
-9.59375 -31.3966 0 -10.125 -31.9052 0 -9.59375 -30.3793 0 
-10.125 -30.8879 0 -9.59375 -29.3621 0 -10.125 -29.8707 0 
-9.59375 -28.3448 0 -10.125 -28.8534 0 -9.59375 -27.3276 0 
-10.125 -27.8362 0 -9.59375 -26.3103 0 -10.125 -26.819 0 
-9.59375 -25.2931 0 -10.125 -25.8017 0 -9.59375 -24.2759 0 
-10.125 -24.7845 0 -9.59375 -23.2586 0 -10.125 -23.7672 0 
-9.59375 -22.2414 0 -10.125 -22.75 0 -9.59375 -21.2241 0 
-10.125 -21.7328 0 -9.59375 -20.2069 0 -10.125 -20.7155 0 
-9.59375 -19.1897 0 -10.125 -19.6983 0 -9.59375 -18.1724 0 
-10.125 -18.681 0 -9.59375 -17.1552 0 -10.125 -17.6638 0 
-9.59375 -16.1379 0 -10.125 -16.6466 0 -9.59375 -15.1207 0 
-10.125 -15.6293 0 -9.59375 -14.1034 0 -10.125 -14.6121 0 
-9.59375 -13.0862 0 -10.125 -13.5948 0 -9.59375 -12.069 0 
-10.125 -12.5776 0 -9.59375 -11.0517 0 -10.125 -11.5603 0 
-9.59375 -10.0345 0 -10.125 -10.5431 0 -9.59375 -9.01724 0 
-10.125 -9.52586 0 -10.125 -8.50862 0 -10.6562 -36.4828 0 
-11.1875 -36.9914 0 -10.6562 -35.4655 0 -11.1875 -35.9741 0 
-10.6562 -34.4483 0 -11.1875 -34.9569 0 -10.6562 -33.431 0 
-11.1875 -33.9397 0 -10.6562 -32.4138 0 -11.1875 -32.9224 0 
-10.6562 -31.3966 0 -11.1875 -31.9052 0 -10.6562 -30.3793 0 
-11.1875 -30.8879 0 -10.6562 -29.3621 0 -11.1875 -29.8707 0 
-10.6562 -28.3448 0 -11.1875 -28.8534 0 -10.6562 -27.3276 0 
-11.1875 -27.8362 0 -10.6562 -26.3103 0 -11.1875 -26.819 0 
-10.6562 -25.2931 0 -11.1875 -25.8017 0 -10.6562 -24.2759 0 
-11.1875 -24.7845 0 -10.6562 -23.2586 0 -11.1875 -23.7672 0 
-10.6562 -22.2414 0 -11.1875 -22.75 0 -10.6562 -21.2241 0 
-11.1875 -21.7328 0 -10.6562 -20.2069 0 -11.1875 -20.7155 0 
-10.6562 -19.1897 0 -11.1875 -19.6983 0 -10.6562 -18.1724 0 
-11.1875 -18.681 0 -10.6562 -17.1552 0 -11.1875 -17.6638 0 
-10.6562 -16.1379 0 -11.1875 -16.6466 0 -10.6562 -15.1207 0 
-11.1875 -15.6293 0 -10.6562 -14.1034 0 -11.1875 -14.6121 0 
-10.6562 -13.0862 0 -11.1875 -13.5948 0 -10.6562 -12.069 0 
-11.1875 -12.5776 0 -10.6562 -11.0517 0 -11.1875 -11.5603 0 
-10.6562 -10.0345 0 -11.1875 -10.5431 0 -10.6562 -9.01724 0 
-11.1875 -9.52586 0 -11.1875 -8.50862 0 -11.7188 -36.4828 0 
-12.25 -36.9914 0 -11.7188 -35.4655 0 -12.25 -35.9741 0 
-11.7188 -34.4483 0 -12.25 -34.9569 0 -11.7188 -33.431 0 
-12.25 -33.9397 0 -11.7188 -32.4138 0 -12.25 -32.9224 0 
-11.7188 -31.3966 0 -12.25 -31.9052 0 -11.7188 -30.3793 0 
-12.25 -30.8879 0 -11.7188 -29.3621 0 -12.25 -29.8707 0 
-11.7188 -28.3448 0 -12.25 -28.8534 0 -11.7188 -27.3276 0 
-12.25 -27.8362 0 -11.7188 -26.3103 0 -12.25 -26.819 0 
-11.7188 -25.2931 0 -12.25 -25.8017 0 -11.7188 -24.2759 0 
-12.25 -24.7845 0 -11.7188 -23.2586 0 -12.25 -23.7672 0 
-11.7188 -22.2414 0 -12.25 -22.75 0 -11.7188 -21.2241 0 
-12.25 -21.7328 0 -11.7188 -20.2069 0 -12.25 -20.7155 0 
-11.7188 -19.1897 0 -12.25 -19.6983 0 -11.7188 -18.1724 0 
-12.25 -18.681 0 -11.7188 -17.1552 0 -12.25 -17.6638 0 
-11.7188 -16.1379 0 -12.25 -16.6466 0 -11.7188 -15.1207 0 
-12.25 -15.6293 0 -11.7188 -14.1034 0 -12.25 -14.6121 0 
-11.7188 -13.0862 0 -12.25 -13.5948 0 -11.7188 -12.069 0 
-12.25 -12.5776 0 -11.7188 -11.0517 0 -12.25 -11.5603 0 
-11.7188 -10.0345 0 -12.25 -10.5431 0 -11.7188 -9.01724 0 
-12.25 -9.52586 0 -12.25 -8.50862 0 -12.7812 -36.4828 0 
-13.3125 -36.9914 0 -12.7812 -35.4655 0 -13.3125 -35.9741 0 
-12.7812 -34.4483 0 -13.3125 -34.9569 0 -12.7812 -33.431 0 
-13.3125 -33.9397 0 -12.7812 -32.4138 0 -13.3125 -32.9224 0 
-12.7812 -31.3966 0 -13.3125 -31.9052 0 -12.7812 -30.3793 0 
-13.3125 -30.8879 0 -12.7812 -29.3621 0 -13.3125 -29.8707 0 
-12.7812 -28.3448 0 -13.3125 -28.8534 0 -12.7812 -27.3276 0 
-13.3125 -27.8362 0 -12.7812 -26.3103 0 -13.3125 -26.819 0 
-12.7812 -25.2931 0 -13.3125 -25.8017 0 -12.7812 -24.2759 0 
-13.3125 -24.7845 0 -12.7812 -23.2586 0 -13.3125 -23.7672 0 
-12.7812 -22.2414 0 -13.3125 -22.75 0 -12.7812 -21.2241 0 
-13.3125 -21.7328 0 -12.7812 -20.2069 0 -13.3125 -20.7155 0 
-12.7812 -19.1897 0 -13.3125 -19.6983 0 -12.7812 -18.1724 0 
-13.3125 -18.681 0 -12.7812 -17.1552 0 -13.3125 -17.6638 0 
-12.7812 -16.1379 0 -13.3125 -16.6466 0 -12.7812 -15.1207 0 
-13.3125 -15.6293 0 -12.7812 -14.1034 0 -13.3125 -14.6121 0 
-12.7812 -13.0862 0 -13.3125 -13.5948 0 -12.7812 -12.069 0 
-13.3125 -12.5776 0 -12.7812 -11.0517 0 -13.3125 -11.5603 0 
-12.7812 -10.0345 0 -13.3125 -10.5431 0 -12.7812 -9.01724 0 
-13.3125 -9.52586 0 -13.3125 -8.50862 0 -13.8438 -36.4828 0 
-14.375 -36.9914 0 -13.8438 -35.4655 0 -14.375 -35.9741 0 
-13.8438 -34.4483 0 -14.375 -34.9569 0 -13.8438 -33.431 0 
-14.375 -33.9397 0 -13.8438 -32.4138 0 -14.375 -32.9224 0 
-13.8438 -31.3966 0 -14.375 -31.9052 0 -13.8438 -30.3793 0 
-14.375 -30.8879 0 -13.8438 -29.3621 0 -14.375 -29.8707 0 
-13.8438 -28.3448 0 -14.375 -28.8534 0 -13.8438 -27.3276 0 
-14.375 -27.8362 0 -13.8438 -26.3103 0 -14.375 -26.819 0 
-13.8438 -25.2931 0 -14.375 -25.8017 0 -13.8438 -24.2759 0 
-14.375 -24.7845 0 -13.8438 -23.2586 0 -14.375 -23.7672 0 
-13.8438 -22.2414 0 -14.375 -22.75 0 -13.8438 -21.2241 0 
-14.375 -21.7328 0 -13.8438 -20.2069 0 -14.375 -20.7155 0 
-13.8438 -19.1897 0 -14.375 -19.6983 0 -13.8438 -18.1724 0 
-14.375 -18.681 0 -13.8438 -17.1552 0 -14.375 -17.6638 0 
-13.8438 -16.1379 0 -14.375 -16.6466 0 -13.8438 -15.1207 0 
-14.375 -15.6293 0 -13.8438 -14.1034 0 -14.375 -14.6121 0 
-13.8438 -13.0862 0 -14.375 -13.5948 0 -13.8438 -12.069 0 
-14.375 -12.5776 0 -13.8438 -11.0517 0 -14.375 -11.5603 0 
-13.8438 -10.0345 0 -14.375 -10.5431 0 -13.8438 -9.01724 0 
-14.375 -9.52586 0 -14.375 -8.50862 0 -14.9062 -36.4828 0 
-15.4375 -36.9914 0 -14.9062 -35.4655 0 -15.4375 -35.9741 0 
-14.9062 -34.4483 0 -15.4375 -34.9569 0 -14.9062 -33.431 0 
-15.4375 -33.9397 0 -14.9062 -32.4138 0 -15.4375 -32.9224 0 
-14.9062 -31.3966 0 -15.4375 -31.9052 0 -14.9062 -30.3793 0 
-15.4375 -30.8879 0 -14.9062 -29.3621 0 -15.4375 -29.8707 0 
-14.9062 -28.3448 0 -15.4375 -28.8534 0 -14.9062 -27.3276 0 
-15.4375 -27.8362 0 -14.9062 -26.3103 0 -15.4375 -26.819 0 
-14.9062 -25.2931 0 -15.4375 -25.8017 0 -14.9062 -24.2759 0 
-15.4375 -24.7845 0 -14.9062 -23.2586 0 -15.4375 -23.7672 0 
-14.9062 -22.2414 0 -15.4375 -22.75 0 -14.9062 -21.2241 0 
-15.4375 -21.7328 0 -14.9062 -20.2069 0 -15.4375 -20.7155 0 
-14.9062 -19.1897 0 -15.4375 -19.6983 0 -14.9062 -18.1724 0 
-15.4375 -18.681 0 -14.9062 -17.1552 0 -15.4375 -17.6638 0 
-14.9062 -16.1379 0 -15.4375 -16.6466 0 -14.9062 -15.1207 0 
-15.4375 -15.6293 0 -14.9062 -14.1034 0 -15.4375 -14.6121 0 
-14.9062 -13.0862 0 -15.4375 -13.5948 0 -14.9062 -12.069 0 
-15.4375 -12.5776 0 -14.9062 -11.0517 0 -15.4375 -11.5603 0 
-14.9062 -10.0345 0 -15.4375 -10.5431 0 -14.9062 -9.01724 0 
-15.4375 -9.52586 0 -15.4375 -8.50862 0 -15.9688 -36.4828 0 
-16.5 -36.9914 0 -15.9688 -35.4655 0 -16.5 -35.9741 0 
-15.9688 -34.4483 0 -16.5 -34.9569 0 -15.9688 -33.431 0 
-16.5 -33.9397 0 -15.9688 -32.4138 0 -16.5 -32.9224 0 
-15.9688 -31.3966 0 -16.5 -31.9052 0 -15.9688 -30.3793 0 
-16.5 -30.8879 0 -15.9688 -29.3621 0 -16.5 -29.8707 0 
-15.9688 -28.3448 0 -16.5 -28.8534 0 -15.9688 -27.3276 0 
-16.5 -27.8362 0 -15.9688 -26.3103 0 -16.5 -26.819 0 
-15.9688 -25.2931 0 -16.5 -25.8017 0 -15.9688 -24.2759 0 
-16.5 -24.7845 0 -15.9688 -23.2586 0 -16.5 -23.7672 0 
-15.9688 -22.2414 0 -16.5 -22.75 0 -15.9688 -21.2241 0 
-16.5 -21.7328 0 -15.9688 -20.2069 0 -16.5 -20.7155 0 
-15.9688 -19.1897 0 -16.5 -19.6983 0 -15.9688 -18.1724 0 
-16.5 -18.681 0 -15.9688 -17.1552 0 -16.5 -17.6638 0 
-15.9688 -16.1379 0 -16.5 -16.6466 0 -15.9688 -15.1207 0 
-16.5 -15.6293 0 -15.9688 -14.1034 0 -16.5 -14.6121 0 
-15.9688 -13.0862 0 -16.5 -13.5948 0 -15.9688 -12.069 0 
-16.5 -12.5776 0 -15.9688 -11.0517 0 -16.5 -11.5603 0 
-15.9688 -10.0345 0 -16.5 -10.5431 0 -15.9688 -9.01724 0 
-16.5 -9.52586 0 -16.5 -8.50862 0 -17.0312 -36.4828 0 
-17.5625 -36.9914 0 -17.0312 -35.4655 0 -17.5625 -35.9741 0 
-17.0312 -34.4483 0 -17.5625 -34.9569 0 -17.0312 -33.431 0 
-17.5625 -33.9397 0 -17.0312 -32.4138 0 -17.5625 -32.9224 0 
-17.0312 -31.3966 0 -17.5625 -31.9052 0 -17.0312 -30.3793 0 
-17.5625 -30.8879 0 -17.0312 -29.3621 0 -17.5625 -29.8707 0 
-17.0312 -28.3448 0 -17.5625 -28.8534 0 -17.0312 -27.3276 0 
-17.5625 -27.8362 0 -17.0312 -26.3103 0 -17.5625 -26.819 0 
-17.0312 -25.2931 0 -17.5625 -25.8017 0 -17.0312 -24.2759 0 
-17.5625 -24.7845 0 -17.0312 -23.2586 0 -17.5625 -23.7672 0 
-17.0312 -22.2414 0 -17.5625 -22.75 0 -17.0312 -21.2241 0 
-17.5625 -21.7328 0 -17.0312 -20.2069 0 -17.5625 -20.7155 0 
-17.0312 -19.1897 0 -17.5625 -19.6983 0 -17.0312 -18.1724 0 
-17.5625 -18.681 0 -17.0312 -17.1552 0 -17.5625 -17.6638 0 
-17.0312 -16.1379 0 -17.5625 -16.6466 0 -17.0312 -15.1207 0 
-17.5625 -15.6293 0 -17.0312 -14.1034 0 -17.5625 -14.6121 0 
-17.0312 -13.0862 0 -17.5625 -13.5948 0 -17.0312 -12.069 0 
-17.5625 -12.5776 0 -17.0312 -11.0517 0 -17.5625 -11.5603 0 
-17.0312 -10.0345 0 -17.5625 -10.5431 0 -17.0312 -9.01724 0 
-17.5625 -9.52586 0 -17.5625 -8.50862 0 -18.0938 -36.4828 0 
-18.625 -36.9914 0 -18.0938 -35.4655 0 -18.625 -35.9741 0 
-18.0938 -34.4483 0 -18.625 -34.9569 0 -18.0938 -33.431 0 
-18.625 -33.9397 0 -18.0938 -32.4138 0 -18.625 -32.9224 0 
-18.0938 -31.3966 0 -18.625 -31.9052 0 -18.0938 -30.3793 0 
-18.625 -30.8879 0 -18.0938 -29.3621 0 -18.625 -29.8707 0 
-18.0938 -28.3448 0 -18.625 -28.8534 0 -18.0938 -27.3276 0 
-18.625 -27.8362 0 -18.0938 -26.3103 0 -18.625 -26.819 0 
-18.0938 -25.2931 0 -18.625 -25.8017 0 -18.0938 -24.2759 0 
-18.625 -24.7845 0 -18.0938 -23.2586 0 -18.625 -23.7672 0 
-18.0938 -22.2414 0 -18.625 -22.75 0 -18.0938 -21.2241 0 
-18.625 -21.7328 0 -18.0938 -20.2069 0 -18.625 -20.7155 0 
-18.0938 -19.1897 0 -18.625 -19.6983 0 -18.0938 -18.1724 0 
-18.625 -18.681 0 -18.0938 -17.1552 0 -18.625 -17.6638 0 
-18.0938 -16.1379 0 -18.625 -16.6466 0 -18.0938 -15.1207 0 
-18.625 -15.6293 0 -18.0938 -14.1034 0 -18.625 -14.6121 0 
-18.0938 -13.0862 0 -18.625 -13.5948 0 -18.0938 -12.069 0 
-18.625 -12.5776 0 -18.0938 -11.0517 0 -18.625 -11.5603 0 
-18.0938 -10.0345 0 -18.625 -10.5431 0 -18.0938 -9.01724 0 
-18.625 -9.52586 0 -18.625 -8.50862 0 -19.1562 -36.4828 0 
-19.6875 -36.9914 0 -19.1562 -35.4655 0 -19.6875 -35.9741 0 
-19.1562 -34.4483 0 -19.6875 -34.9569 0 -19.1562 -33.431 0 
-19.6875 -33.9397 0 -19.1562 -32.4138 0 -19.6875 -32.9224 0 
-19.1562 -31.3966 0 -19.6875 -31.9052 0 -19.1562 -30.3793 0 
-19.6875 -30.8879 0 -19.1562 -29.3621 0 -19.6875 -29.8707 0 
-19.1562 -28.3448 0 -19.6875 -28.8534 0 -19.1562 -27.3276 0 
-19.6875 -27.8362 0 -19.1562 -26.3103 0 -19.6875 -26.819 0 
-19.1562 -25.2931 0 -19.6875 -25.8017 0 -19.1562 -24.2759 0 
-19.6875 -24.7845 0 -19.1562 -23.2586 0 -19.6875 -23.7672 0 
-19.1562 -22.2414 0 -19.6875 -22.75 0 -19.1562 -21.2241 0 
-19.6875 -21.7328 0 -19.1562 -20.2069 0 -19.6875 -20.7155 0 
-19.1562 -19.1897 0 -19.6875 -19.6983 0 -19.1562 -18.1724 0 
-19.6875 -18.681 0 -19.1562 -17.1552 0 -19.6875 -17.6638 0 
-19.1562 -16.1379 0 -19.6875 -16.6466 0 -19.1562 -15.1207 0 
-19.6875 -15.6293 0 -19.1562 -14.1034 0 -19.6875 -14.6121 0 
-19.1562 -13.0862 0 -19.6875 -13.5948 0 -19.1562 -12.069 0 
-19.6875 -12.5776 0 -19.1562 -11.0517 0 -19.6875 -11.5603 0 
-19.1562 -10.0345 0 -19.6875 -10.5431 0 -19.1562 -9.01724 0 
-19.6875 -9.52586 0 -19.6875 -8.50862 0 -20.2188 -36.4828 0 
-20.75 -36.9914 0 -20.2188 -35.4655 0 -20.75 -35.9741 0 
-20.2188 -34.4483 0 -20.75 -34.9569 0 -20.2188 -33.431 0 
-20.75 -33.9397 0 -20.2188 -32.4138 0 -20.75 -32.9224 0 
-20.2188 -31.3966 0 -20.75 -31.9052 0 -20.2188 -30.3793 0 
-20.75 -30.8879 0 -20.2188 -29.3621 0 -20.75 -29.8707 0 
-20.2188 -28.3448 0 -20.75 -28.8534 0 -20.2188 -27.3276 0 
-20.75 -27.8362 0 -20.2188 -26.3103 0 -20.75 -26.819 0 
-20.2188 -25.2931 0 -20.75 -25.8017 0 -20.2188 -24.2759 0 
-20.75 -24.7845 0 -20.2188 -23.2586 0 -20.75 -23.7672 0 
-20.2188 -22.2414 0 -20.75 -22.75 0 -20.2188 -21.2241 0 
-20.75 -21.7328 0 -20.2188 -20.2069 0 -20.75 -20.7155 0 
-20.2188 -19.1897 0 -20.75 -19.6983 0 -20.2188 -18.1724 0 
-20.75 -18.681 0 -20.2188 -17.1552 0 -20.75 -17.6638 0 
-20.2188 -16.1379 0 -20.75 -16.6466 0 -20.2188 -15.1207 0 
-20.75 -15.6293 0 -20.2188 -14.1034 0 -20.75 -14.6121 0 
-20.2188 -13.0862 0 -20.75 -13.5948 0 -20.2188 -12.069 0 
-20.75 -12.5776 0 -20.2188 -11.0517 0 -20.75 -11.5603 0 
-20.2188 -10.0345 0 -20.75 -10.5431 0 -20.2188 -9.01724 0 
-20.75 -9.52586 0 -20.75 -8.50862 0 -21.2812 -36.4828 0 
-21.8125 -36.9914 0 -21.2812 -35.4655 0 -21.8125 -35.9741 0 
-21.2812 -34.4483 0 -21.8125 -34.9569 0 -21.2812 -33.431 0 
-21.8125 -33.9397 0 -21.2812 -32.4138 0 -21.8125 -32.9224 0 
-21.2812 -31.3966 0 -21.8125 -31.9052 0 -21.2812 -30.3793 0 
-21.8125 -30.8879 0 -21.2812 -29.3621 0 -21.8125 -29.8707 0 
-21.2812 -28.3448 0 -21.8125 -28.8534 0 -21.2812 -27.3276 0 
-21.8125 -27.8362 0 -21.2812 -26.3103 0 -21.8125 -26.819 0 
-21.2812 -25.2931 0 -21.8125 -25.8017 0 -21.2812 -24.2759 0 
-21.8125 -24.7845 0 -21.2812 -23.2586 0 -21.8125 -23.7672 0 
-21.2812 -22.2414 0 -21.8125 -22.75 0 -21.2812 -21.2241 0 
-21.8125 -21.7328 0 -21.2812 -20.2069 0 -21.8125 -20.7155 0 
-21.2812 -19.1897 0 -21.8125 -19.6983 0 -21.2812 -18.1724 0 
-21.8125 -18.681 0 -21.2812 -17.1552 0 -21.8125 -17.6638 0 
-21.2812 -16.1379 0 -21.8125 -16.6466 0 -21.2812 -15.1207 0 
-21.8125 -15.6293 0 -21.2812 -14.1034 0 -21.8125 -14.6121 0 
-21.2812 -13.0862 0 -21.8125 -13.5948 0 -21.2812 -12.069 0 
-21.8125 -12.5776 0 -21.2812 -11.0517 0 -21.8125 -11.5603 0 
-21.2812 -10.0345 0 -21.8125 -10.5431 0 -21.2812 -9.01724 0 
-21.8125 -9.52586 0 -21.8125 -8.50862 0 -22.3438 -36.4828 0 
-22.875 -36.9914 0 -22.3438 -35.4655 0 -22.875 -35.9741 0 
-22.3438 -34.4483 0 -22.875 -34.9569 0 -22.3438 -33.431 0 
-22.875 -33.9397 0 -22.3438 -32.4138 0 -22.875 -32.9224 0 
-22.3438 -31.3966 0 -22.875 -31.9052 0 -22.3438 -30.3793 0 
-22.875 -30.8879 0 -22.3438 -29.3621 0 -22.875 -29.8707 0 
-22.3438 -28.3448 0 -22.875 -28.8534 0 -22.3438 -27.3276 0 
-22.875 -27.8362 0 -22.3438 -26.3103 0 -22.875 -26.819 0 
-22.3438 -25.2931 0 -22.875 -25.8017 0 -22.3438 -24.2759 0 
-22.875 -24.7845 0 -22.3438 -23.2586 0 -22.875 -23.7672 0 
-22.3438 -22.2414 0 -22.875 -22.75 0 -22.3438 -21.2241 0 
-22.875 -21.7328 0 -22.3438 -20.2069 0 -22.875 -20.7155 0 
-22.3438 -19.1897 0 -22.875 -19.6983 0 -22.3438 -18.1724 0 
-22.875 -18.681 0 -22.3438 -17.1552 0 -22.875 -17.6638 0 
-22.3438 -16.1379 0 -22.875 -16.6466 0 -22.3438 -15.1207 0 
-22.875 -15.6293 0 -22.3438 -14.1034 0 -22.875 -14.6121 0 
-22.3438 -13.0862 0 -22.875 -13.5948 0 -22.3438 -12.069 0 
-22.875 -12.5776 0 -22.3438 -11.0517 0 -22.875 -11.5603 0 
-22.3438 -10.0345 0 -22.875 -10.5431 0 -22.3438 -9.01724 0 
-22.875 -9.52586 0 -22.875 -8.50862 0 -23.4062 -36.4828 0 
-23.9375 -36.9914 0 -23.4062 -35.4655 0 -23.9375 -35.9741 0 
-23.4062 -34.4483 0 -23.9375 -34.9569 0 -23.4062 -33.431 0 
-23.9375 -33.9397 0 -23.4062 -32.4138 0 -23.9375 -32.9224 0 
-23.4062 -31.3966 0 -23.9375 -31.9052 0 -23.4062 -30.3793 0 
-23.9375 -30.8879 0 -23.4062 -29.3621 0 -23.9375 -29.8707 0 
-23.4062 -28.3448 0 -23.9375 -28.8534 0 -23.4062 -27.3276 0 
-23.9375 -27.8362 0 -23.4062 -26.3103 0 -23.9375 -26.819 0 
-23.4062 -25.2931 0 -23.9375 -25.8017 0 -23.4062 -24.2759 0 
-23.9375 -24.7845 0 -23.4062 -23.2586 0 -23.9375 -23.7672 0 
-23.4062 -22.2414 0 -23.9375 -22.75 0 -23.4062 -21.2241 0 
-23.9375 -21.7328 0 -23.4062 -20.2069 0 -23.9375 -20.7155 0 
-23.4062 -19.1897 0 -23.9375 -19.6983 0 -23.4062 -18.1724 0 
-23.9375 -18.681 0 -23.4062 -17.1552 0 -23.9375 -17.6638 0 
-23.4062 -16.1379 0 -23.9375 -16.6466 0 -23.4062 -15.1207 0 
-23.9375 -15.6293 0 -23.4062 -14.1034 0 -23.9375 -14.6121 0 
-23.4062 -13.0862 0 -23.9375 -13.5948 0 -23.4062 -12.069 0 
-23.9375 -12.5776 0 -23.4062 -11.0517 0 -23.9375 -11.5603 0 
-23.4062 -10.0345 0 -23.9375 -10.5431 0 -23.4062 -9.01724 0 
-23.9375 -9.52586 0 -23.9375 -8.50862 0 -24.4688 -36.4828 0 
-24.4688 -35.4655 0 -24.4688 -34.4483 0 -24.4688 -33.431 0 
-24.4688 -32.4138 0 -24.4688 -31.3966 0 -24.4688 -30.3793 0 
-24.4688 -29.3621 0 -24.4688 -28.3448 0 -24.4688 -27.3276 0 
-24.4688 -26.3103 0 -24.4688 -25.2931 0 -24.4688 -24.2759 0 
-24.4688 -23.2586 0 -24.4688 -22.2414 0 -24.4688 -21.2241 0 
-24.4688 -20.2069 0 -24.4688 -19.1897 0 -24.4688 -18.1724 0 
-24.4688 -17.1552 0 -24.4688 -16.1379 0 -24.4688 -15.1207 0 
-24.4688 -14.1034 0 -24.4688 -13.0862 0 -24.4688 -12.069 0 
-24.4688 -11.0517 0 -24.4688 -10.0345 0 -24.4688 -9.01724 0 
-23.9375 -6.93333 0 -22.875 -6.93333 0 -21.8125 -6.93333 0 
-20.75 -6.93333 0 -19.6875 -6.93333 0 -18.625 -6.93333 0 
-17.5625 -6.93333 0 -16.5 -6.93333 0 -15.4375 -6.93333 0 
-14.375 -6.93333 0 -13.3125 -6.93333 0 -12.25 -6.93333 0 
-11.1875 -6.93333 0 -10.125 -6.93333 0 -9.0625 -6.93333 0 
-23.9375 -5.86667 0 -22.875 -5.86667 0 -21.8125 -5.86667 0 
-20.75 -5.86667 0 -19.6875 -5.86667 0 -18.625 -5.86667 0 
-17.5625 -5.86667 0 -16.5 -5.86667 0 -15.4375 -5.86667 0 
-14.375 -5.86667 0 -13.3125 -5.86667 0 -12.25 -5.86667 0 
-11.1875 -5.86667 0 -10.125 -5.86667 0 -9.0625 -5.86667 0 
-23.9375 -4.8 0 -22.875 -4.8 0 -21.8125 -4.8 0 
-20.75 -4.8 0 -19.6875 -4.8 0 -18.625 -4.8 0 
-17.5625 -4.8 0 -16.5 -4.8 0 -15.4375 -4.8 0 
-14.375 -4.8 0 -13.3125 -4.8 0 -12.25 -4.8 0 
-11.1875 -4.8 0 -10.125 -4.8 0 -9.0625 -4.8 0 
-23.9375 -3.73333 0 -22.875 -3.73333 0 -21.8125 -3.73333 0 
-20.75 -3.73333 0 -19.6875 -3.73333 0 -18.625 -3.73333 0 
-17.5625 -3.73333 0 -16.5 -3.73333 0 -15.4375 -3.73333 0 
-14.375 -3.73333 0 -13.3125 -3.73333 0 -12.25 -3.73333 0 
-11.1875 -3.73333 0 -10.125 -3.73333 0 -9.0625 -3.73333 0 
-23.9375 -2.66667 0 -22.875 -2.66667 0 -21.8125 -2.66667 0 
-20.75 -2.66667 0 -19.6875 -2.66667 0 -18.625 -2.66667 0 
-17.5625 -2.66667 0 -16.5 -2.66667 0 -15.4375 -2.66667 0 
-14.375 -2.66667 0 -13.3125 -2.66667 0 -12.25 -2.66667 0 
-11.1875 -2.66667 0 -10.125 -2.66667 0 -9.0625 -2.66667 0 
-23.9375 -1.6 0 -22.875 -1.6 0 -21.8125 -1.6 0 
-20.75 -1.6 0 -19.6875 -1.6 0 -18.625 -1.6 0 
-17.5625 -1.6 0 -16.5 -1.6 0 -15.4375 -1.6 0 
-14.375 -1.6 0 -13.3125 -1.6 0 -12.25 -1.6 0 
-11.1875 -1.6 0 -10.125 -1.6 0 -9.0625 -1.6 0 
-23.9375 -0.533333 0 -22.875 -0.533333 0 -21.8125 -0.533333 0 
-20.75 -0.533333 0 -19.6875 -0.533333 0 -18.625 -0.533333 0 
-17.5625 -0.533333 0 -16.5 -0.533333 0 -15.4375 -0.533333 0 
-14.375 -0.533333 0 -13.3125 -0.533333 0 -12.25 -0.533333 0 
-11.1875 -0.533333 0 -10.125 -0.533333 0 -9.0625 -0.533333 0 
-23.9375 0.533333 0 -22.875 0.533333 0 -21.8125 0.533333 0 
-20.75 0.533333 0 -19.6875 0.533333 0 -18.625 0.533333 0 
-17.5625 0.533333 0 -16.5 0.533333 0 -15.4375 0.533333 0 
-14.375 0.533333 0 -13.3125 0.533333 0 -12.25 0.533333 0 
-11.1875 0.533333 0 -10.125 0.533333 0 -9.0625 0.533333 0 
-23.9375 1.6 0 -22.875 1.6 0 -21.8125 1.6 0 
-20.75 1.6 0 -19.6875 1.6 0 -18.625 1.6 0 
-17.5625 1.6 0 -16.5 1.6 0 -15.4375 1.6 0 
-14.375 1.6 0 -13.3125 1.6 0 -12.25 1.6 0 
-11.1875 1.6 0 -10.125 1.6 0 -9.0625 1.6 0 
-23.9375 2.66667 0 -22.875 2.66667 0 -21.8125 2.66667 0 
-20.75 2.66667 0 -19.6875 2.66667 0 -18.625 2.66667 0 
-17.5625 2.66667 0 -16.5 2.66667 0 -15.4375 2.66667 0 
-14.375 2.66667 0 -13.3125 2.66667 0 -12.25 2.66667 0 
-11.1875 2.66667 0 -10.125 2.66667 0 -9.0625 2.66667 0 
-23.9375 3.73333 0 -22.875 3.73333 0 -21.8125 3.73333 0 
-20.75 3.73333 0 -19.6875 3.73333 0 -18.625 3.73333 0 
-17.5625 3.73333 0 -16.5 3.73333 0 -15.4375 3.73333 0 
-14.375 3.73333 0 -13.3125 3.73333 0 -12.25 3.73333 0 
-11.1875 3.73333 0 -10.125 3.73333 0 -9.0625 3.73333 0 
-23.9375 4.8 0 -22.875 4.8 0 -21.8125 4.8 0 
-20.75 4.8 0 -19.6875 4.8 0 -18.625 4.8 0 
-17.5625 4.8 0 -16.5 4.8 0 -15.4375 4.8 0 
-14.375 4.8 0 -13.3125 4.8 0 -12.25 4.8 0 
-11.1875 4.8 0 -10.125 4.8 0 -9.0625 4.8 0 
-23.9375 5.86667 0 -22.875 5.86667 0 -21.8125 5.86667 0 
-20.75 5.86667 0 -19.6875 5.86667 0 -18.625 5.86667 0 
-17.5625 5.86667 0 -16.5 5.86667 0 -15.4375 5.86667 0 
-14.375 5.86667 0 -13.3125 5.86667 0 -12.25 5.86667 0 
-11.1875 5.86667 0 -10.125 5.86667 0 -9.0625 5.86667 0 
-23.9375 6.93333 0 -22.875 6.93333 0 -21.8125 6.93333 0 
-20.75 6.93333 0 -19.6875 6.93333 0 -18.625 6.93333 0 
-17.5625 6.93333 0 -16.5 6.93333 0 -15.4375 6.93333 0 
-14.375 6.93333 0 -13.3125 6.93333 0 -12.25 6.93333 0 
-11.1875 6.93333 0 -10.125 6.93333 0 -9.0625 6.93333 0 
-23.9375 -7.46667 0 -24.4688 -6.93333 0 -22.875 -7.46667 0 
-23.4062 -6.93333 0 -21.8125 -7.46667 0 -22.3438 -6.93333 0 
-20.75 -7.46667 0 -21.2812 -6.93333 0 -19.6875 -7.46667 0 
-20.2188 -6.93333 0 -18.625 -7.46667 0 -19.1562 -6.93333 0 
-17.5625 -7.46667 0 -18.0938 -6.93333 0 -16.5 -7.46667 0 
-17.0312 -6.93333 0 -15.4375 -7.46667 0 -15.9688 -6.93333 0 
-14.375 -7.46667 0 -14.9062 -6.93333 0 -13.3125 -7.46667 0 
-13.8438 -6.93333 0 -12.25 -7.46667 0 -12.7812 -6.93333 0 
-11.1875 -7.46667 0 -11.7188 -6.93333 0 -10.125 -7.46667 0 
-10.6562 -6.93333 0 -9.0625 -7.46667 0 -9.59375 -6.93333 0 
-8.53125 -6.93333 0 -23.9375 -6.4 0 -24.4688 -5.86667 0 
-22.875 -6.4 0 -23.4062 -5.86667 0 -21.8125 -6.4 0 
-22.3438 -5.86667 0 -20.75 -6.4 0 -21.2812 -5.86667 0 
-19.6875 -6.4 0 -20.2188 -5.86667 0 -18.625 -6.4 0 
-19.1562 -5.86667 0 -17.5625 -6.4 0 -18.0938 -5.86667 0 
-16.5 -6.4 0 -17.0312 -5.86667 0 -15.4375 -6.4 0 
-15.9688 -5.86667 0 -14.375 -6.4 0 -14.9062 -5.86667 0 
-13.3125 -6.4 0 -13.8438 -5.86667 0 -12.25 -6.4 0 
-12.7812 -5.86667 0 -11.1875 -6.4 0 -11.7188 -5.86667 0 
-10.125 -6.4 0 -10.6562 -5.86667 0 -9.0625 -6.4 0 
-9.59375 -5.86667 0 -8.53125 -5.86667 0 -23.9375 -5.33333 0 
-24.4688 -4.8 0 -22.875 -5.33333 0 -23.4062 -4.8 0 
-21.8125 -5.33333 0 -22.3438 -4.8 0 -20.75 -5.33333 0 
-21.2812 -4.8 0 -19.6875 -5.33333 0 -20.2188 -4.8 0 
-18.625 -5.33333 0 -19.1562 -4.8 0 -17.5625 -5.33333 0 
-18.0938 -4.8 0 -16.5 -5.33333 0 -17.0312 -4.8 0 
-15.4375 -5.33333 0 -15.9688 -4.8 0 -14.375 -5.33333 0 
-14.9062 -4.8 0 -13.3125 -5.33333 0 -13.8438 -4.8 0 
-12.25 -5.33333 0 -12.7812 -4.8 0 -11.1875 -5.33333 0 
-11.7188 -4.8 0 -10.125 -5.33333 0 -10.6562 -4.8 0 
-9.0625 -5.33333 0 -9.59375 -4.8 0 -8.53125 -4.8 0 
-23.9375 -4.26667 0 -24.4688 -3.73333 0 -22.875 -4.26667 0 
-23.4062 -3.73333 0 -21.8125 -4.26667 0 -22.3438 -3.73333 0 
-20.75 -4.26667 0 -21.2812 -3.73333 0 -19.6875 -4.26667 0 
-20.2188 -3.73333 0 -18.625 -4.26667 0 -19.1562 -3.73333 0 
-17.5625 -4.26667 0 -18.0938 -3.73333 0 -16.5 -4.26667 0 
-17.0312 -3.73333 0 -15.4375 -4.26667 0 -15.9688 -3.73333 0 
-14.375 -4.26667 0 -14.9062 -3.73333 0 -13.3125 -4.26667 0 
-13.8438 -3.73333 0 -12.25 -4.26667 0 -12.7812 -3.73333 0 
-11.1875 -4.26667 0 -11.7188 -3.73333 0 -10.125 -4.26667 0 
-10.6562 -3.73333 0 -9.0625 -4.26667 0 -9.59375 -3.73333 0 
-8.53125 -3.73333 0 -23.9375 -3.2 0 -24.4688 -2.66667 0 
-22.875 -3.2 0 -23.4062 -2.66667 0 -21.8125 -3.2 0 
-22.3438 -2.66667 0 -20.75 -3.2 0 -21.2812 -2.66667 0 
-19.6875 -3.2 0 -20.2188 -2.66667 0 -18.625 -3.2 0 
-19.1562 -2.66667 0 -17.5625 -3.2 0 -18.0938 -2.66667 0 
-16.5 -3.2 0 -17.0312 -2.66667 0 -15.4375 -3.2 0 
-15.9688 -2.66667 0 -14.375 -3.2 0 -14.9062 -2.66667 0 
-13.3125 -3.2 0 -13.8438 -2.66667 0 -12.25 -3.2 0 
-12.7812 -2.66667 0 -11.1875 -3.2 0 -11.7188 -2.66667 0 
-10.125 -3.2 0 -10.6562 -2.66667 0 -9.0625 -3.2 0 
-9.59375 -2.66667 0 -8.53125 -2.66667 0 -23.9375 -2.13333 0 
-24.4688 -1.6 0 -22.875 -2.13333 0 -23.4062 -1.6 0 
-21.8125 -2.13333 0 -22.3438 -1.6 0 -20.75 -2.13333 0 
-21.2812 -1.6 0 -19.6875 -2.13333 0 -20.2188 -1.6 0 
-18.625 -2.13333 0 -19.1562 -1.6 0 -17.5625 -2.13333 0 
-18.0938 -1.6 0 -16.5 -2.13333 0 -17.0312 -1.6 0 
-15.4375 -2.13333 0 -15.9688 -1.6 0 -14.375 -2.13333 0 
-14.9062 -1.6 0 -13.3125 -2.13333 0 -13.8438 -1.6 0 
-12.25 -2.13333 0 -12.7812 -1.6 0 -11.1875 -2.13333 0 
-11.7188 -1.6 0 -10.125 -2.13333 0 -10.6562 -1.6 0 
-9.0625 -2.13333 0 -9.59375 -1.6 0 -8.53125 -1.6 0 
-23.9375 -1.06667 0 -24.4688 -0.533333 0 -22.875 -1.06667 0 
-23.4062 -0.533333 0 -21.8125 -1.06667 0 -22.3438 -0.533333 0 
-20.75 -1.06667 0 -21.2812 -0.533333 0 -19.6875 -1.06667 0 
-20.2188 -0.533333 0 -18.625 -1.06667 0 -19.1562 -0.533333 0 
-17.5625 -1.06667 0 -18.0938 -0.533333 0 -16.5 -1.06667 0 
-17.0312 -0.533333 0 -15.4375 -1.06667 0 -15.9688 -0.533333 0 
-14.375 -1.06667 0 -14.9062 -0.533333 0 -13.3125 -1.06667 0 
-13.8438 -0.533333 0 -12.25 -1.06667 0 -12.7812 -0.533333 0 
-11.1875 -1.06667 0 -11.7188 -0.533333 0 -10.125 -1.06667 0 
-10.6562 -0.533333 0 -9.0625 -1.06667 0 -9.59375 -0.533333 0 
-8.53125 -0.533333 0 -23.9375 -2.06979e-11 0 -24.4688 0.533333 0 
-22.875 -2.06978e-11 0 -23.4062 0.533333 0 -21.8125 -2.06976e-11 0 
-22.3438 0.533333 0 -20.75 -2.06976e-11 0 -21.2812 0.533333 0 
-19.6875 -2.06976e-11 0 -20.2188 0.533333 0 -18.625 -2.06977e-11 0 
-19.1562 0.533333 0 -17.5625 -2.06977e-11 0 -18.0938 0.533333 0 
-16.5 -2.06978e-11 0 -17.0312 0.533333 0 -15.4375 -2.06974e-11 0 
-15.9688 0.533333 0 -14.375 -2.06979e-11 0 -14.9062 0.533333 0 
-13.3125 -2.06976e-11 0 -13.8438 0.533333 0 -12.25 -2.06979e-11 0 
-12.7812 0.533333 0 -11.1875 -2.06977e-11 0 -11.7188 0.533333 0 
-10.125 -2.06977e-11 0 -10.6562 0.533333 0 -9.0625 -2.06977e-11 0 
-9.59375 0.533333 0 -8.53125 0.533333 0 -23.9375 1.06667 0 
-24.4688 1.6 0 -22.875 1.06667 0 -23.4062 1.6 0 
-21.8125 1.06667 0 -22.3438 1.6 0 -20.75 1.06667 0 
-21.2812 1.6 0 -19.6875 1.06667 0 -20.2188 1.6 0 
-18.625 1.06667 0 -19.1562 1.6 0 -17.5625 1.06667 0 
-18.0938 1.6 0 -16.5 1.06667 0 -17.0312 1.6 0 
-15.4375 1.06667 0 -15.9688 1.6 0 -14.375 1.06667 0 
-14.9062 1.6 0 -13.3125 1.06667 0 -13.8438 1.6 0 
-12.25 1.06667 0 -12.7812 1.6 0 -11.1875 1.06667 0 
-11.7188 1.6 0 -10.125 1.06667 0 -10.6562 1.6 0 
-9.0625 1.06667 0 -9.59375 1.6 0 -8.53125 1.6 0 
-23.9375 2.13333 0 -24.4688 2.66667 0 -22.875 2.13333 0 
-23.4062 2.66667 0 -21.8125 2.13333 0 -22.3438 2.66667 0 
-20.75 2.13333 0 -21.2812 2.66667 0 -19.6875 2.13333 0 
-20.2188 2.66667 0 -18.625 2.13333 0 -19.1562 2.66667 0 
-17.5625 2.13333 0 -18.0938 2.66667 0 -16.5 2.13333 0 
-17.0312 2.66667 0 -15.4375 2.13333 0 -15.9688 2.66667 0 
-14.375 2.13333 0 -14.9062 2.66667 0 -13.3125 2.13333 0 
-13.8438 2.66667 0 -12.25 2.13333 0 -12.7812 2.66667 0 
-11.1875 2.13333 0 -11.7188 2.66667 0 -10.125 2.13333 0 
-10.6562 2.66667 0 -9.0625 2.13333 0 -9.59375 2.66667 0 
-8.53125 2.66667 0 -23.9375 3.2 0 -24.4688 3.73333 0 
-22.875 3.2 0 -23.4062 3.73333 0 -21.8125 3.2 0 
-22.3438 3.73333 0 -20.75 3.2 0 -21.2812 3.73333 0 
-19.6875 3.2 0 -20.2188 3.73333 0 -18.625 3.2 0 
-19.1562 3.73333 0 -17.5625 3.2 0 -18.0938 3.73333 0 
-16.5 3.2 0 -17.0312 3.73333 0 -15.4375 3.2 0 
-15.9688 3.73333 0 -14.375 3.2 0 -14.9062 3.73333 0 
-13.3125 3.2 0 -13.8438 3.73333 0 -12.25 3.2 0 
-12.7812 3.73333 0 -11.1875 3.2 0 -11.7188 3.73333 0 
-10.125 3.2 0 -10.6562 3.73333 0 -9.0625 3.2 0 
-9.59375 3.73333 0 -8.53125 3.73333 0 -23.9375 4.26667 0 
-24.4688 4.8 0 -22.875 4.26667 0 -23.4062 4.8 0 
-21.8125 4.26667 0 -22.3438 4.8 0 -20.75 4.26667 0 
-21.2812 4.8 0 -19.6875 4.26667 0 -20.2188 4.8 0 
-18.625 4.26667 0 -19.1562 4.8 0 -17.5625 4.26667 0 
-18.0938 4.8 0 -16.5 4.26667 0 -17.0312 4.8 0 
-15.4375 4.26667 0 -15.9688 4.8 0 -14.375 4.26667 0 
-14.9062 4.8 0 -13.3125 4.26667 0 -13.8438 4.8 0 
-12.25 4.26667 0 -12.7812 4.8 0 -11.1875 4.26667 0 
-11.7188 4.8 0 -10.125 4.26667 0 -10.6562 4.8 0 
-9.0625 4.26667 0 -9.59375 4.8 0 -8.53125 4.8 0 
-23.9375 5.33333 0 -24.4688 5.86667 0 -22.875 5.33333 0 
-23.4062 5.86667 0 -21.8125 5.33333 0 -22.3438 5.86667 0 
-20.75 5.33333 0 -21.2812 5.86667 0 -19.6875 5.33333 0 
-20.2188 5.86667 0 -18.625 5.33333 0 -19.1562 5.86667 0 
-17.5625 5.33333 0 -18.0938 5.86667 0 -16.5 5.33333 0 
-17.0312 5.86667 0 -15.4375 5.33333 0 -15.9688 5.86667 0 
-14.375 5.33333 0 -14.9062 5.86667 0 -13.3125 5.33333 0 
-13.8438 5.86667 0 -12.25 5.33333 0 -12.7812 5.86667 0 
-11.1875 5.33333 0 -11.7188 5.86667 0 -10.125 5.33333 0 
-10.6562 5.86667 0 -9.0625 5.33333 0 -9.59375 5.86667 0 
-8.53125 5.86667 0 -23.9375 6.4 0 -24.4688 6.93333 0 
-22.875 6.4 0 -23.4062 6.93333 0 -21.8125 6.4 0 
-22.3438 6.93333 0 -20.75 6.4 0 -21.2812 6.93333 0 
-19.6875 6.4 0 -20.2188 6.93333 0 -18.625 6.4 0 
-19.1562 6.93333 0 -17.5625 6.4 0 -18.0938 6.93333 0 
-16.5 6.4 0 -17.0312 6.93333 0 -15.4375 6.4 0 
-15.9688 6.93333 0 -14.375 6.4 0 -14.9062 6.93333 0 
-13.3125 6.4 0 -13.8438 6.93333 0 -12.25 6.4 0 
-12.7812 6.93333 0 -11.1875 6.4 0 -11.7188 6.93333 0 
-10.125 6.4 0 -10.6562 6.93333 0 -9.0625 6.4 0 
-9.59375 6.93333 0 -8.53125 6.93333 0 -23.9375 7.46667 0 
-22.875 7.46667 0 -21.8125 7.46667 0 -20.75 7.46667 0 
-19.6875 7.46667 0 -18.625 7.46667 0 -17.5625 7.46667 0 
-16.5 7.46667 0 -15.4375 7.46667 0 -14.375 7.46667 0 
-13.3125 7.46667 0 -12.25 7.46667 0 -11.1875 7.46667 0 
-10.125 7.46667 0 -9.0625 7.46667 0 -23.9375 9.01724 0 
-22.875 9.01724 0 -21.8125 9.01724 0 -20.75 9.01724 0 
-19.6875 9.01724 0 -18.625 9.01724 0 -17.5625 9.01724 0 
-16.5 9.01724 0 -15.4375 9.01724 0 -14.375 9.01724 0 
-13.3125 9.01724 0 -12.25 9.01724 0 -11.1875 9.01724 0 
-10.125 9.01724 0 -9.0625 9.01724 0 -23.9375 10.0345 0 
-22.875 10.0345 0 -21.8125 10.0345 0 -20.75 10.0345 0 
-19.6875 10.0345 0 -18.625 10.0345 0 -17.5625 10.0345 0 
-16.5 10.0345 0 -15.4375 10.0345 0 -14.375 10.0345 0 
-13.3125 10.0345 0 -12.25 10.0345 0 -11.1875 10.0345 0 
-10.125 10.0345 0 -9.0625 10.0345 0 -23.9375 11.0517 0 
-22.875 11.0517 0 -21.8125 11.0517 0 -20.75 11.0517 0 
-19.6875 11.0517 0 -18.625 11.0517 0 -17.5625 11.0517 0 
-16.5 11.0517 0 -15.4375 11.0517 0 -14.375 11.0517 0 
-13.3125 11.0517 0 -12.25 11.0517 0 -11.1875 11.0517 0 
-10.125 11.0517 0 -9.0625 11.0517 0 -23.9375 12.069 0 
-22.875 12.069 0 -21.8125 12.069 0 -20.75 12.069 0 
-19.6875 12.069 0 -18.625 12.069 0 -17.5625 12.069 0 
-16.5 12.069 0 -15.4375 12.069 0 -14.375 12.069 0 
-13.3125 12.069 0 -12.25 12.069 0 -11.1875 12.069 0 
-10.125 12.069 0 -9.0625 12.069 0 -23.9375 13.0862 0 
-22.875 13.0862 0 -21.8125 13.0862 0 -20.75 13.0862 0 
-19.6875 13.0862 0 -18.625 13.0862 0 -17.5625 13.0862 0 
-16.5 13.0862 0 -15.4375 13.0862 0 -14.375 13.0862 0 
-13.3125 13.0862 0 -12.25 13.0862 0 -11.1875 13.0862 0 
-10.125 13.0862 0 -9.0625 13.0862 0 -23.9375 14.1034 0 
-22.875 14.1034 0 -21.8125 14.1034 0 -20.75 14.1034 0 
-19.6875 14.1034 0 -18.625 14.1034 0 -17.5625 14.1034 0 
-16.5 14.1034 0 -15.4375 14.1034 0 -14.375 14.1034 0 
-13.3125 14.1034 0 -12.25 14.1034 0 -11.1875 14.1034 0 
-10.125 14.1034 0 -9.0625 14.1034 0 -23.9375 15.1207 0 
-22.875 15.1207 0 -21.8125 15.1207 0 -20.75 15.1207 0 
-19.6875 15.1207 0 -18.625 15.1207 0 -17.5625 15.1207 0 
-16.5 15.1207 0 -15.4375 15.1207 0 -14.375 15.1207 0 
-13.3125 15.1207 0 -12.25 15.1207 0 -11.1875 15.1207 0 
-10.125 15.1207 0 -9.0625 15.1207 0 -23.9375 16.1379 0 
-22.875 16.1379 0 -21.8125 16.1379 0 -20.75 16.1379 0 
-19.6875 16.1379 0 -18.625 16.1379 0 -17.5625 16.1379 0 
-16.5 16.1379 0 -15.4375 16.1379 0 -14.375 16.1379 0 
-13.3125 16.1379 0 -12.25 16.1379 0 -11.1875 16.1379 0 
-10.125 16.1379 0 -9.0625 16.1379 0 -23.9375 17.1552 0 
-22.875 17.1552 0 -21.8125 17.1552 0 -20.75 17.1552 0 
-19.6875 17.1552 0 -18.625 17.1552 0 -17.5625 17.1552 0 
-16.5 17.1552 0 -15.4375 17.1552 0 -14.375 17.1552 0 
-13.3125 17.1552 0 -12.25 17.1552 0 -11.1875 17.1552 0 
-10.125 17.1552 0 -9.0625 17.1552 0 -23.9375 18.1724 0 
-22.875 18.1724 0 -21.8125 18.1724 0 -20.75 18.1724 0 
-19.6875 18.1724 0 -18.625 18.1724 0 -17.5625 18.1724 0 
-16.5 18.1724 0 -15.4375 18.1724 0 -14.375 18.1724 0 
-13.3125 18.1724 0 -12.25 18.1724 0 -11.1875 18.1724 0 
-10.125 18.1724 0 -9.0625 18.1724 0 -23.9375 19.1897 0 
-22.875 19.1897 0 -21.8125 19.1897 0 -20.75 19.1897 0 
-19.6875 19.1897 0 -18.625 19.1897 0 -17.5625 19.1897 0 
-16.5 19.1897 0 -15.4375 19.1897 0 -14.375 19.1897 0 
-13.3125 19.1897 0 -12.25 19.1897 0 -11.1875 19.1897 0 
-10.125 19.1897 0 -9.0625 19.1897 0 -23.9375 20.2069 0 
-22.875 20.2069 0 -21.8125 20.2069 0 -20.75 20.2069 0 
-19.6875 20.2069 0 -18.625 20.2069 0 -17.5625 20.2069 0 
-16.5 20.2069 0 -15.4375 20.2069 0 -14.375 20.2069 0 
-13.3125 20.2069 0 -12.25 20.2069 0 -11.1875 20.2069 0 
-10.125 20.2069 0 -9.0625 20.2069 0 -23.9375 21.2241 0 
-22.875 21.2241 0 -21.8125 21.2241 0 -20.75 21.2241 0 
-19.6875 21.2241 0 -18.625 21.2241 0 -17.5625 21.2241 0 
-16.5 21.2241 0 -15.4375 21.2241 0 -14.375 21.2241 0 
-13.3125 21.2241 0 -12.25 21.2241 0 -11.1875 21.2241 0 
-10.125 21.2241 0 -9.0625 21.2241 0 -23.9375 22.2414 0 
-22.875 22.2414 0 -21.8125 22.2414 0 -20.75 22.2414 0 
-19.6875 22.2414 0 -18.625 22.2414 0 -17.5625 22.2414 0 
-16.5 22.2414 0 -15.4375 22.2414 0 -14.375 22.2414 0 
-13.3125 22.2414 0 -12.25 22.2414 0 -11.1875 22.2414 0 
-10.125 22.2414 0 -9.0625 22.2414 0 -23.9375 23.2586 0 
-22.875 23.2586 0 -21.8125 23.2586 0 -20.75 23.2586 0 
-19.6875 23.2586 0 -18.625 23.2586 0 -17.5625 23.2586 0 
-16.5 23.2586 0 -15.4375 23.2586 0 -14.375 23.2586 0 
-13.3125 23.2586 0 -12.25 23.2586 0 -11.1875 23.2586 0 
-10.125 23.2586 0 -9.0625 23.2586 0 -23.9375 24.2759 0 
-22.875 24.2759 0 -21.8125 24.2759 0 -20.75 24.2759 0 
-19.6875 24.2759 0 -18.625 24.2759 0 -17.5625 24.2759 0 
-16.5 24.2759 0 -15.4375 24.2759 0 -14.375 24.2759 0 
-13.3125 24.2759 0 -12.25 24.2759 0 -11.1875 24.2759 0 
-10.125 24.2759 0 -9.0625 24.2759 0 -23.9375 25.2931 0 
-22.875 25.2931 0 -21.8125 25.2931 0 -20.75 25.2931 0 
-19.6875 25.2931 0 -18.625 25.2931 0 -17.5625 25.2931 0 
-16.5 25.2931 0 -15.4375 25.2931 0 -14.375 25.2931 0 
-13.3125 25.2931 0 -12.25 25.2931 0 -11.1875 25.2931 0 
-10.125 25.2931 0 -9.0625 25.2931 0 -23.9375 26.3103 0 
-22.875 26.3103 0 -21.8125 26.3103 0 -20.75 26.3103 0 
-19.6875 26.3103 0 -18.625 26.3103 0 -17.5625 26.3103 0 
-16.5 26.3103 0 -15.4375 26.3103 0 -14.375 26.3103 0 
-13.3125 26.3103 0 -12.25 26.3103 0 -11.1875 26.3103 0 
-10.125 26.3103 0 -9.0625 26.3103 0 -23.9375 27.3276 0 
-22.875 27.3276 0 -21.8125 27.3276 0 -20.75 27.3276 0 
-19.6875 27.3276 0 -18.625 27.3276 0 -17.5625 27.3276 0 
-16.5 27.3276 0 -15.4375 27.3276 0 -14.375 27.3276 0 
-13.3125 27.3276 0 -12.25 27.3276 0 -11.1875 27.3276 0 
-10.125 27.3276 0 -9.0625 27.3276 0 -23.9375 28.3448 0 
-22.875 28.3448 0 -21.8125 28.3448 0 -20.75 28.3448 0 
-19.6875 28.3448 0 -18.625 28.3448 0 -17.5625 28.3448 0 
-16.5 28.3448 0 -15.4375 28.3448 0 -14.375 28.3448 0 
-13.3125 28.3448 0 -12.25 28.3448 0 -11.1875 28.3448 0 
-10.125 28.3448 0 -9.0625 28.3448 0 -23.9375 29.3621 0 
-22.875 29.3621 0 -21.8125 29.3621 0 -20.75 29.3621 0 
-19.6875 29.3621 0 -18.625 29.3621 0 -17.5625 29.3621 0 
-16.5 29.3621 0 -15.4375 29.3621 0 -14.375 29.3621 0 
-13.3125 29.3621 0 -12.25 29.3621 0 -11.1875 29.3621 0 
-10.125 29.3621 0 -9.0625 29.3621 0 -23.9375 30.3793 0 
-22.875 30.3793 0 -21.8125 30.3793 0 -20.75 30.3793 0 
-19.6875 30.3793 0 -18.625 30.3793 0 -17.5625 30.3793 0 
-16.5 30.3793 0 -15.4375 30.3793 0 -14.375 30.3793 0 
-13.3125 30.3793 0 -12.25 30.3793 0 -11.1875 30.3793 0 
-10.125 30.3793 0 -9.0625 30.3793 0 -23.9375 31.3966 0 
-22.875 31.3966 0 -21.8125 31.3966 0 -20.75 31.3966 0 
-19.6875 31.3966 0 -18.625 31.3966 0 -17.5625 31.3966 0 
-16.5 31.3966 0 -15.4375 31.3966 0 -14.375 31.3966 0 
-13.3125 31.3966 0 -12.25 31.3966 0 -11.1875 31.3966 0 
-10.125 31.3966 0 -9.0625 31.3966 0 -23.9375 32.4138 0 
-22.875 32.4138 0 -21.8125 32.4138 0 -20.75 32.4138 0 
-19.6875 32.4138 0 -18.625 32.4138 0 -17.5625 32.4138 0 
-16.5 32.4138 0 -15.4375 32.4138 0 -14.375 32.4138 0 
-13.3125 32.4138 0 -12.25 32.4138 0 -11.1875 32.4138 0 
-10.125 32.4138 0 -9.0625 32.4138 0 -23.9375 33.431 0 
-22.875 33.431 0 -21.8125 33.431 0 -20.75 33.431 0 
-19.6875 33.431 0 -18.625 33.431 0 -17.5625 33.431 0 
-16.5 33.431 0 -15.4375 33.431 0 -14.375 33.431 0 
-13.3125 33.431 0 -12.25 33.431 0 -11.1875 33.431 0 
-10.125 33.431 0 -9.0625 33.431 0 -23.9375 34.4483 0 
-22.875 34.4483 0 -21.8125 34.4483 0 -20.75 34.4483 0 
-19.6875 34.4483 0 -18.625 34.4483 0 -17.5625 34.4483 0 
-16.5 34.4483 0 -15.4375 34.4483 0 -14.375 34.4483 0 
-13.3125 34.4483 0 -12.25 34.4483 0 -11.1875 34.4483 0 
-10.125 34.4483 0 -9.0625 34.4483 0 -23.9375 35.4655 0 
-22.875 35.4655 0 -21.8125 35.4655 0 -20.75 35.4655 0 
-19.6875 35.4655 0 -18.625 35.4655 0 -17.5625 35.4655 0 
-16.5 35.4655 0 -15.4375 35.4655 0 -14.375 35.4655 0 
-13.3125 35.4655 0 -12.25 35.4655 0 -11.1875 35.4655 0 
-10.125 35.4655 0 -9.0625 35.4655 0 -23.9375 36.4828 0 
-22.875 36.4828 0 -21.8125 36.4828 0 -20.75 36.4828 0 
-19.6875 36.4828 0 -18.625 36.4828 0 -17.5625 36.4828 0 
-16.5 36.4828 0 -15.4375 36.4828 0 -14.375 36.4828 0 
-13.3125 36.4828 0 -12.25 36.4828 0 -11.1875 36.4828 0 
-10.125 36.4828 0 -9.0625 36.4828 0 -23.9375 8.50862 0 
-24.4688 9.01724 0 -22.875 8.50862 0 -23.4062 9.01724 0 
-21.8125 8.50862 0 -22.3438 9.01724 0 -20.75 8.50862 0 
-21.2812 9.01724 0 -19.6875 8.50862 0 -20.2188 9.01724 0 
-18.625 8.50862 0 -19.1562 9.01724 0 -17.5625 8.50862 0 
-18.0938 9.01724 0 -16.5 8.50862 0 -17.0312 9.01724 0 
-15.4375 8.50862 0 -15.9688 9.01724 0 -14.375 8.50862 0 
-14.9062 9.01724 0 -13.3125 8.50862 0 -13.8438 9.01724 0 
-12.25 8.50862 0 -12.7812 9.01724 0 -11.1875 8.50862 0 
-11.7188 9.01724 0 -10.125 8.50862 0 -10.6562 9.01724 0 
-9.0625 8.50862 0 -9.59375 9.01724 0 -8.53125 9.01724 0 
-23.9375 9.52586 0 -24.4688 10.0345 0 -22.875 9.52586 0 
-23.4062 10.0345 0 -21.8125 9.52586 0 -22.3438 10.0345 0 
-20.75 9.52586 0 -21.2812 10.0345 0 -19.6875 9.52586 0 
-20.2188 10.0345 0 -18.625 9.52586 0 -19.1562 10.0345 0 
-17.5625 9.52586 0 -18.0938 10.0345 0 -16.5 9.52586 0 
-17.0312 10.0345 0 -15.4375 9.52586 0 -15.9688 10.0345 0 
-14.375 9.52586 0 -14.9062 10.0345 0 -13.3125 9.52586 0 
-13.8438 10.0345 0 -12.25 9.52586 0 -12.7812 10.0345 0 
-11.1875 9.52586 0 -11.7188 10.0345 0 -10.125 9.52586 0 
-10.6562 10.0345 0 -9.0625 9.52586 0 -9.59375 10.0345 0 
-8.53125 10.0345 0 -23.9375 10.5431 0 -24.4688 11.0517 0 
-22.875 10.5431 0 -23.4062 11.0517 0 -21.8125 10.5431 0 
-22.3438 11.0517 0 -20.75 10.5431 0 -21.2812 11.0517 0 
-19.6875 10.5431 0 -20.2188 11.0517 0 -18.625 10.5431 0 
-19.1562 11.0517 0 -17.5625 10.5431 0 -18.0938 11.0517 0 
-16.5 10.5431 0 -17.0312 11.0517 0 -15.4375 10.5431 0 
-15.9688 11.0517 0 -14.375 10.5431 0 -14.9062 11.0517 0 
-13.3125 10.5431 0 -13.8438 11.0517 0 -12.25 10.5431 0 
-12.7812 11.0517 0 -11.1875 10.5431 0 -11.7188 11.0517 0 
-10.125 10.5431 0 -10.6562 11.0517 0 -9.0625 10.5431 0 
-9.59375 11.0517 0 -8.53125 11.0517 0 -23.9375 11.5603 0 
-24.4688 12.069 0 -22.875 11.5603 0 -23.4062 12.069 0 
-21.8125 11.5603 0 -22.3438 12.069 0 -20.75 11.5603 0 
-21.2812 12.069 0 -19.6875 11.5603 0 -20.2188 12.069 0 
-18.625 11.5603 0 -19.1562 12.069 0 -17.5625 11.5603 0 
-18.0938 12.069 0 -16.5 11.5603 0 -17.0312 12.069 0 
-15.4375 11.5603 0 -15.9688 12.069 0 -14.375 11.5603 0 
-14.9062 12.069 0 -13.3125 11.5603 0 -13.8438 12.069 0 
-12.25 11.5603 0 -12.7812 12.069 0 -11.1875 11.5603 0 
-11.7188 12.069 0 -10.125 11.5603 0 -10.6562 12.069 0 
-9.0625 11.5603 0 -9.59375 12.069 0 -8.53125 12.069 0 
-23.9375 12.5776 0 -24.4688 13.0862 0 -22.875 12.5776 0 
-23.4062 13.0862 0 -21.8125 12.5776 0 -22.3438 13.0862 0 
-20.75 12.5776 0 -21.2812 13.0862 0 -19.6875 12.5776 0 
-20.2188 13.0862 0 -18.625 12.5776 0 -19.1562 13.0862 0 
-17.5625 12.5776 0 -18.0938 13.0862 0 -16.5 12.5776 0 
-17.0312 13.0862 0 -15.4375 12.5776 0 -15.9688 13.0862 0 
-14.375 12.5776 0 -14.9062 13.0862 0 -13.3125 12.5776 0 
-13.8438 13.0862 0 -12.25 12.5776 0 -12.7812 13.0862 0 
-11.1875 12.5776 0 -11.7188 13.0862 0 -10.125 12.5776 0 
-10.6562 13.0862 0 -9.0625 12.5776 0 -9.59375 13.0862 0 
-8.53125 13.0862 0 -23.9375 13.5948 0 -24.4688 14.1034 0 
-22.875 13.5948 0 -23.4062 14.1034 0 -21.8125 13.5948 0 
-22.3438 14.1034 0 -20.75 13.5948 0 -21.2812 14.1034 0 
-19.6875 13.5948 0 -20.2188 14.1034 0 -18.625 13.5948 0 
-19.1562 14.1034 0 -17.5625 13.5948 0 -18.0938 14.1034 0 
-16.5 13.5948 0 -17.0312 14.1034 0 -15.4375 13.5948 0 
-15.9688 14.1034 0 -14.375 13.5948 0 -14.9062 14.1034 0 
-13.3125 13.5948 0 -13.8438 14.1034 0 -12.25 13.5948 0 
-12.7812 14.1034 0 -11.1875 13.5948 0 -11.7188 14.1034 0 
-10.125 13.5948 0 -10.6562 14.1034 0 -9.0625 13.5948 0 
-9.59375 14.1034 0 -8.53125 14.1034 0 -23.9375 14.6121 0 
-24.4688 15.1207 0 -22.875 14.6121 0 -23.4062 15.1207 0 
-21.8125 14.6121 0 -22.3438 15.1207 0 -20.75 14.6121 0 
-21.2812 15.1207 0 -19.6875 14.6121 0 -20.2188 15.1207 0 
-18.625 14.6121 0 -19.1562 15.1207 0 -17.5625 14.6121 0 
-18.0938 15.1207 0 -16.5 14.6121 0 -17.0312 15.1207 0 
-15.4375 14.6121 0 -15.9688 15.1207 0 -14.375 14.6121 0 
-14.9062 15.1207 0 -13.3125 14.6121 0 -13.8438 15.1207 0 
-12.25 14.6121 0 -12.7812 15.1207 0 -11.1875 14.6121 0 
-11.7188 15.1207 0 -10.125 14.6121 0 -10.6562 15.1207 0 
-9.0625 14.6121 0 -9.59375 15.1207 0 -8.53125 15.1207 0 
-23.9375 15.6293 0 -24.4688 16.1379 0 -22.875 15.6293 0 
-23.4062 16.1379 0 -21.8125 15.6293 0 -22.3438 16.1379 0 
-20.75 15.6293 0 -21.2812 16.1379 0 -19.6875 15.6293 0 
-20.2188 16.1379 0 -18.625 15.6293 0 -19.1562 16.1379 0 
-17.5625 15.6293 0 -18.0938 16.1379 0 -16.5 15.6293 0 
-17.0312 16.1379 0 -15.4375 15.6293 0 -15.9688 16.1379 0 
-14.375 15.6293 0 -14.9062 16.1379 0 -13.3125 15.6293 0 
-13.8438 16.1379 0 -12.25 15.6293 0 -12.7812 16.1379 0 
-11.1875 15.6293 0 -11.7188 16.1379 0 -10.125 15.6293 0 
-10.6562 16.1379 0 -9.0625 15.6293 0 -9.59375 16.1379 0 
-8.53125 16.1379 0 -23.9375 16.6466 0 -24.4688 17.1552 0 
-22.875 16.6466 0 -23.4062 17.1552 0 -21.8125 16.6466 0 
-22.3438 17.1552 0 -20.75 16.6466 0 -21.2812 17.1552 0 
-19.6875 16.6466 0 -20.2188 17.1552 0 -18.625 16.6466 0 
-19.1562 17.1552 0 -17.5625 16.6466 0 -18.0938 17.1552 0 
-16.5 16.6466 0 -17.0312 17.1552 0 -15.4375 16.6466 0 
-15.9688 17.1552 0 -14.375 16.6466 0 -14.9062 17.1552 0 
-13.3125 16.6466 0 -13.8438 17.1552 0 -12.25 16.6466 0 
-12.7812 17.1552 0 -11.1875 16.6466 0 -11.7188 17.1552 0 
-10.125 16.6466 0 -10.6562 17.1552 0 -9.0625 16.6466 0 
-9.59375 17.1552 0 -8.53125 17.1552 0 -23.9375 17.6638 0 
-24.4688 18.1724 0 -22.875 17.6638 0 -23.4062 18.1724 0 
-21.8125 17.6638 0 -22.3438 18.1724 0 -20.75 17.6638 0 
-21.2812 18.1724 0 -19.6875 17.6638 0 -20.2188 18.1724 0 
-18.625 17.6638 0 -19.1562 18.1724 0 -17.5625 17.6638 0 
-18.0938 18.1724 0 -16.5 17.6638 0 -17.0312 18.1724 0 
-15.4375 17.6638 0 -15.9688 18.1724 0 -14.375 17.6638 0 
-14.9062 18.1724 0 -13.3125 17.6638 0 -13.8438 18.1724 0 
-12.25 17.6638 0 -12.7812 18.1724 0 -11.1875 17.6638 0 
-11.7188 18.1724 0 -10.125 17.6638 0 -10.6562 18.1724 0 
-9.0625 17.6638 0 -9.59375 18.1724 0 -8.53125 18.1724 0 
-23.9375 18.681 0 -24.4688 19.1897 0 -22.875 18.681 0 
-23.4062 19.1897 0 -21.8125 18.681 0 -22.3438 19.1897 0 
-20.75 18.681 0 -21.2812 19.1897 0 -19.6875 18.681 0 
-20.2188 19.1897 0 -18.625 18.681 0 -19.1562 19.1897 0 
-17.5625 18.681 0 -18.0938 19.1897 0 -16.5 18.681 0 
-17.0312 19.1897 0 -15.4375 18.681 0 -15.9688 19.1897 0 
-14.375 18.681 0 -14.9062 19.1897 0 -13.3125 18.681 0 
-13.8438 19.1897 0 -12.25 18.681 0 -12.7812 19.1897 0 
-11.1875 18.681 0 -11.7188 19.1897 0 -10.125 18.681 0 
-10.6562 19.1897 0 -9.0625 18.681 0 -9.59375 19.1897 0 
-8.53125 19.1897 0 -23.9375 19.6983 0 -24.4688 20.2069 0 
-22.875 19.6983 0 -23.4062 20.2069 0 -21.8125 19.6983 0 
-22.3438 20.2069 0 -20.75 19.6983 0 -21.2812 20.2069 0 
-19.6875 19.6983 0 -20.2188 20.2069 0 -18.625 19.6983 0 
-19.1562 20.2069 0 -17.5625 19.6983 0 -18.0938 20.2069 0 
-16.5 19.6983 0 -17.0312 20.2069 0 -15.4375 19.6983 0 
-15.9688 20.2069 0 -14.375 19.6983 0 -14.9062 20.2069 0 
-13.3125 19.6983 0 -13.8438 20.2069 0 -12.25 19.6983 0 
-12.7812 20.2069 0 -11.1875 19.6983 0 -11.7188 20.2069 0 
-10.125 19.6983 0 -10.6562 20.2069 0 -9.0625 19.6983 0 
-9.59375 20.2069 0 -8.53125 20.2069 0 -23.9375 20.7155 0 
-24.4688 21.2241 0 -22.875 20.7155 0 -23.4062 21.2241 0 
-21.8125 20.7155 0 -22.3438 21.2241 0 -20.75 20.7155 0 
-21.2812 21.2241 0 -19.6875 20.7155 0 -20.2188 21.2241 0 
-18.625 20.7155 0 -19.1562 21.2241 0 -17.5625 20.7155 0 
-18.0938 21.2241 0 -16.5 20.7155 0 -17.0312 21.2241 0 
-15.4375 20.7155 0 -15.9688 21.2241 0 -14.375 20.7155 0 
-14.9062 21.2241 0 -13.3125 20.7155 0 -13.8438 21.2241 0 
-12.25 20.7155 0 -12.7812 21.2241 0 -11.1875 20.7155 0 
-11.7188 21.2241 0 -10.125 20.7155 0 -10.6562 21.2241 0 
-9.0625 20.7155 0 -9.59375 21.2241 0 -8.53125 21.2241 0 
-23.9375 21.7328 0 -24.4688 22.2414 0 -22.875 21.7328 0 
-23.4062 22.2414 0 -21.8125 21.7328 0 -22.3438 22.2414 0 
-20.75 21.7328 0 -21.2812 22.2414 0 -19.6875 21.7328 0 
-20.2188 22.2414 0 -18.625 21.7328 0 -19.1562 22.2414 0 
-17.5625 21.7328 0 -18.0938 22.2414 0 -16.5 21.7328 0 
-17.0312 22.2414 0 -15.4375 21.7328 0 -15.9688 22.2414 0 
-14.375 21.7328 0 -14.9062 22.2414 0 -13.3125 21.7328 0 
-13.8438 22.2414 0 -12.25 21.7328 0 -12.7812 22.2414 0 
-11.1875 21.7328 0 -11.7188 22.2414 0 -10.125 21.7328 0 
-10.6562 22.2414 0 -9.0625 21.7328 0 -9.59375 22.2414 0 
-8.53125 22.2414 0 -23.9375 22.75 0 -24.4688 23.2586 0 
-22.875 22.75 0 -23.4062 23.2586 0 -21.8125 22.75 0 
-22.3438 23.2586 0 -20.75 22.75 0 -21.2812 23.2586 0 
-19.6875 22.75 0 -20.2188 23.2586 0 -18.625 22.75 0 
-19.1562 23.2586 0 -17.5625 22.75 0 -18.0938 23.2586 0 
-16.5 22.75 0 -17.0312 23.2586 0 -15.4375 22.75 0 
-15.9688 23.2586 0 -14.375 22.75 0 -14.9062 23.2586 0 
-13.3125 22.75 0 -13.8438 23.2586 0 -12.25 22.75 0 
-12.7812 23.2586 0 -11.1875 22.75 0 -11.7188 23.2586 0 
-10.125 22.75 0 -10.6562 23.2586 0 -9.0625 22.75 0 
-9.59375 23.2586 0 -8.53125 23.2586 0 -23.9375 23.7672 0 
-24.4688 24.2759 0 -22.875 23.7672 0 -23.4062 24.2759 0 
-21.8125 23.7672 0 -22.3438 24.2759 0 -20.75 23.7672 0 
-21.2812 24.2759 0 -19.6875 23.7672 0 -20.2188 24.2759 0 
-18.625 23.7672 0 -19.1562 24.2759 0 -17.5625 23.7672 0 
-18.0938 24.2759 0 -16.5 23.7672 0 -17.0312 24.2759 0 
-15.4375 23.7672 0 -15.9688 24.2759 0 -14.375 23.7672 0 
-14.9062 24.2759 0 -13.3125 23.7672 0 -13.8438 24.2759 0 
-12.25 23.7672 0 -12.7812 24.2759 0 -11.1875 23.7672 0 
-11.7188 24.2759 0 -10.125 23.7672 0 -10.6562 24.2759 0 
-9.0625 23.7672 0 -9.59375 24.2759 0 -8.53125 24.2759 0 
-23.9375 24.7845 0 -24.4688 25.2931 0 -22.875 24.7845 0 
-23.4062 25.2931 0 -21.8125 24.7845 0 -22.3438 25.2931 0 
-20.75 24.7845 0 -21.2812 25.2931 0 -19.6875 24.7845 0 
-20.2188 25.2931 0 -18.625 24.7845 0 -19.1562 25.2931 0 
-17.5625 24.7845 0 -18.0938 25.2931 0 -16.5 24.7845 0 
-17.0312 25.2931 0 -15.4375 24.7845 0 -15.9688 25.2931 0 
-14.375 24.7845 0 -14.9062 25.2931 0 -13.3125 24.7845 0 
-13.8438 25.2931 0 -12.25 24.7845 0 -12.7812 25.2931 0 
-11.1875 24.7845 0 -11.7188 25.2931 0 -10.125 24.7845 0 
-10.6562 25.2931 0 -9.0625 24.7845 0 -9.59375 25.2931 0 
-8.53125 25.2931 0 -23.9375 25.8017 0 -24.4688 26.3103 0 
-22.875 25.8017 0 -23.4062 26.3103 0 -21.8125 25.8017 0 
-22.3438 26.3103 0 -20.75 25.8017 0 -21.2812 26.3103 0 
-19.6875 25.8017 0 -20.2188 26.3103 0 -18.625 25.8017 0 
-19.1562 26.3103 0 -17.5625 25.8017 0 -18.0938 26.3103 0 
-16.5 25.8017 0 -17.0312 26.3103 0 -15.4375 25.8017 0 
-15.9688 26.3103 0 -14.375 25.8017 0 -14.9062 26.3103 0 
-13.3125 25.8017 0 -13.8438 26.3103 0 -12.25 25.8017 0 
-12.7812 26.3103 0 -11.1875 25.8017 0 -11.7188 26.3103 0 
-10.125 25.8017 0 -10.6562 26.3103 0 -9.0625 25.8017 0 
-9.59375 26.3103 0 -8.53125 26.3103 0 -23.9375 26.819 0 
-24.4688 27.3276 0 -22.875 26.819 0 -23.4062 27.3276 0 
-21.8125 26.819 0 -22.3438 27.3276 0 -20.75 26.819 0 
-21.2812 27.3276 0 -19.6875 26.819 0 -20.2188 27.3276 0 
-18.625 26.819 0 -19.1562 27.3276 0 -17.5625 26.819 0 
-18.0938 27.3276 0 -16.5 26.819 0 -17.0312 27.3276 0 
-15.4375 26.819 0 -15.9688 27.3276 0 -14.375 26.819 0 
-14.9062 27.3276 0 -13.3125 26.819 0 -13.8438 27.3276 0 
-12.25 26.819 0 -12.7812 27.3276 0 -11.1875 26.819 0 
-11.7188 27.3276 0 -10.125 26.819 0 -10.6562 27.3276 0 
-9.0625 26.819 0 -9.59375 27.3276 0 -8.53125 27.3276 0 
-23.9375 27.8362 0 -24.4688 28.3448 0 -22.875 27.8362 0 
-23.4062 28.3448 0 -21.8125 27.8362 0 -22.3438 28.3448 0 
-20.75 27.8362 0 -21.2812 28.3448 0 -19.6875 27.8362 0 
-20.2188 28.3448 0 -18.625 27.8362 0 -19.1562 28.3448 0 
-17.5625 27.8362 0 -18.0938 28.3448 0 -16.5 27.8362 0 
-17.0312 28.3448 0 -15.4375 27.8362 0 -15.9688 28.3448 0 
-14.375 27.8362 0 -14.9062 28.3448 0 -13.3125 27.8362 0 
-13.8438 28.3448 0 -12.25 27.8362 0 -12.7812 28.3448 0 
-11.1875 27.8362 0 -11.7188 28.3448 0 -10.125 27.8362 0 
-10.6562 28.3448 0 -9.0625 27.8362 0 -9.59375 28.3448 0 
-8.53125 28.3448 0 -23.9375 28.8534 0 -24.4688 29.3621 0 
-22.875 28.8534 0 -23.4062 29.3621 0 -21.8125 28.8534 0 
-22.3438 29.3621 0 -20.75 28.8534 0 -21.2812 29.3621 0 
-19.6875 28.8534 0 -20.2188 29.3621 0 -18.625 28.8534 0 
-19.1562 29.3621 0 -17.5625 28.8534 0 -18.0938 29.3621 0 
-16.5 28.8534 0 -17.0312 29.3621 0 -15.4375 28.8534 0 
-15.9688 29.3621 0 -14.375 28.8534 0 -14.9062 29.3621 0 
-13.3125 28.8534 0 -13.8438 29.3621 0 -12.25 28.8534 0 
-12.7812 29.3621 0 -11.1875 28.8534 0 -11.7188 29.3621 0 
-10.125 28.8534 0 -10.6562 29.3621 0 -9.0625 28.8534 0 
-9.59375 29.3621 0 -8.53125 29.3621 0 -23.9375 29.8707 0 
-24.4688 30.3793 0 -22.875 29.8707 0 -23.4062 30.3793 0 
-21.8125 29.8707 0 -22.3438 30.3793 0 -20.75 29.8707 0 
-21.2812 30.3793 0 -19.6875 29.8707 0 -20.2188 30.3793 0 
-18.625 29.8707 0 -19.1562 30.3793 0 -17.5625 29.8707 0 
-18.0938 30.3793 0 -16.5 29.8707 0 -17.0312 30.3793 0 
-15.4375 29.8707 0 -15.9688 30.3793 0 -14.375 29.8707 0 
-14.9062 30.3793 0 -13.3125 29.8707 0 -13.8438 30.3793 0 
-12.25 29.8707 0 -12.7812 30.3793 0 -11.1875 29.8707 0 
-11.7188 30.3793 0 -10.125 29.8707 0 -10.6562 30.3793 0 
-9.0625 29.8707 0 -9.59375 30.3793 0 -8.53125 30.3793 0 
-23.9375 30.8879 0 -24.4688 31.3966 0 -22.875 30.8879 0 
-23.4062 31.3966 0 -21.8125 30.8879 0 -22.3438 31.3966 0 
-20.75 30.8879 0 -21.2812 31.3966 0 -19.6875 30.8879 0 
-20.2188 31.3966 0 -18.625 30.8879 0 -19.1562 31.3966 0 
-17.5625 30.8879 0 -18.0938 31.3966 0 -16.5 30.8879 0 
-17.0312 31.3966 0 -15.4375 30.8879 0 -15.9688 31.3966 0 
-14.375 30.8879 0 -14.9062 31.3966 0 -13.3125 30.8879 0 
-13.8438 31.3966 0 -12.25 30.8879 0 -12.7812 31.3966 0 
-11.1875 30.8879 0 -11.7188 31.3966 0 -10.125 30.8879 0 
-10.6562 31.3966 0 -9.0625 30.8879 0 -9.59375 31.3966 0 
-8.53125 31.3966 0 -23.9375 31.9052 0 -24.4688 32.4138 0 
-22.875 31.9052 0 -23.4062 32.4138 0 -21.8125 31.9052 0 
-22.3438 32.4138 0 -20.75 31.9052 0 -21.2812 32.4138 0 
-19.6875 31.9052 0 -20.2188 32.4138 0 -18.625 31.9052 0 
-19.1562 32.4138 0 -17.5625 31.9052 0 -18.0938 32.4138 0 
-16.5 31.9052 0 -17.0312 32.4138 0 -15.4375 31.9052 0 
-15.9688 32.4138 0 -14.375 31.9052 0 -14.9062 32.4138 0 
-13.3125 31.9052 0 -13.8438 32.4138 0 -12.25 31.9052 0 
-12.7812 32.4138 0 -11.1875 31.9052 0 -11.7188 32.4138 0 
-10.125 31.9052 0 -10.6562 32.4138 0 -9.0625 31.9052 0 
-9.59375 32.4138 0 -8.53125 32.4138 0 -23.9375 32.9224 0 
-24.4688 33.431 0 -22.875 32.9224 0 -23.4062 33.431 0 
-21.8125 32.9224 0 -22.3438 33.431 0 -20.75 32.9224 0 
-21.2812 33.431 0 -19.6875 32.9224 0 -20.2188 33.431 0 
-18.625 32.9224 0 -19.1562 33.431 0 -17.5625 32.9224 0 
-18.0938 33.431 0 -16.5 32.9224 0 -17.0312 33.431 0 
-15.4375 32.9224 0 -15.9688 33.431 0 -14.375 32.9224 0 
-14.9062 33.431 0 -13.3125 32.9224 0 -13.8438 33.431 0 
-12.25 32.9224 0 -12.7812 33.431 0 -11.1875 32.9224 0 
-11.7188 33.431 0 -10.125 32.9224 0 -10.6562 33.431 0 
-9.0625 32.9224 0 -9.59375 33.431 0 -8.53125 33.431 0 
-23.9375 33.9397 0 -24.4688 34.4483 0 -22.875 33.9397 0 
-23.4062 34.4483 0 -21.8125 33.9397 0 -22.3438 34.4483 0 
-20.75 33.9397 0 -21.2812 34.4483 0 -19.6875 33.9397 0 
-20.2188 34.4483 0 -18.625 33.9397 0 -19.1562 34.4483 0 
-17.5625 33.9397 0 -18.0938 34.4483 0 -16.5 33.9397 0 
-17.0312 34.4483 0 -15.4375 33.9397 0 -15.9688 34.4483 0 
-14.375 33.9397 0 -14.9062 34.4483 0 -13.3125 33.9397 0 
-13.8438 34.4483 0 -12.25 33.9397 0 -12.7812 34.4483 0 
-11.1875 33.9397 0 -11.7188 34.4483 0 -10.125 33.9397 0 
-10.6562 34.4483 0 -9.0625 33.9397 0 -9.59375 34.4483 0 
-8.53125 34.4483 0 -23.9375 34.9569 0 -24.4688 35.4655 0 
-22.875 34.9569 0 -23.4062 35.4655 0 -21.8125 34.9569 0 
-22.3438 35.4655 0 -20.75 34.9569 0 -21.2812 35.4655 0 
-19.6875 34.9569 0 -20.2188 35.4655 0 -18.625 34.9569 0 
-19.1562 35.4655 0 -17.5625 34.9569 0 -18.0938 35.4655 0 
-16.5 34.9569 0 -17.0312 35.4655 0 -15.4375 34.9569 0 
-15.9688 35.4655 0 -14.375 34.9569 0 -14.9062 35.4655 0 
-13.3125 34.9569 0 -13.8438 35.4655 0 -12.25 34.9569 0 
-12.7812 35.4655 0 -11.1875 34.9569 0 -11.7188 35.4655 0 
-10.125 34.9569 0 -10.6562 35.4655 0 -9.0625 34.9569 0 
-9.59375 35.4655 0 -8.53125 35.4655 0 -23.9375 35.9741 0 
-24.4688 36.4828 0 -22.875 35.9741 0 -23.4062 36.4828 0 
-21.8125 35.9741 0 -22.3438 36.4828 0 -20.75 35.9741 0 
-21.2812 36.4828 0 -19.6875 35.9741 0 -20.2188 36.4828 0 
-18.625 35.9741 0 -19.1562 36.4828 0 -17.5625 35.9741 0 
-18.0938 36.4828 0 -16.5 35.9741 0 -17.0312 36.4828 0 
-15.4375 35.9741 0 -15.9688 36.4828 0 -14.375 35.9741 0 
-14.9062 36.4828 0 -13.3125 35.9741 0 -13.8438 36.4828 0 
-12.25 35.9741 0 -12.7812 36.4828 0 -11.1875 35.9741 0 
-11.7188 36.4828 0 -10.125 35.9741 0 -10.6562 36.4828 0 
-9.0625 35.9741 0 -9.59375 36.4828 0 -8.53125 36.4828 0 
-23.9375 36.9914 0 -22.875 36.9914 0 -21.8125 36.9914 0 
-20.75 36.9914 0 -19.6875 36.9914 0 -18.625 36.9914 0 
-17.5625 36.9914 0 -16.5 36.9914 0 -15.4375 36.9914 0 
-14.375 36.9914 0 -13.3125 36.9914 0 -12.25 36.9914 0 
-11.1875 36.9914 0 -10.125 36.9914 0 -9.0625 36.9914 0 
-6.93333 36.4828 0 -6.93333 35.4655 0 -6.93333 34.4483 0 
-6.93333 33.431 0 -6.93333 32.4138 0 -6.93333 31.3966 0 
-6.93333 30.3793 0 -6.93333 29.3621 0 -6.93333 28.3448 0 
-6.93333 27.3276 0 -6.93333 26.3103 0 -6.93333 25.2931 0 
-6.93333 24.2759 0 -6.93333 23.2586 0 -6.93333 22.2414 0 
-6.93333 21.2241 0 -6.93333 20.2069 0 -6.93333 19.1897 0 
-6.93333 18.1724 0 -6.93333 17.1552 0 -6.93333 16.1379 0 
-6.93333 15.1207 0 -6.93333 14.1034 0 -6.93333 13.0862 0 
-6.93333 12.069 0 -6.93333 11.0517 0 -6.93333 10.0345 0 
-6.93333 9.01724 0 -5.86667 36.4828 0 -5.86667 35.4655 0 
-5.86667 34.4483 0 -5.86667 33.431 0 -5.86667 32.4138 0 
-5.86667 31.3966 0 -5.86667 30.3793 0 -5.86667 29.3621 0 
-5.86667 28.3448 0 -5.86667 27.3276 0 -5.86667 26.3103 0 
-5.86667 25.2931 0 -5.86667 24.2759 0 -5.86667 23.2586 0 
-5.86667 22.2414 0 -5.86667 21.2241 0 -5.86667 20.2069 0 
-5.86667 19.1897 0 -5.86667 18.1724 0 -5.86667 17.1552 0 
-5.86667 16.1379 0 -5.86667 15.1207 0 -5.86667 14.1034 0 
-5.86667 13.0862 0 -5.86667 12.069 0 -5.86667 11.0517 0 
-5.86667 10.0345 0 -5.86667 9.01724 0 -4.8 36.4828 0 
-4.8 35.4655 0 -4.8 34.4483 0 -4.8 33.431 0 
-4.8 32.4138 0 -4.8 31.3966 0 -4.8 30.3793 0 
-4.8 29.3621 0 -4.8 28.3448 0 -4.8 27.3276 0 
-4.8 26.3103 0 -4.8 25.2931 0 -4.8 24.2759 0 
-4.8 23.2586 0 -4.8 22.2414 0 -4.8 21.2241 0 
-4.8 20.2069 0 -4.8 19.1897 0 -4.8 18.1724 0 
-4.8 17.1552 0 -4.8 16.1379 0 -4.8 15.1207 0 
-4.8 14.1034 0 -4.8 13.0862 0 -4.8 12.069 0 
-4.8 11.0517 0 -4.8 10.0345 0 -4.8 9.01724 0 
-3.73333 36.4828 0 -3.73333 35.4655 0 -3.73333 34.4483 0 
-3.73333 33.431 0 -3.73333 32.4138 0 -3.73333 31.3966 0 
-3.73333 30.3793 0 -3.73333 29.3621 0 -3.73333 28.3448 0 
-3.73333 27.3276 0 -3.73333 26.3103 0 -3.73333 25.2931 0 
-3.73333 24.2759 0 -3.73333 23.2586 0 -3.73333 22.2414 0 
-3.73333 21.2241 0 -3.73333 20.2069 0 -3.73333 19.1897 0 
-3.73333 18.1724 0 -3.73333 17.1552 0 -3.73333 16.1379 0 
-3.73333 15.1207 0 -3.73333 14.1034 0 -3.73333 13.0862 0 
-3.73333 12.069 0 -3.73333 11.0517 0 -3.73333 10.0345 0 
-3.73333 9.01724 0 -2.66667 36.4828 0 -2.66667 35.4655 0 
-2.66667 34.4483 0 -2.66667 33.431 0 -2.66667 32.4138 0 
-2.66667 31.3966 0 -2.66667 30.3793 0 -2.66667 29.3621 0 
-2.66667 28.3448 0 -2.66667 27.3276 0 -2.66667 26.3103 0 
-2.66667 25.2931 0 -2.66667 24.2759 0 -2.66667 23.2586 0 
-2.66667 22.2414 0 -2.66667 21.2241 0 -2.66667 20.2069 0 
-2.66667 19.1897 0 -2.66667 18.1724 0 -2.66667 17.1552 0 
-2.66667 16.1379 0 -2.66667 15.1207 0 -2.66667 14.1034 0 
-2.66667 13.0862 0 -2.66667 12.069 0 -2.66667 11.0517 0 
-2.66667 10.0345 0 -2.66667 9.01724 0 -1.6 36.4828 0 
-1.6 35.4655 0 -1.6 34.4483 0 -1.6 33.431 0 
-1.6 32.4138 0 -1.6 31.3966 0 -1.6 30.3793 0 
-1.6 29.3621 0 -1.6 28.3448 0 -1.6 27.3276 0 
-1.6 26.3103 0 -1.6 25.2931 0 -1.6 24.2759 0 
-1.6 23.2586 0 -1.6 22.2414 0 -1.6 21.2241 0 
-1.6 20.2069 0 -1.6 19.1897 0 -1.6 18.1724 0 
-1.6 17.1552 0 -1.6 16.1379 0 -1.6 15.1207 0 
-1.6 14.1034 0 -1.6 13.0862 0 -1.6 12.069 0 
-1.6 11.0517 0 -1.6 10.0345 0 -1.6 9.01724 0 
-0.533333 36.4828 0 -0.533333 35.4655 0 -0.533333 34.4483 0 
-0.533333 33.431 0 -0.533333 32.4138 0 -0.533333 31.3966 0 
-0.533333 30.3793 0 -0.533333 29.3621 0 -0.533333 28.3448 0 
-0.533333 27.3276 0 -0.533333 26.3103 0 -0.533333 25.2931 0 
-0.533333 24.2759 0 -0.533333 23.2586 0 -0.533333 22.2414 0 
-0.533333 21.2241 0 -0.533333 20.2069 0 -0.533333 19.1897 0 
-0.533333 18.1724 0 -0.533333 17.1552 0 -0.533333 16.1379 0 
-0.533333 15.1207 0 -0.533333 14.1034 0 -0.533333 13.0862 0 
-0.533333 12.069 0 -0.533333 11.0517 0 -0.533333 10.0345 0 
-0.533333 9.01724 0 0.533333 36.4828 0 0.533333 35.4655 0 
0.533333 34.4483 0 0.533333 33.431 0 0.533333 32.4138 0 
0.533333 31.3966 0 0.533333 30.3793 0 0.533333 29.3621 0 
0.533333 28.3448 0 0.533333 27.3276 0 0.533333 26.3103 0 
0.533333 25.2931 0 0.533333 24.2759 0 0.533333 23.2586 0 
0.533333 22.2414 0 0.533333 21.2241 0 0.533333 20.2069 0 
0.533333 19.1897 0 0.533333 18.1724 0 0.533333 17.1552 0 
0.533333 16.1379 0 0.533333 15.1207 0 0.533333 14.1034 0 
0.533333 13.0862 0 0.533333 12.069 0 0.533333 11.0517 0 
0.533333 10.0345 0 0.533333 9.01724 0 1.6 36.4828 0 
1.6 35.4655 0 1.6 34.4483 0 1.6 33.431 0 
1.6 32.4138 0 1.6 31.3966 0 1.6 30.3793 0 
1.6 29.3621 0 1.6 28.3448 0 1.6 27.3276 0 
1.6 26.3103 0 1.6 25.2931 0 1.6 24.2759 0 
1.6 23.2586 0 1.6 22.2414 0 1.6 21.2241 0 
1.6 20.2069 0 1.6 19.1897 0 1.6 18.1724 0 
1.6 17.1552 0 1.6 16.1379 0 1.6 15.1207 0 
1.6 14.1034 0 1.6 13.0862 0 1.6 12.069 0 
1.6 11.0517 0 1.6 10.0345 0 1.6 9.01724 0 
2.66667 36.4828 0 2.66667 35.4655 0 2.66667 34.4483 0 
2.66667 33.431 0 2.66667 32.4138 0 2.66667 31.3966 0 
2.66667 30.3793 0 2.66667 29.3621 0 2.66667 28.3448 0 
2.66667 27.3276 0 2.66667 26.3103 0 2.66667 25.2931 0 
2.66667 24.2759 0 2.66667 23.2586 0 2.66667 22.2414 0 
2.66667 21.2241 0 2.66667 20.2069 0 2.66667 19.1897 0 
2.66667 18.1724 0 2.66667 17.1552 0 2.66667 16.1379 0 
2.66667 15.1207 0 2.66667 14.1034 0 2.66667 13.0862 0 
2.66667 12.069 0 2.66667 11.0517 0 2.66667 10.0345 0 
2.66667 9.01724 0 3.73333 36.4828 0 3.73333 35.4655 0 
3.73333 34.4483 0 3.73333 33.431 0 3.73333 32.4138 0 
3.73333 31.3966 0 3.73333 30.3793 0 3.73333 29.3621 0 
3.73333 28.3448 0 3.73333 27.3276 0 3.73333 26.3103 0 
3.73333 25.2931 0 3.73333 24.2759 0 3.73333 23.2586 0 
3.73333 22.2414 0 3.73333 21.2241 0 3.73333 20.2069 0 
3.73333 19.1897 0 3.73333 18.1724 0 3.73333 17.1552 0 
3.73333 16.1379 0 3.73333 15.1207 0 3.73333 14.1034 0 
3.73333 13.0862 0 3.73333 12.069 0 3.73333 11.0517 0 
3.73333 10.0345 0 3.73333 9.01724 0 4.8 36.4828 0 
4.8 35.4655 0 4.8 34.4483 0 4.8 33.431 0 
4.8 32.4138 0 4.8 31.3966 0 4.8 30.3793 0 
4.8 29.3621 0 4.8 28.3448 0 4.8 27.3276 0 
4.8 26.3103 0 4.8 25.2931 0 4.8 24.2759 0 
4.8 23.2586 0 4.8 22.2414 0 4.8 21.2241 0 
4.8 20.2069 0 4.8 19.1897 0 4.8 18.1724 0 
4.8 17.1552 0 4.8 16.1379 0 4.8 15.1207 0 
4.8 14.1034 0 4.8 13.0862 0 4.8 12.069 0 
4.8 11.0517 0 4.8 10.0345 0 4.8 9.01724 0 
5.86667 36.4828 0 5.86667 35.4655 0 5.86667 34.4483 0 
5.86667 33.431 0 5.86667 32.4138 0 5.86667 31.3966 0 
5.86667 30.3793 0 5.86667 29.3621 0 5.86667 28.3448 0 
5.86667 27.3276 0 5.86667 26.3103 0 5.86667 25.2931 0 
5.86667 24.2759 0 5.86667 23.2586 0 5.86667 22.2414 0 
5.86667 21.2241 0 5.86667 20.2069 0 5.86667 19.1897 0 
5.86667 18.1724 0 5.86667 17.1552 0 5.86667 16.1379 0 
5.86667 15.1207 0 5.86667 14.1034 0 5.86667 13.0862 0 
5.86667 12.069 0 5.86667 11.0517 0 5.86667 10.0345 0 
5.86667 9.01724 0 6.93333 36.4828 0 6.93333 35.4655 0 
6.93333 34.4483 0 6.93333 33.431 0 6.93333 32.4138 0 
6.93333 31.3966 0 6.93333 30.3793 0 6.93333 29.3621 0 
6.93333 28.3448 0 6.93333 27.3276 0 6.93333 26.3103 0 
6.93333 25.2931 0 6.93333 24.2759 0 6.93333 23.2586 0 
6.93333 22.2414 0 6.93333 21.2241 0 6.93333 20.2069 0 
6.93333 19.1897 0 6.93333 18.1724 0 6.93333 17.1552 0 
6.93333 16.1379 0 6.93333 15.1207 0 6.93333 14.1034 0 
6.93333 13.0862 0 6.93333 12.069 0 6.93333 11.0517 0 
6.93333 10.0345 0 6.93333 9.01724 0 -7.46667 36.4828 0 
-6.93333 36.9914 0 -7.46667 35.4655 0 -6.93333 35.9741 0 
-7.46667 34.4483 0 -6.93333 34.9569 0 -7.46667 33.431 0 
-6.93333 33.9397 0 -7.46667 32.4138 0 -6.93333 32.9224 0 
-7.46667 31.3966 0 -6.93333 31.9052 0 -7.46667 30.3793 0 
-6.93333 30.8879 0 -7.46667 29.3621 0 -6.93333 29.8707 0 
-7.46667 28.3448 0 -6.93333 28.8534 0 -7.46667 27.3276 0 
-6.93333 27.8362 0 -7.46667 26.3103 0 -6.93333 26.819 0 
-7.46667 25.2931 0 -6.93333 25.8017 0 -7.46667 24.2759 0 
-6.93333 24.7845 0 -7.46667 23.2586 0 -6.93333 23.7672 0 
-7.46667 22.2414 0 -6.93333 22.75 0 -7.46667 21.2241 0 
-6.93333 21.7328 0 -7.46667 20.2069 0 -6.93333 20.7155 0 
-7.46667 19.1897 0 -6.93333 19.6983 0 -7.46667 18.1724 0 
-6.93333 18.681 0 -7.46667 17.1552 0 -6.93333 17.6638 0 
-7.46667 16.1379 0 -6.93333 16.6466 0 -7.46667 15.1207 0 
-6.93333 15.6293 0 -7.46667 14.1034 0 -6.93333 14.6121 0 
-7.46667 13.0862 0 -6.93333 13.5948 0 -7.46667 12.069 0 
-6.93333 12.5776 0 -7.46667 11.0517 0 -6.93333 11.5603 0 
-7.46667 10.0345 0 -6.93333 10.5431 0 -7.46667 9.01724 0 
-6.93333 9.52586 0 -6.93333 8.50862 0 -6.4 36.4828 0 
-5.86667 36.9914 0 -6.4 35.4655 0 -5.86667 35.9741 0 
-6.4 34.4483 0 -5.86667 34.9569 0 -6.4 33.431 0 
-5.86667 33.9397 0 -6.4 32.4138 0 -5.86667 32.9224 0 
-6.4 31.3966 0 -5.86667 31.9052 0 -6.4 30.3793 0 
-5.86667 30.8879 0 -6.4 29.3621 0 -5.86667 29.8707 0 
-6.4 28.3448 0 -5.86667 28.8534 0 -6.4 27.3276 0 
-5.86667 27.8362 0 -6.4 26.3103 0 -5.86667 26.819 0 
-6.4 25.2931 0 -5.86667 25.8017 0 -6.4 24.2759 0 
-5.86667 24.7845 0 -6.4 23.2586 0 -5.86667 23.7672 0 
-6.4 22.2414 0 -5.86667 22.75 0 -6.4 21.2241 0 
-5.86667 21.7328 0 -6.4 20.2069 0 -5.86667 20.7155 0 
-6.4 19.1897 0 -5.86667 19.6983 0 -6.4 18.1724 0 
-5.86667 18.681 0 -6.4 17.1552 0 -5.86667 17.6638 0 
-6.4 16.1379 0 -5.86667 16.6466 0 -6.4 15.1207 0 
-5.86667 15.6293 0 -6.4 14.1034 0 -5.86667 14.6121 0 
-6.4 13.0862 0 -5.86667 13.5948 0 -6.4 12.069 0 
-5.86667 12.5776 0 -6.4 11.0517 0 -5.86667 11.5603 0 
-6.4 10.0345 0 -5.86667 10.5431 0 -6.4 9.01724 0 
-5.86667 9.52586 0 -5.86667 8.50862 0 -5.33333 36.4828 0 
-4.8 36.9914 0 -5.33333 35.4655 0 -4.8 35.9741 0 
-5.33333 34.4483 0 -4.8 34.9569 0 -5.33333 33.431 0 
-4.8 33.9397 0 -5.33333 32.4138 0 -4.8 32.9224 0 
-5.33333 31.3966 0 -4.8 31.9052 0 -5.33333 30.3793 0 
-4.8 30.8879 0 -5.33333 29.3621 0 -4.8 29.8707 0 
-5.33333 28.3448 0 -4.8 28.8534 0 -5.33333 27.3276 0 
-4.8 27.8362 0 -5.33333 26.3103 0 -4.8 26.819 0 
-5.33333 25.2931 0 -4.8 25.8017 0 -5.33333 24.2759 0 
-4.8 24.7845 0 -5.33333 23.2586 0 -4.8 23.7672 0 
-5.33333 22.2414 0 -4.8 22.75 0 -5.33333 21.2241 0 
-4.8 21.7328 0 -5.33333 20.2069 0 -4.8 20.7155 0 
-5.33333 19.1897 0 -4.8 19.6983 0 -5.33333 18.1724 0 
-4.8 18.681 0 -5.33333 17.1552 0 -4.8 17.6638 0 
-5.33333 16.1379 0 -4.8 16.6466 0 -5.33333 15.1207 0 
-4.8 15.6293 0 -5.33333 14.1034 0 -4.8 14.6121 0 
-5.33333 13.0862 0 -4.8 13.5948 0 -5.33333 12.069 0 
-4.8 12.5776 0 -5.33333 11.0517 0 -4.8 11.5603 0 
-5.33333 10.0345 0 -4.8 10.5431 0 -5.33333 9.01724 0 
-4.8 9.52586 0 -4.8 8.50862 0 -4.26667 36.4828 0 
-3.73333 36.9914 0 -4.26667 35.4655 0 -3.73333 35.9741 0 
-4.26667 34.4483 0 -3.73333 34.9569 0 -4.26667 33.431 0 
-3.73333 33.9397 0 -4.26667 32.4138 0 -3.73333 32.9224 0 
-4.26667 31.3966 0 -3.73333 31.9052 0 -4.26667 30.3793 0 
-3.73333 30.8879 0 -4.26667 29.3621 0 -3.73333 29.8707 0 
-4.26667 28.3448 0 -3.73333 28.8534 0 -4.26667 27.3276 0 
-3.73333 27.8362 0 -4.26667 26.3103 0 -3.73333 26.819 0 
-4.26667 25.2931 0 -3.73333 25.8017 0 -4.26667 24.2759 0 
-3.73333 24.7845 0 -4.26667 23.2586 0 -3.73333 23.7672 0 
-4.26667 22.2414 0 -3.73333 22.75 0 -4.26667 21.2241 0 
-3.73333 21.7328 0 -4.26667 20.2069 0 -3.73333 20.7155 0 
-4.26667 19.1897 0 -3.73333 19.6983 0 -4.26667 18.1724 0 
-3.73333 18.681 0 -4.26667 17.1552 0 -3.73333 17.6638 0 
-4.26667 16.1379 0 -3.73333 16.6466 0 -4.26667 15.1207 0 
-3.73333 15.6293 0 -4.26667 14.1034 0 -3.73333 14.6121 0 
-4.26667 13.0862 0 -3.73333 13.5948 0 -4.26667 12.069 0 
-3.73333 12.5776 0 -4.26667 11.0517 0 -3.73333 11.5603 0 
-4.26667 10.0345 0 -3.73333 10.5431 0 -4.26667 9.01724 0 
-3.73333 9.52586 0 -3.73333 8.50862 0 -3.2 36.4828 0 
-2.66667 36.9914 0 -3.2 35.4655 0 -2.66667 35.9741 0 
-3.2 34.4483 0 -2.66667 34.9569 0 -3.2 33.431 0 
-2.66667 33.9397 0 -3.2 32.4138 0 -2.66667 32.9224 0 
-3.2 31.3966 0 -2.66667 31.9052 0 -3.2 30.3793 0 
-2.66667 30.8879 0 -3.2 29.3621 0 -2.66667 29.8707 0 
-3.2 28.3448 0 -2.66667 28.8534 0 -3.2 27.3276 0 
-2.66667 27.8362 0 -3.2 26.3103 0 -2.66667 26.819 0 
-3.2 25.2931 0 -2.66667 25.8017 0 -3.2 24.2759 0 
-2.66667 24.7845 0 -3.2 23.2586 0 -2.66667 23.7672 0 
-3.2 22.2414 0 -2.66667 22.75 0 -3.2 21.2241 0 
-2.66667 21.7328 0 -3.2 20.2069 0 -2.66667 20.7155 0 
-3.2 19.1897 0 -2.66667 19.6983 0 -3.2 18.1724 0 
-2.66667 18.681 0 -3.2 17.1552 0 -2.66667 17.6638 0 
-3.2 16.1379 0 -2.66667 16.6466 0 -3.2 15.1207 0 
-2.66667 15.6293 0 -3.2 14.1034 0 -2.66667 14.6121 0 
-3.2 13.0862 0 -2.66667 13.5948 0 -3.2 12.069 0 
-2.66667 12.5776 0 -3.2 11.0517 0 -2.66667 11.5603 0 
-3.2 10.0345 0 -2.66667 10.5431 0 -3.2 9.01724 0 
-2.66667 9.52586 0 -2.66667 8.50862 0 -2.13333 36.4828 0 
-1.6 36.9914 0 -2.13333 35.4655 0 -1.6 35.9741 0 
-2.13333 34.4483 0 -1.6 34.9569 0 -2.13333 33.431 0 
-1.6 33.9397 0 -2.13333 32.4138 0 -1.6 32.9224 0 
-2.13333 31.3966 0 -1.6 31.9052 0 -2.13333 30.3793 0 
-1.6 30.8879 0 -2.13333 29.3621 0 -1.6 29.8707 0 
-2.13333 28.3448 0 -1.6 28.8534 0 -2.13333 27.3276 0 
-1.6 27.8362 0 -2.13333 26.3103 0 -1.6 26.819 0 
-2.13333 25.2931 0 -1.6 25.8017 0 -2.13333 24.2759 0 
-1.6 24.7845 0 -2.13333 23.2586 0 -1.6 23.7672 0 
-2.13333 22.2414 0 -1.6 22.75 0 -2.13333 21.2241 0 
-1.6 21.7328 0 -2.13333 20.2069 0 -1.6 20.7155 0 
-2.13333 19.1897 0 -1.6 19.6983 0 -2.13333 18.1724 0 
-1.6 18.681 0 -2.13333 17.1552 0 -1.6 17.6638 0 
-2.13333 16.1379 0 -1.6 16.6466 0 -2.13333 15.1207 0 
-1.6 15.6293 0 -2.13333 14.1034 0 -1.6 14.6121 0 
-2.13333 13.0862 0 -1.6 13.5948 0 -2.13333 12.069 0 
-1.6 12.5776 0 -2.13333 11.0517 0 -1.6 11.5603 0 
-2.13333 10.0345 0 -1.6 10.5431 0 -2.13333 9.01724 0 
-1.6 9.52586 0 -1.6 8.50862 0 -1.06667 36.4828 0 
-0.533333 36.9914 0 -1.06667 35.4655 0 -0.533333 35.9741 0 
-1.06667 34.4483 0 -0.533333 34.9569 0 -1.06667 33.431 0 
-0.533333 33.9397 0 -1.06667 32.4138 0 -0.533333 32.9224 0 
-1.06667 31.3966 0 -0.533333 31.9052 0 -1.06667 30.3793 0 
-0.533333 30.8879 0 -1.06667 29.3621 0 -0.533333 29.8707 0 
-1.06667 28.3448 0 -0.533333 28.8534 0 -1.06667 27.3276 0 
-0.533333 27.8362 0 -1.06667 26.3103 0 -0.533333 26.819 0 
-1.06667 25.2931 0 -0.533333 25.8017 0 -1.06667 24.2759 0 
-0.533333 24.7845 0 -1.06667 23.2586 0 -0.533333 23.7672 0 
-1.06667 22.2414 0 -0.533333 22.75 0 -1.06667 21.2241 0 
-0.533333 21.7328 0 -1.06667 20.2069 0 -0.533333 20.7155 0 
-1.06667 19.1897 0 -0.533333 19.6983 0 -1.06667 18.1724 0 
-0.533333 18.681 0 -1.06667 17.1552 0 -0.533333 17.6638 0 
-1.06667 16.1379 0 -0.533333 16.6466 0 -1.06667 15.1207 0 
-0.533333 15.6293 0 -1.06667 14.1034 0 -0.533333 14.6121 0 
-1.06667 13.0862 0 -0.533333 13.5948 0 -1.06667 12.069 0 
-0.533333 12.5776 0 -1.06667 11.0517 0 -0.533333 11.5603 0 
-1.06667 10.0345 0 -0.533333 10.5431 0 -1.06667 9.01724 0 
-0.533333 9.52586 0 -0.533333 8.50862 0 -2.06978e-11 36.4828 0 
0.533333 36.9914 0 -2.06976e-11 35.4655 0 0.533333 35.9741 0 
-2.06979e-11 34.4483 0 0.533333 34.9569 0 -2.06977e-11 33.431 0 
0.533333 33.9397 0 -2.06979e-11 32.4138 0 0.533333 32.9224 0 
-2.0698e-11 31.3966 0 0.533333 31.9052 0 -2.06977e-11 30.3793 0 
0.533333 30.8879 0 -2.06976e-11 29.3621 0 0.533333 29.8707 0 
-2.06977e-11 28.3448 0 0.533333 28.8534 0 -2.0698e-11 27.3276 0 
0.533333 27.8362 0 -2.06976e-11 26.3103 0 0.533333 26.819 0 
-2.06977e-11 25.2931 0 0.533333 25.8017 0 -2.06976e-11 24.2759 0 
0.533333 24.7845 0 -2.06977e-11 23.2586 0 0.533333 23.7672 0 
-2.06977e-11 22.2414 0 0.533333 22.75 0 -2.0698e-11 21.2241 0 
0.533333 21.7328 0 -2.06974e-11 20.2069 0 0.533333 20.7155 0 
-2.06974e-11 19.1897 0 0.533333 19.6983 0 -2.06977e-11 18.1724 0 
0.533333 18.681 0 -2.06979e-11 17.1552 0 0.533333 17.6638 0 
-2.06977e-11 16.1379 0 0.533333 16.6466 0 -2.06977e-11 15.1207 0 
0.533333 15.6293 0 -2.06979e-11 14.1034 0 0.533333 14.6121 0 
-2.06972e-11 13.0862 0 0.533333 13.5948 0 -2.06977e-11 12.069 0 
0.533333 12.5776 0 -2.06979e-11 11.0517 0 0.533333 11.5603 0 
-2.06974e-11 10.0345 0 0.533333 10.5431 0 -2.06974e-11 9.01724 0 
0.533333 9.52586 0 0.533333 8.50862 0 1.06667 36.4828 0 
1.6 36.9914 0 1.06667 35.4655 0 1.6 35.9741 0 
1.06667 34.4483 0 1.6 34.9569 0 1.06667 33.431 0 
1.6 33.9397 0 1.06667 32.4138 0 1.6 32.9224 0 
1.06667 31.3966 0 1.6 31.9052 0 1.06667 30.3793 0 
1.6 30.8879 0 1.06667 29.3621 0 1.6 29.8707 0 
1.06667 28.3448 0 1.6 28.8534 0 1.06667 27.3276 0 
1.6 27.8362 0 1.06667 26.3103 0 1.6 26.819 0 
1.06667 25.2931 0 1.6 25.8017 0 1.06667 24.2759 0 
1.6 24.7845 0 1.06667 23.2586 0 1.6 23.7672 0 
1.06667 22.2414 0 1.6 22.75 0 1.06667 21.2241 0 
1.6 21.7328 0 1.06667 20.2069 0 1.6 20.7155 0 
1.06667 19.1897 0 1.6 19.6983 0 1.06667 18.1724 0 
1.6 18.681 0 1.06667 17.1552 0 1.6 17.6638 0 
1.06667 16.1379 0 1.6 16.6466 0 1.06667 15.1207 0 
1.6 15.6293 0 1.06667 14.1034 0 1.6 14.6121 0 
1.06667 13.0862 0 1.6 13.5948 0 1.06667 12.069 0 
1.6 12.5776 0 1.06667 11.0517 0 1.6 11.5603 0 
1.06667 10.0345 0 1.6 10.5431 0 1.06667 9.01724 0 
1.6 9.52586 0 1.6 8.50862 0 2.13333 36.4828 0 
2.66667 36.9914 0 2.13333 35.4655 0 2.66667 35.9741 0 
2.13333 34.4483 0 2.66667 34.9569 0 2.13333 33.431 0 
2.66667 33.9397 0 2.13333 32.4138 0 2.66667 32.9224 0 
2.13333 31.3966 0 2.66667 31.9052 0 2.13333 30.3793 0 
2.66667 30.8879 0 2.13333 29.3621 0 2.66667 29.8707 0 
2.13333 28.3448 0 2.66667 28.8534 0 2.13333 27.3276 0 
2.66667 27.8362 0 2.13333 26.3103 0 2.66667 26.819 0 
2.13333 25.2931 0 2.66667 25.8017 0 2.13333 24.2759 0 
2.66667 24.7845 0 2.13333 23.2586 0 2.66667 23.7672 0 
2.13333 22.2414 0 2.66667 22.75 0 2.13333 21.2241 0 
2.66667 21.7328 0 2.13333 20.2069 0 2.66667 20.7155 0 
2.13333 19.1897 0 2.66667 19.6983 0 2.13333 18.1724 0 
2.66667 18.681 0 2.13333 17.1552 0 2.66667 17.6638 0 
2.13333 16.1379 0 2.66667 16.6466 0 2.13333 15.1207 0 
2.66667 15.6293 0 2.13333 14.1034 0 2.66667 14.6121 0 
2.13333 13.0862 0 2.66667 13.5948 0 2.13333 12.069 0 
2.66667 12.5776 0 2.13333 11.0517 0 2.66667 11.5603 0 
2.13333 10.0345 0 2.66667 10.5431 0 2.13333 9.01724 0 
2.66667 9.52586 0 2.66667 8.50862 0 3.2 36.4828 0 
3.73333 36.9914 0 3.2 35.4655 0 3.73333 35.9741 0 
3.2 34.4483 0 3.73333 34.9569 0 3.2 33.431 0 
3.73333 33.9397 0 3.2 32.4138 0 3.73333 32.9224 0 
3.2 31.3966 0 3.73333 31.9052 0 3.2 30.3793 0 
3.73333 30.8879 0 3.2 29.3621 0 3.73333 29.8707 0 
3.2 28.3448 0 3.73333 28.8534 0 3.2 27.3276 0 
3.73333 27.8362 0 3.2 26.3103 0 3.73333 26.819 0 
3.2 25.2931 0 3.73333 25.8017 0 3.2 24.2759 0 
3.73333 24.7845 0 3.2 23.2586 0 3.73333 23.7672 0 
3.2 22.2414 0 3.73333 22.75 0 3.2 21.2241 0 
3.73333 21.7328 0 3.2 20.2069 0 3.73333 20.7155 0 
3.2 19.1897 0 3.73333 19.6983 0 3.2 18.1724 0 
3.73333 18.681 0 3.2 17.1552 0 3.73333 17.6638 0 
3.2 16.1379 0 3.73333 16.6466 0 3.2 15.1207 0 
3.73333 15.6293 0 3.2 14.1034 0 3.73333 14.6121 0 
3.2 13.0862 0 3.73333 13.5948 0 3.2 12.069 0 
3.73333 12.5776 0 3.2 11.0517 0 3.73333 11.5603 0 
3.2 10.0345 0 3.73333 10.5431 0 3.2 9.01724 0 
3.73333 9.52586 0 3.73333 8.50862 0 4.26667 36.4828 0 
4.8 36.9914 0 4.26667 35.4655 0 4.8 35.9741 0 
4.26667 34.4483 0 4.8 34.9569 0 4.26667 33.431 0 
4.8 33.9397 0 4.26667 32.4138 0 4.8 32.9224 0 
4.26667 31.3966 0 4.8 31.9052 0 4.26667 30.3793 0 
4.8 30.8879 0 4.26667 29.3621 0 4.8 29.8707 0 
4.26667 28.3448 0 4.8 28.8534 0 4.26667 27.3276 0 
4.8 27.8362 0 4.26667 26.3103 0 4.8 26.819 0 
4.26667 25.2931 0 4.8 25.8017 0 4.26667 24.2759 0 
4.8 24.7845 0 4.26667 23.2586 0 4.8 23.7672 0 
4.26667 22.2414 0 4.8 22.75 0 4.26667 21.2241 0 
4.8 21.7328 0 4.26667 20.2069 0 4.8 20.7155 0 
4.26667 19.1897 0 4.8 19.6983 0 4.26667 18.1724 0 
4.8 18.681 0 4.26667 17.1552 0 4.8 17.6638 0 
4.26667 16.1379 0 4.8 16.6466 0 4.26667 15.1207 0 
4.8 15.6293 0 4.26667 14.1034 0 4.8 14.6121 0 
4.26667 13.0862 0 4.8 13.5948 0 4.26667 12.069 0 
4.8 12.5776 0 4.26667 11.0517 0 4.8 11.5603 0 
4.26667 10.0345 0 4.8 10.5431 0 4.26667 9.01724 0 
4.8 9.52586 0 4.8 8.50862 0 5.33333 36.4828 0 
5.86667 36.9914 0 5.33333 35.4655 0 5.86667 35.9741 0 
5.33333 34.4483 0 5.86667 34.9569 0 5.33333 33.431 0 
5.86667 33.9397 0 5.33333 32.4138 0 5.86667 32.9224 0 
5.33333 31.3966 0 5.86667 31.9052 0 5.33333 30.3793 0 
5.86667 30.8879 0 5.33333 29.3621 0 5.86667 29.8707 0 
5.33333 28.3448 0 5.86667 28.8534 0 5.33333 27.3276 0 
5.86667 27.8362 0 5.33333 26.3103 0 5.86667 26.819 0 
5.33333 25.2931 0 5.86667 25.8017 0 5.33333 24.2759 0 
5.86667 24.7845 0 5.33333 23.2586 0 5.86667 23.7672 0 
5.33333 22.2414 0 5.86667 22.75 0 5.33333 21.2241 0 
5.86667 21.7328 0 5.33333 20.2069 0 5.86667 20.7155 0 
5.33333 19.1897 0 5.86667 19.6983 0 5.33333 18.1724 0 
5.86667 18.681 0 5.33333 17.1552 0 5.86667 17.6638 0 
5.33333 16.1379 0 5.86667 16.6466 0 5.33333 15.1207 0 
5.86667 15.6293 0 5.33333 14.1034 0 5.86667 14.6121 0 
5.33333 13.0862 0 5.86667 13.5948 0 5.33333 12.069 0 
5.86667 12.5776 0 5.33333 11.0517 0 5.86667 11.5603 0 
5.33333 10.0345 0 5.86667 10.5431 0 5.33333 9.01724 0 
5.86667 9.52586 0 5.86667 8.50862 0 6.4 36.4828 0 
6.93333 36.9914 0 6.4 35.4655 0 6.93333 35.9741 0 
6.4 34.4483 0 6.93333 34.9569 0 6.4 33.431 0 
6.93333 33.9397 0 6.4 32.4138 0 6.93333 32.9224 0 
6.4 31.3966 0 6.93333 31.9052 0 6.4 30.3793 0 
6.93333 30.8879 0 6.4 29.3621 0 6.93333 29.8707 0 
6.4 28.3448 0 6.93333 28.8534 0 6.4 27.3276 0 
6.93333 27.8362 0 6.4 26.3103 0 6.93333 26.819 0 
6.4 25.2931 0 6.93333 25.8017 0 6.4 24.2759 0 
6.93333 24.7845 0 6.4 23.2586 0 6.93333 23.7672 0 
6.4 22.2414 0 6.93333 22.75 0 6.4 21.2241 0 
6.93333 21.7328 0 6.4 20.2069 0 6.93333 20.7155 0 
6.4 19.1897 0 6.93333 19.6983 0 6.4 18.1724 0 
6.93333 18.681 0 6.4 17.1552 0 6.93333 17.6638 0 
6.4 16.1379 0 6.93333 16.6466 0 6.4 15.1207 0 
6.93333 15.6293 0 6.4 14.1034 0 6.93333 14.6121 0 
6.4 13.0862 0 6.93333 13.5948 0 6.4 12.069 0 
6.93333 12.5776 0 6.4 11.0517 0 6.93333 11.5603 0 
6.4 10.0345 0 6.93333 10.5431 0 6.4 9.01724 0 
6.93333 9.52586 0 6.93333 8.50862 0 7.46667 36.4828 0 
7.46667 35.4655 0 7.46667 34.4483 0 7.46667 33.431 0 
7.46667 32.4138 0 7.46667 31.3966 0 7.46667 30.3793 0 
7.46667 29.3621 0 7.46667 28.3448 0 7.46667 27.3276 0 
7.46667 26.3103 0 7.46667 25.2931 0 7.46667 24.2759 0 
7.46667 23.2586 0 7.46667 22.2414 0 7.46667 21.2241 0 
7.46667 20.2069 0 7.46667 19.1897 0 7.46667 18.1724 0 
7.46667 17.1552 0 7.46667 16.1379 0 7.46667 15.1207 0 
7.46667 14.1034 0 7.46667 13.0862 0 7.46667 12.069 0 
7.46667 11.0517 0 7.46667 10.0345 0 7.46667 9.01724 0 

CELLS 4107 32848
OFFSETS vtktypeint64
0 8 16 24 32 40 48 56 64 
72 80 88 96 104 112 120 128 136 
144 152 160 168 176 184 192 200 208 
216 224 232 240 248 256 264 272 280 
288 296 304 312 320 328 336 344 352 
360 368 376 384 392 400 408 416 424 
432 440 448 456 464 472 480 488 496 
504 512 520 528 536 544 552 560 568 
576 584 592 600 608 616 624 632 640 
648 656 664 672 680 688 696 704 712 
720 728 736 744 752 760 768 776 784 
792 800 808 816 824 832 840 848 856 
864 872 880 888 896 904 912 920 928 
936 944 952 960 968 976 984 992 1000 
1008 1016 1024 1032 1040 1048 1056 1064 1072 
1080 1088 1096 1104 1112 1120 1128 1136 1144 
1152 1160 1168 1176 1184 1192 1200 1208 1216 
1224 1232 1240 1248 1256 1264 1272 1280 1288 
1296 1304 1312 1320 1328 1336 1344 1352 1360 
1368 1376 1384 1392 1400 1408 1416 1424 1432 
1440 1448 1456 1464 1472 1480 1488 1496 1504 
1512 1520 1528 1536 1544 1552 1560 1568 1576 
1584 1592 1600 1608 1616 1624 1632 1640 1648 
1656 1664 1672 1680 1688 1696 1704 1712 1720 
1728 1736 1744 1752 1760 1768 1776 1784 1792 
1800 1808 1816 1824 1832 1840 1848 1856 1864 
1872 1880 1888 1896 1904 1912 1920 1928 1936 
1944 1952 1960 1968 1976 1984 1992 2000 2008 
2016 2024 2032 2040 2048 2056 2064 2072 2080 
2088 2096 2104 2112 2120 2128 2136 2144 2152 
2160 2168 2176 2184 2192 2200 2208 2216 2224 
2232 2240 2248 2256 2264 2272 2280 2288 2296 
2304 2312 2320 2328 2336 2344 2352 2360 2368 
2376 2384 2392 2400 2408 2416 2424 2432 2440 
2448 2456 2464 2472 2480 2488 2496 2504 2512 
2520 2528 2536 2544 2552 2560 2568 2576 2584 
2592 2600 2608 2616 2624 2632 2640 2648 2656 
2664 2672 2680 2688 2696 2704 2712 2720 2728 
2736 2744 2752 2760 2768 2776 2784 2792 2800 
2808 2816 2824 2832 2840 2848 2856 2864 2872 
2880 2888 2896 2904 2912 2920 2928 2936 2944 
2952 2960 2968 2976 2984 2992 3000 3008 3016 
3024 3032 3040 3048 3056 3064 3072 3080 3088 
3096 3104 3112 3120 3128 3136 3144 3152 3160 
3168 3176 3184 3192 3200 3208 3216 3224 3232 
3240 3248 3256 3264 3272 3280 3288 3296 3304 
3312 3320 3328 3336 3344 3352 3360 3368 3376 
3384 3392 3400 3408 3416 3424 3432 3440 3448 
3456 3464 3472 3480 3488 3496 3504 3512 3520 
3528 3536 3544 3552 3560 3568 3576 3584 3592 
3600 3608 3616 3624 3632 3640 3648 3656 3664 
3672 3680 3688 3696 3704 3712 3720 3728 3736 
3744 3752 3760 3768 3776 3784 3792 3800 3808 
3816 3824 3832 3840 3848 3856 3864 3872 3880 
3888 3896 3904 3912 3920 3928 3936 3944 3952 
3960 3968 3976 3984 3992 4000 4008 4016 4024 
4032 4040 4048 4056 4064 4072 4080 4088 4096 
4104 4112 4120 4128 4136 4144 4152 4160 4168 
4176 4184 4192 4200 4208 4216 4224 4232 4240 
4248 4256 4264 4272 4280 4288 4296 4304 4312 
4320 4328 4336 4344 4352 4360 4368 4376 4384 
4392 4400 4408 4416 4424 4432 4440 4448 4456 
4464 4472 4480 4488 4496 4504 4512 4520 4528 
4536 4544 4552 4560 4568 4576 4584 4592 4600 
4608 4616 4624 4632 4640 4648 4656 4664 4672 
4680 4688 4696 4704 4712 4720 4728 4736 4744 
4752 4760 4768 4776 4784 4792 4800 4808 4816 
4824 4832 4840 4848 4856 4864 4872 4880 4888 
4896 4904 4912 4920 4928 4936 4944 4952 4960 
4968 4976 4984 4992 5000 5008 5016 5024 5032 
5040 5048 5056 5064 5072 5080 5088 5096 5104 
5112 5120 5128 5136 5144 5152 5160 5168 5176 
5184 5192 5200 5208 5216 5224 5232 5240 5248 
5256 5264 5272 5280 5288 5296 5304 5312 5320 
5328 5336 5344 5352 5360 5368 5376 5384 5392 
5400 5408 5416 5424 5432 5440 5448 5456 5464 
5472 5480 5488 5496 5504 5512 5520 5528 5536 
5544 5552 5560 5568 5576 5584 5592 5600 5608 
5616 5624 5632 5640 5648 5656 5664 5672 5680 
5688 5696 5704 5712 5720 5728 5736 5744 5752 
5760 5768 5776 5784 5792 5800 5808 5816 5824 
5832 5840 5848 5856 5864 5872 5880 5888 5896 
5904 5912 5920 5928 5936 5944 5952 5960 5968 
5976 5984 5992 6000 6008 6016 6024 6032 6040 
6048 6056 6064 6072 6080 6088 6096 6104 6112 
6120 6128 6136 6144 6152 6160 6168 6176 6184 
6192 6200 6208 6216 6224 6232 6240 6248 6256 
6264 6272 6280 6288 6296 6304 6312 6320 6328 
6336 6344 6352 6360 6368 6376 6384 6392 6400 
6408 6416 6424 6432 6440 6448 6456 6464 6472 
6480 6488 6496 6504 6512 6520 6528 6536 6544 
6552 6560 6568 6576 6584 6592 6600 6608 6616 
6624 6632 6640 6648 6656 6664 6672 6680 6688 
6696 6704 6712 6720 6728 6736 6744 6752 6760 
6768 6776 6784 6792 6800 6808 6816 6824 6832 
6840 6848 6856 6864 6872 6880 6888 6896 6904 
6912 6920 6928 6936 6944 6952 6960 6968 6976 
6984 6992 7000 7008 7016 7024 7032 7040 7048 
7056 7064 7072 7080 7088 7096 7104 7112 7120 
7128 7136 7144 7152 7160 7168 7176 7184 7192 
7200 7208 7216 7224 7232 7240 7248 7256 7264 
7272 7280 7288 7296 7304 7312 7320 7328 7336 
7344 7352 7360 7368 7376 7384 7392 7400 7408 
7416 7424 7432 7440 7448 7456 7464 7472 7480 
7488 7496 7504 7512 7520 7528 7536 7544 7552 
7560 7568 7576 7584 7592 7600 7608 7616 7624 
7632 7640 7648 7656 7664 7672 7680 7688 7696 
7704 7712 7720 7728 7736 7744 7752 7760 7768 
7776 7784 7792 7800 7808 7816 7824 7832 7840 
7848 7856 7864 7872 7880 7888 7896 7904 7912 
7920 7928 7936 7944 7952 7960 7968 7976 7984 
7992 8000 8008 8016 8024 8032 8040 8048 8056 
8064 8072 8080 8088 8096 8104 8112 8120 8128 
8136 8144 8152 8160 8168 8176 8184 8192 8200 
8208 8216 8224 8232 8240 8248 8256 8264 8272 
8280 8288 8296 8304 8312 8320 8328 8336 8344 
8352 8360 8368 8376 8384 8392 8400 8408 8416 
8424 8432 8440 8448 8456 8464 8472 8480 8488 
8496 8504 8512 8520 8528 8536 8544 8552 8560 
8568 8576 8584 8592 8600 8608 8616 8624 8632 
8640 8648 8656 8664 8672 8680 8688 8696 8704 
8712 8720 8728 8736 8744 8752 8760 8768 8776 
8784 8792 8800 8808 8816 8824 8832 8840 8848 
8856 8864 8872 8880 8888 8896 8904 8912 8920 
8928 8936 8944 8952 8960 8968 8976 8984 8992 
9000 9008 9016 9024 9032 9040 9048 9056 9064 
9072 9080 9088 9096 9104 9112 9120 9128 9136 
9144 9152 9160 9168 9176 9184 9192 9200 9208 
9216 9224 9232 9240 9248 9256 9264 9272 9280 
9288 9296 9304 9312 9320 9328 9336 9344 9352 
9360 9368 9376 9384 9392 9400 9408 9416 9424 
9432 9440 9448 9456 9464 9472 9480 9488 9496 
9504 9512 9520 9528 9536 9544 9552 9560 9568 
9576 9584 9592 9600 9608 9616 9624 9632 9640 
9648 9656 9664 9672 9680 9688 9696 9704 9712 
9720 9728 9736 9744 9752 9760 9768 9776 9784 
9792 9800 9808 9816 9824 9832 9840 9848 9856 
9864 9872 9880 9888 9896 9904 9912 9920 9928 
9936 9944 9952 9960 9968 9976 9984 9992 10000 
10008 10016 10024 10032 10040 10048 10056 10064 10072 
10080 10088 10096 10104 10112 10120 10128 10136 10144 
10152 10160 10168 10176 10184 10192 10200 10208 10216 
10224 10232 10240 10248 10256 10264 10272 10280 10288 
10296 10304 10312 10320 10328 10336 10344 10352 10360 
10368 10376 10384 10392 10400 10408 10416 10424 10432 
10440 10448 10456 10464 10472 10480 10488 10496 10504 
10512 10520 10528 10536 10544 10552 10560 10568 10576 
10584 10592 10600 10608 10616 10624 10632 10640 10648 
10656 10664 10672 10680 10688 10696 10704 10712 10720 
10728 10736 10744 10752 10760 10768 10776 10784 10792 
10800 10808 10816 10824 10832 10840 10848 10856 10864 
10872 10880 10888 10896 10904 10912 10920 10928 10936 
10944 10952 10960 10968 10976 10984 10992 11000 11008 
11016 11024 11032 11040 11048 11056 11064 11072 11080 
11088 11096 11104 11112 11120 11128 11136 11144 11152 
11160 11168 11176 11184 11192 11200 11208 11216 11224 
11232 11240 11248 11256 11264 11272 11280 11288 11296 
11304 11312 11320 11328 11336 11344 11352 11360 11368 
11376 11384 11392 11400 11408 11416 11424 11432 11440 
11448 11456 11464 11472 11480 11488 11496 11504 11512 
11520 11528 11536 11544 11552 11560 11568 11576 11584 
11592 11600 11608 11616 11624 11632 11640 11648 11656 
11664 11672 11680 11688 11696 11704 11712 11720 11728 
11736 11744 11752 11760 11768 11776 11784 11792 11800 
11808 11816 11824 11832 11840 11848 11856 11864 11872 
11880 11888 11896 11904 11912 11920 11928 11936 11944 
11952 11960 11968 11976 11984 11992 12000 12008 12016 
12024 12032 12040 12048 12056 12064 12072 12080 12088 
12096 12104 12112 12120 12128 12136 12144 12152 12160 
12168 12176 12184 12192 12200 12208 12216 12224 12232 
12240 12248 12256 12264 12272 12280 12288 12296 12304 
12312 12320 12328 12336 12344 12352 12360 12368 12376 
12384 12392 12400 12408 12416 12424 12432 12440 12448 
12456 12464 12472 12480 12488 12496 12504 12512 12520 
12528 12536 12544 12552 12560 12568 12576 12584 12592 
12600 12608 12616 12624 12632 12640 12648 12656 12664 
12672 12680 12688 12696 12704 12712 12720 12728 12736 
12744 12752 12760 12768 12776 12784 12792 12800 12808 
12816 12824 12832 12840 12848 12856 12864 12872 12880 
12888 12896 12904 12912 12920 12928 12936 12944 12952 
12960 12968 12976 12984 12992 13000 13008 13016 13024 
13032 13040 13048 13056 13064 13072 13080 13088 13096 
13104 13112 13120 13128 13136 13144 13152 13160 13168 
13176 13184 13192 13200 13208 13216 13224 13232 13240 
13248 13256 13264 13272 13280 13288 13296 13304 13312 
13320 13328 13336 13344 13352 13360 13368 13376 13384 
13392 13400 13408 13416 13424 13432 13440 13448 13456 
13464 13472 13480 13488 13496 13504 13512 13520 13528 
13536 13544 13552 13560 13568 13576 13584 13592 13600 
13608 13616 13624 13632 13640 13648 13656 13664 13672 
13680 13688 13696 13704 13712 13720 13728 13736 13744 
13752 13760 13768 13776 13784 13792 13800 13808 13816 
13824 13832 13840 13848 13856 13864 13872 13880 13888 
13896 13904 13912 13920 13928 13936 13944 13952 13960 
13968 13976 13984 13992 14000 14008 14016 14024 14032 
14040 14048 14056 14064 14072 14080 14088 14096 14104 
14112 14120 14128 14136 14144 14152 14160 14168 14176 
14184 14192 14200 14208 14216 14224 14232 14240 14248 
14256 14264 14272 14280 14288 14296 14304 14312 14320 
14328 14336 14344 14352 14360 14368 14376 14384 14392 
14400 14408 14416 14424 14432 14440 14448 14456 14464 
14472 14480 14488 14496 14504 14512 14520 14528 14536 
14544 14552 14560 14568 14576 14584 14592 14600 14608 
14616 14624 14632 14640 14648 14656 14664 14672 14680 
14688 14696 14704 14712 14720 14728 14736 14744 14752 
14760 14768 14776 14784 14792 14800 14808 14816 14824 
14832 14840 14848 14856 14864 14872 14880 14888 14896 
14904 14912 14920 14928 14936 14944 14952 14960 14968 
14976 14984 14992 15000 15008 15016 15024 15032 15040 
15048 15056 15064 15072 15080 15088 15096 15104 15112 
15120 15128 15136 15144 15152 15160 15168 15176 15184 
15192 15200 15208 15216 15224 15232 15240 15248 15256 
15264 15272 15280 15288 15296 15304 15312 15320 15328 
15336 15344 15352 15360 15368 15376 15384 15392 15400 
15408 15416 15424 15432 15440 15448 15456 15464 15472 
15480 15488 15496 15504 15512 15520 15528 15536 15544 
15552 15560 15568 15576 15584 15592 15600 15608 15616 
15624 15632 15640 15648 15656 15664 15672 15680 15688 
15696 15704 15712 15720 15728 15736 15744 15752 15760 
15768 15776 15784 15792 15800 15808 15816 15824 15832 
15840 15848 15856 15864 15872 15880 15888 15896 15904 
15912 15920 15928 15936 15944 15952 15960 15968 15976 
15984 15992 16000 16008 16016 16024 16032 16040 16048 
16056 16064 16072 16080 16088 16096 16104 16112 16120 
16128 16136 16144 16152 16160 16168 16176 16184 16192 
16200 16208 16216 16224 16232 16240 16248 16256 16264 
16272 16280 16288 16296 16304 16312 16320 16328 16336 
16344 16352 16360 16368 16376 16384 16392 16400 16408 
16416 16424 16432 16440 16448 16456 16464 16472 16480 
16488 16496 16504 16512 16520 16528 16536 16544 16552 
16560 16568 16576 16584 16592 16600 16608 16616 16624 
16632 16640 16648 16656 16664 16672 16680 16688 16696 
16704 16712 16720 16728 16736 16744 16752 16760 16768 
16776 16784 16792 16800 16808 16816 16824 16832 16840 
16848 16856 16864 16872 16880 16888 16896 16904 16912 
16920 16928 16936 16944 16952 16960 16968 16976 16984 
16992 17000 17008 17016 17024 17032 17040 17048 17056 
17064 17072 17080 17088 17096 17104 17112 17120 17128 
17136 17144 17152 17160 17168 17176 17184 17192 17200 
17208 17216 17224 17232 17240 17248 17256 17264 17272 
17280 17288 17296 17304 17312 17320 17328 17336 17344 
17352 17360 17368 17376 17384 17392 17400 17408 17416 
17424 17432 17440 17448 17456 17464 17472 17480 17488 
17496 17504 17512 17520 17528 17536 17544 17552 17560 
17568 17576 17584 17592 17600 17608 17616 17624 17632 
17640 17648 17656 17664 17672 17680 17688 17696 17704 
17712 17720 17728 17736 17744 17752 17760 17768 17776 
17784 17792 17800 17808 17816 17824 17832 17840 17848 
17856 17864 17872 17880 17888 17896 17904 17912 17920 
17928 17936 17944 17952 17960 17968 17976 17984 17992 
18000 18008 18016 18024 18032 18040 18048 18056 18064 
18072 18080 18088 18096 18104 18112 18120 18128 18136 
18144 18152 18160 18168 18176 18184 18192 18200 18208 
18216 18224 18232 18240 18248 18256 18264 18272 18280 
18288 18296 18304 18312 18320 18328 18336 18344 18352 
18360 18368 18376 18384 18392 18400 18408 18416 18424 
18432 18440 18448 18456 18464 18472 18480 18488 18496 
18504 18512 18520 18528 18536 18544 18552 18560 18568 
18576 18584 18592 18600 18608 18616 18624 18632 18640 
18648 18656 18664 18672 18680 18688 18696 18704 18712 
18720 18728 18736 18744 18752 18760 18768 18776 18784 
18792 18800 18808 18816 18824 18832 18840 18848 18856 
18864 18872 18880 18888 18896 18904 18912 18920 18928 
18936 18944 18952 18960 18968 18976 18984 18992 19000 
19008 19016 19024 19032 19040 19048 19056 19064 19072 
19080 19088 19096 19104 19112 19120 19128 19136 19144 
19152 19160 19168 19176 19184 19192 19200 19208 19216 
19224 19232 19240 19248 19256 19264 19272 19280 19288 
19296 19304 19312 19320 19328 19336 19344 19352 19360 
19368 19376 19384 19392 19400 19408 19416 19424 19432 
19440 19448 19456 19464 19472 19480 19488 19496 19504 
19512 19520 19528 19536 19544 19552 19560 19568 19576 
19584 19592 19600 19608 19616 19624 19632 19640 19648 
19656 19664 19672 19680 19688 19696 19704 19712 19720 
19728 19736 19744 19752 19760 19768 19776 19784 19792 
19800 19808 19816 19824 19832 19840 19848 19856 19864 
19872 19880 19888 19896 19904 19912 19920 19928 19936 
19944 19952 19960 19968 19976 19984 19992 20000 20008 
20016 20024 20032 20040 20048 20056 20064 20072 20080 
20088 20096 20104 20112 20120 20128 20136 20144 20152 
20160 20168 20176 20184 20192 20200 20208 20216 20224 
20232 20240 20248 20256 20264 20272 20280 20288 20296 
20304 20312 20320 20328 20336 20344 20352 20360 20368 
20376 20384 20392 20400 20408 20416 20424 20432 20440 
20448 20456 20464 20472 20480 20488 20496 20504 20512 
20520 20528 20536 20544 20552 20560 20568 20576 20584 
20592 20600 20608 20616 20624 20632 20640 20648 20656 
20664 20672 20680 20688 20696 20704 20712 20720 20728 
20736 20744 20752 20760 20768 20776 20784 20792 20800 
20808 20816 20824 20832 20840 20848 20856 20864 20872 
20880 20888 20896 20904 20912 20920 20928 20936 20944 
20952 20960 20968 20976 20984 20992 21000 21008 21016 
21024 21032 21040 21048 21056 21064 21072 21080 21088 
21096 21104 21112 21120 21128 21136 21144 21152 21160 
21168 21176 21184 21192 21200 21208 21216 21224 21232 
21240 21248 21256 21264 21272 21280 21288 21296 21304 
21312 21320 21328 21336 21344 21352 21360 21368 21376 
21384 21392 21400 21408 21416 21424 21432 21440 21448 
21456 21464 21472 21480 21488 21496 21504 21512 21520 
21528 21536 21544 21552 21560 21568 21576 21584 21592 
21600 21608 21616 21624 21632 21640 21648 21656 21664 
21672 21680 21688 21696 21704 21712 21720 21728 21736 
21744 21752 21760 21768 21776 21784 21792 21800 21808 
21816 21824 21832 21840 21848 21856 21864 21872 21880 
21888 21896 21904 21912 21920 21928 21936 21944 21952 
21960 21968 21976 21984 21992 22000 22008 22016 22024 
22032 22040 22048 22056 22064 22072 22080 22088 22096 
22104 22112 22120 22128 22136 22144 22152 22160 22168 
22176 22184 22192 22200 22208 22216 22224 22232 22240 
22248 22256 22264 22272 22280 22288 22296 22304 22312 
22320 22328 22336 22344 22352 22360 22368 22376 22384 
22392 22400 22408 22416 22424 22432 22440 22448 22456 
22464 22472 22480 22488 22496 22504 22512 22520 22528 
22536 22544 22552 22560 22568 22576 22584 22592 22600 
22608 22616 22624 22632 22640 22648 22656 22664 22672 
22680 22688 22696 22704 22712 22720 22728 22736 22744 
22752 22760 22768 22776 22784 22792 22800 22808 22816 
22824 22832 22840 22848 22856 22864 22872 22880 22888 
22896 22904 22912 22920 22928 22936 22944 22952 22960 
22968 22976 22984 22992 23000 23008 23016 23024 23032 
23040 23048 23056 23064 23072 23080 23088 23096 23104 
23112 23120 23128 23136 23144 23152 23160 23168 23176 
23184 23192 23200 23208 23216 23224 23232 23240 23248 
23256 23264 23272 23280 23288 23296 23304 23312 23320 
23328 23336 23344 23352 23360 23368 23376 23384 23392 
23400 23408 23416 23424 23432 23440 23448 23456 23464 
23472 23480 23488 23496 23504 23512 23520 23528 23536 
23544 23552 23560 23568 23576 23584 23592 23600 23608 
23616 23624 23632 23640 23648 23656 23664 23672 23680 
23688 23696 23704 23712 23720 23728 23736 23744 23752 
23760 23768 23776 23784 23792 23800 23808 23816 23824 
23832 23840 23848 23856 23864 23872 23880 23888 23896 
23904 23912 23920 23928 23936 23944 23952 23960 23968 
23976 23984 23992 24000 24008 24016 24024 24032 24040 
24048 24056 24064 24072 24080 24088 24096 24104 24112 
24120 24128 24136 24144 24152 24160 24168 24176 24184 
24192 24200 24208 24216 24224 24232 24240 24248 24256 
24264 24272 24280 24288 24296 24304 24312 24320 24328 
24336 24344 24352 24360 24368 24376 24384 24392 24400 
24408 24416 24424 24432 24440 24448 24456 24464 24472 
24480 24488 24496 24504 24512 24520 24528 24536 24544 
24552 24560 24568 24576 24584 24592 24600 24608 24616 
24624 24632 24640 24648 24656 24664 24672 24680 24688 
24696 24704 24712 24720 24728 24736 24744 24752 24760 
24768 24776 24784 24792 24800 24808 24816 24824 24832 
24840 24848 24856 24864 24872 24880 24888 24896 24904 
24912 24920 24928 24936 24944 24952 24960 24968 24976 
24984 24992 25000 25008 25016 25024 25032 25040 25048 
25056 25064 25072 25080 25088 25096 25104 25112 25120 
25128 25136 25144 25152 25160 25168 25176 25184 25192 
25200 25208 25216 25224 25232 25240 25248 25256 25264 
25272 25280 25288 25296 25304 25312 25320 25328 25336 
25344 25352 25360 25368 25376 25384 25392 25400 25408 
25416 25424 25432 25440 25448 25456 25464 25472 25480 
25488 25496 25504 25512 25520 25528 25536 25544 25552 
25560 25568 25576 25584 25592 25600 25608 25616 25624 
25632 25640 25648 25656 25664 25672 25680 25688 25696 
25704 25712 25720 25728 25736 25744 25752 25760 25768 
25776 25784 25792 25800 25808 25816 25824 25832 25840 
25848 25856 25864 25872 25880 25888 25896 25904 25912 
25920 25928 25936 25944 25952 25960 25968 25976 25984 
25992 26000 26008 26016 26024 26032 26040 26048 26056 
26064 26072 26080 26088 26096 26104 26112 26120 26128 
26136 26144 26152 26160 26168 26176 26184 26192 26200 
26208 26216 26224 26232 26240 26248 26256 26264 26272 
26280 26288 26296 26304 26312 26320 26328 26336 26344 
26352 26360 26368 26376 26384 26392 26400 26408 26416 
26424 26432 26440 26448 26456 26464 26472 26480 26488 
26496 26504 26512 26520 26528 26536 26544 26552 26560 
26568 26576 26584 26592 26600 26608 26616 26624 26632 
26640 26648 26656 26664 26672 26680 26688 26696 26704 
26712 26720 26728 26736 26744 26752 26760 26768 26776 
26784 26792 26800 26808 26816 26824 26832 26840 26848 
26856 26864 26872 26880 26888 26896 26904 26912 26920 
26928 26936 26944 26952 26960 26968 26976 26984 26992 
27000 27008 27016 27024 27032 27040 27048 27056 27064 
27072 27080 27088 27096 27104 27112 27120 27128 27136 
27144 27152 27160 27168 27176 27184 27192 27200 27208 
27216 27224 27232 27240 27248 27256 27264 27272 27280 
27288 27296 27304 27312 27320 27328 27336 27344 27352 
27360 27368 27376 27384 27392 27400 27408 27416 27424 
27432 27440 27448 27456 27464 27472 27480 27488 27496 
27504 27512 27520 27528 27536 27544 27552 27560 27568 
27576 27584 27592 27600 27608 27616 27624 27632 27640 
27648 27656 27664 27672 27680 27688 27696 27704 27712 
27720 27728 27736 27744 27752 27760 27768 27776 27784 
27792 27800 27808 27816 27824 27832 27840 27848 27856 
27864 27872 27880 27888 27896 27904 27912 27920 27928 
27936 27944 27952 27960 27968 27976 27984 27992 28000 
28008 28016 28024 28032 28040 28048 28056 28064 28072 
28080 28088 28096 28104 28112 28120 28128 28136 28144 
28152 28160 28168 28176 28184 28192 28200 28208 28216 
28224 28232 28240 28248 28256 28264 28272 28280 28288 
28296 28304 28312 28320 28328 28336 28344 28352 28360 
28368 28376 28384 28392 28400 28408 28416 28424 28432 
28440 28448 28456 28464 28472 28480 28488 28496 28504 
28512 28520 28528 28536 28544 28552 28560 28568 28576 
28584 28592 28600 28608 28616 28624 28632 28640 28648 
28656 28664 28672 28680 28688 28696 28704 28712 28720 
28728 28736 28744 28752 28760 28768 28776 28784 28792 
28800 28808 28816 28824 28832 28840 28848 28856 28864 
28872 28880 28888 28896 28904 28912 28920 28928 28936 
28944 28952 28960 28968 28976 28984 28992 29000 29008 
29016 29024 29032 29040 29048 29056 29064 29072 29080 
29088 29096 29104 29112 29120 29128 29136 29144 29152 
29160 29168 29176 29184 29192 29200 29208 29216 29224 
29232 29240 29248 29256 29264 29272 29280 29288 29296 
29304 29312 29320 29328 29336 29344 29352 29360 29368 
29376 29384 29392 29400 29408 29416 29424 29432 29440 
29448 29456 29464 29472 29480 29488 29496 29504 29512 
29520 29528 29536 29544 29552 29560 29568 29576 29584 
29592 29600 29608 29616 29624 29632 29640 29648 29656 
29664 29672 29680 29688 29696 29704 29712 29720 29728 
29736 29744 29752 29760 29768 29776 29784 29792 29800 
29808 29816 29824 29832 29840 29848 29856 29864 29872 
29880 29888 29896 29904 29912 29920 29928 29936 29944 
29952 29960 29968 29976 29984 29992 30000 30008 30016 
30024 30032 30040 30048 30056 30064 30072 30080 30088 
30096 30104 30112 30120 30128 30136 30144 30152 30160 
30168 30176 30184 30192 30200 30208 30216 30224 30232 
30240 30248 30256 30264 30272 30280 30288 30296 30304 
30312 30320 30328 30336 30344 30352 30360 30368 30376 
30384 30392 30400 30408 30416 30424 30432 30440 30448 
30456 30464 30472 30480 30488 30496 30504 30512 30520 
30528 30536 30544 30552 30560 30568 30576 30584 30592 
30600 30608 30616 30624 30632 30640 30648 30656 30664 
30672 30680 30688 30696 30704 30712 30720 30728 30736 
30744 30752 30760 30768 30776 30784 30792 30800 30808 
30816 30824 30832 30840 30848 30856 30864 30872 30880 
30888 30896 30904 30912 30920 30928 30936 30944 30952 
30960 30968 30976 30984 30992 31000 31008 31016 31024 
31032 31040 31048 31056 31064 31072 31080 31088 31096 
31104 31112 31120 31128 31136 31144 31152 31160 31168 
31176 31184 31192 31200 31208 31216 31224 31232 31240 
31248 31256 31264 31272 31280 31288 31296 31304 31312 
31320 31328 31336 31344 31352 31360 31368 31376 31384 
31392 31400 31408 31416 31424 31432 31440 31448 31456 
31464 31472 31480 31488 31496 31504 31512 31520 31528 
31536 31544 31552 31560 31568 31576 31584 31592 31600 
31608 31616 31624 31632 31640 31648 31656 31664 31672 
31680 31688 31696 31704 31712 31720 31728 31736 31744 
31752 31760 31768 31776 31784 31792 31800 31808 31816 
31824 31832 31840 31848 31856 31864 31872 31880 31888 
31896 31904 31912 31920 31928 31936 31944 31952 31960 
31968 31976 31984 31992 32000 32008 32016 32024 32032 
32040 32048 32056 32064 32072 32080 32088 32096 32104 
32112 32120 32128 32136 32144 32152 32160 32168 32176 
32184 32192 32200 32208 32216 32224 32232 32240 32248 
32256 32264 32272 32280 32288 32296 32304 32312 32320 
32328 32336 32344 32352 32360 32368 32376 32384 32392 
32400 32408 32416 32424 32432 32440 32448 32456 32464 
32472 32480 32488 32496 32504 32512 32520 32528 32536 
32544 32552 32560 32568 32576 32584 32592 32600 32608 
32616 32624 32632 32640 32648 32656 32664 32672 32680 
32688 32696 32704 32712 32720 32728 32736 32744 32752 
32760 32768 32776 32784 32792 32800 32808 32816 32824 
32832 32840 32848 
CONNECTIVITY vtktypeint64
0 136 1188 33 150 1384 1385 48 136 
137 1189 1188 151 1386 1387 1384 137 138 
1190 1189 152 1388 1389 1386 138 139 1191 
1190 153 1390 1391 1388 139 140 1192 1191 
154 1392 1393 1390 140 141 1193 1192 155 
1394 1395 1392 141 142 1194 1193 156 1396 
1397 1394 142 143 1195 1194 157 1398 1399 
1396 143 144 1196 1195 158 1400 1401 1398 
144 145 1197 1196 159 1402 1403 1400 145 
146 1198 1197 160 1404 1405 1402 146 147 
1199 1198 161 1406 1407 1404 147 148 1200 
1199 162 1408 1409 1406 148 149 1201 1200 
163 1410 1411 1408 149 1 62 1201 164 
77 1412 1410 33 1188 1202 32 1385 1413 
1414 47 1188 1189 1203 1202 1387 1415 1416 
1413 1189 1190 1204 1203 1389 1417 1418 1415 
1190 1191 1205 1204 1391 1419 1420 1417 1191 
1192 1206 1205 1393 1421 1422 1419 1192 1193 
1207 1206 1395 1423 1424 1421 1193 1194 1208 
1207 1397 1425 1426 1423 1194 1195 1209 1208 
1399 1427 1428 1425 1195 1196 1210 1209 1401 
1429 1430 1427 1196 1197 1211 1210 1403 1431 
1432 1429 1197 1198 1212 1211 1405 1433 1434 
1431 1198 1199 1213 1212 1407 1435 1436 1433 
1199 1200 1214 1213 1409 1437 1438 1435 1200 
1201 1215 1214 1411 1439 1440 1437 1201 62 
61 1215 1412 76 1441 1439 32 1202 1216 
31 1414 1442 1443 46 1202 1203 1217 1216 
1416 1444 1445 1442 1203 1204 1218 1217 1418 
1446 1447 1444 1204 1205 1219 1218 1420 1448 
1449 1446 1205 1206 1220 1219 1422 1450 1451 
1448 1206 1207 1221 1220 1424 1452 1453 1450 
1207 1208 1222 1221 1426 1454 1455 1452 1208 
1209 1223 1222 1428 1456 1457 1454 1209 1210 
1224 1223 1430 1458 1459 1456 1210 1211 1225 
1224 1432 1460 1461 1458 1211 1212 1226 1225 
1434 1462 1463 1460 1212 1213 1227 1226 1436 
1464 1465 1462 1213 1214 1228 1227 1438 1466 
1467 1464 1214 1215 1229 1228 1440 1468 1469 
1466 1215 61 60 1229 1441 75 1470 1468 
31 1216 1230 30 1443 1471 1472 45 1216 
1217 1231 1230 1445 1473 1474 1471 1217 1218 
1232 1231 1447 1475 1476 1473 1218 1219 1233 
1232 1449 1477 1478 1475 1219 1220 1234 1233 
1451 1479 1480 1477 1220 1221 1235 1234 1453 
1481 1482 1479 1221 1222 1236 1235 1455 1483 
1484 1481 1222 1223 1237 1236 1457 1485 1486 
1483 1223 1224 1238 1237 1459 1487 1488 1485 
1224 1225 1239 1238 1461 1489 1490 1487 1225 
1226 1240 1239 1463 1491 1492 1489 1226 1227 
1241 1240 1465 1493 1494 1491 1227 1228 1242 
1241 1467 1495 1496 1493 1228 1229 1243 1242 
1469 1497 1498 1495 1229 60 59 1243 1470 
74 1499 1497 30 1230 1244 29 1472 1500 
1501 44 1230 1231 1245 1244 1474 1502 1503 
1500 1231 1232 1246 1245 1476 1504 1505 1502 
1232 1233 1247 1246 1478 1506 1507 1504 1233 
1234 1248 1247 1480 1508 1509 1506 1234 1235 
1249 1248 1482 1510 1511 1508 1235 1236 1250 
1249 1484 1512 1513 1510 1236 1237 1251 1250 
1486 1514 1515 1512 1237 1238 1252 1251 1488 
1516 1517 1514 1238 1239 1253 1252 1490 1518 
1519 1516 1239 1240 1254 1253 1492 1520 1521 
1518 1240 1241 1255 1254 1494 1522 1523 1520 
1241 1242 1256 1255 1496 1524 1525 1522 1242 
1243 1257 1256 1498 1526 1527 1524 1243 59 
58 1257 1499 73 1528 1526 29 1244 1258 
28 1501 1529 1530 43 1244 1245 1259 1258 
1503 1531 1532 1529 1245 1246 1260 1259 1505 
1533 1534 1531 1246 1247 1261 1260 1507 1535 
1536 1533 1247 1248 1262 1261 1509 1537 1538 
1535 1248 1249 1263 1262 1511 1539 1540 1537 
1249 1250 1264 1263 1513 1541 1542 1539 1250 
1251 1265 1264 1515 1543 1544 1541 1251 1252 
1266 1265 1517 1545 1546 1543 1252 1253 1267 
1266 1519 1547 1548 1545 1253 1254 1268 1267 
1521 1549 1550 1547 1254 1255 1269 1268 1523 
1551 1552 1549 1255 1256 1270 1269 1525 1553 
1554 1551 1256 1257 1271 1270 1527 1555 1556 
1553 1257 58 57 1271 1528 72 1557 1555 
28 1258 1272 27 1530 1558 1559 42 1258 
1259 1273 1272 1532 1560 1561 1558 1259 1260 
1274 1273 1534 1562 1563 1560 1260 1261 1275 
1274 1536 1564 1565 1562 1261 1262 1276 1275 
1538 1566 1567 1564 1262 1263 1277 1276 1540 
1568 1569 1566 1263 1264 1278 1277 1542 1570 
1571 1568 1264 1265 1279 1278 1544 1572 1573 
1570 1265 1266 1280 1279 1546 1574 1575 1572 
1266 1267 1281 1280 1548 1576 1577 1574 1267 
1268 1282 1281 1550 1578 1579 1576 1268 1269 
1283 1282 1552 1580 1581 1578 1269 1270 1284 
1283 1554 1582 1583 1580 1270 1271 1285 1284 
1556 1584 1585 1582 1271 57 56 1285 1557 
71 1586 1584 27 1272 1286 26 1559 1587 
1588 41 1272 1273 1287 1286 1561 1589 1590 
1587 1273 1274 1288 1287 1563 1591 1592 1589 
1274 1275 1289 1288 1565 1593 1594 1591 1275 
1276 1290 1289 1567 1595 1596 1593 1276 1277 
1291 1290 1569 1597 1598 1595 1277 1278 1292 
1291 1571 1599 1600 1597 1278 1279 1293 1292 
1573 1601 1602 1599 1279 1280 1294 1293 1575 
1603 1604 1601 1280 1281 1295 1294 1577 1605 
1606 1603 1281 1282 1296 1295 1579 1607 1608 
1605 1282 1283 1297 1296 1581 1609 1610 1607 
1283 1284 1298 1297 1583 1611 1612 1609 1284 
1285 1299 1298 1585 1613 1614 1611 1285 56 
55 1299 1586 70 1615 1613 26 1286 1300 
25 1588 1616 1617 40 1286 1287 1301 1300 
1590 1618 1619 1616 1287 1288 1302 1301 1592 
1620 1621 1618 1288 1289 1303 1302 1594 1622 
1623 1620 1289 1290 1304 1303 1596 1624 1625 
1622 1290 1291 1305 1304 1598 1626 1627 1624 
1291 1292 1306 1305 1600 1628 1629 1626 1292 
1293 1307 1306 1602 1630 1631 1628 1293 1294 
1308 1307 1604 1632 1633 1630 1294 1295 1309 
1308 1606 1634 1635 1632 1295 1296 1310 1309 
1608 1636 1637 1634 1296 1297 1311 1310 1610 
1638 1639 1636 1297 1298 1312 1311 1612 1640 
1641 1638 1298 1299 1313 1312 1614 1642 1643 
1640 1299 55 54 1313 1615 69 1644 1642 
25 1300 1314 24 1617 1645 1646 39 1300 
1301 1315 1314 1619 1647 1648 1645 1301 1302 
1316 1315 1621 1649 1650 1647 1302 1303 1317 
1316 1623 1651 1652 1649 1303 1304 1318 1317 
1625 1653 1654 1651 1304 1305 1319 1318 1627 
1655 1656 1653 1305 1306 1320 1319 1629 1657 
1658 1655 1306 1307 1321 1320 1631 1659 1660 
1657 1307 1308 1322 1321 1633 1661 1662 1659 
1308 1309 1323 1322 1635 1663 1664 1661 1309 
1310 1324 1323 1637 1665 1666 1663 1310 1311 
1325 1324 1639 1667 1668 1665 1311 1312 1326 
1325 1641 1669 1670 1667 1312 1313 1327 1326 
1643 1671 1672 1669 1313 54 53 1327 1644 
68 1673 1671 24 1314 1328 23 1646 1674 
1675 38 1314 1315 1329 1328 1648 1676 1677 
1674 1315 1316 1330 1329 1650 1678 1679 1676 
1316 1317 1331 1330 1652 1680 1681 1678 1317 
1318 1332 1331 1654 1682 1683 1680 1318 1319 
1333 1332 1656 1684 1685 1682 1319 1320 1334 
1333 1658 1686 1687 1684 1320 1321 1335 1334 
1660 1688 1689 1686 1321 1322 1336 1335 1662 
1690 1691 1688 1322 1323 1337 1336 1664 1692 
1693 1690 1323 1324 1338 1337 1666 1694 1695 
1692 1324 1325 1339 1338 1668 1696 1697 1694 
1325 1326 1340 1339 1670 1698 1699 1696 1326 
1327 1341 1340 1672 1700 1701 1698 1327 53 
52 1341 1673 67 1702 1700 23 1328 1342 
22 1675 1703 1704 37 1328 1329 1343 1342 
1677 1705 1706 1703 1329 1330 1344 1343 1679 
1707 1708 1705 1330 1331 1345 1344 1681 1709 
1710 1707 1331 1332 1346 1345 1683 1711 1712 
1709 1332 1333 1347 1346 1685 1713 1714 1711 
1333 1334 1348 1347 1687 1715 1716 1713 1334 
1335 1349 1348 1689 1717 1718 1715 1335 1336 
1350 1349 1691 1719 1720 1717 1336 1337 1351 
1350 1693 1721 1722 1719 1337 1338 1352 1351 
1695 1723 1724 1721 1338 1339 1353 1352 1697 
1725 1726 1723 1339 1340 1354 1353 1699 1727 
1728 1725 1340 1341 1355 1354 1701 1729 1730 
1727 1341 52 51 1355 1702 66 1731 1729 
22 1342 1356 21 1704 1732 1733 36 1342 
1343 1357 1356 1706 1734 1735 1732 1343 1344 
1358 1357 1708 1736 1737 1734 1344 1345 1359 
1358 1710 1738 1739 1736 1345 1346 1360 1359 
1712 1740 1741 1738 1346 1347 1361 1360 1714 
1742 1743 1740 1347 1348 1362 1361 1716 1744 
1745 1742 1348 1349 1363 1362 1718 1746 1747 
1744 1349 1350 1364 1363 1720 1748 1749 1746 
1350 1351 1365 1364 1722 1750 1751 1748 1351 
1352 1366 1365 1724 1752 1753 1750 1352 1353 
1367 1366 1726 1754 1755 1752 1353 1354 1368 
1367 1728 1756 1757 1754 1354 1355 1369 1368 
1730 1758 1759 1756 1355 51 50 1369 1731 
65 1760 1758 21 1356 1370 20 1733 1761 
1762 35 1356 1357 1371 1370 1735 1763 1764 
1761 1357 1358 1372 1371 1737 1765 1766 1763 
1358 1359 1373 1372 1739 1767 1768 1765 1359 
1360 1374 1373 1741 1769 1770 1767 1360 1361 
1375 1374 1743 1771 1772 1769 1361 1362 1376 
1375 1745 1773 1774 1771 1362 1363 1377 1376 
1747 1775 1776 1773 1363 1364 1378 1377 1749 
1777 1778 1775 1364 1365 1379 1378 1751 1779 
1780 1777 1365 1366 1380 1379 1753 1781 1782 
1779 1366 1367 1381 1380 1755 1783 1784 1781 
1367 1368 1382 1381 1757 1785 1786 1783 1368 
1369 1383 1382 1759 1787 1788 1785 1369 50 
49 1383 1760 64 1789 1787 20 1370 252 
4 1762 1790 266 34 1370 1371 253 252 
1764 1791 267 1790 1371 1372 254 253 1766 
1792 268 1791 1372 1373 255 254 1768 1793 
269 1792 1373 1374 256 255 1770 1794 270 
1793 1374 1375 257 256 1772 1795 271 1794 
1375 1376 258 257 1774 1796 272 1795 1376 
1377 259 258 1776 1797 273 1796 1377 1378 
260 259 1778 1798 274 1797 1378 1379 261 
260 1780 1799 275 1798 1379 1380 262 261 
1782 1800 276 1799 1380 1381 263 262 1784 
1801 277 1800 1381 1382 264 263 1786 1802 
278 1801 1382 1383 265 264 1788 1803 279 
1802 1383 49 5 265 1789 63 280 1803 
1 165 1804 62 179 2000 2001 77 165 
166 1805 1804 180 2002 2003 2000 166 167 
1806 1805 181 2004 2005 2002 167 168 1807 
1806 182 2006 2007 2004 168 169 1808 1807 
183 2008 2009 2006 169 170 1809 1808 184 
2010 2011 2008 170 171 1810 1809 185 2012 
2013 2010 171 172 1811 1810 186 2014 2015 
2012 172 173 1812 1811 187 2016 2017 2014 
173 174 1813 1812 188 2018 2019 2016 174 
175 1814 1813 189 2020 2021 2018 175 176 
1815 1814 190 2022 2023 2020 176 177 1816 
1815 191 2024 2025 2022 177 178 1817 1816 
192 2026 2027 2024 178 2 91 1817 193 
106 2028 2026 62 1804 1818 61 2001 2029 
2030 76 1804 1805 1819 1818 2003 2031 2032 
2029 1805 1806 1820 1819 2005 2033 2034 2031 
1806 1807 1821 1820 2007 2035 2036 2033 1807 
1808 1822 1821 2009 2037 2038 2035 1808 1809 
1823 1822 2011 2039 2040 2037 1809 1810 1824 
1823 2013 2041 2042 2039 1810 1811 1825 1824 
2015 2043 2044 2041 1811 1812 1826 1825 2017 
2045 2046 2043 1812 1813 1827 1826 2019 2047 
2048 2045 1813 1814 1828 1827 2021 2049 2050 
2047 1814 1815 1829 1828 2023 2051 2052 2049 
1815 1816 1830 1829 2025 2053 2054 2051 1816 
1817 1831 1830 2027 2055 2056 2053 1817 91 
90 1831 2028 105 2057 2055 61 1818 1832 
60 2030 2058 2059 75 1818 1819 1833 1832 
2032 2060 2061 2058 1819 1820 1834 1833 2034 
2062 2063 2060 1820 1821 1835 1834 2036 2064 
2065 2062 1821 1822 1836 1835 2038 2066 2067 
2064 1822 1823 1837 1836 2040 2068 2069 2066 
1823 1824 1838 1837 2042 2070 2071 2068 1824 
1825 1839 1838 2044 2072 2073 2070 1825 1826 
1840 1839 2046 2074 2075 2072 1826 1827 1841 
1840 2048 2076 2077 2074 1827 1828 1842 1841 
2050 2078 2079 2076 1828 1829 1843 1842 2052 
2080 2081 2078 1829 1830 1844 1843 2054 2082 
2083 2080 1830 1831 1845 1844 2056 2084 2085 
2082 1831 90 89 1845 2057 104 2086 2084 
60 1832 1846 59 2059 2087 2088 74 1832 
1833 1847 1846 2061 2089 2090 2087 1833 1834 
1848 1847 2063 2091 2092 2089 1834 1835 1849 
1848 2065 2093 2094 2091 1835 1836 1850 1849 
2067 2095 2096 2093 1836 1837 1851 1850 2069 
2097 2098 2095 1837 1838 1852 1851 2071 2099 
2100 2097 1838 1839 1853 1852 2073 2101 2102 
2099 1839 1840 1854 1853 2075 2103 2104 2101 
1840 1841 1855 1854 2077 2105 2106 2103 1841 
1842 1856 1855 2079 2107 2108 2105 1842 1843 
1857 1856 2081 2109 2110 2107 1843 1844 1858 
1857 2083 2111 2112 2109 1844 1845 1859 1858 
2085 2113 2114 2111 1845 89 88 1859 2086 
103 2115 2113 59 1846 1860 58 2088 2116 
2117 73 1846 1847 1861 1860 2090 2118 2119 
2116 1847 1848 1862 1861 2092 2120 2121 2118 
1848 1849 1863 1862 2094 2122 2123 2120 1849 
1850 1864 1863 2096 2124 2125 2122 1850 1851 
1865 1864 2098 2126 2127 2124 1851 1852 1866 
1865 2100 2128 2129 2126 1852 1853 1867 1866 
2102 2130 2131 2128 1853 1854 1868 1867 2104 
2132 2133 2130 1854 1855 1869 1868 2106 2134 
2135 2132 1855 1856 1870 1869 2108 2136 2137 
2134 1856 1857 1871 1870 2110 2138 2139 2136 
1857 1858 1872 1871 2112 2140 2141 2138 1858 
1859 1873 1872 2114 2142 2143 2140 1859 88 
87 1873 2115 102 2144 2142 58 1860 1874 
57 2117 2145 2146 72 1860 1861 1875 1874 
2119 2147 2148 2145 1861 1862 1876 1875 2121 
2149 2150 2147 1862 1863 1877 1876 2123 2151 
2152 2149 1863 1864 1878 1877 2125 2153 2154 
2151 1864 1865 1879 1878 2127 2155 2156 2153 
1865 1866 1880 1879 2129 2157 2158 2155 1866 
1867 1881 1880 2131 2159 2160 2157 1867 1868 
1882 1881 2133 2161 2162 2159 1868 1869 1883 
1882 2135 2163 2164 2161 1869 1870 1884 1883 
2137 2165 2166 2163 1870 1871 1885 1884 2139 
2167 2168 2165 1871 1872 1886 1885 2141 2169 
2170 2167 1872 1873 1887 1886 2143 2171 2172 
2169 1873 87 86 1887 2144 101 2173 2171 
57 1874 1888 56 2146 2174 2175 71 1874 
1875 1889 1888 2148 2176 2177 2174 1875 1876 
1890 1889 2150 2178 2179 2176 1876 1877 1891 
1890 2152 2180 2181 2178 1877 1878 1892 1891 
2154 2182 2183 2180 1878 1879 1893 1892 2156 
2184 2185 2182 1879 1880 1894 1893 2158 2186 
2187 2184 1880 1881 1895 1894 2160 2188 2189 
2186 1881 1882 1896 1895 2162 2190 2191 2188 
1882 1883 1897 1896 2164 2192 2193 2190 1883 
1884 1898 1897 2166 2194 2195 2192 1884 1885 
1899 1898 2168 2196 2197 2194 1885 1886 1900 
1899 2170 2198 2199 2196 1886 1887 1901 1900 
2172 2200 2201 2198 1887 86 85 1901 2173 
100 2202 2200 56 1888 1902 55 2175 2203 
2204 70 1888 1889 1903 1902 2177 2205 2206 
2203 1889 1890 1904 1903 2179 2207 2208 2205 
1890 1891 1905 1904 2181 2209 2210 2207 1891 
1892 1906 1905 2183 2211 2212 2209 1892 1893 
1907 1906 2185 2213 2214 2211 1893 1894 1908 
1907 2187 2215 2216 2213 1894 1895 1909 1908 
2189 2217 2218 2215 1895 1896 1910 1909 2191 
2219 2220 2217 1896 1897 1911 1910 2193 2221 
2222 2219 1897 1898 1912 1911 2195 2223 2224 
2221 1898 1899 1913 1912 2197 2225 2226 2223 
1899 1900 1914 1913 2199 2227 2228 2225 1900 
1901 1915 1914 2201 2229 2230 2227 1901 85 
84 1915 2202 99 2231 2229 55 1902 1916 
54 2204 2232 2233 69 1902 1903 1917 1916 
2206 2234 2235 2232 1903 1904 1918 1917 2208 
2236 2237 2234 1904 1905 1919 1918 2210 2238 
2239 2236 1905 1906 1920 1919 2212 2240 2241 
2238 1906 1907 1921 1920 2214 2242 2243 2240 
1907 1908 1922 1921 2216 2244 2245 2242 1908 
1909 1923 1922 2218 2246 2247 2244 1909 1910 
1924 1923 2220 2248 2249 2246 1910 1911 1925 
1924 2222 2250 2251 2248 1911 1912 1926 1925 
2224 2252 2253 2250 1912 1913 1927 1926 2226 
2254 2255 2252 1913 1914 1928 1927 2228 2256 
2257 2254 1914 1915 1929 1928 2230 2258 2259 
2256 1915 84 83 1929 2231 98 2260 2258 
54 1916 1930 53 2233 2261 2262 68 1916 
1917 1931 1930 2235 2263 2264 2261 1917 1918 
1932 1931 2237 2265 2266 2263 1918 1919 1933 
1932 2239 2267 2268 2265 1919 1920 1934 1933 
2241 2269 2270 2267 1920 1921 1935 1934 2243 
2271 2272 2269 1921 1922 1936 1935 2245 2273 
2274 2271 1922 1923 1937 1936 2247 2275 2276 
2273 1923 1924 1938 1937 2249 2277 2278 2275 
1924 1925 1939 1938 2251 2279 2280 2277 1925 
1926 1940 1939 2253 2281 2282 2279 1926 1927 
1941 1940 2255 2283 2284 2281 1927 1928 1942 
1941 2257 2285 2286 2283 1928 1929 1943 1942 
2259 2287 2288 2285 1929 83 82 1943 2260 
97 2289 2287 53 1930 1944 52 2262 2290 
2291 67 1930 1931 1945 1944 2264 2292 2293 
2290 1931 1932 1946 1945 2266 2294 2295 2292 
1932 1933 1947 1946 2268 2296 2297 2294 1933 
1934 1948 1947 2270 2298 2299 2296 1934 1935 
1949 1948 2272 2300 2301 2298 1935 1936 1950 
1949 2274 2302 2303 2300 1936 1937 1951 1950 
2276 2304 2305 2302 1937 1938 1952 1951 2278 
2306 2307 2304 1938 1939 1953 1952 2280 2308 
2309 2306 1939 1940 1954 1953 2282 2310 2311 
2308 1940 1941 1955 1954 2284 2312 2313 2310 
1941 1942 1956 1955 2286 2314 2315 2312 1942 
1943 1957 1956 2288 2316 2317 2314 1943 82 
81 1957 2289 96 2318 2316 52 1944 1958 
51 2291 2319 2320 66 1944 1945 1959 1958 
2293 2321 2322 2319 1945 1946 1960 1959 2295 
2323 2324 2321 1946 1947 1961 1960 2297 2325 
2326 2323 1947 1948 1962 1961 2299 2327 2328 
2325 1948 1949 1963 1962 2301 2329 2330 2327 
1949 1950 1964 1963 2303 2331 2332 2329 1950 
1951 1965 1964 2305 2333 2334 2331 1951 1952 
1966 1965 2307 2335 2336 2333 1952 1953 1967 
1966 2309 2337 2338 2335 1953 1954 1968 1967 
2311 2339 2340 2337 1954 1955 1969 1968 2313 
2341 2342 2339 1955 1956 1970 1969 2315 2343 
2344 2341 1956 1957 1971 1970 2317 2345 2346 
2343 1957 81 80 1971 2318 95 2347 2345 
51 1958 1972 50 2320 2348 2349 65 1958 
1959 1973 1972 2322 2350 2351 2348 1959 1960 
1974 1973 2324 2352 2353 2350 1960 1961 1975 
1974 2326 2354 2355 2352 1961 1962 1976 1975 
2328 2356 2357 2354 1962 1963 1977 1976 2330 
2358 2359 2356 1963 1964 1978 1977 2332 2360 
2361 2358 1964 1965 1979 1978 2334 2362 2363 
2360 1965 1966 1980 1979 2336 2364 2365 2362 
1966 1967 1981 1980 2338 2366 2367 2364 1967 
1968 1982 1981 2340 2368 2369 2366 1968 1969 
1983 1982 2342 2370 2371 2368 1969 1970 1984 
1983 2344 2372 2373 2370 1970 1971 1985 1984 
2346 2374 2375 2372 1971 80 79 1985 2347 
94 2376 2374 50 1972 1986 49 2349 2377 
2378 64 1972 1973 1987 1986 2351 2379 2380 
2377 1973 1974 1988 1987 2353 2381 2382 2379 
1974 1975 1989 1988 2355 2383 2384 2381 1975 
1976 1990 1989 2357 2385 2386 2383 1976 1977 
1991 1990 2359 2387 2388 2385 1977 1978 1992 
1991 2361 2389 2390 2387 1978 1979 1993 1992 
2363 2391 2392 2389 1979 1980 1994 1993 2365 
2393 2394 2391 1980 1981 1995 1994 2367 2395 
2396 2393 1981 1982 1996 1995 2369 2397 2398 
2395 1982 1983 1997 1996 2371 2399 2400 2397 
1983 1984 1998 1997 2373 2401 2402 2399 1984 
1985 1999 1998 2375 2403 2404 2401 1985 79 
78 1999 2376 93 2405 2403 49 1986 281 
5 2378 2406 295 63 1986 1987 282 281 
2380 2407 296 2406 1987 1988 283 282 2382 
2408 297 2407 1988 1989 284 283 2384 2409 
298 2408 1989 1990 285 284 2386 2410 299 
2409 1990 1991 286 285 2388 2411 300 2410 
1991 1992 287 286 2390 2412 301 2411 1992 
1993 288 287 2392 2413 302 2412 1993 1994 
289 288 2394 2414 303 2413 1994 1995 290 
289 2396 2415 304 2414 1995 1996 291 290 
2398 2416 305 2415 1996 1997 292 291 2400 
2417 306 2416 1997 1998 293 292 2402 2418 
307 2417 1998 1999 294 293 2404 2419 308 
2418 1999 78 6 294 2405 92 309 2419 
2 194 2420 91 208 2616 2617 106 194 
195 2421 2420 209 2618 2619 2616 195 196 
2422 2421 210 2620 2621 2618 196 197 2423 
2422 211 2622 2623 2620 197 198 2424 2423 
212 2624 2625 2622 198 199 2425 2424 213 
2626 2627 2624 199 200 2426 2425 214 2628 
2629 2626 200 201 2427 2426 215 2630 2631 
2628 201 202 2428 2427 216 2632 2633 2630 
202 203 2429 2428 217 2634 2635 2632 203 
204 2430 2429 218 2636 2637 2634 204 205 
2431 2430 219 2638 2639 2636 205 206 2432 
2431 220 2640 2641 2638 206 207 2433 2432 
221 2642 2643 2640 207 3 120 2433 222 
135 2644 2642 91 2420 2434 90 2617 2645 
2646 105 2420 2421 2435 2434 2619 2647 2648 
2645 2421 2422 2436 2435 2621 2649 2650 2647 
2422 2423 2437 2436 2623 2651 2652 2649 2423 
2424 2438 2437 2625 2653 2654 2651 2424 2425 
2439 2438 2627 2655 2656 2653 2425 2426 2440 
2439 2629 2657 2658 2655 2426 2427 2441 2440 
2631 2659 2660 2657 2427 2428 2442 2441 2633 
2661 2662 2659 2428 2429 2443 2442 2635 2663 
2664 2661 2429 2430 2444 2443 2637 2665 2666 
2663 2430 2431 2445 2444 2639 2667 2668 2665 
2431 2432 2446 2445 2641 2669 2670 2667 2432 
2433 2447 2446 2643 2671 2672 2669 2433 120 
119 2447 2644 134 2673 2671 90 2434 2448 
89 2646 2674 2675 104 2434 2435 2449 2448 
2648 2676 2677 2674 2435 2436 2450 2449 2650 
2678 2679 2676 2436 2437 2451 2450 2652 2680 
2681 2678 2437 2438 2452 2451 2654 2682 2683 
2680 2438 2439 2453 2452 2656 2684 2685 2682 
2439 2440 2454 2453 2658 2686 2687 2684 2440 
2441 2455 2454 2660 2688 2689 2686 2441 2442 
2456 2455 2662 2690 2691 2688 2442 2443 2457 
2456 2664 2692 2693 2690 2443 2444 2458 2457 
2666 2694 2695 2692 2444 2445 2459 2458 2668 
2696 2697 2694 2445 2446 2460 2459 2670 2698 
2699 2696 2446 2447 2461 2460 2672 2700 2701 
2698 2447 119 118 2461 2673 133 2702 2700 
89 2448 2462 88 2675 2703 2704 103 2448 
2449 2463 2462 2677 2705 2706 2703 2449 2450 
2464 2463 2679 2707 2708 2705 2450 2451 2465 
2464 2681 2709 2710 2707 2451 2452 2466 2465 
2683 2711 2712 2709 2452 2453 2467 2466 2685 
2713 2714 2711 2453 2454 2468 2467 2687 2715 
2716 2713 2454 2455 2469 2468 2689 2717 2718 
2715 2455 2456 2470 2469 2691 2719 2720 2717 
2456 2457 2471 2470 2693 2721 2722 2719 2457 
2458 2472 2471 2695 2723 2724 2721 2458 2459 
2473 2472 2697 2725 2726 2723 2459 2460 2474 
2473 2699 2727 2728 2725 2460 2461 2475 2474 
2701 2729 2730 2727 2461 118 117 2475 2702 
132 2731 2729 88 2462 2476 87 2704 2732 
2733 102 2462 2463 2477 2476 2706 2734 2735 
2732 2463 2464 2478 2477 2708 2736 2737 2734 
2464 2465 2479 2478 2710 2738 2739 2736 2465 
2466 2480 2479 2712 2740 2741 2738 2466 2467 
2481 2480 2714 2742 2743 2740 2467 2468 2482 
2481 2716 2744 2745 2742 2468 2469 2483 2482 
2718 2746 2747 2744 2469 2470 2484 2483 2720 
2748 2749 2746 2470 2471 2485 2484 2722 2750 
2751 2748 2471 2472 2486 2485 2724 2752 2753 
2750 2472 2473 2487 2486 2726 2754 2755 2752 
2473 2474 2488 2487 2728 2756 2757 2754 2474 
2475 2489 2488 2730 2758 2759 2756 2475 117 
116 2489 2731 131 2760 2758 87 2476 2490 
86 2733 2761 2762 101 2476 2477 2491 2490 
2735 2763 2764 2761 2477 2478 2492 2491 2737 
2765 2766 2763 2478 2479 2493 2492 2739 2767 
2768 2765 2479 2480 2494 2493 2741 2769 2770 
2767 2480 2481 2495 2494 2743 2771 2772 2769 
2481 2482 2496 2495 2745 2773 2774 2771 2482 
2483 2497 2496 2747 2775 2776 2773 2483 2484 
2498 2497 2749 2777 2778 2775 2484 2485 2499 
2498 2751 2779 2780 2777 2485 2486 2500 2499 
2753 2781 2782 2779 2486 2487 2501 2500 2755 
2783 2784 2781 2487 2488 2502 2501 2757 2785 
2786 2783 2488 2489 2503 2502 2759 2787 2788 
2785 2489 116 115 2503 2760 130 2789 2787 
86 2490 2504 85 2762 2790 2791 100 2490 
2491 2505 2504 2764 2792 2793 2790 2491 2492 
2506 2505 2766 2794 2795 2792 2492 2493 2507 
2506 2768 2796 2797 2794 2493 2494 2508 2507 
2770 2798 2799 2796 2494 2495 2509 2508 2772 
2800 2801 2798 2495 2496 2510 2509 2774 2802 
2803 2800 2496 2497 2511 2510 2776 2804 2805 
2802 2497 2498 2512 2511 2778 2806 2807 2804 
2498 2499 2513 2512 2780 2808 2809 2806 2499 
2500 2514 2513 2782 2810 2811 2808 2500 2501 
2515 2514 2784 2812 2813 2810 2501 2502 2516 
2515 2786 2814 2815 2812 2502 2503 2517 2516 
2788 2816 2817 2814 2503 115 114 2517 2789 
129 2818 2816 85 2504 2518 84 2791 2819 
2820 99 2504 2505 2519 2518 2793 2821 2822 
2819 2505 2506 2520 2519 2795 2823 2824 2821 
2506 2507 2521 2520 2797 2825 2826 2823 2507 
2508 2522 2521 2799 2827 2828 2825 2508 2509 
2523 2522 2801 2829 2830 2827 2509 2510 2524 
2523 2803 2831 2832 2829 2510 2511 2525 2524 
2805 2833 2834 2831 2511 2512 2526 2525 2807 
2835 2836 2833 2512 2513 2527 2526 2809 2837 
2838 2835 2513 2514 2528 2527 2811 2839 2840 
2837 2514 2515 2529 2528 2813 2841 2842 2839 
2515 2516 2530 2529 2815 2843 2844 2841 2516 
2517 2531 2530 2817 2845 2846 2843 2517 114 
113 2531 2818 128 2847 2845 84 2518 2532 
83 2820 2848 2849 98 2518 2519 2533 2532 
2822 2850 2851 2848 2519 2520 2534 2533 2824 
2852 2853 2850 2520 2521 2535 2534 2826 2854 
2855 2852 2521 2522 2536 2535 2828 2856 2857 
2854 2522 2523 2537 2536 2830 2858 2859 2856 
2523 2524 2538 2537 2832 2860 2861 2858 2524 
2525 2539 2538 2834 2862 2863 2860 2525 2526 
2540 2539 2836 2864 2865 2862 2526 2527 2541 
2540 2838 2866 2867 2864 2527 2528 2542 2541 
2840 2868 2869 2866 2528 2529 2543 2542 2842 
2870 2871 2868 2529 2530 2544 2543 2844 2872 
2873 2870 2530 2531 2545 2544 2846 2874 2875 
2872 2531 113 112 2545 2847 127 2876 2874 
83 2532 2546 82 2849 2877 2878 97 2532 
2533 2547 2546 2851 2879 2880 2877 2533 2534 
2548 2547 2853 2881 2882 2879 2534 2535 2549 
2548 2855 2883 2884 2881 2535 2536 2550 2549 
2857 2885 2886 2883 2536 2537 2551 2550 2859 
2887 2888 2885 2537 2538 2552 2551 2861 2889 
2890 2887 2538 2539 2553 2552 2863 2891 2892 
2889 2539 2540 2554 2553 2865 2893 2894 2891 
2540 2541 2555 2554 2867 2895 2896 2893 2541 
2542 2556 2555 2869 2897 2898 2895 2542 2543 
2557 2556 2871 2899 2900 2897 2543 2544 2558 
2557 2873 2901 2902 2899 2544 2545 2559 2558 
2875 2903 2904 2901 2545 112 111 2559 2876 
126 2905 2903 82 2546 2560 81 2878 2906 
2907 96 2546 2547 2561 2560 2880 2908 2909 
2906 2547 2548 2562 2561 2882 2910 2911 2908 
2548 2549 2563 2562 2884 2912 2913 2910 2549 
2550 2564 2563 2886 2914 2915 2912 2550 2551 
2565 2564 2888 2916 2917 2914 2551 2552 2566 
2565 2890 2918 2919 2916 2552 2553 2567 2566 
2892 2920 2921 2918 2553 2554 2568 2567 2894 
2922 2923 2920 2554 2555 2569 2568 2896 2924 
2925 2922 2555 2556 2570 2569 2898 2926 2927 
2924 2556 2557 2571 2570 2900 2928 2929 2926 
2557 2558 2572 2571 2902 2930 2931 2928 2558 
2559 2573 2572 2904 2932 2933 2930 2559 111 
110 2573 2905 125 2934 2932 81 2560 2574 
80 2907 2935 2936 95 2560 2561 2575 2574 
2909 2937 2938 2935 2561 2562 2576 2575 2911 
2939 2940 2937 2562 2563 2577 2576 2913 2941 
2942 2939 2563 2564 2578 2577 2915 2943 2944 
2941 2564 2565 2579 2578 2917 2945 2946 2943 
2565 2566 2580 2579 2919 2947 2948 2945 2566 
2567 2581 2580 2921 2949 2950 2947 2567 2568 
2582 2581 2923 2951 2952 2949 2568 2569 2583 
2582 2925 2953 2954 2951 2569 2570 2584 2583 
2927 2955 2956 2953 2570 2571 2585 2584 2929 
2957 2958 2955 2571 2572 2586 2585 2931 2959 
2960 2957 2572 2573 2587 2586 2933 2961 2962 
2959 2573 110 109 2587 2934 124 2963 2961 
80 2574 2588 79 2936 2964 2965 94 2574 
2575 2589 2588 2938 2966 2967 2964 2575 2576 
2590 2589 2940 2968 2969 2966 2576 2577 2591 
2590 2942 2970 2971 2968 2577 2578 2592 2591 
2944 2972 2973 2970 2578 2579 2593 2592 2946 
2974 2975 2972 2579 2580 2594 2593 2948 2976 
2977 2974 2580 2581 2595 2594 2950 2978 2979 
2976 2581 2582 2596 2595 2952 2980 2981 2978 
2582 2583 2597 2596 2954 2982 2983 2980 2583 
2584 2598 2597 2956 2984 2985 2982 2584 2585 
2599 2598 2958 2986 2987 2984 2585 2586 2600 
2599 2960 2988 2989 2986 2586 2587 2601 2600 
2962 2990 2991 2988 2587 109 108 2601 2963 
123 2992 2990 79 2588 2602 78 2965 2993 
2994 93 2588 2589 2603 2602 2967 2995 2996 
2993 2589 2590 2604 2603 2969 2997 2998 2995 
2590 2591 2605 2604 2971 2999 3000 2997 2591 
2592 2606 2605 2973 3001 3002 2999 2592 2593 
2607 2606 2975 3003 3004 3001 2593 2594 2608 
2607 2977 3005 3006 3003 2594 2595 2609 2608 
2979 3007 3008 3005 2595 2596 2610 2609 2981 
3009 3010 3007 2596 2597 2611 2610 2983 3011 
3012 3009 2597 2598 2612 2611 2985 3013 3014 
3011 2598 2599 2613 2612 2987 3015 3016 3013 
2599 2600 2614 2613 2989 3017 3018 3015 2600 
2601 2615 2614 2991 3019 3020 3017 2601 108 
107 2615 2992 122 3021 3019 78 2602 310 
6 2994 3022 324 92 2602 2603 311 310 
2996 3023 325 3022 2603 2604 312 311 2998 
3024 326 3023 2604 2605 313 312 3000 3025 
327 3024 2605 2606 314 313 3002 3026 328 
3025 2606 2607 315 314 3004 3027 329 3026 
2607 2608 316 315 3006 3028 330 3027 2608 
2609 317 316 3008 3029 331 3028 2609 2610 
318 317 3010 3030 332 3029 2610 2611 319 
318 3012 3031 333 3030 2611 2612 320 319 
3014 3032 334 3031 2612 2613 321 320 3016 
3033 335 3032 2613 2614 322 321 3018 3034 
336 3033 2614 2615 323 322 3020 3035 337 
3034 2615 107 7 323 3021 121 338 3035 
3 223 3036 120 237 3232 3233 135 223 
224 3037 3036 238 3234 3235 3232 224 225 
3038 3037 239 3236 3237 3234 225 226 3039 
3038 240 3238 3239 3236 226 227 3040 3039 
241 3240 3241 3238 227 228 3041 3040 242 
3242 3243 3240 228 229 3042 3041 243 3244 
3245 3242 229 230 3043 3042 244 3246 3247 
3244 230 231 3044 3043 245 3248 3249 3246 
231 232 3045 3044 246 3250 3251 3248 232 
233 3046 3045 247 3252 3253 3250 233 234 
3047 3046 248 3254 3255 3252 234 235 3048 
3047 249 3256 3257 3254 235 236 3049 3048 
250 3258 3259 3256 236 0 33 3049 251 
48 3260 3258 120 3036 3050 119 3233 3261 
3262 134 3036 3037 3051 3050 3235 3263 3264 
3261 3037 3038 3052 3051 3237 3265 3266 3263 
3038 3039 3053 3052 3239 3267 3268 3265 3039 
3040 3054 3053 3241 3269 3270 3267 3040 3041 
3055 3054 3243 3271 3272 3269 3041 3042 3056 
3055 3245 3273 3274 3271 3042 3043 3057 3056 
3247 3275 3276 3273 3043 3044 3058 3057 3249 
3277 3278 3275 3044 3045 3059 3058 3251 3279 
3280 3277 3045 3046 3060 3059 3253 3281 3282 
3279 3046 3047 3061 3060 3255 3283 3284 3281 
3047 3048 3062 3061 3257 3285 3286 3283 3048 
3049 3063 3062 3259 3287 3288 3285 3049 33 
32 3063 3260 47 3289 3287 119 3050 3064 
118 3262 3290 3291 133 3050 3051 3065 3064 
3264 3292 3293 3290 3051 3052 3066 3065 3266 
3294 3295 3292 3052 3053 3067 3066 3268 3296 
3297 3294 3053 3054 3068 3067 3270 3298 3299 
3296 3054 3055 3069 3068 3272 3300 3301 3298 
3055 3056 3070 3069 3274 3302 3303 3300 3056 
3057 3071 3070 3276 3304 3305 3302 3057 3058 
3072 3071 3278 3306 3307 3304 3058 3059 3073 
3072 3280 3308 3309 3306 3059 3060 3074 3073 
3282 3310 3311 3308 3060 3061 3075 3074 3284 
3312 3313 3310 3061 3062 3076 3075 3286 3314 
3315 3312 3062 3063 3077 3076 3288 3316 3317 
3314 3063 32 31 3077 3289 46 3318 3316 
118 3064 3078 117 3291 3319 3320 132 3064 
3065 3079 3078 3293 3321 3322 3319 3065 3066 
3080 3079 3295 3323 3324 3321 3066 3067 3081 
3080 3297 3325 3326 3323 3067 3068 3082 3081 
3299 3327 3328 3325 3068 3069 3083 3082 3301 
3329 3330 3327 3069 3070 3084 3083 3303 3331 
3332 3329 3070 3071 3085 3084 3305 3333 3334 
3331 3071 3072 3086 3085 3307 3335 3336 3333 
3072 3073 3087 3086 3309 3337 3338 3335 3073 
3074 3088 3087 3311 3339 3340 3337 3074 3075 
3089 3088 3313 3341 3342 3339 3075 3076 3090 
3089 3315 3343 3344 3341 3076 3077 3091 3090 
3317 3345 3346 3343 3077 31 30 3091 3318 
45 3347 3345 117 3078 3092 116 3320 3348 
3349 131 3078 3079 3093 3092 3322 3350 3351 
3348 3079 3080 3094 3093 3324 3352 3353 3350 
3080 3081 3095 3094 3326 3354 3355 3352 3081 
3082 3096 3095 3328 3356 3357 3354 3082 3083 
3097 3096 3330 3358 3359 3356 3083 3084 3098 
3097 3332 3360 3361 3358 3084 3085 3099 3098 
3334 3362 3363 3360 3085 3086 3100 3099 3336 
3364 3365 3362 3086 3087 3101 3100 3338 3366 
3367 3364 3087 3088 3102 3101 3340 3368 3369 
3366 3088 3089 3103 3102 3342 3370 3371 3368 
3089 3090 3104 3103 3344 3372 3373 3370 3090 
3091 3105 3104 3346 3374 3375 3372 3091 30 
29 3105 3347 44 3376 3374 116 3092 3106 
115 3349 3377 3378 130 3092 3093 3107 3106 
3351 3379 3380 3377 3093 3094 3108 3107 3353 
3381 3382 3379 3094 3095 3109 3108 3355 3383 
3384 3381 3095 3096 3110 3109 3357 3385 3386 
3383 3096 3097 3111 3110 3359 3387 3388 3385 
3097 3098 3112 3111 3361 3389 3390 3387 3098 
3099 3113 3112 3363 3391 3392 3389 3099 3100 
3114 3113 3365 3393 3394 3391 3100 3101 3115 
3114 3367 3395 3396 3393 3101 3102 3116 3115 
3369 3397 3398 3395 3102 3103 3117 3116 3371 
3399 3400 3397 3103 3104 3118 3117 3373 3401 
3402 3399 3104 3105 3119 3118 3375 3403 3404 
3401 3105 29 28 3119 3376 43 3405 3403 
115 3106 3120 114 3378 3406 3407 129 3106 
3107 3121 3120 3380 3408 3409 3406 3107 3108 
3122 3121 3382 3410 3411 3408 3108 3109 3123 
3122 3384 3412 3413 3410 3109 3110 3124 3123 
3386 3414 3415 3412 3110 3111 3125 3124 3388 
3416 3417 3414 3111 3112 3126 3125 3390 3418 
3419 3416 3112 3113 3127 3126 3392 3420 3421 
3418 3113 3114 3128 3127 3394 3422 3423 3420 
3114 3115 3129 3128 3396 3424 3425 3422 3115 
3116 3130 3129 3398 3426 3427 3424 3116 3117 
3131 3130 3400 3428 3429 3426 3117 3118 3132 
3131 3402 3430 3431 3428 3118 3119 3133 3132 
3404 3432 3433 3430 3119 28 27 3133 3405 
42 3434 3432 114 3120 3134 113 3407 3435 
3436 128 3120 3121 3135 3134 3409 3437 3438 
3435 3121 3122 3136 3135 3411 3439 3440 3437 
3122 3123 3137 3136 3413 3441 3442 3439 3123 
3124 3138 3137 3415 3443 3444 3441 3124 3125 
3139 3138 3417 3445 3446 3443 3125 3126 3140 
3139 3419 3447 3448 3445 3126 3127 3141 3140 
3421 3449 3450 3447 3127 3128 3142 3141 3423 
3451 3452 3449 3128 3129 3143 3142 3425 3453 
3454 3451 3129 3130 3144 3143 3427 3455 3456 
3453 3130 3131 3145 3144 3429 3457 3458 3455 
3131 3132 3146 3145 3431 3459 3460 3457 3132 
3133 3147 3146 3433 3461 3462 3459 3133 27 
26 3147 3434 41 3463 3461 113 3134 3148 
112 3436 3464 3465 127 3134 3135 3149 3148 
3438 3466 3467 3464 3135 3136 3150 3149 3440 
3468 3469 3466 3136 3137 3151 3150 3442 3470 
3471 3468 3137 3138 3152 3151 3444 3472 3473 
3470 3138 3139 3153 3152 3446 3474 3475 3472 
3139 3140 3154 3153 3448 3476 3477 3474 3140 
3141 3155 3154 3450 3478 3479 3476 3141 3142 
3156 3155 3452 3480 3481 3478 3142 3143 3157 
3156 3454 3482 3483 3480 3143 3144 3158 3157 
3456 3484 3485 3482 3144 3145 3159 3158 3458 
3486 3487 3484 3145 3146 3160 3159 3460 3488 
3489 3486 3146 3147 3161 3160 3462 3490 3491 
3488 3147 26 25 3161 3463 40 3492 3490 
112 3148 3162 111 3465 3493 3494 126 3148 
3149 3163 3162 3467 3495 3496 3493 3149 3150 
3164 3163 3469 3497 3498 3495 3150 3151 3165 
3164 3471 3499 3500 3497 3151 3152 3166 3165 
3473 3501 3502 3499 3152 3153 3167 3166 3475 
3503 3504 3501 3153 3154 3168 3167 3477 3505 
3506 3503 3154 3155 3169 3168 3479 3507 3508 
3505 3155 3156 3170 3169 3481 3509 3510 3507 
3156 3157 3171 3170 3483 3511 3512 3509 3157 
3158 3172 3171 3485 3513 3514 3511 3158 3159 
3173 3172 3487 3515 3516 3513 3159 3160 3174 
3173 3489 3517 3518 3515 3160 3161 3175 3174 
3491 3519 3520 3517 3161 25 24 3175 3492 
39 3521 3519 111 3162 3176 110 3494 3522 
3523 125 3162 3163 3177 3176 3496 3524 3525 
3522 3163 3164 3178 3177 3498 3526 3527 3524 
3164 3165 3179 3178 3500 3528 3529 3526 3165 
3166 3180 3179 3502 3530 3531 3528 3166 3167 
3181 3180 3504 3532 3533 3530 3167 3168 3182 
3181 3506 3534 3535 3532 3168 3169 3183 3182 
3508 3536 3537 3534 3169 3170 3184 3183 3510 
3538 3539 3536 3170 3171 3185 3184 3512 3540 
3541 3538 3171 3172 3186 3185 3514 3542 3543 
3540 3172 3173 3187 3186 3516 3544 3545 3542 
3173 3174 3188 3187 3518 3546 3547 3544 3174 
3175 3189 3188 3520 3548 3549 3546 3175 24 
23 3189 3521 38 3550 3548 110 3176 3190 
109 3523 3551 3552 124 3176 3177 3191 3190 
3525 3553 3554 3551 3177 3178 3192 3191 3527 
3555 3556 3553 3178 3179 3193 3192 3529 3557 
3558 3555 3179 3180 3194 3193 3531 3559 3560 
3557 3180 3181 3195 3194 3533 3561 3562 3559 
3181 3182 3196 3195 3535 3563 3564 3561 3182 
3183 3197 3196 3537 3565 3566 3563 3183 3184 
3198 3197 3539 3567 3568 3565 3184 3185 3199 
3198 3541 3569 3570 3567 3185 3186 3200 3199 
3543 3571 3572 3569 3186 3187 3201 3200 3545 
3573 3574 3571 3187 3188 3202 3201 3547 3575 
3576 3573 3188 3189 3203 3202 3549 3577 3578 
3575 3189 23 22 3203 3550 37 3579 3577 
109 3190 3204 108 3552 3580 3581 123 3190 
3191 3205 3204 3554 3582 3583 3580 3191 3192 
3206 3205 3556 3584 3585 3582 3192 3193 3207 
3206 3558 3586 3587 3584 3193 3194 3208 3207 
3560 3588 3589 3586 3194 3195 3209 3208 3562 
3590 3591 3588 3195 3196 3210 3209 3564 3592 
3593 3590 3196 3197 3211 3210 3566 3594 3595 
3592 3197 3198 3212 3211 3568 3596 3597 3594 
3198 3199 3213 3212 3570 3598 3599 3596 3199 
3200 3214 3213 3572 3600 3601 3598 3200 3201 
3215 3214 3574 3602 3603 3600 3201 3202 3216 
3215 3576 3604 3605 3602 3202 3203 3217 3216 
3578 3606 3607 3604 3203 22 21 3217 3579 
36 3608 3606 108 3204 3218 107 3581 3609 
3610 122 3204 3205 3219 3218 3583 3611 3612 
3609 3205 3206 3220 3219 3585 3613 3614 3611 
3206 3207 3221 3220 3587 3615 3616 3613 3207 
3208 3222 3221 3589 3617 3618 3615 3208 3209 
3223 3222 3591 3619 3620 3617 3209 3210 3224 
3223 3593 3621 3622 3619 3210 3211 3225 3224 
3595 3623 3624 3621 3211 3212 3226 3225 3597 
3625 3626 3623 3212 3213 3227 3226 3599 3627 
3628 3625 3213 3214 3228 3227 3601 3629 3630 
3627 3214 3215 3229 3228 3603 3631 3632 3629 
3215 3216 3230 3229 3605 3633 3634 3631 3216 
3217 3231 3230 3607 3635 3636 3633 3217 21 
20 3231 3608 35 3637 3635 107 3218 339 
7 3610 3638 353 121 3218 3219 340 339 
3612 3639 354 3638 3219 3220 341 340 3614 
3640 355 3639 3220 3221 342 341 3616 3641 
356 3640 3221 3222 343 342 3618 3642 357 
3641 3222 3223 344 343 3620 3643 358 3642 
3223 3224 345 344 3622 3644 359 3643 3224 
3225 346 345 3624 3645 360 3644 3225 3226 
347 346 3626 3646 361 3645 3226 3227 348 
347 3628 3647 362 3646 3227 3228 349 348 
3630 3648 363 3647 3228 3229 350 349 3632 
3649 364 3648 3229 3230 351 350 3634 3650 
365 3649 3230 3231 352 351 3636 3651 366 
3650 3231 20 4 352 3637 34 367 3651 
8 819 3652 368 835 4072 4073 396 819 
818 3653 3652 834 4074 4075 4072 818 817 
3654 3653 833 4076 4077 4074 817 816 3655 
3654 832 4078 4079 4076 816 815 3656 3655 
831 4080 4081 4078 815 814 3657 3656 830 
4082 4083 4080 814 813 3658 3657 829 4084 
4085 4082 813 812 3659 3658 828 4086 4087 
4084 812 811 3660 3659 827 4088 4089 4086 
811 810 3661 3660 826 4090 4091 4088 810 
809 3662 3661 825 4092 4093 4090 809 808 
3663 3662 824 4094 4095 4092 808 807 3664 
3663 823 4096 4097 4094 807 806 3665 3664 
822 4098 4099 4096 806 805 3666 3665 821 
4100 4101 4098 805 19 1158 3666 820 1187 
4102 4100 368 3652 3667 369 4073 4103 4104 
397 3652 3653 3668 3667 4075 4105 4106 4103 
3653 3654 3669 3668 4077 4107 4108 4105 3654 
3655 3670 3669 4079 4109 4110 4107 3655 3656 
3671 3670 4081 4111 4112 4109 3656 3657 3672 
3671 4083 4113 4114 4111 3657 3658 3673 3672 
4085 4115 4116 4113 3658 3659 3674 3673 4087 
4117 4118 4115 3659 3660 3675 3674 4089 4119 
4120 4117 3660 3661 3676 3675 4091 4121 4122 
4119 3661 3662 3677 3676 4093 4123 4124 4121 
3662 3663 3678 3677 4095 4125 4126 4123 3663 
3664 3679 3678 4097 4127 4128 4125 3664 3665 
3680 3679 4099 4129 4130 4127 3665 3666 3681 
3680 4101 4131 4132 4129 3666 1158 1157 3681 
4102 1186 4133 4131 369 3667 3682 370 4104 
4134 4135 398 3667 3668 3683 3682 4106 4136 
4137 4134 3668 3669 3684 3683 4108 4138 4139 
4136 3669 3670 3685 3684 4110 4140 4141 4138 
3670 3671 3686 3685 4112 4142 4143 4140 3671 
3672 3687 3686 4114 4144 4145 4142 3672 3673 
3688 3687 4116 4146 4147 4144 3673 3674 3689 
3688 4118 4148 4149 4146 3674 3675 3690 3689 
4120 4150 4151 4148 3675 3676 3691 3690 4122 
4152 4153 4150 3676 3677 3692 3691 4124 4154 
4155 4152 3677 3678 3693 3692 4126 4156 4157 
4154 3678 3679 3694 3693 4128 4158 4159 4156 
3679 3680 3695 3694 4130 4160 4161 4158 3680 
3681 3696 3695 4132 4162 4163 4160 3681 1157 
1156 3696 4133 1185 4164 4162 370 3682 3697 
371 4135 4165 4166 399 3682 3683 3698 3697 
4137 4167 4168 4165 3683 3684 3699 3698 4139 
4169 4170 4167 3684 3685 3700 3699 4141 4171 
4172 4169 3685 3686 3701 3700 4143 4173 4174 
4171 3686 3687 3702 3701 4145 4175 4176 4173 
3687 3688 3703 3702 4147 4177 4178 4175 3688 
3689 3704 3703 4149 4179 4180 4177 3689 3690 
3705 3704 4151 4181 4182 4179 3690 3691 3706 
3705 4153 4183 4184 4181 3691 3692 3707 3706 
4155 4185 4186 4183 3692 3693 3708 3707 4157 
4187 4188 4185 3693 3694 3709 3708 4159 4189 
4190 4187 3694 3695 3710 3709 4161 4191 4192 
4189 3695 3696 3711 3710 4163 4193 4194 4191 
3696 1156 1155 3711 4164 1184 4195 4193 371 
3697 3712 372 4166 4196 4197 400 3697 3698 
3713 3712 4168 4198 4199 4196 3698 3699 3714 
3713 4170 4200 4201 4198 3699 3700 3715 3714 
4172 4202 4203 4200 3700 3701 3716 3715 4174 
4204 4205 4202 3701 3702 3717 3716 4176 4206 
4207 4204 3702 3703 3718 3717 4178 4208 4209 
4206 3703 3704 3719 3718 4180 4210 4211 4208 
3704 3705 3720 3719 4182 4212 4213 4210 3705 
3706 3721 3720 4184 4214 4215 4212 3706 3707 
3722 3721 4186 4216 4217 4214 3707 3708 3723 
3722 4188 4218 4219 4216 3708 3709 3724 3723 
4190 4220 4221 4218 3709 3710 3725 3724 4192 
4222 4223 4220 3710 3711 3726 3725 4194 4224 
4225 4222 3711 1155 1154 3726 4195 1183 4226 
4224 372 3712 3727 373 4197 4227 4228 401 
3712 3713 3728 3727 4199 4229 4230 4227 3713 
3714 3729 3728 4201 4231 4232 4229 3714 3715 
3730 3729 4203 4233 4234 4231 3715 3716 3731 
3730 4205 4235 4236 4233 3716 3717 3732 3731 
4207 4237 4238 4235 3717 3718 3733 3732 4209 
4239 4240 4237 3718 3719 3734 3733 4211 4241 
4242 4239 3719 3720 3735 3734 4213 4243 4244 
4241 3720 3721 3736 3735 4215 4245 4246 4243 
3721 3722 3737 3736 4217 4247 4248 4245 3722 
3723 3738 3737 4219 4249 4250 4247 3723 3724 
3739 3738 4221 4251 4252 4249 3724 3725 3740 
3739 4223 4253 4254 4251 3725 3726 3741 3740 
4225 4255 4256 4253 3726 1154 1153 3741 4226 
1182 4257 4255 373 3727 3742 374 4228 4258 
4259 402 3727 3728 3743 3742 4230 4260 4261 
4258 3728 3729 3744 3743 4232 4262 4263 4260 
3729 3730 3745 3744 4234 4264 4265 4262 3730 
3731 3746 3745 4236 4266 4267 4264 3731 3732 
3747 3746 4238 4268 4269 4266 3732 3733 3748 
3747 4240 4270 4271 4268 3733 3734 3749 3748 
4242 4272 4273 4270 3734 3735 3750 3749 4244 
4274 4275 4272 3735 3736 3751 3750 4246 4276 
4277 4274 3736 3737 3752 3751 4248 4278 4279 
4276 3737 3738 3753 3752 4250 4280 4281 4278 
3738 3739 3754 3753 4252 4282 4283 4280 3739 
3740 3755 3754 4254 4284 4285 4282 3740 3741 
3756 3755 4256 4286 4287 4284 3741 1153 1152 
3756 4257 1181 4288 4286 374 3742 3757 375 
4259 4289 4290 403 3742 3743 3758 3757 4261 
4291 4292 4289 3743 3744 3759 3758 4263 4293 
4294 4291 3744 3745 3760 3759 4265 4295 4296 
4293 3745 3746 3761 3760 4267 4297 4298 4295 
3746 3747 3762 3761 4269 4299 4300 4297 3747 
3748 3763 3762 4271 4301 4302 4299 3748 3749 
3764 3763 4273 4303 4304 4301 3749 3750 3765 
3764 4275 4305 4306 4303 3750 3751 3766 3765 
4277 4307 4308 4305 3751 3752 3767 3766 4279 
4309 4310 4307 3752 3753 3768 3767 4281 4311 
4312 4309 3753 3754 3769 3768 4283 4313 4314 
4311 3754 3755 3770 3769 4285 4315 4316 4313 
3755 3756 3771 3770 4287 4317 4318 4315 3756 
1152 1151 3771 4288 1180 4319 4317 375 3757 
3772 376 4290 4320 4321 404 3757 3758 3773 
3772 4292 4322 4323 4320 3758 3759 3774 3773 
4294 4324 4325 4322 3759 3760 3775 3774 4296 
4326 4327 4324 3760 3761 3776 3775 4298 4328 
4329 4326 3761 3762 3777 3776 4300 4330 4331 
4328 3762 3763 3778 3777 4302 4332 4333 4330 
3763 3764 3779 3778 4304 4334 4335 4332 3764 
3765 3780 3779 4306 4336 4337 4334 3765 3766 
3781 3780 4308 4338 4339 4336 3766 3767 3782 
3781 4310 4340 4341 4338 3767 3768 3783 3782 
4312 4342 4343 4340 3768 3769 3784 3783 4314 
4344 4345 4342 3769 3770 3785 3784 4316 4346 
4347 4344 3770 3771 3786 3785 4318 4348 4349 
4346 3771 1151 1150 3786 4319 1179 4350 4348 
376 3772 3787 377 4321 4351 4352 405 3772 
3773 3788 3787 4323 4353 4354 4351 3773 3774 
3789 3788 4325 4355 4356 4353 3774 3775 3790 
3789 4327 4357 4358 4355 3775 3776 3791 3790 
4329 4359 4360 4357 3776 3777 3792 3791 4331 
4361 4362 4359 3777 3778 3793 3792 4333 4363 
4364 4361 3778 3779 3794 3793 4335 4365 4366 
4363 3779 3780 3795 3794 4337 4367 4368 4365 
3780 3781 3796 3795 4339 4369 4370 4367 3781 
3782 3797 3796 4341 4371 4372 4369 3782 3783 
3798 3797 4343 4373 4374 4371 3783 3784 3799 
3798 4345 4375 4376 4373 3784 3785 3800 3799 
4347 4377 4378 4375 3785 3786 3801 3800 4349 
4379 4380 4377 3786 1150 1149 3801 4350 1178 
4381 4379 377 3787 3802 378 4352 4382 4383 
406 3787 3788 3803 3802 4354 4384 4385 4382 
3788 3789 3804 3803 4356 4386 4387 4384 3789 
3790 3805 3804 4358 4388 4389 4386 3790 3791 
3806 3805 4360 4390 4391 4388 3791 3792 3807 
3806 4362 4392 4393 4390 3792 3793 3808 3807 
4364 4394 4395 4392 3793 3794 3809 3808 4366 
4396 4397 4394 3794 3795 3810 3809 4368 4398 
4399 4396 3795 3796 3811 3810 4370 4400 4401 
4398 3796 3797 3812 3811 4372 4402 4403 4400 
3797 3798 3813 3812 4374 4404 4405 4402 3798 
3799 3814 3813 4376 4406 4407 4404 3799 3800 
3815 3814 4378 4408 4409 4406 3800 3801 3816 
3815 4380 4410 4411 4408 3801 1149 1148 3816 
4381 1177 4412 4410 378 3802 3817 379 4383 
4413 4414 407 3802 3803 3818 3817 4385 4415 
4416 4413 3803 3804 3819 3818 4387 4417 4418 
4415 3804 3805 3820 3819 4389 4419 4420 4417 
3805 3806 3821 3820 4391 4421 4422 4419 3806 
3807 3822 3821 4393 4423 4424 4421 3807 3808 
3823 3822 4395 4425 4426 4423 3808 3809 3824 
3823 4397 4427 4428 4425 3809 3810 3825 3824 
4399 4429 4430 4427 3810 3811 3826 3825 4401 
4431 4432 4429 3811 3812 3827 3826 4403 4433 
4434 4431 3812 3813 3828 3827 4405 4435 4436 
4433 3813 3814 3829 3828 4407 4437 4438 4435 
3814 3815 3830 3829 4409 4439 4440 4437 3815 
3816 3831 3830 4411 4441 4442 4439 3816 1148 
1147 3831 4412 1176 4443 4441 379 3817 3832 
380 4414 4444 4445 408 3817 3818 3833 3832 
4416 4446 4447 4444 3818 3819 3834 3833 4418 
4448 4449 4446 3819 3820 3835 3834 4420 4450 
4451 4448 3820 3821 3836 3835 4422 4452 4453 
4450 3821 3822 3837 3836 4424 4454 4455 4452 
3822 3823 3838 3837 4426 4456 4457 4454 3823 
3824 3839 3838 4428 4458 4459 4456 3824 3825 
3840 3839 4430 4460 4461 4458 3825 3826 3841 
3840 4432 4462 4463 4460 3826 3827 3842 3841 
4434 4464 4465 4462 3827 3828 3843 3842 4436 
4466 4467 4464 3828 3829 3844 3843 4438 4468 
4469 4466 3829 3830 3845 3844 4440 4470 4471 
4468 3830 3831 3846 3845 4442 4472 4473 4470 
3831 1147 1146 3846 4443 1175 4474 4472 380 
3832 3847 381 4445 4475 4476 409 3832 3833 
3848 3847 4447 4477 4478 4475 3833 3834 3849 
3848 4449 4479 4480 4477 3834 3835 3850 3849 
4451 4481 4482 4479 3835 3836 3851 3850 4453 
4483 4484 4481 3836 3837 3852 3851 4455 4485 
4486 4483 3837 3838 3853 3852 4457 4487 4488 
4485 3838 3839 3854 3853 4459 4489 4490 4487 
3839 3840 3855 3854 4461 4491 4492 4489 3840 
3841 3856 3855 4463 4493 4494 4491 3841 3842 
3857 3856 4465 4495 4496 4493 3842 3843 3858 
3857 4467 4497 4498 4495 3843 3844 3859 3858 
4469 4499 4500 4497 3844 3845 3860 3859 4471 
4501 4502 4499 3845 3846 3861 3860 4473 4503 
4504 4501 3846 1146 1145 3861 4474 1174 4505 
4503 381 3847 3862 382 4476 4506 4507 410 
3847 3848 3863 3862 4478 4508 4509 4506 3848 
3849 3864 3863 4480 4510 4511 4508 3849 3850 
3865 3864 4482 4512 4513 4510 3850 3851 3866 
3865 4484 4514 4515 4512 3851 3852 3867 3866 
4486 4516 4517 4514 3852 3853 3868 3867 4488 
4518 4519 4516 3853 3854 3869 3868 4490 4520 
4521 4518 3854 3855 3870 3869 4492 4522 4523 
4520 3855 3856 3871 3870 4494 4524 4525 4522 
3856 3857 3872 3871 4496 4526 4527 4524 3857 
3858 3873 3872 4498 4528 4529 4526 3858 3859 
3874 3873 4500 4530 4531 4528 3859 3860 3875 
3874 4502 4532 4533 4530 3860 3861 3876 3875 
4504 4534 4535 4532 3861 1145 1144 3876 4505 
1173 4536 4534 382 3862 3877 383 4507 4537 
4538 411 3862 3863 3878 3877 4509 4539 4540 
4537 3863 3864 3879 3878 4511 4541 4542 4539 
3864 3865 3880 3879 4513 4543 4544 4541 3865 
3866 3881 3880 4515 4545 4546 4543 3866 3867 
3882 3881 4517 4547 4548 4545 3867 3868 3883 
3882 4519 4549 4550 4547 3868 3869 3884 3883 
4521 4551 4552 4549 3869 3870 3885 3884 4523 
4553 4554 4551 3870 3871 3886 3885 4525 4555 
4556 4553 3871 3872 3887 3886 4527 4557 4558 
4555 3872 3873 3888 3887 4529 4559 4560 4557 
3873 3874 3889 3888 4531 4561 4562 4559 3874 
3875 3890 3889 4533 4563 4564 4561 3875 3876 
3891 3890 4535 4565 4566 4563 3876 1144 1143 
3891 4536 1172 4567 4565 383 3877 3892 384 
4538 4568 4569 412 3877 3878 3893 3892 4540 
4570 4571 4568 3878 3879 3894 3893 4542 4572 
4573 4570 3879 3880 3895 3894 4544 4574 4575 
4572 3880 3881 3896 3895 4546 4576 4577 4574 
3881 3882 3897 3896 4548 4578 4579 4576 3882 
3883 3898 3897 4550 4580 4581 4578 3883 3884 
3899 3898 4552 4582 4583 4580 3884 3885 3900 
3899 4554 4584 4585 4582 3885 3886 3901 3900 
4556 4586 4587 4584 3886 3887 3902 3901 4558 
4588 4589 4586 3887 3888 3903 3902 4560 4590 
4591 4588 3888 3889 3904 3903 4562 4592 4593 
4590 3889 3890 3905 3904 4564 4594 4595 4592 
3890 3891 3906 3905 4566 4596 4597 4594 3891 
1143 1142 3906 4567 1171 4598 4596 384 3892 
3907 385 4569 4599 4600 413 3892 3893 3908 
3907 4571 4601 4602 4599 3893 3894 3909 3908 
4573 4603 4604 4601 3894 3895 3910 3909 4575 
4605 4606 4603 3895 3896 3911 3910 4577 4607 
4608 4605 3896 3897 3912 3911 4579 4609 4610 
4607 3897 3898 3913 3912 4581 4611 4612 4609 
3898 3899 3914 3913 4583 4613 4614 4611 3899 
3900 3915 3914 4585 4615 4616 4613 3900 3901 
3916 3915 4587 4617 4618 4615 3901 3902 3917 
3916 4589 4619 4620 4617 3902 3903 3918 3917 
4591 4621 4622 4619 3903 3904 3919 3918 4593 
4623 4624 4621 3904 3905 3920 3919 4595 4625 
4626 4623 3905 3906 3921 3920 4597 4627 4628 
4625 3906 1142 1141 3921 4598 1170 4629 4627 
385 3907 3922 386 4600 4630 4631 414 3907 
3908 3923 3922 4602 4632 4633 4630 3908 3909 
3924 3923 4604 4634 4635 4632 3909 3910 3925 
3924 4606 4636 4637 4634 3910 3911 3926 3925 
4608 4638 4639 4636 3911 3912 3927 3926 4610 
4640 4641 4638 3912 3913 3928 3927 4612 4642 
4643 4640 3913 3914 3929 3928 4614 4644 4645 
4642 3914 3915 3930 3929 4616 4646 4647 4644 
3915 3916 3931 3930 4618 4648 4649 4646 3916 
3917 3932 3931 4620 4650 4651 4648 3917 3918 
3933 3932 4622 4652 4653 4650 3918 3919 3934 
3933 4624 4654 4655 4652 3919 3920 3935 3934 
4626 4656 4657 4654 3920 3921 3936 3935 4628 
4658 4659 4656 3921 1141 1140 3936 4629 1169 
4660 4658 386 3922 3937 387 4631 4661 4662 
415 3922 3923 3938 3937 4633 4663 4664 4661 
3923 3924 3939 3938 4635 4665 4666 4663 3924 
3925 3940 3939 4637 4667 4668 4665 3925 3926 
3941 3940 4639 4669 4670 4667 3926 3927 3942 
3941 4641 4671 4672 4669 3927 3928 3943 3942 
4643 4673 4674 4671 3928 3929 3944 3943 4645 
4675 4676 4673 3929 3930 3945 3944 4647 4677 
4678 4675 3930 3931 3946 3945 4649 4679 4680 
4677 3931 3932 3947 3946 4651 4681 4682 4679 
3932 3933 3948 3947 4653 4683 4684 4681 3933 
3934 3949 3948 4655 4685 4686 4683 3934 3935 
3950 3949 4657 4687 4688 4685 3935 3936 3951 
3950 4659 4689 4690 4687 3936 1140 1139 3951 
4660 1168 4691 4689 387 3937 3952 388 4662 
4692 4693 416 3937 3938 3953 3952 4664 4694 
4695 4692 3938 3939 3954 3953 4666 4696 4697 
4694 3939 3940 3955 3954 4668 4698 4699 4696 
3940 3941 3956 3955 4670 4700 4701 4698 3941 
3942 3957 3956 4672 4702 4703 4700 3942 3943 
3958 3957 4674 4704 4705 4702 3943 3944 3959 
3958 4676 4706 4707 4704 3944 3945 3960 3959 
4678 4708 4709 4706 3945 3946 3961 3960 4680 
4710 4711 4708 3946 3947 3962 3961 4682 4712 
4713 4710 3947 3948 3963 3962 4684 4714 4715 
4712 3948 3949 3964 3963 4686 4716 4717 4714 
3949 3950 3965 3964 4688 4718 4719 4716 3950 
3951 3966 3965 4690 4720 4721 4718 3951 1139 
1138 3966 4691 1167 4722 4720 388 3952 3967 
389 4693 4723 4724 417 3952 3953 3968 3967 
4695 4725 4726 4723 3953 3954 3969 3968 4697 
4727 4728 4725 3954 3955 3970 3969 4699 4729 
4730 4727 3955 3956 3971 3970 4701 4731 4732 
4729 3956 3957 3972 3971 4703 4733 4734 4731 
3957 3958 3973 3972 4705 4735 4736 4733 3958 
3959 3974 3973 4707 4737 4738 4735 3959 3960 
3975 3974 4709 4739 4740 4737 3960 3961 3976 
3975 4711 4741 4742 4739 3961 3962 3977 3976 
4713 4743 4744 4741 3962 3963 3978 3977 4715 
4745 4746 4743 3963 3964 3979 3978 4717 4747 
4748 4745 3964 3965 3980 3979 4719 4749 4750 
4747 3965 3966 3981 3980 4721 4751 4752 4749 
3966 1138 1137 3981 4722 1166 4753 4751 389 
3967 3982 390 4724 4754 4755 418 3967 3968 
3983 3982 4726 4756 4757 4754 3968 3969 3984 
3983 4728 4758 4759 4756 3969 3970 3985 3984 
4730 4760 4761 4758 3970 3971 3986 3985 4732 
4762 4763 4760 3971 3972 3987 3986 4734 4764 
4765 4762 3972 3973 3988 3987 4736 4766 4767 
4764 3973 3974 3989 3988 4738 4768 4769 4766 
3974 3975 3990 3989 4740 4770 4771 4768 3975 
3976 3991 3990 4742 4772 4773 4770 3976 3977 
3992 3991 4744 4774 4775 4772 3977 3978 3993 
3992 4746 4776 4777 4774 3978 3979 3994 3993 
4748 4778 4779 4776 3979 3980 3995 3994 4750 
4780 4781 4778 3980 3981 3996 3995 4752 4782 
4783 4780 3981 1137 1136 3996 4753 1165 4784 
4782 390 3982 3997 391 4755 4785 4786 419 
3982 3983 3998 3997 4757 4787 4788 4785 3983 
3984 3999 3998 4759 4789 4790 4787 3984 3985 
4000 3999 4761 4791 4792 4789 3985 3986 4001 
4000 4763 4793 4794 4791 3986 3987 4002 4001 
4765 4795 4796 4793 3987 3988 4003 4002 4767 
4797 4798 4795 3988 3989 4004 4003 4769 4799 
4800 4797 3989 3990 4005 4004 4771 4801 4802 
4799 3990 3991 4006 4005 4773 4803 4804 4801 
3991 3992 4007 4006 4775 4805 4806 4803 3992 
3993 4008 4007 4777 4807 4808 4805 3993 3994 
4009 4008 4779 4809 4810 4807 3994 3995 4010 
4009 4781 4811 4812 4809 3995 3996 4011 4010 
4783 4813 4814 4811 3996 1136 1135 4011 4784 
1164 4815 4813 391 3997 4012 392 4786 4816 
4817 420 3997 3998 4013 4012 4788 4818 4819 
4816 3998 3999 4014 4013 4790 4820 4821 4818 
3999 4000 4015 4014 4792 4822 4823 4820 4000 
4001 4016 4015 4794 4824 4825 4822 4001 4002 
4017 4016 4796 4826 4827 4824 4002 4003 4018 
4017 4798 4828 4829 4826 4003 4004 4019 4018 
4800 4830 4831 4828 4004 4005 4020 4019 4802 
4832 4833 4830 4005 4006 4021 4020 4804 4834 
4835 4832 4006 4007 4022 4021 4806 4836 4837 
4834 4007 4008 4023 4022 4808 4838 4839 4836 
4008 4009 4024 4023 4810 4840 4841 4838 4009 
4010 4025 4024 4812 4842 4843 4840 4010 4011 
4026 4025 4814 4844 4845 4842 4011 1135 1134 
4026 4815 1163 4846 4844 392 4012 4027 393 
4817 4847 4848 421 4012 4013 4028 4027 4819 
4849 4850 4847 4013 4014 4029 4028 4821 4851 
4852 4849 4014 4015 4030 4029 4823 4853 4854 
4851 4015 4016 4031 4030 4825 4855 4856 4853 
4016 4017 4032 4031 4827 4857 4858 4855 4017 
4018 4033 4032 4829 4859 4860 4857 4018 4019 
4034 4033 4831 4861 4862 4859 4019 4020 4035 
4034 4833 4863 4864 4861 4020 4021 4036 4035 
4835 4865 4866 4863 4021 4022 4037 4036 4837 
4867 4868 4865 4022 4023 4038 4037 4839 4869 
4870 4867 4023 4024 4039 4038 4841 4871 4872 
4869 4024 4025 4040 4039 4843 4873 4874 4871 
4025 4026 4041 4040 4845 4875 4876 4873 4026 
1134 1133 4041 4846 1162 4877 4875 393 4027 
4042 394 4848 4878 4879 422 4027 4028 4043 
4042 4850 4880 4881 4878 4028 4029 4044 4043 
4852 4882 4883 4880 4029 4030 4045 4044 4854 
4884 4885 4882 4030 4031 4046 4045 4856 4886 
4887 4884 4031 4032 4047 4046 4858 4888 4889 
4886 4032 4033 4048 4047 4860 4890 4891 4888 
4033 4034 4049 4048 4862 4892 4893 4890 4034 
4035 4050 4049 4864 4894 4895 4892 4035 4036 
4051 4050 4866 4896 4897 4894 4036 4037 4052 
4051 4868 4898 4899 4896 4037 4038 4053 4052 
4870 4900 4901 4898 4038 4039 4054 4053 4872 
4902 4903 4900 4039 4040 4055 4054 4874 4904 
4905 4902 4040 4041 4056 4055 4876 4906 4907 
4904 4041 1133 1132 4056 4877 1161 4908 4906 
394 4042 4057 395 4879 4909 4910 423 4042 
4043 4058 4057 4881 4911 4912 4909 4043 4044 
4059 4058 4883 4913 4914 4911 4044 4045 4060 
4059 4885 4915 4916 4913 4045 4046 4061 4060 
4887 4917 4918 4915 4046 4047 4062 4061 4889 
4919 4920 4917 4047 4048 4063 4062 4891 4921 
4922 4919 4048 4049 4064 4063 4893 4923 4924 
4921 4049 4050 4065 4064 4895 4925 4926 4923 
4050 4051 4066 4065 4897 4927 4928 4925 4051 
4052 4067 4066 4899 4929 4930 4927 4052 4053 
4068 4067 4901 4931 4932 4929 4053 4054 4069 
4068 4903 4933 4934 4931 4054 4055 4070 4069 
4905 4935 4936 4933 4055 4056 4071 4070 4907 
4937 4938 4935 4056 1132 1131 4071 4908 1160 
4939 4937 395 4057 850 9 4910 4940 866 
424 4057 4058 849 850 4912 4941 865 4940 
4058 4059 848 849 4914 4942 864 4941 4059 
4060 847 848 4916 4943 863 4942 4060 4061 
846 847 4918 4944 862 4943 4061 4062 845 
846 4920 4945 861 4944 4062 4063 844 845 
4922 4946 860 4945 4063 4064 843 844 4924 
4947 859 4946 4064 4065 842 843 4926 4948 
858 4947 4065 4066 841 842 4928 4949 857 
4948 4066 4067 840 841 4930 4950 856 4949 
4067 4068 839 840 4932 4951 855 4950 4068 
4069 838 839 4934 4952 854 4951 4069 4070 
837 838 4936 4953 853 4952 4070 4071 836 
837 4938 4954 852 4953 4071 1131 4 836 
4939 1159 851 4954 9 850 4955 425 866 
5165 5166 439 850 849 4956 4955 865 5167 
5168 5165 849 848 4957 4956 864 5169 5170 
5167 848 847 4958 4957 863 5171 5172 5169 
847 846 4959 4958 862 5173 5174 5171 846 
845 4960 4959 861 5175 5176 5173 845 844 
4961 4960 860 5177 5178 5175 844 843 4962 
4961 859 5179 5180 5177 843 842 4963 4962 
858 5181 5182 5179 842 841 4964 4963 857 
5183 5184 5181 841 840 4965 4964 856 5185 
5186 5183 840 839 4966 4965 855 5187 5188 
5185 839 838 4967 4966 854 5189 5190 5187 
838 837 4968 4967 853 5191 5192 5189 837 
836 4969 4968 852 5193 5194 5191 836 4 
252 4969 851 266 5195 5193 425 4955 4970 
426 5166 5196 5197 440 4955 4956 4971 4970 
5168 5198 5199 5196 4956 4957 4972 4971 5170 
5200 5201 5198 4957 4958 4973 4972 5172 5202 
5203 5200 4958 4959 4974 4973 5174 5204 5205 
5202 4959 4960 4975 4974 5176 5206 5207 5204 
4960 4961 4976 4975 5178 5208 5209 5206 4961 
4962 4977 4976 5180 5210 5211 5208 4962 4963 
4978 4977 5182 5212 5213 5210 4963 4964 4979 
4978 5184 5214 5215 5212 4964 4965 4980 4979 
5186 5216 5217 5214 4965 4966 4981 4980 5188 
5218 5219 5216 4966 4967 4982 4981 5190 5220 
5221 5218 4967 4968 4983 4982 5192 5222 5223 
5220 4968 4969 4984 4983 5194 5224 5225 5222 
4969 252 253 4984 5195 267 5226 5224 426 
4970 4985 427 5197 5227 5228 441 4970 4971 
4986 4985 5199 5229 5230 5227 4971 4972 4987 
4986 5201 5231 5232 5229 4972 4973 4988 4987 
5203 5233 5234 5231 4973 4974 4989 4988 5205 
5235 5236 5233 4974 4975 4990 4989 5207 5237 
5238 5235 4975 4976 4991 4990 5209 5239 5240 
5237 4976 4977 4992 4991 5211 5241 5242 5239 
4977 4978 4993 4992 5213 5243 5244 5241 4978 
4979 4994 4993 5215 5245 5246 5243 4979 4980 
4995 4994 5217 5247 5248 5245 4980 4981 4996 
4995 5219 5249 5250 5247 4981 4982 4997 4996 
5221 5251 5252 5249 4982 4983 4998 4997 5223 
5253 5254 5251 4983 4984 4999 4998 5225 5255 
5256 5253 4984 253 254 4999 5226 268 5257 
5255 427 4985 5000 428 5228 5258 5259 442 
4985 4986 5001 5000 5230 5260 5261 5258 4986 
4987 5002 5001 5232 5262 5263 5260 4987 4988 
5003 5002 5234 5264 5265 5262 4988 4989 5004 
5003 5236 5266 5267 5264 4989 4990 5005 5004 
5238 5268 5269 5266 4990 4991 5006 5005 5240 
5270 5271 5268 4991 4992 5007 5006 5242 5272 
5273 5270 4992 4993 5008 5007 5244 5274 5275 
5272 4993 4994 5009 5008 5246 5276 5277 5274 
4994 4995 5010 5009 5248 5278 5279 5276 4995 
4996 5011 5010 5250 5280 5281 5278 4996 4997 
5012 5011 5252 5282 5283 5280 4997 4998 5013 
5012 5254 5284 5285 5282 4998 4999 5014 5013 
5256 5286 5287 5284 4999 254 255 5014 5257 
269 5288 5286 428 5000 5015 429 5259 5289 
5290 443 5000 5001 5016 5015 5261 5291 5292 
5289 5001 5002 5017 5016 5263 5293 5294 5291 
5002 5003 5018 5017 5265 5295 5296 5293 5003 
5004 5019 5018 5267 5297 5298 5295 5004 5005 
5020 5019 5269 5299 5300 5297 5005 5006 5021 
5020 5271 5301 5302 5299 5006 5007 5022 5021 
5273 5303 5304 5301 5007 5008 5023 5022 5275 
5305 5306 5303 5008 5009 5024 5023 5277 5307 
5308 5305 5009 5010 5025 5024 5279 5309 5310 
5307 5010 5011 5026 5025 5281 5311 5312 5309 
5011 5012 5027 5026 5283 5313 5314 5311 5012 
5013 5028 5027 5285 5315 5316 5313 5013 5014 
5029 5028 5287 5317 5318 5315 5014 255 256 
5029 5288 270 5319 5317 429 5015 5030 430 
5290 5320 5321 444 5015 5016 5031 5030 5292 
5322 5323 5320 5016 5017 5032 5031 5294 5324 
5325 5322 5017 5018 5033 5032 5296 5326 5327 
5324 5018 5019 5034 5033 5298 5328 5329 5326 
5019 5020 5035 5034 5300 5330 5331 5328 5020 
5021 5036 5035 5302 5332 5333 5330 5021 5022 
5037 5036 5304 5334 5335 5332 5022 5023 5038 
5037 5306 5336 5337 5334 5023 5024 5039 5038 
5308 5338 5339 5336 5024 5025 5040 5039 5310 
5340 5341 5338 5025 5026 5041 5040 5312 5342 
5343 5340 5026 5027 5042 5041 5314 5344 5345 
5342 5027 5028 5043 5042 5316 5346 5347 5344 
5028 5029 5044 5043 5318 5348 5349 5346 5029 
256 257 5044 5319 271 5350 5348 430 5030 
5045 431 5321 5351 5352 445 5030 5031 5046 
5045 5323 5353 5354 5351 5031 5032 5047 5046 
5325 5355 5356 5353 5032 5033 5048 5047 5327 
5357 5358 5355 5033 5034 5049 5048 5329 5359 
5360 5357 5034 5035 5050 5049 5331 5361 5362 
5359 5035 5036 5051 5050 5333 5363 5364 5361 
5036 5037 5052 5051 5335 5365 5366 5363 5037 
5038 5053 5052 5337 5367 5368 5365 5038 5039 
5054 5053 5339 5369 5370 5367 5039 5040 5055 
5054 5341 5371 5372 5369 5040 5041 5056 5055 
5343 5373 5374 5371 5041 5042 5057 5056 5345 
5375 5376 5373 5042 5043 5058 5057 5347 5377 
5378 5375 5043 5044 5059 5058 5349 5379 5380 
5377 5044 257 258 5059 5350 272 5381 5379 
431 5045 5060 432 5352 5382 5383 446 5045 
5046 5061 5060 5354 5384 5385 5382 5046 5047 
5062 5061 5356 5386 5387 5384 5047 5048 5063 
5062 5358 5388 5389 5386 5048 5049 5064 5063 
5360 5390 5391 5388 5049 5050 5065 5064 5362 
5392 5393 5390 5050 5051 5066 5065 5364 5394 
5395 5392 5051 5052 5067 5066 5366 5396 5397 
5394 5052 5053 5068 5067 5368 5398 5399 5396 
5053 5054 5069 5068 5370 5400 5401 5398 5054 
5055 5070 5069 5372 5402 5403 5400 5055 5056 
5071 5070 5374 5404 5405 5402 5056 5057 5072 
5071 5376 5406 5407 5404 5057 5058 5073 5072 
5378 5408 5409 5406 5058 5059 5074 5073 5380 
5410 5411 5408 5059 258 259 5074 5381 273 
5412 5410 432 5060 5075 433 5383 5413 5414 
447 5060 5061 5076 5075 5385 5415 5416 5413 
5061 5062 5077 5076 5387 5417 5418 5415 5062 
5063 5078 5077 5389 5419 5420 5417 5063 5064 
5079 5078 5391 5421 5422 5419 5064 5065 5080 
5079 5393 5423 5424 5421 5065 5066 5081 5080 
5395 5425 5426 5423 5066 5067 5082 5081 5397 
5427 5428 5425 5067 5068 5083 5082 5399 5429 
5430 5427 5068 5069 5084 5083 5401 5431 5432 
5429 5069 5070 5085 5084 5403 5433 5434 5431 
5070 5071 5086 5085 5405 5435 5436 5433 5071 
5072 5087 5086 5407 5437 5438 5435 5072 5073 
5088 5087 5409 5439 5440 5437 5073 5074 5089 
5088 5411 5441 5442 5439 5074 259 260 5089 
5412 274 5443 5441 433 5075 5090 434 5414 
5444 5445 448 5075 5076 5091 5090 5416 5446 
5447 5444 5076 5077 5092 5091 5418 5448 5449 
5446 5077 5078 5093 5092 5420 5450 5451 5448 
5078 5079 5094 5093 5422 5452 5453 5450 5079 
5080 5095 5094 5424 5454 5455 5452 5080 5081 
5096 5095 5426 5456 5457 5454 5081 5082 5097 
5096 5428 5458 5459 5456 5082 5083 5098 5097 
5430 5460 5461 5458 5083 5084 5099 5098 5432 
5462 5463 5460 5084 5085 5100 5099 5434 5464 
5465 5462 5085 5086 5101 5100 5436 5466 5467 
5464 5086 5087 5102 5101 5438 5468 5469 5466 
5087 5088 5103 5102 5440 5470 5471 5468 5088 
5089 5104 5103 5442 5472 5473 5470 5089 260 
261 5104 5443 275 5474 5472 434 5090 5105 
435 5445 5475 5476 449 5090 5091 5106 5105 
5447 5477 5478 5475 5091 5092 5107 5106 5449 
5479 5480 5477 5092 5093 5108 5107 5451 5481 
5482 5479 5093 5094 5109 5108 5453 5483 5484 
5481 5094 5095 5110 5109 5455 5485 5486 5483 
5095 5096 5111 5110 5457 5487 5488 5485 5096 
5097 5112 5111 5459 5489 5490 5487 5097 5098 
5113 5112 5461 5491 5492 5489 5098 5099 5114 
5113 5463 5493 5494 5491 5099 5100 5115 5114 
5465 5495 5496 5493 5100 5101 5116 5115 5467 
5497 5498 5495 5101 5102 5117 5116 5469 5499 
5500 5497 5102 5103 5118 5117 5471 5501 5502 
5499 5103 5104 5119 5118 5473 5503 5504 5501 
5104 261 262 5119 5474 276 5505 5503 435 
5105 5120 436 5476 5506 5507 450 5105 5106 
5121 5120 5478 5508 5509 5506 5106 5107 5122 
5121 5480 5510 5511 5508 5107 5108 5123 5122 
5482 5512 5513 5510 5108 5109 5124 5123 5484 
5514 5515 5512 5109 5110 5125 5124 5486 5516 
5517 5514 5110 5111 5126 5125 5488 5518 5519 
5516 5111 5112 5127 5126 5490 5520 5521 5518 
5112 5113 5128 5127 5492 5522 5523 5520 5113 
5114 5129 5128 5494 5524 5525 5522 5114 5115 
5130 5129 5496 5526 5527 5524 5115 5116 5131 
5130 5498 5528 5529 5526 5116 5117 5132 5131 
5500 5530 5531 5528 5117 5118 5133 5132 5502 
5532 5533 5530 5118 5119 5134 5133 5504 5534 
5535 5532 5119 262 263 5134 5505 277 5536 
5534 436 5120 5135 437 5507 5537 5538 451 
5120 5121 5136 5135 5509 5539 5540 5537 5121 
5122 5137 5136 5511 5541 5542 5539 5122 5123 
5138 5137 5513 5543 5544 5541 5123 5124 5139 
5138 5515 5545 5546 5543 5124 5125 5140 5139 
5517 5547 5548 5545 5125 5126 5141 5140 5519 
5549 5550 5547 5126 5127 5142 5141 5521 5551 
5552 5549 5127 5128 5143 5142 5523 5553 5554 
5551 5128 5129 5144 5143 5525 5555 5556 5553 
5129 5130 5145 5144 5527 5557 5558 5555 5130 
5131 5146 5145 5529 5559 5560 5557 5131 5132 
5147 5146 5531 5561 5562 5559 5132 5133 5148 
5147 5533 5563 5564 5561 5133 5134 5149 5148 
5535 5565 5566 5563 5134 263 264 5149 5536 
278 5567 5565 437 5135 5150 438 5538 5568 
5569 452 5135 5136 5151 5150 5540 5570 5571 
5568 5136 5137 5152 5151 5542 5572 5573 5570 
5137 5138 5153 5152 5544 5574 5575 5572 5138 
5139 5154 5153 5546 5576 5577 5574 5139 5140 
5155 5154 5548 5578 5579 5576 5140 5141 5156 
5155 5550 5580 5581 5578 5141 5142 5157 5156 
5552 5582 5583 5580 5142 5143 5158 5157 5554 
5584 5585 5582 5143 5144 5159 5158 5556 5586 
5587 5584 5144 5145 5160 5159 5558 5588 5589 
5586 5145 5146 5161 5160 5560 5590 5591 5588 
5146 5147 5162 5161 5562 5592 5593 5590 5147 
5148 5163 5162 5564 5594 5595 5592 5148 5149 
5164 5163 5566 5596 5597 5594 5149 264 265 
5164 5567 279 5598 5596 438 5150 881 10 
5569 5599 897 453 5150 5151 880 881 5571 
5600 896 5599 5151 5152 879 880 5573 5601 
895 5600 5152 5153 878 879 5575 5602 894 
5601 5153 5154 877 878 5577 5603 893 5602 
5154 5155 876 877 5579 5604 892 5603 5155 
5156 875 876 5581 5605 891 5604 5156 5157 
874 875 5583 5606 890 5605 5157 5158 873 
874 5585 5607 889 5606 5158 5159 872 873 
5587 5608 888 5607 5159 5160 871 872 5589 
5609 887 5608 5160 5161 870 871 5591 5610 
886 5609 5161 5162 869 870 5593 5611 885 
5610 5162 5163 868 869 5595 5612 884 5611 
5163 5164 867 868 5597 5613 883 5612 5164 
265 5 867 5598 280 882 5613 10 881 
5614 454 897 6034 6035 482 881 880 5615 
5614 896 6036 6037 6034 880 879 5616 5615 
895 6038 6039 6036 879 878 5617 5616 894 
6040 6041 6038 878 877 5618 5617 893 6042 
6043 6040 877 876 5619 5618 892 6044 6045 
6042 876 875 5620 5619 891 6046 6047 6044 
875 874 5621 5620 890 6048 6049 6046 874 
873 5622 5621 889 6050 6051 6048 873 872 
5623 5622 888 6052 6053 6050 872 871 5624 
5623 887 6054 6055 6052 871 870 5625 5624 
886 6056 6057 6054 870 869 5626 5625 885 
6058 6059 6056 869 868 5627 5626 884 6060 
6061 6058 868 867 5628 5627 883 6062 6063 
6060 867 5 898 5628 882 926 6064 6062 
454 5614 5629 455 6035 6065 6066 483 5614 
5615 5630 5629 6037 6067 6068 6065 5615 5616 
5631 5630 6039 6069 6070 6067 5616 5617 5632 
5631 6041 6071 6072 6069 5617 5618 5633 5632 
6043 6073 6074 6071 5618 5619 5634 5633 6045 
6075 6076 6073 5619 5620 5635 5634 6047 6077 
6078 6075 5620 5621 5636 5635 6049 6079 6080 
6077 5621 5622 5637 5636 6051 6081 6082 6079 
5622 5623 5638 5637 6053 6083 6084 6081 5623 
5624 5639 5638 6055 6085 6086 6083 5624 5625 
5640 5639 6057 6087 6088 6085 5625 5626 5641 
5640 6059 6089 6090 6087 5626 5627 5642 5641 
6061 6091 6092 6089 5627 5628 5643 5642 6063 
6093 6094 6091 5628 898 899 5643 6064 927 
6095 6093 455 5629 5644 456 6066 6096 6097 
484 5629 5630 5645 5644 6068 6098 6099 6096 
5630 5631 5646 5645 6070 6100 6101 6098 5631 
5632 5647 5646 6072 6102 6103 6100 5632 5633 
5648 5647 6074 6104 6105 6102 5633 5634 5649 
5648 6076 6106 6107 6104 5634 5635 5650 5649 
6078 6108 6109 6106 5635 5636 5651 5650 6080 
6110 6111 6108 5636 5637 5652 5651 6082 6112 
6113 6110 5637 5638 5653 5652 6084 6114 6115 
6112 5638 5639 5654 5653 6086 6116 6117 6114 
5639 5640 5655 5654 6088 6118 6119 6116 5640 
5641 5656 5655 6090 6120 6121 6118 5641 5642 
5657 5656 6092 6122 6123 6120 5642 5643 5658 
5657 6094 6124 6125 6122 5643 899 900 5658 
6095 928 6126 6124 456 5644 5659 457 6097 
6127 6128 485 5644 5645 5660 5659 6099 6129 
6130 6127 5645 5646 5661 5660 6101 6131 6132 
6129 5646 5647 5662 5661 6103 6133 6134 6131 
5647 5648 5663 5662 6105 6135 6136 6133 5648 
5649 5664 5663 6107 6137 6138 6135 5649 5650 
5665 5664 6109 6139 6140 6137 5650 5651 5666 
5665 6111 6141 6142 6139 5651 5652 5667 5666 
6113 6143 6144 6141 5652 5653 5668 5667 6115 
6145 6146 6143 5653 5654 5669 5668 6117 6147 
6148 6145 5654 5655 5670 5669 6119 6149 6150 
6147 5655 5656 5671 5670 6121 6151 6152 6149 
5656 5657 5672 5671 6123 6153 6154 6151 5657 
5658 5673 5672 6125 6155 6156 6153 5658 900 
901 5673 6126 929 6157 6155 457 5659 5674 
458 6128 6158 6159 486 5659 5660 5675 5674 
6130 6160 6161 6158 5660 5661 5676 5675 6132 
6162 6163 6160 5661 5662 5677 5676 6134 6164 
6165 6162 5662 5663 5678 5677 6136 6166 6167 
6164 5663 5664 5679 5678 6138 6168 6169 6166 
5664 5665 5680 5679 6140 6170 6171 6168 5665 
5666 5681 5680 6142 6172 6173 6170 5666 5667 
5682 5681 6144 6174 6175 6172 5667 5668 5683 
5682 6146 6176 6177 6174 5668 5669 5684 5683 
6148 6178 6179 6176 5669 5670 5685 5684 6150 
6180 6181 6178 5670 5671 5686 5685 6152 6182 
6183 6180 5671 5672 5687 5686 6154 6184 6185 
6182 5672 5673 5688 5687 6156 6186 6187 6184 
5673 901 902 5688 6157 930 6188 6186 458 
5674 5689 459 6159 6189 6190 487 5674 5675 
5690 5689 6161 6191 6192 6189 5675 5676 5691 
5690 6163 6193 6194 6191 5676 5677 5692 5691 
6165 6195 6196 6193 5677 5678 5693 5692 6167 
6197 6198 6195 5678 5679 5694 5693 6169 6199 
6200 6197 5679 5680 5695 5694 6171 6201 6202 
6199 5680 5681 5696 5695 6173 6203 6204 6201 
5681 5682 5697 5696 6175 6205 6206 6203 5682 
5683 5698 5697 6177 6207 6208 6205 5683 5684 
5699 5698 6179 6209 6210 6207 5684 5685 5700 
5699 6181 6211 6212 6209 5685 5686 5701 5700 
6183 6213 6214 6211 5686 5687 5702 5701 6185 
6215 6216 6213 5687 5688 5703 5702 6187 6217 
6218 6215 5688 902 903 5703 6188 931 6219 
6217 459 5689 5704 460 6190 6220 6221 488 
5689 5690 5705 5704 6192 6222 6223 6220 5690 
5691 5706 5705 6194 6224 6225 6222 5691 5692 
5707 5706 6196 6226 6227 6224 5692 5693 5708 
5707 6198 6228 6229 6226 5693 5694 5709 5708 
6200 6230 6231 6228 5694 5695 5710 5709 6202 
6232 6233 6230 5695 5696 5711 5710 6204 6234 
6235 6232 5696 5697 5712 5711 6206 6236 6237 
6234 5697 5698 5713 5712 6208 6238 6239 6236 
5698 5699 5714 5713 6210 6240 6241 6238 5699 
5700 5715 5714 6212 6242 6243 6240 5700 5701 
5716 5715 6214 6244 6245 6242 5701 5702 5717 
5716 6216 6246 6247 6244 5702 5703 5718 5717 
6218 6248 6249 6246 5703 903 904 5718 6219 
932 6250 6248 460 5704 5719 461 6221 6251 
6252 489 5704 5705 5720 5719 6223 6253 6254 
6251 5705 5706 5721 5720 6225 6255 6256 6253 
5706 5707 5722 5721 6227 6257 6258 6255 5707 
5708 5723 5722 6229 6259 6260 6257 5708 5709 
5724 5723 6231 6261 6262 6259 5709 5710 5725 
5724 6233 6263 6264 6261 5710 5711 5726 5725 
6235 6265 6266 6263 5711 5712 5727 5726 6237 
6267 6268 6265 5712 5713 5728 5727 6239 6269 
6270 6267 5713 5714 5729 5728 6241 6271 6272 
6269 5714 5715 5730 5729 6243 6273 6274 6271 
5715 5716 5731 5730 6245 6275 6276 6273 5716 
5717 5732 5731 6247 6277 6278 6275 5717 5718 
5733 5732 6249 6279 6280 6277 5718 904 905 
5733 6250 933 6281 6279 461 5719 5734 462 
6252 6282 6283 490 5719 5720 5735 5734 6254 
6284 6285 6282 5720 5721 5736 5735 6256 6286 
6287 6284 5721 5722 5737 5736 6258 6288 6289 
6286 5722 5723 5738 5737 6260 6290 6291 6288 
5723 5724 5739 5738 6262 6292 6293 6290 5724 
5725 5740 5739 6264 6294 6295 6292 5725 5726 
5741 5740 6266 6296 6297 6294 5726 5727 5742 
5741 6268 6298 6299 6296 5727 5728 5743 5742 
6270 6300 6301 6298 5728 5729 5744 5743 6272 
6302 6303 6300 5729 5730 5745 5744 6274 6304 
6305 6302 5730 5731 5746 5745 6276 6306 6307 
6304 5731 5732 5747 5746 6278 6308 6309 6306 
5732 5733 5748 5747 6280 6310 6311 6308 5733 
905 906 5748 6281 934 6312 6310 462 5734 
5749 463 6283 6313 6314 491 5734 5735 5750 
5749 6285 6315 6316 6313 5735 5736 5751 5750 
6287 6317 6318 6315 5736 5737 5752 5751 6289 
6319 6320 6317 5737 5738 5753 5752 6291 6321 
6322 6319 5738 5739 5754 5753 6293 6323 6324 
6321 5739 5740 5755 5754 6295 6325 6326 6323 
5740 5741 5756 5755 6297 6327 6328 6325 5741 
5742 5757 5756 6299 6329 6330 6327 5742 5743 
5758 5757 6301 6331 6332 6329 5743 5744 5759 
5758 6303 6333 6334 6331 5744 5745 5760 5759 
6305 6335 6336 6333 5745 5746 5761 5760 6307 
6337 6338 6335 5746 5747 5762 5761 6309 6339 
6340 6337 5747 5748 5763 5762 6311 6341 6342 
6339 5748 906 907 5763 6312 935 6343 6341 
463 5749 5764 464 6314 6344 6345 492 5749 
5750 5765 5764 6316 6346 6347 6344 5750 5751 
5766 5765 6318 6348 6349 6346 5751 5752 5767 
5766 6320 6350 6351 6348 5752 5753 5768 5767 
6322 6352 6353 6350 5753 5754 5769 5768 6324 
6354 6355 6352 5754 5755 5770 5769 6326 6356 
6357 6354 5755 5756 5771 5770 6328 6358 6359 
6356 5756 5757 5772 5771 6330 6360 6361 6358 
5757 5758 5773 5772 6332 6362 6363 6360 5758 
5759 5774 5773 6334 6364 6365 6362 5759 5760 
5775 5774 6336 6366 6367 6364 5760 5761 5776 
5775 6338 6368 6369 6366 5761 5762 5777 5776 
6340 6370 6371 6368 5762 5763 5778 5777 6342 
6372 6373 6370 5763 907 908 5778 6343 936 
6374 6372 464 5764 5779 465 6345 6375 6376 
493 5764 5765 5780 5779 6347 6377 6378 6375 
5765 5766 5781 5780 6349 6379 6380 6377 5766 
5767 5782 5781 6351 6381 6382 6379 5767 5768 
5783 5782 6353 6383 6384 6381 5768 5769 5784 
5783 6355 6385 6386 6383 5769 5770 5785 5784 
6357 6387 6388 6385 5770 5771 5786 5785 6359 
6389 6390 6387 5771 5772 5787 5786 6361 6391 
6392 6389 5772 5773 5788 5787 6363 6393 6394 
6391 5773 5774 5789 5788 6365 6395 6396 6393 
5774 5775 5790 5789 6367 6397 6398 6395 5775 
5776 5791 5790 6369 6399 6400 6397 5776 5777 
5792 5791 6371 6401 6402 6399 5777 5778 5793 
5792 6373 6403 6404 6401 5778 908 909 5793 
6374 937 6405 6403 465 5779 5794 466 6376 
6406 6407 494 5779 5780 5795 5794 6378 6408 
6409 6406 5780 5781 5796 5795 6380 6410 6411 
6408 5781 5782 5797 5796 6382 6412 6413 6410 
5782 5783 5798 5797 6384 6414 6415 6412 5783 
5784 5799 5798 6386 6416 6417 6414 5784 5785 
5800 5799 6388 6418 6419 6416 5785 5786 5801 
5800 6390 6420 6421 6418 5786 5787 5802 5801 
6392 6422 6423 6420 5787 5788 5803 5802 6394 
6424 6425 6422 5788 5789 5804 5803 6396 6426 
6427 6424 5789 5790 5805 5804 6398 6428 6429 
6426 5790 5791 5806 5805 6400 6430 6431 6428 
5791 5792 5807 5806 6402 6432 6433 6430 5792 
5793 5808 5807 6404 6434 6435 6432 5793 909 
910 5808 6405 938 6436 6434 466 5794 5809 
467 6407 6437 6438 495 5794 5795 5810 5809 
6409 6439 6440 6437 5795 5796 5811 5810 6411 
6441 6442 6439 5796 5797 5812 5811 6413 6443 
6444 6441 5797 5798 5813 5812 6415 6445 6446 
6443 5798 5799 5814 5813 6417 6447 6448 6445 
5799 5800 5815 5814 6419 6449 6450 6447 5800 
5801 5816 5815 6421 6451 6452 6449 5801 5802 
5817 5816 6423 6453 6454 6451 5802 5803 5818 
5817 6425 6455 6456 6453 5803 5804 5819 5818 
6427 6457 6458 6455 5804 5805 5820 5819 6429 
6459 6460 6457 5805 5806 5821 5820 6431 6461 
6462 6459 5806 5807 5822 5821 6433 6463 6464 
6461 5807 5808 5823 5822 6435 6465 6466 6463 
5808 910 911 5823 6436 939 6467 6465 467 
5809 5824 468 6438 6468 6469 496 5809 5810 
5825 5824 6440 6470 6471 6468 5810 5811 5826 
5825 6442 6472 6473 6470 5811 5812 5827 5826 
6444 6474 6475 6472 5812 5813 5828 5827 6446 
6476 6477 6474 5813 5814 5829 5828 6448 6478 
6479 6476 5814 5815 5830 5829 6450 6480 6481 
6478 5815 5816 5831 5830 6452 6482 6483 6480 
5816 5817 5832 5831 6454 6484 6485 6482 5817 
5818 5833 5832 6456 6486 6487 6484 5818 5819 
5834 5833 6458 6488 6489 6486 5819 5820 5835 
5834 6460 6490 6491 6488 5820 5821 5836 5835 
6462 6492 6493 6490 5821 5822 5837 5836 6464 
6494 6495 6492 5822 5823 5838 5837 6466 6496 
6497 6494 5823 911 912 5838 6467 940 6498 
6496 468 5824 5839 469 6469 6499 6500 497 
5824 5825 5840 5839 6471 6501 6502 6499 5825 
5826 5841 5840 6473 6503 6504 6501 5826 5827 
5842 5841 6475 6505 6506 6503 5827 5828 5843 
5842 6477 6507 6508 6505 5828 5829 5844 5843 
6479 6509 6510 6507 5829 5830 5845 5844 6481 
6511 6512 6509 5830 5831 5846 5845 6483 6513 
6514 6511 5831 5832 5847 5846 6485 6515 6516 
6513 5832 5833 5848 5847 6487 6517 6518 6515 
5833 5834 5849 5848 6489 6519 6520 6517 5834 
5835 5850 5849 6491 6521 6522 6519 5835 5836 
5851 5850 6493 6523 6524 6521 5836 5837 5852 
5851 6495 6525 6526 6523 5837 5838 5853 5852 
6497 6527 6528 6525 5838 912 913 5853 6498 
941 6529 6527 469 5839 5854 470 6500 6530 
6531 498 5839 5840 5855 5854 6502 6532 6533 
6530 5840 5841 5856 5855 6504 6534 6535 6532 
5841 5842 5857 5856 6506 6536 6537 6534 5842 
5843 5858 5857 6508 6538 6539 6536 5843 5844 
5859 5858 6510 6540 6541 6538 5844 5845 5860 
5859 6512 6542 6543 6540 5845 5846 5861 5860 
6514 6544 6545 6542 5846 5847 5862 5861 6516 
6546 6547 6544 5847 5848 5863 5862 6518 6548 
6549 6546 5848 5849 5864 5863 6520 6550 6551 
6548 5849 5850 5865 5864 6522 6552 6553 6550 
5850 5851 5866 5865 6524 6554 6555 6552 5851 
5852 5867 5866 6526 6556 6557 6554 5852 5853 
5868 5867 6528 6558 6559 6556 5853 913 914 
5868 6529 942 6560 6558 470 5854 5869 471 
6531 6561 6562 499 5854 5855 5870 5869 6533 
6563 6564 6561 5855 5856 5871 5870 6535 6565 
6566 6563 5856 5857 5872 5871 6537 6567 6568 
6565 5857 5858 5873 5872 6539 6569 6570 6567 
5858 5859 5874 5873 6541 6571 6572 6569 5859 
5860 5875 5874 6543 6573 6574 6571 5860 5861 
5876 5875 6545 6575 6576 6573 5861 5862 5877 
5876 6547 6577 6578 6575 5862 5863 5878 5877 
6549 6579 6580 6577 5863 5864 5879 5878 6551 
6581 6582 6579 5864 5865 5880 5879 6553 6583 
6584 6581 5865 5866 5881 5880 6555 6585 6586 
6583 5866 5867 5882 5881 6557 6587 6588 6585 
5867 5868 5883 5882 6559 6589 6590 6587 5868 
914 915 5883 6560 943 6591 6589 471 5869 
5884 472 6562 6592 6593 500 5869 5870 5885 
5884 6564 6594 6595 6592 5870 5871 5886 5885 
6566 6596 6597 6594 5871 5872 5887 5886 6568 
6598 6599 6596 5872 5873 5888 5887 6570 6600 
6601 6598 5873 5874 5889 5888 6572 6602 6603 
6600 5874 5875 5890 5889 6574 6604 6605 6602 
5875 5876 5891 5890 6576 6606 6607 6604 5876 
5877 5892 5891 6578 6608 6609 6606 5877 5878 
5893 5892 6580 6610 6611 6608 5878 5879 5894 
5893 6582 6612 6613 6610 5879 5880 5895 5894 
6584 6614 6615 6612 5880 5881 5896 5895 6586 
6616 6617 6614 5881 5882 5897 5896 6588 6618 
6619 6616 5882 5883 5898 5897 6590 6620 6621 
6618 5883 915 916 5898 6591 944 6622 6620 
472 5884 5899 473 6593 6623 6624 501 5884 
5885 5900 5899 6595 6625 6626 6623 5885 5886 
5901 5900 6597 6627 6628 6625 5886 5887 5902 
5901 6599 6629 6630 6627 5887 5888 5903 5902 
6601 6631 6632 6629 5888 5889 5904 5903 6603 
6633 6634 6631 5889 5890 5905 5904 6605 6635 
6636 6633 5890 5891 5906 5905 6607 6637 6638 
6635 5891 5892 5907 5906 6609 6639 6640 6637 
5892 5893 5908 5907 6611 6641 6642 6639 5893 
5894 5909 5908 6613 6643 6644 6641 5894 5895 
5910 5909 6615 6645 6646 6643 5895 5896 5911 
5910 6617 6647 6648 6645 5896 5897 5912 5911 
6619 6649 6650 6647 5897 5898 5913 5912 6621 
6651 6652 6649 5898 916 917 5913 6622 945 
6653 6651 473 5899 5914 474 6624 6654 6655 
502 5899 5900 5915 5914 6626 6656 6657 6654 
5900 5901 5916 5915 6628 6658 6659 6656 5901 
5902 5917 5916 6630 6660 6661 6658 5902 5903 
5918 5917 6632 6662 6663 6660 5903 5904 5919 
5918 6634 6664 6665 6662 5904 5905 5920 5919 
6636 6666 6667 6664 5905 5906 5921 5920 6638 
6668 6669 6666 5906 5907 5922 5921 6640 6670 
6671 6668 5907 5908 5923 5922 6642 6672 6673 
6670 5908 5909 5924 5923 6644 6674 6675 6672 
5909 5910 5925 5924 6646 6676 6677 6674 5910 
5911 5926 5925 6648 6678 6679 6676 5911 5912 
5927 5926 6650 6680 6681 6678 5912 5913 5928 
5927 6652 6682 6683 6680 5913 917 918 5928 
6653 946 6684 6682 474 5914 5929 475 6655 
6685 6686 503 5914 5915 5930 5929 6657 6687 
6688 6685 5915 5916 5931 5930 6659 6689 6690 
6687 5916 5917 5932 5931 6661 6691 6692 6689 
5917 5918 5933 5932 6663 6693 6694 6691 5918 
5919 5934 5933 6665 6695 6696 6693 5919 5920 
5935 5934 6667 6697 6698 6695 5920 5921 5936 
5935 6669 6699 6700 6697 5921 5922 5937 5936 
6671 6701 6702 6699 5922 5923 5938 5937 6673 
6703 6704 6701 5923 5924 5939 5938 6675 6705 
6706 6703 5924 5925 5940 5939 6677 6707 6708 
6705 5925 5926 5941 5940 6679 6709 6710 6707 
5926 5927 5942 5941 6681 6711 6712 6709 5927 
5928 5943 5942 6683 6713 6714 6711 5928 918 
919 5943 6684 947 6715 6713 475 5929 5944 
476 6686 6716 6717 504 5929 5930 5945 5944 
6688 6718 6719 6716 5930 5931 5946 5945 6690 
6720 6721 6718 5931 5932 5947 5946 6692 6722 
6723 6720 5932 5933 5948 5947 6694 6724 6725 
6722 5933 5934 5949 5948 6696 6726 6727 6724 
5934 5935 5950 5949 6698 6728 6729 6726 5935 
5936 5951 5950 6700 6730 6731 6728 5936 5937 
5952 5951 6702 6732 6733 6730 5937 5938 5953 
5952 6704 6734 6735 6732 5938 5939 5954 5953 
6706 6736 6737 6734 5939 5940 5955 5954 6708 
6738 6739 6736 5940 5941 5956 5955 6710 6740 
6741 6738 5941 5942 5957 5956 6712 6742 6743 
6740 5942 5943 5958 5957 6714 6744 6745 6742 
5943 919 920 5958 6715 948 6746 6744 476 
5944 5959 477 6717 6747 6748 505 5944 5945 
5960 5959 6719 6749 6750 6747 5945 5946 5961 
5960 6721 6751 6752 6749 5946 5947 5962 5961 
6723 6753 6754 6751 5947 5948 5963 5962 6725 
6755 6756 6753 5948 5949 5964 5963 6727 6757 
6758 6755 5949 5950 5965 5964 6729 6759 6760 
6757 5950 5951 5966 5965 6731 6761 6762 6759 
5951 5952 5967 5966 6733 6763 6764 6761 5952 
5953 5968 5967 6735 6765 6766 6763 5953 5954 
5969 5968 6737 6767 6768 6765 5954 5955 5970 
5969 6739 6769 6770 6767 5955 5956 5971 5970 
6741 6771 6772 6769 5956 5957 5972 5971 6743 
6773 6774 6771 5957 5958 5973 5972 6745 6775 
6776 6773 5958 920 921 5973 6746 949 6777 
6775 477 5959 5974 478 6748 6778 6779 506 
5959 5960 5975 5974 6750 6780 6781 6778 5960 
5961 5976 5975 6752 6782 6783 6780 5961 5962 
5977 5976 6754 6784 6785 6782 5962 5963 5978 
5977 6756 6786 6787 6784 5963 5964 5979 5978 
6758 6788 6789 6786 5964 5965 5980 5979 6760 
6790 6791 6788 5965 5966 5981 5980 6762 6792 
6793 6790 5966 5967 5982 5981 6764 6794 6795 
6792 5967 5968 5983 5982 6766 6796 6797 6794 
5968 5969 5984 5983 6768 6798 6799 6796 5969 
5970 5985 5984 6770 6800 6801 6798 5970 5971 
5986 5985 6772 6802 6803 6800 5971 5972 5987 
5986 6774 6804 6805 6802 5972 5973 5988 5987 
6776 6806 6807 6804 5973 921 922 5988 6777 
950 6808 6806 478 5974 5989 479 6779 6809 
6810 507 5974 5975 5990 5989 6781 6811 6812 
6809 5975 5976 5991 5990 6783 6813 6814 6811 
5976 5977 5992 5991 6785 6815 6816 6813 5977 
5978 5993 5992 6787 6817 6818 6815 5978 5979 
5994 5993 6789 6819 6820 6817 5979 5980 5995 
5994 6791 6821 6822 6819 5980 5981 5996 5995 
6793 6823 6824 6821 5981 5982 5997 5996 6795 
6825 6826 6823 5982 5983 5998 5997 6797 6827 
6828 6825 5983 5984 5999 5998 6799 6829 6830 
6827 5984 5985 6000 5999 6801 6831 6832 6829 
5985 5986 6001 6000 6803 6833 6834 6831 5986 
5987 6002 6001 6805 6835 6836 6833 5987 5988 
6003 6002 6807 6837 6838 6835 5988 922 923 
6003 6808 951 6839 6837 479 5989 6004 480 
6810 6840 6841 508 5989 5990 6005 6004 6812 
6842 6843 6840 5990 5991 6006 6005 6814 6844 
6845 6842 5991 5992 6007 6006 6816 6846 6847 
6844 5992 5993 6008 6007 6818 6848 6849 6846 
5993 5994 6009 6008 6820 6850 6851 6848 5994 
5995 6010 6009 6822 6852 6853 6850 5995 5996 
6011 6010 6824 6854 6855 6852 5996 5997 6012 
6011 6826 6856 6857 6854 5997 5998 6013 6012 
6828 6858 6859 6856 5998 5999 6014 6013 6830 
6860 6861 6858 5999 6000 6015 6014 6832 6862 
6863 6860 6000 6001 6016 6015 6834 6864 6865 
6862 6001 6002 6017 6016 6836 6866 6867 6864 
6002 6003 6018 6017 6838 6868 6869 6866 6003 
923 924 6018 6839 952 6870 6868 480 6004 
6019 481 6841 6871 6872 509 6004 6005 6020 
6019 6843 6873 6874 6871 6005 6006 6021 6020 
6845 6875 6876 6873 6006 6007 6022 6021 6847 
6877 6878 6875 6007 6008 6023 6022 6849 6879 
6880 6877 6008 6009 6024 6023 6851 6881 6882 
6879 6009 6010 6025 6024 6853 6883 6884 6881 
6010 6011 6026 6025 6855 6885 6886 6883 6011 
6012 6027 6026 6857 6887 6888 6885 6012 6013 
6028 6027 6859 6889 6890 6887 6013 6014 6029 
6028 6861 6891 6892 6889 6014 6015 6030 6029 
6863 6893 6894 6891 6015 6016 6031 6030 6865 
6895 6896 6893 6016 6017 6032 6031 6867 6897 
6898 6895 6017 6018 6033 6032 6869 6899 6900 
6897 6018 924 925 6033 6870 953 6901 6899 
481 6019 511 11 6872 6902 526 510 6019 
6020 512 511 6874 6903 527 6902 6020 6021 
513 512 6876 6904 528 6903 6021 6022 514 
513 6878 6905 529 6904 6022 6023 515 514 
6880 6906 530 6905 6023 6024 516 515 6882 
6907 531 6906 6024 6025 517 516 6884 6908 
532 6907 6025 6026 518 517 6886 6909 533 
6908 6026 6027 519 518 6888 6910 534 6909 
6027 6028 520 519 6890 6911 535 6910 6028 
6029 521 520 6892 6912 536 6911 6029 6030 
522 521 6894 6913 537 6912 6030 6031 523 
522 6896 6914 538 6913 6031 6032 524 523 
6898 6915 539 6914 6032 6033 525 524 6900 
6916 540 6915 6033 925 12 525 6901 954 
541 6916 12 925 6917 542 954 7309 7310 
556 925 924 6918 6917 953 7311 7312 7309 
924 923 6919 6918 952 7313 7314 7311 923 
922 6920 6919 951 7315 7316 7313 922 921 
6921 6920 950 7317 7318 7315 921 920 6922 
6921 949 7319 7320 7317 920 919 6923 6922 
948 7321 7322 7319 919 918 6924 6923 947 
7323 7324 7321 918 917 6925 6924 946 7325 
7326 7323 917 916 6926 6925 945 7327 7328 
7325 916 915 6927 6926 944 7329 7330 7327 
915 914 6928 6927 943 7331 7332 7329 914 
913 6929 6928 942 7333 7334 7331 913 912 
6930 6929 941 7335 7336 7333 912 911 6931 
6930 940 7337 7338 7335 911 910 6932 6931 
939 7339 7340 7337 910 909 6933 6932 938 
7341 7342 7339 909 908 6934 6933 937 7343 
7344 7341 908 907 6935 6934 936 7345 7346 
7343 907 906 6936 6935 935 7347 7348 7345 
906 905 6937 6936 934 7349 7350 7347 905 
904 6938 6937 933 7351 7352 7349 904 903 
6939 6938 932 7353 7354 7351 903 902 6940 
6939 931 7355 7356 7353 902 901 6941 6940 
930 7357 7358 7355 901 900 6942 6941 929 
7359 7360 7357 900 899 6943 6942 928 7361 
7362 7359 899 898 6944 6943 927 7363 7364 
7361 898 5 281 6944 926 295 7365 7363 
542 6917 6945 543 7310 7366 7367 557 6917 
6918 6946 6945 7312 7368 7369 7366 6918 6919 
6947 6946 7314 7370 7371 7368 6919 6920 6948 
6947 7316 7372 7373 7370 6920 6921 6949 6948 
7318 7374 7375 7372 6921 6922 6950 6949 7320 
7376 7377 7374 6922 6923 6951 6950 7322 7378 
7379 7376 6923 6924 6952 6951 7324 7380 7381 
7378 6924 6925 6953 6952 7326 7382 7383 7380 
6925 6926 6954 6953 7328 7384 7385 7382 6926 
6927 6955 6954 7330 7386 7387 7384 6927 6928 
6956 6955 7332 7388 7389 7386 6928 6929 6957 
6956 7334 7390 7391 7388 6929 6930 6958 6957 
7336 7392 7393 7390 6930 6931 6959 6958 7338 
7394 7395 7392 6931 6932 6960 6959 7340 7396 
7397 7394 6932 6933 6961 6960 7342 7398 7399 
7396 6933 6934 6962 6961 7344 7400 7401 7398 
6934 6935 6963 6962 7346 7402 7403 7400 6935 
6936 6964 6963 7348 7404 7405 7402 6936 6937 
6965 6964 7350 7406 7407 7404 6937 6938 6966 
6965 7352 7408 7409 7406 6938 6939 6967 6966 
7354 7410 7411 7408 6939 6940 6968 6967 7356 
7412 7413 7410 6940 6941 6969 6968 7358 7414 
7415 7412 6941 6942 6970 6969 7360 7416 7417 
7414 6942 6943 6971 6970 7362 7418 7419 7416 
6943 6944 6972 6971 7364 7420 7421 7418 6944 
281 282 6972 7365 296 7422 7420 543 6945 
6973 544 7367 7423 7424 558 6945 6946 6974 
6973 7369 7425 7426 7423 6946 6947 6975 6974 
7371 7427 7428 7425 6947 6948 6976 6975 7373 
7429 7430 7427 6948 6949 6977 6976 7375 7431 
7432 7429 6949 6950 6978 6977 7377 7433 7434 
7431 6950 6951 6979 6978 7379 7435 7436 7433 
6951 6952 6980 6979 7381 7437 7438 7435 6952 
6953 6981 6980 7383 7439 7440 7437 6953 6954 
6982 6981 7385 7441 7442 7439 6954 6955 6983 
6982 7387 7443 7444 7441 6955 6956 6984 6983 
7389 7445 7446 7443 6956 6957 6985 6984 7391 
7447 7448 7445 6957 6958 6986 6985 7393 7449 
7450 7447 6958 6959 6987 6986 7395 7451 7452 
7449 6959 6960 6988 6987 7397 7453 7454 7451 
6960 6961 6989 6988 7399 7455 7456 7453 6961 
6962 6990 6989 7401 7457 7458 7455 6962 6963 
6991 6990 7403 7459 7460 7457 6963 6964 6992 
6991 7405 7461 7462 7459 6964 6965 6993 6992 
7407 7463 7464 7461 6965 6966 6994 6993 7409 
7465 7466 7463 6966 6967 6995 6994 7411 7467 
7468 7465 6967 6968 6996 6995 7413 7469 7470 
7467 6968 6969 6997 6996 7415 7471 7472 7469 
6969 6970 6998 6997 7417 7473 7474 7471 6970 
6971 6999 6998 7419 7475 7476 7473 6971 6972 
7000 6999 7421 7477 7478 7475 6972 282 283 
7000 7422 297 7479 7477 544 6973 7001 545 
7424 7480 7481 559 6973 6974 7002 7001 7426 
7482 7483 7480 6974 6975 7003 7002 7428 7484 
7485 7482 6975 6976 7004 7003 7430 7486 7487 
7484 6976 6977 7005 7004 7432 7488 7489 7486 
6977 6978 7006 7005 7434 7490 7491 7488 6978 
6979 7007 7006 7436 7492 7493 7490 6979 6980 
7008 7007 7438 7494 7495 7492 6980 6981 7009 
7008 7440 7496 7497 7494 6981 6982 7010 7009 
7442 7498 7499 7496 6982 6983 7011 7010 7444 
7500 7501 7498 6983 6984 7012 7011 7446 7502 
7503 7500 6984 6985 7013 7012 7448 7504 7505 
7502 6985 6986 7014 7013 7450 7506 7507 7504 
6986 6987 7015 7014 7452 7508 7509 7506 6987 
6988 7016 7015 7454 7510 7511 7508 6988 6989 
7017 7016 7456 7512 7513 7510 6989 6990 7018 
7017 7458 7514 7515 7512 6990 6991 7019 7018 
7460 7516 7517 7514 6991 6992 7020 7019 7462 
7518 7519 7516 6992 6993 7021 7020 7464 7520 
7521 7518 6993 6994 7022 7021 7466 7522 7523 
7520 6994 6995 7023 7022 7468 7524 7525 7522 
6995 6996 7024 7023 7470 7526 7527 7524 6996 
6997 7025 7024 7472 7528 7529 7526 6997 6998 
7026 7025 7474 7530 7531 7528 6998 6999 7027 
7026 7476 7532 7533 7530 6999 7000 7028 7027 
7478 7534 7535 7532 7000 283 284 7028 7479 
298 7536 7534 545 7001 7029 546 7481 7537 
7538 560 7001 7002 7030 7029 7483 7539 7540 
7537 7002 7003 7031 7030 7485 7541 7542 7539 
7003 7004 7032 7031 7487 7543 7544 7541 7004 
7005 7033 7032 7489 7545 7546 7543 7005 7006 
7034 7033 7491 7547 7548 7545 7006 7007 7035 
7034 7493 7549 7550 7547 7007 7008 7036 7035 
7495 7551 7552 7549 7008 7009 7037 7036 7497 
7553 7554 7551 7009 7010 7038 7037 7499 7555 
7556 7553 7010 7011 7039 7038 7501 7557 7558 
7555 7011 7012 7040 7039 7503 7559 7560 7557 
7012 7013 7041 7040 7505 7561 7562 7559 7013 
7014 7042 7041 7507 7563 7564 7561 7014 7015 
7043 7042 7509 7565 7566 7563 7015 7016 7044 
7043 7511 7567 7568 7565 7016 7017 7045 7044 
7513 7569 7570 7567 7017 7018 7046 7045 7515 
7571 7572 7569 7018 7019 7047 7046 7517 7573 
7574 7571 7019 7020 7048 7047 7519 7575 7576 
7573 7020 7021 7049 7048 7521 7577 7578 7575 
7021 7022 7050 7049 7523 7579 7580 7577 7022 
7023 7051 7050 7525 7581 7582 7579 7023 7024 
7052 7051 7527 7583 7584 7581 7024 7025 7053 
7052 7529 7585 7586 7583 7025 7026 7054 7053 
7531 7587 7588 7585 7026 7027 7055 7054 7533 
7589 7590 7587 7027 7028 7056 7055 7535 7591 
7592 7589 7028 284 285 7056 7536 299 7593 
7591 546 7029 7057 547 7538 7594 7595 561 
7029 7030 7058 7057 7540 7596 7597 7594 7030 
7031 7059 7058 7542 7598 7599 7596 7031 7032 
7060 7059 7544 7600 7601 7598 7032 7033 7061 
7060 7546 7602 7603 7600 7033 7034 7062 7061 
7548 7604 7605 7602 7034 7035 7063 7062 7550 
7606 7607 7604 7035 7036 7064 7063 7552 7608 
7609 7606 7036 7037 7065 7064 7554 7610 7611 
7608 7037 7038 7066 7065 7556 7612 7613 7610 
7038 7039 7067 7066 7558 7614 7615 7612 7039 
7040 7068 7067 7560 7616 7617 7614 7040 7041 
7069 7068 7562 7618 7619 7616 7041 7042 7070 
7069 7564 7620 7621 7618 7042 7043 7071 7070 
7566 7622 7623 7620 7043 7044 7072 7071 7568 
7624 7625 7622 7044 7045 7073 7072 7570 7626 
7627 7624 7045 7046 7074 7073 7572 7628 7629 
7626 7046 7047 7075 7074 7574 7630 7631 7628 
7047 7048 7076 7075 7576 7632 7633 7630 7048 
7049 7077 7076 7578 7634 7635 7632 7049 7050 
7078 7077 7580 7636 7637 7634 7050 7051 7079 
7078 7582 7638 7639 7636 7051 7052 7080 7079 
7584 7640 7641 7638 7052 7053 7081 7080 7586 
7642 7643 7640 7053 7054 7082 7081 7588 7644 
7645 7642 7054 7055 7083 7082 7590 7646 7647 
7644 7055 7056 7084 7083 7592 7648 7649 7646 
7056 285 286 7084 7593 300 7650 7648 547 
7057 7085 548 7595 7651 7652 562 7057 7058 
7086 7085 7597 7653 7654 7651 7058 7059 7087 
7086 7599 7655 7656 7653 7059 7060 7088 7087 
7601 7657 7658 7655 7060 7061 7089 7088 7603 
7659 7660 7657 7061 7062 7090 7089 7605 7661 
7662 7659 7062 7063 7091 7090 7607 7663 7664 
7661 7063 7064 7092 7091 7609 7665 7666 7663 
7064 7065 7093 7092 7611 7667 7668 7665 7065 
7066 7094 7093 7613 7669 7670 7667 7066 7067 
7095 7094 7615 7671 7672 7669 7067 7068 7096 
7095 7617 7673 7674 7671 7068 7069 7097 7096 
7619 7675 7676 7673 7069 7070 7098 7097 7621 
7677 7678 7675 7070 7071 7099 7098 7623 7679 
7680 7677 7071 7072 7100 7099 7625 7681 7682 
7679 7072 7073 7101 7100 7627 7683 7684 7681 
7073 7074 7102 7101 7629 7685 7686 7683 7074 
7075 7103 7102 7631 7687 7688 7685 7075 7076 
7104 7103 7633 7689 7690 7687 7076 7077 7105 
7104 7635 7691 7692 7689 7077 7078 7106 7105 
7637 7693 7694 7691 7078 7079 7107 7106 7639 
7695 7696 7693 7079 7080 7108 7107 7641 7697 
7698 7695 7080 7081 7109 7108 7643 7699 7700 
7697 7081 7082 7110 7109 7645 7701 7702 7699 
7082 7083 7111 7110 7647 7703 7704 7701 7083 
7084 7112 7111 7649 7705 7706 7703 7084 286 
287 7112 7650 301 7707 7705 548 7085 7113 
549 7652 7708 7709 563 7085 7086 7114 7113 
7654 7710 7711 7708 7086 7087 7115 7114 7656 
7712 7713 7710 7087 7088 7116 7115 7658 7714 
7715 7712 7088 7089 7117 7116 7660 7716 7717 
7714 7089 7090 7118 7117 7662 7718 7719 7716 
7090 7091 7119 7118 7664 7720 7721 7718 7091 
7092 7120 7119 7666 7722 7723 7720 7092 7093 
7121 7120 7668 7724 7725 7722 7093 7094 7122 
7121 7670 7726 7727 7724 7094 7095 7123 7122 
7672 7728 7729 7726 7095 7096 7124 7123 7674 
7730 7731 7728 7096 7097 7125 7124 7676 7732 
7733 7730 7097 7098 7126 7125 7678 7734 7735 
7732 7098 7099 7127 7126 7680 7736 7737 7734 
7099 7100 7128 7127 7682 7738 7739 7736 7100 
7101 7129 7128 7684 7740 7741 7738 7101 7102 
7130 7129 7686 7742 7743 7740 7102 7103 7131 
7130 7688 7744 7745 7742 7103 7104 7132 7131 
7690 7746 7747 7744 7104 7105 7133 7132 7692 
7748 7749 7746 7105 7106 7134 7133 7694 7750 
7751 7748 7106 7107 7135 7134 7696 7752 7753 
7750 7107 7108 7136 7135 7698 7754 7755 7752 
7108 7109 7137 7136 7700 7756 7757 7754 7109 
7110 7138 7137 7702 7758 7759 7756 7110 7111 
7139 7138 7704 7760 7761 7758 7111 7112 7140 
7139 7706 7762 7763 7760 7112 287 288 7140 
7707 302 7764 7762 549 7113 7141 550 7709 
7765 7766 564 7113 7114 7142 7141 7711 7767 
7768 7765 7114 7115 7143 7142 7713 7769 7770 
7767 7115 7116 7144 7143 7715 7771 7772 7769 
7116 7117 7145 7144 7717 7773 7774 7771 7117 
7118 7146 7145 7719 7775 7776 7773 7118 7119 
7147 7146 7721 7777 7778 7775 7119 7120 7148 
7147 7723 7779 7780 7777 7120 7121 7149 7148 
7725 7781 7782 7779 7121 7122 7150 7149 7727 
7783 7784 7781 7122 7123 7151 7150 7729 7785 
7786 7783 7123 7124 7152 7151 7731 7787 7788 
7785 7124 7125 7153 7152 7733 7789 7790 7787 
7125 7126 7154 7153 7735 7791 7792 7789 7126 
7127 7155 7154 7737 7793 7794 7791 7127 7128 
7156 7155 7739 7795 7796 7793 7128 7129 7157 
7156 7741 7797 7798 7795 7129 7130 7158 7157 
7743 7799 7800 7797 7130 7131 7159 7158 7745 
7801 7802 7799 7131 7132 7160 7159 7747 7803 
7804 7801 7132 7133 7161 7160 7749 7805 7806 
7803 7133 7134 7162 7161 7751 7807 7808 7805 
7134 7135 7163 7162 7753 7809 7810 7807 7135 
7136 7164 7163 7755 7811 7812 7809 7136 7137 
7165 7164 7757 7813 7814 7811 7137 7138 7166 
7165 7759 7815 7816 7813 7138 7139 7167 7166 
7761 7817 7818 7815 7139 7140 7168 7167 7763 
7819 7820 7817 7140 288 289 7168 7764 303 
7821 7819 550 7141 7169 551 7766 7822 7823 
565 7141 7142 7170 7169 7768 7824 7825 7822 
7142 7143 7171 7170 7770 7826 7827 7824 7143 
7144 7172 7171 7772 7828 7829 7826 7144 7145 
7173 7172 7774 7830 7831 7828 7145 7146 7174 
7173 7776 7832 7833 7830 7146 7147 7175 7174 
7778 7834 7835 7832 7147 7148 7176 7175 7780 
7836 7837 7834 7148 7149 7177 7176 7782 7838 
7839 7836 7149 7150 7178 7177 7784 7840 7841 
7838 7150 7151 7179 7178 7786 7842 7843 7840 
7151 7152 7180 7179 7788 7844 7845 7842 7152 
7153 7181 7180 7790 7846 7847 7844 7153 7154 
7182 7181 7792 7848 7849 7846 7154 7155 7183 
7182 7794 7850 7851 7848 7155 7156 7184 7183 
7796 7852 7853 7850 7156 7157 7185 7184 7798 
7854 7855 7852 7157 7158 7186 7185 7800 7856 
7857 7854 7158 7159 7187 7186 7802 7858 7859 
7856 7159 7160 7188 7187 7804 7860 7861 7858 
7160 7161 7189 7188 7806 7862 7863 7860 7161 
7162 7190 7189 7808 7864 7865 7862 7162 7163 
7191 7190 7810 7866 7867 7864 7163 7164 7192 
7191 7812 7868 7869 7866 7164 7165 7193 7192 
7814 7870 7871 7868 7165 7166 7194 7193 7816 
7872 7873 7870 7166 7167 7195 7194 7818 7874 
7875 7872 7167 7168 7196 7195 7820 7876 7877 
7874 7168 289 290 7196 7821 304 7878 7876 
551 7169 7197 552 7823 7879 7880 566 7169 
7170 7198 7197 7825 7881 7882 7879 7170 7171 
7199 7198 7827 7883 7884 7881 7171 7172 7200 
7199 7829 7885 7886 7883 7172 7173 7201 7200 
7831 7887 7888 7885 7173 7174 7202 7201 7833 
7889 7890 7887 7174 7175 7203 7202 7835 7891 
7892 7889 7175 7176 7204 7203 7837 7893 7894 
7891 7176 7177 7205 7204 7839 7895 7896 7893 
7177 7178 7206 7205 7841 7897 7898 7895 7178 
7179 7207 7206 7843 7899 7900 7897 7179 7180 
7208 7207 7845 7901 7902 7899 7180 7181 7209 
7208 7847 7903 7904 7901 7181 7182 7210 7209 
7849 7905 7906 7903 7182 7183 7211 7210 7851 
7907 7908 7905 7183 7184 7212 7211 7853 7909 
7910 7907 7184 7185 7213 7212 7855 7911 7912 
7909 7185 7186 7214 7213 7857 7913 7914 7911 
7186 7187 7215 7214 7859 7915 7916 7913 7187 
7188 7216 7215 7861 7917 7918 7915 7188 7189 
7217 7216 7863 7919 7920 7917 7189 7190 7218 
7217 7865 7921 7922 7919 7190 7191 7219 7218 
7867 7923 7924 7921 7191 7192 7220 7219 7869 
7925 7926 7923 7192 7193 7221 7220 7871 7927 
7928 7925 7193 7194 7222 7221 7873 7929 7930 
7927 7194 7195 7223 7222 7875 7931 7932 7929 
7195 7196 7224 7223 7877 7933 7934 7931 7196 
290 291 7224 7878 305 7935 7933 552 7197 
7225 553 7880 7936 7937 567 7197 7198 7226 
7225 7882 7938 7939 7936 7198 7199 7227 7226 
7884 7940 7941 7938 7199 7200 7228 7227 7886 
7942 7943 7940 7200 7201 7229 7228 7888 7944 
7945 7942 7201 7202 7230 7229 7890 7946 7947 
7944 7202 7203 7231 7230 7892 7948 7949 7946 
7203 7204 7232 7231 7894 7950 7951 7948 7204 
7205 7233 7232 7896 7952 7953 7950 7205 7206 
7234 7233 7898 7954 7955 7952 7206 7207 7235 
7234 7900 7956 7957 7954 7207 7208 7236 7235 
7902 7958 7959 7956 7208 7209 7237 7236 7904 
7960 7961 7958 7209 7210 7238 7237 7906 7962 
7963 7960 7210 7211 7239 7238 7908 7964 7965 
7962 7211 7212 7240 7239 7910 7966 7967 7964 
7212 7213 7241 7240 7912 7968 7969 7966 7213 
7214 7242 7241 7914 7970 7971 7968 7214 7215 
7243 7242 7916 7972 7973 7970 7215 7216 7244 
7243 7918 7974 7975 7972 7216 7217 7245 7244 
7920 7976 7977 7974 7217 7218 7246 7245 7922 
7978 7979 7976 7218 7219 7247 7246 7924 7980 
7981 7978 7219 7220 7248 7247 7926 7982 7983 
7980 7220 7221 7249 7248 7928 7984 7985 7982 
7221 7222 7250 7249 7930 7986 7987 7984 7222 
7223 7251 7250 7932 7988 7989 7986 7223 7224 
7252 7251 7934 7990 7991 7988 7224 291 292 
7252 7935 306 7992 7990 553 7225 7253 554 
7937 7993 7994 568 7225 7226 7254 7253 7939 
7995 7996 7993 7226 7227 7255 7254 7941 7997 
7998 7995 7227 7228 7256 7255 7943 7999 8000 
7997 7228 7229 7257 7256 7945 8001 8002 7999 
7229 7230 7258 7257 7947 8003 8004 8001 7230 
7231 7259 7258 7949 8005 8006 8003 7231 7232 
7260 7259 7951 8007 8008 8005 7232 7233 7261 
7260 7953 8009 8010 8007 7233 7234 7262 7261 
7955 8011 8012 8009 7234 7235 7263 7262 7957 
8013 8014 8011 7235 7236 7264 7263 7959 8015 
8016 8013 7236 7237 7265 7264 7961 8017 8018 
8015 7237 7238 7266 7265 7963 8019 8020 8017 
7238 7239 7267 7266 7965 8021 8022 8019 7239 
7240 7268 7267 7967 8023 8024 8021 7240 7241 
7269 7268 7969 8025 8026 8023 7241 7242 7270 
7269 7971 8027 8028 8025 7242 7243 7271 7270 
7973 8029 8030 8027 7243 7244 7272 7271 7975 
8031 8032 8029 7244 7245 7273 7272 7977 8033 
8034 8031 7245 7246 7274 7273 7979 8035 8036 
8033 7246 7247 7275 7274 7981 8037 8038 8035 
7247 7248 7276 7275 7983 8039 8040 8037 7248 
7249 7277 7276 7985 8041 8042 8039 7249 7250 
7278 7277 7987 8043 8044 8041 7250 7251 7279 
7278 7989 8045 8046 8043 7251 7252 7280 7279 
7991 8047 8048 8045 7252 292 293 7280 7992 
307 8049 8047 554 7253 7281 555 7994 8050 
8051 569 7253 7254 7282 7281 7996 8052 8053 
8050 7254 7255 7283 7282 7998 8054 8055 8052 
7255 7256 7284 7283 8000 8056 8057 8054 7256 
7257 7285 7284 8002 8058 8059 8056 7257 7258 
7286 7285 8004 8060 8061 8058 7258 7259 7287 
7286 8006 8062 8063 8060 7259 7260 7288 7287 
8008 8064 8065 8062 7260 7261 7289 7288 8010 
8066 8067 8064 7261 7262 7290 7289 8012 8068 
8069 8066 7262 7263 7291 7290 8014 8070 8071 
8068 7263 7264 7292 7291 8016 8072 8073 8070 
7264 7265 7293 7292 8018 8074 8075 8072 7265 
7266 7294 7293 8020 8076 8077 8074 7266 7267 
7295 7294 8022 8078 8079 8076 7267 7268 7296 
7295 8024 8080 8081 8078 7268 7269 7297 7296 
8026 8082 8083 8080 7269 7270 7298 7297 8028 
8084 8085 8082 7270 7271 7299 7298 8030 8086 
8087 8084 7271 7272 7300 7299 8032 8088 8089 
8086 7272 7273 7301 7300 8034 8090 8091 8088 
7273 7274 7302 7301 8036 8092 8093 8090 7274 
7275 7303 7302 8038 8094 8095 8092 7275 7276 
7304 7303 8040 8096 8097 8094 7276 7277 7305 
7304 8042 8098 8099 8096 7277 7278 7306 7305 
8044 8100 8101 8098 7278 7279 7307 7306 8046 
8102 8103 8100 7279 7280 7308 7307 8048 8104 
8105 8102 7280 293 294 7308 8049 308 8106 
8104 555 7281 982 13 8051 8107 1011 570 
7281 7282 981 982 8053 8108 1010 8107 7282 
7283 980 981 8055 8109 1009 8108 7283 7284 
979 980 8057 8110 1008 8109 7284 7285 978 
979 8059 8111 1007 8110 7285 7286 977 978 
8061 8112 1006 8111 7286 7287 976 977 8063 
8113 1005 8112 7287 7288 975 976 8065 8114 
1004 8113 7288 7289 974 975 8067 8115 1003 
8114 7289 7290 973 974 8069 8116 1002 8115 
7290 7291 972 973 8071 8117 1001 8116 7291 
7292 971 972 8073 8118 1000 8117 7292 7293 
970 971 8075 8119 999 8118 7293 7294 969 
970 8077 8120 998 8119 7294 7295 968 969 
8079 8121 997 8120 7295 7296 967 968 8081 
8122 996 8121 7296 7297 966 967 8083 8123 
995 8122 7297 7298 965 966 8085 8124 994 
8123 7298 7299 964 965 8087 8125 993 8124 
7299 7300 963 964 8089 8126 992 8125 7300 
7301 962 963 8091 8127 991 8126 7301 7302 
961 962 8093 8128 990 8127 7302 7303 960 
961 8095 8129 989 8128 7303 7304 959 960 
8097 8130 988 8129 7304 7305 958 959 8099 
8131 987 8130 7305 7306 957 958 8101 8132 
986 8131 7306 7307 956 957 8103 8133 985 
8132 7307 7308 955 956 8105 8134 984 8133 
7308 294 6 955 8106 309 983 8134 13 
982 8135 571 1011 8555 8556 586 982 981 
8136 8135 1010 8557 8558 8555 981 980 8137 
8136 1009 8559 8560 8557 980 979 8138 8137 
1008 8561 8562 8559 979 978 8139 8138 1007 
8563 8564 8561 978 977 8140 8139 1006 8565 
8566 8563 977 976 8141 8140 1005 8567 8568 
8565 976 975 8142 8141 1004 8569 8570 8567 
975 974 8143 8142 1003 8571 8572 8569 974 
973 8144 8143 1002 8573 8574 8571 973 972 
8145 8144 1001 8575 8576 8573 972 971 8146 
8145 1000 8577 8578 8575 971 970 8147 8146 
999 8579 8580 8577 970 969 8148 8147 998 
8581 8582 8579 969 968 8149 8148 997 8583 
8584 8581 968 967 8150 8149 996 8585 8586 
8583 967 966 8151 8150 995 8587 8588 8585 
966 965 8152 8151 994 8589 8590 8587 965 
964 8153 8152 993 8591 8592 8589 964 963 
8154 8153 992 8593 8594 8591 963 962 8155 
8154 991 8595 8596 8593 962 961 8156 8155 
990 8597 8598 8595 961 960 8157 8156 989 
8599 8600 8597 960 959 8158 8157 988 8601 
8602 8599 959 958 8159 8158 987 8603 8604 
8601 958 957 8160 8159 986 8605 8606 8603 
957 956 8161 8160 985 8607 8608 8605 956 
955 8162 8161 984 8609 8610 8607 955 6 
1012 8162 983 1027 8611 8609 571 8135 8163 
572 8556 8612 8613 587 8135 8136 8164 8163 
8558 8614 8615 8612 8136 8137 8165 8164 8560 
8616 8617 8614 8137 8138 8166 8165 8562 8618 
8619 8616 8138 8139 8167 8166 8564 8620 8621 
8618 8139 8140 8168 8167 8566 8622 8623 8620 
8140 8141 8169 8168 8568 8624 8625 8622 8141 
8142 8170 8169 8570 8626 8627 8624 8142 8143 
8171 8170 8572 8628 8629 8626 8143 8144 8172 
8171 8574 8630 8631 8628 8144 8145 8173 8172 
8576 8632 8633 8630 8145 8146 8174 8173 8578 
8634 8635 8632 8146 8147 8175 8174 8580 8636 
8637 8634 8147 8148 8176 8175 8582 8638 8639 
8636 8148 8149 8177 8176 8584 8640 8641 8638 
8149 8150 8178 8177 8586 8642 8643 8640 8150 
8151 8179 8178 8588 8644 8645 8642 8151 8152 
8180 8179 8590 8646 8647 8644 8152 8153 8181 
8180 8592 8648 8649 8646 8153 8154 8182 8181 
8594 8650 8651 8648 8154 8155 8183 8182 8596 
8652 8653 8650 8155 8156 8184 8183 8598 8654 
8655 8652 8156 8157 8185 8184 8600 8656 8657 
8654 8157 8158 8186 8185 8602 8658 8659 8656 
8158 8159 8187 8186 8604 8660 8661 8658 8159 
8160 8188 8187 8606 8662 8663 8660 8160 8161 
8189 8188 8608 8664 8665 8662 8161 8162 8190 
8189 8610 8666 8667 8664 8162 1012 1013 8190 
8611 1028 8668 8666 572 8163 8191 573 8613 
8669 8670 588 8163 8164 8192 8191 8615 8671 
8672 8669 8164 8165 8193 8192 8617 8673 8674 
8671 8165 8166 8194 8193 8619 8675 8676 8673 
8166 8167 8195 8194 8621 8677 8678 8675 8167 
8168 8196 8195 8623 8679 8680 8677 8168 8169 
8197 8196 8625 8681 8682 8679 8169 8170 8198 
8197 8627 8683 8684 8681 8170 8171 8199 8198 
8629 8685 8686 8683 8171 8172 8200 8199 8631 
8687 8688 8685 8172 8173 8201 8200 8633 8689 
8690 8687 8173 8174 8202 8201 8635 8691 8692 
8689 8174 8175 8203 8202 8637 8693 8694 8691 
8175 8176 8204 8203 8639 8695 8696 8693 8176 
8177 8205 8204 8641 8697 8698 8695 8177 8178 
8206 8205 8643 8699 8700 8697 8178 8179 8207 
8206 8645 8701 8702 8699 8179 8180 8208 8207 
8647 8703 8704 8701 8180 8181 8209 8208 8649 
8705 8706 8703 8181 8182 8210 8209 8651 8707 
8708 8705 8182 8183 8211 8210 8653 8709 8710 
8707 8183 8184 8212 8211 8655 8711 8712 8709 
8184 8185 8213 8212 8657 8713 8714 8711 8185 
8186 8214 8213 8659 8715 8716 8713 8186 8187 
8215 8214 8661 8717 8718 8715 8187 8188 8216 
8215 8663 8719 8720 8717 8188 8189 8217 8216 
8665 8721 8722 8719 8189 8190 8218 8217 8667 
8723 8724 8721 8190 1013 1014 8218 8668 1029 
8725 8723 573 8191 8219 574 8670 8726 8727 
589 8191 8192 8220 8219 8672 8728 8729 8726 
8192 8193 8221 8220 8674 8730 8731 8728 8193 
8194 8222 8221 8676 8732 8733 8730 8194 8195 
8223 8222 8678 8734 8735 8732 8195 8196 8224 
8223 8680 8736 8737 8734 8196 8197 8225 8224 
8682 8738 8739 8736 8197 8198 8226 8225 8684 
8740 8741 8738 8198 8199 8227 8226 8686 8742 
8743 8740 8199 8200 8228 8227 8688 8744 8745 
8742 8200 8201 8229 8228 8690 8746 8747 8744 
8201 8202 8230 8229 8692 8748 8749 8746 8202 
8203 8231 8230 8694 8750 8751 8748 8203 8204 
8232 8231 8696 8752 8753 8750 8204 8205 8233 
8232 8698 8754 8755 8752 8205 8206 8234 8233 
8700 8756 8757 8754 8206 8207 8235 8234 8702 
8758 8759 8756 8207 8208 8236 8235 8704 8760 
8761 8758 8208 8209 8237 8236 8706 8762 8763 
8760 8209 8210 8238 8237 8708 8764 8765 8762 
8210 8211 8239 8238 8710 8766 8767 8764 8211 
8212 8240 8239 8712 8768 8769 8766 8212 8213 
8241 8240 8714 8770 8771 8768 8213 8214 8242 
8241 8716 8772 8773 8770 8214 8215 8243 8242 
8718 8774 8775 8772 8215 8216 8244 8243 8720 
8776 8777 8774 8216 8217 8245 8244 8722 8778 
8779 8776 8217 8218 8246 8245 8724 8780 8781 
8778 8218 1014 1015 8246 8725 1030 8782 8780 
574 8219 8247 575 8727 8783 8784 590 8219 
8220 8248 8247 8729 8785 8786 8783 8220 8221 
8249 8248 8731 8787 8788 8785 8221 8222 8250 
8249 8733 8789 8790 8787 8222 8223 8251 8250 
8735 8791 8792 8789 8223 8224 8252 8251 8737 
8793 8794 8791 8224 8225 8253 8252 8739 8795 
8796 8793 8225 8226 8254 8253 8741 8797 8798 
8795 8226 8227 8255 8254 8743 8799 8800 8797 
8227 8228 8256 8255 8745 8801 8802 8799 8228 
8229 8257 8256 8747 8803 8804 8801 8229 8230 
8258 8257 8749 8805 8806 8803 8230 8231 8259 
8258 8751 8807 8808 8805 8231 8232 8260 8259 
8753 8809 8810 8807 8232 8233 8261 8260 8755 
8811 8812 8809 8233 8234 8262 8261 8757 8813 
8814 8811 8234 8235 8263 8262 8759 8815 8816 
8813 8235 8236 8264 8263 8761 8817 8818 8815 
8236 8237 8265 8264 8763 8819 8820 8817 8237 
8238 8266 8265 8765 8821 8822 8819 8238 8239 
8267 8266 8767 8823 8824 8821 8239 8240 8268 
8267 8769 8825 8826 8823 8240 8241 8269 8268 
8771 8827 8828 8825 8241 8242 8270 8269 8773 
8829 8830 8827 8242 8243 8271 8270 8775 8831 
8832 8829 8243 8244 8272 8271 8777 8833 8834 
8831 8244 8245 8273 8272 8779 8835 8836 8833 
8245 8246 8274 8273 8781 8837 8838 8835 8246 
1015 1016 8274 8782 1031 8839 8837 575 8247 
8275 576 8784 8840 8841 591 8247 8248 8276 
8275 8786 8842 8843 8840 8248 8249 8277 8276 
8788 8844 8845 8842 8249 8250 8278 8277 8790 
8846 8847 8844 8250 8251 8279 8278 8792 8848 
8849 8846 8251 8252 8280 8279 8794 8850 8851 
8848 8252 8253 8281 8280 8796 8852 8853 8850 
8253 8254 8282 8281 8798 8854 8855 8852 8254 
8255 8283 8282 8800 8856 8857 8854 8255 8256 
8284 8283 8802 8858 8859 8856 8256 8257 8285 
8284 8804 8860 8861 8858 8257 8258 8286 8285 
8806 8862 8863 8860 8258 8259 8287 8286 8808 
8864 8865 8862 8259 8260 8288 8287 8810 8866 
8867 8864 8260 8261 8289 8288 8812 8868 8869 
8866 8261 8262 8290 8289 8814 8870 8871 8868 
8262 8263 8291 8290 8816 8872 8873 8870 8263 
8264 8292 8291 8818 8874 8875 8872 8264 8265 
8293 8292 8820 8876 8877 8874 8265 8266 8294 
8293 8822 8878 8879 8876 8266 8267 8295 8294 
8824 8880 8881 8878 8267 8268 8296 8295 8826 
8882 8883 8880 8268 8269 8297 8296 8828 8884 
8885 8882 8269 8270 8298 8297 8830 8886 8887 
8884 8270 8271 8299 8298 8832 8888 8889 8886 
8271 8272 8300 8299 8834 8890 8891 8888 8272 
8273 8301 8300 8836 8892 8893 8890 8273 8274 
8302 8301 8838 8894 8895 8892 8274 1016 1017 
8302 8839 1032 8896 8894 576 8275 8303 577 
8841 8897 8898 592 8275 8276 8304 8303 8843 
8899 8900 8897 8276 8277 8305 8304 8845 8901 
8902 8899 8277 8278 8306 8305 8847 8903 8904 
8901 8278 8279 8307 8306 8849 8905 8906 8903 
8279 8280 8308 8307 8851 8907 8908 8905 8280 
8281 8309 8308 8853 8909 8910 8907 8281 8282 
8310 8309 8855 8911 8912 8909 8282 8283 8311 
8310 8857 8913 8914 8911 8283 8284 8312 8311 
8859 8915 8916 8913 8284 8285 8313 8312 8861 
8917 8918 8915 8285 8286 8314 8313 8863 8919 
8920 8917 8286 8287 8315 8314 8865 8921 8922 
8919 8287 8288 8316 8315 8867 8923 8924 8921 
8288 8289 8317 8316 8869 8925 8926 8923 8289 
8290 8318 8317 8871 8927 8928 8925 8290 8291 
8319 8318 8873 8929 8930 8927 8291 8292 8320 
8319 8875 8931 8932 8929 8292 8293 8321 8320 
8877 8933 8934 8931 8293 8294 8322 8321 8879 
8935 8936 8933 8294 8295 8323 8322 8881 8937 
8938 8935 8295 8296 8324 8323 8883 8939 8940 
8937 8296 8297 8325 8324 8885 8941 8942 8939 
8297 8298 8326 8325 8887 8943 8944 8941 8298 
8299 8327 8326 8889 8945 8946 8943 8299 8300 
8328 8327 8891 8947 8948 8945 8300 8301 8329 
8328 8893 8949 8950 8947 8301 8302 8330 8329 
8895 8951 8952 8949 8302 1017 1018 8330 8896 
1033 8953 8951 577 8303 8331 578 8898 8954 
8955 593 8303 8304 8332 8331 8900 8956 8957 
8954 8304 8305 8333 8332 8902 8958 8959 8956 
8305 8306 8334 8333 8904 8960 8961 8958 8306 
8307 8335 8334 8906 8962 8963 8960 8307 8308 
8336 8335 8908 8964 8965 8962 8308 8309 8337 
8336 8910 8966 8967 8964 8309 8310 8338 8337 
8912 8968 8969 8966 8310 8311 8339 8338 8914 
8970 8971 8968 8311 8312 8340 8339 8916 8972 
8973 8970 8312 8313 8341 8340 8918 8974 8975 
8972 8313 8314 8342 8341 8920 8976 8977 8974 
8314 8315 8343 8342 8922 8978 8979 8976 8315 
8316 8344 8343 8924 8980 8981 8978 8316 8317 
8345 8344 8926 8982 8983 8980 8317 8318 8346 
8345 8928 8984 8985 8982 8318 8319 8347 8346 
8930 8986 8987 8984 8319 8320 8348 8347 8932 
8988 8989 8986 8320 8321 8349 8348 8934 8990 
8991 8988 8321 8322 8350 8349 8936 8992 8993 
8990 8322 8323 8351 8350 8938 8994 8995 8992 
8323 8324 8352 8351 8940 8996 8997 8994 8324 
8325 8353 8352 8942 8998 8999 8996 8325 8326 
8354 8353 8944 9000 9001 8998 8326 8327 8355 
8354 8946 9002 9003 9000 8327 8328 8356 8355 
8948 9004 9005 9002 8328 8329 8357 8356 8950 
9006 9007 9004 8329 8330 8358 8357 8952 9008 
9009 9006 8330 1018 1019 8358 8953 1034 9010 
9008 578 8331 8359 579 8955 9011 9012 594 
8331 8332 8360 8359 8957 9013 9014 9011 8332 
8333 8361 8360 8959 9015 9016 9013 8333 8334 
8362 8361 8961 9017 9018 9015 8334 8335 8363 
8362 8963 9019 9020 9017 8335 8336 8364 8363 
8965 9021 9022 9019 8336 8337 8365 8364 8967 
9023 9024 9021 8337 8338 8366 8365 8969 9025 
9026 9023 8338 8339 8367 8366 8971 9027 9028 
9025 8339 8340 8368 8367 8973 9029 9030 9027 
8340 8341 8369 8368 8975 9031 9032 9029 8341 
8342 8370 8369 8977 9033 9034 9031 8342 8343 
8371 8370 8979 9035 9036 9033 8343 8344 8372 
8371 8981 9037 9038 9035 8344 8345 8373 8372 
8983 9039 9040 9037 8345 8346 8374 8373 8985 
9041 9042 9039 8346 8347 8375 8374 8987 9043 
9044 9041 8347 8348 8376 8375 8989 9045 9046 
9043 8348 8349 8377 8376 8991 9047 9048 9045 
8349 8350 8378 8377 8993 9049 9050 9047 8350 
8351 8379 8378 8995 9051 9052 9049 8351 8352 
8380 8379 8997 9053 9054 9051 8352 8353 8381 
8380 8999 9055 9056 9053 8353 8354 8382 8381 
9001 9057 9058 9055 8354 8355 8383 8382 9003 
9059 9060 9057 8355 8356 8384 8383 9005 9061 
9062 9059 8356 8357 8385 8384 9007 9063 9064 
9061 8357 8358 8386 8385 9009 9065 9066 9063 
8358 1019 1020 8386 9010 1035 9067 9065 579 
8359 8387 580 9012 9068 9069 595 8359 8360 
8388 8387 9014 9070 9071 9068 8360 8361 8389 
8388 9016 9072 9073 9070 8361 8362 8390 8389 
9018 9074 9075 9072 8362 8363 8391 8390 9020 
9076 9077 9074 8363 8364 8392 8391 9022 9078 
9079 9076 8364 8365 8393 8392 9024 9080 9081 
9078 8365 8366 8394 8393 9026 9082 9083 9080 
8366 8367 8395 8394 9028 9084 9085 9082 8367 
8368 8396 8395 9030 9086 9087 9084 8368 8369 
8397 8396 9032 9088 9089 9086 8369 8370 8398 
8397 9034 9090 9091 9088 8370 8371 8399 8398 
9036 9092 9093 9090 8371 8372 8400 8399 9038 
9094 9095 9092 8372 8373 8401 8400 9040 9096 
9097 9094 8373 8374 8402 8401 9042 9098 9099 
9096 8374 8375 8403 8402 9044 9100 9101 9098 
8375 8376 8404 8403 9046 9102 9103 9100 8376 
8377 8405 8404 9048 9104 9105 9102 8377 8378 
8406 8405 9050 9106 9107 9104 8378 8379 8407 
8406 9052 9108 9109 9106 8379 8380 8408 8407 
9054 9110 9111 9108 8380 8381 8409 8408 9056 
9112 9113 9110 8381 8382 8410 8409 9058 9114 
9115 9112 8382 8383 8411 8410 9060 9116 9117 
9114 8383 8384 8412 8411 9062 9118 9119 9116 
8384 8385 8413 8412 9064 9120 9121 9118 8385 
8386 8414 8413 9066 9122 9123 9120 8386 1020 
1021 8414 9067 1036 9124 9122 580 8387 8415 
581 9069 9125 9126 596 8387 8388 8416 8415 
9071 9127 9128 9125 8388 8389 8417 8416 9073 
9129 9130 9127 8389 8390 8418 8417 9075 9131 
9132 9129 8390 8391 8419 8418 9077 9133 9134 
9131 8391 8392 8420 8419 9079 9135 9136 9133 
8392 8393 8421 8420 9081 9137 9138 9135 8393 
8394 8422 8421 9083 9139 9140 9137 8394 8395 
8423 8422 9085 9141 9142 9139 8395 8396 8424 
8423 9087 9143 9144 9141 8396 8397 8425 8424 
9089 9145 9146 9143 8397 8398 8426 8425 9091 
9147 9148 9145 8398 8399 8427 8426 9093 9149 
9150 9147 8399 8400 8428 8427 9095 9151 9152 
9149 8400 8401 8429 8428 9097 9153 9154 9151 
8401 8402 8430 8429 9099 9155 9156 9153 8402 
8403 8431 8430 9101 9157 9158 9155 8403 8404 
8432 8431 9103 9159 9160 9157 8404 8405 8433 
8432 9105 9161 9162 9159 8405 8406 8434 8433 
9107 9163 9164 9161 8406 8407 8435 8434 9109 
9165 9166 9163 8407 8408 8436 8435 9111 9167 
9168 9165 8408 8409 8437 8436 9113 9169 9170 
9167 8409 8410 8438 8437 9115 9171 9172 9169 
8410 8411 8439 8438 9117 9173 9174 9171 8411 
8412 8440 8439 9119 9175 9176 9173 8412 8413 
8441 8440 9121 9177 9178 9175 8413 8414 8442 
8441 9123 9179 9180 9177 8414 1021 1022 8442 
9124 1037 9181 9179 581 8415 8443 582 9126 
9182 9183 597 8415 8416 8444 8443 9128 9184 
9185 9182 8416 8417 8445 8444 9130 9186 9187 
9184 8417 8418 8446 8445 9132 9188 9189 9186 
8418 8419 8447 8446 9134 9190 9191 9188 8419 
8420 8448 8447 9136 9192 9193 9190 8420 8421 
8449 8448 9138 9194 9195 9192 8421 8422 8450 
8449 9140 9196 9197 9194 8422 8423 8451 8450 
9142 9198 9199 9196 8423 8424 8452 8451 9144 
9200 9201 9198 8424 8425 8453 8452 9146 9202 
9203 9200 8425 8426 8454 8453 9148 9204 9205 
9202 8426 8427 8455 8454 9150 9206 9207 9204 
8427 8428 8456 8455 9152 9208 9209 9206 8428 
8429 8457 8456 9154 9210 9211 9208 8429 8430 
8458 8457 9156 9212 9213 9210 8430 8431 8459 
8458 9158 9214 9215 9212 8431 8432 8460 8459 
9160 9216 9217 9214 8432 8433 8461 8460 9162 
9218 9219 9216 8433 8434 8462 8461 9164 9220 
9221 9218 8434 8435 8463 8462 9166 9222 9223 
9220 8435 8436 8464 8463 9168 9224 9225 9222 
8436 8437 8465 8464 9170 9226 9227 9224 8437 
8438 8466 8465 9172 9228 9229 9226 8438 8439 
8467 8466 9174 9230 9231 9228 8439 8440 8468 
8467 9176 9232 9233 9230 8440 8441 8469 8468 
9178 9234 9235 9232 8441 8442 8470 8469 9180 
9236 9237 9234 8442 1022 1023 8470 9181 1038 
9238 9236 582 8443 8471 583 9183 9239 9240 
598 8443 8444 8472 8471 9185 9241 9242 9239 
8444 8445 8473 8472 9187 9243 9244 9241 8445 
8446 8474 8473 9189 9245 9246 9243 8446 8447 
8475 8474 9191 9247 9248 9245 8447 8448 8476 
8475 9193 9249 9250 9247 8448 8449 8477 8476 
9195 9251 9252 9249 8449 8450 8478 8477 9197 
9253 9254 9251 8450 8451 8479 8478 9199 9255 
9256 9253 8451 8452 8480 8479 9201 9257 9258 
9255 8452 8453 8481 8480 9203 9259 9260 9257 
8453 8454 8482 8481 9205 9261 9262 9259 8454 
8455 8483 8482 9207 9263 9264 9261 8455 8456 
8484 8483 9209 9265 9266 9263 8456 8457 8485 
8484 9211 9267 9268 9265 8457 8458 8486 8485 
9213 9269 9270 9267 8458 8459 8487 8486 9215 
9271 9272 9269 8459 8460 8488 8487 9217 9273 
9274 9271 8460 8461 8489 8488 9219 9275 9276 
9273 8461 8462 8490 8489 9221 9277 9278 9275 
8462 8463 8491 8490 9223 9279 9280 9277 8463 
8464 8492 8491 9225 9281 9282 9279 8464 8465 
8493 8492 9227 9283 9284 9281 8465 8466 8494 
8493 9229 9285 9286 9283 8466 8467 8495 8494 
9231 9287 9288 9285 8467 8468 8496 8495 9233 
9289 9290 9287 8468 8469 8497 8496 9235 9291 
9292 9289 8469 8470 8498 8497 9237 9293 9294 
9291 8470 1023 1024 8498 9238 1039 9295 9293 
583 8471 8499 584 9240 9296 9297 599 8471 
8472 8500 8499 9242 9298 9299 9296 8472 8473 
8501 8500 9244 9300 9301 9298 8473 8474 8502 
8501 9246 9302 9303 9300 8474 8475 8503 8502 
9248 9304 9305 9302 8475 8476 8504 8503 9250 
9306 9307 9304 8476 8477 8505 8504 9252 9308 
9309 9306 8477 8478 8506 8505 9254 9310 9311 
9308 8478 8479 8507 8506 9256 9312 9313 9310 
8479 8480 8508 8507 9258 9314 9315 9312 8480 
8481 8509 8508 9260 9316 9317 9314 8481 8482 
8510 8509 9262 9318 9319 9316 8482 8483 8511 
8510 9264 9320 9321 9318 8483 8484 8512 8511 
9266 9322 9323 9320 8484 8485 8513 8512 9268 
9324 9325 9322 8485 8486 8514 8513 9270 9326 
9327 9324 8486 8487 8515 8514 9272 9328 9329 
9326 8487 8488 8516 8515 9274 9330 9331 9328 
8488 8489 8517 8516 9276 9332 9333 9330 8489 
8490 8518 8517 9278 9334 9335 9332 8490 8491 
8519 8518 9280 9336 9337 9334 8491 8492 8520 
8519 9282 9338 9339 9336 8492 8493 8521 8520 
9284 9340 9341 9338 8493 8494 8522 8521 9286 
9342 9343 9340 8494 8495 8523 8522 9288 9344 
9345 9342 8495 8496 8524 8523 9290 9346 9347 
9344 8496 8497 8525 8524 9292 9348 9349 9346 
8497 8498 8526 8525 9294 9350 9351 9348 8498 
1024 1025 8526 9295 1040 9352 9350 584 8499 
8527 585 9297 9353 9354 600 8499 8500 8528 
8527 9299 9355 9356 9353 8500 8501 8529 8528 
9301 9357 9358 9355 8501 8502 8530 8529 9303 
9359 9360 9357 8502 8503 8531 8530 9305 9361 
9362 9359 8503 8504 8532 8531 9307 9363 9364 
9361 8504 8505 8533 8532 9309 9365 9366 9363 
8505 8506 8534 8533 9311 9367 9368 9365 8506 
8507 8535 8534 9313 9369 9370 9367 8507 8508 
8536 8535 9315 9371 9372 9369 8508 8509 8537 
8536 9317 9373 9374 9371 8509 8510 8538 8537 
9319 9375 9376 9373 8510 8511 8539 8538 9321 
9377 9378 9375 8511 8512 8540 8539 9323 9379 
9380 9377 8512 8513 8541 8540 9325 9381 9382 
9379 8513 8514 8542 8541 9327 9383 9384 9381 
8514 8515 8543 8542 9329 9385 9386 9383 8515 
8516 8544 8543 9331 9387 9388 9385 8516 8517 
8545 8544 9333 9389 9390 9387 8517 8518 8546 
8545 9335 9391 9392 9389 8518 8519 8547 8546 
9337 9393 9394 9391 8519 8520 8548 8547 9339 
9395 9396 9393 8520 8521 8549 8548 9341 9397 
9398 9395 8521 8522 8550 8549 9343 9399 9400 
9397 8522 8523 8551 8550 9345 9401 9402 9399 
8523 8524 8552 8551 9347 9403 9404 9401 8524 
8525 8553 8552 9349 9405 9406 9403 8525 8526 
8554 8553 9351 9407 9408 9405 8526 1025 1026 
8554 9352 1041 9409 9407 585 8527 602 14 
9354 9410 630 601 8527 8528 603 602 9356 
9411 631 9410 8528 8529 604 603 9358 9412 
632 9411 8529 8530 605 604 9360 9413 633 
9412 8530 8531 606 605 9362 9414 634 9413 
8531 8532 607 606 9364 9415 635 9414 8532 
8533 608 607 9366 9416 636 9415 8533 8534 
609 608 9368 9417 637 9416 8534 8535 610 
609 9370 9418 638 9417 8535 8536 611 610 
9372 9419 639 9418 8536 8537 612 611 9374 
9420 640 9419 8537 8538 613 612 9376 9421 
641 9420 8538 8539 614 613 9378 9422 642 
9421 8539 8540 615 614 9380 9423 643 9422 
8540 8541 616 615 9382 9424 644 9423 8541 
8542 617 616 9384 9425 645 9424 8542 8543 
618 617 9386 9426 646 9425 8543 8544 619 
618 9388 9427 647 9426 8544 8545 620 619 
9390 9428 648 9427 8545 8546 621 620 9392 
9429 649 9428 8546 8547 622 621 9394 9430 
650 9429 8547 8548 623 622 9396 9431 651 
9430 8548 8549 624 623 9398 9432 652 9431 
8549 8550 625 624 9400 9433 653 9432 8550 
8551 626 625 9402 9434 654 9433 8551 8552 
627 626 9404 9435 655 9434 8552 8553 628 
627 9406 9436 656 9435 8553 8554 629 628 
9408 9437 657 9436 8554 1026 15 629 9409 
1042 658 9437 15 1026 9438 659 1042 9648 
9649 673 1026 1025 9439 9438 1041 9650 9651 
9648 1025 1024 9440 9439 1040 9652 9653 9650 
1024 1023 9441 9440 1039 9654 9655 9652 1023 
1022 9442 9441 1038 9656 9657 9654 1022 1021 
9443 9442 1037 9658 9659 9656 1021 1020 9444 
9443 1036 9660 9661 9658 1020 1019 9445 9444 
1035 9662 9663 9660 1019 1018 9446 9445 1034 
9664 9665 9662 1018 1017 9447 9446 1033 9666 
9667 9664 1017 1016 9448 9447 1032 9668 9669 
9666 1016 1015 9449 9448 1031 9670 9671 9668 
1015 1014 9450 9449 1030 9672 9673 9670 1014 
1013 9451 9450 1029 9674 9675 9672 1013 1012 
9452 9451 1028 9676 9677 9674 1012 6 310 
9452 1027 324 9678 9676 659 9438 9453 660 
9649 9679 9680 674 9438 9439 9454 9453 9651 
9681 9682 9679 9439 9440 9455 9454 9653 9683 
9684 9681 9440 9441 9456 9455 9655 9685 9686 
9683 9441 9442 9457 9456 9657 9687 9688 9685 
9442 9443 9458 9457 9659 9689 9690 9687 9443 
9444 9459 9458 9661 9691 9692 9689 9444 9445 
9460 9459 9663 9693 9694 9691 9445 9446 9461 
9460 9665 9695 9696 9693 9446 9447 9462 9461 
9667 9697 9698 9695 9447 9448 9463 9462 9669 
9699 9700 9697 9448 9449 9464 9463 9671 9701 
9702 9699 9449 9450 9465 9464 9673 9703 9704 
9701 9450 9451 9466 9465 9675 9705 9706 9703 
9451 9452 9467 9466 9677 9707 9708 9705 9452 
310 311 9467 9678 325 9709 9707 660 9453 
9468 661 9680 9710 9711 675 9453 9454 9469 
9468 9682 9712 9713 9710 9454 9455 9470 9469 
9684 9714 9715 9712 9455 9456 9471 9470 9686 
9716 9717 9714 9456 9457 9472 9471 9688 9718 
9719 9716 9457 9458 9473 9472 9690 9720 9721 
9718 9458 9459 9474 9473 9692 9722 9723 9720 
9459 9460 9475 9474 9694 9724 9725 9722 9460 
9461 9476 9475 9696 9726 9727 9724 9461 9462 
9477 9476 9698 9728 9729 9726 9462 9463 9478 
9477 9700 9730 9731 9728 9463 9464 9479 9478 
9702 9732 9733 9730 9464 9465 9480 9479 9704 
9734 9735 9732 9465 9466 9481 9480 9706 9736 
9737 9734 9466 9467 9482 9481 9708 9738 9739 
9736 9467 311 312 9482 9709 326 9740 9738 
661 9468 9483 662 9711 9741 9742 676 9468 
9469 9484 9483 9713 9743 9744 9741 9469 9470 
9485 9484 9715 9745 9746 9743 9470 9471 9486 
9485 9717 9747 9748 9745 9471 9472 9487 9486 
9719 9749 9750 9747 9472 9473 9488 9487 9721 
9751 9752 9749 9473 9474 9489 9488 9723 9753 
9754 9751 9474 9475 9490 9489 9725 9755 9756 
9753 9475 9476 9491 9490 9727 9757 9758 9755 
9476 9477 9492 9491 9729 9759 9760 9757 9477 
9478 9493 9492 9731 9761 9762 9759 9478 9479 
9494 9493 9733 9763 9764 9761 9479 9480 9495 
9494 9735 9765 9766 9763 9480 9481 9496 9495 
9737 9767 9768 9765 9481 9482 9497 9496 9739 
9769 9770 9767 9482 312 313 9497 9740 327 
9771 9769 662 9483 9498 663 9742 9772 9773 
677 9483 9484 9499 9498 9744 9774 9775 9772 
9484 9485 9500 9499 9746 9776 9777 9774 9485 
9486 9501 9500 9748 9778 9779 9776 9486 9487 
9502 9501 9750 9780 9781 9778 9487 9488 9503 
9502 9752 9782 9783 9780 9488 9489 9504 9503 
9754 9784 9785 9782 9489 9490 9505 9504 9756 
9786 9787 9784 9490 9491 9506 9505 9758 9788 
9789 9786 9491 9492 9507 9506 9760 9790 9791 
9788 9492 9493 9508 9507 9762 9792 9793 9790 
9493 9494 9509 9508 9764 9794 9795 9792 9494 
9495 9510 9509 9766 9796 9797 9794 9495 9496 
9511 9510 9768 9798 9799 9796 9496 9497 9512 
9511 9770 9800 9801 9798 9497 313 314 9512 
9771 328 9802 9800 663 9498 9513 664 9773 
9803 9804 678 9498 9499 9514 9513 9775 9805 
9806 9803 9499 9500 9515 9514 9777 9807 9808 
9805 9500 9501 9516 9515 9779 9809 9810 9807 
9501 9502 9517 9516 9781 9811 9812 9809 9502 
9503 9518 9517 9783 9813 9814 9811 9503 9504 
9519 9518 9785 9815 9816 9813 9504 9505 9520 
9519 9787 9817 9818 9815 9505 9506 9521 9520 
9789 9819 9820 9817 9506 9507 9522 9521 9791 
9821 9822 9819 9507 9508 9523 9522 9793 9823 
9824 9821 9508 9509 9524 9523 9795 9825 9826 
9823 9509 9510 9525 9524 9797 9827 9828 9825 
9510 9511 9526 9525 9799 9829 9830 9827 9511 
9512 9527 9526 9801 9831 9832 9829 9512 314 
315 9527 9802 329 9833 9831 664 9513 9528 
665 9804 9834 9835 679 9513 9514 9529 9528 
9806 9836 9837 9834 9514 9515 9530 9529 9808 
9838 9839 9836 9515 9516 9531 9530 9810 9840 
9841 9838 9516 9517 9532 9531 9812 9842 9843 
9840 9517 9518 9533 9532 9814 9844 9845 9842 
9518 9519 9534 9533 9816 9846 9847 9844 9519 
9520 9535 9534 9818 9848 9849 9846 9520 9521 
9536 9535 9820 9850 9851 9848 9521 9522 9537 
9536 9822 9852 9853 9850 9522 9523 9538 9537 
9824 9854 9855 9852 9523 9524 9539 9538 9826 
9856 9857 9854 9524 9525 9540 9539 9828 9858 
9859 9856 9525 9526 9541 9540 9830 9860 9861 
9858 9526 9527 9542 9541 9832 9862 9863 9860 
9527 315 316 9542 9833 330 9864 9862 665 
9528 9543 666 9835 9865 9866 680 9528 9529 
9544 9543 9837 9867 9868 9865 9529 9530 9545 
9544 9839 9869 9870 9867 9530 9531 9546 9545 
9841 9871 9872 9869 9531 9532 9547 9546 9843 
9873 9874 9871 9532 9533 9548 9547 9845 9875 
9876 9873 9533 9534 9549 9548 9847 9877 9878 
9875 9534 9535 9550 9549 9849 9879 9880 9877 
9535 9536 9551 9550 9851 9881 9882 9879 9536 
9537 9552 9551 9853 9883 9884 9881 9537 9538 
9553 9552 9855 9885 9886 9883 9538 9539 9554 
9553 9857 9887 9888 9885 9539 9540 9555 9554 
9859 9889 9890 9887 9540 9541 9556 9555 9861 
9891 9892 9889 9541 9542 9557 9556 9863 9893 
9894 9891 9542 316 317 9557 9864 331 9895 
9893 666 9543 9558 667 9866 9896 9897 681 
9543 9544 9559 9558 9868 9898 9899 9896 9544 
9545 9560 9559 9870 9900 9901 9898 9545 9546 
9561 9560 9872 9902 9903 9900 9546 9547 9562 
9561 9874 9904 9905 9902 9547 9548 9563 9562 
9876 9906 9907 9904 9548 9549 9564 9563 9878 
9908 9909 9906 9549 9550 9565 9564 9880 9910 
9911 9908 9550 9551 9566 9565 9882 9912 9913 
9910 9551 9552 9567 9566 9884 9914 9915 9912 
9552 9553 9568 9567 9886 9916 9917 9914 9553 
9554 9569 9568 9888 9918 9919 9916 9554 9555 
9570 9569 9890 9920 9921 9918 9555 9556 9571 
9570 9892 9922 9923 9920 9556 9557 9572 9571 
9894 9924 9925 9922 9557 317 318 9572 9895 
332 9926 9924 667 9558 9573 668 9897 9927 
9928 682 9558 9559 9574 9573 9899 9929 9930 
9927 9559 9560 9575 9574 9901 9931 9932 9929 
9560 9561 9576 9575 9903 9933 9934 9931 9561 
9562 9577 9576 9905 9935 9936 9933 9562 9563 
9578 9577 9907 9937 9938 9935 9563 9564 9579 
9578 9909 9939 9940 9937 9564 9565 9580 9579 
9911 9941 9942 9939 9565 9566 9581 9580 9913 
9943 9944 9941 9566 9567 9582 9581 9915 9945 
9946 9943 9567 9568 9583 9582 9917 9947 9948 
9945 9568 9569 9584 9583 9919 9949 9950 9947 
9569 9570 9585 9584 9921 9951 9952 9949 9570 
9571 9586 9585 9923 9953 9954 9951 9571 9572 
9587 9586 9925 9955 9956 9953 9572 318 319 
9587 9926 333 9957 9955 668 9573 9588 669 
9928 9958 9959 683 9573 9574 9589 9588 9930 
9960 9961 9958 9574 9575 9590 9589 9932 9962 
9963 9960 9575 9576 9591 9590 9934 9964 9965 
9962 9576 9577 9592 9591 9936 9966 9967 9964 
9577 9578 9593 9592 9938 9968 9969 9966 9578 
9579 9594 9593 9940 9970 9971 9968 9579 9580 
9595 9594 9942 9972 9973 9970 9580 9581 9596 
9595 9944 9974 9975 9972 9581 9582 9597 9596 
9946 9976 9977 9974 9582 9583 9598 9597 9948 
9978 9979 9976 9583 9584 9599 9598 9950 9980 
9981 9978 9584 9585 9600 9599 9952 9982 9983 
9980 9585 9586 9601 9600 9954 9984 9985 9982 
9586 9587 9602 9601 9956 9986 9987 9984 9587 
319 320 9602 9957 334 9988 9986 669 9588 
9603 670 9959 9989 9990 684 9588 9589 9604 
9603 9961 9991 9992 9989 9589 9590 9605 9604 
9963 9993 9994 9991 9590 9591 9606 9605 9965 
9995 9996 9993 9591 9592 9607 9606 9967 9997 
9998 9995 9592 9593 9608 9607 9969 9999 10000 
9997 9593 9594 9609 9608 9971 10001 10002 9999 
9594 9595 9610 9609 9973 10003 10004 10001 9595 
9596 9611 9610 9975 10005 10006 10003 9596 9597 
9612 9611 9977 10007 10008 10005 9597 9598 9613 
9612 9979 10009 10010 10007 9598 9599 9614 9613 
9981 10011 10012 10009 9599 9600 9615 9614 9983 
10013 10014 10011 9600 9601 9616 9615 9985 10015 
10016 10013 9601 9602 9617 9616 9987 10017 10018 
10015 9602 320 321 9617 9988 335 10019 10017 
670 9603 9618 671 9990 10020 10021 685 9603 
9604 9619 9618 9992 10022 10023 10020 9604 9605 
9620 9619 9994 10024 10025 10022 9605 9606 9621 
9620 9996 10026 10027 10024 9606 9607 9622 9621 
9998 10028 10029 10026 9607 9608 9623 9622 10000 
10030 10031 10028 9608 9609 9624 9623 10002 10032 
10033 10030 9609 9610 9625 9624 10004 10034 10035 
10032 9610 9611 9626 9625 10006 10036 10037 10034 
9611 9612 9627 9626 10008 10038 10039 10036 9612 
9613 9628 9627 10010 10040 10041 10038 9613 9614 
9629 9628 10012 10042 10043 10040 9614 9615 9630 
9629 10014 10044 10045 10042 9615 9616 9631 9630 
10016 10046 10047 10044 9616 9617 9632 9631 10018 
10048 10049 10046 9617 321 322 9632 10019 336 
10050 10048 671 9618 9633 672 10021 10051 10052 
686 9618 9619 9634 9633 10023 10053 10054 10051 
9619 9620 9635 9634 10025 10055 10056 10053 9620 
9621 9636 9635 10027 10057 10058 10055 9621 9622 
9637 9636 10029 10059 10060 10057 9622 9623 9638 
9637 10031 10061 10062 10059 9623 9624 9639 9638 
10033 10063 10064 10061 9624 9625 9640 9639 10035 
10065 10066 10063 9625 9626 9641 9640 10037 10067 
10068 10065 9626 9627 9642 9641 10039 10069 10070 
10067 9627 9628 9643 9642 10041 10071 10072 10069 
9628 9629 9644 9643 10043 10073 10074 10071 9629 
9630 9645 9644 10045 10075 10076 10073 9630 9631 
9646 9645 10047 10077 10078 10075 9631 9632 9647 
9646 10049 10079 10080 10077 9632 322 323 9647 
10050 337 10081 10079 672 9633 1057 16 10052 
10082 1073 687 9633 9634 1056 1057 10054 10083 
1072 10082 9634 9635 1055 1056 10056 10084 1071 
10083 9635 9636 1054 1055 10058 10085 1070 10084 
9636 9637 1053 1054 10060 10086 1069 10085 9637 
9638 1052 1053 10062 10087 1068 10086 9638 9639 
1051 1052 10064 10088 1067 10087 9639 9640 1050 
1051 10066 10089 1066 10088 9640 9641 1049 1050 
10068 10090 1065 10089 9641 9642 1048 1049 10070 
10091 1064 10090 9642 9643 1047 1048 10072 10092 
1063 10091 9643 9644 1046 1047 10074 10093 1062 
10092 9644 9645 1045 1046 10076 10094 1061 10093 
9645 9646 1044 1045 10078 10095 1060 10094 9646 
9647 1043 1044 10080 10096 1059 10095 9647 323 
7 1043 10081 338 1058 10096 16 1057 10097 
688 1073 10517 10518 716 1057 1056 10098 10097 
1072 10519 10520 10517 1056 1055 10099 10098 1071 
10521 10522 10519 1055 1054 10100 10099 1070 10523 
10524 10521 1054 1053 10101 10100 1069 10525 10526 
10523 1053 1052 10102 10101 1068 10527 10528 10525 
1052 1051 10103 10102 1067 10529 10530 10527 1051 
1050 10104 10103 1066 10531 10532 10529 1050 1049 
10105 10104 1065 10533 10534 10531 1049 1048 10106 
10105 1064 10535 10536 10533 1048 1047 10107 10106 
1063 10537 10538 10535 1047 1046 10108 10107 1062 
10539 10540 10537 1046 1045 10109 10108 1061 10541 
10542 10539 1045 1044 10110 10109 1060 10543 10544 
10541 1044 1043 10111 10110 1059 10545 10546 10543 
1043 7 1074 10111 1058 1102 10547 10545 688 
10097 10112 689 10518 10548 10549 717 10097 10098 
10113 10112 10520 10550 10551 10548 10098 10099 10114 
10113 10522 10552 10553 10550 10099 10100 10115 10114 
10524 10554 10555 10552 10100 10101 10116 10115 10526 
10556 10557 10554 10101 10102 10117 10116 10528 10558 
10559 10556 10102 10103 10118 10117 10530 10560 10561 
10558 10103 10104 10119 10118 10532 10562 10563 10560 
10104 10105 10120 10119 10534 10564 10565 10562 10105 
10106 10121 10120 10536 10566 10567 10564 10106 10107 
10122 10121 10538 10568 10569 10566 10107 10108 10123 
10122 10540 10570 10571 10568 10108 10109 10124 10123 
10542 10572 10573 10570 10109 10110 10125 10124 10544 
10574 10575 10572 10110 10111 10126 10125 10546 10576 
10577 10574 10111 1074 1075 10126 10547 1103 10578 
10576 689 10112 10127 690 10549 10579 10580 718 
10112 10113 10128 10127 10551 10581 10582 10579 10113 
10114 10129 10128 10553 10583 10584 10581 10114 10115 
10130 10129 10555 10585 10586 10583 10115 10116 10131 
10130 10557 10587 10588 10585 10116 10117 10132 10131 
10559 10589 10590 10587 10117 10118 10133 10132 10561 
10591 10592 10589 10118 10119 10134 10133 10563 10593 
10594 10591 10119 10120 10135 10134 10565 10595 10596 
10593 10120 10121 10136 10135 10567 10597 10598 10595 
10121 10122 10137 10136 10569 10599 10600 10597 10122 
10123 10138 10137 10571 10601 10602 10599 10123 10124 
10139 10138 10573 10603 10604 10601 10124 10125 10140 
10139 10575 10605 10606 10603 10125 10126 10141 10140 
10577 10607 10608 10605 10126 1075 1076 10141 10578 
1104 10609 10607 690 10127 10142 691 10580 10610 
10611 719 10127 10128 10143 10142 10582 10612 10613 
10610 10128 10129 10144 10143 10584 10614 10615 10612 
10129 10130 10145 10144 10586 10616 10617 10614 10130 
10131 10146 10145 10588 10618 10619 10616 10131 10132 
10147 10146 10590 10620 10621 10618 10132 10133 10148 
10147 10592 10622 10623 10620 10133 10134 10149 10148 
10594 10624 10625 10622 10134 10135 10150 10149 10596 
10626 10627 10624 10135 10136 10151 10150 10598 10628 
10629 10626 10136 10137 10152 10151 10600 10630 10631 
10628 10137 10138 10153 10152 10602 10632 10633 10630 
10138 10139 10154 10153 10604 10634 10635 10632 10139 
10140 10155 10154 10606 10636 10637 10634 10140 10141 
10156 10155 10608 10638 10639 10636 10141 1076 1077 
10156 10609 1105 10640 10638 691 10142 10157 692 
10611 10641 10642 720 10142 10143 10158 10157 10613 
10643 10644 10641 10143 10144 10159 10158 10615 10645 
10646 10643 10144 10145 10160 10159 10617 10647 10648 
10645 10145 10146 10161 10160 10619 10649 10650 10647 
10146 10147 10162 10161 10621 10651 10652 10649 10147 
10148 10163 10162 10623 10653 10654 10651 10148 10149 
10164 10163 10625 10655 10656 10653 10149 10150 10165 
10164 10627 10657 10658 10655 10150 10151 10166 10165 
10629 10659 10660 10657 10151 10152 10167 10166 10631 
10661 10662 10659 10152 10153 10168 10167 10633 10663 
10664 10661 10153 10154 10169 10168 10635 10665 10666 
10663 10154 10155 10170 10169 10637 10667 10668 10665 
10155 10156 10171 10170 10639 10669 10670 10667 10156 
1077 1078 10171 10640 1106 10671 10669 692 10157 
10172 693 10642 10672 10673 721 10157 10158 10173 
10172 10644 10674 10675 10672 10158 10159 10174 10173 
10646 10676 10677 10674 10159 10160 10175 10174 10648 
10678 10679 10676 10160 10161 10176 10175 10650 10680 
10681 10678 10161 10162 10177 10176 10652 10682 10683 
10680 10162 10163 10178 10177 10654 10684 10685 10682 
10163 10164 10179 10178 10656 10686 10687 10684 10164 
10165 10180 10179 10658 10688 10689 10686 10165 10166 
10181 10180 10660 10690 10691 10688 10166 10167 10182 
10181 10662 10692 10693 10690 10167 10168 10183 10182 
10664 10694 10695 10692 10168 10169 10184 10183 10666 
10696 10697 10694 10169 10170 10185 10184 10668 10698 
10699 10696 10170 10171 10186 10185 10670 10700 10701 
10698 10171 1078 1079 10186 10671 1107 10702 10700 
693 10172 10187 694 10673 10703 10704 722 10172 
10173 10188 10187 10675 10705 10706 10703 10173 10174 
10189 10188 10677 10707 10708 10705 10174 10175 10190 
10189 10679 10709 10710 10707 10175 10176 10191 10190 
10681 10711 10712 10709 10176 10177 10192 10191 10683 
10713 10714 10711 10177 10178 10193 10192 10685 10715 
10716 10713 10178 10179 10194 10193 10687 10717 10718 
10715 10179 10180 10195 10194 10689 10719 10720 10717 
10180 10181 10196 10195 10691 10721 10722 10719 10181 
10182 10197 10196 10693 10723 10724 10721 10182 10183 
10198 10197 10695 10725 10726 10723 10183 10184 10199 
10198 10697 10727 10728 10725 10184 10185 10200 10199 
10699 10729 10730 10727 10185 10186 10201 10200 10701 
10731 10732 10729 10186 1079 1080 10201 10702 1108 
10733 10731 694 10187 10202 695 10704 10734 10735 
723 10187 10188 10203 10202 10706 10736 10737 10734 
10188 10189 10204 10203 10708 10738 10739 10736 10189 
10190 10205 10204 10710 10740 10741 10738 10190 10191 
10206 10205 10712 10742 10743 10740 10191 10192 10207 
10206 10714 10744 10745 10742 10192 10193 10208 10207 
10716 10746 10747 10744 10193 10194 10209 10208 10718 
10748 10749 10746 10194 10195 10210 10209 10720 10750 
10751 10748 10195 10196 10211 10210 10722 10752 10753 
10750 10196 10197 10212 10211 10724 10754 10755 10752 
10197 10198 10213 10212 10726 10756 10757 10754 10198 
10199 10214 10213 10728 10758 10759 10756 10199 10200 
10215 10214 10730 10760 10761 10758 10200 10201 10216 
10215 10732 10762 10763 10760 10201 1080 1081 10216 
10733 1109 10764 10762 695 10202 10217 696 10735 
10765 10766 724 10202 10203 10218 10217 10737 10767 
10768 10765 10203 10204 10219 10218 10739 10769 10770 
10767 10204 10205 10220 10219 10741 10771 10772 10769 
10205 10206 10221 10220 10743 10773 10774 10771 10206 
10207 10222 10221 10745 10775 10776 10773 10207 10208 
10223 10222 10747 10777 10778 10775 10208 10209 10224 
10223 10749 10779 10780 10777 10209 10210 10225 10224 
10751 10781 10782 10779 10210 10211 10226 10225 10753 
10783 10784 10781 10211 10212 10227 10226 10755 10785 
10786 10783 10212 10213 10228 10227 10757 10787 10788 
10785 10213 10214 10229 10228 10759 10789 10790 10787 
10214 10215 10230 10229 10761 10791 10792 10789 10215 
10216 10231 10230 10763 10793 10794 10791 10216 1081 
1082 10231 10764 1110 10795 10793 696 10217 10232 
697 10766 10796 10797 725 10217 10218 10233 10232 
10768 10798 10799 10796 10218 10219 10234 10233 10770 
10800 10801 10798 10219 10220 10235 10234 10772 10802 
10803 10800 10220 10221 10236 10235 10774 10804 10805 
10802 10221 10222 10237 10236 10776 10806 10807 10804 
10222 10223 10238 10237 10778 10808 10809 10806 10223 
10224 10239 10238 10780 10810 10811 10808 10224 10225 
10240 10239 10782 10812 10813 10810 10225 10226 10241 
10240 10784 10814 10815 10812 10226 10227 10242 10241 
10786 10816 10817 10814 10227 10228 10243 10242 10788 
10818 10819 10816 10228 10229 10244 10243 10790 10820 
10821 10818 10229 10230 10245 10244 10792 10822 10823 
10820 10230 10231 10246 10245 10794 10824 10825 10822 
10231 1082 1083 10246 10795 1111 10826 10824 697 
10232 10247 698 10797 10827 10828 726 10232 10233 
10248 10247 10799 10829 10830 10827 10233 10234 10249 
10248 10801 10831 10832 10829 10234 10235 10250 10249 
10803 10833 10834 10831 10235 10236 10251 10250 10805 
10835 10836 10833 10236 10237 10252 10251 10807 10837 
10838 10835 10237 10238 10253 10252 10809 10839 10840 
10837 10238 10239 10254 10253 10811 10841 10842 10839 
10239 10240 10255 10254 10813 10843 10844 10841 10240 
10241 10256 10255 10815 10845 10846 10843 10241 10242 
10257 10256 10817 10847 10848 10845 10242 10243 10258 
10257 10819 10849 10850 10847 10243 10244 10259 10258 
10821 10851 10852 10849 10244 10245 10260 10259 10823 
10853 10854 10851 10245 10246 10261 10260 10825 10855 
10856 10853 10246 1083 1084 10261 10826 1112 10857 
10855 698 10247 10262 699 10828 10858 10859 727 
10247 10248 10263 10262 10830 10860 10861 10858 10248 
10249 10264 10263 10832 10862 10863 10860 10249 10250 
10265 10264 10834 10864 10865 10862 10250 10251 10266 
10265 10836 10866 10867 10864 10251 10252 10267 10266 
10838 10868 10869 10866 10252 10253 10268 10267 10840 
10870 10871 10868 10253 10254 10269 10268 10842 10872 
10873 10870 10254 10255 10270 10269 10844 10874 10875 
10872 10255 10256 10271 10270 10846 10876 10877 10874 
10256 10257 10272 10271 10848 10878 10879 10876 10257 
10258 10273 10272 10850 10880 10881 10878 10258 10259 
10274 10273 10852 10882 10883 10880 10259 10260 10275 
10274 10854 10884 10885 10882 10260 10261 10276 10275 
10856 10886 10887 10884 10261 1084 1085 10276 10857 
1113 10888 10886 699 10262 10277 700 10859 10889 
10890 728 10262 10263 10278 10277 10861 10891 10892 
10889 10263 10264 10279 10278 10863 10893 10894 10891 
10264 10265 10280 10279 10865 10895 10896 10893 10265 
10266 10281 10280 10867 10897 10898 10895 10266 10267 
10282 10281 10869 10899 10900 10897 10267 10268 10283 
10282 10871 10901 10902 10899 10268 10269 10284 10283 
10873 10903 10904 10901 10269 10270 10285 10284 10875 
10905 10906 10903 10270 10271 10286 10285 10877 10907 
10908 10905 10271 10272 10287 10286 10879 10909 10910 
10907 10272 10273 10288 10287 10881 10911 10912 10909 
10273 10274 10289 10288 10883 10913 10914 10911 10274 
10275 10290 10289 10885 10915 10916 10913 10275 10276 
10291 10290 10887 10917 10918 10915 10276 1085 1086 
10291 10888 1114 10919 10917 700 10277 10292 701 
10890 10920 10921 729 10277 10278 10293 10292 10892 
10922 10923 10920 10278 10279 10294 10293 10894 10924 
10925 10922 10279 10280 10295 10294 10896 10926 10927 
10924 10280 10281 10296 10295 10898 10928 10929 10926 
10281 10282 10297 10296 10900 10930 10931 10928 10282 
10283 10298 10297 10902 10932 10933 10930 10283 10284 
10299 10298 10904 10934 10935 10932 10284 10285 10300 
10299 10906 10936 10937 10934 10285 10286 10301 10300 
10908 10938 10939 10936 10286 10287 10302 10301 10910 
10940 10941 10938 10287 10288 10303 10302 10912 10942 
10943 10940 10288 10289 10304 10303 10914 10944 10945 
10942 10289 10290 10305 10304 10916 10946 10947 10944 
10290 10291 10306 10305 10918 10948 10949 10946 10291 
1086 1087 10306 10919 1115 10950 10948 701 10292 
10307 702 10921 10951 10952 730 10292 10293 10308 
10307 10923 10953 10954 10951 10293 10294 10309 10308 
10925 10955 10956 10953 10294 10295 10310 10309 10927 
10957 10958 10955 10295 10296 10311 10310 10929 10959 
10960 10957 10296 10297 10312 10311 10931 10961 10962 
10959 10297 10298 10313 10312 10933 10963 10964 10961 
10298 10299 10314 10313 10935 10965 10966 10963 10299 
10300 10315 10314 10937 10967 10968 10965 10300 10301 
10316 10315 10939 10969 10970 10967 10301 10302 10317 
10316 10941 10971 10972 10969 10302 10303 10318 10317 
10943 10973 10974 10971 10303 10304 10319 10318 10945 
10975 10976 10973 10304 10305 10320 10319 10947 10977 
10978 10975 10305 10306 10321 10320 10949 10979 10980 
10977 10306 1087 1088 10321 10950 1116 10981 10979 
702 10307 10322 703 10952 10982 10983 731 10307 
10308 10323 10322 10954 10984 10985 10982 10308 10309 
10324 10323 10956 10986 10987 10984 10309 10310 10325 
10324 10958 10988 10989 10986 10310 10311 10326 10325 
10960 10990 10991 10988 10311 10312 10327 10326 10962 
10992 10993 10990 10312 10313 10328 10327 10964 10994 
10995 10992 10313 10314 10329 10328 10966 10996 10997 
10994 10314 10315 10330 10329 10968 10998 10999 10996 
10315 10316 10331 10330 10970 11000 11001 10998 10316 
10317 10332 10331 10972 11002 11003 11000 10317 10318 
10333 10332 10974 11004 11005 11002 10318 10319 10334 
10333 10976 11006 11007 11004 10319 10320 10335 10334 
10978 11008 11009 11006 10320 10321 10336 10335 10980 
11010 11011 11008 10321 1088 1089 10336 10981 1117 
11012 11010 703 10322 10337 704 10983 11013 11014 
732 10322 10323 10338 10337 10985 11015 11016 11013 
10323 10324 10339 10338 10987 11017 11018 11015 10324 
10325 10340 10339 10989 11019 11020 11017 10325 10326 
10341 10340 10991 11021 11022 11019 10326 10327 10342 
10341 10993 11023 11024 11021 10327 10328 10343 10342 
10995 11025 11026 11023 10328 10329 10344 10343 10997 
11027 11028 11025 10329 10330 10345 10344 10999 11029 
11030 11027 10330 10331 10346 10345 11001 11031 11032 
11029 10331 10332 10347 10346 11003 11033 11034 11031 
10332 10333 10348 10347 11005 11035 11036 11033 10333 
10334 10349 10348 11007 11037 11038 11035 10334 10335 
10350 10349 11009 11039 11040 11037 10335 10336 10351 
10350 11011 11041 11042 11039 10336 1089 1090 10351 
11012 1118 11043 11041 704 10337 10352 705 11014 
11044 11045 733 10337 10338 10353 10352 11016 11046 
11047 11044 10338 10339 10354 10353 11018 11048 11049 
11046 10339 10340 10355 10354 11020 11050 11051 11048 
10340 10341 10356 10355 11022 11052 11053 11050 10341 
10342 10357 10356 11024 11054 11055 11052 10342 10343 
10358 10357 11026 11056 11057 11054 10343 10344 10359 
10358 11028 11058 11059 11056 10344 10345 10360 10359 
11030 11060 11061 11058 10345 10346 10361 10360 11032 
11062 11063 11060 10346 10347 10362 10361 11034 11064 
11065 11062 10347 10348 10363 10362 11036 11066 11067 
11064 10348 10349 10364 10363 11038 11068 11069 11066 
10349 10350 10365 10364 11040 11070 11071 11068 10350 
10351 10366 10365 11042 11072 11073 11070 10351 1090 
1091 10366 11043 1119 11074 11072 705 10352 10367 
706 11045 11075 11076 734 10352 10353 10368 10367 
11047 11077 11078 11075 10353 10354 10369 10368 11049 
11079 11080 11077 10354 10355 10370 10369 11051 11081 
11082 11079 10355 10356 10371 10370 11053 11083 11084 
11081 10356 10357 10372 10371 11055 11085 11086 11083 
10357 10358 10373 10372 11057 11087 11088 11085 10358 
10359 10374 10373 11059 11089 11090 11087 10359 10360 
10375 10374 11061 11091 11092 11089 10360 10361 10376 
10375 11063 11093 11094 11091 10361 10362 10377 10376 
11065 11095 11096 11093 10362 10363 10378 10377 11067 
11097 11098 11095 10363 10364 10379 10378 11069 11099 
11100 11097 10364 10365 10380 10379 11071 11101 11102 
11099 10365 10366 10381 10380 11073 11103 11104 11101 
10366 1091 1092 10381 11074 1120 11105 11103 706 
10367 10382 707 11076 11106 11107 735 10367 10368 
10383 10382 11078 11108 11109 11106 10368 10369 10384 
10383 11080 11110 11111 11108 10369 10370 10385 10384 
11082 11112 11113 11110 10370 10371 10386 10385 11084 
11114 11115 11112 10371 10372 10387 10386 11086 11116 
11117 11114 10372 10373 10388 10387 11088 11118 11119 
11116 10373 10374 10389 10388 11090 11120 11121 11118 
10374 10375 10390 10389 11092 11122 11123 11120 10375 
10376 10391 10390 11094 11124 11125 11122 10376 10377 
10392 10391 11096 11126 11127 11124 10377 10378 10393 
10392 11098 11128 11129 11126 10378 10379 10394 10393 
11100 11130 11131 11128 10379 10380 10395 10394 11102 
11132 11133 11130 10380 10381 10396 10395 11104 11134 
11135 11132 10381 1092 1093 10396 11105 1121 11136 
11134 707 10382 10397 708 11107 11137 11138 736 
10382 10383 10398 10397 11109 11139 11140 11137 10383 
10384 10399 10398 11111 11141 11142 11139 10384 10385 
10400 10399 11113 11143 11144 11141 10385 10386 10401 
10400 11115 11145 11146 11143 10386 10387 10402 10401 
11117 11147 11148 11145 10387 10388 10403 10402 11119 
11149 11150 11147 10388 10389 10404 10403 11121 11151 
11152 11149 10389 10390 10405 10404 11123 11153 11154 
11151 10390 10391 10406 10405 11125 11155 11156 11153 
10391 10392 10407 10406 11127 11157 11158 11155 10392 
10393 10408 10407 11129 11159 11160 11157 10393 10394 
10409 10408 11131 11161 11162 11159 10394 10395 10410 
10409 11133 11163 11164 11161 10395 10396 10411 10410 
11135 11165 11166 11163 10396 1093 1094 10411 11136 
1122 11167 11165 708 10397 10412 709 11138 11168 
11169 737 10397 10398 10413 10412 11140 11170 11171 
11168 10398 10399 10414 10413 11142 11172 11173 11170 
10399 10400 10415 10414 11144 11174 11175 11172 10400 
10401 10416 10415 11146 11176 11177 11174 10401 10402 
10417 10416 11148 11178 11179 11176 10402 10403 10418 
10417 11150 11180 11181 11178 10403 10404 10419 10418 
11152 11182 11183 11180 10404 10405 10420 10419 11154 
11184 11185 11182 10405 10406 10421 10420 11156 11186 
11187 11184 10406 10407 10422 10421 11158 11188 11189 
11186 10407 10408 10423 10422 11160 11190 11191 11188 
10408 10409 10424 10423 11162 11192 11193 11190 10409 
10410 10425 10424 11164 11194 11195 11192 10410 10411 
10426 10425 11166 11196 11197 11194 10411 1094 1095 
10426 11167 1123 11198 11196 709 10412 10427 710 
11169 11199 11200 738 10412 10413 10428 10427 11171 
11201 11202 11199 10413 10414 10429 10428 11173 11203 
11204 11201 10414 10415 10430 10429 11175 11205 11206 
11203 10415 10416 10431 10430 11177 11207 11208 11205 
10416 10417 10432 10431 11179 11209 11210 11207 10417 
10418 10433 10432 11181 11211 11212 11209 10418 10419 
10434 10433 11183 11213 11214 11211 10419 10420 10435 
10434 11185 11215 11216 11213 10420 10421 10436 10435 
11187 11217 11218 11215 10421 10422 10437 10436 11189 
11219 11220 11217 10422 10423 10438 10437 11191 11221 
11222 11219 10423 10424 10439 10438 11193 11223 11224 
11221 10424 10425 10440 10439 11195 11225 11226 11223 
10425 10426 10441 10440 11197 11227 11228 11225 10426 
1095 1096 10441 11198 1124 11229 11227 710 10427 
10442 711 11200 11230 11231 739 10427 10428 10443 
10442 11202 11232 11233 11230 10428 10429 10444 10443 
11204 11234 11235 11232 10429 10430 10445 10444 11206 
11236 11237 11234 10430 10431 10446 10445 11208 11238 
11239 11236 10431 10432 10447 10446 11210 11240 11241 
11238 10432 10433 10448 10447 11212 11242 11243 11240 
10433 10434 10449 10448 11214 11244 11245 11242 10434 
10435 10450 10449 11216 11246 11247 11244 10435 10436 
10451 10450 11218 11248 11249 11246 10436 10437 10452 
10451 11220 11250 11251 11248 10437 10438 10453 10452 
11222 11252 11253 11250 10438 10439 10454 10453 11224 
11254 11255 11252 10439 10440 10455 10454 11226 11256 
11257 11254 10440 10441 10456 10455 11228 11258 11259 
11256 10441 1096 1097 10456 11229 1125 11260 11258 
711 10442 10457 712 11231 11261 11262 740 10442 
10443 10458 10457 11233 11263 11264 11261 10443 10444 
10459 10458 11235 11265 11266 11263 10444 10445 10460 
10459 11237 11267 11268 11265 10445 10446 10461 10460 
11239 11269 11270 11267 10446 10447 10462 10461 11241 
11271 11272 11269 10447 10448 10463 10462 11243 11273 
11274 11271 10448 10449 10464 10463 11245 11275 11276 
11273 10449 10450 10465 10464 11247 11277 11278 11275 
10450 10451 10466 10465 11249 11279 11280 11277 10451 
10452 10467 10466 11251 11281 11282 11279 10452 10453 
10468 10467 11253 11283 11284 11281 10453 10454 10469 
10468 11255 11285 11286 11283 10454 10455 10470 10469 
11257 11287 11288 11285 10455 10456 10471 10470 11259 
11289 11290 11287 10456 1097 1098 10471 11260 1126 
11291 11289 712 10457 10472 713 11262 11292 11293 
741 10457 10458 10473 10472 11264 11294 11295 11292 
10458 10459 10474 10473 11266 11296 11297 11294 10459 
10460 10475 10474 11268 11298 11299 11296 10460 10461 
10476 10475 11270 11300 11301 11298 10461 10462 10477 
10476 11272 11302 11303 11300 10462 10463 10478 10477 
11274 11304 11305 11302 10463 10464 10479 10478 11276 
11306 11307 11304 10464 10465 10480 10479 11278 11308 
11309 11306 10465 10466 10481 10480 11280 11310 11311 
11308 10466 10467 10482 10481 11282 11312 11313 11310 
10467 10468 10483 10482 11284 11314 11315 11312 10468 
10469 10484 10483 11286 11316 11317 11314 10469 10470 
10485 10484 11288 11318 11319 11316 10470 10471 10486 
10485 11290 11320 11321 11318 10471 1098 1099 10486 
11291 1127 11322 11320 713 10472 10487 714 11293 
11323 11324 742 10472 10473 10488 10487 11295 11325 
11326 11323 10473 10474 10489 10488 11297 11327 11328 
11325 10474 10475 10490 10489 11299 11329 11330 11327 
10475 10476 10491 10490 11301 11331 11332 11329 10476 
10477 10492 10491 11303 11333 11334 11331 10477 10478 
10493 10492 11305 11335 11336 11333 10478 10479 10494 
10493 11307 11337 11338 11335 10479 10480 10495 10494 
11309 11339 11340 11337 10480 10481 10496 10495 11311 
11341 11342 11339 10481 10482 10497 10496 11313 11343 
11344 11341 10482 10483 10498 10497 11315 11345 11346 
11343 10483 10484 10499 10498 11317 11347 11348 11345 
10484 10485 10500 10499 11319 11349 11350 11347 10485 
10486 10501 10500 11321 11351 11352 11349 10486 1099 
1100 10501 11322 1128 11353 11351 714 10487 10502 
715 11324 11354 11355 743 10487 10488 10503 10502 
11326 11356 11357 11354 10488 10489 10504 10503 11328 
11358 11359 11356 10489 10490 10505 10504 11330 11360 
11361 11358 10490 10491 10506 10505 11332 11362 11363 
11360 10491 10492 10507 10506 11334 11364 11365 11362 
10492 10493 10508 10507 11336 11366 11367 11364 10493 
10494 10509 10508 11338 11368 11369 11366 10494 10495 
10510 10509 11340 11370 11371 11368 10495 10496 10511 
10510 11342 11372 11373 11370 10496 10497 10512 10511 
11344 11374 11375 11372 10497 10498 10513 10512 11346 
11376 11377 11374 10498 10499 10514 10513 11348 11378 
11379 11376 10499 10500 10515 10514 11350 11380 11381 
11378 10500 10501 10516 10515 11352 11382 11383 11380 
10501 1100 1101 10516 11353 1129 11384 11382 715 
10502 745 17 11355 11385 760 744 10502 10503 
746 745 11357 11386 761 11385 10503 10504 747 
746 11359 11387 762 11386 10504 10505 748 747 
11361 11388 763 11387 10505 10506 749 748 11363 
11389 764 11388 10506 10507 750 749 11365 11390 
765 11389 10507 10508 751 750 11367 11391 766 
11390 10508 10509 752 751 11369 11392 767 11391 
10509 10510 753 752 11371 11393 768 11392 10510 
10511 754 753 11373 11394 769 11393 10511 10512 
755 754 11375 11395 770 11394 10512 10513 756 
755 11377 11396 771 11395 10513 10514 757 756 
11379 11397 772 11396 10514 10515 758 757 11381 
11398 773 11397 10515 10516 759 758 11383 11399 
774 11398 10516 1101 18 759 11384 1130 775 
11399 18 1101 11400 776 1130 11792 11793 790 
1101 1100 11401 11400 1129 11794 11795 11792 1100 
1099 11402 11401 1128 11796 11797 11794 1099 1098 
11403 11402 1127 11798 11799 11796 1098 1097 11404 
11403 1126 11800 11801 11798 1097 1096 11405 11404 
1125 11802 11803 11800 1096 1095 11406 11405 1124 
11804 11805 11802 1095 1094 11407 11406 1123 11806 
11807 11804 1094 1093 11408 11407 1122 11808 11809 
11806 1093 1092 11409 11408 1121 11810 11811 11808 
1092 1091 11410 11409 1120 11812 11813 11810 1091 
1090 11411 11410 1119 11814 11815 11812 1090 1089 
11412 11411 1118 11816 11817 11814 1089 1088 11413 
11412 1117 11818 11819 11816 1088 1087 11414 11413 
1116 11820 11821 11818 1087 1086 11415 11414 1115 
11822 11823 11820 1086 1085 11416 11415 1114 11824 
11825 11822 1085 1084 11417 11416 1113 11826 11827 
11824 1084 1083 11418 11417 1112 11828 11829 11826 
1083 1082 11419 11418 1111 11830 11831 11828 1082 
1081 11420 11419 1110 11832 11833 11830 1081 1080 
11421 11420 1109 11834 11835 11832 1080 1079 11422 
11421 1108 11836 11837 11834 1079 1078 11423 11422 
1107 11838 11839 11836 1078 1077 11424 11423 1106 
11840 11841 11838 1077 1076 11425 11424 1105 11842 
11843 11840 1076 1075 11426 11425 1104 11844 11845 
11842 1075 1074 11427 11426 1103 11846 11847 11844 
1074 7 339 11427 1102 353 11848 11846 776 
11400 11428 777 11793 11849 11850 791 11400 11401 
11429 11428 11795 11851 11852 11849 11401 11402 11430 
11429 11797 11853 11854 11851 11402 11403 11431 11430 
11799 11855 11856 11853 11403 11404 11432 11431 11801 
11857 11858 11855 11404 11405 11433 11432 11803 11859 
11860 11857 11405 11406 11434 11433 11805 11861 11862 
11859 11406 11407 11435 11434 11807 11863 11864 11861 
11407 11408 11436 11435 11809 11865 11866 11863 11408 
11409 11437 11436 11811 11867 11868 11865 11409 11410 
11438 11437 11813 11869 11870 11867 11410 11411 11439 
11438 11815 11871 11872 11869 11411 11412 11440 11439 
11817 11873 11874 11871 11412 11413 11441 11440 11819 
11875 11876 11873 11413 11414 11442 11441 11821 11877 
11878 11875 11414 11415 11443 11442 11823 11879 11880 
11877 11415 11416 11444 11443 11825 11881 11882 11879 
11416 11417 11445 11444 11827 11883 11884 11881 11417 
11418 11446 11445 11829 11885 11886 11883 11418 11419 
11447 11446 11831 11887 11888 11885 11419 11420 11448 
11447 11833 11889 11890 11887 11420 11421 11449 11448 
11835 11891 11892 11889 11421 11422 11450 11449 11837 
11893 11894 11891 11422 11423 11451 11450 11839 11895 
11896 11893 11423 11424 11452 11451 11841 11897 11898 
11895 11424 11425 11453 11452 11843 11899 11900 11897 
11425 11426 11454 11453 11845 11901 11902 11899 11426 
11427 11455 11454 11847 11903 11904 11901 11427 339 
340 11455 11848 354 11905 11903 777 11428 11456 
778 11850 11906 11907 792 11428 11429 11457 11456 
11852 11908 11909 11906 11429 11430 11458 11457 11854 
11910 11911 11908 11430 11431 11459 11458 11856 11912 
11913 11910 11431 11432 11460 11459 11858 11914 11915 
11912 11432 11433 11461 11460 11860 11916 11917 11914 
11433 11434 11462 11461 11862 11918 11919 11916 11434 
11435 11463 11462 11864 11920 11921 11918 11435 11436 
11464 11463 11866 11922 11923 11920 11436 11437 11465 
11464 11868 11924 11925 11922 11437 11438 11466 11465 
11870 11926 11927 11924 11438 11439 11467 11466 11872 
11928 11929 11926 11439 11440 11468 11467 11874 11930 
11931 11928 11440 11441 11469 11468 11876 11932 11933 
11930 11441 11442 11470 11469 11878 11934 11935 11932 
11442 11443 11471 11470 11880 11936 11937 11934 11443 
11444 11472 11471 11882 11938 11939 11936 11444 11445 
11473 11472 11884 11940 11941 11938 11445 11446 11474 
11473 11886 11942 11943 11940 11446 11447 11475 11474 
11888 11944 11945 11942 11447 11448 11476 11475 11890 
11946 11947 11944 11448 11449 11477 11476 11892 11948 
11949 11946 11449 11450 11478 11477 11894 11950 11951 
11948 11450 11451 11479 11478 11896 11952 11953 11950 
11451 11452 11480 11479 11898 11954 11955 11952 11452 
11453 11481 11480 11900 11956 11957 11954 11453 11454 
11482 11481 11902 11958 11959 11956 11454 11455 11483 
11482 11904 11960 11961 11958 11455 340 341 11483 
11905 355 11962 11960 778 11456 11484 779 11907 
11963 11964 793 11456 11457 11485 11484 11909 11965 
11966 11963 11457 11458 11486 11485 11911 11967 11968 
11965 11458 11459 11487 11486 11913 11969 11970 11967 
11459 11460 11488 11487 11915 11971 11972 11969 11460 
11461 11489 11488 11917 11973 11974 11971 11461 11462 
11490 11489 11919 11975 11976 11973 11462 11463 11491 
11490 11921 11977 11978 11975 11463 11464 11492 11491 
11923 11979 11980 11977 11464 11465 11493 11492 11925 
11981 11982 11979 11465 11466 11494 11493 11927 11983 
11984 11981 11466 11467 11495 11494 11929 11985 11986 
11983 11467 11468 11496 11495 11931 11987 11988 11985 
11468 11469 11497 11496 11933 11989 11990 11987 11469 
11470 11498 11497 11935 11991 11992 11989 11470 11471 
11499 11498 11937 11993 11994 11991 11471 11472 11500 
11499 11939 11995 11996 11993 11472 11473 11501 11500 
11941 11997 11998 11995 11473 11474 11502 11501 11943 
11999 12000 11997 11474 11475 11503 11502 11945 12001 
12002 11999 11475 11476 11504 11503 11947 12003 12004 
12001 11476 11477 11505 11504 11949 12005 12006 12003 
11477 11478 11506 11505 11951 12007 12008 12005 11478 
11479 11507 11506 11953 12009 12010 12007 11479 11480 
11508 11507 11955 12011 12012 12009 11480 11481 11509 
11508 11957 12013 12014 12011 11481 11482 11510 11509 
11959 12015 12016 12013 11482 11483 11511 11510 11961 
12017 12018 12015 11483 341 342 11511 11962 356 
12019 12017 779 11484 11512 780 11964 12020 12021 
794 11484 11485 11513 11512 11966 12022 12023 12020 
11485 11486 11514 11513 11968 12024 12025 12022 11486 
11487 11515 11514 11970 12026 12027 12024 11487 11488 
11516 11515 11972 12028 12029 12026 11488 11489 11517 
11516 11974 12030 12031 12028 11489 11490 11518 11517 
11976 12032 12033 12030 11490 11491 11519 11518 11978 
12034 12035 12032 11491 11492 11520 11519 11980 12036 
12037 12034 11492 11493 11521 11520 11982 12038 12039 
12036 11493 11494 11522 11521 11984 12040 12041 12038 
11494 11495 11523 11522 11986 12042 12043 12040 11495 
11496 11524 11523 11988 12044 12045 12042 11496 11497 
11525 11524 11990 12046 12047 12044 11497 11498 11526 
11525 11992 12048 12049 12046 11498 11499 11527 11526 
11994 12050 12051 12048 11499 11500 11528 11527 11996 
12052 12053 12050 11500 11501 11529 11528 11998 12054 
12055 12052 11501 11502 11530 11529 12000 12056 12057 
12054 11502 11503 11531 11530 12002 12058 12059 12056 
11503 11504 11532 11531 12004 12060 12061 12058 11504 
11505 11533 11532 12006 12062 12063 12060 11505 11506 
11534 11533 12008 12064 12065 12062 11506 11507 11535 
11534 12010 12066 12067 12064 11507 11508 11536 11535 
12012 12068 12069 12066 11508 11509 11537 11536 12014 
12070 12071 12068 11509 11510 11538 11537 12016 12072 
12073 12070 11510 11511 11539 11538 12018 12074 12075 
12072 11511 342 343 11539 12019 357 12076 12074 
780 11512 11540 781 12021 12077 12078 795 11512 
11513 11541 11540 12023 12079 12080 12077 11513 11514 
11542 11541 12025 12081 12082 12079 11514 11515 11543 
11542 12027 12083 12084 12081 11515 11516 11544 11543 
12029 12085 12086 12083 11516 11517 11545 11544 12031 
12087 12088 12085 11517 11518 11546 11545 12033 12089 
12090 12087 11518 11519 11547 11546 12035 12091 12092 
12089 11519 11520 11548 11547 12037 12093 12094 12091 
11520 11521 11549 11548 12039 12095 12096 12093 11521 
11522 11550 11549 12041 12097 12098 12095 11522 11523 
11551 11550 12043 12099 12100 12097 11523 11524 11552 
11551 12045 12101 12102 12099 11524 11525 11553 11552 
12047 12103 12104 12101 11525 11526 11554 11553 12049 
12105 12106 12103 11526 11527 11555 11554 12051 12107 
12108 12105 11527 11528 11556 11555 12053 12109 12110 
12107 11528 11529 11557 11556 12055 12111 12112 12109 
11529 11530 11558 11557 12057 12113 12114 12111 11530 
11531 11559 11558 12059 12115 12116 12113 11531 11532 
11560 11559 12061 12117 12118 12115 11532 11533 11561 
11560 12063 12119 12120 12117 11533 11534 11562 11561 
12065 12121 12122 12119 11534 11535 11563 11562 12067 
12123 12124 12121 11535 11536 11564 11563 12069 12125 
12126 12123 11536 11537 11565 11564 12071 12127 12128 
12125 11537 11538 11566 11565 12073 12129 12130 12127 
11538 11539 11567 11566 12075 12131 12132 12129 11539 
343 344 11567 12076 358 12133 12131 781 11540 
11568 782 12078 12134 12135 796 11540 11541 11569 
11568 12080 12136 12137 12134 11541 11542 11570 11569 
12082 12138 12139 12136 11542 11543 11571 11570 12084 
12140 12141 12138 11543 11544 11572 11571 12086 12142 
12143 12140 11544 11545 11573 11572 12088 12144 12145 
12142 11545 11546 11574 11573 12090 12146 12147 12144 
11546 11547 11575 11574 12092 12148 12149 12146 11547 
11548 11576 11575 12094 12150 12151 12148 11548 11549 
11577 11576 12096 12152 12153 12150 11549 11550 11578 
11577 12098 12154 12155 12152 11550 11551 11579 11578 
12100 12156 12157 12154 11551 11552 11580 11579 12102 
12158 12159 12156 11552 11553 11581 11580 12104 12160 
12161 12158 11553 11554 11582 11581 12106 12162 12163 
12160 11554 11555 11583 11582 12108 12164 12165 12162 
11555 11556 11584 11583 12110 12166 12167 12164 11556 
11557 11585 11584 12112 12168 12169 12166 11557 11558 
11586 11585 12114 12170 12171 12168 11558 11559 11587 
11586 12116 12172 12173 12170 11559 11560 11588 11587 
12118 12174 12175 12172 11560 11561 11589 11588 12120 
12176 12177 12174 11561 11562 11590 11589 12122 12178 
12179 12176 11562 11563 11591 11590 12124 12180 12181 
12178 11563 11564 11592 11591 12126 12182 12183 12180 
11564 11565 11593 11592 12128 12184 12185 12182 11565 
11566 11594 11593 12130 12186 12187 12184 11566 11567 
11595 11594 12132 12188 12189 12186 11567 344 345 
11595 12133 359 12190 12188 782 11568 11596 783 
12135 12191 12192 797 11568 11569 11597 11596 12137 
12193 12194 12191 11569 11570 11598 11597 12139 12195 
12196 12193 11570 11571 11599 11598 12141 12197 12198 
12195 11571 11572 11600 11599 12143 12199 12200 12197 
11572 11573 11601 11600 12145 12201 12202 12199 11573 
11574 11602 11601 12147 12203 12204 12201 11574 11575 
11603 11602 12149 12205 12206 12203 11575 11576 11604 
11603 12151 12207 12208 12205 11576 11577 11605 11604 
12153 12209 12210 12207 11577 11578 11606 11605 12155 
12211 12212 12209 11578 11579 11607 11606 12157 12213 
12214 12211 11579 11580 11608 11607 12159 12215 12216 
12213 11580 11581 11609 11608 12161 12217 12218 12215 
11581 11582 11610 11609 12163 12219 12220 12217 11582 
11583 11611 11610 12165 12221 12222 12219 11583 11584 
11612 11611 12167 12223 12224 12221 11584 11585 11613 
11612 12169 12225 12226 12223 11585 11586 11614 11613 
12171 12227 12228 12225 11586 11587 11615 11614 12173 
12229 12230 12227 11587 11588 11616 11615 12175 12231 
12232 12229 11588 11589 11617 11616 12177 12233 12234 
12231 11589 11590 11618 11617 12179 12235 12236 12233 
11590 11591 11619 11618 12181 12237 12238 12235 11591 
11592 11620 11619 12183 12239 12240 12237 11592 11593 
11621 11620 12185 12241 12242 12239 11593 11594 11622 
11621 12187 12243 12244 12241 11594 11595 11623 11622 
12189 12245 12246 12243 11595 345 346 11623 12190 
360 12247 12245 783 11596 11624 784 12192 12248 
12249 798 11596 11597 11625 11624 12194 12250 12251 
12248 11597 11598 11626 11625 12196 12252 12253 12250 
11598 11599 11627 11626 12198 12254 12255 12252 11599 
11600 11628 11627 12200 12256 12257 12254 11600 11601 
11629 11628 12202 12258 12259 12256 11601 11602 11630 
11629 12204 12260 12261 12258 11602 11603 11631 11630 
12206 12262 12263 12260 11603 11604 11632 11631 12208 
12264 12265 12262 11604 11605 11633 11632 12210 12266 
12267 12264 11605 11606 11634 11633 12212 12268 12269 
12266 11606 11607 11635 11634 12214 12270 12271 12268 
11607 11608 11636 11635 12216 12272 12273 12270 11608 
11609 11637 11636 12218 12274 12275 12272 11609 11610 
11638 11637 12220 12276 12277 12274 11610 11611 11639 
11638 12222 12278 12279 12276 11611 11612 11640 11639 
12224 12280 12281 12278 11612 11613 11641 11640 12226 
12282 12283 12280 11613 11614 11642 11641 12228 12284 
12285 12282 11614 11615 11643 11642 12230 12286 12287 
12284 11615 11616 11644 11643 12232 12288 12289 12286 
11616 11617 11645 11644 12234 12290 12291 12288 11617 
11618 11646 11645 12236 12292 12293 12290 11618 11619 
11647 11646 12238 12294 12295 12292 11619 11620 11648 
11647 12240 12296 12297 12294 11620 11621 11649 11648 
12242 12298 12299 12296 11621 11622 11650 11649 12244 
12300 12301 12298 11622 11623 11651 11650 12246 12302 
12303 12300 11623 346 347 11651 12247 361 12304 
12302 784 11624 11652 785 12249 12305 12306 799 
11624 11625 11653 11652 12251 12307 12308 12305 11625 
11626 11654 11653 12253 12309 12310 12307 11626 11627 
11655 11654 12255 12311 12312 12309 11627 11628 11656 
11655 12257 12313 12314 12311 11628 11629 11657 11656 
12259 12315 12316 12313 11629 11630 11658 11657 12261 
12317 12318 12315 11630 11631 11659 11658 12263 12319 
12320 12317 11631 11632 11660 11659 12265 12321 12322 
12319 11632 11633 11661 11660 12267 12323 12324 12321 
11633 11634 11662 11661 12269 12325 12326 12323 11634 
11635 11663 11662 12271 12327 12328 12325 11635 11636 
11664 11663 12273 12329 12330 12327 11636 11637 11665 
11664 12275 12331 12332 12329 11637 11638 11666 11665 
12277 12333 12334 12331 11638 11639 11667 11666 12279 
12335 12336 12333 11639 11640 11668 11667 12281 12337 
12338 12335 11640 11641 11669 11668 12283 12339 12340 
12337 11641 11642 11670 11669 12285 12341 12342 12339 
11642 11643 11671 11670 12287 12343 12344 12341 11643 
11644 11672 11671 12289 12345 12346 12343 11644 11645 
11673 11672 12291 12347 12348 12345 11645 11646 11674 
11673 12293 12349 12350 12347 11646 11647 11675 11674 
12295 12351 12352 12349 11647 11648 11676 11675 12297 
12353 12354 12351 11648 11649 11677 11676 12299 12355 
12356 12353 11649 11650 11678 11677 12301 12357 12358 
12355 11650 11651 11679 11678 12303 12359 12360 12357 
11651 347 348 11679 12304 362 12361 12359 785 
11652 11680 786 12306 12362 12363 800 11652 11653 
11681 11680 12308 12364 12365 12362 11653 11654 11682 
11681 12310 12366 12367 12364 11654 11655 11683 11682 
12312 12368 12369 12366 11655 11656 11684 11683 12314 
12370 12371 12368 11656 11657 11685 11684 12316 12372 
12373 12370 11657 11658 11686 11685 12318 12374 12375 
12372 11658 11659 11687 11686 12320 12376 12377 12374 
11659 11660 11688 11687 12322 12378 12379 12376 11660 
11661 11689 11688 12324 12380 12381 12378 11661 11662 
11690 11689 12326 12382 12383 12380 11662 11663 11691 
11690 12328 12384 12385 12382 11663 11664 11692 11691 
12330 12386 12387 12384 11664 11665 11693 11692 12332 
12388 12389 12386 11665 11666 11694 11693 12334 12390 
12391 12388 11666 11667 11695 11694 12336 12392 12393 
12390 11667 11668 11696 11695 12338 12394 12395 12392 
11668 11669 11697 11696 12340 12396 12397 12394 11669 
11670 11698 11697 12342 12398 12399 12396 11670 11671 
11699 11698 12344 12400 12401 12398 11671 11672 11700 
11699 12346 12402 12403 12400 11672 11673 11701 11700 
12348 12404 12405 12402 11673 11674 11702 11701 12350 
12406 12407 12404 11674 11675 11703 11702 12352 12408 
12409 12406 11675 11676 11704 11703 12354 12410 12411 
12408 11676 11677 11705 11704 12356 12412 12413 12410 
11677 11678 11706 11705 12358 12414 12415 12412 11678 
11679 11707 11706 12360 12416 12417 12414 11679 348 
349 11707 12361 363 12418 12416 786 11680 11708 
787 12363 12419 12420 801 11680 11681 11709 11708 
12365 12421 12422 12419 11681 11682 11710 11709 12367 
12423 12424 12421 11682 11683 11711 11710 12369 12425 
12426 12423 11683 11684 11712 11711 12371 12427 12428 
12425 11684 11685 11713 11712 12373 12429 12430 12427 
11685 11686 11714 11713 12375 12431 12432 12429 11686 
11687 11715 11714 12377 12433 12434 12431 11687 11688 
11716 11715 12379 12435 12436 12433 11688 11689 11717 
11716 12381 12437 12438 12435 11689 11690 11718 11717 
12383 12439 12440 12437 11690 11691 11719 11718 12385 
12441 12442 12439 11691 11692 11720 11719 12387 12443 
12444 12441 11692 11693 11721 11720 12389 12445 12446 
12443 11693 11694 11722 11721 12391 12447 12448 12445 
11694 11695 11723 11722 12393 12449 12450 12447 11695 
11696 11724 11723 12395 12451 12452 12449 11696 11697 
11725 11724 12397 12453 12454 12451 11697 11698 11726 
11725 12399 12455 12456 12453 11698 11699 11727 11726 
12401 12457 12458 12455 11699 11700 11728 11727 12403 
12459 12460 12457 11700 11701 11729 11728 12405 12461 
12462 12459 11701 11702 11730 11729 12407 12463 12464 
12461 11702 11703 11731 11730 12409 12465 12466 12463 
11703 11704 11732 11731 12411 12467 12468 12465 11704 
11705 11733 11732 12413 12469 12470 12467 11705 11706 
11734 11733 12415 12471 12472 12469 11706 11707 11735 
11734 12417 12473 12474 12471 11707 349 350 11735 
12418 364 12475 12473 787 11708 11736 788 12420 
12476 12477 802 11708 11709 11737 11736 12422 12478 
12479 12476 11709 11710 11738 11737 12424 12480 12481 
12478 11710 11711 11739 11738 12426 12482 12483 12480 
11711 11712 11740 11739 12428 12484 12485 12482 11712 
11713 11741 11740 12430 12486 12487 12484 11713 11714 
11742 11741 12432 12488 12489 12486 11714 11715 11743 
11742 12434 12490 12491 12488 11715 11716 11744 11743 
12436 12492 12493 12490 11716 11717 11745 11744 12438 
12494 12495 12492 11717 11718 11746 11745 12440 12496 
12497 12494 11718 11719 11747 11746 12442 12498 12499 
12496 11719 11720 11748 11747 12444 12500 12501 12498 
11720 11721 11749 11748 12446 12502 12503 12500 11721 
11722 11750 11749 12448 12504 12505 12502 11722 11723 
11751 11750 12450 12506 12507 12504 11723 11724 11752 
11751 12452 12508 12509 12506 11724 11725 11753 11752 
12454 12510 12511 12508 11725 11726 11754 11753 12456 
12512 12513 12510 11726 11727 11755 11754 12458 12514 
12515 12512 11727 11728 11756 11755 12460 12516 12517 
12514 11728 11729 11757 11756 12462 12518 12519 12516 
11729 11730 11758 11757 12464 12520 12521 12518 11730 
11731 11759 11758 12466 12522 12523 12520 11731 11732 
11760 11759 12468 12524 12525 12522 11732 11733 11761 
11760 12470 12526 12527 12524 11733 11734 11762 11761 
12472 12528 12529 12526 11734 11735 11763 11762 12474 
12530 12531 12528 11735 350 351 11763 12475 365 
12532 12530 788 11736 11764 789 12477 12533 12534 
803 11736 11737 11765 11764 12479 12535 12536 12533 
11737 11738 11766 11765 12481 12537 12538 12535 11738 
11739 11767 11766 12483 12539 12540 12537 11739 11740 
11768 11767 12485 12541 12542 12539 11740 11741 11769 
11768 12487 12543 12544 12541 11741 11742 11770 11769 
12489 12545 12546 12543 11742 11743 11771 11770 12491 
12547 12548 12545 11743 11744 11772 11771 12493 12549 
12550 12547 11744 11745 11773 11772 12495 12551 12552 
12549 11745 11746 11774 11773 12497 12553 12554 12551 
11746 11747 11775 11774 12499 12555 12556 12553 11747 
11748 11776 11775 12501 12557 12558 12555 11748 11749 
11777 11776 12503 12559 12560 12557 11749 11750 11778 
11777 12505 12561 12562 12559 11750 11751 11779 11778 
12507 12563 12564 12561 11751 11752 11780 11779 12509 
12565 12566 12563 11752 11753 11781 11780 12511 12567 
12568 12565 11753 11754 11782 11781 12513 12569 12570 
12567 11754 11755 11783 11782 12515 12571 12572 12569 
11755 11756 11784 11783 12517 12573 12574 12571 11756 
11757 11785 11784 12519 12575 12576 12573 11757 11758 
11786 11785 12521 12577 12578 12575 11758 11759 11787 
11786 12523 12579 12580 12577 11759 11760 11788 11787 
12525 12581 12582 12579 11760 11761 11789 11788 12527 
12583 12584 12581 11761 11762 11790 11789 12529 12585 
12586 12583 11762 11763 11791 11790 12531 12587 12588 
12585 11763 351 352 11791 12532 366 12589 12587 
789 11764 1158 19 12534 12590 1187 804 11764 
11765 1157 1158 12536 12591 1186 12590 11765 11766 
1156 1157 12538 12592 1185 12591 11766 11767 1155 
1156 12540 12593 1184 12592 11767 11768 1154 1155 
12542 12594 1183 12593 11768 11769 1153 1154 12544 
12595 1182 12594 11769 11770 1152 1153 12546 12596 
1181 12595 11770 11771 1151 1152 12548 12597 1180 
12596 11771 11772 1150 1151 12550 12598 1179 12597 
11772 11773 1149 1150 12552 12599 1178 12598 11773 
11774 1148 1149 12554 12600 1177 12599 11774 11775 
1147 1148 12556 12601 1176 12600 11775 11776 1146 
1147 12558 12602 1175 12601 11776 11777 1145 1146 
12560 12603 1174 12602 11777 11778 1144 1145 12562 
12604 1173 12603 11778 11779 1143 1144 12564 12605 
1172 12604 11779 11780 1142 1143 12566 12606 1171 
12605 11780 11781 1141 1142 12568 12607 1170 12606 
11781 11782 1140 1141 12570 12608 1169 12607 11782 
11783 1139 1140 12572 12609 1168 12608 11783 11784 
1138 1139 12574 12610 1167 12609 11784 11785 1137 
1138 12576 12611 1166 12610 11785 11786 1136 1137 
12578 12612 1165 12611 11786 11787 1135 1136 12580 
12613 1164 12612 11787 11788 1134 1135 12582 12614 
1163 12613 11788 11789 1133 1134 12584 12615 1162 
12614 11789 11790 1132 1133 12586 12616 1161 12615 
11790 11791 1131 1132 12588 12617 1160 12616 11791 
352 4 1131 12589 367 1159 12617 
CELL_TYPES 4106
23
23
23
23
23
23
23
23
23
23
23
23
23
23
23
23
23
23
23
23
23
23
23
23
23
23
23
23
23
23
23
23
23
23
23
23
23
23
23
23
23
23
23
23
23
23
23
23
23
23
23
23
23
23
23
23
23
23
23
23
23
23
23
23
23
23
23
23
23
23
23
23
23
23
23
23
23
23
23
23
23
23
23
23
23
23
23
23
23
23
23
23
23
23
23
23
23
23
23
23
23
23
23
23
23
23
23
23
23
23
23
23
23
23
23
23
23
23
23
23
23
23
23
23
23
23
23
23
23
23
23
23
23
23
23
23
23
23
23
23
23
23
23
23
23
23
23
23
23
23
23
23
23
23
23
23
23
23
23
23
23
23
23
23
23
23
23
23
23
23
23
23
23
23
23
23
23
23
23
23
23
23
23
23
23
23
23
23
23
23
23
23
23
23
23
23
23
23
23
23
23
23
23
23
23
23
23
23
23
23
23
23
23
23
23
23
23
23
23
23
23
23
23
23
23
23
23
23
23
23
23
23
23
23
23
23
23
23
23
23
23
23
23
23
23
23
23
23
23
23
23
23
23
23
23
23
23
23
23
23
23
23
23
23
23
23
23
23
23
23
23
23
23
23
23
23
23
23
23
23
23
23
23
23
23
23
23
23
23
23
23
23
23
23
23
23
23
23
23
23
23
23
23
23
23
23
23
23
23
23
23
23
23
23
23
23
23
23
23
23
23
23
23
23
23
23
23
23
23
23
23
23
23
23
23
23
23
23
23
23
23
23
23
23
23
23
23
23
23
23
23
23
23
23
23
23
23
23
23
23
23
23
23
23
23
23
23
23
23
23
23
23
23
23
23
23
23
23
23
23
23
23
23
23
23
23
23
23
23
23
23
23
23
23
23
23
23
23
23
23
23
23
23
23
23
23
23
23
23
23
23
23
23
23
23
23
23
23
23
23
23
23
23
23
23
23
23
23
23
23
23
23
23
23
23
23
23
23
23
23
23
23
23
23
23
23
23
23
23
23
23
23
23
23
23
23
23
23
23
23
23
23
23
23
23
23
23
23
23
23
23
23
23
23
23
23
23
23
23
23
23
23
23
23
23
23
23
23
23
23
23
23
23
23
23
23
23
23
23
23
23
23
23
23
23
23
23
23
23
23
23
23
23
23
23
23
23
23
23
23
23
23
23
23
23
23
23
23
23
23
23
23
23
23
23
23
23
23
23
23
23
23
23
23
23
23
23
23
23
23
23
23
23
23
23
23
23
23
23
23
23
23
23
23
23
23
23
23
23
23
23
23
23
23
23
23
23
23
23
23
23
23
23
23
23
23
23
23
23
23
23
23
23
23
23
23
23
23
23
23
23
23
23
23
23
23
23
23
23
23
23
23
23
23
23
23
23
23
23
23
23
23
23
23
23
23
23
23
23
23
23
23
23
23
23
23
23
23
23
23
23
23
23
23
23
23
23
23
23
23
23
23
23
23
23
23
23
23
23
23
23
23
23
23
23
23
23
23
23
23
23
23
23
23
23
23
23
23
23
23
23
23
23
23
23
23
23
23
23
23
23
23
23
23
23
23
23
23
23
23
23
23
23
23
23
23
23
23
23
23
23
23
23
23
23
23
23
23
23
23
23
23
23
23
23
23
23
23
23
23
23
23
23
23
23
23
23
23
23
23
23
23
23
23
23
23
23
23
23
23
23
23
23
23
23
23
23
23
23
23
23
23
23
23
23
23
23
23
23
23
23
23
23
23
23
23
23
23
23
23
23
23
23
23
23
23
23
23
23
23
23
23
23
23
23
23
23
23
23
23
23
23
23
23
23
23
23
23
23
23
23
23
23
23
23
23
23
23
23
23
23
23
23
23
23
23
23
23
23
23
23
23
23
23
23
23
23
23
23
23
23
23
23
23
23
23
23
23
23
23
23
23
23
23
23
23
23
23
23
23
23
23
23
23
23
23
23
23
23
23
23
23
23
23
23
23
23
23
23
23
23
23
23
23
23
23
23
23
23
23
23
23
23
23
23
23
23
23
23
23
23
23
23
23
23
23
23
23
23
23
23
23
23
23
23
23
23
23
23
23
23
23
23
23
23
23
23
23
23
23
23
23
23
23
23
23
23
23
23
23
23
23
23
23
23
23
23
23
23
23
23
23
23
23
23
23
23
23
23
23
23
23
23
23
23
23
23
23
23
23
23
23
23
23
23
23
23
23
23
23
23
23
23
23
23
23
23
23
23
23
23
23
23
23
23
23
23
23
23
23
23
23
23
23
23
23
23
23
23
23
23
23
23
23
23
23
23
23
23
23
23
23
23
23
23
23
23
23
23
23
23
23
23
23
23
23
23
23
23
23
23
23
23
23
23
23
23
23
23
23
23
23
23
23
23
23
23
23
23
23
23
23
23
23
23
23
23
23
23
23
23
23
23
23
23
23
23
23
23
23
23
23
23
23
23
23
23
23
23
23
23
23
23
23
23
23
23
23
23
23
23
23
23
23
23
23
23
23
23
23
23
23
23
23
23
23
23
23
23
23
23
23
23
23
23
23
23
23
23
23
23
23
23
23
23
23
23
23
23
23
23
23
23
23
23
23
23
23
23
23
23
23
23
23
23
23
23
23
23
23
23
23
23
23
23
23
23
23
23
23
23
23
23
23
23
23
23
23
23
23
23
23
23
23
23
23
23
23
23
23
23
23
23
23
23
23
23
23
23
23
23
23
23
23
23
23
23
23
23
23
23
23
23
23
23
23
23
23
23
23
23
23
23
23
23
23
23
23
23
23
23
23
23
23
23
23
23
23
23
23
23
23
23
23
23
23
23
23
23
23
23
23
23
23
23
23
23
23
23
23
23
23
23
23
23
23
23
23
23
23
23
23
23
23
23
23
23
23
23
23
23
23
23
23
23
23
23
23
23
23
23
23
23
23
23
23
23
23
23
23
23
23
23
23
23
23
23
23
23
23
23
23
23
23
23
23
23
23
23
23
23
23
23
23
23
23
23
23
23
23
23
23
23
23
23
23
23
23
23
23
23
23
23
23
23
23
23
23
23
23
23
23
23
23
23
23
23
23
23
23
23
23
23
23
23
23
23
23
23
23
23
23
23
23
23
23
23
23
23
23
23
23
23
23
23
23
23
23
23
23
23
23
23
23
23
23
23
23
23
23
23
23
23
23
23
23
23
23
23
23
23
23
23
23
23
23
23
23
23
23
23
23
23
23
23
23
23
23
23
23
23
23
23
23
23
23
23
23
23
23
23
23
23
23
23
23
23
23
23
23
23
23
23
23
23
23
23
23
23
23
23
23
23
23
23
23
23
23
23
23
23
23
23
23
23
23
23
23
23
23
23
23
23
23
23
23
23
23
23
23
23
23
23
23
23
23
23
23
23
23
23
23
23
23
23
23
23
23
23
23
23
23
23
23
23
23
23
23
23
23
23
23
23
23
23
23
23
23
23
23
23
23
23
23
23
23
23
23
23
23
23
23
23
23
23
23
23
23
23
23
23
23
23
23
23
23
23
23
23
23
23
23
23
23
23
23
23
23
23
23
23
23
23
23
23
23
23
23
23
23
23
23
23
23
23
23
23
23
23
23
23
23
23
23
23
23
23
23
23
23
23
23
23
23
23
23
23
23
23
23
23
23
23
23
23
23
23
23
23
23
23
23
23
23
23
23
23
23
23
23
23
23
23
23
23
23
23
23
23
23
23
23
23
23
23
23
23
23
23
23
23
23
23
23
23
23
23
23
23
23
23
23
23
23
23
23
23
23
23
23
23
23
23
23
23
23
23
23
23
23
23
23
23
23
23
23
23
23
23
23
23
23
23
23
23
23
23
23
23
23
23
23
23
23
23
23
23
23
23
23
23
23
23
23
23
23
23
23
23
23
23
23
23
23
23
23
23
23
23
23
23
23
23
23
23
23
23
23
23
23
23
23
23
23
23
23
23
23
23
23
23
23
23
23
23
23
23
23
23
23
23
23
23
23
23
23
23
23
23
23
23
23
23
23
23
23
23
23
23
23
23
23
23
23
23
23
23
23
23
23
23
23
23
23
23
23
23
23
23
23
23
23
23
23
23
23
23
23
23
23
23
23
23
23
23
23
23
23
23
23
23
23
23
23
23
23
23
23
23
23
23
23
23
23
23
23
23
23
23
23
23
23
23
23
23
23
23
23
23
23
23
23
23
23
23
23
23
23
23
23
23
23
23
23
23
23
23
23
23
23
23
23
23
23
23
23
23
23
23
23
23
23
23
23
23
23
23
23
23
23
23
23
23
23
23
23
23
23
23
23
23
23
23
23
23
23
23
23
23
23
23
23
23
23
23
23
23
23
23
23
23
23
23
23
23
23
23
23
23
23
23
23
23
23
23
23
23
23
23
23
23
23
23
23
23
23
23
23
23
23
23
23
23
23
23
23
23
23
23
23
23
23
23
23
23
23
23
23
23
23
23
23
23
23
23
23
23
23
23
23
23
23
23
23
23
23
23
23
23
23
23
23
23
23
23
23
23
23
23
23
23
23
23
23
23
23
23
23
23
23
23
23
23
23
23
23
23
23
23
23
23
23
23
23
23
23
23
23
23
23
23
23
23
23
23
23
23
23
23
23
23
23
23
23
23
23
23
23
23
23
23
23
23
23
23
23
23
23
23
23
23
23
23
23
23
23
23
23
23
23
23
23
23
23
23
23
23
23
23
23
23
23
23
23
23
23
23
23
23
23
23
23
23
23
23
23
23
23
23
23
23
23
23
23
23
23
23
23
23
23
23
23
23
23
23
23
23
23
23
23
23
23
23
23
23
23
23
23
23
23
23
23
23
23
23
23
23
23
23
23
23
23
23
23
23
23
23
23
23
23
23
23
23
23
23
23
23
23
23
23
23
23
23
23
23
23
23
23
23
23
23
23
23
23
23
23
23
23
23
23
23
23
23
23
23
23
23
23
23
23
23
23
23
23
23
23
23
23
23
23
23
23
23
23
23
23
23
23
23
23
23
23
23
23
23
23
23
23
23
23
23
23
23
23
23
23
23
23
23
23
23
23
23
23
23
23
23
23
23
23
23
23
23
23
23
23
23
23
23
23
23
23
23
23
23
23
23
23
23
23
23
23
23
23
23
23
23
23
23
23
23
23
23
23
23
23
23
23
23
23
23
23
23
23
23
23
23
23
23
23
23
23
23
23
23
23
23
23
23
23
23
23
23
23
23
23
23
23
23
23
23
23
23
23
23
23
23
23
23
23
23
23
23
23
23
23
23
23
23
23
23
23
23
23
23
23
23
23
23
23
23
23
23
23
23
23
23
23
23
23
23
23
23
23
23
23
23
23
23
23
23
23
23
23
23
23
23
23
23
23
23
23
23
23
23
23
23
23
23
23
23
23
23
23
23
23
23
23
23
23
23
23
23
23
23
23
23
23
23
23
23
23
23
23
23
23
23
23
23
23
23
23
23
23
23
23
23
23
23
23
23
23
23
23
23
23
23
23
23
23
23
23
23
23
23
23
23
23
23
23
23
23
23
23
23
23
23
23
23
23
23
23
23
23
23
23
23
23
23
23
23
23
23
23
23
23
23
23
23
23
23
23
23
23
23
23
23
23
23
23
23
23
23
23
23
23
23
23
23
23
23
23
23
23
23
23
23
23
23
23
23
23
23
23
23
23
23
23
23
23
23
23
23
23
23
23
23
23
23
23
23
23
23
23
23
23
23
23
23
23
23
23
23
23
23
23
23
23
23
23
23
23
23
23
23
23
23
23
23
23
23
23
23
23
23
23
23
23
23
23
23
23
23
23
23
23
23
23
23
23
23
23
23
23
23
23
23
23
23
23
23
23
23
23
23
23
23
23
23
23
23
23
23
23
23
23
23
23
23
23
23
23
23
23
23
23
23
23
23
23
23
23
23
23
23
23
23
23
23
23
23
23
23
23
23
23
23
23
23
23
23
23
23
23
23
23
23
23
23
23
23
23
23
23
23
23
23
23
23
23
23
23
23
23
23
23
23
23
23
23
23
23
23
23
23
23
23
23
23
23
23
23
23
23
23
23
23
23
23
23
23
23
23
23
23
23
23
23
23
23
23
23
23
23
23
23
23
23
23
23
23
23
23
23
23
23
23
23
23
23
23
23
23
23
23
23
23
23
23
23
23
23
23
23
23
23
23
23
23
23
23
23
23
23
23
23
23
23
23
23
23
23
23
23
23
23
23
23
23
23
23
23
23
23
23
23
23
23
23
23
23
23
23
23
23
23
23
23
23
23
23
23
23
23
23
23
23
23
23
23
23
23
23
23
23
23
23
23
23
23
23
23
23
23
23
23
23
23
23
23
23
23
23
23
23
23
23
23
23
23
23
23
23
23
23
23
23
23
23
23
23
23
23
23
23
23
23
23
23
23
23
23
23
23
23
23
23
23
23
23
23
23
23
23
23
23
23
23
23
23
23
23
23
23
23
23
23
23
23
23
23
23
23
23
23
23
23
23
23
23
23
23
23
23
23
23
23
23
23
23
23
23
23
23
23
23
23
23
23
23
23
23
23
23
23
23
23
23
23
23
23
23
23
23
23
23
23
23
23
23
23
23
23
23
23
23
23
23
23
23
23
23
23
23
23
23
23
23
23
23
23
23
23
23
23
23
23
23
23
23
23
23
23
23
23
23
23
23
23
23
23
23
23
23
23
23
23
23
23
23
23
23
23
23
23
23
23
23
23
23
23
23
23
23
23
23
23
23
23
23
23
23
23
23
23
23
23
23
23
23
23
23
23
23
23
23
23
23
23
23
23
23
23
23
23
23
23
23
23
23
23
23
23
23
23
23
23
23
23
23
23
23
23
23
23
23
23
23
23
23
23
23
23
23
23
23
23
23
23
23
23
23
23
23
23
23
23
23
23
23
23
23
23
23
23
23
23
23
23
23
23
23
23
23
23
23
23
23
23
23
23
23
23
23
23
23
23
23
23
23
23
23
23
23
23
23
23
23
23
23
23
23
23
23
23
23
23
23
23
23
23
23
23
23
23
23
23
23
23
23
23
23
23
23
23
23
23
23
23
23
23
23
23
23
23
23
23
23
23
23
23
23
23
23
23
23
23
23
23
23
23
23
23
23
23
23
23
23
23
23
23
23
23
23
23
23
23
23
23
23
23
23
23
23
23
23
23
23
23
23
23
23
23
23
23
23
23
23
23
23
23
23
23
23
23
23
23
23
23
23
23
23
23
23
23
23
23
23
23
23
23
23
23
23
23
23
23
23
23
23
23
23
23
23
23
23
23
23
23
23
23
23
23
23
23
23
23
23
23
23
23
23
23
23
23
23
23
23
23
23
23
23
23
23
23
23
23
23
23
23
23
23
23
23
23
23
23
23
23
23
23
23
23
23
23
23
23
23
23
23
23
23
23
23
23
23
23
23
23
23
23
23
23
23
23
23
23
23
23
23
23
23
23
23
23
23
23
23
23
23
23
23
23
23
23
23
23
23
23
23
23
23
23
23
23
23
23
23
23
23
23
23
23
23
23
23
23
23
23
23
23
23
23
23
23
23
23
23
23
23
23
23
23
23
23
23
23
23
23
23
23
23
23
23
23
23
23
23
23
23
23
23
23
23
23
23
23
23
23
23
23
23
23
23
23
23
23
23
23
23
23
23
23
23
23
23
23
23
23
23
23
23
23
23
23
23
23
23
23
23
23
23
23
23
23
23
23
23
23
23
23
23
23
23
23
23
23
23
23
23
23
23
23
23
23
23
23
23
23
23
23
23
23
23
23
23
23
23
23
23
23
23
23
23
23
23
23
23
23
23
23
23
23
23
23
23
23
23
23
23
23
23
23
23
23
23
23
23
23
23
23
23
23
23
23
23
23
23
23
23
23
23
23
23
23
23
23
23
23
23
23
23
23
23
23
23
23
23
23
23
23
23
23
23
23
23
23
23
23
23
23
23
23
23
23
23
23
23
23
23
23
23
23
23
23
23
23
23
23
23
23
23
23
23
23
23
23
23
23
23
23
23
23
23
23
23
23
23
23
23
23
23
23
23
23
23
23
23
23
23
23
23
23
23
23
23
23
23
23
23
23
23
23
23
23
23
23
23
23
23
23
23
23
23
23
23
23
23
23
23
23
23
23
23
23
23
23
23
23
23
23
23
23
23
23
23
23
23
23
23
23
23
23
23
23
23
23
23
23
23
23
23
23
23
23
23
23
23
23
23
23
23
23
23
23
23
23
23
23
23
23
23
23
23
23
23
23
23
23
23
23
23
23
23
23
23
23
23
23
23
23
23
23
23
23
23
23
23
23
23
23
23
23
23
23
23
23
23
23
23
23
23
23
23
23
23
23
23
23
23
23
23
23
23
23
23
23
23
23
23
23
23
23
23
23
23
23
23
23
23
23
23
23
23
23
23
23
23
23
23
23
23
23
23
23
23
23
23
23
23
23
23
23
23
23
23
23
23
23
23
23
23
23
23
23
23
23
23
23
23
23
23
23
23
23
23
23
23
23
23
23
23
23
23
23
23
23
23
23
23
23
23
23
23
23
23
23
23
23
23
23
23
23
23
23
23
23
23
23
23
23
23
23
23
23
23
23
23
23
23
23
23
23
23
23
23
23
23
23
23
23
23
23
23
23
23
23
23
23
23
23
23
23
23
23
23
23
23
23
23
23
23
23
23
23
23
23
23
23
23
23
23
23
23
23
23
23
23
23
23
23
23
23
23
23
23
23
23
23
23
23
23
23
23
23
23
23
23
23
23
23
23
23
23
23
23
23
23
23
23
23
23
23
23
23
23
23
23
23
23
23
23
23
23
23
23
23
23
23
23
23
23
23
23
23
23
23
23
23
23
23
23
23
23
23
23
23
23
23
23
23
23
23
23
23
23
23
23
23
23
23
23
23
23
23
23
23
23
23
23
23
23
23
23
23
23
23
23
23
23
23
23
23
23
23
23
23
23
23
23
23
23
23
23
23
23
23
23
23
23
23
23
23
23
23
23
23
23
23
23
23
23
23
23
23
23
23
23
23
23
23
23
23
23
23
23
23
23
23
23
23
23
23
23
23
23
23
23
23
23
23
23
23
23
23
23
23
23
23
23
23
23
23
23
23
23
23
23
23
23
23
23
23
23
23
23
23
23
23
23
23
23
23
23
23
23
23
23
23
23
23
23
23
23
23
23
23
23
23
23
23
23
23
23
23
23
23
23
23
23
23
23
23
23
23
23
23
23
23
23
23
23
23
23
23
23
23
23
23
23
23
23
23
23
23
23
23
23
23
23
23
23
23
23
23
23

POINT_DATA 12618
FIELD FieldData 5
U 3 12618 double
0.000418042 0.0181184 -1.3146e-18 0.000421355 0.0120883 1.14519e-18 0.00251183 0.0120883 1.24344e-18 
0.00251514 0.0181184 -7.92823e-19 0.000441006 0.0187333 1.999e-19 0.000428044 0.0114391 6.77626e-20 
0.00250514 0.0114391 -2.57498e-19 0.00249218 0.0187333 1.69407e-19 0.00146659 0.0298487 2.27005e-18 
-0.0017957 0.0179538 -7.65718e-19 -0.00183021 0.0119443 -1.35525e-19 -0.00133735 0 9.82558e-20 
0.000619551 0 1.01644e-20 0.00231363 0 -1.69407e-20 0.00427053 0 -1.4569e-19 
0.00476339 0.0119443 7.69106e-19 0.00472888 0.0179538 7.11508e-20 0.00146659 0.0298487 6.50521e-19 
0.00146659 0.0298487 4.87891e-19 0.00146659 0.0298487 3.38813e-19 0.000512379 0.0185078 -7.45389e-20 
0.000574983 0.0183136 -1.35525e-20 0.000628769 0.0181487 -6.84403e-19 0.000673561 0.0180115 -6.50521e-19 
0.000709115 0.0179007 4.23516e-19 0.000735076 0.0178153 3.21873e-19 0.000750963 0.0177544 -1.4569e-19 
0.00075616 0.0177176 -5.86147e-19 0.000749915 0.0177043 -1.39591e-18 0.000731355 0.0177144 3.59142e-19 
0.000699502 0.017748 1.16552e-18 0.000653308 0.017805 1.50094e-18 0.000591676 0.0178857 -1.25361e-19 
0.000513584 0.0179901 -8.02987e-19 0.000476859 0.0186195 6.57298e-19 0.000543963 0.0184095 6.77626e-20 
0.000602297 0.0182297 -4.74338e-19 0.000651731 0.0180785 -1.43657e-18 0.000692066 0.0179543 -6.23416e-19 
0.000723005 0.017856 1.53144e-18 0.000744134 0.0177826 6.97955e-19 0.000754905 0.0177335 -1.17907e-18 
0.000754636 0.0177081 -3.35425e-18 0.000742514 0.0177063 -1.51788e-18 0.00071761 0.0177278 2.37169e-18 
0.000678909 0.0177728 4.18095e-18 0.000625333 0.0178413 1.97189e-18 0.000555823 0.0179335 -1.50433e-18 
0.000469247 0.0180497 -3.26616e-18 0.000502535 0.0116709 2.37169e-20 0.000567494 0.0118702 2.03288e-20 
0.000623088 0.0120393 2.47334e-19 0.000669294 0.0121799 -2.98156e-19 0.000705982 0.0122934 3.42201e-19 
0.000732877 0.012381 9.65618e-19 0.000749555 0.0124437 9.21572e-19 0.000755445 0.0124821 -5.35325e-19 
0.000749827 0.0124966 3.15096e-19 0.000731852 0.0124876 1.01644e-20 0.000700562 0.012455 3.6253e-19 
0.000654923 0.0123988 5.0822e-20 0.000593846 0.0123191 3.04932e-20 0.000516319 0.0122156 3.21873e-19 
0.000465527 0.0115561 2.30393e-19 0.000535345 0.0117719 -1.55854e-19 0.000595745 0.0119563 8.53809e-19 
0.000646779 0.0121113 -3.79471e-19 0.000688381 0.0122385 1.69407e-19 0.000720348 0.0123393 2.19551e-18 
0.000742334 0.0124147 2.76472e-18 0.000753845 0.0124654 7.65718e-19 0.000754233 0.0124922 -2.37169e-19 
0.000742714 0.0124952 6.91179e-19 0.000718383 0.0124747 6.03087e-19 0.00068024 0.0124306 8.19928e-19 
0.000627218 0.012363 0 0.000558267 0.0122717 6.91179e-19 0.000472261 0.0121565 2.12097e-18 
0.00243065 0.0116709 3.28649e-19 0.00236569 0.0118702 -4.47233e-19 0.0023101 0.0120393 4.87891e-19 
0.00226389 0.0121799 5.0822e-20 0.0022272 0.0122934 -1.05032e-19 0.00220031 0.012381 -2.94767e-19 
0.00218363 0.0124437 3.38813e-21 0.00217774 0.0124821 2.47334e-19 0.00218336 0.0124966 6.84403e-19 
0.00220133 0.0124876 1.82959e-19 0.00223262 0.012455 -2.30393e-19 0.00227826 0.0123988 -5.86147e-19 
0.00233934 0.0123191 -4.74338e-20 0.00241686 0.0122156 6.36969e-19 0.00246766 0.0115561 4.74338e-20 
0.00239784 0.0117719 -2.84603e-19 0.00233744 0.0119563 -2.98156e-19 0.0022864 0.0121113 2.1684e-19 
0.0022448 0.0122385 2.57498e-19 0.00221284 0.0123393 -1.00966e-18 0.00219085 0.0124147 -6.7085e-19 
0.00217934 0.0124654 2.77827e-19 0.00217895 0.0124922 1.61275e-18 0.00219047 0.0124952 1.33492e-18 
0.0022148 0.0124747 7.45389e-20 0.00225294 0.0124306 -1.38236e-18 0.00230597 0.012363 -8.67362e-19 
0.00237492 0.0122717 9.89334e-19 0.00246092 0.0121565 2.83248e-18 0.0024208 0.0185078 -2.67662e-19 
0.0023582 0.0183136 -1.25361e-19 0.00230441 0.0181487 -3.32037e-19 0.00225962 0.0180115 2.47334e-19 
0.00222407 0.0179007 -3.93023e-19 0.00219811 0.0178153 -1.41285e-18 0.00218222 0.0177544 -1.36203e-18 
0.00217702 0.0177176 5.96311e-19 0.00218327 0.0177043 -7.65718e-19 0.00220183 0.0177144 1.25361e-19 
0.00223368 0.017748 -1.86347e-19 0.00227988 0.017805 -6.77626e-20 0.00234151 0.0178857 -5.42101e-19 
0.0024196 0.0179901 -5.75982e-20 0.00245632 0.0186195 -1.89735e-19 0.00238922 0.0184095 -7.18284e-19 
0.00233089 0.0182297 -1.06387e-18 0.00228145 0.0180785 2.1684e-19 0.00224112 0.0179543 -3.93023e-19 
0.00221018 0.017856 -3.09675e-18 0.00218905 0.0177826 -4.16063e-18 0.00217828 0.0177335 -1.61275e-18 
0.00217855 0.0177081 -4.06576e-19 0.00219067 0.0177063 -1.15874e-18 0.00221557 0.0177278 2.57498e-19 
0.00225427 0.0177728 -7.45389e-19 0.00230785 0.0178413 -9.62229e-19 0.00237736 0.0179335 -1.03677e-18 
0.00246394 0.0180497 -1.11808e-18 0.000313853 0.0177854 1.26039e-18 0.000222317 0.017423 -4.33681e-19 
0.000144458 0.0170352 3.79471e-19 8.11639e-05 0.0166264 3.38813e-19 3.31593e-05 0.0162011 1.35525e-19 
9.86965e-07 0.0157639 2.15485e-18 -1.49994e-05 0.0153196 -2.1684e-19 -1.46354e-05 0.0148732 -4.60786e-19 
2.06091e-06 0.0144296 -7.04731e-19 3.489e-05 0.0139936 1.15196e-19 8.34662e-05 0.0135699 -1.17907e-18 
0.00014722 0.0131633 -4.33681e-19 0.000225408 0.0127781 4.26905e-19 0.000317129 0.0124184 -2.5411e-19 
0.00036429 0.0179559 -5.82759e-19 0.000266277 0.0176077 1.12486e-18 0.000181435 0.0172321 -6.77626e-20 
0.00011072 0.0168332 1.43657e-18 5.49404e-05 0.0164155 5.42101e-19 1.47365e-05 0.0159836 3.2255e-18 
-9.42525e-06 0.0155423 2.41235e-18 -1.72652e-05 0.0150964 -1.11131e-18 -8.70068e-06 0.0146508 -1.73472e-18 
1.61494e-05 0.0142103 -9.75782e-19 5.69715e-05 0.0137799 -1.35525e-18 0.00011327 0.0133642 -2.38524e-18 
0.000184381 0.0129677 -2.71051e-20 0.00026948 0.0125947 -8.13152e-20 0.000367605 0.0122493 9.89334e-19 
0.0005368 0.0117912 2.93073e-19 0.000662345 0.0115303 -2.1684e-19 0.0007965 0.0113085 -5.91375e-19 
0.000937833 0.0111282 -3.94717e-19 0.00108482 0.0109912 -6.52215e-19 0.00123588 0.0108991 -9.89334e-19 
0.00138941 0.0108528 -1.16552e-18 0.00154377 0.0108528 8.13152e-20 0.0016973 0.0108991 -3.998e-19 
0.00184837 0.0109912 -4.91279e-19 0.00199535 0.0111282 4.75185e-19 0.00213668 0.0113085 5.79212e-19 
0.00227084 0.0115303 7.36072e-19 0.00239638 0.0117912 1.10114e-19 0.00047759 0.0119353 2.32426e-18 
0.000598282 0.011656 1.6263e-19 0.000728326 0.0114143 -1.36203e-18 0.000866291 0.0112129 -9.58841e-19 
0.00101068 0.011054 -1.63308e-18 0.00115993 0.0109393 -2.76472e-18 0.00131244 0.0108699 -4.00477e-18 
0.00146659 0.0108468 -1.07743e-18 0.00162074 0.0108699 -1.96512e-19 0.00177325 0.0109393 -1.24006e-18 
0.00192251 0.011054 2.1684e-19 0.00206689 0.0112129 1.65171e-18 0.00220486 0.0114143 2.17857e-18 
0.0023349 0.011656 1.10114e-18 0.00245559 0.0119353 2.04643e-18 0.00261605 0.0124184 -7.45389e-19 
0.00270778 0.0127781 1.0842e-19 0.00278596 0.0131633 -3.93023e-19 0.00284972 0.0135699 -4.87891e-19 
0.00289829 0.0139936 -6.43745e-19 0.00293112 0.0144296 -6.09864e-20 0.00294782 0.0148732 -3.45589e-19 
0.00294818 0.0153196 -5.42101e-20 0.0029322 0.0157639 4.60786e-19 0.00290002 0.0162011 6.09864e-19 
0.00285202 0.0166264 5.96311e-19 0.00278873 0.0170352 1.00289e-18 0.00271087 0.017423 2.71051e-20 
0.00261933 0.0177854 2.60886e-19 0.00256558 0.0122493 1.0571e-18 0.0026637 0.0125947 -1.00289e-18 
0.0027488 0.0129677 -4.20128e-19 0.00281991 0.0133642 -1.49078e-18 0.00287621 0.0137799 -1.87025e-18 
0.00291703 0.0142103 -9.21572e-19 0.00294188 0.0146508 -5.96311e-19 0.00295045 0.0150964 -1.6263e-19 
0.00294261 0.0155423 1.0571e-18 0.00291845 0.0159836 1.5992e-18 0.00287824 0.0164155 1.89735e-18 
0.00282246 0.0168332 2.27682e-18 0.00275175 0.0172321 1.28749e-18 0.00266691 0.0176077 6.91179e-19 
0.00256889 0.0179559 -7.58942e-19 0.00239959 0.0184184 -2.5411e-19 0.0022738 0.0186821 -6.95414e-19 
0.00213928 0.0189064 1.2909e-18 0.00199748 0.0190889 1.33408e-18 0.00184995 0.0192276 1.78046e-18 
0.00169827 0.0193209 2.25141e-18 0.0015441 0.0193678 2.52755e-18 0.00138908 0.0193678 1.6263e-19 
0.00123491 0.0193209 3.21873e-19 0.00108324 0.0192276 7.96211e-20 0.000935705 0.0190889 -1.15705e-18 
0.000793904 0.0189064 -1.29591e-18 0.000659384 0.0186821 -6.27651e-19 0.000533595 0.0184184 -2.42251e-19 
0.00245887 0.0182729 -1.63986e-18 0.002338 0.0185551 -1.56871e-18 0.00220765 0.0187994 1.15535e-18 
0.00206927 0.0190031 2.58599e-18 0.00192437 0.019164 4.93651e-18 0.00177454 0.0192802 6.48488e-18 
0.00162139 0.0193504 8.40934e-18 0.00146659 0.0193739 3.25938e-18 0.00131179 0.0193504 3.04932e-19 
0.00115865 0.0192802 5.28549e-19 0.00100882 0.019164 -1.4569e-18 0.000863917 0.0190031 -3.47029e-18 
0.000725533 0.0187994 -3.17129e-18 0.000595182 0.0185551 -1.29088e-18 0.000474312 0.0182729 -2.66985e-18 
0.000362988 0.0182523 1.55854e-19 0.000262377 0.0177596 -1.28749e-19 0.000138656 0.017259 -6.47133e-19 
-2.33459e-06 0.0167571 -4.40457e-20 -0.000145223 0.0162623 7.11508e-20 -0.00026523 0.0157806 3.96411e-19 
-0.00033464 0.015312 -3.15096e-19 -0.000334694 0.0148489 5.59042e-19 -0.000265553 0.0143806 -1.15196e-19 
-0.000146232 0.0138996 3.76083e-19 -4.566e-06 0.013406 3.55754e-19 0.00013464 0.0129058 2.47334e-19 
0.00025601 0.0124073 -5.45489e-19 0.000353666 0.0119172 1.69407e-20 0.000404652 0.0184944 2.77827e-19 
0.000315631 0.0180072 0 0.000203179 0.0175099 -1.0571e-18 6.95028e-05 0.0170076 -1.53144e-18 
-7.50288e-05 0.0165083 4.06576e-20 -0.000209945 0.0160196 1.39591e-18 -0.000307771 0.015545 5.01444e-19 
-0.000343761 0.0150804 -2.30393e-19 -0.000307922 0.014616 2.71051e-20 -0.000210548 0.0141419 3.11708e-19 
-7.65789e-05 0.0136541 9.62229e-19 6.64491e-05 0.0131563 8.67362e-19 0.00019806 0.0126559 1.35525e-20 
0.000307865 0.0121609 -1.09775e-18 0.000393602 0.0116765 1.96512e-19 0.000609981 0.0113167 2.77827e-19 
0.000793008 0.0111638 2.13452e-19 0.000969675 0.0109816 -8.80914e-20 0.00112966 0.0107798 2.27005e-19 
0.00126248 0.0105799 -5.64124e-19 0.00136274 0.0104148 9.08019e-19 0.00143558 0.0103203 -2.59192e-19 
0.0014976 0.0103203 9.99499e-20 0.00157044 0.0104148 2.87991e-20 0.0016707 0.0105799 -1.05032e-19 
0.00180353 0.0107798 9.14796e-20 0.00196351 0.0109816 9.48677e-20 0.00214017 0.0111638 2.91379e-19 
0.0023232 0.0113167 -3.55754e-19 0.000518551 0.0113816 7.04731e-19 0.000701769 0.0112441 5.69206e-19 
0.000882771 0.0110759 4.26905e-19 0.00105249 0.0108819 -4.06576e-20 0.00120001 0.0106776 -4.74338e-19 
0.00131664 0.0104906 1.15196e-19 0.00140176 0.0103568 1.47045e-18 0.00146659 0.010308 -4.06576e-19 
0.00153142 0.0103568 -1.21973e-19 0.00161654 0.0104906 -9.48677e-20 0.00173318 0.0106776 1.01644e-19 
0.00188069 0.0108819 3.38813e-19 0.00205041 0.0110759 4.47233e-19 0.00223141 0.0112441 -4.74338e-20 
0.00241463 0.0113816 -1.53144e-18 0.00257952 0.0119172 -2.13452e-19 0.00267717 0.0124073 4.43845e-19 
0.00279854 0.0129058 5.42101e-20 0.00293775 0.013406 3.48978e-19 0.00307941 0.0138996 3.72694e-19 
0.00319874 0.0143806 -1.55854e-19 0.00326788 0.0148489 2.98156e-19 0.00326782 0.015312 -7.72494e-19 
0.00319841 0.0157806 -2.23617e-19 0.00307841 0.0162623 -1.4569e-19 0.00293552 0.0167571 -1.72795e-19 
0.00279453 0.017259 -3.35425e-19 0.00267081 0.0177596 5.31937e-19 0.0025702 0.0182523 -3.93023e-19 
0.00253958 0.0116765 -4.40457e-19 0.00262532 0.0121609 3.93023e-19 0.00273512 0.0126559 1.76183e-19 
0.00286673 0.0131563 5.69206e-19 0.00300976 0.0136541 1.20617e-18 0.00314373 0.0141419 1.35525e-20 
0.0032411 0.014616 5.14996e-19 0.00327694 0.0150804 -2.03288e-19 0.00324095 0.015545 -1.23328e-18 
0.00314313 0.0160196 -9.48677e-19 0.00300821 0.0165083 -7.72494e-19 0.00286368 0.0170076 -8.67362e-19 
0.00273 0.0175099 1.76183e-19 0.00261755 0.0180072 1.49078e-19 0.00252853 0.0184944 -7.99599e-19 
0.00231152 0.0188682 -9.21572e-19 0.00212988 0.0190323 3.04932e-20 0.0019547 0.0192241 -1.15196e-19 
0.00179634 0.0194339 2.67662e-19 0.00166532 0.01964 1.18415e-18 0.00156707 0.0198095 -1.46367e-18 
0.00149645 0.0199063 1.71101e-19 0.00143673 0.0199063 1.32137e-19 0.00136611 0.0198095 1.0842e-19 
0.00126787 0.01964 1.64324e-19 0.00113684 0.0194339 6.09864e-20 0.00097848 0.0192241 1.82959e-19 
0.000803301 0.0190323 3.82859e-19 0.000621658 0.0188682 4.33681e-19 0.0024023 0.0187972 -1.82959e-18 
0.00222042 0.0189466 -8.67362e-19 0.00204085 0.0191252 -4.33681e-19 0.00187268 0.0193279 1.14519e-18 
0.00172686 0.0195394 2.80537e-18 0.00161214 0.0197317 -4.20128e-19 0.00152915 0.0198689 -2.08709e-18 
0.00146659 0.0199189 3.998e-19 0.00140404 0.0198689 -4.74338e-20 0.00132104 0.0197317 3.32037e-19 
0.00120632 0.0195394 -1.0842e-19 0.0010605 0.0193279 -7.45389e-19 0.000892334 0.0191252 1.78893e-18 
0.000712766 0.0189466 4.5401e-19 0.000530884 0.0187972 2.72406e-18 0.000988161 0.0291346 -9.48677e-20 
0.000668911 0.0286324 4.40457e-20 0.000413087 0.0281817 1.3993e-18 0.000199731 0.0277556 -8.43645e-19 
1.46132e-05 0.0273456 6.57298e-19 -0.00014764 0.0269455 -2.74439e-19 -0.000291443 0.0265518 1.71439e-18 
-0.000419842 0.0261621 -5.6243e-19 -0.00053523 0.025775 4.91279e-19 -0.000639526 0.0253893 -8.60585e-19 
-0.000734332 0.025004 4.81115e-19 -0.000821012 0.0246186 -2.67662e-19 -0.000900756 0.0242326 6.36969e-19 
-0.000974616 0.0238456 -1.38913e-19 -0.00104353 0.0234575 7.28448e-19 -0.00110834 0.023068 -5.89535e-19 
-0.00116979 0.0226772 4.7095e-19 -0.00122857 0.022285 -2.5411e-19 -0.00128526 0.0218916 -4.06576e-20 
-0.00134037 0.0214971 2.60886e-19 -0.00139431 0.0211019 1.63308e-18 -0.00144738 0.0207061 -1.35186e-18 
-0.00149979 0.0203102 2.67662e-19 -0.00155162 0.0199145 -2.1684e-19 -0.00160282 0.0195195 3.48978e-19 
-0.00165321 0.0191255 5.14996e-19 -0.00170248 0.018733 5.86147e-19 -0.00175016 0.0183423 4.06576e-20 
0.00119491 0.0294662 5.16351e-18 0.000813792 0.0288698 4.06576e-20 0.000534606 0.0284026 4.93312e-18 
0.000302346 0.0279658 1.73472e-18 0.000103941 0.027549 9.75782e-19 -6.90748e-05 0.0271445 -5.01444e-19 
-0.000221658 0.026748 2.91379e-18 -0.000357418 0.0263565 2.81215e-18 -0.000479043 0.0259683 -1.2265e-18 
-0.000588665 0.025582 -6.64074e-19 -0.000688031 0.0251966 -6.64074e-19 -0.000778613 0.0248114 7.86047e-19 
-0.000861685 0.0244257 1.52466e-18 -0.000938362 0.0240392 3.79471e-19 -0.00100964 0.0236517 1.84992e-18 
-0.0010764 0.0232629 3.65918e-19 -0.00113944 0.0228728 -5.69206e-19 -0.00119948 0.0224812 1.28749e-18 
-0.00125715 0.0220884 -9.75782e-19 -0.00131299 0.0216945 -8.80914e-20 -0.00136746 0.0212996 3.12386e-18 
-0.00142093 0.020904 4.26905e-19 -0.00147365 0.0205081 -3.21195e-18 -0.00152577 0.0201123 -4.74338e-20 
-0.0015773 0.0197169 4.5401e-19 -0.00162813 0.0193223 2.05998e-18 -0.00167801 0.018929 1.78216e-18 
-0.00172655 0.0185374 1.41624e-18 -0.00177324 0.0181478 -1.28749e-18 -0.0018404 0.0175489 1.52466e-19 
-0.00188116 0.0171467 -1.15196e-19 -0.00191709 0.016747 -4.74338e-19 -0.00194733 0.0163497 1.05032e-19 
-0.0019711 0.0159542 -7.18284e-19 -0.00198779 0.0155599 -3.32037e-19 -0.00199697 0.0151662 3.38813e-20 
-0.00199847 0.0147722 -3.89635e-19 -0.00199236 0.014377 4.06576e-19 -0.00197901 0.0139799 -2.30393e-19 
-0.00195899 0.0135801 9.48677e-19 -0.0019331 0.013177 5.45489e-19 -0.00190231 0.0127702 3.79471e-19 
-0.00186765 0.0123593 5.59042e-19 -0.00181849 0.0177511 -2.58853e-18 -0.00186133 0.0173475 6.77626e-21 
-0.00189979 0.0169466 -9.01243e-19 -0.00193297 0.0165481 -3.25261e-19 -0.00196007 0.0161517 -8.47033e-19 
-0.00198037 0.0157569 -1.26039e-18 -0.00199334 0.015363 4.74338e-19 -0.00199869 0.0149693 -6.09864e-19 
-0.00199636 0.0145748 1.28749e-19 -0.00198657 0.0141788 3.59142e-19 -0.00196979 0.0137804 1.19262e-18 
-0.00194672 0.013379 2.85958e-18 -0.00191826 0.0129741 1.39591e-18 -0.0018854 0.0125652 1.84992e-18 
-0.00184921 0.0121523 8.13152e-20 -0.00179288 0.0115448 -2.91379e-19 -0.00175484 0.0111418 3.21873e-19 
-0.00171686 0.0107356 2.03288e-20 -0.00167963 0.0103266 1.66018e-19 -0.00164368 0.00991512 -1.11808e-19 
-0.00160946 0.00950166 3.35425e-19 -0.0015773 0.00908664 -1.42302e-19 -0.00154741 0.00867045 2.94767e-19 
-0.00151993 0.00825348 -1.21973e-19 -0.0014949 0.00783608 -1.01644e-20 -0.00147231 0.00741855 -2.64274e-19 
-0.00145209 0.00700114 1.93124e-19 -0.00143414 0.00658406 2.74439e-19 -0.00141833 0.00616748 -2.71051e-20 
-0.00140449 0.00575154 -1.18585e-19 -0.00139248 0.00533631 8.80914e-20 -0.00138212 0.00492186 -2.03288e-20 
-0.00137325 0.00450821 1.999e-19 -0.00136572 0.00409536 0 -0.00135937 0.00368329 -2.37169e-20 
-0.00135407 0.00327197 1.49078e-19 -0.00134969 0.00286135 9.14796e-20 -0.00134613 0.00245136 6.77626e-21 
-0.00134327 0.00204192 1.32137e-19 -0.00134105 0.00163295 -1.01644e-20 -0.00133939 0.00122437 2.03288e-20 
-0.00133824 0.000816083 6.43745e-20 -0.00133757 0.000407992 -7.45389e-20 -0.00181168 0.011745 -1.40269e-18 
-0.00177389 0.0113437 -4.5401e-19 -0.0017358 0.0109391 4.94667e-19 -0.00169811 0.0105314 4.67562e-19 
-0.00166146 0.0101211 2.77827e-19 -0.00162633 0.00970861 6.64074e-19 -0.00159311 0.00929432 6.50521e-19 
-0.00156206 0.00887867 6.91179e-19 -0.00153336 0.00846204 1.0842e-19 -0.00150711 0.00804482 -3.93023e-19 
-0.0014833 0.00762732 -4.60786e-19 -0.00146191 0.00720981 1.21973e-19 -0.00144284 0.00679255 6.23416e-19 
-0.00142598 0.0063757 4.06576e-19 -0.00141117 0.00595943 -1.6263e-19 -0.00139827 0.00554383 -1.0842e-19 
-0.0013871 0.00512899 1.35525e-19 -0.00137751 0.00471493 2.10064e-19 -0.00136933 0.00430168 1.69407e-19 
-0.00136241 0.00388923 6.09864e-20 -0.0013566 0.00347754 1.28749e-19 -0.00135177 0.00306658 4.33681e-19 
-0.00134781 0.00265628 5.42101e-20 -0.00134462 0.00224657 2.77827e-19 -0.00134209 0.00183738 1.0842e-19 
-0.00134015 0.00142862 1.49078e-19 -0.00133876 0.0010202 2.50722e-19 -0.00133785 0.000612019 -6.77626e-20 
-0.0013374 0.00020399 1.0842e-19 -0.00120961 0 3.72694e-20 -0.00108218 0 5.42101e-20 
-0.000955206 0 8.13152e-20 -0.000828806 0 6.77626e-21 -0.000703082 0 3.72694e-20 
-0.00057812 0 4.74338e-20 -0.000453994 0 -1.69407e-20 -0.000330763 0 0 
-0.000208476 0 0 -8.71689e-05 0 -1.69407e-20 3.31318e-05 0 -3.38813e-21 
0.000152413 0 4.06576e-20 0.000270675 0 3.38813e-21 0.00038793 0 3.38813e-20 
0.000504208 0 3.38813e-21 -0.00127345 0 2.84603e-19 -0.00114584 0 8.13152e-20 
-0.00101863 0 1.89735e-19 -0.000891927 0 1.21973e-19 -0.000765854 0 8.13152e-20 
-0.000640501 0 1.01644e-19 -0.000515949 0 8.80914e-20 -0.000392263 0 -2.03288e-20 
-0.000269499 0 0 -0.000147698 0 -7.45389e-20 -2.68917e-05 0 -4.74338e-20 
9.29002e-05 0 6.09864e-20 0.000211671 0 5.42101e-20 0.000329427 0 1.0842e-19 
0.000446189 0 7.45389e-20 0.000561993 0 6.77626e-21 0.000734467 0 2.37169e-20 
0.000848578 0 3.72694e-20 0.000961976 0 -3.38813e-21 0.00107477 0 6.09864e-20 
0.00118707 0 -6.77626e-21 0.00129903 0 4.06576e-20 0.00141076 0 6.43745e-20 
0.00152242 0 -3.04932e-20 0.00163416 0 3.04932e-20 0.00174611 0 5.42101e-20 
0.00185841 0 3.04932e-20 0.00197121 0 3.38813e-20 0.00208461 0 2.71051e-20 
0.00219872 0 6.77626e-21 0.000677114 0 1.0842e-19 0.000791617 0 1.28749e-19 
0.000905359 0 7.45389e-20 0.00101844 0 1.0842e-19 0.00113097 0 1.28749e-19 
0.00124309 0 9.48677e-20 0.00135491 0 2.71051e-19 0.00146659 0 8.80914e-20 
0.00157827 0 8.80914e-20 0.0016901 0 2.23617e-19 0.00180221 0 2.77827e-19 
0.00191474 0 1.6263e-19 0.00202782 0 4.74338e-20 0.00214157 0 1.15196e-19 
0.00225607 0 7.45389e-20 0.00242898 0 1.21973e-19 0.00254525 0 -2.20229e-19 
0.00266251 0 5.0822e-20 0.00278077 0 9.48677e-20 0.00290005 0 1.59242e-19 
0.00302035 0 -2.94767e-19 0.00314166 0 1.55854e-19 0.00326395 0 -1.35525e-19 
0.00338718 0 3.72694e-20 0.0035113 0 -2.03288e-20 0.00363627 0 -7.45389e-20 
0.00376199 0 -2.5411e-19 0.00388839 0 1.35525e-19 0.00401536 0 -9.48677e-20 
0.00414279 0 1.59242e-19 0.00237119 0 3.11708e-19 0.00248699 0 -1.15196e-19 
0.00260376 0 -2.10064e-19 0.00272151 0 2.1684e-19 0.00284028 0 2.77827e-19 
0.00296007 0 -1.0842e-19 0.00308088 0 6.09864e-20 0.00320268 0 -1.01644e-19 
0.00332545 0 -2.1684e-19 0.00344913 0 -1.21973e-19 0.00357368 0 -1.82959e-19 
0.00369904 0 -3.11708e-19 0.00382511 0 -2.43945e-19 0.00395181 0 -4.06576e-20 
0.00407903 0 2.91379e-19 0.00420663 0 -3.38813e-20 0.00427075 0.000407992 1.0842e-19 
0.00427143 0.000816083 -3.59142e-19 0.00427257 0.00122437 2.1684e-19 0.00427423 0.00163295 1.69407e-20 
0.00427645 0.00204192 -2.71051e-20 0.00427931 0.00245136 -1.28749e-19 0.00428288 0.00286135 1.01644e-19 
0.00428725 0.00327197 3.72694e-20 0.00429255 0.00368329 -1.55854e-19 0.0042989 0.00409536 2.1684e-19 
0.00430644 0.00450821 8.13152e-20 0.0043153 0.00492186 1.01644e-20 0.00432566 0.00533631 -4.47233e-19 
0.00433768 0.00575154 -3.11708e-19 0.00435151 0.00616748 -2.84603e-19 0.00436733 0.00658406 -2.20229e-19 
0.00438528 0.00700114 -2.60886e-19 0.0044055 0.00741855 1.72795e-19 0.00442808 0.00783608 -3.38813e-21 
0.00445311 0.00825348 4.67562e-19 0.0044806 0.00867045 -4.47233e-19 0.00451048 0.00908664 -2.71051e-20 
0.00454265 0.00950166 1.82959e-19 0.00457686 0.00991512 1.32137e-19 0.00461281 0.0103266 -2.71051e-20 
0.00465005 0.0107356 -1.42302e-19 0.00468802 0.0111418 -6.03087e-19 0.00472606 0.0115448 -6.23416e-19 
0.00427059 0.00020399 1.35525e-19 0.00427103 0.000612019 -2.57498e-19 0.00427194 0.0010202 -3.86247e-19 
0.00427334 0.00142862 1.15196e-19 0.00427527 0.00183738 1.35525e-20 0.0042778 0.00224657 2.03288e-19 
0.004281 0.00265628 1.15196e-19 0.00428496 0.00306658 8.80914e-20 0.00428978 0.00347754 1.01644e-19 
0.00429559 0.00388923 1.15196e-19 0.00430251 0.00430168 5.0822e-19 0.00431069 0.00471493 3.72694e-19 
0.00432029 0.00512899 -8.13152e-19 0.00433145 0.00554383 -1.38236e-18 0.00434435 0.00595943 -7.58942e-19 
0.00435916 0.0063757 -1.00289e-18 0.00437603 0.00679255 -4.87891e-19 0.00439509 0.00720981 4.06576e-20 
0.00441649 0.00762732 1.49078e-19 0.00444029 0.00804482 1.5992e-18 0.00446655 0.00846204 -3.38813e-19 
0.00449524 0.00887867 0 0.00452629 0.00929432 1.53144e-18 0.00455951 0.00970861 1.41624e-18 
0.00459464 0.0101211 3.32037e-19 0.0046313 0.0105314 3.38813e-19 0.00466898 0.0109391 -1.00289e-18 
0.00470708 0.0113437 -1.52466e-18 0.00474487 0.011745 7.65718e-19 0.00480083 0.0123593 -5.86147e-19 
0.00483549 0.0127702 -1.55854e-19 0.00486629 0.013177 3.45589e-19 0.00489217 0.0135801 -2.47334e-19 
0.00491219 0.0139799 3.998e-19 0.00492555 0.014377 5.92923e-19 0.00493165 0.0147722 -6.23416e-19 
0.00493016 0.0151662 1.00966e-18 0.00492097 0.0155599 3.18484e-19 0.00490428 0.0159542 1.15874e-18 
0.00488051 0.0163497 -8.1654e-19 0.00485027 0.016747 -9.65618e-19 0.00481435 0.0171467 3.72694e-20 
0.00477359 0.0175489 -4.84503e-19 0.00478239 0.0121523 8.13152e-19 0.00481858 0.0125652 -1.38236e-18 
0.00485144 0.0129741 1.28749e-19 0.00487991 0.013379 -7.04731e-19 0.00490297 0.0137804 1.96512e-19 
0.00491975 0.0141788 1.49755e-18 0.00492954 0.0145748 -2.1684e-19 0.00493187 0.0149693 4.26905e-19 
0.00492653 0.015363 2.73761e-18 0.00491355 0.0157569 2.74439e-18 0.00489325 0.0161517 6.1664e-19 
0.00486616 0.0165481 -3.39491e-18 0.00483297 0.0169466 -2.10064e-18 0.00479452 0.0173475 -1.36881e-18 
0.00475167 0.0177511 5.42101e-19 0.00468334 0.0183423 1.69407e-19 0.00463566 0.018733 6.43745e-20 
0.0045864 0.0191255 4.06576e-19 0.004536 0.0195195 -2.06676e-19 0.0044848 0.0199145 4.40457e-19 
0.00443297 0.0203102 -6.13252e-19 0.00438056 0.0207061 1.55854e-19 0.00432749 0.0211019 -2.64274e-19 
0.00427355 0.0214971 2.1684e-19 0.00421845 0.0218916 -4.03188e-19 0.00416176 0.022285 2.20229e-19 
0.00410298 0.0226772 -5.6243e-19 0.00404152 0.023068 -8.43645e-19 0.00397671 0.0234575 3.18484e-19 
0.0039078 0.0238456 7.14896e-19 0.00383394 0.0242326 2.20229e-19 0.0037542 0.0246186 -7.45389e-20 
0.00366752 0.025004 -9.04631e-19 0.00357271 0.0253893 7.72494e-19 0.00346841 0.025775 8.74138e-19 
0.00335303 0.0261621 -5.35325e-19 0.00322463 0.0265518 1.25361e-19 0.00308082 0.0269455 -7.72494e-19 
0.00291857 0.0273456 -2.1684e-19 0.00273345 0.0277556 -9.2496e-19 0.0025201 0.0281817 3.35425e-19 
0.00226427 0.0286324 2.84603e-19 0.00194502 0.0291346 -4.43845e-19 0.00470642 0.0181478 3.998e-19 
0.00465973 0.0185374 1.15874e-18 0.00461119 0.018929 5.6243e-19 0.00456132 0.0193223 1.76183e-19 
0.00451049 0.0197169 -2.57498e-19 0.00445896 0.0201123 -6.57298e-19 0.00440684 0.0205081 -2.33103e-18 
0.00435411 0.020904 -5.42101e-19 0.00430064 0.0212996 9.21572e-19 0.00424617 0.0216945 -2.77827e-19 
0.00419033 0.0220884 -9.55453e-19 0.00413266 0.0224812 -2.08031e-18 0.00407262 0.0228728 -1.86347e-18 
0.00400958 0.0232629 -5.82759e-19 0.00394282 0.0236517 1.81604e-18 0.00387155 0.0240392 1.39591e-18 
0.00379487 0.0244257 1.0842e-19 0.0037118 0.0248114 -1.15874e-18 0.00362121 0.0251966 -8.13152e-20 
0.00352185 0.025582 2.23617e-18 0.00341223 0.0259683 1.03677e-18 0.0032906 0.0263565 -1.24006e-18 
0.00315484 0.026748 -6.23416e-19 0.00300226 0.0271445 -1.63308e-18 0.00282924 0.027549 -6.09864e-19 
0.00263084 0.0279658 -1.8838e-18 0.00239858 0.0284026 1.73472e-18 0.00211939 0.0288698 7.18284e-19 
0.00173827 0.0294662 1.21973e-18 0.00146659 0.0298487 1.53821e-18 0.00146659 0.0298487 8.47033e-20 
0.00146659 0.0298487 -8.67362e-19 0.00146659 0.0298487 -2.4835e-18 0.00146659 0.0298487 8.87691e-19 
0.00146659 0.0298487 -7.31836e-19 0.00146659 0.0298487 -5.79371e-19 0.00146659 0.0298487 2.03288e-20 
0.00146659 0.0298487 -1.16891e-18 0.00146659 0.0298487 1.76522e-18 0.00146659 0.0298487 -5.89535e-19 
0.00146659 0.0298487 -7.86047e-19 0.00146659 0.0298487 1.29088e-18 0.00146659 0.0298487 -1.69407e-18 
0.00146659 0.0298487 1.78555e-18 0.00146659 0.0298487 3.30682e-18 0.00146659 0.0298487 3.998e-18 
0.00146659 0.0298487 -1.12486e-18 0.00146659 0.0298487 -7.27771e-18 0.00146659 0.0298487 -2.61564e-18 
0.00146659 0.0298487 1.91091e-18 0.00146659 0.0298487 -3.93023e-19 0.00146659 0.0298487 -1.65341e-18 
0.00146659 0.0298487 -9.89334e-19 0.00146659 0.0298487 1.53144e-18 0.00146659 0.0298487 1.45012e-18 
0.00146659 0.0298487 -6.30193e-18 0.00146659 0.0298487 -3.79471e-19 0.00146659 0.0298487 -1.54499e-18 
0.00146659 0.0298487 1.61275e-18 0.00146659 0.0298487 6.34258e-18 0.00146659 0.0298487 -1.69407e-19 
0.00146659 0.0298487 -6.87791e-19 0.00146659 0.0298487 2.53432e-18 0.00146659 0.0298487 -1.19262e-18 
0.00146659 0.0298487 7.89435e-19 0.00146659 0.0298487 4.74338e-20 0.00146659 0.0298487 -5.42101e-19 
0.00146659 0.0298487 2.80537e-18 0.00146659 0.0298487 8.40257e-19 0.00146659 0.0298487 1.34848e-18 
0.00146659 0.0298487 -1.73472e-18 0.00146659 0.0298487 1.59581e-18 0.00146659 0.0298487 -2.741e-18 
0.00146659 0.0298487 1.82959e-19 0.00146659 0.0298487 -1.36881e-18 0.00146659 0.0298487 -2.05998e-18 
0.00146659 0.0298487 5.35325e-18 0.00146659 0.0298487 4.33681e-19 0.00146659 0.0298487 -2.61564e-18 
0.00146659 0.0298487 2.53432e-18 0.00146659 0.0298487 -4.74338e-19 0.00146659 0.0298487 2.27682e-18 
0.00146659 0.0298487 2.61564e-18 0.00146659 0.0298487 1.95156e-18 0.00146659 0.0298487 -3.68629e-18 
0.00146659 0.0298487 -3.1984e-18 0.00146659 0.0298487 -3.25261e-19 0.00146659 0.0298487 -4.91957e-18 
0.00146659 0.0298487 3.38813e-19 0.00146659 0.0298487 1.81604e-18 0.00146659 0.0298487 -1.66018e-18 
0.00146659 0.0298487 4.50622e-19 0.00146659 0.0298487 -5.89535e-19 0.00146659 0.0298487 2.67662e-19 
0.00146659 0.0298487 2.81215e-19 0.00146659 0.0298487 -7.92823e-19 0.00146659 0.0298487 6.09864e-20 
0.00146659 0.0298487 -1.52127e-18 0.00146659 0.0298487 2.37169e-20 0.00146659 0.0298487 -1.76183e-18 
0.00146659 0.0298487 3.82859e-19 0.00146659 0.0298487 1.01983e-18 0.00146659 0.0298487 9.48677e-20 
0.00146659 0.0298487 -5.0822e-19 0.00146659 0.0298487 2.80537e-18 0.00146659 0.0298487 3.10353e-18 
0.00146659 0.0298487 -5.14996e-18 0.00146659 0.0298487 -1.61275e-18 0.00146659 0.0298487 2.71051e-20 
0.00146659 0.0298487 1.82959e-18 0.00146659 0.0298487 -1.53144e-18 0.00146659 0.0298487 -1.58565e-18 
0.00146659 0.0298487 -2.84603e-18 0.00146659 0.0298487 -6.28837e-18 0.00146659 0.0298487 -4.75694e-18 
0.00146659 0.0298487 -1.55854e-18 0.00146659 0.0298487 3.63208e-18 0.00146659 0.0298487 5.8818e-18 
0.00146659 0.0298487 -4.06576e-19 0.00146659 0.0298487 3.23905e-18 0.000266373 0.0186246 1.999e-19 
9.8746e-05 0.018537 -2.1684e-19 -6.16245e-05 0.0184658 -3.6253e-19 -0.00021531 0.018407 1.86347e-19 
-0.0003632 0.0183572 -4.40457e-20 -0.000506235 0.0183138 1.11808e-19 -0.000645271 0.018275 6.77626e-20 
-0.000781029 0.0182393 -4.06576e-20 -0.000914085 0.0182055 1.38913e-19 -0.00104488 0.0181727 2.84603e-19 
-0.00117375 0.0181402 1.25361e-19 -0.00130092 0.0181072 -4.84503e-19 -0.00142658 0.0180729 -1.25361e-19 
-0.00155085 0.0180367 -3.04932e-20 -0.00167385 0.0179974 -5.14996e-19 0.000352884 0.018676 4.06576e-19 
0.000181642 0.0185785 3.04932e-19 1.7674e-05 0.0184996 -9.48677e-19 -0.000139256 0.0184351 -1.07065e-18 
-0.000289925 0.0183811 2.43945e-19 -0.000435273 0.0183348 7.45389e-19 -0.000576208 0.018294 6.77626e-20 
-0.000713523 0.0182569 -6.91179e-19 -0.000847866 0.0182222 6.36969e-19 -0.000979744 0.0181891 1.484e-18 
-0.00110954 0.0181565 1.21295e-18 -0.00123753 0.0181238 2.57498e-19 -0.00136393 0.0180902 -1.42979e-18 
-0.00148888 0.0180551 3.86247e-19 -0.0016125 0.0180175 -4.06576e-19 -0.00173492 0.0179762 -2.99511e-18 
0.000252235 0.0115336 -3.65918e-19 8.35439e-05 0.0116058 4.20128e-19 -7.77805e-05 0.0116602 -8.94467e-19 
-0.000232321 0.0117012 -6.77626e-21 -0.000380989 0.0117322 -7.04731e-19 -0.000524759 0.0117559 3.72694e-19 
-0.000664527 0.0117746 2.71051e-20 -0.000801065 0.01179 -9.48677e-20 -0.000935004 0.0118034 -4.06576e-19 
-0.00106684 0.0118162 -2.23617e-19 -0.00119697 0.0118295 6.03087e-19 -0.00132568 0.0118443 -4.81115e-19 
-0.00145319 0.0118618 4.7095e-19 -0.00157969 0.0118833 4.74338e-20 -0.00170531 0.0119102 -4.09964e-19 
0.000339321 0.0114895 -3.93023e-19 0.000166958 0.0115722 3.38813e-20 1.9817e-06 0.0116349 -1.3146e-18 
-0.00015585 0.0116822 -2.24972e-18 -0.000307333 0.0117178 -1.32815e-18 -0.000453432 0.0117448 -6.50521e-19 
-0.000595095 0.0117658 3.65918e-19 -0.000733161 0.0117826 4.40457e-19 -0.000868328 0.0117969 -9.75782e-19 
-0.00100116 0.0118098 -1.36881e-18 -0.0011321 0.0118227 4.67562e-19 -0.00126149 0.0118366 -2.50722e-19 
-0.00138957 0.0118526 -3.25261e-19 -0.00151656 0.011872 1.49755e-18 -0.0016426 0.011896 -1.0842e-19 
-0.00176785 0.0119262 -1.68729e-18 0.000480569 0.0109954 -3.65918e-19 0.000518893 0.0105632 -1.35525e-20 
0.000546513 0.010141 1.76183e-19 0.000566308 0.00972731 3.38813e-21 0.000580494 0.00932042 -1.96512e-19 
0.000590707 0.00891894 3.72694e-19 0.000598121 0.00852166 -1.35525e-19 0.000603566 0.0081276 -1.6263e-19 
0.000607618 0.00773598 1.01644e-19 0.000610676 0.00734616 1.21973e-19 0.000613012 0.00695767 -2.30393e-19 
0.000614814 0.00657013 -9.82558e-20 0.00061621 0.00618325 -2.71051e-20 0.000617291 0.00579681 -2.06676e-19 
0.00061812 0.00541063 -5.42101e-20 0.000618746 0.0050246 -1.69407e-20 0.000619204 0.00463862 2.27005e-19 
0.000619525 0.00425262 -1.66018e-19 0.000619732 0.00386655 1.4569e-19 0.000619849 0.00348038 -6.77626e-20 
0.000619896 0.0030941 -4.06576e-20 0.00061989 0.00270769 1.35525e-20 0.000619848 0.00232115 -1.35525e-19 
0.000619787 0.00193449 8.80914e-20 0.000619717 0.00154773 -1.01644e-20 0.000619651 0.00116088 -1.35525e-20 
0.000619598 0.000773961 4.06576e-20 0.000619563 0.000386992 -4.06576e-20 0.000456324 0.0112158 -5.96311e-19 
0.000501281 0.010778 -8.87691e-19 0.00053385 0.010351 1.35525e-20 0.00055724 0.00993322 7.45389e-20 
0.000573991 0.0095231 -3.32037e-19 0.000586016 0.00911908 2.10064e-19 0.000594707 0.00871983 -3.59142e-19 
0.00060105 0.00832428 1.42302e-19 0.000605739 0.00793152 3.38813e-20 0.000609252 0.00754087 7.11508e-19 
0.000611921 0.00715177 -1.82959e-19 0.00061397 0.0067638 -4.94667e-19 0.000615556 0.00637662 -2.03288e-19 
0.000616785 0.00598998 -5.82759e-19 0.000617734 0.00560369 -3.11708e-19 0.000618456 0.00521761 -8.13152e-20 
0.000618994 0.00483161 3.59142e-19 0.00061938 0.00444563 -2.71051e-20 0.000619641 0.0040596 -7.45389e-20 
0.000619801 0.00367348 1.35525e-19 0.00061988 0.00328726 -3.65918e-19 0.000619898 0.00290091 -1.01644e-19 
0.000619873 0.00251443 -1.35525e-19 0.000619819 0.00212784 -1.89735e-19 0.000619752 0.00174113 1.6263e-19 
0.000619683 0.00135432 -7.45389e-20 0.000619622 0.000967428 7.45389e-20 0.000619578 0.000580481 -1.35525e-20 
0.000619554 0.000193498 -6.77626e-20 0.00245261 0.0109954 -1.38913e-19 0.00241429 0.0105632 -5.42101e-20 
0.00238667 0.010141 -2.98156e-19 0.00236687 0.00972731 1.21973e-19 0.00235269 0.00932042 -1.89735e-19 
0.00234248 0.00891894 1.96512e-19 0.00233506 0.00852166 3.38813e-19 0.00232962 0.0081276 -3.38813e-21 
0.00232556 0.00773598 4.40457e-20 0.00232251 0.00734616 7.7927e-20 0.00232017 0.00695767 2.20229e-19 
0.00231837 0.00657013 1.35525e-20 0.00231697 0.00618325 -1.35525e-20 0.00231589 0.00579681 2.27005e-19 
0.00231506 0.00541063 1.01644e-19 0.00231444 0.0050246 7.11508e-20 0.00231398 0.00463862 -2.37169e-19 
0.00231366 0.00425262 2.03288e-19 0.00231345 0.00386655 9.48677e-20 0.00231333 0.00348038 -1.82959e-19 
0.00231329 0.0030941 1.25361e-19 0.00231329 0.00270769 -1.21973e-19 0.00231333 0.00232115 -6.43745e-20 
0.0023134 0.00193449 -7.7927e-20 0.00231347 0.00154773 9.82558e-20 0.00231353 0.00116088 -1.42302e-19 
0.00231359 0.000773961 5.42101e-20 0.00231362 0.000386992 -4.06576e-20 0.00247686 0.0112158 1.21973e-19 
0.0024319 0.010778 -5.48877e-19 0.00239933 0.010351 -2.1684e-19 0.00237594 0.00993322 -1.28749e-19 
0.00235919 0.0095231 -4.5401e-19 0.00234717 0.00911908 4.74338e-20 0.00233848 0.00871983 6.23416e-19 
0.00233213 0.00832428 7.58942e-19 0.00232744 0.00793152 5.6243e-19 0.00232393 0.00754087 1.96512e-19 
0.00232126 0.00715177 5.89535e-19 0.00231921 0.0067638 4.20128e-19 0.00231763 0.00637662 4.74338e-20 
0.0023164 0.00598998 6.36969e-19 0.00231545 0.00560369 6.30193e-19 0.00231473 0.00521761 4.5401e-19 
0.00231419 0.00483161 -2.1684e-19 0.0023138 0.00444563 7.45389e-20 0.00231354 0.0040596 5.14996e-19 
0.00231338 0.00367348 8.80914e-20 0.0023133 0.00328726 6.77626e-21 0.00231329 0.00290091 -6.77626e-21 
0.00231331 0.00251443 -2.91379e-19 0.00231336 0.00212784 -2.71051e-19 0.00231343 0.00174113 1.0842e-19 
0.0023135 0.00135432 -6.77626e-20 0.00231356 0.000967428 -1.6263e-19 0.00231361 0.000580481 1.42302e-19 
0.00231363 0.000193498 -1.55854e-19 0.00268095 0.0115336 -2.47334e-19 0.00284964 0.0116058 -3.04932e-20 
0.00301096 0.0116602 -3.45589e-19 0.0031655 0.0117012 3.0832e-19 0.00331417 0.0117322 0 
0.00345794 0.0117559 -6.77626e-21 0.00359771 0.0117746 5.75982e-20 0.00373425 0.01179 4.67562e-19 
0.00386819 0.0118034 -3.6253e-19 0.00400003 0.0118162 4.26905e-19 0.00413015 0.0118295 1.0842e-19 
0.00425886 0.0118443 8.30092e-19 0.00438638 0.0118618 -2.91379e-19 0.00451287 0.0118833 1.05032e-19 
0.0046385 0.0119102 5.75982e-20 0.00259386 0.0114895 -1.15196e-19 0.00276623 0.0115722 -9.41901e-19 
0.0029312 0.0116349 -3.79471e-19 0.00308903 0.0116822 3.25261e-19 0.00324052 0.0117178 6.23416e-19 
0.00338662 0.0117448 1.35525e-20 0.00352828 0.0117658 5.42101e-19 0.00366634 0.0117826 6.77626e-19 
0.00380151 0.0117969 3.32037e-19 0.00393434 0.0118098 -1.21973e-19 0.00406528 0.0118227 8.19928e-19 
0.00419467 0.0118366 2.1413e-18 0.00432276 0.0118526 6.43745e-19 0.00444974 0.011872 -3.38813e-19 
0.00457579 0.011896 4.26905e-19 0.00470103 0.0119262 1.79571e-18 0.00266681 0.0186246 6.26804e-19 
0.00283444 0.018537 -4.47233e-19 0.00299481 0.0184658 7.45389e-19 0.00314849 0.018407 5.0822e-20 
0.00329638 0.0183572 8.60585e-19 0.00343942 0.0183138 -1.01983e-18 0.00357845 0.018275 -3.59142e-19 
0.00371421 0.0182393 -4.13352e-19 0.00384727 0.0182055 2.23617e-19 0.00397806 0.0181727 2.47334e-19 
0.00410693 0.0181402 -6.43745e-19 0.0042341 0.0181072 9.96111e-19 0.00435976 0.0180729 -3.89635e-19 
0.00448403 0.0180367 -1.05032e-19 0.00460703 0.0179974 6.53909e-19 0.0025803 0.018676 1.11131e-18 
0.00275154 0.0185785 1.13164e-18 0.00291551 0.0184996 1.04354e-18 0.00307244 0.0184351 2.15485e-18 
0.00322311 0.0183811 1.65341e-18 0.00336846 0.0183348 -5.96311e-19 0.00350939 0.018294 -2.00577e-18 
0.00364671 0.0182569 -2.40557e-18 0.00378105 0.0182222 2.98156e-19 0.00391293 0.0181891 7.38613e-19 
0.00404272 0.0181565 -4.74338e-20 0.00417072 0.0181238 1.66018e-18 0.00429711 0.0180902 1.42302e-18 
0.00442206 0.0180551 -1.24006e-18 0.00454568 0.0180175 6.03087e-19 0.0046681 0.0179762 1.99222e-18 
0.00243544 0.0191799 6.67462e-19 0.00239206 0.0196153 -1.999e-19 0.0023584 0.0200407 -6.53909e-19 
0.00233147 0.0204579 2.37169e-19 0.00230889 0.0208682 -4.06576e-20 0.0022889 0.021273 -1.0842e-19 
0.00227016 0.0216735 6.23416e-19 0.00225171 0.0220706 -3.04932e-20 0.00223281 0.0224649 -2.06676e-19 
0.00221291 0.0228568 -8.23316e-19 0.00219159 0.0232469 3.52366e-19 0.00216852 0.0236351 2.50722e-19 
0.00214345 0.0240217 7.52165e-19 0.00211616 0.0244067 8.91079e-19 0.0020865 0.02479 -3.11708e-19 
0.00205435 0.0251714 7.86047e-19 0.00201965 0.0255508 -6.23416e-19 0.00198239 0.0259279 5.79371e-19 
0.00194261 0.0263025 -5.11608e-19 0.00190043 0.0266743 -1.05032e-19 0.00185603 0.027043 -3.6253e-19 
0.00180967 0.0274082 2.57498e-19 0.00176168 0.0277698 4.33681e-19 0.00171247 0.0281273 -5.01444e-19 
0.00166252 0.0284805 5.86147e-19 0.00161238 0.0288294 8.02987e-19 0.0015626 0.0291737 -7.52165e-19 
0.0015138 0.0295135 -2.71051e-20 0.00246189 0.018958 8.06375e-19 0.00241231 0.0193989 1.82959e-19 
0.00237421 0.0198291 -5.0822e-19 0.00234425 0.0202503 -7.7927e-19 0.00231976 0.0206638 -1.0842e-19 
0.00229866 0.0210712 7.52165e-19 0.00227944 0.0214738 1.87025e-18 0.00226095 0.0218725 -7.45389e-20 
0.00224235 0.022268 -1.07065e-18 0.00222301 0.0226611 -2.77149e-18 0.00220245 0.0230521 -5.82759e-19 
0.00218029 0.0234412 8.60585e-19 0.00215625 0.0238286 1.484e-18 0.00213009 0.0242144 2.60209e-18 
0.00210163 0.0245986 1.50433e-18 0.00207074 0.0249809 1.26039e-18 0.00203732 0.0253614 4.06576e-20 
0.00200134 0.0257397 -6.77626e-20 0.00196281 0.0261156 2.98156e-19 0.00192181 0.0264888 -9.48677e-19 
0.00187849 0.0268591 -6.64074e-19 0.00183307 0.0272261 1.21973e-18 0.00178585 0.0275895 1.35525e-18 
0.0017372 0.027949 1.28749e-18 0.00168756 0.0283044 -3.52366e-19 0.00163744 0.0286555 3.55076e-18 
0.0015874 0.0290021 4.20128e-19 0.00153804 0.0293442 -1.35525e-20 0.00148996 0.0296817 2.71051e-20 
0.000497745 0.0191799 3.72694e-19 0.000541128 0.0196153 4.06576e-20 0.00057478 0.0200407 2.67662e-19 
0.000601716 0.0204579 7.0812e-19 0.000624291 0.0208682 -4.74338e-19 0.000644284 0.021273 6.91179e-19 
0.000663018 0.0216735 -3.93023e-19 0.000681473 0.0220706 1.66018e-19 0.000700375 0.0224649 -7.72494e-19 
0.000720275 0.0228568 7.65718e-19 0.000741593 0.0232469 -4.94667e-19 0.000764659 0.0236351 8.80914e-20 
0.000789734 0.0240217 4.40457e-19 0.000817024 0.0244067 -5.2516e-19 0.000846687 0.02479 1.18246e-18 
0.000878835 0.0251714 -3.6253e-19 0.000913534 0.0255508 4.91279e-19 0.000950794 0.0259279 -4.23516e-19 
0.000990571 0.0263025 7.89435e-19 0.00103275 0.0266743 1.69407e-20 0.00107715 0.027043 4.81115e-19 
0.00112352 0.0274082 -7.55553e-19 0.00117151 0.0277698 1.57209e-18 0.00122071 0.0281273 1.1147e-18 
0.00127066 0.0284805 4.43845e-19 0.00132081 0.0288294 2.94767e-19 0.00137058 0.0291737 3.79471e-19 
0.00141938 0.0295135 1.32815e-18 0.000471295 0.018958 8.13152e-20 0.000520873 0.0193989 1.55854e-19 
0.000558971 0.0198291 7.92823e-19 0.00058893 0.0202503 1.49078e-18 0.000613428 0.0206638 -1.06387e-18 
0.00063452 0.0210712 9.41901e-19 0.000653742 0.0214738 -2.57498e-19 0.000672231 0.0218725 -3.38813e-20 
0.000690831 0.022268 -2.10064e-18 0.000710172 0.0226611 -8.3348e-19 0.000730734 0.0230521 5.0822e-19 
0.00075289 0.0234412 1.30782e-18 0.000776932 0.0238286 -1.76183e-19 0.000803092 0.0242144 -1.89735e-18 
0.000831551 0.0245986 1.27394e-18 0.000862445 0.0249809 4.74338e-19 0.000895864 0.0253614 -1.68051e-18 
0.000931845 0.0257397 -4.20128e-19 0.000970374 0.0261156 4.87891e-19 0.00101137 0.0264888 2.71051e-19 
0.00105469 0.0268591 9.48677e-19 0.00110011 0.0272261 -4.06576e-19 0.00114733 0.0275895 -8.13152e-19 
0.00119599 0.027949 4.29615e-18 0.00124563 0.0283044 2.22261e-18 0.00129574 0.0286555 1.0842e-19 
0.00134578 0.0290021 6.36969e-19 0.00139514 0.0293442 2.3988e-18 0.00144322 0.0296817 5.04154e-18 
0.000382783 0.017665 -8.80914e-20 0.000262799 0.017317 -1.01644e-19 0.000158123 0.016948 2.43945e-19 
7.20784e-05 0.0165597 1.55854e-19 6.74888e-06 0.0161549 5.28549e-19 -3.68639e-05 0.015737 1.3417e-18 
-5.84635e-05 0.0153109 4.06576e-20 -5.80497e-05 0.0148821 -4.47233e-19 -3.56524e-05 0.0144566 -1.02322e-18 
8.66965e-06 0.0140398 2.64274e-19 7.45657e-05 0.0136365 -6.36969e-19 0.000160989 0.0132502 -5.69206e-19 
0.000265831 0.0128835 -5.35325e-19 0.000385763 0.012538 -6.50521e-19 0.00044288 0.0175662 -1.28749e-19 
0.000301316 0.0172283 -4.47233e-19 0.000174262 0.0168731 4.5401e-19 6.76676e-05 0.016501 -1.35525e-19 
-1.43465e-05 0.0161133 3.86247e-19 -6.95183e-05 0.0157124 6.50521e-19 -9.69669e-05 0.0153028 4.33681e-19 
-9.65154e-05 0.0148902 -4.06576e-20 -6.82066e-05 0.0144811 -7.31836e-19 -1.23008e-05 0.0140812 7.18284e-19 
7.02476e-05 0.0136949 -4.13352e-19 0.000177124 0.0133246 -5.69206e-19 0.000304185 0.0129715 -3.65918e-19 
0.0004455 0.012636 2.50722e-19 0.000493769 0.0174889 7.11508e-20 0.000336883 0.0171574 4.94667e-19 
0.000191919 0.0168115 -1.35525e-20 6.73277e-05 0.0164513 1.42302e-19 -3.03352e-05 0.0160771 8.74138e-19 
-9.68979e-05 0.0156906 6.03087e-19 -0.000130292 0.0152954 -1.01644e-19 -0.000129815 0.0148974 8.80914e-20 
-9.55243e-05 0.0145027 -6.36969e-19 -2.82295e-05 0.0141171 4.87891e-19 6.99124e-05 0.0137442 -2.71051e-19 
0.000194676 0.0133857 -8.26704e-19 0.0003395 0.0130418 -3.38813e-21 0.000495977 0.0127125 2.03288e-19 
0.00053513 0.017433 -4.74338e-20 0.000368453 0.0171044 5.38713e-19 0.000209923 0.0167637 -1.76183e-19 
7.01229e-05 0.0164112 -2.77827e-19 -4.1814e-05 0.0160469 8.80914e-19 -0.000119326 0.0156719 -1.6263e-19 
-0.00015862 0.015289 2.77827e-19 -0.00015813 0.0149034 -1.49078e-19 -0.000117929 0.0145209 -2.37169e-19 
-3.97108e-05 0.0141467 2.98156e-19 7.2631e-05 0.0137837 -1.89735e-19 0.000212488 0.0134327 -5.48877e-19 
0.000370743 0.0130939 -3.04932e-19 0.000536883 0.0127675 1.72795e-19 0.000566844 0.0173985 -7.28448e-19 
0.000395157 0.0170696 -6.77626e-20 0.000227166 0.0167303 4.20128e-19 7.50805e-05 0.0163815 2.10064e-19 
-4.94687e-05 0.0160235 -3.86247e-19 -0.000137229 0.0156568 -2.43945e-19 -0.000182233 0.0152836 -2.03288e-19 
-0.000181744 0.0149081 -3.52366e-19 -0.000135845 0.0145353 -1.82959e-19 -4.74272e-05 0.0141694 1.28749e-19 
7.7438e-05 0.0138125 -4.20128e-19 0.000229463 0.0134653 -5.89535e-19 0.000397058 0.0131278 2.64274e-19 
0.000568104 0.0128011 -1.52466e-19 0.000588882 0.017385 2.81215e-19 0.000416215 0.017053 -8.84302e-19 
0.000242546 0.0167116 -2.03288e-19 8.11395e-05 0.0163628 7.72494e-19 -5.41309e-05 0.0160074 -3.38813e-19 
-0.000151196 0.0156458 2.43945e-19 -0.000201583 0.0152794 -2.71051e-19 -0.000201105 0.0149113 3.11708e-19 
-0.000149861 0.0145453 -2.1684e-19 -5.22062e-05 0.0141845 2.23617e-19 8.32799e-05 0.0138302 1.0842e-19 
0.000244509 0.0134829 -6.36969e-19 0.00041767 0.0131433 6.77626e-20 0.000589611 0.0128134 1.38913e-19 
0.000601291 0.0173926 7.6233e-19 0.000430945 0.0170547 -1.32137e-19 0.000254993 0.016708 -7.52165e-19 
8.71794e-05 0.0163556 5.69206e-19 -5.67614e-05 0.0159991 -4.06576e-19 -0.000161984 0.0156392 3.18484e-19 
-0.00021729 0.0152766 1.76183e-19 -0.000216837 0.0149129 2.43945e-19 -0.000160731 0.0145507 -2.03288e-19 
-5.5004e-05 0.0141914 6.77626e-21 8.90431e-05 0.013836 3.59142e-19 0.000256563 0.0134851 -6.47133e-19 
0.000431903 0.0131402 -7.11508e-20 0.000601445 0.0128045 -1.42302e-19 0.000604157 0.0174213 7.45389e-19 
0.000438753 0.0170748 3.42201e-19 0.000263486 0.0167197 -2.43945e-19 9.20435e-05 0.0163602 5.69206e-19 
-5.84304e-05 0.0159991 2.57498e-19 -0.000170497 0.0156374 8.19928e-19 -0.000230147 0.0152751 4.06576e-20 
-0.000229727 0.0149128 7.45389e-19 -0.000169357 0.0145509 -4.20128e-19 -5.68862e-05 0.0141898 6.7085e-19 
9.35772e-05 0.0138297 2.57498e-19 0.000264609 0.0134718 -4.94667e-19 0.000439163 0.0131186 -4.06576e-20 
0.000603683 0.0127743 -1.6263e-19 0.000597585 0.0174712 -8.13152e-20 0.000439125 0.0171134 -6.77626e-21 
0.000267058 0.0167469 -4.67562e-19 9.45632e-05 0.0163772 3.32037e-19 -6.02936e-05 0.0160078 6.23416e-19 
-0.000177775 0.0156406 -1.21973e-19 -0.000241097 0.0152752 5.48877e-19 -0.000240722 0.0149106 -1.21973e-19 
-0.000176776 0.0145456 0 -5.9004e-05 0.014179 8.13152e-20 9.57183e-05 0.0138108 -5.0822e-20 
0.000267682 0.0134425 2.37169e-20 0.00043893 0.013078 -7.45389e-20 0.000596411 0.0127224 -2.20229e-19 
0.00058167 0.0175428 -4.74338e-20 0.000431609 0.0171707 -1.59242e-19 0.000264806 0.01679 -1.999e-19 
9.35777e-05 0.0164067 2.20229e-19 -6.35677e-05 0.0160256 2.10064e-19 -0.000184972 0.0156492 -2.98156e-19 
-0.000251227 0.015277 8.80914e-20 -0.000250906 0.0149064 1.21973e-19 -0.000184141 0.0145345 1.21973e-19 
-6.25706e-05 0.0141587 4.81115e-19 9.43081e-05 0.0137788 1.35525e-20 0.000264876 0.013397 -2.60886e-19 
0.000430738 0.0130183 -1.79571e-19 0.0005797 0.0126486 -3.93023e-19 0.000556481 0.0176365 6.67462e-19 
0.000415798 0.0172473 -1.86347e-19 0.000255889 0.0168493 -1.12486e-18 8.79502e-05 0.0164492 -2.47334e-19 
-6.95075e-05 0.0160528 -2.71051e-20 -0.000193334 0.0156634 -1.76183e-19 -0.00026174 0.0152804 5.42101e-20 
-0.00026148 0.0149 -3.25261e-19 -0.000192692 0.0145173 5.28549e-19 -6.88383e-05 0.0141285 3.38813e-21 
8.82095e-05 0.0137333 -1.21973e-19 0.000255345 0.0133348 -1.82959e-19 0.000414164 0.0129388 -2.60886e-19 
0.000553582 0.0125521 -3.82859e-19 0.00052205 0.0177531 1.52466e-19 0.000391319 0.0173435 2.91379e-19 
0.000239523 0.0169252 -7.96211e-19 7.65783e-05 0.016505 3.38813e-21 -7.93852e-05 0.0160897 1.82959e-19 
-0.000204172 0.0156834 1.05032e-19 -0.000273935 0.0152856 4.40457e-19 -0.000273744 0.0148912 1.0842e-19 
-0.000203742 0.0144936 7.11508e-20 -7.90782e-05 0.014088 -1.21973e-19 7.63162e-05 0.0136739 1.69407e-20 
0.000238289 0.0132553 -1.6263e-19 0.000388804 0.0128391 2.37169e-19 0.000518036 0.012432 -5.69206e-19 
0.000478365 0.0178937 5.38713e-19 0.000357817 0.0174603 -4.67562e-19 0.000214977 0.0170182 5.55654e-19 
5.83988e-05 0.0165745 -2.87991e-19 -9.4474e-05 0.0161367 -1.6263e-19 -0.000218847 0.0157095 -1.18585e-19 
-0.000289188 0.0152925 -5.0822e-20 -0.000289073 0.0148798 -1.01644e-20 -0.000218647 0.0144632 4.98055e-19 
-9.45648e-05 0.0140367 -2.03288e-19 5.75575e-05 0.0136 7.75882e-19 0.000212956 0.013158 -6.91179e-19 
0.000354263 0.012718 -9.48677e-20 0.000472981 0.0122872 5.55654e-19 0.000425369 0.0180596 3.52366e-19 
0.000314937 0.0175986 2.47334e-19 0.000181546 0.0171292 9.48677e-20 3.2388e-05 0.0166584 0 
-0.000116031 0.0161941 3.42201e-19 -0.000238741 0.0157418 -6.87791e-19 -0.000308931 0.0153013 1.15196e-19 
-0.000308897 0.0148658 -7.7927e-20 -0.000238793 0.0144256 3.04932e-20 -0.000116559 0.0139741 -1.01644e-20 
3.08967e-05 0.013511 -2.87991e-19 0.000178612 0.0130418 -1.01644e-20 0.000310125 0.0125746 9.62229e-19 
0.000418261 0.0121161 -3.0832e-19 0.000350213 0.017721 1.77538e-18 0.000445579 0.017833 -1.43657e-18 
0.000243212 0.0173666 -6.50521e-19 0.000319982 0.0174965 -6.91179e-19 0.000151071 0.016989 8.13152e-19 
0.000207676 0.0171378 1.49078e-19 7.58805e-05 0.0165913 7.04731e-19 0.000112527 0.0167587 7.04731e-19 
1.89533e-05 0.0161769 9.48677e-19 3.71697e-05 0.0163614 8.40257e-19 -1.90425e-05 0.0157499 5.3397e-18 
-1.69581e-05 0.0159489 2.81893e-18 -3.78643e-05 0.0153151 -2.71051e-19 -4.93087e-05 0.0155255 1.78893e-18 
-3.74734e-05 0.0148779 -1.40946e-18 -5.98061e-05 0.0150965 -6.77626e-19 -1.78937e-05 0.0144437 -2.57498e-18 
-4.84904e-05 0.0146677 -1.97867e-18 2.07892e-05 0.0140178 5.42101e-19 -1.53803e-05 0.0142452 -1.00289e-18 
7.82891e-05 0.013605 -2.73761e-18 3.93918e-05 0.013834 -5.96311e-19 0.000153901 0.0132093 -1.53144e-18 
0.000115229 0.0134385 -1.76183e-18 0.000246287 0.0128342 -8.13152e-20 0.000210654 0.0130615 -1.61275e-18 
0.000353346 0.0124824 -1.3417e-18 0.000323019 0.0127052 -1.38236e-18 0.000448467 0.0123713 -3.79471e-19 
0.000414746 0.0176115 0 0.000515795 0.01773 -5.01444e-19 0.000282859 0.0172693 -9.75782e-19 
0.000369935 0.0174014 -7.04731e-19 0.000166133 0.0169079 1.00289e-18 0.000235147 0.0170549 1.49078e-19 
6.92452e-05 0.0165285 5.42101e-20 0.000118101 0.0166911 5.01444e-19 -4.74664e-06 0.0161329 1.46367e-18 
2.38158e-05 0.0163107 1.35525e-19 -5.42886e-05 0.0157241 3.00866e-18 -4.46123e-05 0.0159156 2.03288e-18 
-7.88654e-05 0.0153067 7.58942e-19 -8.57452e-05 0.0155091 1.51788e-18 -7.84307e-05 0.0148864 -7.58942e-19 
-9.91669e-05 0.0150965 4.60786e-19 -5.30209e-05 0.0144695 -2.6563e-18 -8.48539e-05 0.0146842 -1.30104e-18 
-2.75348e-06 0.0140617 1.46367e-18 -4.29145e-05 0.0142784 -1.35525e-19 7.17915e-05 0.0136675 -1.5992e-18 
2.61564e-05 0.0138844 2.71051e-19 0.00016901 0.01329 -1.73472e-18 0.000120856 0.0135057 -1.70762e-18 
0.000285819 0.0129309 -1.47723e-18 0.000238048 0.0131438 -1.27394e-18 0.000417549 0.0125911 -7.72494e-19 
0.000372714 0.0127996 -8.13152e-20 0.000518219 0.0124735 3.25261e-19 0.000470165 0.0175238 1.35525e-20 
0.000573053 0.0176501 2.01933e-18 0.000319995 0.0171897 6.77626e-20 0.000413853 0.0173263 5.01444e-19 
0.000183189 0.0168398 4.87891e-19 0.000262033 0.0169877 7.72494e-19 6.70232e-05 0.0164743 5.42101e-20 
0.000126597 0.0166347 1.49078e-19 -2.31692e-05 0.016094 1.78893e-18 1.51105e-05 0.0162672 1.27394e-18 
-8.42197e-05 0.0157008 1.87025e-18 -6.71043e-05 0.0158862 2.19551e-18 -0.000114713 0.0152989 5.14996e-19 
-0.000117052 0.0154943 7.31836e-19 -0.000114247 0.014894 2.71051e-20 -0.000133478 0.0150964 2.71051e-20 
-8.28714e-05 0.0144926 -2.05998e-18 -0.000116113 0.0146987 -1.00289e-18 -2.10846e-05 0.0141004 1.81604e-18 
-6.53382e-05 0.0143075 0 6.96164e-05 0.0137214 -1.00289e-18 1.74922e-05 0.0139276 1.89735e-19 
0.000186009 0.0133577 -2.01933e-18 0.000129309 0.0135616 -1.5992e-18 0.000322745 0.0130098 -6.23416e-19 
0.000264762 0.0132104 -1.36881e-18 0.00047258 0.012678 7.45389e-19 0.000416301 0.0128739 4.87891e-19 
0.000574988 0.0125525 4.06576e-19 0.000516193 0.0174575 3.38813e-19 0.00061775 0.017593 1.93801e-18 
0.000353633 0.0171279 1.39591e-18 0.000451087 0.0172712 9.75782e-19 0.000201168 0.0167852 -2.57498e-19 
0.000287281 0.0169366 5.14996e-19 6.84102e-05 0.0164294 -2.98156e-19 0.00013705 0.01659 -5.82759e-19 
-3.67677e-05 0.0160608 2.76472e-18 1.04084e-05 0.0162315 5.69206e-19 -0.000109018 0.0156805 7.04731e-19 
-8.47541e-05 0.0158614 1.11131e-18 -0.000145452 0.015292 2.43945e-19 -0.000143335 0.0154816 0 
-0.000144967 0.0149006 -5.42101e-20 -0.000162772 0.0150962 2.43945e-19 -0.000107627 0.0145125 -1.27394e-18 
-0.000142374 0.014711 -6.23416e-19 -3.46555e-05 0.0141331 1.16552e-18 -8.29706e-05 0.0143318 5.42101e-20 
7.09655e-05 0.0137658 -6.09864e-19 1.27578e-05 0.0139627 2.71051e-19 0.000203837 0.0134116 -2.11419e-18 
0.000139634 0.0136056 -1.36881e-18 0.000356091 0.0130708 -2.84603e-19 0.000289751 0.0132608 -1.55854e-18 
0.000518173 0.0127434 5.82759e-19 0.000453141 0.0129282 -2.03288e-19 0.000619176 0.0126087 7.86047e-19 
0.000552616 0.0174126 -9.08019e-19 0.000650323 0.0175586 -2.71051e-19 0.000382815 0.0170842 7.86047e-19 
0.000481064 0.017236 -1.36881e-18 0.000218926 0.0167447 4.47233e-19 0.000309828 0.0169018 8.13152e-20 
7.24462e-05 0.0163946 -1.0842e-19 0.00014838 0.0165578 7.31836e-19 -4.61878e-05 0.016034 5.96311e-19 
8.87457e-06 0.0162044 1.35525e-20 -0.000129061 0.0156637 -4.60786e-19 -9.8098e-05 0.0158417 -7.04731e-19 
-0.000171316 0.0152861 2.71051e-20 -0.000164916 0.0154711 -6.23416e-19 -0.000170825 0.014906 -8.94467e-19 
-0.000187297 0.0150958 -4.60786e-19 -0.000127666 0.0145288 -6.77626e-19 -0.000163958 0.0147208 -6.77626e-19 
-4.4109e-05 0.0141592 7.04731e-19 -9.63461e-05 0.0143507 -8.13152e-20 7.48861e-05 0.0137998 -1.0571e-18 
1.11231e-05 0.013989 -3.11708e-19 0.000221363 0.0134513 -1.61275e-18 0.000150757 0.013637 -1.50433e-18 
0.000384913 0.0131136 -1.6263e-19 0.000311969 0.0132946 -6.91179e-19 0.000554121 0.0127874 1.49078e-19 
0.000482673 0.0129625 1.49078e-19 0.000651216 0.0126422 0 0.000579365 0.0173889 -9.75782e-19 
0.000671271 0.0175466 -1.35525e-18 0.000406717 0.0170588 -1.42302e-18 0.000503334 0.0172206 -8.40257e-19 
0.000235354 0.0167188 3.65918e-19 0.000328681 0.0168837 -2.08709e-18 7.81098e-05 0.0163705 1.54499e-18 
0.000159465 0.0165385 7.45389e-19 -5.21924e-05 0.0160143 -1.19262e-18 9.54655e-06 0.0161864 5.42101e-19 
-0.000144859 0.0156506 -5.42101e-20 -0.000107843 0.0158277 -1.6263e-19 -0.000192675 0.0152813 -6.77626e-19 
-0.000182301 0.0154633 -2.71051e-19 -0.00019219 0.01491 -2.71051e-20 -0.000207486 0.0150954 2.1684e-19 
-0.000143496 0.014541 -5.14996e-19 -0.00018137 0.0147276 -1.6263e-19 -5.02041e-05 0.0141781 3.52366e-19 
-0.00010617 0.0143638 -2.1684e-19 8.03639e-05 0.013823 -4.06576e-19 1.16319e-05 0.014006 5.82759e-19 
0.000237488 0.0134762 -1.84314e-18 0.000161567 0.0136552 -9.75782e-19 0.000408396 0.0131381 4.87891e-19 
0.000330429 0.0133117 -5.96311e-19 0.000580358 0.0128101 -1.0842e-19 0.00050445 0.0129767 1.35525e-20 
0.0006716 0.0126531 7.31836e-19 0.000596453 0.0173863 1.72117e-18 0.000681099 0.0175569 -2.57498e-19 
0.00042461 0.0170516 -1.39591e-18 0.000517545 0.017225 1.24683e-18 0.000249364 0.0167078 -1.57209e-18 
0.000342913 0.0168823 -1.04354e-18 8.43057e-05 0.0163576 2.01933e-18 0.000169167 0.0165326 -6.77626e-20 
-5.56822e-05 0.0160021 -1.01644e-18 1.13602e-05 0.0161781 5.01444e-19 -0.00015709 0.0156418 9.21572e-19 
-0.000114852 0.0158198 -1.49078e-19 -0.000210067 0.0152778 -1.0842e-19 -0.000196171 0.0154583 7.31836e-19 
-0.0002096 0.0149124 8.40257e-19 -0.000223948 0.0150947 9.75782e-19 -0.000155793 0.0145487 -6.23416e-19 
-0.00019529 0.0147314 -2.71051e-20 -5.38372e-05 0.0141891 3.11708e-19 -0.000113299 0.0143704 -2.84603e-19 
8.63112e-05 0.0138347 6.91179e-19 1.32258e-05 0.014013 6.77626e-19 0.000251132 0.013486 -1.89735e-18 
0.000170934 0.0136597 -6.77626e-19 0.000425816 0.0131441 -1.35525e-19 0.000344214 0.0133116 -1.15196e-18 
0.000596893 0.0128115 0 0.000518121 0.012971 -6.77626e-20 0.000680824 0.0126415 -7.99599e-19 
0.000603952 0.0174047 2.07354e-18 0.000680296 0.0175896 1.24683e-18 0.000435859 0.0170627 3.52366e-19 
0.000523424 0.0172493 1.87025e-18 0.00025991 0.016712 -1.53144e-18 0.000351681 0.016898 5.42101e-20 
8.98915e-05 0.0163564 1.81604e-18 0.000176358 0.0165404 0 -5.76771e-05 0.0159981 -1.49078e-19 
1.31762e-05 0.0161799 1.68051e-18 -0.000166587 0.0156376 1.78893e-18 -0.000120119 0.0158184 1.66696e-18 
-0.000224202 0.0152756 3.52366e-19 -0.000207369 0.0154564 9.62229e-19 -0.000223765 0.0149131 1.57209e-18 
-0.000237466 0.0150939 1.39591e-18 -0.000165389 0.0145514 -9.89334e-19 -0.000206559 0.0147317 7.04731e-19 
-5.60236e-05 0.0141917 9.21572e-19 -0.000118727 0.0143701 1.35525e-19 9.15922e-05 0.0138344 9.21572e-19 
1.47713e-05 0.0140095 1.32815e-18 0.000261257 0.0134803 -1.73472e-18 0.000177735 0.0136503 -4.06576e-19 
0.000436542 0.0131315 -2.71051e-19 0.000352481 0.0132944 -8.40257e-19 0.000603792 0.0127917 -5.69206e-19 
0.00052341 0.0129451 -4.47233e-19 0.000679359 0.0126072 1.07065e-18 0.000601961 0.0174443 7.04731e-19 
0.000669302 0.017645 2.84603e-19 0.000439912 0.0170922 8.40257e-19 0.000520757 0.0172935 2.71051e-20 
0.000265996 0.0167317 -1.09775e-18 0.000354214 0.0169307 -5.42101e-19 9.37016e-05 0.0163674 1.3417e-18 
0.000179935 0.0165621 -1.21973e-19 -5.92945e-05 0.0160025 1.51788e-18 1.38056e-05 0.0161923 1.12486e-18 
-0.000174327 0.0156384 9.21572e-19 -0.000124755 0.015824 7.99599e-19 -0.000235952 0.015275 1.12486e-18 
-0.000216886 0.0154578 8.13152e-19 -0.000235555 0.0149119 8.53809e-19 -0.000248979 0.0150929 9.08019e-19 
-0.000173257 0.0145489 -6.36969e-19 -0.000216168 0.0147282 5.42101e-20 -5.7876e-05 0.0141854 1.15196e-18 
-0.000123558 0.0143625 -1.6263e-19 9.50469e-05 0.0138216 1.6263e-19 1.50843e-05 0.013995 7.04731e-19 
0.00026687 0.0134588 -7.45389e-19 0.000180871 0.0136265 -1.76183e-19 0.000440019 0.0131001 -3.11708e-19 
0.000354459 0.0132596 0 0.000601139 0.0127504 -2.43945e-19 0.000520088 0.012899 -6.77626e-19 
0.00066762 0.01255 1.13841e-18 0.000590583 0.0175052 -5.14996e-19 0.000648489 0.0177234 8.94467e-19 
0.00043629 0.0171404 -1.49078e-19 0.000509363 0.0173579 9.48677e-20 0.00026669 0.016767 -1.00289e-18 
0.000349815 0.0169809 -9.75782e-19 9.4569e-05 0.0163907 8.94467e-19 0.000178836 0.0165982 1.6263e-19 
-6.17243e-05 0.0160158 1.21973e-18 1.20331e-05 0.0162156 8.80914e-19 -0.000181412 0.0156443 -6.36969e-19 
-0.000129957 0.0158368 3.38813e-19 -0.000246338 0.0152759 1.0842e-18 -0.000225844 0.0154627 -3.25261e-19 
-0.000245989 0.0149087 8.13152e-20 -0.000259567 0.0150917 3.79471e-19 -0.000180496 0.0145406 3.38813e-19 
-0.000225234 0.0147208 1.09775e-18 -6.05803e-05 0.0141698 8.94467e-19 -0.000128989 0.0143472 6.50521e-19 
9.55118e-05 0.013796 -1.21973e-19 1.2953e-05 0.0139692 7.86047e-19 0.000267037 0.0134212 -1.89735e-19 
0.000179282 0.0135879 -4.74338e-19 0.000435758 0.0130498 -4.74338e-19 0.000349446 0.0132071 -5.28549e-19 
0.000589015 0.0126873 -9.75782e-19 0.00050796 0.0128322 -5.96311e-19 0.000645945 0.0124693 2.10064e-19 
0.000569902 0.017588 1.04354e-18 0.00061815 0.0178257 3.65918e-19 0.000424565 0.0172076 -7.18284e-19 
0.000489081 0.0174431 6.77626e-19 0.00026112 0.0168184 -1.80249e-18 0.000337851 0.0170488 -2.43945e-18 
9.13436e-05 0.0164268 -3.79471e-19 0.000172049 0.016649 -1.82959e-18 -6.62058e-05 0.0160384 -6.77626e-20 
6.63791e-06 0.0162502 -8.13152e-20 -0.000189045 0.0156558 -6.23416e-19 -0.000136992 0.0158571 3.25261e-19 
-0.000256506 0.0152785 2.71051e-20 -0.00023547 0.0154713 -2.84603e-19 -0.000256215 0.0149034 -2.98156e-19 
-0.000270432 0.0150902 8.13152e-20 -0.000188308 0.0145264 6.91179e-19 -0.000234985 0.0147092 2.71051e-19 
-6.53727e-05 0.0141445 7.58942e-19 -0.000136283 0.0143238 8.94467e-19 9.1838e-05 0.0137571 -2.71051e-20 
7.15812e-06 0.0139317 2.1684e-19 0.000260884 0.0133672 -5.69206e-19 0.000171952 0.0135342 -5.01444e-19 
0.000423315 0.01298 -6.09864e-19 0.000336793 0.0131363 -4.20128e-19 0.000567474 0.012602 -1.01644e-18 
0.000486834 0.0127442 -1.15196e-18 0.000614579 0.0123643 -1.05032e-18 0.000539968 0.0176934 9.62229e-19 
0.000578494 0.0179526 -1.24683e-18 0.00040435 0.0172942 4.33681e-19 0.000459747 0.0175496 2.43945e-19 
0.000248476 0.0168861 -3.14419e-18 0.000317737 0.0171349 -7.45389e-19 8.2905e-05 0.0164761 -5.01444e-19 
0.000158613 0.0167147 -1.39591e-18 -7.40051e-05 0.0160705 3.11708e-19 -3.58966e-06 0.0162963 2.71051e-20 
-0.000198509 0.0156729 -2.43945e-19 -0.000147169 0.0158853 3.52366e-19 -0.000267713 0.0152828 9.35124e-19 
-0.000247079 0.0154836 7.72494e-19 -0.000267488 0.0148958 -6.23416e-19 -0.000282878 0.0150883 7.72494e-19 
-0.000197973 0.014506 1.07065e-18 -0.000246733 0.0146932 2.57498e-19 -7.35175e-05 0.0141091 -2.03288e-19 
-0.000146746 0.014292 4.06576e-19 8.29033e-05 0.0137046 -1.6263e-19 -3.51072e-06 0.013882 -3.93023e-19 
0.000247588 0.0132962 -8.13152e-19 0.000157911 0.0134649 -1.0842e-19 0.000402282 0.0128902 4.06576e-20 
0.000315897 0.0130466 -8.13152e-20 0.000536523 0.0124935 -1.36881e-18 0.000456509 0.0126343 -4.47233e-19 
0.000573668 0.012234 -5.28549e-19 0.000500791 0.0178222 1.58565e-18 0.000529652 0.0181053 3.52366e-19 
0.000375284 0.0174009 -4.74338e-19 0.000421188 0.0176783 4.47233e-19 0.000228001 0.0169708 -2.30393e-19 
0.000288929 0.0172398 6.77626e-20 6.81708e-05 0.0165389 -5.14996e-19 0.000137618 0.016796 7.04731e-19 
-8.63966e-05 0.0161125 -2.71051e-20 -1.98359e-05 0.0163544 -3.38813e-19 -0.000211142 0.015696 1.49078e-19 
-0.000161821 0.0159216 -7.31836e-19 -0.0002813 0.0152889 5.55654e-19 -0.000262046 0.0155 2.30393e-19 
-0.000281148 0.0148857 4.87891e-19 -0.000298285 0.0150862 1.6263e-19 -0.000210827 0.0144789 9.75782e-19 
-0.000261853 0.0146725 -2.43945e-19 -8.62893e-05 0.0140631 -4.47233e-19 -0.00016171 0.0142514 6.09864e-19 
6.76193e-05 0.0136378 1.23328e-18 -2.02436e-05 0.0138195 6.36969e-19 0.000226377 0.0132076 -1.01644e-18 
0.000136237 0.0133793 2.71051e-20 0.000372259 0.0127797 -5.42101e-20 0.000286183 0.0129374 -1.0842e-18 
0.000496111 0.0123609 -2.71051e-20 0.000416755 0.0125013 1.04354e-18 0.000523253 0.012077 9.41901e-19 
0.000452336 0.0179756 1.11131e-18 0.000471693 0.0182854 1.30104e-18 0.000337012 0.0175286 -4.20128e-19 
0.000373219 0.0178304 8.80914e-19 0.000198979 0.0170729 8.94467e-19 0.000250918 0.0173645 5.42101e-20 
4.60981e-05 0.0166157 -3.79471e-19 0.000108205 0.0168934 -1.35525e-19 -0.000104647 0.0161648 2.30393e-19 
-4.32585e-05 0.0164249 6.77626e-19 -0.000228318 0.0157253 -1.3417e-18 -0.000182291 0.0159662 -4.74338e-19 
-0.000298674 0.0152968 2.1684e-19 -0.000281793 0.0155204 -8.94467e-19 -0.0002986 0.014873 -2.57498e-19 
-0.000318088 0.0150835 -6.50521e-19 -0.000228246 0.0144448 8.67362e-19 -0.000281766 0.0146469 -9.48677e-20 
-0.000104957 0.014006 -2.57498e-19 -0.000182522 0.0142015 5.14996e-19 4.49329e-05 0.0135563 9.89334e-19 
-4.42053e-05 0.0137438 2.71051e-19 0.000196508 0.0131008 -1.36881e-18 0.00010605 0.0132767 -1.01644e-18 
0.000332843 0.0126473 1.55854e-18 0.000247099 0.0128076 1.5992e-18 0.000446119 0.0122028 7.58942e-19 
0.000367313 0.012344 1.0571e-18 0.000463276 0.0118918 -5.75982e-19 0.000394534 0.0181551 8.67362e-19 
0.000289205 0.0176783 1.49078e-19 0.000160772 0.0171934 -9.08019e-19 1.57351e-05 0.0167071 2.03288e-19 
-0.000129969 0.0162277 6.36969e-19 -0.00025142 0.0157609 -4.33681e-19 -0.000321291 0.0153066 -4.87891e-19 
-0.000321302 0.0148575 1.09775e-18 -0.000251608 0.0144035 -1.35525e-20 -0.000130737 0.0139374 5.69206e-19 
1.38764e-05 0.0134591 -8.13152e-20 0.000157307 0.0129746 7.58942e-19 0.000283637 0.0124918 6.91179e-19 
0.00038636 0.0120176 -6.43745e-19 0.000635579 0.0118969 -2.18535e-19 0.000756442 0.0116092 2.06676e-19 
0.000879219 0.0113597 -3.00485e-19 0.00100464 0.0111542 -6.56451e-19 0.00113325 0.0109971 -2.87991e-19 
0.00126502 0.0108911 -1.47045e-18 0.00139911 0.0108377 -9.707e-19 0.00153407 0.0108377 -3.38813e-20 
0.00166817 0.0108911 -5.709e-19 0.00179993 0.0109971 -3.47284e-19 0.00192855 0.0111542 2.28699e-20 
0.00205396 0.0113597 7.42848e-19 0.00217674 0.0116092 2.68509e-19 0.0022976 0.0118969 -4.40457e-20 
0.000717101 0.0119882 5.84453e-19 0.000836058 0.0116815 8.47033e-22 0.000951301 0.0114096 8.40892e-19 
0.00106454 0.0111819 -5.98005e-19 0.00117775 0.0110058 1.21973e-19 0.00129226 0.0108861 -8.47033e-19 
0.00140827 0.0108256 -6.94567e-19 0.00152492 0.0108256 3.72694e-20 0.00164093 0.0108861 -1.79571e-19 
0.00175543 0.0110058 8.72444e-20 0.00186864 0.0111819 5.1669e-20 0.00198188 0.0114096 8.85573e-19 
0.00209712 0.0116815 -3.72694e-19 0.00221608 0.0119882 -2.10064e-19 0.000782204 0.0120637 3.42201e-19 
0.000901406 0.0117451 1.20617e-18 0.00101242 0.0114562 7.58094e-19 0.00111698 0.0112098 -1.41455e-19 
0.00121776 0.0110163 7.03884e-19 0.00131722 0.0108835 -1.52974e-18 0.00141674 0.010816 -6.55604e-19 
0.00151645 0.010816 2.59192e-19 0.00161596 0.0108835 -2.71051e-20 0.00171543 0.0110163 -3.47284e-20 
0.0018162 0.0112098 3.17637e-20 0.00192076 0.0114562 -2.37593e-19 0.00203178 0.0117451 -5.20078e-19 
0.00215098 0.0120637 1.49078e-19 0.000831758 0.0121222 -1.03338e-19 0.000952835 0.0117981 9.14796e-19 
0.00106241 0.0114976 6.46286e-19 0.00116148 0.011236 -1.47966e-20 0.00125277 0.0110273 1.25022e-18 
0.00133956 0.0108822 -8.13152e-19 0.0014244 0.010808 -3.91329e-19 0.00150878 0.010808 -2.87991e-20 
0.00159362 0.0108822 5.75982e-20 0.00168041 0.0110273 7.708e-20 0.00177171 0.011236 -4.18739e-19 
0.00187077 0.0114976 -4.58245e-19 0.00198035 0.0117981 -9.48677e-20 0.00210143 0.0121222 -1.81265e-19 
0.000866787 0.0121625 3.38813e-21 0.000990919 0.0118387 1.91429e-19 0.00110134 0.0115316 3.6253e-19 
0.00119776 0.0112587 -7.46236e-19 0.00128241 0.011037 4.48927e-19 0.00135897 0.0108809 -3.43048e-19 
0.00143116 0.0108003 -2.03288e-19 0.00150203 0.0108003 3.27802e-19 0.00157422 0.0108809 1.21126e-19 
0.00165077 0.011037 -1.05032e-19 0.00173542 0.0112587 9.65618e-20 0.00183185 0.0115316 -1.17738e-19 
0.00194226 0.0118387 -1.01644e-20 0.0020664 0.0121625 1.15196e-19 0.000888324 0.0121835 9.58841e-19 
0.00101634 0.0118649 -1.23667e-19 0.00112941 0.011556 2.98156e-19 0.00122568 0.0112756 6.01393e-20 
0.00130637 0.0110436 2.77827e-19 0.00137518 0.0108779 -1.85924e-19 0.00143689 0.0107916 1.33831e-19 
0.00149629 0.0107916 2.2277e-19 0.001558 0.0108779 -3.30343e-20 0.00162681 0.0110436 2.16708e-19 
0.00170751 0.0112756 -5.61583e-19 0.00180377 0.011556 4.7095e-19 0.00191684 0.0118649 5.0822e-19 
0.00204486 0.0121835 2.1684e-19 0.000897384 0.0121842 6.1664e-19 0.00102985 0.0118749 2.03288e-19 
0.00114698 0.0115686 9.99499e-20 0.00124522 0.0112846 8.09763e-19 0.00132445 0.0110451 7.19978e-20 
0.001388 0.0108715 1.10506e-18 0.00144153 0.0107802 -2.38863e-19 0.00149165 0.0107802 -9.38513e-19 
0.00154518 0.0108715 -1.52042e-19 0.00160873 0.0110451 1.16044e-19 0.00168796 0.0112846 1.07573e-19 
0.0017862 0.0115686 3.15096e-19 0.00190333 0.0118749 -2.52416e-19 0.0020358 0.0121842 -6.77626e-21 
0.000894919 0.0121636 -3.76083e-19 0.00103224 0.0118671 7.7927e-19 0.00115452 0.0115672 -1.98206e-19 
0.00125651 0.0112833 1.11893e-18 0.00133656 0.0110393 1.93124e-19 0.00139729 0.0108596 -3.68036e-19 
0.00144501 0.0107642 -6.79426e-19 0.00148818 0.0107642 4.42707e-19 0.0015359 0.0108596 4.58457e-19 
0.00159662 0.0110393 -8.52115e-19 0.00167667 0.0112833 -7.03884e-19 0.00177867 0.0115672 6.09864e-19 
0.00190094 0.0118671 -2.96462e-19 0.00203826 0.0121636 1.86347e-19 0.000881786 0.0121206 4.1674e-19 
0.00102429 0.0118397 -4.72644e-19 0.00115254 0.0115497 -6.94567e-20 0.00125978 0.0112694 -6.55604e-19 
0.00134269 0.0110238 5.29396e-19 0.00140295 0.0108401 1.51195e-19 0.00144728 0.0107415 6.86097e-20 
0.0014859 0.0107415 1.17229e-18 0.00153023 0.0108401 3.3246e-19 0.00159049 0.0110238 -4.20128e-19 
0.0016734 0.0112694 3.52366e-19 0.00178065 0.0115497 5.87841e-19 0.0019089 0.0118397 -2.65968e-19 
0.0020514 0.0121206 8.13152e-20 0.000858716 0.012054 4.60786e-19 0.00100671 0.011791 -1.24344e-18 
0.00114159 0.0115138 -6.26804e-20 0.00125533 0.0112403 -7.11508e-20 0.00134294 0.0109961 -9.69006e-19 
0.00140498 0.0108104 -5.20078e-19 0.00144833 0.0107098 -7.78423e-19 0.00148485 0.0107098 3.38813e-19 
0.00152821 0.0108104 7.74188e-19 0.00159024 0.0109961 -4.43845e-19 0.00167785 0.0112403 -1.01644e-19 
0.00179159 0.0115138 -6.86097e-19 0.00192647 0.011791 1.72795e-19 0.00207447 0.012054 -2.37169e-20 
0.000826303 0.0119626 3.89635e-19 0.000980151 0.0117192 2.91379e-19 0.00112223 0.0114575 1.01644e-19 
0.0012435 0.0111937 -5.59042e-19 0.00133746 0.0109535 -3.91329e-19 0.00140339 0.0107681 4.86197e-19 
0.00144815 0.0106665 -3.11708e-19 0.00148503 0.0106665 7.28448e-20 0.0015298 0.0107681 1.07912e-18 
0.00159572 0.0109535 -4.23516e-19 0.00168968 0.0111937 -8.91079e-19 0.00181095 0.0114575 -1.07065e-18 
0.00195303 0.0117192 -9.58841e-19 0.00210688 0.0119626 -4.43845e-19 0.000784994 0.0118449 -4.06576e-20 
0.000945146 0.0116226 -8.3348e-19 0.00109496 0.0113783 3.52366e-19 0.00122468 0.0111269 -3.15096e-19 
0.00132644 0.0108934 3.94717e-19 0.00139825 0.0107102 -6.86097e-19 0.00144676 0.0106088 4.0827e-19 
0.00148643 0.0106088 -5.37019e-19 0.00153493 0.0107102 8.43645e-19 0.00160674 0.0108934 -8.13152e-20 
0.00170851 0.0111269 2.13452e-19 0.00183822 0.0113783 -9.58841e-19 0.00198804 0.0116226 -1.18923e-18 
0.00214819 0.0118449 -4.64174e-19 0.000735087 0.0116993 2.37169e-19 0.000902116 0.0114993 -2.37169e-19 
0.00106022 0.0112742 2.20229e-19 0.00119922 0.0110374 2.11758e-19 0.00131012 0.0108131 1.52466e-19 
0.00138969 0.0106341 -9.31736e-20 0.00144417 0.0105339 -1.30443e-19 0.00148901 0.0105339 3.21873e-20 
0.0015435 0.0106341 -1.18585e-19 0.00162307 0.0108131 -5.67512e-19 0.00173396 0.0110374 -4.43845e-19 
0.00187296 0.0112742 3.86247e-19 0.00203107 0.0114993 4.98055e-19 0.0021981 0.0116993 1.15196e-19 
0.000676747 0.011524 1.89735e-19 0.000851358 0.011347 2.64274e-19 0.00101838 0.0111428 -5.69206e-19 
0.00116745 0.0109226 1.06726e-19 0.00128871 0.0107095 1.91429e-19 0.0013778 0.0105367 -7.33531e-19 
0.00144043 0.0104388 -4.06576e-20 0.00149275 0.0104388 1.37219e-19 0.00155539 0.0105367 7.30142e-19 
0.00164447 0.0107095 -3.64224e-19 0.00176574 0.0109226 6.23416e-19 0.0019148 0.0111428 2.64274e-19 
0.00208183 0.011347 -5.38713e-19 0.00225644 0.011524 3.45589e-19 0.000589644 0.011847 2.98156e-19 
0.000573818 0.0120507 5.21772e-19 0.000712367 0.0115714 -7.7927e-20 0.000693596 0.0117469 9.82558e-20 
0.000840168 0.0113348 -1.38553e-18 0.000815231 0.0114779 -3.03238e-19 0.00097286 0.0111412 -1.63139e-18 
0.000939342 0.0112503 -9.4783e-19 0.00111007 0.0109938 -1.38913e-18 0.00106664 0.011069 -1.83976e-18 
0.00125101 0.0108946 -3.59142e-18 0.0011974 0.0109376 -2.67662e-18 0.00139444 0.0108447 -3.14419e-18 
0.00133113 0.010858 -4.32326e-18 0.00153874 0.0108447 8.80914e-20 0.00146659 0.0108314 -1.00966e-18 
0.00168217 0.0108946 -1.40946e-18 0.00160205 0.010858 -7.7927e-19 0.00182312 0.0109938 -1.3417e-18 
0.00173579 0.0109376 -1.29427e-18 0.00196032 0.0111412 7.38613e-19 0.00186654 0.011069 -2.13452e-19 
0.00209302 0.0113348 1.94563e-18 0.00199384 0.0112503 1.46876e-18 0.00222082 0.0115714 1.56871e-18 
0.00211795 0.0114779 1.63986e-18 0.00234354 0.011847 2.10064e-19 0.00223959 0.0117469 1.05032e-19 
0.00235936 0.0120507 8.87691e-19 0.000679576 0.0119457 5.28549e-19 0.000654693 0.0121499 7.11508e-19 
0.000799137 0.0116472 3.25261e-19 0.000775566 0.0118299 1.1994e-18 0.000917585 0.0113855 8.10187e-19 
0.000892362 0.0115396 9.60535e-19 0.00103629 0.0111683 -1.87533e-18 0.00100637 0.0112891 4.00223e-19 
0.00115661 0.0110012 -2.81215e-19 0.00111957 0.0110868 -7.65718e-19 0.00127925 0.0108882 -3.36103e-18 
0.0012337 0.0109387 -1.56532e-18 0.00140389 0.0108312 -2.56143e-18 0.00134952 0.0108486 -3.02221e-18 
0.0015293 0.0108312 -8.13152e-20 0.00146659 0.0108184 -7.99599e-19 0.00165393 0.0108882 -1.15196e-18 
0.00158366 0.0108486 -4.33681e-19 0.00177657 0.0110012 -2.87991e-19 0.00169948 0.0109387 -2.91379e-19 
0.00189689 0.0111683 2.20229e-20 0.00181361 0.0110868 -1.38913e-19 0.0020156 0.0113855 2.44835e-18 
0.00192681 0.0112891 1.56701e-18 0.00213405 0.0116472 -1.25361e-19 0.00204082 0.0115396 9.84252e-19 
0.00225361 0.0119457 -4.47233e-19 0.00215762 0.0118299 -1.06387e-18 0.00227849 0.0121499 -3.45589e-19 
0.000752545 0.012029 1.1994e-18 0.000718598 0.0122291 4.13352e-19 0.000871387 0.0117153 1.98206e-18 
0.00084178 0.0119007 2.18196e-18 0.000984069 0.011434 2.49875e-18 0.000956636 0.0115955 2.74777e-18 
0.00109243 0.0111963 -1.01475e-18 0.0010641 0.0113266 1.28495e-18 0.00119888 0.011011 1.12486e-18 
0.00116654 0.0111057 6.04782e-19 0.00130537 0.0108845 -3.46267e-18 0.00126668 0.0109421 -1.29088e-18 
0.00141271 0.0108205 -2.07354e-18 0.00136648 0.0108416 -3.44234e-18 0.00152048 0.0108205 5.35325e-19 
0.00146659 0.0108078 -3.52366e-19 0.00162781 0.0108845 -3.96411e-19 0.00156671 0.0108416 -1.35525e-19 
0.00173431 0.011011 6.43745e-20 0.0016665 0.0109421 3.72694e-20 0.00184076 0.0111963 2.02441e-19 
0.00176665 0.0111057 -7.45389e-20 0.00194911 0.011434 1.16213e-18 0.00186909 0.0113266 -5.12031e-19 
0.0020618 0.0117153 -1.50772e-18 0.00197655 0.0115955 -1.35525e-18 0.00218064 0.012029 6.09864e-20 
0.0020914 0.0119007 -5.35325e-19 0.00221458 0.0122291 -7.38613e-19 0.000809533 0.0120959 1.42302e-19 
0.000766685 0.0122878 5.14996e-19 0.000929527 0.0117738 3.40168e-18 0.000892981 0.0119577 1.21295e-18 
0.00103948 0.0114783 1.89227e-18 0.0010082 0.0116436 2.71389e-18 0.00114084 0.0112236 1.25361e-19 
0.00111222 0.0113608 1.02237e-18 0.00123638 0.011022 2.94598e-18 0.00120706 0.0111242 2.04897e-18 
0.00132903 0.0108828 -3.45928e-18 0.0012959 0.0109463 5.18384e-19 0.00142078 0.0108118 -1.70762e-18 
0.00138176 0.0108361 -2.0566e-18 0.0015124 0.0108118 4.50622e-19 0.00146659 0.0107988 -2.74439e-19 
0.00160415 0.0108828 8.13152e-20 0.00155143 0.0108361 -2.60886e-19 0.0016968 0.011022 1.20279e-19 
0.00163728 0.0109463 3.15096e-19 0.00179235 0.0112236 -7.17437e-19 0.00172612 0.0111242 -4.19281e-19 
0.0018937 0.0114783 -9.7917e-19 0.00182096 0.0113608 -1.2409e-18 0.00200366 0.0117738 -9.38513e-19 
0.00192498 0.0116436 -1.20279e-18 0.00212365 0.0120959 -2.03288e-20 0.0020402 0.0119577 -7.11508e-19 
0.0021665 0.0122878 -6.57298e-19 0.000851495 0.0121452 2.03288e-20 0.000800074 0.0123255 2.23617e-19 
0.000974024 0.0118206 1.49755e-18 0.000929993 0.0119993 6.09864e-20 0.00108378 0.0115161 1.45351e-18 
0.00104737 0.0116818 1.4569e-18 0.00118115 0.0112482 -1.01051e-18 0.0011506 0.0113897 -4.45539e-19 
0.00126868 0.0110325 2.39033e-18 0.00124076 0.0111405 2.94767e-19 0.0013499 0.0108816 -1.60259e-18 
0.00132099 0.0109501 3.21873e-20 0.00142799 0.0108041 -8.30092e-19 0.00139514 0.0108309 -9.82558e-19 
0.00150519 0.0108041 2.1684e-19 0.00146659 0.0107903 2.1684e-19 0.00158328 0.0108816 4.33681e-19 
0.00153804 0.0108309 3.72694e-19 0.0016645 0.0110325 -2.10064e-19 0.00161219 0.0109501 -8.47033e-21 
0.00175204 0.0112482 -4.33257e-19 0.00169242 0.0111405 4.80162e-20 0.00184941 0.0115161 -6.91179e-19 
0.00178258 0.0113897 1.43996e-19 0.00195916 0.0118206 -1.15196e-19 0.00188581 0.0116818 -1.69407e-19 
0.00208169 0.0121452 -3.38813e-20 0.00200319 0.0119993 1.35525e-19 0.00213311 0.0123255 5.14996e-19 
0.000879463 0.0121757 1.42302e-18 0.000819879 0.0123415 2.07354e-18 0.00100551 0.011854 2.71051e-20 
0.000953721 0.012024 1.1994e-18 0.00111709 0.0115454 1.06049e-18 0.0010746 0.0117081 7.31836e-19 
0.00121314 0.0112682 -1.12147e-18 0.00117925 0.011411 7.7927e-19 0.00129544 0.0110409 1.05625e-18 
0.0012674 0.0111525 4.55704e-19 0.0013677 0.0108796 -8.14846e-19 0.00134166 0.0109517 2.83756e-19 
0.00143423 0.010796 -9.82558e-20 0.00140644 0.0108244 -8.13152e-20 0.00149895 0.010796 8.53809e-19 
0.00146659 0.0107808 6.86097e-19 0.00156548 0.0108796 5.0822e-21 0.00152674 0.0108244 2.55804e-19 
0.00163775 0.0110409 2.38863e-19 0.00159153 0.0109517 5.09914e-19 0.00172004 0.0112682 -6.99649e-19 
0.00166579 0.0111525 -7.22519e-19 0.00181609 0.0115454 7.04731e-19 0.00175394 0.011411 1.999e-19 
0.00192767 0.011854 5.28549e-19 0.00185859 0.0117081 1.54499e-18 0.00205372 0.0121757 6.91179e-19 
0.00197946 0.012024 1.02999e-18 0.0021133 0.0123415 1.40946e-18 0.000894468 0.0121865 2.58176e-18 
0.000827147 0.0123355 2.23617e-19 0.00102472 0.0118721 8.80914e-20 0.000965097 0.0120304 1.75505e-18 
0.00113972 0.011564 7.01343e-19 0.00109045 0.0117205 1.55854e-19 0.00123676 0.0112813 1.24853e-18 
0.00119834 0.0114226 1.94479e-18 0.0013164 0.0110451 5.49724e-19 0.00128684 0.0111581 1.12147e-18 
0.0013822 0.0108751 1.43572e-18 0.00135768 0.0109491 1.95876e-18 0.00143941 0.0107862 -2.5411e-19 
0.0014155 0.010815 1.19093e-18 0.00149377 0.0107862 -1.19601e-18 0.00146659 0.0107688 -1.14688e-18 
0.00155098 0.0108751 -3.10014e-19 0.00151768 0.010815 -1.29681e-18 0.00161678 0.0110451 4.97208e-19 
0.00157551 0.0109491 -1.02067e-19 0.00169643 0.0112813 -4.57398e-19 0.00164634 0.0111581 -1.37219e-19 
0.00179346 0.011564 1.04354e-18 0.00173485 0.0114226 5.35325e-19 0.00190846 0.0118721 1.96512e-19 
0.00184273 0.0117205 9.48677e-20 0.00203872 0.0121865 2.71051e-19 0.00196809 0.0120304 -5.42101e-20 
0.00210604 0.0123355 -1.69407e-19 0.000897497 0.0121764 2.30393e-19 0.000822827 0.0123066 6.36969e-19 
0.00103242 0.0118733 1.82959e-18 0.000965032 0.0120171 6.23416e-19 0.00115208 0.0115698 -2.64274e-19 
0.00109559 0.0117168 9.75782e-19 0.00125204 0.0112854 3.13063e-18 0.00120815 0.0114221 9.08019e-19 
0.00133142 0.0110432 4.01494e-19 0.0012991 0.011155 2.28699e-18 0.00139322 0.0108662 1.0158e-18 
0.00136891 0.0109403 1.16891e-19 0.00144346 0.0107727 -1.35652e-18 0.00142221 0.0108007 -1.0986e-18 
0.00148972 0.0107727 -1.02322e-18 0.00146659 0.0107523 -1.53578e-19 0.00153996 0.0108662 5.76618e-19 
0.00151097 0.0108007 1.76395e-18 0.00160176 0.0110432 -1.3417e-18 0.00156428 0.0109403 -5.86147e-19 
0.00168114 0.0112854 -1.01983e-18 0.00163409 0.011155 -1.69745e-18 0.0017811 0.0115698 1.4569e-18 
0.00172503 0.0114221 8.47033e-20 0.00190076 0.0118733 -7.38613e-19 0.00183759 0.0117168 4.94667e-19 
0.00203569 0.0121764 2.50722e-19 0.00196815 0.0120171 1.01644e-19 0.00211036 0.0123066 8.26704e-19 
0.000889455 0.0121444 -2.91379e-19 0.000807741 0.0122542 2.35136e-18 0.00102941 0.0118556 3.65918e-19 
0.000954376 0.0119826 -2.91379e-19 0.00115466 0.0115604 -4.74338e-19 0.00109068 0.0116952 -4.81115e-19 
0.00125919 0.0112779 8.1654e-19 0.00120908 0.0114072 -1.3417e-18 0.00134046 0.0110327 1.25022e-18 
0.00130426 0.0111409 -5.45489e-19 0.00140065 0.0108507 -6.01393e-19 0.0013753 0.0109229 5.75982e-19 
0.00144633 0.0107536 -1.04143e-18 0.0014265 0.0107794 1.5416e-19 0.00148686 0.0107536 2.61056e-18 
0.00146659 0.0107292 1.55007e-18 0.00153253 0.0108507 1.0266e-18 0.00150668 0.0107794 2.52246e-18 
0.00159273 0.0110327 -1.92785e-18 0.00155788 0.0109229 1.86347e-19 0.001674 0.0112779 -5.52265e-19 
0.00162892 0.0111409 -5.75982e-20 0.00177852 0.0115604 2.06676e-18 0.00172411 0.0114072 1.24006e-18 
0.00190378 0.0118556 -6.50521e-19 0.00184251 0.0116952 3.998e-19 0.00204373 0.0121444 -2.50722e-19 
0.00197881 0.0119826 -7.38613e-19 0.00212544 0.0122542 3.93023e-19 0.000871139 0.0120895 1.52466e-18 
0.000782569 0.0121774 1.53821e-18 0.00101643 0.0118175 -2.90024e-18 0.00093389 0.0119255 -1.54499e-18 
0.00114801 0.0115337 -9.48677e-20 0.00107638 0.0116537 -1.24683e-18 0.00125845 0.0112565 -1.05371e-18 
0.00120155 0.0113756 -7.45389e-20 0.00134356 0.0110112 -6.13252e-19 0.00130253 0.0111131 -1.69745e-18 
0.00140445 0.0108263 -6.09864e-19 0.00137687 0.0108944 -1.80587e-18 0.00144798 0.0107265 -8.96161e-19 
0.00142833 0.0107485 -1.62122e-18 0.00148521 0.0107265 2.21245e-18 0.00146659 0.0106972 -1.96512e-19 
0.00152873 0.0108263 1.85161e-18 0.00150485 0.0107485 2.37339e-18 0.00158963 0.0110112 -1.31798e-18 
0.00155631 0.0108944 5.59042e-19 0.00167473 0.0112565 2.5411e-19 0.00163065 0.0111131 -7.86047e-19 
0.00178518 0.0115337 -1.96512e-19 0.00173164 0.0113756 -1.47723e-18 0.00191676 0.0118175 -4.5401e-19 
0.0018568 0.0116537 -1.57887e-18 0.00206204 0.0120895 7.45389e-20 0.00199929 0.0119255 8.13152e-19 
0.00215061 0.0121774 -4.47233e-19 0.00084321 0.0120103 1.60597e-18 0.000747836 0.0120751 3.79471e-19 
0.000994164 0.0117572 -1.74828e-18 0.000904214 0.0118443 8.53809e-19 0.00113268 0.0114876 -6.09864e-20 
0.00105331 0.0115903 1.76183e-19 0.00125016 0.0112188 -7.11508e-19 0.00118603 0.0113248 -7.58942e-19 
0.00134084 0.0109762 -2.05998e-18 0.00129415 0.0110691 -1.29427e-18 0.00140461 0.0107904 8.80914e-20 
0.00137371 0.0108523 1.69407e-20 0.00144839 0.0106892 -1.92785e-18 0.00142772 0.0107056 1.69407e-20 
0.00148479 0.0106892 8.02987e-19 0.00146659 0.0106536 6.77626e-21 0.00152857 0.0107904 2.66646e-18 
0.00150547 0.0107056 1.73811e-18 0.00159234 0.0109762 -1.35525e-18 0.00155948 0.0108523 1.18246e-18 
0.00168302 0.0112188 -1.55176e-18 0.00163903 0.0110691 -2.03288e-18 0.00180051 0.0114876 -2.73761e-18 
0.00174716 0.0113248 -2.90024e-18 0.00193902 0.0117572 -1.11808e-18 0.00187987 0.0115903 -3.61175e-18 
0.00208997 0.0120103 -1.10453e-18 0.00202897 0.0118443 -2.24294e-18 0.00218535 0.0120751 -6.77626e-19 
0.000806186 0.0119056 3.86247e-19 0.000703914 0.0119461 5.21772e-19 0.000963211 0.0116729 -4.26905e-19 
0.000865858 0.0117374 -1.55854e-18 0.00110919 0.0114199 1.49078e-19 0.00102202 0.0115029 -3.38813e-19 
0.0012347 0.0111621 -1.19262e-18 0.00116297 0.0112526 2.77827e-19 0.00133249 0.010925 -3.59142e-19 
0.00127941 0.0110064 3.72694e-19 0.00140119 0.0107405 1.38913e-19 0.00136593 0.0107938 -2.5411e-19 
0.00144759 0.0106388 1.18585e-19 0.00142469 0.010648 -7.7927e-20 0.0014856 0.0106388 -1.50094e-18 
0.00146659 0.0105959 2.40557e-19 0.00153199 0.0107405 3.57787e-18 0.0015085 0.010648 1.79571e-19 
0.0016007 0.010925 -6.7085e-19 0.00156725 0.0107938 1.3993e-18 0.00169849 0.0111621 -1.16552e-18 
0.00165377 0.0110064 -7.18284e-19 0.00182399 0.0114199 -3.51688e-18 0.00177021 0.0112526 -1.40946e-18 
0.00196997 0.0116729 -3.21195e-18 0.00191116 0.0115029 -3.3678e-18 0.002127 0.0119056 -1.68729e-18 
0.00206733 0.0117374 -2.89346e-18 0.00222927 0.0119461 4.67562e-19 0.000760437 0.0117738 1.01644e-19 
0.000651024 0.0117887 1.40269e-18 0.000924043 0.0115628 -1.93124e-18 0.000819195 0.0116031 1.96512e-19 
0.00107804 0.0113282 9.75782e-19 0.000982958 0.0113896 -3.998e-19 0.00121242 0.011084 -4.47233e-19 
0.00113279 0.0111563 5.69206e-19 0.00131872 0.0108549 6.23416e-19 0.00125861 0.0109221 9.01243e-19 
0.00139428 0.0106736 -1.23667e-18 0.00135371 0.010716 1.35525e-19 0.00144558 0.0105727 3.93023e-19 
0.0014193 0.0105727 -5.01444e-19 0.00148761 0.0105727 -5.96311e-19 0.00146659 0.0105211 5.0822e-20 
0.0015389 0.0106736 1.32137e-18 0.00151388 0.0105727 -3.04932e-19 0.00161447 0.0108549 -1.11131e-18 
0.00157947 0.010716 -7.65718e-19 0.00172076 0.011084 -2.98156e-19 0.00167457 0.0109221 -2.34459e-18 
0.00185514 0.0113282 -5.35325e-19 0.00180039 0.0111563 3.45589e-19 0.00200914 0.0115628 -8.87691e-19 
0.00195022 0.0113896 1.07743e-18 0.00217275 0.0117738 -1.21973e-19 0.00211399 0.0116031 1.30782e-18 
0.00228216 0.0117887 -4.5401e-19 0.000706192 0.0116132 9.01243e-19 0.000589248 0.0116012 7.65718e-19 
0.000877017 0.0114249 -1.01644e-19 0.000764458 0.0114394 4.33681e-19 0.00103962 0.0112104 -6.77626e-19 
0.000936458 0.011248 -9.62229e-19 0.00118368 0.0109818 6.57298e-19 0.00109587 0.0110337 -1.11131e-18 
0.00129976 0.010763 6.1664e-19 0.00123206 0.0108134 8.87691e-19 0.00138399 0.0105869 -1.26039e-18 
0.00133723 0.0106159 -8.19928e-19 0.00144239 0.0104878 -3.42201e-19 0.00141163 0.0104767 -8.87691e-19 
0.00149079 0.0104878 2.37169e-19 0.00146659 0.0104262 2.37169e-19 0.00154919 0.0105869 1.00289e-18 
0.00152155 0.0104767 2.03288e-18 0.00163343 0.010763 -1.47045e-18 0.00159596 0.0106159 -8.13152e-20 
0.0017495 0.0109818 8.80914e-20 0.00170112 0.0108134 -6.77626e-21 0.00189357 0.0112104 8.80914e-19 
0.00183731 0.0110337 1.29427e-18 0.00205617 0.0114249 -1.0842e-19 0.00199673 0.011248 -1.07743e-18 
0.00222699 0.0116132 6.23416e-19 0.00216873 0.0114394 -7.58942e-19 0.00234393 0.0116012 1.02322e-18 
0.000643533 0.0114217 7.38613e-19 0.000822351 0.011257 8.80914e-19 0.000994225 0.0110639 -8.80914e-19 
0.00114879 0.010853 4.5401e-19 0.00127585 0.0106465 -8.3348e-19 0.00137047 0.0104774 2.43945e-19 
0.00143808 0.0103811 -3.86247e-19 0.0014951 0.0103811 2.57498e-19 0.00156272 0.0104774 1.4569e-18 
0.00165734 0.0106465 -4.60786e-19 0.00178439 0.010853 1.37558e-18 0.00193896 0.0110639 3.25261e-19 
0.00211083 0.011257 -4.40457e-19 0.00228965 0.0114217 -2.03288e-20 0.00254742 0.012538 -8.47033e-20 
0.00266735 0.0128835 3.38813e-19 0.00277219 0.0132502 -2.71051e-19 0.00285862 0.0136365 -5.42101e-19 
0.00292451 0.0140398 -1.03677e-18 0.00296884 0.0144566 -8.13152e-20 0.00299123 0.0148821 5.42101e-20 
0.00299165 0.0153109 4.20128e-19 0.00297005 0.015737 4.81115e-19 0.00292643 0.0161549 6.97955e-19 
0.0028611 0.0165597 -6.77626e-20 0.00277506 0.016948 1.40269e-18 0.00267038 0.017317 5.28549e-19 
0.0025504 0.017665 9.65618e-19 0.00248768 0.012636 2.43945e-19 0.002629 0.0129715 -1.76183e-19 
0.00275606 0.0133246 -2.1684e-19 0.00286294 0.0136949 -2.77827e-19 0.00294548 0.0140812 -4.13352e-19 
0.00300139 0.0144811 1.01644e-19 0.0030297 0.0148902 4.06576e-20 0.00303015 0.0153028 6.30193e-19 
0.0030027 0.0157124 -5.42101e-20 0.00294753 0.0161133 6.09864e-20 0.00286552 0.016501 -2.57498e-19 
0.00275892 0.0168731 3.65918e-19 0.00263187 0.0172283 1.76183e-19 0.0024903 0.0175662 2.37169e-19 
0.00243721 0.0127125 1.01644e-19 0.00259368 0.0130418 -2.47334e-19 0.00273851 0.0133857 -1.21973e-19 
0.00286327 0.0137442 -1.89735e-19 0.00296141 0.0141171 -4.60786e-19 0.00302871 0.0145027 -3.45589e-19 
0.003063 0.0148974 -1.0842e-19 0.00306348 0.0152954 5.01444e-19 0.00303008 0.0156906 1.28749e-19 
0.00296352 0.0160771 -2.57498e-19 0.00286586 0.0164513 -4.74338e-20 0.00274126 0.0168115 8.80914e-20 
0.0025963 0.0171574 5.42101e-20 0.00243941 0.0174889 -6.77626e-21 0.0023963 0.0127675 4.50622e-19 
0.00256244 0.0130939 -2.43945e-19 0.0027207 0.0134327 3.38813e-19 0.00286055 0.0137837 1.21973e-19 
0.00297289 0.0141467 3.72694e-19 0.00305111 0.0145209 -3.38813e-19 0.00309131 0.0149034 -4.74338e-20 
0.0030918 0.015289 3.04932e-19 0.00305251 0.0156719 1.89735e-19 0.002975 0.0160469 -8.80914e-20 
0.00286306 0.0164112 2.10064e-19 0.00272326 0.0167637 4.06576e-20 0.00256473 0.0171044 6.87791e-19 
0.00239805 0.017433 1.32137e-19 0.00236508 0.0128011 3.96411e-19 0.00253613 0.0131278 1.72795e-19 
0.00270372 0.0134653 4.81115e-19 0.00285575 0.0138125 -7.2506e-19 0.00298061 0.0141694 7.45389e-19 
0.00306903 0.0145353 3.38813e-20 0.00311493 0.0149081 5.0822e-19 0.00311542 0.0152836 4.74338e-20 
0.00307041 0.0156568 4.20128e-19 0.00298265 0.0160235 3.38813e-20 0.0028581 0.0163815 5.42101e-20 
0.00270602 0.0167303 2.64274e-19 0.00253803 0.0170696 3.48978e-19 0.00236634 0.0173985 4.47233e-19 
0.00234357 0.0128134 -2.94767e-19 0.00251551 0.0131433 7.72494e-19 0.00268867 0.0134829 3.65918e-19 
0.0028499 0.0138302 -2.03288e-19 0.00298539 0.0141845 5.42101e-20 0.00308304 0.0145453 1.6263e-19 
0.00313429 0.0149113 3.52366e-19 0.00313477 0.0152794 -1.6263e-19 0.00308438 0.0156458 2.84603e-19 
0.00298731 0.0160074 -6.77626e-21 0.00285204 0.0163628 -5.0822e-19 0.00269064 0.0167116 1.14519e-18 
0.00251697 0.017053 1.0842e-19 0.0023443 0.017385 -4.06576e-20 0.00233174 0.0128045 -3.72694e-20 
0.00250128 0.0131402 4.03188e-19 0.00267662 0.0134851 3.86247e-19 0.00284414 0.013836 -2.98156e-19 
0.00298819 0.0141914 2.64274e-19 0.00309391 0.0145507 -1.82959e-19 0.00315002 0.0149129 -1.6263e-19 
0.00315047 0.0152766 -6.09864e-19 0.00309517 0.0156392 5.0822e-19 0.00298994 0.0159991 1.6263e-19 
0.002846 0.0163556 -4.20128e-19 0.00267819 0.016708 3.82859e-19 0.00250224 0.0170547 3.72694e-20 
0.00233189 0.0173926 1.35525e-19 0.0023295 0.0127743 -7.65718e-19 0.00249402 0.0131186 -1.38913e-19 
0.00266857 0.0134718 -8.80914e-20 0.00283961 0.0138297 -4.74338e-20 0.00299007 0.0141898 7.45389e-20 
0.00310254 0.0145509 -3.93023e-19 0.00316291 0.0149128 7.45389e-20 0.00316333 0.0152751 1.35525e-20 
0.00310368 0.0156374 6.97955e-19 0.00299161 0.0159991 -6.03087e-19 0.00284114 0.0163602 -2.1684e-19 
0.0026697 0.0167197 1.35525e-19 0.00249443 0.0170748 1.15196e-19 0.00232903 0.0174213 1.35525e-20 
0.00233677 0.0127224 2.94767e-19 0.00249425 0.013078 1.93124e-19 0.0026655 0.0134425 7.65718e-19 
0.00283746 0.0138108 -3.38813e-20 0.00299219 0.014179 -6.43745e-19 0.00310996 0.0145456 2.71051e-20 
0.00317391 0.0149106 2.43945e-19 0.00317428 0.0152752 4.20128e-19 0.00311096 0.0156406 5.82759e-19 
0.00299348 0.0160078 -5.35325e-19 0.00283862 0.0163772 1.69407e-19 0.00266613 0.0167469 -1.96512e-19 
0.00249406 0.0171134 -2.81215e-19 0.0023356 0.0174712 5.99699e-19 0.00235348 0.0126486 -1.38913e-19 
0.00250244 0.0130183 2.37169e-19 0.00266831 0.013397 -1.15196e-19 0.00283888 0.0137788 1.82959e-19 
0.00299575 0.0141587 -2.1684e-19 0.00311732 0.0145345 -2.03288e-20 0.00318409 0.0149064 -5.42101e-20 
0.00318441 0.015277 -8.80914e-20 0.00311816 0.0156492 2.57498e-19 0.00299675 0.0160256 -3.52366e-19 
0.00283961 0.0164067 -2.03288e-19 0.00266838 0.01679 -2.1684e-19 0.00250157 0.0171707 5.75982e-20 
0.00235151 0.0175428 3.65918e-19 0.0023796 0.0125521 -3.79471e-19 0.00251902 0.0129388 2.27005e-19 
0.00267784 0.0133348 9.04631e-19 0.00284497 0.0137333 -8.80914e-20 0.00300202 0.0141285 2.43945e-19 
0.00312588 0.0145173 -1.21973e-19 0.00319466 0.0149 4.06576e-20 0.00319492 0.0152804 5.21772e-19 
0.00312652 0.0156634 -6.09864e-20 0.00300269 0.0160528 -7.11508e-20 0.00284523 0.0164492 -4.60786e-19 
0.00267729 0.0168493 2.5411e-19 0.00251739 0.0172473 2.81215e-19 0.0023767 0.0176365 -1.76183e-19 
0.00241515 0.012432 1.59242e-19 0.00254438 0.0128391 -6.97955e-19 0.00269489 0.0132553 6.87791e-19 
0.00285687 0.0136739 2.50722e-19 0.00301226 0.014088 -1.69407e-20 0.00313693 0.0144936 -4.37069e-19 
0.00320693 0.0148912 -5.14996e-19 0.00320712 0.0152856 -1.15196e-19 0.00313736 0.0156834 8.47033e-20 
0.00301257 0.0160897 -3.38813e-20 0.0028566 0.016505 6.13252e-19 0.00269366 0.0169252 1.35525e-19 
0.00254186 0.0173435 -4.06576e-19 0.00241113 0.0177531 2.64274e-19 0.0024602 0.0122872 -2.87991e-19 
0.00257892 0.012718 1.86347e-19 0.00272023 0.013158 -3.25261e-19 0.00287563 0.0136 3.0832e-19 
0.00302775 0.0140367 2.13452e-19 0.00315183 0.0144632 2.1684e-19 0.00322226 0.0148798 -1.21973e-19 
0.00322237 0.0152925 -1.76183e-19 0.00315203 0.0157095 -3.93023e-19 0.00302766 0.0161367 1.21973e-19 
0.00287478 0.0165745 -8.67362e-19 0.00271821 0.0170182 1.03338e-18 0.00257537 0.0174603 5.75982e-20 
0.00245482 0.0178937 -6.53909e-19 0.00251492 0.0121161 6.09864e-20 0.00262306 0.0125746 -2.57498e-19 
0.00275457 0.0130418 -1.0842e-19 0.00290229 0.013511 5.2516e-19 0.00304974 0.0139741 -1.72795e-19 
0.00317198 0.0144256 2.64274e-19 0.00324208 0.0148658 2.03288e-20 0.00324211 0.0153013 2.71051e-19 
0.00317192 0.0157418 -2.37169e-19 0.00304921 0.0161941 -1.42302e-19 0.0029008 0.0166584 4.03188e-19 
0.00275164 0.0171292 3.35425e-19 0.00261825 0.0175986 -1.45012e-18 0.00250781 0.0180596 3.11708e-19 
0.00257984 0.0124824 -1.3146e-18 0.00248472 0.0123713 1.24683e-18 0.0026869 0.0128342 5.42101e-19 
0.00261016 0.0127052 4.47233e-19 0.00277928 0.0132093 -8.94467e-19 0.00272253 0.0130615 9.48677e-20 
0.00285489 0.013605 -1.57209e-18 0.00281795 0.0134385 -1.30104e-18 0.00291239 0.0140178 -2.60209e-18 
0.00289379 0.013834 -2.38524e-18 0.00295108 0.0144437 -1.89735e-19 0.00294856 0.0142452 -1.27394e-18 
0.00297066 0.0148779 -4.60786e-19 0.00298167 0.0146677 -1.89735e-19 0.00297105 0.0153151 5.42101e-19 
0.00299299 0.0150965 7.31836e-19 0.00295223 0.0157499 1.40946e-18 0.00298249 0.0155255 1.35525e-18 
0.00291423 0.0161769 2.00577e-18 0.00295014 0.0159489 1.78893e-18 0.0028573 0.0165913 8.13152e-19 
0.00289601 0.0163614 1.02999e-18 0.00278211 0.016989 3.60497e-18 0.00282066 0.0167587 2.03288e-18 
0.00268997 0.0173666 8.94467e-19 0.00272551 0.0171378 2.64274e-18 0.00258297 0.017721 1.91091e-18 
0.0026132 0.0174965 1.96512e-18 0.0024876 0.017833 1.09775e-18 0.00251563 0.0125911 8.13152e-20 
0.00241496 0.0124735 3.79471e-19 0.00264736 0.0129309 3.25261e-19 0.00256047 0.0127996 2.84603e-19 
0.00276417 0.01329 -7.18284e-19 0.00269513 0.0131438 -7.45389e-19 0.00286139 0.0136675 -1.27394e-18 
0.00281233 0.0135057 -8.53809e-19 0.00293594 0.0140617 -2.11419e-18 0.00290703 0.0138844 -1.43657e-18 
0.0029862 0.0144695 0 0.0029761 0.0142784 -6.77626e-19 0.00301161 0.0148864 1.89735e-19 
0.00301804 0.0146842 2.71051e-20 0.00301205 0.0153067 1.6263e-18 0.00303235 0.0150965 7.04731e-19 
0.00298747 0.0157241 6.77626e-19 0.00301893 0.0155091 1.0571e-18 0.00293793 0.0161329 1.13841e-18 
0.0029778 0.0159156 3.79471e-19 0.00286394 0.0165285 -4.33681e-19 0.00290937 0.0163107 -1.89735e-19 
0.00276705 0.0169079 2.57498e-18 0.00281508 0.0166911 6.64074e-19 0.00265032 0.0172693 1.15196e-18 
0.00269804 0.0170549 1.00289e-18 0.00251844 0.0176115 2.07354e-18 0.00256325 0.0174014 5.96311e-19 
0.00241739 0.01773 -1.89735e-19 0.0024606 0.012678 2.98156e-19 0.00235819 0.0125525 -4.33681e-19 
0.00261044 0.0130098 -6.09864e-19 0.00251688 0.0128739 1.0842e-19 0.00274717 0.0133577 -4.33681e-19 
0.00266842 0.0132104 -7.72494e-19 0.00286357 0.0137214 -6.77626e-19 0.00280387 0.0135616 -3.93023e-19 
0.00295427 0.0141004 -1.27394e-18 0.00291569 0.0139276 -1.02999e-18 0.00301605 0.0144926 -3.79471e-19 
0.00299852 0.0143075 -1.0571e-18 0.00304743 0.014894 -1.35525e-19 0.0030493 0.0146987 -6.23416e-19 
0.0030479 0.0152989 1.76183e-18 0.00306666 0.0150964 8.40257e-19 0.0030174 0.0157008 1.0842e-19 
0.00305024 0.0154943 8.67362e-19 0.00295635 0.016094 -4.06576e-19 0.00300029 0.0158862 2.71051e-20 
0.00286616 0.0164743 -5.14996e-19 0.00291807 0.0162672 -3.25261e-19 0.00274999 0.0168398 6.77626e-19 
0.00280659 0.0166347 2.1684e-19 0.00261319 0.0171897 2.98156e-19 0.00267115 0.0169877 2.03288e-19 
0.00246302 0.0175238 3.65918e-19 0.00251933 0.0173263 2.43945e-19 0.00236013 0.0176501 -1.76183e-19 
0.00241501 0.0127434 6.64074e-19 0.00231401 0.0126087 1.0842e-19 0.00257709 0.0130708 -7.18284e-19 
0.00248004 0.0129282 2.98156e-19 0.00272935 0.0134116 2.98156e-19 0.00264343 0.0132608 2.1684e-19 
0.00286222 0.0137658 -6.77626e-20 0.00279355 0.0136056 6.23416e-19 0.00296784 0.0141331 -1.0842e-19 
0.00292043 0.0139627 6.77626e-19 0.00304081 0.0145125 -1.13841e-18 0.00301615 0.0143318 -2.71051e-20 
0.00307815 0.0149006 -2.98156e-19 0.00307556 0.014711 -3.25261e-19 0.00307863 0.015292 1.21973e-18 
0.00309596 0.0150962 7.04731e-19 0.0030422 0.0156805 4.87891e-19 0.00307652 0.0154816 5.69206e-19 
0.00296995 0.0160608 -5.42101e-19 0.00301794 0.0158614 2.43945e-19 0.00286477 0.0164294 1.6263e-19 
0.00292277 0.0162315 2.43945e-19 0.00273202 0.0167852 2.43945e-19 0.00279613 0.01659 5.55654e-19 
0.00257955 0.0171279 9.89334e-19 0.0026459 0.0169366 1.17907e-18 0.00241699 0.0174575 2.1684e-19 
0.0024821 0.0172712 1.3417e-18 0.00231543 0.017593 -3.11708e-19 0.00237906 0.0127874 1.32815e-18 
0.00228197 0.0126422 9.35124e-19 0.00254827 0.0131136 -2.1684e-19 0.00245051 0.0129625 7.86047e-19 
0.00271182 0.0134513 1.12486e-18 0.00262121 0.0132946 9.35124e-19 0.0028583 0.0137998 -7.99599e-19 
0.00278243 0.013637 -4.74338e-19 0.00297729 0.0141592 1.68051e-18 0.00292206 0.013989 1.0842e-19 
0.00306085 0.0145288 -5.96311e-19 0.00302953 0.0143507 8.67362e-19 0.00310401 0.014906 7.31836e-19 
0.00309714 0.0147208 1.11131e-18 0.0031045 0.0152861 5.14996e-19 0.00312048 0.0150958 7.86047e-19 
0.00306224 0.0156637 9.21572e-19 0.0030981 0.0154711 4.87891e-19 0.00297937 0.016034 -2.1684e-19 
0.00303128 0.0158417 5.14996e-19 0.00286074 0.0163946 5.01444e-19 0.00292431 0.0162044 4.33681e-19 
0.00271426 0.0167447 4.33681e-19 0.0027848 0.0165578 5.55654e-19 0.00255037 0.0170842 1.47723e-18 
0.00262335 0.0169018 9.35124e-19 0.00238057 0.0174126 6.91179e-19 0.00245212 0.017236 1.02999e-18 
0.00228286 0.0175586 6.09864e-19 0.00235283 0.0128101 2.57498e-19 0.00226158 0.0126531 4.60786e-19 
0.00252479 0.0131381 1.58565e-18 0.00242873 0.0129767 5.01444e-19 0.0026957 0.0134762 1.26039e-18 
0.00260275 0.0133117 1.78893e-18 0.00285282 0.013823 -1.47723e-18 0.00277162 0.0136552 3.52366e-19 
0.00298339 0.0141781 1.17907e-18 0.00292155 0.014006 -1.21973e-19 0.00307668 0.014541 3.79471e-19 
0.00303935 0.0143638 8.13152e-20 0.00312537 0.01491 1.35525e-18 0.00311455 0.0147276 1.00289e-18 
0.00312586 0.0152813 -2.43945e-19 0.00314067 0.0150954 1.6263e-19 0.00307804 0.0156506 8.67362e-19 
0.00311548 0.0154633 1.35525e-19 0.00298538 0.0160143 1.35525e-19 0.00304103 0.0158277 6.77626e-19 
0.00285507 0.0163705 -8.26704e-19 0.00292364 0.0161864 -6.91179e-19 0.00269783 0.0167188 2.19551e-18 
0.00277372 0.0165385 1.00289e-18 0.00252647 0.0170588 7.45389e-19 0.0026045 0.0168837 1.42302e-18 
0.00235382 0.0173889 8.40257e-19 0.00242985 0.0172206 2.71051e-19 0.00226191 0.0175466 -1.27394e-18 
0.00233629 0.0128115 -5.96311e-19 0.00225236 0.0126415 4.20128e-19 0.00250737 0.0131441 1.82959e-18 
0.00241506 0.012971 4.87891e-19 0.00268205 0.013486 1.12486e-18 0.00258897 0.0133116 1.15196e-18 
0.00284687 0.0138347 -8.94467e-19 0.00276225 0.0136597 2.43945e-19 0.00298702 0.0141891 2.57498e-19 
0.00291996 0.014013 -8.13152e-20 0.00308898 0.0145487 -5.42101e-20 0.00304648 0.0143704 2.98156e-19 
0.00314278 0.0149124 3.25261e-19 0.00312847 0.0147314 -6.50521e-19 0.00314325 0.0152778 -1.27394e-18 
0.00315713 0.0150947 -1.02999e-18 0.00309027 0.0156418 1.24683e-18 0.00312935 0.0154583 1.35525e-19 
0.00298887 0.0160021 8.13152e-20 0.00304804 0.0158198 9.35124e-19 0.00284888 0.0163576 -1.28749e-18 
0.00292182 0.0161781 -6.36969e-19 0.00268382 0.0167078 2.18196e-18 0.00276402 0.0165326 -4.06576e-20 
0.00250857 0.0170516 4.20128e-19 0.00259027 0.0168823 6.91179e-19 0.00233673 0.0173863 4.06576e-20 
0.00241564 0.017225 5.42101e-20 0.00225208 0.0175569 1.12486e-18 0.00232939 0.0127917 -1.02999e-18 
0.00225382 0.0126072 -1.38236e-18 0.00249664 0.0131315 3.38813e-19 0.00240977 0.0129451 -1.26039e-18 
0.00267193 0.0134803 3.52366e-19 0.0025807 0.0132944 -4.06576e-20 0.00284159 0.0138344 -5.14996e-19 
0.00275545 0.0136503 -4.06576e-20 0.00298921 0.0141917 3.93023e-19 0.00291841 0.0140095 1.49078e-19 
0.00309857 0.0145514 -1.00289e-18 0.00305191 0.0143701 -5.14996e-19 0.00315695 0.0149131 -6.77626e-20 
0.00313974 0.0147317 -4.60786e-19 0.00315739 0.0152756 -1.07065e-18 0.00317065 0.0150939 -1.35525e-19 
0.00309977 0.0156376 1.92446e-18 0.00314055 0.0154564 8.80914e-19 0.00299086 0.0159981 -6.36969e-19 
0.0030533 0.0158184 2.57498e-19 0.00284329 0.0163564 -1.04354e-18 0.00292001 0.0161799 -1.3417e-18 
0.00267327 0.016712 8.67362e-19 0.00275683 0.0165404 -2.84603e-19 0.00249732 0.0170627 3.25261e-19 
0.0025815 0.016898 2.30393e-19 0.00232923 0.0174047 3.38813e-19 0.00240976 0.0172493 1.76183e-19 
0.00225289 0.0175896 -1.89735e-18 0.00233204 0.0127504 -6.91179e-19 0.00226556 0.01255 2.43945e-19 
0.00249316 0.0131001 -4.06576e-20 0.00241309 0.012899 7.31836e-19 0.00266631 0.0134588 1.0571e-18 
0.00257872 0.0132596 1.42302e-18 0.00283814 0.0138216 -1.89735e-19 0.00275231 0.0136265 7.04731e-19 
0.00299106 0.0141854 -9.89334e-19 0.0029181 0.013995 -8.67362e-19 0.00310644 0.0145489 -4.20128e-19 
0.00305674 0.0143625 -1.24683e-18 0.00316874 0.0149119 3.65918e-19 0.00314935 0.0147282 2.84603e-19 
0.00316914 0.015275 7.58942e-19 0.00318216 0.0150929 6.64074e-19 0.00310751 0.0156384 1.87025e-18 
0.00315007 0.0154578 1.74828e-18 0.00299248 0.0160025 -1.77538e-18 0.00305794 0.015824 2.30393e-19 
0.00283948 0.0163674 -2.03288e-19 0.00291938 0.0161923 -8.13152e-19 0.00266719 0.0167317 1.6263e-19 
0.00275325 0.0165621 -1.49078e-19 0.00249327 0.0170922 -2.1684e-19 0.00257897 0.0169307 -1.13841e-18 
0.00233122 0.0174443 5.69206e-19 0.00241243 0.0172935 5.55654e-19 0.00226388 0.017645 -1.38236e-18 
0.00234417 0.0126873 2.98156e-19 0.00228724 0.0124693 -5.21772e-19 0.00249743 0.0130498 5.82759e-19 
0.00242522 0.0128322 1.89735e-19 0.00266615 0.0134212 1.01644e-18 0.00258374 0.0132071 5.69206e-19 
0.00283767 0.013796 8.13152e-20 0.0027539 0.0135879 1.49078e-19 0.00299376 0.0141698 -1.23328e-18 
0.00292023 0.0139692 -2.03288e-19 0.00311368 0.0145406 -8.13152e-20 0.00306217 0.0143472 -8.13152e-19 
0.00317917 0.0149087 2.98156e-19 0.00315842 0.0147208 -2.71051e-19 0.00317952 0.0152759 3.65918e-19 
0.00319275 0.0150917 1.0842e-19 0.0031146 0.0156443 1.28749e-18 0.00315903 0.0154627 3.79471e-19 
0.00299491 0.0160158 -1.49078e-18 0.00306314 0.0158368 4.06576e-20 0.00283861 0.0163907 4.06576e-20 
0.00292115 0.0162156 -6.64074e-19 0.00266649 0.016767 -9.08019e-19 0.00275435 0.0165982 -6.09864e-19 
0.00249689 0.0171404 -2.84603e-19 0.00258337 0.0169809 -2.43945e-19 0.0023426 0.0175052 1.68051e-18 
0.00242382 0.0173579 7.58942e-19 0.00228469 0.0177234 -4.33681e-19 0.00236571 0.012602 -9.75782e-19 
0.0023186 0.0123643 -1.82959e-19 0.00250987 0.01298 7.04731e-19 0.00244635 0.0127442 -5.69206e-19 
0.0026723 0.0133672 1.13841e-18 0.00259639 0.0131363 1.77538e-18 0.00284135 0.0137571 3.65918e-19 
0.00276123 0.0135342 7.58942e-19 0.00299856 0.0141445 4.20128e-19 0.00292603 0.0139317 9.48677e-20 
0.00312149 0.0145264 -3.65918e-19 0.00306947 0.0143238 -3.25261e-19 0.0031894 0.0149034 -2.71051e-20 
0.00316817 0.0147092 -3.65918e-19 0.00318969 0.0152785 7.45389e-19 0.00320362 0.0150902 9.08019e-19 
0.00312223 0.0156558 3.52366e-19 0.00316865 0.0154713 4.74338e-19 0.00299939 0.0160384 -5.55654e-19 
0.00307018 0.0158571 -5.42101e-20 0.00284184 0.0164268 -1.19262e-18 0.00292655 0.0162502 -6.91179e-19 
0.00267206 0.0168184 -1.35525e-20 0.00276113 0.016649 -2.43945e-19 0.00250862 0.0172076 5.14996e-19 
0.00259533 0.0170488 2.71051e-19 0.00236328 0.017588 -4.06576e-20 0.0024441 0.0174431 2.03288e-19 
0.00231503 0.0178257 0 0.00239666 0.0124935 -1.89735e-19 0.00235952 0.012234 1.14519e-18 
0.0025309 0.0128902 -8.80914e-19 0.00247667 0.0126343 -7.99599e-19 0.0026856 0.0132962 2.43945e-18 
0.00261729 0.0130466 5.42101e-20 0.00285028 0.0137046 3.52366e-19 0.00277527 0.0134649 1.57209e-18 
0.0030067 0.0141091 2.71051e-19 0.00293669 0.013882 4.74338e-19 0.00313116 0.014506 -6.91179e-19 
0.00307993 0.014292 -5.69206e-19 0.00320067 0.0148958 -8.94467e-19 0.00317992 0.0146932 -1.26039e-18 
0.0032009 0.0152828 7.86047e-19 0.00321606 0.0150883 -6.91179e-19 0.00313169 0.0156729 2.71051e-20 
0.00318026 0.0154836 -2.57498e-19 0.00300719 0.0160705 -2.1684e-19 0.00308035 0.0158853 -1.21973e-19 
0.00285028 0.0164761 4.87891e-19 0.00293677 0.0162963 1.35525e-18 0.00268471 0.0168861 5.55654e-19 
0.00277457 0.0167147 1.02999e-18 0.00252883 0.0172942 0 0.00261545 0.0171349 1.6263e-19 
0.00239322 0.0176934 9.48677e-20 0.00247344 0.0175496 -8.13152e-19 0.00235469 0.0179526 -1.01644e-19 
0.00243707 0.0123609 -6.50521e-19 0.00240993 0.012077 -7.52165e-19 0.00256092 0.0127797 -5.01444e-19 
0.00251643 0.0125013 -6.77626e-19 0.00270681 0.0132076 4.33681e-19 0.002647 0.0129374 -9.48677e-20 
0.00286556 0.0136378 8.40257e-19 0.00279695 0.0133793 -2.30393e-19 0.00301947 0.0140631 4.60786e-19 
0.00295343 0.0138195 6.23416e-19 0.00314401 0.0144789 -1.89735e-19 0.00309489 0.0142514 8.53809e-19 
0.00321433 0.0148857 -1.04354e-18 0.00319504 0.0146725 0 0.00321448 0.0152889 -5.42101e-19 
0.00323147 0.0150862 -3.25261e-19 0.00314432 0.015696 -3.52366e-19 0.00319523 0.0155 -6.50521e-19 
0.00301958 0.0161125 5.42101e-20 0.003095 0.0159216 -5.28549e-19 0.00286501 0.0165389 -4.20128e-19 
0.00295302 0.0163544 -7.72494e-19 0.00270518 0.0169708 1.78893e-18 0.00279557 0.016796 8.40257e-19 
0.0025579 0.0174009 -4.47233e-19 0.00264425 0.0172398 2.05998e-18 0.00243239 0.0178222 -2.98156e-19 
0.002512 0.0176783 -1.28749e-18 0.00240353 0.0181053 -1.50433e-18 0.00248706 0.0122028 -2.98156e-19 
0.00246991 0.0118918 -1.35525e-19 0.00260034 0.0126473 -3.25261e-19 0.00256587 0.012344 -5.28549e-19 
0.00273668 0.0131008 -5.14996e-19 0.00268608 0.0128076 -8.13152e-19 0.00288825 0.0135563 1.23328e-18 
0.00282713 0.0132767 1.00289e-18 0.00303814 0.014006 1.6263e-19 0.00297739 0.0137438 6.23416e-19 
0.00316143 0.0144448 8.94467e-19 0.00311571 0.0142015 4.06576e-20 0.00323178 0.014873 -1.89735e-19 
0.00321495 0.0146469 1.46367e-18 0.00323186 0.0152968 4.20128e-19 0.00325127 0.0150835 7.31836e-19 
0.0031615 0.0157253 -1.00289e-18 0.00321498 0.0155204 3.79471e-19 0.00303783 0.0161648 -5.42101e-20 
0.00311547 0.0159662 -1.23328e-18 0.00288709 0.0166157 -1.02999e-18 0.00297644 0.0164249 -8.26704e-19 
0.0027342 0.0170729 2.43945e-18 0.00282498 0.0168934 1.58565e-18 0.00259617 0.0175286 -2.69695e-18 
0.00268227 0.0173645 -2.12775e-18 0.00248085 0.0179756 -1.09775e-18 0.00255996 0.0178304 -1.54499e-18 
0.00246149 0.0182854 9.48677e-20 0.00254682 0.0120176 6.77626e-21 0.00264955 0.0124918 2.43945e-19 
0.00277588 0.0129746 -5.42101e-20 0.00291931 0.0134591 1.49078e-18 0.00306392 0.0139374 0 
0.00318479 0.0144035 0 0.00325449 0.0148575 6.23416e-19 0.00325447 0.0153066 -1.0842e-18 
0.0031846 0.0157609 -1.04354e-18 0.00306315 0.0162277 -5.28549e-19 0.00291745 0.0167071 7.86047e-19 
0.00277241 0.0171934 -2.98156e-19 0.00264398 0.0176783 -1.51788e-18 0.00253865 0.0181551 1.21973e-19 
0.00230008 0.0183117 2.03288e-19 0.00217891 0.0186024 -8.94467e-19 0.00205579 0.0188546 9.79276e-19 
0.00193001 0.0190625 1.49417e-18 0.001801 0.0192216 1.01644e-18 0.00166882 0.0193289 2.87144e-18 
0.00153429 0.019383 2.03966e-18 0.00139889 0.019383 7.30142e-19 0.00126436 0.0193289 6.99649e-19 
0.00113218 0.0192216 1.5416e-19 0.00100318 0.0190625 -5.61583e-19 0.00087739 0.0188546 -1.3903e-18 
0.000754272 0.0186024 -1.77877e-20 0.000633101 0.0183117 -1.91429e-19 0.00221791 0.0182195 -9.46983e-19 
0.0020986 0.0185294 -3.1679e-19 0.00198303 0.0188042 -1.48697e-18 0.0018695 0.0190344 2.03838e-18 
0.00175604 0.0192127 1.04185e-19 0.00164129 0.0193338 1.67882e-18 0.00152504 0.0193951 2.0854e-18 
0.00140815 0.0193951 2.20229e-19 0.0012919 0.0193338 6.92873e-19 0.00117715 0.0192127 -7.47083e-19 
0.00106368 0.0190344 -2.42675e-19 0.000950149 0.0188042 -1.6695e-18 0.000834582 0.0185294 -9.14796e-20 
0.000715276 0.0182195 5.0822e-21 0.00215221 0.0181432 -1.16552e-18 0.00203264 0.018465 -1.31968e-18 
0.00192132 0.0187569 -4.36645e-19 0.00181653 0.0190062 1.32285e-18 0.00171561 0.0192019 -1.28918e-18 
0.00161605 0.0193364 1.73811e-18 0.00151647 0.0194047 1.71948e-18 0.00141671 0.0194047 -3.0832e-19 
0.00131713 0.0193364 -1.13502e-19 0.00121758 0.0192019 2.02441e-19 0.00111665 0.0190062 -7.33319e-19 
0.00101187 0.0187569 1.23667e-19 0.000900544 0.018465 -1.38913e-19 0.000780974 0.0181432 -7.82658e-19 
0.0021021 0.0180839 -3.82859e-19 0.00198066 0.0184113 -1.01305e-18 0.00187079 0.018715 -4.69256e-19 
0.00177156 0.0189796 -1.06011e-19 0.00168021 0.0191908 -2.56312e-18 0.00159346 0.0193376 6.67462e-19 
0.00150872 0.0194128 1.1147e-18 0.00142447 0.0194128 2.15146e-19 0.00133972 0.0193376 4.06576e-19 
0.00125298 0.0191908 4.04035e-19 0.00116163 0.0189796 -1.2319e-19 0.00106239 0.018715 1.20279e-19 
0.000952526 0.0184113 -4.91279e-19 0.000831086 0.0180839 7.36919e-19 0.00206653 0.0180429 -9.82558e-20 
0.00194206 0.0183701 -6.92873e-19 0.00183139 0.0186806 -2.32934e-19 0.00173485 0.0189566 7.708e-19 
0.00165022 0.0191809 -8.5275e-19 0.00157383 0.0193389 -4.82809e-19 0.00150189 0.0194205 4.77727e-19 
0.0014313 0.0194205 -9.35124e-19 0.00135935 0.0193389 5.59042e-20 0.00128296 0.0191809 2.27217e-19 
0.00119834 0.0189566 -1.77453e-19 0.00110179 0.0186806 -8.47033e-19 0.000991122 0.0183701 7.86047e-19 
0.000866652 0.0180429 0 0.00204446 0.018021 -1.257e-18 0.00191615 0.0183433 -1.59242e-19 
0.00180287 0.0186557 2.01594e-19 0.00170653 0.0189394 -1.82112e-19 0.00162595 0.0191741 -4.96626e-19 
0.0015574 0.0193419 -9.20301e-19 0.00149608 0.0194293 -4.3961e-19 0.0014371 0.0194293 -7.49624e-19 
0.00137578 0.0193419 4.24364e-19 0.00130724 0.0191741 1.05032e-19 0.00122665 0.0189394 6.52215e-19 
0.00113032 0.0186557 -1.53652e-18 0.00101703 0.0183433 -5.42101e-20 0.000888725 0.018021 3.01544e-19 
0.00203484 0.0180194 -1.02322e-18 0.00190214 0.0183325 -7.52165e-19 0.00178486 0.0186426 -1.76183e-19 
0.00168661 0.0189301 -1.25784e-18 0.00160756 0.0191725 -8.7202e-19 0.00154439 0.0193483 -2.21515e-18 
0.00149137 0.0194408 2.37169e-19 0.00144181 0.0194408 1.02025e-18 0.0013888 0.0193483 6.48615e-19 
0.00132562 0.0191725 1.16467e-19 0.00124657 0.0189301 -9.14796e-19 0.00114833 0.0186426 -5.98005e-19 
0.00103104 0.0183325 7.96211e-20 0.000898345 0.0180194 -3.52366e-19 0.00203669 0.0180389 4.60786e-19 
0.00189922 0.0183396 -1.53144e-18 0.00177687 0.0186436 4.43845e-19 0.00167494 0.0189312 -2.05067e-18 
0.00159516 0.0191783 -9.69006e-19 0.00153491 0.0193603 -3.93023e-19 0.00148783 0.0194569 5.96311e-19 
0.00144536 0.0194569 1.18055e-20 0.00139827 0.0193603 -5.93135e-19 0.00133802 0.0191783 1.40099e-18 
0.00125824 0.0189312 5.97158e-19 0.00115631 0.0186436 -9.84252e-19 0.00103396 0.0183396 2.20229e-20 
0.00089649 0.0180389 -7.55553e-19 0.00204914 0.0180806 -9.48677e-19 0.00190659 0.0183662 1.35525e-19 
0.00177836 0.0186606 -3.37119e-19 0.00167127 0.0189449 -2.13452e-19 0.00158872 0.0191939 -1.02999e-18 
0.00152905 0.01938 -4.85773e-19 0.00148549 0.0194799 -7.69529e-19 0.0014477 0.0194799 -1.17738e-18 
0.00140413 0.01938 2.34628e-19 0.00134446 0.0191939 -2.65968e-19 0.00126191 0.0189449 -4.79421e-19 
0.00115483 0.0186606 -4.89585e-19 0.0010266 0.0183662 2.30393e-19 0.000884048 0.0180806 1.11808e-19 
0.00207139 0.0181457 -1.18923e-18 0.00192347 0.018414 1.08759e-18 0.00178873 0.018696 1.81265e-19 
0.00167527 0.0189738 -1.0266e-18 0.00158814 0.0192217 1.92107e-18 0.00152682 0.01941 3.83706e-19 
0.00148436 0.019512 1.87533e-18 0.00144882 0.019512 -5.67512e-19 0.00140636 0.01941 -1.13841e-18 
0.00134505 0.0192217 5.82759e-19 0.00125791 0.0189738 -4.94667e-19 0.00114445 0.018696 5.77676e-19 
0.00100971 0.018414 2.06676e-19 0.000861793 0.0181457 2.71051e-20 0.00210281 0.0182352 -1.33492e-18 
0.00194919 0.0184846 -1.03677e-18 0.00180741 0.0187518 6.45439e-19 0.00168656 0.0190203 1.27055e-19 
0.00159323 0.0192645 1.13502e-19 0.00152817 0.0194528 -7.94517e-19 0.00148446 0.0195559 4.66715e-19 
0.00144872 0.0195559 -3.69306e-19 0.00140501 0.0194528 -2.8257e-18 0.00133995 0.0192645 5.13302e-19 
0.00124662 0.0190203 1.03846e-18 0.00112577 0.0187518 1.59412e-18 0.000983989 0.0184846 1.06726e-18 
0.000830372 0.0182352 3.01544e-19 0.00214288 0.0183507 -1.35525e-20 0.00198315 0.0185799 1.04016e-18 
0.00183383 0.0188303 -1.01644e-19 0.00170473 0.019087 5.42101e-19 0.00160378 0.0193248 2.03288e-20 
0.00153301 0.0195112 1.0283e-18 0.00148576 0.0196143 -8.21622e-19 0.00144742 0.0196143 1.50094e-18 
0.00140017 0.0195112 -2.29377e-18 0.0013294 0.0193248 2.84603e-19 0.00122845 0.019087 1.05032e-19 
0.00109935 0.0188303 1.30612e-18 0.000950033 0.0185799 1.32137e-18 0.000790301 0.0183507 5.48877e-19 
0.00219121 0.0184935 -1.76183e-19 0.00202484 0.0187016 -1.0842e-19 0.00186747 0.0189336 6.77626e-20 
0.00172934 0.0191764 -7.28448e-19 0.0016195 0.0194056 -4.98055e-19 0.00154122 0.0195881 -5.37019e-19 
0.00148823 0.01969 3.04932e-20 0.00144496 0.01969 -5.0822e-20 0.00139196 0.0195881 6.96261e-19 
0.00131368 0.0194056 1.34001e-18 0.00120384 0.0191764 1.52466e-18 0.00106571 0.0189336 -1.11808e-18 
0.000908344 0.0187016 -3.38813e-20 0.000741976 0.0184935 3.11708e-19 0.00224749 0.0186654 -3.25261e-19 
0.00207385 0.0188517 -7.0812e-19 0.00190789 0.0190641 3.93023e-19 0.00176001 0.0192912 -6.09864e-20 
0.00164012 0.0195097 -5.67512e-19 0.00155264 0.0196865 1.484e-18 0.00149181 0.0197863 1.16891e-19 
0.00144137 0.0197863 -1.15027e-18 0.00138054 0.0196865 -1.45859e-18 0.00129306 0.0195097 6.33581e-19 
0.00117317 0.0192912 -1.36881e-18 0.00102529 0.0190641 -1.31798e-18 0.000859334 0.0188517 9.7917e-19 
0.000685697 0.0186654 -5.21772e-19 0.00234636 0.0183621 -4.20128e-19 0.00236199 0.0181564 -3.38813e-20 
0.00222336 0.0186405 -2.38863e-18 0.00224193 0.0184632 -1.21295e-18 0.00209521 0.0188798 3.38157e-18 
0.00211997 0.018735 3.89635e-20 0.0019621 0.0190757 4.34697e-18 0.00199551 0.0189653 2.96207e-18 
0.00182443 0.0192249 4.32326e-18 0.00186783 0.0191487 4.56043e-18 0.00168298 0.0193254 7.57586e-18 
0.00173666 0.0192818 6.07831e-18 0.00153902 0.019376 6.76949e-18 0.0016025 0.0193624 8.3077e-18 
0.00139417 0.019376 1.24006e-18 0.00146659 0.0193894 3.42879e-18 0.0012502 0.0193254 1.49078e-18 
0.00133068 0.0193624 1.82281e-18 0.00110875 0.0192249 5.11608e-19 0.00119652 0.0192818 1.16552e-18 
0.000971082 0.0190757 -2.62072e-18 0.00106535 0.0191487 -1.03338e-18 0.000837977 0.0188798 -4.04734e-18 
0.000937674 0.0189653 -3.52027e-18 0.000709825 0.0186405 -1.03677e-18 0.000813209 0.018735 -2.29207e-18 
0.000586822 0.0183621 -7.31836e-19 0.00069125 0.0184632 -2.33781e-19 0.000571191 0.0181564 -1.38913e-18 
0.00225574 0.0182625 -1.11808e-18 0.0022805 0.0180564 -1.89735e-18 0.00213585 0.0185639 -1.7415e-18 
0.00215928 0.0183794 -2.63597e-18 0.00201707 0.0188285 -7.08967e-19 0.00204215 0.0186727 -2.21245e-18 
0.00189804 0.0190482 5.41423e-18 0.00192783 0.018926 1.08717e-18 0.00177739 0.0192173 1.66357e-18 
0.00181435 0.0191306 3.14757e-18 0.00165443 0.0193318 6.72205e-18 0.00169997 0.0192805 3.64224e-18 
0.00152946 0.0193895 6.31548e-18 0.00158391 0.0193718 6.34258e-18 0.00140372 0.0193895 1.53821e-18 
0.00146659 0.0194024 3.57787e-18 0.00127876 0.0193318 2.20229e-18 0.00134928 0.0193718 1.33492e-18 
0.00115579 0.0192173 -1.09437e-18 0.00123321 0.0192805 -2.33781e-19 0.00103514 0.0190482 -1.113e-18 
0.00111883 0.0191306 -9.85946e-19 0.000916115 0.0188285 -4.50706e-18 0.00100535 0.018926 -3.44446e-18 
0.000797334 0.0185639 -1.38913e-19 0.000891037 0.0186727 -2.71898e-18 0.000677441 0.0182625 -2.43945e-19 
0.000773904 0.0183794 -9.48677e-20 0.000652682 0.0180564 -3.11708e-19 0.00218215 0.0181783 -2.99511e-18 
0.00221602 0.0179763 -1.55176e-18 0.00206295 0.0184951 -2.67662e-18 0.00209245 0.0183078 -3.38136e-18 
0.00194995 0.0187794 -2.80537e-18 0.00197726 0.0186162 -2.65291e-18 0.00184134 0.0190198 4.85858e-18 
0.00186953 0.018888 6.94991e-19 0.00173469 0.0192073 -1.58565e-18 0.0017669 0.0191115 1.49078e-19 
0.00162803 0.0193354 4.92973e-18 0.00166664 0.0192771 3.96411e-19 0.00152055 0.0194003 5.78693e-18 
0.00156676 0.0193788 5.67851e-18 0.00141263 0.0194003 -1.82959e-19 0.00146659 0.019413 1.93801e-18 
0.00130516 0.0193354 9.82558e-19 0.00136642 0.0193788 -8.47033e-20 0.0011985 0.0192073 -8.3348e-19 
0.00126654 0.0192771 -3.48978e-19 0.00109185 0.0190198 -1.62122e-18 0.00116628 0.0191115 -5.709e-19 
0.000983233 0.0187794 -2.39372e-18 0.00106365 0.018888 -4.03611e-19 0.000870235 0.0184951 7.7927e-20 
0.000955926 0.0186162 1.01644e-20 0.000751031 0.0181783 -1.27394e-18 0.000840729 0.0183078 -1.46367e-18 
0.000717167 0.0179763 1.18585e-18 0.00212459 0.0181106 -2.08031e-18 0.00216737 0.0179167 -1.13164e-18 
0.00200423 0.018436 -3.65918e-18 0.00204069 0.0182501 -1.999e-18 0.00189398 0.0187346 -1.03846e-18 
0.00192514 0.0185675 -2.89346e-18 0.00179242 0.0189922 1.55515e-18 0.00182089 0.0188534 -8.26704e-19 
0.00169678 0.0191962 -5.71408e-18 0.00172594 0.0190927 -3.66511e-18 0.00160411 0.0193371 3.52366e-18 
0.0016371 0.0192727 -2.52755e-18 0.00151238 0.019409 4.46895e-18 0.00155131 0.0193843 3.17129e-18 
0.0014208 0.019409 -2.20229e-19 0.00146659 0.019422 1.22989e-18 0.00132908 0.0193371 3.25261e-19 
0.00138187 0.0193843 9.48677e-19 0.0012364 0.0191962 8.72444e-19 0.00129609 0.0192727 7.69106e-19 
0.00114076 0.0189922 -9.78747e-19 0.00120724 0.0190927 6.86097e-20 0.00103921 0.0187346 2.03288e-19 
0.00111229 0.0188534 1.41455e-19 0.000928955 0.018436 -8.26704e-19 0.00100804 0.0185675 -9.41901e-19 
0.000808594 0.0181106 -1.89735e-19 0.000892489 0.0182501 5.35325e-19 0.00076581 0.0179167 2.87314e-18 
0.00208208 0.0180605 -9.62229e-19 0.00213343 0.0178782 -4.33681e-19 0.0019592 0.0183885 -2.22261e-18 
0.00200316 0.0182077 -9.28348e-19 0.00184918 0.0186963 -9.7917e-19 0.00188548 0.0185287 -2.01933e-18 
0.00175166 0.0189672 7.852e-19 0.00178206 0.0188241 1.35864e-18 0.00166412 0.0191855 -5.05509e-18 
0.00169185 0.0190762 -9.12341e-19 0.001583 0.0193382 3.32037e-19 0.00161171 0.0192689 -2.24633e-18 
0.00150509 0.0194167 2.13791e-18 0.00153777 0.0193895 3.38813e-20 0.00142809 0.0194167 -8.40257e-19 
0.00146659 0.0194306 -9.89334e-19 0.00135018 0.0193382 4.87891e-19 0.00139541 0.0193895 -9.35124e-19 
0.00126907 0.0191855 1.24006e-18 0.00132147 0.0192689 7.28448e-19 0.00118152 0.0189672 -5.29819e-19 
0.00124134 0.0190762 -5.02039e-19 0.001084 0.0186963 -1.33492e-18 0.00115113 0.0188241 -1.59581e-18 
0.000973982 0.0183885 3.45589e-19 0.00104771 0.0185287 -7.2506e-19 0.000851099 0.0180605 1.00289e-18 
0.000930026 0.0182077 9.69006e-19 0.00079975 0.0178782 4.67562e-19 0.00205358 0.0180292 -2.32426e-18 
0.00211307 0.0178612 -2.95445e-18 0.00192721 0.0183544 -1.12486e-18 0.00197891 0.0181823 -2.75116e-18 
0.0018154 0.0186665 -4.74338e-20 0.00185778 0.0185018 -6.57298e-19 0.00171926 0.0189469 1.07404e-18 
0.00175298 0.0188023 -3.28649e-19 0.00163703 0.0191769 -1.90879e-18 0.00166485 0.019064 -1.12825e-18 
0.00156498 0.0193402 -2.22431e-18 0.00159078 0.0192672 -2.40811e-18 0.00149877 0.0194248 1.05032e-19 
0.00152633 0.019396 -1.68898e-18 0.00143441 0.0194248 -2.66307e-18 0.00146659 0.0194402 -1.92615e-18 
0.0013682 0.0193402 9.01243e-19 0.00140686 0.019396 -2.10064e-19 0.00129615 0.0191769 2.27852e-19 
0.00134241 0.0192672 5.37866e-19 0.00121393 0.0189469 1.10114e-18 0.00126833 0.019064 1.32391e-18 
0.00111778 0.0186665 -3.95395e-18 0.0011802 0.0188023 -1.88719e-18 0.00100597 0.0183544 1.30104e-18 
0.00107541 0.0185018 -2.43945e-18 0.000879602 0.0180292 5.42101e-19 0.00095427 0.0181823 5.0822e-19 
0.000820117 0.0178612 -1.55176e-18 0.00203803 0.0180176 -3.73372e-18 0.0021052 0.0178662 -6.91179e-19 
0.00190752 0.0183356 -5.6243e-19 0.00196701 0.0181751 -2.9409e-18 0.00179233 0.0186474 -6.77626e-20 
0.00184145 0.0184889 -1.36203e-18 0.00169526 0.0189335 -2.2565e-18 0.00173348 0.0187904 -2.62241e-18 
0.00161576 0.0191725 -2.10742e-18 0.00164506 0.0190582 -3.22211e-18 0.00155029 0.0193447 -4.7815e-18 
0.00157451 0.0192697 -5.14149e-18 0.00149352 0.0194347 -2.64274e-19 0.00151713 0.0194055 -2.85874e-18 
0.00143966 0.0194347 5.98005e-19 0.00146659 0.0194523 8.18234e-19 0.0013829 0.0193447 1.60343e-18 
0.00141605 0.0194055 1.31629e-18 0.00131742 0.0191725 4.13352e-19 0.00135867 0.0192697 1.06811e-18 
0.00123792 0.0189335 -7.89435e-19 0.00128812 0.0190582 -1.74489e-19 0.00114085 0.0186474 -2.80198e-18 
0.0011997 0.0187904 -2.13113e-18 0.00102567 0.0183356 2.64274e-19 0.00109173 0.0184889 -1.09775e-18 
0.000895152 0.0180176 -1.82959e-19 0.000966174 0.0181751 1.0842e-19 0.000827978 0.0178662 -1.78893e-18 
0.00203442 0.0180267 -8.47033e-19 0.00210887 0.0178937 -8.74138e-19 0.0018993 0.0183338 -3.7405e-18 
0.00196651 0.0181876 -1.51111e-18 0.00177953 0.0186412 5.96311e-19 0.00183583 0.018492 -1.63986e-18 
0.00167959 0.0189292 -5.14318e-18 0.00172325 0.0187905 -1.87025e-18 0.00160044 0.0191744 -2.85281e-18 
0.00163247 0.0190611 -5.00427e-18 0.00153907 0.0193537 -3.66554e-18 0.00156303 0.0192786 -2.49366e-18 
0.0014894 0.0194484 1.27351e-18 0.00151029 0.01942 1.73218e-19 0.00144378 0.0194484 2.08031e-18 
0.00146659 0.019469 4.93344e-19 0.00139411 0.0193537 -1.72795e-19 0.0014229 0.01942 -1.55812e-18 
0.00133274 0.0191744 2.80029e-18 0.00137015 0.0192786 1.28241e-18 0.00125359 0.0189292 -2.71051e-19 
0.00130072 0.0190611 1.58903e-18 0.00115365 0.0186412 -2.35814e-18 0.00120993 0.0187905 -5.18384e-19 
0.00103388 0.0183338 7.45389e-20 0.00109736 0.018492 -1.57887e-18 0.000898762 0.0180267 -1.484e-18 
0.000966677 0.0181876 -1.4569e-18 0.00082431 0.0178937 -2.41235e-18 0.00204181 0.0180575 -3.18484e-19 
0.00212322 0.0179446 -4.33003e-18 0.00190176 0.0183507 -1.89058e-18 0.00197652 0.018221 -1.13841e-18 
0.00177648 0.0186502 2.30393e-19 0.0018402 0.0185129 -7.86047e-19 0.00167207 0.0189365 -3.64563e-18 
0.00172188 0.0188051 -1.35525e-20 0.00159111 0.0191849 -3.44573e-18 0.00162695 0.0190752 -1.60936e-18 
0.00153145 0.0193693 -1.4281e-18 0.00155638 0.0192961 -2.20229e-18 0.00148647 0.0194677 2.0837e-19 
0.00150587 0.0194416 -1.27055e-18 0.00144671 0.0194677 -2.08624e-18 0.00146659 0.0194924 -2.33103e-18 
0.00140174 0.0193693 -1.93124e-19 0.00142732 0.0194416 -1.53482e-18 0.00134207 0.0191849 1.57887e-18 
0.0013768 0.0192961 -1.10623e-18 0.00126112 0.0189365 4.50622e-19 0.00130624 0.0190752 -1.16891e-18 
0.0011567 0.0186502 -2.53432e-18 0.0012113 0.0188051 -9.41901e-19 0.00103142 0.0183507 -2.23617e-19 
0.00109299 0.0185129 -7.45389e-19 0.000891368 0.0180575 -6.84403e-19 0.000956663 0.018221 7.11508e-19 
0.000809967 0.0179446 6.09864e-19 0.00205938 0.018111 -3.57787e-18 0.00214751 0.0180195 -2.93412e-18 
0.00191411 0.018388 2.64274e-18 0.00199625 0.0182769 -3.38813e-19 0.00178261 0.0186763 -8.13152e-19 
0.00185387 0.0185538 1.73472e-18 0.00167238 0.0189577 -1.70423e-18 0.0017289 0.0188365 -1.86347e-18 
0.00158769 0.0192064 1.00966e-18 0.00162829 0.0191029 1.13502e-18 0.00152745 0.019394 -2.32087e-19 
0.00155454 0.0193248 2.04643e-18 0.00148476 0.0194951 1.64324e-18 0.00150389 0.0194728 3.07134e-18 
0.00144843 0.0194951 -2.33951e-18 0.00146659 0.0195248 1.27224e-18 0.00140573 0.019394 -1.87872e-18 
0.00142929 0.0194728 -3.13402e-18 0.00134549 0.0192064 3.28649e-19 0.00137865 0.0193248 -1.53821e-18 
0.0012608 0.0189577 -1.40946e-18 0.0013049 0.0191029 1.04354e-18 0.00115058 0.0186763 1.21973e-19 
0.00120428 0.0188365 -9.48677e-20 0.00101908 0.018388 1.14519e-18 0.00107932 0.0185538 2.24294e-18 
0.000873801 0.018111 6.1664e-19 0.000936929 0.0182769 -1.28749e-19 0.00078567 0.0180195 1.02322e-18 
0.00208641 0.0181885 -3.79471e-18 0.00218118 0.0181196 -2.1413e-18 0.00193561 0.0184472 -1.0842e-19 
0.00202501 0.0183566 -4.07931e-18 0.00179732 0.0187219 1.11808e-18 0.00187617 0.0186164 -2.50722e-19 
0.00168018 0.0189953 -1.01644e-18 0.00174381 0.0188869 1.52466e-18 0.00159005 0.0192416 2.95784e-18 
0.00163621 0.019147 -2.50722e-19 0.00152706 0.0194302 -6.94567e-19 0.00155739 0.0193672 -7.42001e-19 
0.00148426 0.0195329 3.71678e-18 0.00150435 0.0195161 6.77626e-21 0.00144892 0.0195329 -1.67713e-18 
0.00146659 0.0195689 3.38813e-20 0.00140612 0.0194302 -5.81065e-18 0.00142883 0.0195161 -4.26566e-18 
0.00134313 0.0192416 1.73134e-18 0.00137579 0.0193672 -3.13741e-18 0.00125301 0.0189953 8.13152e-19 
0.00129698 0.019147 2.31071e-18 0.00113587 0.0187219 3.63208e-18 0.00118937 0.0188869 3.42879e-18 
0.000997573 0.0184472 2.04643e-18 0.00105701 0.0186164 5.27193e-18 0.000846769 0.0181885 1.03677e-18 
0.000908168 0.0183566 2.34459e-18 0.000752002 0.0181196 -7.92823e-19 0.00212233 0.0182911 -1.65341e-18 
0.00222377 0.0182458 -8.13152e-19 0.00196563 0.0185303 -2.71051e-19 0.00206223 0.0184617 1.29427e-18 
0.00182003 0.0187891 1.52466e-18 0.00190651 0.0187027 6.77626e-19 0.00169505 0.0190518 5.42101e-19 
0.00176611 0.0189588 6.23416e-19 0.00159797 0.0192931 8.26704e-19 0.00165038 0.0192099 2.37169e-19 
0.00153022 0.0194806 2.64274e-19 0.00156478 0.0194262 -1.72795e-19 0.00148498 0.0195839 -4.03188e-19 
0.00150719 0.0195744 8.13152e-20 0.0014482 0.0195839 2.26666e-18 0.00146659 0.0196274 5.79371e-19 
0.00140296 0.0194806 -8.18573e-18 0.001426 0.0195744 -1.35186e-18 0.00133521 0.0192931 1.43657e-18 
0.0013684 0.0194262 -3.37797e-18 0.00123813 0.0190518 1.55854e-18 0.00128281 0.0192099 1.80249e-18 
0.00111315 0.0187891 5.19739e-18 0.00116707 0.0189588 3.41524e-18 0.000967556 0.0185303 3.77438e-18 
0.00102667 0.0187027 3.71339e-18 0.000810853 0.0182911 1.50433e-18 0.000870957 0.0184617 3.80148e-18 
0.000709409 0.0182458 -4.47233e-19 0.00216668 0.0184204 -1.43657e-18 0.00227497 0.0183997 -8.53809e-19 
0.00200361 0.0186389 2.53432e-18 0.00210742 0.0185938 -7.31836e-19 0.00185022 0.01888 -7.72494e-19 
0.00194436 0.0188149 -2.71051e-20 0.00171658 0.0191299 8.80914e-20 0.00179532 0.0190546 -1.0571e-18 
0.00161121 0.0193636 2.71051e-20 0.00167045 0.0192944 -2.09387e-18 0.00153681 0.0195481 7.31836e-19 
0.00157652 0.0195047 -1.24683e-18 0.00148688 0.0196508 -1.41624e-18 0.00151233 0.0196506 1.55854e-19 
0.0014463 0.0196508 2.19212e-18 0.00146659 0.0197031 -7.45389e-19 0.00139638 0.0195481 -2.63935e-18 
0.00142085 0.0196506 -9.85946e-19 0.00132197 0.0193636 2.30393e-18 0.00135666 0.0195047 2.62919e-18 
0.00121661 0.0191299 2.52755e-18 0.00126273 0.0192944 5.04832e-18 0.00108296 0.01888 -1.89735e-19 
0.00113787 0.0190546 -4.33681e-19 0.000929574 0.0186389 2.4259e-18 0.000988825 0.0188149 -1.82281e-18 
0.000766505 0.0184204 1.07743e-18 0.000825759 0.0185938 7.31836e-19 0.000658217 0.0183997 -8.13152e-20 
0.00221912 0.0185779 -1.52466e-18 0.00233453 0.0185829 -1.00966e-18 0.0020491 0.0187749 -1.37558e-18 
0.00216025 0.0187548 -1.20617e-18 0.0018874 0.018997 6.03087e-19 0.00198927 0.0189549 1.6263e-19 
0.00174435 0.019232 -1.49078e-18 0.00183098 0.0191768 9.48677e-19 0.00162949 0.019456 -1.95834e-18 
0.00169606 0.0194032 -1.3146e-18 0.00154669 0.0196357 1.63986e-18 0.00159238 0.0196055 1.26716e-18 
0.00148993 0.0197367 3.11708e-19 0.00151969 0.0197477 1.37558e-18 0.00144326 0.0197367 -1.58565e-18 
0.00146659 0.0197992 -1.90413e-18 0.0013865 0.0196357 -1.05032e-18 0.0014135 0.0197477 -5.23128e-18 
0.0013037 0.019456 2.78504e-18 0.0013408 0.0196055 -5.69206e-19 0.00118883 0.019232 5.35325e-19 
0.00123712 0.0194032 -1.00966e-18 0.00104579 0.018997 -3.69984e-18 0.00110221 0.0191768 -4.37069e-18 
0.000884083 0.0187749 1.1994e-18 0.000943914 0.0189549 -7.58942e-19 0.000714068 0.0185779 -1.01644e-19 
0.000772929 0.0187548 1.00289e-18 0.000598653 0.0185829 -1.1994e-18 0.0022794 0.0187655 -1.70084e-18 
0.00210175 0.0189404 -2.03966e-18 0.00193114 0.0191424 5.35325e-19 0.00177797 0.0193607 2.57498e-19 
0.0016525 0.0195731 1.27394e-18 0.00155968 0.0197463 2.03288e-19 0.00149406 0.0198447 -1.21973e-19 
0.00143912 0.0198447 -1.39591e-18 0.00137351 0.0197463 -2.4259e-18 0.00128069 0.0195731 1.33492e-18 
0.00115521 0.0193607 -2.22939e-18 0.00100204 0.0191424 -1.92446e-18 0.000831433 0.0189404 3.40846e-18 
0.000653785 0.0187655 6.09864e-20 0.0011248 0.0293522 -1.13502e-18 0.00120252 0.0294235 1.71778e-18 
0.00124244 0.0294513 -6.33581e-19 0.00127117 0.0294673 1.00289e-18 0.00129343 0.0294776 -7.42001e-19 
0.00131192 0.029485 5.42101e-20 0.00132785 0.0294906 1.43657e-18 0.00134192 0.0294949 -7.86047e-19 
0.00135456 0.0294985 4.23516e-19 0.00136606 0.0295016 -1.28749e-18 0.00137662 0.0295042 -4.64174e-19 
0.00138638 0.0295065 -6.97955e-19 0.00139545 0.0295086 -7.86047e-19 0.00140393 0.0295104 6.97955e-19 
0.00141189 0.029512 -2.27344e-18 0.000813496 0.0288604 -2.30393e-19 0.000926929 0.028975 -1.49078e-19 
0.00100698 0.0290353 9.99499e-19 0.00106639 0.029071 -4.57398e-19 0.00111291 0.0290942 4.03188e-19 
0.00115136 0.0291107 -4.5401e-19 0.00118428 0.0291231 9.96111e-19 0.00121318 0.0291329 -4.57398e-19 
0.00123903 0.0291409 8.3348e-19 0.00126246 0.0291476 -5.92923e-19 0.00128391 0.0291534 -7.99599e-19 
0.00130372 0.0291585 -1.01305e-18 0.00132211 0.029163 5.2516e-19 0.00133928 0.029167 1.70084e-18 
0.0013554 0.0291706 -9.62229e-19 0.000551334 0.0283874 1.0266e-18 0.000677614 0.0285232 8.43645e-19 
0.000781347 0.0286082 7.11508e-20 0.000864539 0.0286627 -4.23516e-19 0.000932661 0.0286997 5.14996e-19 
0.000989994 0.0287264 6.43745e-20 0.00103946 0.0287467 8.13152e-20 0.00108305 0.0287627 9.82558e-19 
0.00112206 0.0287758 3.04932e-19 0.00115744 0.0287868 -5.31937e-19 0.00118984 0.0287963 1.95495e-18 
0.00121974 0.0288046 -9.14796e-20 0.00124752 0.0288119 -3.52366e-19 0.00127347 0.0288184 6.87791e-19 
0.00129783 0.0288242 8.47033e-20 0.000332133 0.0279411 -7.7927e-20 0.000460546 0.0280801 7.82658e-19 
0.000575347 0.0281783 1.46706e-18 0.000674333 0.0282473 -6.97955e-19 0.000759193 0.0282969 4.03188e-19 
0.000832593 0.0283338 -2.57498e-19 0.00089697 0.0283622 -2.23617e-19 0.000954225 0.028385 1.19262e-18 
0.00100578 0.0284037 1.05032e-19 0.0010527 0.0284195 1.93124e-19 0.00109578 0.0284331 -9.52065e-19 
0.0011356 0.028445 -5.01444e-19 0.00117266 0.0284555 2.30393e-19 0.00120732 0.0284648 1.58565e-18 
0.0012399 0.0284732 -7.04731e-19 0.000143306 0.0275122 2.06676e-19 0.000271256 0.0276471 2.77827e-19 
0.000391224 0.027751 2.03288e-20 0.000499813 0.0278295 9.14796e-20 0.00059661 0.027889 7.6233e-19 
0.000682727 0.027935 -6.50521e-19 0.000759721 0.0279713 -8.13152e-20 0.000829094 0.0280008 4.87891e-19 
0.000892118 0.0280253 7.7927e-20 0.000949826 0.0280461 5.75982e-20 0.00100304 0.0280641 7.45389e-20 
0.00105241 0.0280799 -4.40457e-19 0.00109846 0.0280939 -6.50521e-19 0.00114163 0.0281063 8.36869e-19 
0.00118227 0.0281174 -4.26905e-19 -2.15564e-05 0.0270955 -4.74338e-20 0.000105267 0.0272236 -2.98156e-19 
0.000227482 0.0273284 8.50421e-19 0.000341766 0.0274121 -6.1664e-19 0.000446766 0.0274787 4.50622e-19 
0.000542515 0.0275321 1.999e-19 0.000629755 0.0275754 5.18384e-19 0.000709468 0.0276113 3.79471e-19 
0.000782641 0.0276415 -2.23617e-19 0.000850159 0.0276674 -3.79471e-19 0.000912778 0.02769 -1.25361e-19 
0.000971135 0.0277098 -1.18585e-18 0.00102576 0.0277275 7.72494e-19 0.00107712 0.0277432 -1.72795e-19 
0.00112558 0.0277573 -5.2516e-19 -0.000167131 0.0266874 -2.74439e-19 -4.14164e-05 0.0268077 1.2265e-18 
8.17222e-05 0.0269106 -3.79471e-19 0.000199401 0.0269967 2.81215e-19 0.000309976 0.0270679 9.35124e-19 
0.000412873 0.0271269 8.43645e-19 0.000508227 0.0271761 1.21973e-19 0.000596549 0.0272177 -4.06576e-19 
0.000678495 0.0272532 -5.31937e-19 0.000754745 0.0272841 5.28549e-19 0.000825929 0.0273111 7.7927e-20 
0.000892614 0.0273352 -8.30092e-19 0.0009553 0.0273566 -3.21873e-19 0.00101442 0.0273758 1.00966e-18 
0.00107038 0.027393 5.42101e-20 -0.000296716 0.0262852 -8.06375e-19 -0.000171917 0.0263977 -8.57197e-19 
-4.84484e-05 0.0264973 6.77626e-19 7.12962e-05 0.0265836 -1.01644e-18 0.000185689 0.0266575 -1.38913e-19 
0.00029387 0.0267206 1.20617e-18 0.000395585 0.0267745 5.96311e-19 0.000490973 0.026821 1.89735e-19 
0.000580394 0.0268614 -4.67562e-19 0.000664302 0.0268968 -8.26704e-19 0.000743178 0.0269283 1.72795e-19 
0.000817483 0.0269564 -7.0812e-19 0.000887649 0.0269816 7.75882e-19 0.000954074 0.0270044 2.20229e-19 
0.00101713 0.0270248 -3.998e-19 -0.000412858 0.0258871 3.69306e-19 -0.000288743 0.0259922 -1.0842e-19 
-0.000165183 0.0260878 -1.01644e-19 -4.41284e-05 0.0261731 9.82558e-20 7.29366e-05 0.0262482 2.5411e-19 
0.00018506 0.026314 -2.10064e-19 0.000291765 0.0263715 1.30782e-18 0.000392931 0.026422 3.76083e-19 
0.000488674 0.0264667 -2.60886e-19 0.000579247 0.0265064 -7.52165e-19 0.00066497 0.026542 2.87991e-19 
0.000746187 0.026574 -1.37897e-18 0.000823241 0.0266031 -1.0842e-19 0.000896471 0.0266293 5.48877e-19 
0.0009662 0.0266531 -6.1664e-19 -0.000517587 0.0254918 2.43945e-19 -0.000393937 0.0255899 -5.96311e-19 
-0.000270355 0.0256813 8.80914e-19 -0.000148415 0.0257648 -3.32037e-19 -2.9414e-05 0.0258401 -1.89735e-19 
8.57082e-05 0.0259075 1.76183e-19 0.000196368 0.0259677 9.72394e-19 0.000302278 0.0260215 -1.09437e-18 
0.000403372 0.0260698 1.00966e-18 0.000499733 0.0261133 -1.18585e-19 0.000591531 0.0261527 4.74338e-20 
0.000678991 0.0261886 -9.31736e-19 0.000762359 0.0262213 -3.72694e-20 0.000841897 0.0262511 8.06375e-19 
0.000917874 0.0262781 -1.04016e-18 -0.000612581 0.0250983 -1.32137e-19 -0.000489208 0.02519 1.02322e-18 
-0.000365592 0.0252772 3.79471e-19 -0.000242996 0.0253584 3.18484e-19 -0.000122527 0.0254332 5.01444e-19 
-5.05891e-06 0.0255015 2.71051e-20 0.000108792 0.0255635 1.25022e-18 0.000218642 0.0256199 5.42101e-20 
0.000324296 0.0256712 -3.25261e-19 0.000425701 0.025718 -2.40557e-19 0.000522899 0.0257609 6.60686e-19 
0.000615998 0.0258004 -7.2506e-19 0.000705146 0.0258366 -1.69407e-19 0.000790523 0.0258699 7.92823e-19 
0.000872329 0.0259003 -4.91279e-19 -0.000699266 0.0247057 -2.50722e-19 -0.000576012 0.0247917 7.45389e-20 
-0.000452314 0.0248748 9.82558e-20 -0.00032918 0.0249536 1.59242e-19 -0.000207537 0.0250274 -7.92823e-19 
-8.81672e-05 0.0250958 2.91379e-19 2.83234e-05 0.0251591 1.61614e-18 0.000141502 0.0252174 -1.72795e-19 
0.00025109 0.0252712 6.57298e-19 0.000356929 0.025321 1.01644e-19 0.000458955 0.025367 -7.7927e-19 
0.000557169 0.0254098 -1.33831e-18 0.000651624 0.0254494 9.82558e-20 0.000742411 0.0254861 1.35525e-19 
0.000829659 0.0255199 -4.74338e-19 -0.000778878 0.0243134 6.43745e-20 -0.000655615 0.0243944 8.50421e-19 
-0.000531777 0.0244737 9.55453e-19 -0.000408157 0.0245499 -3.6253e-19 -0.000285519 0.0246223 -1.18585e-19 
-0.000164546 0.0246906 9.48677e-20 -4.58088e-05 0.0247545 3.04932e-19 7.02457e-05 0.0248142 -4.57398e-19 
0.000183285 0.0248701 -2.98156e-19 0.000293075 0.0249223 2.91379e-19 0.000399461 0.0249712 -2.43945e-19 
0.000502352 0.025017 7.7927e-20 0.000601709 0.02506 0 0.000697534 0.0251 1.93124e-19 
0.000789878 0.0251372 2.74439e-19 -0.000852506 0.0239212 1.6263e-19 -0.000729134 0.0239976 3.96411e-19 
-0.000605098 0.0240733 -3.82859e-19 -0.000481008 0.024147 9.48677e-20 -0.000357481 0.0242179 -1.86347e-19 
-0.000235102 0.0242856 -1.05032e-19 -0.000114392 0.0243497 2.81215e-19 4.20748e-06 0.0244105 -5.96311e-19 
0.000120335 0.0244679 3.01544e-19 0.000233702 0.0245222 -4.33681e-19 0.000344082 0.0245737 -4.26905e-19 
0.0004513 0.0246224 -1.02322e-18 0.000555228 0.0246684 7.82658e-19 0.000655784 0.0247118 1.01983e-18 
0.00075293 0.0247524 -1.20617e-18 -0.00092112 0.0235285 -2.47334e-19 -0.000797565 0.023601 5.31937e-19 
-0.000673281 0.0236734 -1.76183e-19 -0.000548718 0.0237447 1.55854e-19 -0.000424363 0.0238139 1.76183e-19 
-0.000300706 0.0238807 9.21572e-19 -0.000178212 0.0239448 6.77626e-19 -5.73017e-05 0.0240061 2.71051e-20 
6.16503e-05 0.0240648 8.1654e-19 0.000178316 0.0241208 3.38813e-20 0.000292411 0.0241745 -6.30193e-19 
0.000403687 0.0242258 -4.43845e-19 0.000511934 0.0242749 -9.92723e-19 0.000616979 0.0243215 7.14896e-19 
0.000718698 0.0243656 1.18585e-19 -0.00098559 0.0231353 -2.81215e-19 -0.000861803 0.0232043 -1.21973e-19 
-0.000737231 0.0232737 9.14796e-19 -0.000612186 0.0233426 -9.75782e-19 -0.000487037 0.0234101 -1.01644e-20 
-0.000362185 0.0234758 -8.57197e-19 -0.000238035 0.0235395 1.55854e-18 -0.000114978 0.0236011 -7.35225e-19 
6.60871e-06 0.0236606 -3.59142e-19 0.000126373 0.0237181 -3.28649e-19 0.000243984 0.0237737 9.48677e-20 
0.000359127 0.0238275 -4.87891e-19 0.000471513 0.0238794 -3.35425e-19 0.00058088 0.0239293 1.04354e-18 
0.000687008 0.0239769 -1.10792e-18 -0.0010467 0.0227413 -8.97855e-19 -0.000922651 0.0228073 6.1664e-19 
-0.000797766 0.022874 6.09864e-19 -0.000672231 0.0229405 -1.52466e-19 -0.00054631 0.0230062 -5.52265e-19 
-0.000420319 0.0230707 2.67662e-19 -0.000294601 0.0231337 1.32137e-18 -0.000169515 0.0231952 -1.46367e-18 
-4.54255e-05 0.0232553 1.21973e-19 7.72988e-05 0.0233139 -1.25361e-19 0.000198289 0.0233713 4.81115e-19 
0.000317176 0.0234273 -7.69106e-19 0.000433592 0.023482 5.69206e-19 0.000547185 0.0235351 5.11608e-19 
0.000657631 0.0235863 -4.37069e-19 -0.00110514 0.0223465 -1.76183e-19 -0.000980825 0.0224099 5.59042e-19 
-0.000855618 0.0224741 5.38713e-19 -0.000729594 0.0225384 -4.47233e-19 -0.000602922 0.0226022 5.38713e-19 
-0.000475835 0.0226652 -8.74138e-19 -0.000348618 0.0227273 6.94567e-19 -0.000221589 0.0227885 -1.35864e-18 
-9.5095e-05 0.0228488 -4.33681e-19 3.04925e-05 0.0229083 -2.84603e-19 0.000154777 0.022967 1.18585e-19 
0.00027734 0.0230251 -1.13841e-18 0.000397741 0.0230825 -1.59242e-19 0.000515533 0.0231389 6.91179e-19 
0.000630282 0.0231939 -6.77626e-20 -0.00116152 0.021951 -8.77526e-19 -0.00103696 0.0220121 5.75982e-19 
-0.000911437 0.0220739 5.75982e-19 -0.000784939 0.022136 5.96311e-19 -0.000657542 0.0221978 -2.50722e-19 
-0.000529407 0.0222593 -9.04631e-19 -0.000400755 0.0223202 2.60886e-19 -0.00027186 0.0223807 -6.81014e-19 
-0.000143042 0.0224409 -2.57498e-19 -1.46641e-05 0.0225009 -6.77626e-19 0.000112861 0.0225608 4.77727e-19 
0.000239074 0.0226208 -9.31736e-19 0.000363468 0.0226807 -3.82859e-19 0.000485501 0.0227404 6.50521e-19 
0.000604615 0.0227993 -1.17229e-18 -0.00121638 0.0215549 -5.72594e-19 -0.00109159 0.0216139 7.0812e-19 
-0.000965787 0.0216735 2.71051e-20 -0.000838845 0.0217333 3.32037e-19 -0.00071077 0.0217931 4.30293e-19 
-0.000581646 0.0218527 -1.12147e-18 -0.000451636 0.0219122 5.45489e-19 -0.00032096 0.0219718 1.55854e-19 
-0.000189901 0.0220315 -1.05371e-18 -5.88041e-05 0.0220917 1.55854e-19 7.19188e-05 0.0221525 -3.04932e-19 
0.00020178 0.0222141 2.50722e-19 0.000330215 0.0222764 4.23516e-19 0.000456587 0.0223394 1.28749e-19 
0.000580207 0.0224024 2.03288e-20 -0.00127013 0.0211583 -6.23416e-19 -0.00114518 0.0212154 -1.76183e-19 
-0.00101914 0.0212728 1.18585e-19 -0.000891805 0.0213304 1.79571e-19 -0.000763117 0.0213879 -3.18484e-19 
-0.000633092 0.0214455 -3.69306e-19 -0.000501825 0.0215033 1.23328e-18 -0.000369482 0.0215616 -9.52065e-19 
-0.000236294 0.0216205 8.43645e-19 -0.000102571 0.0216805 -4.77727e-19 3.12926e-05 0.0217418 8.47033e-20 
0.0001648 0.0218047 -7.52165e-19 0.000297342 0.0218693 8.47033e-20 0.000428195 0.0219355 4.43845e-19 
0.000556534 0.0220029 -1.03677e-18 -0.00132311 0.0207613 2.06676e-19 -0.00119807 0.0208166 7.45389e-20 
-0.00107185 0.0208719 7.11508e-19 -0.000944206 0.0209271 4.77727e-19 -0.000815005 0.0209823 -1.21973e-19 
-0.0006842 0.0210377 -2.84603e-19 -0.000551823 0.0210934 -2.37169e-19 -0.000417971 0.02115 -2.87991e-19 
-0.000282816 0.0212077 2.5411e-19 -0.000146611 0.021267 2.50722e-19 -9.70877e-06 0.0213285 9.82558e-20 
0.00012741 0.0213923 -7.38613e-19 0.000264116 0.0214589 3.32037e-19 0.000399615 0.0215283 5.89535e-19 
0.000532947 0.0216001 -3.38813e-19 -0.00137554 0.0203643 6.94567e-19 -0.00125048 0.0204179 -3.42201e-19 
-0.00112418 0.020471 -2.60886e-19 -0.000996327 0.0205237 8.87691e-19 -0.000866745 0.0205763 -1.18585e-19 
-0.000735328 0.0206291 -8.47033e-20 -0.00060204 0.0206826 3.59142e-19 -0.000466907 0.020737 -2.64274e-19 
-0.000330022 0.0207931 1.72795e-19 -0.000191559 0.0208513 -1.59242e-19 -5.18035e-05 0.0209123 -3.45589e-19 
8.88183e-05 0.0209767 -3.86247e-19 0.000229694 0.0210449 -1.69407e-19 0.000369987 0.0211172 7.7927e-19 
0.00050862 0.0211935 -7.89435e-19 -0.0014275 0.0199676 -1.53482e-18 -0.00130252 0.0200193 2.06676e-19 
-0.00117624 0.02007 2.50722e-19 -0.00104832 0.0201201 -2.27005e-19 -0.000918525 0.02017 -3.38813e-19 
-0.000786715 0.02022 3.11708e-19 -0.000652783 0.0202707 -6.77626e-20 -0.000516678 0.0203227 -4.33681e-19 
-0.0003784 0.0203766 3.35425e-19 -0.000238022 0.0204332 1.59242e-19 -9.5722e-05 0.0204932 -5.42101e-20 
4.81697e-05 0.0205575 -2.43945e-19 0.000193109 0.0206267 3.65918e-19 0.000338274 0.0207016 -1.05032e-19 
0.000482506 0.0207822 -8.13152e-19 -0.00147894 0.0195713 2.27005e-19 -0.00135416 0.0196211 6.06476e-19 
-0.00122802 0.0196694 -2.03288e-20 -0.00110018 0.0197167 4.06576e-19 -0.000970391 0.0197635 7.01343e-19 
-0.00083846 0.0198105 1.35525e-20 -0.000704226 0.0198582 -2.23617e-19 -0.000567555 0.0199072 -2.06676e-19 
-0.000428343 0.0199584 -1.66018e-19 -0.000286539 0.0200127 3.35425e-19 -0.000142177 0.020071 -7.11508e-19 
4.56394e-06 0.0201344 -1.96512e-19 0.000153277 0.020204 3.45589e-19 0.000303232 0.0202808 7.01343e-19 
0.000453269 0.0203654 -1.37219e-18 -0.0015297 0.0191759 -1.38913e-19 -0.00140521 0.0192235 9.14796e-19 
-0.00127934 0.0192691 -4.20128e-19 -0.00115177 0.0193134 4.23516e-19 -0.00102223 0.0193571 -3.28649e-19 
-0.0008905 0.0194007 1.12486e-18 -0.000756378 0.019445 3.25261e-19 -0.000619648 0.0194907 -1.86347e-19 
-0.000480098 0.0195387 3.69306e-19 -0.000337533 0.0195901 1.86347e-19 -0.000191809 0.0196459 2.43945e-19 
-4.2899e-05 0.0197075 -1.69407e-19 0.000109015 0.0197765 5.18384e-19 0.000263405 0.0198543 7.11508e-20 
0.000419232 0.0199421 -3.89635e-19 -0.00157943 0.0187816 5.42101e-20 -0.00145535 0.0188268 -3.6253e-19 
-0.00132989 0.0188695 1.11808e-18 -0.00120277 0.0189106 1.11808e-19 -0.00107374 0.0189509 4.98055e-19 
-0.000942587 0.0189909 -5.18384e-19 -0.000809054 0.0190316 7.48777e-19 -0.000672867 0.0190736 -9.18184e-19 
-0.00053371 0.0191179 -4.40457e-20 -0.00039124 0.0191657 5.01444e-19 -0.000245112 0.0192181 -9.82558e-20 
-9.50359e-05 0.019277 -1.28749e-19 5.91162e-05 0.0193441 4.74338e-20 0.000217155 0.0194215 -3.21873e-19 
0.000378346 0.0195113 9.48677e-20 -0.00162768 0.0183887 -4.67562e-19 -0.0015041 0.0184311 -6.09864e-20 
-0.00137918 0.0184707 3.38813e-19 -0.0012527 0.0185085 2.37169e-19 -0.00112447 0.0185451 -5.18384e-19 
-0.000994269 0.0185815 3.45589e-19 -0.000861843 0.0186183 4.47233e-19 -0.000726871 0.0186563 2.37169e-19 
-0.000588956 0.0186965 2.60886e-19 -0.000447618 0.01874 5.48877e-19 -0.000302307 0.0187883 -1.69407e-19 
-0.000152445 0.0188432 -7.11508e-20 2.48498e-06 0.0189069 -1.35525e-20 0.000162778 0.0189823 7.21672e-19 
0.000328231 0.0190722 -5.11608e-19 0.00130811 0.0296118 -3.18484e-18 0.00107371 0.0292873 -2.08709e-18 
0.00133911 0.0296384 3.60497e-18 0.00117101 0.0293984 7.72494e-19 0.0013574 0.0296526 2.71051e-20 
0.00122458 0.0294397 7.86047e-19 0.00137074 0.0296598 1.5992e-18 0.00125784 0.0294603 -4.47233e-19 
0.00138135 0.0296647 -3.98444e-18 0.00128288 0.029473 5.96311e-19 0.00139027 0.0296682 -7.99599e-19 
0.00130305 0.0294816 2.71051e-19 0.00139802 0.0296708 1.66696e-18 0.00132015 0.029488 1.57209e-18 
0.00140491 0.0296729 -7.18284e-19 0.00133508 0.0294929 2.12775e-18 0.00141113 0.0296746 -6.36969e-19 
0.00134839 0.0294968 -6.36969e-19 0.0014168 0.029676 -4.32326e-18 0.00136043 0.0295001 1.0842e-19 
0.00142202 0.0296773 -2.85958e-18 0.00137144 0.029503 -2.33103e-18 0.00142686 0.0296784 -1.3417e-18 
0.00138159 0.0295054 -1.63986e-18 0.00143136 0.0296793 -1.11131e-18 0.00139099 0.0295076 -2.9409e-18 
0.00143556 0.0296802 -1.57209e-18 0.00139976 0.0295095 3.65918e-19 0.00143951 0.029681 -2.29038e-18 
0.00140797 0.0295113 -1.26039e-18 0.00141569 0.0295128 -2.43945e-18 0.000963611 0.0291049 -2.22261e-18 
0.000739678 0.0287622 -1.8838e-18 0.00106193 0.0292008 2.99511e-18 0.000874641 0.0289265 -1.61275e-18 
0.00112488 0.0292454 1.15196e-18 0.00097057 0.0290097 1.58565e-18 0.00116914 0.0292709 -3.11708e-19 
0.00103878 0.0290553 9.48677e-19 0.00120363 0.0292875 -7.99599e-19 0.00109092 0.0290837 -1.27394e-18 
0.00123207 0.0292992 -5.42101e-20 0.00113297 0.0291031 8.67362e-19 0.00125645 0.029308 4.8247e-18 
0.0011684 0.0291173 2.98156e-19 0.00127789 0.0293149 -2.54788e-18 0.00119916 0.0291283 2.4259e-18 
0.0012971 0.0293206 1.89735e-18 0.00122644 0.0291371 -1.36881e-18 0.00131454 0.0293255 -3.38813e-18 
0.00125101 0.0291444 2.08709e-18 0.00133052 0.0293296 -4.14707e-18 0.00127341 0.0291506 -3.25261e-19 
0.00134528 0.0293332 -2.22261e-18 0.00129401 0.029156 -1.8567e-18 0.001359 0.0293365 -1.91091e-18 
0.00131308 0.0291608 -2.6834e-18 0.00137181 0.0293393 3.83537e-18 0.00133084 0.029165 6.17995e-18 
0.00138382 0.0293419 -4.67562e-18 0.00134746 0.0291688 2.61564e-18 0.0013631 0.0291722 -1.50433e-18 
0.00067612 0.0286198 1.07065e-18 0.0004826 0.0282934 4.07931e-18 0.000798367 0.0287488 1.35525e-18 
0.000617113 0.0284635 3.40168e-18 0.000892189 0.0288227 1.35525e-18 0.000732366 0.0285708 9.75782e-19 
0.000964445 0.028868 -8.53809e-19 0.000825179 0.0286382 -1.46367e-18 0.00102232 0.0288982 1.91091e-18 
0.000900214 0.0286828 5.28549e-19 0.00107047 0.0289197 -8.80914e-19 0.000962484 0.0287141 9.48677e-19 
0.0011118 0.028936 1.49078e-18 0.00101558 0.0287372 3.93023e-19 0.00114812 0.0289488 7.86047e-19 
0.0010619 0.0287551 1.99222e-18 0.00118059 0.0289592 2.43945e-18 0.00110306 0.0287695 4.01155e-18 
0.00121002 0.028968 -2.9409e-18 0.00114016 0.0287815 4.06576e-19 0.00123696 0.0289756 1.74828e-18 
0.00117398 0.0287917 3.46945e-18 0.00126182 0.0289823 -2.15485e-18 0.00120508 0.0288006 3.1984e-18 
0.00128491 0.0289881 2.98156e-19 0.00123388 0.0288084 -1.54499e-18 0.00130647 0.0289934 4.93312e-18 
0.00126071 0.0288153 1.66696e-18 0.0013267 0.028998 -1.3417e-18 0.00128584 0.0288214 1.77538e-18 
0.00130948 0.0288269 1.30104e-18 0.000437307 0.0281616 1.58565e-18 0.000265369 0.0278539 -3.00866e-18 
0.000565294 0.0283004 3.07642e-18 0.000397522 0.0280162 7.18284e-19 0.000675604 0.0283932 3.23905e-18 
0.00051987 0.0281336 5.35325e-18 0.000767652 0.0284556 -1.15196e-18 0.000626772 0.0282158 1.09775e-18 
0.000844779 0.0284992 9.21572e-19 0.00071838 0.0282741 -1.6263e-19 0.000910549 0.028531 5.14996e-19 
0.000797175 0.0283166 -1.35525e-19 0.000967731 0.0285554 -4.06576e-20 0.000865788 0.0283489 -1.38236e-18 
0.00101831 0.0285747 3.26616e-18 0.000926396 0.0283742 2.34459e-18 0.00106371 0.0285906 2.57498e-19 
0.000980648 0.0283948 1.54499e-18 0.00110494 0.0286039 -2.11419e-18 0.00102977 0.0284119 9.75782e-19 
0.00114272 0.0286154 7.45389e-19 0.00107468 0.0284265 -7.45389e-19 0.00117762 0.0286255 -1.89735e-19 
0.00111607 0.0284392 -1.78893e-18 0.00121007 0.0286344 -1.35525e-20 0.00115445 0.0284504 -7.72494e-19 
0.00124039 0.0286423 4.45878e-18 0.00119027 0.0284603 4.43168e-18 0.00126887 0.0286493 -7.58942e-19 
0.00122385 0.0284691 7.72494e-19 0.00125549 0.028477 1.3146e-18 0.000234367 0.0277248 4.20128e-19 
7.84666e-05 0.0274325 9.08019e-19 0.0003627 0.0278623 3.33392e-18 0.000207892 0.0275837 1.02999e-18 
0.000480611 0.0279642 2.81893e-18 0.000332517 0.0277027 6.23416e-19 0.00058502 0.0280385 -1.45012e-18 
0.00044701 0.0277931 -1.57209e-18 0.000676388 0.0280934 1.80249e-18 0.000549638 0.0278613 2.01933e-18 
0.000756561 0.028135 -8.13152e-19 0.000640915 0.0279134 -4.74338e-19 0.000827546 0.0281675 -5.01444e-19 
0.000722273 0.0279541 -1.58565e-18 0.000891074 0.0281936 3.25261e-18 0.000795281 0.0279868 3.25261e-19 
0.000948519 0.0282152 -7.72494e-19 0.000861334 0.0280136 1.78893e-18 0.00100094 0.0282335 -1.12486e-18 
0.000921584 0.0280361 1.69407e-18 0.00104917 0.0282493 -1.5992e-18 0.000976952 0.0280554 1.35525e-20 
0.00109382 0.0282631 -1.99222e-18 0.00102817 0.0280723 -5.14996e-19 0.00113542 0.0282753 -1.15196e-18 
0.00107582 0.0280871 -8.80914e-19 0.00117437 0.0282862 4.20128e-18 0.00112038 0.0281003 1.16552e-18 
0.00121101 0.0282959 -1.04354e-18 0.00116224 0.0281121 1.27394e-18 0.00120175 0.0281225 1.58565e-18 
5.82093e-05 0.0273025 1.49078e-19 -8.51137e-05 0.0270229 -6.30193e-19 0.000185612 0.0274343 -5.42101e-20 
4.21209e-05 0.0271625 -1.54499e-18 0.000306947 0.0275391 1.15196e-18 0.000167189 0.0272788 2.71051e-20 
0.000418758 0.0276207 3.52366e-19 0.00028573 0.0273727 -4.06576e-20 0.000520053 0.0276841 1.28749e-18 
0.000395445 0.0274473 -1.70762e-18 0.000611338 0.0277339 -8.26704e-19 0.000495762 0.0275069 3.63208e-18 
0.000693741 0.0277739 9.35124e-19 0.000587143 0.0275548 -2.84603e-19 0.000768507 0.0278066 2.1413e-18 
0.000670493 0.0275942 1.09775e-18 0.000836777 0.027834 3.38813e-19 0.000746818 0.027627 8.13152e-20 
0.00089952 0.0278574 -1.3417e-18 0.00081706 0.0276549 -6.50521e-19 0.000957536 0.0278777 -7.72494e-19 
0.000882041 0.0276791 1.35525e-19 0.00101148 0.0278955 -3.52366e-18 0.000942456 0.0277002 -2.71051e-18 
0.00106188 0.0279113 -9.08019e-19 0.000998887 0.0277189 -8.80914e-19 0.00110918 0.0279253 7.18284e-19 
0.00105182 0.0277356 2.31748e-18 0.00115377 0.0279379 -1.21973e-18 0.00110169 0.0277505 6.77626e-20 
0.00114884 0.0277637 7.31836e-19 -9.65284e-05 0.0268905 -1.26716e-18 -0.000229761 0.0266212 2.13452e-18 
2.97177e-05 0.0270148 1.69407e-18 -0.000104186 0.0267496 -1.89735e-19 0.000152505 0.0271189 7.72494e-19 
2.06732e-05 0.0268613 4.20128e-19 0.000268704 0.0272041 -1.21973e-18 0.000141367 0.0269556 1.35525e-19 
0.000376761 0.0272733 1.84314e-18 0.000255628 0.027034 1.92446e-18 0.000476356 0.0273297 2.76472e-18 
0.000362387 0.0270988 5.12286e-18 0.000567897 0.0273761 4.06576e-19 0.000461468 0.0271526 1.55854e-18 
0.000652121 0.0274149 1.43657e-18 0.00055323 0.0271977 -3.65918e-19 0.00072985 0.0274479 -1.61275e-18 
0.000638278 0.0272361 -2.03288e-18 0.000801869 0.0274763 -3.38813e-19 0.000717294 0.0272692 -2.03288e-19 
0.00086888 0.0275011 -9.48677e-19 0.000790935 0.027298 1.70762e-18 0.000931488 0.027523 -4.33681e-18 
0.000859803 0.0273235 -1.43657e-18 0.000990214 0.0275426 -2.71051e-19 0.00092443 0.0273462 -1.82959e-18 
0.00104551 0.02756 1.74828e-18 0.000985282 0.0273664 1.15196e-18 0.00109776 0.0275756 -5.69206e-19 
0.00104277 0.0273846 8.53809e-19 0.00109728 0.0274008 2.57498e-19 -0.000233749 0.0264856 -2.10742e-18 
-0.000358711 0.0262247 -1.97189e-18 -0.000108524 0.026602 1.74828e-18 -0.00023433 0.0263429 -4.03188e-18 
1.48267e-05 0.0267034 2.98156e-19 -0.000109857 0.0264492 -8.67362e-19 0.000133663 0.0267898 -8.53809e-19 
1.20036e-05 0.0265421 -1.40946e-18 0.000246324 0.0268626 1.01644e-18 0.000129227 0.026622 -1.74828e-18 
0.000352062 0.0269238 4.06576e-18 0.000240582 0.0266903 3.25261e-18 0.000450792 0.0269755 2.27682e-18 
0.000345534 0.0267486 2.87314e-18 0.000542824 0.0270196 -7.31836e-19 0.000444052 0.0267986 2.08709e-18 
0.000628662 0.0270577 -2.07354e-18 0.000536404 0.0268418 -1.02999e-18 0.000708871 0.0270909 -6.64074e-19 
0.000623009 0.0268796 -1.61275e-18 0.000784009 0.0271202 -2.57498e-19 0.000704341 0.026913 -1.78893e-18 
0.000854594 0.0271463 -2.41235e-18 0.000780875 0.0269427 -1.8838e-18 0.000921093 0.0271696 3.79471e-19 
0.000853059 0.0269694 -2.84603e-19 0.000983928 0.0271905 1.45012e-18 0.000921306 0.0269933 3.5101e-18 
0.00104348 0.0272093 -9.48677e-20 0.000986 0.0270148 6.91179e-19 0.0010475 0.0270342 -3.79471e-19 
-0.000356331 0.0260857 3.38813e-20 -0.000474432 0.0258317 3.72694e-19 -0.000231905 0.0261944 -1.97867e-18 
-0.000350869 0.0259407 -6.50521e-19 -0.000108374 0.0262921 5.28549e-19 -0.000226767 0.0260412 1.15874e-18 
1.20959e-05 0.0263781 -2.19551e-18 -0.000104242 0.0261317 -5.01444e-19 0.000127939 0.0264527 2.03288e-19 
1.49707e-05 0.0262119 7.86047e-19 0.000238233 0.0265173 2.72406e-18 0.000129653 0.0262822 1.21973e-18 
0.000342592 0.0265731 3.03577e-18 0.000239103 0.0263437 2.18196e-18 0.000441014 0.0266217 5.42101e-19 
0.000343037 0.0263976 4.16063e-18 0.000533729 0.0266643 -2.07354e-18 0.000441467 0.026445 -1.00289e-18 
0.000621087 0.026702 -1.81604e-18 0.000534589 0.0264871 -1.42302e-18 0.000703488 0.0267355 -2.1684e-19 
0.000622695 0.0265247 -6.23416e-19 0.000781336 0.0267656 -4.45878e-18 0.000706121 0.0265584 -1.45012e-18 
0.000855019 0.0267928 1.04354e-18 0.000785214 0.0265889 -2.08709e-18 0.000924909 0.0268173 8.53809e-19 
0.000860314 0.0266165 6.23416e-19 0.000991353 0.0268393 1.19262e-18 0.000931753 0.0266415 4.74338e-19 
0.000999853 0.026664 -5.55654e-19 -0.000466537 0.0256892 7.38613e-19 -0.000578902 0.0254409 -1.78893e-18 
-0.000342682 0.0257907 -1.80249e-18 -0.000455861 0.0255416 -1.36203e-18 -0.000219109 0.0258842 2.72406e-18 
-0.000332037 0.0256365 1.55176e-18 -9.75726e-05 0.0259687 7.99599e-19 -0.000209094 0.0257241 -1.01644e-19 
2.05334e-05 0.026044 -1.02999e-18 -8.84824e-05 0.0258035 -3.25261e-19 0.000134254 0.0261107 1.00289e-18 
2.8674e-05 0.0258748 1.6263e-18 0.000243048 0.0261697 3.49655e-18 0.000141619 0.0259385 2.95445e-18 
0.0003467 0.0262219 -6.64074e-19 0.000249924 0.0259954 5.42101e-20 0.000445229 0.0262685 7.99599e-19 
0.000353425 0.0260463 -2.1684e-19 0.000538797 0.0263101 -2.6834e-18 0.000452135 0.0260921 1.93801e-18 
0.000627649 0.0263477 1.23328e-18 0.00054619 0.0261335 1.0842e-19 0.000712067 0.0263817 -4.51299e-18 
0.000635789 0.0261711 -5.69206e-19 0.000792348 0.0264125 -3.25261e-19 0.000721171 0.0262053 -2.1413e-18 
0.000868793 0.0264406 2.00577e-18 0.000802591 0.0262365 1.21973e-18 0.000941699 0.026466 -2.88669e-18 
0.000880314 0.0262649 2.84603e-19 0.000954615 0.0262907 -9.35124e-19 -0.000566207 0.0252949 1.46367e-18 
-0.000673762 0.0250513 5.42101e-20 -0.000442719 0.0253897 6.03087e-19 -0.000551009 0.0251446 5.75982e-19 
-0.000319123 0.025479 1.26039e-18 -0.000427351 0.0252343 3.18484e-18 -0.000196835 0.0255614 0 
-0.000304094 0.0253186 4.40457e-19 -7.7054e-05 0.0256365 -4.06576e-20 -0.000182437 0.0253966 2.56143e-18 
3.93086e-05 0.0257044 4.06576e-20 -6.33755e-05 0.0254681 1.96512e-18 0.000151645 0.0257656 3.998e-18 
5.23465e-05 0.0255332 3.00866e-18 0.000259613 0.0258208 -1.53144e-18 0.000164233 0.0255923 1.5992e-18 
0.000363076 0.0258707 9.89334e-19 0.000272 0.0256461 -1.21973e-19 0.000462042 0.0259159 -1.49078e-19 
0.000375529 0.0256951 -3.52366e-19 0.000556619 0.0259571 3.11708e-19 0.00047482 0.0257399 1.6263e-19 
0.000646969 0.0259948 -2.49366e-18 0.000569952 0.0257811 0 0.000733291 0.0260293 -6.77626e-19 
0.000661056 0.0258189 -1.21973e-19 0.000815804 0.0260608 2.77827e-18 0.000748294 0.0258536 1.92446e-18 
0.000894747 0.0260896 -2.00577e-18 0.000831859 0.0258855 9.75782e-19 0.000911965 0.0259145 -4.74338e-19 
-0.000656881 0.0249019 -3.65918e-19 -0.000760408 0.0246621 -2.23617e-18 -0.000533587 0.0249907 2.5682e-18 
-0.000637759 0.024749 -5.89535e-19 -0.000409936 0.0250758 1.17229e-18 -0.000514156 0.0248337 2.23617e-19 
-0.000287061 0.0251559 6.91179e-19 -0.000390617 0.0249148 3.65918e-19 -0.000165977 0.0252302 -1.12486e-18 
-0.000268121 0.0249911 -1.0842e-19 -4.75124e-05 0.0252986 1.02999e-18 -0.000147527 0.0250622 2.57498e-19 
6.77167e-05 0.0253613 4.0251e-18 -2.95322e-05 0.0251281 3.69984e-18 0.000179297 0.0254187 4.47233e-19 
8.53468e-05 0.0251888 4.24194e-18 0.000286987 0.0254713 -3.11708e-19 0.000196757 0.0252448 -1.21973e-19 
0.000390677 0.0255197 -4.20128e-19 0.000304484 0.0252966 1.28749e-18 0.000490354 0.0255642 -5.69206e-19 
0.00040842 0.0253444 6.77626e-20 0.00058607 0.0256054 -3.67273e-18 0.000508536 0.0253888 -3.91668e-18 
0.000677927 0.0256433 -8.13152e-19 0.000604862 0.02543 -2.99511e-18 0.000766059 0.0256783 2.35814e-18 
0.000697469 0.0254681 1.23328e-18 0.000850633 0.0257104 -2.31748e-18 0.000786468 0.0255034 2.43945e-19 
0.000872006 0.0255357 -1.35525e-20 -0.000739885 0.0245095 6.1664e-19 -0.000840052 0.0242729 1.10453e-18 
-0.000616641 0.024593 1.30104e-18 -0.000717368 0.024354 1.484e-18 -0.000492881 0.0246741 1.03677e-18 
-0.000593719 0.0244343 3.19162e-18 -0.0003695 0.0247516 2.77827e-19 -0.000469892 0.0245122 2.23617e-18 
-0.000247342 0.0248248 -2.37847e-18 -0.000346671 0.0245866 -1.14519e-18 -0.000127141 0.0248931 1.27394e-18 
-0.000224787 0.024657 9.01243e-19 -9.48582e-06 0.0249568 2.26327e-18 -0.000104868 0.024723 7.58942e-19 
0.000105179 0.0250159 -7.04731e-19 1.25765e-05 0.0247849 -1.89735e-19 0.000216545 0.0250708 1.50433e-18 
0.000127158 0.0248426 -1.70762e-18 0.000324413 0.0251218 1.89735e-19 0.000238597 0.0248966 1.11131e-18 
0.000428671 0.0251693 -2.4259e-18 0.0003467 0.0249472 -1.49078e-19 0.000529273 0.0252137 -1.61275e-18 
0.000451347 0.0249945 -6.36969e-19 0.000626224 0.025255 -1.89735e-19 0.000552473 0.0250389 1.35525e-19 
0.000719574 0.0252934 3.25261e-19 0.000650061 0.0250803 1.38236e-18 0.000809409 0.0253289 8.13152e-20 
0.000744136 0.025119 1.53144e-18 0.000834772 0.0251547 8.40257e-19 -0.000816377 0.0241173 1.09775e-18 
-0.000913764 0.0238832 -3.11708e-19 -0.000693071 0.024196 1.81604e-18 -0.000790939 0.0239594 4.67562e-19 
-0.000569141 0.0242734 4.33681e-19 -0.000667162 0.0240356 8.94467e-19 -0.000445285 0.0243484 4.20128e-19 
-0.000543021 0.0241105 -1.8838e-18 -0.000322192 0.0244201 -1.07065e-18 -0.000419137 0.0241829 -3.93023e-19 
-0.000200497 0.024488 7.2506e-19 -0.000296115 0.0242522 4.87891e-19 -8.07451e-05 0.0245521 1.17907e-18 
-0.00017451 0.0243181 1.00966e-18 3.6617e-05 0.0246124 -1.36881e-18 -5.48049e-05 0.0243805 -6.23416e-19 
0.000151239 0.0246691 6.50521e-19 6.25998e-05 0.0244396 -2.1684e-19 0.000262858 0.0247224 -6.23416e-19 
0.000177379 0.0244955 -7.86047e-19 0.000371281 0.0247727 -1.24683e-18 0.000289278 0.0245483 -1.50433e-18 
0.000476374 0.0248199 -2.3988e-18 0.000398095 0.0245984 -2.08709e-18 0.000578053 0.0248644 1.63986e-18 
0.000503681 0.0246457 -1.02999e-18 0.000676278 0.0249062 2.1684e-18 0.000605931 0.0246904 2.79182e-18 
0.000771056 0.024945 -1.20617e-18 0.000704783 0.0247324 2.57498e-19 0.000800228 0.0247716 3.52366e-19 
-0.000887383 0.0237249 5.0822e-19 -0.000982499 0.0234927 -5.82759e-19 -0.000763928 0.0237993 4.40457e-19 
-0.00085946 0.0235647 2.50722e-19 -0.000639774 0.0238733 -1.12486e-18 -0.000735488 0.0236373 4.20128e-19 
-0.000515448 0.0239458 3.18484e-19 -0.000611005 0.0237093 6.09864e-19 -0.000391501 0.0240159 4.20128e-19 
-0.000486484 0.0237796 7.38613e-19 -0.000268471 0.0240831 1.95834e-18 -0.000362418 0.0238476 3.3678e-18 
-0.00014685 0.0241473 1.61275e-18 -0.000239287 0.0239131 3.86925e-18 -2.70698e-05 0.0242084 -1.38236e-18 
-0.000117535 0.0239758 1.77538e-18 9.04982e-05 0.0242665 1.51788e-18 2.44037e-06 0.0240358 1.66696e-18 
0.000205544 0.0243217 -1.76183e-19 0.000120288 0.0240931 1.96512e-18 0.000317811 0.0243743 -2.26327e-18 
0.000235701 0.024148 -5.69206e-19 0.000427086 0.0244243 -1.74828e-18 0.000348415 0.0242005 -2.58853e-18 
0.000533201 0.0244719 -5.69206e-19 0.000458201 0.0242507 -2.31748e-18 0.000636027 0.0245169 3.63208e-18 
0.000564866 0.0242985 -4.20128e-19 0.000735485 0.0245592 -1.17907e-18 0.00066826 0.0243439 1.24683e-18 
0.000768287 0.0243865 5.42101e-20 -0.000953822 0.023332 1.76183e-19 -0.00104711 0.0231013 -2.04643e-18 
-0.000830157 0.0234027 8.67362e-19 -0.000923811 0.0231696 -1.83637e-18 -0.000705733 0.0234736 8.74138e-19 
-0.000799598 0.023239 2.12775e-18 -0.000580929 0.0235436 -5.21772e-19 -0.000674746 0.0233083 2.1684e-19 
-0.000456174 0.023612 2.30393e-19 -0.0005496 0.0233765 -2.63597e-18 -0.000331912 0.0236783 1.68051e-18 
-0.000424549 0.0234432 -1.15196e-18 -0.000208576 0.0237422 2.83925e-18 -0.000299998 0.0235079 1.64663e-18 
-8.65757e-05 0.0238037 -1.26716e-18 -0.000176346 0.0235705 1.79571e-18 3.37136e-05 0.0238628 1.01644e-18 
-5.39788e-05 0.0236311 -1.8838e-18 0.00015195 0.0239196 -1.13841e-18 6.67401e-05 0.0236896 -1.8567e-18 
0.000267823 0.0239743 -6.50521e-19 0.000185468 0.0237461 5.82759e-19 0.000381052 0.0240269 -1.47723e-18 
0.000301882 0.0238009 -4.87891e-19 0.000491386 0.0240774 -2.52077e-18 0.000415682 0.0238537 -2.12775e-18 
0.000598609 0.0241256 3.14419e-18 0.000526589 0.0239046 2.20906e-18 0.000702549 0.0241714 -9.75782e-19 
0.000634361 0.0239534 3.25261e-19 0.000738803 0.0239997 -1.23328e-18 -0.00101652 0.0229384 -2.29038e-18 
-0.00110837 0.0227089 -2.43945e-18 -0.000892604 0.0230058 1.26039e-18 -0.000984787 0.0227741 -7.65718e-19 
-0.000767878 0.0230739 2.05321e-18 -0.000860303 0.0228406 3.17807e-18 -0.000642588 0.0231415 -1.15196e-18 
-0.000735064 0.0229073 5.6243e-19 -0.000517051 0.0232081 -2.66307e-18 -0.0006093 0.0229735 -1.35525e-18 
-0.000391624 0.0232733 -4.60786e-19 -0.000483302 0.0230386 5.21772e-19 -0.00026668 0.0233367 4.14707e-18 
-0.000357403 0.0231024 1.92446e-18 -0.000142596 0.0233983 -3.84892e-18 -0.000231956 0.0231647 2.10064e-18 
-1.97442e-05 0.0234581 -3.998e-19 -0.000107322 0.0232254 -2.95445e-18 0.000101515 0.0235162 -5.96311e-19 
1.61303e-05 0.0232848 -1.18585e-18 0.000220828 0.0235727 1.00966e-18 0.000138034 0.0233428 1.30782e-18 
0.000337855 0.0236276 -2.74439e-18 0.000258019 0.0233995 -2.1684e-19 0.000452266 0.0236809 -1.96512e-19 
0.000375715 0.0234548 -2.64274e-19 0.000563753 0.0237324 2.97478e-18 0.000490763 0.0235088 1.75505e-18 
0.000672047 0.0237818 -2.06676e-18 0.00060282 0.023561 3.59142e-19 0.000711586 0.0236111 -1.82959e-18 
-0.00107621 0.022544 -1.66018e-18 -0.00116696 0.0223155 -2.29038e-18 -0.000952031 0.0226086 2.9409e-18 
-0.00104309 0.0223781 1.96512e-19 -0.000826985 0.0226741 2.70373e-18 -0.00091833 0.0224419 1.59242e-18 
-0.000701205 0.0227395 -1.54499e-18 -0.000792699 0.0225063 -2.03288e-19 -0.000574905 0.0228042 -1.55854e-18 
-0.000666326 0.0225703 1.00289e-18 -0.000448361 0.022868 -4.60786e-19 -0.000539413 0.0226338 -2.23617e-19 
-0.000321885 0.0229306 3.1103e-18 -0.000412224 0.0226964 -4.20128e-19 -0.000195818 0.022992 -6.05798e-18 
-0.000285059 0.022758 -5.42101e-19 -7.05156e-05 0.0230522 -9.48677e-20 -0.000158252 0.0228187 -2.52755e-18 
5.36505e-05 0.0231113 -5.28549e-19 -3.21635e-05 0.0228786 -1.95156e-18 0.000176296 0.0231694 8.94467e-19 
9.28237e-05 0.0229377 2.57498e-19 0.000297026 0.0232265 -2.63597e-18 0.000216301 0.0229962 -2.01255e-18 
0.000415437 0.0232825 -1.01644e-19 0.000337839 0.0230539 -2.76472e-18 0.000531129 0.0233372 5.89535e-19 
0.000456991 0.0231108 1.70084e-18 0.000643723 0.0233903 -1.02322e-18 0.000573314 0.0231666 1.484e-18 
0.000686389 0.0232207 -1.26039e-18 -0.00113355 0.0221489 -1.13841e-18 -0.00122349 0.0219211 -2.36492e-18 
-0.00100911 0.0222111 1.7415e-18 -0.00109935 0.0219814 -1.36881e-18 -0.000883744 0.0222741 1.91768e-18 
-0.000974321 0.022043 1.7415e-18 -0.000757481 0.0223372 1.55176e-18 -0.000848307 0.022105 1.94479e-18 
-0.000630442 0.0224 1.28749e-19 -0.000721345 0.0221669 1.42302e-18 -0.000502825 0.0224623 -4.66885e-18 
-0.000593555 0.0222286 -1.65341e-18 -0.000374882 0.0225239 1.82959e-18 -0.00046513 0.0222898 -1.40269e-18 
-0.00024691 0.0225847 -3.06287e-18 -0.000336319 0.0223505 7.45389e-19 -0.000119244 0.022645 -2.58853e-18 
-0.00020742 0.0224108 -1.61953e-18 7.7474e-06 0.0227048 -1.00289e-18 -7.87729e-05 0.0224709 -2.03288e-18 
0.000133658 0.0227642 -4.5401e-19 4.92332e-05 0.0225309 5.42101e-20 0.000258047 0.0228233 -3.70662e-18 
0.000176163 0.0225908 -1.36203e-18 0.000380441 0.0228819 -1.11131e-18 0.000301532 0.0226508 -2.84603e-18 
0.000500345 0.0229399 1.38913e-18 0.000424815 0.0227106 6.03087e-19 0.000617263 0.0229969 -2.20906e-18 
0.000545458 0.02277 -9.96111e-19 0.000662908 0.0228283 -1.15196e-18 -0.00118911 0.021753 -1.89735e-18 
-0.00127846 0.0215258 -6.23416e-19 -0.00106443 0.021813 1.07743e-18 -0.0011541 0.0215843 1.35525e-20 
-0.000938764 0.0218738 1.10453e-18 -0.00102883 0.0216437 1.26039e-18 -0.000812039 0.0219347 1.07065e-18 
-0.00090246 0.0217034 1.29427e-18 -0.000684296 0.0219955 -2.1684e-19 -0.000774946 0.0217632 1.8838e-18 
-0.000555658 0.0220561 -3.49655e-18 -0.00064633 0.0218229 -7.92823e-19 -0.000426316 0.0221163 1.36881e-18 
-0.00051674 0.0218825 -5.48877e-19 -0.000296519 0.0221764 -6.77626e-19 -0.000386365 0.021942 1.45012e-18 
-0.000166568 0.0222364 -3.23905e-18 -0.000255458 0.0220016 -1.36203e-18 -3.6821e-05 0.0222965 -1.29427e-18 
-0.000124333 0.0220615 -1.80926e-18 9.23089e-05 0.022357 -4.47233e-19 6.63342e-06 0.022122 3.93023e-19 
0.000220346 0.0224178 -1.10453e-18 0.000136992 0.0221832 3.25261e-19 0.000346753 0.0224789 -4.40457e-19 
0.000266215 0.0222452 1.20617e-18 0.000470939 0.0225402 1.20617e-18 0.000393702 0.0223079 1.89058e-18 
0.000592284 0.0226012 -1.0842e-18 0.000518785 0.0223709 -6.1664e-19 0.000640765 0.0224338 -1.17229e-18 
-0.00124337 0.0213566 -1.91091e-18 -0.00133229 0.0211299 1.484e-18 -0.0011185 0.0214147 8.94467e-19 
-0.00120778 0.0211868 -2.5682e-18 -0.000992561 0.0214732 1.32815e-18 -0.00108231 0.0212441 1.76183e-19 
-0.000865417 0.0215319 6.77626e-21 -0.000955637 0.0213016 -6.36969e-19 -0.000737025 0.0215906 4.60786e-19 
-0.000827631 0.0213591 3.38813e-19 -0.000607438 0.0216492 -2.83248e-18 -0.000698267 0.0214167 -1.21295e-18 
-0.000476784 0.0217079 1.83637e-18 -0.000567605 0.0214744 2.70373e-18 -0.000345258 0.0217668 -1.03677e-18 
-0.000435775 0.0215324 1.42302e-18 -0.000213118 0.0218262 1.32815e-18 -0.000302976 0.0215909 -2.34459e-18 
-8.06936e-05 0.0218863 -2.10064e-19 -0.000169477 0.0216503 3.998e-19 5.1609e-05 0.0219475 -1.68051e-18 
-3.56275e-05 0.0217109 -8.80914e-20 0.000183295 0.0220097 -6.7085e-19 9.81272e-05 0.021773 -1.80926e-18 
0.000313775 0.0220733 5.6243e-19 0.000231236 0.0218368 -2.41235e-18 0.000442368 0.0221378 5.69206e-19 
0.000363031 0.0219022 7.7927e-19 0.000568316 0.022203 -1.18585e-18 0.000492735 0.0219691 -6.84403e-19 
0.000619485 0.0220368 -2.2565e-18 -0.0012967 0.0209598 -6.57298e-19 -0.00138531 0.0207337 -1.46367e-18 
-0.0011717 0.021016 -3.38813e-20 -0.00126072 0.020789 -4.26905e-19 -0.00104555 0.0210724 1.47723e-18 
-0.00113512 0.0208443 1.47045e-18 -0.000918055 0.0211288 1.97189e-18 -0.00100822 0.0208995 3.1103e-18 
-0.000789097 0.0211852 -1.79571e-18 -0.000879805 0.0209547 -1.0842e-19 -0.000658664 0.0212417 -6.7085e-19 
-0.000749803 0.02101 -7.45389e-20 -0.00052682 0.0212985 1.37558e-18 -0.000618204 0.0210655 -1.65341e-18 
-0.000393699 0.0213559 -1.80926e-18 -0.000485072 0.0211216 5.55654e-19 -0.000259503 0.0214143 1.57209e-18 
-0.000350543 0.0211787 -1.15874e-18 -0.000124516 0.021474 4.60786e-19 -0.000214825 0.0212371 6.64074e-19 
1.08835e-05 0.0215355 -1.28749e-19 -7.82191e-05 0.0212975 7.18284e-19 0.000146205 0.0215989 -2.83248e-18 
5.88603e-05 0.0213601 -2.9409e-18 0.000280824 0.0216646 1.23328e-18 0.000195862 0.0214253 -6.97955e-19 
0.00041398 0.0217324 2.05998e-18 0.000332075 0.0214933 9.69006e-19 0.000544778 0.0218019 -2.44623e-18 
0.00046662 0.0215639 1.70084e-18 0.000598463 0.0216367 -8.87691e-19 -0.00134939 0.0205628 9.89334e-19 
-0.00143773 0.0203373 1.8567e-18 -0.00122432 0.0206173 -1.21973e-19 -0.00131314 0.0203912 3.25261e-19 
-0.00109805 0.0206714 1.26716e-18 -0.00118751 0.0204445 -2.12775e-18 -0.00097029 0.0207254 2.98156e-18 
-0.00106046 0.0204974 2.07354e-18 -0.000840879 0.0207794 -3.998e-19 -0.000931761 0.02055 1.36881e-18 
-0.000709744 0.0208335 -2.71051e-19 -0.00080127 0.0206027 -1.05032e-18 -0.000576882 0.0208881 2.03288e-19 
-0.000668918 0.0206557 1.0842e-19 -0.000442357 0.0209437 -1.60597e-18 -0.0005347 0.0207096 4.5401e-19 
-0.000306301 0.0210006 1.43657e-18 -0.000398675 0.0207648 -1.02999e-18 -0.000168933 0.0210595 -6.77626e-21 
-0.000260973 0.0208219 -8.67362e-19 -3.05736e-05 0.0211207 -6.09864e-19 -0.000121819 0.0208814 2.57498e-19 
0.000108317 0.0211849 -3.01544e-18 1.84341e-05 0.020944 -2.57498e-18 0.000247113 0.0212524 1.15196e-19 
0.000159273 0.0210103 -7.58942e-19 0.000384994 0.0213233 2.46656e-18 0.000299977 0.0210805 1.28749e-19 
0.000520937 0.0213973 -1.72795e-18 0.000439591 0.0211549 -6.09864e-20 0.000576915 0.0212329 5.82759e-19 
-0.00140158 0.0201659 -1.25361e-18 -0.00148963 0.0199412 -4.45878e-18 -0.00127655 0.0202186 -3.52366e-19 
-0.00136515 0.0199936 -2.13452e-18 -0.00115024 0.0202705 4.13352e-19 -0.00123957 0.0200448 9.08019e-19 
-0.00102233 0.0203219 7.04731e-19 -0.0011125 0.0200952 4.5401e-19 -0.000892625 0.0203732 -1.1994e-18 
-0.000983665 0.0201451 -6.50521e-19 -0.00076098 0.0204246 8.87691e-19 -0.000852881 0.020195 7.04731e-19 
-0.000627332 0.0204768 4.40457e-19 -0.000720019 0.0202453 4.87891e-19 -0.000491669 0.02053 -5.55654e-19 
-0.000585004 0.0202965 -3.52366e-19 -0.000354038 0.0205851 9.96111e-19 -0.000447809 0.0203494 -2.84603e-19 
-0.000214566 0.0206425 -1.76183e-19 -0.000308466 0.0204045 4.81115e-19 -7.34892e-05 0.0207031 -1.02999e-18 
-0.000167095 0.0204627 1.20617e-18 6.88073e-05 0.0207675 -1.30782e-18 -2.39454e-05 0.0205247 -9.96111e-19 
0.000211738 0.0208364 4.13352e-19 0.000120555 0.0205914 -3.25261e-19 0.000354465 0.02091 1.13841e-18 
0.000265731 0.0206635 1.19262e-18 0.000495864 0.0209885 -2.97478e-18 0.000410597 0.0207412 -3.79471e-19 
0.000553816 0.0208246 -2.69695e-18 -0.00145329 0.0197693 -2.01255e-18 -0.00154096 0.0195457 3.86247e-19 
-0.0013284 0.0198201 1.38913e-18 -0.0014167 0.0195964 1.51111e-18 -0.00120217 0.0198697 3.52366e-19 
-0.00129128 0.0196454 1.65341e-18 -0.00107427 0.0199184 1.69407e-19 -0.00116433 0.0196931 1.49078e-18 
-0.000944451 0.0199668 8.3348e-19 -0.00103554 0.0197401 4.03188e-18 -0.000812543 0.0200153 3.25261e-19 
-0.000904705 0.019787 1.07065e-18 -0.000678413 0.0200645 -3.38813e-19 -0.000771641 0.0198342 -3.72694e-19 
-0.000541968 0.0201151 -2.58176e-18 -0.000636203 0.0198825 5.6243e-19 -0.000403157 0.0201677 5.01444e-19 
-0.000498272 0.0199325 -6.43745e-19 -0.000261994 0.0202232 -1.6263e-19 -0.000357766 0.0199851 -5.35325e-19 
-0.00011859 0.0202825 -2.06676e-18 -0.00021467 0.0200413 -5.48877e-19 2.67938e-05 0.0203464 -4.67562e-19 
-6.90834e-05 0.020102 -1.65341e-18 0.000173672 0.020416 9.75782e-19 7.87131e-05 0.0201684 2.84603e-19 
0.000321257 0.0204919 1.04354e-18 0.000228164 0.0202415 1.7686e-18 0.000468376 0.0205746 -3.46945e-18 
0.000378337 0.0203221 -5.69206e-19 0.000527822 0.0204107 -7.52165e-19 -0.00150442 0.0193735 2.84603e-19 
-0.00159155 0.0191511 -6.77626e-21 -0.00137978 0.0194222 1.42979e-18 -0.00146761 0.0192 2.77149e-18 
-0.00125376 0.0194692 -1.01644e-19 -0.00134248 0.0192465 5.42101e-20 -0.00112602 0.019515 4.20128e-19 
-0.00121579 0.0192914 2.01933e-18 -0.000996327 0.0195603 1.96512e-19 -0.00108726 0.0193353 2.1684e-19 
-0.000864455 0.0196056 2.15485e-18 -0.000956651 0.0193788 1.75505e-18 -0.000730221 0.0196516 -1.35525e-19 
-0.000823753 0.0194227 2.3988e-18 -0.000593451 0.0196991 -7.18284e-19 -0.000688354 0.0194676 1.96512e-19 
-0.000453987 0.0197488 1.17907e-18 -0.000550239 0.0195144 -6.1664e-19 -0.000311707 0.0198016 2.50722e-19 
-0.000409204 0.0195639 8.13152e-19 -0.000166561 0.0198588 -7.92823e-19 -0.000265072 0.0196173 9.21572e-19 
-1.86312e-05 0.0199215 -7.18284e-19 -0.000117747 0.0196759 3.38813e-20 0.000131776 0.0199909 9.69006e-19 
3.27077e-05 0.019741 1.49078e-19 0.000284017 0.0200683 1.49755e-18 0.000185955 0.0198142 1.1994e-18 
0.000436973 0.0201547 -3.00866e-18 0.000341235 0.0198969 -2.71051e-19 0.000497187 0.0199901 -2.22261e-18 
-0.00155472 0.0189786 -2.57498e-19 -0.00164106 0.0187578 8.06375e-19 -0.00143043 0.019025 1.44334e-18 
-0.00151755 0.0188046 -1.11808e-18 -0.00130474 0.0190692 1.49755e-18 -0.00139282 0.0188484 1.71439e-18 
-0.00117737 0.0191119 1.93801e-18 -0.00126655 0.0188902 3.55076e-18 -0.00104805 0.0191539 1.35525e-19 
-0.00113851 0.0189308 8.06375e-19 -0.000916562 0.0191958 1.03677e-18 -0.00100845 0.0189709 1.05032e-18 
-0.000782672 0.0192383 7.11508e-19 -0.000876136 0.0190112 4.33681e-19 -0.000646133 0.0192822 -1.82281e-18 
-0.000741313 0.0190524 -3.86247e-19 -0.00050668 0.0193284 9.55453e-19 -0.000603682 0.0190954 -1.84992e-18 
-0.000364044 0.0193781 1.16552e-18 -0.000462913 0.0191413 8.67362e-19 -0.000217981 0.0194323 -1.49078e-19 
-0.000318655 0.0191912 1.13841e-18 -6.83396e-05 0.0194927 3.72694e-19 -0.000170581 0.0192466 -1.00966e-18 
8.48436e-05 0.0195609 3.86247e-19 -1.84666e-05 0.0193094 -9.48677e-20 0.000241191 0.0196387 -5.6243e-19 
0.000137683 0.0193813 -2.64274e-19 0.000399791 0.0197277 -5.28549e-19 0.000297438 0.0194647 1.96512e-19 
0.000459686 0.0195614 -7.58942e-19 -0.00160378 0.018585 -5.6243e-19 -0.00168904 0.0183661 -8.26704e-19 
-0.00147994 0.0186288 -1.37558e-18 -0.00156604 0.0184103 -1.55176e-18 -0.00135473 0.01867 2.75794e-18 
-0.00144182 0.0184512 1.43657e-18 -0.00122791 0.0187094 2.43945e-19 -0.00131615 0.0184898 1.38236e-18 
-0.00109924 0.0187479 1.28749e-19 -0.00118882 0.0185269 -1.14519e-18 -0.000968517 0.0187862 1.89735e-19 
-0.00105963 0.0185633 -8.87691e-19 -0.000835471 0.0188249 2.10064e-18 -0.000928354 0.0185998 2.21584e-18 
-0.000699805 0.0188649 -1.26039e-18 -0.000794701 0.0186371 7.31836e-19 -0.000561157 0.0189072 8.67362e-19 
-0.000658312 0.018676 -5.96311e-19 -0.000419114 0.0189529 1.29427e-18 -0.00051875 0.0187177 1.40269e-18 
-0.000273225 0.0190034 -1.00966e-18 -0.000375498 0.0187634 5.75982e-19 -0.00012306 0.0190604 -6.84403e-19 
-0.000227983 0.0188148 5.89535e-19 3.16989e-05 0.019126 3.04932e-19 -7.56415e-05 0.0188738 4.06576e-20 
0.000191086 0.0192026 5.82759e-19 8.19592e-05 0.018943 1.04354e-18 0.000354602 0.0192928 -1.09775e-18 
0.000244907 0.0190252 4.94667e-19 0.000412609 0.0191237 4.26905e-19 -0.00165107 0.0181928 -2.21584e-18 
-0.00152777 0.0182337 -2.57498e-19 -0.00140316 0.0182717 7.58942e-19 -0.00127707 0.0183077 -9.62229e-19 
-0.00114934 0.0183426 -6.1664e-19 -0.00101976 0.018377 5.42101e-19 -0.000888085 0.0184118 1.01644e-18 
-0.000753985 0.0184477 5.48877e-19 -0.000617032 0.0184857 1.02322e-18 -0.000476694 0.0185269 3.52366e-19 
-0.000332328 0.0185728 -5.69206e-19 -0.000183211 0.0186253 3.11708e-19 -2.86145e-05 0.0186868 -6.23416e-19 
0.000132044 0.0187603 8.26704e-19 0.00029892 0.0188494 -4.74338e-20 -0.00171927 0.0175889 -9.31736e-19 
-0.00159692 0.0176245 7.99599e-19 -0.00147343 0.017657 -8.30092e-19 -0.00134879 0.0176875 6.1664e-19 
-0.00122296 0.0177166 -1.21973e-18 -0.00109585 0.0177451 -3.69306e-19 -0.000967271 0.0177737 1.0842e-19 
-0.000836934 0.0178031 -4.30293e-19 -0.000704409 0.017834 -2.23617e-19 -0.00056909 0.0178675 -1.42302e-19 
-0.000430157 0.017905 2.74439e-19 -0.000286542 0.0179484 -5.42101e-19 -0.00013692 0.0180005 5.55654e-19 
2.02451e-05 0.0180649 1.21973e-19 0.000186512 0.0181467 -3.0832e-19 -0.00176074 0.0171824 -9.48677e-20 
-0.00163906 0.0172139 1.4569e-19 -0.00151639 0.0172424 1.93124e-19 -0.00139286 0.017269 3.45589e-19 
-0.00126855 0.0172943 -6.94567e-19 -0.00114346 0.0173189 -1.82959e-19 -0.0010175 0.0173435 8.77526e-19 
-0.000890469 0.0173685 4.40457e-20 -0.000762027 0.0173946 -3.42201e-19 -0.000631636 0.0174228 4.23516e-19 
-0.000498509 0.0174542 -2.37169e-19 -0.000361531 0.0174906 4.43845e-19 -0.000219173 0.0175346 4.33681e-19 
-6.94229e-05 0.0175899 3.86247e-19 9.0195e-05 0.0176623 3.21873e-19 -0.00179733 0.0167778 1.69407e-19 
-0.00167629 0.0168048 1.35525e-20 -0.00155443 0.0168292 4.09964e-19 -0.00143202 0.0168519 -7.45389e-20 
-0.00130928 0.0168734 -1.42302e-19 -0.00118632 0.0168943 -6.77626e-21 -0.00106318 0.0169151 3.79471e-19 
-0.000939803 0.016936 -3.32037e-19 -0.000815995 0.0169577 1.6263e-19 -0.0006914 0.0169808 -3.15096e-19 
-0.000565426 0.0170063 -3.72694e-20 -0.000437135 0.0170355 -2.64274e-19 -0.000305112 0.0170708 6.64074e-19 
-0.000167272 0.0171156 4.1674e-19 -2.06698e-05 0.0171754 6.77626e-21 -0.00182814 0.0163748 -6.40357e-19 
-0.00170766 0.0163969 5.31937e-19 -0.00158652 0.0164171 3.32037e-19 -0.00146516 0.0164359 -9.14796e-20 
-0.00134391 0.0164539 -3.52366e-19 -0.001223 0.0164714 1.49078e-19 -0.00110262 0.0164887 6.77626e-19 
-0.000982886 0.0165061 -1.01644e-20 -0.000863808 0.0165238 -5.42101e-20 -0.000745302 0.0165424 -3.04932e-19 
-0.000627107 0.0165625 -3.79471e-19 -0.000508705 0.0165851 4.30293e-19 -0.000389161 0.016612 3.11708e-19 
-0.000266892 0.0166458 -4.03188e-19 -0.000139323 0.0166914 6.43745e-20 -0.00185234 0.0159731 -4.06576e-20 
-0.00173228 0.0159902 4.06576e-19 -0.00161173 0.016006 6.81014e-19 -0.00149124 0.0160211 -6.77626e-21 
-0.00137124 0.0160357 1.25361e-19 -0.0012521 0.01605 -7.69106e-19 -0.00113414 0.0160642 4.13352e-19 
-0.00101763 0.0160785 -3.76083e-19 -0.000902823 0.016093 -1.69407e-19 -0.000789936 0.0161079 1.6263e-19 
-0.00067912 0.0161236 5.75982e-20 -0.000570421 0.0161407 -2.84603e-19 -0.000463673 0.0161602 4.74338e-20 
-0.000358315 0.0161842 3.79471e-19 -0.000253065 0.016216 -3.86247e-19 -0.00186927 0.0155723 -6.77626e-20 
-0.00174947 0.0155841 1.69407e-20 -0.0016293 0.0155956 6.43745e-20 -0.00150939 0.0156069 -1.0842e-19 
-0.00139029 0.0156183 -1.96512e-19 -0.00127243 0.0156298 -2.81215e-19 -0.00115625 0.0156414 5.28549e-19 
-0.00104215 0.0156531 4.64174e-19 -0.00093059 0.0156649 -2.13452e-19 -0.000822036 0.0156769 2.33781e-19 
-0.000717025 0.0156891 -2.33781e-19 -0.000616148 0.015702 -3.45589e-19 -0.000520045 0.015716 -2.1684e-19 
-0.000429337 0.015732 4.1674e-19 -0.000344472 0.0157522 -2.71051e-20 -0.00187848 0.0151719 7.7927e-20 
-0.00175872 0.0151783 2.91379e-19 -0.00163868 0.0151854 2.13452e-19 -0.00151903 0.0151931 9.14796e-20 
-0.00140035 0.0152015 -1.89735e-19 -0.00128314 0.0152103 -6.09864e-20 -0.00116787 0.0152195 8.80914e-19 
-0.00105505 0.015229 -4.84503e-19 -0.000945221 0.0152386 -8.13152e-20 -0.000839017 0.0152483 -1.72795e-19 
-0.000737196 0.015258 -9.14796e-20 -0.000640688 0.0152677 2.5411e-19 -0.000550645 0.0152775 9.82558e-20 
-0.000468486 0.0152876 2.94767e-19 -0.000395903 0.0152987 2.1684e-19 -0.00187977 0.0147711 -6.91179e-19 
-0.00175984 0.0147721 3.21873e-19 -0.00163965 0.0147749 9.14796e-20 -0.00151988 0.0147792 2.47334e-19 
-0.00140109 0.0147846 -5.55654e-19 -0.0012838 0.0147909 4.43845e-19 -0.00116846 0.0147979 3.42201e-19 
-0.00105559 0.0148053 2.43945e-19 -0.000945719 0.0148129 2.13452e-19 -0.000839477 0.0148206 -2.37169e-20 
-0.000737619 0.014828 4.57398e-19 -0.000641071 0.014835 -3.79471e-19 -0.000550979 0.0148413 7.7927e-20 
-0.000468756 0.0148463 2.71051e-19 -0.000396083 0.0148493 -2.37169e-20 -0.00187324 0.0143693 -5.14996e-19 
-0.00175291 0.0143652 7.0812e-19 -0.00163229 0.0143638 5.0822e-20 -0.00151202 0.0143647 1.49078e-19 
-0.0013926 0.0143672 2.71051e-20 -0.0012745 0.014371 -3.38813e-21 -0.00115811 0.0143757 2.81215e-19 
-0.00104386 0.014381 -5.01444e-19 -0.000932169 0.0143866 1.6263e-19 -0.000823501 0.014392 2.94767e-19 
-0.000718379 0.014397 -8.60585e-19 -0.000617382 0.0144009 -4.06576e-20 -0.000521136 0.014403 1.59242e-19 
-0.000430245 0.0144022 -3.04932e-20 -0.000345134 0.0143961 -6.03087e-19 -0.00185923 0.013966 -3.15096e-19 
-0.0017383 0.0139569 -3.76083e-19 -0.00161701 0.0139515 6.43745e-20 -0.00149589 0.013949 1.69407e-20 
-0.00137538 0.0139487 -3.38813e-20 -0.00125582 0.0139499 2.74439e-19 -0.00113753 0.0139522 3.82859e-19 
-0.00102076 0.0139552 -6.43745e-20 -0.000905734 0.0139583 2.23617e-19 -0.000792655 0.013961 3.28649e-19 
-0.000681656 0.0139628 -6.43745e-20 -0.000572761 0.0139626 -3.65918e-19 -0.000465785 0.0139593 2.74439e-19 
-0.000360146 0.0139506 6.97955e-19 -0.000254537 0.013933 -4.87891e-19 -0.00183838 0.0135606 -4.43845e-19 
-0.00171668 0.0135469 2.23617e-19 -0.0015945 0.0135377 -1.86347e-19 -0.00147226 0.0135319 8.13152e-20 
-0.00135029 0.0135286 -2.91379e-19 -0.00122881 0.0135271 1.42302e-19 -0.00110797 0.0135268 5.2516e-19 
-0.000987855 0.0135271 -3.96411e-19 -0.000868468 0.0135273 1.38913e-19 -0.00074969 0.0135266 2.71051e-20 
-0.000631237 0.0135242 4.1674e-19 -0.000512564 0.0135187 -5.79371e-19 -0.000392714 0.0135083 2.71051e-20 
-0.000270083 0.0134899 1.6263e-19 -0.000142077 0.0134586 -3.38813e-20 -0.00181152 0.0131526 -3.18484e-19 
-0.00168891 0.0131347 1.32137e-19 -0.0015657 0.0131219 2.30393e-19 -0.00144218 0.0131129 -4.84503e-19 
-0.00131852 0.0131067 3.76083e-19 -0.00119481 0.0131024 3.42201e-19 -0.00107107 0.0130992 -1.35525e-20 
-0.000947205 0.0130964 -3.04932e-19 -0.00082299 0.0130931 1.69407e-19 -0.000698037 0.0130883 -2.27005e-19 
-0.00057172 0.0130809 -1.35525e-20 -0.000443076 0.0130691 -4.1674e-19 -0.000310663 0.0130505 2.81215e-19 
-0.000172376 0.0130214 6.84403e-19 -2.5262e-05 0.0129762 -1.66018e-19 -0.00177966 0.0127416 -6.43745e-20 
-0.00165606 0.0127202 3.72694e-19 -0.00153174 0.0127041 -1.38913e-19 -0.00140685 0.0126921 1.6263e-19 
-0.00128141 0.0126829 -6.77626e-21 -0.0011554 0.0126756 1.55854e-19 -0.00102871 0.0126693 -1.72795e-19 
-0.000901071 0.012663 -1.11808e-19 -0.000772115 0.0126558 3.93023e-19 -0.000641264 0.0126465 -2.30393e-19 
-0.000507695 0.0126336 -1.28749e-19 -0.000370259 0.012615 -4.43845e-19 -0.000227403 0.012588 3.82859e-19 
-7.70954e-05 0.0125487 5.38713e-19 8.31456e-05 0.0124911 7.11508e-19 -0.00174388 0.0123275 -4.09964e-19 
-0.00161926 0.012303 -1.69407e-20 -0.00149383 0.0122841 6.77626e-20 -0.00136757 0.0122691 -3.38813e-20 
-0.00124042 0.0122571 -3.35425e-19 -0.00111222 0.0122468 -2.20229e-19 -0.000982758 0.0122372 -2.77827e-19 
-0.000851684 0.0122274 -2.20229e-19 -0.000718523 0.0122161 7.7927e-20 -0.000582622 0.012202 -5.38713e-19 
-0.000443119 0.0121835 1.93124e-19 -0.00029891 0.0121583 -5.04832e-19 -0.00014864 0.0121237 -2.71051e-19 
9.24581e-06 0.0120756 2.23617e-19 0.000176314 0.012009 1.05032e-19 -0.001697 0.0177929 -1.90413e-18 
-0.00178 0.0175696 -1.13841e-18 -0.00157432 0.0178304 3.11708e-19 -0.00165824 0.0176072 -7.92823e-19 
-0.00145043 0.0178648 -4.74338e-19 -0.00153532 0.0176411 -1.14519e-18 -0.00132526 0.0178972 -1.01644e-19 
-0.00141125 0.0176724 -6.30193e-19 -0.00119873 0.0179282 -2.03966e-18 -0.00128603 0.0177021 -1.00289e-18 
-0.0010707 0.0179588 -5.75982e-19 -0.00115957 0.0177309 -2.75116e-18 -0.000940959 0.0179895 1.96512e-19 
-0.00103176 0.0177594 -1.36881e-18 -0.000809178 0.018021 -6.43745e-19 -0.000902348 0.0177883 -4.94667e-19 
-0.000674918 0.0180543 5.96311e-19 -0.000770982 0.0178183 -1.0571e-18 -0.000537578 0.0180905 -1.0842e-19 
-0.000637149 0.0178503 -4.60786e-19 -0.000396373 0.018131 -9.48677e-20 -0.000500142 0.0178856 -7.86047e-19 
-0.000250326 0.0181777 -3.25261e-19 -0.00035902 0.0179258 1.35525e-20 -9.82888e-05 0.0182334 5.28549e-19 
-0.000212584 0.0179732 -2.71051e-19 6.09589e-05 0.0183015 -3.11708e-19 -5.93912e-05 0.0180309 1.81604e-18 
0.000228467 0.0183866 -3.52366e-19 0.000102144 0.0181033 4.06576e-19 0.000273439 0.0181961 -2.43945e-19 
-0.00174056 0.0173854 -1.73472e-18 -0.00182114 0.0171652 -1.38913e-18 -0.00161855 0.017419 7.7927e-19 
-0.00170004 0.0171986 -2.71051e-20 -0.00149546 0.0174496 -1.17907e-18 -0.00157784 0.0172285 1.13164e-18 
-0.00137136 0.0174781 1.32815e-18 -0.00145473 0.0172559 1.33492e-18 -0.00124628 0.0175053 -2.98156e-18 
-0.0013308 0.0172818 -2.84603e-19 -0.00112016 0.0175319 -1.2265e-18 -0.0012061 0.0173067 -1.55854e-18 
-0.000992849 0.0175584 1.42979e-18 -0.0010806 0.0173312 1.00289e-18 -0.000864107 0.0175855 -1.68051e-18 
-0.000954136 0.0173559 1.27394e-18 -0.000733533 0.017614 -3.38813e-19 -0.000826456 0.0173813 -1.11131e-18 
-0.000600543 0.0176448 8.67362e-19 -0.000697122 0.0174084 -6.77626e-19 -0.000464316 0.0176793 -1.89735e-19 
-0.000565482 0.017438 4.20128e-19 -0.000323735 0.0177193 -4.60786e-19 -0.000430596 0.0174716 2.43945e-19 
-0.00017734 0.0177675 1.15196e-18 -0.000291152 0.0175114 1.81604e-18 -2.33214e-05 0.0178276 1.40946e-18 
-0.000145385 0.0175605 1.68051e-18 0.000140368 0.0179051 4.60786e-19 8.96292e-06 0.0176235 2.08709e-18 
0.000174537 0.0177072 4.74338e-19 -0.0017797 0.0169799 -4.47233e-19 -0.00185742 0.016763 -1.79571e-18 
-0.00165835 0.0170091 4.06576e-20 -0.00173694 0.0167916 8.13152e-19 -0.00153609 0.0170356 1.70084e-18 
-0.00161545 0.0168172 8.47033e-19 -0.00141313 0.0170603 7.58942e-19 -0.00149328 0.0168407 1.29427e-18 
-0.0012896 0.0170837 -1.09775e-18 -0.00137069 0.0168627 -2.03288e-19 -0.00116557 0.0171064 -4.5401e-19 
-0.00124783 0.0168839 -5.89535e-19 -0.00104101 0.017129 2.50044e-18 -0.00112478 0.0169047 1.04354e-18 
-0.000915787 0.017152 -2.98156e-19 -0.00100153 0.0169255 4.20128e-19 -0.000789619 0.0171758 2.71051e-20 
-0.000877972 0.0169467 -6.77626e-19 -0.00066205 0.0172014 1.6263e-19 -0.00075383 0.016969 -8.13152e-20 
-0.000532369 0.0172298 -3.25261e-19 -0.00062864 0.0169932 -9.35124e-19 -0.000399521 0.0172626 2.84603e-19 
-0.000501654 0.0170203 -5.55654e-19 -0.000261988 0.0173022 2.03288e-18 -0.000371716 0.0170522 9.21572e-19 
-0.000117658 0.0173524 2.08709e-18 -0.000237102 0.0170917 1.3146e-18 3.62698e-05 0.0174188 3.52366e-19 
-9.5321e-05 0.0171431 2.57498e-19 5.70847e-05 0.0172134 -1.39591e-18 -0.00181351 0.0165761 -5.69206e-19 
-0.00188795 0.0163627 -1.64663e-18 -0.00169277 0.0166007 9.62229e-19 -0.00176801 0.0163862 -8.13152e-20 
-0.00157128 0.016623 1.28749e-18 -0.00164714 0.0164072 8.06375e-19 -0.00144941 0.0166438 4.06576e-20 
-0.00152585 0.0164267 6.1664e-19 -0.00132743 0.0166635 -7.65718e-19 -0.0014045 0.016445 -1.44334e-18 
-0.00120552 0.0166827 -5.69206e-19 -0.0012834 0.0164627 -9.48677e-20 -0.00108379 0.0167016 1.40946e-18 
-0.00116274 0.0164801 8.87691e-19 -0.000962258 0.0167207 -1.0571e-18 -0.00104267 0.0164973 1.51788e-18 
-0.000840836 0.0167404 5.01444e-19 -0.000923267 0.0165149 -1.0842e-18 -0.000719295 0.0167611 -1.07065e-18 
-0.000804496 0.016533 -8.80914e-19 -0.000597192 0.0167838 -1.69407e-18 -0.000686193 0.0165522 -1.45012e-18 
-0.000473773 0.0168096 4.87891e-19 -0.000567983 0.0165734 1.21973e-19 -0.00034782 0.0168406 2.12775e-18 
-0.000449164 0.0165979 7.86047e-19 -0.000217427 0.0168798 8.26704e-19 -0.000328516 0.0166278 -6.91179e-19 
-7.96993e-05 0.0169326 1.11131e-18 -0.000204014 0.0166667 -2.1684e-19 -7.23744e-05 0.016721 -3.52366e-19 
-0.00184111 0.0161738 -6.1664e-19 -0.00191196 0.0159639 -2.49366e-18 -0.00172086 0.0161935 1.35525e-18 
-0.00179241 0.0159818 8.13152e-19 -0.00160004 0.0162115 2.86636e-18 -0.00167203 0.0159982 1.72795e-18 
-0.00147914 0.0162284 -5.42101e-19 -0.00155145 0.0160136 2.14808e-18 -0.00135855 0.0162447 -9.89334e-19 
-0.00143115 0.0160284 3.52366e-19 -0.00123858 0.0162605 -3.72694e-19 -0.00131154 0.0160429 -1.26716e-18 
-0.00111947 0.0162762 2.12775e-18 -0.00119295 0.0160571 -9.08019e-19 -0.00100142 0.016292 -3.79471e-19 
-0.00107568 0.0160714 -2.71051e-20 -0.000884576 0.016308 -1.35525e-19 -0.000959996 0.0160857 -1.32815e-18 
-0.000768989 0.0163247 2.1684e-19 -0.000846126 0.0161004 2.98156e-19 -0.000654608 0.0163424 -1.47723e-18 
-0.000734261 0.0161156 1.49078e-19 -0.000541184 0.0163621 2.98156e-19 -0.000624507 0.0161319 -5.01444e-19 
-0.000428146 0.0163851 1.6263e-19 -0.000516824 0.01615 -7.58942e-19 -0.000314376 0.0164138 7.18284e-19 
-0.000410881 0.0161715 1.30104e-18 -0.000197832 0.0164524 -7.86047e-19 -0.000305812 0.0161988 5.01444e-19 
-0.000199728 0.0162367 -1.09775e-18 -0.00186174 0.0157727 -1.96512e-19 -0.00192877 0.0155662 -1.56532e-18 
-0.00174184 0.0157871 7.31836e-19 -0.00180946 0.0155783 2.43945e-19 -0.00162151 0.0158007 1.09775e-18 
-0.00168938 0.0155899 -4.74338e-20 -0.00150135 0.0158139 -6.30193e-19 -0.00156928 0.0156013 -1.21973e-19 
-0.00138185 0.0158269 -2.77827e-19 -0.00144971 0.0156126 -9.14796e-19 -0.00126342 0.0158398 -2.31071e-18 
-0.00133118 0.0156241 -9.35124e-19 -0.00114644 0.0158527 1.70762e-18 -0.0012141 0.0156356 1.35525e-19 
-0.00103127 0.0158656 1.49078e-19 -0.00109891 0.0156472 1.47723e-18 -0.000918245 0.0158786 -6.36969e-19 
-0.000986022 0.015659 3.79471e-19 -0.000807733 0.015892 5.69206e-19 -0.000875899 0.0156708 -9.35124e-19 
-0.000700086 0.0159059 -6.77626e-19 -0.000769045 0.015683 -1.35525e-19 -0.000595639 0.0159207 -7.72494e-19 
-0.00066602 0.0156955 -1.57209e-18 -0.000494643 0.0159372 -9.08019e-19 -0.000567446 0.0157088 -1.49078e-18 
-0.000397145 0.015957 1.40946e-18 -0.000473965 0.0157236 1.15196e-18 -0.000302712 0.0159826 -2.57498e-19 
-0.000386143 0.0157414 1.28749e-18 -0.000304173 0.015765 3.79471e-19 -0.00187485 0.0153721 1.6263e-19 
-0.00193797 0.0151689 -2.23617e-19 -0.00175511 0.0153812 9.62229e-19 -0.00181869 0.015175 9.82558e-19 
-0.00163503 0.0153905 8.3348e-19 -0.00169869 0.0151817 8.06375e-19 -0.0015153 0.0154 3.25261e-19 
-0.00157877 0.0151892 1.16552e-18 -0.00139647 0.0154099 -7.65718e-19 -0.00145954 0.0151972 -3.65918e-19 
-0.00127902 0.01542 1.89735e-19 -0.00134153 0.0152059 -2.1684e-19 -0.00116341 0.0154304 2.75116e-18 
-0.00122523 0.0152149 2.30393e-19 -0.00105011 0.0154409 8.13152e-20 -0.00111112 0.0152242 6.36969e-19 
-0.000939629 0.0154516 -4.20128e-19 -0.000999719 0.0152338 -2.07354e-18 -0.00083253 0.0154624 4.06576e-19 
-0.000891614 0.0152434 1.35525e-19 -0.000729489 0.0154733 -7.86047e-19 -0.000787495 0.0152531 -5.55654e-19 
-0.000631304 0.0154845 -4.74338e-19 -0.000688197 0.0152628 8.13152e-20 -0.000538924 0.0154962 -3.38813e-19 
-0.000594755 0.0152726 -1.0842e-19 -0.000453451 0.0155091 1.39591e-18 -0.00050845 0.0152825 1.13841e-18 
-0.000376064 0.0155245 5.82759e-19 -0.000430838 0.015293 1.19262e-18 -0.000363681 0.0153049 -1.89735e-19 
-0.00188011 0.0149715 -1.42302e-18 -0.00193937 0.0147713 -2.4259e-18 -0.0017603 0.0149753 1.19262e-18 
-0.00181989 0.0147713 -1.1994e-18 -0.00164022 0.0149802 1.07743e-18 -0.00169973 0.0147733 2.77827e-19 
-0.00152056 0.0149862 6.50521e-19 -0.00157967 0.0147769 3.998e-19 -0.00140189 0.0149931 -9.62229e-19 
-0.00146033 0.0147818 -6.84403e-19 -0.00128473 0.0150007 6.09864e-19 -0.00134223 0.0147877 -1.89735e-19 
-0.00116955 0.0150087 2.24972e-18 -0.00122585 0.0147944 9.21572e-19 -0.00105687 0.0150172 -1.49078e-19 
-0.00111168 0.0148016 1.57209e-18 -0.000947252 0.0150258 3.65918e-19 -0.00100024 0.0148091 4.87891e-19 
-0.000841335 0.0150344 -2.71051e-19 -0.000892093 0.0148168 3.25261e-19 -0.000739912 0.015043 3.93023e-19 
-0.000787936 0.0148243 1.50433e-18 -0.000643954 0.0150513 -3.38813e-19 -0.000688601 0.0148316 -3.38813e-19 
-0.000554681 0.0150594 2.71051e-20 -0.000595115 0.0148383 -1.49078e-19 -0.000473619 0.0150669 1.35525e-18 
-0.000508753 0.014844 9.62229e-19 -0.000402622 0.015074 6.50521e-19 -0.000431067 0.0148481 8.67362e-19 
-0.000363805 0.0148497 1.28749e-18 -0.00187747 0.0145704 -1.43657e-18 -0.00193303 0.0143727 -4.60786e-19 
-0.00175737 0.0145688 2.83925e-18 -0.00181316 0.0143669 1.35525e-20 -0.00163699 0.0145695 7.31836e-19 
-0.00169259 0.0143642 2.12775e-18 -0.00151701 0.014572 3.998e-19 -0.00157207 0.014364 9.21572e-19 
-0.00139798 0.014576 -8.40257e-19 -0.00145217 0.0143657 -2.71051e-20 -0.00128036 0.0145811 1.24683e-18 
-0.00133336 0.014369 -2.1684e-19 -0.00116462 0.0145869 8.53809e-19 -0.00121606 0.0143733 1.0842e-18 
-0.00105122 0.0145933 -4.74338e-19 -0.00110069 0.0143783 1.6263e-19 -0.000940646 0.0145999 3.93023e-19 
-0.000987663 0.0143838 -7.45389e-19 -0.000833471 0.0146065 -8.13152e-20 -0.00087742 0.0143893 7.31836e-19 
-0.000730357 0.0146128 -8.67362e-19 -0.000770454 0.0143946 -1.16552e-18 -0.000632091 0.0146183 -9.48677e-19 
-0.000667317 0.0143991 -1.70762e-18 -0.000539614 0.0146227 -2.57498e-19 -0.000568613 0.0144023 1.21973e-19 
-0.000454015 0.0146249 6.64074e-19 -0.00047497 0.0144031 4.06576e-20 -0.000376456 0.0146237 -8.53809e-19 
-0.000386937 0.0144 -9.08019e-19 -0.00030468 0.01439 -1.45012e-18 -0.00186713 0.0141679 -1.26039e-18 
-0.00191934 0.0139723 -1.36203e-18 -0.00174653 0.0141612 9.28348e-19 -0.00179885 0.0139609 -1.54499e-18 
-0.0016256 0.0141578 -2.10064e-19 -0.00167766 0.0139538 -1.32137e-18 -0.00150494 0.014157 3.93023e-19 
-0.0015564 0.01395 4.5401e-19 -0.00138503 0.0141581 4.81115e-19 -0.00143553 0.0139486 -1.6263e-19 
-0.00126628 0.0141606 4.13352e-19 -0.00131546 0.0139491 7.92823e-19 -0.00114903 0.0141642 1.35525e-18 
-0.0011965 0.013951 4.47233e-19 -0.00103364 0.0141684 -1.15196e-18 -0.00107894 0.0139537 1.42302e-18 
-0.000920447 0.0141727 8.94467e-19 -0.000963011 0.0139568 -5.82759e-19 -0.000809783 0.0141769 4.74338e-19 
-0.000848939 0.0139598 1.3146e-18 -0.000701989 0.0141804 -1.95156e-18 -0.000736888 0.0139621 7.99599e-19 
-0.000597384 0.0141824 -2.84603e-19 -0.000626948 0.013963 -1.24683e-18 -0.000496202 0.014182 8.40257e-19 
-0.000519056 0.0139614 -4.87891e-19 -0.000398469 0.0141775 1.58565e-18 -0.000412861 0.0139558 2.64274e-18 
-0.000303728 0.014166 -1.95156e-18 -0.000307476 0.0139433 2.03288e-19 -0.000200983 0.0139189 9.21572e-19 
-0.00184961 0.0137636 -1.07743e-18 -0.00189888 0.0135695 8.74138e-19 -0.00172832 0.0137522 -3.25261e-19 
-0.00177762 0.0135531 -1.18585e-18 -0.0016066 0.0137448 2.64274e-19 -0.00165562 0.0135418 -2.50722e-19 
-0.00148495 0.0137406 1.49078e-19 -0.00153337 0.0135344 -4.81115e-19 -0.00136375 0.0137388 -7.04731e-19 
-0.00141123 0.01353 -7.11508e-19 -0.00124328 0.0137388 1.00966e-18 -0.00128948 0.0135277 -3.38813e-19 
-0.00112377 0.0137398 1.26039e-18 -0.0011683 0.0135269 1.55854e-18 -0.00100541 0.0137415 -2.43945e-19 
-0.00104782 0.0135269 7.31836e-19 -0.000888298 0.0137432 6.64074e-19 -0.000928075 0.0135272 -1.40946e-18 
-0.000772481 0.0137443 3.52366e-19 -0.000809017 0.0135271 2.98156e-19 -0.000657879 0.013744 3.38813e-19 
-0.000690452 0.0135257 1.28749e-18 -0.000544222 0.0137414 -1.50433e-18 -0.00057198 0.0135219 -1.49078e-19 
-0.000430917 0.0137347 3.25261e-19 -0.000452876 0.0135143 -8.13152e-19 -0.000316825 0.0137214 1.50433e-18 
-0.000331897 0.0135004 8.40257e-19 -0.00019988 0.0136971 4.06576e-20 -0.000206997 0.0134763 6.36969e-19 
-7.4878e-05 0.0134357 3.11708e-19 -0.00182564 0.0133569 -6.23416e-19 -0.00187249 0.0131638 5.01444e-19 
-0.0017035 0.0133411 7.86047e-19 -0.00175031 0.0131429 -6.36969e-19 -0.00158082 0.0133301 5.14996e-19 
-0.00162736 0.0131278 7.58942e-19 -0.00145796 0.0133226 -7.04731e-19 -0.00150397 0.013117 -3.04932e-19 
-0.00133516 0.0133179 -6.91179e-19 -0.00138036 0.0131095 -7.04731e-19 -0.00121259 0.013315 1.17229e-18 
-0.00125667 0.0131044 1.72117e-18 -0.00109032 0.0133133 6.36969e-19 -0.00113295 0.0131007 2.98156e-19 
-0.000968359 0.0133121 -7.31836e-19 -0.00100917 0.0130978 -5.69206e-19 -0.00084658 0.0133106 1.00289e-18 
-0.000885163 0.0130948 -2.84603e-19 -0.000724725 0.0133079 -9.48677e-19 -0.000760642 0.0130909 -6.36969e-19 
-0.000602323 0.0133031 5.96311e-19 -0.000635105 0.013085 -3.65918e-19 -0.000478594 0.0132946 -1.3146e-18 
-0.000507774 0.0130757 -8.80914e-19 -0.000352295 0.0132801 -9.48677e-20 -0.000377467 0.0130609 -6.50521e-19 
-0.000221498 0.0132565 1.6263e-18 -0.000242437 0.0130376 2.30393e-18 -8.32988e-05 0.0132181 4.87891e-19 
-0.000100178 0.0130013 1.17907e-18 5.27738e-05 0.0129449 -2.84603e-19 -0.00179615 0.0129475 -6.23416e-19 
-0.00184113 0.0127549 2.1684e-19 -0.00167305 0.0129278 6.50521e-19 -0.00171796 0.0127301 2.98156e-19 
-0.0015493 0.0129133 1.35525e-19 -0.00159398 0.0127115 4.74338e-19 -0.00142509 0.0129027 -3.72694e-19 
-0.00146936 0.0126976 -2.71051e-20 -0.00130054 0.0128951 8.53809e-19 -0.0013442 0.0126872 3.72694e-19 
-0.00117568 0.0128893 6.7085e-19 -0.00121848 0.0126791 8.06375e-19 -0.00105045 0.0128845 -3.93023e-19 
-0.00109216 0.0126724 1.42302e-19 -0.000924682 0.01288 -6.77626e-20 -0.000965027 0.0126662 1.6263e-19 
-0.000798055 0.0128748 2.57498e-19 -0.000836792 0.0126596 -2.30393e-19 -0.000670079 0.0128678 -8.94467e-19 
-0.000706976 0.0126515 2.1684e-19 -0.000540008 0.0128577 -6.50521e-19 -0.000574889 0.0126406 -1.07065e-18 
-0.000406758 0.0128425 -1.24683e-18 -0.000439556 0.0126251 -5.82759e-19 -0.000268784 0.0128197 1.39591e-18 
-0.000299637 0.0126028 -7.99599e-19 -0.000123958 0.0127853 2.84603e-18 -0.000153344 0.0125702 1.8838e-18 
3.05307e-05 0.0127336 1.55854e-18 1.59401e-06 0.0125226 2.73761e-18 0.000167823 0.0124532 7.58942e-19 
-0.00176219 0.012535 -4.74338e-19 -0.00180588 0.0123424 2.1684e-19 -0.00163808 0.0125119 4.74338e-19 
-0.00168167 0.0123145 -3.38813e-19 -0.0015132 0.0124944 2.37169e-19 -0.00155664 0.012293 1.69407e-19 
-0.00138762 0.0124808 5.28549e-19 -0.00143081 0.0122762 5.89535e-19 -0.00126131 0.0124702 -1.17907e-18 
-0.00130412 0.0122628 -7.92823e-19 -0.00113419 0.0124614 -2.23617e-19 -0.00117646 0.0122518 -1.07743e-18 
-0.00100607 0.0124535 -6.30193e-19 -0.00104767 0.012242 -1.40946e-18 -0.000876653 0.0124455 -7.58942e-19 
-0.000917451 0.0122324 -4.47233e-19 -0.000745506 0.0124362 2.71051e-19 -0.000785404 0.012222 -6.36969e-19 
-0.000611999 0.0124245 -1.00289e-18 -0.000650968 0.0122095 -7.31836e-19 -0.000475269 0.0124088 4.06576e-20 
-0.00051339 0.0121934 -1.00289e-18 -0.000334167 0.0123869 -1.92446e-18 -0.00037169 0.0121719 -4.87891e-19 
-0.000187205 0.0123559 4.60786e-19 -0.000224636 0.0121424 -1.77538e-18 -3.25555e-05 0.0123119 1.23328e-18 
-7.07604e-05 0.0121016 9.48677e-20 0.000131836 0.0122494 2.53432e-18 9.15355e-05 0.012045 6.64074e-19 
0.00026367 0.0119667 -2.30393e-19 -0.00172487 0.0121193 -1.8567e-18 -0.00159975 0.0120935 3.04932e-19 
-0.00147378 0.0120732 5.42101e-19 -0.00134687 0.0120569 -1.02322e-18 -0.00121891 0.0120435 3.11708e-19 
-0.00108971 0.0120317 -1.2265e-18 -0.000959005 0.0120205 -9.08019e-19 -0.000826417 0.0120089 -1.23328e-18 
-0.000691452 0.0119955 5.01444e-19 -0.000553458 0.0119791 -2.1684e-19 -0.000411606 0.0119579 -6.36969e-19 
-0.000264879 0.0119297 -5.69206e-19 -0.000112099 0.0118917 -1.8838e-18 4.79758e-05 0.0118401 1.26039e-18 
0.000216405 0.0117703 2.64274e-19 -0.00166696 0.0115093 -2.5411e-19 -0.00154042 0.0114807 1.01644e-19 
-0.001413 0.0114572 3.93023e-19 -0.00128443 0.0114374 -5.45489e-19 -0.00115447 0.0114202 -2.81215e-19 
-0.00102283 0.0114042 -4.57398e-19 -0.000889205 0.0113885 1.42302e-19 -0.000753194 0.0113718 5.69206e-19 
-0.000614336 0.0113528 -6.20028e-19 -0.000472087 0.0113301 1.72795e-19 -0.00032584 0.0113021 -6.77626e-20 
-0.000174971 0.0112665 -3.04932e-19 -1.89216e-05 0.0112211 -2.37169e-19 0.000142627 0.0111629 2.47334e-19 
0.000309488 0.0110887 3.04932e-19 -0.00162796 0.0111057 -5.48877e-19 -0.0015006 0.0110758 3.48978e-19 
-0.00137236 0.0110508 2.77827e-19 -0.00124291 0.0110291 2.40557e-19 -0.00111196 0.0110097 -1.42302e-19 
-0.00097919 0.0109913 -4.74338e-20 -0.000844284 0.0109729 -3.79471e-19 -0.00070688 0.0109532 1.21973e-19 
-0.000566587 0.010931 -2.30393e-19 -0.000422987 0.0109049 2.20229e-19 -0.00027567 0.0108733 3.38813e-20 
-0.000124293 0.0108344 1.52466e-19 3.13176e-05 0.0107861 -1.15196e-19 0.000191002 0.0107263 1.42302e-19 
0.000354044 0.0106526 -4.13352e-19 -0.00158912 0.0106995 -5.6243e-19 -0.00146103 0.010669 7.72494e-19 
-0.00133212 0.0106428 -5.21772e-19 -0.00120199 0.0106196 2.71051e-19 -0.00107032 0.0105983 -6.1664e-19 
-0.00093679 0.0105778 1.11808e-19 -0.000801105 0.010557 2.23617e-19 -0.000662956 0.0105347 -2.47334e-19 
-0.00052204 0.0105098 -4.47233e-19 -0.000378077 0.0104809 3.69306e-19 -0.000230851 0.0104468 -7.28448e-19 
-8.02718e-05 0.0104057 -3.11708e-19 7.3526e-05 0.010356 6.43745e-20 0.000230049 0.0102962 1.82959e-19 
0.00038828 0.0102248 7.86047e-19 -0.00155113 0.0102911 -4.57398e-19 -0.00142242 0.0102605 4.74338e-20 
-0.00129297 0.0102335 4.74338e-20 -0.00116235 0.0102092 7.55553e-19 -0.00103023 0.0101864 3.38813e-19 
-0.000896304 0.010164 -3.38813e-20 -0.000760301 0.0101412 -3.38813e-20 -0.000621977 0.0101168 2.13452e-19 
-0.000481127 0.0100898 -1.32137e-19 -0.0003376 0.0100589 -2.98156e-19 -0.000191351 0.010023 3.86247e-19 
-4.24901e-05 0.00998073 6.77626e-21 0.00010863 0.00993094 -6.77626e-20 0.000261315 0.00987249 1.35525e-20 
0.000414429 0.00980465 -1.59242e-19 -0.00151455 0.00988076 -1.0842e-19 -0.00138534 0.00985043 2.33781e-19 
-0.00125549 0.00982316 4.26905e-19 -0.00112456 0.00979801 1.35525e-20 -0.000992236 0.00977403 3.38813e-19 
-0.000858222 0.00975031 -3.69306e-19 -0.000722292 0.00972593 5.65818e-19 -0.000584266 0.00969991 -2.43945e-19 
-0.000444026 0.0096713 -4.09964e-19 -0.000301536 0.00963907 1.05032e-19 -0.000156884 0.00960222 -1.52466e-19 
-1.0324e-05 0.00955976 3.79471e-19 0.000137656 0.00951079 -2.37169e-20 0.000286272 0.00945465 -1.32137e-19 
0.000434387 0.00939107 2.33781e-19 -0.00147983 0.00946881 -4.84503e-19 -0.00135022 0.00943915 0 
-0.0012201 0.00941193 -2.67662e-19 -0.00108904 0.00938635 -2.30393e-19 -0.000956711 0.00936161 2.60886e-19 
-0.00082287 0.00933689 -5.72594e-19 -0.000687327 0.00931138 3.38813e-20 -0.000549962 0.00928424 4.20128e-19 
-0.000410732 0.00925462 -6.43745e-20 -0.000269693 0.00922168 -1.32137e-19 -0.000127027 0.0091846 -6.77626e-20 
1.69202e-05 0.00914265 1.11808e-19 0.000161594 0.00909523 -9.48677e-20 0.000306198 0.009042 -5.42101e-20 
0.000449672 0.00898303 -2.30393e-19 -0.00144728 0.00905558 1.38913e-19 -0.00131739 0.00902692 1.93124e-19 
-0.00118712 0.00900008 1.42302e-19 -0.00105605 0.00897442 1.01644e-19 -0.000923896 0.00894928 -3.38813e-21 
-0.00079043 0.00892396 3.86247e-19 -0.00065551 0.00889776 3.04932e-19 -0.000519067 0.00886996 -3.32037e-19 
-0.000381117 0.00883985 -1.32137e-19 -0.000241781 0.00880675 -1.4569e-19 -0.000101302 0.00877003 -1.35525e-20 
3.99239e-05 0.00872917 3.59142e-19 0.000181329 0.00868379 -7.7927e-20 0.000322154 0.00863382 4.74338e-20 
0.000461451 0.00857952 1.82959e-19 -0.00141711 0.00864141 -2.27005e-19 -0.00128705 0.00861401 -1.69407e-19 
-0.00115673 0.00858784 1.18585e-19 -0.00102577 0.00856242 -9.82558e-20 -0.000893915 0.00853722 1.59242e-19 
-0.000760974 0.00851167 -7.7927e-20 -0.00062684 0.00848518 6.43745e-20 -0.000491484 0.00845715 -1.21973e-19 
-0.00035497 0.00842702 -2.37169e-20 -0.000217459 0.00839423 9.82558e-20 -7.92293e-05 0.00835834 3.72694e-19 
5.93117e-05 0.00831898 -1.01644e-19 0.000197614 0.00827597 -1.35525e-20 0.000334984 0.00822941 -8.13152e-20 
0.000470603 0.00817968 -1.35525e-20 -0.00138946 0.00822659 1.05032e-19 -0.00125931 0.00820064 -3.69306e-19 
-0.00112902 0.00817539 2.30393e-19 -0.00099826 0.0081505 1.79571e-19 -0.0008668 0.00812556 5.2516e-19 
-0.000734482 0.00810012 -4.94667e-19 -0.000601231 0.0080737 3.52366e-19 -0.000467053 0.00804583 1.01644e-19 
-0.00033204 0.00801606 -1.6263e-19 -0.000196377 0.00798399 6.50521e-19 -6.03533e-05 0.00794927 -6.77626e-21 
7.56329e-05 0.00791172 -3.998e-19 0.000211072 0.00787127 -1.6263e-19 0.000345351 0.00782814 -2.5411e-19 
0.000477776 0.00778277 3.55754e-19 -0.00136436 0.00781139 -9.14796e-20 -0.00123419 0.00778705 1.69407e-19 
-0.001104 0.00776292 1.05032e-19 -0.000973509 0.0077388 3.38813e-20 -0.000842504 0.00771439 -4.06576e-20 
-0.000710865 0.00768936 -6.40357e-19 -0.000578544 0.00766334 8.47033e-20 -0.00044557 0.00763596 1.49078e-19 
-0.000312053 0.00760689 2.37169e-20 -0.000178189 0.00757583 -6.36969e-19 -4.42606e-05 0.00754257 1.55854e-19 
8.93587e-05 0.00750701 -1.38913e-19 0.000222211 0.00746921 6.09864e-20 0.000353766 0.00742943 -1.35525e-19 
0.000483448 0.00738816 -4.09964e-19 -0.00134177 0.00739608 5.42101e-20 -0.00121166 0.00737342 -1.32137e-19 
-0.00108163 0.00735057 -1.35525e-20 -0.00095144 0.00732742 4.06576e-20 -0.000820924 0.00730379 -9.82558e-20 
-0.000689985 0.00727942 2.03288e-19 -0.000558598 0.00725407 -1.11808e-19 -0.000426808 0.00722746 -5.04832e-19 
-0.000294734 0.00719936 4.47233e-19 -0.00016257 0.00716956 -2.91379e-19 -3.05832e-05 0.00713794 3.59142e-19 
0.000100887 0.0071045 9.48677e-20 0.000231439 0.00706936 4.1674e-19 0.000360622 0.00703281 2.1684e-19 
0.000487966 0.00699535 -2.37169e-19 -0.00132163 0.00698084 -7.11508e-20 -0.00119162 0.00695992 -4.74338e-20 
-0.00106179 0.00693847 3.93023e-19 -0.00093193 0.00691645 1.79571e-19 -0.000801915 0.00689378 -2.10064e-19 
-0.000671672 0.00687031 -1.38913e-19 -0.000541192 0.00684586 9.48677e-20 -0.000410532 0.00682025 1.6263e-19 
-0.000279814 0.00679332 -1.0842e-19 -0.00014922 0.00676496 2.03288e-20 -1.89979e-05 0.00673513 5.0822e-20 
0.000110552 0.00670386 -2.13452e-19 0.000239084 0.00667134 -7.7927e-20 0.000366221 0.00663787 -1.35525e-19 
0.000491583 0.00660392 9.82558e-20 -0.0013038 0.00656587 -4.40457e-19 -0.00117394 0.0065467 9.82558e-20 
-0.00104433 0.0065267 -3.38813e-19 -0.000914823 0.00650595 -9.48677e-20 -0.000785305 0.0064844 -8.13152e-20 
-0.000655732 0.006462 1.28749e-19 -0.000526112 0.00643863 -1.96512e-19 -0.000396506 0.0064142 4.40457e-20 
-0.000267034 0.00638862 -1.18585e-19 -0.000137866 0.00636183 -4.40457e-20 -9.22244e-06 0.00633386 -1.38913e-19 
0.000118634 0.00630479 -1.76183e-19 0.00024541 0.00627481 2.03288e-19 0.000370795 0.00624425 7.45389e-20 
0.000494486 0.00621354 -2.30393e-19 -0.00128815 0.0061513 -2.77827e-19 -0.00115847 0.00613385 -6.43745e-20 
-0.00102911 0.00611536 -8.13152e-20 -0.000899943 0.00609595 -1.72795e-19 -0.000770904 0.00607565 -7.45389e-20 
-0.000641963 0.00605445 2.30393e-19 -0.00051314 0.00603232 0 -0.0003845 0.00600921 -2.57498e-19 
-0.000256155 0.00598509 3.69306e-19 -0.000128261 0.00595997 3.01544e-19 -1.01128e-06 0.0059339 -2.71051e-19 
0.000125368 0.00590701 8.13152e-20 0.000250631 0.0058795 1.38913e-19 0.000374527 0.00585167 -3.45589e-19 
0.000496815 0.00582394 6.77626e-21 -0.00127452 0.00573723 8.13152e-20 -0.00114504 0.00572146 4.74338e-20 
-0.00101592 0.00570449 -5.42101e-20 -0.000887099 0.00568648 8.13152e-20 -0.000758513 0.00566751 2.57498e-19 
-0.000630158 0.00564763 1.82959e-19 -0.000502062 0.00562684 -4.74338e-20 -0.000374291 0.00560516 2.37169e-19 
-0.000246952 0.0055826 -1.96512e-19 -0.000120182 0.00555921 1.11808e-19 5.84995e-06 0.00553506 -4.06576e-20 
0.000130953 0.00551031 1.32137e-19 0.000254923 0.00548516 -4.06576e-20 0.00037756 0.0054599 -6.09864e-20 
0.000498676 0.00543491 4.50622e-19 -0.00126272 0.00532375 -2.64274e-19 -0.00113346 0.0053096 -4.06576e-20 
-0.0010046 0.00529414 -2.71051e-19 -0.000876098 0.00527756 1.72795e-19 -0.000747934 0.00525998 -1.72795e-19 
-0.000620113 0.00524148 -9.82558e-20 -0.000492671 0.00522212 5.0822e-20 -0.000365674 0.00520195 -3.11708e-19 
-0.000239219 0.005181 3.21873e-19 -0.00011343 0.00515936 -7.11508e-20 1.15487e-05 0.00513714 3.04932e-20 
0.000135558 0.00511448 5.75982e-20 0.000258431 0.00509159 -2.50722e-19 0.00038001 0.00506875 -8.80914e-20 
0.000500151 0.00504629 -1.4569e-19 -0.0012526 0.0049109 1.32137e-19 -0.00112355 0.00489829 -2.03288e-19 
-0.000994941 0.00488431 2.37169e-19 -0.000866748 0.00486917 -6.43745e-20 -0.000738972 0.00485302 -3.38813e-21 
-0.000611631 0.00483597 2.30393e-19 -0.000484769 0.00481809 6.77626e-21 -0.000358452 0.00479947 3.15096e-19 
-0.000232769 0.00478017 -4.20128e-19 -0.000107827 0.0047603 2.71051e-19 1.62493e-05 0.00473998 -3.65918e-19 
0.000139329 0.00471935 8.47033e-20 0.000261278 0.00469863 7.45389e-20 0.000381972 0.00467806 6.77626e-21 
0.000501306 0.00465794 -8.47033e-20 -0.00124396 0.00449872 -1.6263e-19 -0.00111514 0.00448757 -4.74338e-20 
-0.000986771 0.00447503 -1.55854e-19 -0.000858864 0.00446132 -1.18585e-19 -0.000731439 0.00444661 -1.93124e-19 
-0.000604526 0.00443102 -2.10064e-19 -0.000478174 0.00441466 3.38813e-21 -0.000352449 0.00439762 1.11808e-19 
-0.00022743 0.00438 5.75982e-20 -0.000103214 0.0043619 -8.80914e-20 2.00964e-05 0.00434344 1.32137e-19 
0.000142392 0.00432479 -2.1684e-19 0.000263567 0.00430614 0 0.000383527 0.00428771 1.01644e-20 
0.000502195 0.00426977 5.0822e-20 -0.00123666 0.00408721 2.71051e-20 -0.00110806 0.00407742 -5.42101e-20 
-0.000979914 0.00406627 -1.69407e-20 -0.00085227 0.00405397 -2.1684e-19 -0.000725159 0.0040407 1.01644e-19 
-0.000598623 0.0040266 3.38813e-20 -0.000472715 0.00401177 -8.13152e-20 -0.000347498 0.00399633 -2.03288e-20 
-0.000223048 0.00398038 -2.37169e-20 -9.9447e-05 0.00396404 -1.05032e-19 2.32175e-05 0.00394742 -2.06676e-19 
0.000144857 0.00393069 6.77626e-21 0.000265389 0.00391401 -2.37169e-20 0.000384743 0.00389761 -6.77626e-20 
0.000502865 0.0038817 1.01644e-20 -0.00123054 0.00367635 -2.10064e-19 -0.00110214 0.00366784 5.75982e-20 
-0.000974209 0.00365802 3.38813e-21 -0.000846803 0.0036471 2.37169e-20 -0.000719971 0.00363526 6.77626e-21 
-0.000593763 0.00362264 4.74338e-20 -0.000468236 0.00360935 -1.38913e-19 -0.000343454 0.00359552 -8.47033e-20 
-0.000219484 0.00358123 -1.89735e-19 -9.64003e-05 0.00356662 1.18585e-19 2.57247e-05 0.00355181 6.77626e-21 
0.00014682 0.00353693 3.72694e-20 0.000266821 0.00352216 7.45389e-20 0.000385677 0.00350767 -1.4569e-19 
0.000503356 0.00349367 -2.03288e-20 -0.00122545 0.00326612 4.74338e-20 -0.00109724 0.0032588 -3.38813e-20 
-0.000969507 0.00325025 1.35525e-19 -0.000842314 0.00324068 -7.11508e-20 -0.000715725 0.00323025 2.47334e-19 
-0.0005898 0.0032191 -3.38813e-20 -0.000464598 0.00320735 8.13152e-20 -0.000340182 0.0031951 1.35525e-20 
-0.000216615 0.00318248 -6.77626e-20 -9.39618e-05 0.00316958 4.40457e-20 2.77167e-05 0.00315653 -7.7927e-20 
0.000148363 0.00314345 5.42101e-20 0.00026793 0.0031305 -1.38913e-19 0.000386381 0.00311784 2.03288e-20 
0.000503702 0.00310564 3.38813e-20 -0.00122127 0.00285647 0 -0.00109323 0.00285026 5.0822e-20 
-0.000965673 0.00284293 -5.0822e-20 -0.000838668 0.00283467 2.03288e-20 -0.000712289 0.00282562 -1.28749e-19 
-0.000586604 0.00281593 -6.77626e-20 -0.000461676 0.00280569 8.47033e-20 -0.000337566 0.00279503 -7.45389e-20 
-0.000214332 0.00278404 -1.01644e-20 -9.20333e-05 0.00277283 -2.37169e-20 2.92794e-05 0.0027615 1.05032e-19 
0.00014956 0.00275018 -9.14796e-20 0.000268775 0.00273899 1.01644e-19 0.000386901 0.00272808 4.74338e-20 
0.000503934 0.00271759 1.35525e-20 -0.00121788 0.00244736 -4.74338e-20 -0.00109 0.00244218 4.40457e-20 
-0.00096259 0.00243601 3.72694e-20 -0.000835746 0.00242902 6.77626e-21 -0.000709546 0.00242133 -1.01644e-20 
-0.000584063 0.00241307 4.74338e-20 -0.000459361 0.00240435 -9.48677e-20 -0.000335502 0.00239525 5.0822e-20 
-0.000212541 0.00238588 -1.35525e-20 -9.05297e-05 0.00237633 4.74338e-20 3.04874e-05 0.00236669 -1.01644e-20 
0.000150475 0.00235707 5.75982e-20 0.000269407 0.00234758 -5.75982e-20 0.000387273 0.00233835 -4.06576e-20 
0.000504079 0.00232949 7.45389e-20 -0.00121517 0.00203872 -1.05032e-19 -0.00108743 0.00203451 2.71051e-20 
-0.000960154 0.00202945 3.38813e-21 -0.000833446 0.00202369 2.37169e-20 -0.000707395 0.00201733 -2.03288e-20 
-0.000582077 0.00201049 0 -0.000457559 0.00200325 -3.04932e-20 -0.000333902 0.0019957 3.72694e-20 
-0.00021116 0.00198793 -3.38813e-21 -8.93782e-05 0.00198001 1.69407e-20 3.14041e-05 0.00197203 1.69407e-20 
0.000151159 0.00196408 -1.01644e-19 0.000269869 0.00195625 4.74338e-20 0.000387532 0.00194864 0 
0.000504161 0.00194135 -7.7927e-20 -0.00121308 0.00163048 6.09864e-20 -0.00108545 0.00162718 -5.42101e-20 
-0.000958279 0.00162319 -9.14796e-20 -0.000831682 0.00161862 2.37169e-20 -0.00070575 0.00161357 3.04932e-20 
-0.000580564 0.00160812 -3.04932e-20 -0.000456191 0.00160236 1.35525e-20 -0.000332693 0.00159634 -3.38813e-20 
-0.000210121 0.00159015 4.74338e-20 -8.85178e-05 0.00158385 4.74338e-20 3.20828e-05 0.0015775 6.43745e-20 
0.000151658 0.00157118 6.77626e-20 0.000270199 0.00156496 0 0.000387706 0.00155892 -2.37169e-20 
0.0005042 0.00155315 6.43745e-20 -0.00121152 0.00122256 1.35525e-20 -0.00108398 0.00122013 1.35525e-19 
-0.000956893 0.00121717 -5.42101e-20 -0.000830383 0.00121377 5.75982e-20 -0.000704543 0.00121001 -5.42101e-20 
-0.000579456 0.00120594 2.37169e-20 -0.000455193 0.00120163 3.72694e-20 -0.000331814 0.00119713 -5.0822e-20 
-0.000209369 0.0011925 -1.01644e-20 -8.78993e-05 0.00118779 -4.40457e-20 3.25665e-05 0.00118305 3.38813e-21 
0.00015201 0.00117833 0 0.000270424 0.0011737 -3.38813e-21 0.000387818 0.0011692 4.74338e-20 
0.000504214 0.00116491 -9.14796e-20 -0.00121044 0.000814903 3.04932e-20 -0.00108297 0.000813302 5.0822e-20 
-0.000955943 0.000811345 4.40457e-20 -0.000829494 0.00080909 -7.45389e-20 -0.000703718 0.000806589 0 
-0.000578702 0.000803885 -4.74338e-20 -0.000454515 0.00080102 2.37169e-20 -0.000331219 0.00079803 -2.37169e-20 
-0.000208863 0.000794951 1.01644e-20 -8.74846e-05 0.000791819 8.13152e-20 3.28884e-05 0.000788668 -6.77626e-21 
0.00015224 0.000785535 -6.77626e-21 0.000270569 0.000782458 2.71051e-20 0.000387884 0.000779476 5.42101e-20 
0.000504213 0.00077663 -3.38813e-21 -0.00120981 0.000407409 2.37169e-20 -0.00108237 0.000406614 -6.09864e-20 
-0.000955388 0.000405641 -5.42101e-20 -0.000828976 0.000404518 4.06576e-20 -0.000703239 0.00040327 -2.37169e-20 
-0.000578264 0.000401921 2.71051e-20 -0.000454123 0.00040049 -6.77626e-21 -0.000330875 0.000398997 -1.69407e-20 
-0.000208571 0.00039746 -2.03288e-20 -8.72465e-05 0.000395897 -3.72694e-20 3.30721e-05 0.000394324 2.71051e-20 
0.000152371 0.000392761 -1.35525e-20 0.000270649 0.000391227 1.35525e-20 0.000387919 0.00038974 -3.38813e-21 
0.00050421 0.000388322 3.04932e-20 -0.00168627 0.0117101 -8.87691e-19 -0.00172997 0.0115261 -1.26039e-18 
-0.00156018 0.0116823 2.1684e-19 -0.00160379 0.0114942 -5.0822e-19 -0.00143321 0.0116597 1.61275e-18 
-0.00147684 0.0114684 1.10453e-18 -0.00130515 0.0116411 -1.95834e-18 -0.00134887 0.0114469 7.45389e-20 
-0.00117578 0.011625 1.21973e-19 -0.00121964 0.0114286 -1.91768e-18 -0.00104485 0.0116104 -9.21572e-19 
-0.00108888 0.0114121 -1.92446e-18 -0.000912059 0.0115961 -3.25261e-19 -0.000956292 0.0113964 -8.74138e-19 
-0.000777001 0.011581 9.28348e-19 -0.000821527 0.0113803 1.11131e-18 -0.000639191 0.0115638 -1.00966e-18 
-0.000684156 0.0113627 -6.97955e-19 -0.000498035 0.011543 5.69206e-19 -0.000543675 0.011342 -6.91179e-19 
-0.000352839 0.011517 -1.3417e-18 -0.000399505 0.0113169 -2.1684e-19 -0.000202837 0.0114836 -8.3348e-19 
-0.000251024 0.0112854 2.03288e-19 -4.72623e-05 0.0114402 -1.06387e-18 -9.76229e-05 0.0112452 -1.89735e-18 
0.000114491 0.0113836 5.35325e-19 6.11621e-05 0.0111938 7.72494e-19 0.000282591 0.0113101 3.38813e-20 
0.00022544 0.011128 9.62229e-19 0.000394629 0.0110446 -2.30393e-19 -0.00164749 0.0113078 -1.47045e-18 
-0.00169143 0.0111228 -7.86047e-19 -0.00152053 0.0112785 5.6243e-19 -0.00156437 0.0110901 4.13352e-19 
-0.00139268 0.0112542 1.45012e-18 -0.00143661 0.0110628 1.02999e-18 -0.00126365 0.0112335 -6.57298e-19 
-0.00130781 0.0110396 1.14519e-18 -0.00113316 0.0112151 -4.13352e-19 -0.00117765 0.0110192 2.43945e-19 
-0.00100091 0.0111979 -1.21973e-18 -0.00104582 0.0110005 -8.13152e-20 -0.000866576 0.0111807 -4.26905e-19 
-0.000912027 0.0109822 -3.86247e-19 -0.000729785 0.0111625 7.72494e-19 -0.00077592 0.0109632 -3.25261e-19 
-0.000590102 0.0111419 -1.0571e-18 -0.000637123 0.0109425 -2.77827e-19 -0.000447044 0.0111174 3.18484e-19 
-0.000495229 0.0109185 1.49078e-19 -0.0003001 0.0110875 1.35525e-19 -0.000349819 0.0108899 8.60585e-19 
-0.000148788 0.0110501 -6.03087e-19 -0.000200506 0.0108549 -2.71051e-20 7.24855e-06 0.0110031 -1.07065e-18 
-4.70159e-05 0.0108116 1.89735e-19 0.000168074 0.0109438 1.03677e-18 0.000110682 0.0107578 5.21772e-19 
0.000333207 0.0108696 -1.96512e-19 0.000272184 0.0106913 -1.18585e-18 0.000436391 0.0106099 -3.52366e-19 
-0.00160847 0.0109029 -1.82281e-18 -0.001653 0.0107168 -1.46367e-18 -0.00148074 0.0108727 1.72795e-18 
-0.00152515 0.0106837 -6.77626e-20 -0.00135214 0.010847 -1.96512e-19 -0.0013967 0.0106555 1.37558e-18 
-0.00122233 0.0108245 5.0822e-19 -0.00126722 0.0106309 -9.48677e-20 -0.00109098 0.0108041 -8.13152e-19 
-0.00113636 0.0106088 1.89735e-19 -0.000957789 0.0107846 -3.38813e-20 -0.0010038 0.010588 -1.02322e-18 
-0.000822433 0.0107649 -8.80914e-20 -0.000869238 0.0105675 6.1664e-19 -0.00068458 0.0107439 -6.36969e-19 
-0.000732359 0.0105461 6.30193e-19 -0.000543881 0.0107203 -1.10453e-18 -0.000592864 0.0105226 -1.27394e-18 
-0.000399988 0.0106927 8.80914e-19 -0.000450456 0.0104959 -9.82558e-19 -0.000252587 0.0106597 -9.01243e-19 
-0.000304882 0.0104646 -8.47033e-19 -0.00010147 0.0106196 -8.60585e-19 -0.000155978 0.0104272 -1.15874e-18 
5.33723e-05 0.0105704 1.55854e-19 -3.75241e-06 0.010382 -1.96512e-19 0.000211596 0.0105104 2.03288e-19 
0.0001515 0.0103275 1.69407e-19 0.000372309 0.0104377 8.67362e-19 0.000309046 0.010262 1.96512e-18 
0.000467542 0.0101845 1.84992e-18 -0.00156998 0.0104956 -1.46367e-18 -0.00161536 0.0103082 -1.25361e-18 
-0.00144157 0.010465 1.46367e-18 -0.00148684 0.0102753 -1.4569e-18 -0.00131237 0.0104383 -1.07743e-18 
-0.00135782 0.0102466 8.74138e-19 -0.00118197 0.0104145 1.55176e-18 -0.00122783 0.0102211 1.09775e-18 
-0.00105004 0.0103924 -1.14519e-18 -0.0010965 0.0101976 1.98545e-18 -0.000916274 0.0103709 1.42302e-19 
-0.000963511 0.0101752 1.47045e-18 -0.000780376 0.010349 -1.96512e-19 -0.000828578 0.0101528 -3.52366e-19 
-0.000642075 0.0103257 -2.30393e-19 -0.000691444 0.0101293 3.72694e-19 -0.000501114 0.0102996 -1.11131e-18 
-0.000551879 0.0101037 1.96512e-19 -0.000357282 0.0102697 2.30393e-19 -0.000409704 0.0100749 -7.7927e-19 
-0.00021045 0.0102345 -7.72494e-19 -0.000264813 0.0100416 1.35525e-20 -6.06371e-05 0.0101927 -3.93023e-19 
-0.00011723 0.0100027 5.01444e-19 9.19029e-05 0.0101428 1.35525e-19 3.28241e-05 0.00995685 -4.20128e-19 
0.000246561 0.0100836 3.86247e-19 0.00018484 0.00990285 2.71051e-20 0.000402241 0.0100138 8.60585e-19 
0.000337915 0.00983976 1.49078e-19 0.000490654 0.00976713 1.01644e-19 -0.00153264 0.0100861 -8.87691e-19 
-0.00157908 0.00989737 -6.77626e-19 -0.00140366 0.0100556 3.72694e-19 -0.00145 0.00986515 5.35325e-19 
-0.00127399 0.0100285 7.11508e-19 -0.00132052 0.00983647 1.484e-18 -0.0011432 0.0100037 1.91768e-18 
-0.00119018 0.00981038 9.08019e-19 -0.00101095 0.00998022 1.15874e-18 -0.0010586 0.00978593 7.92823e-19 
-0.000876939 0.00995715 -3.32037e-19 -0.000925456 0.0097622 4.06576e-20 -0.000740928 0.00993349 9.75782e-19 
-0.00079051 0.00973826 3.79471e-19 -0.000602701 0.00990823 -8.80914e-20 -0.00065355 0.00971318 9.89334e-19 
-0.000462097 0.00988032 -8.80914e-19 -0.000514427 0.00968599 -1.11131e-18 -0.000319026 0.00984869 -6.09864e-19 
-0.00037306 0.0096557 -1.68729e-18 -0.000173513 0.00981221 3.25261e-19 -0.000229468 0.00962129 1.96512e-19 
-2.57476e-05 0.00976975 6.30193e-19 -8.38164e-05 0.00958175 8.3348e-19 0.00012384 0.00972026 -5.82759e-19 
6.35322e-05 0.00953613 3.93023e-19 0.000274499 0.00966287 -2.03288e-20 0.00021195 0.00948364 -2.10064e-19 
0.000425081 0.0095971 -3.11708e-19 0.000360482 0.00942378 3.11708e-19 0.000507804 0.00935657 2.50722e-19 
-0.00149694 0.00967496 -1.1994e-18 -0.00154459 0.00948479 -6.57298e-19 -0.00136751 0.00964493 6.77626e-21 
-0.00141506 0.00945363 -5.55654e-19 -0.00123751 0.00961764 -3.59142e-19 -0.00128526 0.00942529 -1.35525e-20 
-0.0011065 0.00959222 -1.76183e-19 -0.00115471 0.00939898 -1.66018e-18 -0.000974148 0.00956782 5.28549e-19 
-0.00102305 0.00937392 3.11708e-19 -0.000840191 0.00954355 -1.39591e-18 -0.000889993 0.00934929 -7.99599e-19 
-0.00070442 0.00951855 4.5401e-19 -0.00075532 0.00932429 -1.2265e-18 -0.000566686 0.00949191 3.59142e-19 
-0.000618877 0.00929806 8.19928e-19 -0.000426909 0.00946272 -8.87691e-19 -0.000480579 0.00926979 3.38813e-19 
-0.000285104 0.00943007 2.64274e-19 -0.00034043 0.00923862 -4.67562e-19 -0.000141408 0.00939303 -3.93023e-19 
-0.000198545 0.00920371 -5.35325e-19 3.87041e-06 0.00935073 6.57298e-19 -5.51823e-05 0.00916428 -3.998e-19 
0.000150204 0.00930246 2.23617e-19 8.92123e-05 0.00911965 3.18484e-19 0.000296794 0.00924772 -2.91379e-19 
0.000233968 0.00906934 -1.28749e-19 0.000442535 0.00918642 3.38813e-20 0.000378156 0.0090132 -1.35525e-18 
0.000520587 0.00895155 5.14996e-19 -0.00146326 0.00926233 -6.91179e-19 -0.00151222 0.00907078 -1.35525e-20 
-0.00133351 0.00923314 1.82959e-19 -0.00138235 0.00904099 7.7927e-19 -0.00120329 0.00920607 3.86247e-19 
-0.00125233 0.00901331 1.1994e-18 -0.00107221 0.00918041 8.80914e-20 -0.0011217 0.00898715 5.14996e-19 
-0.000939955 0.00915542 3.52366e-19 -0.000990125 0.00896183 -6.77626e-21 -0.000806279 0.00913035 3.998e-19 
-0.000857337 0.00893669 6.84403e-19 -0.000671023 0.00910444 9.28348e-19 -0.000723158 0.00891101 1.19262e-18 
-0.000534092 0.00907692 2.71051e-19 -0.00058748 0.0088841 -2.64274e-19 -0.000395477 0.00904699 -2.10064e-19 
-0.000450275 0.00885524 -6.36969e-19 -0.000255266 0.00901391 -1.76183e-19 -0.000311609 0.00882372 -7.99599e-19 
-0.000113678 0.00897695 2.03288e-20 -0.000171662 0.00878888 -5.35325e-19 2.89122e-05 0.00893547 5.42101e-20 
-3.07499e-05 0.00875015 7.11508e-19 0.000171938 0.00888902 -8.60585e-19 0.000110649 0.00870705 9.75782e-19 
0.000314616 0.00883739 -5.6243e-19 0.000251871 0.00865937 -2.84603e-19 0.00045594 0.00878076 2.57498e-19 
0.000392061 0.00860717 5.28549e-19 0.000530189 0.00855096 5.42101e-20 -0.00143189 0.00884859 1.35525e-19 
-0.00148219 0.0086557 -3.38813e-19 -0.0013019 0.00882054 -3.93023e-19 -0.00135209 0.00862752 -5.01444e-19 
-0.00117159 0.008794 4.87891e-19 -0.00122195 0.0086008 4.06576e-19 -0.00104057 0.00876842 3.998e-19 
-0.00109135 0.00857507 4.33681e-19 -0.000908548 0.00874321 -2.37169e-19 -0.000959969 0.00854983 5.21772e-19 
-0.000775329 0.00871773 2.1684e-19 -0.000827589 0.00852453 4.74338e-19 -0.000640786 0.00869133 2.50722e-19 
-0.00069406 0.00849858 3.59142e-19 -0.00050487 0.00866337 -6.30193e-19 -0.000559313 0.00847139 -1.82959e-19 
-0.000367625 0.00863319 -7.11508e-19 -0.000423364 0.00844238 -3.93023e-19 -0.000229193 0.0086002 -6.77626e-20 
-0.000286324 0.00841099 1.21973e-19 -8.98381e-05 0.00856384 1.1994e-18 -0.000148411 0.0083767 1.11131e-18 
5.00343e-05 0.00852368 8.47033e-19 -9.96539e-06 0.00833911 5.82759e-19 0.000189862 0.00847946 -4.47233e-19 
0.000128534 0.00829793 -5.75982e-19 0.000328915 0.00843118 -4.13352e-19 0.000266465 0.00825312 -3.45589e-19 
0.000466311 0.00837919 1.35525e-20 0.000403069 0.0082049 2.03288e-19 0.000537475 0.00815386 3.11708e-19 
-0.00140297 0.00843406 0 -0.00145462 0.00823991 3.38813e-19 -0.00127285 0.00840736 -8.26704e-19 
-0.00132438 0.00821351 -5.48877e-19 -0.00114253 0.00838163 6.7085e-19 -0.0011942 0.00818795 -3.93023e-19 
-0.00101167 0.00835644 1.01644e-19 -0.00106371 0.00816293 2.03288e-19 -0.000880001 0.00833134 1.29427e-18 
-0.000932629 0.00813807 1.89735e-18 -0.000747362 0.0083058 -8.19928e-19 -0.000800755 0.00811293 -8.06375e-19 
-0.00061366 0.0082793 3.18484e-19 -0.000667974 0.00808706 -2.64274e-19 -0.000478887 0.00825131 2.03288e-19 
-0.000534254 0.00805997 1.20617e-18 -0.00034312 0.00822131 -6.77626e-20 -0.000399641 0.00803121 6.77626e-20 
-0.000206535 0.00818884 1.17229e-18 -0.000264273 0.00800034 8.87691e-19 -6.94182e-05 0.00815349 6.50521e-19 
-0.000128387 0.00796698 1.28749e-18 6.7825e-05 0.008115 -8.94467e-19 7.67483e-06 0.00793086 -1.09098e-18 
0.000204663 0.00807326 -5.35325e-19 0.000143458 0.00789185 -1.39591e-18 0.000340441 0.00802842 -4.06576e-19 
0.000278399 0.00785002 -7.72494e-19 0.000474404 0.0079809 6.84403e-19 0.000411841 0.00780569 2.10064e-19 
0.000543066 0.00775948 7.58942e-19 -0.00137659 0.00801902 -3.11708e-19 -0.00142955 0.0078237 -8.13152e-20 
-0.00124642 0.00799386 -1.82959e-19 -0.00129926 0.00779918 4.33681e-19 -0.00111618 0.00796915 4.87891e-19 
-0.00116912 0.00777497 2.77827e-19 -0.000985544 0.00794462 3.65918e-19 -0.00103881 0.00775088 8.26704e-19 
-0.000854305 0.00791991 5.42101e-19 -0.000908079 0.00772666 -3.25261e-19 -0.000722322 0.00789464 -1.83637e-18 
-0.000776768 0.00770198 -1.02322e-18 -0.000589533 0.00786838 8.19928e-19 -0.000644789 0.00767649 -1.21295e-18 
-0.000455957 0.00784072 4.13352e-19 -0.000512133 0.00764984 -2.10064e-19 -0.000321696 0.00781126 -1.96512e-19 
-0.000378868 0.00762165 9.35124e-19 -0.000186942 0.00777966 -1.42302e-19 -0.000245148 0.00759162 -1.21295e-18 
-5.19828e-05 0.00774564 1.0842e-19 -0.000111211 0.00755948 -1.17907e-18 8.27942e-05 0.00770907 -9.62229e-19 
2.26153e-05 0.00752508 3.38813e-20 0.000216904 0.00766994 -2.98156e-19 0.000155913 0.00748838 3.32037e-19 
0.000349776 0.00762849 -6.23416e-19 0.000288187 0.00744955 -4.74338e-20 0.000480776 0.00758521 -4.87891e-19 
0.000418879 0.00740894 -8.67362e-19 0.000547404 0.00736719 -7.38613e-19 -0.00135275 0.00760374 -2.84603e-19 
-0.00140696 0.00740734 -3.38813e-19 -0.00122261 0.00758023 -2.37169e-19 -0.00127669 0.00738477 -1.89735e-19 
-0.00109249 0.00755672 1.35525e-19 -0.00114665 0.00736202 1.28749e-19 -0.000962146 0.00753307 9.48677e-20 
-0.00101657 0.00733905 -4.26905e-19 -0.000831383 0.00750902 4.06576e-20 -0.00088623 0.00731568 -2.10064e-19 
-0.000700093 0.00748429 -1.12486e-18 -0.00075551 0.00729171 -4.74338e-19 -0.00056824 0.00745857 1.35525e-19 
-0.000624346 0.00726689 3.38813e-19 -0.000435863 0.00743154 -3.45589e-19 -0.000492747 0.00724094 -8.80914e-19 
-0.000303077 0.00740293 5.0822e-19 -0.000360796 0.00721361 -2.23617e-19 -0.000170078 0.00737247 -1.25361e-18 
-0.000228648 0.00718468 -1.15196e-19 -3.71409e-05 0.00734001 8.40257e-19 -9.65343e-05 0.00715398 3.59142e-19 
9.53758e-05 0.0073055 -3.25261e-19 3.5241e-05 0.00712145 6.84403e-19 0.000227042 0.00726904 9.08019e-19 
0.000166306 0.00708713 1.17229e-18 0.000357369 0.00723089 4.67562e-19 0.000296231 0.00705124 1.11808e-18 
0.000485834 0.00719156 -1.09775e-18 0.000424554 0.00701416 -2.64274e-19 0.000550803 0.00697648 -1.11131e-18 
-0.0013314 0.00718844 -1.89735e-19 -0.00138678 0.00699108 3.93023e-19 -0.00120134 0.00716665 -3.79471e-19 
-0.00125659 0.00697045 -1.0842e-19 -0.0010714 0.00714448 9.48677e-19 -0.00112669 0.00694926 5.48877e-19 
-0.000941374 0.00712188 3.25261e-19 -0.000996871 0.00692753 9.08019e-19 -0.000811108 0.00709871 -1.00289e-18 
-0.000866948 0.00690521 3.65918e-19 -0.000680519 0.00707477 3.32037e-19 -0.000736824 0.00688216 -4.67562e-19 
-0.000549591 0.00704984 -2.84603e-19 -0.000606459 0.00685822 2.71051e-20 -0.000418374 0.0070237 -7.7927e-19 
-0.000475878 0.00683321 6.30193e-19 -0.00028699 0.00699616 5.28549e-19 -0.00034517 0.00680696 1.21973e-19 
-0.000155629 0.00696706 -2.91379e-19 -0.000214487 0.00677932 -3.86247e-19 -2.45473e-05 0.00693632 8.53809e-19 
-8.40446e-05 0.00675023 3.86247e-19 0.000105934 0.00690397 -8.13152e-20 4.58825e-05 0.00671966 -2.91379e-19 
0.000235442 0.00687014 6.43745e-19 0.000174969 0.00668774 -7.92823e-19 0.000363563 0.00683515 6.09864e-20 
0.000302851 0.0066547 -5.82759e-19 0.000489874 0.00679948 -1.49078e-19 0.000429147 0.00662092 -2.37169e-19 
0.000553485 0.00658696 9.48677e-20 -0.00131243 0.00677332 -6.91179e-19 -0.00136889 0.0065751 9.48677e-20 
-0.00118249 0.00675327 -1.35525e-20 -0.00123883 0.00655639 -9.82558e-19 -0.00105277 0.00673254 -2.03288e-20 
-0.00110912 0.0065368 -6.09864e-19 -0.000923087 0.00671114 2.57498e-19 -0.000979574 0.00651642 -5.96311e-19 
-0.000793322 0.00668901 -5.28549e-19 -0.000850069 0.00649528 -3.65918e-19 -0.000663418 0.00666605 2.10064e-19 
-0.000720526 0.00647331 1.55854e-19 -0.000533375 0.00664212 -9.48677e-20 -0.000590925 0.00645044 -4.67562e-19 
-0.000403253 0.00661708 5.69206e-19 -0.000461301 0.00642655 -2.03288e-20 -0.000273172 0.00659081 -3.72694e-19 
-0.000331744 0.00640156 1.0842e-19 -0.00014331 0.00656322 1.76183e-19 -0.000202399 0.00637538 -7.31836e-19 
-1.38998e-05 0.00653431 -1.28749e-19 -7.34628e-05 0.00634799 -3.38813e-19 0.000114776 0.00650414 -6.23416e-19 
5.48224e-05 0.00631945 -9.14796e-19 0.000242398 0.00647291 9.48677e-20 0.000182177 0.00628989 -1.0842e-19 
0.000368624 0.00644091 -1.0842e-19 0.000308296 0.00625958 3.998e-19 0.000493114 0.00640861 -6.77626e-20 
0.000432871 0.00622888 5.42101e-20 0.000555609 0.0061983 -4.81115e-19 -0.00129572 0.00635853 -1.38236e-18 
-0.00135316 0.00615957 -6.77626e-19 -0.00116594 0.00634022 -4.74338e-20 -0.00122326 0.00614271 -3.65918e-19 
-0.00103645 0.00632098 -7.86047e-19 -0.00109376 0.00612473 -2.98156e-19 -0.000907116 0.00630088 -6.57298e-19 
-0.000964506 0.00610577 -4.5401e-19 -0.000777841 0.00627995 -3.93023e-19 -0.00083541 0.00608591 -1.35525e-19 
-0.000648589 0.00625813 4.60786e-19 -0.000706421 0.00606516 4.81115e-19 -0.000519376 0.00623536 -6.09864e-19 
-0.000577534 0.0060435 3.59142e-19 -0.000390265 0.00621158 -5.55654e-19 -0.000448791 0.00602089 -8.80914e-20 
-0.000261371 0.00618672 3.52366e-19 -0.000320281 0.00599728 0 -0.000132859 0.00616076 2.37169e-19 
-0.00019214 0.00597266 1.34848e-18 -4.93522e-06 0.00613373 -2.03288e-19 -6.45415e-05 0.00594705 2.77827e-19 
0.000122157 0.00610575 -1.69407e-19 6.23023e-05 0.00592055 -3.45589e-19 0.000248147 0.00607702 5.01444e-19 
0.000188155 0.00589331 4.74338e-19 0.000372757 0.00604785 -5.0822e-19 0.000312765 0.0058656 -6.30193e-19 
0.000495715 0.00601865 -6.09864e-20 0.000435886 0.00583776 -1.28749e-19 0.00055729 0.00581026 -3.25261e-19 
-0.00128109 0.00594419 -3.79471e-19 -0.00133943 0.00574459 -4.20128e-19 -0.00115151 0.00592759 -2.03288e-19 
-0.00120972 0.00572951 4.26905e-19 -0.00102227 0.00590987 -9.48677e-20 -0.00108044 0.00571312 -1.89735e-19 
-0.000893278 0.00589115 -3.65918e-19 -0.00095148 0.00569561 -1.49078e-19 -0.00076447 0.0058715 2.91379e-19 
-0.000822777 0.00567711 6.09864e-19 -0.000635828 0.00585095 5.42101e-19 -0.000694306 0.00565768 7.99599e-19 
-0.000507377 0.00582948 2.03288e-20 -0.000566074 0.00563735 5.42101e-20 -0.000379184 0.00580707 4.06576e-20 
-0.00043813 0.00561611 3.52366e-19 -0.000251357 0.00578373 4.94667e-19 -0.00031056 0.00559399 -1.49078e-19 
-0.000124043 0.00575946 6.97955e-19 -0.000183485 0.005571 -1.35525e-19 2.57593e-06 0.00573436 -6.97955e-19 
-5.70618e-05 0.00554722 -1.89735e-19 0.000128293 0.00570854 5.96311e-19 6.85301e-05 0.00552275 5.55654e-19 
0.000252884 0.00568222 1.35525e-20 0.000193092 0.00549776 7.45389e-20 0.000376123 0.0056557 -3.79471e-19 
0.00031642 0.00547252 2.10064e-19 0.000497799 0.00562937 4.47233e-19 0.000438318 0.00544735 5.21772e-19 
0.000558615 0.00542265 7.92823e-19 -0.0012684 0.00553041 -4.74338e-19 -0.00132753 0.00533025 -5.55654e-19 
-0.00113903 0.00551546 -6.77626e-21 -0.00119804 0.00531685 -4.5401e-19 -0.00101004 0.00549925 -5.21772e-19 
-0.00106898 0.00530202 -7.04731e-19 -0.00088138 0.00548195 4.87891e-19 -0.000940305 0.00528598 -1.21973e-19 
-0.00075301 0.00546367 0 -0.000811974 0.00526889 -5.42101e-20 -0.000624928 0.00544447 2.37169e-19 
-0.000683979 0.00525084 -2.50722e-19 -0.000497168 0.00542439 -1.49078e-19 -0.000556341 0.00523191 -1.15196e-19 
-0.000369796 0.00540346 -1.15196e-19 -0.000429111 0.00521214 -4.67562e-19 -0.000242914 0.0053817 3.32037e-19 
-0.000302371 0.00519157 -9.48677e-20 -0.000116652 0.00535918 2.91379e-19 -0.000176233 0.00517027 3.11708e-19 
8.83397e-06 0.00533599 -3.93023e-19 -5.08296e-05 0.00514832 6.77626e-21 0.000133368 0.00531229 1.82959e-19 
7.36848e-05 0.00512585 2.30393e-19 0.000256767 0.00528829 -6.30193e-19 0.000197147 0.00510304 -3.72694e-19 
0.000378851 0.00526426 -3.86247e-19 0.000319392 0.00508014 -8.06375e-19 0.000499458 0.00524056 4.40457e-19 
0.000440268 0.00505745 -1.21973e-19 0.000559647 0.00503532 -6.64074e-19 -0.00125746 0.00511724 -2.91379e-19 
-0.00131729 0.00491661 3.93023e-19 -0.00112831 0.00510387 -4.40457e-19 -0.00118802 0.00490478 5.42101e-20 
-0.000999573 0.00508916 1.6263e-19 -0.00105919 0.00489146 4.47233e-19 -0.000871229 0.0050733 2.50722e-19 
-0.000930793 0.00487688 -4.74338e-20 -0.000743263 0.00505643 -3.38813e-19 -0.000802807 0.00486122 -6.09864e-20 
-0.000615689 0.00503865 3.93023e-19 -0.000675245 0.0048446 2.64274e-19 -0.000488545 0.00502003 1.28749e-19 
-0.000548137 0.00482713 3.79471e-19 -0.0003619 0.00500062 -1.42302e-19 -0.000421538 0.00480887 3.998e-19 
-0.000235845 0.0049805 -9.48677e-20 -0.000295525 0.0047899 -1.21973e-19 -0.000110496 0.00495974 5.28549e-19 
-0.000170198 0.0047703 -2.10064e-19 1.40144e-05 0.00493847 -8.53809e-19 -4.56727e-05 0.00475019 -3.72694e-19 
0.000137539 0.00491683 2.57498e-19 7.79222e-05 0.00472969 -5.6243e-19 0.000259931 0.00489504 -2.23617e-19 
0.000200453 0.00470899 6.77626e-21 0.000381047 0.00487336 -5.42101e-20 0.000321789 0.00468831 4.74338e-20 
0.000500765 0.00485209 -4.26905e-19 0.000441815 0.00466793 -2.64274e-19 0.000560438 0.00464816 2.57498e-19 
-0.0012481 0.00470473 -2.1684e-19 -0.00130855 0.00450369 1.89735e-19 -0.00111917 0.00469286 -5.01444e-19 
-0.0011795 0.00449333 -3.79471e-19 -0.000990681 0.0046796 7.45389e-20 -0.0010509 0.00448145 -2.91379e-19 
-0.000862634 0.00466518 -2.10064e-19 -0.000922759 0.00446831 -5.14996e-19 -0.000735038 0.00464975 -3.93023e-19 
-0.00079509 0.00445408 -7.99599e-19 -0.000607917 0.00463342 1.76183e-19 -0.000667915 0.00443892 -6.43745e-19 
-0.000481319 0.0046163 -1.55854e-19 -0.000541276 0.00442293 -8.80914e-20 -0.000355309 0.00459847 5.82759e-19 
-0.000415228 0.00440622 4.06576e-19 -0.000229971 0.00458001 -3.93023e-19 -0.000289845 0.00438888 2.84603e-19 
-0.000105406 0.00456103 1.49078e-19 -0.000165215 0.004371 7.45389e-20 1.82713e-05 0.00454164 -3.998e-19 
-4.14386e-05 0.00435271 -2.77827e-19 0.000140942 0.00452201 -2.64274e-19 8.13779e-05 0.00433413 -7.45389e-20 
0.000262487 0.00450233 1.35525e-19 0.000203126 0.00431545 -3.998e-19 0.000382796 0.00448285 -1.0842e-19 
0.000323705 0.00429688 -6.09864e-20 0.000501781 0.00446384 -1.28749e-19 0.000443026 0.00427866 3.04932e-19 
0.000561029 0.00426108 -1.55854e-19 -0.00124016 0.00429288 -2.84603e-19 -0.00130113 0.00409151 -2.03288e-20 
-0.00111144 0.00428242 -3.18484e-19 -0.0011723 0.0040825 -4.06576e-20 -0.000983189 0.00427058 -3.65918e-19 
-0.00104392 0.004072 1.01644e-19 -0.000855416 0.00425758 -6.23416e-19 -0.000916028 0.00406025 -5.82759e-19 
-0.000728153 0.00424359 -4.74338e-20 -0.000788646 0.00404745 -1.96512e-19 -0.000601434 0.00422875 -3.18484e-19 
-0.000661816 0.00403375 2.98156e-19 -0.000475312 0.00421315 -2.10064e-19 -0.000535586 0.00401927 -6.77626e-20 
-0.000349851 0.00419691 2.23617e-19 -0.000410016 0.00400412 -2.37169e-19 -0.000225129 0.00418013 -3.11708e-19 
-0.000285172 0.00398841 5.42101e-20 -0.000101233 0.00416291 -1.76183e-19 -0.000161136 0.00397225 -3.998e-19 
2.17404e-05 0.00414537 -1.28749e-19 -3.7992e-05 0.00395575 -6.03087e-19 0.000143693 0.00412769 -1.42302e-19 
8.41708e-05 0.00393906 -5.89535e-19 0.000264532 0.00411004 -6.77626e-20 0.000205266 0.00392233 2.03288e-20 
0.000384173 0.00409263 -1.0842e-19 0.000325217 0.00390576 -2.57498e-19 0.000502555 0.00407573 2.71051e-20 
0.00044396 0.00388957 -6.09864e-20 0.000561456 0.00387401 3.79471e-19 -0.00123346 0.0038817 -4.13352e-19 
-0.0012949 0.00368004 -5.69206e-19 -0.00110496 0.00387256 3.38813e-20 -0.00116628 0.00367227 -2.37169e-19 
-0.000976927 0.00386208 1.35525e-20 -0.00103811 0.00366308 8.13152e-20 -0.000849406 0.00385048 -3.79471e-19 
-0.000910437 0.00365269 1.01644e-19 -0.000722438 0.00383793 1.6263e-19 -0.000783312 0.00364129 1.15196e-19 
-0.000596072 0.00382456 1.49078e-19 -0.000656785 0.00362904 3.04932e-19 -0.000470362 0.00381051 -4.40457e-19 
-0.00053091 0.00361607 -4.06576e-20 -0.000345371 0.00379587 -1.21973e-19 -0.000405748 0.0036025 -2.77827e-19 
-0.000221172 0.00378075 -2.64274e-19 -0.000281363 0.00358842 -6.23416e-19 -9.78409e-05 0.00376528 8.80914e-20 
-0.000157827 0.00357396 -1.28749e-19 2.45415e-05 0.00374957 -4.13352e-19 -3.52133e-05 0.00355923 3.11708e-19 
0.000145896 0.00373377 6.77626e-20 8.64052e-05 0.00354437 1.21973e-19 0.000266149 0.00371806 1.01644e-19 
0.00020696 0.00352952 1.96512e-19 0.000385241 0.00370262 -2.98156e-19 0.000326394 0.00351486 -1.6263e-19 
0.000503131 0.00368768 1.15196e-19 0.000444665 0.00350059 -2.91379e-19 0.00056175 0.00348692 -2.43945e-19 
-0.00122788 0.00347116 -3.11708e-19 -0.00128971 0.00326925 3.72694e-19 -0.00109957 0.00346325 -6.77626e-21 
-0.00116129 0.00326262 1.49078e-19 -0.000971741 0.00345408 8.80914e-20 -0.00103331 0.00325466 1.21973e-19 
-0.000844445 0.00344384 -6.77626e-20 -0.000905838 0.00324558 3.59142e-19 -0.000717738 0.00343271 3.52366e-19 
-0.00077894 0.00323557 1.82959e-19 -0.000591677 0.00342082 1.01644e-19 -0.000652675 0.00322476 2.30393e-19 
-0.00046632 0.0034083 -1.15196e-19 -0.000527104 0.00321329 1.28749e-19 -0.000341729 0.00339526 -3.25261e-19 
-0.000402288 0.00320128 3.38813e-20 -0.00021797 0.00338181 -3.79471e-19 -0.000278288 0.00318883 -2.84603e-19 
-9.51114e-05 0.00336806 1.0842e-19 -0.00015517 0.00317605 -1.76183e-19 2.67795e-05 0.00335413 -1.35525e-19 
-3.29969e-05 0.00316306 1.35525e-19 0.000147639 0.00334016 2.30393e-19 8.81722e-05 0.00314998 -1.96512e-19 
0.000267412 0.00332631 -2.37169e-19 0.000208284 0.00313695 -1.76183e-19 0.000386055 0.00331274 -7.45389e-20 
0.000327296 0.00312412 -2.57498e-19 0.000503545 0.00329966 -6.77626e-20 0.000445183 0.00311167 1.49078e-19 
0.000561938 0.00309978 6.77626e-21 -0.00122325 0.00306122 3.38813e-20 -0.00128544 0.00285909 2.84603e-19 
-0.00109513 0.00305447 1.42302e-19 -0.0011572 0.00285352 -4.74338e-20 -0.000967489 0.00304654 2.37169e-19 
-0.00102939 0.00284672 8.13152e-20 -0.000840393 0.00303763 -1.42302e-19 -0.000902096 0.00283891 -8.80914e-20 
-0.000713913 0.00302789 2.57498e-19 -0.000775396 0.00283023 -2.43945e-19 -0.000588113 0.00301747 -4.33681e-19 
-0.000649356 0.00282085 -3.998e-19 -0.000463055 0.00300648 1.21973e-19 -0.000524042 0.00281087 2.71051e-20 
-0.000338799 0.00299503 -6.77626e-20 -0.000399515 0.00280041 7.45389e-20 -0.000215407 0.00298322 0 
-0.000275836 0.00278957 -2.64274e-19 -9.29394e-05 0.00297117 -6.77626e-20 -0.000153063 0.00277846 -3.38813e-20 
2.85468e-05 0.00295899 1.0842e-19 -3.12506e-05 0.00276718 4.74338e-20 0.000149001 0.00294679 -4.74338e-20 
8.95514e-05 0.00275583 5.42101e-20 0.000268382 0.00293473 -7.45389e-20 0.000209303 0.00274456 2.71051e-20 
0.000386662 0.00292295 6.09864e-20 0.000327974 0.00273349 3.38813e-19 0.00050383 0.00291162 4.06576e-20 
0.000445553 0.00272277 1.21973e-19 0.000562044 0.00271255 -3.38813e-20 -0.00121948 0.00265185 -7.45389e-20 
-0.00128196 0.00244952 -6.77626e-21 -0.00109153 0.00264617 3.04932e-19 -0.00115388 0.0024449 -4.74338e-20 
-0.000964044 0.00263943 -1.01644e-19 -0.00102623 0.00243921 1.89735e-19 -0.000837123 0.0026318 2.71051e-20 
-0.000899092 0.00243261 1.76183e-19 -0.000710838 0.00262344 -2.77827e-19 -0.000772561 0.00242525 -3.38813e-20 
-0.000585258 0.00261446 1.35525e-20 -0.000646711 0.00241727 8.13152e-20 -0.000460449 0.00260499 2.03288e-20 
-0.00052161 0.00240876 -1.69407e-19 -0.00033647 0.00259511 -2.03288e-20 -0.000397322 0.00239984 -1.42302e-19 
-0.000213381 0.00258493 -2.71051e-20 -0.000273906 0.00239059 3.38813e-20 -9.12332e-05 0.00257455 2.71051e-20 
-0.000151414 0.00238112 0 2.99235e-05 0.00256407 1.35525e-19 -2.98945e-05 0.00237151 -2.03288e-20 
0.000150049 0.00255361 2.03288e-20 9.06115e-05 0.00236187 1.6263e-19 0.000269115 0.00254328 -6.77626e-21 
0.000210074 0.0023523 -1.55854e-19 0.000387103 0.00253321 -1.15196e-19 0.000328473 0.00234293 -1.28749e-19 
0.000504016 0.00252355 8.13152e-20 0.000445807 0.00233387 -2.71051e-20 0.000562091 0.00232525 6.77626e-21 
-0.00121644 0.00224298 -3.38813e-19 -0.00127918 0.00204045 6.09864e-20 -0.00108864 0.0022383 1.6263e-19 
-0.00115125 0.00203673 -1.35525e-19 -0.000961297 0.00223269 1.42302e-19 -0.00102373 0.00203208 -4.06576e-20 
-0.000834524 0.00222631 6.77626e-21 -0.000896723 0.00202665 6.77626e-20 -0.000708402 0.0022193 -2.71051e-20 
-0.000770334 0.00202057 -1.21973e-19 -0.000583006 0.00221175 6.09864e-20 -0.00064464 0.00201396 8.80914e-20 
-0.000458401 0.00220377 -1.89735e-19 -0.000519714 0.00200691 -1.69407e-19 -0.000334649 0.00219545 1.96512e-19 
-0.000395619 0.00199951 -2.03288e-20 -0.000211803 0.00218688 -7.45389e-20 -0.000272413 0.00199184 2.84603e-19 
-8.9914e-05 0.00217815 1.6263e-19 -0.000150146 0.00198398 -1.35525e-20 3.09786e-05 0.00216934 -6.77626e-21 
-2.88601e-05 0.00197602 9.48677e-20 0.000150842 0.00216056 -3.38813e-20 9.14113e-05 0.00196805 -8.80914e-20 
0.000269657 0.00215191 3.38813e-20 0.000210645 0.00196014 -1.15196e-19 0.000387415 0.00214349 -1.55854e-19 
0.000328831 0.00195241 -2.03288e-20 0.000504127 0.00213543 -6.77626e-20 0.000445974 0.00194494 -7.45389e-20 
0.000562096 0.00193786 -6.77626e-20 -0.00121405 0.00183455 -1.6263e-19 -0.00127703 0.00163183 8.13152e-20 
-0.00108637 0.0018308 -1.49078e-19 -0.00114921 0.00162892 1.35525e-19 -0.000959151 0.00182629 -1.42302e-19 
-0.0010218 0.00162526 -3.93023e-19 -0.000832502 0.00182112 4.06576e-20 -0.000894903 0.00162097 -3.38813e-20 
-0.000706514 0.00181542 -3.38813e-20 -0.000768628 0.00161615 1.42302e-19 -0.000581265 0.00180928 6.77626e-21 
-0.000643059 0.00161089 6.77626e-21 -0.000456825 0.00180278 -2.03288e-20 -0.000518271 0.00160528 -1.15196e-19 
-0.000333253 0.001796 2.03288e-20 -0.000394329 0.00159938 -4.06576e-20 -0.000210601 0.00178902 1.21973e-19 
-0.000271288 0.00159327 8.13152e-20 -8.89149e-05 0.00178191 1.28749e-19 -0.000149196 0.00158701 2.57498e-19 
3.17704e-05 0.00177475 9.48677e-20 -2.80905e-05 0.00158067 1.82959e-19 0.000151429 0.00176762 -6.77626e-21 
9.19997e-05 0.00157433 3.32037e-19 0.000270049 0.0017606 -2.03288e-20 0.000211058 0.00156805 6.77626e-20 
0.000387628 0.00175378 -5.42101e-20 0.000329081 0.00156191 1.35525e-20 0.000504185 0.00174726 -2.71051e-20 
0.000446078 0.001556 8.80914e-20 0.000562078 0.00155039 8.80914e-20 -0.00121223 0.00142648 6.77626e-20 
-0.00127542 0.00122355 0 -0.00108465 0.00142363 6.09864e-20 -0.0011477 0.00122142 1.76183e-19 
-0.000957529 0.00142016 -2.91379e-19 -0.00102037 0.00121871 1.21973e-19 -0.000830978 0.00141617 1.42302e-19 
-0.00089356 0.00121552 -8.80914e-20 -0.000705096 0.00141177 -4.74338e-20 -0.000767374 0.00121193 -6.77626e-20 
-0.000579963 0.00140701 6.77626e-21 -0.0006419 0.00120801 -1.49078e-19 -0.000455649 0.00140198 7.45389e-20 
-0.000517217 0.00120381 1.96512e-19 -0.000332215 0.00139672 -2.30393e-19 -0.000393389 0.0011994 -4.74338e-20 
-0.000209712 0.00139131 1.6263e-19 -0.000270472 0.00119483 -1.96512e-19 -8.8181e-05 0.00138581 5.42101e-20 
-0.00014851 0.00119016 -1.76183e-19 3.23468e-05 0.00138026 4.74338e-20 -2.75395e-05 0.00118542 -1.21973e-19 
0.000151851 0.00137475 8.13152e-20 9.24165e-05 0.00118069 6.77626e-20 0.000270323 0.00136933 4.06576e-20 
0.000211345 0.001176 5.42101e-20 0.000387768 0.00136406 4.06576e-20 0.000329247 0.00117143 7.45389e-20 
0.000504209 0.00135904 -5.42101e-20 0.000446138 0.00116703 -6.77626e-20 0.000562049 0.00116286 -1.0842e-19 
-0.00121092 0.00101871 1.15196e-19 -0.00127431 0.00081555 1.35525e-19 -0.00108342 0.00101669 3.18484e-19 
-0.00114666 0.000814151 2.64274e-19 -0.000956367 0.00101424 3.38813e-20 -0.00101939 0.000812364 2.1684e-19 
-0.00082989 0.00101141 -6.09864e-20 -0.00089264 0.000810252 3.38813e-20 -0.000704085 0.00100828 -8.13152e-20 
-0.000766516 0.000807868 -1.76183e-19 -0.000579037 0.0010049 -2.03288e-20 -0.00064111 0.00080526 -6.09864e-20 
-0.000454816 0.00100131 1.42302e-19 -0.000516501 0.00080247 -2.71051e-20 -0.000331483 0.00099757 -5.42101e-20 
-0.000392753 0.000799538 -4.06576e-20 -0.000209088 0.000993718 -2.71051e-20 -0.000269921 0.000796499 -2.71051e-20 
-8.76684e-05 0.000989797 8.80914e-20 -0.00014805 0.000793389 1.82959e-19 3.2746e-05 0.000985853 6.77626e-21 
-2.71712e-05 0.000790243 1.15196e-19 0.000152139 0.000981931 6.77626e-21 9.26925e-05 0.000787097 -5.42101e-20 
0.000270505 0.000978077 4.06576e-20 0.000211532 0.000783987 4.74338e-20 0.000387856 0.000974341 2.71051e-19 
0.000329352 0.000780953 1.21973e-19 0.000504214 0.000970774 -1.01644e-19 0.00044617 0.000778033 1.49078e-19 
0.00056202 0.00077527 -3.38813e-20 -0.00121007 0.00061114 8.13152e-20 -0.00127366 0.000407729 -1.35525e-20 
-0.00108262 0.000609944 -7.45389e-20 -0.00114605 0.000407036 6.77626e-21 -0.000955618 0.000608481 -9.48677e-20 
-0.00101882 0.000406148 -1.49078e-19 -0.00082919 0.000606794 -2.71051e-20 -0.000892104 0.000405096 -2.03288e-20 
-0.000703437 0.00060492 -3.38813e-20 -0.000766017 0.000403908 4.74338e-20 -0.000578445 0.000602895 -4.06576e-20 
-0.000640651 0.000402607 7.45389e-20 -0.000454285 0.000600747 -2.71051e-20 -0.000516085 0.000401214 5.42101e-20 
-0.000331017 0.000598507 -7.45389e-20 -0.000392384 0.00039975 -6.77626e-21 -0.000208691 0.0005962 0 
-0.000269603 0.000398233 -5.42101e-20 -8.73447e-05 0.000593853 2.03288e-20 -0.000147784 0.000396681 -1.35525e-19 
3.29964e-05 0.000591493 8.80914e-20 -2.69603e-05 0.000395111 0 0.000152317 0.000589146 -1.35525e-20 
9.28493e-05 0.000393541 0 0.000270616 0.000586842 6.09864e-20 0.000211637 0.000391989 -2.71051e-20 
0.000387905 0.000584609 1.0842e-19 0.000329409 0.000390476 5.42101e-20 0.000504211 0.000582478 4.74338e-20 
0.000446185 0.000389021 9.48677e-20 0.000562 0.000387645 -1.35525e-20 -0.00120966 0.000203699 1.0842e-19 
-0.00108223 0.000203303 3.38813e-20 -0.000955251 0.000202817 6.09864e-20 -0.000828848 0.000202255 1.0842e-19 
-0.000703121 0.000201632 3.38813e-20 -0.000578156 0.000200958 1.42302e-19 -0.000454026 0.000200243 -7.45389e-20 
-0.000330791 0.000199496 6.77626e-21 -0.000208499 0.000198728 -6.77626e-20 -8.71882e-05 0.000197947 -8.80914e-20 
3.3117e-05 0.000197161 6.77626e-21 0.000152403 0.00019638 2.71051e-20 0.000270668 0.000195613 3.38813e-20 
0.000387928 0.00019487 7.45389e-20 0.000504208 0.000194162 8.80914e-20 0.000734486 0.000385768 -3.04932e-20 
0.000734543 0.000771501 1.35525e-20 0.000734635 0.00115717 7.45389e-20 0.000734758 0.00154273 2.71051e-20 
0.000734907 0.00192816 2.03288e-20 0.000735076 0.00231343 1.35525e-20 0.000735257 0.0026985 -2.71051e-20 
0.000735443 0.00308337 1.4569e-19 0.000735627 0.003468 -5.42101e-20 0.0007358 0.00385239 -7.11508e-20 
0.000735956 0.00423652 -9.82558e-20 0.000736087 0.0046204 -9.14796e-20 0.000736187 0.00500405 -6.43745e-20 
0.000736249 0.00538749 -1.49078e-19 0.000736264 0.00577077 -5.42101e-20 0.000736217 0.00615396 3.38813e-21 
0.000736088 0.00653717 4.40457e-20 0.000735837 0.00692054 -7.7927e-20 0.000735398 0.0073043 1.0842e-19 
0.000734666 0.00768874 -2.03288e-20 0.000733461 0.00807424 -2.37169e-20 0.000731504 0.00846136 -1.96512e-19 
0.000728349 0.00885084 -3.38813e-21 0.000723309 0.00924364 -1.55854e-19 0.000715332 0.00964109 4.5401e-19 
0.000702843 0.0100448 -2.40557e-19 0.000683523 0.010457 -2.37169e-19 0.000654066 0.0108801 -3.04932e-19 
0.000848601 0.000384673 -5.0822e-20 0.00084867 0.000769302 2.71051e-20 0.000848784 0.00115384 -2.71051e-20 
0.000848941 0.00153825 -2.71051e-20 0.000849139 0.00192248 4.74338e-20 0.000849374 0.00230649 1.21973e-19 
0.000849644 0.00269025 6.77626e-20 0.000849948 0.0030737 1.15196e-19 0.000850285 0.00345681 6.77626e-21 
0.000850654 0.00383955 1.35525e-20 0.00085106 0.00422188 1.25361e-19 0.000851506 0.00460377 3.38813e-21 
0.000852002 0.0049852 1.66018e-19 0.000852557 0.00536614 3.04932e-20 0.000853186 0.0057466 3.72694e-20 
0.000853904 0.00612658 1.18585e-19 0.000854724 0.00650611 8.47033e-20 0.000855655 0.00688524 1.05032e-19 
0.000856693 0.00726407 1.69407e-20 0.000857812 0.00764278 6.77626e-21 0.00085894 0.00802159 -2.03288e-20 
0.000859933 0.0084009 -4.06576e-20 0.000860521 0.00878125 2.77827e-19 0.000860235 0.00916346 2.06676e-19 
0.000858282 0.00954871 -4.74338e-20 0.000853353 0.00993865 1.25361e-19 0.000843337 0.0103356 -1.35525e-19 
0.000824912 0.0107427 -3.72694e-20 0.000962 0.000383728 -6.77626e-21 0.000962072 0.000767403 -2.71051e-20 
0.000962192 0.00115097 4.06576e-20 0.00096236 0.00153438 6.77626e-21 0.000962574 0.00191756 8.47033e-20 
0.000962835 0.00230048 -6.77626e-20 0.000963143 0.00268308 2.03288e-20 0.000963501 0.00306528 -1.01644e-19 
0.000963911 0.00344705 -3.38813e-21 0.000964381 0.00382832 -1.82959e-19 0.000964919 0.00420903 -1.01644e-20 
0.000965538 0.00458912 -2.40557e-19 0.000966257 0.00496853 2.03288e-20 0.000967097 0.00534718 6.43745e-20 
0.000968088 0.00572502 -2.71051e-20 0.000969265 0.00610197 1.35525e-20 0.000970669 0.00647799 -2.71051e-20 
0.000972343 0.006853 -1.0842e-19 0.000974336 0.00722699 2.47334e-19 0.000976687 0.00759993 -8.47033e-20 
0.000979422 0.00797188 2.37169e-20 0.000982528 0.00834295 -1.32137e-19 0.000985924 0.00871338 -1.49078e-19 
0.000989393 0.00908363 -1.999e-19 0.000992485 0.00945447 -1.69407e-20 0.000994337 0.00982714 4.40457e-20 
0.000993366 0.0102036 -4.7095e-19 0.000986768 0.0105869 -1.4569e-19 0.00107479 0.000382949 -3.04932e-20 
0.00107486 0.000765837 2.03288e-20 0.00107497 0.0011486 5.42101e-20 0.00107512 0.00153118 2.37169e-20 
0.00107533 0.0019135 -6.77626e-21 0.00107557 0.00229551 5.75982e-20 0.00107587 0.00267714 9.48677e-20 
0.00107622 0.00305831 1.96512e-19 0.00107663 0.00343895 6.77626e-20 0.00107711 0.00381898 -7.45389e-20 
0.00107767 0.00419831 2.03288e-19 0.00107832 0.00457686 3.38813e-21 0.00107909 0.00495452 -1.28749e-19 
0.00108001 0.00533117 2.37169e-20 0.00108111 0.00570671 -2.03288e-20 0.00108244 0.00608099 2.37169e-20 
0.00108404 0.00645386 -7.45389e-20 0.00108599 0.00682515 3.28649e-19 0.00108836 0.00719468 4.06576e-20 
0.00109124 0.00756224 5.42101e-20 0.00109471 0.00792765 7.11508e-20 0.00109887 0.0082907 2.40557e-19 
0.00110378 0.00865124 3.82859e-19 0.00110946 0.00900917 3.59142e-19 0.0011158 0.00936459 -3.72694e-20 
0.00112244 0.00971789 3.65918e-19 0.00112852 0.01007 4.40457e-20 0.00113219 0.0104228 -1.01644e-19 
0.00118709 0.000382352 -2.37169e-20 0.00118715 0.000764635 -5.0822e-20 0.00118724 0.00114678 -4.40457e-20 
0.00118736 0.00152872 -7.11508e-20 0.00118753 0.00191038 4.40457e-20 0.00118773 0.00229169 -6.43745e-20 
0.00118797 0.00267256 6.77626e-20 0.00118827 0.00305292 8.13152e-20 0.00118861 0.00343268 -9.82558e-20 
0.00118902 0.00381174 3.38813e-21 0.00118949 0.00418999 -3.04932e-20 0.00119006 0.00456732 9.48677e-20 
0.00119073 0.00494359 1.01644e-19 0.00119154 0.00531865 9.82558e-20 0.00119252 0.00569233 4.74338e-20 
0.0011937 0.00606444 1.28749e-19 0.00119515 0.00643473 6.43745e-20 0.00119693 0.00680293 2.71051e-19 
0.00119911 0.00716873 4.06576e-20 0.0012018 0.00753174 1.59242e-19 0.00120511 0.00789152 1.11808e-19 
0.00120917 0.00824756 1.42302e-19 0.00121414 0.00859924 -7.7927e-20 0.00122015 0.00894589 1.05032e-19 
0.00122735 0.00928676 2.20229e-19 0.00123578 0.00962105 -9.82558e-20 0.0012452 0.0099481 3.6253e-19 
0.00125484 0.0102675 -6.43745e-20 0.00129904 0.000381947 -3.72694e-20 0.00129907 0.00076382 4.74338e-20 
0.00129913 0.00114555 4.74338e-20 0.00129921 0.00152705 -6.43745e-20 0.00129932 0.00190826 -9.48677e-20 
0.00129945 0.00228909 -1.01644e-20 0.00129961 0.00266945 6.77626e-20 0.0012998 0.00304926 -1.999e-19 
0.00130003 0.00342841 5.75982e-20 0.0013003 0.0038068 3.38813e-21 0.00130062 0.0041843 7.11508e-20 
0.001301 0.00456079 4.74338e-20 0.00130146 0.00493609 1.01644e-20 0.00130201 0.00531004 1.25361e-19 
0.00130267 0.00568242 1.89735e-19 0.00130349 0.00605299 -8.47033e-20 0.00130449 0.00642145 2.64274e-19 
0.00130572 0.00678744 -1.38913e-19 0.00130724 0.00715054 3.11708e-19 0.00130913 0.00751024 2.33781e-19 
0.00131148 0.00786588 -2.10064e-19 0.00131441 0.00821669 1.28749e-19 0.00131805 0.00856167 2.10064e-19 
0.00132257 0.00889962 -4.74338e-20 0.00132816 0.009229 -1.38913e-19 0.00133501 0.00954789 3.38813e-20 
0.00134325 0.00985389 1.77877e-19 0.00135279 0.010144 -6.77626e-21 0.00141076 0.000381742 -4.40457e-20 
0.00141078 0.000763409 3.04932e-20 0.0014108 0.00114492 -9.82558e-20 0.00141082 0.00152621 3.04932e-20 
0.00141086 0.00190719 -1.35525e-20 0.00141091 0.00228778 0 0.00141096 0.00266788 -6.09864e-20 
0.00141103 0.00304741 2.71051e-20 0.00141111 0.00342625 -2.03288e-20 0.00141121 0.0038043 -3.04932e-20 
0.00141132 0.00418142 -5.75982e-20 0.00141145 0.00455747 -1.79571e-19 0.00141161 0.00493228 -2.50722e-19 
0.00141181 0.00530565 4.40457e-20 0.00141204 0.00567736 -1.11808e-19 0.00141233 0.00604713 -6.09864e-20 
0.00141269 0.00641464 -4.81115e-19 0.00141313 0.00677948 2.71051e-19 0.00141367 0.00714117 2.03288e-20 
0.00141435 0.00749912 1.35525e-19 0.0014152 0.00785256 1.35525e-20 0.00141626 0.00820057 1.72795e-19 
0.00141759 0.00854194 2.03288e-19 0.00141927 0.00887514 2.5411e-19 0.00142136 0.00919816 4.23516e-19 
0.00142399 0.00950836 -3.72694e-20 0.00142723 0.00980223 -1.49078e-19 0.00143115 0.010075 -5.92923e-20 
0.00152242 0.000381742 3.38813e-20 0.00152241 0.000763409 2.37169e-20 0.00152239 0.00114492 4.74338e-20 
0.00152236 0.00152621 -8.80914e-20 0.00152232 0.00190719 -4.40457e-20 0.00152228 0.00228778 3.72694e-20 
0.00152222 0.00266788 -6.09864e-20 0.00152215 0.00304741 -1.21973e-19 0.00152207 0.00342625 -1.15196e-19 
0.00152198 0.0038043 7.7927e-20 0.00152187 0.00418142 -5.42101e-20 0.00152173 0.00455747 -9.14796e-20 
0.00152157 0.00493228 1.69407e-20 0.00152138 0.00530565 -2.03288e-20 0.00152114 0.00567736 -9.82558e-20 
0.00152085 0.00604713 7.11508e-20 0.0015205 0.00641464 -7.11508e-20 0.00152006 0.00677948 7.7927e-20 
0.00151951 0.00714117 -8.13152e-20 0.00151883 0.00749912 1.49078e-19 0.00151798 0.00785256 -3.04932e-20 
0.00151692 0.00820057 -2.03288e-19 0.00151559 0.00854194 5.42101e-20 0.00151392 0.00887514 0 
0.00151182 0.00919816 -2.06676e-19 0.0015092 0.00950836 1.15196e-19 0.00150595 0.00980223 -1.28749e-19 
0.00150203 0.010075 5.89535e-19 0.00163415 0.000381947 -4.06576e-20 0.00163411 0.00076382 -1.35525e-20 
0.00163405 0.00114555 -2.03288e-20 0.00163397 0.00152705 3.38813e-21 0.00163387 0.00190826 -9.14796e-20 
0.00163373 0.00228909 2.37169e-20 0.00163357 0.00266945 3.38813e-21 0.00163338 0.00304926 3.04932e-20 
0.00163315 0.00342841 -6.77626e-20 0.00163288 0.0038068 2.03288e-20 0.00163256 0.0041843 1.42302e-19 
0.00163218 0.00456079 0 0.00163172 0.00493609 -6.77626e-20 0.00163118 0.00531004 1.4569e-19 
0.00163051 0.00568242 -9.48677e-20 0.0016297 0.00605299 -3.04932e-20 0.0016287 0.00642145 5.42101e-20 
0.00162747 0.00678744 1.35525e-20 0.00162594 0.00715054 -1.52466e-19 0.00162405 0.00751024 -7.45389e-20 
0.0016217 0.00786588 5.75982e-20 0.00161877 0.00821669 2.33781e-19 0.00161513 0.00856167 4.40457e-20 
0.00161061 0.00889962 6.1664e-19 0.00160502 0.009229 -2.64274e-19 0.00159817 0.00954789 -2.03288e-20 
0.00158993 0.00985389 1.49078e-19 0.0015804 0.010144 3.91329e-19 0.00174609 0.000382352 5.75982e-20 
0.00174604 0.000764635 -3.38813e-21 0.00174595 0.00114678 4.40457e-20 0.00174582 0.00152872 1.69407e-20 
0.00174566 0.00191038 6.77626e-21 0.00174545 0.00229169 -1.15196e-19 0.00174521 0.00267256 -3.38813e-20 
0.00174492 0.00305292 -7.7927e-20 0.00174457 0.00343268 2.37169e-20 0.00174417 0.00381174 1.82959e-19 
0.00174369 0.00418999 -7.45389e-20 0.00174312 0.00456732 4.06576e-20 0.00174245 0.00494359 -9.82558e-20 
0.00174164 0.00531865 1.01644e-20 0.00174067 0.00569233 5.75982e-20 0.00173948 0.00606444 -2.23617e-19 
0.00173803 0.00643473 -8.80914e-20 0.00173625 0.00680293 -1.32137e-19 0.00173407 0.00716873 -1.35525e-20 
0.00173138 0.00753174 1.21973e-19 0.00172807 0.00789152 -1.38913e-19 0.00172401 0.00824756 2.81215e-19 
0.00171905 0.00859924 -1.59242e-19 0.00171303 0.00894589 1.69407e-20 0.00170583 0.00928676 -2.03288e-20 
0.00169741 0.00962105 -5.0822e-20 0.00168798 0.0099481 -7.45389e-20 0.00167834 0.0102675 1.71101e-19 
0.00185839 0.000382949 2.03288e-20 0.00185833 0.000765837 4.06576e-20 0.00185821 0.0011486 4.40457e-20 
0.00185806 0.00153118 3.38813e-20 0.00185786 0.0019135 -5.75982e-20 0.00185761 0.00229551 1.15196e-19 
0.00185731 0.00267714 5.42101e-20 0.00185696 0.00305831 8.80914e-20 0.00185655 0.00343895 1.76183e-19 
0.00185607 0.00381898 -5.75982e-20 0.00185551 0.00419831 1.15196e-19 0.00185486 0.00457686 -3.38813e-20 
0.00185409 0.00495452 2.67662e-19 0.00185317 0.00533117 1.76183e-19 0.00185207 0.00570671 1.55854e-19 
0.00185075 0.00608099 -4.74338e-20 0.00184914 0.00645386 2.47334e-19 0.00184719 0.00682515 2.03288e-20 
0.00184482 0.00719468 1.96512e-19 0.00184195 0.00756224 1.18585e-19 0.00183847 0.00792765 1.18585e-19 
0.00183432 0.0082907 -1.11808e-19 0.0018294 0.00865124 -5.42101e-20 0.00182372 0.00900917 -8.80914e-20 
0.00181738 0.00936459 1.4569e-19 0.00181074 0.00971789 1.32137e-19 0.00180466 0.01007 4.09964e-19 
0.00180099 0.0104228 1.52466e-19 0.00197118 0.000383728 2.71051e-20 0.00197111 0.000767403 -6.77626e-21 
0.00197099 0.00115097 1.01644e-19 0.00197082 0.00153438 -1.35525e-19 0.00197061 0.00191756 7.7927e-20 
0.00197035 0.00230048 -7.11508e-20 0.00197004 0.00268308 2.03288e-20 0.00196968 0.00306528 -1.999e-19 
0.00196927 0.00344705 -1.01644e-19 0.0019688 0.00382832 1.25361e-19 0.00196826 0.00420903 4.06576e-20 
0.00196764 0.00458912 1.15196e-19 0.00196693 0.00496853 -2.37169e-20 0.00196609 0.00534718 1.15196e-19 
0.0019651 0.00572502 2.03288e-19 0.00196392 0.00610197 5.42101e-20 0.00196251 0.00647799 3.52366e-19 
0.00196084 0.006853 -2.71051e-20 0.00195885 0.00722699 3.6253e-19 0.0019565 0.00759993 2.03288e-19 
0.00195376 0.00797188 6.77626e-21 0.00195065 0.00834295 1.18585e-19 0.00194726 0.00871338 1.49078e-19 
0.00194379 0.00908363 -2.60886e-19 0.0019407 0.00945447 -2.84603e-19 0.00193885 0.00982714 -2.13452e-19 
0.00193982 0.0102036 3.04932e-20 0.00194642 0.0105869 -2.50722e-19 0.00208458 0.000384673 -4.74338e-20 
0.00208451 0.000769302 7.45389e-20 0.0020844 0.00115384 6.77626e-21 0.00208424 0.00153825 2.03288e-20 
0.00208404 0.00192248 3.38813e-21 0.00208381 0.00230649 2.03288e-20 0.00208354 0.00269025 -2.37169e-20 
0.00208324 0.0030737 1.0842e-19 0.0020829 0.00345681 8.47033e-20 0.00208253 0.00383955 -8.80914e-20 
0.00208212 0.00422188 -1.69407e-20 0.00208168 0.00460377 0 0.00208118 0.0049852 -5.75982e-20 
0.00208063 0.00536614 -1.69407e-20 0.00208 0.0057466 -1.69407e-20 0.00207928 0.00612658 2.13452e-19 
0.00207846 0.00650611 -1.4569e-19 0.00207753 0.00688524 1.05032e-19 0.00207649 0.00726407 1.25361e-19 
0.00207537 0.00764278 -3.38813e-21 0.00207424 0.00802159 1.35525e-20 0.00207325 0.0084009 7.7927e-20 
0.00207266 0.00878125 -1.28749e-19 0.00207295 0.00916346 1.25361e-19 0.0020749 0.00954871 9.82558e-20 
0.00207983 0.00993865 6.43745e-19 0.00208985 0.0103356 -6.09864e-20 0.00210827 0.0107427 3.38813e-21 
0.0021987 0.000385768 3.38813e-20 0.00219864 0.000771501 8.80914e-20 0.00219855 0.00115717 -5.0822e-20 
0.00219843 0.00154273 6.09864e-20 0.00219828 0.00192816 -1.05032e-19 0.00219811 0.00231343 -1.69407e-20 
0.00219793 0.0026985 -2.03288e-20 0.00219774 0.00308337 -6.09864e-20 0.00219756 0.003468 -9.82558e-20 
0.00219738 0.00385239 -4.74338e-20 0.00219723 0.00423652 -2.71051e-20 0.0021971 0.0046204 1.49078e-19 
0.002197 0.00500405 2.10064e-19 0.00219693 0.00538749 2.1684e-19 0.00219692 0.00577077 1.15196e-19 
0.00219697 0.00615396 -8.13152e-20 0.0021971 0.00653717 1.69407e-19 0.00219735 0.00692054 1.93124e-19 
0.00219778 0.0073043 -9.48677e-20 0.00219852 0.00768874 3.28649e-19 0.00219972 0.00807424 1.999e-19 
0.00220168 0.00846136 -1.15196e-19 0.00220483 0.00885084 -1.72795e-19 0.00220987 0.00924364 1.01644e-19 
0.00221785 0.00964109 1.18585e-19 0.00223034 0.0100448 3.25261e-19 0.00224966 0.010457 2.03288e-19 
0.00227912 0.0108801 3.11708e-19 0.00067713 0.000386365 -1.0842e-19 0.000734471 0.000192886 -1.35525e-20 
0.000677177 0.000772701 1.82959e-19 0.00073451 0.000578641 -6.77626e-21 0.000677252 0.00115898 1.01644e-19 
0.000734584 0.000964344 1.89735e-19 0.000677349 0.00154517 4.06576e-20 0.000734692 0.00134996 1.82959e-19 
0.000677463 0.00193125 2.91379e-19 0.000734829 0.00173546 2.03288e-20 0.000677583 0.0023172 -2.98156e-19 
0.000734989 0.00212081 8.80914e-20 0.000677701 0.00270299 -1.01644e-19 0.000735165 0.00250599 6.77626e-21 
0.000677804 0.00308861 6.09864e-20 0.00073535 0.00289096 1.0842e-19 0.000677882 0.00347406 -2.03288e-20 
0.000735536 0.00327571 8.80914e-20 0.000677921 0.00385932 2.03288e-19 0.000735715 0.00366022 -2.30393e-19 
0.000677909 0.00424441 -6.64074e-19 0.000735881 0.00404448 -3.45589e-19 0.00067783 0.00462934 1.42302e-19 
0.000736025 0.00442849 -8.13152e-20 0.000677671 0.00501414 2.71051e-20 0.000736141 0.00481226 -3.32037e-19 
0.000677411 0.00539887 -3.86247e-19 0.000736223 0.00519579 -3.25261e-19 0.000677031 0.00578359 -5.0822e-19 
0.000736263 0.00557914 -3.998e-19 0.000676498 0.00616841 9.48677e-20 0.000736249 0.00596237 -1.15196e-19 
0.000675771 0.00655347 -2.91379e-19 0.000736165 0.00634555 9.48677e-20 0.000674785 0.00693895 -5.82759e-19 
0.000735981 0.00672882 -4.74338e-20 0.000673443 0.00732512 5.75982e-19 0.000735646 0.00711236 -6.77626e-21 
0.000671596 0.0077123 1.6263e-19 0.000735078 0.00749641 1.42302e-19 0.000669018 0.00810095 -5.14996e-19 
0.000734137 0.00788132 -1.15196e-19 0.000665365 0.00849167 -3.59142e-19 0.000732601 0.00826756 -3.18484e-19 
0.00066012 0.00888523 1.49078e-19 0.000730113 0.00865575 5.42101e-20 0.000652513 0.00928264 -2.1684e-19 
0.000726122 0.00904674 -4.06576e-19 0.000641415 0.00968516 1.21973e-18 0.000719775 0.00944168 6.03087e-19 
0.000625194 0.0100944 8.80914e-20 0.000709781 0.00984204 3.04932e-19 0.000601548 0.0105121 -1.89735e-19 
0.000694224 0.0102497 -7.45389e-19 0.000567344 0.0109406 -1.17229e-18 0.000670322 0.010667 -7.72494e-19 
0.000634189 0.0110965 -9.82558e-19 0.000791639 0.000385203 -1.01644e-19 0.000848583 0.000192339 -6.09864e-20 
0.000791703 0.000770366 1.01644e-19 0.00084863 0.000576996 -1.0842e-19 0.000791808 0.00115545 8.13152e-20 
0.000848722 0.000961586 -6.77626e-21 0.000791951 0.00154042 3.38813e-20 0.000848857 0.00134607 -1.15196e-19 
0.000792128 0.00192523 2.30393e-19 0.000849035 0.00173039 0 0.000792335 0.00230985 3.45589e-19 
0.000849252 0.00211452 2.57498e-19 0.000792568 0.00269425 1.55854e-19 0.000849505 0.00249841 1.82959e-19 
0.000792821 0.00307839 5.42101e-19 0.000849792 0.00288201 3.52366e-19 0.000793091 0.00346224 4.74338e-20 
0.000850112 0.0032653 2.50722e-19 0.000793374 0.00384578 -2.30393e-19 0.000850465 0.00364823 -9.48677e-20 
0.000793669 0.004229 1.6263e-19 0.000850852 0.00403077 3.11708e-19 0.000793976 0.00461186 -5.42101e-20 
0.000851277 0.00441288 1.15196e-19 0.000794295 0.00499438 1.82959e-19 0.000851747 0.00479454 2.1684e-19 
0.000794629 0.00537655 -4.40457e-19 0.000852271 0.00517573 3.11708e-19 0.000794981 0.00575841 -2.71051e-20 
0.000852862 0.00555643 2.1684e-19 0.000795353 0.00613998 3.32037e-19 0.000853533 0.00593665 -1.69407e-19 
0.000795742 0.00652133 5.75982e-19 0.0008543 0.0063164 1.69407e-19 0.000796132 0.00690259 1.6263e-19 
0.000855175 0.00669572 2.91379e-19 0.000796492 0.00728389 2.50722e-19 0.000856161 0.00707468 8.13152e-20 
0.000796755 0.00766549 3.72694e-19 0.000857246 0.00745343 0 0.000796795 0.0080477 2.71051e-19 
0.000858382 0.00783215 -1.82959e-19 0.0007964 0.008431 -4.20128e-19 0.000859467 0.00821115 -5.42101e-20 
0.000795208 0.00881604 3.93023e-19 0.000860301 0.00859089 1.35525e-19 0.000792634 0.00920377 -1.15196e-19 
0.000860529 0.00897205 8.74138e-19 0.000787741 0.00959543 1.05032e-18 0.000859536 0.0093556 4.47233e-19 
0.000779061 0.00999276 -2.50722e-19 0.000856302 0.00974295 -4.67562e-19 0.000764339 0.010398 -6.1664e-19 
0.000849161 0.0101361 -3.86247e-19 0.000740199 0.010814 -8.19928e-19 0.000835456 0.0105376 5.42101e-20 
0.000811062 0.0109512 6.77626e-20 0.000905383 0.000384181 -7.45389e-20 0.000961982 0.000191867 -6.77626e-21 
0.000905455 0.000768313 -4.74338e-20 0.00096203 0.000575576 -8.80914e-20 0.000905574 0.00115235 4.06576e-20 
0.000962126 0.000959203 -1.35525e-20 0.000905739 0.00153623 -2.03288e-20 0.00096227 0.0013427 7.45389e-20 
0.000905949 0.00191992 3.65918e-19 0.000962461 0.001726 1.21973e-19 0.000906202 0.00230337 1.28749e-19 
0.000962699 0.00210906 9.48677e-20 0.000906498 0.00268652 1.96512e-19 0.000962983 0.00249182 -1.55854e-19 
0.000906836 0.00306932 2.03288e-20 0.000963316 0.00287423 -1.82959e-19 0.00090722 0.00345174 0 
0.000963699 0.00325623 -2.1684e-19 0.000907651 0.00383372 -2.30393e-19 0.000964138 0.00363776 -3.18484e-19 
0.000908137 0.00421521 2.10064e-19 0.000964641 0.00401875 -3.52366e-19 0.000908688 0.00459617 -3.04932e-19 
0.000965218 0.00439916 -5.35325e-19 0.000909317 0.00497656 6.1664e-19 0.000965884 0.00477891 -3.18484e-19 
0.000910041 0.00535633 3.25261e-19 0.00096666 0.00515795 3.18484e-19 0.000910883 0.00573544 1.35525e-19 
0.000967572 0.0055362 2.23617e-19 0.000911869 0.00611388 4.26905e-19 0.000968651 0.00591361 -6.77626e-21 
0.000913028 0.00649161 3.52366e-19 0.000969936 0.0062901 6.77626e-21 0.000914389 0.00686866 2.98156e-19 
0.000971469 0.00666562 -4.06576e-19 0.000915974 0.00724504 8.94467e-19 0.000973297 0.00704013 2.64274e-19 
0.000917793 0.00762084 -1.42302e-19 0.000975464 0.00741359 3.79471e-19 0.000919826 0.00799621 -1.35525e-19 
0.000978006 0.00778603 6.77626e-21 0.000921996 0.00837141 -3.32037e-19 0.000980931 0.00815751 1.0842e-19 
0.00092413 0.00874686 2.98156e-19 0.000984199 0.00852822 -3.32037e-19 0.000925883 0.00912321 -4.06576e-19 
0.00098767 0.00889848 -6.77626e-19 0.00092663 0.00950147 -4.60786e-19 0.000991029 0.0092689 -3.59142e-19 
0.000925266 0.00988314 2.43945e-19 0.000993646 0.00964046 0 0.000919913 0.0102705 -1.12486e-18 
0.000994349 0.0100147 -8.94467e-19 0.000907438 0.0106666 -4.40457e-19 0.000991024 0.0103941 -8.26704e-19 
0.000979963 0.0107824 -4.26905e-19 0.00101846 0.000383317 -2.71051e-20 0.00107477 0.000191479 4.74338e-20 
0.00101853 0.000766576 4.06576e-20 0.00107482 0.000574405 -8.80914e-20 0.00101865 0.00114972 2.10064e-19 
0.00107491 0.000957238 8.80914e-20 0.00101882 0.00153269 1.69407e-19 0.00107504 0.00133992 1.01644e-19 
0.00101903 0.00191542 1.49078e-19 0.00107522 0.00172238 -6.77626e-21 0.00101929 0.00229786 1.21973e-19 
0.00107544 0.00210455 1.0842e-19 0.0010196 0.00267994 3.18484e-19 0.00107572 0.00248638 1.89735e-19 
0.00101996 0.00306161 3.18484e-19 0.00107604 0.00286778 5.35325e-19 0.00102038 0.00344278 2.10064e-19 
0.00107642 0.0032487 4.06576e-19 0.00102086 0.0038234 -2.71051e-19 0.00107686 0.00362904 -1.0842e-19 
0.00102142 0.00420339 2.1684e-19 0.00107738 0.00400874 2.71051e-19 0.00102208 0.00458267 -3.86247e-19 
0.00107798 0.00438769 4.74338e-19 0.00102284 0.00496116 -2.23617e-19 0.00107869 0.0047658 -3.59142e-19 
0.00102374 0.00533877 2.50722e-19 0.00107953 0.00514298 -2.43945e-19 0.00102482 0.00571541 -1.15196e-19 
0.00108054 0.00551909 -2.71051e-20 0.00102611 0.00609098 2.98156e-19 0.00108174 0.00589402 8.80914e-20 
0.00102766 0.00646536 4.06576e-19 0.0010832 0.00626761 2.03288e-20 0.00102953 0.00683845 4.60786e-19 
0.00108497 0.00663971 3.72694e-19 0.00103179 0.00721013 7.38613e-19 0.00108712 0.00701014 8.67362e-19 
0.00103449 0.00758032 -3.86247e-19 0.00108973 0.00737872 9.48677e-20 0.00103771 0.00794892 2.71051e-20 
0.00109289 0.00774523 5.14996e-19 0.00104148 0.0083159 2.57498e-19 0.0010967 0.00810948 1.11808e-18 
0.00104581 0.00868132 7.18284e-19 0.00110123 0.00847129 9.62229e-19 0.0010506 0.00904538 5.42101e-19 
0.00110653 0.00883053 1.37558e-18 0.00105559 0.00940853 -6.09864e-20 0.00111256 0.00918718 7.45389e-19 
0.00106016 0.00977164 4.67562e-19 0.00111912 0.00954146 9.55453e-19 0.00106308 0.0101363 -9.75782e-19 
0.00112564 0.00989399 9.55453e-19 0.00106198 0.010505 -5.6243e-19 0.00113084 0.0102461 -8.13152e-20 
0.00113206 0.0106004 4.47233e-19 0.00113099 0.000382627 -3.38813e-20 0.00118708 0.00019118 -5.42101e-20 
0.00113106 0.000765189 -6.77626e-21 0.00118711 0.000573506 -1.6263e-19 0.00113116 0.00114762 8.80914e-20 
0.00118719 0.00095573 -2.03288e-19 0.0011313 0.00152985 -6.77626e-21 0.00118729 0.00133778 -9.48677e-20 
0.00113149 0.00191182 1.28749e-19 0.00118744 0.00171959 -4.74338e-20 0.00113172 0.00229345 1.01644e-19 
0.00118762 0.00210108 6.77626e-20 0.00113199 0.00267467 4.81115e-19 0.00118785 0.00248219 1.49078e-19 
0.00113232 0.00305541 6.64074e-19 0.00118811 0.00286281 2.30393e-19 0.0011327 0.00343557 1.82959e-19 
0.00118843 0.00324288 -1.49078e-19 0.00113315 0.00381508 9.48677e-20 0.0011888 0.0036223 -2.03288e-19 
0.00113368 0.00419383 4.33681e-19 0.00118924 0.00400097 -1.76183e-19 0.00113431 0.00457173 1.15196e-19 
0.00118976 0.00437878 1.69407e-19 0.00113505 0.00494864 2.91379e-19 0.00119038 0.00475559 6.91179e-19 
0.00113593 0.00532445 4.47233e-19 0.00119112 0.00513128 2.1684e-19 0.001137 0.005699 1.01644e-19 
0.00119201 0.00550568 2.43945e-19 0.00113828 0.00607212 1.96512e-19 0.00119308 0.0058786 5.96311e-19 
0.00113985 0.00644361 6.09864e-20 0.00119439 0.00624983 3.38813e-19 0.00114177 0.00681326 1.15874e-18 
0.00119599 0.00661911 5.42101e-19 0.00114411 0.00718081 4.60786e-19 0.00119796 0.00698615 7.58942e-19 
0.00114698 0.00754597 2.23617e-19 0.00120039 0.00735061 3.79471e-19 0.00115048 0.00790842 5.82759e-19 
0.00120337 0.00771207 5.89535e-19 0.00115473 0.00826778 1.02999e-18 0.00120704 0.00807005 5.75982e-19 
0.00115985 0.00862369 1.21295e-18 0.00121153 0.00842399 3.65918e-19 0.00116594 0.00897576 1.12486e-18 
0.001217 0.00877325 8.13152e-20 0.00117302 0.00932366 2.91379e-19 0.0012236 0.0091171 1.02322e-18 
0.00118097 0.00966722 2.1684e-19 0.00123142 0.00945478 8.13152e-20 0.00118926 0.0100066 6.30193e-19 
0.00124039 0.00978552 7.04731e-19 0.00119659 0.0103427 -9.96111e-19 0.00125009 0.0101088 3.86247e-19 
0.00125915 0.0104245 -6.50521e-19 0.0012431 0.000382125 -8.80914e-20 0.00129903 0.000190978 -6.09864e-20 
0.00124315 0.000764178 -3.38813e-20 0.00129905 0.000572897 -2.71051e-20 0.00124322 0.00114609 -2.03288e-20 
0.0012991 0.000954707 1.96512e-19 0.00124333 0.00152779 -2.30393e-19 0.00129917 0.00133633 -4.06576e-20 
0.00124346 0.00190919 -1.42302e-19 0.00129926 0.0017177 -3.25261e-19 0.00124363 0.00229023 -1.35525e-19 
0.00129938 0.00209873 -3.25261e-19 0.00124384 0.00267082 -2.03288e-20 0.00129953 0.00247934 2.37169e-19 
0.00124409 0.00305087 -2.71051e-19 0.0012997 0.00285943 -3.72694e-19 0.00124438 0.00343029 -8.13152e-20 
0.00129991 0.00323893 -2.1684e-19 0.00124472 0.00380897 -2.71051e-19 0.00130016 0.00361771 1.96512e-19 
0.00124513 0.00418681 -6.77626e-20 0.00130046 0.00399567 2.37169e-19 0.00124561 0.00456366 3.59142e-19 
0.0013008 0.00437268 2.98156e-19 0.00124619 0.00493939 1.01644e-19 0.00130122 0.0047486 -6.77626e-21 
0.00124688 0.00531383 5.0822e-19 0.00130172 0.00512325 4.67562e-19 0.00124772 0.00568679 2.43945e-19 
0.00130232 0.00549644 4.94667e-19 0.00124875 0.00605804 -7.45389e-20 0.00130306 0.00586795 -2.1684e-19 
0.00125 0.00642731 6.30193e-19 0.00130396 0.0062375 4.06576e-20 0.00125155 0.00679429 1.89735e-19 
0.00130507 0.00660478 1.28749e-19 0.00125345 0.00715859 4.94667e-19 0.00130644 0.00696939 2.98156e-19 
0.00125581 0.00751977 3.93023e-19 0.00130814 0.00733086 9.62229e-19 0.00125872 0.00787726 -6.1664e-19 
0.00131024 0.00768862 -2.71051e-20 0.00126233 0.00823041 1.35525e-20 0.00131287 0.00804195 -4.06576e-20 
0.00126678 0.00857842 2.10064e-19 0.00131613 0.00838999 7.7927e-19 0.00127226 0.0089203 -6.77626e-20 
0.00132019 0.00873163 1.69407e-19 0.00127894 0.0092549 4.06576e-20 0.00132522 0.00906551 -1.28749e-19 
0.00128697 0.00958084 -1.0842e-19 0.00133141 0.00938992 -6.91179e-19 0.00129636 0.00989654 1.26039e-18 
0.00133895 0.0097027 2.57498e-19 0.00130671 0.0102003 -2.43945e-19 0.00134788 0.0100012 4.47233e-19 
0.00135781 0.0102821 1.38913e-18 0.00135492 0.000381819 -1.55854e-19 0.00141076 0.000190876 8.13152e-20 
0.00135494 0.000763564 1.69407e-19 0.00141077 0.00057259 -2.03288e-20 0.00135498 0.00114516 -7.45389e-20 
0.00141079 0.000954191 -1.01644e-19 0.00135504 0.00152653 -6.77626e-20 0.00141081 0.0013356 -1.42302e-19 
0.00135511 0.00190759 -1.55854e-19 0.00141084 0.00171675 5.42101e-20 0.0013552 0.00228827 6.09864e-20 
0.00141088 0.00209754 8.80914e-20 0.00135531 0.00266847 1.0842e-19 0.00141093 0.0024779 -8.13152e-20 
0.00135544 0.0030481 -2.84603e-19 0.001411 0.00285772 -4.06576e-20 0.0013556 0.00342706 1.96512e-19 
0.00141107 0.00323692 0 0.00135579 0.00380524 1.76183e-19 0.00141116 0.00361538 -4.06576e-20 
0.00135601 0.00418251 2.03288e-20 0.00141126 0.00399298 -1.35525e-19 0.00135627 0.00455872 -7.45389e-20 
0.00141138 0.00436959 -3.72694e-19 0.00135658 0.00493371 -1.69407e-19 0.00141153 0.00474504 -1.00289e-18 
0.00135696 0.00530731 2.84603e-19 0.0014117 0.00511916 -3.11708e-19 0.00135742 0.00567927 5.96311e-19 
0.00141192 0.00549173 -8.13152e-20 0.00135799 0.00604934 -8.80914e-20 0.00141218 0.00586251 -3.38813e-19 
0.00135868 0.00641721 -2.71051e-19 0.0014125 0.00623119 -8.60585e-19 0.00135954 0.00678248 -2.71051e-20 
0.00141289 0.00659742 -3.86247e-19 0.0013606 0.00714471 6.23416e-19 0.00141338 0.00696076 5.14996e-19 
0.00136192 0.00750332 1.26039e-18 0.00141399 0.00732066 2.57498e-19 0.00136357 0.0078576 -1.28749e-19 
0.00141475 0.00767646 4.06576e-19 0.00136563 0.00820667 9.01243e-19 0.0014157 0.00802732 3.38813e-19 
0.0013682 0.00854942 9.69006e-19 0.00141689 0.00837218 9.08019e-19 0.00137142 0.00888444 6.43745e-19 
0.00141838 0.00870969 8.19928e-19 0.00137543 0.0092099 3.72694e-19 0.00142026 0.00903809 1.2265e-18 
0.00138041 0.00952346 2.71051e-19 0.0014226 0.00935509 9.14796e-19 0.00138651 0.00982202 -1.01644e-19 
0.00142552 0.00965765 6.77626e-21 0.00139375 0.0101016 -2.77827e-19 0.00142911 0.00994169 -1.49078e-19 
0.00143333 0.0102017 -5.01444e-19 0.00146659 0.000381716 -2.71051e-20 0.00152242 0.000190876 -6.77626e-21 
0.00146659 0.000763357 4.74338e-20 0.00152241 0.00057259 8.13152e-20 0.00146659 0.00114485 -1.96512e-19 
0.0015224 0.000954191 6.77626e-21 0.00146659 0.00152611 -2.30393e-19 0.00152237 0.0013356 -6.77626e-21 
0.00146659 0.00190706 0 0.00152234 0.00171675 -2.43945e-19 0.00146659 0.00228761 1.96512e-19 
0.0015223 0.00209754 2.71051e-20 0.00146659 0.00266768 -1.6263e-19 0.00152225 0.0024779 -1.35525e-20 
0.00146659 0.00304717 -1.01644e-19 0.00152219 0.00285772 -2.84603e-19 0.00146659 0.00342598 -2.71051e-20 
0.00152211 0.00323692 -5.48877e-19 0.00146659 0.00380398 -2.71051e-20 0.00152203 0.00361538 -3.38813e-20 
0.00146659 0.00418106 -2.98156e-19 0.00152192 0.00399298 8.13152e-20 0.00146659 0.00455705 -7.45389e-19 
0.0015218 0.00436959 -2.64274e-19 0.00146659 0.0049318 -4.13352e-19 0.00152166 0.00474504 1.15196e-19 
0.00146659 0.0053051 1.21973e-19 0.00152148 0.00511916 -1.76183e-19 0.00146659 0.00567673 -3.65918e-19 
0.00152127 0.00549173 -2.23617e-19 0.00146659 0.0060464 -5.01444e-19 0.001521 0.00586251 4.74338e-20 
0.00146659 0.00641378 -1.27394e-18 0.00152068 0.00623119 -4.06576e-20 0.00146659 0.00677848 6.97955e-19 
0.00152029 0.00659742 1.35525e-19 0.00146659 0.00713999 -1.35525e-19 0.0015198 0.00696076 -1.69407e-19 
0.00146659 0.00749771 -6.77626e-21 0.00151919 0.00732066 2.71051e-20 0.00146659 0.00785088 -4.74338e-19 
0.00151843 0.00767646 1.0842e-19 0.00146659 0.00819853 -1.96512e-19 0.00151748 0.00802732 -2.57498e-19 
0.00146659 0.00853944 2.30393e-19 0.00151629 0.00837218 -4.26905e-19 0.00146659 0.00887202 4.87891e-19 
0.0015148 0.00870969 3.86247e-19 0.00146659 0.00919422 -4.87891e-19 0.00151293 0.00903809 -4.26905e-19 
0.00146659 0.0095033 -4.47233e-19 0.00151058 0.00935509 -3.86247e-19 0.00146659 0.00979559 -7.45389e-19 
0.00150766 0.00965765 -3.79471e-19 0.00146659 0.0100661 1.11808e-18 0.00150407 0.00994169 5.0822e-19 
0.00149985 0.0102017 8.26704e-19 0.00157826 0.000381819 1.35525e-20 0.00163415 0.000190978 -2.71051e-20 
0.00157824 0.000763564 8.13152e-20 0.00163413 0.000572897 -1.21973e-19 0.0015782 0.00114516 1.35525e-20 
0.00163409 0.000954707 -1.35525e-20 0.00157815 0.00152653 -1.01644e-19 0.00163402 0.00133633 -1.21973e-19 
0.00157807 0.00190759 -2.84603e-19 0.00163392 0.0017177 -2.77827e-19 0.00157798 0.00228827 5.42101e-20 
0.0016338 0.00209873 -6.77626e-20 0.00157787 0.00266847 -1.0842e-19 0.00163366 0.00247934 -1.35525e-20 
0.00157774 0.0030481 -2.1684e-19 0.00163348 0.00285943 5.42101e-20 0.00157758 0.00342706 -3.18484e-19 
0.00163327 0.00323893 -6.77626e-20 0.0015774 0.00380524 3.32037e-19 0.00163302 0.00361771 6.09864e-20 
0.00157718 0.00418251 1.89735e-19 0.00163273 0.00399567 3.25261e-19 0.00157691 0.00455872 -2.43945e-19 
0.00163238 0.00437268 2.91379e-19 0.0015766 0.00493371 -1.76183e-19 0.00163196 0.0047486 -1.96512e-19 
0.00157622 0.00530731 4.06576e-19 0.00163146 0.00512325 1.42302e-19 0.00157576 0.00567927 -3.38813e-19 
0.00163086 0.00549644 -2.03288e-20 0.00157519 0.00604934 1.35525e-19 0.00163012 0.00586795 -2.64274e-19 
0.0015745 0.00641721 -7.45389e-20 0.00162922 0.0062375 -1.01644e-19 0.00157364 0.00678248 -1.28749e-19 
0.00162811 0.00660478 1.76183e-19 0.00157258 0.00714471 -5.21772e-19 0.00162674 0.00696939 -2.23617e-19 
0.00157126 0.00750332 2.1684e-19 0.00162505 0.00733086 -2.64274e-19 0.00156961 0.0078576 -1.01644e-19 
0.00162294 0.00768862 6.09864e-20 0.00156755 0.00820667 -1.0842e-19 0.00162032 0.00804195 4.81115e-19 
0.00156498 0.00854942 -1.6263e-19 0.00161705 0.00838999 6.50521e-19 0.00156177 0.00888444 6.97955e-19 
0.001613 0.00873163 1.20617e-18 0.00155775 0.0092099 -6.03087e-19 0.00160797 0.00906551 6.23416e-19 
0.00155277 0.00952346 1.0842e-19 0.00160177 0.00938992 -2.71051e-19 0.00154668 0.00982202 9.48677e-20 
0.00159423 0.0097027 6.09864e-20 0.00153943 0.0101016 1.27394e-18 0.0015853 0.0100012 1.09098e-18 
0.00157537 0.0102821 7.86047e-19 0.00169008 0.000382125 6.77626e-20 0.0017461 0.00019118 1.69407e-19 
0.00169004 0.000764178 -5.42101e-20 0.00174607 0.000573506 1.0842e-19 0.00168996 0.00114609 1.01644e-19 
0.001746 0.00095573 2.03288e-20 0.00168986 0.00152779 -5.42101e-20 0.00174589 0.00133778 1.6263e-19 
0.00168972 0.00190919 -8.13152e-20 0.00174574 0.00171959 -4.74338e-20 0.00168955 0.00229023 -3.38813e-19 
0.00174556 0.00210108 -1.76183e-19 0.00168934 0.00267082 2.03288e-20 0.00174534 0.00248219 -2.03288e-19 
0.0016891 0.00305087 -6.77626e-21 0.00174507 0.00286281 -1.89735e-19 0.00168881 0.00343029 1.6263e-19 
0.00174475 0.00324288 2.03288e-20 0.00168846 0.00380897 4.60786e-19 0.00174438 0.0036223 4.47233e-19 
0.00168805 0.00418681 3.11708e-19 0.00174394 0.00400097 2.03288e-20 0.00168757 0.00456366 -9.48677e-20 
0.00174342 0.00437878 -7.45389e-20 0.00168699 0.00493939 -3.79471e-19 0.0017428 0.00475559 -1.01644e-19 
0.0016863 0.00531383 4.13352e-19 0.00174207 0.00513128 4.06576e-20 0.00168546 0.00568679 -3.38813e-19 
0.00174118 0.00550568 -6.77626e-20 0.00168444 0.00605804 -4.81115e-19 0.0017401 0.0058786 -2.37169e-19 
0.00168318 0.00642731 0 0.00173879 0.00624983 -7.18284e-19 0.00168164 0.00679429 -2.30393e-19 
0.00173719 0.00661911 -5.35325e-19 0.00167973 0.00715859 1.76183e-19 0.00173522 0.00698615 -2.50722e-19 
0.00167738 0.00751977 -2.77827e-19 0.0017328 0.00735061 -1.0842e-19 0.00167446 0.00787726 2.03288e-19 
0.00172981 0.00771207 1.69407e-19 0.00167085 0.00823041 8.60585e-19 0.00172615 0.00807005 3.72694e-19 
0.0016664 0.00857842 -7.45389e-20 0.00172165 0.00842399 6.84403e-19 0.00166092 0.0089203 1.58565e-18 
0.00171618 0.00877325 6.77626e-21 0.00165424 0.0092549 -1.6263e-19 0.00170958 0.0091171 -2.10064e-19 
0.00164621 0.00958084 -1.01644e-19 0.00170177 0.00945478 2.10064e-19 0.00163682 0.00989654 3.11708e-19 
0.00169279 0.00978552 -8.80914e-20 0.00162647 0.0102003 1.41624e-18 0.0016831 0.0101088 -2.03288e-20 
0.00167404 0.0104245 2.1684e-19 0.00180219 0.000382627 1.6263e-19 0.00185841 0.000191479 6.09864e-20 
0.00180213 0.000765189 -6.77626e-21 0.00185837 0.000574405 1.0842e-19 0.00180203 0.00114762 1.35525e-19 
0.00185828 0.000957238 1.6263e-19 0.00180188 0.00152985 6.77626e-20 0.00185814 0.00133992 2.30393e-19 
0.0018017 0.00191182 -8.80914e-20 0.00185796 0.00172238 -6.09864e-20 0.00180147 0.00229345 1.01644e-19 
0.00185774 0.00210455 6.09864e-20 0.00180119 0.00267467 7.45389e-20 0.00185747 0.00248638 2.71051e-19 
0.00180086 0.00305541 -7.45389e-20 0.00185714 0.00286778 3.18484e-19 0.00180048 0.00343557 5.69206e-19 
0.00185676 0.0032487 5.35325e-19 0.00180003 0.00381508 3.59142e-19 0.00185632 0.00362904 3.25261e-19 
0.0017995 0.00419383 1.49078e-19 0.0018558 0.00400874 1.6263e-19 0.00179888 0.00457173 0 
0.0018552 0.00438769 1.55854e-19 0.00179814 0.00494864 4.13352e-19 0.00185449 0.0047658 4.60786e-19 
0.00179725 0.00532445 2.10064e-19 0.00185365 0.00514298 8.60585e-19 0.00179619 0.005699 7.11508e-19 
0.00185265 0.00551909 5.55654e-19 0.0017949 0.00607212 -3.52366e-19 0.00185144 0.00589402 4.06576e-20 
0.00179333 0.00644361 1.76183e-19 0.00184998 0.00626761 4.13352e-19 0.00179142 0.00681326 -3.38813e-19 
0.00184821 0.00663971 5.6243e-19 0.00178907 0.00718081 5.6243e-19 0.00184606 0.00701014 2.57498e-19 
0.0017862 0.00754597 1.55854e-19 0.00184345 0.00737872 6.36969e-19 0.00178271 0.00790842 1.01644e-19 
0.00184029 0.00774523 3.65918e-19 0.00177846 0.00826778 4.74338e-19 0.00183649 0.00810948 2.43945e-19 
0.00177334 0.00862369 -7.58942e-19 0.00183196 0.00847129 -1.21973e-19 0.00176725 0.00897576 1.35525e-20 
0.00182666 0.00883053 -2.57498e-19 0.00176016 0.00932366 5.89535e-19 0.00182062 0.00918718 -1.0842e-19 
0.00175222 0.00966722 -2.71051e-20 0.00181406 0.00954146 5.42101e-20 0.00174392 0.0100066 5.01444e-19 
0.00180754 0.00989399 9.21572e-19 0.00173659 0.0103427 7.38613e-19 0.00180235 0.0102461 7.52165e-19 
0.00180112 0.0106004 5.21772e-19 0.00191472 0.000383317 1.42302e-19 0.0019712 0.000191867 1.69407e-19 
0.00191465 0.000766576 6.77626e-20 0.00197115 0.000575576 6.09864e-20 0.00191453 0.00114972 1.76183e-19 
0.00197106 0.000959203 1.21973e-19 0.00191437 0.00153269 -1.76183e-19 0.00197091 0.0013427 -2.03288e-20 
0.00191416 0.00191542 1.55854e-19 0.00197072 0.001726 -1.15196e-19 0.0019139 0.00229786 2.57498e-19 
0.00197048 0.00210906 4.06576e-20 0.00191359 0.00267994 4.06576e-20 0.0019702 0.00249182 -8.13152e-20 
0.00191323 0.00306161 -2.10064e-19 0.00196987 0.00287423 -3.93023e-19 0.00191281 0.00344278 1.76183e-19 
0.00196948 0.00325623 -3.59142e-19 0.00191232 0.0038234 2.84603e-19 0.00196904 0.00363776 2.10064e-19 
0.00191176 0.00420339 3.45589e-19 0.00196854 0.00401875 2.71051e-19 0.00191111 0.00458267 6.77626e-21 
0.00196797 0.00439916 3.998e-19 0.00191034 0.00496116 7.65718e-19 0.0019673 0.00477891 2.10064e-19 
0.00190944 0.00533877 5.28549e-19 0.00196652 0.00515795 1.55854e-19 0.00190836 0.00571541 4.60786e-19 
0.00196561 0.0055362 3.65918e-19 0.00190707 0.00609098 1.49078e-19 0.00196453 0.00591361 5.82759e-19 
0.00190552 0.00646536 1.04354e-18 0.00196325 0.0062901 7.2506e-19 0.00190365 0.00683845 1.35525e-20 
0.00196171 0.00666562 7.72494e-19 0.0019014 0.00721013 1.20617e-18 0.00195989 0.00704013 3.25261e-19 
0.00189869 0.00758032 9.35124e-19 0.00195772 0.00741359 9.35124e-19 0.00189548 0.00794892 4.5401e-19 
0.00195518 0.00778603 4.33681e-19 0.0018917 0.0083159 1.01644e-19 0.00195225 0.00815751 5.6243e-19 
0.00188737 0.00868132 -6.77626e-20 0.00194898 0.00852822 -2.37169e-19 0.00188258 0.00904538 -4.87891e-19 
0.00194551 0.00889848 -1.6263e-19 0.00187759 0.00940853 -6.77626e-21 0.00194215 0.0092689 -9.41901e-19 
0.00187302 0.00977164 2.1684e-19 0.00193954 0.00964046 -9.82558e-19 0.0018701 0.0101363 1.15196e-18 
0.00193883 0.0100147 -2.10064e-19 0.0018712 0.010505 4.74338e-20 0.00194216 0.0103941 -3.45589e-19 
0.00195322 0.0107824 -1.01644e-19 0.0020278 0.000384181 -8.80914e-20 0.0020846 0.000192339 4.74338e-20 
0.00202773 0.000768313 1.21973e-19 0.00208455 0.000576996 -9.48677e-20 0.00202761 0.00115235 2.03288e-19 
0.00208446 0.000961586 1.28749e-19 0.00202744 0.00153623 -3.25261e-19 0.00208433 0.00134607 1.0842e-19 
0.00202723 0.00191992 1.96512e-19 0.00208415 0.00173039 -8.80914e-20 0.00202698 0.00230337 -1.42302e-19 
0.00208393 0.00211452 1.01644e-19 0.00202669 0.00268652 -9.48677e-20 0.00208368 0.00249841 -8.13152e-20 
0.00202635 0.00306932 -1.21973e-19 0.00208339 0.00288201 8.80914e-20 0.00202596 0.00345174 -1.49078e-19 
0.00208307 0.0032653 3.04932e-19 0.00202553 0.00383372 1.15196e-19 0.00208272 0.00364823 1.28749e-19 
0.00202505 0.00421521 3.38813e-20 0.00208233 0.00403077 -2.91379e-19 0.0020245 0.00459617 3.32037e-19 
0.00208191 0.00441288 1.0842e-19 0.00202387 0.00497656 -4.74338e-19 0.00208144 0.00479454 -2.03288e-20 
0.00202314 0.00535633 2.23617e-19 0.00208091 0.00517573 -1.01644e-19 0.0020223 0.00573544 1.21973e-19 
0.00208032 0.00555643 -6.77626e-20 0.00202131 0.00611388 3.93023e-19 0.00207965 0.00593665 2.64274e-19 
0.00202016 0.00649161 5.55654e-19 0.00207888 0.0063164 -2.03288e-20 0.00201879 0.00686866 5.42101e-20 
0.00207801 0.00669572 -2.71051e-19 0.00201721 0.00724504 7.92823e-19 0.00207702 0.00707468 2.03288e-19 
0.00201539 0.00762084 7.45389e-19 0.00207594 0.00745343 2.03288e-19 0.00201336 0.00799621 -2.71051e-19 
0.0020748 0.00783215 -6.77626e-21 0.00201119 0.00837141 3.79471e-19 0.00207372 0.00821115 2.43945e-19 
0.00200905 0.00874686 -4.87891e-19 0.00207288 0.00859089 -1.55854e-19 0.0020073 0.00912321 -3.998e-19 
0.00207265 0.00897205 -1.21973e-19 0.00200655 0.00950147 -5.69206e-19 0.00207365 0.0093556 4.13352e-19 
0.00200792 0.00988314 3.86247e-19 0.00207688 0.00974295 7.52165e-19 0.00201327 0.0102705 -5.01444e-19 
0.00208402 0.0101361 1.02999e-18 0.00202575 0.0106666 -3.38813e-19 0.00209773 0.0105376 -3.86247e-19 
0.00212212 0.0109512 -8.13152e-20 0.00214154 0.000385203 4.74338e-20 0.00219871 0.000192886 6.77626e-21 
0.00214148 0.000770366 2.77827e-19 0.00219867 0.000578641 1.6263e-19 0.00214138 0.00115545 -2.71051e-20 
0.0021986 0.000964344 2.71051e-20 0.00214123 0.00154042 1.21973e-19 0.00219849 0.00134996 2.71051e-20 
0.00214105 0.00192523 -4.74338e-20 0.00219835 0.00173546 -1.35525e-19 0.00214085 0.00230985 -8.80914e-20 
0.00219819 0.00212081 -1.35525e-19 0.00214062 0.00269425 -6.09864e-20 0.00219802 0.00250599 -1.0842e-19 
0.00214036 0.00307839 8.13152e-20 0.00219783 0.00289096 -3.38813e-20 0.00214009 0.00346224 -2.1684e-19 
0.00219765 0.00327571 -1.69407e-19 0.00213981 0.00384578 -3.11708e-19 0.00219747 0.00366022 -2.64274e-19 
0.00213951 0.004229 8.13152e-20 0.0021973 0.00404448 -7.45389e-20 0.00213921 0.00461186 2.71051e-20 
0.00219716 0.00442849 2.57498e-19 0.00213889 0.00499438 4.87891e-19 0.00219704 0.00481226 5.0822e-19 
0.00213855 0.00537655 3.52366e-19 0.00219696 0.00519579 8.3348e-19 0.0021382 0.00575841 3.72694e-19 
0.00219692 0.00557914 4.26905e-19 0.00213783 0.00613998 1.28749e-19 0.00219693 0.00596237 3.38813e-20 
0.00213744 0.00652133 1.6263e-19 0.00219702 0.00634555 6.77626e-20 0.00213705 0.00690259 7.04731e-19 
0.0021972 0.00672882 8.47033e-19 0.00213669 0.00728389 3.86247e-19 0.00219754 0.00711236 -2.23617e-19 
0.00213643 0.00766549 7.58942e-19 0.00219811 0.00749641 2.37169e-19 0.00213639 0.0080477 3.25261e-19 
0.00219905 0.00788132 9.55453e-19 0.00213678 0.008431 -1.01644e-19 0.00220058 0.00826756 6.77626e-19 
0.00213798 0.00881604 -6.03087e-19 0.00220307 0.00865575 -3.93023e-19 0.00214055 0.00920377 2.84603e-19 
0.00220706 0.00904674 1.49078e-19 0.00214544 0.00959543 7.65718e-19 0.00221341 0.00944168 2.84603e-19 
0.00215412 0.00999276 2.3988e-18 0.0022234 0.00984204 4.87891e-19 0.00216884 0.010398 9.75782e-19 
0.00223896 0.0102497 7.58942e-19 0.00219298 0.010814 1.05032e-18 0.00226286 0.010667 5.0822e-19 
0.00229899 0.0110965 1.21973e-19 0.00225605 0.000386365 -6.77626e-21 0.00225601 0.000772701 2.30393e-19 
0.00225593 0.00115898 -2.50722e-19 0.00225583 0.00154517 2.30393e-19 0.00225572 0.00193125 -3.32037e-19 
0.0022556 0.0023172 -1.76183e-19 0.00225548 0.00270299 -2.77827e-19 0.00225538 0.00308861 -1.35525e-19 
0.0022553 0.00347406 -3.65918e-19 0.00225526 0.00385932 6.09864e-20 0.00225527 0.00424441 5.55654e-19 
0.00225535 0.00462934 -3.59142e-19 0.00225551 0.00501414 6.97955e-19 0.00225577 0.00539887 7.11508e-19 
0.00225615 0.00578359 6.77626e-19 0.00225669 0.00616841 -3.18484e-19 0.00225741 0.00655347 6.91179e-19 
0.0022584 0.00693895 1.04354e-18 0.00225974 0.00732512 3.998e-19 0.00226159 0.0077123 6.36969e-19 
0.00226417 0.00810095 2.50722e-19 0.00226782 0.00849167 -8.80914e-20 0.00227306 0.00888523 -1.0842e-19 
0.00228067 0.00928264 1.55854e-19 0.00229177 0.00968516 5.82759e-19 0.00230799 0.0100944 4.06576e-20 
0.00233164 0.0105121 3.72694e-19 0.00236584 0.0109406 2.23617e-19 0.00242897 0.000388322 6.09864e-20 
0.00242897 0.00077663 1.15196e-19 0.00242897 0.00116491 -1.21973e-19 0.00242898 0.00155315 1.35525e-20 
0.00242902 0.00194135 6.09864e-20 0.0024291 0.00232949 -2.13452e-19 0.00242925 0.00271759 1.35525e-20 
0.00242948 0.00310564 1.01644e-19 0.00242983 0.00349367 5.0822e-20 0.00243032 0.0038817 -1.35525e-19 
0.00243099 0.00426977 -2.27005e-19 0.00243188 0.00465794 -1.01644e-20 0.00243303 0.00504629 2.23617e-19 
0.00243451 0.00543491 1.69407e-20 0.00243637 0.00582394 -8.47033e-20 0.0024387 0.00621354 -6.77626e-21 
0.0024416 0.00660392 -2.84603e-19 0.00244522 0.00699535 -6.77626e-21 0.00244974 0.00738816 1.01644e-19 
0.00245541 0.00778277 -5.42101e-20 0.00246258 0.00817968 6.43745e-20 0.00247173 0.00857952 -2.50722e-19 
0.00248351 0.00898303 3.38813e-21 0.0024988 0.00939107 -2.1684e-19 0.00251875 0.00980465 -1.21973e-19 
0.0025449 0.0102248 1.05032e-19 0.00257914 0.0106526 2.40557e-19 0.0026237 0.0110887 -9.82558e-20 
0.00254526 0.00038974 1.69407e-20 0.0025453 0.000779476 -1.18585e-19 0.00254537 0.0011692 3.38813e-21 
0.00254548 0.00155892 2.03288e-20 0.00254565 0.00194864 -1.11808e-19 0.00254591 0.00233835 6.09864e-20 
0.00254628 0.00272808 3.38813e-21 0.0025468 0.00311784 -5.42101e-20 0.00254751 0.00350767 -1.52466e-19 
0.00254844 0.00389761 -1.0842e-19 0.00254966 0.00428771 -3.86247e-19 0.00255121 0.00467806 -1.35525e-20 
0.00255317 0.00506875 -4.13352e-19 0.00255562 0.0054599 -2.03288e-19 0.00255866 0.00585167 -8.13152e-20 
0.00256239 0.00624425 -1.82959e-19 0.00256696 0.00663787 1.01644e-19 0.00257256 0.00703281 -3.79471e-19 
0.00257942 0.00742943 1.79571e-19 0.00258783 0.00782814 -4.64174e-19 0.0025982 0.00822941 -1.82959e-19 
0.00261103 0.00863382 7.45389e-20 0.00262698 0.009042 -3.59142e-19 0.00264691 0.00945465 -1.69407e-20 
0.00267187 0.00987249 4.06576e-20 0.00270313 0.0102962 -3.59142e-19 0.00274218 0.0107263 -1.0842e-19 
0.00279056 0.0111629 5.42101e-20 0.00266253 0.000391227 3.38813e-21 0.00266261 0.000782458 1.01644e-20 
0.00266276 0.0011737 1.96512e-19 0.00266298 0.00156496 -8.13152e-20 0.00266331 0.00195625 -1.35525e-20 
0.00266378 0.00234758 -1.15196e-19 0.00266441 0.00273899 6.77626e-21 0.00266525 0.0031305 4.06576e-20 
0.00266636 0.00352216 -1.35525e-20 0.00266779 0.00391401 2.03288e-20 0.00266962 0.00430614 6.43745e-20 
0.00267191 0.00469863 -2.57498e-19 0.00267475 0.00509159 2.5411e-19 0.00267826 0.00548516 -2.10064e-19 
0.00268255 0.0058795 2.03288e-19 0.00268777 0.00627481 1.59242e-19 0.0026941 0.00667134 2.06676e-19 
0.00270174 0.00706936 1.52466e-19 0.00271097 0.00746921 9.48677e-20 0.00272211 0.00787127 1.21973e-19 
0.00273557 0.00827597 -6.77626e-21 0.00275185 0.00868379 -2.37169e-20 0.00277159 0.00909523 3.15096e-19 
0.00279553 0.00951079 2.37169e-20 0.00282455 0.00993094 1.25361e-19 0.00285966 0.010356 1.76183e-19 
0.00290187 0.0107861 -4.40457e-20 0.0029521 0.0112211 2.50722e-19 0.00278081 0.000392761 -6.43745e-20 
0.00278094 0.000785535 8.47033e-20 0.00278117 0.00117833 -3.04932e-20 0.00278152 0.00157118 6.77626e-21 
0.00278202 0.00196408 -2.71051e-20 0.00278271 0.00235707 -1.42302e-19 0.00278362 0.00275018 6.09864e-20 
0.00278482 0.00314345 1.01644e-20 0.00278636 0.00353693 2.40557e-19 0.00278833 0.00393069 1.55854e-19 
0.00279079 0.00432479 1.28749e-19 0.00279385 0.00471935 3.21873e-19 0.00279763 0.00511448 -7.45389e-20 
0.00280223 0.00551031 6.77626e-20 0.00280782 0.00590701 2.23617e-19 0.00281455 0.00630479 2.81215e-19 
0.00282263 0.00670386 2.57498e-19 0.0028323 0.0071045 3.45589e-19 0.00284382 0.00750701 1.15196e-19 
0.00285755 0.00791172 2.50722e-19 0.00287387 0.00831898 2.30393e-19 0.00289326 0.00872917 3.76083e-19 
0.00291626 0.00914265 2.71051e-20 0.00294351 0.00955976 5.6243e-19 0.00297567 0.00998073 2.06676e-19 
0.00301346 0.0104057 2.43945e-19 0.00305748 0.0108344 8.47033e-20 0.00310815 0.0112665 -4.06576e-20 
0.00290011 0.000394324 -5.42101e-20 0.00290029 0.000788668 6.43745e-20 0.00290062 0.00118305 -6.43745e-20 
0.0029011 0.0015775 -2.71051e-20 0.00290178 0.00197203 9.48677e-20 0.0029027 0.00236669 8.47033e-20 
0.0029039 0.0027615 -2.03288e-20 0.00290547 0.00315653 -9.48677e-20 0.00290746 0.00355181 1.01644e-19 
0.00290997 0.00394742 -8.13152e-20 0.00291309 0.00434344 2.33781e-19 0.00291693 0.00473998 -9.14796e-20 
0.00292163 0.00513714 -1.72795e-19 0.00292733 0.00553506 1.15196e-19 0.00293419 0.0059339 1.05032e-19 
0.00294241 0.00633386 1.52466e-19 0.00295218 0.00673513 3.38813e-20 0.00296377 0.00713794 6.77626e-20 
0.00297744 0.00754257 3.32037e-19 0.00299354 0.00794927 -2.43945e-19 0.00301241 0.00835834 7.45389e-20 
0.00303449 0.00877003 2.47334e-19 0.00306021 0.0091846 -1.69407e-20 0.00309007 0.00960222 -1.69407e-19 
0.00312453 0.010023 -6.77626e-21 0.00316403 0.0104468 -8.80914e-20 0.00320885 0.0108733 8.80914e-20 
0.00325902 0.0113021 1.49078e-19 0.00302043 0.000395897 6.09864e-20 0.00302067 0.000791819 1.05032e-19 
0.00302108 0.00118779 1.32137e-19 0.0030217 0.00158385 9.48677e-20 0.00302256 0.00198001 7.45389e-20 
0.00302371 0.00237633 1.35525e-20 0.00302522 0.00277283 1.18585e-19 0.00302715 0.00316958 6.09864e-20 
0.00302958 0.00356662 1.0842e-19 0.00303263 0.00396404 1.72795e-19 0.0030364 0.0043619 2.30393e-19 
0.00304101 0.0047603 -3.72694e-20 0.00304661 0.00515936 1.15196e-19 0.00305337 0.00555921 -6.77626e-21 
0.00306144 0.00595997 -1.42302e-19 0.00307105 0.00636183 1.55854e-19 0.0030824 0.00676496 -5.42101e-20 
0.00309575 0.00716956 2.1684e-19 0.00311137 0.00757583 8.80914e-20 0.00312956 0.00798399 3.45589e-19 
0.00315064 0.00839423 1.0842e-19 0.00317496 0.00880675 9.14796e-20 0.00320288 0.00922168 8.13152e-20 
0.00323472 0.00963907 1.4569e-19 0.00327078 0.0100589 -9.14796e-20 0.00331126 0.0104809 3.72694e-20 
0.00335617 0.0109049 1.89735e-19 0.00340527 0.0113301 -9.48677e-20 0.00314175 0.00039746 3.38813e-20 
0.00314205 0.000794951 3.38813e-21 0.00314255 0.0011925 -1.15196e-19 0.0031433 0.00159015 -7.11508e-20 
0.00314434 0.00198793 7.7927e-20 0.00314572 0.00238588 -2.03288e-20 0.00314752 0.00278404 2.23617e-19 
0.0031498 0.00318248 -1.42302e-19 0.00315267 0.00358123 -6.77626e-20 0.00315623 0.00398038 -6.09864e-20 
0.00316061 0.00438 -9.48677e-20 0.00316595 0.00478017 1.05032e-19 0.0031724 0.005181 -2.40557e-19 
0.00318014 0.0055826 6.77626e-20 0.00318934 0.00598509 -1.59242e-19 0.00320022 0.00638862 1.28749e-19 
0.003213 0.00679332 6.43745e-20 0.00322792 0.00719936 2.37169e-20 0.00324524 0.00760689 5.42101e-20 
0.00326522 0.00801606 -3.28649e-19 0.00328815 0.00842702 1.28749e-19 0.0033143 0.00883985 -2.1684e-19 
0.00334392 0.00925462 -8.80914e-20 0.00337721 0.0096713 -9.82558e-20 0.00341431 0.0100898 -3.35425e-19 
0.00345522 0.0105098 8.47033e-20 0.00349977 0.010931 -3.15096e-19 0.00354752 0.0113528 -3.18484e-19 
0.00326406 0.000398997 1.52466e-19 0.0032644 0.00079803 -1.35525e-20 0.003265 0.00119713 -2.03288e-20 
0.00326588 0.00159634 1.15196e-19 0.00326709 0.0019957 -6.09864e-20 0.00326868 0.00239525 -7.45389e-20 
0.00327075 0.00279503 -1.96512e-19 0.00327337 0.0031951 8.47033e-20 0.00327664 0.00359552 -8.47033e-20 
0.00328068 0.00399633 2.71051e-19 0.00328563 0.00439762 -4.06576e-20 0.00329164 0.00479947 1.05032e-19 
0.00329886 0.00520195 5.0822e-20 0.00330747 0.00560516 1.59242e-19 0.00331768 0.00600921 4.43845e-19 
0.00332969 0.0064142 -9.82558e-20 0.00334372 0.00682025 -5.42101e-20 0.00335999 0.00722746 2.40557e-19 
0.00337875 0.00763596 2.13452e-19 0.00340024 0.00804583 2.81215e-19 0.00342467 0.00845715 -6.77626e-21 
0.00345225 0.00886996 1.38913e-19 0.00348315 0.00928424 -7.45389e-20 0.00351745 0.00969991 3.38813e-21 
0.00355516 0.0101168 4.77727e-19 0.00359614 0.0105347 -2.03288e-20 0.00364006 0.0109532 2.60886e-19 
0.00368638 0.0113718 -1.38913e-19 0.00338731 0.00040049 -9.14796e-20 0.0033877 0.00080102 -2.71051e-20 
0.00338838 0.00120163 1.0842e-19 0.00338937 0.00160236 -7.11508e-20 0.00339074 0.00200325 5.75982e-20 
0.00339254 0.00240435 7.45389e-20 0.00339486 0.00280569 2.23617e-19 0.00339778 0.00320735 1.42302e-19 
0.00340142 0.00360935 1.0842e-19 0.0034059 0.00401177 -1.35525e-19 0.00341136 0.00441466 7.7927e-20 
0.00341795 0.00481809 1.49078e-19 0.00342585 0.00522212 -8.80914e-20 0.00343525 0.00562684 1.21973e-19 
0.00344632 0.00603232 -2.47334e-19 0.0034593 0.00643863 7.11508e-20 0.00347438 0.00684586 -1.76183e-19 
0.00349178 0.00725407 6.09864e-20 0.00351173 0.00766334 -4.20128e-19 0.00353441 0.0080737 1.93124e-19 
0.00356002 0.00848518 -9.14796e-20 0.00358869 0.00889776 5.42101e-20 0.00362051 0.00931138 -7.7927e-20 
0.00365548 0.00972593 1.15196e-19 0.00369348 0.0101412 -1.35525e-19 0.00373429 0.010557 -7.11508e-20 
0.00377747 0.0109729 3.65918e-19 0.00382239 0.0113885 1.38913e-19 0.00351145 0.000401921 1.01644e-19 
0.00351188 0.000803885 1.32137e-19 0.00351264 0.00120594 5.0822e-20 0.00351375 0.00160812 3.38813e-20 
0.00351526 0.00201049 -6.43745e-20 0.00351725 0.00241307 -9.14796e-20 0.00351979 0.00281593 7.7927e-20 
0.00352298 0.0032191 -2.71051e-20 0.00352695 0.00362264 2.03288e-20 0.00353181 0.0040266 2.03288e-20 
0.00353771 0.00443102 1.11808e-19 0.00354481 0.00483597 -3.38813e-20 0.0035533 0.00524148 -6.77626e-21 
0.00356334 0.00564763 3.72694e-20 0.00357515 0.00605445 -6.77626e-21 0.00358892 0.006462 -1.96512e-19 
0.00360485 0.00687031 -2.30393e-19 0.00362317 0.00727942 -4.74338e-20 0.00364405 0.00768936 2.98156e-19 
0.00366767 0.00810012 -1.93124e-19 0.00369416 0.00851167 3.15096e-19 0.00372361 0.00892396 -2.87991e-19 
0.00375605 0.00933689 -2.1684e-19 0.00379141 0.00975031 2.84603e-19 0.00382949 0.010164 1.79571e-19 
0.00386997 0.0105778 -3.15096e-19 0.00391237 0.0109913 -1.21973e-19 0.00395602 0.0114042 5.0822e-20 
0.00363642 0.00040327 -1.32137e-19 0.0036369 0.000806589 -3.72694e-20 0.00363773 0.00121001 1.05032e-19 
0.00363893 0.00161357 -1.21973e-19 0.00364058 0.00201733 -1.69407e-20 0.00364273 0.00242133 2.37169e-20 
0.00364547 0.00282562 1.42302e-19 0.00364891 0.00323025 4.06576e-20 0.00365315 0.00363526 5.0822e-20 
0.00365834 0.0040407 -3.38813e-20 0.00366462 0.00444661 8.80914e-20 0.00367216 0.00485302 1.4569e-19 
0.00368112 0.00525998 -3.998e-19 0.0036917 0.00566751 2.40557e-19 0.00370409 0.00607565 -4.40457e-20 
0.00371849 0.0064844 -1.69407e-19 0.0037351 0.00689378 1.15196e-19 0.00375411 0.00730379 2.13452e-19 
0.00377569 0.00771439 1.4569e-19 0.00379998 0.00812556 2.47334e-19 0.0038271 0.00853722 2.71051e-19 
0.00385708 0.00894928 2.87991e-19 0.00388989 0.00936161 -2.37169e-20 0.00392542 0.00977403 -2.77827e-19 
0.00396341 0.0101864 -3.38813e-20 0.0040035 0.0105983 2.50722e-19 0.00404514 0.0110097 -9.48677e-20 
0.00408765 0.0114202 6.97955e-19 0.00376216 0.000404518 1.59242e-19 0.00376268 0.00080909 1.76183e-19 
0.00376357 0.00121377 -1.28749e-19 0.00376487 0.00161862 2.5411e-19 0.00376663 0.00202369 -1.32137e-19 
0.00376893 0.00242902 9.14796e-20 0.00377185 0.00283467 -1.01644e-20 0.0037755 0.00324068 4.40457e-20 
0.00377999 0.0036471 -4.74338e-20 0.00378545 0.00405397 8.47033e-20 0.00379205 0.00446132 1.4569e-19 
0.00379993 0.00486917 -1.35525e-19 0.00380928 0.00527756 -1.82959e-19 0.00382028 0.00568648 -2.71051e-19 
0.00383313 0.00609595 1.11808e-19 0.00384801 0.00650595 6.77626e-20 0.00386511 0.00691645 1.32137e-19 
0.00388462 0.00732742 1.59242e-19 0.00390669 0.0077388 -5.0822e-20 0.00393144 0.0081505 3.72694e-19 
0.00395895 0.00856242 1.0842e-19 0.00398923 0.00897442 -7.14896e-19 0.00402222 0.00938635 1.25361e-19 
0.00405775 0.00979801 1.6263e-19 0.00409553 0.0102092 -2.64274e-19 0.00413517 0.0106196 7.11508e-20 
0.0041761 0.0110291 -2.37169e-19 0.00421761 0.0114374 -3.04932e-20 0.00388857 0.000405641 2.71051e-20 
0.00388913 0.000811345 4.40457e-20 0.00389008 0.00121717 6.77626e-21 0.00389146 0.00162319 0 
0.00389334 0.00202945 0 0.00389577 0.00243601 -1.15196e-19 0.00389886 0.00284293 2.60886e-19 
0.00390269 0.00325025 -6.77626e-20 0.00390739 0.00365802 2.23617e-19 0.0039131 0.00406627 -1.42302e-19 
0.00391995 0.00447503 7.7927e-20 0.00392812 0.00488431 -9.14796e-20 0.00393778 0.00529414 7.45389e-20 
0.00394911 0.00570449 1.86347e-19 0.00396229 0.00611536 3.48978e-19 0.00397752 0.0065267 -2.23617e-19 
0.00399497 0.00693847 1.01644e-20 0.00401481 0.00735057 3.45589e-19 0.00403719 0.00776292 1.15196e-19 
0.0040622 0.00817539 -1.35525e-20 0.00408991 0.00858784 1.72795e-19 0.0041203 0.00900008 1.42302e-19 
0.00415328 0.00941193 -4.74338e-20 0.00418867 0.00982316 6.77626e-20 0.00422615 0.0102335 -3.25261e-19 
0.0042653 0.0106428 -5.75982e-20 0.00430554 0.0110508 1.11808e-19 0.00434618 0.0114572 1.35525e-19 
0.00401556 0.000406614 -1.59242e-19 0.00401615 0.000813302 9.82558e-20 0.00401716 0.00122013 2.06676e-19 
0.00401863 0.00162718 -1.79571e-19 0.00402061 0.00203451 5.42101e-20 0.00402318 0.00244218 -1.52466e-19 
0.00402642 0.00285026 -1.21973e-19 0.00403042 0.0032588 2.37169e-20 0.00403532 0.00366784 -4.77727e-19 
0.00404124 0.00407742 1.72795e-19 0.00404832 0.00448757 -6.77626e-20 0.00405673 0.00489829 -2.71051e-19 
0.00406664 0.0053096 -2.37169e-20 0.00407822 0.00572146 1.18585e-19 0.00409166 0.00613385 -6.43745e-20 
0.00410713 0.0065467 1.38913e-19 0.0041248 0.00695992 -3.72694e-20 0.00414484 0.00737342 8.80914e-20 
0.00416738 0.00778705 -5.42101e-20 0.00419249 0.00820064 3.04932e-20 0.00422024 0.00861401 -9.48677e-20 
0.00425058 0.00902692 6.09864e-20 0.00428341 0.00943915 -3.18484e-19 0.00431852 0.00985043 4.37069e-19 
0.00435561 0.0102605 -3.18484e-19 0.00439422 0.010669 6.09864e-20 0.00443378 0.0110758 1.89735e-19 
0.00447361 0.0114807 5.65818e-19 0.004143 0.000407409 1.05032e-19 0.00414363 0.000814903 3.38813e-20 
0.0041447 0.00122256 -1.89735e-19 0.00414626 0.00163048 -5.42101e-20 0.00414836 0.00203872 4.74338e-20 
0.00415106 0.00244736 -2.71051e-20 0.00415445 0.00285647 3.72694e-20 0.00415864 0.00326612 -2.43945e-19 
0.00416372 0.00367635 3.15096e-19 0.00416985 0.00408721 -2.13452e-19 0.00417715 0.00449872 -1.59242e-19 
0.00418578 0.0049109 -4.74338e-20 0.00419591 0.00532375 -1.18585e-19 0.0042077 0.00573723 -3.15096e-19 
0.00422134 0.0061513 1.96512e-19 0.00423698 0.00656587 1.0842e-19 0.00425481 0.00698084 2.77827e-19 
0.00427496 0.00739608 -2.33781e-19 0.00429754 0.00781139 1.05032e-19 0.00432265 0.00822659 -3.65918e-19 
0.0043503 0.00864141 -1.93124e-19 0.00438046 0.00905558 7.11508e-20 0.00441301 0.00946881 4.74338e-20 
0.00444774 0.00988076 -3.6253e-19 0.00448431 0.0102911 1.4569e-19 0.0045223 0.0106995 3.52366e-19 
0.00456114 0.0111057 -2.30393e-19 0.00460014 0.0115093 -2.5411e-19 0.00237118 0.000387645 -1.35525e-20 
0.00242898 0.000194162 3.65918e-19 0.00237116 0.00077527 2.84603e-19 0.00242897 0.000582478 2.64274e-19 
0.00237113 0.00116286 -4.33681e-19 0.00242897 0.000970774 -1.01644e-19 0.00237111 0.00155039 1.69407e-19 
0.00242897 0.00135904 -1.76183e-19 0.00237109 0.00193786 9.48677e-20 0.002429 0.00174726 1.21973e-19 
0.00237109 0.00232525 -5.75982e-19 0.00242906 0.00213543 -4.47233e-19 0.00237114 0.00271255 6.77626e-21 
0.00242917 0.00252355 -4.47233e-19 0.00237125 0.00309978 3.79471e-19 0.00242935 0.00291162 1.76183e-19 
0.00237143 0.00348692 -3.04932e-19 0.00242964 0.00329966 1.69407e-19 0.00237173 0.00387401 -1.82959e-19 
0.00243005 0.00368768 -2.37169e-19 0.00237215 0.00426108 -1.21973e-19 0.00243063 0.00407573 -4.74338e-19 
0.00237275 0.00464816 -4.06576e-19 0.0024314 0.00446384 -5.6243e-19 0.00237354 0.00503532 4.67562e-19 
0.00243242 0.00485209 4.5401e-19 0.00237457 0.00542265 6.23416e-19 0.00243373 0.00524056 2.37169e-19 
0.00237589 0.00581026 2.91379e-19 0.00243538 0.00562937 2.03288e-20 0.00237757 0.0061983 1.0842e-19 
0.00243747 0.00601865 -8.13152e-20 0.0023797 0.00658696 -2.64274e-19 0.00244007 0.00640861 -3.59142e-19 
0.00238238 0.00697648 7.31836e-19 0.00244331 0.00679948 -3.25261e-19 0.00238578 0.00736719 8.60585e-19 
0.00244735 0.00719156 -6.77626e-20 0.00239012 0.00775948 1.89735e-19 0.00245241 0.00758521 -2.1684e-19 
0.00239571 0.00815386 1.89735e-19 0.00245878 0.0079809 3.86247e-19 0.00240299 0.00855096 2.1684e-19 
0.00246687 0.00837919 -5.14996e-19 0.0024126 0.00895155 7.65718e-19 0.00247724 0.00878076 -4.06576e-19 
0.00242538 0.00935657 -9.41901e-19 0.00249065 0.00918642 -5.89535e-19 0.00244253 0.00976713 -1.55854e-19 
0.0025081 0.0095971 -1.42302e-19 0.00246564 0.0101845 -5.21772e-19 0.00253094 0.0100138 6.77626e-21 
0.00249679 0.0106099 4.87891e-19 0.00256087 0.0104377 4.74338e-19 0.00253855 0.0110446 -3.79471e-19 
0.00259998 0.0108696 -3.79471e-19 0.00265059 0.0113101 -3.72694e-19 0.002487 0.000389021 6.09864e-20 
0.00254526 0.00019487 -4.40457e-19 0.00248701 0.000778033 -1.42302e-19 0.00254528 0.000584609 -1.35525e-20 
0.00248705 0.00116703 -1.69407e-19 0.00254533 0.000974341 -2.77827e-19 0.00248711 0.001556 1.96512e-19 
0.00254541 0.00136406 2.03288e-20 0.00248721 0.00194494 -2.50722e-19 0.00254555 0.00175378 -1.35525e-19 
0.00248738 0.00233387 -2.71051e-19 0.00254577 0.00214349 -1.49078e-19 0.00248763 0.00272277 -4.06576e-20 
0.00254608 0.00253321 1.28749e-19 0.002488 0.00311167 -2.23617e-19 0.00254652 0.00292295 -1.01644e-19 
0.00248852 0.00350059 -2.50722e-19 0.00254713 0.00331274 -3.25261e-19 0.00248922 0.00388957 -5.82759e-19 
0.00254794 0.00370262 -4.40457e-19 0.00249016 0.00427866 -1.23328e-18 0.00254901 0.00409263 -1.05032e-18 
0.00249137 0.00466793 -1.28749e-19 0.00255039 0.00448285 -7.04731e-19 0.00249292 0.00505745 -3.04932e-19 
0.00255214 0.00487336 -7.18284e-19 0.00249486 0.00544735 -1.42302e-19 0.00255433 0.00526426 -1.0842e-18 
0.0024973 0.00583776 4.74338e-20 0.00255706 0.0056557 -4.13352e-19 0.00250031 0.00622888 -2.50722e-19 
0.00256043 0.00604785 -4.26905e-19 0.00250404 0.00662092 -6.57298e-19 0.00256456 0.00644091 -2.71051e-20 
0.00250863 0.00701416 -7.52165e-19 0.00256962 0.00683515 -3.59142e-19 0.0025143 0.00740894 7.86047e-19 
0.00257581 0.00723089 -1.15196e-19 0.00252134 0.00780569 -4.40457e-19 0.00258341 0.00762849 -1.96512e-19 
0.00253011 0.0082049 -5.82759e-19 0.00259274 0.00802842 -1.26716e-18 0.00254112 0.00860717 -1.55854e-19 
0.00260427 0.00843118 -6.77626e-21 0.00255503 0.0090132 -7.86047e-19 0.00261857 0.00883739 -3.998e-19 
0.0025727 0.00942378 -4.87891e-19 0.00263639 0.00924772 -6.43745e-19 0.00259527 0.00983976 -3.38813e-19 
0.00265868 0.00966287 2.91379e-19 0.00262414 0.010262 -4.13352e-19 0.00268662 0.0100836 -8.19928e-19 
0.002661 0.0106913 8.06375e-19 0.00272159 0.0105104 -1.10453e-18 0.00270774 0.011128 1.76183e-19 
0.00276511 0.0109438 1.0842e-19 0.00281869 0.0113836 -4.60786e-19 0.00260377 0.000390476 -1.01644e-19 
0.00266251 0.000195613 0 0.00260383 0.000780953 -1.21973e-19 0.00266257 0.000586842 -7.45389e-20 
0.00260394 0.00117143 4.20128e-19 0.00266268 0.000978077 4.13352e-19 0.0026041 0.00156191 -1.21973e-19 
0.00266286 0.00136933 2.64274e-19 0.00260435 0.00195241 -1.76183e-19 0.00266313 0.0017606 -1.15196e-19 
0.00260471 0.00234293 -3.11708e-19 0.00266353 0.00215191 -3.18484e-19 0.00260521 0.00273349 -1.0842e-19 
0.00266407 0.00254328 -2.77827e-19 0.00260589 0.00312412 -2.77827e-19 0.0026648 0.00293473 2.03288e-19 
0.00260679 0.00351486 -5.01444e-19 0.00266577 0.00332631 2.91379e-19 0.00260797 0.00390576 -5.28549e-19 
0.00266703 0.00371806 1.82959e-19 0.00260948 0.00429688 -6.84403e-19 0.00266865 0.00411004 2.57498e-19 
0.00261139 0.00468831 -1.00289e-18 0.0026707 0.00450233 -2.23617e-19 0.00261379 0.00508014 -7.2506e-19 
0.00267325 0.00489504 -4.74338e-20 0.00261676 0.00547252 -1.09775e-18 0.00267642 0.00528829 3.32037e-19 
0.00262042 0.0058656 -4.74338e-20 0.0026803 0.00568222 9.48677e-20 0.00262489 0.00625958 -3.38813e-19 
0.00268504 0.00607702 5.69206e-19 0.00263033 0.0066547 7.72494e-19 0.00269079 0.00647291 8.94467e-19 
0.00263695 0.00705124 -6.91179e-19 0.00269774 0.00687014 5.89535e-19 0.002645 0.00744955 0 
0.00270614 0.00726904 7.2506e-19 0.00265478 0.00785002 -9.62229e-19 0.00271628 0.00766994 3.93023e-19 
0.00266672 0.00825312 -9.28348e-19 0.00272852 0.00807326 1.89735e-19 0.00268131 0.00865937 -4.5401e-19 
0.00274332 0.00847946 -8.13152e-20 0.00269922 0.00906934 -3.52366e-19 0.00276125 0.00888902 5.35325e-19 
0.00272123 0.00948364 -6.50521e-19 0.00278298 0.00930246 6.50521e-19 0.00274834 0.00990285 -1.15196e-19 
0.00280934 0.00972026 4.26905e-19 0.00278168 0.0103275 -6.50521e-19 0.00284128 0.0101428 1.02999e-18 
0.0028225 0.0107578 -1.17229e-18 0.00287981 0.0105704 1.11131e-18 0.00287202 0.0111938 9.08019e-19 
0.00292593 0.0110031 1.96512e-19 0.00298045 0.0114402 2.23617e-19 0.00272155 0.000391989 -2.43945e-19 
0.00278078 0.00019638 2.91379e-19 0.00272165 0.000783987 1.76183e-19 0.00278087 0.000589146 1.69407e-19 
0.00272184 0.001176 2.77827e-19 0.00278104 0.000981931 1.21973e-19 0.00272213 0.00156805 -5.42101e-20 
0.00278133 0.00137475 -1.15196e-19 0.00272254 0.00196014 -1.82959e-19 0.00278175 0.00176762 1.0842e-19 
0.00272311 0.0023523 -4.47233e-19 0.00278234 0.00216056 -2.84603e-19 0.00272388 0.00274456 5.42101e-20 
0.00278313 0.00255361 -6.77626e-20 0.0027249 0.00313695 1.82959e-19 0.00278418 0.00294679 3.38813e-20 
0.00272622 0.00352952 3.52366e-19 0.00278554 0.00334016 4.06576e-19 0.00272792 0.00392233 6.03087e-19 
0.00278729 0.00373377 7.38613e-19 0.00273006 0.00431545 3.998e-19 0.00278949 0.00412769 6.1664e-19 
0.00273273 0.00470899 2.37169e-19 0.00279224 0.00452201 1.03677e-18 0.00273604 0.00510304 4.87891e-19 
0.00279564 0.00491683 1.42302e-19 0.00274009 0.00549776 -3.11708e-19 0.00279982 0.00531229 -2.50722e-19 
0.00274503 0.00589331 7.65718e-19 0.00280489 0.00570854 5.28549e-19 0.00275101 0.00628989 9.08019e-19 
0.00281103 0.00610575 6.97955e-19 0.00275821 0.00668774 7.65718e-19 0.00281841 0.00650414 1.07743e-18 
0.00276688 0.00708713 9.14796e-19 0.00282725 0.00690397 1.23328e-18 0.00277727 0.00748838 4.5401e-19 
0.00283781 0.0073055 8.87691e-19 0.00278973 0.00789185 1.29427e-18 0.00285039 0.00770907 5.69206e-19 
0.00280465 0.00829793 4.40457e-19 0.00286536 0.008115 1.0842e-18 0.00282253 0.00870705 1.34848e-18 
0.00288315 0.00852368 1.04354e-18 0.00284397 0.00911965 4.20128e-19 0.00290427 0.00893547 5.55654e-19 
0.00286965 0.00953613 1.56532e-18 0.00292931 0.00935073 1.27394e-18 0.00290036 0.00995685 1.4569e-18 
0.00295893 0.00976975 1.42302e-18 0.00293694 0.010382 6.30193e-19 0.00299382 0.0101927 9.62229e-19 
0.0029802 0.0108116 5.96311e-19 0.00303465 0.0106196 8.74138e-19 0.00303081 0.0112452 6.91179e-19 
0.00308197 0.0110501 2.71051e-19 0.00313602 0.0114836 3.38813e-20 0.00284033 0.000393541 -2.23617e-19 
0.00290007 0.000197161 2.1684e-19 0.00284049 0.000787097 1.6263e-19 0.00290019 0.000591493 1.28749e-19 
0.00284077 0.00118069 -1.0842e-19 0.00290044 0.000985853 9.48677e-20 0.00284118 0.00157433 -1.28749e-19 
0.00290084 0.00138026 -2.03288e-19 0.00284177 0.00196805 -5.42101e-20 0.00290141 0.00177475 6.77626e-20 
0.00284257 0.00236187 2.71051e-20 0.0029022 0.00216934 2.77827e-19 0.00284363 0.00275583 9.48677e-20 
0.00290326 0.00256407 2.43945e-19 0.00284501 0.00314998 1.15196e-19 0.00290464 0.00295899 -2.77827e-19 
0.00284678 0.00354437 5.55654e-19 0.0029064 0.00335413 1.28749e-19 0.00284901 0.00393906 1.76183e-19 
0.00290864 0.00374957 3.32037e-19 0.00285181 0.00433413 9.41901e-19 0.00291144 0.00414537 2.43945e-19 
0.00285526 0.00472969 4.13352e-19 0.00291491 0.00454164 6.03087e-19 0.0028595 0.00512585 -4.5401e-19 
0.00291917 0.00493847 -2.10064e-19 0.00286465 0.00552275 2.1684e-19 0.00292435 0.00533599 -6.09864e-20 
0.00287088 0.00592055 4.67562e-19 0.00293061 0.00573436 3.11708e-19 0.00287836 0.00631945 8.13152e-19 
0.00293812 0.00613373 8.87691e-19 0.0028873 0.00671966 2.1684e-19 0.00294708 0.00653431 3.998e-19 
0.00289794 0.00712145 6.30193e-19 0.00295773 0.00693632 2.98156e-19 0.00291057 0.00752508 6.23416e-19 
0.00297032 0.00734001 9.69006e-19 0.00292551 0.00793086 -2.43945e-19 0.00298517 0.00774564 1.89735e-19 
0.00294315 0.00833911 7.11508e-19 0.0030026 0.00815349 -1.21973e-19 0.00296393 0.00875015 1.04354e-18 
0.00302302 0.00856384 8.53809e-19 0.00298837 0.00916428 1.35525e-20 0.00304686 0.00897695 7.2506e-19 
0.003017 0.00958175 4.74338e-19 0.00307459 0.00939303 -2.77827e-19 0.00305041 0.0100027 0 
0.0031067 0.00981221 6.77626e-20 0.00308916 0.0104272 -2.03288e-20 0.00314363 0.0102345 -1.35525e-19 
0.00313369 0.0108549 -1.28749e-19 0.00318577 0.0106597 -3.72694e-19 0.00318421 0.0112854 2.23617e-19 
0.00323328 0.0110875 1.55854e-19 0.00328602 0.011517 6.77626e-19 0.00296014 0.000395111 -1.96512e-19 
0.00302037 0.000197947 -2.84603e-19 0.00296035 0.000790243 3.79471e-19 0.00302053 0.000593853 1.0842e-19 
0.00296072 0.00118542 8.80914e-20 0.00302085 0.000989797 5.96311e-19 0.00296127 0.00158067 9.48677e-20 
0.00302136 0.00138581 3.52366e-19 0.00296204 0.00197602 1.6263e-19 0.0030221 0.00178191 3.11708e-19 
0.00296308 0.00237151 3.04932e-19 0.0030231 0.00217815 2.57498e-19 0.00296443 0.00276718 1.69407e-19 
0.00302442 0.00257455 6.77626e-21 0.00296618 0.00316306 -1.28749e-19 0.00302612 0.00297117 3.25261e-19 
0.0029684 0.00355923 2.71051e-19 0.00302829 0.00336806 2.37169e-19 0.00297118 0.00395575 9.48677e-20 
0.00303102 0.00376528 6.57298e-19 0.00297462 0.00435271 8.3348e-19 0.00303442 0.00416291 8.19928e-19 
0.00297886 0.00475019 -1.89735e-19 0.00303859 0.00456103 3.72694e-19 0.00298401 0.00514832 1.35525e-20 
0.00304368 0.00495974 5.42101e-20 0.00299025 0.00554722 2.43945e-19 0.00304983 0.00535918 1.6263e-19 
0.00299772 0.00594705 -1.82959e-19 0.00305723 0.00575946 -1.55854e-19 0.00300665 0.00634799 1.89735e-19 
0.00306604 0.00616076 -2.10064e-19 0.00301723 0.00675023 -2.03288e-20 0.00307649 0.00656322 2.91379e-19 
0.00302972 0.00715398 9.08019e-19 0.00308881 0.00696706 3.38813e-19 0.00304439 0.00755948 1.00966e-18 
0.00310326 0.00737247 1.00289e-18 0.00306157 0.00796698 5.21772e-19 0.00312013 0.00777966 5.14996e-19 
0.00308159 0.0083767 6.43745e-19 0.00313972 0.00818884 8.3348e-19 0.00310485 0.00878888 6.03087e-19 
0.00316238 0.0086002 2.71051e-20 0.00313173 0.00920371 3.65918e-19 0.00318845 0.00901391 1.76183e-19 
0.00316265 0.00962129 1.6263e-19 0.00321829 0.00943007 4.47233e-19 0.003198 0.0100416 6.77626e-20 
0.00325221 0.00984869 -1.28749e-19 0.00323807 0.0104646 2.03288e-19 0.00329047 0.0102697 -7.45389e-20 
0.003283 0.0108899 6.09864e-19 0.00333317 0.0106927 8.60585e-19 0.00333269 0.0113169 5.89535e-19 
0.00338023 0.0111174 3.38813e-19 0.00343122 0.011543 -2.64274e-19 0.00308097 0.000396681 1.35525e-19 
0.00314168 0.000198728 4.47233e-19 0.00308123 0.000793389 3.52366e-19 0.00314187 0.0005962 4.74338e-20 
0.00308169 0.00119016 -1.35525e-19 0.00314227 0.000993718 -2.10064e-19 0.00308238 0.00158701 6.77626e-21 
0.0031429 0.00139131 -3.04932e-19 0.00308333 0.00198398 3.11708e-19 0.00314378 0.00178902 1.55854e-19 
0.0030846 0.00238112 1.49078e-19 0.00314499 0.00218688 8.80914e-20 0.00308625 0.00277846 7.45389e-19 
0.00314656 0.00258493 1.76183e-19 0.00308835 0.00317605 5.42101e-20 0.00314859 0.00298322 2.64274e-19 
0.00309101 0.00357396 6.09864e-20 0.00315115 0.00338181 -5.35325e-19 0.00309432 0.00397225 3.998e-19 
0.00315436 0.00378075 -3.18484e-19 0.0030984 0.004371 4.94667e-19 0.00315831 0.00418013 -2.64274e-19 
0.00310338 0.0047703 1.6263e-19 0.00316315 0.00458001 7.45389e-20 0.00310942 0.00517027 -1.01644e-19 
0.00316903 0.0049805 -6.77626e-21 0.00311667 0.005571 -2.03288e-20 0.0031761 0.0053817 -3.52366e-19 
0.00312532 0.00597266 -6.09864e-19 0.00318454 0.00578373 -4.06576e-20 0.00313558 0.00637538 6.1664e-19 
0.00319455 0.00618672 1.0842e-19 0.00314767 0.00677932 4.60786e-19 0.00320635 0.00659081 4.40457e-19 
0.00316183 0.00718468 7.7927e-19 0.00322017 0.00699616 3.11708e-19 0.00317833 0.00759162 2.23617e-19 
0.00323626 0.00740293 3.72694e-19 0.00319746 0.00800034 -1.35525e-20 0.00325488 0.00781126 4.5401e-19 
0.00321951 0.00841099 5.55654e-19 0.0032763 0.00822131 -2.03288e-19 0.00324479 0.00882372 -2.37169e-19 
0.00330081 0.00863319 6.36969e-19 0.00327361 0.00923862 -6.77626e-20 0.00332866 0.00904699 -4.60786e-19 
0.00330624 0.0096557 -3.25261e-19 0.00336009 0.00946272 -3.38813e-19 0.00334289 0.0100749 -6.97955e-19 
0.00339528 0.00988032 -1.03677e-18 0.00338364 0.0104959 3.38813e-19 0.0034343 0.0102996 -3.86247e-19 
0.00342841 0.0109185 -5.96311e-19 0.00347706 0.0107203 -3.45589e-19 0.00347686 0.011342 -6.03087e-19 
0.00352329 0.0111419 -1.71439e-18 0.00357237 0.0115638 -2.57498e-19 0.00320279 0.000398233 4.13352e-19 
0.00326397 0.000199496 -6.77626e-21 0.0032031 0.000796499 -3.38813e-20 0.0032642 0.000598507 2.64274e-19 
0.00320366 0.00119483 -2.1684e-19 0.00326467 0.00099757 -1.55854e-19 0.00320447 0.00159327 1.28749e-19 
0.0032654 0.00139672 1.35525e-19 0.0032056 0.00199184 -7.45389e-20 0.00326644 0.001796 8.80914e-20 
0.00320709 0.00239059 -2.03288e-20 0.00326783 0.00219545 -8.80914e-20 0.00320902 0.00278957 -1.35525e-20 
0.00326965 0.00259511 -3.52366e-19 0.00321147 0.00318883 -2.91379e-19 0.00327198 0.00299503 -3.86247e-19 
0.00321455 0.00358842 -3.04932e-19 0.00327491 0.00339526 2.71051e-20 0.00321836 0.00398841 0 
0.00327855 0.00379587 2.98156e-19 0.00322303 0.00438888 -4.67562e-19 0.00328303 0.00419691 3.93023e-19 
0.00322871 0.0047899 3.45589e-19 0.00328849 0.00459847 1.42302e-19 0.00323555 0.00519157 -4.33681e-19 
0.00329508 0.00500062 3.38813e-19 0.00324374 0.00559399 2.23617e-19 0.00330298 0.00540346 1.49078e-19 
0.00325346 0.00599728 1.42302e-19 0.00331237 0.00580707 9.35124e-19 0.00326493 0.00640156 -1.0842e-19 
0.00332345 0.00621158 5.42101e-19 0.00327835 0.00680696 4.74338e-20 0.00333644 0.00661708 -8.3348e-19 
0.00329398 0.00721361 5.14996e-19 0.00335156 0.0070237 0 0.00331205 0.00762165 2.71051e-19 
0.00336905 0.00743154 4.06576e-19 0.00333282 0.00803121 2.77827e-19 0.00338914 0.00784072 6.57298e-19 
0.00335655 0.00844238 8.80914e-20 0.00341207 0.00825131 4.40457e-19 0.00338346 0.00885524 4.06576e-20 
0.00343805 0.00866337 2.43945e-19 0.00341376 0.00926979 -3.79471e-19 0.00346728 0.00907692 2.37169e-19 
0.00344761 0.00968599 -6.77626e-21 0.00349987 0.00949191 -3.11708e-19 0.00348506 0.0101037 6.43745e-19 
0.00353588 0.00990823 1.14519e-18 0.00352605 0.0105226 2.1684e-19 0.00357526 0.0103257 6.09864e-19 
0.00357031 0.0109425 1.35525e-19 0.00361776 0.0107439 9.75782e-19 0.00361734 0.0113627 -9.01243e-19 
0.00366297 0.0111625 6.09864e-19 0.00371018 0.011581 5.48877e-19 0.00332557 0.00039975 5.42101e-20 
0.00338721 0.000200243 1.49078e-19 0.00332594 0.000799538 1.6263e-19 0.00338747 0.000600747 -2.10064e-19 
0.00332657 0.0011994 4.06576e-20 0.003388 0.00100131 2.37169e-19 0.00332751 0.00159938 1.21973e-19 
0.00338883 0.00140198 8.13152e-20 0.0033288 0.00199951 1.21973e-19 0.00339001 0.00180278 1.01644e-19 
0.00333051 0.00239984 -3.38813e-20 0.00339158 0.00220377 8.13152e-20 0.0033327 0.00280041 -4.74338e-20 
0.00339363 0.00260499 3.25261e-19 0.00333547 0.00320128 5.14996e-19 0.00339624 0.00300648 7.52165e-19 
0.00333893 0.0036025 5.42101e-20 0.0033995 0.0034083 3.998e-19 0.0033432 0.00400412 2.77827e-19 
0.00340355 0.00381051 -1.42302e-19 0.00334841 0.00440622 1.69407e-19 0.0034085 0.00421315 1.6263e-19 
0.00335472 0.00480887 6.50521e-19 0.0034145 0.0046163 3.59142e-19 0.00336229 0.00521214 1.35525e-19 
0.00342173 0.00502003 3.38813e-19 0.00337131 0.00561611 8.3348e-19 0.00343035 0.00542439 -2.03288e-20 
0.00338197 0.00602089 3.18484e-19 0.00344056 0.00582948 -8.13152e-20 0.00339448 0.00642655 1.6263e-19 
0.00345256 0.00623536 -3.65918e-19 0.00340906 0.00683321 -4.13352e-19 0.00346656 0.00664212 6.09864e-20 
0.00342593 0.00724094 1.11808e-18 0.00348277 0.00704984 -3.18484e-19 0.00344532 0.00764984 -3.25261e-19 
0.00350142 0.00745857 -5.48877e-19 0.00346744 0.00805997 8.94467e-19 0.00352272 0.00786838 -6.84403e-19 
0.0034925 0.00847139 5.6243e-19 0.00354684 0.0082793 9.48677e-20 0.00352066 0.0088841 -1.82959e-19 
0.00357397 0.00869133 -4.60786e-19 0.00355206 0.00929806 7.45389e-20 0.00360421 0.00910444 -2.37169e-19 
0.00358673 0.00971318 -2.57498e-19 0.0036376 0.00951855 1.55854e-19 0.00362463 0.0101293 8.94467e-19 
0.00367411 0.00993349 -1.0842e-19 0.00366554 0.0105461 1.15196e-19 0.00371356 0.010349 -7.11508e-19 
0.0037091 0.0109632 6.57298e-19 0.00375562 0.0107649 1.42302e-19 0.00375471 0.0113803 1.96512e-19 
0.00379976 0.0111807 6.43745e-19 0.00384524 0.0115961 -3.38813e-19 0.00344927 0.000401214 -7.45389e-20 
0.00351134 0.000200958 5.42101e-20 0.00344968 0.00080247 1.35525e-19 0.00351163 0.000602895 3.86247e-19 
0.0034504 0.00120381 1.96512e-19 0.00351222 0.0010049 2.10064e-19 0.00345145 0.00160528 -6.77626e-21 
0.00351315 0.00140701 3.32037e-19 0.0034529 0.00200691 1.15196e-19 0.00351445 0.00180928 -3.52366e-19 
0.00345479 0.00240876 6.77626e-21 0.00351619 0.00221175 1.55854e-19 0.00345722 0.00281087 5.82759e-19 
0.00351844 0.00261446 -1.35525e-20 0.00346029 0.00321329 4.94667e-19 0.0035213 0.00301747 1.01644e-19 
0.00346409 0.00361607 3.65918e-19 0.00352486 0.00342082 -1.49078e-19 0.00346877 0.00401927 -6.77626e-21 
0.00352926 0.00382456 4.06576e-20 0.00347446 0.00442293 4.20128e-19 0.00353462 0.00422875 2.98156e-19 
0.00348132 0.00482713 2.43945e-19 0.0035411 0.00463342 1.89735e-19 0.00348952 0.00523191 8.13152e-20 
0.00354887 0.00503865 -1.15196e-19 0.00349926 0.00563735 3.11708e-19 0.00355811 0.00544447 1.42302e-19 
0.00351072 0.0060435 -1.0842e-19 0.00356901 0.00585095 7.45389e-20 0.00352411 0.00645044 -3.72694e-19 
0.00358177 0.00625813 -1.35525e-19 0.00353964 0.00685822 -4.74338e-19 0.0035966 0.00666605 -7.7927e-19 
0.00355753 0.00726689 -2.64274e-19 0.0036137 0.00707477 -4.94667e-19 0.00357797 0.00767649 2.84603e-19 
0.00363328 0.00748429 6.1664e-19 0.00360116 0.00808706 7.72494e-19 0.0036555 0.00789464 3.38813e-19 
0.00362724 0.00849858 5.6243e-19 0.00368055 0.0083058 1.6263e-19 0.00365634 0.00891101 2.1684e-19 
0.00370851 0.00871773 3.93023e-19 0.0036885 0.00932429 1.28749e-19 0.00373946 0.00913035 -9.55453e-19 
0.00372369 0.00973826 5.48877e-19 0.00377337 0.00954355 -3.18484e-19 0.00376176 0.0101528 8.26704e-19 
0.00381012 0.00995715 8.53809e-19 0.00380242 0.0105675 -3.32037e-19 0.00384946 0.0103709 -6.09864e-19 
0.00384521 0.0109822 -1.21973e-19 0.00389097 0.0107846 -7.18284e-19 0.00388948 0.0113964 4.13352e-19 
0.00393409 0.0111979 2.23617e-19 0.00397804 0.0116104 8.40257e-19 0.00357383 0.000402607 -5.42101e-20 
0.0036363 0.000201632 -5.14996e-19 0.00357429 0.00080526 2.91379e-19 0.00363662 0.00060492 -2.91379e-19 
0.00357508 0.00120801 2.84603e-19 0.00363727 0.00100828 6.77626e-20 0.00357624 0.00161089 -3.18484e-19 
0.00363828 0.00141177 -2.64274e-19 0.00357782 0.00201396 -3.38813e-19 0.0036397 0.00181542 -3.32037e-19 
0.00357989 0.00241727 -2.23617e-19 0.00364159 0.0022193 -2.98156e-19 0.00358254 0.00282085 4.06576e-19 
0.00364402 0.00262344 1.01644e-19 0.00358586 0.00322476 -4.06576e-20 0.0036471 0.00302789 2.77827e-19 
0.00358997 0.00362904 6.09864e-20 0.00365092 0.00343271 2.77827e-19 0.003595 0.00403375 -9.48677e-20 
0.00365562 0.00383793 1.35525e-19 0.0036011 0.00443892 9.48677e-20 0.00366134 0.00424359 1.89735e-19 
0.00360843 0.0048446 -6.77626e-20 0.00366822 0.00464975 2.03288e-19 0.00361716 0.00525084 -1.14519e-18 
0.00367645 0.00505643 -5.0822e-19 0.00362749 0.00565768 4.74338e-20 0.00368619 0.00546367 -4.13352e-19 
0.0036396 0.00606516 -6.23416e-19 0.00369765 0.0058715 3.65918e-19 0.00365371 0.00647331 -5.35325e-19 
0.00371102 0.00627995 -3.65918e-19 0.00367001 0.00688216 -3.25261e-19 0.0037265 0.00668901 -3.04932e-19 
0.00368869 0.00729171 1.89735e-19 0.00374429 0.00709871 1.02999e-18 0.00370995 0.00770198 2.91379e-19 
0.00376457 0.00750902 4.33681e-19 0.00373394 0.00811293 -2.98156e-19 0.00378749 0.00791991 1.28749e-18 
0.00376077 0.00852453 4.74338e-19 0.00381318 0.00833134 9.35124e-19 0.00379052 0.00893669 -4.5401e-19 
0.00384173 0.00874321 8.80914e-19 0.00382318 0.00934929 -6.77626e-19 0.00387314 0.00915542 7.52165e-19 
0.00385864 0.0097622 -5.6243e-19 0.00390733 0.00956782 -3.65918e-19 0.00389669 0.0101752 -1.35525e-20 
0.00394413 0.00998022 -2.91379e-19 0.00393699 0.010588 3.38813e-20 0.00398323 0.0103924 1.96512e-19 
0.00397901 0.0110005 -7.7927e-19 0.00402417 0.0108041 3.998e-19 0.00402206 0.0114121 6.91179e-19 
0.00406634 0.0112151 8.3348e-19 0.00410896 0.011625 2.00577e-18 0.0036992 0.000403908 -1.49078e-19 
0.00376203 0.000202255 -2.10064e-19 0.0036997 0.000807868 3.25261e-19 0.00376237 0.000606794 6.57298e-19 
0.00370056 0.00121193 -8.13152e-20 0.00376307 0.00101141 -3.38813e-20 0.00370181 0.00161615 5.6243e-19 
0.00376416 0.00141617 2.30393e-19 0.00370352 0.00202057 -3.52366e-19 0.00376569 0.00182112 2.37169e-19 
0.00370574 0.00242525 1.55854e-19 0.00376771 0.00222631 1.96512e-19 0.00370858 0.00283023 3.59142e-19 
0.00377031 0.0026318 3.59142e-19 0.00371212 0.00323557 3.93023e-19 0.00377358 0.00303763 1.96512e-19 
0.0037165 0.00364129 1.89735e-19 0.00377763 0.00344384 -2.77827e-19 0.00372183 0.00404745 8.13152e-20 
0.00378259 0.00385048 1.35525e-19 0.00372827 0.00445408 3.79471e-19 0.0037886 0.00425758 3.11708e-19 
0.00373599 0.00486122 1.96512e-19 0.00379582 0.00466518 3.72694e-19 0.00374516 0.00526889 -8.60585e-19 
0.00380441 0.0050733 -7.38613e-19 0.00375596 0.00567711 1.82959e-19 0.00381456 0.00548195 -6.50521e-19 
0.00376859 0.00608591 -2.03288e-20 0.00382646 0.00589115 -1.49078e-19 0.00378325 0.00649528 3.79471e-19 
0.0038403 0.00630088 2.37169e-19 0.00380013 0.00690521 3.25261e-19 0.00385627 0.00671114 2.03288e-20 
0.00381941 0.00731568 7.65718e-19 0.00387456 0.00712188 4.06576e-20 0.00384126 0.00772666 -1.0842e-19 
0.00389533 0.00753307 1.15196e-19 0.00386581 0.00813807 1.63308e-18 0.00391873 0.00794462 -8.13152e-20 
0.00389315 0.00854983 1.6263e-19 0.00394485 0.00835644 1.47723e-18 0.00392331 0.00896183 -6.23416e-19 
0.00397375 0.00876842 -8.80914e-19 0.00395623 0.00937392 5.42101e-20 0.0040054 0.00918041 -1.12486e-18 
0.00399178 0.00978593 1.28749e-19 0.00403968 0.00959222 6.50521e-19 0.00402968 0.0101976 2.71051e-20 
0.00407638 0.0100037 -6.09864e-19 0.00406955 0.0106088 6.03087e-19 0.00411515 0.0104145 -3.38813e-19 
0.00411083 0.0110192 -4.40457e-19 0.00415551 0.0108245 -4.5401e-19 0.00415282 0.0114286 1.56532e-18 
0.00419683 0.0112335 -7.18284e-19 0.00423833 0.0116411 1.42302e-18 0.00382529 0.000405096 5.01444e-19 
0.00388843 0.000202817 2.1684e-19 0.00382582 0.000810252 3.72694e-19 0.0038888 0.000608481 -4.06576e-20 
0.00382674 0.00121552 -1.96512e-19 0.00388955 0.00101424 1.21973e-19 0.00382809 0.00162097 3.52366e-19 
0.00389071 0.00142016 2.71051e-19 0.00382991 0.00202665 -2.03288e-20 0.00389233 0.00182629 1.15196e-19 
0.00383228 0.00243261 -1.42302e-19 0.00389448 0.00223269 -3.38813e-20 0.00383528 0.00283891 3.52366e-19 
0.00389723 0.00263943 3.11708e-19 0.00383902 0.00324558 -1.15196e-19 0.00390067 0.00304654 3.45589e-19 
0.00384362 0.00365269 3.72694e-19 0.00390492 0.00345408 4.81115e-19 0.00384921 0.00406025 1.35525e-19 
0.00391011 0.00386208 2.77827e-19 0.00385594 0.00446831 3.52366e-19 0.00391637 0.00427058 -8.80914e-20 
0.00386398 0.00487688 -5.21772e-19 0.00392386 0.0046796 -1.6263e-19 0.00387349 0.00528598 -3.11708e-19 
0.00393276 0.00508916 -1.35525e-19 0.00388466 0.00569561 2.71051e-20 0.00394322 0.00549925 3.04932e-19 
0.00389769 0.00610577 8.06375e-19 0.00395546 0.00590987 9.75782e-19 0.00391276 0.00651642 -4.47233e-19 
0.00396964 0.00632098 5.42101e-19 0.00393005 0.00692753 3.25261e-19 0.00398595 0.00673254 1.96512e-19 
0.00394975 0.00733905 1.26039e-18 0.00400458 0.00714448 7.11508e-19 0.00397199 0.00775088 1.00289e-18 
0.00402568 0.00755672 9.41901e-19 0.0039969 0.00816293 6.1664e-19 0.00404936 0.00796915 3.72694e-19 
0.00402453 0.00857507 5.82759e-19 0.00407572 0.00838163 3.52366e-19 0.00405489 0.00898715 -1.19262e-18 
0.00410477 0.008794 1.01644e-18 0.00408789 0.00939898 7.45389e-20 0.00413648 0.00920607 2.57498e-19 
0.00412336 0.00981038 1.89735e-19 0.00417069 0.00961764 4.40457e-19 0.00416101 0.0102211 -1.40269e-18 
0.00420717 0.0100285 -2.77827e-19 0.00420041 0.0106309 -1.55854e-19 0.00424555 0.0104383 -5.82759e-19 
0.00424099 0.0110396 -4.81115e-19 0.00428533 0.010847 4.13352e-19 0.00428206 0.0114469 7.04731e-19 
0.00432586 0.0112542 4.40457e-19 0.00436639 0.0116597 3.79471e-19 0.003952 0.000406148 -2.03288e-19 
0.00401541 0.000203303 -4.13352e-19 0.00395257 0.000812364 3.18484e-19 0.0040158 0.000609944 0 
0.00395355 0.00121871 3.04932e-19 0.0040166 0.00101669 4.74338e-19 0.00395498 0.00162526 -3.79471e-19 
0.00401783 0.00142363 -2.03288e-20 0.00395691 0.00203208 -2.10064e-19 0.00401955 0.0018308 -3.04932e-19 
0.00395941 0.00243921 -5.35325e-19 0.00402182 0.0022383 -1.96512e-19 0.00396257 0.00284672 2.91379e-19 
0.00402471 0.00264617 -2.98156e-19 0.00396649 0.00325466 -2.64274e-19 0.00402832 0.00305447 -1.69407e-19 
0.00397129 0.00366308 -6.7085e-19 0.00403275 0.00346325 -7.58942e-19 0.00397711 0.004072 -3.18484e-19 
0.00403814 0.00387256 -3.93023e-19 0.00398408 0.00448145 -9.48677e-20 0.00404463 0.00428242 3.38813e-20 
0.00399238 0.00489146 -1.09775e-18 0.00405235 0.00469286 -7.86047e-19 0.00400216 0.00530202 1.6263e-19 
0.00406149 0.00510387 -2.1684e-19 0.00401362 0.00571312 6.84403e-19 0.00407221 0.00551546 9.48677e-20 
0.00402694 0.00612473 6.36969e-19 0.0040847 0.00592759 1.55854e-19 0.0040423 0.0065368 -1.76183e-19 
0.00409913 0.00634022 1.55854e-19 0.00405988 0.00694926 -5.0822e-19 0.00411568 0.00675327 1.69407e-19 
0.00407983 0.00736202 5.35325e-19 0.00413452 0.00716665 -8.80914e-20 0.0041023 0.00777497 3.52366e-19 
0.00415579 0.00758023 -1.21973e-19 0.00412739 0.00818795 -6.77626e-20 0.00417961 0.00799386 1.76183e-19 
0.00415513 0.0086008 9.48677e-20 0.00420604 0.00840736 -1.15196e-19 0.00418551 0.00901331 1.69407e-19 
0.00423509 0.00882054 -1.35525e-19 0.00421844 0.00942529 -4.60786e-19 0.00426669 0.00923314 -6.77626e-20 
0.00425371 0.00983647 8.74138e-19 0.0043007 0.00964493 1.35525e-20 0.004291 0.0102466 -1.39591e-18 
0.00433684 0.0100556 1.15196e-19 0.00432989 0.0106555 -2.43945e-19 0.00437475 0.010465 -4.06576e-20 
0.0043698 0.0110628 8.60585e-19 0.00441392 0.0108727 5.42101e-19 0.00441002 0.0114684 7.72494e-19 
0.00445371 0.0112785 1.16552e-18 0.00449337 0.0116823 1.63308e-18 0.00407923 0.000407036 -1.82959e-19 
0.00414284 0.000203699 4.5401e-19 0.00407984 0.000814151 2.03288e-19 0.00414326 0.00061114 1.82959e-19 
0.00408088 0.00122142 1.42302e-19 0.00414411 0.00101871 -3.45589e-19 0.0040824 0.00162892 -2.30393e-19 
0.00414542 0.00142648 -4.20128e-19 0.00408443 0.00203673 -1.42302e-19 0.00414724 0.00183455 -6.77626e-20 
0.00408707 0.0024449 -8.13152e-20 0.00414963 0.00224298 -1.21973e-19 0.00409038 0.00285352 -2.98156e-19 
0.00415266 0.00265185 6.09864e-20 0.00409447 0.00326262 -6.1664e-19 0.00415644 0.00306122 -4.40457e-19 
0.00409947 0.00367227 -6.77626e-19 0.00416106 0.00347116 6.09864e-20 0.00410549 0.0040825 -1.28749e-19 
0.00416665 0.0038817 1.49078e-19 0.00411268 0.00449333 -4.40457e-19 0.00417334 0.00429288 -4.40457e-19 
0.0041212 0.00490478 -1.11131e-18 0.00418129 0.00470473 -7.2506e-19 0.00413122 0.00531685 -6.09864e-19 
0.00419064 0.00511724 -4.47233e-19 0.00414291 0.00572951 -4.94667e-19 0.00420158 0.00553041 -1.04354e-18 
0.00415645 0.00614271 -1.42302e-19 0.00421428 0.00594419 -4.47233e-19 0.00417201 0.00655639 0 
0.0042289 0.00635853 6.23416e-19 0.00418977 0.00697045 4.33681e-19 0.00424562 0.00677332 4.33681e-19 
0.00420987 0.00738477 -3.52366e-19 0.00426458 0.00718844 6.77626e-20 0.00423244 0.00779918 2.1684e-19 
0.00428594 0.00760374 -3.38813e-19 0.00425756 0.00821351 -7.7927e-19 0.00430978 0.00801902 -4.60786e-19 
0.00428527 0.00862752 -5.89535e-19 0.00433615 0.00843406 -7.45389e-19 0.00431554 0.00904099 1.96512e-19 
0.00436507 0.00884859 -6.50521e-19 0.00434824 0.00945363 -7.18284e-19 0.00439645 0.00926233 -1.28749e-19 
0.00438318 0.00986515 -1.35525e-19 0.00443012 0.00967496 -7.18284e-19 0.00442002 0.0102753 -3.18484e-19 
0.00446582 0.0100861 -4.47233e-19 0.00445834 0.0106837 4.40457e-19 0.00450317 0.0104956 1.82959e-19 
0.00449755 0.0110901 -2.03288e-19 0.00454166 0.0109029 2.57498e-19 0.00453697 0.0114942 2.1684e-19 
0.00458067 0.0113078 -9.82558e-19 0.00461945 0.0117101 -4.67562e-19 0.00420684 0.000407729 3.11708e-19 
0.0042075 0.00081555 -5.55654e-19 0.0042086 0.00122355 4.06576e-20 0.00421021 0.00163183 -2.03288e-19 
0.00421237 0.00204045 -3.38813e-20 0.00421514 0.00244952 -3.65918e-19 0.00421862 0.00285909 3.38813e-20 
0.0042229 0.00326925 -3.18484e-19 0.00422809 0.00368004 3.18484e-19 0.00423432 0.00409151 1.0842e-19 
0.00424173 0.00450369 8.13152e-20 0.00425047 0.00491661 -4.74338e-20 0.00426071 0.00533025 -8.19928e-19 
0.00427261 0.00574459 -1.28749e-18 0.00428634 0.00615957 1.21973e-19 0.00430207 0.0065751 3.25261e-19 
0.00431996 0.00699108 -8.13152e-20 0.00434014 0.00740734 -9.48677e-20 0.00436273 0.0078237 2.03288e-19 
0.0043878 0.00823991 -4.87891e-19 0.00441537 0.0086557 -1.57209e-18 0.00444541 0.00907078 -5.42101e-19 
0.00447778 0.00948479 -3.38813e-20 0.00451226 0.00989737 -2.84603e-19 0.00454855 0.0103082 -1.69407e-19 
0.00458618 0.0107168 3.18484e-19 0.00462461 0.0111228 -1.29427e-18 0.00466316 0.0115261 -2.1413e-18 
0.00467706 0.0123275 4.23516e-19 0.00455244 0.012303 -9.41901e-19 0.00442701 0.0122841 6.81014e-19 
0.00430076 0.0122691 -7.86047e-19 0.0041736 0.0122571 8.1654e-19 0.00404541 0.0122468 -3.15096e-19 
0.00391594 0.0122372 -2.03288e-20 0.00378487 0.0122274 -4.50622e-19 0.00365171 0.0122161 2.81215e-19 
0.0035158 0.012202 9.48677e-20 0.0033763 0.0121835 -1.93124e-19 0.00323209 0.0121583 3.65918e-19 
0.00308182 0.0121237 -3.6253e-19 0.00292394 0.0120756 -2.37169e-19 0.00275687 0.012009 3.38813e-19 
0.00471284 0.0127416 4.13352e-19 0.00458924 0.0127202 -3.45589e-19 0.00446493 0.0127041 -1.89735e-19 
0.00434003 0.0126921 -1.35525e-19 0.00421459 0.0126829 8.30092e-19 0.00408859 0.0126756 1.28749e-19 
0.00396189 0.0126693 -2.20229e-19 0.00383425 0.012663 4.74338e-20 0.0037053 0.0126558 3.76083e-19 
0.00357445 0.0126465 -3.21873e-19 0.00344088 0.0126336 1.01644e-19 0.00330344 0.012615 -1.4569e-19 
0.00316059 0.012588 -7.86047e-19 0.00301028 0.0125487 -1.55854e-19 0.00285004 0.0124911 -8.13152e-20 
0.00474471 0.0131526 5.42101e-20 0.00462209 0.0131347 -2.37169e-20 0.00449889 0.0131219 -1.76183e-19 
0.00437536 0.0131129 -1.86347e-19 0.0042517 0.0131067 -1.01644e-19 0.00412799 0.0131024 -1.93124e-19 
0.00400426 0.0130992 -5.55654e-19 0.00388039 0.0130964 4.64174e-19 0.00375617 0.0130931 -7.7927e-20 
0.00363122 0.0130883 3.89635e-19 0.0035049 0.0130809 -7.11508e-20 0.00337626 0.0130691 2.67662e-19 
0.00324385 0.0130505 -2.60886e-19 0.00310556 0.0130214 -4.06576e-19 0.00295845 0.0129762 1.89735e-19 
0.00477156 0.0135606 1.28749e-19 0.00464986 0.0135469 -7.92823e-19 0.00452768 0.0135377 -4.87891e-19 
0.00440545 0.0135319 3.0832e-19 0.00428348 0.0135286 2.23617e-19 0.00416199 0.0135271 2.1684e-19 
0.00404115 0.0135268 -4.40457e-19 0.00392104 0.0135271 -1.86347e-19 0.00380165 0.0135273 -3.38813e-21 
0.00368287 0.0135266 4.64174e-19 0.00356442 0.0135242 3.38813e-19 0.00344575 0.0135187 -5.04832e-19 
0.0033259 0.0135083 -1.15196e-19 0.00320327 0.0134899 5.96311e-19 0.00307526 0.0134586 -7.7927e-20 
0.00479242 0.013966 9.48677e-20 0.00467149 0.0139569 1.21973e-19 0.00455019 0.0139515 -6.47133e-19 
0.00442907 0.013949 1.76183e-19 0.00430856 0.0139487 2.77827e-19 0.00418901 0.0139499 8.80914e-19 
0.00407071 0.0139522 -3.65918e-19 0.00395394 0.0139552 1.32137e-19 0.00383892 0.0139583 9.14796e-20 
0.00372584 0.013961 5.01444e-19 0.00361484 0.0139628 -1.86347e-19 0.00350594 0.0139626 6.77626e-19 
0.00339897 0.0139593 -2.27005e-19 0.00329333 0.0139506 -1.69407e-19 0.00318772 0.013933 1.05032e-19 
0.00480642 0.0143693 9.48677e-20 0.00468609 0.0143652 5.42101e-20 0.00456547 0.0143638 1.21973e-19 
0.0044452 0.0143647 6.09864e-20 0.00432579 0.0143672 5.38713e-19 0.00420768 0.014371 9.48677e-20 
0.0040913 0.0143757 -3.6253e-19 0.00397705 0.014381 -3.59142e-19 0.00386535 0.0143866 2.71051e-20 
0.00375668 0.014392 -1.42302e-19 0.00365156 0.014397 4.06576e-20 0.00355057 0.0144009 3.38813e-19 
0.00345432 0.014403 -6.77626e-20 0.00336343 0.0144022 -4.91279e-19 0.00327832 0.0143961 -2.57498e-19 
0.00481296 0.0147711 2.37169e-20 0.00469303 0.0147721 -1.69407e-20 0.00457283 0.0147749 -6.50521e-19 
0.00445306 0.0147792 -2.57498e-19 0.00433428 0.0147846 1.21973e-19 0.00421698 0.0147909 2.27005e-19 
0.00410165 0.0147979 -4.74338e-19 0.00398877 0.0148053 4.06576e-19 0.0038789 0.0148129 6.77626e-19 
0.00377266 0.0148206 5.01444e-19 0.0036708 0.014828 4.47233e-19 0.00357425 0.014835 -2.1684e-19 
0.00348416 0.0148413 -4.13352e-19 0.00340194 0.0148463 -2.40557e-19 0.00332927 0.0148493 -3.72694e-20 
0.00481166 0.0151719 3.15096e-19 0.00469191 0.0151783 -3.38813e-20 0.00457186 0.0151854 -2.81215e-19 
0.00445222 0.0151931 -4.60786e-19 0.00433353 0.0152015 7.04731e-19 0.00421632 0.0152103 -6.1664e-19 
0.00410105 0.0152195 -3.59142e-19 0.00398823 0.015229 -3.04932e-20 0.0038784 0.0152386 -1.4569e-19 
0.0037722 0.0152483 -7.45389e-20 0.00367038 0.015258 -2.71051e-20 0.00357387 0.0152677 -3.72694e-20 
0.00348383 0.0152775 -1.15196e-19 0.00340167 0.0152876 -1.49078e-19 0.00332909 0.0152987 6.74238e-19 
0.00480245 0.0155723 3.86247e-19 0.00468265 0.0155841 -2.81215e-19 0.00456248 0.0155956 -4.60786e-19 
0.00444258 0.0156069 -2.71051e-20 0.00432347 0.0156183 -3.96411e-19 0.00420561 0.0156298 2.43945e-19 
0.00408943 0.0156414 -2.57498e-19 0.00397534 0.0156531 6.33581e-19 0.00386377 0.0156649 -1.35525e-19 
0.00375522 0.0156769 -1.21973e-19 0.00365021 0.0156891 6.06476e-19 0.00354933 0.015702 1.86347e-19 
0.00345323 0.015716 -2.87991e-19 0.00336252 0.015732 -2.1684e-19 0.00327766 0.0157522 1.38913e-19 
0.00478552 0.0159731 -2.40557e-19 0.00466547 0.0159902 7.7927e-20 0.00454492 0.016006 3.6253e-19 
0.00442442 0.0160211 3.35425e-19 0.00430442 0.0160357 3.79471e-19 0.00418528 0.01605 -6.43745e-19 
0.00406732 0.0160642 -5.04832e-19 0.00395081 0.0160785 -2.57498e-19 0.00383601 0.016093 -1.4569e-19 
0.00372312 0.0161079 -4.20128e-19 0.0036123 0.0161236 -1.49078e-19 0.0035036 0.0161407 1.52466e-19 
0.00339686 0.0161602 -4.77727e-19 0.0032915 0.0161842 -7.2506e-19 0.00318625 0.016216 6.91179e-19 
0.00476132 0.0163748 7.2506e-19 0.00464084 0.0163969 1.59242e-19 0.00451971 0.0164171 -4.06576e-20 
0.00439835 0.0164359 4.09964e-19 0.00427709 0.0164539 5.42101e-20 0.00415618 0.0164714 -9.14796e-20 
0.00403581 0.0164887 -6.1664e-19 0.00391607 0.0165061 4.06576e-19 0.00379699 0.0165238 2.03288e-20 
0.00367849 0.0165424 2.60886e-19 0.00356029 0.0165625 -1.72795e-19 0.00344189 0.0165851 7.75882e-19 
0.00332234 0.016612 5.75982e-20 0.00320007 0.0166458 -2.50722e-19 0.00307251 0.0166914 -4.30293e-19 
0.00473051 0.0167778 5.79371e-19 0.00460948 0.0168048 -7.45389e-20 0.00448761 0.0168292 -2.50722e-19 
0.00436521 0.0168519 -1.59242e-19 0.00424247 0.0168734 -2.43945e-19 0.00411951 0.0168943 -1.0842e-19 
0.00399637 0.0169151 -1.79571e-19 0.00387299 0.016936 3.38813e-19 0.00374918 0.0169577 -6.36969e-19 
0.00362458 0.0169808 -1.96512e-19 0.00349861 0.0170063 -1.35525e-20 0.00337032 0.0170355 6.26804e-19 
0.0032383 0.0170708 -5.96311e-19 0.00310046 0.0171156 -9.69006e-19 0.00295385 0.0171754 1.21973e-19 
0.00469392 0.0171824 1.6263e-19 0.00457225 0.0172139 -2.40557e-19 0.00444957 0.0172424 1.59242e-19 
0.00432604 0.017269 2.67662e-19 0.00420173 0.0172943 3.79471e-19 0.00407664 0.0173189 -8.47033e-20 
0.00395068 0.0173435 -5.45489e-19 0.00382365 0.0173685 4.13352e-19 0.00369521 0.0173946 -3.59142e-19 
0.00356482 0.0174228 1.25361e-19 0.00343169 0.0174542 1.11808e-19 0.00329471 0.0174906 2.91379e-19 
0.00315236 0.0175346 8.13152e-20 0.00300261 0.0175899 -9.04631e-19 0.00284299 0.0176623 -2.98156e-19 
0.00465245 0.0175889 5.82759e-19 0.00453011 0.0176245 2.5411e-19 0.00440661 0.017657 -1.69407e-20 
0.00428197 0.0176875 -6.77626e-19 0.00415614 0.0177166 4.67562e-19 0.00402903 0.0177451 1.69407e-20 
0.00390045 0.0177737 9.82558e-20 0.00377012 0.0178031 3.65918e-19 0.00363759 0.017834 -2.30393e-19 
0.00350227 0.0178675 1.07065e-18 0.00336334 0.017905 -3.86247e-19 0.00321973 0.0179484 1.19601e-18 
0.0030701 0.0180005 3.38813e-19 0.00291294 0.0180649 -6.64074e-19 0.00274667 0.0181467 -2.40557e-19 
0.00465806 0.0121193 4.67562e-19 0.00473906 0.0123424 4.06576e-20 0.00453293 0.0120935 -1.3146e-18 
0.00461485 0.0123145 -5.35325e-19 0.00440696 0.0120732 5.0822e-19 0.00448983 0.012293 1.49078e-19 
0.00428006 0.0120569 1.28749e-19 0.00436399 0.0122762 -1.35525e-20 0.0041521 0.0120435 1.36881e-18 
0.0042373 0.0122628 -2.1684e-19 0.0040229 0.0120317 7.45389e-19 0.00410965 0.0122518 1.30104e-18 
0.00389219 0.0120205 -1.16552e-18 0.00398085 0.012242 -4.87891e-19 0.0037596 0.0120089 -2.64274e-19 
0.00385063 0.0122324 -7.58942e-19 0.00362464 0.0119955 4.33681e-19 0.00371859 0.012222 -1.76183e-19 
0.00348664 0.0119791 2.84603e-19 0.00358415 0.0122095 3.38813e-19 0.00334479 0.0119579 -2.1684e-19 
0.00344657 0.0121934 2.43945e-19 0.00319806 0.0119297 6.91179e-19 0.00330487 0.0121719 2.71051e-19 
0.00304528 0.0118917 -1.28749e-18 0.00315782 0.0121424 1.49078e-19 0.00288521 0.0118401 -1.21973e-19 
0.00300394 0.0121016 -1.27394e-18 0.00271678 0.0117703 -2.1684e-19 0.00284165 0.012045 -5.28549e-19 
0.00266951 0.0119667 1.6263e-19 0.00469537 0.012535 1.35525e-18 0.00477431 0.0127549 1.00289e-18 
0.00457126 0.0125119 -1.56532e-18 0.00465114 0.0127301 2.30393e-19 0.00444639 0.0124944 5.82759e-19 
0.00452716 0.0127115 -1.28749e-18 0.0043208 0.0124808 -1.60597e-18 0.00440255 0.0126976 -9.14796e-19 
0.00419449 0.0124702 2.79182e-18 0.00427738 0.0126872 8.87691e-19 0.00406737 0.0124614 -3.72694e-19 
0.00415167 0.0126791 1.35525e-18 0.00393925 0.0124535 -4.40457e-19 0.00402534 0.0126724 3.86247e-19 
0.00380984 0.0124455 -9.62229e-19 0.00389821 0.0126662 -4.47233e-19 0.00367869 0.0124362 8.94467e-19 
0.00376998 0.0126596 1.07065e-18 0.00354518 0.0124245 -7.72494e-19 0.00364016 0.0126515 2.71051e-19 
0.00340845 0.0124088 1.89735e-19 0.00350807 0.0126406 6.77626e-20 0.00326735 0.0123869 5.96311e-19 
0.00337274 0.0126251 -2.03288e-19 0.00312039 0.0123559 -1.8567e-18 0.00323282 0.0126028 -1.91091e-18 
0.00296574 0.0123119 -7.45389e-19 0.00308653 0.0125702 -1.3417e-18 0.00280135 0.0122494 7.31836e-19 
0.00293159 0.0125226 -1.15196e-18 0.00276536 0.0124532 6.64074e-19 0.00472933 0.0129475 8.74138e-19 
0.00480567 0.0131638 2.00577e-18 0.00460623 0.0129278 -4.06576e-20 0.0046835 0.0131429 9.48677e-20 
0.00448248 0.0129133 -1.17229e-18 0.00456055 0.0131278 -1.35525e-19 0.00435827 0.0129027 -5.82759e-19 
0.00443715 0.013117 -6.09864e-19 0.00423372 0.0128951 1.09775e-18 0.00431354 0.0131095 -6.84403e-19 
0.00410887 0.0128893 2.43945e-19 0.00418985 0.0131044 1.35525e-20 0.00398364 0.0128845 -1.12486e-18 
0.00406613 0.0131007 -1.36881e-18 0.00385786 0.01288 7.18284e-19 0.00394235 0.0130978 -3.25261e-19 
0.00373124 0.0128748 2.43945e-19 0.00381835 0.0130948 9.62229e-19 0.00360326 0.0128678 2.43945e-19 
0.00369382 0.0130909 6.50521e-19 0.00347319 0.0128577 -8.13152e-20 0.00356829 0.013085 9.89334e-19 
0.00333994 0.0128425 1.35525e-19 0.00344096 0.0130757 4.60786e-19 0.00320197 0.0128197 -2.04643e-18 
0.00331065 0.0130609 -3.25261e-19 0.00305714 0.0127853 -1.16552e-18 0.00317562 0.0130376 -7.99599e-19 
0.00290265 0.0127336 6.77626e-20 0.00303336 0.0130013 -5.42101e-20 0.00288041 0.0129449 7.04731e-19 
0.00475883 0.0133569 7.52165e-19 0.00483206 0.0135695 5.69206e-19 0.00463668 0.0133411 -1.57887e-18 
0.0047108 0.0135531 -1.37558e-18 0.004514 0.0133301 -1.484e-18 0.0045888 0.0135418 -1.89735e-18 
0.00439114 0.0133226 4.74338e-20 0.00446655 0.0135344 -4.20128e-19 0.00426834 0.0133179 -1.35525e-20 
0.00434441 0.01353 1.58565e-18 0.00414577 0.013315 4.33681e-19 0.00422266 0.0135277 2.30393e-19 
0.00402351 0.0133133 -1.30104e-18 0.00410148 0.0135269 -1.01644e-19 0.00390154 0.0133121 8.26704e-19 
0.003981 0.0135269 -1.54499e-18 0.00377976 0.0133106 -1.49078e-19 0.00386126 0.0135272 -1.21973e-19 
0.00365791 0.0133079 1.24683e-18 0.0037422 0.0135271 9.35124e-19 0.00353551 0.0133031 1.65341e-18 
0.00362364 0.0135257 1.46367e-18 0.00341178 0.0132946 6.77626e-20 0.00350516 0.0135219 -1.35525e-20 
0.00328548 0.0132801 -7.04731e-19 0.00338606 0.0135143 -1.13841e-18 0.00315468 0.0132565 2.71051e-20 
0.00326508 0.0135004 9.35124e-19 0.00301648 0.0132181 -9.48677e-20 0.00314018 0.0134763 7.58942e-19 
0.00300806 0.0134357 8.94467e-19 0.0047828 0.0137636 4.67562e-19 0.00485252 0.0139723 1.56532e-18 
0.0046615 0.0137522 -1.0842e-18 0.00473204 0.0139609 5.42101e-20 0.00453978 0.0137448 -2.37169e-18 
0.00461085 0.0139538 -1.18585e-18 0.00441814 0.0137406 1.6263e-18 0.00448958 0.01395 -1.54499e-18 
0.00429693 0.0137388 1.54499e-18 0.00436872 0.0139486 6.23416e-19 0.00417646 0.0137388 1.54499e-18 
0.00424864 0.0139491 2.37847e-18 0.00405696 0.0137398 -1.11131e-18 0.00412968 0.013951 1.80249e-18 
0.00393859 0.0137415 -2.98156e-19 0.00401212 0.0139537 -2.98156e-19 0.00382148 0.0137432 1.21973e-19 
0.00389619 0.0139568 7.31836e-19 0.00370566 0.0137443 1.11131e-18 0.00378212 0.0139598 9.62229e-19 
0.00359106 0.013744 6.91179e-19 0.00367007 0.0139621 9.35124e-19 0.00347741 0.0137414 4.47233e-19 
0.00356013 0.013963 1.13841e-18 0.0033641 0.0137347 2.57498e-19 0.00345224 0.0139614 1.38236e-18 
0.00325001 0.0137214 2.98156e-19 0.00334604 0.0139558 -1.17907e-18 0.00313306 0.0136971 1.21973e-19 
0.00324066 0.0139433 -2.84603e-19 0.00313417 0.0139189 6.09864e-19 0.00480032 0.0141679 -2.71051e-20 
0.00486622 0.0143727 1.57209e-18 0.00467971 0.0141612 2.77827e-19 0.00474634 0.0143669 2.71051e-20 
0.00455878 0.0141578 -3.04932e-19 0.00462578 0.0143642 4.26905e-19 0.00443813 0.014157 8.26704e-19 
0.00450526 0.014364 -3.38813e-20 0.00431822 0.0141581 1.66018e-18 0.00438535 0.0143657 1.28071e-18 
0.00419946 0.0141606 1.61953e-18 0.00426654 0.014369 4.74338e-19 0.00408222 0.0141642 -1.27394e-18 
0.00414925 0.0143733 0 0.00396683 0.0141684 -5.42101e-19 0.00403388 0.0143783 -8.94467e-19 
0.00385363 0.0141727 -2.84603e-19 0.00392085 0.0143838 -5.01444e-19 0.00374297 0.0141769 4.47233e-19 
0.0038106 0.0143893 1.49078e-19 0.00363517 0.0141804 -1.49078e-19 0.00370364 0.0143946 -4.06576e-19 
0.00353057 0.0141824 1.24683e-18 0.0036005 0.0143991 3.65918e-19 0.00342939 0.014182 1.21973e-19 
0.0035018 0.0144023 4.06576e-19 0.00333165 0.0141775 -1.47723e-18 0.00340815 0.0144031 -1.26039e-18 
0.00323691 0.014166 -7.45389e-19 0.00332012 0.0144 -2.11419e-18 0.00323786 0.01439 -1.89735e-19 
0.00481065 0.0145704 -1.15196e-19 0.00487255 0.0147713 -4.06576e-19 0.00469055 0.0145688 -1.35525e-20 
0.00475308 0.0147713 -5.42101e-20 0.00457018 0.0145695 -1.05032e-18 0.00463292 0.0147733 -1.05032e-18 
0.0044502 0.014572 -3.32037e-19 0.00451286 0.0147769 -1.87703e-18 0.00433116 0.014576 2.05321e-18 
0.00439351 0.0147818 -3.32037e-19 0.00421355 0.0145811 4.40457e-19 0.00427541 0.0147877 6.50521e-19 
0.00409781 0.0145869 -1.78893e-18 0.00415904 0.0147944 1.21973e-19 0.0039844 0.0145933 7.31836e-19 
0.00404487 0.0148016 -6.23416e-19 0.00387383 0.0145999 1.02999e-18 0.00393342 0.0148091 2.57498e-18 
0.00376665 0.0146065 6.23416e-19 0.00382528 0.0148168 2.20906e-18 0.00366354 0.0146128 1.20617e-18 
0.00372112 0.0148243 2.1684e-18 0.00356527 0.0146183 5.69206e-19 0.00362178 0.0148316 1.15196e-18 
0.0034728 0.0146227 -7.31836e-19 0.0035283 0.0148383 -3.11708e-19 0.0033872 0.0146249 -1.50433e-18 
0.00344194 0.014844 -1.55854e-18 0.00330964 0.0146237 -8.40257e-19 0.00336425 0.0148481 -1.24683e-18 
0.00329699 0.0148497 -1.0842e-19 0.0048133 0.0149715 5.82759e-19 0.00487116 0.0151689 2.40557e-18 
0.00469349 0.0149753 -3.72694e-19 0.00475187 0.015175 1.32137e-18 0.0045734 0.0149802 -2.08709e-18 
0.00463188 0.0151817 -4.13352e-19 0.00445374 0.0149862 -1.65341e-18 0.00451195 0.0151892 -2.10742e-18 
0.00433507 0.0149931 1.13164e-18 0.00439272 0.0151972 6.1664e-19 0.00421791 0.0150007 -8.53809e-19 
0.00427471 0.0152059 -1.0842e-19 0.00410274 0.0150087 -1.91091e-18 0.00415841 0.0152149 -8.26704e-19 
0.00399006 0.0150172 6.64074e-19 0.0040443 0.0152242 -1.13841e-18 0.00388044 0.0150258 1.26039e-18 
0.0039329 0.0152338 5.28549e-19 0.00377452 0.0150344 7.86047e-19 0.0038248 0.0152434 2.71051e-19 
0.00367309 0.015043 1.02999e-18 0.00372068 0.0152531 -4.33681e-19 0.00357714 0.0150513 -7.99599e-19 
0.00362138 0.0152628 5.14996e-19 0.00348786 0.0150594 -1.0571e-18 0.00352794 0.0152726 -5.55654e-19 
0.0034068 0.0150669 -1.07065e-18 0.00344163 0.0152825 -8.94467e-19 0.00333581 0.015074 1.04354e-18 
0.00336402 0.015293 4.60786e-19 0.00329686 0.0153049 -1.89735e-19 0.00480804 0.0153721 9.08019e-19 
0.00486196 0.0155662 1.65341e-18 0.00468829 0.0153812 -7.58942e-19 0.00474264 0.0155783 4.74338e-20 
0.00456821 0.0153905 -1.49755e-18 0.00462257 0.0155899 -1.44334e-18 0.00444849 0.0154 -1.32137e-18 
0.00450246 0.0156013 -1.6263e-18 0.00432965 0.0154099 8.06375e-19 0.00438289 0.0156126 -1.0842e-19 
0.00421221 0.01542 -4.60786e-19 0.00426436 0.0156241 -3.52366e-19 0.0040966 0.0154304 -9.48677e-19 
0.00414729 0.0156356 -5.96311e-19 0.0039833 0.0154409 1.09775e-18 0.00403209 0.0156472 2.71051e-19 
0.00387281 0.0154516 -5.82759e-19 0.00391921 0.015659 1.02999e-18 0.00376571 0.0154624 4.60786e-19 
0.00380908 0.0156708 -1.17907e-18 0.00366267 0.0154733 2.43945e-19 0.00370223 0.015683 9.35124e-19 
0.00356449 0.0154845 -2.57498e-19 0.0035992 0.0156955 1.61275e-18 0.00347211 0.0154962 -7.86047e-19 
0.00350063 0.0157088 1.35525e-19 0.00338663 0.0155091 -4.60786e-19 0.00340715 0.0157236 -1.26039e-18 
0.00330925 0.0155245 7.58942e-19 0.00331933 0.0157414 -9.48677e-20 0.00323736 0.015765 2.57498e-19 
0.00479493 0.0157727 1.02999e-18 0.00484514 0.0159639 2.00577e-18 0.00467502 0.0157871 -5.96311e-19 
0.0047256 0.0159818 -1.76183e-19 0.00455469 0.0158007 4.74338e-20 0.00460522 0.0159982 1.30782e-18 
0.00443453 0.0158139 2.37169e-19 0.00448463 0.0160136 9.75782e-19 0.00431503 0.0158269 -3.93023e-19 
0.00436433 0.0160284 1.18585e-18 0.00419661 0.0158398 -2.43945e-19 0.00424472 0.0160429 -1.00966e-18 
0.00407963 0.0158527 -1.30104e-18 0.00412614 0.0160571 -1.55176e-18 0.00396445 0.0158656 1.12486e-18 
0.00400887 0.0160714 -2.53432e-18 0.00385143 0.0158786 -4.47233e-19 0.00389318 0.0160857 1.04354e-18 
0.00374092 0.015892 -5.42101e-19 0.00377931 0.0161004 -5.82759e-19 0.00363327 0.0159059 1.01644e-18 
0.00366744 0.0161156 -1.5992e-18 0.00352882 0.0159207 2.57498e-19 0.00355769 0.0161319 4.33681e-19 
0.00342783 0.0159372 -4.47233e-19 0.00345001 0.01615 -4.47233e-19 0.00333033 0.015957 -1.8838e-18 
0.00334406 0.0161715 -3.17129e-18 0.0032359 0.0159826 1.24683e-18 0.003239 0.0161988 -2.1684e-19 
0.00313291 0.0162367 -2.71051e-19 0.00477429 0.0161738 5.35325e-19 0.00482114 0.0163627 -7.86047e-19 
0.00465404 0.0161935 2.30393e-19 0.00470119 0.0163862 2.2565e-18 0.00453322 0.0162115 3.72694e-19 
0.00458033 0.0164072 2.37169e-19 0.00441232 0.0162284 1.17907e-18 0.00445903 0.0164267 1.28071e-18 
0.00429173 0.0162447 1.29427e-18 0.00433769 0.016445 9.35124e-19 0.00417176 0.0162605 -1.3146e-18 
0.00421658 0.0164627 -6.09864e-20 0.00405265 0.0162762 -1.40946e-18 0.00409592 0.0164801 -1.95834e-18 
0.00393461 0.016292 -4.06576e-19 0.00397585 0.0164973 -8.94467e-19 0.00381776 0.016308 -5.42101e-20 
0.00385645 0.0165149 1.38236e-18 0.00370217 0.0163247 -4.60786e-19 0.00373768 0.016533 2.03288e-19 
0.00358779 0.0163424 -5.82759e-19 0.00361938 0.0165522 -2.30393e-19 0.00347437 0.0163621 1.02999e-18 
0.00350117 0.0165734 1.12486e-18 0.00336133 0.0163851 -4.87891e-19 0.00338235 0.0165979 1.72117e-18 
0.00324756 0.0164138 -2.54788e-18 0.0032617 0.0166278 -1.53144e-18 0.00313101 0.0164524 -4.06576e-19 
0.0031372 0.0166667 -1.47723e-18 0.00300556 0.016721 -1.57209e-18 0.00474669 0.0165761 2.10064e-18 
0.0047906 0.016763 -5.21772e-19 0.00462595 0.0166007 -2.77827e-19 0.00467012 0.0167916 1.10453e-18 
0.00450446 0.016623 -7.04731e-19 0.00454863 0.0168172 -5.01444e-19 0.0043826 0.0166438 7.45389e-19 
0.00442646 0.0168407 -1.51788e-18 0.00426062 0.0166635 -3.93023e-19 0.00430387 0.0168627 -4.81115e-19 
0.00413871 0.0166827 -8.3348e-19 0.00418101 0.0168839 -1.21295e-18 0.00401698 0.0167016 -1.23328e-18 
0.00405796 0.0169047 2.03288e-19 0.00389544 0.0167207 9.75782e-19 0.00393472 0.0169255 -1.89735e-19 
0.00377402 0.0167404 -7.72494e-19 0.00381116 0.0169467 -3.38813e-19 0.00365248 0.0167611 6.64074e-19 
0.00368701 0.016969 -1.09775e-18 0.00353038 0.0167838 -3.65918e-19 0.00356182 0.0169932 -2.1684e-19 
0.00340696 0.0168096 2.37169e-18 0.00343484 0.0170203 1.49078e-18 0.003281 0.0168406 -5.55654e-19 
0.0033049 0.0170522 4.87891e-19 0.00315061 0.0168798 -2.12775e-18 0.00317029 0.0170917 -3.15774e-18 
0.00301288 0.0169326 -1.17907e-18 0.0030285 0.0171431 -2.00577e-18 0.0028761 0.0172134 2.71051e-20 
0.00471289 0.0169799 1.484e-18 0.00475432 0.0171652 3.79471e-19 0.00459154 0.0170091 -3.38813e-20 
0.00463322 0.0171986 5.69206e-19 0.00446927 0.0170356 -4.47233e-19 0.00451102 0.0172285 -2.43945e-19 
0.00434631 0.0170603 2.91379e-19 0.00438791 0.0172559 8.87691e-19 0.00422278 0.0170837 2.91379e-19 
0.00426398 0.0172818 2.13452e-18 0.00409876 0.0171064 -5.35325e-19 0.00413929 0.0173067 -3.18484e-19 
0.0039742 0.017129 -1.66018e-18 0.00401378 0.0173312 -1.50433e-18 0.00384897 0.017152 1.04354e-18 
0.00388732 0.0173559 -7.72494e-19 0.0037228 0.0171758 -1.8838e-18 0.00375964 0.0173813 2.30393e-19 
0.00359523 0.0172014 -5.42101e-20 0.00363031 0.0174084 2.57498e-19 0.00346555 0.0172298 -2.71051e-20 
0.00349867 0.017438 1.32815e-18 0.0033327 0.0172626 9.21572e-19 0.00336378 0.0174716 8.26704e-19 
0.00319517 0.0173022 -1.07065e-18 0.00322434 0.0175114 1.61275e-18 0.00305084 0.0173524 -3.37458e-18 
0.00307857 0.0175605 -1.57209e-18 0.00289691 0.0174188 -8.80914e-19 0.00292422 0.0176235 -2.80537e-18 
0.00275865 0.0177072 -4.74338e-19 0.00467374 0.0173854 3.86247e-19 0.00471318 0.0175696 5.75982e-19 
0.00455173 0.017419 9.48677e-20 0.00459142 0.0176072 7.92823e-19 0.00442864 0.0174496 -3.32037e-19 
0.0044685 0.0176411 4.20128e-19 0.00430455 0.0174781 -8.47033e-19 0.00434443 0.0176724 -1.81604e-18 
0.00417947 0.0175053 2.27682e-18 0.00421921 0.0177021 -5.75982e-19 0.00405334 0.0175319 3.38813e-20 
0.00409276 0.0177309 6.09864e-19 0.00392603 0.0175584 -9.21572e-19 0.00396494 0.0177594 1.02999e-18 
0.00379729 0.0175855 1.3146e-18 0.00383553 0.0177883 -7.99599e-19 0.00366672 0.017614 -1.45012e-18 
0.00370417 0.0178183 1.63986e-18 0.00353373 0.0176448 1.65341e-18 0.00357033 0.0178503 1.30104e-18 
0.0033975 0.0176793 -3.25261e-19 0.00343332 0.0178856 1.01644e-18 0.00325692 0.0177193 2.18196e-18 
0.0032922 0.0179258 1.28749e-18 0.00311052 0.0177675 4.06576e-19 0.00314577 0.0179732 3.26616e-18 
0.0029565 0.0178276 -2.50722e-18 0.00299257 0.0180309 -1.21973e-18 0.00279282 0.0179051 -1.24683e-18 
0.00283104 0.0181033 -1.8838e-18 0.00265974 0.0181961 -8.80914e-19 0.00463018 0.0177929 2.75116e-18 
0.0045075 0.0178304 7.18284e-19 0.00438361 0.0178648 -4.20128e-19 0.00425844 0.0178972 8.47033e-19 
0.00413192 0.0179282 -2.50722e-19 0.00400389 0.0179588 9.01243e-19 0.00387414 0.0179895 -2.84603e-19 
0.00374236 0.018021 1.69407e-19 0.0036081 0.0180543 -1.58565e-18 0.00347076 0.0180905 1.21973e-19 
0.00332956 0.018131 7.58942e-19 0.00318351 0.0181777 1.97867e-18 0.00303147 0.0182334 1.76183e-18 
0.00287222 0.0183015 -1.68051e-18 0.00270472 0.0183866 -3.38813e-19 0.00456086 0.0183887 -2.47334e-19 
0.00443729 0.0184311 -3.35425e-19 0.00431236 0.0184707 -5.82759e-19 0.00418588 0.0185085 7.58942e-19 
0.00405765 0.0185451 4.23516e-19 0.00392745 0.0185815 7.21672e-19 0.00379503 0.0186183 -9.14796e-20 
0.00366005 0.0186563 -8.60585e-19 0.00352214 0.0186965 1.19601e-18 0.0033808 0.01874 -5.42101e-19 
0.00323549 0.0187883 4.20128e-19 0.00308563 0.0188432 6.60686e-19 0.0029307 0.0189069 4.87891e-19 
0.00277041 0.0189823 -1.35525e-19 0.00260495 0.0190722 -1.04354e-18 0.00451261 0.0187816 8.06375e-19 
0.00438854 0.0188268 -5.21772e-19 0.00426308 0.0188695 -7.14896e-19 0.00413595 0.0189106 -7.99599e-19 
0.00400693 0.0189509 -1.15196e-19 0.00387577 0.0189909 -4.77727e-19 0.00374224 0.0190316 4.87891e-19 
0.00360605 0.0190736 3.69306e-19 0.00346689 0.0191179 2.06676e-19 0.00332442 0.0191657 -1.72795e-19 
0.00317829 0.0192181 -5.14996e-19 0.00302822 0.019277 -1.93124e-19 0.00287407 0.0193441 -4.84503e-19 
0.00271603 0.0194215 -4.06576e-20 0.00255484 0.0195113 8.94467e-19 0.00446288 0.0191759 1.02322e-18 
0.0043384 0.0192235 -1.35864e-18 0.00421253 0.0192691 1.09775e-18 0.00408495 0.0193134 -6.43745e-19 
0.00395541 0.0193571 1.15535e-18 0.00382368 0.0194007 -1.82959e-19 0.00368956 0.019445 -1.35525e-20 
0.00355283 0.0194907 3.96411e-19 0.00341328 0.0195387 7.35225e-19 0.00327072 0.0195901 -6.53909e-19 
0.00312499 0.0196459 1.12825e-18 0.00297608 0.0197075 5.04832e-19 0.00282417 0.0197765 1.38913e-19 
0.00266978 0.0198543 -1.05032e-19 0.00251395 0.0199421 -1.32815e-18 0.00441213 0.0195713 1.09098e-18 
0.00428734 0.0196211 -4.13352e-19 0.0041612 0.0196694 -2.06676e-19 0.00403336 0.0197167 -9.48677e-19 
0.00390357 0.0197635 -3.89635e-19 0.00377164 0.0198105 -1.15196e-19 0.00363741 0.0198582 2.03288e-19 
0.00350074 0.0199072 -5.01444e-19 0.00336153 0.0199584 4.40457e-19 0.00321972 0.0200127 1.05032e-19 
0.00307536 0.020071 -1.59242e-19 0.00292862 0.0201344 -8.06375e-19 0.00277991 0.020204 1.21973e-19 
0.00262995 0.0202808 -4.37069e-19 0.00247991 0.0203654 4.7095e-19 0.00436068 0.0199676 2.20229e-19 
0.00423571 0.0200193 -1.18246e-18 0.00410942 0.02007 -7.42001e-19 0.0039815 0.0201201 1.55854e-19 
0.00385171 0.02017 -1.20279e-18 0.0037199 0.02022 7.86047e-19 0.00358597 0.0202707 -1.24683e-18 
0.00344986 0.0203227 5.86147e-19 0.00331158 0.0203766 2.37169e-19 0.00317121 0.0204332 -7.45389e-20 
0.00302891 0.0204932 0 0.00288501 0.0205575 -2.84603e-19 0.00274007 0.0206267 -3.72694e-19 
0.00259491 0.0207016 1.69407e-19 0.00245068 0.0207822 -6.91179e-19 0.00430872 0.0203643 3.79471e-19 
0.00418366 0.0204179 2.23617e-19 0.00405736 0.020471 5.6243e-19 0.00392951 0.0205237 6.77626e-20 
0.00379993 0.0205763 -6.91179e-19 0.00366851 0.0206291 1.53482e-18 0.00353522 0.0206826 3.65918e-19 
0.00340009 0.020737 -6.43745e-19 0.00326321 0.0207931 -4.40457e-20 0.00312474 0.0208513 2.33781e-19 
0.00298499 0.0209123 7.96211e-19 0.00284436 0.0209767 -4.03188e-19 0.00270349 0.0210449 7.99599e-19 
0.0025632 0.0211172 2.40557e-19 0.00242456 0.0211935 4.40457e-19 0.0042563 0.0207613 -3.65918e-19 
0.00413125 0.0208166 -1.01644e-19 0.00400503 0.0208719 -1.6263e-19 0.00387739 0.0209271 3.0832e-19 
0.00374819 0.0209823 4.60786e-19 0.00361738 0.0210377 -8.13152e-19 0.00348501 0.0210934 -1.26377e-18 
0.00335115 0.02115 8.06375e-19 0.003216 0.0212077 5.45489e-19 0.00307979 0.021267 6.50521e-19 
0.00294289 0.0213285 -3.32037e-19 0.00280577 0.0213923 -7.31836e-19 0.00266907 0.0214589 -3.38813e-19 
0.00253357 0.0215283 3.48978e-19 0.00240024 0.0216001 -4.74338e-20 0.00420332 0.0211583 7.99599e-19 
0.00407837 0.0212154 -2.06676e-19 0.00395232 0.0212728 2.67662e-19 0.00382499 0.0213304 -1.21973e-19 
0.0036963 0.0213879 -8.47033e-20 0.00356628 0.0214455 4.40457e-19 0.00343501 0.0215033 2.71051e-20 
0.00330267 0.0215616 4.98055e-19 0.00316948 0.0216205 -1.76183e-19 0.00303575 0.0216805 -1.66018e-19 
0.00290189 0.0217418 -1.0842e-19 0.00276838 0.0218047 1.42302e-19 0.00263584 0.0218693 3.59142e-19 
0.00250499 0.0219355 -2.1684e-19 0.00237665 0.0220029 2.37169e-20 0.00414956 0.0215549 -1.82959e-19 
0.00402478 0.0216139 1.49078e-19 0.00389897 0.0216735 -4.03188e-19 0.00377203 0.0217333 -1.05032e-19 
0.00364395 0.0217931 -1.257e-18 0.00351483 0.0218527 1.15196e-18 0.00338482 0.0219122 -6.74238e-19 
0.00325414 0.0219718 -4.94667e-19 0.00312308 0.0220315 -1.49078e-19 0.00299199 0.0220917 -1.08081e-18 
0.00286126 0.0221525 -3.998e-19 0.0027314 0.0222141 7.6233e-19 0.00260297 0.0222764 9.01243e-19 
0.0024766 0.0223394 6.77626e-20 0.00235298 0.0224024 -8.40257e-19 0.00409471 0.021951 -2.91379e-19 
0.00397014 0.0220121 1.4569e-19 0.00384462 0.0220739 2.67662e-19 0.00371812 0.022136 2.71051e-19 
0.00359073 0.0221978 -2.64274e-19 0.00346259 0.0222593 1.40269e-18 0.00333394 0.0223202 -3.96411e-19 
0.00320504 0.0223807 -3.79471e-19 0.00307623 0.0224409 3.38813e-20 0.00294785 0.0225009 1.06049e-18 
0.00282032 0.0225608 -8.87691e-19 0.00269411 0.0226208 6.97955e-19 0.00256972 0.0226807 -1.79571e-19 
0.00244768 0.0227404 2.64274e-19 0.00232857 0.0227993 1.26716e-18 0.00403832 0.0223465 -4.06576e-20 
0.00391401 0.0224099 6.77626e-21 0.0037888 0.0224741 4.1674e-19 0.00366278 0.0225384 -3.79471e-19 
0.0035361 0.0226022 3.21873e-19 0.00340902 0.0226652 -9.72394e-19 0.0032818 0.0227273 1.24344e-18 
0.00315477 0.0227885 1.53482e-18 0.00302828 0.0228488 -1.14519e-18 0.00290269 0.0229083 1.1418e-18 
0.00277841 0.022967 -2.84603e-19 0.00265584 0.0230251 -1.35525e-19 0.00253544 0.0230825 -1.32815e-18 
0.00241765 0.0231389 -6.43745e-19 0.0023029 0.0231939 1.76183e-19 0.00397988 0.0227413 -2.37169e-19 
0.00385583 0.0228073 3.52366e-19 0.00373095 0.022874 -1.91429e-18 0.00360541 0.0229405 -3.89635e-19 
0.00347949 0.0230062 1.82959e-19 0.0033535 0.0230707 3.28649e-19 0.00322778 0.0231337 -9.21572e-19 
0.0031027 0.0231952 -2.06676e-19 0.00297861 0.0232553 4.50622e-19 0.00285588 0.0233139 -3.93023e-19 
0.00273489 0.0233713 2.87991e-19 0.00261601 0.0234273 4.09964e-19 0.00249959 0.023482 1.0842e-18 
0.002386 0.0235351 1.96512e-19 0.00227555 0.0235863 -2.30393e-19 0.00391877 0.0231353 1.30104e-18 
0.00379499 0.0232043 -8.13152e-20 0.00367041 0.0232737 1.57887e-18 0.00354537 0.0233426 3.42201e-19 
0.00342022 0.0234101 2.03288e-20 0.00329537 0.0234758 1.82959e-19 0.00317122 0.0235395 4.20128e-19 
0.00304816 0.0236011 1.35525e-19 0.00292657 0.0236606 -3.45589e-19 0.00280681 0.0237181 3.45589e-19 
0.0026892 0.0237737 5.6243e-19 0.00257406 0.0238275 1.257e-18 0.00246167 0.0238794 -7.11508e-20 
0.0023523 0.0239293 -4.37069e-19 0.00224618 0.0239769 6.26804e-19 0.0038543 0.0235285 1.38575e-18 
0.00373075 0.023601 -1.66018e-19 0.00360646 0.0236734 3.21873e-19 0.0034819 0.0237447 7.38613e-19 
0.00335755 0.0238139 -1.05032e-19 0.00323389 0.0238807 -6.09864e-19 0.0031114 0.0239448 -4.13352e-19 
0.00299048 0.0240061 1.34848e-18 0.00287153 0.0240648 -1.4264e-18 0.00275487 0.0241208 -1.10114e-18 
0.00264077 0.0241745 3.04932e-20 0.0025295 0.0242258 -3.72694e-19 0.00242125 0.0242749 -1.20617e-18 
0.0023162 0.0243215 1.8567e-18 0.00221448 0.0243656 -3.6253e-19 0.00378569 0.0239212 -3.55754e-19 
0.00366232 0.0239976 -2.03288e-19 0.00353828 0.0240733 4.94667e-19 0.00341419 0.024147 -3.76083e-19 
0.00329066 0.0242179 -1.02999e-18 0.00316829 0.0242856 -8.53809e-19 0.00304758 0.0243497 1.86347e-19 
0.00292898 0.0244105 -8.23316e-19 0.00281285 0.0244679 6.60686e-19 0.00269948 0.0245222 -1.999e-19 
0.0025891 0.0245737 7.45389e-20 0.00248188 0.0246224 -5.42101e-20 0.00237796 0.0246684 -1.21973e-19 
0.0022774 0.0247118 1.6263e-19 0.00218025 0.0247524 -2.02271e-18 0.00371206 0.0243134 5.35325e-19 
0.0035888 0.0243944 5.11608e-19 0.00346496 0.0244737 1.45351e-18 0.00334134 0.0245499 -5.82759e-19 
0.0032187 0.0246223 5.96311e-19 0.00309773 0.0246906 9.01243e-19 0.00297899 0.0247545 2.37169e-19 
0.00286294 0.0248142 1.08081e-18 0.0027499 0.0248701 -1.06387e-18 0.00264011 0.0249223 3.59142e-19 
0.00253372 0.0249712 -5.96311e-19 0.00243083 0.025017 -6.77626e-19 0.00233147 0.02506 1.67374e-18 
0.00223565 0.0251 3.86247e-19 0.00214331 0.0251372 8.57197e-19 0.00363245 0.0247057 -6.09864e-19 
0.0035092 0.0247917 1.22989e-18 0.0033855 0.0248748 -8.43645e-19 0.00326236 0.0249536 3.38813e-20 
0.00314072 0.0250274 1.93124e-19 0.00302135 0.0250958 -7.58942e-19 0.00290486 0.0251591 -1.59242e-19 
0.00279168 0.0252174 -1.11808e-18 0.00268209 0.0252712 2.23956e-18 0.00257625 0.025321 -8.97855e-19 
0.00247423 0.025367 1.77538e-18 0.00237601 0.0254098 -4.67562e-19 0.00228156 0.0254494 -7.99599e-19 
0.00219077 0.0254861 -4.98055e-19 0.00210352 0.0255199 -1.0842e-19 0.00354576 0.0250983 7.86047e-19 
0.00342239 0.02519 -3.0832e-19 0.00329877 0.0252772 -7.11508e-19 0.00317618 0.0253584 3.38813e-19 
0.00305571 0.0254332 1.09098e-18 0.00293824 0.0255015 6.94567e-19 0.00282439 0.0255635 -4.74338e-20 
0.00271454 0.0256199 -5.89535e-19 0.00260889 0.0256712 -8.80914e-19 0.00250748 0.025718 8.40257e-19 
0.00241028 0.0257609 -1.46706e-18 0.00231719 0.0258004 1.20279e-18 0.00222804 0.0258366 1.72795e-19 
0.00214266 0.0258699 -3.72694e-19 0.00206085 0.0259003 1.69407e-19 0.00345077 0.0254918 7.82658e-19 
0.00332712 0.0255899 5.42101e-19 0.00320354 0.0256813 7.14896e-19 0.0030816 0.0257648 9.21572e-19 
0.0029626 0.0258401 -7.04731e-19 0.00284747 0.0259075 5.92923e-19 0.00273682 0.0259677 3.69306e-19 
0.00263091 0.0260215 -5.75982e-19 0.00252981 0.0260698 4.1674e-19 0.00243345 0.0261133 3.998e-19 
0.00234165 0.0261527 9.58841e-19 0.00225419 0.0261886 -4.74338e-20 0.00217082 0.0262213 -3.04932e-19 
0.00209129 0.0262511 6.64074e-19 0.00201531 0.0262781 3.48978e-19 0.00334604 0.0258871 9.31736e-19 
0.00322193 0.0259922 -2.47334e-19 0.00309837 0.0260878 2.03288e-19 0.00297731 0.0261731 -9.82558e-20 
0.00286025 0.0262482 -1.35525e-20 0.00274812 0.026314 -6.09864e-19 0.00264142 0.0263715 1.17568e-18 
0.00254025 0.026422 6.23416e-19 0.00244451 0.0264667 1.4569e-18 0.00235394 0.0265064 -1.69407e-20 
0.00226821 0.026542 -4.33681e-19 0.002187 0.026574 6.36969e-19 0.00210994 0.0266031 -1.35525e-19 
0.00203671 0.0266293 2.16163e-18 0.00196698 0.0266531 -4.7095e-19 0.0032299 0.0262852 -9.41901e-19 
0.0031051 0.0263977 2.94767e-19 0.00298163 0.0264973 -6.03087e-19 0.00286189 0.0265836 5.79371e-19 
0.00274749 0.0266575 -1.58565e-18 0.00263931 0.0267206 -2.84603e-19 0.0025376 0.0267745 -1.09775e-18 
0.00244221 0.026821 2.37169e-19 0.00235279 0.0268614 -6.09864e-19 0.00226888 0.0268968 1.28749e-19 
0.00219001 0.0269283 1.15535e-18 0.0021157 0.0269564 -8.13152e-19 0.00204553 0.0269816 9.96111e-19 
0.00197911 0.0270044 -6.57298e-19 0.00191606 0.0270248 3.15096e-19 0.00310031 0.0266874 3.45589e-19 
0.0029746 0.0268077 -4.06576e-19 0.00285146 0.0269106 4.7095e-19 0.00273378 0.0269967 2.57498e-19 
0.00262321 0.0270679 2.67662e-19 0.00252031 0.0271269 6.77626e-20 0.00242496 0.0271761 -1.10114e-18 
0.00233663 0.0272177 6.23416e-19 0.00225469 0.0272532 -2.30393e-19 0.00217844 0.0272841 8.13152e-19 
0.00210725 0.0273111 -7.28448e-19 0.00204057 0.0273352 5.42101e-19 0.00197788 0.0273566 -1.34848e-18 
0.00191876 0.0273758 5.0822e-20 0.00186281 0.027393 9.48677e-20 0.00295474 0.0270955 5.04832e-19 
0.00282792 0.0272236 1.66018e-19 0.0027057 0.0273284 -7.45389e-19 0.00259142 0.0274121 3.38813e-21 
0.00248642 0.0274787 -4.87891e-19 0.00239067 0.0275321 -2.37169e-20 0.00230343 0.0275754 2.20229e-19 
0.00222371 0.0276113 -6.03087e-19 0.00215054 0.0276415 8.09763e-19 0.00208302 0.0276674 -6.94567e-19 
0.00202041 0.02769 4.37069e-19 0.00196205 0.0277098 -7.55553e-19 0.00190742 0.0277275 1.03338e-18 
0.00185607 0.0277432 -4.60786e-19 0.0018076 0.0277573 -8.74138e-19 0.00278988 0.0275122 4.23516e-19 
0.00266193 0.0276471 -5.55654e-19 0.00254196 0.027751 1.21973e-19 0.00243337 0.0278295 -9.92723e-19 
0.00233657 0.027889 2.71051e-19 0.00225046 0.027935 -4.57398e-19 0.00217346 0.0279713 1.08081e-18 
0.00210409 0.0280008 -5.99699e-19 0.00204107 0.0280253 3.25261e-19 0.00198336 0.0280461 -1.21973e-19 
0.00193015 0.0280641 2.47334e-19 0.00188078 0.0280799 1.0266e-18 0.00183472 0.0280939 -5.6243e-19 
0.00179156 0.0281063 1.00966e-18 0.00175091 0.0281174 5.99699e-19 0.00260105 0.0279411 -6.36969e-19 
0.00247264 0.0280801 -9.14796e-20 0.00235784 0.0281783 1.01644e-18 0.00225885 0.0282473 -9.7917e-19 
0.00217399 0.0282969 -7.69106e-19 0.00210059 0.0283338 9.48677e-19 0.00203621 0.0283622 -9.58841e-19 
0.00197896 0.028385 1.89735e-19 0.0019274 0.0284037 -4.09964e-19 0.00188048 0.0284195 -1.37897e-18 
0.00183741 0.0284331 -6.43745e-19 0.00179758 0.028445 -1.09098e-18 0.00176052 0.0284555 -1.89735e-19 
0.00172586 0.0284648 7.11508e-20 0.00169329 0.0284732 -1.02999e-18 0.00238185 0.0283874 9.21572e-19 
0.00225557 0.0285232 -1.26377e-18 0.00215184 0.0286082 1.16552e-18 0.00206864 0.0286627 -1.20617e-18 
0.00200052 0.0286997 1.5992e-18 0.00194319 0.0287264 -1.35525e-19 0.00189372 0.0287467 -8.97855e-19 
0.00185014 0.0287627 1.27394e-18 0.00181112 0.0287758 1.18585e-19 0.00177574 0.0287868 1.59581e-18 
0.00174334 0.0287963 -3.72694e-19 0.00171344 0.0288046 8.80914e-20 0.00168566 0.0288119 -4.40457e-19 
0.00165971 0.0288184 3.45589e-19 0.00163535 0.0288242 3.01544e-19 0.00211969 0.0288604 -3.48978e-19 
0.00200625 0.028975 -9.58841e-19 0.0019262 0.0290353 -8.84302e-19 0.00186679 0.029071 9.75782e-19 
0.00182027 0.0290942 -9.04631e-19 0.00178182 0.0291107 1.10453e-18 0.00174891 0.0291231 -5.01444e-19 
0.00172 0.0291329 9.48677e-20 0.00169416 0.0291409 -5.69206e-19 0.00167073 0.0291476 -1.73811e-18 
0.00164927 0.0291534 -1.999e-19 0.00162947 0.0291585 1.25361e-18 0.00161107 0.029163 5.59042e-19 
0.0015939 0.029167 -1.5992e-18 0.00157779 0.0291706 1.05032e-19 0.00180838 0.0293522 -1.75844e-18 
0.00173066 0.0294235 2.40557e-19 0.00169074 0.0294513 1.15874e-18 0.00166202 0.0294673 -7.04731e-19 
0.00163975 0.0294776 -6.40357e-19 0.00162126 0.029485 -1.35525e-18 0.00160533 0.0294906 1.69407e-18 
0.00159127 0.0294949 6.09864e-19 0.00157863 0.0294985 7.69106e-19 0.00156713 0.0295016 3.25261e-19 
0.00155657 0.0295042 -8.13152e-19 0.00154681 0.0295065 -1.55854e-18 0.00153773 0.0295086 -7.18284e-19 
0.00152925 0.0295104 6.33581e-19 0.0015213 0.029512 2.64274e-19 0.00458425 0.0181928 5.0822e-19 
0.00462223 0.0183661 5.0822e-19 0.00446095 0.0182337 -8.13152e-19 0.00449923 0.0184103 -5.48877e-19 
0.00433634 0.0182717 -1.47045e-18 0.00437501 0.0184512 -2.22261e-18 0.00421026 0.0183077 2.53432e-18 
0.00424933 0.0184898 -6.50521e-19 0.00408252 0.0183426 -1.28749e-19 0.004122 0.0185269 3.23228e-18 
0.00395294 0.018377 1.46367e-18 0.00399281 0.0185633 3.08998e-18 0.00382127 0.0184118 2.91379e-19 
0.00386154 0.0185998 1.53821e-18 0.00368717 0.0184477 -2.07354e-18 0.00372788 0.0186371 -1.38913e-18 
0.00355022 0.0184857 9.89334e-19 0.0035915 0.018676 1.05032e-18 0.00340988 0.0185269 -2.34459e-18 
0.00345193 0.0187177 7.38613e-19 0.00326551 0.0185728 2.31748e-18 0.00330868 0.0187634 6.43745e-19 
0.00311639 0.0186253 1.84314e-18 0.00316117 0.0188148 7.99599e-19 0.0029618 0.0186868 1.58565e-18 
0.00300882 0.0188738 2.89346e-18 0.00280114 0.0187603 -5.89535e-19 0.00285122 0.018943 -4.60786e-19 
0.00263426 0.0188494 -5.48877e-19 0.00268828 0.0190252 -3.27971e-18 0.00252057 0.0191237 -6.50521e-19 
0.00453696 0.018585 7.86047e-19 0.00457424 0.0187578 2.00577e-18 0.00441312 0.0186288 -1.34848e-18 
0.00445073 0.0188046 -1.04354e-18 0.00428791 0.01867 -2.39202e-18 0.004326 0.0188484 -3.15096e-18 
0.00416109 0.0187094 2.98156e-19 0.00419974 0.0188902 -2.60209e-18 0.00403243 0.0187479 1.6263e-19 
0.00407169 0.0189308 -2.5411e-18 0.0039017 0.0187862 1.00289e-18 0.00394163 0.0189709 -1.25361e-18 
0.00376865 0.0188249 1.04354e-18 0.00380932 0.0190112 -6.43745e-19 0.00363299 0.0188649 -3.18484e-19 
0.0036745 0.0190524 1.5992e-18 0.00349434 0.0189072 1.57209e-18 0.00353687 0.0190954 1.01644e-18 
0.0033523 0.0189529 -9.21572e-19 0.0033961 0.0191413 2.71051e-20 0.00320641 0.0190034 -5.35325e-19 
0.00325184 0.0191912 -1.52466e-18 0.00305624 0.0190604 1.1994e-18 0.00310376 0.0192466 -7.31836e-19 
0.00290148 0.019126 -3.93023e-19 0.00295165 0.0193094 -9.82558e-19 0.0027421 0.0192026 -1.01644e-19 
0.0027955 0.0193813 -1.43657e-18 0.00257858 0.0192928 -6.1664e-19 0.00263575 0.0194647 2.968e-18 
0.0024735 0.0195614 1.11131e-18 0.0044879 0.0189786 2.96123e-18 0.00452473 0.0191511 3.40846e-18 
0.00436361 0.019025 -2.5411e-18 0.00440079 0.0192 -2.84603e-19 0.00423793 0.0190692 -1.0842e-19 
0.00427566 0.0192465 -1.79571e-18 0.00411055 0.0191119 -2.26327e-18 0.00414897 0.0192914 -4.33681e-19 
0.00398123 0.0191539 5.48877e-19 0.00402044 0.0193353 -6.50521e-19 0.00384975 0.0191958 -9.75782e-19 
0.00388983 0.0193788 1.8567e-18 0.00371586 0.0192383 9.01243e-19 0.00375694 0.0194227 -1.0842e-18 
0.00357932 0.0192822 1.92446e-18 0.00362154 0.0194676 -2.37169e-19 0.00343986 0.0193284 1.01644e-18 
0.00348342 0.0195144 1.84992e-18 0.00329723 0.0193781 -1.8838e-18 0.00334239 0.0195639 7.72494e-19 
0.00315116 0.0194323 5.69206e-19 0.00319826 0.0196173 5.14996e-19 0.00300152 0.0194927 1.45012e-18 
0.00305093 0.0196759 1.58565e-18 0.00284834 0.0195609 -9.35124e-19 0.00290048 0.019741 4.74338e-19 
0.00269199 0.0196387 -2.23617e-19 0.00274723 0.0198142 9.89334e-19 0.00253339 0.0197277 -6.50521e-19 
0.00259195 0.0198969 -2.90702e-18 0.002436 0.0199901 -4.1674e-18 0.00443761 0.0193735 3.80148e-18 
0.00447414 0.0195457 3.30004e-18 0.00431296 0.0194222 -3.63208e-18 0.00434988 0.0195964 2.17518e-18 
0.00418694 0.0194692 2.34459e-18 0.00422447 0.0196454 -2.99511e-18 0.00405921 0.019515 -2.58853e-18 
0.00409751 0.0196931 -9.41901e-19 0.00392951 0.0195603 2.2836e-18 0.00396872 0.0197401 -1.93801e-18 
0.00379764 0.0196056 -2.10064e-19 0.00383789 0.019787 -1.84314e-18 0.0036634 0.0196516 1.0842e-18 
0.00370482 0.0198342 7.31836e-19 0.00352663 0.0196991 4.67562e-19 0.00356939 0.0198825 -7.58942e-19 
0.00338717 0.0197488 1.57209e-18 0.00343146 0.0199325 4.94667e-19 0.00324489 0.0198016 -1.42302e-19 
0.00329095 0.0199851 8.3348e-19 0.00309974 0.0198588 1.64663e-18 0.00314785 0.0200413 -1.15196e-19 
0.00295181 0.0199215 -2.10064e-19 0.00300227 0.020102 -1.91768e-18 0.00280141 0.0199909 6.77626e-20 
0.00285447 0.0201684 -3.79471e-19 0.00264917 0.0200683 -1.10453e-18 0.00270502 0.0202415 -4.60786e-19 
0.00249621 0.0201547 -1.19262e-18 0.00255485 0.0203221 -7.86047e-19 0.00240536 0.0204107 9.41901e-19 
0.00438648 0.0197693 1.65341e-18 0.00442281 0.0199412 1.84314e-18 0.00426158 0.0198201 -3.29326e-18 
0.00429833 0.0199936 -2.3988e-18 0.00413535 0.0198697 -1.94479e-18 0.00417275 0.0200448 -3.59142e-18 
0.00400745 0.0199184 -1.66018e-18 0.00404568 0.0200952 -7.7927e-19 0.00387763 0.0199668 -3.1103e-18 
0.00391685 0.0201451 -1.73472e-18 0.00374573 0.0200153 9.08019e-19 0.00378606 0.020195 -1.2265e-18 
0.0036116 0.0200645 -1.91091e-18 0.0036532 0.0202453 -1.69407e-19 0.00347515 0.0201151 4.06576e-20 
0.00351819 0.0202965 -3.00188e-18 0.00333634 0.0201677 1.30782e-18 0.00338099 0.0203494 1.94479e-18 
0.00319518 0.0202232 1.69407e-19 0.00324165 0.0204045 3.06965e-18 0.00305177 0.0202825 2.98156e-19 
0.00310028 0.0204627 -1.13164e-18 0.00290639 0.0203464 -2.83248e-18 0.00295713 0.0205247 -1.13164e-18 
0.00275951 0.020416 8.80914e-20 0.00281263 0.0205914 -1.04354e-18 0.00261193 0.0204919 -9.01243e-19 
0.00266745 0.0206635 -8.3348e-19 0.00246481 0.0205746 -2.71051e-20 0.00252259 0.0207412 -7.7927e-19 
0.00237937 0.0208246 -1.63308e-18 0.00433476 0.0201659 1.56532e-18 0.00437091 0.0203373 6.03087e-19 
0.00420973 0.0202186 -1.43657e-18 0.00424632 0.0203912 1.60597e-18 0.00408342 0.0202705 6.09864e-19 
0.00412069 0.0204445 3.04932e-19 0.00395552 0.0203219 -2.23617e-19 0.00399364 0.0204974 2.12097e-18 
0.00382581 0.0203732 -2.62241e-18 0.00386494 0.02055 -1.8838e-18 0.00369416 0.0204246 3.61852e-18 
0.00373445 0.0206027 1.999e-18 0.00356052 0.0204768 -6.1664e-19 0.0036021 0.0206557 3.69984e-18 
0.00342485 0.02053 -7.7927e-19 0.00346788 0.0207096 -9.69006e-19 0.00328722 0.0205851 -6.36969e-19 
0.00333186 0.0207648 -2.10064e-19 0.00314775 0.0206425 2.77827e-19 0.00319416 0.0208219 6.09864e-19 
0.00300667 0.0207031 1.02999e-18 0.003055 0.0208814 2.18196e-18 0.00286438 0.0207675 -7.31836e-19 
0.00291475 0.020944 1.98545e-18 0.00272145 0.0208364 6.1664e-19 0.00277391 0.0210103 3.45589e-19 
0.00257872 0.02091 5.75982e-19 0.00263321 0.0210805 1.33492e-18 0.00243732 0.0209885 1.0842e-19 
0.00249359 0.0211549 3.49655e-18 0.00235627 0.0212329 1.82959e-19 0.00428257 0.0205628 6.77626e-21 
0.0043185 0.0207337 -5.14996e-19 0.00415751 0.0206173 4.13352e-19 0.0041939 0.020789 -9.48677e-19 
0.00403123 0.0206714 8.40257e-19 0.00406831 0.0208443 -1.4569e-18 0.00390347 0.0207254 4.87891e-19 
0.0039414 0.0208995 5.01444e-19 0.00377406 0.0207794 -2.91379e-19 0.00381299 0.0209547 2.06676e-18 
0.00364293 0.0208335 3.04932e-19 0.00368299 0.02101 -3.79471e-19 0.00351007 0.0208881 -1.72117e-18 
0.00355139 0.0210655 -3.5982e-18 0.00337554 0.0209437 -2.71051e-20 0.00341826 0.0211216 -4.26905e-19 
0.00323948 0.0210006 1.32137e-18 0.00328373 0.0211787 9.62229e-19 0.00310212 0.0210595 1.13841e-18 
0.00314801 0.0212371 3.29326e-18 0.00296376 0.0211207 4.40457e-19 0.0030114 0.0212975 1.30104e-18 
0.00282487 0.0211849 -1.51111e-18 0.00287432 0.0213601 -1.38913e-18 0.00268607 0.0212524 1.36881e-18 
0.00273732 0.0214253 -3.3678e-18 0.00254819 0.0213233 1.68051e-18 0.00260111 0.0214933 3.18484e-19 
0.00241225 0.0213973 -8.13152e-20 0.00246656 0.0215639 3.86247e-19 0.00233472 0.0216367 1.15874e-18 
0.00422989 0.0209598 8.87691e-19 0.00426547 0.0211299 2.60209e-18 0.00410488 0.021016 -1.42302e-19 
0.00414096 0.0211868 8.60585e-19 0.00397874 0.0210724 1.45012e-18 0.00401549 0.0212441 -1.43657e-18 
0.00385124 0.0211288 -6.77626e-19 0.00388882 0.0213016 6.09864e-20 0.00372228 0.0211852 8.40257e-19 
0.00376081 0.0213591 -9.89334e-19 0.00359185 0.0212417 -3.998e-19 0.00363145 0.0214167 3.998e-19 
0.00346 0.0212985 -1.95834e-18 0.00350079 0.0214744 -9.48677e-20 0.00332688 0.0213559 1.8838e-18 
0.00336896 0.0215324 1.42302e-18 0.00319269 0.0214143 1.0571e-18 0.00323616 0.0215909 1.00289e-18 
0.0030577 0.021474 1.73472e-18 0.00310266 0.0216503 -1.35525e-19 0.0029223 0.0215355 -1.87703e-18 
0.00296881 0.0217109 -6.7085e-19 0.00278698 0.0215989 -7.65718e-19 0.00283506 0.021773 -6.09864e-19 
0.00265236 0.0216646 -1.82959e-19 0.00270195 0.0218368 2.31071e-18 0.0025192 0.0217324 7.86047e-19 
0.00257015 0.0219022 3.38813e-19 0.00238841 0.0218019 7.04731e-19 0.00244045 0.0219691 -1.39591e-18 
0.0023137 0.0220368 -1.41624e-18 0.00417655 0.0213566 6.77626e-21 0.00421164 0.0215258 -5.01444e-19 
0.00405168 0.0214147 -1.17229e-18 0.00408729 0.0215843 -1.21973e-19 0.00392574 0.0214732 6.36969e-19 
0.00396201 0.0216437 1.42302e-19 0.0037986 0.0215319 1.18585e-18 0.00383564 0.0217034 -2.50722e-19 
0.00367021 0.0215906 -2.62241e-18 0.00370813 0.0217632 -4.12674e-18 0.00354062 0.0216492 2.06676e-18 
0.00357951 0.0218229 1.29427e-18 0.00340997 0.0217079 -7.31836e-19 0.00344992 0.0218825 2.01255e-18 
0.00327844 0.0217668 1.21973e-19 0.00331955 0.021942 -3.07642e-18 0.0031463 0.0218262 -1.40269e-18 
0.00318864 0.0220016 -1.38913e-18 0.00301388 0.0218863 -2.35136e-18 0.00305752 0.0220615 -1.86347e-18 
0.00288157 0.0219475 7.99599e-19 0.00292655 0.022122 -2.67662e-18 0.00274989 0.0220097 1.29427e-18 
0.00279619 0.0221832 2.08709e-18 0.00261941 0.0220733 2.18196e-18 0.00266697 0.0222452 3.87602e-18 
0.00249082 0.0221378 -7.99599e-19 0.00253948 0.0223079 1.82281e-18 0.00236487 0.022203 -1.11131e-18 
0.0024144 0.0223709 -1.4569e-18 0.00229242 0.0224338 -1.42979e-18 0.0041223 0.021753 3.998e-19 
0.00415667 0.0219211 -2.29038e-18 0.00399762 0.021813 5.01444e-19 0.00403254 0.0219814 -6.97955e-19 
0.00387195 0.0218738 -4.94667e-19 0.0039075 0.022043 1.7686e-18 0.00374522 0.0219347 -1.74828e-18 
0.00378149 0.022105 -1.32815e-18 0.00361748 0.0219955 -2.83248e-18 0.00365453 0.0221669 6.50521e-19 
0.00348884 0.0220561 3.86247e-18 0.00352674 0.0222286 9.96111e-19 0.0033595 0.0221163 -2.55465e-18 
0.00339831 0.0222898 2.24972e-18 0.0032297 0.0221764 -1.30104e-18 0.0032695 0.0223505 -8.47033e-19 
0.00309975 0.0222364 -7.99599e-19 0.0031406 0.0224108 -2.06676e-18 0.00297 0.0222965 -4.47233e-19 
0.00301196 0.0224709 2.14808e-18 0.00284087 0.022357 -2.45301e-18 0.00288395 0.0225309 1.21973e-18 
0.00271284 0.0224178 2.45301e-18 0.00275702 0.0225908 -3.25261e-19 0.00258643 0.0224789 1.70084e-18 
0.00263165 0.0226508 -2.98156e-19 0.00246224 0.0225402 1.89735e-19 0.00250837 0.0227106 -6.77626e-21 
0.0023409 0.0226012 9.96111e-19 0.00238773 0.02277 2.31748e-18 0.00227028 0.0228283 2.27682e-18 
0.00406674 0.0221489 -4.06576e-20 0.00410015 0.0223155 -3.25261e-19 0.00394229 0.0222111 -2.1684e-19 
0.00397628 0.0223781 2.71051e-20 0.00381693 0.0222741 4.40457e-19 0.00385151 0.0224419 8.47033e-19 
0.00369066 0.0223372 0 0.00372588 0.0225063 5.14996e-19 0.00356363 0.0224 1.28749e-19 
0.00359951 0.0225703 1.21973e-19 0.00343601 0.0224623 9.96111e-19 0.0034726 0.0226338 8.19928e-19 
0.00330807 0.0225239 1.51111e-18 0.00334541 0.0226964 7.58942e-19 0.00318009 0.0225847 1.66696e-18 
0.00321824 0.022758 4.30293e-18 0.00305243 0.022645 -1.63986e-18 0.00309144 0.0228187 1.32815e-18 
0.00292544 0.0227048 2.85281e-18 0.00296535 0.0228786 1.3417e-18 0.00279953 0.0227642 -2.75794e-18 
0.00284036 0.0229377 9.41901e-19 0.00267514 0.0228233 1.49078e-18 0.00271688 0.0229962 -4.13352e-19 
0.00255274 0.0228819 -2.98156e-18 0.00259534 0.0230539 -3.13063e-18 0.00243284 0.0229399 -4.87891e-19 
0.00247619 0.0231108 -3.42201e-18 0.00231592 0.0229969 2.2565e-18 0.00235987 0.0231666 -9.35124e-19 
0.00224679 0.0232207 1.89735e-18 0.00400939 0.022544 -1.21973e-19 0.00404156 0.0227089 -1.76183e-18 
0.00388521 0.0226086 -2.91379e-19 0.00391797 0.0227741 -1.82959e-19 0.00376017 0.0226741 -3.13063e-18 
0.00379349 0.0228406 -1.93801e-18 0.00363439 0.0227395 -6.7085e-19 0.00366825 0.0229073 -3.55076e-18 
0.00350809 0.0228042 1.84314e-18 0.00354248 0.0229735 -1.89735e-18 0.00338154 0.022868 -1.97867e-18 
0.00341649 0.0230386 4.47233e-19 0.00325507 0.0229306 6.30193e-19 0.00329059 0.0231024 -1.02322e-18 
0.003129 0.022992 2.96123e-18 0.00316514 0.0231647 -1.50433e-18 0.0030037 0.0230522 -9.35124e-19 
0.00304051 0.0232254 1.15196e-18 0.00287953 0.0231113 1.00289e-18 0.00291705 0.0232848 4.20128e-19 
0.00275689 0.0231694 4.40457e-19 0.00279515 0.0233428 -1.89735e-19 0.00263616 0.0232265 8.06375e-19 
0.00267516 0.0233995 1.20617e-18 0.00251775 0.0232825 -5.0822e-19 0.00255747 0.0234548 2.64952e-18 
0.00240205 0.0233372 -1.55176e-18 0.00244242 0.0235088 2.73761e-18 0.00228946 0.0233903 -2.71051e-20 
0.00233036 0.023561 1.11808e-18 0.0022216 0.0236111 -5.89535e-19 0.0039497 0.0229384 2.13452e-18 
0.0039803 0.0231013 -5.48877e-19 0.00382579 0.0230058 5.75982e-19 0.00385699 0.0231696 3.43557e-18 
0.00370106 0.0230739 -2.23617e-19 0.00373278 0.023239 2.26327e-18 0.00357577 0.0231415 -6.43745e-19 
0.00360793 0.0233083 3.45589e-18 0.00345023 0.0232081 8.19928e-19 0.00348278 0.0233765 7.52165e-19 
0.00332481 0.0232733 1.21973e-19 0.00335773 0.0234432 6.23416e-19 0.00319986 0.0233367 -2.00577e-18 
0.00323318 0.0235079 1.93801e-18 0.00307578 0.0233983 -4.87891e-19 0.00310953 0.0235705 -4.67562e-19 
0.00295293 0.0234581 -7.2506e-19 0.00298716 0.0236311 -1.44334e-18 0.00283167 0.0235162 -1.49078e-19 
0.00286644 0.0236896 2.03288e-18 0.00271235 0.0235727 6.77626e-20 0.00274772 0.0237461 1.35525e-18 
0.00259533 0.0236276 3.25261e-18 0.0026313 0.0238009 4.58075e-18 0.00248092 0.0236809 2.12775e-18 
0.0025175 0.0238537 2.91379e-18 0.00236943 0.0237324 -1.20617e-18 0.00240659 0.0239046 -9.35124e-19 
0.00226114 0.0237818 1.23328e-18 0.00229882 0.0239534 -9.48677e-19 0.00219438 0.0239997 3.04932e-18 
0.00388701 0.023332 5.01444e-18 0.00391568 0.0234927 3.55754e-18 0.00376334 0.0234027 1.49078e-19 
0.00379264 0.0235647 1.484e-18 0.00363892 0.0234736 3.55076e-18 0.00366867 0.0236373 6.50521e-19 
0.00351411 0.0235436 2.60209e-18 0.00354419 0.0237093 2.27005e-18 0.00338936 0.023612 1.89735e-19 
0.00341967 0.0237796 5.89535e-19 0.0032651 0.0236783 -4.67562e-19 0.0032956 0.0238476 -1.97189e-18 
0.00314176 0.0237422 3.86247e-19 0.00317247 0.0239131 -9.69006e-19 0.00301976 0.0238037 2.92057e-18 
0.00305072 0.0239758 -1.28749e-19 0.00289947 0.0238628 -2.72406e-18 0.00293074 0.0240358 8.53809e-19 
0.00278123 0.0239196 -1.01644e-18 0.0028129 0.0240931 -5.63785e-18 0.00266536 0.0239743 3.11708e-19 
0.00269748 0.024148 -1.84314e-18 0.00255213 0.0240269 2.00577e-18 0.00258477 0.0242005 -8.26704e-19 
0.0024418 0.0240774 -9.08019e-19 0.00247498 0.0242507 -4.59431e-18 0.00233457 0.0241256 3.18484e-18 
0.00236832 0.0242985 2.00577e-18 0.00223063 0.0241714 5.01444e-19 0.00226492 0.0243439 1.5992e-18 
0.0021649 0.0243865 5.82759e-19 0.00382057 0.0237249 1.92446e-18 0.00384695 0.0238832 2.37847e-18 
0.00369711 0.0237993 5.42101e-19 0.00372412 0.0239594 -2.30393e-18 0.00357296 0.0238733 9.35124e-19 
0.00360035 0.0240356 7.18284e-19 0.00344863 0.0239458 6.64074e-19 0.0034762 0.0241105 7.45389e-20 
0.00332468 0.0240159 -2.33103e-18 0.00335232 0.0241829 -3.09675e-18 0.00320165 0.0240831 -2.91379e-18 
0.0032293 0.0242522 -4.00477e-18 0.00308003 0.0241473 -1.49078e-18 0.00310769 0.0243181 -2.23617e-19 
0.00296025 0.0242084 1.63986e-18 0.00298799 0.0243805 -1.00289e-18 0.00284268 0.0242665 -2.1684e-18 
0.00287058 0.0244396 -3.38813e-19 0.00272764 0.0243217 -2.83248e-18 0.0027558 0.0244955 1.6263e-19 
0.00261537 0.0243743 4.47233e-19 0.00264391 0.0245483 1.57209e-18 0.0025061 0.0244243 -2.10064e-18 
0.00253509 0.0245984 -1.35525e-18 0.00239998 0.0244719 -2.05998e-18 0.0024295 0.0246457 2.98156e-19 
0.00229716 0.0245169 2.54788e-18 0.00232725 0.0246904 -1.07065e-18 0.0021977 0.0245592 -2.37169e-18 
0.0022284 0.0247324 -2.83248e-18 0.00213295 0.0247716 -4.13352e-18 0.00374956 0.0241173 2.43945e-19 
0.00377323 0.0242729 2.41913e-18 0.00362625 0.024196 3.45589e-19 0.00365055 0.024354 1.28749e-18 
0.00350232 0.0242734 2.92735e-18 0.0035269 0.0244343 3.24583e-18 0.00337847 0.0243484 -2.24972e-18 
0.00340308 0.0245122 1.61953e-18 0.00325538 0.0244201 8.13152e-20 0.00327985 0.0245866 -5.55654e-19 
0.00313368 0.024488 -2.50722e-19 0.00315797 0.024657 2.60886e-18 0.00301393 0.0245521 1.38236e-18 
0.00303805 0.024723 1.39591e-18 0.00289657 0.0246124 3.65918e-19 0.00292061 0.0247849 1.45012e-18 
0.00278194 0.0246691 -1.70762e-18 0.00280602 0.0248426 8.40257e-19 0.00267033 0.0247224 8.13152e-20 
0.00269459 0.0248966 -9.21572e-19 0.0025619 0.0247727 -1.24683e-18 0.00258648 0.0249472 -1.35525e-18 
0.00245681 0.0248199 -9.89334e-19 0.00248184 0.0249945 -2.76472e-18 0.00235513 0.0248644 3.72694e-18 
0.00238071 0.0250389 5.96311e-19 0.00225691 0.0249062 8.80914e-19 0.00228312 0.0250803 3.79471e-18 
0.00216213 0.024945 -1.82959e-18 0.00218905 0.025119 2.52077e-18 0.00209841 0.0251547 4.44523e-18 
0.00367307 0.0245095 3.04932e-19 0.00369359 0.0246621 -1.84314e-18 0.00354982 0.024593 2.95445e-18 
0.00357094 0.024749 9.62229e-19 0.00342606 0.0246741 1.29427e-18 0.00344734 0.0248337 -6.57298e-19 
0.00330268 0.0247516 -1.56532e-18 0.0033238 0.0249148 3.32037e-19 0.00318053 0.0248248 1.20617e-18 
0.0032013 0.0249911 4.13352e-19 0.00306032 0.0248931 -5.14996e-19 0.00308071 0.0250622 5.55654e-19 
0.00294267 0.0249568 4.33681e-19 0.00296272 0.0251281 -1.00289e-18 0.002828 0.0250159 2.71051e-19 
0.00284784 0.0251888 -1.3417e-18 0.00271664 0.0250708 1.81604e-18 0.00273643 0.0252448 2.23617e-18 
0.00260877 0.0251218 -9.21572e-19 0.0026287 0.0252966 2.23617e-18 0.00250451 0.0251693 3.15774e-18 
0.00252476 0.0253444 2.91379e-18 0.00240391 0.0252137 -1.69407e-18 0.00242465 0.0253888 2.1684e-18 
0.00230696 0.025255 1.04354e-18 0.00232832 0.02543 -1.35525e-20 0.00221361 0.0252934 -1.26039e-18 
0.00223571 0.0254681 -2.80537e-18 0.00212377 0.0253289 1.01644e-18 0.00214672 0.0255034 -3.93023e-19 
0.00206118 0.0255357 -1.24683e-18 0.00359006 0.0249019 -7.45389e-20 0.00360695 0.0250513 -9.55453e-19 
0.00346677 0.0249907 1.57209e-18 0.00348419 0.0251446 1.38913e-18 0.00334312 0.0250758 -1.98545e-18 
0.00336053 0.0252343 -2.63597e-18 0.00322024 0.0251559 -4.06576e-20 0.00323728 0.0253186 -8.80914e-19 
0.00309916 0.0252302 2.26327e-18 0.00311562 0.0253966 3.95734e-18 0.0029807 0.0252986 -9.35124e-19 
0.00299656 0.0254681 3.40168e-18 0.00286547 0.0253613 -4.33681e-19 0.00288084 0.0255332 -1.49078e-19 
0.00275389 0.0254187 -2.69695e-18 0.00276895 0.0255923 -1.80249e-18 0.0026462 0.0254713 1.73472e-18 
0.00266118 0.0256461 -2.62919e-18 0.00254251 0.0255197 -2.57498e-19 0.00255765 0.0256951 -6.77626e-20 
0.00244283 0.0255642 7.18284e-19 0.00245836 0.0257399 -2.30393e-19 0.00234711 0.0256054 2.23617e-18 
0.00236323 0.0257811 -1.30104e-18 0.00225526 0.0256433 -9.08019e-19 0.00227213 0.0258189 2.26327e-18 
0.00216712 0.0256783 -7.18284e-19 0.00218489 0.0258536 -4.87891e-19 0.00208255 0.0257104 5.14996e-19 
0.00210132 0.0258855 -1.39591e-18 0.00202122 0.0259145 1.28749e-18 0.00349939 0.0252949 2.04643e-18 
0.00351209 0.0254409 4.27582e-18 0.0033759 0.0253897 1.3146e-18 0.00338904 0.0255416 2.15485e-18 
0.00325231 0.025479 -2.77827e-19 0.00326522 0.0256365 9.41901e-19 0.00313002 0.0255614 2.05998e-18 
0.00314228 0.0257241 3.27971e-18 0.00301024 0.0256365 8.80914e-19 0.00302167 0.0258035 7.04731e-19 
0.00289387 0.0257044 2.61564e-18 0.00290451 0.0258748 -1.19262e-18 0.00278154 0.0257656 1.01644e-18 
0.00279156 0.0259385 2.56143e-18 0.00267357 0.0258208 -2.69695e-18 0.00268326 0.0259954 -9.48677e-20 
0.00257011 0.0258707 3.38813e-19 0.00257976 0.0260463 -1.3146e-18 0.00247114 0.0259159 1.36881e-18 
0.00248105 0.0260921 2.27682e-18 0.00237656 0.0259571 -8.80914e-19 0.00238699 0.0261335 2.10064e-18 
0.00228621 0.0259948 3.38813e-19 0.00229739 0.0261711 3.03577e-18 0.00219989 0.0260293 2.71051e-19 
0.00221201 0.0262053 -6.50521e-19 0.00211738 0.0260608 1.54499e-18 0.00213059 0.0262365 1.58565e-18 
0.00203844 0.0260896 7.45389e-19 0.00205287 0.0262649 1.3146e-18 0.00197857 0.0262907 -1.3146e-18 
0.00339972 0.0256892 3.78116e-18 0.00340761 0.0258317 3.48978e-18 0.00327587 0.0257907 5.0822e-19 
0.00328405 0.0259407 1.17229e-18 0.00315229 0.0258842 1.04354e-18 0.00315995 0.0260412 7.86047e-19 
0.00303076 0.0259687 1.49078e-18 0.00303743 0.0261317 -2.84603e-19 0.00291265 0.026044 -1.12486e-18 
0.00291821 0.0262119 -8.40257e-19 0.00279893 0.0261107 -6.09864e-19 0.00280353 0.0262822 -5.96311e-19 
0.00269014 0.0261697 2.56143e-18 0.00269408 0.0263437 -3.79471e-19 0.00258648 0.0262219 7.99599e-19 
0.00259015 0.0263976 1.93801e-18 0.00248795 0.0262685 1.72117e-18 0.00249172 0.026445 4.96022e-18 
0.00239439 0.0263101 9.08019e-19 0.00239859 0.0264871 2.24972e-18 0.00230553 0.0263477 9.75782e-19 
0.00231049 0.0265247 -9.62229e-19 0.00222112 0.0263817 2.22261e-18 0.00222706 0.0265584 -8.67362e-19 
0.00214083 0.0264125 -3.13063e-18 0.00214797 0.0265889 1.26039e-18 0.00206439 0.0264406 5.17707e-18 
0.00207287 0.0266165 4.47233e-18 0.00199148 0.026466 -1.54499e-18 0.00200143 0.0266415 3.18484e-18 
0.00193333 0.026664 1.35525e-19 0.00328951 0.0260857 1.28749e-19 0.00329189 0.0262247 -1.78893e-18 
0.00316509 0.0261944 -4.74338e-20 0.00316751 0.0263429 -8.26704e-19 0.00304156 0.0262921 1.35525e-19 
0.00304304 0.0264492 -1.49078e-19 0.00292109 0.0263781 1.04354e-18 0.00292118 0.0265421 -2.19551e-18 
0.00280524 0.0264527 -1.6263e-18 0.00280396 0.026622 -5.55654e-19 0.00269495 0.0265173 -2.6563e-18 
0.0026926 0.0266903 -2.41235e-18 0.00259059 0.0265731 1.0842e-18 0.00258765 0.0267486 -3.07642e-18 
0.00249217 0.0266217 2.95445e-18 0.00248913 0.0267986 -2.03288e-19 0.00239945 0.0266643 1.07065e-18 
0.00239678 0.0268418 7.31836e-19 0.0023121 0.026702 6.77626e-19 0.00231017 0.0268796 8.80914e-19 
0.0022297 0.0267355 1.92446e-18 0.00222884 0.026913 2.69695e-18 0.00215185 0.0267656 -7.31836e-19 
0.00215231 0.0269427 1.20617e-18 0.00207816 0.0267928 1.91091e-18 0.00208012 0.0269694 -9.08019e-19 
0.00200827 0.0268173 2.77827e-18 0.00201188 0.0269933 5.14996e-19 0.00194183 0.0268393 8.13152e-20 
0.00194718 0.0270148 -1.13841e-18 0.00188569 0.0270342 -1.0571e-18 0.00316693 0.0264856 -8.06375e-19 
0.00316294 0.0266212 1.69407e-19 0.00304171 0.026602 2.98156e-19 0.00303737 0.0267496 4.47233e-19 
0.00291836 0.0267034 -9.62229e-19 0.00291251 0.0268613 -8.53809e-19 0.00279952 0.0267898 2.10064e-18 
0.00279182 0.0269556 1.8567e-18 0.00268686 0.0268626 -2.41235e-18 0.00267755 0.027034 9.35124e-19 
0.00258112 0.0269238 1.23328e-18 0.0025708 0.0270988 1.35525e-19 0.00248239 0.0269755 -3.08998e-18 
0.00247172 0.0271526 -2.9409e-18 0.00239036 0.0270196 1.02999e-18 0.00237995 0.0271977 -9.08019e-19 
0.00230452 0.0270577 -2.29038e-18 0.00229491 0.0272361 1.47723e-18 0.00222431 0.0270909 1.51788e-18 
0.00221589 0.0272692 9.48677e-20 0.00214917 0.0271202 -4.60786e-19 0.00214225 0.027298 1.42302e-18 
0.00207859 0.0271463 1.6263e-19 0.00207338 0.0273235 6.23416e-19 0.00201209 0.0271696 -2.71051e-20 
0.00200875 0.0273462 -2.49366e-18 0.00194926 0.0271905 -5.69206e-19 0.0019479 0.0273664 -3.02221e-18 
0.0018897 0.0272093 3.79471e-19 0.00189041 0.0273846 -3.25261e-19 0.00183591 0.0274008 9.89334e-19 
0.00302971 0.0268905 1.79571e-18 0.0030183 0.0270229 -5.01444e-19 0.00290347 0.0270148 -7.99599e-19 
0.00289106 0.0271625 1.96512e-18 0.00278068 0.0271189 4.33681e-19 0.00276599 0.0272788 -6.36969e-19 
0.00266448 0.0272041 -1.6263e-19 0.00264745 0.0273727 -2.15485e-18 0.00255642 0.0272733 -1.49078e-19 
0.00253774 0.0274473 -1.24683e-18 0.00245683 0.0273297 7.18284e-19 0.00243742 0.0275069 -5.14996e-19 
0.00236529 0.0273761 -1.09775e-18 0.00234604 0.0275548 8.94467e-19 0.00228106 0.0274149 2.71051e-20 
0.00226269 0.0275942 -1.35525e-19 0.00220333 0.0274479 1.95156e-18 0.00218637 0.027627 6.77626e-20 
0.00213131 0.0274763 2.30393e-19 0.00211612 0.0276549 5.14996e-19 0.0020643 0.0275011 -5.82759e-19 
0.00205114 0.0276791 7.72494e-19 0.0020017 0.027523 -5.96311e-19 0.00199073 0.0277002 -2.27682e-18 
0.00194297 0.0275426 -1.07065e-18 0.0019343 0.0277189 1.43657e-18 0.00188768 0.02756 1.07065e-18 
0.00188136 0.0277356 -6.77626e-20 0.00183542 0.0275756 -2.71051e-19 0.0018315 0.0277505 -7.72494e-19 
0.00178434 0.0277637 -5.14996e-19 0.00287497 0.0273025 1.57209e-18 0.00285472 0.0274325 4.33681e-19 
0.00274757 0.0274343 -1.54499e-18 0.00272529 0.0275837 2.84603e-19 0.00262624 0.0275391 -5.28549e-19 
0.00260067 0.0277027 -5.55654e-19 0.00251443 0.0276207 -2.38524e-18 0.00248617 0.0277931 -1.43657e-18 
0.00241313 0.0276841 -2.03288e-19 0.00238355 0.0278613 -4.87891e-19 0.00232185 0.0277339 -1.30104e-18 
0.00229227 0.0279134 -1.27394e-18 0.00223944 0.0277739 1.32815e-18 0.00221091 0.0279541 1.07065e-18 
0.00216468 0.0278066 -2.08709e-18 0.0021379 0.0279868 1.58565e-18 0.00209641 0.027834 1.82959e-18 
0.00207185 0.0280136 -2.72406e-18 0.00203366 0.0278574 -1.81604e-18 0.0020116 0.0280361 9.75782e-19 
0.00197565 0.0278777 1.01644e-18 0.00195623 0.0280554 1.35525e-20 0.00192171 0.0278955 -1.21973e-19 
0.00190501 0.0280723 1.36881e-18 0.00187131 0.0279113 8.67362e-19 0.00185736 0.0280871 1.11131e-18 
0.001824 0.0279253 1.35525e-18 0.0018128 0.0281003 2.37169e-18 0.00177941 0.0279379 -3.65918e-19 
0.00177094 0.0281121 2.12775e-18 0.00173143 0.0281225 1.81604e-18 0.00269882 0.0277248 -2.84603e-19 
0.00266781 0.0278539 -1.38236e-18 0.00257048 0.0278623 -5.42101e-19 0.00253566 0.0280162 -3.97089e-18 
0.00245257 0.0279642 1.09775e-18 0.00241331 0.0281336 3.14419e-18 0.00234816 0.0280385 -3.7405e-18 
0.00230641 0.0282158 -7.31836e-19 0.0022568 0.0280934 -5.01444e-19 0.0022148 0.0282741 -4.03865e-18 
0.00217662 0.028135 2.03288e-18 0.00213601 0.0283166 1.02999e-18 0.00210564 0.0281675 2.84603e-19 
0.00206739 0.0283489 1.65341e-18 0.00204211 0.0281936 -1.35525e-19 0.00200679 0.0283742 -7.18284e-19 
0.00198466 0.0282152 -8.13152e-20 0.00195254 0.0283948 -1.3146e-18 0.00193224 0.0282335 -2.54788e-18 
0.00190341 0.0284119 -3.84892e-18 0.00188402 0.0282493 4.87891e-19 0.0018585 0.0284265 -3.61852e-18 
0.00183936 0.0282631 -5.96311e-19 0.00181712 0.0284392 -4.36391e-18 0.00179776 0.0282753 0 
0.00177873 0.0284504 -1.57209e-18 0.00175881 0.0282862 2.53432e-18 0.00174291 0.0284603 -1.47723e-18 
0.00172218 0.0282959 -1.65341e-18 0.00170933 0.0284691 -1.16552e-18 0.00167769 0.028477 1.6263e-19 
0.00249588 0.0281616 1.21973e-18 0.00245058 0.0282934 3.17129e-18 0.00236789 0.0283004 -2.08709e-18 
0.00231607 0.0284635 1.19262e-18 0.00225758 0.0283932 3.94379e-18 0.00220082 0.0285708 -1.47723e-18 
0.00216553 0.0284556 -3.57787e-18 0.002108 0.0286382 7.04731e-19 0.0020884 0.0284992 7.04731e-19 
0.00203297 0.0286828 2.03288e-18 0.00202263 0.028531 6.64074e-19 0.0019707 0.0287141 5.12286e-18 
0.00196545 0.0285554 -3.30682e-18 0.0019176 0.0287372 -2.73761e-18 0.00191487 0.0285747 3.32037e-18 
0.00187128 0.0287551 9.75782e-19 0.00186947 0.0285906 -8.40257e-19 0.00183012 0.0287695 3.49655e-18 
0.00182825 0.0286039 4.74338e-19 0.00179302 0.0287815 1.58565e-18 0.00179046 0.0286154 -1.73472e-18 
0.0017592 0.0287917 2.62919e-18 0.00175556 0.0286255 -1.46367e-18 0.00172811 0.0288006 -1.92446e-18 
0.00172312 0.0286344 -2.04643e-18 0.00169931 0.0288084 -6.36969e-19 0.0016928 0.0286423 7.86047e-19 
0.00167247 0.0288153 1.45012e-18 0.00166432 0.0286493 -1.3417e-18 0.00164735 0.0288214 4.87891e-19 
0.0016237 0.0288269 1.36881e-18 0.00225706 0.0286198 5.01444e-19 0.00219351 0.0287622 -4.74338e-19 
0.00213482 0.0287488 -4.77049e-18 0.00205854 0.0289265 -3.86247e-18 0.00204099 0.0288227 8.13152e-20 
0.00196261 0.0290097 -1.0571e-18 0.00196874 0.028868 -2.03288e-19 0.00189441 0.0290553 -1.09775e-18 
0.00191087 0.0288982 1.50433e-18 0.00184226 0.0290837 -3.52366e-19 0.00186272 0.0289197 1.45012e-18 
0.00180021 0.0291031 -1.35525e-19 0.00182139 0.028936 -2.46656e-18 0.00176478 0.0291173 2.04643e-18 
0.00178507 0.0289488 1.80249e-18 0.00173402 0.0291283 6.91179e-19 0.00175259 0.0289592 3.38813e-19 
0.00170674 0.0291371 -1.42302e-18 0.00172316 0.028968 -5.28549e-19 0.00168217 0.0291444 -4.64852e-18 
0.00169622 0.0289756 -8.26704e-19 0.00165977 0.0291506 -2.80537e-18 0.00167136 0.0289823 2.30393e-18 
0.00163918 0.029156 3.13063e-18 0.00164827 0.0289881 -2.84603e-19 0.00162011 0.0291608 4.07931e-18 
0.00162671 0.0289934 -3.46945e-18 0.00160235 0.029165 -4.33681e-18 0.00160648 0.028998 -6.77626e-20 
0.00158572 0.0291688 -2.968e-18 0.00157009 0.0291722 2.84603e-19 0.00196957 0.0291049 -5.14996e-18 
0.00185947 0.0292873 -3.83537e-18 0.00187126 0.0292008 -9.35124e-19 0.00176217 0.0293984 -3.00866e-18 
0.00180831 0.0292454 1.87025e-18 0.0017086 0.0294397 1.54499e-18 0.00176404 0.0292709 1.0571e-18 
0.00167534 0.0294603 2.11419e-18 0.00172955 0.0292875 -3.00866e-18 0.00165031 0.029473 -4.0251e-18 
0.00170111 0.0292992 -8.53809e-19 0.00163013 0.0294816 -5.06865e-18 0.00167673 0.029308 2.41235e-18 
0.00161303 0.029488 -6.91179e-19 0.00165529 0.0293149 1.77538e-18 0.0015981 0.0294929 4.45878e-18 
0.00163608 0.0293206 9.48677e-20 0.00158479 0.0294968 3.84892e-18 0.00161864 0.0293255 -1.77538e-18 
0.00157275 0.0295001 1.65341e-18 0.00160266 0.0293296 -2.60209e-18 0.00156174 0.029503 4.06576e-19 
0.0015879 0.0293332 -7.86047e-19 0.0015516 0.0295054 -3.10353e-18 0.00157419 0.0293365 2.71051e-19 
0.00154219 0.0295076 -5.80048e-18 0.00156138 0.0293393 -2.84603e-18 0.00153342 0.0295095 2.1684e-19 
0.00154936 0.0293419 5.69206e-19 0.00152521 0.0295113 3.11708e-19 0.0015175 0.0295128 6.50521e-19 
0.00162508 0.0296118 -6.91179e-19 0.00159407 0.0296384 3.65918e-19 0.00157578 0.0296526 7.58942e-19 
0.00156244 0.0296598 -6.17995e-18 0.00155183 0.0296647 -1.36881e-18 0.00154291 0.0296682 -3.08998e-18 
0.00153516 0.0296708 1.17907e-18 0.00152827 0.0296729 1.28749e-18 0.00152206 0.0296746 -2.20906e-18 
0.00151638 0.029676 5.09575e-18 0.00151116 0.0296773 -1.54499e-18 0.00150633 0.0296784 -4.26905e-18 
0.00150183 0.0296793 2.66985e-18 0.00149762 0.0296802 -2.00577e-18 0.00149368 0.029681 4.75694e-18 
0.00150668 0.0295148 1.32137e-19 0.00154817 0.0291765 -4.91279e-19 0.00159052 0.0288339 -8.23316e-19 
0.00163322 0.028487 -8.94467e-19 0.0016758 0.0281359 6.43745e-19 0.0017178 0.0277808 6.91179e-19 
0.00175881 0.0274218 3.48978e-19 0.00179847 0.0270592 -2.94767e-19 0.00183649 0.0266933 -3.01544e-19 
0.00187263 0.0263244 3.18484e-19 0.00190672 0.0259527 8.13152e-19 0.00193863 0.0255787 -7.11508e-20 
0.00196829 0.0252025 3.65918e-19 0.0019957 0.0248244 5.82759e-19 0.00202085 0.0244447 -6.64074e-19 
0.00204382 0.0240635 7.2506e-19 0.0020647 0.023681 -7.86047e-19 0.00208361 0.0232972 9.48677e-20 
0.00210074 0.0229122 -8.13152e-20 0.00211629 0.0225257 4.74338e-20 0.00213058 0.0221377 8.13152e-20 
0.00214402 0.0217475 9.38513e-19 0.00215717 0.0213548 -3.21873e-19 0.00217085 0.0209585 1.89735e-19 
0.00218624 0.0205575 -3.76083e-19 0.00220505 0.0201502 3.82859e-19 0.00222972 0.0197345 1.69407e-20 
0.00226367 0.0193081 5.04832e-19 0.00149992 0.0295159 1.38236e-18 0.00153443 0.0291789 -4.1674e-19 
0.0015697 0.0288378 -3.42201e-19 0.00160529 0.0284926 3.35425e-19 0.0016408 0.0281434 -1.0842e-18 
0.00167586 0.0277903 -1.20617e-18 0.00171012 0.0274335 -7.11508e-19 0.00174329 0.0270732 -1.10114e-18 
0.0017751 0.0267097 3.38813e-20 0.00180535 0.0263434 -2.03288e-20 0.00183387 0.0259744 -6.97955e-19 
0.00186054 0.0256032 1.21973e-19 0.00188528 0.02523 -5.92923e-19 0.00190806 0.0248551 -1.01644e-19 
0.00192885 0.0244788 -4.40457e-20 0.00194768 0.0241014 -7.99599e-19 0.00196457 0.023723 -1.32137e-19 
0.0019796 0.0233437 -2.13452e-19 0.00199284 0.0229639 3.28649e-19 0.00200443 0.0225833 -1.01644e-20 
0.00201453 0.022202 -1.79571e-19 0.00202339 0.0218198 -1.0842e-19 0.00203139 0.0214361 -5.6243e-19 
0.00203911 0.0210504 -3.04932e-19 0.00204744 0.0206615 -6.09864e-19 0.0020578 0.0202679 -1.38913e-19 
0.00207242 0.0198674 6.26804e-19 0.00209472 0.0194568 -3.18484e-19 0.00149345 0.0295168 -2.77827e-19 
0.00152129 0.0291809 6.64074e-19 0.00154975 0.0288411 8.47033e-20 0.0015785 0.0284973 -3.48978e-19 
0.0016072 0.0281496 3.79471e-19 0.00163556 0.0277982 4.91279e-19 0.00166329 0.0274433 3.38813e-19 
0.00169014 0.027085 6.77626e-19 0.00171591 0.0267237 2.98156e-19 0.00174041 0.0263595 1.49417e-18 
0.00176349 0.025993 1.89735e-19 0.00178506 0.0256242 1.46706e-18 0.00180503 0.0252537 1.52466e-19 
0.00182334 0.0248817 -6.09864e-20 0.00183995 0.0245085 -6.77626e-21 0.00185486 0.0241345 -1.55854e-19 
0.00186805 0.02376 -2.60886e-19 0.00187954 0.0233852 2.64274e-19 0.00188935 0.0230104 -8.19928e-19 
0.0018975 0.0226358 5.18384e-19 0.00190405 0.0222615 8.80914e-20 0.00190911 0.0218875 2.94767e-19 
0.00191282 0.0215138 3.69306e-19 0.00191551 0.0211401 1.42302e-19 0.0019177 0.0207656 -4.74338e-19 
0.00192035 0.0203892 -4.74338e-20 0.00192512 0.0200091 4.57398e-19 0.00193492 0.0196222 1.55854e-19 
0.00148722 0.0295175 -2.30393e-18 0.00150863 0.0291826 -1.07065e-18 0.00153053 0.0288437 -4.87891e-19 
0.00155265 0.0285011 -3.45589e-19 0.00157476 0.0281547 2.71051e-20 0.0015966 0.0278047 2.03288e-20 
0.00161798 0.0274512 -3.32037e-19 0.00163868 0.0270946 -6.43745e-19 0.00165855 0.026735 -8.19928e-19 
0.00167744 0.0263727 5.04832e-19 0.00169523 0.0260081 -1.06726e-18 0.00171183 0.0256414 3.79471e-19 
0.00172716 0.0252732 6.06476e-19 0.00174117 0.0249036 -3.79471e-19 0.00175381 0.0245332 -5.0822e-20 
0.00176505 0.0241622 3.11708e-19 0.00177486 0.0237912 -2.91379e-19 0.00178322 0.0234204 -5.31937e-19 
0.00179009 0.0230502 -2.06676e-19 0.00179545 0.0226811 -3.28649e-19 0.00179927 0.0223135 -5.11608e-19 
0.00180152 0.0219476 -8.80914e-19 0.00180219 0.0215839 -5.79371e-19 0.00180134 0.0212224 -3.79471e-19 
0.00179914 0.0208634 4.7095e-19 0.00179603 0.0205064 -1.11808e-18 0.00179292 0.0201506 -1.96512e-19 
0.00179173 0.0197943 1.32137e-19 0.00148119 0.0295181 -3.89635e-19 0.00149635 0.0291838 7.48777e-19 
0.00151186 0.0288457 -9.21572e-19 0.00152754 0.028504 1.06726e-18 0.00154321 0.0281585 -2.47334e-19 
0.0015587 0.0278096 1.89735e-19 0.00157386 0.0274573 -4.47233e-19 0.00158855 0.0271018 -5.35325e-19 
0.00160265 0.0267435 2.37169e-19 0.00161605 0.0263827 -5.75982e-20 0.00162866 0.0260196 8.09763e-19 
0.00164041 0.0256546 -7.35225e-19 0.00165125 0.0252881 -8.80914e-19 0.00166112 0.0249205 -3.76083e-19 
0.00166999 0.0245523 -7.65718e-19 0.0016778 0.0241838 -1.1147e-18 0.00168454 0.0238155 -9.82558e-20 
0.00169016 0.023448 -8.53809e-19 0.00169462 0.0230818 -7.38613e-19 0.00169784 0.0227174 1.55854e-19 
0.00169977 0.0223554 -1.82959e-19 0.00170032 0.0219966 -5.79371e-19 0.00169937 0.0216418 2.37169e-20 
0.00169683 0.0212917 -6.47133e-19 0.0016926 0.0209472 -2.87991e-19 0.00168671 0.0206093 0 
0.0016794 0.0202786 -3.28649e-19 0.00167151 0.0199557 -4.74338e-19 0.0014753 0.0295185 -2.07015e-18 
0.00148434 0.0291846 -6.77626e-21 0.00149359 0.0288471 -7.14896e-19 0.00150295 0.0285059 9.14796e-20 
0.0015123 0.0281611 6.47133e-19 0.00152155 0.0278128 -4.06576e-20 0.00153061 0.0274613 -3.65918e-19 
0.00153938 0.0271067 9.21572e-19 0.0015478 0.0267493 2.10064e-19 0.0015558 0.0263894 -3.55754e-19 
0.00156333 0.0260274 -6.50521e-19 0.00157034 0.0256635 -8.47033e-19 0.00157679 0.0252983 1.89735e-19 
0.00158266 0.024932 -4.33681e-19 0.0015879 0.0245653 -1.15196e-19 0.0015925 0.0241985 6.43745e-19 
0.00159643 0.0238323 -1.29427e-18 0.00159965 0.0234671 6.84403e-19 0.00160212 0.0231037 -1.38913e-18 
0.0016038 0.0227427 1.05032e-19 0.0016046 0.0223849 8.06375e-19 0.00160445 0.0220314 -5.21772e-19 
0.00160323 0.0216833 -7.38613e-19 0.0016008 0.021342 -8.94467e-19 0.001597 0.021009 9.48677e-20 
0.00159167 0.0206865 -6.43745e-20 0.00158469 0.0203769 -2.64274e-19 0.0015762 0.0200834 3.23567e-19 
0.00146948 0.0295187 4.43845e-19 0.00147249 0.029185 2.37169e-19 0.00147556 0.0288478 7.89435e-19 
0.00147868 0.0285068 5.6243e-19 0.00148179 0.0281624 -9.48677e-20 0.00148486 0.0278145 2.33781e-19 
0.00148787 0.0274633 -1.69407e-20 0.00149079 0.0271092 3.32037e-19 0.00149359 0.0267522 -3.42201e-19 
0.00149625 0.0263928 4.50622e-19 0.00149875 0.0260313 2.64274e-19 0.00150108 0.025668 1.2265e-18 
0.00150322 0.0253034 3.01544e-19 0.00150517 0.0249378 5.04832e-19 0.00150691 0.0245719 1.72795e-19 
0.00150842 0.024206 -1.35525e-19 0.00150971 0.0238408 1.39591e-18 0.00151076 0.0234769 -6.36969e-19 
0.00151155 0.0231149 -6.77626e-20 0.00151206 0.0227557 -2.37169e-20 0.00151226 0.0224002 9.48677e-20 
0.00151213 0.0220495 -5.38713e-19 0.0015116 0.0217051 -5.14996e-19 0.00151063 0.0213685 -6.91179e-19 
0.00150913 0.0210419 -4.67562e-19 0.00150701 0.0207281 1.11808e-19 0.00150419 0.0204307 -7.7927e-20 
0.00150061 0.0201546 3.84553e-19 0.0014637 0.0295187 3.76083e-19 0.0014607 0.029185 -6.23416e-19 
0.00145762 0.0288478 -4.64174e-19 0.00145451 0.0285068 1.07065e-18 0.0014514 0.0281624 5.42101e-19 
0.00144832 0.0278145 -6.20028e-19 0.00144531 0.0274633 1.01983e-18 0.00144239 0.0271092 3.93023e-19 
0.00143959 0.0267522 1.13164e-18 0.00143693 0.0263928 -5.0822e-19 0.00143443 0.0260313 4.74338e-20 
0.0014321 0.025668 3.21873e-19 0.00142996 0.0253034 6.09864e-20 0.00142801 0.0249378 -4.87891e-19 
0.00142628 0.0245719 3.55754e-19 0.00142476 0.024206 -2.81215e-19 0.00142347 0.0238408 -7.45389e-20 
0.00142242 0.0234769 -5.48877e-19 0.00142164 0.0231149 0 0.00142112 0.0227557 -3.72694e-19 
0.00142092 0.0224002 4.40457e-20 0.00142105 0.0220495 3.55754e-19 0.00142158 0.0217051 -4.40457e-20 
0.00142255 0.0213685 -1.86347e-19 0.00142405 0.0210419 6.67462e-19 0.00142617 0.0207281 -4.1674e-19 
0.00142899 0.0204307 5.21772e-19 0.00143258 0.0201546 -1.06557e-18 0.00145789 0.0295185 -1.01644e-19 
0.00144885 0.0291846 6.1664e-19 0.00143959 0.0288471 1.0266e-18 0.00143023 0.0285059 -4.43845e-19 
0.00142088 0.0281611 5.01444e-19 0.00141163 0.0278128 -2.81215e-19 0.00140258 0.0274613 -2.43945e-19 
0.0013938 0.0271067 -3.42201e-19 0.00138538 0.0267493 1.96512e-19 0.00137738 0.0263894 2.47334e-19 
0.00136986 0.0260274 -1.60259e-18 0.00136285 0.0256635 3.35425e-19 0.00135639 0.0252983 3.04932e-20 
0.00135053 0.024932 -6.94567e-19 0.00134528 0.0245653 5.01444e-19 0.00134068 0.0241985 1.28749e-19 
0.00133675 0.0238323 -6.1664e-19 0.00133353 0.0234671 7.45389e-20 0.00133106 0.0231037 7.35225e-19 
0.00132939 0.0227427 -2.37169e-20 0.00132858 0.0223849 -1.6263e-19 0.00132873 0.0220314 -6.43745e-19 
0.00132995 0.0216833 -1.72795e-19 0.00133238 0.021342 -5.38713e-19 0.00133618 0.021009 3.89635e-19 
0.00134151 0.0206865 3.38813e-19 0.00134849 0.0203769 -7.11508e-19 0.00135699 0.0200834 -4.60786e-19 
0.00145199 0.0295181 -3.04932e-19 0.00143684 0.0291838 1.66018e-19 0.00142133 0.0288457 2.13452e-19 
0.00140564 0.028504 6.36969e-19 0.00138997 0.0281585 1.46367e-18 0.00137448 0.0278096 4.67562e-19 
0.00135932 0.0274573 -3.55754e-19 0.00134463 0.0271018 -2.06676e-19 0.00133054 0.0267435 3.79471e-19 
0.00131714 0.0263827 -3.72694e-19 0.00130452 0.0260196 1.04693e-18 0.00129277 0.0256546 -6.50521e-19 
0.00128193 0.0252881 9.18184e-19 0.00127206 0.0249205 -7.11508e-20 0.0012632 0.0245523 3.38813e-21 
0.00125538 0.0241838 1.03338e-18 0.00124864 0.0238155 1.86347e-19 0.00124302 0.023448 1.86347e-19 
0.00123857 0.0230818 1.6263e-19 0.00123534 0.0227174 1.05032e-19 0.00123341 0.0223554 8.47033e-20 
0.00123287 0.0219966 -5.52265e-19 0.00123381 0.0216418 4.87891e-19 0.00123636 0.0212917 -2.71051e-19 
0.00124058 0.0209472 2.27005e-19 0.00124648 0.0206093 3.65918e-19 0.00125379 0.0202786 3.45589e-19 
0.00126168 0.0199557 3.04932e-20 0.00144596 0.0295175 -1.79571e-19 0.00142456 0.0291826 -3.18484e-19 
0.00140266 0.0288437 -6.84403e-19 0.00138053 0.0285011 -2.34459e-18 0.00135843 0.0281547 -2.71051e-20 
0.00133658 0.0278047 -1.28071e-18 0.00131521 0.0274512 -3.96411e-19 0.0012945 0.0270946 -7.52165e-19 
0.00127463 0.026735 -9.58841e-19 0.00125574 0.0263727 -5.75982e-20 0.00123795 0.0260081 -1.07404e-18 
0.00122135 0.0256414 -2.71051e-19 0.00120602 0.0252732 -7.45389e-19 0.00119201 0.0249036 -7.82658e-19 
0.00117937 0.0245332 -2.27005e-19 0.00116813 0.0241622 -1.21973e-19 0.00115832 0.0237912 -5.28549e-19 
0.00114996 0.0234204 -7.7927e-20 0.00114309 0.0230502 -7.7927e-19 0.00113773 0.0226811 -7.45389e-19 
0.00113391 0.0223135 2.47334e-19 0.00113167 0.0219476 -2.37169e-19 0.00113099 0.0215839 7.45389e-20 
0.00113184 0.0212224 4.03188e-19 0.00113404 0.0208634 -2.06676e-19 0.00113716 0.0205064 -2.71051e-20 
0.00114026 0.0201506 -7.21672e-19 0.00114145 0.0197943 -2.33781e-19 0.00143974 0.0295168 3.01544e-19 
0.0014119 0.0291809 7.52165e-19 0.00138343 0.0288411 -7.31836e-19 0.00135468 0.0284973 8.23316e-19 
0.00132598 0.0281496 7.11508e-20 0.00129762 0.0277982 1.28749e-18 0.0012699 0.0274433 -5.75982e-20 
0.00124304 0.027085 1.21973e-18 0.00121728 0.0267237 2.71051e-19 0.00119278 0.0263595 -6.23416e-19 
0.00116969 0.025993 -2.27005e-19 0.00114812 0.0256242 1.69407e-19 0.00112816 0.0252537 -7.89435e-19 
0.00110985 0.0248817 -2.30393e-19 0.00109323 0.0245085 -1.01305e-18 0.00107833 0.0241345 -1.55854e-19 
0.00106513 0.02376 -1.26039e-18 0.00105364 0.0233852 9.48677e-20 0.00104384 0.0230104 -1.11808e-18 
0.00103568 0.0226358 -4.5401e-19 0.00102913 0.0222615 -2.37169e-20 0.00102408 0.0218875 1.6263e-19 
0.00102036 0.0215138 -1.89735e-19 0.00101767 0.0211401 4.64174e-19 0.00101548 0.0207656 5.38713e-19 
0.00101283 0.0203892 1.18585e-19 0.00100806 0.0200091 -2.03288e-19 0.000998264 0.0196222 3.89635e-19 
0.00143327 0.0295159 5.21772e-19 0.00139875 0.0291789 1.86347e-19 0.00136349 0.0288378 -4.64174e-19 
0.0013279 0.0284926 -8.13152e-20 0.00129238 0.0281434 7.04731e-19 0.00125732 0.0277903 -1.12147e-18 
0.00122306 0.0274335 6.77626e-21 0.00118989 0.0270732 -1.03677e-18 0.00115808 0.0267097 -8.19928e-19 
0.00112784 0.0263434 7.69106e-19 0.00109932 0.0259744 -1.05032e-19 0.00107265 0.0256032 -3.72694e-20 
0.0010479 0.02523 3.72694e-20 0.00102512 0.0248551 -3.18484e-19 0.00100433 0.0244788 6.57298e-19 
0.000985506 0.0241014 -1.04693e-18 0.000968611 0.023723 5.79371e-19 0.000953585 0.0233437 -4.43845e-19 
0.000940341 0.0229639 1.55854e-19 0.000928755 0.0225833 -4.74338e-20 0.000918656 0.022202 -2.43945e-19 
0.000909794 0.0218198 6.77626e-21 0.000901794 0.0214361 0 0.000894078 0.0210504 -6.09864e-19 
0.000885745 0.0206615 -1.49078e-19 0.000875379 0.0202679 -7.45389e-19 0.000860763 0.0198674 3.18484e-19 
0.000838464 0.0194568 -5.21772e-19 0.0014265 0.0295148 -1.51788e-18 0.00138502 0.0291765 -8.87691e-19 
0.00134267 0.0288339 7.21672e-19 0.00129996 0.028487 -3.89635e-19 0.00125738 0.0281359 1.96512e-19 
0.00121538 0.0277808 1.0842e-19 0.00117437 0.0274218 1.15196e-19 0.00113471 0.0270592 4.57398e-19 
0.00109669 0.0266933 1.16213e-18 0.00106055 0.0263244 7.7927e-20 0.00102646 0.0259527 -3.42201e-19 
0.000994554 0.0255787 -4.13352e-19 0.000964889 0.0252025 -1.33154e-18 0.000937488 0.0248244 -7.52165e-19 
0.000912331 0.0244447 -1.07743e-18 0.000889361 0.0240635 6.47133e-19 0.000868484 0.023681 -5.18384e-19 
0.000849569 0.0232972 -2.60886e-19 0.000832447 0.0229122 -3.72694e-19 0.00081689 0.0225257 -1.999e-19 
0.000802601 0.0221377 8.47033e-20 0.000789167 0.0217475 -3.04932e-20 0.000776017 0.0213548 1.05032e-19 
0.000762334 0.0209585 1.69407e-20 0.000746939 0.0205575 -6.43745e-20 0.00072813 0.0201502 -5.48877e-19 
0.000703463 0.0197345 -3.72694e-19 0.00066951 0.0193081 -4.1674e-19 0.0015102 0.0295141 -1.76183e-19 
0.00148643 0.0296823 1.76183e-19 0.00155529 0.0291752 -4.05221e-18 0.00152728 0.0293462 -1.09775e-18 
0.00160131 0.0288317 -1.20617e-18 0.00156927 0.0290058 -1.32815e-18 0.00164769 0.0284839 2.71051e-20 
0.00161186 0.028661 -3.03577e-18 0.00169391 0.0281317 -1.78893e-18 0.00165456 0.028312 -9.21572e-19 
0.00173948 0.0277754 2.31748e-18 0.0016969 0.0279588 2.27682e-18 0.00178395 0.0274152 1.89735e-18 
0.00173845 0.0276017 2.01933e-18 0.00182693 0.0270514 -7.72494e-19 0.00177883 0.0272409 -4.06576e-19 
0.00186812 0.0266841 -2.23617e-18 0.0018177 0.0268766 -9.75782e-19 0.00190727 0.0263138 -4.33681e-19 
0.00185481 0.0265092 9.48677e-20 0.00194418 0.0259407 2.98156e-18 0.00188994 0.0261389 1.46367e-18 
0.00197876 0.0255651 -5.96311e-19 0.00192295 0.025766 1.23328e-18 0.00201093 0.0251874 1.73472e-18 
0.00195374 0.0253908 4.60786e-19 0.00204069 0.0248076 -2.71051e-20 0.00198228 0.0250137 1.07065e-18 
0.00206808 0.0244262 5.42101e-19 0.00200855 0.0246348 -2.57498e-19 0.0020932 0.0240431 2.6834e-18 
0.00203261 0.0242543 4.06576e-20 0.00211615 0.0236585 -8.13152e-19 0.00205452 0.0238724 1.42302e-19 
0.00213712 0.0232725 -5.89535e-19 0.00207439 0.0234893 -1.05032e-18 0.00215631 0.0228849 -2.9409e-18 
0.00209239 0.0231049 -4.26905e-19 0.002174 0.0224956 -1.49078e-19 0.00210869 0.0227192 4.67562e-19 
0.00219056 0.0221043 -1.76183e-19 0.00212357 0.0223319 3.11708e-19 0.00220646 0.0217106 1.98545e-18 
0.00213737 0.0219429 1.80249e-18 0.00222238 0.0213138 -6.77626e-21 0.00215058 0.0215515 6.03087e-19 
0.00223921 0.020913 -7.45389e-19 0.00216388 0.0211572 -6.03087e-19 0.00225822 0.020507 1.82959e-19 
0.00217824 0.0207587 -4.33681e-19 0.00228118 0.0200943 -1.70762e-18 0.00219508 0.0203548 1.0842e-19 
0.00231052 0.0196731 -1.27394e-18 0.00221646 0.0199436 8.06375e-19 0.00234951 0.0192414 1.78893e-18 
0.00224527 0.0195228 6.36969e-19 0.00228552 0.01909 9.48677e-20 0.00150326 0.0295153 2.85958e-18 
0.00148308 0.0296828 2.98156e-19 0.00154122 0.0291778 -1.72117e-18 0.00151705 0.0293479 1.57209e-18 
0.00157999 0.0288359 -3.29326e-18 0.001552 0.0290089 -1.27394e-18 0.0016191 0.0284899 -1.27394e-18 
0.00158748 0.0286657 3.25261e-19 0.00165811 0.0281398 -2.43945e-19 0.00162308 0.0283185 -2.00577e-18 
0.00169661 0.0277857 -1.04354e-18 0.00165841 0.0279673 -3.07642e-18 0.00173422 0.0274278 -1.70762e-18 
0.00169311 0.0276123 -2.22261e-18 0.0017706 0.0270665 -2.19551e-18 0.00172686 0.0272537 -3.42879e-18 
0.0018055 0.0267018 -1.16552e-18 0.00175938 0.0268918 -1.91091e-18 0.00183867 0.0263342 7.45389e-19 
0.00179043 0.0265269 8.40257e-19 0.00186996 0.025964 -2.43945e-19 0.00181983 0.0261592 -1.15196e-18 
0.00189924 0.0255914 -5.82759e-19 0.00184744 0.0257891 -1.35525e-19 0.00192643 0.0252167 1.21973e-19 
0.00187316 0.0254168 -5.42101e-19 0.0019515 0.0248403 1.6263e-18 0.00189692 0.0250428 -1.07065e-18 
0.00197445 0.0244623 -1.82959e-18 0.0019187 0.0246671 -1.49078e-19 0.00199532 0.024083 -8.74138e-19 
0.00193851 0.0242902 -1.28749e-19 0.00201418 0.0237025 -3.04254e-18 0.00195636 0.0239123 -1.43657e-18 
0.00203111 0.0233211 -8.13152e-19 0.00197231 0.0235334 9.01243e-19 0.00204624 0.0229386 -2.37169e-19 
0.00198644 0.0231539 9.01243e-19 0.00205976 0.022555 3.998e-19 0.00199883 0.0227737 4.06576e-19 
0.00207188 0.0221703 -4.94667e-19 0.00200965 0.0223928 5.21772e-19 0.00208295 0.021784 3.02221e-18 
0.00201909 0.022011 -3.11708e-19 0.00209345 0.0213957 -1.91768e-18 0.00202747 0.0216282 -7.7927e-19 
0.00210407 0.0210045 -6.7085e-19 0.00203523 0.0212436 -1.01644e-18 0.00211587 0.0206092 -1.87025e-18 
0.00204312 0.0208565 -1.17229e-18 0.00213043 0.0202083 7.99599e-19 0.00205225 0.0204655 -2.08709e-18 
0.00215013 0.0197995 1.91768e-18 0.00206439 0.0200687 1.38236e-18 0.00217847 0.01938 9.35124e-19 
0.00208232 0.0196636 3.25261e-19 0.00211027 0.0192466 -4.06576e-20 0.00149665 0.0295164 2.11419e-18 
0.00147987 0.0296832 3.23905e-18 0.00152779 0.02918 -4.33681e-19 0.00150727 0.0293494 8.13152e-19 
0.00155962 0.0288395 -1.38236e-18 0.00153546 0.0290115 1.39591e-18 0.00159176 0.0284951 -1.09775e-18 
0.00156411 0.0286697 -5.96311e-19 0.00162384 0.0281467 -2.76472e-18 0.00159288 0.028324 5.01444e-19 
0.00165552 0.0277944 -2.6834e-18 0.00162144 0.0279744 8.40257e-19 0.00168649 0.0274386 -1.42302e-18 
0.00164952 0.0276212 2.64274e-18 0.00171648 0.0270794 -3.79471e-19 0.00167684 0.0272646 2.07354e-18 
0.00174525 0.026717 -2.57498e-19 0.00170317 0.0269047 2.03288e-18 0.0017726 0.0263518 2.15485e-18 
0.00172832 0.0265419 2.6563e-18 0.00179839 0.0259841 -9.08019e-19 0.00175213 0.0261765 3.68629e-18 
0.0018225 0.0256142 3.08998e-18 0.00177447 0.0258088 3.53721e-18 0.00184483 0.0252424 -1.77538e-18 
0.00179525 0.0254392 2.98156e-18 0.00186535 0.024869 -1.26039e-18 0.00181439 0.0250679 2.71051e-20 
0.00188403 0.0244943 -5.69206e-19 0.00183186 0.0246952 -9.08019e-19 0.00190087 0.0241186 -1.79571e-18 
0.00184762 0.0243216 -1.13164e-18 0.00191587 0.0237422 -1.50433e-18 0.00186167 0.0239473 -2.1413e-18 
0.00192908 0.0233652 -8.47033e-19 0.00187401 0.0235726 -7.45389e-20 0.00194055 0.0229879 -1.24006e-18 
0.00188465 0.0231978 -1.35525e-18 0.00195034 0.0226103 1.40269e-18 0.00189363 0.0228231 -3.93023e-19 
0.00195858 0.0222325 2.10064e-19 0.00190097 0.0224486 5.55654e-19 0.00196542 0.0218544 4.60786e-19 
0.00190676 0.0220745 8.13152e-20 0.00197115 0.0214757 -8.26704e-19 0.00191112 0.0217007 9.01243e-19 
0.00197619 0.0210958 5.96311e-19 0.00191427 0.021327 1.57209e-18 0.00198129 0.0207139 -1.33492e-18 
0.00191662 0.020953 -1.02322e-18 0.00198762 0.0203285 -2.03288e-20 0.00191888 0.0205777 -2.71051e-19 
0.00199718 0.0199376 1.80926e-18 0.00192232 0.0201998 1.41624e-18 0.0020132 0.0195379 -8.19928e-19 
0.00192913 0.0198167 2.43945e-19 0.00194313 0.0194249 -2.03288e-19 0.00149031 0.0295172 -4.66207e-18 
0.00147679 0.0296836 -6.05798e-18 0.0015149 0.0291818 -1.57209e-18 0.00149785 0.0293505 -4.86536e-18 
0.00154006 0.0288425 -1.15196e-18 0.00151953 0.0290136 -1.91091e-18 0.00156547 0.0284993 -3.23905e-18 
0.00154158 0.0286729 -7.99599e-19 0.00159085 0.0281523 1.0842e-19 0.00156372 0.0283284 3.65918e-19 
0.00161593 0.0278017 1.21973e-19 0.00158573 0.0279801 -2.71051e-20 0.00164046 0.0274475 -1.07065e-18 
0.00160736 0.0276284 2.30393e-19 0.00166422 0.0270901 -1.73472e-18 0.00162842 0.0272733 -6.77626e-19 
0.00168702 0.0267296 -2.01933e-18 0.00164873 0.0269151 -2.45301e-18 0.0017087 0.0263665 2.20906e-18 
0.00166812 0.0265541 7.31836e-19 0.00172912 0.0260009 -1.19262e-18 0.00168648 0.0261906 -5.55654e-19 
0.00174819 0.0256333 2.23617e-18 0.00170368 0.025825 -1.20617e-18 0.00176582 0.025264 1.51788e-18 
0.00171966 0.0254575 1.49078e-18 0.00178196 0.0248933 -5.42101e-19 0.00173434 0.0250885 1.35525e-19 
0.00179656 0.0245215 -3.11708e-19 0.00174767 0.0247185 -5.69206e-19 0.0018096 0.0241491 4.40457e-19 
0.00175961 0.0243478 8.40257e-19 0.00182107 0.0237764 -2.79182e-18 0.00177014 0.0239767 3.52366e-19 
0.00183094 0.0234036 -9.21572e-19 0.00177923 0.0236057 -1.74828e-18 0.00183921 0.0230312 -2.47334e-18 
0.00178684 0.0232352 -1.5992e-18 0.00184589 0.0226595 5.42101e-19 0.00179297 0.0228655 -5.01444e-19 
0.00185097 0.0222886 -1.77538e-18 0.00179756 0.0224971 -2.24294e-18 0.00185448 0.0219187 -1.65341e-18 
0.00180059 0.0221303 -1.93801e-18 0.00185651 0.0215501 -6.57298e-19 0.00180205 0.0217655 -2.18196e-18 
0.00185721 0.0211825 -1.18585e-18 0.00180195 0.0214029 -1.18585e-18 0.00185694 0.0208157 -4.13352e-19 
0.00180039 0.0210426 3.65918e-19 0.00185639 0.0204489 -3.39491e-18 0.00179766 0.0206847 -1.36881e-18 
0.00185686 0.0200806 4.81115e-19 0.00179438 0.0203284 -2.59531e-18 0.0018608 0.0197083 8.19928e-19 
0.0017919 0.0199727 3.59142e-19 0.00179295 0.0196149 0 0.00148419 0.0295178 -7.58942e-18 
0.00147381 0.0296839 2.84603e-19 0.00150245 0.0291832 -1.97867e-18 0.00148871 0.0293514 -8.13152e-19 
0.00152113 0.0288448 -3.71339e-18 0.00150407 0.0290152 -1.36881e-18 0.00154002 0.0285026 0 
0.00151969 0.0286753 -6.23416e-19 0.00155889 0.0281568 -1.38236e-18 0.00153539 0.0283317 9.48677e-19 
0.00157754 0.0278073 2.43945e-19 0.00155099 0.0279845 -1.42302e-18 0.00159579 0.0274545 -2.35814e-18 
0.00156633 0.0276338 -8.80914e-19 0.00161347 0.0270985 -2.9409e-18 0.00158127 0.0272799 -2.04643e-18 
0.00163044 0.0267396 -2.88669e-18 0.00159568 0.026923 -1.20617e-18 0.00164657 0.0263781 -9.62229e-19 
0.00160944 0.0265634 5.82759e-19 0.00166176 0.0260143 -1.89735e-19 0.00162246 0.0262014 1.69407e-18 
0.00167592 0.0256485 -1.21973e-19 0.00163465 0.0258373 -1.35525e-19 0.00168899 0.0252812 -1.61275e-18 
0.00164595 0.0254715 -3.45589e-18 0.00170091 0.0249127 -2.90024e-18 0.00165631 0.0251044 -2.64274e-18 
0.00171164 0.0245435 -3.1103e-18 0.00166568 0.0247365 -1.27394e-18 0.00172114 0.0241738 -1.44334e-18 
0.00167403 0.024368 -4.05898e-18 0.00172938 0.0238043 -4.13352e-19 0.00168131 0.0239996 -2.60886e-18 
0.00173632 0.0234352 -3.10353e-18 0.0016875 0.0236316 -1.76183e-18 0.00174193 0.0230671 -1.97867e-18 
0.00169254 0.0232647 -3.38136e-18 0.00174614 0.0227005 -3.45589e-19 0.00169639 0.0228993 -1.19262e-18 
0.00174891 0.0223359 -2.31748e-18 0.00169898 0.022536 -9.62229e-19 0.00175017 0.0219737 -3.80826e-18 
0.00170023 0.0221756 -1.84314e-18 0.00174986 0.0216146 -1.87703e-18 0.00170004 0.0218187 -1.77538e-18 
0.00174792 0.0212591 -1.68729e-18 0.00169831 0.0214661 -1.65341e-18 0.0017444 0.0209076 1.04354e-18 
0.00169493 0.0211187 -3.15096e-18 0.00173948 0.0205603 -1.49078e-18 0.00168986 0.0207774 3.93023e-19 
0.00173373 0.0202173 -1.37558e-18 0.0016832 0.020443 -1.42302e-19 0.00172852 0.0198777 -1.15196e-19 
0.00167543 0.0201162 -1.36203e-18 0.00166797 0.019797 7.04731e-19 0.00147823 0.0295183 -2.45301e-18 
0.00147089 0.029684 -4.86536e-18 0.00149031 0.0291843 1.30104e-18 0.00147978 0.029352 -3.59142e-18 
0.00150268 0.0288465 -1.16552e-18 0.00148894 0.0290163 -5.69206e-19 0.00151519 0.028505 1.66696e-18 
0.00149826 0.0286769 -9.21572e-19 0.00152769 0.02816 3.63208e-18 0.00150763 0.0283339 2.22261e-18 
0.00154005 0.0278114 7.18284e-19 0.00151695 0.0279874 2.00577e-18 0.00155215 0.0274595 8.26704e-19 
0.00152611 0.0276375 -2.35814e-18 0.00156387 0.0271046 6.50521e-19 0.00153503 0.0272844 1.97867e-18 
0.00157512 0.0267468 1.55854e-18 0.00154364 0.0269283 2.80537e-18 0.00158581 0.0263865 8.80914e-19 
0.00155185 0.0265697 -7.58942e-19 0.00159587 0.0260239 1.32815e-18 0.00155963 0.0262086 -2.52077e-18 
0.00160524 0.0256596 -3.26616e-18 0.0015669 0.0258456 -2.45301e-18 0.00161387 0.0252938 -1.69407e-18 
0.00157364 0.025481 -1.0842e-18 0.00162173 0.024927 -2.79182e-18 0.0015798 0.0251152 -7.45389e-19 
0.00162877 0.0245596 -1.49078e-18 0.00158536 0.0247487 -1.0571e-18 0.00163495 0.024192 7.18284e-19 
0.00159028 0.0243819 1.83637e-18 0.00164026 0.0238249 -2.05321e-18 0.00159455 0.0240153 -1.68051e-18 
0.00164464 0.0234587 1.21973e-19 0.00159813 0.0236495 -6.03087e-19 0.00164806 0.023094 -3.64563e-18 
0.00160098 0.0232851 -1.35525e-18 0.00165045 0.0227315 1.61275e-18 0.00160306 0.0229228 -2.01933e-18 
0.00165173 0.0223719 2.76472e-18 0.00160431 0.0225633 1.16552e-18 0.00165182 0.022016 -1.11808e-18 
0.00160465 0.0222076 9.69006e-19 0.00165059 0.0216649 -1.09775e-18 0.00160398 0.0218566 -3.08998e-18 
0.0016479 0.0213195 -1.8567e-18 0.00160218 0.0215117 -3.15774e-18 0.0016436 0.0209813 -1.89735e-19 
0.00159909 0.0211743 -2.43945e-18 0.00163759 0.0206518 -5.75982e-19 0.00159454 0.0208463 5.48877e-19 
0.00162989 0.0203325 -1.94479e-18 0.00158839 0.0205299 1.69407e-19 0.00162093 0.0200252 -3.79471e-19 
0.00158061 0.0202279 1.26039e-18 0.00157161 0.0199437 -1.50433e-18 0.00147238 0.0295186 -3.26616e-18 
0.00146802 0.0296841 -7.86047e-19 0.0014784 0.0291849 -5.69206e-19 0.00147097 0.0293523 6.91179e-19 
0.00148456 0.0288475 -3.65918e-19 0.00147402 0.0290168 1.74828e-18 0.00149079 0.0285065 2.98156e-19 
0.00147712 0.0286777 2.35814e-18 0.00149701 0.0281619 -2.71051e-19 0.00148023 0.028335 -2.03288e-19 
0.00150317 0.0278139 1.96512e-18 0.00148333 0.0279889 -2.71051e-19 0.0015092 0.0274626 -2.24972e-18 
0.00148638 0.0276393 4.60786e-19 0.00151504 0.0271082 1.45012e-18 0.00148934 0.0272866 6.77626e-20 
0.00152064 0.0267511 -4.06576e-19 0.00149221 0.026931 1.35525e-19 0.00152597 0.0263915 -9.35124e-19 
0.00149494 0.0265728 3.11708e-19 0.00153098 0.0260298 -4.87891e-19 0.00149752 0.0262123 8.53809e-19 
0.00153564 0.0256663 -5.01444e-19 0.00149994 0.0258498 2.49366e-18 0.00153993 0.0253014 -1.09775e-18 
0.00150218 0.0254858 3.00866e-18 0.00154383 0.0249357 -4.20128e-19 0.00150422 0.0251207 1.17907e-18 
0.00154731 0.0245694 -1.93801e-18 0.00150606 0.0247549 1.57209e-18 0.00155036 0.0242032 4.33681e-19 
0.00150769 0.0243889 -1.28749e-19 0.00155295 0.0238376 -8.53809e-19 0.0015091 0.0240233 2.33103e-18 
0.00155507 0.0234732 -7.45389e-20 0.00151027 0.0236586 1.50433e-18 0.00155667 0.0231106 -2.22261e-18 
0.00151119 0.0232956 -1.20617e-18 0.00155773 0.0227508 -6.97955e-19 0.00151184 0.0229349 -4.40457e-19 
0.00155819 0.0223944 4.87891e-19 0.0015122 0.0225774 -3.52366e-19 0.00155798 0.0220427 -3.32715e-18 
0.00151224 0.0222242 -4.74338e-19 0.00155703 0.0216968 -2.57498e-18 0.00151192 0.0218764 -2.2565e-18 
0.00155521 0.0213584 -3.65241e-18 0.00151118 0.0215356 -1.96512e-18 0.00155239 0.0210294 -4.13352e-19 
0.00150995 0.0212037 -2.12775e-18 0.00154842 0.0207122 -5.28549e-19 0.00150816 0.0208831 -1.54499e-18 
0.00154316 0.0204101 -1.12486e-18 0.0015057 0.020577 -6.36969e-19 0.0015366 0.0201272 1.02999e-18 
0.00150249 0.0202895 6.09864e-20 0.00149858 0.0200263 8.80914e-19 0.00146659 0.0295187 4.45878e-18 
0.00146516 0.0296841 6.39679e-18 0.00146659 0.0291851 6.36969e-19 0.00146221 0.0293523 -9.35124e-19 
0.00146659 0.0288478 2.22261e-18 0.00145916 0.0290168 -1.43657e-18 0.00146659 0.028507 4.5401e-18 
0.00145607 0.0286777 8.40257e-19 0.00146659 0.0281625 1.69407e-18 0.00145295 0.028335 2.24972e-18 
0.00146659 0.0278147 -6.64074e-19 0.00144985 0.0279889 -7.04731e-19 0.00146659 0.0274636 1.26039e-18 
0.00144681 0.0276393 -1.0842e-19 0.00146659 0.0271095 2.12775e-18 0.00144384 0.0272866 3.30682e-18 
0.00146659 0.0267526 1.6263e-19 0.00144098 0.026931 3.46945e-18 0.00146659 0.0263932 1.21973e-18 
0.00143825 0.0265728 1.55854e-18 0.00146659 0.0260318 2.27682e-18 0.00143566 0.0262123 -1.24683e-18 
0.00146659 0.0256686 3.63208e-18 0.00143324 0.0258498 9.35124e-19 0.00146659 0.025304 1.57209e-18 
0.00143101 0.0254858 -4.60786e-19 0.00146659 0.0249386 -1.76183e-19 0.00142896 0.0251207 4.20128e-19 
0.00146659 0.0245727 2.37847e-18 0.00142712 0.0247549 -3.93023e-19 0.00146659 0.024207 2.03288e-19 
0.00142549 0.0243889 -5.42101e-20 0.00146659 0.0238419 3.2255e-18 0.00142409 0.0240233 -2.03288e-20 
0.00146659 0.0234781 -2.71728e-18 0.00142292 0.0236586 -1.37558e-18 0.00146659 0.0231163 3.18484e-19 
0.001422 0.0232956 -8.67362e-19 0.00146659 0.0227573 1.21973e-19 0.00142134 0.0229349 1.42302e-19 
0.00146659 0.0224021 5.42101e-19 0.00142098 0.0225774 2.43945e-19 0.00146659 0.0220518 2.23617e-19 
0.00142094 0.0222242 -1.96512e-19 0.00146659 0.0217078 -1.10453e-18 0.00142126 0.0218764 9.69006e-19 
0.00146659 0.0213718 -7.45389e-19 0.001422 0.0215356 -9.69006e-19 0.00146659 0.0210461 1.70762e-18 
0.00142323 0.0212037 1.21295e-18 0.00146659 0.0207334 1.15874e-18 0.00142503 0.0208831 1.05032e-18 
0.00146659 0.0204376 1.56532e-18 0.00142749 0.020577 3.59142e-19 0.00146659 0.0201638 -1.73472e-18 
0.00143069 0.0202895 -4.67562e-19 0.00143461 0.0200263 -1.10453e-18 0.0014608 0.0295186 1.3417e-18 
0.00146229 0.029684 8.53809e-19 0.00145479 0.0291849 -7.86047e-19 0.0014534 0.029352 7.86047e-19 
0.00144863 0.0288475 1.35525e-18 0.00144424 0.0290163 3.80826e-18 0.0014424 0.0285065 1.35525e-19 
0.00143492 0.0286769 1.53144e-18 0.00143617 0.0281619 2.37169e-18 0.00142555 0.0283339 9.21572e-19 
0.00143001 0.0278139 -1.91091e-18 0.00141624 0.0279874 7.72494e-19 0.00142399 0.0274626 1.16552e-18 
0.00140707 0.0276375 -4.87891e-19 0.00141815 0.0271082 1.42302e-18 0.00139815 0.0272844 -2.968e-18 
0.00141254 0.0267511 2.46656e-18 0.00138955 0.0269283 -8.13152e-20 0.00140722 0.0263915 -1.13841e-18 
0.00138133 0.0265697 6.23416e-19 0.00140221 0.0260298 -3.93023e-18 0.00137356 0.0262086 -2.66985e-18 
0.00139754 0.0256663 8.80914e-19 0.00136628 0.0258456 -3.06287e-18 0.00139325 0.0253014 1.53144e-18 
0.00135955 0.025481 7.04731e-19 0.00138935 0.0249357 -2.46656e-18 0.00135338 0.0251152 -1.24683e-18 
0.00138587 0.0245694 2.2565e-18 0.00134783 0.0247487 -2.43945e-19 0.00138282 0.0242032 -8.13152e-20 
0.0013429 0.0243819 6.30193e-19 0.00138023 0.0238376 -1.54499e-18 0.00133863 0.0240153 -2.37169e-19 
0.00137812 0.0234732 5.55654e-19 0.00133505 0.0236495 -1.15196e-18 0.00137651 0.0231106 1.24006e-18 
0.0013322 0.0232851 1.57209e-18 0.00137545 0.0227508 -6.84403e-19 0.00133012 0.0229228 9.69006e-19 
0.00137499 0.0223944 -1.35525e-19 0.00132887 0.0225633 -3.32037e-19 0.0013752 0.0220427 3.79471e-19 
0.00132853 0.0222076 -1.41624e-18 0.00137616 0.0216968 0 0.0013292 0.0218566 -2.05321e-18 
0.00137798 0.0213584 -6.57298e-19 0.00133101 0.0215117 -1.70762e-18 0.00138079 0.0210294 1.92446e-18 
0.0013341 0.0211743 -4.06576e-20 0.00138476 0.0207122 -6.03087e-19 0.00133864 0.0208463 1.70084e-18 
0.00139002 0.0204101 -8.13152e-20 0.00134479 0.0205299 -5.75982e-19 0.00139658 0.0201272 -2.34459e-18 
0.00135257 0.0202279 -1.70762e-18 0.00136157 0.0199437 -1.00289e-18 0.00145495 0.0295183 -3.38813e-19 
0.00145937 0.0296839 3.68629e-18 0.00144287 0.0291843 2.03288e-18 0.00144447 0.0293514 -3.11708e-19 
0.0014305 0.0288465 8.53809e-19 0.00142911 0.0290152 1.82959e-18 0.00141799 0.028505 1.07065e-18 
0.00141349 0.0286753 1.16552e-18 0.00140549 0.02816 2.62919e-18 0.0013978 0.0283317 4.2826e-18 
0.00139313 0.0278114 1.07065e-18 0.0013822 0.0279845 2.9409e-18 0.00138104 0.0274595 -2.01933e-18 
0.00136685 0.0276338 5.55654e-19 0.00136932 0.0271046 -1.13841e-18 0.00135191 0.0272799 -2.57498e-19 
0.00135807 0.0267468 -7.18284e-19 0.0013375 0.026923 1.76183e-19 0.00134738 0.0263865 -2.57498e-19 
0.00132374 0.0265634 1.89735e-19 0.00133731 0.0260239 -2.07354e-18 0.00131073 0.0262014 1.74828e-18 
0.00132794 0.0256596 2.71051e-20 0.00129853 0.0258373 7.99599e-19 0.00131931 0.0252938 1.35525e-19 
0.00128723 0.0254715 5.55654e-19 0.00131146 0.024927 -1.38236e-18 0.00127687 0.0251044 8.94467e-19 
0.00130442 0.0245596 2.20229e-18 0.0012675 0.0247365 -5.55654e-19 0.00129823 0.024192 2.1684e-18 
0.00125916 0.024368 1.26716e-18 0.00129292 0.0238249 -1.75505e-18 0.00125187 0.0239996 2.38524e-18 
0.00128854 0.0234587 3.32037e-19 0.00124569 0.0236316 1.51111e-18 0.00128512 0.023094 -5.55654e-19 
0.00124064 0.0232647 7.45389e-19 0.00128274 0.0227315 1.4569e-18 0.0012368 0.0228993 9.89334e-19 
0.00128145 0.0223719 -9.01243e-19 0.00123421 0.022536 -2.03288e-20 0.00128137 0.022016 -2.4259e-18 
0.00123296 0.0221756 -3.93023e-19 0.0012826 0.0216649 1.15874e-18 0.00123314 0.0218187 -3.11708e-19 
0.00128529 0.0213195 -1.51788e-18 0.00123488 0.0214661 -3.25261e-19 0.00128958 0.0209813 4.06576e-19 
0.00123825 0.0211187 4.26905e-19 0.00129559 0.0206518 9.48677e-19 0.00124333 0.0207774 6.97955e-19 
0.00130329 0.0203325 -1.28071e-18 0.00124999 0.020443 1.28071e-18 0.00131225 0.0200252 -2.01933e-18 
0.00125775 0.0201162 1.4569e-18 0.00126522 0.019797 5.96311e-19 0.001449 0.0295178 -1.77538e-18 
0.00145639 0.0296836 -2.72406e-18 0.00143074 0.0291832 -7.31836e-19 0.00143534 0.0293505 -5.69206e-19 
0.00141205 0.0288448 -1.91091e-18 0.00141365 0.0290136 -1.28749e-18 0.00139317 0.0285026 -2.37169e-18 
0.00139161 0.0286729 -5.27193e-18 0.0013743 0.0281568 4.33681e-18 0.00136946 0.0283284 -4.59431e-18 
0.00135564 0.0278073 -1.97867e-18 0.00134746 0.0279801 -1.57209e-18 0.00133739 0.0274545 -4.60786e-19 
0.00132582 0.0276284 -3.10353e-18 0.00131971 0.0270985 -1.00289e-18 0.00130476 0.0272733 -2.64274e-18 
0.00130274 0.0267396 -2.50722e-18 0.00128445 0.0269151 -1.3146e-18 0.00128661 0.0263781 -1.78893e-18 
0.00126506 0.0265541 -9.48677e-19 0.00127142 0.0260143 -1.16552e-18 0.0012467 0.0261906 -1.72117e-18 
0.00125726 0.0256485 -9.35124e-19 0.0012295 0.025825 -2.1413e-18 0.00124419 0.0252812 -6.77626e-20 
0.00121352 0.0254575 -1.74828e-18 0.00123227 0.0249127 -1.21973e-18 0.00119885 0.0250885 -2.90024e-18 
0.00122154 0.0245435 -8.67362e-19 0.00118552 0.0247185 -1.50433e-18 0.00121204 0.0241738 1.37558e-18 
0.00117357 0.0243478 -9.41901e-19 0.0012038 0.0238043 1.69407e-19 0.00116304 0.0239767 -1.15196e-18 
0.00119686 0.0234352 7.45389e-19 0.00115396 0.0236057 -1.36881e-18 0.00119126 0.0230671 -1.79571e-18 
0.00114634 0.0232352 -1.28749e-18 0.00118704 0.0227005 -8.74138e-19 0.00114022 0.0228655 -3.04254e-18 
0.00118427 0.0223359 3.998e-19 0.00113563 0.0224971 -1.19262e-18 0.00118301 0.0219737 -2.60209e-18 
0.00113259 0.0221303 -9.28348e-19 0.00118333 0.0216146 1.42302e-18 0.00113113 0.0217655 8.13152e-20 
0.00118526 0.0212591 -4.94667e-19 0.00113123 0.0214029 3.93023e-19 0.00118878 0.0209076 -2.98156e-19 
0.00113279 0.0210426 8.80914e-20 0.0011937 0.0205603 8.47033e-19 0.00113553 0.0206847 -7.45389e-19 
0.00119945 0.0202173 -5.01444e-19 0.0011388 0.0203284 -8.53809e-19 0.00120466 0.0198777 -1.11131e-18 
0.00114128 0.0199727 -1.32137e-18 0.00114024 0.0196149 -3.72694e-19 0.00144288 0.0295172 3.65918e-19 
0.00145331 0.0296832 3.11708e-18 0.00141828 0.0291818 6.77626e-20 0.00142592 0.0293494 8.13152e-19 
0.00139312 0.0288425 -2.26327e-18 0.00139772 0.0290115 -6.91179e-19 0.00136771 0.0284993 -1.32815e-18 
0.00136907 0.0286697 -1.35525e-20 0.00134233 0.0281523 -5.96311e-19 0.00134031 0.028324 1.5992e-18 
0.00131725 0.0278017 -1.30104e-18 0.00131174 0.0279744 2.98156e-18 0.00129272 0.0274475 2.71051e-19 
0.00128367 0.0276212 2.61564e-18 0.00126896 0.0270901 1.49078e-19 0.00125635 0.0272646 2.52077e-18 
0.00124616 0.0267296 -2.10064e-18 0.00123001 0.0269047 1.69407e-18 0.00122448 0.0263665 -2.1684e-18 
0.00120486 0.0265419 -2.71051e-19 0.00120406 0.0260009 -2.57498e-18 0.00118105 0.0261765 -7.45389e-19 
0.00118499 0.0256333 1.76183e-19 0.00115871 0.0258088 -2.98156e-19 0.00116736 0.025264 -3.65918e-18 
0.00113793 0.0254392 -1.19262e-18 0.00115122 0.0248933 -5.55654e-19 0.00111879 0.0250679 -1.36881e-18 
0.00113662 0.0245215 -2.01933e-18 0.00110133 0.0246952 -3.55076e-18 0.00112358 0.0241491 -7.38613e-19 
0.00108557 0.0243216 -1.8567e-18 0.00111212 0.0237764 -3.27971e-18 0.00107152 0.0239473 -2.84603e-18 
0.00110224 0.0234036 -1.07743e-18 0.00105917 0.0235726 -5.42101e-19 0.00109397 0.0230312 -3.89635e-18 
0.00104853 0.0231978 -1.6263e-18 0.0010873 0.0226595 -3.30004e-18 0.00103956 0.0228231 -2.01255e-18 
0.00108222 0.0222886 4.81115e-19 0.00103221 0.0224486 -1.10453e-18 0.0010787 0.0219187 -2.1684e-19 
0.00102642 0.0220745 2.43945e-19 0.00107668 0.0215501 8.53809e-19 0.00102207 0.0217007 1.49078e-19 
0.00107597 0.0211825 1.93124e-18 0.00101891 0.021327 7.38613e-19 0.00107624 0.0208157 4.06576e-20 
0.00101656 0.020953 1.43657e-18 0.00107679 0.0204489 -9.14796e-19 0.0010143 0.0205777 6.43745e-19 
0.00107633 0.0200806 -2.80537e-18 0.00101086 0.0201998 -6.77626e-21 0.00107239 0.0197083 -3.38813e-20 
0.00100405 0.0198167 -1.42302e-19 0.000990056 0.0194249 2.98156e-19 0.00143654 0.0295164 1.5992e-18 
0.00145011 0.0296828 -1.92446e-18 0.00140539 0.02918 2.03288e-18 0.00141613 0.0293479 1.99222e-18 
0.00137356 0.0288395 -1.81604e-18 0.00138119 0.0290089 -1.00289e-18 0.00134142 0.0284951 2.76472e-18 
0.00134571 0.0286657 -1.35525e-20 0.00130934 0.0281467 2.31748e-18 0.0013101 0.0283185 1.12486e-18 
0.00127766 0.0277944 8.94467e-19 0.00127477 0.0279673 -1.20617e-18 0.00124669 0.0274386 4.87891e-19 
0.00124007 0.0276123 -1.39591e-18 0.0012167 0.0270794 1.35525e-19 0.00120632 0.0272537 -2.23617e-18 
0.00118793 0.026717 -1.01644e-18 0.00117381 0.0268918 -1.73472e-18 0.00116058 0.0263518 1.40946e-18 
0.00114275 0.0265269 -3.11708e-19 0.00113479 0.0259841 3.25261e-19 0.00111335 0.0261592 7.86047e-19 
0.00111069 0.0256142 7.99599e-19 0.00108574 0.0257891 -4.60786e-19 0.00108835 0.0252424 -1.30104e-18 
0.00106003 0.0254168 -4.87891e-19 0.00106783 0.024869 -7.18284e-19 0.00103626 0.0250428 2.1684e-19 
0.00104915 0.0244943 -9.89334e-19 0.00101448 0.0246671 1.6263e-19 0.00103231 0.0241186 -2.73083e-18 
0.000994674 0.0242902 -7.11508e-19 0.00101731 0.0237422 -1.36203e-18 0.00097682 0.0239123 1.6263e-19 
0.0010041 0.0233652 -6.43745e-19 0.000960869 0.0235334 -5.42101e-20 0.000992634 0.0229879 -2.47334e-18 
0.000946747 0.0231539 -5.01444e-19 0.00098284 0.0226103 -1.00966e-18 0.000934349 0.0227737 2.03288e-20 
0.000974606 0.0222325 8.80914e-20 0.000923533 0.0223928 -1.26716e-18 0.000967761 0.0218544 -2.77827e-19 
0.00091409 0.022011 -1.76183e-19 0.000962036 0.0214757 3.998e-19 0.000905717 0.0216282 1.76183e-19 
0.00095699 0.0210958 2.1684e-19 0.000897948 0.0212436 -9.96111e-19 0.000951897 0.0207139 8.74138e-19 
0.000890064 0.0208565 -1.04354e-18 0.00094556 0.0203285 -1.17907e-18 0.000880935 0.0204655 -1.26716e-18 
0.000936 0.0199376 1.54499e-18 0.000868789 0.0200687 -6.1664e-19 0.000919983 0.0195379 -7.31836e-19 
0.000850861 0.0196636 1.96512e-19 0.000822914 0.0192466 6.64074e-19 0.00142992 0.0295153 -1.82959e-18 
0.00144675 0.0296823 -3.90313e-18 0.00139197 0.0291778 -2.4259e-18 0.0014059 0.0293462 -4.97378e-18 
0.0013532 0.0288359 -1.35525e-20 0.00136392 0.0290058 1.35525e-20 0.00131408 0.0284899 -2.85958e-18 
0.00132133 0.028661 1.39591e-18 0.00127507 0.0281398 1.30104e-18 0.00127862 0.028312 -5.55654e-19 
0.00123658 0.0277857 -5.82759e-19 0.00123628 0.0279588 3.79471e-19 0.00119897 0.0274278 2.43945e-19 
0.00119473 0.0276017 1.20617e-18 0.00116258 0.0270665 -4.60786e-19 0.00115435 0.0272409 -1.35525e-20 
0.00112768 0.0267018 7.72494e-19 0.00111548 0.0268766 1.40946e-18 0.00109451 0.0263342 2.31748e-18 
0.00107837 0.0265092 2.91379e-18 0.00106322 0.025964 -1.61275e-18 0.00104324 0.0261389 5.96311e-19 
0.00103395 0.0255914 2.71051e-20 0.00101023 0.025766 -1.01644e-18 0.00100676 0.0252167 -2.52077e-18 
0.000979439 0.0253908 -3.41524e-18 0.000981687 0.0248403 -2.49366e-18 0.000950906 0.0250137 -3.84892e-18 
0.000958733 0.0244623 -1.91091e-18 0.000924632 0.0246348 -2.88669e-18 0.000937861 0.024083 -1.04354e-18 
0.000900578 0.0242543 -9.75782e-19 0.000919007 0.0237025 -1.76183e-19 0.000878668 0.0238724 -1.15196e-19 
0.000902076 0.0233211 -1.27394e-18 0.000858791 0.0234893 -5.42101e-19 0.00088694 0.0229386 -9.21572e-19 
0.000840797 0.0231049 2.71051e-20 0.000873427 0.022555 -4.74338e-20 0.00082449 0.0227192 -1.80926e-18 
0.0008613 0.0221703 -4.81115e-19 0.00080961 0.0223319 -5.42101e-19 0.00085023 0.021784 -3.52366e-19 
0.000795809 0.0219429 -4.67562e-19 0.000839737 0.0213957 6.97955e-19 0.000782602 0.0215515 1.28071e-18 
0.000829118 0.0210045 -4.26905e-19 0.000769308 0.0211572 -7.2506e-19 0.000817318 0.0206092 -1.96512e-19 
0.000754946 0.0207587 8.13152e-19 0.000802752 0.0202083 -3.3678e-18 0.000738098 0.0203548 -2.37169e-19 
0.000783049 0.0197995 -4.81115e-19 0.000716724 0.0199436 -2.22939e-18 0.000754716 0.01938 -2.43268e-18 
0.000687915 0.0195228 -1.30782e-18 0.000647666 0.01909 1.21973e-19 0.00142299 0.0295141 7.86047e-19 
0.00137789 0.0291752 -3.11708e-18 0.00133188 0.0288317 2.33103e-18 0.00128549 0.0284839 -4.06576e-20 
0.00123927 0.0281317 2.26327e-18 0.00119371 0.0277754 2.90024e-18 0.00114924 0.0274152 -8.80914e-19 
0.00110625 0.0270514 3.46945e-18 0.00106506 0.0266841 2.45301e-18 0.00102592 0.0263138 1.45012e-18 
0.000989 0.0259407 -2.53432e-18 0.000954428 0.0255651 1.39591e-18 0.000922257 0.0251874 -3.13063e-18 
0.000892495 0.0248076 -4.06576e-20 0.0008651 0.0244262 -3.15774e-18 0.000839987 0.0240431 2.41235e-18 
0.000817032 0.0236585 -1.73472e-18 0.000796068 0.0232725 -1.89735e-18 0.000776878 0.0228849 -4.06576e-19 
0.000759186 0.0224956 -1.17907e-18 0.000742627 0.0221043 1.24006e-18 0.00072672 0.0217106 4.67562e-19 
0.000710806 0.0213138 1.53821e-18 0.000693977 0.020913 -1.21295e-18 0.000674966 0.020507 7.11508e-19 
0.000652006 0.0200943 -4.20128e-19 0.000622662 0.0196731 3.32037e-19 0.000583673 0.0192414 4.81115e-19 

METADATA
COMPONENT_NAMES
D1
D2
D3

S 6 12618 double
40.2096 41.5349 0.0935765 -40.6547 3.38174e-13 9.65894e-14 39.6331 40.948 0.0405487 
40.0805 -5.44009e-14 -4.73399e-13 39.6331 40.948 0.0405487 -40.0805 -8.43769e-15 9.63674e-14 
40.2096 41.5349 0.0935765 40.6547 -3.42615e-13 -4.05009e-13 -7.70113 89.337 -0.0104283 
-3.96166 1.84269e-13 -2.93071e-13 -8.15492 88.6189 -0.0109021 3.26312 -2.77972e-14 -4.17236e-14 
-8.15492 88.6189 -0.0109021 -3.26312 -2.18402e-13 -1.44031e-13 -7.70113 89.337 -0.0104283 
3.96166 1.69552e-13 -1.11945e-13 64.9172 192.011 24.3807 47.3785 -4.17999e-13 6.66134e-16 
-0.00156311 78.4314 -0.0610855 0.0150216 2.56312e-13 3.06165e-13 0.00134004 80.533 -0.0329489 
-0.0193739 2.12348e-13 2.69769e-13 -0.00316724 82.62 0.00797599 -0.000190045 6.16752e-15 -1.83907e-14 
1.35881 78.7799 0.000729364 3.614e-06 -1.57223e-14 -1.20967e-14 1.35881 78.7799 0.000729364 
-3.61401e-06 -2.03701e-14 2.32579e-14 -0.00316724 82.62 0.00797599 0.000190045 7.99937e-14 1.03843e-13 
0.00134004 80.533 -0.0329489 0.0193739 5.15143e-14 1.56317e-13 -0.00156311 78.4314 -0.0610855 
-0.0150216 2.05188e-13 4.30866e-13 64.9172 192.011 24.3807 -47.3785 6.61693e-14 7.09433e-14 
22.2557 74.1086 0.0770195 -3.60337 -1.38573e-13 -7.93082e-13 22.2557 74.1086 0.0770195 
3.60337 -8.60183e-13 8.3448e-14 -8.90061 90.5403 0.00210045 -4.76882 -2.19241e-13 2.60375e-13 
-10.1953 91.8049 0.00494267 -5.71693 -2.70547e-14 -8.42382e-15 -11.5106 93.0972 0.00859632 
-6.81969 2.9439e-13 -4.26187e-14 -12.7943 94.3671 0.0137629 -8.10024 4.85723e-14 2.23793e-13 
-13.956 95.5243 0.0204837 -9.58311 -1.80356e-13 -1.77525e-13 -14.8673 96.4417 0.0290737 
-11.2939 2.53492e-13 1.16573e-14 -15.3507 96.9426 0.0397819 -13.2585 -1.54432e-13 5.60024e-13 
-15.1701 96.7916 0.0528414 -15.503 6.87228e-14 1.90903e-13 -14.021 95.6846 0.0684316 
-18.0521 -3.2313e-13 -1.31173e-13 -11.5209 93.2396 0.0866621 -20.9291 -2.63789e-13 -1.803e-13 
-7.20387 88.9903 0.107552 -24.1544 -1.86517e-13 -1.06914e-13 -0.508474 82.3747 0.131094 
-27.7444 3.68705e-13 1.77858e-13 9.1917 72.7562 0.154518 -31.7122 2.43472e-13 2.44138e-13 
22.7327 59.2205 0.155491 -36.0821 4.47975e-13 8.4488e-14 -8.26774 89.8613 -0.0172376 
-4.34826 2.15494e-13 2.63678e-14 -9.52453 91.0758 -0.018062 -5.22759 1.71752e-13 1.33227e-13 
-10.8322 92.3443 -0.0185471 -6.25094 3.33872e-13 1.72973e-13 -12.135 93.6163 -0.0178214 
-7.44006 1.56875e-13 1.16573e-15 -13.3638 94.8224 -0.0159611 -8.81914 -1.72085e-13 -2.22489e-13 
-14.4095 95.8548 -0.0125873 -10.4132 -3.79419e-13 -2.63123e-14 -15.1203 96.5626 -0.00738938 
-12.248 1.37668e-14 3.77032e-13 -15.2902 96.741 -3.71823e-05 -14.3496 -2.46247e-13 5.14033e-13 
-14.6496 96.1213 0.0097711 -16.7435 3.70814e-13 4.60743e-13 -12.8558 94.3618 0.0222903 
-19.4538 -1.06648e-12 -8.21787e-13 -9.48472 91.0385 0.0377065 -22.5022 -1.36113e-13 -4.45866e-13 
-4.02504 85.6403 0.056122 -25.9074 -1.94955e-13 -1.54987e-13 4.13112 77.5584 0.0775496 
-29.6834 1.29274e-12 1.02673e-12 15.6441 66.1151 0.0974626 -33.8419 -1.15463e-14 4.55191e-13 
31.1221 50.4655 0.0457745 -38.3294 5.63993e-14 5.1914e-13 -9.31529 89.8378 0.00175868 
4.1026 -2.95507e-13 -8.00957e-14 -10.5732 91.1216 0.00481356 5.08723 -7.18869e-14 -2.54727e-13 
-11.8547 92.4337 0.00869623 6.22902 1.84713e-14 4.60187e-14 -13.1076 93.7218 0.0140506 
7.5495 -3.38063e-14 -1.58776e-13 -14.2416 94.894 0.0209272 9.07193 1.05915e-13 -1.26232e-13 
-15.129 95.822 0.029631 10.8207 -1.1896e-13 -5.12645e-14 -15.5931 96.3286 0.0403844 
12.8206 -1.04916e-14 7.36633e-14 -15.399 96.1783 0.0533624 15.0961 7.31082e-14 2.20379e-14 
-14.2439 95.0675 0.0686215 17.6701 5.77316e-15 -1.33726e-13 -11.7482 92.6154 0.0860095 
20.5633 -1.03695e-13 2.03171e-14 -7.44977 88.3577 0.105003 23.7927 -1.2601e-13 -8.27116e-14 
-0.792193 81.7357 0.124513 27.3702 -1.69753e-13 1.9551e-13 8.84466 72.1172 0.139918 
31.3032 4.51306e-13 -1.38223e-13 22.2884 58.5952 0.12592 35.608 1.61093e-13 -1.26676e-13 
-8.70364 89.15 -0.0180957 3.66531 -6.16729e-14 -9.3453e-14 -9.92214 90.3823 -0.0186656 
4.57919 -9.52016e-14 -1.19765e-13 -11.1942 91.6706 -0.0188902 5.64041 4.58522e-14 -1.5421e-13 
-12.4645 92.9618 -0.0179403 6.86912 -4.17888e-13 -4.55191e-15 -13.6639 94.1847 -0.0158738 
8.28806 1.26454e-13 -3.19023e-13 -14.6838 95.2301 -0.0123093 9.921 1.24289e-13 -3.37896e-13 
-15.3727 95.9465 -0.00694214 11.7926 -7.28306e-14 -4.88498e-15 -15.5258 96.1285 0.000531883 
13.9275 -6.85674e-13 5.04041e-13 -14.8749 95.5078 0.0103475 16.3496 3.4861e-13 -4.92717e-13 
-13.0796 93.7433 0.0226018 19.0806 -2.42029e-14 2.81997e-14 -9.71907 90.413 0.0371285 
22.1395 2.8888e-13 -1.84075e-13 -4.28628 85.0082 0.0532951 25.5409 1.94511e-13 2.02949e-13 
3.82085 76.9242 0.0696775 29.2937 -1.77636e-14 1.42109e-14 15.2557 65.4884 0.0793735 
33.403 2.11386e-13 -3.25961e-13 30.6211 49.866 0.0102241 37.8086 4.21885e-13 -8.58424e-13 
-9.31529 89.8378 0.00175868 -4.1026 -1.57173e-13 1.02321e-13 -10.5732 91.1216 0.00481356 
-5.08723 -6.43791e-14 -4.24938e-14 -11.8547 92.4337 0.00869623 -6.22902 6.65024e-14 -9.04832e-15 
-13.1076 93.7218 0.0140506 -7.5495 4.05412e-13 1.36002e-14 -14.2416 94.894 0.0209272 
-9.07193 -2.19269e-15 -1.56458e-13 -15.129 95.822 0.029631 -10.8207 5.59552e-14 1.53239e-13 
-15.5931 96.3286 0.0403844 -12.8206 -2.03643e-13 2.72865e-13 -15.399 96.1783 0.0533624 
-15.0961 2.13884e-13 -7.60503e-15 -14.2439 95.0675 0.0686215 -17.6701 -2.37754e-13 -1.58762e-14 
-11.7482 92.6154 0.0860095 -20.5633 -2.13163e-14 -5.54001e-14 -7.44977 88.3577 0.105003 
-23.7927 -3.46723e-13 -1.4766e-13 -0.792193 81.7357 0.124513 -27.3702 1.79967e-13 1.21014e-14 
8.84466 72.1172 0.139918 -31.3032 1.57985e-13 7.4607e-14 22.2884 58.5952 0.12592 
-35.608 3.25295e-14 -3.71925e-14 -8.70364 89.15 -0.0180957 -3.66531 1.27065e-13 1.37224e-13 
-9.92214 90.3823 -0.0186656 -4.57919 -4.72761e-13 -2.43416e-14 -11.1942 91.6706 -0.0188902 
-5.64041 2.63567e-13 1.97481e-13 -12.4645 92.9618 -0.0179403 -6.86912 -1.44329e-15 -1.23845e-13 
-13.6639 94.1847 -0.0158738 -8.28806 8.92619e-14 -1.18683e-13 -14.6838 95.2301 -0.0123093 
-9.921 2.9976e-14 -3.20854e-14 -15.3727 95.9465 -0.00694214 -11.7926 -4.54414e-13 3.13971e-13 
-15.5258 96.1285 0.000531882 -13.9275 1.38112e-13 1.5421e-13 -14.8749 95.5078 0.0103475 
-16.3496 1.82299e-13 1.84297e-13 -13.0796 93.7433 0.0226018 -19.0806 -3.062e-13 -2.0961e-13 
-9.71907 90.413 0.0371285 -22.1395 -3.55271e-15 -2.8666e-13 -4.28628 85.0082 0.0532951 
-25.5409 -2.37588e-13 -2.84883e-13 3.82085 76.9242 0.0696775 -29.2937 5.34683e-13 2.88658e-13 
15.2557 65.4884 0.0793735 -33.403 6.57252e-13 3.76588e-13 30.6211 49.866 0.0102241 
-37.8086 3.65041e-13 4.86722e-13 -8.90061 90.5403 0.00210045 4.76882 -1.51316e-13 -4.26534e-14 
-10.1953 91.8049 0.00494267 5.71693 -2.41938e-13 -3.77476e-14 -11.5106 93.0972 0.00859632 
6.81969 -3.95933e-13 8.50015e-14 -12.7943 94.3671 0.0137629 8.10024 -1.50463e-13 -1.82132e-13 
-13.956 95.5243 0.0204837 9.58311 3.80806e-14 -2.08278e-13 -14.8673 96.4417 0.0290737 
11.2939 -1.95316e-13 -1.69448e-13 -15.3507 96.9426 0.0397819 13.2585 4.9627e-13 1.14603e-13 
-15.1701 96.7916 0.0528414 15.503 -4.44089e-15 2.08722e-14 -14.021 95.6846 0.0684316 
18.0521 -5.4956e-15 -6.66689e-14 -11.5209 93.2396 0.0866621 20.9291 -1.80189e-13 8.28226e-14 
-7.20387 88.9903 0.107552 24.1544 3.90354e-13 -3.37175e-13 -0.508474 82.3747 0.131094 
27.7444 -1.12688e-13 9.29257e-14 9.1917 72.7562 0.154518 31.7122 5.69544e-14 -1.25122e-13 
22.7327 59.2205 0.155491 36.0821 -2.23266e-13 6.03961e-14 -8.26774 89.8613 -0.0172376 
4.34826 -4.25174e-13 -1.92721e-13 -9.52453 91.0758 -0.018062 5.22759 -1.97564e-13 2.89213e-14 
-10.8322 92.3443 -0.0185471 6.25094 -3.66929e-14 -8.72635e-14 -12.135 93.6163 -0.0178214 
7.44006 -4.31266e-13 -8.10463e-15 -13.3638 94.8224 -0.0159611 8.81914 1.06859e-13 -4.48419e-13 
-14.4095 95.8548 -0.0125873 10.4132 -5.37348e-14 -6.51146e-13 -15.1203 96.5626 -0.00738938 
12.248 3.51053e-13 -3.93019e-14 -15.2902 96.741 -3.71819e-05 14.3496 -8.85625e-13 6.9289e-13 
-14.6496 96.1213 0.0097711 16.7435 2.68674e-13 -8.05356e-13 -12.8558 94.3618 0.0222903 
19.4538 -6.6458e-13 1.95399e-13 -9.48472 91.0385 0.0377065 22.5022 3.05533e-13 -2.93321e-13 
-4.02504 85.6403 0.056122 25.9074 -6.23945e-14 -3.81917e-14 4.13112 77.5584 0.0775496 
29.6834 -1.25233e-13 -4.82281e-13 15.6441 66.1151 0.0974626 33.8419 -2.98428e-13 9.54792e-14 
31.1221 50.4655 0.0457745 38.3294 4.52527e-13 -7.10543e-13 45.9709 71.3339 2.20774 
-57.0268 -5.67102e-13 -2.19047e-13 44.7191 106.853 4.31128 -68.6092 1.53877e-13 3.26628e-13 
37.6564 144.918 6.1739 -73.178 -2.65565e-13 -1.39222e-13 27.1222 181.978 7.75807 
-69.3338 7.14984e-14 -2.57239e-13 15.8555 214.127 8.99423 -57.0095 1.83742e-13 1.186e-13 
6.54544 237.797 9.83854 -37.4488 1.35114e-13 -3.54217e-13 1.3095 250.263 10.2604 
-13.0468 -1.22152e-13 3.01668e-14 1.30759 250.069 10.2465 13.0316 -4.03677e-13 -9.58573e-14 
6.52758 237.243 9.79836 37.3567 -3.86635e-13 -9.9469e-14 15.7897 213.294 8.93194 
56.7833 4.58522e-14 -3.94129e-15 26.9681 180.98 7.68021 68.9502 1.66089e-13 3.56715e-13 
37.3813 143.883 6.08873 72.6533 -1.17462e-13 -1.94178e-13 44.3123 105.897 4.22791 
67.9945 4.74731e-13 -1.61871e-13 45.4532 70.541 2.13542 56.3942 -1.22791e-13 -1.84852e-13 
44.4191 55.2907 1.18069 -49.239 -1.87494e-12 8.54428e-13 46.542 88.2119 3.28528 
-63.6618 -3.34843e-13 -1.19593e-12 42.0324 125.369 5.23129 -72.0663 -5.47562e-13 4.19442e-13 
32.75 163.43 6.92276 -72.5818 -2.26041e-13 -5.71321e-13 21.3271 198.568 8.30648 
-64.4326 -2.74003e-13 -4.95159e-14 10.5829 226.956 9.33139 -48.2107 -1.85407e-12 2.38753e-13 
3.00337 245.355 9.95837 -25.7809 1.45395e-12 -4.24563e-13 0.278671 251.608 10.1614 
5.47792e-05 7.13048e-13 2.78243e-13 2.99876 244.975 9.93203 25.7409 6.9611e-14 -8.24202e-14 
10.5499 226.252 9.28145 48.0609 -5.60219e-13 -7.76046e-14 21.2268 197.641 8.23812 
64.1311 4.90274e-13 5.91527e-13 32.5426 162.404 6.84312 72.1254 -1.9007e-13 -3.26406e-14 
41.6936 124.368 5.14876 71.4903 -5.15588e-13 -9.28368e-13 46.0762 87.337 3.20886 
63.0305 4.28546e-13 -1.01252e-13 43.8627 54.6048 1.11872 48.6291 1.33227e-13 -1.01785e-12 
26.7683 18.4866 -2.04216 22.0731 1.65867e-13 1.96954e-13 7.46216 3.71151 -4.1329 
5.38382 1.77081e-13 1.86073e-13 -15.7767 -3.86484 -5.98057 -7.54844 -2.89768e-13 -2.03171e-13 
-40.084 -5.93235 -7.55194 -14.9806 6.47205e-13 1.22014e-13 -62.1547 -4.66102 -8.7804 
-16.3597 -1.98147e-13 2.44693e-13 -78.8999 -2.28088 -9.62411 -12.3193 1.81646e-13 2.33258e-13 
-87.9235 -0.590185 -10.053 -4.54892 -3.12219e-13 -6.62914e-13 -87.9235 -0.590185 -10.053 
4.54892 2.07188e-13 -5.93969e-15 -78.8999 -2.28088 -9.62411 12.3193 -2.34097e-13 1.49825e-13 
-62.1547 -4.66102 -8.7804 16.3597 -1.23512e-14 -1.16129e-13 -40.084 -5.93235 -7.55194 
14.9806 4.65517e-13 1.17462e-13 -15.7767 -3.86484 -5.98057 7.54844 3.52607e-13 -8.63754e-14 
7.46216 3.71151 -4.1329 -5.38382 6.36158e-14 2.8666e-13 26.7683 18.4866 -2.04216 
-22.0731 2.77556e-15 -1.70752e-13 34.1637 28.1629 -1.15099 31.2112 1.04139e-12 -1.06581e-14 
17.9044 9.53684 -3.2495 13.3956 -6.21725e-14 2.97096e-13 -3.61757 -1.39453 -5.17998 
-1.78224 1.4122e-13 4.06786e-13 -27.7817 -5.82759 -6.85468 -12.1826 3.85691e-13 -1.20792e-13 
-51.4118 -5.77584 -8.22266 -16.6097 9.68114e-14 1.19904e-13 -71.2275 -3.54288 -9.23701 
-15.102 -3.22575e-13 2.77556e-13 -84.3992 -1.22669 -9.86177 -8.85982 -2.57114e-13 9.55902e-14 
-89.0149 -0.281658 -10.0729 1.77271e-07 -3.77316e-13 -7.92297e-13 -84.3992 -1.22669 -9.86177 
8.85982 3.27141e-13 3.14415e-13 -71.2275 -3.54288 -9.23701 15.102 2.86327e-13 2.37588e-14 
-51.4118 -5.77584 -8.22266 16.6097 3.72369e-13 -4.76508e-13 -27.7817 -5.82759 -6.85468 
12.1826 2.04059e-13 0 -3.61757 -1.39453 -5.17998 1.78224 -2.15161e-13 8.88178e-16 
17.9044 9.53684 -3.2495 -13.3956 3.94351e-13 4.94715e-13 34.1637 28.1629 -1.15099 
-31.2112 3.81917e-13 -3.05977e-13 45.4532 70.541 2.13542 -56.3942 -1.46327e-13 7.53841e-14 
44.3123 105.897 4.22791 -67.9945 2.30482e-13 2.80886e-14 37.3813 143.883 6.08873 
-72.6533 -5.66214e-13 -2.15938e-13 26.9681 180.98 7.68021 -68.9502 1.32339e-13 1.41331e-13 
15.7897 213.294 8.93194 -56.7833 3.67484e-13 2.7886e-13 6.52758 237.243 9.79836 
-37.3567 1.01308e-13 2.37241e-14 1.30759 250.069 10.2465 -13.0316 3.63348e-13 -2.61201e-13 
1.3095 250.263 10.2604 13.0468 2.44166e-13 -2.90646e-13 6.54544 237.797 9.83854 
37.4488 4.09672e-13 5.59622e-14 15.8555 214.127 8.99423 57.0095 1.79412e-13 -1.0647e-13 
27.1222 181.978 7.75807 69.3338 -1.21458e-13 3.26628e-13 37.6564 144.918 6.1739 
73.178 -2.76668e-13 -2.38254e-13 44.7191 106.853 4.31128 68.6092 3.67484e-13 -1.15352e-13 
45.9709 71.3339 2.20774 57.0268 -1.93179e-13 -3.97127e-13 43.8627 54.6048 1.11872 
-48.6291 -1.3336e-12 9.13936e-13 46.0762 87.337 3.20886 -63.0305 4.33431e-13 -6.4837e-13 
41.6936 124.368 5.14876 -71.4903 -6.44818e-13 3.33067e-15 32.5426 162.404 6.84312 
-72.1254 5.32907e-14 -2.44471e-13 21.2268 197.641 8.23812 -64.1311 4.44089e-16 4.79172e-13 
10.5499 226.252 9.28145 -48.0609 1.26565e-13 1.62592e-13 2.99876 244.975 9.93203 
-25.7409 -4.70957e-13 -3.81917e-13 0.278671 251.608 10.1614 -5.3781e-05 1.38497e-13 -5.41608e-13 
3.00337 245.355 9.95837 25.7809 2.86882e-13 -2.57822e-13 10.5829 226.956 9.33139 
48.2107 2.68008e-13 -1.05693e-13 21.3271 198.568 8.30648 64.4326 -1.33227e-13 2.32037e-13 
32.75 163.43 6.92276 72.5818 -8.4821e-14 2.09832e-13 42.0324 125.369 5.23129 
72.0663 1.64757e-13 -1.01763e-12 46.542 88.2119 3.28528 63.6618 3.45501e-13 -4.42757e-13 
44.4191 55.2907 1.18069 49.239 -3.00204e-13 -1.11777e-12 27.332 18.8673 -2.01368 
22.5297 -1.28675e-13 2.51132e-13 7.92833 3.9176 -4.13392 5.6902 2.55351e-13 2.63789e-13 
-15.4777 -3.781 -6.01153 -7.39127 -5.9619e-13 -3.44169e-13 -39.9941 -5.91627 -7.61076 
-14.9413 8.5365e-13 5.2669e-13 -62.276 -4.66971 -8.86248 -16.3883 -1.54571e-13 1.89515e-13 
-79.1919 -2.29016 -9.72286 -12.363 6.83356e-13 4.04177e-13 -88.3109 -0.59419 -10.1604 
-4.56835 -2.23085e-13 -1.05671e-12 -88.3109 -0.59419 -10.1604 4.56835 2.47989e-13 -7.63556e-14 
-79.1919 -2.29016 -9.72286 12.363 3.11237e-13 1.59983e-13 -62.276 -4.66971 -8.86248 
16.3883 6.59472e-14 6.09512e-14 -39.9941 -5.91627 -7.61076 14.9413 4.16001e-13 -2.10942e-14 
-15.4777 -3.781 -6.01153 7.39127 2.42917e-13 -1.803e-13 7.92833 3.9176 -4.13392 
-5.6902 1.31894e-13 2.53797e-13 27.332 18.8673 -2.01368 -22.5297 1.79301e-13 -2.46025e-13 
34.7421 28.6379 -1.11206 31.7312 2.33591e-13 -6.43929e-14 18.4274 9.81611 -3.23853 
13.7772 -7.66942e-13 -1.38556e-13 -3.22779 -1.26453 -5.19847 -1.55489 5.79536e-13 1.34204e-12 
-27.5833 -5.7906 -6.90169 -12.0925 -2.35145e-13 -1.04361e-13 -51.4282 -5.78097 -8.29471 
-16.6141 -3.69593e-13 2.35367e-13 -71.4398 -3.55602 -9.32859 -15.1468 -6.07847e-13 3.20188e-13 
-84.7483 -1.23389 -9.96573 -8.89644 -5.85226e-13 1.81521e-13 -89.4131 -0.284885 -10.1811 
1.78065e-07 -1.44586e-13 -1.51105e-12 -84.7483 -1.23389 -9.96573 8.89644 1.17308e-12 1.91958e-13 
-71.4398 -3.55602 -9.32859 15.1468 5.25746e-13 -7.28306e-14 -51.4282 -5.78097 -8.29471 
16.6141 4.26881e-13 -6.02629e-13 -27.5833 -5.7906 -6.90169 12.0925 -1.14797e-13 -1.2923e-13 
-3.22779 -1.26453 -5.19847 1.55489 -1.62093e-13 5.1692e-13 18.4274 9.81611 -3.23853 
-13.7772 -2.27818e-13 3.59712e-13 34.7421 28.6379 -1.11206 -31.7312 6.70131e-13 -2.69118e-13 
-7.67521 91.8417 0.0193205 -2.33161 -1.69052e-13 -3.97737e-14 -6.50483 94.2437 0.0292537 
-0.036766 -1.05638e-13 2.76584e-14 -3.61533 96.1164 0.0345747 2.64151 2.0367e-13 -9.3332e-14 
1.23424 97.0005 0.0237633 5.01446 9.91984e-14 -1.01939e-13 7.55201 96.7262 -0.00589473 
6.06573 -1.38375e-13 -1.11328e-13 13.7945 95.6917 -0.0450082 4.93288 1.04639e-14 2.34951e-14 
17.7414 94.7757 -0.0731017 1.64585 1.47216e-13 3.06699e-14 17.6994 94.7336 -0.0728533 
-2.54499 -2.23502e-14 -1.17406e-14 13.6778 95.56 -0.0444507 -5.80882 -1.02487e-13 -1.31825e-13 
7.38077 96.494 -0.00540744 -6.90761 -8.96783e-14 1.44662e-13 1.02317 96.6613 0.0239329 
-5.82414 -6.48509e-14 5.14797e-14 -3.86506 95.6719 0.0344284 -3.42494 -1.98494e-13 -1.73169e-13 
-6.80398 93.7007 0.028954 -0.722944 5.69822e-14 6.42229e-14 -8.04134 91.208 0.0189829 
1.59877 -2.19144e-13 -2.13093e-14 -7.85077 90.5296 -0.0221251 -3.19678 6.13398e-14 -1.75429e-13 
-7.31921 92.9546 -0.0220718 -1.23591 -4.62408e-14 -6.44207e-14 -5.29452 95.0991 -0.0130081 
1.25671 1.29619e-13 -5.80092e-14 -1.35454 96.5158 0.0011288 3.80606 -1.73694e-13 -3.47847e-14 
4.40549 96.8922 0.0160491 5.55614 -9.36473e-14 -1.82077e-13 10.946 96.3202 0.0258748 
5.54624 -5.95635e-14 2.498e-14 16.2878 95.4078 0.0289559 3.3314 4.82114e-14 9.79772e-14 
18.3427 94.9514 0.0290431 -0.44974 -2.37176e-13 7.41629e-14 16.2063 95.3203 0.0289443 
-4.21896 1.40804e-13 -7.16094e-14 10.7994 96.1374 0.0258427 -6.40459 1.88849e-13 -8.04357e-14 
4.21284 96.6059 0.0160357 -6.38109 -4.39648e-14 1.03501e-13 -1.58449 96.124 0.00122002 
-4.6019 1.64313e-14 4.68861e-14 -5.5668 94.606 -0.0127362 -2.02784 4.05231e-15 -3.34385e-14 
-7.64851 92.3675 -0.0215755 0.489869 9.58122e-14 -3.54439e-14 -8.25634 89.8554 -0.021395 
2.48134 -9.76164e-14 3.56104e-14 -9.38714 87.1699 -0.0376713 6.06043 1.79183e-13 4.28546e-14 
-9.97472 84.0596 -0.0418548 9.36524 5.74922e-14 -5.49144e-14 -9.4479 78.6955 -0.0331088 
12.6423 -2.3402e-13 6.43097e-14 -7.42683 70.9263 0.00274312 14.8612 -5.40089e-14 -3.53606e-14 
-4.05721 61.5494 0.0665376 14.6588 -1.16157e-13 5.45258e-14 -0.324204 52.6572 0.140611 
10.9973 -5.93275e-14 -1.46202e-13 2.17722 47.1287 0.191482 4.11104 -2.66454e-15 1.38368e-13 
2.17722 47.1287 0.191482 -4.11104 -2.25209e-13 1.47798e-15 -0.324204 52.6572 0.140611 
-10.9973 7.23033e-14 -3.66096e-14 -4.05721 61.5494 0.0665376 -14.6588 8.73746e-14 4.35763e-15 
-7.42683 70.9263 0.00274312 -14.8612 1.86115e-13 1.62648e-14 -9.4479 78.6955 -0.0331088 
-12.6423 -3.14982e-14 3.95101e-14 -9.97472 84.0596 -0.0418548 -9.36524 2.80088e-13 4.66294e-15 
-9.38714 87.1699 -0.0376713 -6.06043 -2.12809e-13 1.13069e-13 -8.6811 88.1559 0.0360639 
4.62853 9.44383e-14 -5.81479e-14 -9.56126 85.9237 0.035486 7.69156 2.02616e-15 4.85723e-15 
-9.61249 81.6675 0.025859 11.0039 9.9934e-14 6.62248e-14 -8.40189 74.9774 0.010343 
13.7924 -4.09603e-14 -7.11653e-14 -5.81127 66.1436 -0.00599597 14.8505 1.64091e-13 1.49269e-13 
-2.37539 56.6458 -0.0166122 12.9465 -2.43527e-13 -3.43725e-13 0.655769 49.0992 -0.0197179 
7.64152 -5.08482e-14 2.57794e-13 1.8755 46.1959 -0.0196694 1.16555e-10 6.86118e-14 -7.93705e-14 
0.655769 49.0992 -0.0197179 -7.64152 1.00697e-13 1.70974e-14 -2.37539 56.6458 -0.0166122 
-12.9465 -4.49085e-14 2.35367e-14 -5.81127 66.1436 -0.00599597 -14.8505 -3.13749e-13 -5.03486e-14 
-8.40189 74.9774 0.010343 -13.7924 1.8717e-13 1.52656e-14 -9.61249 81.6675 0.025859 
-11.0039 -1.49894e-13 -2.81442e-14 -9.56126 85.9237 0.035486 -7.69156 -2.89727e-13 1.61621e-13 
-8.6811 88.1559 0.0360639 -4.62853 1.43968e-13 -2.53131e-14 -8.04134 91.208 0.0189829 
-1.59877 -3.31471e-13 1.57069e-13 -6.80398 93.7007 0.028954 0.722944 -1.41137e-13 -5.94316e-15 
-3.86506 95.6719 0.0344284 3.42494 1.85185e-13 -1.14274e-13 1.02317 96.6613 0.0239329 
5.82414 1.40249e-13 3.00662e-14 7.38077 96.494 -0.00540744 6.90761 5.03764e-14 -9.88515e-14 
13.6778 95.56 -0.0444507 5.80882 3.58186e-14 -8.29059e-14 17.6994 94.7336 -0.0728533 
2.54499 -1.2762e-13 1.06998e-13 17.7414 94.7757 -0.0731017 -1.64585 -1.84318e-13 -1.07608e-13 
13.7945 95.6917 -0.0450082 -4.93288 -7.31915e-14 -1.86781e-13 7.55201 96.7262 -0.00589473 
-6.06573 4.3382e-14 1.5303e-13 1.23424 97.0005 0.0237633 -5.01446 1.84019e-13 3.04867e-13 
-3.61533 96.1164 0.0345747 -2.64151 5.43871e-14 -9.66636e-14 -6.50483 94.2437 0.0292537 
0.036766 1.79926e-13 -1.54182e-14 -7.67521 91.8417 0.0193205 2.33161 1.17642e-13 2.84772e-14 
-8.25634 89.8554 -0.021395 -2.48134 1.58706e-13 -1.01724e-14 -7.64851 92.3675 -0.0215755 
-0.489869 2.82274e-14 -9.67282e-14 -5.5668 94.606 -0.0127362 2.02784 -1.86462e-13 -2.22808e-14 
-1.58449 96.124 0.00122002 4.6019 1.1513e-13 -4.62824e-15 4.21284 96.6059 0.0160357 
6.38109 2.86438e-14 -5.61218e-14 10.7994 96.1374 0.0258427 6.40459 -1.07303e-13 1.7597e-14 
16.2063 95.3203 0.0289443 4.21896 -7.05824e-14 6.73905e-14 18.3427 94.9514 0.0290431 
0.44974 -1.30451e-15 6.08402e-14 16.2878 95.4078 0.0289559 -3.3314 1.75332e-13 -6.17284e-14 
10.946 96.3202 0.0258748 -5.54624 1.33782e-13 -8.09908e-14 4.40549 96.8922 0.0160491 
-5.55614 9.82547e-15 1.27343e-13 -1.35454 96.5158 0.0011288 -3.80606 3.06366e-13 1.93137e-13 
-5.29452 95.0991 -0.0130081 -1.25671 -4.71845e-14 -6.49272e-14 -7.31921 92.9546 -0.0220718 
1.23591 -8.08825e-13 -2.35229e-14 -7.85077 90.5296 -0.0221251 3.19678 2.44443e-13 1.31492e-13 
-8.89632 87.9455 -0.0371238 6.67734 9.98056e-14 1.79794e-13 -9.45217 84.879 -0.041445 
9.90248 5.62266e-13 -1.11966e-13 -8.89614 79.5412 -0.0328241 13.1028 1.10707e-13 1.7962e-13 
-6.84423 71.776 0.00310643 15.245 1.26815e-13 1.47382e-14 -3.43956 62.3805 0.0672947 
14.9573 -1.74125e-13 -1.65923e-13 0.328676 53.4567 0.141988 11.1916 2.10942e-15 -6.95277e-14 
2.85353 47.9036 0.193348 4.17912 -2.16382e-13 6.66411e-14 2.85353 47.9036 0.193348 
-4.17912 4.9985e-13 -8.20594e-14 0.328676 53.4567 0.141988 -11.1916 -5.27633e-14 4.3382e-14 
-3.43956 62.3805 0.0672947 -14.9573 8.67639e-14 -6.75709e-14 -6.84423 71.776 0.00310643 
-15.245 4.59681e-13 -9.25926e-14 -8.89614 79.5412 -0.0328241 -13.1028 1.0296e-13 3.12958e-13 
-9.45217 84.879 -0.041445 -9.90248 -2.03181e-13 -2.44874e-13 -8.89632 87.9455 -0.0371238 
-6.67734 -3.08833e-13 3.75339e-13 -8.2086 88.9035 0.0362405 5.28574 1.71113e-14 -2.1394e-13 
-9.05409 86.7226 0.0357956 8.26803 6.79595e-14 1.51129e-13 -9.07471 82.502 0.0261775 
11.5022 8.07063e-14 -1.83187e-14 -7.83418 75.8272 0.0106343 14.2142 -2.92412e-13 9.29812e-14 
-5.21118 66.9851 -0.00578447 15.1918 -1.71085e-13 1.90514e-13 -1.74098 57.4597 -0.0164755 
13.1935 -3.43947e-13 -5.98466e-13 1.31885 49.8822 -0.01961 7.77336 -9.08718e-14 3.46723e-13 
2.55006 46.9652 -0.0195625 1.21347e-10 4.26215e-13 -8.25685e-15 1.31885 49.8822 -0.01961 
-7.77336 3.3179e-13 -5.68989e-15 -1.74098 57.4597 -0.0164755 -13.1935 -1.73084e-13 2.19824e-14 
-5.21118 66.9851 -0.00578447 -15.1918 3.68566e-13 -2.79776e-14 -7.83418 75.8272 0.0106343 
-14.2142 3.32706e-13 1.12133e-14 -9.07471 82.502 0.0261775 -11.5022 -3.96919e-13 3.70259e-14 
-9.05409 86.7226 0.0357956 -8.26803 -3.87426e-13 1.7486e-14 -8.2086 88.9035 0.0362405 
-5.28574 -2.70048e-13 -4.5991e-14 -5.90817 115.809 -2.64403 -1.0093 4.74287e-13 1.696e-13 
0.265567 92.2641 -1.87748 -0.615942 -8.33222e-14 4.73843e-13 -1.36076 87.2839 -1.46415 
-0.0722145 6.84161e-13 -1.15262e-13 -0.323617 83.8335 -0.797099 -0.109302 -3.12333e-13 4.28386e-13 
-0.301601 81.522 -0.629598 -0.0771194 3.08614e-13 1.48281e-13 -0.180505 80.0346 -0.483115 
-0.0636351 -1.79256e-13 2.26e-14 -0.135789 79.0593 -0.394385 -0.0505288 1.18825e-13 1.62762e-13 
-0.100471 78.4494 -0.326564 -0.0419264 2.55173e-13 3.41394e-15 -0.0777614 78.1004 -0.274521 
-0.0354063 -1.00831e-13 2.89938e-13 -0.0608721 77.9446 -0.232235 -0.0305411 4.77964e-14 1.74675e-13 
-0.0480787 77.933 -0.196893 -0.0267593 -2.80169e-13 1.77197e-13 -0.0378708 78.0292 -0.16656 
-0.0237417 -1.38265e-13 4.35216e-13 -0.0294345 78.2044 -0.140022 -0.021246 -1.45316e-13 2.5183e-14 
-0.0222232 78.4351 -0.116479 -0.0190986 3.79793e-13 7.85864e-14 -0.0158909 78.7011 -0.0954149 
-0.0171652 1.82473e-13 4.69179e-13 -0.0102162 78.9844 -0.0765199 -0.0153394 3.7129e-13 2.16511e-13 
-0.00506847 79.2683 -0.0596394 -0.0135336 -1.60855e-13 6.37831e-13 -0.000386466 79.5374 -0.0447438 
-0.0116752 -3.36647e-13 4.82005e-13 0.00383417 79.7769 -0.0319064 -0.00970524 1.98365e-13 3.91098e-13 
0.0075488 79.973 -0.0212849 -0.0075789 3.0347e-13 1.03869e-13 0.0106703 80.1127 -0.0131031 
-0.00526799 1.03098e-13 1.73532e-13 0.0130761 80.1847 -0.00762899 -0.00276473 -1.61968e-14 -1.87718e-13 
0.014618 80.1795 -0.00514682 -8.6213e-05 6.21747e-14 -1.75261e-13 0.0151349 80.0904 -0.00592268 
0.00272121 -2.59192e-13 6.63747e-13 0.0144721 79.9141 -0.0101622 0.00557859 -9.66601e-14 1.47672e-13 
0.0125025 79.6515 -0.0179631 0.00837308 3.18664e-13 2.16644e-13 0.00915514 79.3084 -0.0292638 
0.0109607 8.7895e-14 7.1406e-14 0.00444366 78.8961 -0.0437946 0.0131722 2.307e-13 8.39146e-14 
19.1958 152.461 6.95631 19.86 -5.23137e-13 5.77316e-13 -6.9155 98.3539 -4.27317 
-1.55837 -7.44738e-13 4.61742e-13 -0.0269494 90.9417 -1.03703 0.0583061 -5.6416e-13 4.60021e-13 
-0.61725 85.8436 -0.898175 -0.131244 3.79641e-13 1.90098e-13 -0.238769 82.7636 -0.629107 
-0.0598789 2.06141e-13 3.45848e-13 -0.189157 80.8321 -0.50196 -0.0501251 2.97942e-13 2.64233e-14 
-0.12726 79.576 -0.406409 -0.0369968 -1.00324e-12 3.34885e-13 -0.0962905 78.7745 -0.338081 
-0.0296649 4.80692e-13 3.56361e-13 -0.0736449 78.2891 -0.284797 -0.0243002 -1.42199e-13 2.78041e-14 
-0.0579091 78.0333 -0.24186 -0.020509 7.8125e-14 1.59338e-13 -0.0459875 77.9473 -0.206044 
-0.0176722 -4.39562e-14 1.1699e-14 -0.036649 77.9879 -0.175415 -0.0154918 -8.69923e-14 3.88935e-13 
-0.0290165 78.1223 -0.148697 -0.0137523 -4.13875e-13 2.75627e-13 -0.0225693 78.3243 -0.125054 
-0.01231 8.18252e-14 1.41241e-14 -0.0169652 78.5719 -0.103935 -0.0110591 -6.76672e-13 3.22752e-13 
-0.0119862 78.8459 -0.0849965 -0.00991959 -3.3361e-13 3.15597e-13 -0.00749777 79.1289 -0.0680475 
-0.00882738 -1.48012e-13 4.98908e-13 -0.00342748 79.4049 -0.0530201 -0.00773009 7.35197e-13 7.32884e-13 
0.000247632 79.6588 -0.0399457 -0.0065845 -1.13074e-12 4.40434e-13 0.00350898 79.8762 -0.0289374 
-0.00535595 1.30451e-13 2.5842e-13 0.00630211 80.0437 -0.0201736 -0.00401919 -2.67936e-13 4.29187e-13 
0.00854214 80.1493 -0.013879 -0.00256026 6.02102e-13 5.86991e-14 0.0101205 80.1825 -0.0103013 
-0.000979139 -9.11957e-13 -3.95313e-13 0.0109143 80.1353 -0.0096825 0.000707269 -2.51387e-14 3.16783e-13 
0.010799 80.0026 -0.0122239 0.00246237 -1.36492e-13 5.43344e-13 0.00966447 79.7833 -0.0180452 
0.00422804 -2.65805e-13 3.09838e-13 0.00743596 79.4807 -0.02714 0.00592437 -2.859e-13 2.44003e-13 
0.00408932 79.1034 -0.0393376 0.00745429 3.71682e-13 1.76086e-13 -0.000284284 78.6655 -0.0542328 
0.00868603 -1.15779e-13 1.80234e-13 -0.0088637 77.9128 -0.081251 0.0161695 -3.5948e-13 5.0058e-14 
-0.0169615 77.3919 -0.102525 0.0161517 7.48811e-14 3.35388e-13 -0.0251851 76.9042 -0.123376 
0.0150281 -2.18442e-13 3.17135e-13 -0.0328788 76.4857 -0.142268 0.0127823 -4.23481e-14 3.37227e-13 
-0.039368 76.1707 -0.15767 0.00950004 1.32959e-13 3.50669e-13 -0.044038 75.9887 -0.168227 
0.00537525 -2.20161e-13 2.78539e-13 -0.04642 75.9612 -0.172924 0.000695959 2.46152e-13 9.57186e-14 
-0.0462592 76.0997 -0.17121 -0.00418579 4.49983e-14 2.43576e-13 -0.0435526 76.4045 -0.163067 
-0.00889549 -1.23116e-13 1.58835e-13 -0.0385489 76.8643 -0.149016 -0.0130818 -4.39249e-14 1.64451e-13 
-0.0317099 77.458 -0.130037 -0.0164579 -2.36637e-13 6.43782e-14 -0.0236427 78.1564 -0.107448 
-0.0188314 4.295e-14 2.76151e-14 -0.015012 78.9255 -0.0827419 -0.0201189 1.98374e-13 1.53115e-13 
-0.00646504 79.7295 -0.0574126 -0.0203389 9.57602e-14 8.02301e-14 -0.00574534 78.1746 -0.0717181 
0.00940109 -2.46598e-13 1.34589e-13 -0.0120237 77.6554 -0.0909475 0.00971358 -1.34504e-13 2.52381e-13 
-0.0185737 77.1519 -0.110342 0.00941825 -2.49117e-13 2.75169e-13 -0.0249538 76.6995 -0.12858 
0.00844031 -3.13635e-13 3.97581e-13 -0.0306248 76.3334 -0.144259 0.0067983 -4.54567e-14 2.64337e-13 
-0.0350738 76.0854 -0.156072 0.00457475 1.06269e-13 2.30392e-13 -0.0378695 75.9809 -0.162946 
0.00191746 -9.74197e-14 1.83339e-13 -0.0387242 76.0365 -0.164172 -0.000974981 6.24518e-14 1.91798e-13 
-0.0375352 76.2581 -0.159495 -0.00387603 -3.06685e-13 2.966e-13 -0.0343999 76.6401 -0.149138 
-0.00655934 -1.37633e-14 2.47278e-13 -0.0296003 77.1663 -0.133779 -0.00882693 -2.79738e-13 2.80411e-13 
-0.0235615 77.8118 -0.114454 -0.0105319 9.62216e-14 1.74014e-13 -0.0167888 78.5448 -0.0924357 
-0.0115929 1.11494e-13 1.56217e-13 -0.00981404 79.3306 -0.0690873 -0.0119926 -1.75526e-13 1.70627e-13 
-0.0030656 80.1338 -0.0456863 -0.0118087 1.45689e-13 2.68626e-13 0.00789184 81.2711 -0.0112787 
-0.0177341 -7.71171e-14 1.34215e-13 0.0132234 81.9582 0.00793697 -0.0158283 -2.67408e-13 2.01346e-13 
0.0172756 82.5772 0.024282 -0.01359 -5.10182e-15 2.48095e-13 0.0200528 83.1163 0.0375388 
-0.0111918 -7.69784e-14 2.74655e-13 0.021642 83.5689 0.0477018 -0.00878169 -7.51456e-14 1.02847e-13 
0.0221893 83.9328 0.0549313 -0.00647788 -1.02177e-13 1.94075e-13 0.0218723 84.2099 0.0595033 
-0.00436599 -9.3244e-14 -1.17076e-14 0.020879 84.4053 0.0617645 -0.00250097 -9.00755e-16 1.31154e-13 
0.0193909 84.5259 0.0620933 -0.000910953 1.04774e-13 -1.51756e-13 0.0175726 84.5803 0.0608694 
0.000397528 -4.33331e-14 3.8706e-15 0.0155649 84.5776 0.058452 0.00143409 4.73032e-15 -4.97154e-14 
0.0134825 84.5273 0.0551654 0.00221937 4.15095e-14 -7.07646e-14 0.0114141 84.4386 0.0512924 
0.00278054 2.59051e-14 -3.63086e-14 0.00942511 84.3203 0.0470706 0.00314783 2.82344e-14 9.91954e-14 
0.0075603 84.1803 0.0426947 0.00335185 -7.08522e-14 6.54299e-14 0.00584763 84.0257 0.0383189 
0.00342174 -1.75656e-13 1.0696e-13 0.00430181 83.8631 0.0340623 0.00338406 6.4909e-15 -4.98063e-14 
0.00292753 83.6978 0.0300138 0.00326212 -3.16353e-14 -1.1869e-14 0.00172234 83.5346 0.0262373 
0.00307577 -3.30395e-14 2.10836e-14 0.000679007 83.3775 0.0227768 0.00284148 6.41657e-14 7.47694e-14 
-0.000212574 83.2297 0.019661 0.00257255 -1.0019e-13 -9.86993e-15 -0.000963931 83.0941 0.0169066 
0.0022794 1.36045e-13 -5.34215e-14 -0.00158689 82.9727 0.0145224 0.00197001 -2.12976e-14 -2.3424e-14 
-0.00209275 82.8674 0.0125109 0.00165025 -1.96167e-14 3.83688e-14 -0.00249177 82.7796 0.0108714 
0.00132429 -5.13348e-15 -1.0098e-14 -0.00279267 82.7103 0.00960133 0.000994899 3.18435e-14 2.39418e-14 
-0.00300249 82.6603 0.00869721 0.000663822 3.69942e-14 -3.8448e-15 -0.00312631 82.6301 0.00815612 
0.000332029 -1.86771e-14 -3.78577e-14 0.00290367 80.9039 -0.023878 -0.0112972 1.5335e-13 2.01263e-13 
0.00782762 81.6158 -0.0044801 -0.0102388 -5.10231e-13 2.24653e-13 0.0117982 82.2685 0.0125456 
-0.00890597 7.65846e-14 3.09464e-13 0.01473 82.8473 0.0268397 -0.00743435 2.35392e-13 3.92263e-13 
0.0166617 83.3429 0.038283 -0.00592309 -2.23169e-13 2.47202e-13 0.0176827 83.751 0.0469254 
-0.00445511 -8.403e-15 2.0413e-13 0.0179202 84.0716 0.0529494 -0.00309224 -6.9042e-14 1.67064e-13 
0.0175192 84.308 0.0566272 -0.00187588 -4.52798e-14 1.27951e-13 0.0166272 84.4661 0.0582826 
-0.000829118 1.16468e-13 3.88231e-15 0.0153833 84.5538 0.0582591 4.00175e-05 7.83115e-14 -8.0453e-14 
0.0139107 84.5799 0.0568956 0.000735014 -4.80351e-14 8.88178e-16 0.0123135 84.5536 0.054509 
0.00126739 -2.07436e-13 1.30763e-14 0.0106753 84.4844 0.0513837 0.00165366 -1.32781e-13 1.47625e-14 
0.00906004 84.3811 0.0477661 0.00191284 -5.14623e-14 1.74731e-13 0.00751424 84.2522 0.0438635 
0.00206458 -4.04234e-14 7.35644e-14 0.00606939 84.1051 0.039845 0.00212783 -5.10876e-15 1.40517e-13 
0.00474485 83.9466 0.0358454 0.00211998 -1.28349e-13 4.51843e-14 0.00355045 83.7828 0.0319686 
0.00205641 -5.61808e-14 4.11875e-14 0.00248899 83.6187 0.0282929 0.00195028 4.94882e-14 -1.54191e-14 
0.00155824 83.4587 0.024875 0.00181253 -8.00818e-14 7.63703e-14 0.000752691 83.3063 0.0217545 
0.00165201 -4.84335e-14 4.96408e-14 6.48954e-05 83.1647 0.0189577 0.0014757 5.88887e-14 -2.26629e-14 
-0.000513488 83.0363 0.0165008 0.00128892 -1.10174e-13 -1.66035e-14 -0.0009909 82.923 0.0143928 
0.0010956 1.81704e-14 2.84295e-14 -0.00137531 82.8265 0.0126375 0.000898525 6.86864e-15 2.01965e-15 
-0.00167379 82.748 0.0112357 0.000699546 2.1223e-14 2.93459e-14 -0.00189228 82.6884 0.0101866 
0.000499791 -1.76569e-14 -2.52749e-15 -0.00203535 82.6483 0.00948841 0.000299848 3.71586e-14 4.82427e-15 
-0.0021061 82.6281 0.00913976 9.99378e-05 -3.83718e-14 -1.70367e-14 0.00700768 82.5029 -0.00110703 
8.24712e-05 6.51492e-15 3.49087e-14 0.036181 82.3512 -0.0015789 4.74091e-05 2.35262e-15 -1.00519e-14 
0.0818294 82.1683 -0.00138309 5.44865e-05 -1.84716e-15 2.87661e-15 0.141093 81.9591 -0.00118772 
5.49131e-05 1.43476e-14 3.15459e-15 0.212028 81.728 -0.00102104 5.48764e-05 -4.52837e-16 1.15012e-14 
0.293006 81.4794 -0.0008762 5.36496e-05 1.09853e-14 -1.3713e-14 0.382618 81.2168 -0.000745163 
5.12587e-05 -7.84784e-15 1.31232e-14 0.479593 80.9439 -0.000619787 4.77841e-05 8.90586e-15 3.24523e-15 
0.582712 80.6638 -0.000492844 4.33398e-05 -8.95128e-15 1.04617e-14 0.690738 80.3799 -0.000358301 
3.80991e-05 -2.03214e-15 -4.38235e-15 0.802358 80.0953 -0.000211677 3.2276e-05 -1.04935e-14 -5.04631e-15 
0.916133 79.8133 -5.02931e-05 2.61204e-05 -5.9409e-15 4.26915e-15 1.03048 79.5373 0.000126566 
1.99066e-05 3.92576e-15 -6.0789e-15 1.14365 79.2707 0.000317592 1.39155e-05 3.70724e-15 -1.73516e-15 
1.25375 79.0171 0.000519459 8.44148e-06 8.35148e-15 6.81096e-15 0.00322528 82.5696 0.00173238 
-3.12674e-05 -1.26613e-14 1.28179e-14 0.0235823 82.4355 -6.15323e-06 7.63925e-05 -1.98867e-15 1.18794e-14 
0.0609873 82.2674 -8.17158e-05 5.47621e-05 -2.10644e-14 -5.03243e-15 0.113131 82.0705 -8.96433e-05 
5.23453e-05 -3.11457e-15 -4.21885e-15 0.17795 81.8496 -9.38199e-05 4.80368e-05 7.61904e-15 -3.70017e-15 
0.253656 81.6091 -0.000101122 4.47439e-05 4.25685e-15 1.69535e-14 0.338723 81.3528 -0.000109685 
4.21655e-05 -2.72677e-15 8.7326e-15 0.431804 81.0845 -0.000118236 4.02858e-05 1.15175e-15 -1.49273e-14 
0.531645 80.8074 -0.000125421 3.90275e-05 -4.62368e-15 9.26342e-16 0.637012 80.5249 -0.000130083 
3.82686e-05 -1.25794e-14 -3.13985e-15 0.746626 80.2401 -0.000131288 3.78603e-05 -4.75634e-15 -5.21284e-15 
0.859106 79.9562 -0.000128384 3.76309e-05 -5.01843e-15 -1.24831e-14 0.97294 79.6766 -0.000121038 
3.73971e-05 -9.13681e-15 8.55739e-15 1.08646 79.4046 -0.000109263 3.69723e-05 -7.62831e-15 -1.334e-15 
1.19786 79.1438 -9.34147e-05 3.61876e-05 9.15678e-15 1.35499e-14 1.30519 78.8978 -7.43317e-05 
3.48357e-05 5.37334e-15 -6.4948e-15 1.45711 78.562 0.000939489 -2.73411e-07 -4.84329e-15 -5.22542e-15 
1.54614 78.3676 0.00113977 -2.95625e-06 -2.07782e-14 6.88967e-15 1.62393 78.2001 0.00132345 
-4.48939e-06 7.41087e-15 -3.17238e-15 1.68863 78.0622 0.00148236 -4.89107e-06 -6.78099e-15 -1.26405e-14 
1.73866 77.9566 0.001609 -4.29341e-06 -9.26249e-15 1.02672e-14 1.77274 77.885 0.00169717 
-2.91094e-06 -3.24736e-14 -1.77871e-14 1.79001 77.8489 0.00174241 -1.02768e-06 1.24173e-14 3.1632e-14 
1.79001 77.8489 0.00174241 1.02768e-06 -4.04313e-15 2.85811e-14 1.77274 77.885 0.00169717 
2.91094e-06 -1.25731e-14 -1.35907e-14 1.73866 77.9566 0.001609 4.29341e-06 -2.49212e-15 -3.84481e-14 
1.68863 78.0622 0.00148236 4.89107e-06 -6.68803e-15 -6.23503e-15 1.62393 78.2001 0.00132345 
4.48939e-06 1.99157e-14 1.48586e-14 1.54614 78.3676 0.00113977 2.95625e-06 1.90741e-14 -2.32238e-14 
1.45711 78.562 0.000939489 2.73411e-07 -1.01228e-14 1.59438e-14 1.40661 78.6696 -5.43586e-05 
3.30123e-05 -1.71374e-14 3.19536e-15 1.50005 78.4628 -3.19141e-05 3.02704e-05 -2.24296e-14 -6.45404e-15 
1.58324 78.2812 -9.57642e-06 2.67876e-05 -1.65019e-14 -4.84595e-15 1.65429 78.1281 1.11908e-05 
2.25334e-05 -1.30243e-14 -2.69524e-14 1.7115 78.0059 2.90144e-05 1.75862e-05 -1.77217e-14 4.34917e-14 
1.75344 77.9169 4.2698e-05 1.20665e-05 -2.17688e-14 -2.01761e-14 1.77904 77.8629 5.13061e-05 
6.13925e-06 -3.19559e-14 1.25362e-14 1.78765 77.8448 5.42435e-05 -9.6494e-16 -2.29797e-16 -1.9407e-14 
1.77904 77.8629 5.13061e-05 -6.13926e-06 -6.96677e-15 3.77125e-14 1.75344 77.9169 4.2698e-05 
-1.20665e-05 -1.60827e-14 5.27356e-16 1.7115 78.0059 2.90144e-05 -1.75862e-05 -8.35288e-15 2.87431e-14 
1.65429 78.1281 1.11908e-05 -2.25334e-05 1.37391e-14 4.99644e-14 1.58324 78.2812 -9.57642e-06 
-2.67876e-05 1.5996e-14 2.6648e-14 1.50005 78.4628 -3.19141e-05 -3.02704e-05 2.82903e-15 -1.0868e-15 
1.40661 78.6696 -5.43586e-05 -3.30123e-05 -2.66783e-14 1.15932e-14 1.25375 79.0171 0.000519459 
-8.44148e-06 2.36811e-14 2.36746e-14 1.14365 79.2707 0.000317592 -1.39155e-05 -2.70267e-14 1.34398e-15 
1.03048 79.5373 0.000126566 -1.99066e-05 -2.56965e-14 -1.27637e-14 0.916133 79.8133 -5.02931e-05 
-2.61204e-05 6.41699e-14 7.26845e-14 0.802358 80.0953 -0.000211677 -3.2276e-05 3.17728e-15 3.25477e-15 
0.690738 80.3799 -0.000358301 -3.80991e-05 4.85174e-14 -2.07616e-14 0.582712 80.6638 -0.000492844 
-4.33398e-05 4.40601e-14 5.04713e-14 0.479593 80.9439 -0.000619787 -4.77841e-05 1.08665e-14 2.09897e-14 
0.382618 81.2168 -0.000745163 -5.12587e-05 5.88091e-14 9.7769e-15 0.293006 81.4794 -0.0008762 
-5.36496e-05 -1.21184e-14 -4.83962e-14 0.212028 81.728 -0.00102104 -5.48764e-05 -6.75098e-14 5.31259e-15 
0.141093 81.9591 -0.00118772 -5.49131e-05 4.88493e-15 1.04395e-13 0.0818294 82.1683 -0.00138309 
-5.44865e-05 -1.49221e-14 2.47753e-14 0.036181 82.3512 -0.0015789 -4.74091e-05 -1.31085e-14 -1.0532e-13 
0.00700768 82.5029 -0.00110703 -8.24712e-05 1.51987e-14 9.94274e-14 1.30519 78.8978 -7.43317e-05 
-3.48357e-05 -2.25132e-14 2.1841e-14 1.19786 79.1438 -9.34147e-05 -3.61876e-05 1.14443e-14 6.57009e-14 
1.08646 79.4046 -0.000109263 -3.69723e-05 -2.14098e-14 -7.02754e-14 0.97294 79.6766 -0.000121038 
-3.73971e-05 -1.43296e-14 -2.80106e-14 0.859106 79.9562 -0.000128384 -3.76309e-05 1.21959e-14 -5.77802e-14 
0.746626 80.2401 -0.000131288 -3.78603e-05 9.57593e-15 7.75057e-14 0.637012 80.5249 -0.000130083 
-3.82686e-05 3.80521e-14 -6.25801e-14 0.531645 80.8074 -0.000125421 -3.90275e-05 6.0128e-14 -1.4138e-15 
0.431804 81.0845 -0.000118236 -4.02858e-05 5.42025e-14 -9.08995e-16 0.338723 81.3528 -0.000109685 
-4.21655e-05 3.00736e-14 -6.59178e-14 0.253656 81.6091 -0.000101122 -4.47439e-05 -3.37487e-14 -8.13134e-14 
0.17795 81.8496 -9.38199e-05 -4.80368e-05 -2.77282e-14 5.5133e-14 0.113131 82.0705 -8.96433e-05 
-5.23453e-05 4.73976e-14 -9.29569e-14 0.0609873 82.2674 -8.17158e-05 -5.47621e-05 -2.67644e-14 1.36534e-13 
0.0235823 82.4355 -6.15323e-06 -7.63925e-05 -3.18605e-14 -7.08149e-14 0.00322528 82.5696 0.00173238 
3.12674e-05 6.19893e-14 2.43468e-14 -0.00312631 82.6301 0.00815612 -0.000332029 -1.41868e-14 -1.41777e-14 
-0.00300249 82.6603 0.00869721 -0.000663822 -4.8825e-14 -3.02395e-14 -0.00279267 82.7103 0.00960133 
-0.000994899 2.32086e-14 8.58363e-15 -0.00249177 82.7796 0.0108714 -0.00132429 2.94374e-14 -3.48501e-14 
-0.00209275 82.8674 0.0125109 -0.00165025 6.93319e-14 -3.80501e-14 -0.00158689 82.9727 0.0145224 
-0.00197001 -8.53948e-14 2.56591e-14 -0.000963931 83.0941 0.0169066 -0.0022794 2.82508e-14 -1.18501e-13 
-0.000212574 83.2297 0.019661 -0.00257255 2.90809e-14 1.53365e-14 0.000679007 83.3775 0.0227768 
-0.00284148 1.79527e-14 5.46828e-15 0.00172234 83.5346 0.0262373 -0.00307577 -6.44281e-14 -5.58193e-14 
0.00292753 83.6978 0.0300138 -0.00326212 -2.53144e-14 9.8055e-14 0.00430181 83.8631 0.0340623 
-0.00338406 -3.23179e-14 -3.36107e-14 0.00584763 84.0257 0.0383189 -0.00342174 5.63828e-15 8.96392e-14 
0.0075603 84.1803 0.0426947 -0.00335185 1.49147e-13 -7.31993e-14 0.00942511 84.3203 0.0470706 
-0.00314783 -4.96526e-14 6.9336e-14 0.0114141 84.4386 0.0512924 -0.00278054 8.3919e-14 1.52562e-13 
0.0134825 84.5273 0.0551654 -0.00221937 7.88866e-16 -7.05959e-14 0.0155649 84.5776 0.058452 
-0.00143409 -3.35785e-14 -6.64954e-14 0.0175726 84.5803 0.0608694 -0.000397528 3.19518e-13 3.02583e-14 
0.0193909 84.5259 0.0620933 0.000910953 -1.79617e-13 -2.17055e-13 0.020879 84.4053 0.0617645 
0.00250097 2.64793e-13 -1.78886e-13 0.0218723 84.2099 0.0595033 0.00436599 4.72417e-14 -1.6971e-13 
0.0221893 83.9328 0.0549313 0.00647788 -1.5047e-14 -5.30886e-14 0.021642 83.5689 0.0477018 
0.00878169 -1.49986e-13 -5.58338e-14 0.0200528 83.1163 0.0375388 0.0111918 1.03161e-13 -1.59293e-13 
0.0172756 82.5772 0.024282 0.01359 -3.2304e-14 1.09667e-13 0.0132234 81.9582 0.00793697 
0.0158283 9.04121e-14 5.53887e-14 0.00789184 81.2711 -0.0112787 0.0177341 2.18905e-14 -2.09226e-13 
-0.0021061 82.6281 0.00913976 -9.99378e-05 5.89211e-14 1.50101e-13 -0.00203535 82.6483 0.00948841 
-0.000299848 -1.08091e-13 1.01089e-13 -0.00189228 82.6884 0.0101866 -0.000499791 1.27879e-13 -3.41526e-14 
-0.00167379 82.748 0.0112357 -0.000699546 -3.92932e-14 -7.14077e-14 -0.00137531 82.8265 0.0126375 
-0.000898525 -5.03868e-14 -7.1589e-14 -0.0009909 82.923 0.0143928 -0.0010956 -2.47823e-14 -2.73115e-14 
-0.000513488 83.0363 0.0165008 -0.00128892 6.33538e-14 8.96978e-14 6.48954e-05 83.1647 0.0189577 
-0.0014757 -2.27587e-14 -7.08986e-14 0.000752691 83.3063 0.0217545 -0.00165201 -1.30295e-14 1.35435e-13 
0.00155824 83.4587 0.024875 -0.00181253 7.4633e-14 -5.20356e-14 0.00248899 83.6187 0.0282929 
-0.00195028 -3.29875e-14 -1.03952e-13 0.00355045 83.7828 0.0319686 -0.00205641 -9.01241e-14 1.05896e-14 
0.00474485 83.9466 0.0358454 -0.00211998 -8.82176e-14 -1.08516e-14 0.00606939 84.1051 0.039845 
-0.00212783 -1.04942e-13 3.5378e-14 0.00751424 84.2522 0.0438635 -0.00206458 1.21118e-14 -8.11946e-14 
0.00906004 84.3811 0.0477661 -0.00191284 9.52858e-14 2.18854e-13 0.0106753 84.4844 0.0513837 
-0.00165366 -1.33224e-13 1.24635e-13 0.0123135 84.5536 0.054509 -0.00126739 1.65705e-13 -8.54108e-14 
0.0139107 84.5799 0.0568956 -0.000735014 -9.74504e-14 -4.108e-14 0.0153833 84.5538 0.0582591 
-4.00175e-05 5.18296e-14 -1.55426e-13 0.0166272 84.4661 0.0582826 0.000829118 -3.72568e-13 -1.20961e-13 
0.0175192 84.308 0.0566272 0.00187588 1.66799e-13 -3.60901e-13 0.0179202 84.0716 0.0529494 
0.00309224 -2.4653e-13 -3.74421e-13 0.0176827 83.751 0.0469254 0.00445511 -1.69437e-13 -1.58642e-13 
0.0166617 83.3429 0.038283 0.00592309 3.8948e-14 -2.02021e-13 0.01473 82.8473 0.0268397 
0.00743435 -3.82749e-14 4.6828e-14 0.0117982 82.2685 0.0125456 0.00890597 3.51656e-13 3.75455e-14 
0.00782762 81.6158 -0.0044801 0.0102388 2.51403e-13 -1.1352e-13 0.00290367 80.9039 -0.023878 
0.0112972 1.32998e-13 -1.28414e-13 -0.00646504 79.7295 -0.0574126 0.0203389 -1.82354e-13 1.34161e-13 
-0.015012 78.9255 -0.0827419 0.0201189 -1.76265e-14 2.83099e-13 -0.0236427 78.1564 -0.107448 
0.0188314 -2.41886e-13 4.81734e-13 -0.0317099 77.458 -0.130037 0.0164579 3.10604e-13 2.98544e-13 
-0.0385489 76.8643 -0.149016 0.0130818 5.00277e-14 3.13502e-13 -0.0435526 76.4045 -0.163067 
0.00889549 -1.48878e-13 2.04446e-13 -0.0462592 76.0997 -0.17121 0.00418579 2.25078e-13 2.06403e-13 
-0.04642 75.9612 -0.172924 -0.000695959 2.55128e-14 4.38434e-14 -0.044038 75.9887 -0.168227 
-0.00537525 -1.7827e-13 2.83844e-13 -0.039368 76.1707 -0.15767 -0.00950004 1.81861e-13 8.59746e-14 
-0.0328788 76.4857 -0.142268 -0.0127823 -2.84469e-13 4.99453e-14 -0.0251851 76.9042 -0.123376 
-0.0150281 5.3348e-14 1.40435e-13 -0.0169615 77.3919 -0.102525 -0.0161517 1.26784e-13 2.3489e-14 
-0.0088637 77.9128 -0.081251 -0.0161695 4.36524e-13 3.04525e-13 -0.0030656 80.1338 -0.0456863 
0.0118087 -3.75033e-13 4.1514e-13 -0.00981404 79.3306 -0.0690873 0.0119926 2.06113e-13 3.01441e-13 
-0.0167888 78.5448 -0.0924357 0.0115929 1.87066e-13 2.60424e-13 -0.0235615 77.8118 -0.114454 
0.0105319 -3.98556e-13 3.42257e-13 -0.0296003 77.1663 -0.133779 0.00882693 1.76324e-13 1.43569e-13 
-0.0343999 76.6401 -0.149138 0.00655934 1.45849e-13 3.4743e-14 -0.0375352 76.2581 -0.159495 
0.00387603 -4.74636e-13 3.64465e-14 -0.0387242 76.0365 -0.164172 0.000974981 7.19335e-13 1.12098e-13 
-0.0378695 75.9809 -0.162946 -0.00191746 -3.32469e-13 -1.02768e-13 -0.0350738 76.0854 -0.156072 
-0.00457475 -2.58286e-13 -5.50497e-14 -0.0306248 76.3334 -0.144259 -0.0067983 -1.00175e-12 -2.7825e-15 
-0.0249538 76.6995 -0.12858 -0.00844031 5.77836e-14 2.73382e-13 -0.0185737 77.1519 -0.110342 
-0.00941825 2.06734e-13 2.01485e-13 -0.0120237 77.6554 -0.0909475 -0.00971358 -1.38538e-13 6.37268e-14 
-0.00574534 78.1746 -0.0717181 -0.00940109 6.35741e-14 2.48282e-13 0.00444366 78.8961 -0.0437946 
-0.0131722 4.82779e-13 2.33747e-13 0.00915514 79.3084 -0.0292638 -0.0109607 -2.62139e-13 2.22371e-13 
0.0125025 79.6515 -0.0179631 -0.00837308 3.30725e-15 4.67195e-13 0.0144721 79.9141 -0.0101622 
-0.00557859 -2.97013e-13 7.1815e-13 0.0151349 80.0904 -0.00592268 -0.00272121 -3.25625e-14 1.84772e-13 
0.014618 80.1795 -0.00514682 8.6213e-05 2.59913e-13 3.32738e-13 0.0130761 80.1847 -0.00762899 
0.00276473 -5.14315e-14 -1.14653e-13 0.0106703 80.1127 -0.0131031 0.00526799 9.57023e-13 6.38855e-13 
0.0075488 79.973 -0.0212849 0.0075789 2.45271e-13 -1.42252e-13 0.00383417 79.7769 -0.0319064 
0.00970524 -6.76808e-13 -4.09212e-13 -0.000386466 79.5374 -0.0447438 0.0116752 -1.29976e-13 -2.73264e-13 
-0.00506847 79.2683 -0.0596394 0.0135336 3.36736e-13 -1.64771e-13 -0.0102162 78.9844 -0.0765199 
0.0153394 -4.90597e-13 -2.69737e-13 -0.0158909 78.7011 -0.0954149 0.0171652 -9.1956e-14 3.19736e-13 
-0.0222232 78.4351 -0.116479 0.0190986 -5.59185e-13 4.5082e-13 -0.0294345 78.2044 -0.140022 
0.021246 -8.61e-14 4.10403e-13 -0.0378708 78.0292 -0.16656 0.0237417 4.96711e-13 -2.17638e-13 
-0.0480787 77.933 -0.196893 0.0267593 -8.80848e-14 -1.39775e-13 -0.0608721 77.9446 -0.232235 
0.0305411 4.30837e-13 5.5163e-13 -0.0777614 78.1004 -0.274521 0.0354063 -9.41087e-14 2.25079e-13 
-0.100471 78.4494 -0.326564 0.0419264 -6.56419e-13 1.02834e-14 -0.135789 79.0593 -0.394385 
0.0505288 7.12451e-14 -1.33588e-13 -0.180505 80.0346 -0.483115 0.0636351 -4.49821e-13 6.55066e-14 
-0.301601 81.522 -0.629598 0.0771194 4.75717e-13 3.96419e-14 -0.323617 83.8335 -0.797099 
0.109302 -5.51684e-13 2.81671e-13 -1.36076 87.2839 -1.46415 0.0722145 7.60073e-13 4.4155e-13 
0.265567 92.2641 -1.87748 0.615942 -9.1982e-14 -1.76914e-13 -5.90817 115.809 -2.64403 
1.0093 -5.47673e-13 -2.68327e-13 -0.000284284 78.6655 -0.0542328 -0.00868603 3.7589e-13 2.38981e-13 
0.00408932 79.1034 -0.0393376 -0.00745429 4.61207e-13 1.51162e-13 0.00743596 79.4807 -0.02714 
-0.00592437 3.54525e-13 4.63473e-13 0.00966447 79.7833 -0.0180452 -0.00422804 3.91815e-13 7.79325e-13 
0.010799 80.0026 -0.0122239 -0.00246237 2.02871e-13 5.56795e-13 0.0109143 80.1353 -0.0096825 
-0.000707269 -1.39492e-13 4.07001e-13 0.0101205 80.1825 -0.0103013 0.000979139 -3.79126e-13 2.80185e-13 
0.00854214 80.1493 -0.013879 0.00256026 9.47419e-15 4.11212e-13 0.00630211 80.0437 -0.0201736 
0.00401919 -1.08417e-13 8.37481e-14 0.00350898 79.8762 -0.0289374 0.00535595 5.32366e-13 -2.08088e-13 
0.000247632 79.6588 -0.0399457 0.0065845 -4.82074e-13 -1.29384e-13 -0.00342748 79.4049 -0.0530201 
0.00773009 -3.24185e-14 1.78243e-14 -0.00749777 79.1289 -0.0680475 0.00882738 3.87393e-13 -2.70443e-15 
-0.0119862 78.8459 -0.0849965 0.00991959 7.56794e-13 4.61589e-13 -0.0169652 78.5719 -0.103935 
0.0110591 -1.02019e-13 4.17628e-13 -0.0225693 78.3243 -0.125054 0.01231 -5.44025e-13 4.23179e-13 
-0.0290165 78.1223 -0.148697 0.0137523 6.47991e-13 2.38906e-14 -0.036649 77.9879 -0.175415 
0.0154918 4.61623e-13 -1.73563e-13 -0.0459875 77.9473 -0.206044 0.0176722 8.70978e-13 3.45148e-13 
-0.0579091 78.0333 -0.24186 0.020509 -1.67085e-13 4.37837e-13 -0.0736449 78.2891 -0.284797 
0.0243002 -3.73295e-13 1.13971e-13 -0.0962905 78.7745 -0.338081 0.0296649 -1.71335e-13 3.67067e-14 
-0.12726 79.576 -0.406409 0.0369968 2.85993e-13 4.23134e-14 -0.189157 80.8321 -0.50196 
0.0501251 1.00005e-12 2.97956e-13 -0.238769 82.7636 -0.629107 0.0598789 2.20379e-14 2.02921e-13 
-0.61725 85.8436 -0.898175 0.131244 3.31901e-13 5.52225e-13 -0.0269494 90.9417 -1.03703 
-0.0583061 3.11307e-13 1.37113e-14 -6.9155 98.3539 -4.27317 1.55837 4.15223e-13 -5.36071e-13 
19.1958 152.461 6.95631 -19.86 3.02425e-13 -2.44249e-13 30.2327 100.466 0.31056 
-22.7555 5.41039e-13 1.86517e-13 28.1653 92.9874 0.897055 -19.1502 1.11932e-13 -3.1411e-13 
25.9109 86.2012 0.168524 -16.5595 -1.12647e-12 -4.27561e-13 25.0739 83.3411 0.238718 
-14.6412 -1.81223e-13 3.65298e-13 24.4362 81.2677 0.18649 -13.0696 7.81535e-13 3.71154e-13 
23.9978 79.8242 0.168459 -11.7311 1.14752e-14 -8.38322e-14 23.661 78.7203 0.149943 
-10.557 1.60586e-13 -3.39492e-13 23.3943 77.8448 0.136268 -9.50637 -7.26536e-13 1.85171e-13 
23.1743 77.1231 0.124725 -8.55377 -1.75732e-13 1.34961e-14 22.988 76.5116 0.115006 
-7.68162 -7.98905e-13 -1.16181e-13 22.8266 75.9821 0.10659 -6.87736 -4.67379e-13 -6.70184e-13 
22.6846 75.5162 0.0992109 -6.13156 2.32699e-13 5.61681e-13 22.5584 75.1022 0.0926703 
-5.43684 -5.01268e-13 -3.87745e-14 22.4457 74.7324 0.0868411 -4.78722 -2.46458e-13 3.58338e-13 
22.3451 74.4021 0.0816402 -4.17757 -3.44618e-13 2.90104e-13 42.7562 134.588 7.93514 
-33.7254 6.49258e-13 1.95399e-13 28.1143 94.0006 -0.285255 -20.3809 9.3478e-13 -3.41838e-13 
26.8518 89.0486 0.457822 -17.692 -1.65729e-13 -1.91291e-13 25.4286 84.5587 0.20385 
-15.5199 2.74607e-13 -3.82777e-13 24.7213 82.1971 0.207631 -13.811 1.85615e-13 7.64749e-13 
24.1976 80.4843 0.174541 -12.3717 1.39874e-12 -3.4843e-13 23.8174 79.2346 0.157089 
-11.1239 -2.39544e-13 4.94604e-14 23.5199 78.2583 0.14172 -10.0166 -6.52985e-13 1.1368e-13 
23.2791 77.4678 0.129504 -9.01822 2.61249e-14 -2.56468e-13 23.0776 76.8062 0.119137 
-8.10804 4.36002e-13 6.6102e-13 22.9047 76.2389 0.110241 -7.2714 -4.79266e-13 -5.71133e-13 
22.7537 75.7433 0.102459 -6.49754 -2.63055e-13 -1.01169e-14 22.62 75.3047 0.095577 
-5.77819 6.46811e-13 4.62495e-13 22.5009 74.9136 0.0894433 -5.10676 2.40898e-13 -6.58404e-13 
22.3944 74.5641 0.0839606 -4.47776 1.15399e-13 7.80345e-13 22.2994 74.2525 0.0790681 
-3.8864 1.22409e-12 -2.89688e-13 22.1768 73.8497 0.0729387 -3.05834 2.41903e-14 1.13882e-13 
22.1087 73.6262 0.0694092 -2.5407 5.91422e-13 5.96638e-13 22.0514 73.4384 0.0664366 
-2.04641 3.00065e-13 -6.5494e-13 22.0053 73.2869 0.0640325 -1.5714 2.86308e-13 -1.28996e-13 
21.9704 73.1724 0.0622117 -1.11152 3.77172e-14 5.02221e-13 21.947 73.0957 0.0609884 
-0.66253 4.2216e-13 -2.18899e-13 21.9352 73.0572 0.0603738 -0.220111 3.43941e-13 -8.59754e-14 
21.9352 73.0572 0.0603738 0.220111 -6.23182e-14 -2.00517e-13 21.947 73.0957 0.0609884 
0.66253 -4.72148e-14 1.76408e-13 21.9704 73.1724 0.0622117 1.11152 -6.09404e-13 -3.66613e-13 
22.0053 73.2869 0.0640325 1.5714 -4.41914e-13 3.13373e-14 22.0514 73.4384 0.0664366 
2.04641 -5.58829e-13 6.09946e-13 22.1087 73.6262 0.0694092 2.5407 -1.04878e-12 -4.39358e-13 
22.1768 73.8497 0.0729387 3.05834 8.90377e-14 2.12439e-13 22.2153 73.9764 0.0747239 
-3.32727 -2.42476e-13 -1.66634e-13 22.1418 73.7352 0.07092 -2.79644 -9.37283e-13 -1.17543e-13 
22.0791 73.5295 0.0676657 -2.29098 7.87894e-14 7.32929e-13 22.0274 73.3598 0.0649715 
-1.80683 6.08253e-13 -8.09018e-13 21.9868 73.2267 0.0628526 -1.33989 1.40665e-12 4.84828e-13 
21.9577 73.131 0.0613248 -0.885974 1.97492e-12 -1.87619e-13 21.9401 73.0732 0.0604021 
-0.440793 6.48414e-13 -1.46049e-13 21.9342 73.054 0.0600934 -4.4348e-12 -8.91341e-13 7.23185e-13 
21.9401 73.0732 0.0604021 0.440793 -7.31776e-14 -4.60962e-13 21.9577 73.131 0.0613248 
0.885974 1.60878e-14 1.21427e-13 21.9868 73.2267 0.0628526 1.33989 2.67755e-14 -7.33003e-13 
22.0274 73.3598 0.0649715 1.80683 9.635e-14 7.26164e-13 22.0791 73.5295 0.0676657 
2.29098 -9.05283e-13 -9.278e-13 22.1418 73.7352 0.07092 2.79644 4.77439e-13 6.27397e-13 
22.2153 73.9764 0.0747239 3.32727 -9.99294e-13 8.70345e-14 22.3451 74.4021 0.0816402 
4.17757 1.25071e-12 3.82402e-13 22.4457 74.7324 0.0868411 4.78722 -1.4576e-14 -9.62131e-13 
22.5584 75.1022 0.0926703 5.43684 2.51305e-13 3.66606e-13 22.6846 75.5162 0.0992109 
6.13156 -2.62145e-13 3.03072e-13 22.8266 75.9821 0.10659 6.87736 5.06552e-13 1.03023e-13 
22.988 76.5116 0.115006 7.68162 7.07974e-13 -2.9265e-13 23.1743 77.1231 0.124725 
8.55377 -7.24585e-13 1.73091e-14 23.3943 77.8448 0.136268 9.50637 -1.3488e-13 -4.78298e-14 
23.661 78.7203 0.149943 10.557 -7.19909e-13 -5.13971e-13 23.9978 79.8242 0.168459 
11.7311 -8.05606e-15 2.79585e-13 24.4362 81.2677 0.18649 13.0696 -1.7541e-13 4.27505e-13 
25.0739 83.3411 0.238718 14.6412 -1.78219e-13 2.37754e-13 25.9109 86.2012 0.168524 
16.5595 4.59775e-13 3.88342e-13 28.1653 92.9874 0.897055 19.1502 -2.28592e-13 -6.60055e-13 
30.2327 100.466 0.31056 22.7555 -3.815e-13 1.53211e-13 22.2994 74.2525 0.0790681 
3.8864 4.33207e-13 3.1072e-13 22.3944 74.5641 0.0839606 4.47776 4.16289e-13 -8.11049e-13 
22.5009 74.9136 0.0894433 5.10676 -1.233e-12 4.30572e-13 22.62 75.3047 0.095577 
5.77819 -7.41612e-14 -2.14079e-13 22.7537 75.7433 0.102459 6.49754 5.21593e-13 1.1828e-13 
22.9047 76.2389 0.110241 7.2714 8.75609e-13 -9.87405e-15 23.0776 76.8062 0.119137 
8.10804 1.29295e-12 -2.53915e-13 23.2791 77.4678 0.129504 9.01822 -4.28435e-13 2.23745e-13 
23.5199 78.2583 0.14172 10.0166 -9.42087e-13 -3.37064e-13 23.8174 79.2346 0.157089 
11.1239 -9.24073e-13 3.8157e-13 24.1976 80.4843 0.174541 12.3717 2.66162e-13 -4.14904e-13 
24.7213 82.1971 0.207631 13.811 -5.52322e-13 4.84196e-13 25.4286 84.5587 0.20385 
15.5199 3.42358e-13 1.34698e-13 26.8518 89.0486 0.457822 17.692 7.13034e-13 -1.70475e-13 
28.1143 94.0006 -0.285255 20.3809 -1.25944e-12 -1.56208e-13 42.7562 134.588 7.93514 
33.7254 8.85958e-14 6.30607e-13 -6.33668 89.618 0.00453331 -1.8999 -1.49727e-13 6.06425e-14 
-5.00591 89.2478 0.0162005 -0.444484 7.69385e-14 -8.26249e-14 -3.84202 88.5311 0.0204963 
0.516368 -3.93678e-14 -9.67238e-14 -2.88491 87.6623 0.0202092 1.1106 1.21202e-13 1.3578e-13 
-2.12847 86.7495 0.0178169 1.44744 -1.75845e-13 8.81933e-14 -1.54755 85.847 0.0147284 
1.61049 -4.29125e-13 -1.21552e-13 -1.11098 84.9774 0.0116571 1.6597 2.31544e-13 -8.35026e-14 
-0.788276 84.1464 0.00892313 1.63591 2.21524e-15 1.79991e-13 -0.552517 83.3515 0.00663448 
1.56536 1.57722e-13 6.9297e-14 -0.381277 82.5868 0.00480127 1.46317 8.71065e-14 -2.86923e-14 
-0.256632 81.8461 0.00339865 1.33567 2.15834e-13 6.68562e-15 -0.164875 81.1245 0.00240089 
1.18174 8.06485e-14 -2.10294e-13 -0.0962505 80.4198 0.00179601 0.993189 -2.17847e-13 1.73172e-13 
-0.0450578 79.7336 0.00139014 0.754372 9.3211e-14 -6.3784e-14 -0.0128176 79.0708 -0.00285217 
0.440861 2.99242e-13 -2.6357e-13 -6.97543 89.6008 0.0139897 -2.89927 1.12133e-14 -1.45717e-15 
-5.64919 89.4949 0.01291 -1.14719 -1.45328e-13 -9.76372e-14 -4.41752 88.9117 0.0118143 
0.0506645 3.71717e-13 -3.3043e-14 -3.36617 88.0975 0.00983508 0.820682 -3.53745e-13 1.23798e-13 
-2.51324 87.1971 0.00786386 1.28125 2.16792e-13 -5.33063e-14 -1.84556 86.2864 0.00609345 
1.52813 -2.29775e-13 2.92058e-14 -1.33637 85.4007 0.00461951 1.63251 1.50213e-13 -3.76782e-15 
-0.95568 84.5523 0.00343893 1.64433 9.25371e-14 -1.82042e-14 -0.675238 83.7417 0.00251547 
1.59683 5.34638e-13 4.82357e-14 -0.470609 82.9641 0.001803 1.51047 3.24506e-13 4.56857e-14 
-0.321737 82.2133 0.00125811 1.39588 1.46e-13 -1.8742e-14 -0.212874 81.4834 0.000844945 
1.2556 -3.40977e-13 -1.37203e-13 -0.132341 80.7709 0.000536153 1.08499 -4.26933e-14 8.52929e-14 
-0.0723981 80.0752 0.000282931 0.872137 4.92285e-13 1.53905e-14 -0.0292623 79.4003 -0.000422853 
0.597163 1.38101e-14 -1.25192e-13 -0.00169014 78.7544 -0.0112244 0.230194 2.00881e-13 -5.22117e-14 
-6.7489 88.9689 0.00409879 1.1211 -8.28504e-15 -2.10595e-15 -5.37201 88.6789 0.0159526 
-0.410876 1.46029e-13 -1.02876e-13 -4.15957 88.0544 0.0204284 -1.44169 -1.19849e-13 -6.12626e-14 
-3.15317 87.2912 0.0203151 -2.09669 1.01027e-13 1.07313e-13 -2.34844 86.4989 0.0180802 
-2.48258 2.55625e-13 3.40871e-14 -1.72177 85.7326 0.0151273 -2.6804 -1.02661e-14 1.53727e-14 
-1.24334 85.0161 0.0121666 -2.7474 2.06881e-13 9.41122e-14 -0.883728 84.3557 0.00951453 
-2.72159 -2.04562e-13 -1.40538e-13 -0.616841 83.7489 0.00727506 -2.62622 -1.11447e-13 -4.24244e-14 
-0.420739 83.1894 0.00545428 -2.47335 -9.4045e-14 6.85493e-14 -0.277631 82.67 0.00402364 
-2.26624 7.14568e-14 -4.46952e-14 -0.173544 82.1842 0.002955 -2.00081 1.75936e-13 2.09711e-14 
-0.098033 81.7275 0.00224016 -1.66611 -1.99936e-13 1.439e-13 -0.0441962 81.2986 0.00178809 
-1.24407 1.75084e-13 -8.76105e-14 -0.0106544 80.8998 -0.000604051 -0.708241 3.08469e-14 -1.96261e-13 
-7.40907 88.9159 0.0135484 2.16101 1.66533e-14 -1.00406e-13 -6.03877 88.8845 0.0125778 
0.330448 8.0963e-14 1.77837e-13 -4.75992 88.3871 0.011524 -0.940706 5.13201e-14 -2.95732e-13 
-3.65976 87.6716 0.00959494 -1.77612 -1.67796e-13 2.01644e-13 -2.75817 86.8839 0.00766746 
-2.29164 1.30486e-13 -1.55065e-13 -2.04358 86.1013 0.00593738 -2.58048 1.5854e-13 2.37118e-13 
-1.49067 85.3601 0.00450025 -2.71121 3.89203e-14 -6.97567e-14 -1.07064 84.6734 0.00335302 
-2.73099 -1.01544e-13 -3.17454e-14 -0.756196 84.0421 0.00245908 -2.67015 -9.09411e-14 -6.30676e-14 
-0.523547 83.4613 0.00177173 -2.54613 8.39346e-14 2.62568e-14 -0.352944 82.9239 0.00124687 
-2.36649 3.79757e-14 1.77271e-13 -0.22857 82.4229 0.000848065 -2.13076 1.00006e-13 -2.58345e-13 
-0.138269 81.9527 0.000548037 -1.83142 -3.12771e-13 2.13211e-13 -0.0733962 81.5102 0.000311406 
-1.45395 -1.95868e-13 -1.18072e-13 -0.0288993 81.0961 -0.000138498 -0.976283 1.08732e-13 -9.0962e-14 
-0.00299618 80.7156 -0.00622694 -0.36673 -1.44537e-14 6.49081e-14 -7.61315 86.3375 -0.0358361 
4.26549 3.85709e-13 2.3842e-14 -6.73023 84.4035 -0.0385971 4.77086 -1.48326e-13 9.58955e-15 
-5.74226 82.8226 -0.0363846 4.91885 -6.44693e-14 7.81007e-14 -4.76998 81.5751 -0.0316437 
4.82952 4.67191e-14 -4.70977e-14 -3.8734 80.6159 -0.026166 4.59607 -5.85477e-14 1.16122e-14 
-3.07637 79.8944 -0.0209598 4.28498 6.42823e-14 9.669e-14 -2.3827 79.3628 -0.0164277 
3.94074 -9.94491e-14 -1.50886e-14 -1.78639 78.98 -0.0126796 3.59147 3.88561e-14 1.26555e-13 
-1.27735 78.7118 -0.00967264 3.25386 -3.30109e-14 1.53835e-14 -0.844455 78.5311 -0.00730551 
2.93689 5.61756e-14 -1.05705e-13 -0.477041 78.4164 -0.00546331 2.64463 -8.95456e-14 -5.22776e-14 
-0.165525 78.3512 -0.00403897 2.37803 7.90774e-15 5.31103e-14 0.0984136 78.3225 -0.00294108 
2.13624 -4.24218e-14 -3.59582e-14 0.321875 78.3205 -0.00209534 1.91741 -9.72772e-14 2.67121e-14 
0.510864 78.3375 -0.00144312 1.71919 1.14281e-13 6.58293e-14 0.670452 78.3677 -0.000938985 
1.5391 4.58522e-14 -8.95195e-14 0.804916 78.4064 -0.000548128 1.3747 4.43786e-15 2.7766e-14 
0.91788 78.4502 -0.000244096 1.2237 6.6583e-15 4.96755e-14 1.01242 78.4963 -6.86104e-06 
1.08402 -1.82146e-14 1.48302e-14 1.09114 78.5426 0.000178706 0.953816 1.23337e-13 -3.76929e-14 
1.15627 78.5873 0.000324023 0.831458 -5.15159e-14 9.02924e-15 1.20968 78.6292 0.000437704 
0.715536 -6.03374e-14 6.07587e-15 1.25298 78.6672 0.000526242 0.604832 -4.4075e-15 3.01764e-14 
1.28749 78.7005 0.000594516 0.498298 -3.2948e-14 -2.98776e-14 1.31429 78.7285 0.000646168 
0.395025 -6.16694e-15 -4.6959e-15 1.33425 78.7508 0.000683878 0.294224 -7.61359e-15 -1.03736e-15 
1.34805 78.7669 0.000709553 0.195198 1.29181e-14 -2.71757e-14 1.35614 78.7766 0.000724471 
0.0973183 3.52545e-15 6.31439e-15 -7.94248 87.4512 -0.0238077 3.79658 1.77386e-13 2.57849e-14 
-7.17461 85.3749 -0.0201804 4.53576 -1.05957e-13 3.82888e-14 -6.21712 83.6258 -0.0174192 
4.85252 -5.18752e-14 9.71168e-14 -5.22732 82.2157 -0.0140739 4.87521 -2.23016e-14 4.00374e-14 
-4.2908 81.1129 -0.0110264 4.70983 2.95267e-14 -4.92939e-14 -3.44573 80.2714 -0.00842148 
4.43542 -1.02335e-13 5.95218e-14 -2.70373 79.643 -0.00630988 4.10684 5.96398e-15 5.95912e-14 
-2.06251 79.1839 -0.00464979 3.75991 1.06998e-14 5.53446e-14 -1.51344 78.8566 -0.00337079 
3.41671 -1.67628e-13 8.39259e-14 -1.04567 78.6306 -0.00239843 3.08989 4.90788e-14 -6.17492e-14 
-0.648226 78.4816 -0.0016657 2.78584 2.54465e-13 -1.04562e-13 -0.311016 78.3906 -0.00111681 
2.50699 -7.22842e-14 -1.19488e-14 -0.0251408 78.3427 -0.000707315 2.25336 -6.03753e-14 -1.06443e-14 
0.217046 78.3267 -0.000402749 2.02356 1.96371e-14 6.01949e-15 0.422036 78.3336 -0.000176805 
1.81549 -4.14929e-14 4.68167e-14 0.595314 78.3568 -9.6206e-06 1.62675 4.18866e-14 -4.85723e-16 
0.741509 78.3908 0.000113711 1.45486 -1.60323e-13 -4.37445e-14 0.864538 78.4318 0.000204346 
1.29747 8.96123e-14 2.22496e-14 0.967721 78.4765 0.000270621 1.1524 -1.72969e-14 4.89869e-14 
1.05388 78.5225 0.000318772 1.01769 6.19478e-14 -9.24955e-15 1.12541 78.5678 0.000353467 
0.891606 3.23413e-14 -1.4851e-14 1.18435 78.611 0.000378209 0.77264 2.35489e-14 1.85268e-15 
1.23244 78.6508 0.000395629 0.659481 5.23227e-14 2.69576e-15 1.27112 78.6864 0.000407699 
0.550997 -3.17016e-14 1.11543e-15 1.3016 78.717 0.000415897 0.446214 3.87971e-15 -1.43722e-14 
1.32484 78.7421 0.000421318 0.344288 1.91223e-14 -3.02883e-15 1.34162 78.7612 0.000424754 
0.244476 -1.68828e-14 -1.43999e-14 1.3525 78.7741 0.000426758 0.14612 1.49225e-14 -7.42462e-15 
1.35785 78.7806 0.000427675 0.0486133 -8.56536e-15 1.44086e-14 -7.61315 86.3375 -0.0358361 
-4.26549 1.98661e-14 -2.88589e-14 -6.73023 84.4035 -0.0385971 -4.77086 -1.12747e-13 -6.23807e-15 
-5.74226 82.8226 -0.0363846 -4.91885 1.56115e-13 5.15837e-14 -4.76998 81.5751 -0.0316437 
-4.82952 6.57859e-14 5.57436e-14 -3.8734 80.6159 -0.026166 -4.59607 5.55789e-14 8.7888e-14 
-3.07637 79.8944 -0.0209598 -4.28498 1.59473e-14 -7.53043e-14 -2.3827 79.3628 -0.0164277 
-3.94074 -1.48016e-13 -5.27738e-14 -1.78639 78.98 -0.0126796 -3.59147 7.94287e-14 5.00988e-15 
-1.27735 78.7118 -0.00967264 -3.25386 4.22926e-14 1.53141e-14 -0.844455 78.5311 -0.00730551 
-2.93689 8.12805e-15 -4.44592e-14 -0.477041 78.4164 -0.00546331 -2.64463 5.14293e-14 1.43184e-14 
-0.165525 78.3512 -0.00403897 -2.37803 1.79006e-14 1.04847e-14 0.0984136 78.3225 -0.00294108 
-2.13624 -4.77084e-14 -5.03026e-14 0.321875 78.3205 -0.00209534 -1.91741 1.4432e-14 2.33103e-14 
0.510864 78.3375 -0.00144312 -1.71919 -9.62936e-14 -1.31006e-14 0.670452 78.3677 -0.000938985 
-1.5391 8.95985e-15 -3.41741e-16 0.804916 78.4064 -0.000548128 -1.3747 2.28749e-14 -1.16261e-14 
0.91788 78.4502 -0.000244096 -1.2237 7.03257e-15 9.54202e-14 1.01242 78.4963 -6.86104e-06 
-1.08402 1.87042e-14 1.65341e-14 1.09114 78.5426 0.000178706 -0.953816 3.25829e-14 -6.24804e-15 
1.15627 78.5873 0.000324023 -0.831458 -7.26567e-15 -7.08812e-14 1.20968 78.6292 0.000437704 
-0.715536 4.11411e-15 8.76686e-15 1.25298 78.6672 0.000526242 -0.604832 1.40163e-14 5.80569e-14 
1.28749 78.7005 0.000594516 -0.498298 -3.14004e-14 -3.19137e-14 1.31429 78.7285 0.000646168 
-0.395025 -1.97184e-15 5.6356e-14 1.33425 78.7508 0.000683878 -0.294224 1.09401e-14 7.16397e-15 
1.34805 78.7669 0.000709553 -0.195198 -2.9157e-14 -9.53361e-15 1.35614 78.7766 0.000724471 
-0.0973183 3.51828e-14 -1.43609e-14 -7.94248 87.4512 -0.0238077 -3.79658 -7.46347e-14 -8.31002e-14 
-7.17461 85.3749 -0.0201804 -4.53576 -1.2873e-13 2.96707e-14 -6.21712 83.6258 -0.0174192 
-4.85252 1.08649e-13 5.00988e-14 -5.22732 82.2157 -0.0140739 -4.87521 1.09114e-14 1.27398e-14 
-4.2908 81.1129 -0.0110264 -4.70983 1.2732e-14 1.59192e-13 -3.44573 80.2714 -0.00842148 
-4.43542 -2.74071e-13 2.80678e-14 -2.70373 79.643 -0.00630988 -4.10684 -2.47092e-13 -1.23943e-13 
-2.06251 79.1839 -0.00464979 -3.75991 1.13187e-13 2.41474e-15 -1.51344 78.8566 -0.00337079 
-3.41671 -1.88396e-13 1.77497e-14 -1.04567 78.6306 -0.00239843 -3.08989 -2.34968e-14 -2.23016e-14 
-0.648226 78.4816 -0.0016657 -2.78584 -1.55169e-13 -1.10988e-14 -0.311016 78.3906 -0.00111681 
-2.50699 9.29465e-15 7.8812e-14 -0.0251408 78.3427 -0.000707315 -2.25336 -2.81337e-14 4.93598e-14 
0.217046 78.3267 -0.000402749 -2.02356 -1.80723e-14 -4.69971e-14 0.422036 78.3336 -0.000176805 
-1.81549 -5.80872e-14 1.17927e-14 0.595314 78.3568 -9.6206e-06 -1.62675 -2.76862e-15 1.85442e-14 
0.741509 78.3908 0.000113711 -1.45486 1.35473e-13 -1.28335e-14 0.864538 78.4318 0.000204346 
-1.29747 -1.16761e-13 5.48919e-14 0.967721 78.4765 0.000270621 -1.1524 1.54286e-14 5.35075e-14 
1.05388 78.5225 0.000318772 -1.01769 7.9387e-14 -3.98986e-16 1.12541 78.5678 0.000353467 
-0.891606 -5.41893e-14 -6.48266e-14 1.18435 78.611 0.000378209 -0.77264 7.87894e-14 -4.65981e-14 
1.23244 78.6508 0.000395629 -0.659481 1.51944e-14 9.48894e-15 1.27112 78.6864 0.000407699 
-0.550997 -8.80936e-15 3.49443e-14 1.3016 78.717 0.000415897 -0.446214 -3.58828e-14 -1.74019e-14 
1.32484 78.7421 0.000421318 -0.344288 5.31632e-14 -3.36779e-14 1.34162 78.7612 0.000424754 
-0.244476 -5.92029e-14 2.8394e-14 1.3525 78.7741 0.000426758 -0.14612 2.35387e-14 6.00214e-16 
1.35785 78.7806 0.000427675 -0.0486133 -4.63469e-15 -8.87936e-14 -6.7489 88.9689 0.00409879 
-1.1211 -1.61503e-13 1.58668e-13 -5.37201 88.6789 0.0159526 0.410876 -6.12566e-14 -8.31817e-14 
-4.15957 88.0544 0.0204284 1.44169 -1.53766e-13 -3.51628e-14 -3.15317 87.2912 0.0203151 
2.09669 8.03108e-14 3.96354e-14 -2.34844 86.4989 0.0180802 2.48258 -1.73504e-13 5.15638e-14 
-1.72177 85.7326 0.0151273 2.6804 2.0926e-13 -5.6552e-14 -1.24334 85.0161 0.0121666 
2.7474 1.80238e-15 6.99276e-14 -0.883728 84.3557 0.00951453 2.72159 2.34708e-14 3.00662e-14 
-0.616841 83.7489 0.00727506 2.62622 4.21017e-15 6.67843e-14 -0.420739 83.1894 0.00545428 
2.47335 -1.26121e-13 -2.57407e-14 -0.277631 82.67 0.00402364 2.26624 -3.47713e-13 -1.30452e-13 
-0.173544 82.1842 0.002955 2.00081 -4.42528e-14 1.87492e-13 -0.098033 81.7275 0.00224016 
1.66611 -9.89929e-14 3.96575e-14 -0.0441962 81.2986 0.00178809 1.24407 -3.12385e-13 -5.80256e-14 
-0.0106544 80.8998 -0.000604051 0.708241 1.0353e-13 -9.53812e-14 -7.40907 88.9159 0.0135484 
-2.16101 -1.97647e-13 7.41074e-15 -6.03877 88.8845 0.0125778 -0.330448 -6.10345e-14 -4.33542e-14 
-4.75992 88.3871 0.011524 0.940706 -1.39e-13 9.39734e-14 -3.65976 87.6716 0.00959494 
1.77612 -1.61204e-13 -1.50286e-13 -2.75817 86.8839 0.00766746 2.29164 -2.36006e-13 1.91973e-14 
-2.04358 86.1013 0.00593738 2.58048 -5.37556e-14 -2.33086e-14 -1.49067 85.3601 0.00450025 
2.71121 9.18432e-14 -6.65197e-14 -1.07064 84.6734 0.00335302 2.73099 1.64934e-13 -5.35717e-14 
-0.756196 84.0421 0.00245908 2.67015 -1.80255e-13 2.36547e-13 -0.523547 83.4613 0.00177173 
2.54613 4.20306e-14 -1.62433e-13 -0.352944 82.9239 0.00124687 2.36649 1.38663e-13 1.10405e-13 
-0.22857 82.4229 0.000848065 2.13076 4.49293e-15 -1.71686e-13 -0.138269 81.9527 0.000548037 
1.83142 -2.48634e-13 2.04579e-13 -0.0733962 81.5102 0.000311406 1.45395 -9.61037e-16 -3.17836e-14 
-0.0288993 81.0961 -0.000138498 0.976283 1.31194e-13 2.62568e-14 -0.00299618 80.7156 -0.00622694 
0.36673 -8.11434e-14 -1.74196e-13 -6.33668 89.618 0.00453331 1.8999 1.03459e-13 -1.27232e-13 
-5.00591 89.2478 0.0162005 0.444484 -1.19141e-14 4.77413e-14 -3.84202 88.5311 0.0204963 
-0.516368 -7.91346e-14 -3.61508e-14 -2.88491 87.6623 0.0202092 -1.1106 3.14495e-13 1.10649e-13 
-2.12847 86.7495 0.0178169 -1.44744 5.62606e-14 1.45857e-13 -1.54755 85.847 0.0147284 
-1.61049 1.81414e-13 -2.86672e-14 -1.11098 84.9774 0.0116571 -1.6597 7.10421e-14 1.62627e-13 
-0.788276 84.1464 0.00892313 -1.63591 -2.76484e-13 -2.81563e-13 -0.552517 83.3515 0.00663448 
-1.56536 2.90084e-13 6.39107e-14 -0.381277 82.5868 0.00480127 -1.46317 -2.50357e-13 -9.60985e-14 
-0.256632 81.8461 0.00339865 -1.33567 3.57906e-13 -8.11885e-14 -0.164875 81.1245 0.00240089 
-1.18174 2.77177e-13 7.03586e-14 -0.0962505 80.4198 0.00179601 -0.993189 1.06876e-14 1.87107e-13 
-0.0450578 79.7336 0.00139014 -0.754372 -3.04484e-13 -8.33517e-14 -0.0128176 79.0708 -0.00285217 
-0.440861 -1.07256e-13 -1.74279e-13 -6.97543 89.6008 0.0139897 2.89927 -1.85407e-14 -1.23818e-13 
-5.64919 89.4949 0.01291 1.14719 2.91878e-13 2.62505e-13 -4.41752 88.9117 0.0118143 
-0.0506645 2.56975e-13 -2.56403e-13 -3.36617 88.0975 0.00983508 -0.820682 1.16296e-13 1.46384e-13 
-2.51324 87.1971 0.00786386 -1.28125 3.43378e-13 -2.29535e-13 -1.84556 86.2864 0.00609345 
-1.52813 -2.1913e-13 3.81681e-13 -1.33637 85.4007 0.00461951 -1.63251 2.02671e-13 -1.76869e-13 
-0.95568 84.5523 0.00343893 -1.64433 -5.98476e-13 -4.18728e-14 -0.675238 83.7417 0.00251547 
-1.59683 -5.74991e-14 -1.45606e-13 -0.470609 82.9641 0.001803 -1.51047 2.00904e-13 -7.56339e-16 
-0.321737 82.2133 0.00125811 -1.39588 -1.00251e-13 2.92141e-13 -0.212874 81.4834 0.000844945 
-1.2556 -1.9674e-13 -3.39048e-13 -0.132341 80.7709 0.000536153 -1.08499 3.23357e-13 3.37688e-13 
-0.0723981 80.0752 0.000282931 -0.872137 -1.92195e-13 -1.42303e-13 -0.0292623 79.4003 -0.000422853 
-0.597163 -2.14769e-13 -1.93963e-13 -0.00169014 78.7544 -0.0112244 -0.230194 -2.23811e-13 1.74055e-13 
-7.05581 87.1307 -0.0353982 4.92142 -2.04579e-13 3.11903e-14 -6.04877 85.268 -0.0381569 
5.37353 3.24921e-13 -1.92745e-13 -4.91442 83.7543 -0.0358751 5.45663 1.57962e-13 3.92013e-14 
-3.77153 82.5692 -0.0310215 5.29 1.19662e-13 1.19002e-14 -2.67764 81.6666 -0.0253961 
4.96605 -5.87056e-14 -6.30607e-14 -1.6537 80.9946 -0.0200133 4.55035 -7.43424e-14 1.25941e-13 
-0.700289 80.5038 -0.0152777 4.08641 -3.57684e-13 -8.36067e-14 0.192086 80.151 -0.0112991 
3.60136 1.21023e-13 1.93144e-13 1.03726 79.9001 -0.00803358 3.11097 -5.13079e-14 3.5685e-14 
1.8503 79.7216 -0.00537916 2.62343 1.92398e-14 -5.40097e-13 2.64599 79.5914 -0.00322092 
2.14227 -1.3302e-13 -3.47665e-13 3.43812 79.4899 -0.00145349 1.66828 -4.79417e-13 6.82275e-14 
4.23925 79.4012 1.03443e-05 1.2009 -2.06918e-13 -3.75858e-14 5.06065 79.3121 0.00123735 
0.739215 7.31203e-14 3.4809e-14 5.91225 79.2114 0.0022744 0.282575 8.21634e-14 1.32508e-13 
6.80261 79.0897 0.00315011 -0.168896 1.58989e-13 -2.78718e-13 7.73881 78.9391 0.00387683 
-0.613997 9.42614e-14 1.01936e-13 8.7263 78.7529 0.00445299 -1.05024 -8.71039e-14 1.34005e-13 
9.76861 78.5258 0.00486594 -1.47377 -2.90332e-13 1.43395e-13 10.8671 78.2543 0.00509576 
-1.87937 -4.40932e-13 -3.83772e-13 12.0208 77.936 0.00512026 -2.26065 1.41716e-13 1.8069e-13 
13.2257 77.571 0.00492111 -2.61033 -4.62963e-14 8.27094e-14 14.4752 77.1608 0.00449083 
-2.92066 -6.97602e-14 1.47935e-13 15.7598 76.7097 0.00383917 -3.18402 -1.67234e-13 -5.30574e-13 
17.0674 76.2236 0.0029985 -3.39345 8.22901e-14 -4.04572e-14 18.3837 75.7102 0.00204055 
-3.54326 -1.90046e-13 -1.68312e-13 19.6935 75.1789 0.00135443 -3.62942 4.11018e-13 -5.25803e-13 
20.9835 74.6428 0.00623947 -3.64971 -1.19545e-13 -1.04522e-13 -7.44005 88.2056 -0.024005 
4.47386 -3.48485e-13 -3.88023e-14 -6.55855 86.2026 -0.0203906 5.16523 -4.07806e-13 -2.91711e-14 
-5.46609 84.5226 -0.0176447 5.42295 -7.13908e-14 3.76227e-14 -4.31818 83.1771 -0.0142997 
5.37459 2.75014e-14 6.19782e-14 -3.19817 82.1337 -0.0112441 5.12537 -3.17133e-13 2.30024e-14 
-2.14153 81.345 -0.00862404 4.75349 -1.1445e-13 2.28914e-14 -1.1568 80.7616 -0.00649073 
4.31284 6.11858e-13 9.49241e-14 -0.238335 80.3376 -0.0048018 3.83828 -2.57561e-13 9.41955e-14 
0.626134 80.0337 -0.00348586 3.35092 -2.94716e-13 2.04118e-13 1.45131 79.8171 -0.00246733 
2.86253 7.92491e-14 -2.61964e-13 2.25218 79.6611 -0.00167808 2.37885 3.34809e-13 -5.35086e-13 
3.04302 79.5439 -0.00106145 1.90194 6.88338e-14 -1.88547e-13 3.83698 79.4476 -0.000572513 
1.43189 2.13787e-13 -7.67476e-14 4.64593 79.3577 -0.000176916 0.967918 5.90569e-13 -2.28116e-16 
5.48043 79.2619 0.00015066 0.509228 -7.54646e-13 1.56318e-13 6.34971 79.1499 0.000427963 
0.0555475 1.01526e-12 -2.67251e-14 7.26162 79.0132 0.000666392 -0.392469 -4.58605e-13 -1.63963e-13 
8.22243 78.8443 0.000871997 -0.832981 3.15518e-13 1.04778e-13 9.23669 78.6374 0.00104637 
-1.26281 3.31214e-13 1.39365e-13 10.3069 78.388 0.00118757 -1.67743 4.57509e-13 -8.39953e-14 
11.4333 78.0932 0.0012912 -2.07101 1.63494e-13 -1.48565e-13 12.6134 77.7518 0.00135185 
-2.43671 -6.22294e-13 9.31833e-14 13.8421 77.3647 0.00136468 -2.76697 -1.54689e-13 1.63402e-13 
15.1111 76.9348 0.00132734 -3.0541 -1.46411e-14 -1.17018e-13 16.4096 76.467 0.00124153 
-3.29076 3.8497e-13 -2.83194e-13 17.7243 75.9683 0.00111681 -3.47059 -2.27464e-13 -1.39225e-13 
19.0403 75.4469 0.00100929 -3.58873 -3.71904e-13 -3.97309e-13 20.3418 74.912 0.0016893 
-3.64203 4.57669e-13 -3.66748e-13 21.6158 74.3698 0.0155472 -3.62904 3.62703e-13 -5.9381e-13 
-7.05581 87.1307 -0.0353982 -4.92142 1.46522e-13 1.31076e-14 -6.04877 85.268 -0.0381569 
-5.37353 4.31873e-13 -2.47444e-13 -4.91442 83.7543 -0.0358751 -5.45663 -1.86336e-13 -2.98636e-13 
-3.77153 82.5692 -0.0310215 -5.29 8.95393e-14 3.46875e-14 -2.67764 81.6666 -0.0253961 
-4.96605 1.29782e-13 -6.57148e-14 -1.6537 80.9946 -0.0200133 -4.55035 -5.05533e-14 2.96048e-14 
-0.700289 80.5038 -0.0152777 -4.08641 -2.91217e-13 -1.32241e-13 0.192086 80.151 -0.0112991 
-3.60136 5.1811e-14 -3.05384e-13 1.03726 79.9001 -0.00803358 -3.11097 5.07384e-13 -3.73555e-14 
1.8503 79.7216 -0.00537916 -2.62343 2.34044e-13 3.35166e-14 2.64599 79.5914 -0.00322092 
-2.14227 2.72492e-13 6.12106e-14 3.43812 79.4899 -0.00145349 -1.66828 -3.86635e-13 -3.53112e-14 
4.23925 79.4012 1.03443e-05 -1.2009 -1.7727e-13 -2.10494e-13 5.06065 79.3121 0.00123735 
-0.739215 3.60514e-13 2.63896e-13 5.91225 79.2114 0.0022744 -0.282575 -2.30227e-13 1.42451e-13 
6.80261 79.0897 0.00315011 0.168896 -4.94858e-13 2.9445e-13 7.73881 78.9391 0.00387683 
0.613997 7.99881e-15 -1.99496e-13 8.7263 78.7529 0.00445299 1.05024 -1.9452e-13 3.30716e-13 
9.76861 78.5258 0.00486594 1.47377 -3.12365e-13 -1.4061e-13 10.8671 78.2543 0.00509576 
1.87937 6.31925e-14 -1.22759e-13 12.0208 77.936 0.00512026 2.26065 -2.66561e-13 -4.14813e-13 
13.2257 77.571 0.00492111 2.61033 1.14658e-13 1.60168e-13 14.4752 77.1608 0.00449083 
2.92066 4.1718e-13 -2.04812e-13 15.7598 76.7097 0.00383917 3.18402 -3.38323e-13 1.7591e-14 
17.0674 76.2236 0.0029985 3.39345 -3.56812e-13 2.39447e-13 18.3837 75.7102 0.00204055 
3.54326 7.29607e-14 -4.16021e-14 19.6935 75.1789 0.00135443 3.62942 2.01495e-13 2.35441e-13 
20.9835 74.6428 0.00623947 3.64971 6.89188e-14 -3.37642e-13 -7.44005 88.2056 -0.024005 
-4.47386 6.45456e-14 -1.39611e-13 -6.55855 86.2026 -0.0203906 -5.16523 -1.02904e-13 -1.19488e-13 
-5.46609 84.5226 -0.0176447 -5.42295 2.50473e-13 -2.17548e-13 -4.31818 83.1771 -0.0142997 
-5.37459 -1.02739e-14 -2.1752e-13 -3.19817 82.1337 -0.0112441 -5.12537 -5.01377e-13 -1.29896e-13 
-2.14153 81.345 -0.00862404 -4.75349 2.81088e-13 -7.89646e-14 -1.1568 80.7616 -0.00649073 
-4.31284 -6.06373e-13 -1.68664e-13 -0.238335 80.3376 -0.0048018 -3.83828 2.96461e-13 -2.62047e-13 
0.626134 80.0337 -0.00348586 -3.35092 -2.84134e-13 -1.89241e-13 1.45131 79.8171 -0.00246733 
-2.86253 6.57877e-14 1.66707e-14 2.25218 79.6611 -0.00167808 -2.37885 -3.73521e-13 -2.02373e-14 
3.04302 79.5439 -0.00106145 -1.90194 -1.77122e-13 -9.70231e-15 3.83698 79.4476 -0.000572513 
-1.43189 6.02504e-14 -1.50015e-13 4.64593 79.3577 -0.000176916 -0.967918 -1.65437e-13 3.02787e-14 
5.48043 79.2619 0.00015066 -0.509228 6.76875e-13 2.44091e-13 6.34971 79.1499 0.000427963 
-0.0555475 2.48766e-13 2.90444e-13 7.26162 79.0132 0.000666392 0.392469 1.4215e-13 1.3816e-13 
8.22243 78.8443 0.000871997 0.832981 -3.64028e-13 2.26459e-14 9.23669 78.6374 0.00104637 
1.26281 -1.47327e-13 1.63294e-14 10.3069 78.388 0.00118757 1.67743 -4.54158e-13 -2.80039e-13 
11.4333 78.0932 0.0012912 2.07101 4.08472e-13 -2.26341e-13 12.6134 77.7518 0.00135185 
2.43671 -5.20216e-13 -1.11047e-13 13.8421 77.3647 0.00136468 2.76697 8.48405e-13 -5.51295e-14 
15.1111 76.9348 0.00132734 3.0541 -4.73524e-13 -1.10925e-13 16.4096 76.467 0.00124153 
3.29076 -9.35571e-14 1.49304e-13 17.7243 75.9683 0.00111681 3.47059 -9.74699e-13 6.59299e-14 
19.0403 75.4469 0.00100929 3.58873 -1.9186e-13 6.55118e-14 20.3418 74.912 0.0016893 
3.64203 5.04811e-13 1.74236e-14 21.6158 74.3698 0.0155472 3.62904 8.27463e-14 -1.38476e-13 
30.1764 82.6221 1.28642 -45.8754 -1.03251e-13 -7.04992e-14 33.2587 110.5 2.64332 
-53.7081 -4.81615e-13 -1.08358e-13 31.6925 141.115 4.00164 -57.3316 -6.43929e-14 1.54987e-13 
26.4973 171.889 5.26603 -55.0195 -2.33147e-14 -1.35416e-13 19.5522 199.478 6.33369 
-45.9442 1.70974e-14 2.47274e-13 13.143 220.347 7.10666 -30.5819 1.14242e-13 -5.51559e-13 
9.32367 231.539 7.5086 -10.7672 2.06946e-13 2.79166e-13 9.30361 231.374 7.4984 
10.638 8.77076e-15 1.32949e-13 13.0748 219.879 7.07754 30.3962 2.77556e-15 -6.77236e-14 
19.4164 198.776 6.28977 45.6639 8.26006e-14 9.98368e-14 26.2747 171.049 5.21325 
54.6355 -9.25926e-14 1.91673e-13 31.3763 140.234 3.94665 56.8639 5.26246e-14 -7.80487e-14 
32.8628 109.66 2.59245 53.1962 1.1724e-13 -3.94462e-13 29.7341 81.8764 1.24473 
45.3641 1.8141e-13 -2.76446e-14 17.0063 91.0656 0.584542 -36.5442 -2.24265e-13 -6.67244e-14 
22.8283 112.811 1.39116 -40.9928 1.50102e-13 2.4758e-13 25.4367 136.98 2.30348 
-43.3278 -2.30926e-13 -1.39055e-13 24.8112 161.902 3.23699 -41.872 1.2701e-13 -5.90639e-14 
21.9168 184.899 4.08698 -35.4291 -5.83755e-13 6.86673e-14 18.4259 202.739 4.73706 
-23.8873 1.89404e-13 -2.45026e-13 16.1009 212.471 5.08728 -8.51186 1.64868e-14 -7.52731e-14 
16.0654 212.334 5.08026 8.27759 5.48728e-14 1.30895e-13 18.3161 202.352 4.71736 
23.6166 -4.60743e-14 1.15241e-13 21.7268 184.318 4.05824 35.1006 -5.70655e-14 6.53366e-14 
24.5412 161.202 3.20408 41.4861 -6.86118e-14 2.50716e-13 25.1008 136.233 2.27124 
42.903 -1.93401e-13 -5.75234e-14 22.4548 112.071 1.36344 40.5548 -2.56684e-13 6.70575e-14 
16.6307 90.3673 0.563574 36.1149 -1.37224e-13 2.7367e-13 7.01128 96.9767 0.197293 
-29.0952 2.05058e-13 5.28466e-14 14.3046 114.034 0.646814 -30.8431 1.25455e-13 1.5643e-13 
19.7693 133.003 1.22377 -31.8672 -3.06422e-14 -1.44884e-14 22.6821 152.914 1.87446 
-30.7875 1.13576e-13 -9.92539e-14 23.2 171.75 2.51392 -26.3235 -3.14526e-13 4.2566e-13 
22.318 186.708 3.03056 -17.9743 -2.9976e-15 -1.85962e-13 21.3797 195.002 3.31873 
-6.49763 -1.26926e-13 -1.3145e-13 21.3326 194.89 3.31407 6.17381 -7.72715e-14 4.54081e-14 
22.1777 186.389 3.01774 17.6314 1.42109e-14 9.40359e-14 22.9725 171.269 2.49592 
25.9533 1.61871e-13 -7.61613e-14 22.3838 152.327 1.85498 30.3959 1.13909e-13 1.06692e-13 
19.4283 132.36 1.20603 31.4681 7.88258e-14 -5.4224e-14 13.9558 113.372 0.632869 
30.4496 -4.40536e-13 3.27516e-14 6.68623 96.3188 0.187789 28.7126 2.73559e-13 0 
-0.37518 100.88 0.00718104 -23.1475 -4.00791e-14 -1.70364e-13 7.47211 114.382 0.235015 
-22.8131 2.1938e-13 2.22045e-15 14.7376 129.211 0.577044 -22.6023 1.96843e-13 7.93497e-14 
20.2813 144.894 1.0068 -21.5604 9.40359e-14 5.58442e-14 23.5975 160.012 1.46492 
-18.5322 -2.0739e-13 -3.9857e-13 24.9986 172.268 1.85682 -12.8088 -1.07581e-13 -1.50879e-13 
25.3223 179.168 2.08328 -4.71778 2.54241e-14 -6.42819e-14 25.2667 179.077 2.08031 
4.31702 -2.60292e-13 -2.33591e-13 24.837 172.006 1.84883 12.4035 -2.03726e-14 4.77396e-15 
23.3463 159.614 1.4542 18.1242 9.01501e-14 -6.80567e-14 19.9692 144.397 0.99599 
21.158 1.33782e-13 -7.07212e-14 14.4014 128.65 0.568088 22.2137 8.11573e-14 1.50671e-13 
7.14742 113.78 0.228791 22.4404 -1.17573e-13 -2.17354e-13 -0.663792 100.256 0.00356382 
22.785 9.67004e-14 -3.07532e-14 -5.58635 103.138 -0.0686024 -18.4314 5.78426e-14 -3.60878e-13 
2.18299 113.971 0.0310031 -16.5697 -1.01807e-13 -2.13884e-13 10.4135 125.566 0.219987 
-15.2751 -1.93734e-13 3.64847e-14 17.7884 137.755 0.490754 -14.0516 -4.84057e-14 2.55129e-13 
23.3071 149.626 0.807263 -12.0099 1.86851e-13 -1.97731e-13 26.6436 159.406 1.09541 
-8.38972 8.81517e-14 -8.31557e-14 28.0841 164.988 1.26824 -3.17691 -5.87863e-14 -1.66533e-15 
28.0229 164.913 1.26641 2.71042 -1.12688e-13 2.28262e-13 26.4687 159.19 1.09063 
7.93055 -2.58793e-13 1.00919e-13 23.0435 149.291 0.801226 11.5672 -1.5854e-13 -1.86073e-13 
17.4735 137.327 0.485209 13.6335 1.6076e-13 2.12108e-13 10.0879 125.065 0.215996 
14.8838 2.65343e-14 -6.80428e-14 1.87972 113.414 0.0287757 16.199 -2.59459e-13 3.09752e-14 
-5.85069 102.539 -0.0694778 18.0691 -1.59095e-13 -1.385e-13 -9.04911 104.09 -0.0862084 
-14.7092 2.1172e-13 3.46889e-13 -1.7706 112.928 -0.0573864 -11.8009 -1.9984e-15 -8.95117e-14 
6.78415 122.033 0.036698 -9.61796 -2.65565e-13 -1.19203e-13 15.3041 131.392 0.199283 
-8.09413 -7.99361e-14 1.7375e-14 22.4621 140.485 0.41223 -6.68279 -1.20237e-13 1.07359e-13 
27.3751 148.05 0.620332 -4.69692 9.43134e-14 1.90736e-13 29.7708 152.412 0.750329 
-1.87332 -7.48845e-14 6.01741e-14 29.7065 152.35 0.749253 1.35045 -1.61843e-13 9.14824e-14 
27.1938 147.87 0.617628 4.19054 -1.10967e-13 -7.9492e-14 22.1951 140.199 0.409093 
6.20676 -3.41949e-14 5.31797e-14 14.9942 131.014 0.19681 7.65533 -6.99441e-15 1.38362e-13 
6.47256 121.574 0.0353696 9.21298 2.63123e-14 -7.44439e-14 -2.05604 112.402 -0.0576912 
11.4176 1.90847e-13 -3.2141e-14 -9.29927 103.51 -0.0859414 14.3323 -1.38556e-13 -4.2355e-14 
-11.1397 104.044 -0.0769507 -11.7807 -7.46625e-14 1.09718e-13 -4.59306 111.385 -0.0851303 
-8.22703 1.24456e-13 1.84575e-14 3.81665 118.595 -0.0478976 -5.37044 2.62013e-14 6.79491e-14 
12.9109 125.707 0.0434816 -3.50711 -2.07612e-13 4.15223e-14 21.1906 132.479 0.18341 
-2.45648 1.81521e-13 2.33702e-14 27.3213 138.106 0.332295 -1.69521 -7.71605e-15 8.83738e-14 
30.4996 141.368 0.429659 -0.800098 -1.89945e-13 2.69784e-14 30.4343 141.316 0.429069 
0.228259 1.61288e-13 1.42109e-13 27.1391 137.952 0.3309 1.14655 -1.46549e-14 -6.88338e-14 
20.9271 132.228 0.18202 1.94756 -1.16351e-13 7.88258e-15 12.6113 125.364 0.0427281 
3.04265 9.15934e-14 1.25094e-13 3.52001 118.166 -0.0478855 4.94247 -1.76859e-13 -1.65354e-14 
-4.86484 110.879 -0.0846085 7.81984 -1.44329e-13 -8.49876e-14 -11.384 103.477 -0.0763061 
11.3785 2.92433e-13 -4.59077e-14 -12.1847 103.272 -0.0575805 -9.47906 -1.97065e-14 -1.05277e-13 
-6.48296 109.474 -0.0835453 -5.60159 1.60039e-13 1.52656e-14 1.45908 115.256 -0.0795046 
-2.28466 -1.54987e-13 -1.04847e-14 10.6714 120.618 -0.0344177 -0.101188 -2.33424e-13 5.50393e-14 
19.6139 125.494 0.0545344 0.78076 1.15408e-13 1.80689e-13 26.6163 129.466 0.160107 
0.665135 2.56462e-14 -1.71529e-13 30.4006 131.759 0.232942 0.0550578 -2.09679e-13 1.78746e-13 
30.336 131.714 0.232663 -0.670375 3.05589e-14 -1.13243e-13 26.4374 129.33 0.159527 
-1.25287 9.95315e-14 1.05804e-13 19.3587 125.266 0.0541713 -1.3232 -2.13107e-13 6.30052e-14 
10.3851 120.297 -0.0342515 -0.393633 9.90874e-14 -9.9587e-14 1.17675 114.845 -0.0788811 
1.82617 4.29101e-14 7.77226e-14 -6.74547 108.98 -0.0827481 5.16224 4.9738e-14 -9.53404e-15 
-12.43 102.711 -0.0568984 9.04411 -7.49401e-14 9.53959e-14 -12.4595 102.002 -0.036489 
-7.66795 -6.90004e-14 -4.14946e-14 -7.62508 107.319 -0.0693799 -3.71345 7.62723e-14 -1.6355e-13 
-0.352829 112.029 -0.0841003 -0.133014 -5.60663e-15 1.16704e-14 8.62976 116.052 -0.0691954 
2.31251 1.77081e-14 -2.31759e-14 17.8423 119.417 -0.0163556 3.15178 -2.31759e-13 -9.58122e-14 
25.3955 122.013 0.0569435 2.44524 1.6287e-13 -8.199e-14 29.6124 123.476 0.110973 
0.708949 -1.1946e-13 -6.20615e-14 29.5497 123.436 0.110891 -1.36413 3.49595e-13 -1.31006e-14 
25.2229 121.889 0.0568656 -3.07038 2.19436e-13 1.75027e-13 17.5985 119.203 -0.0161326 
-3.72919 -1.42442e-13 -9.21485e-14 8.35791 115.744 -0.0685754 -2.84209 4.77229e-13 1.04083e-13 
-0.622652 111.626 -0.0832592 -0.362035 -1.06581e-13 9.48573e-14 -7.88268 106.83 -0.0685742 
3.23582 9.62563e-14 7.24837e-14 -12.7114 101.441 -0.0359085 7.19499 -8.97615e-14 -2.69618e-13 
-12.1902 100.422 -0.0175819 -6.23777 2.74475e-13 1.92485e-13 -8.18589 105.032 -0.0512717 
-2.38614 1.47604e-13 -2.66356e-13 -1.69078 108.933 -0.0758384 1.28723 -7.78266e-14 1.04111e-13 
6.81199 111.951 -0.0806595 3.91516 -4.56857e-14 -1.98355e-13 15.9723 114.143 -0.0540759 
4.78441 -7.38298e-15 -1.8352e-13 23.7893 115.627 -0.00571258 3.71417 3.59518e-13 1.08802e-14 
28.2754 116.399 0.0332874 1.1819 -5.32907e-14 -1.92568e-13 28.2154 116.361 0.0333303 
-1.87506 5.88279e-14 -4.04121e-14 23.6251 115.51 -0.00548988 -4.37642 3.56382e-13 -8.93174e-14 
15.7416 113.936 -0.0535406 -5.39887 -6.67244e-14 -4.56579e-14 6.55432 111.647 -0.0798596 
-4.48356 8.9595e-14 9.49379e-14 -1.95061 108.532 -0.0749919 -1.82363 -9.57012e-14 -8.21362e-14 
-8.44268 104.541 -0.0505829 1.86586 -1.54932e-13 2.00256e-14 -12.4533 99.8548 -0.0171525 
5.72332 1.67838e-13 1.90958e-14 -11.5567 98.6778 -0.00243016 -5.10177 2.93932e-14 -1.48243e-13 
-8.31032 102.705 -0.0335191 -1.47587 -3.10307e-14 6.38239e-14 -2.62884 105.989 -0.0622469 
2.15126 -2.20601e-13 -1.19449e-13 5.22845 108.266 -0.0797106 4.87437 -4.01901e-14 1.05749e-13 
14.0843 109.574 -0.072558 5.80563 -3.86358e-14 1.84713e-13 21.9185 110.189 -0.0440938 
4.54531 3.80529e-14 -8.199e-14 26.5252 110.403 -0.0175988 1.49662 -1.65326e-13 1.89904e-13 
26.4686 110.366 -0.0174816 -2.22738 2.49495e-13 -1.15685e-13 21.7638 110.073 -0.043705 
-5.24555 -2.95042e-14 1.67033e-13 13.867 109.368 -0.0718873 -6.45971 -1.77247e-13 -9.62008e-14 
4.98376 107.96 -0.0788966 -5.48526 2.54408e-13 -4.44089e-15 -2.88152 105.584 -0.0615118 
-2.73277 -3.71925e-14 -1.60476e-13 -8.57006 102.208 -0.0330046 0.909874 -2.51466e-14 1.11799e-13 
-11.835 98.1009 -0.0021656 4.54365 -4.78784e-14 -5.71487e-14 -10.6979 96.8814 0.00884062 
-4.19212 -1.78205e-13 2.60347e-13 -8.12018 100.413 -0.0180299 -0.868211 2.11497e-14 -1.36995e-13 
-3.23929 103.218 -0.0474214 2.60596 2.02449e-13 2.31512e-13 3.87636 104.954 -0.0725091 
5.33982 4.05787e-14 2.93376e-14 12.2414 105.619 -0.0795486 6.33652 2.44527e-14 -3.49998e-14 
19.8904 105.579 -0.0670427 5.01279 -1.31894e-13 1.21791e-13 24.4883 105.361 -0.0511345 
1.67698 -6.86534e-14 -9.23706e-14 24.4353 105.324 -0.0509792 -2.44626 -9.96148e-14 2.63234e-13 
19.7455 105.462 -0.0665835 -5.75281 -1.78996e-13 -4.82669e-14 12.0371 105.409 -0.0788628 
-7.03307 2.5871e-13 5.89528e-14 3.64288 104.643 -0.0717859 -5.9965 -2.09888e-13 5.41234e-14 
-3.48771 102.804 -0.0468629 -3.23546 5.78981e-14 1.80098e-13 -8.3862 99.9057 -0.0177157 
0.254509 -9.95037e-14 -9.96217e-14 -10.9945 96.2913 0.00893715 3.58925 1.59373e-13 7.00134e-14 
-9.71894 95.1107 0.015636 -3.45635 -4.50612e-14 -9.53959e-14 -7.71725 98.2098 -0.00670831 
-0.474773 3.43947e-13 -2.63886e-14 -3.59124 100.633 -0.0342963 2.77065 -5.00433e-14 6.43153e-14 
2.74301 101.981 -0.0625378 5.44114 1.28841e-13 1.71391e-14 10.4915 102.196 -0.0790238 
6.48859 -2.76723e-14 -2.15522e-14 17.7967 101.687 -0.0793086 5.18832 -8.95672e-14 -1.25511e-13 
22.2768 101.15 -0.0727429 1.74676 6.21378e-14 2.00118e-14 22.2274 101.111 -0.0725752 
-2.55648 2.30885e-13 -1.55043e-13 17.6615 101.566 -0.0788476 -5.97058 -2.59265e-13 -5.50116e-14 
10.2992 101.98 -0.0784092 -7.23058 -8.68194e-14 2.84078e-14 2.51874 101.661 -0.0619776 
-6.14649 -2.35062e-13 4.55191e-14 -3.83806 100.209 -0.033955 -3.45028 -1.14825e-13 -1.63349e-13 
-7.99235 97.6907 -0.00660816 -0.187715 -3.15303e-14 1.07366e-13 -10.0367 94.5052 0.0155546 
2.80867 2.82677e-13 1.64979e-13 -8.68996 93.4205 0.0204364 -2.85476 2.22988e-13 -5.40609e-14 
-7.16907 96.141 0.00534842 -0.227189 -4.49085e-14 -2.36547e-14 -3.72683 98.2547 -0.0163205 
2.74251 -1.3313e-13 -5.92946e-14 1.83019 99.3255 -0.0440098 5.28952 -9.17044e-14 1.15748e-13 
8.88274 99.2385 -0.0681119 6.36132 4.26048e-14 2.06224e-14 15.7184 98.4115 -0.0811171 
5.13762 9.02473e-14 6.35048e-14 19.9862 97.651 -0.0843685 1.72824 -2.57641e-14 -1.23318e-13 
19.9404 97.6107 -0.0841948 -2.58101 -2.43222e-13 1.74888e-13 15.5925 98.2851 -0.0806719 
-5.96502 -9.74498e-14 -5.09037e-14 8.70138 99.0141 -0.0675937 -7.15169 6.55032e-15 2.33563e-14 
1.61327 98.9955 -0.0436386 -6.04595 2.34063e-13 -4.91898e-14 -3.97428 97.8202 -0.0162122 
-3.47364 -3.42865e-13 1.43652e-13 -7.45548 95.609 0.00523536 -0.484269 5.58303e-14 -4.996e-14 
-9.03112 92.7997 0.0201957 2.16333 7.426e-14 -1.17066e-13 37.5725 76.7971 1.50008 
-51.265 -1.04405e-12 -1.05516e-12 26.9779 69.9612 0.585532 -41.1255 -2.8999e-13 3.79252e-13 
38.3996 108.174 3.07919 -60.923 6.5814e-13 3.4972e-13 32.1751 95.6415 1.76926 
-50.1739 2.9754e-14 -3.39728e-13 34.1063 142.346 4.62744 -65.0265 -1.82077e-13 3.55271e-15 
32.6195 124.845 2.96893 -56.0567 2.39808e-14 1.0747e-13 26.292 176.181 6.03308 
-61.9953 5.0937e-13 -3.90687e-13 28.8497 155.573 4.12691 -56.7932 -1.2701e-13 -2.12552e-13 
17.2381 206.036 7.19269 -51.3545 -2.367e-13 8.31495e-13 22.3733 184.835 5.15582 
-51.0787 -2.25153e-13 1.09135e-13 9.41403 228.319 8.01558 -33.9481 4.75175e-14 -1.53622e-12 
15.345 209.161 5.97033 -38.7327 -5.93969e-13 -2.40474e-13 4.9035 240.163 8.43744 
-11.8862 6.56364e-13 4.03011e-13 9.99515 225.269 6.4921 -20.9307 5.08482e-13 -3.6593e-13 
4.89291 239.985 8.42594 11.8134 -1.31006e-14 2.23155e-14 7.99438 230.811 6.6666 
-0.0594191 -1.78413e-13 5.88862e-13 9.37223 227.811 7.98258 33.8089 1.93845e-13 -6.23446e-13 
9.95593 224.952 6.4748 20.7827 3.10418e-13 1.43663e-13 17.1396 205.273 7.1425 
51.1014 -1.98952e-13 2.42365e-13 15.2515 208.576 5.93817 38.5068 -9.7522e-13 -2.33147e-15 
26.1073 175.269 5.97208 61.6125 -6.66134e-14 9.54903e-13 22.2038 184.064 5.11316 
50.7504 3.32179e-13 6.83786e-13 33.8163 141.398 4.56308 64.5325 -3.52607e-13 -3.54605e-13 
28.5889 154.715 4.07925 56.3683 -7.9492e-14 1.43552e-13 38.0061 107.287 3.01888 
60.3631 7.06102e-13 -1.0878e-12 32.2691 123.989 2.92197 55.5658 1.67422e-13 -3.5083e-13 
37.1022 76.0379 1.45019 50.6972 5.68434e-14 -4.93827e-13 31.7579 94.8549 1.7281 
49.6604 2.70006e-13 -9.03722e-14 26.5335 69.2837 0.554101 40.6315 -9.23706e-14 -5.27134e-13 
23.0965 86.7592 0.746844 -41.0693 6.43929e-14 1.06581e-14 13.5912 81.1371 0.308247 
-34.2395 8.11795e-13 3.49942e-13 27.4699 111.338 1.71828 -47.1151 -1.74083e-13 -2.25597e-13 
20.5119 101.282 0.936528 -39.1247 3.41949e-14 3.26406e-14 28.0102 138.552 2.79034 
-50.059 1.15907e-13 3.1064e-13 24.4827 124.165 1.6414 -42.6798 -2.44249e-13 3.98459e-13 
25.1808 166.29 3.86825 -48.1904 -2.62901e-13 -4.20497e-13 25.0867 148.679 2.38129 
-43.225 1.83409e-13 -3.1708e-13 20.356 191.526 4.83025 -40.4852 -2.69562e-13 -2.84217e-14 
22.8652 172.653 3.08835 -39.2813 -5.73319e-13 1.13465e-13 15.4824 210.86 5.55348 
-27.1084 4.4853e-14 -1.13731e-12 19.234 193.115 3.68052 -30.1719 9.72555e-14 -2.45581e-13 
12.4514 221.316 5.93842 -9.5974 4.09561e-13 6.37934e-13 16.013 206.944 4.07531 
-16.4863 2.83551e-13 -3.54827e-13 12.4237 221.167 5.93024 9.41401 3.70259e-13 7.21867e-13 
14.7209 211.76 4.21079 -0.112203 2.09055e-13 1.53655e-13 15.3938 210.435 5.53038 
26.8791 -5.3646e-13 4.64961e-13 15.9452 206.683 4.06444 16.2427 7.04992e-13 3.00426e-13 
20.1943 190.89 4.79624 40.1806 -1.23901e-13 6.59806e-13 19.0919 192.631 3.66071 
29.8787 -6.98108e-13 3.75255e-14 24.9372 165.527 3.82883 47.8065 -7.10543e-15 4.50084e-13 
22.6432 172.013 3.06287 38.9273 4.01901e-13 4.8872e-13 27.689 137.746 2.75118 
49.6151 -1.94067e-13 -6.21725e-14 24.7895 147.957 2.35398 42.8203 8.34888e-14 1.53572e-13 
27.0921 110.556 1.68407 46.6432 2.04281e-14 4.57412e-14 24.1302 123.424 1.61577 
42.2474 -1.5854e-13 6.77236e-15 22.6959 86.0448 0.720673 40.6022 -7.48734e-13 7.03881e-13 
20.1361 100.566 0.91527 38.6897 -5.59552e-13 1.36557e-13 13.2272 80.4735 0.292905 
33.8198 -2.66454e-14 1.98508e-13 11.7138 93.9248 0.277205 -32.7486 -5.9508e-14 7.74936e-14 
3.60033 89.1667 0.164283 -28.4826 8.04246e-13 -1.25677e-13 18.1651 113.135 0.810811 
-35.7711 3.68594e-13 9.579e-13 11.2273 105.157 0.483877 -30.2247 2.51799e-13 4.24993e-13 
22.1667 134.542 1.48631 -37.4113 -1.60316e-13 -5.35377e-13 17.4948 123.095 0.879097 
-31.7453 6.22613e-13 -5.78426e-14 23.3408 156.851 2.24375 -36.1437 -1.39888e-13 3.47278e-13 
21.4019 142.465 1.32221 -31.8263 -9.76996e-14 -1.48104e-13 22.2106 177.708 2.978 
-30.7238 8.88178e-16 8.20233e-13 22.7128 161.796 1.7718 -29.0883 -6.43041e-13 2.76668e-13 
20.0793 194.082 3.56353 -20.8331 6.26166e-14 -1.26565e-13 22.101 178.68 2.16702 
-22.6025 1.47216e-13 -9.52571e-14 18.4797 203.088 3.88695 -7.47156 3.84026e-13 -8.06466e-13 
20.8624 190.31 2.43987 -12.4966 3.31735e-13 -3.84581e-13 18.4385 202.965 3.8815 
7.19194 2.75446e-13 2.05169e-13 20.2479 194.405 2.53558 -0.158112 -1.47139e-13 -3.28626e-14 
19.955 193.732 3.54845 20.526 -4.11449e-13 5.35127e-14 20.7722 190.095 2.43339 
12.17 3.76366e-13 2.6823e-13 22.0035 177.182 2.95665 30.3749 -1.73195e-14 -3.33289e-13 
21.9223 178.281 2.15541 22.2505 -8.59313e-13 -1.33227e-13 23.0596 156.214 2.22039 
35.7562 3.9968e-13 3.26517e-13 22.4543 161.264 1.75731 28.7096 4.62741e-13 1.55431e-13 
21.8328 133.854 1.46477 37.0014 1.13687e-13 -3.0273e-13 21.084 141.852 1.30726 
31.4313 7.10543e-14 1.88793e-13 17.8096 112.44 0.793621 35.3577 -4.52527e-13 1.42553e-13 
17.1485 122.444 0.865711 31.3486 -4.18332e-13 -2.69396e-13 11.3694 93.2525 0.265348 
32.3449 1.7808e-13 -4.70735e-14 10.8868 104.498 0.473361 29.8363 9.68114e-14 -5.04041e-14 
3.29247 88.5202 0.157082 28.1045 -1.53655e-13 1.59428e-13 3.12962 98.8839 0.0461814 
-26.0779 9.90319e-14 -2.65121e-13 -3.56409 94.5816 0.0854336 -23.6968 3.41949e-13 -7.44294e-13 
10.5834 114.001 0.305149 -26.719 -4.9738e-14 3.43059e-14 4.06104 107.473 0.248431 
-23.1683 -1.12355e-13 2.40918e-14 16.8849 130.743 0.694138 -27.0818 2.08722e-13 -2.45581e-13 
11.632 121.599 0.465735 -22.9975 3.23297e-13 -2.7689e-13 21.1115 148.42 1.18949 
-26.0111 -1.34115e-13 -3.83915e-13 17.8822 136.793 0.717047 -22.4699 -2.66454e-14 1.32117e-13 
23.0619 165.319 1.71557 -22.288 -2.25597e-13 1.15907e-13 22.0057 152.134 0.981519 
-20.4833 -4.57412e-13 -3.90799e-14 23.3621 178.885 2.16234 -15.2991 1.10356e-13 -1.08669e-12 
23.9887 165.781 1.22192 -16.0589 8.75966e-13 -8.05134e-13 23.0805 186.467 2.41873 
-5.57579 -1.13021e-13 4.91163e-13 24.5409 175.34 1.39243 -8.99284 -3.32179e-13 -2.01617e-13 
23.0294 186.366 2.41527 5.213 3.34177e-13 -3.2685e-13 24.5553 178.74 1.45328 
-0.197449 1.13857e-13 -1.87406e-13 23.2119 178.597 2.15299 14.9248 -3.05977e-13 5.08926e-13 
24.4343 175.163 1.38876 8.59497 9.59233e-14 2.39808e-14 22.8243 164.884 1.70296 
21.8993 -2.00728e-13 -2.61346e-13 23.7848 165.45 1.21543 15.6557 -3.13083e-13 -1.15019e-13 
20.8091 147.884 1.17666 25.6152 4.35652e-13 2.357e-13 21.7249 151.686 0.973609 
20.0798 3.31291e-13 -4.57412e-14 16.5502 130.146 0.683403 26.6897 -4.61853e-14 3.12333e-13 
17.5561 136.263 0.709138 22.075 1.31006e-13 1.15352e-13 10.2511 113.374 0.29756 
26.3376 1.16351e-13 -4.93383e-13 11.2974 121.017 0.458925 22.617 -3.4639e-13 -4.43534e-14 
2.82692 98.2467 0.0416735 25.7071 -9.72555e-14 -6.55032e-14 3.74936 106.859 0.24335 
22.8009 -1.07025e-13 -2.54907e-13 -3.83499 93.953 0.0821395 23.3353 1.20348e-13 -1.1946e-13 
-3.07039 101.997 -0.0429737 -20.7697 -3.8014e-13 -6.34381e-13 -8.45183 97.926 0.0386073 
-19.7255 2.83107e-13 -9.02167e-13 4.62613 114.035 0.0585431 -19.6165 -9.76996e-15 -4.92273e-13 
-1.29984 108.498 0.125747 -17.6422 -4.34319e-13 -1.6942e-13 12.2951 127.103 0.258728 
-18.819 1.98952e-13 5.12715e-13 6.80987 119.714 0.248521 -16.135 -3.74811e-13 -2.32009e-13 
18.7291 140.918 0.56049 -17.6687 1.99396e-13 5.42122e-13 14.5774 131.568 0.386984 
-14.9576 4.80949e-13 1.8241e-13 23.1591 154.324 0.917856 -15.147 -1.75859e-13 -1.39866e-12 
20.8297 143.545 0.531144 -13.378 2.75779e-13 -1.25455e-13 25.5549 165.29 1.24364 
-10.5145 5.44009e-13 -1.18128e-13 24.9606 154.321 0.661936 -10.5217 -4.19664e-14 -2.72005e-13 
26.4567 171.508 1.43852 -3.91757 -5.68434e-14 -6.01741e-13 27.0791 161.972 0.755305 
-5.97913 5.77316e-15 -1.2701e-13 26.3985 171.426 1.43643 3.48363 9.00391e-14 -2.22045e-13 
27.6599 164.715 0.788839 -0.231075 1.99188e-13 1.3145e-13 25.3875 165.053 1.23815 
10.0823 2.66454e-15 2.30926e-14 26.9618 161.826 0.753328 5.52008 -2.47025e-13 1.53655e-13 
22.9033 153.961 0.910901 14.7222 4.35207e-14 -1.9007e-13 24.7414 154.045 0.658465 
10.0733 -2.61124e-13 -1.72529e-13 18.418 140.46 0.554079 17.2595 3.6815e-13 -9.9809e-14 
20.5384 143.162 0.526949 12.9488 2.7045e-13 1.64757e-13 11.9673 126.576 0.254082 
18.4304 1.85629e-13 -5.82034e-14 14.2528 131.102 0.382857 14.5536 2.09166e-13 1.27787e-13 
4.31527 113.459 0.0558651 19.2461 -4.70735e-13 3.16192e-13 6.48992 119.183 0.245065 
15.7545 -1.58096e-13 -9.60898e-14 -3.3443 101.388 -0.0441444 20.4085 -1.5099e-14 -3.04867e-13 
-1.58885 107.918 0.123305 17.2762 3.13971e-13 1.47438e-13 -8.7008 97.3136 0.0371411 
19.362 -2.9976e-14 -8.72635e-14 -7.33429 103.621 -0.0609573 -16.5679 1.50768e-13 6.17395e-13 
-11.5419 99.6741 0.00820611 -16.4327 -7.69163e-13 6.05072e-13 0.0886822 113.358 -0.0429877 
-14.1382 -3.81029e-13 -6.25611e-13 -5.1391 108.493 0.0598825 -13.3666 3.88356e-13 5.4623e-14 
8.39587 123.581 0.0410159 -12.3563 -2.75335e-13 -3.42892e-13 2.9495 117.502 0.136323 
-10.8656 -6.61693e-14 -4.38538e-15 16.3019 134.239 0.209718 -10.96 3.90799e-13 4.92051e-13 
11.5505 126.729 0.215435 -9.07399 -6.34603e-13 7.14984e-14 22.6362 144.628 0.440966 
-9.23851 2.00728e-13 -8.88178e-16 19.3046 135.921 0.290152 -7.65633 5.22693e-13 -5.4845e-14 
26.7766 153.24 0.670588 -6.46691 -2.61569e-13 5.05374e-13 25.1338 144.206 0.351961 
-5.94873 -3.83027e-13 2.93987e-13 28.7088 158.184 0.814592 -2.49774 8.84848e-14 -7.4607e-14 
28.5721 150.137 0.393476 -3.44727 3.96905e-13 2.34479e-13 28.6464 158.116 0.813395 
2.00291 1.54488e-13 7.31415e-13 29.6455 152.276 0.407934 -0.259899 -1.79216e-13 2.17604e-13 
26.5993 153.044 0.667583 5.98426 -3.11751e-13 -6.21725e-14 28.4487 150.016 0.392446 
2.93531 3.16192e-13 1.07914e-13 22.3724 144.32 0.437496 8.77967 9.70335e-14 7.08322e-14 
24.9076 143.972 0.350129 5.4593 -5.89973e-13 -7.28306e-14 15.9916 133.839 0.207006 
10.5325 6.03961e-14 5.83644e-13 19.012 135.587 0.287903 7.19995 -1.57652e-14 2.12275e-13 
8.07968 123.105 0.0395634 11.9592 -2.39808e-14 -1.18988e-13 11.234 126.308 0.213211 
8.65283 3.03757e-13 2.91933e-13 -0.203572 112.819 -0.0433956 13.7622 -2.47802e-13 -2.03615e-13 
2.64503 117.008 0.1345 10.4721 -5.07816e-13 -2.81664e-13 -7.59014 103.034 -0.0608324 
16.199 -2.48468e-13 1.12577e-13 -5.41159 107.938 0.0586934 12.9871 -1.108e-13 -6.59472e-14 
-11.7808 99.0744 0.0076029 16.0537 1.02141e-14 -1.39666e-13 -10.0575 104.084 -0.0473304 
-13.2552 8.14904e-14 4.62075e-13 -13.2507 100.232 -0.0127805 -13.7023 -4.52749e-13 7.11875e-13 
-3.23161 112.1 -0.0694954 -9.98965 3.11751e-13 3.10751e-13 -7.72776 107.704 0.0213493 
-10.0955 4.17e-13 -5.20695e-14 5.16508 120.151 -0.0526032 -7.43053 -3.29514e-13 -2.34451e-13 
-0.0451103 115.043 0.0760736 -6.91392 2.37144e-13 9.39526e-14 13.9202 128.279 0.0294153 
-5.71181 2.15161e-13 -1.46771e-13 8.84519 122.23 0.127783 -4.59592 -8.94174e-13 2.68563e-13 
21.6217 136.119 0.171318 -4.47905 3.36176e-13 -9.76996e-14 17.5464 129.164 0.168203 
-3.18099 -3.61933e-14 -2.68674e-14 27.1487 142.65 0.328803 -3.12925 -9.08162e-14 7.9714e-14 
24.6387 135.333 0.192722 -2.27631 -1.98286e-13 3.15081e-13 29.9446 146.43 0.433279 
-1.31226 2.08722e-14 4.40536e-13 29.1395 139.75 0.204024 -1.37708 3.66818e-13 1.66533e-13 
29.8801 146.374 0.432654 0.764892 -5.85088e-14 -7.37188e-14 30.6247 141.344 0.206879 
-0.284894 3.59428e-13 1.75859e-13 26.9676 142.484 0.327342 2.60195 3.55271e-14 1.79856e-14 
29.0142 139.646 0.203474 0.818611 2.95541e-13 1.82521e-13 21.3577 135.852 0.169903 
3.98712 -1.07248e-13 -2.55351e-13 24.4123 135.129 0.191702 1.74876 1.25899e-13 3.77476e-15 
13.6171 127.92 0.0287074 5.26096 1.03917e-13 3.55715e-13 17.2594 128.865 0.166898 
2.69519 -1.15907e-13 1.42109e-14 4.8627 119.709 -0.0525329 7.01486 -6.66134e-15 -3.89966e-14 
8.54074 121.842 0.126475 4.15052 9.59233e-14 3.06088e-13 -3.50895 111.586 -0.0690177 
9.595 -5.08482e-14 -1.61315e-13 -0.334972 114.574 0.0750448 6.49714 -1.74305e-13 -1.97509e-13 
-10.3042 103.512 -0.0468639 12.8661 1.9118e-13 -2.2693e-13 -7.98959 107.166 0.0207822 
9.69152 -3.93019e-14 -3.59712e-14 -13.4887 99.6405 -0.0129402 13.2981 -1.16351e-13 1.45439e-13 
-11.5888 103.678 -0.0232874 -10.6485 -9.79217e-14 1.46216e-13 -13.9305 99.9377 -0.0272935 
-11.4363 -1.82299e-13 4.17777e-13 -5.53571 110.397 -0.0614837 -6.90763 3.52385e-13 1.02696e-13 
-9.31467 106.349 -0.00351756 -7.61875 5.5933e-13 -1.84242e-13 2.55921 116.806 -0.0807388 
-3.78679 -2.2915e-13 3.92734e-13 -2.27985 112.42 0.0401967 -4.0292 5.55112e-15 -1.47105e-14 
11.6548 122.947 -0.0529596 -1.73784 -2.09166e-13 1.22791e-13 6.48582 118.044 0.0808617 
-1.30286 -6.94556e-13 1.47105e-13 20.2383 128.682 0.027681 -0.764701 2.93099e-14 5.20473e-13 
15.6606 123.181 0.108017 0.198472 2.82885e-13 4.01901e-14 26.8009 133.415 0.132755 
-0.458547 3.59268e-13 4.2677e-13 23.6099 127.594 0.116779 0.575117 -1.77192e-13 1.82521e-13 
30.2862 136.159 0.207532 -0.351349 -7.11098e-14 -1.09912e-13 28.9157 130.708 0.113962 
0.261545 6.69242e-13 -1.88738e-14 30.2215 136.111 0.207263 -0.242117 2.39253e-13 4.36984e-13 
30.7278 131.824 0.111068 -0.307038 -2.43975e-13 1.37668e-14 26.621 133.272 0.132223 
-0.109367 2.83107e-13 -1.54099e-13 28.7916 130.617 0.113625 -0.861967 5.92637e-13 4.64073e-14 
19.9801 128.444 0.0274223 0.239532 -6.03073e-13 4.87388e-13 23.3882 127.411 0.11612 
-1.13933 -1.47438e-13 -8.01581e-14 11.3632 122.616 -0.0526641 1.25883 2.70672e-13 2.91989e-14 
15.3837 122.904 0.107145 -0.716296 4.19664e-14 7.23865e-14 2.27089 116.387 -0.0800518 
3.34413 -7.74936e-14 1.65881e-13 6.19524 117.675 0.0800023 0.827061 3.53051e-13 1.82132e-13 
-5.80225 109.899 -0.0607918 6.48472 -2.10276e-13 -6.05627e-14 -2.55718 111.965 0.03959 
3.5811 4.21885e-14 1.03528e-14 -11.8337 103.114 -0.0228767 10.2302 -3.36398e-13 -5.42899e-14 
-9.57129 105.82 -0.00373207 7.1822 -1.01696e-13 5.59552e-14 -14.1749 99.3489 -0.0271879 
11 -2.51354e-13 -1.4222e-13 -12.2259 102.655 0.000951712 -8.59722 9.448e-14 -4.50973e-13 
-13.8721 99.0644 -0.0366801 -9.55277 2.17715e-13 -1.68976e-13 -7.01349 108.379 -0.0405159 
-4.66392 -2.08722e-13 -3.22187e-13 -10.1225 104.616 -0.0204809 -5.75982 -4.07563e-13 -1.96287e-13 
0.520461 113.556 -0.077286 -1.18715 -2.18492e-13 -1.82736e-13 -3.86543 109.714 0.0159535 
-1.98886 5.77316e-14 -2.53908e-13 9.55867 118.165 -0.0824103 1.1516 -2.4647e-13 -4.74065e-14 
4.47829 114.15 0.0522796 1.01557 -6.34381e-13 1.88183e-13 18.6013 122.204 -0.0433051 
2.0225 -7.26086e-14 2.60569e-13 13.7377 117.887 0.0766767 2.6383 7.77156e-14 -7.74936e-14 
25.8675 125.424 0.0238856 1.60107 1.96287e-13 -7.55396e-13 22.1784 120.878 0.0822415 
2.69678 9.24816e-14 -2.4114e-13 29.8677 127.267 0.0764285 0.399676 2.4758e-14 4.13891e-13 
28.0414 122.902 0.0757165 1.50683 -2.26041e-13 -1.14575e-13 29.8042 127.225 0.0763757 
-1.03472 1.06082e-13 -6.73017e-13 30.0953 123.609 0.0710766 -0.327278 -1.29285e-13 -1.16351e-13 
25.6923 125.295 0.0238957 -2.20718 3.15747e-13 3.64597e-13 27.9209 122.819 0.075457 
-2.14639 5.28466e-14 1.09024e-13 18.3528 121.985 -0.04295 -2.58197 -2.67342e-13 -4.97047e-13 
21.965 120.708 0.0817289 -3.29743 9.76996e-14 8.50431e-14 9.28059 117.852 -0.0816778 
-1.66332 1.73861e-13 -1.03084e-13 13.4736 117.624 0.0760123 -3.19103 -1.0969e-13 -5.21805e-15 
0.245078 113.15 -0.0764481 0.710745 -1.02363e-13 3.43021e-13 4.2017 113.792 0.0516752 
-1.52702 -1.77636e-14 3.06699e-14 -7.27346 107.889 -0.0399091 4.20557 -8.12683e-14 -2.03726e-14 
-4.13304 109.266 0.0156169 1.50332 3.26406e-13 1.1352e-13 -12.4751 102.094 0.00116615 
8.14323 -8.83738e-14 -2.19713e-13 -10.3788 104.09 -0.0204555 5.28505 6.76126e-14 -4.86833e-14 
-14.1286 98.473 -0.036386 9.07979 -2.90878e-13 -4.41758e-13 -12.2166 101.226 0.0210372 
-6.97898 1.48548e-13 -2.93654e-14 -13.309 97.8269 -0.0418619 -7.9837 -5.85088e-14 -1.662e-13 
-7.83866 106.167 -0.0172939 -3.06531 5.83977e-14 -1.80772e-13 -10.3444 102.662 -0.0318783 
-4.374 -2.46025e-13 6.78346e-14 -1.01858 110.418 -0.0606505 0.583556 7.10543e-15 2.43763e-13 
-4.91181 106.999 -0.00178571 -0.600856 3.76699e-13 -2.03337e-13 7.66649 113.87 -0.0850431 
3.14202 6.19504e-14 -2.58127e-14 2.81256 110.539 0.0319125 2.55334 -7.79821e-13 -1.20431e-13 
16.8136 116.576 -0.0742117 4.00852 -4.01457e-13 -2.86327e-13 11.8515 113.207 0.0574116 
4.29369 -4.42979e-14 -2.67786e-13 24.481 118.556 -0.0348726 3.11514 -2.14495e-13 -1.40554e-13 
20.4664 115.077 0.0657107 4.18673 5.01155e-13 -1.54321e-13 28.8282 119.639 0.00065135 
0.959541 2.07112e-13 -3.02425e-13 26.6568 116.213 0.06117 2.40293 -2.33757e-13 -1.66755e-13 
28.7671 119.601 0.000726342 -1.63343 -1.13742e-13 1.77414e-13 28.8708 116.58 0.0571341 
-0.346486 -5.4819e-14 -1.71418e-13 24.3132 118.436 -0.0345606 -3.75848 9.86988e-14 1.05915e-13 
26.5417 116.134 0.060934 -3.08038 -1.78635e-13 -7.92699e-14 16.5771 116.366 -0.0735653 
-4.60405 2.70228e-13 2.19602e-13 20.2636 114.912 0.065263 -4.82462 -2.87326e-13 -2.53131e-14 
7.40241 113.565 -0.0841862 -3.69067 3.28848e-13 1.249e-13 11.6013 112.949 0.0568741 
-4.88439 3.34288e-13 6.12843e-14 -1.28311 110.017 -0.05989 -1.0991 1.14797e-13 -1.93264e-13 
2.54891 110.185 0.031494 -3.10489 2.30482e-13 4.87943e-14 -8.09618 105.678 -0.0168923 
2.56632 3.21965e-13 -8.32667e-15 -5.17289 106.552 -0.00191238 0.0732491 -1.75304e-13 -5.61218e-14 
-12.4751 100.662 0.0210191 6.48508 -2.44138e-13 -2.52132e-13 -10.6048 102.133 -0.0316615 
3.85708 -2.1938e-13 7.17204e-14 -13.5822 97.228 -0.0414097 7.47092 -1.21902e-13 -3.64875e-13 
-11.7612 99.5585 0.0356438 -5.69636 -1.68532e-13 3.10751e-13 -12.4231 96.3885 -0.0437123 
-6.67296 -3.83138e-13 2.64844e-13 -8.16488 103.863 0.00333786 -1.95236 4.90052e-13 -2.24293e-13 
-10.1431 100.611 -0.0388537 -3.34496 5.53668e-13 -1.89904e-13 -2.1299 107.415 -0.0402767 
1.71405 -2.07057e-13 -4.16448e-13 -5.52348 104.34 -0.0148889 0.2962 -4.40759e-14 -1.83992e-13 
5.99649 110.008 -0.0751691 4.40804 -3.6926e-13 -2.21989e-13 1.46611 107.204 0.0158977 
3.48373 -4.33209e-13 -3.50553e-14 14.9634 111.695 -0.0836666 5.32122 -1.40332e-13 -1.37113e-13 
10.0577 109.074 0.0428759 5.31292 5.28466e-14 6.07847e-14 22.7669 112.69 -0.0653169 
4.15528 1.55986e-13 6.38378e-14 18.583 110.084 0.0556822 5.1451 1.6942e-13 2.67564e-14 
27.3057 113.152 -0.043258 1.34991 6.06182e-14 -1.75415e-14 24.8961 110.521 0.0554931 
2.9975 -2.37033e-13 1.48548e-13 27.2476 113.114 -0.043112 -2.06154 2.15772e-13 -2.98872e-13 
27.1944 110.615 0.0531721 -0.365437 -3.73976e-13 5.68434e-14 22.6079 112.574 -0.0648542 
-4.83617 -2.16493e-14 2.7256e-13 24.7873 110.444 0.0552669 -3.71297 -4.23606e-13 -9.83658e-14 
14.74 111.489 -0.0829221 -5.95516 1.36113e-13 -3.07199e-13 18.3918 109.921 0.0552815 
-5.82188 2.95874e-13 1.1946e-13 5.74572 109.703 -0.0743597 -4.99748 7.77156e-15 2.22045e-16 
9.82133 108.816 0.042448 -5.94469 2.62013e-13 -1.49381e-13 -2.3862 107.012 -0.0397017 
-2.27298 -1.02141e-14 2.37124e-14 1.21356 106.847 0.0156441 -4.0791 -7.10543e-14 -5.68712e-14 
-8.4238 103.37 0.00349179 1.40903 2.2049e-13 9.02056e-15 -5.78129 103.888 -0.0148309 
-0.869276 -1.64091e-13 -1.77636e-15 -12.0331 98.9863 0.0353889 5.15974 5.9508e-14 -5.56222e-14 
-10.4116 100.074 -0.0384649 2.78329 1.47105e-13 2.38698e-14 -12.7169 95.7776 -0.0431039 
6.11856 -2.50799e-13 -1.72196e-13 -11.0169 97.7831 0.0448526 -4.67278 -3.339e-13 -1.93845e-13 
-11.3518 94.8687 -0.0430963 -5.57454 -6.8523e-13 2.99621e-13 -8.12372 101.555 0.0194958 
-1.19665 4.45977e-13 7.3358e-14 -9.65193 98.5561 -0.0424007 -2.58105 1.14353e-13 6.50036e-14 
-2.88553 104.57 -0.0207728 2.36504 -1.08802e-14 1.75845e-13 -5.79588 101.786 -0.0241315 
0.834372 9.91429e-14 -1.71807e-14 4.55291 106.533 -0.0603643 5.1084 -2.05169e-13 2.29594e-13 
0.407809 104.14 0.00312398 3.95682 -2.51132e-13 4.05495e-13 13.1223 107.467 -0.0818632 
6.08496 4.06342e-14 1.42664e-13 8.39541 105.425 0.0305413 5.83256 3.28626e-14 -9.15934e-15 
20.8388 107.707 -0.0795297 4.79558 2.74558e-13 1.52656e-13 16.6215 105.801 0.0473856 
5.66975 2.19602e-13 -4.45199e-14 25.4311 107.677 -0.0683692 1.59419 1.12688e-14 2.11831e-13 
22.882 105.707 0.0518954 3.33939 1.59428e-13 8.31557e-14 25.3764 107.64 -0.0681903 
-2.34385 -1.02252e-13 2.60236e-13 25.1973 105.589 0.0516072 -0.384783 5.65882e-13 9.34808e-14 
20.6893 107.591 -0.079015 -5.51537 2.9754e-14 -2.89546e-13 22.7799 105.628 0.0516831 
-4.09413 1.7103e-13 7.52731e-14 12.9119 107.26 -0.08114 -6.76001 -1.86851e-13 -2.56462e-14 
16.4422 105.636 0.0470392 -6.38768 2.5091e-13 -1.33227e-14 4.314 106.225 -0.0596984 
-5.7421 -1.74305e-14 8.80684e-14 8.17204 105.163 0.0302268 -6.50847 4.18554e-14 3.03646e-14 
-3.1364 104.16 -0.020434 -2.97066 -4.00902e-13 3.82073e-15 0.164164 103.776 0.00302979 
-4.59912 2.70006e-13 1.73736e-13 -8.38755 101.052 0.0193873 0.606469 -1.45328e-13 2.65621e-13 
-6.0535 101.326 -0.0238991 -1.45535 -1.66089e-13 -9.33004e-14 -11.306 97.1991 0.044355 
4.0918 1.4122e-13 -6.60583e-14 -9.93169 98.008 -0.0418396 1.97312 1.56375e-13 2.73281e-13 
-11.6692 94.2426 -0.0423095 4.97783 -4.18332e-13 1.8624e-14 -10.1028 95.9956 0.0495986 
-3.84816 -3.09086e-13 2.20879e-13 -10.1955 93.3506 -0.0410708 -4.65009 1.44718e-13 1.51823e-13 
-7.82319 99.3072 0.031148 -0.697209 5.05151e-14 -3.98154e-13 -8.97442 96.5663 -0.0427471 
-2.0112 3.96905e-14 -2.60847e-13 -3.35359 101.9 -0.00408646 2.66907 -3.20854e-14 6.3511e-13 
-5.81135 99.3779 -0.0295355 1.11899 -4.82558e-13 2.47816e-13 3.32853 103.41 -0.0446589 
5.38238 -2.13829e-13 -1.41387e-13 -0.397809 101.339 -0.00661135 4.09858 1.88405e-13 -4.1786e-14 
11.3452 103.807 -0.0744157 6.41606 1.00475e-13 -1.80689e-13 6.88807 102.208 0.0195126 
5.974 -3.64153e-13 8.39329e-14 18.7959 103.492 -0.0840823 5.10921 3.80251e-14 -9.03722e-14 
14.6574 102.134 0.0390693 5.8526 -3.33733e-13 -1.20348e-13 23.3237 103.09 -0.0817191 
1.71636 -1.92346e-14 -2.46692e-13 20.7224 101.655 0.0479766 3.47659 -3.04035e-13 -1.4766e-13 
23.2726 103.052 -0.0815341 -2.5055 6.9611e-14 -5.06262e-14 22.998 101.381 0.0498019 
-0.405038 -3.23751e-14 -1.71307e-13 18.6561 103.373 -0.0835833 -5.87004 -1.54987e-13 1.93623e-13 
20.6273 101.575 0.0477852 -4.2727 -8.75966e-14 -1.39666e-13 11.1472 103.594 -0.0737904 
-7.13514 1.00142e-13 4.996e-16 14.4895 101.964 0.0387892 -6.61437 7.49956e-14 7.13318e-14 
3.09962 103.094 -0.0441915 -6.06342 -3.19744e-14 3.51885e-13 6.67638 101.938 0.0193212 
-6.69696 -1.83076e-13 -1.7375e-14 -3.60177 101.481 -0.00400967 -3.32388 1.27565e-13 -2.02938e-13 
-0.634789 100.967 -0.00654455 -4.7903 4.31655e-13 1.02543e-13 -8.09498 98.7935 0.0307636 
0.0586437 -1.21014e-14 -2.23321e-13 -6.07147 98.9067 -0.0291273 -1.78944 -1.99452e-13 -1.18516e-14 
-10.412 95.3969 0.0488349 3.22224 -1.41331e-13 4.5558e-13 -9.26816 96.0049 -0.0419953 
1.35649 -2.78277e-13 9.55347e-14 -10.5394 92.7076 -0.0400462 4.01157 3.52551e-13 9.10383e-14 
-9.10692 94.2621 0.0506573 -3.17843 2.57849e-14 -9.27314e-14 -9.01692 91.8891 -0.0364929 
-3.86906 -2.62151e-13 1.65673e-13 -7.35521 97.1676 0.0367887 -0.377762 2.27596e-14 2.20185e-13 
-8.19454 94.684 -0.0427095 -1.58199 6.7224e-14 4.60743e-15 -3.60155 99.4192 0.00689489 
2.73289 2.26319e-13 -1.65179e-13 -5.64878 97.134 -0.0357242 1.23087 1.70919e-13 -9.09203e-14 
2.30645 100.604 -0.0312997 5.35002 -2.34257e-14 1.29535e-13 -0.999714 98.7892 -0.0186324 
4.01059 -7.04992e-15 -1.28661e-13 9.67331 100.636 -0.0643446 6.42028 3.65208e-13 1.88072e-13 
5.53656 99.3679 0.00552703 5.8412 1.531e-13 1.08413e-13 16.7225 99.938 -0.0820584 
5.16504 -1.12466e-13 -2.57572e-13 12.7439 98.9955 0.0282996 5.77705 3.17524e-14 9.07607e-14 
21.0875 99.2696 -0.0867333 1.73945 2.94764e-14 7.73825e-14 18.5078 98.2585 0.0425919 
3.45443 -1.90653e-13 2.70894e-14 21.04 99.2302 -0.0865623 -2.57034 5.20139e-14 -2.95319e-14 
20.6996 97.8769 0.0470017 -0.426567 1.04582e-13 -1.07692e-14 16.592 99.8141 -0.0816263 
-5.96959 -8.80962e-14 -2.41474e-13 18.4194 98.1745 0.0424106 -4.29461 -4.06342e-14 8.471e-14 
9.48655 100.416 -0.0638748 -7.18634 -4.4742e-14 8.87068e-14 12.5868 98.819 0.0280716 
-6.58553 -1.42109e-13 -2.04836e-14 2.08562 100.279 -0.0310688 -6.08103 2.17826e-13 -3.9152e-13 
5.33509 99.0898 0.00545006 -6.61385 -1.07692e-14 -2.67564e-14 -3.84948 98.9897 0.00669279 
-3.43865 -2.62512e-13 2.2291e-13 -1.23203 98.4068 -0.0184018 -4.75361 -1.07137e-14 4.29379e-14 
-7.63751 96.6411 0.0361102 -0.309845 -6.01186e-14 3.46223e-13 -5.91357 96.6515 -0.0351244 
-1.95157 -2.18325e-13 -6.25888e-15 -9.43879 93.6477 0.0495722 2.508 1.67588e-13 -2.27429e-13 
-8.50435 94.109 -0.0417232 0.880974 3.17746e-13 2.35784e-14 -9.38951 91.2294 -0.0351863 
3.19053 -9.84213e-14 -1.58151e-13 -8.09518 92.6235 0.0469874 -2.6216 5.85643e-15 -1.29965e-13 
-6.77121 95.1758 0.0433543 -0.172959 1.35114e-13 -2.09804e-13 -3.64785 97.1488 0.0245589 
2.64673 2.80498e-13 -3.09324e-13 1.51201 98.1034 -0.00645458 5.11157 -1.25677e-13 5.00155e-14 
8.16727 97.8995 -0.0426993 6.1862 -1.23179e-13 -1.05638e-13 14.6971 96.9498 -0.0729411 
5.02247 6.60028e-14 4.35096e-13 18.8067 96.1009 -0.0891621 1.68405 1.62259e-13 -1.82965e-13 
18.7628 96.0596 -0.0889863 -2.55946 7.94087e-14 2.61235e-13 14.5757 96.8205 -0.0725409 
-5.87368 5.50671e-14 -7.29417e-14 7.99081 97.6707 -0.042369 -7.00209 2.12053e-14 1.5854e-13 
1.29756 97.7682 -0.00647279 -5.8947 1.7486e-14 3.02605e-13 -3.89748 96.7083 0.0240563 
-3.40444 -3.05755e-13 1.31804e-14 -7.06593 94.637 0.0423538 -0.56338 1.8302e-13 -4.64448e-13 
-8.45183 91.9944 0.045576 1.90841 -1.00864e-13 1.21889e-13 13.6468 36.5664 -0.98726 
25.2151 9.9365e-14 1.79856e-14 0.423555 18.989 -2.33641 13.6512 2.87548e-14 1.63425e-13 
-16.3801 6.91211 -3.6838 3.16453 -4.66127e-13 1.62093e-14 -34.9469 0.0438481 -4.93711 
-4.34966 9.23098e-14 3.24629e-13 -52.6625 -2.7965 -5.99636 -7.68971 -1.80522e-13 -1.42109e-14 
-66.6229 -3.29146 -6.76628 -6.75762 5.7121e-14 3.33844e-13 -74.3269 -3.05045 -7.17186 
-2.64413 2.498e-15 -5.95135e-13 -74.3269 -3.05045 -7.17186 2.64413 1.08469e-13 1.12271e-13 
-66.6229 -3.29146 -6.76628 6.75762 -1.26454e-13 6.51701e-14 -52.6625 -2.7965 -5.99636 
7.68971 -4.59466e-13 -2.51799e-13 -34.9469 0.0438482 -4.93711 4.34966 2.28435e-13 -4.92939e-14 
-16.3801 6.91211 -3.6838 -3.16453 -1.28286e-13 1.55431e-15 0.423555 18.989 -2.33641 
-13.6512 8.38218e-14 3.31735e-13 13.6468 36.5664 -0.98726 -25.2151 3.84137e-14 3.77476e-14 
3.2846 51.6976 -0.274246 26.6911 -1.02474e-13 -1.73195e-13 -5.3531 32.9191 -1.06959 
19.6918 -1.87794e-13 3.04201e-13 -16.7972 17.751 -1.96789 11.8593 -2.73795e-13 5.68434e-14 
-30.1707 6.97457 -2.88791 4.88105 4.30767e-14 1.44329e-13 -43.6167 0.412994 -3.72709 
0.209615 -5.68989e-14 2.08167e-13 -54.6527 -2.88377 -4.37144 -1.5229 1.83631e-13 1.71863e-13 
-60.9002 -4.12145 -4.72234 -0.821431 -1.03806e-13 -4.31211e-13 -60.9002 -4.12145 -4.72234 
0.821431 -3.61933e-13 1.12216e-13 -54.6527 -2.88377 -4.37144 1.5229 1.88294e-13 -3.81917e-14 
-43.6167 0.412994 -3.72709 -0.209615 -2.34812e-13 5.66214e-14 -30.1707 6.97457 -2.88791 
-4.88105 7.29417e-14 -3.3662e-13 -16.7972 17.751 -1.96789 -11.8593 2.25153e-13 4.92939e-14 
-5.3531 32.9191 -1.06959 -19.6918 2.23654e-13 3.37952e-13 3.2846 51.6976 -0.274246 
-26.6911 -6.00631e-14 -1.70752e-13 -4.43785 63.3774 0.0745186 26.8652 4.61853e-14 -1.44884e-13 
-9.83751 44.5727 -0.357981 23.5457 -1.15852e-13 7.50511e-14 -17.1563 27.62 -0.916423 
18.2196 3.05373e-13 -1.68532e-13 -26.2165 14.0046 -1.54976 12.1373 -1.7919e-13 2.79332e-13 
-35.8776 4.41512 -2.1749 6.71973 -2.45248e-13 1.39666e-13 -44.1843 -1.32569 -2.68254 
2.92284 1.26343e-13 1.85962e-13 -49.0256 -3.90574 -2.96848 0.749614 3.87468e-14 -3.08642e-13 
-49.0256 -3.90574 -2.96848 -0.749614 -2.61458e-13 1.97731e-13 -44.1843 -1.32569 -2.68254 
-2.92284 1.00031e-13 -2.10165e-13 -35.8776 4.41512 -2.1749 -6.71973 -1.96509e-14 6.63913e-14 
-26.2165 14.0046 -1.54976 -12.1373 1.66978e-13 1.1724e-13 -17.1563 27.62 -0.916423 
-18.2196 3.28329e-13 2.03615e-13 -9.83751 44.5727 -0.357981 -23.5457 -8.9373e-15 -1.37446e-13 
-4.43785 63.3774 0.0745186 -26.8652 1.48215e-13 5.76206e-14 -9.97637 72.2586 0.222067 
26.1026 -1.01585e-14 5.22915e-14 -13.1778 54.2454 0.0153526 25.6607 1.42664e-13 -3.13527e-13 
-17.4164 36.542 -0.304554 22.6027 -4.05578e-15 1.61648e-13 -22.9789 21.0232 -0.713612 
17.636 1.99563e-13 -1.55986e-13 -29.3515 9.06806 -1.15441 11.9444 3.69482e-13 1.41887e-13 
-35.1569 1.25362 -1.53467 6.61892 -5.37792e-13 1.87683e-13 -38.6644 -2.51729 -1.75665 
2.07831 -3.41616e-13 -2.48829e-13 -38.6644 -2.51729 -1.75665 -2.07831 3.03535e-13 2.14995e-13 
-35.1569 1.25362 -1.53467 -6.61892 8.16014e-14 -1.45495e-13 -29.3515 9.06806 -1.15441 
-11.9444 1.71196e-13 9.72555e-14 -22.9789 21.0232 -0.713612 -17.636 -6.61693e-14 2.03171e-14 
-17.4164 36.542 -0.304554 -22.6027 4.24903e-14 8.11573e-14 -13.1778 54.2454 0.0153526 
-25.6607 -6.75848e-14 -1.02696e-13 -9.97637 72.2586 0.222067 -26.1026 -3.19744e-14 -1.14908e-13 
-13.6869 78.7917 0.25822 24.6754 -4.2466e-14 1.15463e-13 -15.478 62.0993 0.18265 
26.3884 -1.72612e-13 -2.97429e-13 -17.5126 44.4501 0.0188944 25.2918 -8.56953e-15 2.07612e-13 
-20.3336 27.8467 -0.227949 21.5392 7.86593e-14 -2.23932e-13 -23.9326 14.1644 -0.52413 
15.9458 2.91545e-13 2.26374e-13 -27.5086 4.66646 -0.798052 9.57636 -1.64313e-14 6.79456e-14 
-29.785 -0.123678 -0.964445 3.16369 1.44662e-13 -1.1896e-13 -29.785 -0.123678 -0.964445 
-3.16369 -3.30069e-13 6.51701e-14 -27.5086 4.66646 -0.798052 -9.57636 1.07137e-13 -4.62408e-14 
-23.9326 14.1644 -0.52413 -15.9458 -4.20219e-13 -6.27276e-14 -20.3336 27.8467 -0.227949 
-21.5392 1.60427e-13 -3.08642e-14 -17.5126 44.4501 0.0188944 -25.2918 -1.79259e-13 1.32117e-14 
-15.478 62.0993 0.18265 -26.3884 -4.06064e-14 1.55431e-14 -13.6869 78.7917 0.25822 
-24.6754 -1.64591e-13 -5.71765e-14 -15.9171 83.413 0.239981 22.8171 3.50275e-14 1.56208e-13 
-16.8665 68.3483 0.236867 26.0552 -5.63161e-14 -7.27196e-14 -17.4015 51.3525 0.170395 
26.5782 1.12604e-13 4.81837e-14 -18.1546 34.3587 0.0346831 24.0383 -1.52545e-13 1.31783e-13 
-19.4874 19.5468 -0.154906 18.8172 3.80251e-14 -4.70735e-14 -21.1325 8.76217 -0.346141 
11.8274 -4.61964e-13 8.29892e-14 -22.3033 3.13888 -0.467862 4.01201 -1.33227e-14 -8.20177e-14 
-22.3033 3.13888 -0.467862 -4.01201 2.88991e-13 6.7002e-14 -21.1325 8.76217 -0.346141 
-11.8274 6.9722e-14 -6.99441e-14 -19.4874 19.5468 -0.154906 -18.8172 -9.9365e-14 1.89515e-13 
-18.1546 34.3587 0.0346831 -24.0383 -1.21014e-13 -1.75193e-13 -17.4015 51.3525 0.170395 
-26.5782 -8.38184e-14 2.12053e-14 -16.8665 68.3483 0.236867 -26.0552 7.16094e-15 5.21805e-14 
-15.9171 83.413 0.239981 -22.8171 1.90348e-13 1.84297e-14 -16.9852 86.5104 0.199115 
20.7137 1.49381e-13 -2.33702e-13 -17.4846 73.2071 0.233422 24.947 -2.38115e-13 3.11973e-13 
-17.0675 57.2827 0.225228 26.7409 3.9576e-14 -3.1275e-13 -16.3328 40.4651 0.163082 
25.3361 -2.54102e-13 2.63567e-13 -15.881 25.0658 0.0492889 20.6716 1.39555e-13 -1.03251e-13 
-15.9062 13.3852 -0.0801719 13.4193 2.65676e-13 8.6986e-14 -16.1133 7.12305 -0.167531 
4.63492 6.4504e-14 -8.34055e-14 -16.1133 7.12305 -0.167531 -4.63492 1.13354e-13 8.02136e-14 
-15.9062 13.3852 -0.0801719 -13.4193 -1.00142e-13 3.78031e-14 -15.881 25.0658 0.0492889 
-20.6716 2.63012e-13 1.19127e-13 -16.3328 40.4651 0.163082 -25.3361 2.63317e-13 -6.58362e-14 
-17.0675 57.2827 0.225228 -26.7409 -1.74076e-13 -2.60902e-14 -17.4846 73.2071 0.233422 
-24.947 8.49321e-15 -8.06022e-14 -16.9852 86.5104 0.199115 -20.7137 -1.14603e-13 1.944e-13 
-17.1739 88.4232 0.15251 18.51 1.31645e-13 -5.34017e-14 -17.4779 76.8883 0.203943 
23.3087 3.69135e-13 -9.09828e-14 -16.5173 62.299 0.229355 26.0399 4.19682e-14 1.08191e-13 
-14.7784 46.0982 0.215057 25.6397 4.37428e-14 -2.40308e-13 -12.9835 30.5847 0.154505 
21.6374 -2.94209e-14 1.00642e-13 -11.6991 18.3788 0.0706344 14.4133 1.70752e-13 2.53131e-14 
-11.0938 11.6727 0.00935367 5.04929 1.31006e-14 9.72833e-15 -11.0938 11.6727 0.00935367 
-5.0493 -5.53113e-13 -1.47229e-13 -11.6991 18.3788 0.0706344 -14.4133 2.84273e-13 1.67866e-13 
-12.9835 30.5847 0.154505 -21.6374 -7.63833e-14 -9.53126e-14 -14.7784 46.0982 0.215057 
-25.6397 -1.74943e-13 7.93809e-15 -16.5173 62.299 0.229355 -26.0399 -3.3375e-13 1.21014e-14 
-17.4779 76.8883 0.203943 -23.3087 1.01988e-13 -5.39013e-14 -17.1739 88.4232 0.15251 
-18.51 4.04066e-13 -1.30451e-14 -16.726 89.4407 0.108467 16.3139 -1.73916e-13 2.50189e-13 
-16.9869 79.5935 0.165343 21.3425 3.82999e-13 -1.37779e-13 -15.7749 66.4765 0.208999 
24.7092 -1.8107e-14 1.61815e-13 -13.4208 51.2148 0.225553 25.152 2.6204e-13 -7.60503e-15 
-10.6742 35.9837 0.20269 21.852 1.16629e-13 -5.15699e-14 -8.37822 23.591 0.152924 
14.8811 -1.76525e-13 -2.99205e-14 -7.1148 16.6285 0.111746 5.2763 -7.79377e-14 -1.22125e-15 
-7.1148 16.6285 0.111746 -5.2763 1.03584e-13 -1.42955e-13 -8.37822 23.591 0.152924 
-14.8811 -4.724e-13 6.32827e-14 -10.6742 35.9837 0.20269 -21.852 -4.83502e-14 8.16569e-14 
-13.4208 51.2148 0.225553 -25.152 -5.72598e-14 -2.68119e-14 -15.7749 66.4765 0.208999 
-24.7092 8.15086e-14 7.26641e-14 -16.9869 79.5935 0.165343 -21.3425 1.1946e-13 1.44218e-13 
-16.726 89.4407 0.108467 -16.3139 -8.26006e-14 -2.82718e-13 -15.8429 89.8027 0.0706253 
14.2016 1.95052e-13 2.4189e-13 -16.1411 81.5078 0.126264 19.2101 -1.29605e-13 -1.86628e-13 
-14.8748 69.902 0.178485 22.9514 4.48064e-14 4.9627e-14 -12.207 55.795 0.21458 
24.0633 -1.50685e-13 1.13298e-13 -8.84388 41.163 0.218781 21.4549 1.1155e-13 -1.31006e-13 
-5.81255 28.8802 0.195223 14.9008 -3.10307e-14 3.05866e-14 -4.04182 21.8352 0.170058 
5.34019 1.72362e-13 -8.18928e-14 -4.04182 21.8352 0.170058 -5.34019 -3.56382e-14 -1.38764e-13 
-5.81255 28.8802 0.195223 -14.9008 1.31006e-14 2.06446e-13 -8.84388 41.163 0.218781 
-21.4549 8.63476e-14 7.79932e-14 -12.207 55.795 0.21458 -24.0633 2.3069e-13 1.15408e-13 
-14.8748 69.902 0.178485 -22.9514 1.38068e-13 9.37028e-14 -16.1411 81.5078 0.126264 
-19.2101 1.29063e-13 -3.41949e-13 -15.8429 89.8027 0.0706253 -14.2016 1.23943e-13 2.18853e-13 
-14.686 89.7029 0.0402084 12.2232 1.30035e-13 6.43929e-15 -15.0539 82.7956 0.0908882 
17.0349 2.51743e-14 8.66529e-14 -13.8568 72.6675 0.145413 20.9367 6.45599e-14 -4.34097e-14 
-11.0988 59.8396 0.193205 22.546 -2.37713e-13 -8.21565e-15 -7.39634 46.0444 0.216869 
20.5819 2.71172e-14 5.55112e-15 -3.87676 34.1206 0.213861 14.5535 -1.88016e-13 3.29181e-14 
-1.74088 27.1478 0.201828 5.26704 -3.00593e-13 -9.44522e-14 -1.74088 27.1478 0.201828 
-5.26704 4.46476e-13 -6.05072e-15 -3.87676 34.1206 0.213861 -14.5535 -3.56215e-13 -1.75138e-14 
-7.39634 46.0444 0.216869 -20.5819 -1.16795e-13 1.49436e-13 -11.0988 59.8396 0.193205 
-22.546 -2.17881e-15 7.60503e-15 -13.8568 72.6675 0.145413 -20.9367 2.60733e-13 1.15852e-13 
-15.0539 82.7956 0.0908882 -17.0349 4.27408e-13 -8.29059e-14 -14.686 89.7029 0.0402084 
-12.2232 5.34434e-14 -4.99045e-14 -13.3807 89.2928 0.0167872 10.4082 1.85504e-13 1.31922e-13 
-13.821 83.5983 0.060808 14.9073 3.30007e-13 -1.44995e-13 -12.7617 74.8651 0.113804 
18.8015 -3.49781e-13 2.83107e-14 -10.0704 63.366 0.167702 20.7499 4.24938e-14 1.61815e-14 
-6.24888 50.5722 0.204903 19.3593 -2.37144e-13 3.57492e-14 -2.45426 39.2054 0.217897 
13.9189 2.63706e-13 -3.85803e-14 -0.0823254 32.4363 0.216716 5.08344 4.57967e-14 -1.50227e-14 
-0.0823254 32.4363 0.216716 -5.08344 -4.76619e-13 8.13863e-14 -2.45426 39.2054 0.217897 
-13.9189 2.26985e-13 -1.41026e-13 -6.24888 50.5722 0.204903 -19.3593 -3.14748e-14 2.54852e-13 
-10.0704 63.366 0.167702 -20.7499 -1.40096e-13 -8.63476e-14 -12.7617 74.8651 0.113804 
-18.8015 -3.51942e-13 -1.91513e-15 -13.821 83.5983 0.060808 -14.9073 -1.14977e-13 2.16493e-14 
-13.3807 89.2928 0.0167872 -10.4082 -2.46192e-14 -2.19019e-13 -12.0173 88.6912 0.00105852 
8.77001 8.22953e-14 1.5471e-13 -12.5162 84.0385 0.0381886 12.8889 1.32429e-13 1.09052e-13 
-11.6255 76.586 0.0868957 16.6514 1.50891e-13 -8.35443e-14 -9.10544 66.405 0.141711 
18.8013 -1.71675e-13 -8.4488e-14 -5.33331 54.7094 0.186797 17.9016 -2.00895e-13 9.13714e-14 
-1.4406 44.0472 0.211851 13.0729 5.64548e-14 7.87981e-14 1.05474 37.5893 0.219845 
4.81533 2.23432e-14 -8.10879e-14 1.05474 37.5893 0.219845 -4.81533 -2.95319e-14 7.72854e-14 
-1.4406 44.0472 0.211851 -13.0729 3.61711e-13 -3.611e-14 -5.33331 54.7094 0.186797 
-17.9016 4.75731e-14 2.08916e-13 -9.10544 66.405 0.141711 -18.8013 2.50792e-13 -2.73892e-13 
-11.6255 76.586 0.0868957 -16.6514 1.20982e-13 7.40241e-14 -12.5162 84.0385 0.0381886 
-12.8889 -3.35079e-14 -6.20337e-14 -12.0173 88.6912 0.00105852 -8.77001 -1.966e-13 1.01183e-13 
-10.6655 87.9763 -0.0118062 7.31027 1.02654e-13 1.02571e-13 -11.2082 84.1968 0.0150237 
11.0195 -1.86663e-13 6.53921e-14 -10.4956 77.8868 0.0547439 14.5658 1.14369e-13 1.66533e-16 
-8.20671 68.9681 0.106622 16.8034 -2.28637e-14 -1.68449e-13 -4.5992 58.4188 0.158187 
16.3061 2.31717e-13 8.9595e-14 -0.743804 48.5743 0.195978 12.0817 -1.1377e-13 -4.78229e-14 
1.78247 42.5194 0.214188 4.4856 -9.82825e-14 2.58057e-14 1.78247 42.5194 0.214188 
-4.4856 -5.39846e-14 -1.34434e-13 -0.743804 48.5743 0.195978 -12.0817 -2.37199e-13 2.29483e-13 
-4.5992 58.4188 0.158187 -16.3061 -9.17877e-14 -6.41154e-14 -8.20671 68.9681 0.106622 
-16.8034 -1.3748e-13 -1.00669e-13 -10.4956 77.8868 0.0547439 -14.5658 -1.55041e-14 1.61288e-13 
-11.2082 84.1968 0.0150237 -11.0195 6.14231e-14 -4.06203e-14 -10.6655 87.9763 -0.0118062 
-7.31027 1.53072e-13 -1.20917e-13 20.1134 27.7969 -1.42004 23.7608 6.52367e-13 -1.34115e-13 
18.3866 46.5409 -0.607205 30.4936 4.54303e-13 7.01661e-14 4.19815 11.7527 -2.96798 
9.70576 -1.21458e-13 4.93827e-13 7.45046 26.6978 -1.79939 19.2683 -1.67644e-13 -1.34115e-13 
-15.6282 1.93486 -4.48696 -1.99324 -4.73399e-13 8.57092e-14 -7.4787 12.117 -2.99825 
8.07211 -2.20268e-13 5.25802e-13 -36.9584 -2.56409 -5.86757 -9.49999 1.78968e-13 1.63425e-13 
-25.1593 2.9766 -4.15174 -1.0386 -2.29594e-13 3.14415e-13 -56.8162 -3.38933 -7.00957 
-11.9098 -5.48631e-13 3.08642e-13 -43.3476 -1.51265 -5.17401 -6.48414 -1.82632e-13 -1.23013e-13 
-72.1678 -2.47643 -7.82436 -9.47386 9.92761e-13 2.5957e-13 -59.2575 -2.85413 -5.98314 
-7.60574 -3.4972e-14 7.45626e-13 -80.5385 -1.52509 -8.24827 -3.57606 -3.75144e-13 -8.9212e-13 
-70.1513 -2.75668 -6.50393 -4.91598 -1.32561e-13 -2.67786e-13 -80.5385 -1.52509 -8.24827 
3.57606 2.53131e-13 -2.81442e-14 -74.0275 -2.5564 -6.68389 9.44027e-08 1.77858e-13 -5.58945e-13 
-72.1678 -2.47643 -7.82436 9.47386 3.45945e-13 2.4758e-13 -70.1513 -2.75668 -6.50393 
4.91598 1.05471e-13 3.71925e-13 -56.8162 -3.38933 -7.00957 11.9098 -3.39728e-13 -2.97096e-13 
-59.2575 -2.85413 -5.98314 7.60574 -2.36033e-13 -1.86295e-13 -36.9584 -2.56409 -5.86757 
9.49999 5.12257e-13 -6.83897e-14 -43.3476 -1.51265 -5.17401 6.48414 2.25597e-13 -1.98064e-13 
-15.6282 1.93486 -4.48696 1.99324 1.42553e-13 -1.85185e-13 -25.1593 2.9766 -4.15174 
1.0386 1.70586e-13 -3.90354e-13 4.19815 11.7527 -2.96798 -9.70576 5.22693e-13 6.12843e-13 
-7.4787 12.117 -2.99825 -8.07211 2.07834e-13 3.9746e-13 20.1134 27.7969 -1.42004 
-23.7608 2.13607e-13 -8.88178e-15 7.45046 26.6978 -1.79939 -19.2683 3.45501e-13 3.97904e-13 
18.3866 46.5409 -0.607205 -30.4936 8.19789e-13 -1.5099e-14 8.35108 44.4588 -0.552803 
25.9893 -6.84341e-13 4.71623e-13 6.25926 60.8993 -0.327813 29.1305 -5.10703e-14 -3.29958e-13 
-2.3322 26.4138 -1.49479 16.8224 2.44471e-13 1.77636e-14 -0.91715 41.0575 -0.972752 
23.08 -1.35891e-13 4.4631e-13 -16.2639 12.8118 -2.53852 7.71778 -1.26621e-12 6.05738e-13 
-10.859 24.2278 -1.68824 15.4913 -7.79932e-13 -1.02141e-13 -32.1093 3.9364 -3.59153 
0.475308 1.28786e-14 3.17968e-13 -23.21 11.5515 -2.43445 7.95301 2.05391e-15 9.29035e-13 
-47.6203 -0.842565 -4.53504 -3.56782 -4.33653e-13 2.9754e-13 -36.608 3.27129 -3.14378 
2.08051 -8.78297e-13 -2.36255e-13 -60.0869 -2.80598 -5.2483 -4.02965 -6.0707e-13 5.11147e-13 
-48.8703 -1.2695 -3.73643 -1.05712 -1.79856e-13 5.94191e-13 -67.052 -3.34183 -5.63262 
-1.69494 -4.32543e-13 -6.93667e-13 -57.5415 -3.25076 -4.13248 -1.40393 -5.2891e-13 -6.61693e-14 
-67.052 -3.34183 -5.63262 1.69494 7.86038e-14 3.0087e-14 -60.6785 -3.76448 -4.27197 
2.69384e-08 -3.15303e-13 -4.22277e-13 -60.0869 -2.80598 -5.2483 4.02965 -7.63611e-13 -7.57172e-14 
-57.5415 -3.25076 -4.13248 1.40393 -2.23821e-13 1.31006e-13 -47.6203 -0.842565 -4.53504 
3.56782 -6.32494e-13 -2.46025e-13 -48.8703 -1.2695 -3.73643 1.05712 -3.32179e-13 -1.98064e-13 
-32.1093 3.9364 -3.59153 -0.475308 2.78444e-13 -3.09086e-13 -36.608 3.27129 -3.14378 
-2.08051 1.5532e-13 2.66454e-14 -16.2639 12.8118 -2.53852 -7.71778 -3.36731e-13 -9.54792e-14 
-23.21 11.5515 -2.43445 -7.95301 4.70818e-13 -3.5083e-13 -2.3322 26.4138 -1.49479 
-16.8224 2.75335e-13 7.34968e-13 -10.859 24.2278 -1.68824 -15.4913 2.82219e-13 8.44658e-13 
8.35108 44.4588 -0.552803 -25.9893 1.20792e-13 -8.17124e-14 -0.91715 41.0575 -0.972752 
-23.08 2.96874e-13 -1.59872e-14 6.25926 60.8993 -0.327813 -29.1305 3.69482e-13 6.21725e-14 
-0.699321 57.628 -0.113601 26.7614 1.06581e-13 -3.73035e-13 -2.60529 71.8091 -0.164433 
27.2663 -3.78808e-13 -1.02585e-13 -7.51311 38.9925 -0.614437 21.6924 -1.29963e-12 5.75096e-13 
-7.2599 52.8524 -0.504708 25.1738 -3.98792e-13 -3.73035e-13 -16.7189 23.0053 -1.25817 
15.1682 2.23321e-13 5.68434e-14 -13.5419 34.9667 -0.917153 20.7173 -4.90163e-14 2.95763e-13 
-27.8127 10.8079 -1.98703 8.6539 -5.89639e-13 4.10338e-13 -21.6538 19.8508 -1.37412 
14.8864 8.71525e-14 4.53415e-13 -39.2922 2.6936 -2.69886 3.59023 -4.17222e-13 3.94351e-13 
-30.9593 8.55639 -1.83315 9.06665 -8.88178e-13 -2.34479e-13 -48.9276 -1.86913 -3.27051 
0.78297 1.08713e-12 2.49356e-13 -39.9166 1.24971 -2.23422 4.48787 -1.73195e-13 1.23679e-12 
-54.459 -3.80493 -3.5898 -0.0071602 -8.08242e-14 -5.94302e-13 -46.4849 -2.62417 -2.51097 
1.63573 -1.7808e-13 -4.77618e-13 -54.459 -3.80493 -3.5898 0.00716019 -2.27374e-13 3.57492e-14 
-48.9061 -3.80478 -2.61009 -2.06851e-08 -2.32703e-13 -5.0638e-13 -48.9276 -1.86913 -3.27051 
-0.78297 -1.08358e-13 -8.74856e-14 -46.4849 -2.62417 -2.51097 -1.63573 -3.74367e-13 1.54543e-13 
-39.2922 2.6936 -2.69886 -3.59023 2.54685e-13 3.4639e-14 -39.9166 1.24971 -2.23422 
-4.48787 2.36255e-13 -3.95239e-14 -27.8127 10.8079 -1.98703 -8.6539 -2.28706e-14 -1.01696e-13 
-30.9593 8.55639 -1.83315 -9.06665 -1.36779e-13 -2.39808e-14 -16.7189 23.0053 -1.25817 
-15.1682 1.07245e-12 6.386e-13 -21.6538 19.8508 -1.37412 -14.8864 5.46285e-13 3.38396e-13 
-7.51311 38.9925 -0.614437 -21.6924 2.36478e-13 1.86517e-13 -13.5419 34.9667 -0.917153 
-20.7173 1.21569e-13 2.45137e-13 -0.699321 57.628 -0.113601 -26.7614 -2.085e-13 -3.05089e-13 
-7.2599 52.8524 -0.504708 -25.1738 1.76525e-13 -3.0953e-13 -2.60529 71.8091 -0.164433 
-27.2663 -2.29372e-13 4.18332e-13 -7.37355 67.799 0.0785227 26.4435 -1.4122e-13 -3.30402e-13 
-8.77041 79.7993 -0.0684519 25.081 3.5083e-13 2.14495e-13 -11.5052 49.5498 -0.146703 
24.6407 -6.32827e-14 -2.98428e-13 -11.8092 62.2994 -0.252391 25.8932 -2.01394e-13 -5.51559e-13 
-17.117 32.3207 -0.50215 20.5068 2.75155e-13 1.91847e-13 -15.5047 44.3011 -0.4897 
24.0499 3.37175e-13 2.30926e-14 -24.2966 17.7831 -0.966565 15.0075 1.0103e-14 2.75335e-14 
-20.3494 27.7185 -0.759235 19.9288 6.42375e-13 2.23821e-13 -32.2232 6.99667 -1.46755 
9.44422 -5.81979e-13 4.53415e-13 -26.2576 14.1757 -1.03806 14.5216 -2.10498e-13 -6.7546e-13 
-39.2282 0.189918 -1.89768 4.84806 -8.34444e-13 5.84865e-13 -32.3015 4.57999 -1.28844 
9.01472 2.2915e-13 1.06892e-12 -43.381 -3.00604 -2.14744 1.44122 -3.21076e-13 -5.07261e-13 
-36.9344 -0.955697 -1.46512 4.18118 -5.14699e-13 -1.66089e-13 -43.381 -3.00604 -2.14744 
-1.44122 1.82077e-13 9.82547e-14 -38.6816 -2.73854 -1.5292 -5.29333e-08 8.88178e-14 -1.75374e-13 
-39.2282 0.189918 -1.89768 -4.84806 5.15143e-14 -1.56763e-13 -36.9344 -0.955697 -1.46512 
-4.18118 -7.81597e-14 -8.60423e-14 -32.2232 6.99667 -1.46755 -9.44422 -1.84741e-13 8.61533e-14 
-32.3015 4.57999 -1.28844 -9.01472 -9.05942e-14 1.82077e-14 -24.2966 17.7831 -0.966565 
-15.0075 2.6068e-13 2.35367e-13 -26.2576 14.1757 -1.03806 -14.5216 -1.9984e-14 2.26041e-13 
-17.117 32.3207 -0.50215 -20.5068 1.34434e-13 2.1716e-13 -20.3494 27.7185 -0.759235 
-19.9288 -2.02727e-13 2.66454e-15 -11.5052 49.5498 -0.146703 -24.6407 -2.81664e-13 -3.18856e-13 
-15.5047 44.3011 -0.4897 -24.0499 -1.97065e-13 -2.22933e-13 -7.37355 67.799 0.0785227 
-26.4435 4.57856e-13 1.46549e-13 -11.8092 62.2994 -0.252391 -25.8932 -1.36557e-13 -8.88178e-16 
-8.77041 79.7993 -0.0684519 -25.081 -6.83897e-14 -1.35003e-13 -12.0165 75.4118 0.132247 
25.3281 1.11688e-13 5.50671e-14 -12.7844 85.4163 -0.00857307 22.7264 9.85878e-14 6.26166e-14 
-14.3828 58.2084 0.0645045 26.0283 5.31686e-13 -5.20473e-13 -14.8396 69.7064 -0.115086 
25.5675 -2.10276e-13 -9.05942e-14 -17.3713 40.644 -0.100925 24.0085 5.11216e-13 1.95399e-13 
-16.7809 52.2989 -0.258458 25.8186 3.18384e-13 -1.49658e-13 -21.4333 24.6354 -0.369761 
19.6809 6.04294e-13 -3.7037e-13 -19.1905 35.0748 -0.417419 23.3089 1.93512e-13 4.72511e-13 
-26.3208 11.8236 -0.699658 14.0395 9.03944e-13 6.75016e-14 -22.358 20.0028 -0.579188 
18.5594 1.05027e-13 -5.74651e-13 -30.9505 3.15222 -1.00646 8.16579 -1.61204e-13 3.47056e-13 
-25.9003 8.61025 -0.723098 12.5601 3.39728e-14 3.07088e-13 -33.8144 -1.14235 -1.1927 
2.6456 -3.47722e-13 -2.77944e-13 -28.7965 1.6732 -0.824592 6.23733 -7.47402e-13 -3.0087e-14 
-33.8144 -1.14235 -1.1927 -2.6456 -4.58744e-13 6.54476e-14 -29.9248 -0.634115 -0.86148 
-7.20406e-08 -1.91847e-13 -2.22126e-13 -30.9505 3.15222 -1.00646 -8.16579 -1.7053e-13 -1.03473e-13 
-28.7965 1.6732 -0.824592 -6.23733 6.57252e-14 1.25233e-13 -26.3208 11.8236 -0.699658 
-14.0395 1.88294e-13 7.14984e-14 -25.9003 8.61025 -0.723098 -12.5601 -4.84057e-14 1.04805e-13 
-21.4333 24.6354 -0.369761 -19.6809 -5.25247e-13 -9.10383e-14 -22.358 20.0028 -0.579188 
-18.5594 8.59313e-14 -8.88178e-14 -17.3713 40.644 -0.100925 -24.0085 -4.45186e-13 -6.12843e-14 
-19.1905 35.0748 -0.417419 -23.3089 -2.38198e-13 1.15463e-14 -14.3828 58.2084 0.0645045 
-26.0283 -1.48326e-13 -8.17124e-14 -16.7809 52.2989 -0.258458 -25.8186 -3.57686e-13 -1.03029e-13 
-12.0165 75.4118 0.132247 -25.3281 4.9738e-14 -1.42997e-13 -14.8396 69.7064 -0.115086 
-25.5675 -1.11022e-16 -1.16795e-13 -12.7844 85.4163 -0.00857307 -22.7264 -3.16192e-13 -1.13243e-13 
-14.9914 80.9226 0.119268 23.672 -5.2347e-13 3.75255e-13 -15.1237 89.143 0.0313981 
20.3212 -4.01901e-13 -2.22045e-13 -16.2669 65.1772 0.13419 26.199 4.18776e-13 -2.39808e-13 
-16.6205 75.363 -0.0372126 24.4816 1.18239e-13 5.04485e-13 -17.4256 47.9703 0.0855617 
25.9662 3.22603e-13 1.64313e-13 -17.4354 59.0366 -0.133504 26.3353 -5.26801e-14 -2.24931e-13 
-19.0909 31.2395 -0.0484633 22.856 -5.90639e-13 9.14824e-14 -18.1033 41.8419 -0.233926 
25.267 -3.99236e-13 2.08722e-13 -21.4563 17.016 -0.249894 17.458 1.12577e-13 3.79696e-14 
-19.1326 25.892 -0.328252 21.3184 -1.22347e-13 -3.90799e-14 -23.9994 6.87161 -0.4582 
10.7604 -1.91847e-13 1.11022e-13 -20.5894 13.1907 -0.405496 15.1828 -1.19904e-13 2.74447e-13 
-25.6903 1.65664 -0.591765 3.60954 -6.79456e-14 -1.53877e-13 -21.97 5.13105 -0.456786 
7.82096 -2.98428e-13 -1.15352e-13 -25.6903 1.65664 -0.591765 -3.60954 3.10862e-15 6.90004e-14 
-22.5454 2.38676 -0.474885 -8.04858e-08 3.49054e-13 -3.70173e-14 -23.9994 6.87161 -0.4582 
-10.7604 -2.06057e-13 -2.4869e-14 -21.97 5.13105 -0.456786 -7.82096 -8.30447e-14 1.20459e-13 
-21.4563 17.016 -0.249894 -17.458 -4.29212e-13 6.41709e-14 -20.5894 13.1907 -0.405496 
-15.1828 1.56319e-13 -1.01252e-13 -19.0909 31.2395 -0.0484633 -22.856 6.83453e-13 1.02141e-14 
-19.1326 25.892 -0.328252 -21.3184 -4.64517e-13 3.40616e-13 -17.4256 47.9703 0.0855617 
-25.9662 -5.91513e-13 -1.54543e-13 -18.1033 41.8419 -0.233926 -25.267 2.90712e-13 -4.20552e-13 
-16.2669 65.1772 0.13419 -26.199 -4.02456e-13 -1.13243e-13 -17.4354 59.0366 -0.133504 
-26.3353 -1.51462e-13 -1.53211e-14 -14.9914 80.9226 0.119268 -23.672 -1.09246e-13 -1.30562e-13 
-16.6205 75.363 -0.0372126 -24.4816 -3.24851e-13 1.50546e-13 -15.1237 89.143 0.0313981 
-20.3212 -2.42029e-14 -1.4122e-13 -16.6339 84.737 0.0795411 21.6829 1.23346e-13 -1.3145e-13 
-16.1987 91.4013 0.0588968 17.9549 -3.13194e-13 -4.8872e-13 -17.294 70.6667 0.132757 
25.4576 -1.16795e-13 2.08722e-13 -17.4074 79.5507 0.0106374 22.8773 1.50546e-13 1.15463e-13 
-17.2501 54.3194 0.15103 26.6643 1.35697e-13 -1.95843e-13 -17.5518 64.6142 -0.0623557 
25.8876 -5.44564e-14 6.12843e-14 -17.1499 37.4908 0.104912 24.7294 -6.10623e-13 3.0953e-13 
-17.0383 47.969 -0.135139 26.0464 -5.94524e-14 -2.82441e-13 -17.4927 22.4221 -0.00506286 
19.8023 -1.9984e-15 -1.39888e-13 -16.4653 31.7093 -0.196157 22.9563 -3.34066e-13 3.31291e-13 
-18.2577 11.1972 -0.139003 12.6712 -9.24594e-13 2.367e-13 -16.2413 18.1646 -0.23769 
16.9616 -2.25597e-13 -4.44089e-13 -18.911 5.25179 -0.231397 4.34177 1.49214e-13 3.81917e-14 
-16.3398 9.26766 -0.260074 8.96068 1.49214e-13 5.31686e-13 -18.911 5.25179 -0.231397 
-4.34177 1.1382e-12 1.11133e-13 -16.4358 6.17967 -0.266913 -8.06897e-08 1.87406e-13 2.92441e-13 
-18.2577 11.1972 -0.139003 -12.6712 1.78746e-13 -7.77156e-14 -16.3398 9.26766 -0.260074 
-8.96068 -2.72227e-13 -3.2796e-13 -17.4927 22.4221 -0.00506286 -19.8023 6.99441e-14 1.60538e-13 
-16.2413 18.1646 -0.23769 -16.9616 2.90434e-13 -8.9706e-14 -17.1499 37.4908 0.104912 
-24.7294 -3.6926e-13 -2.62679e-13 -16.4653 31.7093 -0.196157 -22.9563 3.96239e-13 3.9746e-14 
-17.2501 54.3194 0.15103 -26.6643 -1.15796e-13 -1.15463e-14 -17.0383 47.969 -0.135139 
-26.0464 -8.77076e-15 -6.50591e-14 -17.294 70.6667 0.132757 -25.4576 8.04967e-13 1.99396e-13 
-17.5518 64.6142 -0.0623557 -25.8876 -2.39836e-13 2.16493e-13 -16.6339 84.737 0.0795411 
-21.6829 -1.52101e-14 9.99201e-15 -17.4074 79.5507 0.0106374 -22.8773 1.40887e-13 -6.86118e-14 
-16.1987 91.4013 0.0588968 -17.9549 5.83977e-14 -4.57412e-14 -17.2483 87.2158 0.0342984 
19.5259 4.41647e-13 -3.0842e-13 -16.3524 92.5507 0.0772613 15.6921 2.88436e-13 4.83391e-13 
-17.6106 74.8899 0.100912 24.0695 7.17759e-14 2.14495e-13 -17.4323 82.5319 0.0422102 
20.9529 4.76841e-14 -5.00933e-13 -16.8415 59.7382 0.154229 26.3732 1.45634e-13 -1.80078e-13 
-17.2239 69.1469 -0.0177154 24.7318 4.72927e-13 3.18856e-13 -15.5106 43.3102 0.162818 
25.5073 -2.37033e-13 1.15463e-14 -15.9671 53.431 -0.0784738 25.883 7.43849e-15 -5.63993e-13 
-14.2962 27.9005 0.115719 21.194 -1.91624e-13 6.72795e-14 -14.2539 37.3375 -0.126407 
23.6412 5.81757e-13 3.03313e-13 -13.597 15.9743 0.0361387 13.953 1.33293e-12 5.4734e-14 
-12.7294 23.3776 -0.153105 17.9904 3.20632e-13 2.0739e-13 -13.361 9.49254 -0.0251172 
4.85674 6.24834e-13 6.4615e-14 -11.7813 13.9237 -0.162314 9.69468 4.76952e-13 6.95e-14 
-13.361 9.49254 -0.0251172 -4.85674 -1.41087e-12 -1.33837e-13 -11.4755 10.5873 -0.163725 
-7.4947e-08 -3.45723e-13 -4.71602e-13 -13.597 15.9743 0.0361387 -13.953 -4.09672e-13 5.78426e-14 
-11.7813 13.9237 -0.162314 -9.69468 -4.7029e-13 -4.16334e-14 -14.2962 27.9005 0.115719 
-21.194 8.24896e-13 1.81632e-13 -12.7294 23.3776 -0.153105 -17.9904 -2.71339e-13 4.8983e-13 
-15.5106 43.3102 0.162818 -25.5073 7.66942e-13 -5.77316e-14 -14.2539 37.3375 -0.126407 
-23.6412 -2.06279e-13 -6.08402e-14 -16.8415 59.7382 0.154229 -26.3732 -3.37216e-13 -7.9714e-14 
-15.9671 53.431 -0.0784738 -25.883 -9.65894e-15 -5.07816e-13 -17.6106 74.8899 0.100912 
-24.0695 -1.00087e-13 1.82077e-14 -17.2239 69.1469 -0.0177154 -24.7318 -3.87163e-13 3.05089e-13 
-17.2483 87.2158 0.0342984 -19.5259 -2.70228e-13 -5.41789e-14 -17.4323 82.5319 0.0422102 
-20.9529 3.49498e-13 -1.39666e-13 -16.3524 92.5507 0.0772613 -15.6921 1.32006e-13 6.52811e-14 
-17.1003 88.6697 -0.00646401 17.3262 2.15383e-14 2.75557e-13 -15.8642 92.8899 0.0882363 
13.576 -1.02918e-13 2.28262e-13 -17.3628 78.0519 0.0602498 22.2576 5.70932e-13 -2.35367e-13 
-16.8986 84.5449 0.0634659 18.8662 4.92328e-13 2.42029e-13 -16.2171 64.2929 0.129177 
25.3399 9.14997e-14 9.85878e-14 -16.5474 72.7592 0.0130973 23.0893 3.64014e-13 -1.93401e-13 
-14.093 48.6425 0.1703 25.3952 9.61842e-13 -3.5616e-13 -14.8781 58.2272 -0.0418374 
24.9973 4.02928e-13 1.82299e-13 -11.7407 33.3236 0.16567 21.7668 -1.33338e-13 1.25899e-13 
-12.4105 42.6809 -0.0865565 23.5436 1.8896e-13 -4.71179e-13 -9.88435 21.0489 0.125472 
14.6726 -4.04565e-13 9.80327e-14 -9.93101 28.6845 -0.110403 18.373 3.77476e-14 1.08136e-13 
-8.91353 14.2215 0.0876236 5.17365 -4.39204e-13 -1.4666e-13 -8.16491 18.9391 -0.116489 
10.0687 -2.11386e-13 4.51861e-14 -8.91353 14.2215 0.0876236 -5.17365 -5.60441e-13 -2.76612e-13 
-7.53554 15.4477 -0.116401 -6.52966e-08 -2.66676e-13 -3.70143e-13 -9.88435 21.0489 0.125472 
-14.6726 4.06342e-14 3.07532e-13 -8.16491 18.9391 -0.116489 -10.0687 -7.77156e-15 2.93876e-13 
-11.7407 33.3236 0.16567 -21.7668 -6.93334e-13 4.44089e-14 -9.93101 28.6845 -0.110403 
-18.373 -1.56319e-13 2.31593e-13 -14.093 48.6425 0.1703 -25.3952 -6.11122e-13 -2.82663e-13 
-12.4105 42.6809 -0.0865565 -23.5436 1.41664e-13 -2.83107e-13 -16.2171 64.2929 0.129177 
-25.3399 -8.29024e-14 3.55271e-15 -14.8781 58.2272 -0.0418374 -24.9973 2.21684e-13 -2.17604e-14 
-17.3628 78.0519 0.0602498 -22.2576 -2.09999e-13 1.72307e-13 -16.5474 72.7592 0.0130973 
-23.0893 2.49023e-13 3.27738e-13 -17.1003 88.6697 -0.00646401 -17.3262 2.69562e-13 -1.41775e-13 
-16.8986 84.5449 0.0634659 -18.8662 -7.93809e-14 -1.4333e-13 -15.8642 92.8899 0.0882363 
-13.576 -1.32561e-13 1.65645e-13 -16.4145 89.3598 -0.0388024 15.1749 6.06126e-13 3.96017e-13 
-14.9551 92.6607 0.093151 11.6324 3.64597e-13 -6.58362e-14 -16.6883 80.3437 0.0213404 
20.2031 1.02196e-13 -1.44551e-13 -15.9788 85.8003 0.0770226 16.7375 5.19695e-13 5.50338e-13 
-15.408 68.0639 0.0943269 23.7828 -2.11688e-14 1.11022e-14 -15.6139 75.5779 0.0353068 
21.1447 -5.31686e-13 -3.63487e-13 -12.8359 53.4567 0.153544 24.5901 -3.86913e-14 1.2701e-13 
-13.7715 62.3778 -0.0152006 23.5882 -1.91736e-13 3.43059e-14 -9.71095 38.5819 0.177358 
21.6598 9.448e-13 -1.36335e-13 -10.8614 47.6665 -0.0600763 22.8293 3.66263e-13 2.78555e-13 
-6.98686 26.2745 0.165944 14.9056 4.18554e-13 -6.10623e-15 -7.73062 33.9554 -0.0865111 
18.218 -1.16795e-13 -1.40332e-13 -5.43516 19.2817 0.145963 5.31536 4.17888e-13 -1.74638e-13 
-5.36054 24.1599 -0.0948265 10.1334 -1.33227e-14 9.2204e-14 -5.43516 19.2817 0.145963 
-5.31536 4.3876e-13 -2.47802e-13 -4.48352 20.6016 -0.09549 -5.34919e-08 -7.39409e-14 -3.75621e-13 
-6.98686 26.2745 0.165944 -14.9056 -1.04361e-13 2.50022e-13 -5.36054 24.1599 -0.0948265 
-10.1334 2.03393e-13 -1.4666e-13 -9.71095 38.5819 0.177358 -21.6598 1.87628e-14 1.50102e-13 
-7.73062 33.9554 -0.0865111 -18.218 9.65894e-15 4.18554e-13 -12.8359 53.4567 0.153544 
-24.5901 2.60347e-13 3.13083e-14 -10.8614 47.6665 -0.0600763 -22.8293 3.19966e-13 -1.01807e-13 
-15.408 68.0639 0.0943269 -23.7828 6.69242e-13 1.9984e-13 -13.7715 62.3778 -0.0152006 
-23.5882 1.52101e-13 2.51799e-13 -16.6883 80.3437 0.0213404 -20.2031 -9.27591e-14 -1.60538e-13 
-15.6139 75.5779 0.0353068 -21.1447 5.15504e-13 -1.26565e-13 -16.4145 89.3598 -0.0388024 
-15.1749 1.65368e-13 1.04361e-14 -15.9788 85.8003 0.0770226 -16.7375 1.95344e-13 7.71605e-14 
-14.9551 92.6607 0.093151 -11.6324 -5.31242e-14 -8.21565e-15 -15.3742 89.4999 -0.0619166 
13.1346 1.94011e-13 2.00062e-13 -13.7946 92.0536 0.0932582 9.87333 8.32667e-14 -2.38254e-13 
-15.7112 81.9379 -0.0112549 18.0477 -8.40744e-13 1.21125e-13 -14.8134 86.4784 0.0843439 
14.6546 9.24816e-14 1.79856e-14 -14.4534 71.1394 0.0590534 21.8877 -2.26232e-13 -3.45279e-14 
-14.5063 77.7268 0.0509721 19.0467 -1.80786e-13 7.57172e-14 -11.6948 57.7428 0.126909 
23.2736 4.8056e-13 8.53762e-14 -12.6557 65.9198 0.00534268 21.8288 1.93928e-13 1.97953e-13 
-8.10426 43.5867 0.169464 21.011 -3.96128e-13 -4.59632e-14 -9.54621 52.2446 -0.0397032 
21.6535 -3.40727e-13 -4.08562e-14 -4.77576 31.5177 0.179349 14.7319 -6.72906e-13 1.60982e-14 
-6.0222 39.0789 -0.0700817 17.6339 -9.07052e-14 -2.72671e-13 -2.79087 24.5229 0.17332 
5.30717 -4.25215e-13 -1.29008e-13 -3.24153 29.4443 -0.0826792 9.94209 -4.31544e-13 2.41696e-13 
-2.79087 24.5229 0.17332 -5.30717 1.44329e-13 -2.07251e-13 -2.18779 25.8988 -0.0850956 
-4.09366e-08 -1.52989e-13 -9.97943e-14 -4.77576 31.5177 0.179349 -14.7319 -1.24456e-13 1.70308e-13 
-3.24153 29.4443 -0.0826792 -9.94209 6.14619e-13 -3.30236e-13 -8.10426 43.5867 0.169464 
-21.011 -6.21725e-15 2.99427e-13 -6.0222 39.0789 -0.0700817 -17.6339 -2.83218e-13 4.28324e-13 
-11.6948 57.7428 0.126909 -23.2736 3.06644e-13 1.24123e-13 -9.54621 52.2446 -0.0397032 
-21.6535 1.29952e-13 1.37779e-13 -14.4534 71.1394 0.0590534 -21.8877 2.61496e-13 1.17906e-13 
-12.6557 65.9198 0.00534268 -21.8288 2.79554e-13 9.82547e-14 -15.7112 81.9379 -0.0112549 
-18.0477 9.42857e-13 -2.16382e-13 -14.5063 77.7268 0.0509721 -19.0467 4.27006e-13 -2.44249e-14 
-15.3742 89.4999 -0.0619166 -13.1346 2.99372e-13 6.66134e-14 -14.8134 86.4784 0.0843439 
-14.6546 3.19078e-13 -1.09246e-13 -13.7946 92.0536 0.0932582 -9.87333 3.72813e-13 -1.07636e-13 
-14.1236 89.2603 -0.0764386 11.2439 2.64067e-13 6.01741e-14 -12.5082 91.2143 0.0898858 
8.30035 1.09357e-14 9.54792e-14 -14.5378 82.9854 -0.0360194 15.8976 4.04371e-13 -8.60423e-14 
-13.5126 86.7305 0.0868267 12.6778 2.61541e-13 2.03115e-13 -13.3956 73.61 0.0277988 
19.8077 5.10494e-14 1.82077e-14 -13.2959 79.3223 0.0611634 16.9104 -1.1563e-13 -3.32623e-13 
-10.6392 61.5096 0.0979542 21.607 -2.77972e-13 3.0087e-14 -11.5436 68.902 0.0210453 
19.8646 -1.33477e-13 1.96843e-13 -6.83171 48.271 0.152222 19.9518 -5.88307e-13 -3.9746e-14 
-8.41614 56.387 -0.0229051 20.156 -2.41251e-13 -2.07168e-13 -3.12989 36.6623 0.177802 
14.2323 6.23279e-13 -5.10703e-15 -4.7106 43.9652 -0.0564354 16.7243 1.26343e-13 3.21965e-13 
-0.848297 29.8076 0.182776 5.17559 -1.77636e-13 9.82547e-15 -1.68808 34.6673 -0.0733972 
9.54791 3.16636e-13 -3.29514e-13 -0.848297 29.8076 0.182776 -5.17559 3.93352e-13 -1.0647e-13 
-0.521536 31.2038 -0.0777841 -2.87019e-08 -3.28626e-13 2.57013e-13 -3.12989 36.6623 0.177802 
-14.2323 1.9329e-13 -7.72715e-14 -1.68808 34.6673 -0.0733972 -9.54791 -1.53433e-13 -3.57603e-13 
-6.83171 48.271 0.152222 -19.9518 -1.91958e-13 3.3229e-13 -4.7106 43.9652 -0.0564354 
-16.7243 2.77001e-13 2.95874e-13 -10.6392 61.5096 0.0979542 -21.607 -4.52749e-13 2.85327e-14 
-8.41614 56.387 -0.0229051 -20.156 -5.07372e-14 -7.37188e-14 -13.3956 73.61 0.0277988 
-19.8077 -2.13404e-13 1.3356e-13 -11.5436 68.902 0.0210453 -19.8646 -5.61759e-13 3.03535e-13 
-14.5378 82.9854 -0.0360194 -15.8976 2.80193e-13 -1.0747e-13 -13.2959 79.3223 0.0611634 
-16.9104 -5.69156e-13 6.18394e-14 -14.1236 89.2603 -0.0764386 -11.2439 4.61242e-13 -2.73115e-13 
-13.5126 86.7305 0.0868267 -12.6778 5.70377e-14 -2.02949e-13 -12.5082 91.2143 0.0898858 
-8.30035 2.7589e-14 -2.78499e-13 -12.7724 88.772 -0.0839865 9.52445 1.45106e-13 2.37865e-13 
-11.1852 90.2512 0.0841852 6.90825 -3.475e-14 -6.3699e-14 -13.2557 83.6131 -0.0534826 
13.828 -2.23654e-13 -4.19109e-14 -12.1613 86.6769 0.0847901 10.8451 -1.43108e-13 1.19904e-13 
-12.2756 75.5639 0.00216057 17.6628 1.24463e-13 -4.80727e-14 -12.0423 80.4673 0.0659424 
14.8206 -1.66922e-13 -1.2168e-13 -9.64919 64.78 0.0705779 19.7274 -3.31485e-13 -1.45439e-14 
-10.4495 71.3793 0.0321645 17.8125 -1.12049e-13 7.99361e-15 -5.81807 52.589 0.131268 
18.6023 3.15525e-13 8.51541e-14 -7.43216 60.0847 -0.00868564 18.4574 -3.92464e-13 2.78666e-14 
-1.93838 41.6119 0.167965 13.4844 -1.91847e-13 3.27516e-15 -3.71179 48.5471 -0.0436932 
15.5841 2.90656e-13 5.7343e-14 0.518296 35.0156 0.18149 4.94687 4.56302e-14 -8.52374e-14 
-0.589614 39.7241 -0.0644607 9.00174 4.14335e-13 1.80411e-14 0.518296 35.0156 0.18149 
-4.94687 -2.62457e-13 4.89053e-14 0.634048 36.3993 -0.0708072 -1.7525e-08 9.61453e-14 -7.25114e-14 
-1.93838 41.6119 0.167965 -13.4844 5.82534e-13 -8.9373e-14 -0.589614 39.7241 -0.0644607 
-9.00174 -1.33671e-13 3.34177e-14 -5.81807 52.589 0.131268 -18.6023 3.35121e-13 2.68563e-13 
-3.71179 48.5471 -0.0436932 -15.5841 2.88991e-13 1.06748e-13 -9.64919 64.78 0.0705779 
-19.7274 1.18239e-13 -1.65867e-13 -7.43216 60.0847 -0.00868564 -18.4574 4.64073e-14 -1.62093e-14 
-12.2756 75.5639 0.00216057 -17.6628 -5.87096e-13 1.87628e-14 -10.4495 71.3793 0.0321645 
-17.8125 3.30902e-13 -1.75304e-13 -13.2557 83.6131 -0.0534826 -13.828 -4.83585e-13 -8.32112e-14 
-12.0423 80.4673 0.0659424 -14.8206 -2.89754e-13 -5.57887e-14 -12.7724 88.772 -0.0839865 
-9.52445 -1.83409e-13 -6.35048e-14 -12.1613 86.6769 0.0847901 -10.8451 -5.65437e-13 1.41664e-13 
-11.1852 90.2512 0.0841852 -6.90825 -1.41054e-13 1.11466e-13 -11.3993 88.1365 -0.0853713 
7.98113 1.19071e-14 1.10856e-13 -9.88457 89.2364 0.0764112 5.68563 4.25326e-13 -3.05034e-14 
-11.9317 83.9339 -0.0618985 11.8876 -1.49838e-13 1.50824e-13 -10.8153 86.421 0.0829776 
9.17669 1.00309e-13 -9.10383e-15 -11.1289 77.0917 -0.0146193 15.5447 3.94011e-13 -7.34968e-14 
-10.7841 81.2657 0.0721736 12.8353 2.12261e-13 2.00229e-13 -8.71272 67.5905 0.0482566 
17.7506 -1.33865e-13 -1.59373e-13 -9.37904 73.4257 0.0461101 15.7624 2.77556e-17 -1.63092e-13 
-5.0011 56.5124 0.109546 17.0705 4.43534e-14 1.66089e-13 -6.55881 63.3571 0.00853978 
16.6587 1.09412e-13 2.66454e-15 -1.10259 46.2885 0.152556 12.5613 4.1589e-13 4.90163e-14 
-2.95282 52.7843 -0.0292255 14.2988 1.36502e-13 2.33646e-13 1.4246 40.0453 0.172362 
4.64612 -1.46105e-13 -7.74381e-14 0.151665 44.5311 -0.0555178 8.35145 -3.95795e-13 -1.63869e-13 
1.4246 40.0453 0.172362 -4.64612 -3.41616e-13 -7.8243e-14 1.38518 41.3863 -0.0645987 
-7.86728e-09 7.91589e-14 -3.01668e-14 -1.10259 46.2885 0.152556 -12.5613 -3.9857e-13 1.45439e-13 
0.151665 44.5311 -0.0555178 -8.35145 -6.07292e-14 -1.38334e-13 -5.0011 56.5124 0.109546 
-17.0705 2.06835e-13 9.40914e-14 -2.95282 52.7843 -0.0292255 -14.2988 -3.44169e-15 2.65898e-13 
-8.71272 67.5905 0.0482566 -17.7506 -2.05641e-13 -2.22711e-13 -6.55881 63.3571 0.00853978 
-16.6587 -2.72921e-13 -2.42306e-13 -11.1289 77.0917 -0.0146193 -15.5447 -5.33393e-14 1.05693e-13 
-9.37904 73.4257 0.0461101 -15.7624 -1.49936e-13 7.61613e-14 -11.9317 83.9339 -0.0618985 
-11.8876 4.07036e-13 -9.27036e-14 -10.7841 81.2657 0.0721736 -12.8353 1.9585e-13 1.99896e-13 
-11.3993 88.1365 -0.0853713 -7.98113 -3.06144e-13 -2.86993e-14 -10.8153 86.421 0.0829776 
-9.17669 4.18193e-13 -2.02727e-13 -9.88457 89.2364 0.0764112 -5.68563 4.58522e-14 5.66214e-14 
-10.0578 87.4259 -0.0809073 6.62058 6.03684e-14 4.61298e-14 -10.6278 84.0079 -0.0710973 
10.1142 2.03837e-13 4.76841e-14 -10.003 78.2196 -0.0389538 13.5244 -1.04205e-13 3.61378e-14 
-7.84104 69.922 0.0128722 15.7643 -2.59195e-13 -1.02363e-13 -4.34459 59.9869 0.0749028 
15.4366 3.15914e-13 8.11018e-14 -0.544137 50.6223 0.129721 11.517 -5.61107e-13 -1.13798e-13 
1.973 44.8234 0.161263 4.29227 -6.99441e-15 3.30569e-14 1.973 44.8234 0.161263 
-4.29227 8.84848e-14 -1.09537e-13 -0.544137 50.6223 0.129721 -11.517 3.87523e-13 1.49825e-13 
-4.34459 59.9869 0.0749028 -15.4366 9.60343e-14 -4.86278e-14 -7.84104 69.922 0.0128722 
-15.7643 1.78718e-13 -4.38538e-14 -10.003 78.2196 -0.0389538 -13.5244 -3.89654e-14 1.16351e-13 
-10.6278 84.0079 -0.0710973 -10.1142 -5.73028e-13 -2.23155e-14 -10.0578 87.4259 -0.0809073 
-6.62058 3.29486e-13 -6.32827e-15 29.7341 81.8764 1.24473 -45.3641 -1.48548e-13 5.4845e-14 
32.8628 109.66 2.59245 -53.1962 -4.17444e-14 -6.51701e-14 31.3763 140.234 3.94665 
-56.8639 -1.09024e-13 9.67559e-14 26.2747 171.049 5.21325 -54.6355 6.12843e-14 -3.37178e-14 
19.4164 198.776 6.28977 -45.6639 2.69784e-14 -2.53381e-13 13.0748 219.879 7.07754 
-30.3962 -6.9833e-14 7.70495e-14 9.30361 231.374 7.4984 -10.638 1.43996e-13 -1.40388e-13 
9.32367 231.539 7.5086 10.7672 -1.92429e-13 -2.88047e-13 13.143 220.347 7.10666 
30.5819 8.65974e-14 4.53526e-14 19.5522 199.478 6.33369 45.9442 -2.01617e-13 2.04087e-13 
26.4973 171.889 5.26603 55.0195 -8.37108e-14 1.82812e-13 31.6925 141.115 4.00164 
57.3316 2.66454e-15 1.667e-13 33.2587 110.5 2.64332 53.7081 -9.23706e-14 -4.88498e-14 
30.1764 82.6221 1.28642 45.8754 -3.01981e-14 -1.47549e-13 16.6307 90.3673 0.563574 
-36.1149 1.18794e-13 -2.69784e-14 22.4548 112.071 1.36344 -40.5548 -1.37668e-14 2.78721e-13 
25.1008 136.233 2.27124 -42.903 -1.53211e-14 -1.39805e-13 24.5412 161.202 3.20408 
-41.4861 -1.92957e-13 -1.02862e-13 21.7268 184.318 4.05824 -35.1006 1.43219e-13 -1.1452e-13 
18.3161 202.352 4.71736 -23.6166 -2.42029e-14 -2.42029e-14 16.0654 212.334 5.08026 
-8.27759 9.32587e-14 1.17129e-13 16.1009 212.471 5.08728 8.51186 -1.36946e-13 2.14273e-14 
18.4259 202.739 4.73706 23.8873 5.69544e-14 1.05027e-13 21.9168 184.899 4.08698 
35.4291 -2.91878e-13 2.1888e-13 24.8112 161.902 3.23699 41.872 4.0612e-13 1.14825e-13 
25.4367 136.98 2.30348 43.3278 -1.31006e-14 1.45731e-13 22.8283 112.811 1.39116 
40.9928 -2.45803e-13 1.36335e-13 17.0063 91.0656 0.584542 36.5442 -3.34843e-13 3.57159e-13 
6.68623 96.3188 0.187789 -28.7126 5.06262e-14 -9.82547e-14 13.9558 113.372 0.632869 
-30.4496 -3.04201e-13 1.68587e-13 19.4283 132.36 1.20603 -31.4681 -4.92939e-14 -8.64794e-14 
22.3838 152.327 1.85498 -30.3959 -3.39728e-14 -5.02376e-14 22.9725 171.269 2.49592 
-25.9533 9.00391e-14 -1.60427e-13 22.1777 186.389 3.01774 -17.6314 -1.95954e-13 1.75304e-13 
21.3326 194.89 3.31407 -6.17381 2.05586e-13 2.86438e-14 21.3797 195.002 3.31873 
6.49763 4.50195e-14 9.76996e-14 22.318 186.708 3.03055 17.9743 -1.09246e-13 -6.76126e-14 
23.2 171.75 2.51392 26.3235 -1.944e-13 -5.76206e-14 22.6821 152.914 1.87446 
30.7875 8.06022e-14 -2.30926e-14 19.7693 133.003 1.22377 31.8672 1.96287e-13 2.63678e-15 
14.3046 114.034 0.646814 30.8431 3.27516e-13 -1.66533e-14 7.01128 96.9767 0.197293 
29.0952 -8.60423e-14 -2.03171e-14 -0.663792 100.256 0.00356382 -22.785 1.68865e-13 -1.73972e-13 
7.14742 113.78 0.228791 -22.4404 -3.90799e-14 1.33504e-14 14.4014 128.65 0.568088 
-22.2137 -1.50546e-13 -5.71418e-14 19.9692 144.397 0.99599 -21.158 -9.07052e-14 4.10783e-15 
23.3463 159.614 1.4542 -18.1242 -6.78346e-14 -2.13718e-13 24.837 172.006 1.84883 
-12.4035 4.29656e-14 -8.69305e-14 25.2667 179.077 2.08031 -4.31702 -1.18211e-13 -2.26374e-13 
25.3223 179.168 2.08328 4.71778 -5.76483e-14 8.16014e-14 24.9986 172.268 1.85682 
12.8088 -2.64788e-14 -2.84217e-14 23.5975 160.012 1.46492 18.5322 1.2268e-13 -1.68754e-14 
20.2813 144.894 1.0068 21.5604 -4.13003e-14 -2.19325e-13 14.7376 129.211 0.577044 
22.6023 1.30229e-13 6.05835e-14 7.47211 114.382 0.235015 22.8131 2.39364e-13 -1.07636e-13 
-0.375181 100.88 0.00718104 23.1475 -1.02918e-13 -5.4734e-14 -5.85069 102.539 -0.0694778 
-18.0691 2.5735e-13 1.14353e-13 1.87972 113.414 0.0287757 -16.199 7.70495e-14 -3.06588e-13 
10.0879 125.065 0.215996 -14.8838 -1.75748e-13 -7.00863e-14 17.4735 137.327 0.485209 
-13.6335 5.31797e-14 1.86684e-13 23.0435 149.291 0.801226 -11.5672 1.74305e-14 5.87308e-14 
26.4687 159.19 1.09063 -7.93055 3.02924e-13 -3.06088e-13 28.0229 164.913 1.26641 
-2.71042 -8.17679e-14 -8.84848e-14 28.0841 164.988 1.26824 3.17691 -9.16767e-14 1.3467e-13 
26.6436 159.406 1.09541 8.38972 -3.7137e-14 1.43774e-13 23.3071 149.626 0.807263 
12.0099 7.26086e-14 -1.14131e-13 17.7884 137.755 0.490754 14.0516 3.65263e-14 2.58571e-13 
10.4135 125.566 0.219987 15.2751 -3.19744e-14 -1.79239e-13 2.18299 113.971 0.0310031 
16.5697 -7.38298e-14 -6.9611e-14 -5.58635 103.138 -0.0686024 18.4314 2.24043e-13 -2.23654e-13 
-9.29927 103.51 -0.0859414 -14.3323 2.69229e-13 1.51046e-13 -2.05604 112.402 -0.0576912 
-11.4176 1.04028e-13 -7.98528e-14 6.47256 121.574 0.0353696 -9.21298 -1.87517e-13 6.94063e-14 
14.9942 131.014 0.19681 -7.65533 4.10783e-14 1.50158e-14 22.1951 140.199 0.409093 
-6.20676 -1.65756e-13 1.95621e-13 27.1938 147.87 0.617628 -4.19054 2.5091e-14 5.41789e-14 
29.7065 152.35 0.749253 -1.35045 1.9551e-13 1.38223e-13 29.7708 152.412 0.750329 
1.87332 5.91194e-15 1.39e-13 27.3751 148.05 0.620332 4.69692 1.01807e-13 -1.35558e-13 
22.4621 140.485 0.41223 6.68279 4.9627e-14 9.58678e-14 15.3041 131.392 0.199283 
8.09413 4.60854e-13 -7.27751e-14 6.78415 122.033 0.036698 9.61796 -2.58682e-14 5.56638e-14 
-1.7706 112.928 -0.0573864 11.8009 -1.7164e-13 5.16809e-14 -9.04911 104.09 -0.0862084 
14.7092 -2.29372e-13 8.2212e-14 -11.384 103.477 -0.0763061 -11.3785 5.82312e-14 -5.03486e-14 
-4.86484 110.879 -0.0846085 -7.81984 1.20681e-13 9.00113e-14 3.52001 118.166 -0.0478855 
-4.94247 -1.69087e-13 9.57255e-14 12.6113 125.364 0.0427281 -3.04265 -1.23568e-13 -6.62803e-14 
20.9271 132.228 0.18202 -1.94756 1.32228e-13 -7.83817e-14 27.1391 137.952 0.3309 
-1.14655 -1.62315e-13 1.81521e-13 30.4343 141.316 0.429069 -0.228259 9.64229e-14 6.36158e-14 
30.4996 141.368 0.429659 0.800098 1.76137e-13 2.66454e-14 27.3213 138.106 0.332295 
1.69521 -7.89924e-14 -3.73035e-14 21.1906 132.479 0.18341 2.45648 -2.98872e-13 -1.05083e-13 
12.9109 125.707 0.0434816 3.50711 -4.9849e-14 1.39472e-13 3.81665 118.595 -0.0478976 
5.37044 -4.19664e-14 8.44151e-14 -4.59306 111.385 -0.0851303 8.22703 -2.79776e-13 -4.76008e-14 
-11.1397 104.044 -0.0769507 11.7807 1.94122e-13 -1.96787e-14 -12.43 102.711 -0.0568984 
-9.04411 1.1563e-13 -6.22002e-14 -6.74547 108.98 -0.0827481 -5.16223 2.88547e-13 -4.62408e-14 
1.17675 114.845 -0.0788811 -1.82617 -8.75966e-14 -5.35891e-14 10.3851 120.297 -0.0342515 
0.393633 -9.9809e-14 5.82867e-16 19.3587 125.266 0.0541713 1.3232 2.6662e-13 7.73825e-14 
26.4374 129.33 0.159527 1.25287 -1.52101e-14 -1.95621e-13 30.336 131.714 0.232663 
0.670375 1.5192e-13 7.19425e-14 30.4006 131.759 0.232942 -0.0550578 -2.3713e-13 -3.46834e-13 
26.6163 129.466 0.160107 -0.665135 -1.68365e-13 1.04805e-13 19.6139 125.494 0.0545344 
-0.78076 -3.5677e-13 1.25677e-13 10.6714 120.618 -0.0344177 0.101188 3.69205e-13 -3.87468e-14 
1.45908 115.256 -0.0795046 2.28466 8.17124e-14 -4.8973e-14 -6.48296 109.474 -0.0835453 
5.60159 -1.68698e-13 7.29555e-14 -12.1847 103.272 -0.0575805 9.47906 9.14269e-14 7.6078e-14 
-12.7114 101.441 -0.0359085 -7.19499 1.47382e-13 -4.41036e-14 -7.88268 106.83 -0.0685742 
-3.23582 3.32956e-13 -7.04992e-14 -0.622652 111.626 -0.0832592 0.362035 5.2458e-14 6.61424e-14 
8.35791 115.744 -0.0685755 2.84209 -3.59157e-14 -1.12133e-14 17.5985 119.203 -0.0161326 
3.72919 -1.37779e-13 -1.46549e-14 25.2229 121.889 0.0568656 3.07038 2.51354e-13 4.996e-16 
29.5497 123.436 0.110891 1.36413 8.21426e-14 -1.90958e-14 29.6124 123.476 0.110973 
-0.708949 7.04853e-14 1.49547e-13 25.3955 122.013 0.0569435 -2.44524 6.32827e-15 1.04361e-14 
17.8423 119.417 -0.0163556 -3.15178 2.10942e-14 -5.27356e-15 8.62976 116.052 -0.0691954 
-2.31251 3.49165e-13 -1.06776e-13 -0.352829 112.029 -0.0841003 0.133014 -3.36009e-13 1.81571e-13 
-7.62508 107.319 -0.0693799 3.71345 1.05305e-13 1.33976e-13 -12.4595 102.002 -0.036489 
7.66795 1.84519e-13 -3.05922e-13 -12.4533 99.8548 -0.0171525 -5.72332 9.4369e-14 1.3603e-13 
-8.44268 104.541 -0.0505829 -1.86586 1.93734e-14 -6.78485e-14 -1.95061 108.532 -0.0749919 
1.82363 7.4718e-14 1.44042e-13 6.55432 111.647 -0.0798596 4.48356 -1.16795e-13 -1.26649e-13 
15.7416 113.936 -0.0535406 5.39887 -2.19824e-14 -1.71529e-13 23.6251 115.51 -0.00548988 
4.37642 1.49353e-13 2.84772e-14 28.2154 116.361 0.0333303 1.87506 2.54935e-14 7.34968e-14 
28.2754 116.399 0.0332874 -1.18191 -4.1453e-14 -1.69365e-13 23.7893 115.627 -0.00571258 
-3.71417 2.16216e-14 5.27356e-14 15.9723 114.143 -0.0540759 -4.78441 1.17462e-13 -1.18933e-13 
6.81199 111.951 -0.0806595 -3.91516 2.43139e-13 1.69989e-13 -1.69078 108.933 -0.0758384 
-1.28723 7.47735e-14 -8.87359e-14 -8.18589 105.032 -0.0512717 2.38614 9.80327e-14 -1.76803e-14 
-12.1902 100.422 -0.0175819 6.23777 -1.11272e-13 1.64091e-13 -11.835 98.1009 -0.0021656 
-4.54365 -1.72945e-13 -3.75949e-14 -8.57006 102.208 -0.0330046 -0.909874 1.62648e-13 -6.60583e-15 
-2.88152 105.584 -0.0615118 2.73277 -1.57263e-13 -5.0706e-14 4.98376 107.96 -0.0788966 
5.48526 8.71525e-15 9.51322e-14 13.867 109.368 -0.0718873 6.45971 -1.18905e-13 1.71557e-13 
21.7638 110.073 -0.043705 5.24555 -4.2355e-14 -1.17795e-13 26.4686 110.366 -0.0174816 
2.22738 1.11619e-13 7.26086e-14 26.5252 110.403 -0.0175988 -1.49662 -7.23727e-14 -5.05151e-14 
21.9185 110.189 -0.0440938 -4.54531 1.2243e-13 7.67719e-14 14.0843 109.574 -0.072558 
-5.80563 6.16174e-15 5.47062e-14 5.22845 108.266 -0.0797106 -4.87437 -8.67639e-14 -2.04101e-13 
-2.62884 105.989 -0.0622469 -2.15126 3.11973e-14 -1.55817e-13 -8.31032 102.705 -0.0335191 
1.47587 2.77944e-13 6.72448e-14 -11.5567 98.6778 -0.00243016 5.10177 2.13274e-13 -8.65003e-14 
-10.9945 96.2913 0.00893715 -3.58925 -8.36137e-14 2.32411e-13 -8.3862 99.9057 -0.0177157 
-0.254509 -1.37501e-13 -1.48104e-13 -3.48771 102.804 -0.0468629 3.23546 -1.46966e-13 1.08224e-13 
3.64288 104.643 -0.0717859 5.9965 -3.85525e-14 3.65125e-14 12.0371 105.409 -0.0788628 
7.03307 -1.87211e-13 -7.45792e-14 19.7455 105.462 -0.0665835 5.75281 -1.19682e-13 1.52933e-14 
24.4353 105.324 -0.0509792 2.44626 -7.05963e-14 -1.4877e-14 24.4883 105.361 -0.0511345 
-1.67698 -8.41618e-14 1.80023e-13 19.8904 105.579 -0.0670427 -5.01279 8.97615e-14 -2.55351e-15 
12.2414 105.619 -0.0795486 -6.33652 2.82552e-13 5.4623e-14 3.87636 104.954 -0.0725091 
-5.33982 -3.96239e-13 3.89688e-14 -3.23929 103.218 -0.0474214 -2.60596 6.48925e-14 -7.46703e-14 
-8.12018 100.413 -0.0180299 0.868211 -2.48107e-13 -9.62216e-14 -10.6979 96.8814 0.00884062 
4.19212 3.611e-14 7.31776e-14 -10.0367 94.5052 0.0155546 -2.80867 -8.96089e-14 -2.87825e-14 
-7.99235 97.6907 -0.00660816 0.187715 3.40838e-14 -4.55885e-15 -3.83806 100.209 -0.033955 
3.45028 -4.45199e-14 3.17801e-14 2.51874 101.661 -0.0619776 6.14649 9.53404e-14 -3.00454e-14 
10.2992 101.98 -0.0784092 7.23058 1.16268e-13 -1.88044e-14 17.6615 101.566 -0.0788476 
5.97058 -1.1588e-13 -8.04634e-14 22.2274 101.111 -0.0725752 2.55648 -7.68205e-14 -3.53051e-14 
22.2768 101.15 -0.0727429 -1.74676 5.41164e-14 -1.43441e-13 17.7967 101.687 -0.0793086 
-5.18832 1.86712e-13 7.40241e-14 10.4915 102.196 -0.0790238 -6.48859 1.99923e-13 3.64153e-14 
2.74301 101.981 -0.0625377 -5.44114 -4.66016e-14 1.5072e-13 -3.59124 100.633 -0.0342963 
-2.77065 2.81719e-14 -1.22396e-13 -7.71725 98.2098 -0.00670831 0.474773 -2.54102e-13 8.49112e-14 
-9.71894 95.1107 0.015636 3.45635 -2.46608e-14 2.37303e-13 -9.03112 92.7997 0.0201957 
-2.16333 -5.45813e-14 -9.03444e-14 -7.45548 95.609 0.00523536 0.484269 -1.244e-13 -1.19418e-14 
-3.97428 97.8202 -0.0162122 3.47364 -3.86913e-14 -4.39327e-14 1.61327 98.9955 -0.0436386 
6.04595 -9.43134e-14 -3.37855e-14 8.70138 99.0141 -0.0675937 7.15169 2.26763e-14 1.40388e-13 
15.5925 98.2851 -0.0806719 5.96502 2.57128e-13 9.61453e-14 19.9404 97.6107 -0.0841948 
2.58101 -1.44509e-13 -1.17684e-14 19.9862 97.651 -0.0843685 -1.72824 2.67085e-13 2.6637e-13 
15.7184 98.4115 -0.0811171 -5.13762 2.28983e-15 -1.99285e-14 8.88274 99.2385 -0.0681119 
-6.36132 -3.60267e-14 4.74065e-14 1.83019 99.3255 -0.0440098 -5.28952 3.67151e-13 -1.4936e-13 
-3.72683 98.2547 -0.0163205 -2.74251 -1.07539e-13 1.00776e-13 -7.16907 96.141 0.00534842 
0.227189 1.04527e-13 -6.64573e-14 -8.68996 93.4205 0.0204364 2.85476 5.54695e-14 -2.1802e-13 
37.1022 76.0379 1.45019 -50.6972 -8.63309e-13 -3.60156e-13 26.5335 69.2837 0.554101 
-40.6315 -2.10498e-13 3.79252e-13 38.0061 107.287 3.01888 -60.3631 -2.12275e-13 -3.05755e-13 
31.7579 94.8549 1.7281 -49.6604 1.32339e-13 -4.45199e-13 33.8163 141.398 4.56308 
-64.5325 -1.33227e-13 -2.66454e-15 32.2691 123.989 2.92197 -55.5658 4.70735e-14 1.94955e-13 
26.1073 175.269 5.97208 -61.6125 -2.2915e-13 1.3467e-13 28.5889 154.715 4.07925 
-56.3683 -2.49578e-13 -7.21645e-16 17.1396 205.273 7.1425 -51.1014 4.45866e-13 5.3536e-13 
22.2038 184.064 5.11316 -50.7504 -1.4877e-13 9.71445e-15 9.37223 227.811 7.98258 
-33.8089 -1.66533e-14 2.38698e-15 15.2515 208.576 5.93817 -38.5068 7.15428e-13 -2.3137e-13 
4.89291 239.985 8.42594 -11.8134 3.11973e-14 -7.07878e-13 9.95593 224.952 6.4748 
-20.7827 6.93223e-13 -2.44249e-13 4.9035 240.163 8.43744 11.8862 7.23033e-13 -9.47797e-13 
7.99438 230.811 6.6666 0.0594198 1.87881e-13 -4.36318e-13 9.41403 228.319 8.01558 
33.9481 -1.54321e-13 2.70894e-14 9.99515 225.269 6.4921 20.9307 2.20712e-13 -4.57412e-14 
17.2381 206.036 7.19269 51.3545 -3.19744e-13 -1.15762e-13 15.345 209.161 5.97033 
38.7327 2.42695e-13 3.46168e-13 26.292 176.181 6.03308 61.9953 -3.61933e-13 1.02485e-12 
22.3733 184.835 5.15582 51.0787 -5.00044e-13 3.35232e-13 34.1063 142.346 4.62744 
65.0265 5.86198e-14 -5.33129e-13 28.8497 155.573 4.12691 56.7932 6.61249e-13 8.6936e-13 
38.3996 108.174 3.07919 60.923 1.86517e-13 -6.43929e-13 32.6195 124.845 2.96893 
56.0567 3.55271e-14 -2.87548e-13 37.5725 76.7971 1.50008 51.265 3.72147e-13 -8.09131e-13 
32.1751 95.6415 1.76926 50.1739 4.10338e-13 7.26086e-14 26.9779 69.9612 0.585532 
41.1255 -5.95968e-13 -4.583e-13 22.6959 86.0448 0.720673 -40.6022 -3.73035e-13 -1.56763e-13 
13.2272 80.4735 0.292905 -33.8198 3.69926e-13 1.16351e-13 27.0921 110.556 1.68407 
-46.6432 2.62013e-14 6.31051e-13 20.1361 100.566 0.91527 -38.6897 -4.99156e-13 2.04059e-13 
27.689 137.746 2.75118 -49.6151 -6.26166e-14 3.31957e-14 24.1302 123.424 1.61577 
-42.2474 1.42109e-14 1.66533e-13 24.9372 165.527 3.82883 -47.8065 -3.93019e-13 -2.35922e-13 
24.7895 147.957 2.35398 -42.8203 1.71863e-13 -2.32619e-13 20.1943 190.89 4.79624 
-40.1806 -9.01501e-14 -9.46354e-13 22.6432 172.013 3.06287 -38.9273 1.0747e-13 -3.13416e-13 
15.3938 210.435 5.53038 -26.8791 3.31957e-13 -2.8777e-13 19.0919 192.631 3.66071 
-29.8787 2.22933e-13 -2.1072e-13 12.4237 221.167 5.93024 -9.41401 -1.71418e-13 2.33147e-14 
15.9452 206.683 4.06444 -16.2427 -1.73639e-13 1.60316e-13 12.4514 221.316 5.93842 
9.5974 6.25056e-13 -3.13083e-13 14.7209 211.76 4.21079 0.112203 7.1608e-13 -1.77636e-15 
15.4824 210.86 5.55348 27.1084 -3.98792e-13 7.79155e-13 16.013 206.944 4.07531 
16.4863 -3.92353e-13 9.10383e-15 20.356 191.526 4.83025 40.4852 -2.18492e-13 9.21152e-13 
19.234 193.115 3.68052 30.1719 -1.32783e-13 5.1803e-13 25.1808 166.29 3.86825 
48.1904 4.79616e-14 3.69149e-13 22.8652 172.653 3.08835 39.2813 -5.30687e-13 3.61711e-13 
28.0102 138.552 2.79034 50.059 -4.29878e-13 1.24278e-12 25.0867 148.679 2.38129 
43.225 2.38032e-13 5.47368e-13 27.4699 111.338 1.71828 47.1151 -2.50022e-13 3.11973e-13 
24.4827 124.165 1.6414 42.6798 -2.78e-13 4.1922e-13 23.0965 86.7592 0.746844 
41.0693 -9.80549e-13 5.59996e-13 20.5119 101.282 0.936528 39.1247 1.1946e-13 4.00124e-13 
13.5912 81.1371 0.308247 34.2395 -2.56239e-13 -5.06262e-14 11.3694 93.2525 0.265348 
-32.3449 -1.30562e-13 8.28226e-14 3.29247 88.5202 0.157082 -28.1045 1.07025e-13 -2.25153e-13 
17.8096 112.44 0.793621 -35.3577 -9.68114e-14 2.17826e-13 10.8868 104.498 0.473361 
-29.8363 -1.9007e-13 6.95e-14 21.8328 133.854 1.46477 -37.0014 -5.77316e-14 -1.03667e-13 
17.1485 122.444 0.865711 -31.3486 1.52767e-13 -8.21565e-14 23.0596 156.214 2.22039 
-35.7562 -1.73195e-13 -9.31477e-14 21.084 141.852 1.30726 -31.4313 4.88498e-14 -2.48801e-13 
22.0035 177.182 2.95665 -30.3749 1.28342e-13 1.75415e-14 22.4543 161.264 1.75731 
-28.7096 -5.05818e-13 -3.13527e-13 19.955 193.732 3.54845 -20.526 4.42091e-13 6.61693e-13 
21.9223 178.281 2.15541 -22.2505 -1.63869e-13 -6.95e-14 18.4385 202.965 3.8815 
-7.19194 -1.03251e-13 2.06057e-13 20.7722 190.095 2.43339 -12.17 2.44249e-15 8.92619e-14 
18.4797 203.088 3.88695 7.47156 1.88516e-13 2.16271e-13 20.2479 194.405 2.53558 
0.158112 3.23935e-13 3.10862e-15 20.0793 194.082 3.56353 20.8331 -2.2915e-13 -3.53495e-13 
20.8624 190.31 2.43987 12.4966 -1.2057e-13 1.61648e-13 22.2106 177.708 2.978 
30.7238 2.34479e-13 3.32845e-13 22.101 178.68 2.16702 22.6025 -1.78746e-13 -7.77156e-14 
23.3408 156.851 2.24375 36.1437 1.78524e-13 -2.1616e-13 22.7128 161.796 1.7718 
29.0883 8.65974e-14 -8.63754e-14 22.1667 134.542 1.48631 37.4113 1.8785e-13 3.44058e-13 
21.4019 142.465 1.32221 31.8263 -1.78524e-13 9.9476e-14 18.1651 113.135 0.810811 
35.7711 5.00933e-13 8.58202e-14 17.4948 123.095 0.879097 31.7453 1.49214e-13 -2.76446e-14 
11.7138 93.9248 0.277205 32.7486 1.95399e-14 1.37224e-13 11.2273 105.157 0.483877 
30.2247 -1.95843e-13 -1.24567e-13 3.60033 89.1667 0.164283 28.4826 1.63425e-13 1.13243e-14 
2.82692 98.2467 0.0416735 -25.7071 -1.81188e-13 -2.88214e-13 -3.83499 93.953 0.0821395 
-23.3353 2.65121e-13 -5.44231e-13 10.2511 113.374 0.29756 -26.3376 -3.73035e-14 9.9365e-14 
3.74936 106.859 0.24335 -22.8009 -3.58824e-13 2.21601e-13 16.5502 130.146 0.683403 
-26.6897 -1.30562e-13 -5.52079e-13 11.2974 121.017 0.458925 -22.617 2.16716e-13 -4.48197e-13 
20.8091 147.884 1.17666 -25.6152 -4.97824e-13 -3.69593e-13 17.5561 136.263 0.709138 
-22.075 -2.6823e-13 9.48686e-14 22.8243 164.884 1.70296 -21.8993 -3.5616e-13 -9.95648e-13 
21.7249 151.686 0.973609 -20.0798 1.95843e-13 -3.43947e-13 23.2119 178.597 2.15299 
-14.9248 -6.39488e-14 5.15143e-14 23.7848 165.45 1.21543 -15.6557 -9.16822e-13 -2.38476e-13 
23.0294 186.366 2.41527 -5.213 1.65423e-13 -1.16351e-13 24.4343 175.163 1.38876 
-8.59497 5.92859e-13 -3.193e-13 23.0805 186.467 2.41873 5.57579 3.24185e-14 2.367e-13 
24.5553 178.74 1.45328 0.197449 3.94892e-14 -5.86198e-14 23.3621 178.885 2.16233 
15.2991 2.29816e-13 -7.77156e-14 24.5409 175.34 1.39243 8.99284 -1.59095e-13 3.01981e-14 
23.0619 165.319 1.71557 22.288 -1.11466e-13 -2.1716e-13 23.9887 165.781 1.22192 
16.0589 1.86962e-13 -1.02363e-13 21.1115 148.42 1.18949 26.0111 3.37508e-13 -2.25597e-13 
22.0057 152.134 0.981519 20.4833 3.49942e-13 -1.83409e-13 16.8849 130.743 0.694138 
27.0818 1.49214e-13 9.64021e-14 17.8822 136.793 0.717047 22.47 -3.90799e-14 -1.51767e-13 
10.5834 114.001 0.305149 26.719 3.75699e-13 -5.35905e-13 11.632 121.599 0.465735 
22.9975 6.03961e-14 7.2109e-14 3.12962 98.8839 0.0461814 26.0779 1.63869e-13 -2.9976e-13 
4.06104 107.473 0.248431 23.1683 -5.56e-13 -2.71561e-13 -3.56409 94.5816 0.0854336 
23.6968 -1.38556e-13 -2.88436e-13 -3.3443 101.388 -0.0441444 -20.4085 2.06057e-13 9.74776e-14 
-8.7008 97.3136 0.0371411 -19.362 3.75922e-13 -4.41869e-14 4.31527 113.459 0.0558651 
-19.2461 -1.95399e-14 -3.92131e-13 -1.58885 107.918 0.123305 -17.2762 -1.05249e-13 -4.39648e-14 
11.9673 126.576 0.254082 -18.4304 -1.24345e-14 -4.50473e-14 6.48992 119.183 0.245065 
-15.7545 -1.4122e-13 -3.82805e-13 18.418 140.46 0.554079 -17.2595 4.09894e-13 8.18345e-13 
14.2528 131.102 0.382857 -14.5536 -5.57776e-13 4.40981e-13 22.9033 153.961 0.910901 
-14.7222 -3.18412e-13 -3.67262e-13 20.5384 143.162 0.526949 -12.9488 6.10623e-13 -9.72555e-14 
25.3875 165.053 1.23815 -10.0823 1.12577e-13 -4.61853e-13 24.7414 154.045 0.658465 
-10.0733 -6.40377e-13 1.31006e-14 26.3985 171.426 1.43643 -3.48363 -4.21885e-14 -6.70575e-13 
26.9618 161.826 0.753328 -5.52008 2.15383e-13 -3.86802e-13 26.4567 171.508 1.43852 
3.91757 -4.20941e-13 3.17524e-13 27.6599 164.715 0.788839 0.231075 -3.97442e-14 9.72555e-14 
25.5549 165.29 1.24364 10.5145 -2.30926e-14 -3.05089e-13 27.0791 161.972 0.755305 
5.97913 2.22045e-14 2.42917e-13 23.1591 154.324 0.917856 15.147 3.81917e-13 -1.11466e-13 
24.9606 154.321 0.661936 10.5217 -1.72529e-13 -1.64535e-13 18.7291 140.918 0.56049 
17.6687 -2.96652e-13 1.95732e-13 20.8297 143.545 0.531144 13.378 9.32587e-15 1.4122e-13 
12.2951 127.103 0.258728 18.819 -1.15463e-14 -2.08555e-13 14.5774 131.568 0.386984 
14.9576 2.21601e-13 7.53286e-14 4.62613 114.035 0.0585431 19.6165 7.10543e-15 2.69673e-13 
6.80987 119.714 0.248521 16.135 6.52811e-14 -5.44287e-14 -3.07039 101.997 -0.0429737 
20.7697 1.93623e-13 -3.72591e-13 -1.29984 108.498 0.125747 17.6422 3.0731e-13 2.08722e-14 
-8.45183 97.926 0.0386073 19.7255 -2.22489e-13 7.32747e-15 -7.59014 103.034 -0.0608324 
-16.199 -2.93099e-14 4.5286e-13 -11.7808 99.0744 0.0076029 -16.0537 -2.90656e-13 3.95239e-13 
-0.203572 112.819 -0.0433956 -13.7622 -1.2923e-13 -5.28244e-13 -5.41159 107.938 0.0586934 
-12.9871 7.30305e-13 -2.01283e-13 8.07968 123.105 0.0395634 -11.9592 -1.19904e-13 2.58585e-13 
2.64503 117.008 0.1345 -10.4721 -9.63674e-14 1.19599e-13 15.9916 133.839 0.207006 
-10.5325 5.19584e-14 -5.10592e-13 11.234 126.308 0.213211 -8.65283 -3.68594e-13 1.01419e-13 
22.3724 144.32 0.437496 -8.77967 3.20632e-13 6.91225e-13 19.012 135.587 0.287903 
-7.19995 1.85851e-13 1.09912e-13 26.5993 153.044 0.667583 -5.98426 4.77396e-13 -1.2701e-13 
24.9076 143.972 0.350129 -5.4593 4.15223e-13 1.14353e-13 28.6464 158.116 0.813395 
-2.00291 -2.02394e-13 2.3892e-13 28.4487 150.016 0.392446 -2.93531 -2.1938e-13 3.81917e-13 
28.7088 158.184 0.814592 2.49774 -2.38698e-14 2.20712e-13 29.6455 152.276 0.407934 
0.259899 -6.34964e-13 3.37064e-13 26.7766 153.24 0.670588 6.46691 4.83169e-13 1.6076e-13 
28.5721 150.137 0.393476 3.44727 -5.77316e-14 -1.24345e-14 22.6362 144.628 0.440966 
9.23852 -1.96732e-13 3.95239e-14 25.1338 144.206 0.351961 5.94873 -6.44373e-13 -8.85958e-14 
16.3019 134.239 0.209718 10.96 8.65974e-14 5.97522e-13 19.3046 135.921 0.290152 
7.65633 -2.66009e-13 2.70894e-14 8.39587 123.581 0.0410159 12.3563 3.79252e-13 -7.02036e-13 
11.5505 126.729 0.215435 9.07399 7.22089e-13 4.57634e-13 0.0886822 113.358 -0.0429877 
14.1382 7.01661e-14 1.56986e-13 2.9495 117.502 0.136323 10.8656 -6.40821e-13 -2.69396e-13 
-7.33429 103.621 -0.0609573 16.5679 -3.42837e-13 2.14495e-13 -5.1391 108.493 0.0598825 
13.3666 -6.85896e-13 1.00919e-13 -11.5419 99.6741 0.00820611 16.4327 6.68354e-14 -2.4647e-13 
-10.3042 103.512 -0.0468639 -12.8661 8.34888e-14 -1.91069e-13 -13.4887 99.6405 -0.0129402 
-13.2981 3.9968e-15 2.42473e-13 -3.50895 111.586 -0.0690177 -9.595 2.34701e-13 1.08302e-13 
-7.98959 107.166 0.0207822 -9.69152 2.21156e-13 2.77556e-15 4.8627 119.709 -0.0525329 
-7.01486 4.95159e-14 1.26454e-13 -0.334972 114.574 0.0750448 -6.49714 -3.61933e-14 2.95652e-13 
13.6171 127.92 0.0287074 -5.26096 2.21156e-13 1.12466e-13 8.54074 121.842 0.126475 
-4.15052 -3.47056e-13 2.04614e-13 21.3577 135.852 0.169903 -3.98712 5.32907e-14 -2.29594e-13 
17.2594 128.865 0.166898 -2.69519 2.47358e-13 -1.92624e-13 26.9676 142.484 0.327342 
-2.60195 -9.83658e-14 3.43281e-13 24.4123 135.129 0.191702 -1.74876 -2.78444e-13 2.12941e-13 
29.8801 146.374 0.432654 -0.764892 -5.03597e-13 4.92939e-13 29.0142 139.646 0.203474 
-0.818611 8.90399e-14 3.01092e-13 29.9446 146.43 0.433279 1.31226 1.69031e-13 5.06262e-13 
30.6247 141.344 0.206879 0.284894 3.71758e-13 9.32587e-15 27.1487 142.65 0.328803 
3.12925 5.77316e-14 -1.63869e-13 29.1395 139.75 0.204024 1.37708 8.19345e-14 -3.81917e-14 
21.6217 136.119 0.171318 4.47905 -2.42917e-13 -2.15827e-13 24.6387 135.333 0.192722 
2.27631 -1.69864e-13 -4.59632e-14 13.9202 128.279 0.0294153 5.71181 5.1914e-13 3.19744e-14 
17.5464 129.164 0.168203 3.18099 -2.69562e-13 -9.39249e-14 5.16508 120.151 -0.0526032 
7.43053 -3.19744e-13 6.47996e-13 8.84519 122.23 0.127783 4.59592 9.03722e-14 3.10085e-13 
-3.23161 112.1 -0.0694954 9.98965 6.35048e-14 1.16573e-15 -0.0451103 115.043 0.0760735 
6.91392 -7.61613e-14 1.06581e-13 -10.0575 104.084 -0.0473304 13.2552 1.9007e-13 -1.67311e-13 
-7.72776 107.704 0.0213493 10.0955 -1.83631e-13 5.30687e-14 -13.2507 100.232 -0.0127805 
13.7023 3.82139e-13 2.30482e-13 -11.8337 103.114 -0.0228767 -10.2302 1.14575e-13 4.01901e-13 
-14.1749 99.3489 -0.0271879 -11 -2.04947e-13 3.20743e-13 -5.80225 109.899 -0.0607918 
-6.48472 3.33733e-13 2.40696e-13 -9.57129 105.82 -0.00373207 -7.1822 2.54907e-13 -1.10356e-13 
2.27089 116.387 -0.0800518 -3.34413 -5.83977e-14 3.03799e-13 -2.55718 111.965 0.03959 
-3.5811 -5.77316e-14 -5.68434e-14 11.3632 122.616 -0.0526641 -1.25883 -1.66533e-13 -1.67422e-13 
6.19524 117.675 0.0800023 -0.827061 -1.60538e-13 -7.81597e-14 19.9801 128.444 0.0274223 
-0.239532 -2.09166e-13 1.66978e-13 15.3837 122.904 0.107145 0.716296 4.39648e-14 4.86278e-14 
26.621 133.272 0.132223 0.109367 2.50244e-13 1.78968e-13 23.3882 127.411 0.11612 
1.13933 -7.06102e-14 1.83409e-13 30.2215 136.111 0.207263 0.242117 -3.38674e-13 -2.35589e-13 
28.7916 130.617 0.113625 0.861967 9.65894e-14 -1.82521e-13 30.2862 136.159 0.207532 
0.351349 3.69205e-13 -5.20917e-13 30.7278 131.824 0.111068 0.307038 1.97533e-14 -2.11386e-13 
26.8009 133.415 0.132755 0.458547 3.77476e-14 -2.09832e-13 28.9157 130.708 0.113962 
-0.261545 5.02265e-13 -1.72751e-13 20.2383 128.682 0.027681 0.764701 -4.50306e-13 4.98268e-13 
23.6099 127.594 0.116779 -0.575117 -7.12985e-13 5.72875e-14 11.6548 122.947 -0.0529596 
1.73784 4.32765e-13 -4.88498e-14 15.6606 123.181 0.108017 -0.198472 2.01394e-13 1.31894e-13 
2.55921 116.806 -0.0807388 3.78679 -2.8777e-13 2.28234e-13 6.48582 118.044 0.0808617 
1.30286 -1.96509e-13 8.20455e-14 -5.53571 110.397 -0.0614837 6.90763 4.69402e-13 -8.53762e-14 
-2.27985 112.42 0.0401967 4.0292 2.73115e-13 1.81549e-13 -11.5888 103.678 -0.0232874 
10.6485 2.09166e-13 -7.77156e-15 -9.31467 106.349 -0.00351756 7.61875 -4.33653e-13 6.42264e-14 
-13.9305 99.9377 -0.0272935 11.4363 -4.44533e-13 -2.88436e-13 -12.4751 102.094 0.00116615 
-8.14323 -7.54952e-15 -6.42819e-13 -14.1286 98.473 -0.036386 -9.07979 1.91624e-13 -2.24154e-13 
-7.27346 107.889 -0.0399091 -4.20557 -4.24105e-14 -3.50053e-13 -10.3788 104.09 -0.0204555 
-5.28505 -8.72635e-14 -1.18461e-13 0.245078 113.15 -0.0764481 -0.710745 2.62013e-14 -4.84088e-13 
-4.13304 109.266 0.0156169 -1.50332 2.00284e-13 -2.03948e-13 9.28059 117.852 -0.0816778 
1.66332 1.63203e-13 -4.44089e-14 4.2017 113.792 0.0516752 1.52702 -1.79412e-13 2.11414e-13 
18.3528 121.985 -0.04295 2.58197 1.42331e-13 5.51781e-13 13.4736 117.624 0.0760123 
3.19103 -4.08562e-13 8.39329e-14 25.6923 125.295 0.0238957 2.20718 6.59472e-14 -3.74367e-13 
21.965 120.708 0.0817289 3.29743 -1.88294e-13 -4.64073e-14 29.8042 127.225 0.0763757 
1.03472 -1.81133e-13 -1.79412e-13 27.9209 122.819 0.075457 2.14639 3.93019e-13 -4.30767e-14 
29.8677 127.267 0.0764285 -0.399676 7.99916e-14 -3.475e-13 30.0953 123.609 0.0710766 
0.327278 7.95024e-14 4.21885e-15 25.8675 125.424 0.0238856 -1.60107 -2.17826e-13 8.81517e-14 
28.0414 122.902 0.0757165 -1.50683 2.45359e-14 9.14824e-14 18.6013 122.204 -0.0433051 
-2.0225 -2.88658e-14 -1.09357e-13 22.1784 120.878 0.0822415 -2.69678 -1.84519e-13 -9.05942e-14 
9.55867 118.165 -0.0824103 -1.1516 -2.95319e-13 -2.28539e-13 13.7377 117.887 0.0766767 
-2.6383 2.03615e-13 3.26406e-14 0.520461 113.556 -0.077286 1.18715 1.33671e-13 1.71502e-13 
4.47829 114.15 0.0522796 -1.01557 1.37668e-14 1.78746e-14 -7.01349 108.379 -0.0405159 
4.66392 2.02505e-13 3.45668e-13 -3.86543 109.714 0.0159535 1.98886 -3.69038e-13 1.81188e-13 
-12.2259 102.655 0.000951712 8.59722 -3.37508e-13 -5.54334e-13 -10.1225 104.616 -0.0204809 
5.75982 3.66152e-13 4.86833e-14 -13.8721 99.0644 -0.0366801 9.55277 -3.24851e-13 -8.16791e-13 
-12.4751 100.662 0.0210191 -6.48508 3.40394e-13 1.3689e-13 -13.5822 97.228 -0.0414097 
-7.47092 1.33227e-13 -5.34572e-14 -8.09618 105.678 -0.0168923 -2.56632 5.55112e-14 -7.86038e-14 
-10.6048 102.133 -0.0316615 -3.85708 1.94067e-13 1.95399e-14 -1.28311 110.017 -0.05989 
1.0991 3.19744e-14 6.04818e-13 -5.17289 106.552 -0.00191238 -0.073249 4.58522e-14 8.24063e-14 
7.40241 113.565 -0.0841862 3.69067 -4.51861e-13 -1.21125e-13 2.54891 110.185 0.031494 
3.10489 -1.90736e-13 -1.31561e-13 16.5771 116.366 -0.0735653 4.60405 1.73861e-13 -2.41474e-13 
11.6013 112.949 0.0568741 4.88439 -3.45834e-13 -1.49769e-13 24.3132 118.436 -0.0345606 
3.75848 6.69464e-14 -4.44089e-16 20.2636 114.912 0.065263 4.82462 -2.35367e-14 -1.69864e-13 
28.7671 119.601 0.000726341 1.63343 1.26454e-13 1.84741e-13 26.5417 116.134 0.060934 
3.08038 6.7224e-14 1.22569e-13 28.8282 119.639 0.00065135 -0.959541 2.45803e-13 3.69926e-13 
28.8708 116.58 0.0571341 0.346486 3.68552e-13 -3.15303e-14 24.481 118.556 -0.0348726 
-3.11514 -2.1072e-13 2.64677e-13 26.6568 116.213 0.06117 -2.40293 5.75928e-13 1.21014e-13 
16.8136 116.576 -0.0742117 -4.00852 -8.65974e-15 -2.13607e-13 20.4664 115.077 0.0657107 
-4.18673 -6.23723e-13 -1.06359e-13 7.66649 113.87 -0.0850431 -3.14202 -1.04805e-13 2.66676e-13 
11.8515 113.207 0.0574116 -4.29369 1.9551e-13 3.77476e-15 -1.01858 110.418 -0.0606505 
-0.583556 9.4369e-14 -9.25995e-14 2.81256 110.539 0.0319125 -2.55334 2.89102e-13 -1.22125e-14 
-7.83866 106.167 -0.0172939 3.06531 3.14637e-13 -6.98608e-14 -4.91181 106.999 -0.00178571 
0.600856 1.53877e-13 -1.07137e-13 -12.2166 101.226 0.0210372 6.97898 9.30367e-14 -5.69544e-14 
-10.3444 102.662 -0.0318783 4.374 6.25056e-14 2.14773e-13 -13.309 97.8269 -0.0418619 
7.9837 -3.87579e-13 -3.06533e-13 -12.0331 98.9863 0.0353889 -5.15974 1.07692e-14 9.79772e-14 
-12.7169 95.7776 -0.0431039 -6.11856 -1.44329e-14 3.4972e-14 -8.4238 103.37 0.00349179 
-1.40903 2.47802e-13 -1.32588e-13 -10.4116 100.074 -0.0384649 -2.78329 -2.4325e-13 -8.53484e-14 
-2.3862 107.012 -0.0397017 2.27298 -1.62537e-13 -5.57361e-13 -5.78129 103.888 -0.0148309 
0.869276 3.67262e-13 -1.47909e-13 5.74572 109.703 -0.0743597 4.99748 6.88338e-14 1.61537e-13 
1.21356 106.847 0.0156441 4.0791 -1.5743e-13 3.80806e-14 14.74 111.489 -0.0829221 
5.95516 -3.36953e-13 -2.41251e-13 9.82133 108.816 0.042448 5.94469 -1.14131e-13 -4.42424e-14 
22.6079 112.574 -0.0648542 4.83617 2.18825e-13 9.79217e-14 18.3918 109.921 0.0552815 
5.82188 -1.56652e-13 2.63123e-14 27.2476 113.114 -0.043112 2.06154 3.0298e-13 -5.28466e-14 
24.7873 110.444 0.0552669 3.71297 2.7256e-14 3.75255e-14 27.3057 113.152 -0.043258 
-1.34991 -1.45745e-13 -3.57936e-13 27.1944 110.615 0.0531721 0.365437 3.42172e-13 5.12923e-14 
22.7669 112.69 -0.0653169 -4.15528 -2.67564e-14 2.03282e-13 24.8961 110.521 0.0554931 
-2.9975 -3.97904e-13 8.43769e-15 14.9634 111.695 -0.0836666 -5.32122 -1.69531e-13 -1.46438e-13 
18.583 110.084 0.0556822 -5.1451 7.32747e-15 7.77156e-16 5.99649 110.008 -0.0751691 
-4.40804 1.47216e-13 1.14797e-13 10.0577 109.074 0.0428759 -5.31292 -5.35572e-13 -2.86882e-13 
-2.1299 107.415 -0.0402767 -1.71405 -6.20615e-14 -2.41371e-13 1.46611 107.204 0.0158977 
-3.48373 7.66054e-14 -1.52073e-13 -8.16488 103.863 0.00333786 1.95236 1.92957e-13 -5.07927e-14 
-5.52348 104.34 -0.0148889 -0.2962 -3.37508e-14 -1.12604e-13 -11.7612 99.5585 0.0356438 
5.69636 -1.46994e-13 1.9007e-13 -10.1431 100.611 -0.0388537 3.34496 9.9365e-14 -1.31006e-14 
-12.4231 96.3885 -0.0437123 6.67296 1.82632e-13 -3.20854e-14 -11.306 97.1991 0.044355 
-4.0918 -2.50355e-13 -2.33924e-13 -11.6692 94.2426 -0.0423095 -4.97783 5.30687e-14 1.71196e-13 
-8.38755 101.052 0.0193873 -0.606469 1.36779e-13 2.74281e-13 -9.93169 98.008 -0.0418396 
-1.97312 -8.33222e-14 2.70478e-13 -3.1364 104.16 -0.020434 2.97066 1.86295e-13 9.70396e-14 
-6.0535 101.326 -0.0238991 1.45535 5.28688e-13 -1.7332e-13 4.314 106.225 -0.0596984 
5.7421 -1.63647e-13 -6.8473e-14 0.164164 103.776 0.00302979 4.59912 -3.45612e-13 2.29775e-13 
12.9119 107.26 -0.08114 6.76001 -2.5302e-13 1.50213e-13 8.17204 105.163 0.0302268 
6.50847 -3.04312e-13 -5.02376e-14 20.6893 107.591 -0.079015 5.51537 1.20903e-13 1.80522e-13 
16.4422 105.636 0.0470392 6.38768 1.64313e-13 -1.44329e-13 25.3764 107.64 -0.0681903 
2.34385 -2.31204e-14 3.57714e-13 22.7799 105.628 0.0516831 4.09413 3.48832e-13 -6.77236e-14 
25.4311 107.677 -0.0683692 -1.59419 2.50022e-13 3.47722e-13 25.1973 105.589 0.0516072 
0.384783 -3.66825e-13 1.10245e-13 20.8388 107.707 -0.0795297 -4.79558 -4.23106e-13 -9.4813e-14 
22.882 105.707 0.0518954 -3.33939 -3.09197e-14 2.38254e-13 13.1223 107.467 -0.0818632 
-6.08496 -1.13243e-14 5.17364e-14 16.6215 105.801 0.0473856 -5.66975 -3.15525e-13 5.66214e-14 
4.55291 106.533 -0.0603643 -5.1084 -8.74856e-14 -5.93164e-13 8.39541 105.425 0.0305413 
-5.83256 2.03615e-13 1.71363e-13 -2.88553 104.57 -0.0207728 -2.36504 -4.86056e-13 -1.87398e-14 
0.407809 104.14 0.00312397 -3.95682 -2.37921e-13 -8.64031e-14 -8.12372 101.555 0.0194958 
1.19665 -2.66454e-15 2.46109e-13 -5.79588 101.786 -0.0241315 -0.834372 -3.26628e-13 -1.73958e-13 
-11.0169 97.7831 0.0448526 4.67278 -7.31082e-14 -1.06359e-13 -9.65193 98.5561 -0.0424007 
2.58105 1.59872e-13 2.10415e-13 -11.3518 94.8687 -0.0430963 5.57454 -5.50449e-13 1.29063e-14 
-10.412 95.3969 0.0488349 -3.22224 -2.30371e-14 2.73892e-13 -10.5394 92.7076 -0.0400462 
-4.01157 1.85074e-13 7.18869e-15 -8.09498 98.7935 0.0307636 -0.0586437 -2.98095e-14 -5.15116e-13 
-9.26816 96.0049 -0.0419953 -1.35649 2.31148e-13 -1.77969e-13 -3.60177 101.481 -0.00400967 
3.32388 -1.43219e-13 4.98938e-13 -6.07147 98.9067 -0.0291273 1.78944 -2.43083e-13 2.03421e-13 
3.09962 103.094 -0.0441915 6.06342 1.04139e-13 -6.99441e-15 -0.634789 100.967 -0.00654454 
4.7903 2.40585e-13 -7.69523e-14 11.1472 103.594 -0.0737904 7.13514 4.54081e-14 -1.7375e-13 
6.67638 101.938 0.0193212 6.69696 -2.51577e-13 -6.65579e-14 18.6561 103.373 -0.0835833 
5.87004 -2.05058e-13 -3.28182e-13 14.4895 101.964 0.0387892 6.61437 -9.30367e-14 -4.51306e-14 
23.2726 103.052 -0.0815341 2.5055 6.10623e-15 -1.87184e-13 20.6273 101.575 0.0477852 
4.2727 -2.33535e-13 -2.2804e-13 23.3237 103.09 -0.0817191 -1.71636 -2.40585e-13 -1.29896e-14 
22.998 101.381 0.0498019 0.405038 2.43235e-13 -1.68643e-13 18.7959 103.492 -0.0840823 
-5.10921 6.53921e-14 2.83995e-13 20.7224 101.655 0.0479766 -3.47659 9.60343e-14 -8.69305e-14 
11.3452 103.807 -0.0744157 -6.41606 -1.75304e-13 -3.93574e-14 14.6574 102.134 0.0390693 
-5.8526 2.38476e-13 1.34837e-13 3.32853 103.41 -0.0446589 -5.38238 3.61933e-13 6.73295e-13 
6.88807 102.208 0.0195126 -5.974 -2.96319e-13 1.35447e-13 -3.35359 101.9 -0.00408646 
-2.66907 5.54001e-14 -3.99555e-13 -0.397809 101.339 -0.00661135 -4.09858 5.18363e-13 2.34687e-13 
-7.82319 99.3072 0.031148 0.697209 -4.32432e-13 -4.01346e-13 -5.81135 99.3779 -0.0295355 
-1.11899 -2.75946e-13 3.76227e-14 -10.1028 95.9956 0.0495986 3.84816 1.61982e-13 4.05481e-13 
-8.97442 96.5663 -0.0427471 2.0112 6.42264e-14 1.3653e-13 -10.1955 93.3506 -0.0410708 
4.65009 2.8505e-13 1.79579e-13 -9.43879 93.6477 0.0495722 -2.508 2.52576e-14 -1.35503e-13 
-9.38951 91.2294 -0.0351863 -3.19053 -2.83856e-13 1.35725e-14 -7.63751 96.6411 0.0361102 
0.309845 -7.70495e-14 1.65923e-13 -8.50435 94.109 -0.0417232 -0.880974 -1.88738e-13 -3.83027e-14 
-3.84948 98.9897 0.00669279 3.43865 -7.00551e-14 -1.46706e-13 -5.91357 96.6515 -0.0351244 
1.95157 5.92859e-14 -7.02424e-14 2.08562 100.279 -0.0310688 6.08103 -6.76126e-14 -1.36446e-13 
-1.23203 98.4068 -0.0184018 4.75361 9.53682e-14 -1.42941e-13 9.48655 100.416 -0.0638748 
7.18634 -1.09301e-13 2.42473e-13 5.33509 99.0898 0.00545006 6.61385 -1.62925e-13 1.21597e-13 
16.592 99.8141 -0.0816263 5.96959 -2.63123e-13 -9.69225e-14 12.5868 98.819 0.0280716 
6.58553 2.36478e-14 9.9476e-14 21.04 99.2302 -0.0865623 2.57034 -1.46355e-13 -1.64313e-14 
18.4194 98.1745 0.0424106 4.29461 -2.23488e-13 2.86438e-14 21.0875 99.2696 -0.0867333 
-1.73945 -1.65784e-13 -1.44884e-13 20.6996 97.8769 0.0470017 0.426567 -2.97872e-13 1.07692e-14 
16.7225 99.938 -0.0820584 -5.16504 -3.25406e-13 -7.58282e-14 18.5078 98.2585 0.0425919 
-3.45443 -1.73833e-13 1.00253e-13 9.67331 100.636 -0.0643446 -6.42028 2.68119e-13 1.33782e-13 
12.7439 98.9955 0.0282996 -5.77705 6.4948e-14 1.07803e-13 2.30645 100.604 -0.0312997 
-5.35002 3.15525e-13 -4.00263e-13 5.53656 99.3679 0.00552703 -5.8412 -3.59712e-13 -1.56819e-14 
-3.60155 99.4192 0.00689489 -2.73289 -6.11899e-13 1.24496e-13 -0.999715 98.7892 -0.0186324 
-4.01059 2.49134e-13 1.12584e-13 -7.35521 97.1676 0.0367887 0.377762 8.42104e-14 5.25302e-13 
-5.64878 97.134 -0.0357242 -1.23087 -4.81504e-13 -8.68264e-14 -9.10692 94.2621 0.0506573 
3.17843 2.00007e-13 -2.62457e-13 -8.19454 94.684 -0.0427095 1.58199 6.01519e-13 5.12923e-14 
-9.01692 91.8891 -0.0364929 3.86906 3.29847e-13 -3.18412e-13 -8.45183 91.9944 0.045576 
-1.90841 -7.52176e-15 9.74637e-14 -7.06593 94.637 0.0423538 0.56338 1.71863e-13 -2.48662e-13 
-3.89748 96.7083 0.0240563 3.40444 2.85272e-13 -1.04878e-13 1.29756 97.7682 -0.00647279 
5.8947 -8.45435e-14 1.06415e-13 7.99081 97.6707 -0.042369 7.00209 -3.94518e-13 -1.89404e-13 
14.5757 96.8205 -0.0725409 5.87368 2.8344e-13 1.21347e-13 18.7628 96.0596 -0.0889863 
2.55946 2.17812e-13 -1.1291e-13 18.8067 96.1009 -0.0891621 -1.68405 1.02779e-13 4.09006e-13 
14.6971 96.9498 -0.0729411 -5.02247 -1.41553e-14 -3.05866e-14 8.16727 97.8995 -0.0426993 
-6.1862 1.84408e-13 7.36078e-14 1.51201 98.1034 -0.00645458 -5.11157 3.80251e-13 2.61929e-13 
-3.64785 97.1488 0.0245589 -2.64673 -7.36078e-14 1.32509e-13 -6.77121 95.1758 0.0433543 
0.172959 -4.12337e-13 -6.97609e-13 -8.09518 92.6235 0.0469874 2.6216 -2.22267e-13 2.80956e-13 
14.0734 37.0488 -0.968943 25.6358 3.70703e-13 -1.4877e-13 0.785867 19.3187 -2.33464 
13.985 2.44915e-13 2.90878e-14 -16.1289 7.10706 -3.70111 3.39456 -4.20775e-13 2.21601e-13 
-34.8419 0.138265 -4.97407 -4.21867 4.30959e-13 5.11591e-13 -52.7133 -2.76451 -6.05111 
-7.6337 -8.62366e-13 5.73985e-14 -66.8054 -3.29069 -6.83456 -6.74325 -2.75446e-13 3.80029e-13 
-74.585 -3.06112 -7.24746 -2.64303 2.11497e-14 -8.87901e-13 -74.585 -3.06112 -7.24746 
2.64303 5.49838e-13 5.70377e-14 -66.8054 -3.29069 -6.83456 6.74325 6.22669e-13 8.26006e-14 
-52.7133 -2.76451 -6.05111 7.6337 -3.98043e-13 -3.9857e-13 -34.8419 0.138265 -4.97407 
4.21867 6.55294e-13 -8.28226e-14 -16.1289 7.10706 -3.70111 -3.39456 -1.47937e-13 1.93401e-13 
0.785867 19.3187 -2.33464 -13.985 -2.32259e-13 2.69562e-13 14.0734 37.0488 -0.968943 
-25.6358 -4.67404e-14 3.13083e-14 3.61172 52.2475 -0.263126 27.084 -3.2585e-13 -2.52243e-13 
-5.06833 33.3456 -1.06644 20.0422 1.02862e-13 4.82725e-13 -16.5814 18.0449 -1.97561 
12.1435 7.36078e-14 2.60236e-13 -30.0491 7.14891 -2.90828 5.08609 -4.86194e-13 8.61533e-14 
-43.6009 0.496321 -3.76003 0.337983 -2.29372e-13 4.37317e-13 -54.7308 -2.85797 -4.41458 
-1.45687 -7.82152e-13 1.42886e-13 -61.0338 -4.12241 -4.77121 -0.801716 -1.55209e-13 -3.65707e-13 
-61.0338 -4.12241 -4.77121 0.801716 -7.46847e-13 -2.26208e-13 -54.7308 -2.85797 -4.41458 
1.45687 -4.12115e-13 -1.53655e-13 -43.6009 0.496321 -3.76003 -0.337984 -1.94511e-13 2.07612e-13 
-30.0491 7.14891 -2.90828 -5.08609 -8.88178e-14 -5.13145e-13 -16.5814 18.0449 -1.97561 
-12.1435 7.45237e-14 2.48246e-13 -5.06833 33.3456 -1.06644 -20.0422 -6.82787e-14 2.89768e-13 
3.61172 52.2475 -0.263126 -27.084 -2.38143e-13 -1.54987e-13 -4.17579 63.968 0.080943 
27.241 2.59348e-13 -1.4666e-13 -9.60438 45.0691 -0.354819 23.9061 -3.48888e-13 -5.01821e-14 
-16.9634 27.9945 -0.918883 18.5406 4.52188e-13 -1.01252e-13 -26.0787 14.2522 -1.55983 
12.3966 -2.18825e-13 2.91656e-13 -35.8052 4.55334 -2.19335 6.90397 -8.90399e-13 5.9619e-14 
-44.1731 -1.26473 -2.70829 3.03017 -4.9849e-14 5.53335e-13 -49.0521 -3.88384 -2.99851 
0.784473 -1.89071e-13 -4.27186e-13 -49.0521 -3.88384 -2.99851 -0.784473 -1.74416e-13 1.07969e-13 
-44.1731 -1.26473 -2.70829 -3.03017 8.43769e-15 -3.42726e-13 -35.8052 4.55334 -2.19335 
-6.90397 6.02851e-14 2.61235e-13 -26.0787 14.2522 -1.55983 -12.3966 4.01124e-13 2.09721e-13 
-16.9634 27.9945 -0.918883 -18.5406 1.47382e-13 1.28786e-14 -9.60438 45.0691 -0.354819 
-23.9061 -4.00346e-13 -2.367e-13 -4.17579 63.968 0.080943 -27.241 -8.55982e-14 2.14495e-13 
-9.75267 72.8726 0.22558 26.471 1.07969e-13 9.14824e-14 -12.975 54.7922 0.017994 
26.0276 3.97182e-14 -3.81917e-13 -17.235 36.9825 -0.304387 22.9483 5.31797e-14 3.37619e-13 
-22.8242 21.3383 -0.717595 17.9338 2.56239e-13 -6.18394e-14 -29.2302 9.26388 -1.16361 
12.1706 6.33937e-14 5.4734e-14 -35.0695 1.35849 -1.54881 6.75847 -2.31148e-13 4.10172e-13 
-38.5989 -2.46086 -1.77382 2.12522 -3.70926e-13 -4.36234e-13 -38.5989 -2.46086 -1.77382 
-2.12522 2.44693e-13 2.01422e-13 -35.0695 1.35849 -1.54881 -6.75847 1.35558e-13 -1.39055e-13 
-29.2302 9.26388 -1.16361 -12.1706 4.25882e-13 4.61853e-14 -22.8242 21.3383 -0.717595 
-17.9338 -1.13798e-13 7.62723e-14 -17.235 36.9825 -0.304387 -22.9483 6.49272e-14 -2.6168e-13 
-12.975 54.7922 0.017994 -26.0276 -1.97065e-13 1.90847e-13 -9.75267 72.8726 0.22558 
-26.471 1.39555e-13 1.40554e-13 -13.481 79.4185 0.259968 25.045 -1.58762e-14 1.96954e-13 
-15.2881 62.6821 0.184594 26.761 3.06144e-14 -2.48024e-13 -17.3322 44.9445 0.0201026 
25.653 1.77289e-13 4.36096e-13 -20.1603 28.2234 -0.228693 21.8629 -4.14113e-14 -5.20584e-13 
-23.7685 14.419 -0.527857 16.2019 2.13274e-13 -1.58762e-14 -27.3563 4.82191 -0.804924 
9.73997 -5.81313e-13 2.06057e-13 -29.6414 -0.0232058 -0.973363 3.21979 5.66214e-14 -1.63647e-13 
-29.6414 -0.0232057 -0.973363 -3.21979 -6.25611e-13 1.51212e-13 -27.3563 4.82191 -0.804924 
-9.73997 5.96301e-13 9.17599e-14 -23.7685 14.419 -0.527857 -16.2019 -7.71605e-14 -3.64264e-13 
-20.1603 28.2234 -0.228693 -21.8629 6.00076e-13 1.5965e-13 -17.3322 44.9445 0.0201026 
-25.653 -5.61447e-13 -2.05169e-13 -15.2881 62.6821 0.184594 -26.761 1.93595e-13 2.46914e-13 
-13.481 79.4185 0.259968 -25.045 1.77247e-13 1.86517e-14 -15.7133 84.0469 0.240662 
23.1953 -3.42781e-13 -8.60423e-14 -16.6754 68.9574 0.238128 26.4342 4.60548e-13 -3.55271e-14 
-17.2128 51.8914 0.171797 26.9495 4.09454e-13 8.9373e-14 -17.96 34.7915 0.0354474 
24.3784 -3.11196e-13 1.00253e-13 -19.2847 19.8604 -0.155631 19.0935 -7.56062e-14 -8.72635e-14 
-20.9243 8.97335 -0.348719 12.008 -1.86851e-13 1.76081e-13 -22.0931 3.29125 -0.471743 
4.07479 -2.30482e-13 -1.44246e-13 -22.0931 3.29125 -0.471743 -4.07479 2.05058e-13 2.27429e-13 
-20.9243 8.97335 -0.348719 -12.008 1.91291e-13 -9.23706e-14 -19.2847 19.8604 -0.155631 
-19.0935 -6.88893e-14 1.46771e-13 -17.96 34.7915 0.0354474 -24.3784 -4.13947e-13 -4.29878e-13 
-17.2128 51.8914 0.171797 -26.9495 1.30132e-13 2.23266e-13 -16.6754 68.9574 0.238128 
-26.4342 -4.98213e-14 1.49436e-13 -15.7133 84.0469 0.240662 -23.1953 -1.38445e-13 -1.37779e-13 
-16.7721 87.1495 0.199163 21.1067 2.08777e-13 -2.20546e-13 -17.2814 73.8368 0.234109 
25.3345 -8.21149e-13 3.05311e-13 -16.8624 57.8594 0.226434 27.1192 9.95072e-14 -2.07168e-13 
-16.1139 40.9495 0.164381 25.6858 -6.09374e-13 1.01474e-13 -15.6421 25.438 0.050049 
20.9604 -9.86433e-14 -2.02949e-13 -15.649 13.6559 -0.0803732 13.6111 5.20251e-13 2.02449e-13 
-15.8458 7.33362 -0.168498 4.70221 1.5643e-13 -8.37663e-14 -15.8458 7.33362 -0.168498 
-4.70222 2.53131e-14 -2.77556e-15 -15.649 13.6559 -0.0803732 -13.6111 -1.90514e-13 2.23099e-13 
-15.6421 25.438 0.050049 -20.9604 2.99705e-13 2.35034e-13 -16.1139 40.9495 0.164381 
-25.6858 4.22357e-13 -2.23266e-13 -16.8624 57.8594 0.226434 -27.1192 -3.88141e-13 -8.22675e-14 
-17.2814 73.8368 0.234109 -25.3345 -4.12614e-13 1.74638e-13 -16.7721 87.1495 0.199163 
-21.1067 4.17166e-14 -2.57405e-13 -16.9429 89.0686 0.15221 18.9232 2.19796e-13 -1.10412e-13 
-17.2538 77.5359 0.2042 23.7072 1.92138e-13 -1.10911e-13 -16.2888 62.9089 0.230237 
26.4243 1.37165e-13 1.22957e-13 -14.5317 46.6306 0.216398 25.9949 -1.54377e-13 -3.53662e-13 
-12.7093 31.015 0.155883 21.933 3.20466e-13 1.5149e-13 -11.3978 18.7119 0.0716465 
14.6116 7.68274e-14 1.67422e-13 -10.776 11.9463 0.00997779 5.11935 3.78364e-13 -5.52614e-14 
-10.776 11.9463 0.00997779 -5.11935 -7.1243e-13 -1.88252e-13 -11.3978 18.7119 0.0716465 
-14.6116 2.42917e-13 2.93376e-13 -12.7093 31.015 0.155883 -21.933 -2.37588e-13 -3.44114e-13 
-14.5317 46.6306 0.216398 -25.9949 -1.3603e-13 2.08111e-13 -16.2888 62.9089 0.230237 
-26.4243 -4.41123e-14 -1.09024e-13 -17.2538 77.5359 0.2042 -23.7072 -3.2789e-13 -9.37028e-14 
-16.9429 89.0686 0.15221 -18.9232 -3.67484e-14 -1.46938e-13 -16.4707 90.095 0.108014 
16.7515 -2.30316e-13 3.89355e-13 -16.7353 80.2588 0.165315 21.7551 2.9253e-13 -1.70863e-13 
-15.5169 67.1174 0.209565 25.1 -1.15278e-13 3.10363e-13 -13.1423 51.7927 0.226728 
25.5103 2.88936e-13 -2.22322e-13 -10.364 36.4714 0.204228 22.1505 4.47808e-13 -8.85958e-14 
-8.03535 23.9882 0.154483 15.0824 1.13798e-13 1.4283e-13 -6.75122 16.9688 0.113179 
5.34775 -8.63754e-14 -3.96072e-14 -6.75122 16.9688 0.113179 -5.34775 4.38538e-13 -8.35998e-14 
-8.03535 23.9882 0.154483 -15.0824 -1.62592e-13 -1.91291e-13 -10.364 36.4714 0.204228 
-22.1505 -5.26246e-14 1.99618e-13 -13.1423 51.7927 0.226728 -25.5103 -6.27554e-14 1.01086e-13 
-15.5169 67.1174 0.209565 -25.1 4.47326e-13 -1.01308e-13 -16.7353 80.2588 0.165315 
-21.7551 4.64351e-13 2.3398e-13 -16.4707 90.095 0.108014 -16.7515 2.13024e-13 -2.64788e-14 
-15.5583 90.4695 0.0701599 14.6669 3.83957e-13 1.45356e-13 -15.8564 82.1921 0.126086 
19.6396 -3.08115e-13 1.51656e-13 -14.5818 70.5732 0.178806 23.3501 1.69671e-13 -2.40641e-13 
-11.8925 56.4171 0.215531 24.424 -1.59914e-13 1.7536e-13 -8.49577 41.7075 0.220263 
21.7541 1.20459e-14 -2.01006e-13 -5.4287 29.3428 0.19697 15.1028 -1.44829e-13 2.50994e-13 
-3.63472 22.2448 0.171856 5.41203 2.44582e-13 -1.34712e-13 -3.63472 22.2448 0.171856 
-5.41203 -6.02296e-14 -1.48367e-13 -5.4287 29.3428 0.19697 -15.1028 -6.2117e-14 4.21607e-14 
-8.49577 41.7075 0.220263 -21.7541 8.26283e-14 4.1861e-13 -11.8925 56.4171 0.215531 
-24.424 -1.60455e-13 -2.17937e-13 -14.5818 70.5732 0.178806 -23.3501 1.66942e-13 3.50386e-13 
-15.8564 82.1921 0.126086 -19.6396 8.87485e-14 -3.90299e-13 -15.5583 90.4695 0.0701599 
-14.6669 -4.10921e-14 1.76276e-13 -14.3679 90.3862 0.0398331 12.7187 1.63244e-13 -1.20598e-13 
-14.7314 83.5014 0.0906762 17.484 3.91638e-13 2.91711e-13 -13.5237 73.3697 0.14558 
21.3451 2.00604e-13 5.16254e-14 -10.7435 60.5054 0.193953 22.9095 -2.07001e-13 -2.10165e-13 
-7.00701 46.6455 0.218212 20.8806 -1.249e-15 1.30895e-13 -3.45051 34.6494 0.215612 
14.7547 -1.0425e-13 7.34413e-14 -1.29012 27.6283 0.203749 5.33861 -4.38816e-13 -1.1445e-13 
-1.29012 27.6283 0.203749 -5.33861 5.23415e-13 -3.57631e-14 -3.45051 34.6494 0.215612 
-14.7547 -3.66152e-13 -5.38458e-15 -7.00701 46.6455 0.218212 -20.8806 -6.43929e-15 1.12077e-13 
-10.7435 60.5054 0.193953 -22.9095 -1.78066e-13 -4.41869e-14 -13.5237 73.3697 0.14558 
-21.3451 2.78131e-14 3.95406e-13 -14.7314 83.5014 0.0906762 -17.484 2.425e-13 -2.50799e-13 
-14.3679 90.3862 0.0398331 -12.7187 2.27957e-13 -1.96787e-13 -13.0253 89.9963 0.0165782 
10.9352 -2.36727e-13 1.00919e-13 -13.456 84.3288 0.0606583 15.3779 4.02879e-13 -1.4222e-13 
-12.3832 75.6 0.11391 19.2215 -3.93371e-13 1.34309e-13 -9.66898 64.076 0.168304 
21.1171 2.89463e-13 -1.25927e-13 -5.81364 51.2299 0.206096 19.6575 -1.71502e-13 -2.13746e-13 
-1.98215 39.801 0.219569 14.1186 1.7028e-13 2.61485e-13 0.414577 32.9891 0.218632 
5.15435 -9.67559e-14 -1.91583e-14 0.414577 32.9891 0.218631 -5.15435 -5.92859e-14 -1.40096e-14 
-1.98215 39.801 0.219569 -14.1186 6.83703e-13 -6.79456e-14 -5.81364 51.2299 0.206096 
-19.6575 -2.20657e-14 3.95628e-13 -9.66898 64.076 0.168304 -21.1171 1.81896e-13 6.4948e-14 
-12.3832 75.6 0.11391 -19.2215 -6.41242e-13 -2.79637e-13 -13.456 84.3288 0.0606583 
-15.3779 -7.26294e-14 1.96149e-13 -13.0253 89.9963 0.0165782 -10.9352 1.18058e-13 -3.24102e-13 
-11.6208 89.4179 0.00108915 9.3288 9.74082e-14 -5.59275e-15 -12.1041 84.7965 0.0381878 
13.3823 -4.14418e-13 9.72278e-14 -11.1961 77.3557 0.087034 17.0846 5.30515e-13 -7.41629e-14 
-8.65159 67.1603 0.142236 19.1734 -6.09783e-13 -4.05787e-14 -4.84596 55.4243 0.187861 
18.1995 -7.75213e-13 1.22957e-13 -0.91706 44.7103 0.213411 13.2709 9.08995e-14 1.25761e-13 
1.60275 38.2153 0.221689 4.88539 4.18277e-14 -2.70908e-13 1.60275 38.2153 0.221689 
-4.88539 -1.25816e-13 -1.66721e-13 -0.91706 44.7103 0.213411 -13.2709 -5.27911e-14 3.20882e-13 
-4.84596 55.4243 0.187861 -18.1995 2.38226e-13 2.26791e-13 -8.65159 67.1603 0.142236 
-19.1734 2.05433e-13 -4.05037e-13 -11.1961 77.3557 0.087034 -17.0846 7.13023e-14 1.01807e-13 
-12.1041 84.7965 0.0381878 -13.3823 -3.08746e-13 1.19321e-13 -11.6208 89.4179 0.00108915 
-9.3288 -5.06539e-15 -1.38348e-13 -10.224 88.7277 -0.0115235 7.89969 1.28744e-13 4.86278e-14 
-10.7439 84.9847 0.0152001 11.5357 -1.32033e-13 1.25455e-13 -10.0089 78.6936 0.0549291 
15.0128 -1.69013e-13 -3.10862e-14 -7.69305 69.7699 0.107069 17.1812 -2.69763e-13 -1.4394e-13 
-4.05178 59.1914 0.159101 16.6042 1.3585e-13 1.22319e-13 -0.160935 49.3052 0.197395 
12.2779 -2.31953e-13 -1.36391e-13 2.38922 43.2193 0.215925 4.55473 -3.99764e-13 -5.09315e-15 
2.38922 43.2193 0.215925 -4.55473 -4.11254e-13 -2.16806e-13 -0.160935 49.3052 0.197395 
-12.2779 -6.1956e-13 3.85886e-13 -4.05178 59.1914 0.159101 -16.6042 1.66311e-13 -9.84213e-14 
-7.69305 69.7699 0.107069 -17.1812 -1.05395e-13 -1.59872e-13 -10.0089 78.6936 0.0549291 
-15.0128 1.29165e-13 1.13465e-13 -10.7439 84.9847 0.0152001 -11.5357 5.54529e-13 1.21791e-13 
-10.224 88.7277 -0.0115235 -7.89969 1.60968e-13 -1.41817e-13 20.6011 28.2252 -1.40021 
24.1979 4.35652e-13 -3.91687e-13 18.8227 47.0863 -0.587355 30.9419 1.55431e-13 1.28342e-13 
4.60965 12.0209 -2.96817 10.0261 3.21743e-13 5.80425e-13 7.84625 27.0924 -1.79346 
19.6445 -1.00808e-13 -5.56888e-13 -15.3522 2.07639 -4.50964 -1.79836 -7.92699e-14 4.04121e-13 
-7.16911 12.3681 -3.00878 8.35109 1.07248e-13 1.19948e-12 -36.8573 -2.50601 -5.91273 
-9.41331 5.23914e-13 6.36824e-13 -24.9776 3.11217 -4.17994 -0.862666 -1.86906e-13 3.61489e-13 
-56.897 -3.37473 -7.0746 -11.8948 -1.09748e-12 5.82201e-13 -43.317 -1.45503 -5.21909 
-6.39595 -2.10831e-13 -8.34888e-14 -72.3992 -2.47777 -7.9042 -9.48777 1.42297e-12 3.92575e-13 
-59.3713 -2.83948 -6.04226 -7.57524 -6.17395e-13 1.25966e-12 -80.8551 -1.52956 -8.33602 
-3.58498 -7.50511e-13 -1.39039e-12 -70.3694 -2.7604 -6.57237 -4.911 -1.37668e-13 -4.71845e-13 
-80.8551 -1.52956 -8.33602 3.58498 1.59628e-12 -3.19245e-13 -74.2836 -2.56473 -6.75559 
9.43807e-08 1.00342e-12 -8.1549e-13 -72.3992 -2.47777 -7.9042 9.48777 8.55593e-13 1.56319e-13 
-70.3694 -2.7604 -6.57237 4.911 2.26708e-13 2.86438e-14 -56.897 -3.37473 -7.0746 
11.8948 3.48985e-13 -3.73923e-13 -59.3713 -2.83948 -6.04226 7.57524 -3.07532e-13 -3.77476e-13 
-36.8573 -2.50601 -5.91273 9.41331 1.29619e-12 -1.35891e-13 -43.317 -1.45503 -5.21909 
6.39595 1.46771e-13 -3.94351e-13 -15.3522 2.07639 -4.50964 1.79836 -4.54969e-13 7.06102e-14 
-24.9776 3.11217 -4.17994 0.862666 -1.93179e-14 -3.93907e-13 4.60965 12.0209 -2.96817 
-10.0261 1.75415e-13 7.8515e-13 -7.16911 12.3681 -3.00878 -8.35109 -6.57474e-13 7.78044e-13 
20.6011 28.2252 -1.40021 -24.1979 5.37792e-13 -1.87406e-13 7.84625 27.0924 -1.79346 
-19.6445 1.51434e-13 1.14131e-13 18.8227 47.0863 -0.587355 -30.9419 7.74492e-13 2.66454e-15 
8.72229 44.9721 -0.540714 26.3942 -1.07203e-12 4.62741e-13 6.59655 61.4889 -0.318186 
29.5322 -6.01297e-13 -1.3145e-13 -2.01125 26.7926 -1.4928 17.1642 1.03251e-12 -1.13687e-13 
-0.611457 41.5365 -0.969714 23.4511 -1.34559e-13 4.98268e-13 -16.0301 13.059 -2.54981 
7.97585 -2.56295e-12 1.74838e-12 -10.6082 24.577 -1.6941 15.8065 -1.39133e-12 -3.00204e-13 
-31.9932 4.07432 -3.61784 0.644955 9.94427e-13 1.83853e-13 -23.0402 11.7751 -2.45084 
8.19395 3.35232e-13 2.00551e-12 -47.6335 -0.781485 -4.57591 -3.47396 -1.35469e-12 5.45342e-13 
-36.538 3.39212 -3.17104 2.24255 -1.21381e-12 -7.48734e-13 -60.2119 -2.78969 -5.30078 
-3.98826 -2.00884e-12 7.88702e-13 -48.9004 -1.21928 -3.77325 -0.964313 -1.27631e-12 1.1191e-12 
-67.2421 -3.34495 -5.69153 -1.68411 1.70308e-13 -9.57456e-13 -57.6466 -3.23953 -4.1759 
-1.36374 -8.71081e-13 3.20632e-13 -67.2421 -3.34495 -5.69153 1.68411 -6.38822e-13 -3.97349e-13 
-60.8115 -3.76538 -4.31775 2.62971e-08 -8.63309e-13 -1.06472e-12 -60.2119 -2.78969 -5.30078 
3.98826 -1.33227e-13 -2.06501e-13 -57.6466 -3.23953 -4.1759 1.36374 -6.85674e-13 2.34923e-13 
-47.6335 -0.781485 -4.57591 3.47396 -9.8821e-13 -5.73763e-13 -48.9004 -1.21928 -3.77325 
0.964313 -1.70752e-13 -8.6553e-13 -31.9932 4.07432 -3.61784 -0.644955 5.61884e-13 -3.85025e-13 
-36.538 3.39212 -3.17104 -2.24255 -3.75255e-14 2.73559e-13 -16.0301 13.059 -2.54981 
-7.97585 -1.40776e-13 9.50351e-14 -23.0402 11.7751 -2.45084 -8.19395 8.44547e-13 -5.57332e-13 
-2.01125 26.7926 -1.4928 -17.1642 -8.21565e-15 3.63265e-13 -10.6082 24.577 -1.6941 
-15.8065 2.45803e-13 9.72555e-13 8.72229 44.9721 -0.540714 -26.3942 4.53859e-13 -1.77636e-14 
-0.611457 41.5365 -0.969714 -23.4511 -3.7037e-13 -1.15463e-14 6.59655 61.4889 -0.318186 
-29.5322 2.4869e-13 1.72751e-13 -0.409193 58.1945 -0.107183 27.144 -2.90212e-13 -1.92291e-13 
-2.33185 72.423 -0.159811 27.6414 -4.43423e-13 -4.78728e-13 -7.25648 39.453 -0.612236 
22.0471 -1.17384e-12 6.25278e-13 -7.01313 53.3907 -0.50309 25.5415 -1.7164e-13 -1.32339e-13 
-16.5146 23.3404 -1.26288 15.4711 1.64296e-12 -1.55431e-14 -13.3298 35.3939 -0.920208 
21.057 3.21854e-13 4.28546e-13 -27.6809 11.021 -2.00083 8.88689 -5.40457e-13 4.583e-13 
-21.4892 20.1523 -1.38321 15.1744 4.18388e-13 9.59677e-13 -39.2446 2.80671 -2.72248 
3.74753 -2.11453e-12 5.58664e-13 -30.8546 8.74062 -1.84892 9.28526 -1.72085e-12 -9.80105e-13 
-48.9566 -1.82351 -3.30254 0.870416 4.62297e-13 7.2875e-13 -39.8751 1.34304 -2.25617 
4.63041 -1.06648e-12 1.81011e-12 -54.5341 -3.79239 -3.6267 0.0204105 -6.95444e-13 -6.75793e-13 
-46.4928 -2.58643 -2.53733 1.70475 -3.06422e-13 8.77076e-14 -54.5341 -3.79239 -3.6267 
-0.0204105 -6.38156e-13 -3.77032e-13 -48.9329 -3.78548 -2.63805 -2.16881e-08 -3.09086e-13 -1.10105e-12 
-48.9566 -1.82351 -3.30254 -0.870416 -9.69447e-13 -4.08118e-13 -46.4928 -2.58643 -2.53733 
-1.70475 -4.68514e-13 1.28342e-13 -39.2446 2.80671 -2.72248 -3.74753 1.26565e-12 2.92211e-13 
-39.8751 1.34304 -2.25617 -4.63041 3.9968e-14 1.8674e-13 -27.6809 11.021 -2.00083 
-8.88689 -6.78346e-13 -4.55636e-13 -30.8546 8.74062 -1.84892 -9.28526 4.84501e-13 -3.81917e-13 
-16.5146 23.3404 -1.26288 -15.4711 1.8347e-12 9.21929e-13 -21.4892 20.1523 -1.38321 
-15.1744 5.3707e-13 6.91003e-13 -7.25648 39.453 -0.612236 -22.0471 1.18017e-13 7.4607e-14 
-13.3298 35.3939 -0.920208 -21.057 6.89671e-13 -5.9508e-14 -0.409193 58.1945 -0.107183 
-27.144 -7.0588e-13 -2.47358e-13 -7.01313 53.3907 -0.50309 -25.5415 -2.02061e-14 -2.97984e-13 
-2.33185 72.423 -0.159811 -27.6414 -6.82343e-13 1.25322e-12 -7.13431 68.3977 0.0815291 
26.8141 9.4813e-14 -4.88498e-13 -8.53424 80.4244 -0.0660844 25.4457 -1.15463e-13 -1.73639e-13 
-11.2896 50.0698 -0.14494 25.0035 6.87228e-13 -1.65645e-13 -11.5964 62.878 -0.251379 
26.2605 -6.68354e-14 -4.3654e-13 -16.9304 32.7284 -0.503436 20.84 4.05939e-13 4.03233e-13 
-15.3138 44.7893 -0.491141 24.4056 1.28342e-13 1.66089e-13 -24.1491 18.0659 -0.97281 
15.2866 -1.3427e-12 1.8785e-13 -20.183 28.0882 -0.764078 20.2492 2.20046e-13 1.57208e-13 
-32.1236 7.16559 -1.47992 9.65022 -1.3729e-12 4.10783e-13 -26.1213 14.4222 -1.04686 
14.7816 -7.34524e-13 -1.10933e-12 -39.1751 0.274827 -1.91577 4.97215 -1.10445e-12 1.21902e-12 
-32.1988 4.72231 -1.30103 9.19534 -2.54463e-13 1.67732e-12 -43.3572 -2.96494 -2.16901 
1.48235 -8.7752e-13 -6.12732e-13 -36.8596 -0.881408 -1.48049 4.27288 -8.71747e-13 3.13527e-13 
-43.3572 -2.96494 -2.16901 -1.48235 6.83453e-13 -6.35048e-14 -38.6177 -2.68767 -1.5456 
-5.41402e-08 -8.47322e-13 -5.04636e-13 -39.1751 0.274827 -1.91577 -4.97215 9.64562e-13 -6.23945e-14 
-36.8596 -0.881408 -1.48049 -4.27288 -5.9508e-14 9.32587e-14 -32.1236 7.16559 -1.47992 
-9.65022 -8.26006e-14 6.35048e-14 -32.1988 4.72231 -1.30103 -9.19534 8.85958e-14 6.50591e-14 
-24.1491 18.0659 -0.97281 -15.2866 7.31859e-13 2.70894e-13 -26.1213 14.4222 -1.04686 
-14.7816 -2.80886e-13 -2.34923e-13 -16.9304 32.7284 -0.503436 -20.84 -1.11206e-13 -1.4877e-13 
-20.183 28.0882 -0.764078 -20.2492 1.43885e-13 3.59712e-14 -11.2896 50.0698 -0.14494 
-25.0035 -3.14304e-13 -8.61533e-14 -15.3138 44.7894 -0.491141 -24.4056 -5.54556e-14 -3.36176e-13 
-7.13431 68.3977 0.0815291 -26.8141 6.24389e-13 9.78329e-13 -11.5964 62.878 -0.251379 
-26.2605 3.20632e-13 6.43929e-13 -8.53424 80.4244 -0.0660844 -25.4457 -6.18838e-13 1.28342e-13 
-11.8045 76.0288 0.133307 25.6958 3.34843e-13 -1.62537e-13 -12.5657 86.0453 -0.00715942 
23.0934 -6.84564e-13 3.41949e-14 -14.1886 58.7712 0.0656163 26.3972 -1.17906e-13 -3.48166e-13 
-14.6414 70.312 -0.114271 25.9381 -2.37477e-13 -1.79412e-13 -17.1912 41.111 -0.10074 
24.3616 2.76751e-13 4.42757e-13 -16.5967 52.8348 -0.258968 26.1853 1.35641e-13 1.27898e-13 
-21.2686 24.9819 -0.371885 19.9919 1.03051e-12 -6.84786e-13 -19.0155 35.504 -0.419865 
23.6509 8.35665e-13 4.02345e-13 -26.1762 12.0501 -0.705256 14.2812 2.31015e-12 -2.60236e-13 
-22.1916 20.3098 -0.583941 18.8483 1.26343e-13 -8.79297e-13 -30.8276 3.28392 -1.01568 
8.31786 -1.29052e-12 8.13349e-13 -25.7446 8.80624 -0.730094 12.7686 -1.42109e-14 1.62093e-13 
-33.7064 -1.06233 -1.20427 2.69731 -1.05116e-12 -3.17246e-13 -28.651 1.79281 -0.83324 
6.34617 -1.13465e-12 5.0604e-13 -33.7064 -1.06233 -1.20427 -2.69731 -1.20792e-12 6.37823e-14 
-29.7837 -0.541544 -0.87074 -7.33196e-08 -3.91687e-13 -6.9177e-13 -30.8276 3.28392 -1.01568 
-8.31786 -3.51275e-13 5.15143e-14 -28.651 1.79281 -0.83324 -6.34617 -4.63629e-13 4.27547e-13 
-26.1762 12.0501 -0.705256 -14.2812 -2.64233e-13 -2.27374e-13 -25.7446 8.80624 -0.730094 
-12.7686 -2.00284e-13 3.75255e-14 -21.2686 24.9819 -0.371885 -19.9919 -1.91402e-13 -3.37508e-14 
-22.1916 20.3098 -0.583941 -18.8483 1.62093e-13 -1.71863e-13 -17.1912 41.111 -0.10074 
-24.3616 -7.81125e-13 -3.80584e-13 -19.0155 35.504 -0.419865 -23.6509 -1.34781e-13 -3.69926e-13 
-14.1886 58.7712 0.0656163 -26.3972 6.3527e-13 7.05214e-13 -16.5967 52.8348 -0.258968 
-26.1853 -8.43992e-13 6.5814e-13 -11.8045 76.0288 0.133307 -25.6958 -6.28608e-13 -1.24345e-13 
-14.6414 70.312 -0.114271 -25.9381 3.88245e-13 -2.82441e-13 -12.5657 86.0453 -0.00715942 
-23.0934 -4.86722e-13 -7.23865e-14 -14.7885 81.5499 0.119258 24.0447 -6.88005e-13 3.75255e-13 
-14.908 89.7727 0.0324143 20.7003 1.48104e-13 -1.75193e-13 -16.0782 65.7709 0.134665 
26.5739 3.12306e-13 -1.04361e-13 -16.4223 75.9872 -0.0364297 24.8597 4.32543e-13 4.51861e-13 
-17.242 48.486 0.0861544 26.3319 2.94792e-13 2.70894e-13 -17.246 59.6101 -0.133472 
26.7103 4.91107e-13 6.08402e-14 -18.9068 31.6443 -0.0486024 23.1879 -9.15379e-13 -1.13243e-13 
-17.9134 42.3234 -0.235053 25.6226 -4.4309e-13 2.57572e-14 -21.2716 17.3009 -0.251726 
17.7246 3.07088e-13 -2.6068e-13 -18.9366 26.2576 -0.33076 21.6262 -3.8014e-13 -1.9762e-14 
-23.8169 7.05605 -0.462139 10.9329 3.15303e-14 3.25739e-13 -20.3869 13.4437 -0.409317 
15.4106 -7.02771e-13 -1.77414e-13 -25.5106 1.78427 -0.597181 3.66913 -1.53522e-12 -1.31561e-13 
-21.764 5.30322 -0.461551 7.94208 -3.51275e-13 2.4647e-13 -25.5106 1.78427 -0.597181 
-3.66913 -8.9706e-14 2.32259e-13 -22.3384 2.52959 -0.479994 -8.17391e-08 5.65326e-13 -1.40155e-13 
-23.8169 7.05605 -0.462139 -10.9329 5.91527e-13 1.52989e-13 -21.764 5.30322 -0.461551 
-7.94208 5.17364e-13 5.47895e-13 -21.2716 17.3009 -0.251726 -17.7246 -2.19824e-14 -7.14984e-14 
-20.3869 13.4437 -0.409317 -15.4106 5.61107e-13 -1.57874e-13 -18.9068 31.6443 -0.0486024 
-23.1879 7.66276e-13 -1.64313e-13 -18.9366 26.2576 -0.33076 -21.6262 -5.14699e-13 2.24487e-13 
-17.242 48.486 0.0861544 -26.3319 -2.93626e-13 -1.64313e-13 -17.9134 42.3234 -0.235053 
-25.6226 -3.84692e-14 -9.31255e-13 -16.0782 65.7709 0.134665 -26.5739 -1.1452e-12 1.65201e-13 
-17.246 59.6101 -0.133472 -26.7103 -2.74725e-13 6.19282e-13 -14.7885 81.5499 0.119258 
-24.0447 2.75335e-13 -8.14904e-14 -16.4223 75.9872 -0.0364297 -24.8597 -4.13558e-13 7.4829e-14 
-14.908 89.7727 0.0324143 -20.7003 9.72555e-14 -7.62279e-13 -16.4268 85.371 0.0789767 
22.0676 6.10623e-15 -1.6831e-13 -15.9752 92.0319 0.0597147 18.3539 -3.8447e-13 -6.63691e-13 
-17.0983 71.2839 0.132714 25.84 -2.9543e-13 4.02567e-13 -17.1979 80.1889 0.0114221 
23.267 -2.79554e-13 1.50546e-13 -17.0542 54.8759 0.151526 27.0385 -3.80723e-13 -1.08358e-13 
-17.3476 65.2186 -0.0620092 26.2704 -3.49526e-13 2.9754e-13 -16.9434 37.949 0.105533 
25.0742 -1.24767e-12 1.02807e-13 -16.8276 48.497 -0.13554 26.4107 -6.72795e-14 -4.11449e-13 
-17.2711 22.7654 -0.00501058 20.0849 -3.53939e-13 -2.04281e-13 -16.2389 32.1313 -0.197454 
23.2758 -1.28419e-12 2.39364e-13 -18.0234 11.4389 -0.140004 12.8576 -1.13065e-12 4.3765e-13 
-15.9965 18.4771 -0.239798 17.2018 1.672e-13 -5.30687e-13 -18.67 5.43414 -0.233245 
4.40691 2.70894e-13 1.41165e-13 -16.0811 9.49808 -0.262728 9.09001 7.95142e-13 1.02729e-12 
-18.67 5.43414 -0.233245 -4.40691 1.3971e-12 2.23044e-13 -16.172 6.37971 -0.269757 
-8.18645e-08 6.23945e-13 3.18995e-13 -18.0234 11.4389 -0.140004 -12.8576 -2.06946e-13 6.88338e-14 
-16.0811 9.49808 -0.262728 -9.09001 -6.80567e-13 -1.63758e-13 -17.2711 22.7654 -0.00501058 
-20.0849 9.14824e-14 3.95239e-14 -15.9965 18.4771 -0.239798 -17.2018 6.01519e-13 -2.07834e-13 
-16.9434 37.949 0.105533 -25.0742 -1.57518e-12 -7.13651e-13 -16.2389 32.1313 -0.197454 
-23.2758 -1.00697e-13 -3.85247e-13 -17.0542 54.8759 0.151526 -27.0385 4.67806e-13 2.77334e-13 
-16.8276 48.497 -0.13554 -26.4107 1.65312e-13 1.75859e-13 -17.0983 71.2839 0.132714 
-25.84 -3.66429e-13 3.2041e-13 -17.3476 65.2186 -0.0620092 -26.2704 -2.89074e-13 2.4647e-13 
-16.4268 85.371 0.0789767 -22.0676 9.41469e-14 -5.00489e-13 -17.1979 80.1889 0.0114221 
-23.267 -2.01617e-13 -2.18492e-13 -15.9752 92.0319 0.0597147 -18.3539 5.42899e-14 -6.86118e-14 
-17.0271 87.856 0.0334882 19.9283 5.64437e-13 -5.24025e-13 -16.1133 93.1846 0.0779363 
16.1167 3.29292e-13 6.27942e-13 -17.3981 75.5265 0.100502 24.4618 -1.32783e-13 2.64455e-13 
-17.2031 83.1827 0.042975 21.3582 -2.77223e-13 -7.81153e-13 -16.6257 60.33 0.154451 
26.7539 6.86479e-13 -1.67422e-13 -16.9971 69.7781 -0.0171956 25.1232 6.3638e-13 6.70575e-13 
-15.2783 43.8179 0.163571 25.8594 -8.58091e-13 -2.34035e-13 -15.7304 54.0012 -0.0784699 
26.2531 -1.54377e-13 -9.4702e-13 -14.0393 28.3018 0.116566 21.4861 -4.98712e-13 6.37268e-14 
-13.9956 37.814 -0.127051 23.9671 2.71005e-13 3.77476e-13 -13.3167 16.2766 0.0366258 
14.1481 1.97886e-12 2.76557e-13 -12.4448 23.7509 -0.154318 18.2376 3.63043e-13 2.6068e-13 
-13.0669 9.73523 -0.0250369 4.92548 -1.56763e-13 1.66978e-13 -11.4754 14.2167 -0.163882 
9.82896 3.66818e-13 3.40727e-13 -13.0669 9.73523 -0.0250369 -4.92548 -9.68114e-13 -1.86406e-13 
-11.1615 10.85 -0.165408 -7.59895e-08 -7.52287e-13 -2.21453e-13 -13.3167 16.2766 0.0366258 
-14.1481 -8.80185e-13 2.05835e-13 -11.4754 14.2167 -0.163882 -9.82896 -5.39346e-13 -2.15161e-13 
-14.0393 28.3018 0.116566 -21.4861 1.06581e-12 6.32827e-14 -12.4448 23.7509 -0.154318 
-18.2376 -7.10321e-13 7.27862e-13 -15.2783 43.8179 0.163571 -25.8594 1.58296e-12 -5.70655e-14 
-13.9956 37.814 -0.127051 -23.9671 2.8777e-13 -3.00204e-13 -16.6257 60.33 0.154451 
-26.7539 -3.65423e-13 -1.28786e-13 -15.7304 54.0012 -0.0784699 -26.2531 2.56517e-13 -5.65104e-13 
-17.3981 75.5265 0.100502 -24.4618 -4.18998e-13 1.27454e-13 -16.9971 69.7781 -0.0171956 
-25.1232 -1.17739e-13 3.2907e-13 -17.0271 87.856 0.0334882 -19.9283 5.53779e-13 -3.33733e-13 
-17.2031 83.1827 0.042975 -21.3582 4.18665e-13 -2.78888e-13 -16.1133 93.1846 0.0779363 
-16.1167 -1.50324e-13 3.05977e-13 -16.8577 89.3178 -0.00733149 17.751 -7.29417e-13 3.29958e-13 
-15.6035 93.5306 0.0887789 14.0305 -4.32099e-13 2.18825e-13 -17.1258 78.7064 0.0596239 
22.6626 8.23064e-13 -2.41362e-13 -16.6435 85.2091 0.0641768 19.2907 5.95191e-13 3.10418e-13 
-15.9747 64.9168 0.129118 25.7269 -6.07986e-14 2.01617e-13 -16.2917 73.4154 0.013696 
23.4908 6.2636e-13 -2.0961e-13 -13.831 49.1968 0.170913 25.7515 9.86267e-13 -5.7776e-13 
-14.6102 58.8369 -0.0416031 25.3722 -1.9329e-13 3.57492e-14 -11.4485 33.7823 0.166734 
22.0637 1.60538e-13 9.4369e-14 -12.118 43.2101 -0.0868345 23.8727 8.46323e-13 -3.95239e-13 
-9.56169 21.4142 0.126612 14.8724 -1.89626e-13 3.51386e-13 -9.6074 29.1196 -0.111145 
18.6235 8.04468e-13 1.75859e-13 -8.5719 14.5288 0.0886536 5.24441 -1.13776e-12 -7.54397e-14 
-7.8153 19.2979 -0.117513 10.2054 2.9865e-13 -1.08025e-13 -8.5719 14.5288 0.0886536 
-5.24441 -6.25278e-13 -1.70419e-13 -7.17581 15.7771 -0.117512 -6.61837e-08 3.9968e-14 -1.42653e-13 
-9.56169 21.4142 0.126612 -14.8724 8.02469e-13 2.58349e-13 -7.8153 19.2979 -0.117513 
-10.2054 -6.12843e-13 5.07816e-13 -11.4485 33.7823 0.166734 -22.0637 -4.59632e-13 -1.24345e-13 
-9.6074 29.1196 -0.111145 -18.6235 -3.89244e-13 -2.28595e-13 -13.831 49.1968 0.170912 
-25.7515 -1.32472e-12 -9.21485e-14 -12.118 43.2101 -0.0868345 -23.8727 -2.75113e-13 -1.04361e-13 
-15.9747 64.9168 0.129118 -25.7269 3.77379e-13 -8.19345e-14 -14.6102 58.8369 -0.0416031 
-25.3722 3.10751e-13 2.90878e-14 -17.1258 78.7064 0.0596239 -22.6626 -5.67046e-13 1.43441e-13 
-16.2917 73.4154 0.013696 -23.4908 4.39232e-13 3.44169e-13 -16.8577 89.3178 -0.00733149 
-17.751 1.18439e-12 6.20615e-14 -16.6435 85.2091 0.0641768 -19.2907 -1.90514e-13 3.30846e-14 
-15.6035 93.5306 0.0887789 -14.0305 -4.28768e-13 1.53544e-13 -16.1449 90.0191 -0.0396103 
15.626 3.22797e-13 4.28435e-13 -14.6681 93.3124 0.0935659 12.1199 -3.53606e-14 -2.8999e-13 
-16.4208 81.0169 0.0206252 20.6236 4.68237e-13 1.02141e-14 -15.6925 86.48 0.0776532 
17.1843 1.23956e-13 7.50733e-13 -15.1332 68.7185 0.0940523 24.1769 5.63459e-13 -1.92069e-13 
-15.3239 76.2591 0.0359199 21.5586 -5.29646e-13 -2.68008e-13 -12.54 54.0557 0.153937 
24.9491 -4.81282e-14 1.38112e-13 -13.4677 63.0257 -0.0148377 23.9682 -1.11522e-13 -4.11227e-13 
-9.38206 39.0975 0.178367 21.9583 1.96676e-12 -2.24709e-13 -10.5315 48.2474 -0.0601346 
23.16 3.35842e-13 9.48797e-13 -6.62333 26.7044 0.167288 15.1072 8.09575e-13 2.22822e-13 
-7.36726 34.4525 -0.0869852 18.4694 -9.92539e-14 -5.01155e-13 -5.04936 19.6567 0.147393 
5.38697 1.76992e-12 -2.00007e-13 -4.96848 24.5866 -0.0955662 10.2708 4.08118e-13 5.0937e-13 
-5.04936 19.6567 0.147393 -5.38697 7.93809e-13 -2.53353e-13 -4.0801 21.0007 -0.0963139 
-5.42047e-08 2.79776e-13 -8.02271e-13 -6.62333 26.7044 0.167288 -15.1072 -1.28408e-12 -7.32747e-15 
-4.96848 24.5866 -0.0955662 -10.2708 -1.64757e-13 -1.79134e-13 -9.38206 39.0975 0.178367 
-21.9583 4.47198e-13 3.83471e-13 -7.36726 34.4525 -0.0869852 -18.4694 -4.13336e-13 5.60552e-13 
-12.54 54.0557 0.153937 -24.9491 2.42528e-13 -6.9722e-14 -10.5315 48.2474 -0.0601346 
-23.16 9.03055e-13 -3.21854e-13 -15.1332 68.7185 0.0940523 -24.1769 3.22811e-13 2.60014e-13 
-13.4677 63.0257 -0.0148377 -23.9682 1.03029e-13 4.18776e-13 -16.4208 81.0169 0.0206252 
-20.6236 9.63118e-15 -8.28226e-14 -15.3239 76.2591 0.0359199 -21.5586 3.92381e-13 -2.90878e-14 
-16.1449 90.0191 -0.0396103 -15.626 -7.41074e-14 5.57332e-14 -15.6925 86.48 0.0776532 
-17.1843 5.76705e-13 -2.35367e-14 -14.6681 93.3124 0.0935659 -12.1199 7.9714e-14 7.54952e-14 
-15.0729 90.1739 -0.0625936 13.6147 2.06279e-13 7.00551e-14 -13.4775 92.7203 0.0935556 
10.3957 -2.53408e-13 -5.25247e-13 -15.408 82.6316 -0.01196 18.4866 -1.17531e-12 4.7562e-13 
-14.4915 87.1767 0.0848821 15.1263 7.31276e-13 1.20681e-13 -14.141 71.8247 0.0586504 
22.2907 3.78545e-13 -1.26898e-13 -14.1773 78.4343 0.0515575 19.4752 8.39606e-14 5.14921e-13 
-11.3606 58.3857 0.127096 23.6352 7.65832e-13 2.06501e-14 -12.3112 66.6057 0.00576943 
22.215 2.59931e-13 -1.46994e-13 -7.73599 44.1589 0.170313 21.3095 -1.2117e-12 4.58522e-14 
-9.17488 52.8767 -0.0396216 21.9854 -1.96676e-13 -1.72085e-14 -4.37087 32.0132 0.180677 
14.9333 -1.08902e-12 1.82965e-13 -5.61666 39.6385 -0.0703834 17.8848 3.39728e-13 -2.71227e-13 
-2.36189 24.9679 0.174857 5.37882 -1.04405e-12 -1.50546e-13 -2.80614 29.9404 -0.0832479 
10.0791 -5.54334e-13 3.89411e-13 -2.36189 24.9679 0.174857 -5.37882 9.70335e-14 -4.33042e-13 
-1.74045 26.3696 -0.0857539 -4.14814e-08 2.10942e-13 -2.41984e-13 -4.37087 32.0132 0.180677 
-14.9333 -1.16807e-12 1.33893e-13 -2.80614 29.9404 -0.0832479 -10.0791 3.3562e-13 -7.62612e-13 
-7.73599 44.1589 0.170313 -21.3095 -4.96492e-13 4.8872e-13 -5.61666 39.6385 -0.0703834 
-17.8848 -5.89195e-13 1.01141e-12 -11.3606 58.3857 0.127096 -23.6352 9.04887e-13 1.70974e-14 
-9.17488 52.8767 -0.0396216 -21.9854 3.2796e-13 1.48326e-13 -14.141 71.8247 0.0586504 
-22.2907 6.53024e-13 4.42646e-13 -12.3112 66.6057 0.00576943 -22.215 5.28244e-13 1.94955e-13 
-15.408 82.6316 -0.01196 -18.4866 7.90062e-13 -3.32401e-13 -14.1773 78.4343 0.0515575 
-19.4752 2.88811e-13 -1.34892e-13 -15.0729 90.1739 -0.0625936 -13.6147 -3.13083e-14 -8.20455e-14 
-14.4915 87.1767 0.0848821 -15.1263 5.6169e-13 -2.02394e-13 -13.4775 92.7203 0.0935556 
-10.3957 1.33893e-13 -2.84162e-13 -13.7869 89.9529 -0.0769437 11.755 5.26357e-13 -8.471e-14 
-12.1575 91.8995 0.090084 8.85857 -3.30291e-13 1.07581e-13 -14.1943 83.7023 -0.0366425 
16.3571 9.48741e-13 9.4702e-14 -13.1512 87.4504 0.0872754 13.1761 4.89303e-13 2.93821e-13 
-13.0404 74.3273 0.0273507 20.2214 -6.58835e-13 1.30784e-13 -12.9231 80.0582 0.0616978 
17.3555 1.05874e-13 -3.07865e-13 -10.2615 62.1964 0.0979886 21.9718 -2.93182e-13 -2.13829e-13 
-11.1532 69.6265 0.021493 20.2584 -4.87749e-13 2.08722e-13 -6.42003 48.8997 0.152896 
20.2499 -3.27294e-13 -1.95399e-14 -7.99846 57.0702 -0.0227329 20.4894 1.22458e-13 -1.51101e-13 
-2.68115 37.2242 0.179016 14.4325 7.28195e-13 8.90399e-14 -4.25882 44.5876 -0.0566117 
16.9741 -5.4623e-14 2.74225e-13 -0.374766 30.3241 0.184271 5.24675 -7.27085e-13 1.3739e-14 
-1.20635 35.2339 -0.0738403 9.68386 -3.35842e-13 -5.36848e-13 -0.374766 30.3241 0.184271 
-5.24675 5.63216e-13 -2.85882e-13 -0.0277253 31.7477 -0.0783225 -2.90909e-08 -1.50546e-13 6.82805e-13 
-2.68115 37.2242 0.179016 -14.4325 1.89959e-13 -6.9722e-14 -1.20635 35.2339 -0.0738403 
-9.68386 4.36318e-13 -1.03906e-12 -6.42003 48.8997 0.152896 -20.2499 -1.22458e-13 5.94302e-13 
-4.25882 44.5876 -0.0566117 -16.9741 3.84581e-13 7.58393e-13 -10.2615 62.1964 0.0979886 
-21.9718 -9.171e-13 9.79217e-14 -7.99846 57.0702 -0.0227329 -20.4894 6.46094e-13 -5.86198e-14 
-13.0404 74.3273 0.0273507 -20.2214 -1.4467e-13 9.81437e-14 -11.1532 69.6265 0.021493 
-20.2584 -7.81625e-13 3.10085e-13 -14.1943 83.7023 -0.0366425 -16.3571 5.2644e-13 -1.55542e-13 
-12.9231 80.0582 0.0616978 -17.3555 -7.50108e-13 -4.11893e-14 -13.7869 89.9529 -0.0769437 
-11.755 1.02085e-13 -3.90965e-13 -13.1512 87.4504 0.0872754 -13.1761 -5.12368e-14 -2.30926e-13 
-12.1575 91.8995 0.090084 -8.85857 7.41074e-13 -3.28071e-13 -12.3965 89.4864 -0.0843007 
10.0672 1.06998e-13 1.59595e-13 -10.7974 90.9572 0.0843033 7.50193 1.88488e-13 -3.77476e-15 
-12.8675 84.3562 -0.0539787 14.3097 -2.76612e-13 3.5083e-14 -11.7561 87.4215 0.0851622 
11.3707 -4.58522e-13 6.55587e-14 -11.8722 76.315 0.00173363 18.0889 3.66677e-14 -5.81757e-14 
-11.6206 81.234 0.0664137 15.2835 2.91434e-13 6.31162e-14 -9.22226 65.5115 0.0705208 
20.0965 -4.87638e-13 -1.14353e-14 -10.0074 72.1439 0.0326037 18.2151 -2.79374e-13 -2.27596e-13 
-5.35753 53.2746 0.131787 18.8999 -4.64406e-13 9.99201e-15 -6.96197 60.8197 -0.00845504 
18.7929 -7.10099e-13 9.14824e-14 -1.44125 42.2407 0.169034 13.6829 -1.00164e-12 1.14908e-13 
-3.20788 49.2326 -0.0437685 15.8329 -5.25135e-14 -1.73195e-14 1.04014 35.6047 0.182874 
5.01726 3.45945e-13 -1.11577e-13 -0.0562454 40.362 -0.0647958 9.13639 -1.71974e-13 1.57208e-13 
1.04014 35.6047 0.182874 -5.01726 -2.38698e-13 -1.67144e-13 1.17934 37.0174 -0.0712413 
-1.77727e-08 -3.74589e-13 -2.22582e-14 -1.44125 42.2407 0.169034 -13.6829 1.91891e-12 1.53544e-13 
-0.0562454 40.362 -0.0647958 -9.13639 -6.4504e-13 1.80189e-13 -5.35753 53.2746 0.131787 
-18.8999 -8.77631e-14 4.97935e-13 -3.20788 49.2326 -0.0437685 -15.8329 3.66096e-13 1.6398e-13 
-9.22226 65.5115 0.0705208 -20.0965 5.3349e-13 -2.25153e-13 -6.96197 60.8197 -0.00845504 
-18.7929 -3.5888e-13 2.93099e-14 -11.8722 76.315 0.00173363 -18.0889 -1.25392e-12 -1.09579e-13 
-10.0074 72.1439 0.0326037 -18.2151 -5.68948e-13 -7.07545e-13 -12.8675 84.3562 -0.0539787 
-14.3097 -7.36577e-13 1.47604e-13 -11.6206 81.234 0.0664137 -15.2835 -6.5592e-13 2.63012e-13 
-12.3965 89.4864 -0.0843007 -10.0672 5.02404e-13 -3.21687e-13 -11.7561 87.4215 0.0851622 
-11.3707 -4.15279e-13 8.34333e-14 -10.7974 90.9572 0.0843033 -7.50193 -2.13385e-13 -7.84373e-14 
-10.9804 88.8749 -0.0854793 8.55507 -1.81244e-13 -2.80886e-14 -9.45621 89.964 0.0765112 
6.31292 -1.74305e-13 -1.77913e-14 -11.4938 84.7059 -0.0622272 12.392 -3.35232e-13 8.9373e-14 
-10.3617 87.1924 0.0833127 9.7289 -9.44383e-14 -7.7105e-14 -10.6714 77.8789 -0.014957 
15.9843 -3.31369e-13 -1.68199e-14 -10.3077 82.0655 0.0726116 13.3165 2.90927e-13 2.77001e-13 
-8.22972 68.3681 0.0481792 18.125 -4.22717e-14 -2.10054e-13 -8.87817 74.2323 0.0465658 
16.1748 7.88744e-14 -8.80962e-14 -4.4846 57.2555 0.109952 17.3681 1.17628e-13 1.99729e-13 
-6.02838 64.1449 0.00884636 16.9971 1.00325e-12 -1.24567e-13 -0.55031 46.9849 0.153474 
12.758 7.75047e-13 5.4956e-14 -2.38885 53.5336 -0.0291948 14.5467 2.57239e-13 4.86888e-13 
2.00107 40.7078 0.1736 4.71561 -1.25899e-13 -2.17798e-13 0.744436 45.2409 -0.0557534 
8.48474 -2.1283e-13 -3.0928e-13 2.00107 40.7078 0.1736 -4.71561 -5.65659e-13 -2.69368e-13 
1.98957 42.0792 -0.0649432 -7.98632e-09 -6.40599e-14 -3.10824e-13 -0.55031 46.9849 0.153474 
-12.758 -1.0878e-12 4.6152e-13 0.744436 45.2409 -0.0557534 -8.48474 -2.11831e-13 -6.82232e-14 
-4.4846 57.2555 0.109952 -17.3681 -6.13065e-13 1.20015e-13 -2.38885 53.5336 -0.0291948 
-14.5467 -2.15383e-14 4.87221e-13 -8.22972 68.3681 0.0481792 -18.125 -1.03062e-12 -5.00544e-13 
-6.02838 64.1449 0.00884636 -16.9971 4.63518e-15 -4.94882e-13 -10.6714 77.8789 -0.014957 
-15.9843 -4.55558e-13 8.91509e-14 -8.87817 74.2323 0.0465658 -16.1748 1.33053e-13 -9.65894e-15 
-11.4938 84.7059 -0.0622272 -12.392 5.19307e-13 2.36977e-13 -10.3077 82.0655 0.0726116 
-13.3165 5.38666e-13 5.8431e-13 -10.9804 88.8749 -0.0854793 -8.55507 1.17961e-14 -1.84436e-13 
-10.3617 87.1924 0.0833127 -9.7289 5.95426e-13 -3.45501e-13 -9.45621 89.964 0.0765112 
-6.31292 9.99201e-14 1.21209e-13 -9.59188 88.1888 -0.0808667 7.22366 3.9968e-15 1.09801e-13 
-10.1349 84.8106 -0.0713261 10.6406 3.29542e-13 9.32587e-15 -9.48442 79.0447 -0.0392735 
13.9777 -9.43343e-14 1.86962e-13 -7.29383 70.7468 0.0126843 16.1445 1.34018e-13 -1.07414e-13 
-3.76318 60.7879 0.0751025 15.7344 8.60312e-13 -2.29816e-14 0.0724577 51.3866 0.130426 
11.7119 -1.24989e-12 -1.28675e-13 2.61316 45.5598 0.162328 4.36078 -4.44533e-13 -1.05471e-14 
2.61316 45.5598 0.162328 -4.36078 8.67084e-13 -1.95441e-13 0.0724577 51.3866 0.130426 
-11.7119 4.20664e-13 2.94209e-13 -3.76318 60.7879 0.0751025 -15.7344 -2.21934e-13 -5.07927e-14 
-7.29383 70.7468 0.0126843 -16.1445 4.2405e-13 -2.24598e-13 -9.48442 79.0447 -0.0392735 
-13.9777 3.76867e-13 3.9313e-13 -10.1349 84.8106 -0.0713261 -10.6406 2.86202e-13 -2.18714e-14 
-9.59188 88.1888 -0.0808667 -7.22366 1.24484e-13 5.37625e-14 17.1468 111.146 2.50637 
22.4263 -5.04874e-13 -9.2884e-14 19.04 94.5179 0.17122 19.6958 -2.00395e-13 9.69363e-14 
20.4051 88.7009 0.131315 16.8929 -2.012e-13 5.71349e-14 20.76 85.028 0.0507158 
14.9078 1.98522e-14 -1.75734e-13 20.9453 82.6978 0.02763 13.2822 -1.96239e-13 -9.91152e-14 
21.0254 81.0435 0.0199273 11.9026 -4.76313e-13 2.09121e-13 21.061 79.7961 0.0151927 
10.6975 -2.55213e-13 -2.33633e-13 21.0738 78.8095 0.0128206 9.62455 3.95985e-13 2.13902e-13 
21.074 77.9996 0.0111665 8.65545 -3.63983e-13 -2.00801e-13 21.0671 77.3153 0.00999613 
7.77081 -1.78444e-13 1.80191e-13 21.056 76.7242 0.00907678 6.95674 1.49949e-13 2.5327e-15 
21.0425 76.2053 0.00832455 6.20287 3.34701e-13 1.07032e-13 21.0277 75.745 0.00768684 
5.50121 2.48471e-13 -2.55447e-13 21.0126 75.3344 0.00713622 4.84529 -3.50268e-13 -3.08e-14 
20.9977 74.9681 0.00665639 4.22971 -2.93732e-13 2.95889e-13 2.32003 99.334 -0.527615 
10.7135 2.39808e-14 -7.91658e-14 10.0693 94.9427 0.0931157 14.7335 1.13271e-13 -2.52961e-13 
14.1914 90.1895 0.211344 15.0657 -8.78186e-14 5.5303e-14 16.0299 86.5187 0.0821993 
14.0073 -3.65638e-13 2.18152e-13 17.1575 84.0403 0.0465447 12.7835 -2.25819e-13 -3.18277e-13 
17.855 82.2318 0.0254734 11.5968 -8.84084e-14 1.91545e-13 18.3278 80.8583 0.0153635 
10.4964 1.18731e-13 -3.0289e-13 18.6634 79.7684 0.00988597 9.48478 -2.43774e-13 5.33934e-13 
18.9123 78.8736 0.00671278 8.5541 -2.28585e-13 -5.35301e-13 19.1036 78.1181 0.00478956 
7.69487 3.19363e-14 4.21174e-14 19.2547 77.4663 0.00355913 6.89833 6.79561e-14 1.51592e-13 
19.3769 76.895 0.00274431 6.15697 2.89487e-13 3.84874e-13 19.4777 76.3888 0.00218898 
5.46447 -1.71432e-13 -8.04547e-13 19.5619 75.9378 0.00180441 4.81545 7.97661e-14 2.65193e-13 
19.6331 75.5357 0.00153666 4.20519 -1.95991e-13 3.88279e-13 1.24435 92.7986 -0.263136 
5.82634 3.40561e-13 -5.02376e-15 5.43868 92.6845 0.0897687 10.3775 -3.35329e-13 1.78139e-13 
9.13702 89.9261 0.095129 12.0628 -4.10769e-13 1.2909e-13 11.757 87.2036 0.0779137 
12.1494 -8.41688e-14 -2.17242e-13 13.5235 84.9717 0.0558029 11.5996 -1.41803e-13 2.80418e-14 
14.7353 83.2004 0.0352246 10.8003 -1.63626e-13 1.47451e-14 15.6034 81.7941 0.0232315 
9.93349 2.44249e-15 -7.47007e-14 16.2462 80.6505 0.0155719 9.06939 -1.27665e-13 -2.67852e-13 
16.7384 79.6987 0.010805 8.23633 5.31204e-13 2.68553e-13 17.126 78.8887 0.00773011 
7.44434 -1.42084e-13 -1.70779e-13 17.4387 78.1866 0.00570232 6.69584 1.5328e-13 1.2625e-13 
17.6962 77.5695 0.00433661 5.98997 2.57388e-13 2.87042e-13 17.9118 77.0217 0.0034041 
5.32456 1.93016e-13 -3.45774e-13 18.0943 76.5332 0.00276441 4.69692 8.18762e-13 7.75213e-14 
18.2502 76.0973 0.00232815 4.10415 -3.06213e-14 -1.29818e-14 0.494003 88.3825 -0.199874 
3.617 2.01672e-13 -2.48926e-13 2.99685 89.5965 -0.0555694 7.07992 -1.37584e-13 -4.06966e-13 
5.90528 88.753 0.0266659 9.15061 1.72223e-13 3.55615e-13 8.44648 87.1043 0.0523957 
9.97881 -1.35517e-14 -1.01065e-14 10.4156 85.3796 0.0459575 10.0211 -5.55771e-13 6.82635e-14 
11.9117 83.8364 0.0353626 9.64809 4.45831e-13 6.44016e-14 13.0517 82.5142 0.0260272 
9.07411 1.68462e-13 -2.76916e-13 13.9336 81.389 0.0188827 8.41173 -7.83748e-15 1.88543e-13 
14.6294 80.4249 0.013831 7.72012 7.73583e-14 -8.38071e-14 15.1892 79.5889 0.0102831 
7.02966 4.11407e-14 6.39003e-14 15.6481 78.8553 0.00780229 6.35588 4.13801e-14 1.7185e-14 
16.0303 78.205 0.00606062 5.7065 2.39725e-13 6.86473e-14 16.3531 77.6243 0.00483698 
5.08503 -2.62092e-13 -4.0624e-13 16.6283 77.104 0.00398121 4.49264 -8.36588e-14 3.67006e-13 
16.8645 76.6383 0.00339052 3.92914 -3.47524e-13 -3.2177e-13 0.279259 85.4304 -0.139652 
2.36 1.56188e-13 -8.93868e-14 1.84473 87.179 -0.0558791 4.91616 2.08299e-13 2.41127e-14 
3.94891 87.3003 -0.00356299 6.82656 3.73847e-13 2.97096e-13 6.07341 86.5083 0.0220932 
7.91756 -1.98952e-13 -3.93172e-13 7.95254 85.3535 0.0298512 8.3419 1.31992e-13 2.39019e-13 
9.51427 84.1385 0.0285226 8.31975 2.56815e-13 1.30885e-14 10.7835 82.9909 0.0238396 
8.02571 1.63758e-14 -7.54011e-14 11.8125 81.9516 0.0189713 7.57693 -6.92398e-14 -1.81455e-13 
12.6521 81.0229 0.0148252 7.04612 -7.65811e-13 -5.88379e-14 13.3445 80.1942 0.0115645 
6.4771 -1.22798e-13 2.46385e-13 13.9224 79.4522 0.00909638 5.89614 3.51948e-13 -1.66954e-14 
14.4104 78.7848 0.00726467 5.31895 1.97578e-13 -8.69695e-14 14.8266 78.1825 0.0059263 
4.75487 -2.65125e-13 -7.31056e-14 15.1844 77.6385 0.00496481 4.20935 4.31571e-13 4.26417e-14 
15.4933 77.1484 0.00428999 3.68532 2.00808e-13 1.33712e-14 0.163921 83.3813 -0.0998811 
1.57323 -1.92853e-13 1.31055e-13 1.2051 85.2525 -0.0509813 3.44006 -2.44527e-13 -6.56697e-14 
2.72526 85.9041 -0.0195753 5.03832 1.73195e-14 -5.33427e-14 4.42833 85.7122 0.00348047 
6.14395 1.00683e-13 1.71155e-13 6.07989 85.0475 0.0156032 6.75413 -9.62078e-14 -6.44887e-13 
7.56264 84.1739 0.019421 6.96685 -1.79863e-13 5.96455e-13 8.84334 83.2451 0.0189291 
6.89696 4.04499e-13 -1.79624e-13 9.93093 82.3375 0.0166888 6.6401 -5.30798e-13 2.37137e-15 
10.8503 81.4833 0.0140317 6.26599 2.49072e-14 -3.53952e-14 11.6292 80.6924 0.0115616 
5.82257 -1.24799e-13 -1.08474e-13 12.2929 79.9651 0.00948254 5.34199 2.73309e-13 2.85495e-13 
12.8624 79.2978 0.00782589 4.84557 3.3978e-13 -9.30775e-14 13.3543 78.6863 0.00655506 
4.34748 -5.73534e-14 -2.82304e-13 13.7812 78.1275 0.00561274 3.85702 2.39749e-13 1.21014e-13 
14.1526 77.6192 0.00494006 3.3802 6.57599e-14 2.33274e-13 0.105787 81.9482 -0.0749857 
1.04794 1.39333e-14 2.52715e-13 0.830704 83.7845 -0.0415693 2.40382 1.43878e-14 -1.11376e-13 
1.94597 84.6962 -0.0227842 3.68254 4.02942e-14 -1.32564e-13 3.28464 84.8882 -0.00621589 
4.68426 -3.6747e-13 -2.13024e-14 4.6777 84.5983 0.00517163 5.34458 -5.80855e-14 -3.68528e-13 
6.01033 84.0292 0.0111768 5.68721 1.49443e-13 3.77694e-13 7.22445 83.3233 0.0133115 
5.77329 -2.06581e-13 6.06589e-14 8.30125 82.5684 0.0132052 5.66894 4.05138e-13 1.2587e-13 
9.24378 81.8135 0.0120508 5.43121 7.85726e-14 -1.0252e-13 10.0648 81.0836 0.0105501 
5.10459 2.33907e-13 -1.69532e-13 10.7802 80.3904 0.00906672 4.72215 -4.0086e-14 2.34278e-13 
11.405 79.7385 0.00776628 4.30788 3.37959e-14 -1.84016e-14 11.9525 79.1297 0.00670705 
3.87902 -1.63675e-13 -1.09593e-13 12.4334 78.5648 0.00589387 3.44785 6.42784e-14 1.20244e-13 
12.8558 78.0447 0.00530623 3.02301 -9.34669e-15 -2.401e-13 0.0711122 80.9516 -0.0576736 
0.679639 -2.77247e-13 2.49641e-13 0.594517 82.6783 -0.033167 1.65356 3.1547e-13 -1.94011e-13 
1.42651 83.6989 -0.0220203 2.6491 2.93657e-13 5.24858e-14 2.47593 84.124 -0.01067 
3.50383 5.82451e-13 -9.83796e-14 3.62738 84.1029 -0.00132037 4.1364 -2.71737e-13 -3.27488e-13 
4.78627 83.7817 0.0048748 4.53104 -3.04631e-13 1.94964e-13 5.89127 83.2785 0.00819748 
4.71098 5.61322e-14 -6.80983e-14 6.91048 82.6771 0.00947084 4.71546 -4.11938e-13 2.78869e-13 
7.83252 82.0322 0.00950491 4.5858 1.06651e-13 -9.67976e-14 8.65811 81.3772 0.00890336 
4.35881 1.59896e-13 1.42874e-13 9.394 80.7319 0.00805662 4.06485 -2.74464e-13 3.70034e-14 
10.0491 80.1076 0.00719208 3.72793 1.06141e-13 -1.25053e-13 10.6324 79.5114 0.00642958 
3.36662 1.4716e-13 -4.00675e-13 11.1516 78.948 0.00582284 2.99506 3.2797e-13 1.82905e-13 
11.6129 78.4215 0.00538629 2.62384 -1.23263e-13 2.03612e-13 0.0493263 80.2727 -0.0453992 
0.41265 4.74655e-14 4.15085e-14 0.436935 81.86 -0.0263051 1.09773 1.79641e-13 -3.54196e-13 
1.06682 82.9024 -0.019578 1.85507 -9.84421e-14 2.8352e-13 1.89062 83.4585 -0.0120365 
2.5562 -1.70627e-13 -1.26739e-13 2.8321 83.6203 -0.0049495 3.12126 1.05999e-13 -1.24397e-13 
3.8193 83.4896 0.000511393 3.51647 -1.17881e-13 5.33774e-14 4.79757 83.1581 0.00408648 
3.74146 -6.74183e-14 -1.8781e-13 5.73179 82.6983 0.00605224 3.81488 1.80377e-14 4.78344e-13 
6.60315 82.1631 0.00686613 3.76342 -1.35059e-13 -1.45337e-13 7.40429 81.5886 0.00696286 
3.61496 4.90372e-13 -2.62056e-14 8.13489 80.999 0.0066784 3.39519 -2.16771e-14 -1.37911e-15 
8.79823 80.4104 0.00624378 3.12632 -9.95384e-14 1.71268e-14 9.39899 79.8338 0.00580447 
2.82682 -1.67564e-13 -4.18406e-14 9.94176 79.2776 0.00544361 2.5117 -2.66176e-14 -8.09486e-14 
10.4303 78.7489 0.00520097 2.19286 6.81333e-13 5.7192e-14 0.0346229 79.8305 -0.0362138 
0.214838 -3.32262e-13 -1.87003e-14 0.326186 81.2686 -0.020831 0.679103 -1.29686e-13 -3.10665e-13 
0.807576 82.283 -0.0167672 1.24057 3.25856e-13 2.99698e-13 1.45512 82.9029 -0.0118578 
1.79776 2.5813e-13 -1.6695e-13 2.2195 83.1832 -0.00671069 2.27883 1.74586e-13 -1.93446e-13 
3.04841 83.1929 -0.0022724 2.64366 4.14255e-13 1.89154e-14 3.89723 83 0.00103361 
2.87863 -3.89314e-13 1.95769e-13 4.73316 82.6637 0.00319615 2.98827 3.24012e-14 5.03191e-14 
5.53505 82.2305 0.00442129 2.9875 9.56388e-14 -1.35498e-13 6.29121 81.7356 0.00498031 
2.89584 2.76078e-13 9.13557e-14 6.99653 81.2044 0.00512576 2.73381 2.15116e-13 -5.87599e-14 
7.64999 80.6555 0.00505847 2.52087 -3.44412e-14 2.14034e-13 8.25255 80.1027 0.00492271 
2.27451 -2.31433e-13 -1.70459e-13 8.8058 79.5571 0.00481301 2.00985 -3.764e-13 -4.62012e-14 
9.31101 79.0285 0.00478357 1.73956 -4.33056e-14 1.95261e-13 0.024131 79.567 -0.0290832 
0.0667926 1.68294e-13 1.37876e-14 0.244584 80.8561 -0.0164654 0.361216 -1.35609e-13 -2.89917e-13 
0.613412 81.8148 -0.0140448 0.763539 -3.06912e-13 2.81161e-13 1.12137 82.4548 -0.0109306 
1.19277 3.29903e-13 -2.97252e-13 1.73742 82.8072 -0.0073203 1.58649 1.64405e-13 3.98605e-14 
2.42486 82.9167 -0.00390603 1.90418 5.752e-14 -2.00916e-14 3.14927 82.8323 -0.00110426 
2.12561 -1.8887e-13 2.12949e-13 3.88269 82.5994 0.000948248 2.2464 1.83947e-13 -3.66903e-14 
4.60486 82.257 0.00230427 2.2729 6.07292e-14 -2.26451e-14 5.30258 81.8365 0.00311051 
2.21775 -2.2593e-13 1.10663e-13 5.96816 81.3625 0.00353896 2.09663 -1.83843e-13 -6.07392e-14 
6.59766 80.8539 0.00374819 1.92611 1.72317e-13 -1.35344e-13 7.18928 80.3262 0.00386645 
1.72228 -2.84113e-14 -2.63765e-14 7.74205 79.7923 0.0039872 1.49998 3.16122e-13 7.90829e-14 
8.25494 79.264 0.00417018 1.27231 4.42233e-13 -1.86655e-14 0.0162068 79.4392 -0.0233381 
-0.0437116 -1.62569e-13 -1.87787e-13 0.18169 80.5845 -0.0129326 0.120152 5.6341e-13 -6.57356e-14 
0.462333 81.4731 -0.0115707 0.394404 -3.08833e-14 -6.6995e-15 0.857526 82.1057 -0.00969034 
0.713365 -1.67708e-13 -9.62841e-14 1.34872 82.4975 -0.0072559 1.02347 -1.52742e-14 -3.39711e-14 
1.91114 82.6759 -0.00475004 1.28646 -7.81129e-14 -6.63532e-14 2.51948 82.6743 -0.00252309 
1.47956 -9.82981e-14 -1.64336e-13 3.15143 82.5261 -0.000747735 1.59326 -1.40927e-13 4.73474e-13 
3.78937 82.2621 0.000548463 1.62809 -8.45686e-13 -1.56913e-13 4.42057 81.9086 0.00142996 
1.59152 -2.53459e-13 -8.27836e-14 5.03649 81.4877 0.00200515 1.49527 1.76912e-13 3.2549e-13 
5.63164 81.0176 0.00239236 1.35328 -1.41968e-13 4.02601e-14 6.20241 80.5139 0.00269937 
1.18027 -4.73926e-13 -3.54481e-13 6.74594 79.9907 0.00301262 0.990707 1.50931e-13 3.1558e-14 
7.25928 79.4612 0.00339204 0.798029 -2.16686e-13 9.1118e-14 0.00988199 79.4136 -0.0185595 
-0.124579 -4.42349e-14 -2.34431e-14 0.131078 80.423 -0.0100187 -0.060075 8.11642e-14 -9.38971e-14 
0.340294 81.2353 -0.00937192 0.112342 1.98395e-13 -8.83529e-14 0.642233 81.844 -0.0083548 
0.338404 -7.85951e-14 3.01086e-13 1.02702 82.2534 -0.00681172 0.57216 1.38745e-13 -2.23618e-13 
1.47893 82.478 -0.00507098 0.778693 -8.83529e-14 1.00746e-13 1.98031 82.5389 -0.00340658 
0.934945 -2.56925e-13 3.90157e-14 2.51447 82.4592 -0.00198462 1.02879 -1.06188e-13 1.11546e-13 
3.06722 82.2617 -0.000867066 1.05717 1.80737e-13 -2.83432e-13 3.62752 81.9673 -3.74274e-05 
1.02394 -8.85906e-14 1.96635e-13 4.18729 81.5943 0.000569136 0.937835 -2.88013e-13 3.4292e-14 
4.74066 81.1591 0.00103969 0.810736 1.59733e-13 -6.95058e-14 5.28315 80.6767 0.00146408 
0.656291 -3.36692e-13 -1.55641e-13 5.81072 80.1612 0.00192134 0.488763 8.99558e-14 3.19171e-14 
6.31898 79.6272 0.00247035 0.32207 8.44758e-14 3.26486e-15 0.00455548 79.4636 -0.0144731 
-0.181023 -6.89086e-14 -2.28671e-14 0.0886637 80.3465 -0.00756231 -0.190328 5.84139e-13 -1.58842e-13 
0.238108 81.0818 -0.00742627 -0.0974117 -5.29255e-14 3.57376e-13 0.460993 81.6578 -0.00702849 
0.0520114 4.84108e-13 -1.91463e-13 0.753626 82.0708 -0.00616337 0.218325 -4.03896e-14 -1.69689e-13 
1.10712 82.326 -0.00505214 0.370151 -1.49049e-13 8.66321e-15 1.51016 82.4343 -0.00390185 
0.485364 -3.0354e-13 1.51407e-13 1.95116 82.4101 -0.00285593 0.55086 1.50614e-13 -5.69388e-14 
2.41965 82.2689 -0.00198516 0.561547 -1.42008e-13 1.16488e-13 2.90701 82.0258 -0.00129704 
0.518962 8.95412e-14 -2.58448e-14 3.40649 81.6952 -0.000752679 0.429802 -8.88178e-14 -2.51947e-14 
3.91282 81.2907 -0.000285159 0.304547 -3.54125e-13 6.97649e-14 4.4215 80.8256 0.000183891 
0.156215 -6.58449e-14 -1.88244e-13 4.92805 80.3138 0.000729968 -0.000773958 -4.97151e-13 -1.99135e-15 
5.42719 79.7702 0.00141343 -0.151687 -8.23282e-14 1.67808e-14 -0.000153535 79.5667 -0.0108994 
-0.216527 1.32947e-13 -1.75544e-13 0.0518052 80.3336 -0.0054466 -0.278099 5.79244e-14 -7.02563e-15 
0.1497 80.995 -0.00569666 -0.245406 -5.07918e-13 -9.90319e-14 0.303928 81.535 -0.00575578 
-0.157673 -1.30798e-15 4.15241e-14 0.515312 81.9439 -0.00541082 -0.0493113 -1.33469e-13 -2.53029e-13 
0.780201 82.2195 -0.00481241 0.051671 -2.4486e-13 2.18003e-14 1.09244 82.3648 -0.0041158 
0.124646 7.41473e-14 1.48425e-13 1.44494 82.3867 -0.00343932 0.156496 -1.15274e-13 4.34089e-14 
1.8309 82.2939 -0.00285041 0.141161 -2.69014e-13 -4.03011e-14 2.24449 82.0959 -0.00236575 
0.0788235 1.45025e-13 1.0805e-13 2.68093 81.8026 -0.00195911 -0.0250687 7.16614e-15 2.10051e-13 
3.1363 81.4245 -0.00157316 -0.160822 -1.1841e-13 -1.0815e-13 3.6069 80.9725 -0.00113275 
-0.315533 9.08908e-14 -6.11779e-14 4.08854 80.4594 -0.00055912 -0.47415 2.13343e-13 -4.41619e-14 
4.57564 79.9001 0.000215587 -0.62063 2.3804e-13 -5.9199e-14 -0.00448507 79.7039 -0.00772314 
-0.233462 6.29991e-14 5.20139e-14 0.0188041 80.3661 -0.00358891 -0.328646 -6.72596e-14 -3.66958e-13 
0.0710842 80.9593 -0.004146 -0.339287 -6.69949e-13 1.24196e-13 0.164391 81.464 -0.00455055 
-0.299557 3.99332e-13 2.52402e-13 0.302926 81.8659 -0.00460759 -0.239579 4.29969e-13 -1.93885e-13 
0.487072 82.1565 -0.0044242 -0.184308 3.38383e-13 -1.23811e-13 0.71482 82.3325 -0.00411937 
-0.152685 -2.73601e-14 -3.68976e-15 0.982995 82.3943 -0.00379048 -0.157325 6.33001e-14 1.94359e-13 
1.28825 82.3445 -0.00349779 -0.204613 2.38103e-13 6.84461e-14 1.62764 82.1871 -0.00325945 
-0.295077 -5.20696e-13 -2.81572e-13 1.99886 81.9275 -0.00305309 -0.423944 1.18032e-13 1.27215e-13 
2.39996 81.5722 -0.00282227 -0.581801 1.19084e-13 1.64853e-13 2.82877 81.1293 -0.00248654 
-0.755374 -3.57754e-13 -3.65219e-13 3.28214 80.6097 -0.00195495 -0.928456 4.2091e-13 1.54124e-13 
3.75493 80.0275 -0.00114283 -1.08307 2.6606e-13 1.13534e-13 -0.00858053 79.8582 -0.00487494 
-0.233497 -1.57185e-13 -2.24541e-13 -0.0113731 80.4279 -0.00193346 -0.345792 -1.00128e-13 -2.97349e-13 
-0.000227908 80.9608 -0.00274316 -0.384754 -1.71804e-13 2.58137e-13 0.0381235 81.4341 -0.00341217 
-0.380461 6.8563e-13 6.80133e-14 0.11044 81.8294 -0.00377903 -0.359442 -3.24744e-13 -2.04581e-13 
0.220198 82.1334 -0.00392738 -0.343944 9.28051e-14 1.37989e-13 0.368693 82.3374 -0.003954 
-0.351244 -8.90685e-14 -3.49636e-13 0.556047 82.4361 -0.00394232 -0.393257 2.86117e-14 5.36162e-13 
0.78205 82.4266 -0.00394674 -0.476376 -1.33822e-13 -1.66494e-14 1.04672 82.3078 -0.00398448 
-0.601502 -1.77231e-13 -3.0581e-13 1.35045 82.0799 -0.0040325 -0.764206 -6.08021e-15 1.08563e-13 
1.69383 81.7453 -0.00402913 -0.955024 -3.7461e-13 2.70964e-14 2.07697 81.3084 -0.00388067 
-1.15993 4.843e-14 -6.23438e-14 2.49857 80.7774 -0.00347378 -1.36105 4.20261e-13 2.10205e-14 
2.95481 80.165 -0.00269424 -1.53776 5.03752e-13 2.45508e-13 -0.0125051 80.0143 -0.00232081 
-0.217904 -6.30954e-13 -2.15885e-13 -0.0392546 80.5047 -0.000446118 -0.332506 -2.5401e-13 -8.48072e-14 
-0.0655786 80.9868 -0.00146539 -0.386297 -1.62562e-13 7.99187e-14 -0.077261 81.435 -0.00233448 
-0.405847 -2.72157e-13 -1.79955e-13 -0.0656363 81.8271 -0.0029342 -0.414569 -4.71648e-13 9.58851e-14 
-0.0249199 82.1459 -0.00333982 -0.43232 5.63182e-13 6.02721e-14 0.0487365 82.3781 -0.00363804 
-0.474857 5.14614e-14 -6.91704e-14 0.158144 82.5136 -0.00390655 -0.553414 -4.81734e-13 8.95885e-14 
0.305864 82.5445 -0.00419841 -0.674351 2.18662e-13 1.09998e-13 0.494749 82.4644 -0.00453174 
-0.838877 1.11884e-13 -2.2444e-13 0.728136 82.2687 -0.00488236 -1.04285 6.04924e-14 1.75386e-13 
1.0096 81.9547 -0.00518052 -1.27665 -3.09423e-13 6.4538e-14 1.34228 81.5224 -0.00531301 
-1.5253 -4.84793e-13 -3.26206e-13 1.72771 80.9763 -0.00513321 -1.76885 -9.83172e-14 3.85816e-14 
2.16436 80.3266 -0.00448125 -1.9833 1.17961e-16 1.86321e-13 -0.0162593 80.1584 -5.5311e-05 
-0.187806 -3.4447e-13 -3.80902e-14 -0.0649543 80.5835 0.000889206 -0.291359 4.80879e-13 -1.81811e-13 
-0.12537 81.026 -0.000299228 -0.347796 1.56121e-13 -1.45335e-14 -0.182593 81.4569 -0.0013111 
-0.380441 5.94338e-13 -9.24521e-14 -0.226624 81.8512 -0.00207375 -0.409885 -8.59534e-14 1.72388e-13 
-0.250081 82.1885 -0.00266537 -0.45385 -2.8554e-13 5.88548e-14 -0.247284 82.4516 -0.00317285 
-0.526781 -3.32418e-13 -2.69776e-13 -0.213363 82.6264 -0.00367655 -0.639404 -1.03112e-14 2.61427e-13 
-0.143441 82.7003 -0.00423498 -0.798221 -1.47877e-14 6.30568e-14 -0.0320397 82.6621 -0.00487254 
-1.00496 -3.44534e-13 -1.731e-13 0.127184 82.5017 -0.00556779 -1.25598 -6.10744e-14 1.62403e-13 
0.341234 82.211 -0.00624431 -1.54173 2.33849e-13 5.90712e-14 0.617021 81.7844 -0.00676625 
-1.84633 1.23554e-13 -2.18152e-13 0.960006 81.2215 -0.00694363 -2.14753 -3.23725e-13 9.9809e-14 
1.37229 80.5285 -0.00655163 -2.4173 -4.65863e-13 5.00607e-14 -0.0197847 80.2776 0.00190299 
-0.144374 -7.90808e-14 -1.49629e-14 -0.0882255 80.6529 0.00207297 -0.224922 -1.92283e-13 -7.56738e-14 
-0.179192 81.0677 0.000759086 -0.273037 -2.31692e-13 -7.07186e-14 -0.27734 81.4905 -0.000339069 
-0.308805 3.6786e-13 4.28477e-16 -0.371902 81.894 -0.00119589 -0.350121 -2.53571e-13 1.35269e-13 
-0.454588 82.2551 -0.00190066 -0.412751 -1.19532e-13 -1.625e-14 -0.518623 82.5539 -0.00254875 
-0.510055 8.29319e-14 -6.60075e-14 -0.557771 82.7725 -0.00323135 -0.652527 4.32571e-14 1.26396e-13 
-0.565412 82.8945 -0.00402066 -0.847167 -1.09134e-13 6.51777e-14 -0.533805 82.9039 -0.00495601 
-1.09667 -3.48325e-13 -1.87735e-13 -0.453677 82.7852 -0.00602746 -1.39845 3.28114e-14 2.75485e-14 
-0.314297 82.5238 -0.00715912 -1.74358 -4.09793e-13 2.4143e-15 -0.104212 82.1077 -0.0081951 
-2.11575 -1.06605e-13 -1.30135e-13 0.187208 81.5295 -0.00889519 -2.49052 3.21033e-13 3.03489e-13 
0.567367 80.7895 -0.00894866 -2.83537 1.87177e-14 -8.23499e-14 -0.0229681 80.3608 0.00351536 
-0.0890237 3.24105e-14 2.79698e-13 -0.108502 80.7025 0.00309191 -0.136095 1.87459e-13 -2.61969e-13 
-0.225919 81.1024 0.00170334 -0.166161 -3.63111e-13 1.91366e-13 -0.359762 81.5272 0.000578386 
-0.195859 -5.78979e-14 -2.29629e-13 -0.499082 81.9476 -0.0003014 -0.240357 5.00958e-13 1.34169e-13 
-0.635395 82.339 -0.00104152 -0.313567 -4.86891e-13 -3.05826e-13 -0.761614 82.6792 -0.00175182 
-0.427969 2.32931e-13 7.79268e-14 -0.870924 82.9479 -0.00254138 -0.594156 1.89845e-13 4.9271e-13 
-0.955689 83.1252 -0.00350508 -0.82011 5.44783e-13 -3.25065e-13 -1.00649 83.1907 -0.00470871 
-1.11017 -2.60587e-13 -7.12772e-14 -1.01142 83.1234 -0.00616807 -1.46368 -1.68682e-13 2.04836e-13 
-0.955948 82.9017 -0.00782294 -1.87333 1.95879e-13 8.78481e-14 -0.823402 82.5054 -0.00950923 
-2.32335 8.93721e-14 -2.52335e-13 -0.596631 81.918 -0.0109378 -2.78781 2.75186e-13 1.51719e-14 
-0.260857 81.1314 -0.0116934 -3.22969 1.40814e-13 1.82004e-13 -0.0256464 80.3981 0.00472693 
-0.023569 6.39965e-14 1.01029e-13 -0.124939 80.7232 0.00392095 -0.0284074 2.7049e-13 -1.72582e-13 
-0.263804 81.1217 0.00251732 -0.0320715 -9.49459e-14 -1.53712e-13 -0.427058 81.5585 0.00142939 
-0.0473663 -1.1205e-13 3.13575e-13 -0.604192 82.0038 0.000601497 -0.0865724 -2.31587e-13 -1.48288e-13 
-0.787275 82.4321 -8.98081e-05 -0.161753 -2.09412e-13 2.25186e-13 -0.969747 82.8202 -0.000771917 
-0.284658 1.15569e-13 -3.25278e-13 -1.14512 83.1462 -0.00157674 -0.466306 -1.10376e-13 3.4837e-13 
-1.30567 83.3876 -0.00263021 -0.716211 2.79381e-13 -1.71916e-13 -1.44115 83.5203 -0.00403813 
-1.0412 4.93078e-13 -3.76538e-14 -1.53771 83.5176 -0.00586169 -1.44372 9.18334e-14 3.63692e-13 
-1.57725 83.3507 -0.00808165 -1.91956 3.30695e-14 -2.9138e-13 -1.53753 82.9894 -0.0105519 
-2.45517 -9.86524e-14 -4.70284e-15 -1.39355 82.4059 -0.0129517 -3.02464 -1.33706e-13 -2.32026e-13 
-1.12075 81.5793 -0.0147535 -3.58722 -1.70309e-13 1.99432e-13 -0.0276146 80.3817 0.00547181 
0.0496324 -3.77957e-13 1.10824e-13 -0.136476 80.7079 0.00452553 0.0937352 1.20873e-13 2.05766e-13 
-0.290619 81.118 0.00317517 0.123227 1.91131e-13 -3.7975e-13 -0.475583 81.5767 0.0021914 
0.129633 -7.23729e-14 1.35004e-13 -0.681946 82.0544 0.00149247 0.103829 -4.31825e-13 1.97732e-13 
-0.903097 82.5259 0.000939123 0.0357042 6.99017e-14 -8.27359e-14 -1.13388 82.9681 0.000387302 
-0.0858156 7.30537e-14 -8.96692e-14 -1.36916 83.3587 -0.000319048 -0.272416 -4.2076e-13 1.90406e-13 
-1.60226 83.6738 -0.00134266 -0.535667 -3.01148e-14 6.26018e-16 -1.82332 83.8865 -0.00284258 
-0.885786 -2.58152e-13 -2.63793e-13 -2.0177 83.9651 -0.00494936 -1.32973 -6.7283e-14 3.8152e-13 
-2.16459 83.8732 -0.00772102 -1.86839 -1.80655e-13 -2.41235e-13 -2.23636 83.5695 -0.0110757 
-2.49291 1.03787e-13 8.49095e-14 -2.19926 83.0115 -0.0147055 -3.18003 2.97283e-13 -8.87779e-14 
-2.01633 82.1611 -0.0179906 -3.88746 2.98278e-13 -1.18485e-13 -0.0286406 80.3061 0.00567983 
0.127582 3.68004e-14 -2.77704e-13 -0.14192 80.651 0.00486478 0.224879 2.13922e-13 -1.12222e-13 
-0.303838 81.0854 0.00364251 0.292371 -1.31269e-13 -1.35569e-14 -0.501145 81.5749 0.00282993 
0.326468 -3.34477e-13 4.81108e-14 -0.726151 82.0912 0.00233485 0.321546 -2.61124e-13 -1.03037e-13 
-0.974293 82.6108 0.00200877 0.26966 2.99926e-13 7.92266e-14 -1.24271 83.1122 0.00169672 
0.160505 3.85815e-13 -1.42885e-14 -1.52868 83.5738 0.00122274 -0.0183463 1.71459e-13 6.48266e-14 
-1.82792 83.972 0.000387115 -0.28087 4.18858e-14 -1.77137e-15 -2.13256 84.2784 -0.00103137 
-0.641487 2.20488e-13 -1.80397e-13 -2.42891 84.4577 -0.00325658 -1.11314 6.72953e-13 2.53819e-13 
-2.69518 84.4661 -0.00646926 -1.70421 -8.91648e-14 -2.40337e-14 -2.89955 84.2505 -0.0107216 
-2.41383 1.50487e-15 -2.01133e-13 -2.99947 83.7511 -0.0158045 -3.22561 8.13126e-14 1.82007e-14 
-2.9435 82.9065 -0.0210785 -4.09983 2.44034e-13 2.79568e-13 -0.0284853 80.1685 0.00528539 
0.206599 -2.06959e-13 -1.46826e-13 -0.140072 80.5495 0.00489614 0.358445 -2.51522e-14 -7.58343e-14 
-0.300903 81.0196 0.00387896 0.466511 7.23887e-14 -3.01261e-14 -0.499444 81.5471 0.00329876 
0.532616 -1.22e-13 -2.44804e-13 -0.730303 82.1066 0.00307291 0.555014 1.97995e-13 3.79308e-13 
-0.991598 82.6772 0.00305471 0.528242 -7.49984e-14 4.05717e-14 -1.28354 83.2404 0.00308957 
0.443047 -5.25951e-14 -1.75936e-13 -1.60689 83.7773 0.00299311 0.286453 6.54516e-14 1.94963e-13 
-1.96118 84.2663 0.00253778 0.0420515 -3.66157e-15 8.50041e-14 -2.34244 84.6794 0.0014415 
-0.309249 -3.46772e-13 -9.51406e-14 -2.74038 84.9798 -0.000628658 -0.787642 -2.13786e-13 6.27233e-14 
-3.13502 85.118 -0.00402228 -1.41142 -3.803e-13 -9.23853e-14 -3.49307 85.0296 -0.00901528 
-2.19184 -1.84141e-14 -5.33306e-14 -3.76494 84.635 -0.0156354 -3.12505 -5.8749e-14 3.14661e-14 
-3.88404 83.8443 -0.0233905 -4.18097 -2.52463e-13 3.20646e-14 -0.0269321 79.9697 0.00423772 
0.282352 -1.45881e-13 -3.10987e-13 -0.129881 80.4028 0.00458083 0.486788 -1.41196e-13 3.64864e-13 
-0.279574 80.9185 0.00384199 0.635356 3.35311e-14 -3.70353e-13 -0.466636 81.4892 0.00354214 
0.735677 -6.6702e-14 2.69051e-13 -0.688409 82.0936 0.00363167 0.790232 6.43141e-14 -1.08085e-13 
-0.946127 82.7152 0.0039805 0.796442 4.60749e-14 2.36443e-14 -1.24363 83.3399 0.0044509 
0.746589 3.61742e-14 9.14919e-14 -1.58603 83.953 0.00486973 0.627693 2.42055e-14 1.31419e-13 
-1.97799 84.5368 0.0050033 0.421394 -8.22667e-14 -1.41251e-13 -2.42152 85.0668 0.00452754 
0.104086 -2.07922e-13 -3.35737e-14 -2.9127 85.5074 0.00300596 -0.352265 -1.35917e-13 6.60682e-14 
-3.43734 85.8066 -0.000109321 -0.977871 -2.32488e-13 3.49798e-14 -3.96544 85.8912 -0.0054102 
-1.80028 2.69175e-13 -1.09726e-13 -4.44494 85.6624 -0.0133548 -2.83543 3.40169e-13 5.25777e-14 
-4.79666 84.9962 -0.0238689 -4.07313 1.31347e-13 3.30826e-13 -0.023821 79.7141 0.00251432 
0.349999 -2.32922e-13 1.06946e-13 -0.110638 80.2135 0.00389227 0.601423 -1.3554e-13 -2.25455e-13 
-0.238332 80.7823 0.00349387 0.787435 -2.86169e-13 -1.87888e-13 -0.400027 81.3987 0.00350111 
0.921608 1.58429e-13 2.89513e-13 -0.596021 82.0471 0.00392237 1.01089 -3.36138e-13 -1.48506e-13 
-0.83079 82.7165 0.00466072 1.05601 -2.49856e-13 1.26052e-13 -1.112 83.3981 0.0056151 
1.05145 -6.744e-14 4.0871e-14 -1.44952 84.0834 0.00665021 0.985156 -1.85123e-13 6.76889e-14 
-1.85416 84.7608 0.00756128 0.837928 -2.97836e-13 -1.42555e-13 -2.33568 85.412 0.00802484 
0.582736 1.27481e-13 -5.42053e-14 -2.89969 86.0068 0.00754184 0.184312 3.21023e-13 2.08426e-13 
-3.5427 86.4959 0.00538135 -0.400161 4.82702e-13 -1.12632e-13 -4.24483 86.8026 0.000587935 
-1.21779 1.89499e-13 -9.18189e-15 -4.96003 86.8126 -0.00792623 -2.31186 -8.90208e-14 -6.28022e-14 
-5.60447 86.3677 -0.0208663 -3.70533 2.88986e-13 2.12014e-13 -0.0190836 79.4102 0.00013145 
0.404427 1.30817e-13 6.85701e-14 -0.0821784 79.9874 0.00282319 0.69344 -2.20671e-13 -2.89076e-13 
-0.176821 80.614 0.00280937 0.910616 5.29993e-13 5.7029e-14 -0.298837 81.276 0.00312105 
1.07529 1.65005e-13 2.24166e-13 -0.451405 81.9643 0.00384974 1.19889 -1.44053e-13 3.30291e-15 
-0.64199 82.6745 0.00494663 1.28581 1.52653e-13 -2.85902e-13 -0.881747 83.4042 0.00636634 
1.3335 -3.00931e-14 1.97255e-13 -1.18511 84.152 0.0080402 1.33207 2.10942e-14 1.57081e-13 
-1.56918 84.9145 0.009837 1.26326 5.09436e-14 -2.41647e-13 -2.05253 85.6825 0.0115001 
1.09881 1.89347e-13 4.22527e-14 -2.6528 86.436 0.0125557 0.798541 -1.09648e-13 -1.13498e-13 
-3.38215 87.135 0.0121868 0.308673 2.42709e-13 1.07005e-13 -4.23925 87.7082 0.0091234 
-0.438136 -1.61312e-13 -1.68181e-15 -5.19657 88.0359 0.00147395 -1.51811 1.32068e-13 -1.47226e-14 
-6.18138 87.9326 -0.012579 -3.00152 -3.58973e-13 -5.66977e-14 19.9519 106.575 0.142459 
22.6876 6.5048e-13 7.66054e-14 7.1514 112.315 -0.165663 12.0999 4.88054e-13 2.36033e-13 
24.3967 93.5184 0.338712 19.6642 -4.30211e-14 -3.35787e-13 15.0805 100.607 -0.106815 
19.7041 -2.79776e-13 -6.37712e-13 23.4466 87.5587 0.135766 16.7602 1.92651e-13 2.80248e-13 
19.6107 91.097 0.0702264 18.0352 4.41869e-14 4.83308e-13 23.0368 84.1629 0.0659651 
14.805 -1.03195e-13 1.61038e-13 20.3992 86.5667 -0.00261142 15.7931 8.94007e-14 -3.39673e-13 
22.756 81.9821 0.0512678 13.1916 -2.28192e-13 1.76831e-13 20.8064 83.7312 0.0147324 
14.0463 1.10661e-13 3.77851e-13 22.5449 80.425 0.0399056 11.829 3.55826e-14 8.04079e-14 
20.9564 81.7947 0.00951975 12.559 -2.78666e-13 -1.76775e-13 22.3785 79.2496 0.0339748 
10.6363 -6.30745e-13 -3.94185e-13 21.0273 80.3743 0.00992795 11.2775 -1.13132e-13 -2.93932e-13 
22.2417 78.3177 0.0295595 9.57282 4.21621e-13 1.62315e-13 21.0573 79.2736 0.00927202 
10.1442 -1.18516e-14 4.95368e-13 22.1262 77.552 0.0263743 8.61073 1.16157e-14 4.14599e-14 
21.0672 78.3851 0.00885995 9.12706 2.22919e-13 -2.60167e-13 22.0262 76.9043 0.0238735 
7.73145 6.31641e-13 5.61218e-14 21.066 77.644 0.0083902 8.20275 -5.58359e-13 3.57978e-13 
21.938 76.3444 0.0218556 6.92161 -1.29841e-13 -4.86694e-14 21.0583 77.0101 0.00792834 
7.35521 -3.14249e-13 -1.82056e-13 21.8593 75.8525 0.0201762 6.17123 2.3543e-13 1.45297e-13 
21.0468 76.4576 0.00746854 6.57258 -1.56347e-13 4.32258e-14 21.7885 75.4159 0.0187514 
5.47259 3.13471e-13 7.32157e-14 21.0332 75.9697 0.00702008 5.84584 4.97755e-13 1.74236e-14 
21.7246 75.0263 0.0175264 4.81943 -1.78954e-14 -4.65131e-13 21.0186 75.5352 0.00658773 
5.16787 -3.71217e-13 -3.33594e-13 21.6672 74.6786 0.0164657 4.20647 1.2746e-12 1.57152e-13 
21.0037 75.1474 0.00617643 4.5328 -1.04181e-13 6.58442e-13 20.9893 74.8019 0.00579061 
3.93561 1.97606e-13 -8.06941e-13 6.91589 101.442 -0.741635 14.9116 5.92304e-13 -1.55036e-13 
1.93871 99.9026 0.00604588 5.4208 -9.10383e-13 6.15619e-14 14.1114 95.1028 0.126947 
17.1606 5.64548e-13 -1.59234e-13 7.42262 97.8706 0.184132 13.1717 3.63487e-13 -3.32512e-14 
16.9065 89.3148 0.0176814 16.0052 -6.67244e-13 1.58179e-13 12.1822 92.2817 0.0633357 
14.9273 3.31069e-13 -2.72171e-13 18.3584 85.7788 0.0336188 14.4961 3.18079e-13 7.34413e-14 
14.9037 88.0662 0.0105081 14.463 2.36838e-13 3.26378e-13 19.0374 83.3633 0.0179539 
13.0567 -9.61953e-13 -2.49661e-13 16.5207 85.1256 0.0104306 13.3496 -1.0808e-13 -1.83173e-13 
19.443 81.6365 0.0112479 11.7669 2.90101e-13 6.23668e-14 17.4579 83.0408 0.00332702 
12.1568 5.71515e-13 2.02283e-13 19.6997 80.3267 0.00770829 10.6093 -3.29625e-13 -2.19547e-13 
18.0651 81.4864 0.00221907 11.0232 -1.44315e-13 -3.08101e-13 19.8739 79.2889 0.0055424 
9.56409 -7.3358e-14 4.81094e-13 18.4789 80.2751 0.00116216 9.97291 2.41487e-13 3.08156e-13 
19.9978 78.4367 0.00423627 8.61221 5.69031e-13 -3.40637e-13 18.7769 79.2952 0.000775117 
9.00576 -5.88835e-14 -3.03181e-13 20.0893 77.7169 0.00337646 7.73891 -2.46608e-13 2.53957e-13 
19.0004 78.4778 0.000536513 8.11355 1.24706e-13 3.28924e-13 20.1588 77.0956 0.00279977 
6.93261 6.43888e-13 6.76126e-14 19.1738 77.7792 0.000401269 7.28765 1.31561e-14 2.06432e-14 
20.2129 76.5506 0.00240058 6.18424 6.5041e-13 1.82094e-13 19.3118 77.171 0.000305169 
6.52017 -2.24439e-13 6.22488e-14 20.2557 76.0675 0.00212058 5.48657 -6.9586e-13 -6.85531e-13 
19.4242 76.6343 0.0002287 5.80437 -5.57429e-13 -3.41928e-13 20.2903 75.6368 0.00192287 
4.83362 -2.08611e-13 1.52149e-13 19.5173 76.1571 0.000161002 5.13451 2.1242e-13 -2.3772e-13 
20.3185 75.2528 0.00178371 4.22028 -4.88012e-14 3.62415e-13 19.5953 75.7314 9.81066e-05 
4.5056 -7.19681e-13 6.01241e-13 19.6613 75.3525 3.86525e-05 3.91323 -4.51014e-13 -2.99736e-13 
1.66367 96.2531 -0.170588 8.08225 -3.25739e-13 8.69305e-14 0.609531 91.5 -0.117941 
2.80963 -9.13714e-14 7.53286e-14 7.26011 93.6731 -0.016021 12.4079 5.00711e-14 -5.11952e-14 
3.44011 93.112 -0.0296347 8.29619 6.19338e-13 3.26406e-14 11.2957 89.8926 0.023671 
13.4735 3.06977e-14 1.27232e-13 7.29319 91.3107 0.0432657 11.2661 -3.58491e-13 1.67991e-13 
13.7179 86.8192 0.0243851 13.0688 1.97065e-15 -8.59035e-15 10.4159 88.4559 0.0308559 
12.1042 -2.18381e-13 1.05248e-13 15.2418 84.4755 0.0145763 12.1956 -6.32994e-13 -1.44433e-13 
12.5888 85.9744 0.0164203 11.8578 3.67206e-13 -2.1089e-13 16.2464 82.7026 0.0104125 
11.2071 -1.23512e-13 1.2472e-13 14.0865 84.0003 0.00929592 11.18 -2.39253e-14 1.08791e-13 
16.9385 81.3186 0.00693503 10.2232 5.19279e-13 -2.31669e-13 15.141 82.4376 0.00565816 
10.3496 -1.58956e-13 -1.92346e-14 17.4396 80.2057 0.00483708 9.28439 -5.59219e-13 8.03975e-14 
15.9053 81.1806 0.00345257 9.48693 -1.95163e-13 -2.25587e-13 17.8165 79.2845 0.00347436 
8.40148 1.41803e-13 -1.29549e-14 16.4789 80.1452 0.00222444 8.6409 -1.14686e-13 1.48999e-13 
18.1097 78.5031 0.00258585 7.57498 5.62592e-13 -2.9074e-14 16.9227 79.2725 0.00145693 
7.8304 -2.99843e-13 1.88474e-13 18.3439 77.8271 0.00199757 6.80172 -8.07687e-13 1.15963e-13 
17.2754 78.522 0.000973561 7.06176 -5.90084e-14 -5.66196e-13 18.5353 77.2334 0.00160476 
6.0775 -3.00607e-13 3.71828e-13 17.5622 77.8662 0.000649745 6.33584 3.46737e-14 4.42212e-13 
18.6945 76.7068 0.00134368 5.39805 6.60937e-13 -7.85913e-13 17.7998 77.2863 0.00042415 
5.65121 -1.39513e-13 9.09585e-14 18.8287 76.2374 0.00117343 4.75929 1.56819e-15 1.78864e-13 
17.9996 76.7698 0.000259982 5.00551 8.90954e-15 -2.52943e-13 18.9429 75.8186 0.00106692 
4.1574 -9.82547e-15 3.41938e-13 18.1694 76.3086 0.000136353 4.396 -3.75117e-14 1.27532e-13 
18.3143 75.8977 4.06388e-05 3.81978 3.17038e-13 -6.4183e-14 0.860642 90.5808 -0.158513 
4.64858 4.92772e-13 -1.61565e-13 0.33812 86.8286 -0.129172 1.75482 3.04479e-14 -1.75804e-13 
3.96268 90.9154 -0.0619531 8.59811 -3.19467e-13 -1.62939e-13 1.95946 89.5142 0.0117517 
5.44719 -2.01422e-13 -1.92513e-13 7.27744 89.2397 -0.00250307 10.5264 -4.55747e-14 3.38993e-13 
4.55957 89.3694 0.0254018 8.19419 1.44329e-13 -1.49131e-13 9.91002 87.0882 0.00909678 
11.0297 2.11497e-13 -2.2763e-14 7.19516 87.9366 0.0226603 9.59834 2.63539e-13 4.83641e-13 
11.8433 85.1324 0.0105349 10.7972 4.33431e-13 1.83221e-14 9.40908 86.1922 0.0168437 
10.0055 6.09512e-14 -2.54279e-13 13.2435 83.493 0.00882947 10.2222 3.37355e-13 5.55962e-14 
11.1372 84.5518 0.0117728 9.82966 -5.33212e-13 1.515e-13 14.2758 82.138 0.00658985 
9.50594 5.39208e-13 -2.25008e-13 12.4585 83.1272 0.00795747 9.35258 8.1965e-13 -1.15515e-14 
15.0562 81.0098 0.00492315 8.74425 -2.11442e-13 -3.33795e-14 13.4744 81.9139 0.00543202 
8.73373 -2.65205e-13 -3.29821e-13 15.6614 80.0556 0.00367886 7.98229 2.44027e-13 2.2133e-13 
14.2678 80.8783 0.00376989 8.05724 -1.41512e-13 2.3424e-13 16.1423 79.2351 0.0028061 
7.24098 2.93238e-14 -4.55747e-14 14.899 79.9852 0.00265629 7.36705 4.39968e-13 -1.93283e-14 
16.5328 78.519 0.00219615 6.52958 1.91319e-13 1.63758e-15 15.4108 79.2055 0.00190103 
6.68583 6.65759e-13 2.54203e-13 16.856 77.8864 0.00177508 5.85165 -2.25056e-13 1.6448e-13 
15.8331 78.5171 0.00137505 6.02508 3.03951e-13 -8.9961e-14 17.1274 77.323 0.00148869 
5.2079 -2.50355e-14 -4.81422e-13 16.1868 77.9041 0.00100103 5.39039 6.38677e-13 -1.80099e-13 
17.358 76.8192 0.0012993 4.59759 3.16025e-13 2.23429e-13 16.4866 77.3554 0.000729392 
4.7841 3.83166e-14 -3.17578e-13 17.5552 76.3688 0.00118003 4.01917 8.40959e-13 -2.51656e-14 
16.7428 76.8635 0.000528882 4.20672 -4.63379e-14 5.28334e-13 16.9627 76.4239 0.000379043 
3.65764 -5.86753e-14 -2.35766e-13 0.422745 86.9659 -0.0964514 2.98905 -1.48298e-13 -2.39281e-13 
0.20495 83.9495 -0.0910902 1.12348 1.08691e-13 1.00253e-13 2.35652 88.3757 -0.0363515 
5.9474 5.38347e-13 -2.44527e-13 1.18491 86.6471 -0.00291409 3.68268 2.18686e-13 -1.12688e-14 
4.78883 87.9659 -0.0154017 7.93372 3.91215e-13 4.65211e-13 2.97164 87.4322 0.00972558 
5.92234 9.30367e-14 6.46982e-14 7.11766 86.7476 -0.00111868 8.90914 -4.7462e-15 -1.77171e-13 
5.04299 86.9775 0.0142356 7.40673 -2.59209e-13 -1.90403e-14 9.06853 85.3245 0.00458715 
9.16028 -1.99563e-13 1.28866e-13 7.01713 85.9371 0.0138145 8.14727 -2.3892e-13 -1.52246e-13 
10.6265 83.9576 0.00563106 8.97403 -2.75946e-13 9.88931e-14 8.72314 84.7238 0.011085 
8.33679 3.84762e-13 3.1564e-13 11.8553 82.7319 0.00519404 8.5463 -7.15539e-14 -2.88724e-13 
10.1344 83.5353 0.00844733 8.17226 -1.3109e-13 -1.35767e-13 12.8285 81.6561 0.00433269 
7.99404 3.53439e-13 3.3187e-14 11.2841 82.4432 0.00630002 7.7978 -3.59324e-13 -1.23068e-13 
13.6087 80.7142 0.00349031 7.38448 4.03982e-14 8.46875e-14 12.2204 81.4633 0.00467225 
7.30674 -4.03219e-13 8.58419e-14 14.2436 79.885 0.00280014 6.75551 -6.51562e-14 1.77277e-13 
12.9886 80.5889 0.00347824 6.75647 2.69312e-13 -1.83221e-14 14.7682 79.1495 0.00227047 
6.12846 -5.01918e-13 2.515e-14 13.6256 79.8073 0.0026076 6.18157 -1.13021e-13 -9.05699e-15 
15.2078 78.4922 0.00188175 5.51525 4.91968e-14 -1.5812e-14 14.16 79.1056 0.00197087 
5.60278 2.69694e-13 1.14398e-13 15.5805 77.9019 0.00160654 4.92243 2.73268e-13 -4.19283e-13 
14.6132 78.4729 0.00150222 5.0325 8.15736e-14 4.61367e-14 15.8994 77.3706 0.00142017 
4.35336 6.82093e-14 1.78723e-13 15.001 77.9013 0.00115488 4.47809 -4.67681e-15 -3.33915e-13 
16.1736 76.8932 0.00130185 3.80943 5.80085e-13 -9.13609e-14 15.3349 77.3852 0.000896233 
3.94369 3.31249e-13 2.85336e-13 15.6229 76.9213 0.000703251 3.4314 -3.40936e-13 -3.48553e-13 
0.254317 84.442 -0.072714 1.9683 -7.31359e-14 -5.10703e-15 0.136547 82.0199 -0.0762977 
0.744326 -3.2882e-13 -5.39013e-14 1.5047 86.2136 -0.0324098 4.1522 -2.06613e-13 -4.25215e-14 
0.779188 84.5682 -0.00401075 2.52985 5.48145e-13 5.3596e-14 3.2657 86.5722 -0.0175877 
5.89638 -1.02335e-13 1.06831e-13 2.0315 85.7551 0.00516901 4.27318 -2.15356e-13 -2.57988e-13 
5.15868 86.0737 -0.0066702 6.99946 6.56974e-14 -1.13402e-13 3.61571 85.9055 0.00876238 
5.62086 6.61624e-13 3.27391e-13 6.9261 85.167 -0.000430743 7.52609 -5.90222e-14 -1.59074e-13 
5.26984 85.4187 0.00969798 6.46932 -2.82691e-14 -2.36172e-13 8.46145 84.1287 0.00235549 
7.62979 -3.08892e-13 2.87943e-13 6.82244 84.6162 0.00905613 6.87188 -2.24903e-13 6.29427e-14 
9.75186 83.097 0.00324081 7.4539 -2.19769e-13 -2.02571e-13 8.19709 83.6993 0.00769376 
6.93699 -1.61801e-13 -7.35453e-14 10.824 82.1289 0.00323625 7.10499 4.85348e-13 -5.34108e-14 
9.37868 82.7754 0.00622458 6.76966 7.44682e-14 3.39746e-14 11.7146 81.2416 0.0029097 
6.6549 -8.40439e-14 4.54608e-14 10.3819 81.8937 0.00492307 6.45188 2.94709e-13 1.38261e-13 
12.4589 80.435 0.00251072 6.15009 1.42039e-13 1.11446e-13 11.2318 81.0725 0.00385706 
6.04188 1.92776e-13 2.9554e-14 13.0863 79.7028 0.00214454 5.62013 2.45928e-13 1.85023e-13 
11.9541 80.3153 0.00301575 5.57928 2.22877e-14 -5.27391e-14 13.6199 79.0372 0.00184696 
5.08377 1.0645e-13 -7.07004e-14 12.5717 79.6198 0.00236394 5.09054 3.90771e-13 2.35771e-13 
14.0777 78.4316 0.00162363 4.55292 -6.28948e-13 -2.87421e-13 13.1031 78.9819 0.00186354 
4.59326 -2.86979e-13 -4.53615e-13 14.4728 77.8812 0.00146842 4.03501 1.1266e-13 6.82857e-14 
13.5632 78.3978 0.00148169 4.09908 -2.84842e-14 2.30035e-13 14.815 77.3827 0.00137079 
3.53459 1.19238e-13 4.08475e-14 13.9628 77.865 0.00119198 3.6156 -2.37588e-14 7.83028e-14 
14.31 77.382 0.000973808 3.14764 3.00544e-13 -4.69621e-13 0.160497 82.6906 -0.0548075 
1.31891 2.19491e-13 2.32009e-13 0.0966698 80.7291 -0.0628536 0.489478 3.04673e-13 4.43812e-13 
1.0187 84.5296 -0.0239808 2.91136 -5.16129e-13 -1.50935e-13 0.538495 83.0493 -0.00414943 
1.7379 -1.34059e-14 -3.35787e-13 2.302 85.2913 -0.0159781 4.33902 3.94754e-13 -3.747e-15 
1.44067 84.3854 0.00217643 3.06466 1.82576e-13 3.61058e-13 3.8003 85.2801 -0.00882384 
5.39126 -8.20274e-13 5.38181e-14 2.65139 84.8894 0.00496881 4.20588 1.70142e-14 -1.47216e-13 
5.31457 84.7995 -0.00351715 6.03021 5.56249e-13 -6.41723e-13 4.00166 84.7977 0.00653568 
5.03295 4.1582e-13 -1.46071e-13 6.72475 84.0797 -0.000305614 6.31311 -1.90487e-13 5.33969e-13 
5.35239 84.3377 0.00685559 5.52895 9.68947e-14 1.30868e-14 7.97967 83.2657 0.0013001 
6.32592 -4.1378e-13 -4.24383e-14 6.61806 83.6818 0.00639393 5.73834 2.6143e-13 1.67897e-13 
9.0708 82.438 0.00194698 6.14891 2.46997e-13 1.12707e-13 7.75942 82.9418 0.00558109 
5.72543 -5.39707e-13 1.15241e-13 10.0102 81.6367 0.00209118 5.84553 -6.93889e-15 2.44509e-15 
8.76732 82.1825 0.00469103 5.55177 2.03448e-13 3.01252e-14 10.8175 80.8791 0.0020067 
5.46223 -4.31793e-13 -1.40741e-13 9.64866 81.4387 0.00386016 5.26789 -4.54345e-13 -2.34028e-13 
11.513 80.1711 0.00184304 5.03185 5.1889e-14 3.54382e-13 10.417 80.7271 0.00314281 
4.91228 1.03723e-13 1.17277e-13 12.1149 79.5132 0.00167433 4.57725 1.85456e-13 -8.3618e-14 
11.0875 80.0551 0.00254942 4.51328 -4.89289e-13 2.0318e-13 12.6383 78.9044 0.00153414 
4.11424 1.21833e-13 -3.59802e-13 11.6741 79.4255 0.00207152 4.09135 1.87107e-13 -1.123e-13 
13.0951 78.3436 0.00143462 3.65371 -4.30628e-14 1.09079e-13 12.1887 78.8391 0.00169406 
3.66116 -4.70041e-14 -2.90505e-13 13.4942 77.8302 0.0013767 3.20303 2.27235e-13 9.75348e-14 
12.6406 78.2969 0.00140095 3.23311 7.72646e-14 1.99743e-13 13.0368 77.7999 0.00117724 
2.81438 -8.23612e-13 1.73352e-13 0.108315 81.4687 -0.0430963 0.872862 2.91926e-13 2.84689e-13 
0.0713852 79.8682 -0.0530958 0.311605 3.58415e-13 5.5761e-14 0.719415 83.2429 -0.0188006 
2.02511 -3.86635e-14 -2.20074e-13 0.386868 81.952 -0.00380551 1.17308 1.47098e-13 1.05471e-14 
1.6713 84.197 -0.0138626 3.15333 -2.86715e-13 3.70121e-14 1.05253 83.306 0.000849467 
2.16527 5.87433e-13 -3.45279e-13 2.84724 84.4965 -0.00914813 4.07819 -4.21746e-14 -7.8354e-14 
1.98343 84.0003 0.00286967 3.09304 -5.61273e-13 3.79696e-13 4.10903 84.3362 -0.00505709 
4.72525 -5.58997e-14 -4.86833e-13 3.07318 84.1724 0.00428282 3.83568 1.60982e-14 -1.98438e-13 
5.3518 83.8898 -0.00211944 5.09654 4.59494e-14 2.3874e-13 4.21889 83.9765 0.00495853 
4.34633 1.30534e-13 -3.03424e-13 6.51344 83.2861 -0.0002884 5.23269 7.06241e-14 1.31117e-13 
5.34386 83.5468 0.00502409 4.6302 -6.62886e-13 1.38028e-13 7.56615 82.6099 0.000720722 
5.18562 -5.15921e-13 3.21458e-13 6.40147 82.9834 0.00469599 4.71934 -4.35499e-13 8.70484e-14 
8.50401 81.9122 0.00120441 5.00422 1.34198e-13 -8.6273e-14 7.36953 82.3539 0.00417528 
4.65429 -2.56309e-13 1.59412e-13 9.33282 81.2218 0.00138875 4.72917 -4.31044e-14 -4.42606e-14 
8.24206 81.7006 0.00359942 4.47413 3.96724e-13 7.71709e-14 10.0633 80.5544 0.00142178 
4.39225 1.25851e-13 1.75825e-13 9.02227 81.0489 0.00304646 4.21235 -1.56986e-13 -2.25315e-13 
10.7075 79.9179 0.00139259 4.01757 -2.88013e-13 -8.5251e-14 9.71765 80.4135 0.00255399 
3.896 -2.78187e-13 2.04624e-13 11.2763 79.3166 0.00135124 3.62313 5.73985e-14 -3.4936e-13 
10.3369 79.8029 0.00213576 3.54626 -9.06775e-14 -3.37746e-13 11.779 78.7534 0.00132341 
3.22221 2.57849e-13 1.82019e-13 10.8882 79.223 0.00179275 3.17942 -9.11285e-14 1.37442e-13 
12.223 78.2309 0.00131985 2.82448 -1.59699e-13 1.87298e-14 11.3785 78.6778 0.00151966 
2.80779 -4.42965e-13 1.59067e-13 11.813 78.1714 0.00130835 2.44046 -3.41338e-13 -1.95316e-13 
0.0754435 80.6262 -0.0345615 0.555451 -4.49467e-13 1.60427e-13 0.0542134 79.3155 -0.0451255 
0.182553 -3.8497e-14 2.3731e-14 0.524179 82.28 -0.0145919 1.37603 2.23495e-13 -2.7553e-13 
0.285209 81.1707 -0.00332792 0.758612 2.15689e-13 1.19238e-13 1.24134 83.3042 -0.0115636 
2.24532 2.92558e-13 1.79357e-13 0.785396 82.4753 0.000195306 1.48554 -5.61939e-13 -3.33067e-15 
2.16452 83.788 -0.00856669 3.01943 -1.52489e-13 -1.14353e-13 1.50634 83.2579 0.0016071 
2.21772 2.33945e-13 -4.17721e-14 3.20117 83.8536 -0.00560993 3.61728 1.07844e-13 -3.73104e-13 
2.38189 83.5967 0.00275853 2.85128 -2.07667e-13 -3.54716e-14 4.26915 83.6253 -0.00317981 
4.01315 -2.74364e-14 4.89053e-14 3.33924 83.5935 0.0034967 3.33013 -4.47836e-14 1.07775e-13 
5.30975 83.2075 -0.00143537 4.21744 2.89713e-13 -4.70353e-14 4.31619 83.3475 0.00380881 
3.63812 -1.04555e-13 -3.41595e-13 6.28814 82.6775 -0.000303329 4.25843 -4.47239e-13 5.13079e-13 
5.2682 82.9411 0.00378234 3.78506 -1.41505e-13 2.06578e-13 7.18797 82.0886 0.000372432 
4.16975 -6.12531e-13 -7.94868e-14 6.16817 82.4365 0.00353962 3.79398 2.37615e-13 1.4139e-13 
8.00502 81.4753 0.000746451 3.98361 1.25858e-13 1.81192e-14 7.00269 81.8771 0.00318608 
3.6923 -2.48496e-13 1.08498e-13 8.74193 80.8592 0.000940172 3.72803 -3.77948e-13 1.02807e-13 
7.76756 81.2924 0.00279703 3.50683 4.68854e-13 -2.27628e-13 9.4045 80.254 0.00103853 
3.42612 5.49005e-13 -9.35142e-14 8.46398 80.7017 0.00241951 3.26147 -5.92998e-14 3.74846e-13 
9.99939 79.6686 0.00109635 3.09648 -2.85702e-13 -3.67908e-13 9.09573 80.1181 0.00207961 
2.9765 3.68316e-14 -2.69728e-13 10.5327 79.1097 0.00114639 2.75371 1.67172e-13 3.62163e-14 
9.66728 79.5509 0.00178959 2.66861 -2.45082e-13 -1.49705e-13 11.0095 78.5827 0.00120589 
2.40908 1.45432e-13 1.20689e-13 10.1827 79.0076 0.00155304 2.35122 2.48059e-13 2.79301e-13 
10.6452 78.4951 0.00136818 2.03478 6.21073e-13 -1.42565e-13 0.0537284 80.0626 -0.0281414 
0.322647 8.49633e-14 4.84196e-14 0.0418625 78.9884 -0.0385486 0.0870135 -1.32684e-13 -2.52326e-13 
0.389744 81.5738 -0.0114625 0.890846 1.37286e-13 -4.07438e-13 0.213522 80.6301 -0.00286329 
0.448693 -3.03355e-13 1.80037e-13 0.936602 82.5978 -0.0095384 1.54461 -1.53003e-13 2.07639e-13 
0.593671 81.8512 -0.000110051 0.965971 1.62349e-13 -3.26572e-13 1.66269 83.181 -0.00765155 
2.17014 -1.60497e-14 -1.74583e-14 1.15467 82.6589 0.000876941 1.52805 3.62002e-13 2.68688e-13 
2.50751 83.3981 -0.00557761 2.69157 -1.09565e-13 -1.60538e-13 1.856 83.0959 0.00175785 
2.04828 1.17684e-14 -3.09891e-14 3.41021 83.3351 -0.00368695 3.0715 4.32869e-13 -9.38277e-14 
2.64763 83.2272 0.00242331 2.47094 -2.57572e-14 -8.18234e-14 4.32128 83.0717 -0.00217798 
3.30234 -2.25604e-13 5.03937e-14 3.48194 83.1237 0.00281577 2.76969 1.5446e-13 -1.79336e-13 
5.20615 82.6735 -0.0010818 3.39519 8.80421e-13 3.30971e-13 4.32065 82.8496 0.00295164 
2.94046 4.27242e-13 4.68164e-13 6.04411 82.1897 -0.000338535 3.37049 -3.24768e-13 -7.88362e-14 
5.13686 82.4579 0.00289243 2.99329 2.00534e-15 -4.61686e-13 6.82494 81.6558 0.000142116 
3.25177 -1.34878e-13 9.5618e-15 5.914 81.989 0.00270807 2.94559 -1.62613e-13 2.57575e-13 
7.54541 81.0964 0.000447191 3.06206 -2.0442e-13 1.14526e-14 6.64349 81.4727 0.00245901 
2.81746 -7.27092e-13 -2.84044e-14 8.2063 80.5285 0.000646957 2.82214 -3.12417e-13 1.57942e-13 
7.32206 80.9304 0.00219021 2.62889 -1.06658e-13 2.02694e-13 8.81021 79.9646 0.000792506 
2.55003 -9.01154e-14 -2.84633e-13 7.94948 80.3779 0.00193185 2.39837 -2.79957e-13 -1.91729e-13 
9.36014 79.4144 0.000917902 2.26079 7.85066e-14 3.1665e-14 8.52693 79.8273 0.00170232 
2.14216 -4.45685e-13 -1.86905e-13 9.85854 78.8862 0.00104328 1.96671 -1.93179e-14 1.75315e-13 
9.05574 79.2889 0.00151132 1.87414 6.04239e-14 4.00753e-13 9.5367 78.7719 0.0013621 
1.60571 -1.48812e-13 -4.20291e-13 0.0384519 79.7075 -0.0230991 0.149175 -3.35461e-14 -3.34038e-14 
0.032521 78.8296 -0.0329463 0.0155754 -2.02144e-13 1.37411e-13 0.29266 81.0705 -0.00902724 
0.523658 -4.58782e-13 -2.67883e-13 0.160521 80.2742 -0.00243395 0.214753 3.52253e-14 -2.5685e-13 
0.712146 82.0544 -0.00779342 1.00106 -8.23161e-14 3.06977e-13 0.450371 81.3959 -0.000240099 
0.566582 -6.72143e-13 1.43052e-13 1.28318 82.6811 -0.00664198 1.49104 -3.49401e-13 -1.92735e-13 
0.886833 82.1903 0.000449234 0.984782 -3.64916e-13 9.76302e-15 1.96707 82.9944 -0.00523415 
1.92657 7.60919e-14 -8.32806e-14 1.44593 82.6782 0.00110323 1.39758 -2.19144e-13 -4.14044e-14 
2.72042 83.0517 -0.00382685 2.26718 -1.6593e-13 -1.12604e-13 2.09419 82.8996 0.00165513 
1.75356 -2.81372e-14 1.06734e-13 3.5041 82.9117 -0.00260158 2.4956 6.7911e-14 2.357e-13 
2.79669 82.903 0.00204153 2.02262 -3.01703e-13 -2.73809e-13 4.2876 82.6264 -0.00163006 
2.61156 -3.64e-13 8.73988e-14 3.52261 82.7365 0.00224652 2.19275 -1.81237e-13 2.66745e-13 
5.0498 82.2386 -0.000907791 2.62543 5.14935e-14 -1.13992e-13 4.24802 82.4427 0.00229402 
2.26522 1.47271e-13 8.11851e-14 5.7778 81.7813 -0.000391228 2.5531 -6.02435e-14 1.23016e-13 
4.95615 82.0566 0.00222505 2.24967 4.84293e-13 -9.58435e-15 6.46481 81.2792 -2.46831e-05 
2.41257 9.84629e-14 8.57821e-15 5.63647 81.6059 0.00208288 2.16038 1.48159e-13 -2.03854e-13 
7.108 80.7511 0.000244516 2.22178 -3.79002e-14 6.16313e-14 6.28303 81.1119 0.00190507 
2.01352 2.73517e-13 3.03742e-13 7.70673 80.2114 0.000459366 1.99752 -2.12441e-13 -2.37458e-13 
6.89282 80.5917 0.00172067 1.82543 3.83721e-14 -1.23381e-13 8.26118 79.6721 0.000651348 
1.75474 -3.13562e-13 4.08879e-14 7.46436 80.059 0.0015503 1.6116 4.34909e-13 -2.08758e-13 
8.77139 79.144 0.000840623 1.50632 -2.32987e-13 1.63024e-13 7.99658 79.5262 0.0014071 
1.38597 -2.72837e-14 2.97698e-13 8.48806 79.0047 0.00129779 1.1606 6.29427e-13 -3.35071e-14 
0.027141 79.5103 -0.0190008 0.0192935 2.06503e-13 -1.36904e-13 0.0251265 78.797 -0.0280834 
-0.0376218 -7.02726e-14 1.59733e-14 0.219305 80.7273 -0.00710828 0.244666 1.18697e-13 -2.10928e-13 
0.119556 80.0605 -0.00204813 0.0384207 1.70017e-13 -7.53148e-14 0.540451 81.6494 -0.00632357 
0.57933 -3.22936e-14 1.86698e-13 0.338971 81.077 -0.000280053 0.260245 3.25844e-13 2.15106e-15 
0.987384 82.2835 -0.00566238 0.950619 -1.61801e-13 -1.2005e-13 0.675975 81.8355 0.000202243 
0.558945 -1.8088e-13 -1.30382e-14 1.53625 82.6533 -0.00474456 1.30067 -1.68428e-13 -1.35239e-14 
1.11746 82.3428 0.000678078 0.874826 5.02841e-13 2.10713e-13 2.15716 82.7954 -0.00374014 
1.59008 3.06172e-13 -1.74201e-13 1.64196 82.6217 0.00111373 1.16193 2.0603e-13 -2.44874e-13 
2.82071 82.751 -0.00279527 1.79716 -2.34271e-13 3.48471e-14 2.22487 82.7034 0.00145428 
1.38989 2.30926e-14 -2.93751e-13 3.50182 82.5597 -0.00198873 1.91475 3.68469e-13 3.3035e-13 
2.84271 82.6224 0.00167257 1.54274 2.32023e-13 3.979e-13 4.18139 82.2562 -0.00134283 
1.94608 -3.60545e-14 -5.74644e-14 3.47568 82.4112 0.00177171 1.61616 -3.01772e-14 -1.8462e-13 
4.84617 81.8693 -0.000843552 1.90106 -1.68601e-13 1.232e-14 4.10863 82.0983 0.00177263 
1.61433 -5.9043e-14 1.1104e-13 5.48776 81.4221 -0.000458967 1.79327 6.84591e-14 2.17442e-13 
4.73091 81.7078 0.00170393 1.54691 3.18377e-13 1.96954e-13 6.10117 80.9331 -0.000152247 
1.6379 1.03938e-13 -3.75056e-14 5.33542 81.2596 0.00159465 1.42682 3.38347e-13 1.16725e-13 
6.68348 80.4178 0.000110587 1.4503 -3.36654e-13 -3.6078e-13 5.91752 80.7703 0.00147038 
1.26841 -4.33625e-13 -3.14939e-13 7.23262 79.8895 0.000356701 1.2451 1.88793e-13 1.01002e-13 
6.47388 80.2547 0.00135156 1.0863 -1.03292e-13 -4.83966e-15 7.74651 79.3609 0.000604593 
1.03554 1.12604e-13 1.20722e-13 7.00153 79.7262 0.00125297 0.894463 3.49894e-13 1.28557e-13 
7.49714 79.1981 0.00118355 0.705517 -6.84383e-13 -1.91106e-13 0.0183134 79.4323 -0.0155685 
-0.0770036 -4.68302e-14 -7.74242e-14 0.0190265 78.858 -0.0237953 -0.0763661 1.59699e-14 1.23158e-13 
0.16143 80.5098 -0.00555616 0.0341572 -1.47415e-13 -6.13953e-14 0.0865151 79.9558 -0.00170158 
-0.0924185 3.45034e-13 -1.80259e-13 0.404113 81.3593 -0.00508313 0.254515 -3.24671e-13 -2.43208e-14 
0.248987 80.8674 -0.000272089 0.0283109 1.34462e-13 -2.71588e-14 0.74952 81.9785 -0.00475799 
0.524605 1.407e-13 1.8776e-13 0.504353 81.5777 6.43314e-05 0.229352 -1.65687e-13 3.06657e-13 
1.18403 82.3775 -0.00420215 0.794784 9.85947e-14 -1.52267e-13 0.846876 82.0843 0.000404507 
0.460548 -3.42788e-13 -5.21666e-14 1.68802 82.5776 -0.00352393 1.02851 -3.63737e-14 -9.56457e-14 
1.26382 82.3975 0.000736876 0.681388 -2.59064e-13 -4.78784e-14 2.24042 82.606 -0.00283406 
1.20277 3.75096e-13 -1.00406e-14 1.7388 82.5358 0.0010179 0.862943 4.93369e-13 -4.6449e-14 
2.82187 82.4913 -0.00220372 1.30661 3.18565e-13 2.92294e-13 2.25489 82.5219 0.0012191 
0.98773 -2.65815e-13 1.70156e-13 3.41643 82.2602 -0.00166485 1.33863 -9.48269e-14 -2.29573e-13 
2.7968 82.3793 0.00133347 1.04828 -3.95774e-13 -3.29702e-14 4.01208 81.9361 -0.00121959 
1.30438 -1.63279e-13 1.77554e-13 3.352 82.1298 0.00136944 1.0451 2.00256e-13 -1.32925e-13 
4.6003 81.5392 -0.000851669 1.21397 -2.47108e-13 2.19174e-13 3.9109 81.7931 0.0013448 
0.984573 -1.58734e-13 1.1639e-13 5.17519 81.0868 -0.000536197 1.08023 -3.61516e-13 -8.83182e-14 
4.46649 81.3865 0.00128118 0.877072 2.16174e-13 -6.60262e-14 5.73252 80.5939 -0.000246882 
0.917315 1.61066e-13 -2.92792e-13 5.01353 80.9253 0.00120025 0.735406 -1.453e-14 2.17803e-14 
6.26868 80.0747 3.92132e-05 0.73953 2.62047e-13 1.57829e-14 5.54769 80.424 0.00112138 
0.573567 -5.42087e-13 -4.4407e-14 6.77989 79.543 0.000338501 0.560518 -5.49658e-13 1.20648e-13 
6.06469 79.8968 0.00106011 0.405675 4.14627e-13 -6.31309e-15 6.55964 79.3583 0.00102694 
0.245064 -9.20444e-14 1.32937e-13 0.011066 79.4436 -0.0126212 -0.146265 -2.43512e-13 -5.02584e-14 
0.0138061 78.9866 -0.0199743 -0.103141 1.39097e-13 -7.90062e-14 0.113842 80.39 -0.00427096 
-0.121167 1.8194e-13 -8.51055e-14 0.0587779 79.9332 -0.001389 -0.185896 -1.74635e-13 -5.93206e-14 
0.291832 81.1633 -0.00402931 0.00900608 1.65923e-13 1.6101e-13 0.173597 80.744 -0.000238048 
-0.142186 4.74377e-14 1.69864e-13 0.552149 81.7547 -0.00394248 0.194655 1.49367e-13 1.0178e-13 
0.360063 81.4008 -5.36118e-06 -0.0194564 8.06195e-14 -1.13035e-13 0.888386 82.1648 -0.00365747 
0.393088 -3.55712e-13 -1.93699e-13 0.617621 81.8947 0.000233269 0.139604 -2.02553e-13 5.86059e-14 
1.28868 82.4036 -0.00324112 0.571215 -2.25243e-13 -1.36419e-14 0.939977 82.2268 0.000479837 
0.299418 -2.53884e-13 -1.59595e-14 1.73889 82.4873 -0.0027745 0.706409 1.60469e-13 1.53343e-13 
1.31724 82.4058 0.000700909 0.43325 -2.47493e-13 -8.54213e-14 2.22503 82.4347 -0.00231634 
0.785979 -3.46112e-14 3.84415e-14 1.73816 82.4449 0.00087065 0.523542 3.06387e-13 1.92256e-13 
2.73483 82.2649 -0.00189898 0.805758 8.63337e-14 -9.70474e-14 2.19181 82.3594 0.00097789 
0.561274 -1.47549e-13 -2.01162e-13 3.25838 81.996 -0.00153168 0.768347 3.93643e-14 1.44464e-13 
2.66872 82.1646 0.00102394 0.544747 -2.95042e-13 1.60216e-13 3.78812 81.6441 -0.00120699 
0.681379 1.15415e-13 6.02331e-14 3.16121 81.8753 0.00101933 0.478144 1.79225e-13 -9.34149e-15 
4.31832 81.2244 -0.00090757 0.555967 -2.54956e-13 -8.91813e-14 3.66325 81.5054 0.000980132 
0.370112 -2.29185e-13 1.32542e-13 4.84432 80.7507 -0.000612262 0.405385 -1.74971e-13 -3.09373e-13 
4.16991 81.0684 0.000924854 0.232444 1.88231e-13 -4.04243e-13 5.36171 80.2371 -0.000300954 
0.243923 -5.34961e-13 8.77781e-14 4.67663 80.5776 0.000871908 0.0789022 4.97637e-13 -3.98797e-14 
5.86553 79.6983 4.14169e-05 0.0858557 3.15747e-13 5.17776e-14 5.17847 80.0472 0.000837591 
-0.0758976 1.16088e-13 5.007e-13 5.66942 79.493 0.000833976 -0.217565 2.78735e-13 -5.19973e-13 
0.00482407 79.5193 -0.0100401 -0.192842 8.5379e-13 -1.14492e-14 0.00919786 79.1609 -0.0165506 
-0.119597 1.25955e-13 2.15328e-13 0.0731913 80.3446 -0.00318142 -0.230413 -1.72792e-13 -4.70457e-14 
0.0346439 79.9705 -0.00110535 -0.247556 -6.39796e-14 -1.77525e-13 0.196146 81.0427 -0.00312385 
-0.169736 -3.17283e-13 1.39756e-13 0.108305 80.687 -0.000189036 -0.260361 4.56106e-13 1.65763e-13 
0.383371 81.6001 -0.00321341 -0.0529805 -2.31148e-13 -1.25469e-13 0.235064 81.2898 -3.0409e-05 
-0.198785 -3.48234e-13 -6.50452e-14 0.633674 82.0104 -0.00313556 0.0829094 1.89449e-13 -2.56212e-13 
0.418161 81.765 0.000133466 -0.0996449 2.5193e-13 5.1556e-15 0.941111 82.275 -0.00293033 
0.208298 3.37036e-13 -1.70974e-14 0.656146 82.1068 0.000311933 0.00577421 -2.29504e-13 -1.58255e-13 
1.29721 82.4011 -0.00265623 0.301804 -7.37962e-13 2.47569e-13 0.94426 82.316 0.000479132 
0.0931516 4.54983e-14 5.20486e-14 1.6928 82.3994 -0.00235948 0.350276 -2.62547e-13 4.30211e-15 
1.27602 82.398 0.000612751 0.145638 1.08226e-13 1.46789e-13 2.11932 82.2821 -0.00206863 
0.348082 -3.4469e-13 -9.39006e-15 1.64458 82.3607 0.000700399 0.15369 6.06119e-13 -1.75644e-13 
2.56951 82.0613 -0.00179451 0.296014 -6.88824e-14 1.40237e-13 2.04368 82.2135 0.000739531 
0.114417 -4.63483e-14 1.78394e-13 3.03751 81.7494 -0.00153343 0.200083 7.63833e-14 1.37309e-13 
2.46803 81.9662 0.000736137 0.0306831 -2.22669e-14 1.4907e-13 3.51859 81.3581 -0.00127155 
0.0703164 1.13277e-13 -6.30763e-14 2.91325 81.6287 0.000702588 -0.0898988 2.45776e-14 -3.92585e-14 
4.00852 80.8996 -0.000989782 -0.0803821 6.22578e-13 -2.7104e-13 3.37549 81.2116 0.000655353 
-0.235989 7.21069e-13 1.26286e-13 4.50278 80.3872 -0.000668525 -0.237335 -7.33719e-14 -1.39177e-14 
3.85074 80.7268 0.000612692 -0.393569 7.27196e-15 -3.87827e-13 4.99581 79.8356 -0.000292304 
-0.385214 -4.58536e-13 4.91308e-14 4.33405 80.1878 0.00059234 -0.547043 -9.78384e-16 1.43308e-13 
4.81883 79.6108 0.000608707 -0.680448 3.87149e-13 1.44396e-13 -0.000780121 79.6388 -0.00774819 
-0.219672 -1.21545e-13 -6.56072e-14 0.00503204 79.3619 -0.0134826 -0.126845 2.09254e-13 -5.10009e-14 
0.0373031 80.3537 -0.00223832 -0.299912 4.57106e-13 -1.88571e-13 0.013018 80.0484 -0.000846857 
-0.281249 -3.86352e-13 -3.16552e-14 0.11211 80.9809 -0.0023363 -0.290735 -3.40496e-13 3.42781e-14 
0.0501694 80.6792 -0.000130739 -0.332733 -7.71343e-13 -2.49877e-13 0.235088 81.5031 -0.00256249 
-0.228602 4.38753e-13 1.55806e-13 0.123987 81.2311 -2.43234e-05 -0.316984 2.82455e-13 4.20053e-13 
0.40892 81.908 -0.00264708 -0.145735 4.93841e-14 -2.96436e-13 0.240588 81.6862 8.6136e-05 
-0.266131 2.84512e-13 -2.18055e-13 0.632212 82.1906 -0.00261381 -0.0685634 5.01217e-13 -1.05211e-13 
0.402225 82.0331 0.000213072 -0.207776 2.14776e-13 1.94837e-13 0.90109 82.3508 -0.00250519 
-0.0168626 -1.66159e-13 1.67436e-13 0.608187 82.2665 0.000335574 -0.16388 -4.65506e-13 -5.44609e-13 
1.21058 82.3922 -0.00235697 -0.00351324 2.89185e-13 1.49006e-13 0.855983 82.3849 0.000434327 
-0.150216 2.91031e-13 5.11924e-13 1.55568 82.3207 -0.00219263 -0.0347691 3.82978e-13 1.36818e-14 
1.14243 82.3902 0.000496769 -0.176265 4.80296e-13 -8.32338e-14 1.93201 82.1429 -0.00202169 
-0.110844 3.16226e-13 -4.3545e-14 1.46443 82.2857 0.000518203 -0.245459 1.37029e-13 -4.47559e-15 
2.33596 81.8665 -0.00184071 -0.226671 -2.43132e-13 1.75582e-13 1.81936 82.0762 0.000501773 
-0.355647 4.49606e-14 -9.54644e-14 2.76446 81.4998 -0.00163596 -0.372743 2.0299e-13 7.80441e-14 
2.20507 81.7676 0.000457552 -0.49971 7.91901e-14 1.26672e-13 3.21446 81.0525 -0.00138727 
-0.536023 -1.87392e-13 -3.39227e-13 2.61944 81.367 0.000401127 -0.666273 -2.76071e-13 -4.22759e-14 
3.68209 80.5361 -0.00107259 -0.700943 2.65656e-13 -2.56219e-15 3.05974 80.8837 0.000351704 
-0.840559 1.34635e-13 -3.00508e-13 4.16187 79.9652 -0.00067329 -0.850559 7.08281e-13 1.85168e-13 
3.52176 80.33 0.000329695 -1.00543 6.56211e-14 4.81022e-13 3.99893 79.7221 0.000353307 
-1.14265 -1.50532e-13 -3.56975e-13 -0.00597543 79.7839 -0.00569823 -0.228785 4.05362e-13 -1.54585e-13 
0.00120865 79.5728 -0.010751 -0.125661 6.09547e-14 3.12347e-13 0.0048015 80.4003 -0.0014083 
-0.334184 -5.91612e-13 -4.35353e-13 -0.00676729 80.1503 -0.000611217 -0.289745 -4.08398e-13 -3.436e-13 
0.0365302 80.9634 -0.00164347 -0.360611 2.72843e-13 2.41439e-13 -0.00263859 80.7054 -6.60334e-05 
-0.364111 4.11556e-14 -4.30211e-16 0.101945 81.4524 -0.0019799 -0.340012 -3.28702e-13 3.15768e-13 
0.0234124 81.2121 5.21889e-06 -0.380371 3.34639e-13 1.70489e-13 0.206659 81.8507 -0.00219471 
-0.300687 -1.30765e-13 -2.33921e-13 0.0797445 81.6491 7.98952e-05 -0.366799 -3.85178e-14 8.84362e-14 
0.352791 82.1477 -0.00230292 -0.266191 1.15186e-13 -1.80821e-13 0.171444 82.0004 0.000170682 
-0.347833 -3.05153e-13 -1.80852e-13 0.540158 82.3374 -0.00233669 -0.254617 3.36984e-13 -7.42011e-14 
0.300974 82.2555 0.000259296 -0.34325 8.48835e-13 -2.4316e-13 0.767375 82.4174 -0.0023241 
-0.278229 -3.7588e-14 4.70134e-13 0.469125 82.4074 0.000328299 -0.367656 -1.44541e-13 6.24258e-13 
1.03274 82.3876 -0.00228402 -0.343426 -2.75373e-13 -5.87395e-14 0.675916 82.4522 0.000364909 
-0.430204 1.4086e-13 -3.4981e-13 1.33483 82.2495 -0.0022235 -0.45094 -2.86653e-13 -3.29121e-13 
0.921282 82.3881 0.000362817 -0.534536 -1.44156e-13 5.64687e-14 1.67261 82.0059 -0.00213728 
-0.596195 2.16265e-13 1.92739e-13 1.20543 82.2146 0.000323059 -0.678881 9.61765e-14 -1.32941e-13 
2.0453 81.6611 -0.00200911 -0.769785 -6.62342e-13 1.28225e-13 1.52882 81.933 0.000254167 
-0.856284 1.71738e-15 2.79444e-13 2.45173 81.2214 -0.00181464 -0.9581 -3.90632e-13 -3.65526e-13 
1.89172 81.5463 0.000171683 -1.05499 -4.08888e-13 -2.88853e-13 2.88947 80.6961 -0.0015259 
-1.14416 6.89726e-14 1.0078e-13 2.29346 81.0607 9.68719e-05 -1.25901 3.08531e-13 5.89979e-15 
3.35385 80.0987 -0.00111733 -1.30874 -3.20403e-13 2.74189e-13 2.73137 80.4864 5.44155e-05 
-1.44906 5.44911e-14 2.1004e-13 3.19968 79.8388 6.85006e-05 -1.60385 -2.44943e-14 -1.30968e-13 
-0.0108883 79.9386 -0.00386547 -0.221665 -4.17567e-13 -2.51361e-13 -0.00231809 79.7778 -0.00835423 
-0.116633 -7.97296e-13 -3.91423e-14 -0.0251036 80.469 -0.000670124 -0.336606 -2.52207e-13 -3.00364e-13 
-0.0250532 80.2613 -0.000397651 -0.275182 3.6778e-13 -1.51403e-13 -0.0324863 80.9768 -0.00102886 
-0.384423 2.1149e-13 2.8989e-13 -0.0510983 80.752 3.51948e-06 -0.358257 5.70234e-13 -8.84709e-16 
-0.0193283 81.4375 -0.00145655 -0.393307 3.43328e-14 7.9374e-14 -0.0685557 81.2214 5.38308e-05 
-0.393966 -2.996e-14 2.30607e-13 0.0222065 81.8311 -0.00177695 -0.388217 -4.65898e-13 -8.16396e-14 
-0.0673268 81.6448 0.000108036 -0.407259 -7.05304e-13 -2.18353e-13 0.0969071 82.1424 -0.00200192 
-0.390168 7.96349e-13 -3.2082e-14 -0.0401961 82.0027 0.000177274 -0.41981 1.47545e-13 3.13801e-13 
0.207504 82.3603 -0.00215798 -0.415659 -1.07407e-13 -4.45304e-14 0.0177207 82.2801 0.000243981 
-0.449441 2.62826e-13 -3.48437e-13 0.355599 82.4773 -0.00226858 -0.47625 8.82384e-14 3.87926e-13 
0.109824 82.4655 0.000291293 -0.509665 -6.98748e-13 4.51887e-13 0.542459 82.488 -0.00234949 
-0.578311 2.63942e-13 -1.11714e-13 0.238855 82.5498 0.000305532 -0.609293 -1.1002e-13 -2.07251e-13 
0.769548 82.3887 -0.00240541 -0.722893 -4.58883e-13 -2.8536e-13 0.40755 82.5262 0.000278465 
-0.752121 2.03084e-13 -3.27221e-14 1.0387 82.1772 -0.00242838 -0.905713 -1.26361e-13 1.92762e-13 
0.618993 82.3892 0.000208876 -0.936697 2.24838e-13 -9.25076e-14 1.35189 81.8531 -0.00239778 
-1.11725 3.04718e-13 7.6637e-14 0.876591 82.1348 0.000103723 -1.15616 8.52429e-13 2.78591e-13 
1.71057 81.4188 -0.00228229 -1.34302 -2.25091e-13 -2.57063e-13 1.18361 81.7615 -2.12684e-05 
-1.39821 -2.37393e-13 -2.16783e-13 2.11464 80.8805 -0.00204402 -1.56417 -1.27467e-13 4.61731e-14 
1.54226 81.2713 -0.000141969 -1.64538 2.61662e-13 -1.91413e-13 2.56117 80.2494 -0.00164551 
-1.75846 -1.82174e-13 1.54224e-13 1.95242 80.6711 -0.000227703 -1.87564 -3.50206e-14 1.73207e-13 
2.41008 79.9748 -0.000245424 -2.06373 3.03577e-13 9.32136e-14 -0.0155624 80.0882 -0.00224318 
-0.199518 2.46937e-13 -2.04503e-13 -0.00554855 79.9627 -0.0063055 -0.100281 -4.69791e-13 2.22542e-13 
-0.052738 80.5464 -1.2199e-05 -0.309937 -6.9506e-14 -2.05357e-13 -0.0419123 80.3678 -0.00020687 
-0.239425 2.96664e-14 -3.43791e-13 -0.0958001 81.0089 -0.000481823 -0.366327 3.07749e-13 2.05981e-14 
-0.0954908 80.8067 7.67829e-05 -0.318432 -2.69829e-13 8.64586e-15 -0.130309 81.4486 -0.000985119 
-0.39354 -8.80147e-14 -7.68968e-14 -0.152555 81.2481 0.000118765 -0.362112 4.64729e-13 -1.24345e-14 
-0.146803 81.8417 -0.00139037 -0.413581 -9.85524e-13 3.37355e-13 -0.201717 81.6646 0.000166456 
-0.392379 4.01756e-13 1.80678e-13 -0.138546 82.1697 -0.00171042 -0.445208 1.27464e-13 2.17951e-14 
-0.234264 82.0335 0.00022843 -0.428415 -5.8329e-13 1.58363e-13 -0.100622 82.4173 -0.00197016 
-0.503504 -9.64038e-14 -2.27035e-13 -0.243597 82.3363 0.000286391 -0.486318 1.22988e-13 -2.6118e-13 
-0.0290488 82.5725 -0.00219151 -0.599425 -6.69152e-13 3.00624e-13 -0.224369 82.5575 0.00032279 
-0.578695 2.33046e-13 2.04513e-13 0.0799984 82.625 -0.00238921 -0.739379 -7.68136e-14 3.38939e-14 
-0.171651 82.6839 0.000322043 -0.714184 -7.39721e-14 -9.20826e-14 0.230738 82.5661 -0.00256686 
-0.92481 2.02709e-13 -2.53449e-13 -0.0802378 82.7037 0.000273063 -0.896928 -1.36197e-13 9.26152e-14 
0.427991 82.3885 -0.00271408 -1.15181 -1.05548e-13 2.53198e-13 0.05577 82.6062 0.000171408 
-1.12601 -3.79537e-13 -2.58772e-13 0.676948 82.0866 -0.00280502 -1.41078 1.35301e-13 5.74801e-14 
0.242983 82.3821 2.14851e-05 -1.39487 -2.28012e-13 3.16003e-13 0.982443 81.6577 -0.00279899 
-1.68631 2.46754e-13 -3.99965e-13 0.488243 82.0244 -0.000161511 -1.69083 -9.22318e-14 -1.2065e-13 
1.34771 81.1036 -0.00264393 -1.95732 -3.51781e-13 1.02402e-13 0.797575 81.5296 -0.000350516 
-1.99485 -7.70564e-14 -2.3489e-13 1.7727 80.4324 -0.00228409 -2.19788 2.15654e-13 1.34477e-13 
1.17457 80.9001 -0.000507392 -2.28175 -1.30573e-13 4.02409e-13 1.6183 80.1465 -0.000586784 
-2.52134 1.99507e-13 -4.54616e-13 -0.0199686 80.2194 -0.000839512 -0.163498 -2.81702e-14 -2.91434e-14 
-0.00844302 80.1144 -0.00462976 -0.0771637 2.42145e-13 1.80949e-13 -0.0780334 80.62 0.000569143 
-0.256738 1.14024e-13 -2.19137e-13 -0.0571828 80.4578 -4.10283e-05 -0.184358 2.90896e-13 -2.62776e-13 
-0.153398 81.049 3.09209e-06 -0.31013 2.7826e-13 -7.06241e-14 -0.135493 80.8585 0.000152435 
-0.247836 3.89294e-15 1.39753e-13 -0.231128 81.4759 -0.000560545 -0.345322 5.19582e-13 -2.34882e-14 
-0.228126 81.2824 0.000197729 -0.289017 9.94439e-14 -7.36702e-14 -0.300692 81.8748 -0.00103099 
-0.381568 -2.30418e-13 2.87843e-13 -0.322861 81.6999 0.000252043 -0.326844 -2.33152e-13 -8.48627e-15 
-0.354099 82.224 -0.00142522 -0.435591 -2.98057e-13 -2.32141e-14 -0.410115 82.0858 0.00032104 
-0.378162 4.49474e-13 3.56024e-13 -0.38496 82.5049 -0.00176981 -0.521272 -1.85062e-13 -2.48523e-13 
-0.482274 82.4188 0.000384721 -0.457546 -3.88937e-13 -3.6374e-13 -0.387565 82.7017 -0.0020882 
-0.64919 -6.20681e-13 3.16613e-13 -0.532752 82.6804 0.000423825 -0.576946 -1.16483e-13 9.62425e-14 
-0.356034 82.7998 -0.00239679 -0.826058 1.40667e-13 8.31019e-14 -0.555054 82.8535 0.000419759 
-0.745141 -6.21406e-13 2.72636e-13 -0.283674 82.7858 -0.00270024 -1.05404 -1.64417e-13 -2.57684e-13 
-0.541964 82.9221 0.000357223 -0.96702 -2.55927e-13 -2.73248e-13 -0.162664 82.6469 -0.00298733 
-1.33 3.29126e-13 8.40968e-14 -0.484984 82.8703 0.000226804 -1.2427 -2.14148e-13 1.02392e-13 
0.0157806 82.3716 -0.0032275 -1.64463 -5.52648e-13 2.8309e-14 -0.37418 82.683 2.82716e-05 
-1.56649 -4.21475e-13 -1.25198e-13 0.260644 81.9511 -0.00336922 -1.98182 -1.21247e-13 -2.28931e-13 
-0.198597 82.3465 -0.000225782 -1.92584 -1.96773e-13 -4.05231e-14 0.579652 81.3812 -0.00334197 
-2.31824 3.26527e-13 1.94435e-13 0.052593 81.8506 -0.000506664 -2.30043 -2.84411e-13 6.30381e-14 
0.977127 80.6652 -0.0030639 -2.62368 -5.97557e-13 6.01949e-14 0.388136 81.191 -0.00076825 
-2.6618 -9.97223e-14 2.23294e-14 0.811958 80.3733 -0.000949292 -2.97396 3.54855e-13 1.74548e-13 
-0.0240111 80.3202 0.000324971 -0.114899 -3.18183e-14 1.84212e-13 -0.0109259 80.2208 -0.00336082 
-0.0479678 2.00204e-14 5.0757e-13 -0.100574 80.6791 0.00107087 -0.179728 6.31682e-14 -2.66474e-13 
-0.0704943 80.5205 9.63624e-05 -0.112155 -5.41311e-13 -8.72809e-14 -0.204496 81.0868 0.000426712 
-0.219769 2.34856e-13 8.39814e-14 -0.170247 80.8975 0.000228506 -0.150018 1.07449e-13 -4.96755e-14 
-0.320628 81.5106 -0.000180325 -0.25336 -2.65531e-13 -8.14175e-14 -0.293833 81.3152 0.000287941 
-0.179245 -2.02644e-13 2.18575e-15 -0.437934 81.9226 -0.000695335 -0.297047 -8.32581e-14 1.92901e-13 
-0.428702 81.7423 0.000361293 -0.215692 -1.47441e-13 9.15552e-14 -0.547864 82.2987 -0.00114165 
-0.365659 -3.38473e-13 -1.8727e-13 -0.565043 82.1521 0.000451601 -0.273904 1.11831e-13 2.35749e-14 
-0.643306 82.6182 -0.00155033 -0.472092 9.58721e-14 -4.11962e-14 -0.694973 82.5214 0.000536774 
-0.367085 7.83722e-14 -3.59648e-13 -0.717553 82.8619 -0.00194922 -0.626854 2.73934e-13 2.9137e-13 
-0.811442 82.8292 0.000595209 -0.506791 -1.2161e-13 4.86711e-13 -0.763309 83.0118 -0.0023594 
-0.837387 1.36479e-13 -1.52027e-13 -0.907138 83.0557 0.000604373 -0.702346 3.84165e-13 -4.03222e-13 
-0.771863 83.0498 -0.00278989 -1.10714 3.90405e-13 -1.93003e-14 -0.973477 83.1808 0.000543225 
-0.959965 -2.0952e-14 2.99588e-13 -0.732566 82.9575 -0.0032318 -1.43443 -4.04732e-13 1.29458e-13 
-0.999794 83.1839 0.000395008 -1.28156 -3.81379e-13 -1.25801e-13 -0.632816 82.717 -0.00365221 
-1.81105 2.97221e-13 -2.2659e-14 -0.972927 83.0435 0.000151542 -1.66326 2.14533e-13 1.86913e-13 
-0.458744 82.312 -0.00398915 -2.22088 2.02061e-14 -2.14228e-13 -0.877426 82.7384 -0.000181112 
-2.09362 -1.76335e-14 -1.90415e-13 -0.196817 81.7304 -0.00415017 -2.63873 4.01068e-14 1.9312e-13 
-0.696651 82.2497 -0.000576225 -2.55192 2.74884e-14 -8.86721e-14 0.163507 80.9681 -0.00401834 
-3.02985 3.23568e-13 1.36342e-13 -0.415004 81.5639 -0.000981299 -3.00676 1.43743e-13 3.37612e-13 
-0.0214203 80.6786 -0.00131652 -3.41579 5.96363e-13 -2.65923e-13 -0.0275326 80.3802 0.00121973 
-0.0553322 -3.3267e-13 2.09886e-13 -0.0128906 80.2715 -0.00253778 -0.0135967 1.11309e-13 -3.54343e-13 
-0.119634 80.7139 0.00148431 -0.0821061 2.23151e-13 -2.8692e-13 -0.0812953 80.5467 0.00020059 
-0.0255019 2.49453e-13 3.86011e-14 -0.247638 81.1133 0.000785742 -0.0997404 -8.01642e-13 -3.14436e-14 
-0.198436 80.9149 0.000302021 -0.0292164 -2.3622e-13 -1.21549e-13 -0.396509 81.5441 0.000155288 
-0.122959 -5.21172e-13 1.27863e-13 -0.347395 81.338 0.000385332 -0.0381582 2.58737e-13 7.2416e-14 
-0.555316 81.9769 -0.00038129 -0.165508 -2.84116e-13 5.94802e-14 -0.515853 81.7837 0.000489048 
-0.0648312 -7.23119e-15 1.44818e-13 -0.715675 82.3866 -0.000855048 -0.24037 2.38623e-13 -1.27377e-13 
-0.694459 82.2245 0.000614519 -0.121401 -4.46513e-14 4.05197e-14 -0.870561 82.7506 -0.00130357 
-0.359637 5.26759e-13 -9.17356e-14 -0.875848 82.6363 0.000737865 -0.219776 -8.46155e-15 -1.7996e-14 
-1.01311 83.048 -0.00176168 -0.534076 -3.85841e-13 4.10694e-13 -1.05337 82.997 0.00083515 
-0.371357 3.66988e-13 7.89299e-15 -1.13543 83.2575 -0.00225849 -0.772378 8.43815e-13 -3.10284e-13 
-1.21981 83.2846 0.000879482 -0.586441 2.12476e-13 -1.16712e-13 -1.22748 83.3572 -0.00281163 
-1.08004 -1.82878e-13 -7.8429e-15 -1.36608 83.4761 0.000842782 -0.873258 3.08329e-13 -4.40681e-15 
-1.27626 83.323 -0.00341961 -1.45786 5.15941e-14 3.83038e-13 -1.48012 83.5462 0.000698279 
-1.23653 7.66375e-14 3.40049e-14 -1.26539 83.13 -0.00405235 -1.89995 1.9006e-13 -1.48322e-13 
-1.54596 83.4671 0.000425401 -1.67551 5.39821e-13 1.8738e-13 -1.17554 82.7529 -0.00464097 
-2.3915 -1.54425e-14 -2.65621e-13 -1.5436 83.209 1.74777e-05 -2.18147 2.12764e-13 -2.42958e-13 
-0.986025 82.1692 -0.00507014 -2.90652 -4.30482e-13 -1.09079e-14 -1.44972 82.742 -0.00050778 
-2.73488 1.13491e-13 -6.10241e-14 -0.677812 81.3644 -0.005179 -3.40609 -2.21191e-13 2.42466e-13 
-1.24002 82.0407 -0.00109719 -3.30258 -1.55154e-14 2.11806e-13 -0.89339 81.09 -0.00165282 
-3.83603 -4.294e-13 1.20043e-15 -0.0303219 80.3904 0.00180723 0.0131277 1.05573e-13 -5.9501e-16 
-0.0142067 80.2582 -0.00220066 0.0247594 -6.52442e-13 -8.27888e-14 -0.134234 80.7163 0.00179636 
0.0321803 1.07161e-13 -3.88405e-15 -0.0888914 80.5289 0.00026601 0.0722065 -3.28383e-13 2.24799e-13 
-0.280798 81.1208 0.00107332 0.0445314 5.43758e-13 -3.84269e-13 -0.218378 80.9035 0.000368736 
0.109346 -1.82497e-13 -3.56486e-14 -0.455502 81.5684 0.000443135 0.0395127 -3.34043e-13 3.01004e-13 
-0.385853 81.3433 0.000483888 0.127696 -1.11756e-13 -2.54135e-13 -0.648156 82.0298 -8.90334e-05 
0.00639875 -7.93484e-14 9.19161e-14 -0.579838 81.816 0.000627364 0.118485 3.69708e-13 2.09444e-13 
-0.8513 82.4793 -0.00056226 -0.0658969 9.51901e-14 3.85716e-14 -0.792155 82.2944 0.00080042 
0.0721116 -2.59187e-13 -1.09687e-14 -1.05886 82.8942 -0.00102177 -0.188769 -3.60085e-15 -1.6174e-13 
-1.01678 82.7548 0.000978512 -0.022012 -1.74123e-13 -8.89133e-14 -1.26479 83.2524 -0.0015113 
-0.373531 -1.33359e-13 2.33461e-13 -1.2484 83.1749 0.00113628 -0.175271 -2.31072e-13 1.28996e-13 
-1.46161 83.5307 -0.00207127 -0.630664 -3.473e-13 -1.41706e-13 -1.48098 83.5319 0.001243 
-0.399316 6.05158e-13 -9.94248e-14 -1.63898 83.7038 -0.00273299 -0.968595 2.41759e-13 -8.71915e-14 
-1.70611 83.8008 0.00126312 -0.70509 9.98774e-14 7.30679e-14 -1.78242 83.7427 -0.00350961 
-1.39188 8.49841e-14 4.58734e-13 -1.91143 83.9526 0.0011576 -1.10127 -3.59414e-13 4.02846e-14 
-1.87227 83.6148 -0.00438273 -1.89871 -3.80793e-14 -2.84701e-13 -2.07922 83.9533 0.000888441 
-1.59193 -4.45603e-13 5.11396e-15 -1.88362 83.2844 -0.00528522 -2.47764 2.28972e-13 -1.14197e-13 
-2.18536 83.7637 0.000427737 -2.1733 -9.62182e-14 -4.87874e-14 -1.78736 82.7161 -0.00608342 
-3.1039 -7.09346e-14 -1.1981e-13 -2.19947 83.3413 -0.00022745 -2.8296 1.72602e-13 -2.07445e-13 
-1.55348 81.8803 -0.0065666 -3.73585 2.73861e-13 1.22194e-13 -2.0868 82.6444 -0.00103566 
-3.52838 4.58831e-13 3.52954e-13 -1.81273 81.6399 -0.00188835 -4.21628 -7.25982e-14 -3.22978e-13 
-0.0321272 80.3443 0.00204676 0.0878215 6.24949e-13 -6.17301e-14 -0.0147301 80.175 -0.00238501 
0.0655706 2.1964e-13 2.94105e-13 -0.143206 80.68 0.00199088 0.158226 4.64137e-13 3.14332e-15 
-0.0925017 80.4617 0.000286493 0.176733 -2.54102e-14 -3.87213e-13 -0.301548 81.1023 0.00127973 
0.206391 -4.64e-13 -2.57462e-13 -0.228173 80.8576 0.000423056 0.259246 1.29871e-13 -4.90736e-14 
-0.493618 81.5762 0.000677091 0.226235 7.19264e-13 1.58821e-13 -0.405819 81.3247 0.000575234 
0.310281 -2.97932e-13 1.23061e-13 -0.710624 82.0729 0.000178076 0.210364 -5.31745e-13 2.66523e-14 
-0.615444 81.8318 0.000764637 0.325245 -1.57758e-14 2.97817e-14 -0.946789 82.5679 -0.000263412 
0.149744 -3.59402e-15 -4.28702e-14 -0.850736 82.3532 0.000994652 0.297374 -9.29532e-14 -1.44662e-13 
-1.19789 83.0392 -0.000700089 0.0336974 -2.2088e-14 -2.74121e-14 -1.10782 82.8669 0.00124208 
0.217557 -6.05628e-13 8.99038e-14 -1.45973 83.4649 -0.00118547 -0.149803 -4.06739e-13 9.96338e-14 
-1.38372 83.3518 0.00148218 0.0744378 1.33001e-13 8.21704e-14 -1.72652 83.8214 -0.00177382 
-0.413471 1.00213e-13 -2.00361e-16 -1.67476 83.7858 0.0016824 -0.14519 -1.59915e-14 -1.76602e-13 
-1.98901 84.0811 -0.0025154 -0.769527 6.02053e-14 -1.62723e-13 -1.97465 84.1433 0.00180095 
-0.455553 8.66338e-14 3.51622e-14 -2.23264 84.211 -0.00344705 -1.22776 3.29825e-13 3.45775e-13 
-2.27245 84.393 0.00178592 -0.870406 8.85516e-14 4.94865e-14 -2.43574 84.1707 -0.00457534 
-1.79259 -5.10295e-14 -1.72293e-13 -2.55029 84.4957 0.00157766 -1.40056 -1.7233e-13 4.2806e-14 
-2.56832 83.9135 -0.00585105 -2.45885 -4.93456e-13 -1.27204e-13 -2.78141 84.4028 0.00111728 
-2.05001 -6.54263e-13 -1.37113e-13 -2.59234 83.388 -0.00713642 -3.20637 1.85455e-13 5.9619e-14 
-2.92887 84.0575 0.000364576 -2.81052 -2.38212e-13 1.06845e-13 -2.46425 82.5444 -0.0081743 
-3.99384 -1.41279e-13 7.30527e-14 -2.94632 83.3977 -0.0006732 -3.6545 -1.03562e-13 1.59803e-13 
-2.78209 82.3649 -0.00189849 -4.52736 5.10758e-13 -7.60433e-14 -0.0326761 80.2376 0.00189932 
0.165436 -4.60687e-13 -1.99868e-13 -0.0143185 80.019 -0.00311567 0.106944 3.21479e-14 1.35083e-14 
-0.145306 80.6007 0.0020506 0.290042 -2.45136e-13 -1.70704e-13 -0.0913392 80.3424 0.000256002 
0.28294 5.10356e-15 -8.95221e-14 -0.307278 81.0529 0.00139343 0.377761 2.95743e-13 1.40339e-14 
-0.225895 80.7738 0.000458127 0.412765 4.30442e-13 1.34778e-13 -0.506513 81.561 0.000848219 
0.427643 -6.76236e-13 -1.22753e-13 -0.403829 81.2773 0.000648537 0.499906 2.41453e-13 -1.06505e-13 
-0.73624 82.0984 0.000412683 0.435992 -2.12156e-13 1.34101e-13 -0.617236 81.8242 0.000885173 
0.544391 3.51084e-13 -6.46774e-14 -0.993066 82.6427 3.61646e-05 0.396094 2.50867e-13 8.21027e-14 
-0.862288 82.3921 0.00117625 0.542642 -4.18105e-13 1.41023e-13 -1.27546 83.1742 -0.000339796 
0.298171 -6.20771e-14 -1.2124e-14 -1.13797 82.9616 0.00150277 0.487323 7.99708e-14 5.66058e-14 
-1.5822 83.6728 -0.000777607 0.129536 3.24287e-13 1.00777e-13 -1.44458 83.5145 0.00184385 
0.367345 -5.95277e-13 -2.08167e-17 -1.91055 84.1158 -0.00134626 -0.124961 -1.47804e-13 -2.48473e-14 
-1.78203 84.0311 0.00216899 0.168043 2.17477e-13 -2.93082e-15 -2.25414 84.4754 -0.00211925 
-0.481989 4.78857e-13 -7.00379e-14 -2.14786 84.4871 0.00243416 -0.128326 8.46927e-14 -1.12963e-13 
-2.60041 84.7157 -0.0031668 -0.95796 2.0782e-13 1.55667e-13 -2.53464 84.851 0.00257727 
-0.541435 -1.30104e-13 2.28873e-13 -2.92785 84.7904 -0.00453782 -1.56594 -6.66908e-13 -1.44412e-13 
-2.92699 85.0802 0.00251623 -1.09064 3.17182e-13 -1.15869e-13 -3.20329 84.6409 -0.00622648 
-2.31075 -6.80254e-13 -1.68691e-13 -3.29812 85.1183 0.00215274 -1.79096 -1.01461e-13 -1.22156e-13 
-3.38033 84.1978 -0.00812152 -3.18174 -3.45412e-13 1.27051e-13 -3.60669 84.8932 0.00138973 
-2.64653 -1.69864e-13 -7.75352e-14 -3.40029 83.3853 -0.00994109 -4.14344 4.69994e-13 2.35909e-13 
-3.79521 84.3189 0.000165845 -3.64106 -8.25381e-15 4.6603e-13 -3.79217 83.3034 -0.00147086 
-4.72554 -3.3928e-13 -4.59036e-13 -0.0317044 80.0695 0.00133358 0.241998 9.76944e-14 -2.22444e-13 
-0.01285 79.7914 -0.00439959 0.146642 -1.42966e-13 1.40879e-13 -0.139358 80.4766 0.00195943 
0.420543 -5.09843e-13 1.55355e-13 -0.0847139 80.1712 0.000169664 0.384839 -6.99892e-14 -2.29334e-13 
-0.295507 80.9694 0.00140238 0.549093 5.95262e-14 -1.78621e-13 -0.209858 80.6506 0.00046648 
0.560941 -3.56437e-13 2.80262e-13 -0.48999 81.5179 0.000945301 0.6323 4.55589e-13 3.9628e-14 
-0.3768 81.1977 0.000691093 0.685231 4.8741e-13 -1.95007e-13 -0.718581 82.0991 0.000603011 
0.670533 -1.37813e-13 7.50025e-14 -0.580252 81.7879 0.000969672 0.762727 -2.50342e-14 1.89834e-13 
-0.980825 82.6942 0.000324285 0.659757 -2.65276e-13 5.20278e-14 -0.819322 82.403 0.00131807 
0.793404 -2.51222e-13 -3.02161e-13 -1.27859 83.2871 4.85262e-05 0.591477 -3.47829e-14 2.37969e-14 
-1.09637 83.0278 0.00172482 0.772142 2.20376e-13 1.81646e-13 -1.61461 83.8609 -0.000292356 
0.452708 3.24404e-13 1.1895e-13 -1.41568 83.6486 0.00217719 0.688639 6.56038e-14 1.0904e-13 
-1.99064 84.3963 -0.000780131 0.226076 -1.99217e-13 -4.63674e-14 -1.78188 84.2498 0.00265259 
0.527281 -2.95101e-13 -1.25278e-13 -2.40521 84.867 -0.00151274 -0.109717 -1.67658e-13 -1.21824e-14 
-2.19801 84.8109 0.00311211 0.267149 -2.02175e-13 3.72003e-14 -2.85052 85.2373 -0.00260167 
-0.578658 -2.45685e-13 8.98014e-14 -2.66272 85.3029 0.00349154 -0.117539 -4.86625e-13 -7.49487e-15 
-3.30857 85.4568 -0.0041569 -1.20474 5.92085e-13 -7.11133e-14 -3.16651 85.6831 0.00369242 
-0.655933 -7.73513e-14 9.47697e-14 -3.74661 85.457 -0.00625132 -2.00689 1.37026e-13 -1.43153e-13 
-3.68686 85.89 0.0035764 -1.37708 -3.69219e-14 -1.52951e-13 -4.11281 85.1494 -0.00884951 
-2.99048 2.9339e-13 1.46015e-13 -4.18252 85.8384 0.00297357 -2.30316 5.38163e-13 1.02723e-13 
-4.33387 84.4273 -0.0117032 -4.13443 -2.50794e-13 1.6441e-13 -4.58817 85.4166 0.0017154 
-3.43784 -5.67393e-14 9.76164e-14 -4.81236 84.4908 -0.000283711 -4.74889 2.57901e-13 -1.38417e-13 
-0.0289928 79.8425 0.00033354 0.312961 8.968e-14 -1.28245e-13 -0.0102466 79.4973 -0.00621929 
0.182147 1.24033e-13 9.04086e-14 -0.12443 80.3088 0.00170594 0.541689 5.72684e-13 7.28063e-14 
-0.0721576 79.9517 2.41968e-05 0.475774 2.46605e-13 1.01853e-13 -0.264265 80.8507 0.00129631 
0.709522 -4.02872e-14 -2.72102e-13 -0.178917 80.4896 0.000440329 0.693813 2.27526e-13 -2.89775e-13 
-0.440635 81.4436 0.000956189 0.826997 -1.30703e-13 3.27904e-13 -0.322591 81.0851 0.00068916 
0.853524 2.00746e-13 2.41175e-13 -0.652209 82.0691 0.000733137 0.898848 4.46954e-13 -1.23707e-13 
-0.500869 81.7192 0.000996231 0.965101 2.53139e-13 -9.62008e-14 -0.901779 82.7134 0.000580732 
0.924134 3.95853e-13 7.94087e-14 -0.715996 82.3791 0.00138772 1.0324 6.58839e-14 2.5055e-13 
-1.19502 83.3651 0.000441606 0.896218 -3.60087e-13 1.58297e-13 -0.973889 83.0552 0.00186287 
1.05305 -8.98934e-14 -2.86542e-13 -1.5393 84.0127 0.000247846 0.802548 2.89067e-13 7.9152e-14 
-1.28313 83.7394 0.00242171 1.01834 -2.46714e-13 3.73201e-13 -1.94212 84.6416 -8.91615e-05 
0.624309 2.30191e-13 -2.31305e-13 -1.65383 84.422 0.00305674 0.912717 2.37064e-13 -1.98482e-13 
-2.40892 85.2306 -0.000687615 0.336174 -1.32932e-13 -1.11196e-14 -2.09591 85.0891 0.00374495 
0.713198 2.60004e-13 -1.28925e-13 -2.9398 85.747 -0.00170196 -0.0934557 -2.53478e-14 1.47823e-13 
-2.6166 85.7175 0.00443455 0.388766 -7.62654e-14 1.29667e-13 -3.52478 86.1408 -0.0033181 
-0.700896 1.10155e-13 -4.64698e-14 -3.2163 86.2689 0.00502869 -0.0995082 -3.97612e-13 7.67268e-15 
-4.13729 86.3376 -0.00572709 -1.52303 2.7521e-13 -2.4758e-14 -3.88256 86.6824 0.00536147 
-0.796595 1.72348e-13 -3.93331e-14 -4.72634 86.2316 -0.00904322 -2.58863 2.10637e-13 1.5099e-14 
-4.58164 86.8644 0.00519302 -1.74795 -9.59649e-14 8.11989e-14 -5.20873 85.6829 -0.0131651 
-3.90278 -1.91486e-13 2.27665e-13 -5.24838 86.6801 0.00419472 -2.98751 8.99836e-14 -9.35987e-14 
-5.7766 85.9494 0.00209826 -4.5159 3.40963e-13 1.90126e-14 -0.0244118 79.5631 -0.00109837 
0.373389 -7.59219e-14 2.0586e-13 -0.00649911 79.1468 -0.00852682 0.210793 -8.69443e-14 8.80442e-14 
-0.100043 80.1013 0.001283 0.644802 1.72157e-13 -3.4896e-13 -0.0535583 79.6911 -0.000181514 
0.54875 4.83467e-15 -8.1414e-14 -0.212529 80.6986 0.00106689 0.847253 2.43598e-13 -1.15147e-13 
-0.132802 80.2953 0.000372901 0.800896 -3.73352e-13 -9.35745e-14 -0.356561 81.3371 0.000868288 
0.997151 6.13784e-14 3.31991e-13 -0.240607 80.9412 0.000629367 0.991207 3.62576e-13 1.62023e-14 
-0.5338 82.0044 0.000783784 1.10373 1.15134e-14 -7.49088e-14 -0.377775 81.617 0.000942929 
1.13496 4.69943e-14 1.61655e-13 -0.750235 82.6928 0.000777935 1.16954 -7.36217e-13 -1.29438e-13 
-0.549555 82.3161 0.00135102 1.24007 -1.90968e-13 -1.70166e-13 -1.01532 83.3968 0.000803273 
1.19052 -1.55516e-13 1.68747e-13 -0.765142 83.0354 0.00186599 1.30747 -2.87912e-13 -2.63331e-14 
-1.34122 84.1113 0.000800382 1.15564 -2.63033e-13 1.42615e-13 -1.03719 83.7734 0.00250417 
1.33103 -4.63428e-13 4.20983e-14 -1.74182 84.8289 0.00068428 1.04607 1.30895e-13 -2.49772e-13 
-1.38127 84.5282 0.00328009 1.29676 -6.65554e-13 -2.29469e-14 -2.23103 85.536 0.000328331 
0.834088 4.40654e-14 5.93189e-14 -1.81489 85.2941 0.00419888 1.18159 -4.23932e-14 -6.78815e-14 
-2.81987 86.2075 -0.000455106 0.481896 -4.08708e-13 8.99915e-14 -2.35566 86.0579 0.00524144 
0.951527 2.0161e-13 1.65137e-13 -3.51149 86.7995 -0.0019281 -0.0587609 4.6281e-13 -4.2237e-14 
-3.01766 86.7912 0.00634195 0.55989 3.58449e-13 -1.89833e-14 -4.29333 87.2385 -0.00443448 
-0.844807 3.58456e-13 -4.73788e-14 -3.80516 87.4414 0.00734612 -0.0536265 2.71685e-13 -1.09322e-14 
-5.12556 87.409 -0.00830502 -1.93513 -6.64621e-13 9.28424e-15 -4.70219 87.9164 0.00798263 
-0.960688 -4.52138e-14 -1.66339e-13 -5.92657 87.1406 -0.0137474 -3.37491 -1.35308e-14 9.76719e-14 
-5.65741 88.0677 0.00777224 -2.235 -1.90403e-14 2.70492e-13 -6.56398 87.6719 0.00629438 
-3.92974 -2.14939e-13 -1.90861e-13 -0.0179541 79.242 -0.00291201 0.418256 9.99062e-14 -9.58608e-14 
-0.0663547 79.8619 0.000710442 0.72107 1.67097e-13 -2.7435e-13 -0.14066 80.5178 0.000722137 
0.950213 -6.97446e-14 1.45085e-13 -0.238169 81.2003 0.00067814 1.12754 -5.23352e-14 3.07948e-14 
-0.363333 81.9042 0.000737088 1.26666 -1.03358e-13 -5.4106e-14 -0.524878 82.6281 0.000880364 
1.37386 1.26288e-15 -2.11053e-13 -0.735407 83.3734 0.00107669 1.44841 5.14987e-13 1.45984e-13 
-1.0113 84.1423 0.00128393 1.48211 -2.73379e-13 1.74132e-13 -1.37252 84.936 0.00143386 
1.45815 1.89574e-13 -1.47e-13 -1.84187 85.7512 0.00141023 1.34909 -2.39579e-13 9.18016e-15 
-2.4432 86.5749 0.0010169 1.11421 3.40721e-13 -2.2234e-14 -3.19735 87.3763 -6.40951e-05 
0.696454 -1.7223e-13 1.19573e-13 -4.11435 88.0931 -0.00232035 0.0203544 -1.7826e-13 -5.54765e-14 
-5.17968 88.6131 -0.00636963 -1.00624 -1.86129e-13 -6.70783e-14 -6.33279 88.7478 -0.0131234 
-2.48112 1.88183e-13 2.46331e-14 -0.0047831 78.6948 -0.00647254 0.454574 1.66776e-13 5.42569e-14 
0.00159473 79.4513 -0.000434439 0.776106 7.24316e-14 7.30249e-14 0.00527081 80.1986 0.000397356 
1.02406 -6.06381e-14 -9.59476e-14 0.00517002 80.9422 0.00123491 1.22692 8.67424e-14 -8.57647e-15 
-0.00634603 81.6888 0.00239001 1.40399 -3.1479e-13 9.31668e-14 -0.0402645 82.4478 0.00393915 
1.56723 5.61795e-14 5.92686e-14 -0.111325 83.2312 0.00598274 1.72203 4.18918e-14 -1.42573e-13 
-0.238986 84.0531 0.00865025 1.86702 -2.46851e-15 3.07705e-14 -0.448699 84.9291 0.0120844 
1.99286 3.48792e-13 -2.3908e-14 -0.773362 85.8752 0.0164013 2.07948 -1.82306e-13 1.37819e-13 
-1.25459 86.9038 0.0215903 2.09155 2.77167e-13 -1.89503e-13 -1.94292 88.0173 0.0273288 
1.97144 2.21493e-13 9.51227e-14 -2.89526 89.1938 0.032543 1.62941 2.3994e-13 -1.89578e-13 
-4.16574 90.3611 0.0347889 0.932015 -2.39177e-13 5.06062e-14 -5.78167 91.3531 0.0300265 
-0.306629 -1.00558e-13 1.02064e-13 0.00412909 78.3205 -0.0104766 0.439097 3.45583e-14 -1.53152e-13 
0.0533921 79.1696 -0.00255837 0.747737 4.4729e-14 -1.28089e-13 0.118296 79.9729 -0.00133984 
0.988122 -2.38669e-13 6.32133e-15 0.195628 80.7473 -0.000376003 1.19092 -1.58734e-13 9.52346e-14 
0.276738 81.5076 0.000761484 1.37777 5.82269e-14 9.97258e-14 0.350883 82.2697 0.00220387 
1.56363 -1.09334e-13 -8.09144e-14 0.404427 83.0516 0.00410761 1.75796 -3.93567e-13 -1.36263e-14 
0.419364 83.874 0.00668506 1.96497 -3.69092e-13 1.2652e-13 0.371279 84.7611 0.010216 
2.1828 1.55292e-13 2.20483e-15 0.226642 85.7408 0.0150517 2.4012 -1.74357e-13 -1.54448e-13 
-0.0606601 86.8441 0.0215779 2.59697 -4.28303e-14 2.43226e-14 -0.553284 88.1017 0.0301171 
2.72585 -1.5107e-13 -1.06141e-13 -1.33411 89.5344 0.0404745 2.70916 -2.09374e-13 1.01689e-14 
-2.50585 91.1311 0.0516229 2.41347 -1.09773e-13 -8.10654e-14 -4.183 92.7975 0.0575903 
1.62146 1.29279e-13 1.43158e-13 0.0134021 77.9736 -0.0145106 0.392595 -2.02838e-13 -2.81771e-13 
0.106724 78.9082 -0.00476428 0.665912 -1.61525e-13 5.59205e-14 0.234839 79.7598 -0.00321858 
0.880282 7.77716e-14 -6.75814e-14 0.392914 80.5558 -0.00223051 1.06614 -2.05033e-14 1.35975e-13 
0.572258 81.3186 -0.00126576 1.24567 -2.06107e-14 8.49841e-14 0.763839 82.0696 -0.000160567 
1.43543 1.33971e-13 -1.46994e-13 0.9573 82.8312 0.00126144 1.64788 -3.10507e-14 3.67519e-14 
1.13932 83.6288 0.00324212 1.89218 1.72903e-13 1.29532e-13 1.29131 84.492 0.00612486 
2.17415 7.43121e-14 -9.1753e-14 1.38619 85.4574 0.0104051 2.49492 -8.08763e-14 9.4813e-14 
1.38363 86.5703 0.0167806 2.84766 1.41515e-13 -5.01994e-14 1.22329 87.8868 0.0262106 
3.21074 8.69478e-14 -9.34496e-14 0.815184 89.4715 0.039642 3.53451 -1.16039e-13 6.47885e-14 
0.0297243 91.3878 0.0585391 3.71711 -3.53051e-14 3.53814e-14 -1.32047 93.6578 0.0776782 
3.56092 -1.38375e-13 4.63154e-14 0.0222497 77.6803 -0.018262 0.315387 -6.5622e-14 -1.39434e-13 
0.157228 78.688 -0.00686862 0.531167 3.09722e-13 5.40748e-14 0.345315 79.5773 -0.00506852 
0.700819 -1.34994e-13 -5.89702e-14 0.580607 80.3857 -0.00414119 0.851856 9.92563e-14 1.7799e-13 
0.855157 81.1416 -0.00346735 1.00482 9.24161e-14 -1.59012e-13 1.16275 81.8707 -0.0028774 
1.17592 -3.45141e-13 5.34399e-14 1.49795 82.5981 -0.00221776 1.37871 -3.78308e-14 -1.38518e-13 
1.85475 83.3512 -0.00128638 1.62536 8.84171e-14 2.43965e-13 2.2246 84.1619 0.00021227 
1.92734 6.17215e-14 -9.8286e-14 2.59375 85.0703 0.00274176 2.29544 1.02177e-13 4.21434e-14 
2.93885 86.1291 0.00704636 2.73858 1.20671e-13 -9.68149e-14 3.22003 87.41 0.0143451 
3.26014 1.90754e-13 2.87652e-14 3.3691 89.01 0.0263829 3.84914 5.63577e-14 6.53505e-14 
3.27322 91.0591 0.0466888 4.46043 7.87981e-14 -1.22305e-13 2.73482 93.7077 0.0727191 
4.97112 1.68907e-13 8.99975e-14 0.0298576 77.4651 -0.0214059 0.210452 1.17189e-13 -2.90701e-13 
0.200335 78.5285 -0.00867281 0.348635 1.97511e-13 -3.96558e-15 0.439671 79.4435 -0.00669242 
0.456368 2.41774e-13 -1.52305e-13 0.741335 80.2557 -0.00587341 0.55558 -1.15886e-13 1.57881e-13 
1.09855 80.9982 -0.00553708 0.66291 -1.60926e-13 1.19932e-13 1.50831 81.6996 -0.00552955 
0.791957 1.60752e-13 -5.80785e-15 1.97076 82.3863 -0.00575299 0.954904 6.02634e-14 -6.47468e-14 
2.48823 83.0858 -0.00610227 1.16386 -7.88432e-16 1.00624e-13 3.06434 83.8291 -0.00643177 
1.43202 9.32188e-14 -1.45998e-13 3.70269 84.6553 -0.00649534 1.77472 3.87641e-14 6.92953e-14 
4.40464 85.617 -0.00583737 2.21011 -2.80595e-13 1.67436e-14 5.16522 86.7888 -0.00359035 
2.75902 -2.88589e-14 2.68952e-14 5.96512 88.2814 0.00181427 3.4422 1.98515e-13 -1.85241e-13 
6.75731 90.2625 0.0140741 4.27072 1.94483e-13 3.36883e-14 7.42559 92.9813 0.0334015 
5.21775 -2.62998e-13 1.81591e-13 0.0354724 77.3493 -0.0236483 0.083382 8.56455e-15 -1.93127e-13 
0.23186 78.4469 -0.00999205 0.127967 -1.53967e-13 5.89979e-14 0.508673 79.3742 -0.00789873 
0.159893 1.07728e-13 3.15373e-15 0.85904 80.1826 -0.00718767 0.19323 -1.22063e-13 5.83839e-14 
1.2773 80.9086 -0.00714568 0.238697 2.4507e-13 -4.98455e-14 1.76326 81.5824 -0.00764317 
0.305202 -1.01981e-13 -3.09336e-14 2.32182 82.2309 -0.00864611 0.401003 1.12001e-13 -8.39953e-14 
2.9627 82.8803 -0.0101619 0.534776 8.19778e-14 2.07716e-14 3.70051 83.5597 -0.0122308 
0.716689 -1.65679e-13 1.53245e-13 4.55524 84.3046 -0.0149082 0.959613 -7.05339e-14 -1.05107e-13 
5.55286 85.1627 -0.0182195 1.28056 -7.83887e-14 1.05888e-13 6.72588 86.2034 -0.022075 
1.70226 2.37631e-13 -3.8719e-15 8.11278 87.5339 -0.0259984 2.25448 -3.70912e-13 -2.53221e-13 
9.75575 89.3287 -0.0282683 2.97294 -1.34545e-14 1.32117e-14 11.6802 91.8831 -0.0277635 
3.88952 -1.36752e-13 1.33962e-13 0.0385147 77.3482 -0.0247658 -0.0580145 2.75911e-13 -1.37532e-13 
0.248595 78.4554 -0.010683 -0.117351 2.31748e-13 5.23609e-14 0.545227 79.381 -0.00853452 
-0.170233 -5.95335e-15 -1.18544e-13 0.92133 80.1793 -0.00788651 -0.211992 -1.423e-13 1.56375e-13 
1.37188 80.8887 -0.00801301 -0.239222 -1.82545e-14 -4.57516e-14 1.89829 81.54 -0.00880183 
-0.249222 9.70816e-15 1.5141e-13 2.50821 82.1603 -0.0102608 -0.239553 1.04482e-13 -1.35739e-13 
3.21564 82.775 -0.0124719 -0.207615 -2.43123e-13 2.09947e-13 4.04174 83.4113 -0.0156027 
-0.150195 -2.4132e-13 -2.63619e-13 5.01645 84.102 -0.0199241 -0.0629246 -1.77287e-13 1.01405e-13 
6.18116 84.8906 -0.0258284 0.0604249 3.70429e-14 -2.14967e-14 7.59263 85.8403 -0.0338677 
0.228866 1.7787e-13 5.92582e-14 9.32856 87.0507 -0.0446152 0.455316 -9.55997e-14 -1.81591e-13 
11.4953 88.69 -0.0584929 0.757508 1.18613e-13 1.47382e-14 14.2299 91.0619 -0.0749068 
1.1569 -1.93977e-13 8.87901e-14 0.0386692 77.4699 -0.0246366 -0.204444 -2.2791e-13 -7.49088e-14 
0.248792 78.5608 -0.0106668 -0.371255 -5.10078e-14 -4.76251e-14 0.545467 79.4702 -0.00851445 
-0.511982 -7.59648e-14 -2.0043e-14 0.921428 80.2527 -0.00785794 -0.631913 5.45703e-14 4.70769e-14 
1.37156 80.9469 -0.00797767 -0.735465 2.12444e-13 -5.04354e-14 1.89721 81.5839 -0.00876157 
-0.826708 -6.49082e-14 2.72629e-14 2.50598 82.1906 -0.0102171 -0.909738 1.11187e-13 -1.36835e-13 
3.21185 82.7927 -0.0124257 -0.989038 6.14103e-14 1.16952e-13 4.03594 83.4176 -0.0155539 
-1.06987 2.66282e-13 -2.95285e-14 5.00818 84.0979 -0.019871 -1.15875 1.3014e-13 -1.29466e-13 
6.1699 84.8772 -0.0257669 -1.26413 -1.45366e-13 2.01797e-13 7.57781 85.8188 -0.0337892 
-1.39729 1.97244e-13 -9.25995e-14 9.30945 87.0224 -0.0445038 -1.57341 1.20605e-13 -4.40412e-14 
11.4708 88.656 -0.0583133 -1.81253 1.28236e-13 -2.27596e-15 14.1985 91.0234 -0.0746112 
-2.13841 8.04322e-14 -1.90681e-14 0.0359354 77.7146 -0.0232589 -0.346086 1.33788e-13 -3.78968e-14 
0.23244 78.7628 -0.00994263 -0.616766 3.62551e-13 -2.14918e-13 0.509364 79.6415 -0.00783766 
-0.842021 -1.67436e-14 7.33788e-14 0.859276 80.4025 -0.0071013 -1.03658 -1.3273e-13 1.09655e-13 
1.27625 81.083 -0.00703934 -1.2122 1.18635e-13 -1.0103e-14 1.75989 81.7135 -0.00752265 
-1.37922 1.18371e-13 -1.19346e-13 2.31499 82.3214 -0.00851624 -1.54757 -1.60535e-13 6.54893e-14 
2.95114 82.9332 -0.0100258 -1.72784 1.98478e-14 1.19963e-13 3.68293 83.5781 -0.0120892 
-1.93225 -8.00957e-14 -6.90385e-14 4.53027 84.2918 -0.014758 -2.17583 1.83539e-13 9.92748e-14 
5.51909 85.122 -0.0180516 -2.47774 -2.14516e-14 2.49939e-14 6.6817 86.1383 -0.0218703 
-2.86289 -6.54303e-14 -8.89497e-14 8.05627 87.4477 -0.025723 -3.36309 4.2466e-15 1.54807e-14 
9.68432 89.2247 -0.0278527 -4.01596 -8.56329e-14 3.31679e-15 11.59 91.7644 -0.0271233 
-4.85492 2.35985e-13 7.33302e-14 0.0306276 78.0741 -0.0207503 -0.473635 -2.24811e-14 6.56072e-15 
0.201262 79.0549 -0.0085872 -0.837793 4.0158e-14 4.74863e-14 0.44072 79.8885 -0.00658771 
-1.13827 -1.44315e-13 -1.95201e-13 0.741534 80.6213 -0.00572713 -1.39775 2.12339e-14 6.12843e-14 
1.09648 81.2877 -0.00535858 -1.63398 1.54827e-13 -1.00742e-13 1.50227 81.9168 -0.00532916 
-1.86207 -1.23815e-13 1.2422e-13 1.9588 82.5358 -0.00553972 -2.09596 4.6076e-14 -2.10838e-13 
2.4683 83.1724 -0.00588293 -2.34972 -4.21616e-14 2.81806e-13 3.03434 83.8582 -0.00621001 
-2.63864 8.12544e-14 -2.17243e-13 3.6605 84.6323 -0.0062705 -2.98018 4.28685e-14 1.75623e-14 
4.3481 85.5474 -0.00560286 -3.39463 -5.88349e-14 1.82559e-13 5.0921 86.678 -0.00333137 
-3.90482 -4.70977e-14 -5.32283e-14 5.87294 88.1346 0.00212207 -4.53334 2.51674e-14 -2.62117e-13 
6.64313 90.0843 0.0144687 -5.29269 -1.19384e-13 2.23203e-13 7.28559 92.7755 0.0339067 
-6.15687 -2.65593e-13 -1.66825e-13 0.0233232 78.5331 -0.0173298 -0.579256 2.17344e-14 1.69354e-13 
0.158439 79.4242 -0.00674165 -1.02079 -2.15599e-13 -1.03917e-13 0.346556 80.1989 -0.00491543 
-1.38227 1.78859e-13 4.71151e-15 0.580453 80.8957 -0.00393096 -1.69209 2.10118e-13 1.40027e-14 
0.851579 81.5445 -0.00321403 -1.97206 3.76134e-14 -3.27516e-14 1.1533 82.172 -0.00259663 
-2.23998 -1.03363e-13 -1.33386e-13 1.47994 82.8044 -0.00192377 -2.51131 5.26463e-14 2.98962e-14 
1.82533 83.4694 -0.000991103 -2.80029 -1.28186e-13 2.51951e-13 2.18094 84.1995 0.00049983 
-3.12054 -1.63187e-13 -1.81626e-13 2.53307 85.0349 0.00301597 -3.48503 -2.35211e-14 -9.18467e-14 
2.85853 86.0282 0.00730493 -3.90479 -2.19953e-13 9.88341e-14 3.11758 87.2509 0.0145878 
-4.38518 -1.16095e-13 2.15349e-14 3.24217 88.7994 0.0266076 -4.91692 -8.21357e-14 -1.08372e-13 
3.11961 90.8027 0.0468761 -5.45616 -4.52624e-14 1.88183e-14 2.55257 93.4094 0.0728092 
-5.88082 -6.22141e-14 8.03663e-14 0.0147724 79.0705 -0.0132865 -0.657313 1.76525e-13 8.75584e-14 
0.108121 79.8537 -0.00458814 -1.156 1.71946e-14 -1.08209e-13 0.236015 80.5565 -0.00300982 
-1.5609 1.53526e-13 4.10887e-14 0.391923 81.2081 -0.00194986 -1.90348 1.31018e-13 7.14706e-14 
0.566389 81.8324 -0.000932671 -2.2074 -1.30777e-13 -2.06373e-13 0.749877 82.4524 0.000203229 
-2.49101 1.39473e-13 1.20388e-13 0.931739 83.0915 0.00163559 -2.76882 1.89414e-14 2.92509e-14 
1.09855 83.7758 0.00360846 -3.05223 -3.19467e-14 -1.82163e-14 1.23181 84.5354 0.00646765 
-3.34934 1.84019e-14 7.0461e-14 1.30466 85.4069 0.0107107 -3.66355 2.20657e-14 -8.74058e-14 
1.27711 86.4356 0.017036 -3.99024 1.39087e-13 4.07313e-14 1.08931 87.677 0.0263998 
-4.30981 -4.44436e-14 1.77046e-14 0.651884 89.1948 0.0397398 -4.57443 -1.58901e-13 -2.39794e-13 
-0.163907 91.0512 0.058492 -4.68377 -7.32261e-14 8.9883e-14 -1.54416 93.2661 0.0773911 
-4.44158 -1.08386e-13 1.33907e-13 0.0057848 79.6615 -0.00893993 -0.704762 -1.26159e-13 -1.2013e-14 
0.0548306 80.3232 -0.00232216 -1.23815 -1.20063e-13 -2.62845e-14 0.119038 80.9428 -0.00106506 
-1.66727 1.15939e-13 4.50265e-14 0.193108 81.5392 -1.53443e-05 -2.02409 -9.138e-14 -3.57769e-14 
0.267472 82.1291 0.00118243 -2.33194 9.30812e-14 -4.69885e-14 0.330807 82.7304 0.00265659 
-2.60786 -1.64855e-13 7.54154e-14 0.369175 83.3623 0.00456503 -2.86357 -3.41688e-14 -5.05741e-14 
0.364526 84.0462 0.00712235 -3.10572 -7.035e-14 1.58783e-13 0.292639 84.8069 0.0106106 
-3.33495 -4.95298e-14 -8.21305e-14 0.120392 85.6723 0.0153826 -3.54346 -3.8549e-14 9.31807e-14 
-0.19772 86.6731 0.0218241 -3.71041 -1.72268e-13 -1.08162e-13 -0.723548 87.8393 0.0302532 
-3.79376 -9.24608e-15 1.31067e-13 -1.53893 89.1908 0.0404678 -3.71689 9.08856e-14 -2.1886e-13 
-2.74522 90.7149 0.0514222 -3.34829 8.94215e-14 -6.80215e-14 -4.45512 92.3154 0.0571202 
-2.47273 -8.30586e-15 9.02056e-14 -0.00285768 80.2799 -0.00459606 -0.721189 7.04992e-14 -3.98379e-14 
0.00287692 80.8117 -0.000123718 -1.2665 2.44887e-13 8.93036e-15 0.00508072 81.3391 0.000752305 
-1.70081 3.09214e-14 -6.17527e-14 0.000186953 81.8701 0.00168899 -2.05421 8.56203e-14 1.167e-13 
-0.0205034 82.414 0.00291083 -2.34804 2.35888e-14 4.23273e-16 -0.0686213 82.9822 0.00449078 
-2.59662 6.46171e-14 5.09766e-14 -0.1592 83.5879 0.00653109 -2.80793 1.46558e-14 -1.46785e-13 
-0.311663 84.2463 0.00916395 -2.98334 1.63342e-14 9.1975e-14 -0.55113 84.9736 0.012535 
-3.11623 -5.02671e-14 -4.35763e-14 -0.909893 85.7855 0.0167624 -3.18923 1.78538e-14 6.22479e-14 
-1.42871 86.6941 0.0218369 -3.16961 3.10238e-14 -7.5097e-14 -2.15703 87.7011 0.0274346 
-3.00218 -3.45082e-13 1.06873e-13 -3.15041 88.7834 0.0324808 -2.59954 4.9967e-14 -1.45022e-13 
-4.46136 89.8672 0.0345282 -1.83057 -7.8014e-14 -1.46402e-14 -6.11535 90.7851 0.0295217 
-0.511833 3.94546e-14 9.70612e-14 -0.00961415 78.885 -0.00513334 0.442887 1.15852e-13 -2.10262e-13 
0.0042936 78.3187 -0.0143744 0.237778 -4.13718e-13 2.65614e-13 -0.0233083 79.5945 -4.63142e-05 
0.76247 -7.0173e-14 -3.40561e-14 0.00126325 79.0781 -0.000759155 0.614623 -1.5217e-13 -3.89987e-13 
-0.0484704 80.3107 0.000224838 1.0074 -5.87126e-14 7.06379e-15 0.00366812 79.8283 0.000113592 
0.897988 -2.35697e-14 3.55438e-13 -0.0849411 81.0341 0.000334561 1.20416 -2.51501e-13 -5.86059e-14 
0.00482679 80.5725 0.000341067 1.12237 -1.0426e-13 -3.29292e-13 -0.139504 81.7671 0.000518529 
1.37033 5.4831e-13 5.7572e-14 -0.00177198 81.3158 0.000607549 1.31148 -8.03723e-14 4.21094e-13 
-0.222749 82.5156 0.000779143 1.51601 3.36979e-13 -5.94247e-14 -0.025558 82.0662 0.000973966 
1.48089 -1.15468e-13 -1.9227e-13 -0.34923 83.2877 0.0011059 1.64444 5.12333e-14 -3.32651e-14 
-0.0794163 82.8345 0.00148033 1.63925 -6.34787e-14 -1.20057e-13 -0.53807 84.0935 0.00148114 
1.75168 -5.98271e-14 8.89497e-14 -0.18047 83.6335 0.00218029 1.78859 -1.89768e-13 9.60343e-14 
-0.813744 84.9437 0.00186705 1.82532 6.93681e-14 -7.84754e-14 -0.351174 84.4782 0.00314618 
1.92361 -1.43587e-13 -3.24324e-14 -1.20674 85.847 0.00218252 1.84193 3.62051e-13 4.00652e-14 
-0.620628 85.3847 0.00447088 2.02979 3.42365e-13 -5.4054e-15 -1.75359 86.8068 0.00226601 
1.763 6.65301e-14 -5.33774e-14 -1.02582 86.3677 0.00626495 2.07974 6.60721e-14 -8.7215e-14 
-2.49525 87.8127 0.00180573 1.52918 1.38362e-13 1.02808e-13 -1.6122 87.4361 0.00864345 
2.02751 1.60358e-13 1.82979e-13 -3.47175 88.8269 0.000263304 1.05322 -2.4647e-13 -1.36832e-13 
-2.43211 88.5831 0.0116679 1.80026 -2.04836e-13 -2.4751e-13 -4.70956 89.7603 -0.003198 
0.213496 3.62793e-13 9.69363e-15 -3.53825 89.7676 0.0153276 1.28772 -2.55407e-13 9.70031e-14 
-6.19969 90.4337 -0.0106081 -1.14617 -2.70617e-14 7.23727e-14 -4.96821 90.88 0.0189337 
0.331736 -1.67671e-13 9.85323e-14 -6.70515 91.6847 0.0223327 -1.27138 -8.72913e-14 -9.67004e-14 
0.000416547 78.5106 -0.00760961 0.441918 -2.62984e-13 -6.98677e-14 0.010823 77.8841 -0.017714 
0.230019 3.75772e-13 -3.02119e-14 0.0276472 79.3131 -0.000902353 0.759287 1.12278e-13 -5.41095e-14 
0.0351662 78.7579 -0.00117775 0.592493 -3.06335e-14 -4.93078e-14 0.0608542 80.088 -0.000340872 
1.0052 -3.80586e-13 -5.88973e-14 0.0883641 79.58 -0.000146327 0.865529 -3.83553e-13 1.23512e-15 
0.0979448 80.8464 -6.38755e-05 1.20927 -4.06603e-14 4.95923e-14 0.158271 80.3663 1.45689e-05 
1.08597 -3.57504e-13 -6.8695e-14 0.130587 81.599 0.00025326 1.39213 2.85315e-13 1.5199e-13 
0.23632 81.1308 0.000175285 1.27976 5.50653e-14 2.24674e-13 0.147635 82.3585 0.000636445 
1.56731 -4.11577e-13 -1.44856e-13 0.312587 81.8887 0.000403951 1.46511 -2.99536e-13 -1.1452e-13 
0.134484 83.1395 0.0010993 1.74221 -6.38933e-14 -5.09176e-14 0.374789 82.657 0.000745892 
1.65416 -8.84744e-14 -2.38268e-13 0.0718056 83.9594 0.00165415 1.91822 5.7291e-14 9.94621e-14 
0.406989 83.4546 0.00126178 1.85369 -2.84318e-13 1.95115e-13 -0.0661528 84.8377 0.00230419 
2.08956 4.32987e-15 -1.04854e-13 0.387843 84.3037 0.00203968 2.06489 5.58581e-14 7.12069e-14 
-0.313705 85.796 0.0030247 2.24081 -1.40034e-13 9.08995e-16 0.288253 85.2303 0.00320605 
2.28177 -3.1794e-13 -1.69233e-13 -0.716091 86.8554 0.00372777 2.34218 3.03348e-13 -4.24105e-14 
0.0683509 86.2637 0.00493934 2.48781 2.61374e-13 1.45252e-13 -1.33147 88.0319 0.00417764 
2.34193 -1.92263e-13 -3.90243e-14 -0.326063 87.4353 0.00748156 2.6497 -9.85323e-16 -1.51268e-13 
-2.23089 89.3244 0.00387663 2.1547 1.91708e-13 -1.43682e-13 -0.966858 88.7728 0.0111306 
2.70683 -2.45637e-14 -2.20657e-15 -3.49252 90.6908 0.00174951 1.64552 -3.70648e-13 -1.11725e-14 
-1.94477 90.2858 0.0162252 2.55467 -3.28168e-13 7.80626e-15 -5.18266 92.002 -0.00407671 
0.612225 -1.64313e-14 1.69413e-13 -3.36182 91.9332 0.0228013 2.02031 -2.49689e-13 1.43587e-14 
-5.30847 93.5563 0.0311432 0.837399 1.17767e-13 1.01197e-13 0.0112532 78.1509 -0.010155 
0.411252 2.02994e-13 -2.59105e-13 0.0175053 77.4799 -0.0209664 0.206033 1.2719e-13 -1.65104e-13 
0.0822323 79.0425 -0.00180239 0.704578 -4.066e-13 -9.9365e-14 0.070089 78.4618 -0.00160591 
0.52821 -1.40946e-13 -1.26427e-14 0.17816 79.8696 -0.000955105 0.933765 -2.02505e-13 -4.1897e-14 
0.175693 79.3485 -0.000433242 0.770595 2.89871e-13 -9.17044e-14 0.295215 80.6546 -0.000527206 
1.12945 1.98553e-13 1.83256e-13 0.31705 80.1683 -0.000363285 0.969536 3.66521e-14 1.24852e-13 
0.424494 81.4157 -0.000104956 1.31371 -3.52573e-13 1.41269e-13 0.484306 80.9441 -0.000343882 
1.15111 -2.82267e-13 4.88498e-15 0.555829 82.1717 0.000360001 1.5024 -1.62951e-13 -1.96267e-13 
0.668268 81.6972 -0.000306995 1.33458 -1.30129e-13 -5.0987e-14 0.676808 82.9425 0.000903075 
1.70654 2.76619e-13 1.42941e-14 0.85909 82.4494 -0.000211823 1.53435 -1.0535e-13 -9.65616e-14 
0.771148 83.751 0.00156413 1.93279 -1.07716e-13 1.73007e-13 1.04475 83.2241 -6.33402e-06 
1.76113 2.77486e-13 1.52309e-13 0.816424 84.6238 0.00238771 2.18306 -9.46812e-14 -4.7809e-14 
1.20906 84.0483 0.000389671 2.02231 -2.40221e-13 -9.90735e-14 0.780931 85.5926 0.00341476 
2.45258 3.46084e-13 -6.81399e-15 1.3289 84.9546 0.00110152 2.32129 -3.32581e-14 1.12611e-13 
0.619385 86.695 0.00466211 2.7259 8.9373e-14 -2.29053e-14 1.37017 85.9833 0.00232718 
2.6552 -8.32945e-14 -5.66214e-14 0.267278 87.9731 0.00604712 2.96923 1.57555e-13 -1.64924e-13 
1.28216 87.1845 0.00437401 3.00991 1.90625e-13 4.9391e-14 -0.365541 89.4684 0.00732301 
3.11697 6.09374e-14 -2.20726e-14 0.9897 88.6185 0.0077221 3.35024 4.10366e-14 -2.08868e-13 
-1.40085 91.2044 0.00733834 3.04879 8.85125e-14 2.80817e-14 0.383054 90.3509 0.0130298 
3.60154 -1.49381e-13 5.02931e-14 -2.98668 93.1472 0.00557787 2.55427 -1.53544e-13 1.86373e-13 
-0.688456 92.4338 0.0213289 3.61669 9.856e-14 9.10938e-14 -2.42794 94.847 0.0331831 
3.12448 1.0375e-13 1.47889e-13 0.0220533 77.8315 -0.0126 0.350023 4.30333e-14 -2.59202e-13 
0.0237994 77.1362 -0.0238947 0.165969 4.00655e-13 1.42747e-13 0.136241 78.8026 -0.00269123 
0.596793 1.49681e-13 8.77076e-15 0.103174 78.2125 -0.00200767 0.422228 -2.54071e-13 -2.69271e-13 
0.29439 79.6729 -0.00157742 0.790529 -5.77312e-14 -7.12694e-14 0.258479 79.1526 -0.000719768 
0.613629 -1.84974e-14 9.10452e-14 0.491502 80.4752 -0.00102156 0.960312 -1.70068e-14 1.96836e-13 
0.467992 79.9963 -0.000753329 0.772887 5.14205e-14 1.16074e-13 0.71902 81.2347 -0.000526229 
1.12769 1.03975e-13 -1.0332e-14 0.721283 80.7742 -0.000894437 0.923811 4.28571e-13 6.46844e-14 
0.969105 81.9748 -2.44745e-05 1.30915 -3.75623e-13 -1.23394e-13 1.01086 81.5127 -0.00108138 
1.08465 -1.96374e-13 -1.14075e-13 1.23358 82.7194 0.000534712 1.51781 1.98657e-13 -2.3051e-14 
1.33071 82.2369 -0.00128777 1.27016 -5.37036e-14 -1.0953e-13 1.50229 83.4945 0.00120989 
1.76438 -1.54356e-13 2.04121e-13 1.67492 82.9725 -0.00148657 1.49307 -2.32984e-13 1.5931e-13 
1.76096 84.3307 0.00207561 2.05753 1.82424e-14 -7.89924e-14 2.03592 83.7486 -0.00163275 
1.765 -7.51829e-15 1.4988e-14 1.98792 85.2659 0.00322734 2.40318 1.13562e-13 1.3034e-13 
2.4022 84.6005 -0.00164777 2.09688 -3.84859e-13 5.92582e-14 2.14925 86.3485 0.00478365 
2.80215 1.21986e-14 -1.14533e-13 2.75466 85.5734 -0.00139043 2.49828 -9.83449e-14 1.72085e-15 
2.19133 87.6412 0.00684912 3.24479 1.90126e-14 -1.53891e-13 3.06082 86.728 -0.000611232 
2.97503 1.35947e-13 -1.88349e-13 2.02974 89.2231 0.00952516 3.6996 1.31173e-13 4.92661e-14 
3.26573 88.1467 0.00115373 3.52307 -5.02237e-14 2.22877e-14 1.53241 91.1868 0.0120446 
4.0903 2.90462e-13 -2.2593e-14 3.27663 89.9407 0.00460128 4.1142 1.48742e-13 1.65618e-13 
0.506296 93.6204 0.0158205 4.25234 7.1082e-14 1.36946e-13 2.94504 92.2536 0.0115958 
4.66552 -2.10831e-13 -1.0407e-13 2.01624 95.2355 0.0219171 4.97556 -2.1122e-13 2.45082e-14 
0.0318653 77.578 -0.0147446 0.259856 9.46829e-14 -2.48648e-13 0.029141 76.8814 -0.0262658 
0.111373 -5.35787e-14 -1.4079e-13 0.185002 78.6135 -0.00348978 0.438732 1.17859e-13 -8.6528e-14 
0.131423 78.0316 -0.0023466 0.27861 1.14823e-13 -9.64229e-14 0.399427 79.5158 -0.00214791 
0.578903 7.11523e-14 -5.88765e-14 0.329191 79.0107 -0.000973935 0.400522 9.57238e-14 -9.97466e-14 
0.669462 80.3265 -0.00149264 0.705199 -4.68862e-13 3.14859e-13 0.597178 79.8682 -0.00110776 
0.503112 1.78211e-13 1.53516e-13 0.987532 81.0765 -0.000955393 0.836386 4.05205e-14 -7.05755e-14 
0.9249 80.6408 -0.00140432 0.605484 4.82453e-14 -1.0339e-14 1.34895 81.7926 -0.000456311 
0.987479 1.28257e-13 -5.9952e-14 1.307 81.3588 -0.00181235 0.722649 4.13052e-13 2.02775e-13 
1.75098 82.5008 6.30417e-05 1.17147 1.36606e-13 -6.31717e-14 1.74185 82.0492 -0.00232597 
0.867368 -2.84842e-15 -2.78014e-13 2.19166 83.2283 0.000667417 1.4006 5.24171e-13 2.2396e-13 
2.2305 82.7384 -0.00295362 1.05163 4.41317e-13 1.74444e-13 2.66827 84.0066 0.00144204 
1.68733 -3.6942e-13 -1.26121e-13 2.77572 83.4551 -0.00370516 1.28788 9.75192e-14 -7.43988e-14 
3.17519 84.875 0.00250791 2.04482 -1.42018e-13 9.68947e-14 3.38077 84.2336 -0.00458593 
1.5901 3.47521e-13 -6.84175e-14 3.70029 85.886 0.0040442 2.48672 -2.49675e-13 -5.20695e-14 
4.04761 85.1186 -0.00558182 1.97458 -1.03868e-13 2.45776e-14 4.2188 87.1119 0.00630629 
3.0251 3.72785e-13 -1.8055e-14 4.77351 86.1718 -0.00663495 2.46019 -5.96467e-14 7.98389e-14 
4.68276 88.6555 0.00970773 3.66446 -4.88498e-15 -8.29892e-14 5.54495 87.4828 -0.00754978 
3.06679 3.01412e-13 -6.57807e-14 5.0012 90.6619 0.0141878 4.38618 -3.06366e-13 -1.14908e-14 
6.32517 89.1853 -0.00806627 3.80888 -2.27304e-13 -8.20455e-14 5.01645 93.3333 0.0230642 
5.11183 5.33379e-13 1.60733e-13 7.03607 91.4839 -0.00638648 4.67718 1.87073e-14 1.7536e-13 
7.49179 94.6761 -0.00494078 5.58477 1.62981e-13 -1.0511e-13 0.0397482 77.4131 -0.016401 
0.144992 -1.64438e-13 -2.79013e-13 0.0330147 76.7399 -0.0278747 0.0451656 -2.37737e-13 -2.46331e-14 
0.223919 78.4936 -0.00412325 0.237759 -9.02694e-14 4.17721e-14 0.152084 77.9375 -0.00258897 
0.104963 -4.83562e-13 -2.80886e-14 0.483296 79.4151 -0.00260721 0.308668 1.78198e-13 -1.22471e-14 
0.380907 78.9386 -0.00116432 0.142547 1.99293e-13 6.57807e-15 0.811865 80.2261 -0.00188206 
0.37581 2.98488e-13 1.46244e-13 0.691759 79.7997 -0.00137777 0.174605 -3.55948e-13 1.49047e-14 
1.20324 80.9616 -0.00132614 0.453 -1.58009e-13 9.47922e-14 1.07433 80.562 -0.00179784 
0.213416 -3.85301e-13 2.86923e-14 1.65589 81.6509 -0.000852385 0.551591 -2.55176e-13 -9.09411e-14 
1.52517 81.2581 -0.00238398 0.268714 -1.96073e-13 2.17881e-14 2.1725 82.3206 -0.000401756 
0.681908 -1.7723e-13 -1.33379e-13 2.04649 81.9159 -0.0031502 0.348988 -2.92969e-13 -1.85435e-13 
2.75937 82.9977 8.6297e-05 0.854462 -2.25413e-13 1.15435e-13 2.64543 82.5618 -0.00413973 
0.462586 -1.45623e-13 3.0087e-14 3.42603 83.7124 0.000689977 1.08109 -1.71987e-13 -2.65066e-15 
3.33401 83.2228 -0.00541854 0.618761 1.14474e-14 1.94095e-13 4.18474 84.5021 0.00152489 
1.3761 1.43122e-13 -1.34615e-15 4.12934 83.9306 -0.00708321 0.828779 9.99721e-14 -9.26481e-14 
5.04971 85.4172 0.00277618 1.75735 5.46438e-14 8.33361e-14 5.05405 84.7258 -0.0092688 
1.10719 3.51108e-15 1.09815e-13 6.03508 86.5299 0.00476219 2.24699 -1.30819e-13 1.60982e-14 
6.13676 85.6653 -0.0121673 1.47323 -1.9016e-13 2.86299e-14 7.15039 87.9491 0.008054 
2.87071 -6.96665e-14 -2.639e-13 7.41181 86.8342 -0.0159949 1.95213 -3.87176e-13 -1.80966e-14 
8.3893 89.845 0.0133701 3.65201 1.65021e-13 -9.63118e-15 8.91625 88.3671 -0.0212235 
2.57481 -2.06779e-15 -1.41998e-13 9.71298 92.4937 0.0248262 4.59216 1.53683e-13 1.47493e-13 
10.6839 90.489 -0.0270844 3.37238 1.08649e-13 1.01863e-13 12.6984 93.5817 -0.0389962 
4.34554 3.02536e-14 -9.53682e-14 0.0449016 77.355 -0.0174122 0.0120666 -6.75493e-14 -1.79315e-13 
0.0350258 76.7295 -0.028568 -0.0285626 4.79699e-13 -7.59115e-15 0.249098 78.4575 -0.0045277 
0.00542143 1.54711e-14 7.91589e-14 0.163047 77.9436 -0.00270878 -0.0880996 1.1129e-13 -9.28702e-14 
0.537528 79.3844 -0.00290316 -0.00449464 4.75635e-14 -4.20358e-14 0.408312 78.948 -0.00126569 
-0.144434 -1.84474e-13 2.47302e-14 0.904001 80.1887 -0.00213606 -0.00825504 -9.27852e-14 1.78094e-13 
0.741825 79.803 -0.00152344 -0.191947 1.95716e-13 6.11733e-14 1.34305 80.908 -0.00157387 
0.00127746 -2.01558e-14 -5.92859e-14 1.15339 80.5518 -0.00201194 -0.226635 3.37045e-13 9.02611e-14 
1.85546 81.5727 -0.00112649 0.0299644 -1.16175e-13 -6.65579e-14 1.64069 81.2284 -0.00269764 
-0.245477 2.7672e-13 -4.6449e-14 2.44789 82.2099 -0.000737281 0.0832192 -2.99066e-15 -1.01183e-13 
2.2081 81.8612 -0.00360678 -0.245938 -2.09094e-13 -2.02005e-13 3.13281 82.8456 -0.00035339 
0.166757 3.49339e-13 2.09069e-13 2.86632 82.476 -0.00480401 -0.225544 2.64803e-13 3.01037e-13 
3.92904 83.5083 8.99171e-05 0.287373 -1.80772e-13 -7.07628e-14 3.63286 83.099 -0.00639074 
-0.181453 -7.90748e-14 -8.31557e-14 4.863 84.2326 0.000688677 0.453845 3.26739e-13 -1.09079e-14 
4.53315 83.7594 -0.00852283 -0.109974 2.6081e-13 8.64586e-15 5.9705 85.0647 0.00160322 
0.678029 -2.61312e-13 7.59393e-14 5.60272 84.4947 -0.0114357 -0.00596716 -1.68211e-13 -2.66454e-15 
7.29943 86.072 0.00314386 0.976172 -3.61947e-13 1.40166e-14 6.89031 85.3569 -0.0154975 
0.137926 7.70026e-14 -8.72913e-14 8.91287 87.3593 0.00589753 1.37017 2.61735e-13 -2.81886e-13 
8.46243 86.4245 -0.0212329 0.332225 -2.21122e-13 3.03924e-14 10.8914 89.1001 0.0111525 
1.88751 3.25295e-14 -2.33147e-15 10.4088 87.8254 -0.0296815 0.591441 -2.00204e-13 -4.34652e-14 
13.3346 91.5995 0.0227243 2.55518 -2.94542e-13 1.28342e-13 12.8491 89.7828 -0.0411323 
0.933793 9.66449e-14 2.03171e-14 15.9148 92.7069 -0.0630961 1.37239 -5.28605e-14 1.21625e-13 
0.0467873 77.4154 -0.017674 -0.130448 1.74255e-13 -1.23276e-13 0.0349596 76.8594 -0.0282624 
-0.104938 -2.46013e-13 6.98955e-14 0.257927 78.5146 -0.00466017 -0.24352 1.22315e-14 -1.15616e-13 
0.163163 78.0572 -0.0026918 -0.287946 -2.27995e-14 -2.49856e-13 0.55643 79.4326 -0.00300004 
-0.340345 2.30005e-13 -3.69427e-14 0.408509 79.0452 -0.00126397 -0.441468 5.71054e-14 5.77177e-14 
0.935942 80.2241 -0.00221676 -0.42122 -1.03494e-13 1.58387e-13 0.74196 79.8842 -0.00152227 
-0.571582 1.00319e-14 -2.31204e-14 1.39129 80.9275 -0.00165139 -0.486651 2.79993e-14 -1.1921e-14 
1.15324 80.6175 -0.00201075 -0.683089 -8.82766e-14 1.63133e-13 1.92407 81.574 -0.00121333 
-0.537319 -3.43297e-13 -2.28983e-14 1.63994 81.2792 -0.00269663 -0.780207 -2.19609e-13 -2.17049e-13 
2.54236 82.1906 -0.000847287 -0.574052 1.8318e-13 -1.14658e-13 2.20638 81.8981 -0.00360611 
-0.866987 -1.27311e-13 5.40956e-14 3.2609 82.803 -0.000503983 -0.59779 -3.4978e-13 2.31107e-13 
2.86325 82.4999 -0.00480368 -0.947675 2.68363e-13 3.67345e-14 4.10199 83.4391 -0.000125081 
-0.609553 -3.11672e-14 -1.27634e-13 3.62799 83.1108 -0.0063905 -1.02708 -4.03208e-13 9.4369e-15 
5.09737 84.1319 0.0003754 -0.61042 -3.2591e-13 -1.49186e-14 4.52604 83.7603 -0.00852206 
-1.11099 2.92963e-13 7.71605e-14 6.29123 84.926 0.00114302 -0.601502 -3.24475e-13 1.05263e-13 
5.59287 84.4858 -0.0114331 -1.20674 -6.6492e-14 -9.96148e-14 7.74477 85.8859 0.00247368 
-0.583928 1.25376e-13 -1.31284e-14 6.87718 85.3393 -0.0154909 -1.32392 1.56299e-13 1.68199e-13 
9.54284 87.1134 0.00493884 -0.558842 3.79997e-13 -1.66811e-13 8.44536 86.3994 -0.0212179 
-1.47531 -1.29063e-15 -1.0808e-13 11.8028 88.7799 0.0100267 -0.527396 2.09518e-13 -1.94844e-14 
10.3868 87.7939 -0.0296503 -1.67769 1.43066e-13 -4.31599e-14 14.6858 91.196 0.0212379 
-0.490757 6.62083e-14 9.42579e-14 12.8209 89.7462 -0.0410709 -1.95156 2.7886e-13 5.4734e-14 
15.8781 92.6664 -0.0629605 -2.31218 -1.18183e-13 -1.32894e-13 0.0452149 77.5985 -0.0171489 
-0.273078 1.10308e-13 -1.26982e-13 0.0328143 77.1298 -0.0269552 -0.178809 1.16157e-13 1.89501e-13 
0.249479 78.6682 -0.00450524 -0.492552 1.82285e-13 -2.29386e-13 0.152425 78.278 -0.00253782 
-0.481231 2.1763e-13 -2.86812e-13 0.537977 79.5627 -0.00288486 -0.676148 7.6536e-15 9.85531e-14 
0.381475 79.2301 -0.00115915 -0.728503 1.52935e-13 1.72133e-13 0.904147 80.3354 -0.00211018 
-0.833902 1.33553e-13 1.34351e-13 0.692122 80.0431 -0.0013743 -0.93781 -1.48511e-13 -3.43614e-14 
1.34234 81.0243 -0.00154116 -0.973986 -8.57912e-14 -4.59632e-14 1.07378 80.7588 -0.00179439 
-1.12227 -5.118e-14 2.41057e-14 1.85323 81.6602 -0.00108841 -1.10364 3.01381e-13 -9.23983e-14 
1.5228 81.4104 -0.00238121 -1.29285 -1.74385e-13 2.82413e-14 2.44335 82.2702 -0.000695216 
-1.22996 9.95185e-14 4.82947e-15 2.0412 82.0262 -0.00314865 -1.45959 1.19031e-13 -5.69267e-14 
3.12513 82.8809 -0.000308534 -1.36054 3.61195e-14 1.64729e-13 2.63603 82.6329 -0.00413951 
-1.63265 2.55733e-13 1.62731e-13 3.91734 83.5207 0.000136644 -1.50423 5.50966e-14 -5.1889e-14 
3.31923 83.2578 -0.00541913 -1.82325 2.33036e-13 -1.5267e-13 4.84635 84.2241 0.000736726 
-1.67195 -1.57409e-13 -3.80251e-15 4.10784 83.9328 -0.00708309 -2.04477 -4.31988e-13 -3.43059e-14 
5.94791 85.0377 0.00165256 -1.87776 7.10137e-13 1.45467e-13 5.02445 84.6985 -0.00926487 
-2.31392 3.22277e-14 2.44249e-13 7.26976 86.0287 0.00319496 -2.14011 1.65312e-13 -9.56457e-14 
6.09753 85.6118 -0.0121539 -2.65209 -6.34492e-14 -1.88419e-13 8.87467 87.3019 0.00595226 
-2.48306 -3.14221e-13 -6.44484e-14 7.36118 86.758 -0.0159618 -3.08663 -1.17684e-14 -3.46945e-14 
10.8426 89.0308 0.0112087 -2.93621 -1.11577e-14 6.245e-15 8.85193 88.2713 -0.0211528 
-3.65043 -4.64628e-14 3.56104e-14 13.2722 91.5204 0.0227939 -3.52845 3.53009e-13 4.63518e-14 
10.6027 90.3769 -0.0269444 -4.3763 -2.89935e-13 1.34476e-13 12.5951 93.456 -0.0387032 
-5.26615 -3.75255e-14 -1.113e-13 0.0403731 77.9003 -0.0158712 -0.406347 -2.69611e-13 -3.00315e-14 
0.028801 77.5316 -0.024724 -0.245296 1.8735e-14 -1.04708e-14 0.224656 78.9148 -0.00407741 
-0.72515 2.47323e-13 -1.00434e-13 0.131967 78.5991 -0.00226065 -0.655303 7.46486e-14 3.05589e-14 
0.484133 79.7712 -0.00256976 -0.989143 -4.17721e-15 -5.8259e-14 0.330063 79.496 -0.000965202 
-0.986549 4.2152e-14 -9.12603e-14 0.812043 80.5189 -0.00182947 -1.21709 -1.72115e-13 6.84314e-14 
0.597631 80.273 -0.00110206 -1.26562 2.99203e-13 -1.8173e-14 1.20164 81.1935 -0.00126001 
-1.42389 -2.34939e-13 -1.21292e-14 0.923739 80.9678 -0.00139894 -1.51253 -2.31638e-13 2.36131e-14 
1.65116 81.825 -0.000775728 -1.62236 -2.76249e-13 -6.70297e-14 1.30267 81.6114 -0.00180854 
-1.74361 1.76823e-13 -9.7311e-14 2.16309 82.4405 -0.000317453 -1.82453 1.07367e-13 -2.08444e-14 
1.73254 82.2316 -0.00232481 -1.97326 1.41219e-13 -1.4988e-15 2.74364 83.0674 0.00017567 
-2.04285 -1.53065e-13 2.13704e-13 2.21423 82.8555 -0.00295564 -2.21533 -1.12398e-13 8.92342e-14 
3.40225 83.7361 0.00078228 -2.29122 1.26423e-13 -1.57388e-13 2.75042 83.512 -0.00371003 
-2.48429 1.19689e-13 -6.78485e-14 4.15115 84.4841 0.00161851 -2.58609 7.93809e-15 1.22791e-13 
3.34433 84.2357 -0.00459211 -2.79624 2.74572e-13 -2.25236e-14 5.00448 85.362 0.00287011 
-2.94746 -8.95672e-14 8.31002e-14 3.99788 85.0714 -0.00558597 -3.16962 -2.14287e-13 8.89844e-14 
5.97622 86.4418 0.00485572 -3.39958 1.94289e-14 -1.39083e-13 4.70831 86.0807 -0.00663106 
-3.62535 3.05346e-13 8.43908e-14 7.07556 87.8324 0.00814679 -3.97004 -2.08472e-13 -1.71779e-13 
5.46192 87.353 -0.00752747 -4.18523 1.04139e-13 -1.56847e-13 8.29549 89.7036 0.0134555 
-4.68401 -1.58373e-13 1.93318e-13 6.22161 89.022 -0.00800916 -4.86539 -7.97834e-14 -1.10079e-13 
9.59597 92.3308 0.0249007 -5.54389 7.54119e-14 -1.47937e-14 6.90863 91.2912 -0.00626703 
-5.65773 -3.062e-13 2.67841e-13 7.33613 94.4568 -0.00471897 -6.47567 1.67089e-13 -2.00173e-13 
0.0327976 78.3089 -0.0139422 -0.521762 1.22007e-13 1.20542e-13 0.02331 78.0471 -0.0217162 
-0.300297 -2.80956e-14 3.17184e-13 0.186046 79.2448 -0.00341861 -0.926507 -2.84914e-13 -8.62366e-14 
0.103879 79.0067 -0.00188584 -0.799504 1.26534e-13 -1.17441e-13 0.400523 80.049 -0.00208952 
-1.25902 -8.77978e-14 -1.07275e-13 0.259534 79.8311 -0.000707267 -1.19967 6.62925e-14 1.02106e-13 
0.669429 80.7643 -0.00141161 -1.54491 -1.13531e-13 7.67303e-14 0.468287 80.5614 -0.000745475 
-1.5342 1.49903e-13 -5.81132e-14 0.984665 81.4226 -0.000854312 -1.80413 -4.80009e-15 -8.77909e-14 
0.71909 81.2298 -0.000887566 -1.82796 4.76832e-14 6.37684e-14 1.34118 82.0518 -0.000339897 
-2.05326 4.09712e-13 -6.6197e-14 1.00396 81.8638 -0.00107748 -2.10066 -6.16204e-14 -1.09912e-13 
1.736 82.6786 0.000190201 -2.30711 1.28716e-14 -5.72667e-14 1.31654 82.4895 -0.00128874 
-2.36879 8.60353e-14 -9.0275e-14 2.16703 83.3307 0.000801094 -2.57992 1.56125e-15 2.51556e-13 
1.65073 83.1335 -0.00149366 -2.64707 -1.22992e-14 2.02352e-13 2.63151 84.0399 0.00157847 
-2.88627 -1.51677e-13 -1.80272e-13 1.9989 83.8253 -0.00164642 -2.94923 -3.62977e-13 -1.17933e-13 
3.12384 84.8458 0.00264378 -3.24149 1.36488e-13 -3.48055e-14 2.34956 84.6003 -0.00166739 
-3.28838 8.30377e-14 2.26763e-14 3.63192 85.8008 0.00417641 -3.66133 -2.36033e-13 1.81299e-13 
2.68369 85.504 -0.00141398 -3.67623 2.06793e-13 -9.10522e-14 4.131 86.977 0.0064313 
-4.15985 1.46411e-13 -1.27398e-14 2.96899 86.5968 -0.000635077 -4.12068 -2.82802e-13 2.23377e-13 
4.57301 88.4767 0.00981977 -4.74329 2.83981e-13 -2.77015e-13 3.15063 87.9607 0.00113524 
-4.61949 4.37705e-14 -1.4011e-13 4.86682 90.4444 0.0142745 -5.39441 3.91909e-14 1.11855e-13 
3.13604 89.7063 0.00459413 -5.146 5.34572e-14 -2.03448e-14 4.85443 93.0809 0.0230955 
-6.03552 8.60423e-14 -2.32869e-14 2.77697 91.9757 0.0116104 -5.61839 -1.33671e-13 4.08007e-14 
1.81929 94.9168 0.0219177 -5.83573 4.92939e-14 -8.85958e-14 0.0232849 78.8064 -0.0115152 
-0.612652 -2.91187e-13 1.89841e-13 0.0168514 78.6523 -0.0181307 -0.340869 -8.27671e-14 1.95559e-13 
0.137508 79.6434 -0.00259169 -1.085 1.21986e-14 -1.2329e-13 0.0708884 79.4825 -0.00144659 
-0.906155 8.50015e-16 -9.17738e-14 0.295532 80.382 -0.00149525 -1.46997 9.92279e-14 6.52742e-14 
0.176741 80.219 -0.000416575 -1.35645 2.44242e-13 -4.2806e-14 0.490858 81.0563 -0.000909331 
-1.79759 8.59816e-14 9.652e-14 0.316806 80.8919 -0.000353199 -1.72898 1.67635e-13 1.58408e-13 
0.714244 81.693 -0.000387664 -2.09075 -2.18414e-13 -1.74825e-13 0.480439 81.5259 -0.000335863 
-2.05105 4.36986e-14 -1.51254e-13 0.95739 82.3169 0.000133796 -2.36767 -1.70058e-13 -2.09763e-14 
0.657839 82.1441 -0.000303954 -2.34358 -6.31405e-14 2.83107e-15 1.21183 82.9527 0.000706187 
-2.64339 7.84494e-14 6.21517e-14 0.838763 82.7694 -0.000216635 -2.62288 6.47971e-14 8.64309e-14 
1.46731 83.6271 0.00138845 -2.9308 4.37497e-15 9.0955e-14 1.01099 83.4261 -2.13223e-05 
-2.90183 -7.19702e-14 5.63855e-14 1.70956 84.3712 0.00225558 -3.24077 1.15671e-14 -3.24255e-14 
1.15833 84.1418 0.000362893 -3.19007 5.13201e-14 -1.07574e-13 1.91706 85.223 0.00340334 
-3.58144 2.41057e-14 -8.84987e-14 1.25778 84.9494 0.0010621 -3.49328 3.68733e-14 8.63476e-14 
2.05614 86.2308 0.00495014 -3.95579 1.8352e-13 8.55149e-14 1.27558 85.8892 0.00227497 
-3.81084 -1.50671e-13 -4.56718e-14 2.07346 87.4568 0.00699954 -4.35617 -1.37265e-13 4.39648e-14 
1.1614 87.0108 0.00430914 -4.13075 -1.48784e-13 9.81715e-14 1.88499 88.9796 0.00964924 
-4.75281 -8.47933e-14 -2.50036e-13 0.840638 88.374 0.0076444 -4.41975 -7.61752e-14 -1.57735e-13 
1.35921 90.8904 0.0121271 -5.07088 9.16767e-14 2.34812e-14 0.204306 90.0434 0.0129342 
-4.60488 -4.4148e-13 -9.31477e-14 0.303933 93.2755 0.0158245 -5.14687 8.01026e-14 1.34392e-13 
-0.897152 92.0693 0.0212133 -4.54049 -1.21625e-13 1.91555e-13 -2.66513 94.4289 0.0329596 
-3.95678 1.24345e-13 -9.49484e-14 0.0127707 79.3698 -0.0087743 -0.67472 6.19435e-14 8.38218e-14 
0.00998356 79.3187 -0.014194 -0.365435 -1.66263e-13 1.13642e-13 0.0835958 80.092 -0.0016701 
-1.19313 -2.34882e-14 -1.0459e-13 0.0359657 80.0046 -0.000978718 -0.971086 2.0748e-13 -8.70831e-14 
0.179032 80.7529 -0.000845101 -1.61202 1.40219e-13 3.6332e-14 0.0891365 80.641 -0.000124889 
-1.45082 4.41418e-14 1.3186e-13 0.293373 81.3766 -0.000379753 -1.96316 -1.69907e-14 -8.72913e-15 
0.156944 81.246 2.71696e-05 -1.84259 5.87516e-14 -7.50927e-14 0.416874 81.9833 7.48676e-05 
-2.27023 -2.65239e-14 -1.42941e-13 0.229867 81.836 0.000184307 -2.17383 2.42949e-13 4.46934e-14 
0.53882 82.5934 0.000563464 -2.551 1.43868e-13 1.46258e-13 0.297266 82.4282 0.000405432 
-2.46463 1.93973e-13 -6.2908e-14 0.6465 83.228 0.00112159 -2.81863 -9.8678e-14 -2.65343e-14 
0.346416 83.0408 0.000735807 -2.72932 7.99777e-14 6.42264e-14 0.723553 83.9107 0.00178957 
-3.08213 2.91274e-13 7.89369e-14 0.361204 83.694 0.00123661 -2.97704 -7.61925e-14 -1.76734e-14 
0.747687 84.6685 0.00261241 -3.34579 -1.52794e-14 1.50643e-14 0.320362 84.4107 0.00199653 
-3.21144 -5.60385e-14 -1.16476e-13 0.687508 85.5333 0.00363141 -3.6072 1.11647e-14 4.14807e-14 
0.19509 85.217 0.0031425 -3.42901 1.43108e-13 1.32339e-13 0.498214 86.5423 0.00486321 
-3.85319 -2.63817e-13 -3.42643e-14 -0.0539706 86.1421 0.00485321 -3.61565 7.77434e-14 -2.1344e-14 
0.115943 87.7373 0.0062244 -4.05209 1.12271e-14 1.36141e-14 -0.480312 87.217 0.0073701 
-3.74034 -1.12549e-13 6.68215e-14 -0.548603 89.1586 0.00746524 -4.14022 -2.17992e-13 -3.38771e-13 
-1.15488 88.4684 0.0109899 -3.7446 -2.21587e-13 -1.86438e-13 -1.61604 90.8284 0.00743281 
-3.99903 1.40998e-13 1.8735e-15 -2.16719 89.9048 0.0160442 -3.52591 1.75554e-13 -3.28192e-14 
-3.23271 92.7109 0.00560459 -3.4198 -1.28869e-13 1.91717e-13 -3.61766 91.4834 0.0225777 
-2.91335 1.55431e-15 -3.85291e-14 -5.59475 93.0433 0.0307685 -1.64285 -5.56499e-14 2.83863e-13 
0.00220017 79.9737 -0.00591525 -0.706263 2.25792e-13 3.29251e-14 0.00324023 80.0163 -0.0101358 
-0.373802 3.26475e-13 2.18409e-13 0.0289304 80.5701 -0.000731608 -1.24793 -8.58133e-14 -1.95538e-14 
0.00193258 80.55 -0.000517675 -0.993695 -4.34375e-15 -7.85344e-14 0.0610185 81.1431 -0.000197756 
-1.68148 -6.03892e-14 -2.04559e-14 0.00379781 81.0776 0.000140913 -1.48207 2.39146e-13 -2.13024e-14 
0.0940896 81.7063 0.000124017 -2.03794 1.80578e-13 1.02814e-13 0.00168135 81.6052 0.000356859 
-1.87484 8.9059e-14 4.35346e-14 0.118823 82.2724 0.000479298 -2.33981 -1.22003e-13 -1.80411e-15 
-0.012042 82.1405 0.000617878 -2.19752 1.51511e-14 6.31786e-14 0.123457 82.856 0.000889614 
-2.60281 -9.16281e-15 5.44009e-14 -0.0476183 82.6939 0.000973667 -2.4679 -5.78808e-14 -5.74575e-14 
0.0930846 83.4732 0.00136881 -2.8368 9.53543e-14 -5.34156e-14 -0.1184 83.2777 0.00146415 
-2.6971 1.44929e-13 6.37684e-15 0.00836967 84.1422 0.00192981 -3.04572 -5.35127e-14 1.10634e-13 
-0.241642 83.906 0.00214351 -2.88982 3.176e-13 -8.81933e-15 -0.156182 84.883 0.00257653 
-3.22642 2.15689e-13 -6.56038e-14 -0.439619 84.5947 0.00308469 -3.0435 3.39031e-13 -6.37615e-14 
-0.43438 85.717 0.00328488 -3.36604 2.76189e-13 7.83054e-14 -0.740963 85.3597 0.00438104 
-3.14632 6.31439e-14 1.58061e-13 -0.870729 86.6653 0.00396726 -3.43727 -2.98858e-13 -6.19366e-14 
-1.18194 86.2158 0.00614326 -3.17356 -3.0892e-14 -1.66908e-13 -1.52243 87.743 0.00438816 
-3.3907 -2.77556e-16 1.03934e-13 -1.80701 87.1712 0.00848585 -3.08179 -1.47396e-13 1.5505e-13 
-2.45932 88.9478 0.00404915 -3.14316 2.89033e-13 -2.64021e-13 -2.66731 88.2181 0.0114696 
-2.80056 1.4394e-13 -5.00208e-14 -3.75803 90.2364 0.00187698 -2.56185 5.05429e-14 -1.08916e-13 
-3.81407 89.314 0.0150777 -2.2219 1.92041e-13 -1.11636e-13 -5.48292 91.4778 -0.00399061 
-1.44687 3.79141e-13 1.5863e-13 -5.28309 90.348 0.0186378 -1.19006 -1.71196e-13 2.65343e-14 
-7.05579 91.0828 0.0218848 0.495994 1.30174e-13 1.54599e-14 -0.00759607 80.5921 -0.00310327 
-0.708034 -6.40668e-14 -1.17777e-13 -0.0223407 81.0571 0.000171514 -1.25072 -1.76949e-13 -9.42718e-14 
-0.0495949 81.5347 0.000409223 -1.68055 -3.79974e-14 6.72136e-14 -0.0918849 82.0278 0.000571244 
-2.02578 2.07794e-13 7.035e-14 -0.157127 82.5416 0.000798973 -2.30622 -1.34361e-13 -1.16851e-14 
-0.256582 83.084 0.00108976 -2.53452 2.90866e-13 7.1592e-14 -0.405084 83.6648 0.00143349 
-2.71671 3.27169e-14 -7.19078e-14 -0.621683 84.2949 0.00181345 -2.85172 -4.90927e-15 -5.71175e-14 
-0.930443 84.9854 0.00219291 -2.93004 1.85275e-13 -3.9968e-15 -1.36115 85.7452 0.00249197 
-2.93108 -1.57256e-13 7.65395e-14 -1.94937 86.577 0.00255023 -2.81904 1.86358e-13 -1.09045e-14 
-2.73482 87.4696 0.00205748 -2.53716 -4.20441e-13 1.34227e-13 -3.75609 88.384 0.000476758 
-2.00063 3.41893e-13 -1.46046e-13 -5.03798 89.2297 -0.0030239 -1.09026 -1.74277e-13 -1.26475e-13 
-6.56957 89.8262 -0.010448 0.347583 1.27787e-13 7.46625e-14 -0.016717 81.4711 0.0027719 
-0.67227 8.45053e-14 -3.53164e-14 -0.0820228 81.7451 0.00332582 -1.18157 -4.72296e-14 -1.17238e-13 
-0.180884 82.0772 0.00335948 -1.57813 -1.01088e-13 1.48857e-14 -0.312437 82.4563 0.00379068 
-1.88373 -1.81758e-13 1.75479e-13 -0.481187 82.8767 0.00459278 -2.11271 2.36106e-14 3.0702e-14 
-0.695319 83.3362 0.00571296 -2.27266 1.44712e-13 -7.53408e-14 -0.966202 83.8346 0.00710931 
-2.36444 9.021e-14 -9.18991e-14 -1.30802 84.3713 0.00871822 -2.3816 -2.1756e-14 1.1575e-13 
-1.73721 84.9432 0.0104143 -2.3093 -1.2438e-15 -8.21283e-14 -2.27134 85.541 0.011947 
-2.12255 -1.50531e-13 2.95651e-14 -2.92673 86.1438 0.0128489 -1.78427 -2.31343e-14 -1.52461e-13 
-3.714 86.7108 0.0123107 -1.24357 -4.49293e-15 2.84279e-13 -4.63011 87.1692 0.00907089 
-0.435845 1.99767e-13 -2.94492e-13 -5.64577 87.3978 0.00125639 0.71257 -1.35798e-13 7.09398e-14 
-6.68655 87.2101 -0.0129426 2.26947 9.67941e-14 6.46184e-14 -0.0212943 82.0057 0.00559157 
-0.617927 -4.70093e-14 -1.87817e-13 -0.111551 82.1607 0.00452713 -1.0868 1.67275e-13 8.2199e-14 
-0.245583 82.3961 0.00417797 -1.44728 4.9012e-14 -2.10617e-14 -0.420243 82.6936 0.00431455 
-1.71597 5.29854e-14 5.58295e-14 -0.637271 83.0412 0.00481025 -1.90324 -1.01911e-13 1.08333e-15 
-0.901874 83.4305 0.00556439 -2.01358 -8.0237e-14 1.05953e-14 -1.22185 83.8549 0.00648078 
-2.04536 7.37934e-14 2.81955e-14 -1.60668 84.3066 0.00743102 -1.99043 -6.82752e-14 2.12998e-14 
-2.0663 84.7743 0.00821828 -1.83338 1.39663e-14 -4.40056e-14 -2.60923 85.2393 0.00852767 
-1.55078 -7.50511e-14 -6.40521e-14 -3.23952 85.6706 0.00786921 -1.11072 -2.13354e-14 1.17872e-13 
-3.95193 86.0175 0.00552212 -0.473444 -6.89553e-14 -5.95982e-14 -4.7247 86.2017 0.000542258 
0.405362 -1.11196e-13 -5.28987e-14 -5.50992 86.1074 -0.00814278 1.56644 -1.51962e-14 1.99792e-13 
-6.22202 85.5751 -0.0212201 3.03049 -8.67917e-14 -1.5685e-13 -0.0242908 82.4902 0.00780409 
-0.549715 -3.20993e-14 -6.26294e-14 -0.132304 82.5352 0.00537721 -0.967708 -5.63048e-14 -2.01526e-13 
-0.29111 82.6769 0.00468822 -1.28455 2.07566e-13 1.23399e-13 -0.495496 82.8914 0.00452589 
-1.51152 1.36415e-13 -5.7662e-14 -0.744352 83.1614 0.00468809 -1.65519 2.22571e-13 1.4661e-13 
-1.03962 83.4735 0.00504144 -1.71736 -3.18508e-14 -8.53564e-14 -1.38516 83.8153 0.00545493 
-1.69479 2.55977e-13 -6.51129e-14 -1.78549 84.1731 0.00576461 -1.5789 -6.48301e-14 1.56741e-13 
-2.24418 84.5292 0.00574713 -1.35555 2.06102e-14 7.4764e-14 -2.76171 84.8586 0.00508952 
-1.00509 1.22943e-13 -6.62378e-14 -3.33232 85.1243 0.0033667 -0.503051 4.15015e-14 -8.34255e-14 
-3.93983 85.2729 4.26685e-05 0.177555 -1.42806e-13 4.01588e-15 -4.55211 85.2291 -0.00546203 
1.06145 -9.312e-14 3.53346e-14 -5.11509 84.8922 -0.0135927 2.16214 -1.51037e-13 -1.32661e-13 
-5.54772 84.1367 -0.0242621 3.46738 9.24434e-15 2.1691e-14 -0.0257868 82.9151 0.00940144 
-0.472491 -1.29174e-13 4.03063e-15 -0.144532 82.8616 0.00588892 -0.832674 1.21328e-13 -2.53326e-13 
-0.31803 82.9151 0.00492039 -1.10122 5.7507e-14 1.09565e-13 -0.539361 83.0478 0.00448361 
-1.28439 -2.99257e-14 -7.43158e-14 -0.804762 83.2387 0.00432478 -1.38528 -9.53711e-14 -7.88876e-14 
-1.113 83.4701 0.00429475 -1.40356 -4.7049e-14 2.05015e-13 -1.46414 83.7253 0.00424799 
-1.3351 -1.10716e-13 -5.42491e-14 -1.85811 83.9863 0.00401203 -1.1719 -9.20097e-14 1.15836e-15 
-2.29302 84.231 0.0033725 -0.902257 -2.19406e-13 4.6475e-14 -2.76304 84.4307 0.00206096 
-0.511357 -8.21582e-14 -1.75259e-14 -3.25574 84.5467 -0.000241971 0.0171696 -9.98125e-14 -1.22524e-14 
-3.74879 84.5277 -0.00387275 0.698293 1.576e-14 5.31242e-14 -4.20654 84.3068 -0.00909485 
1.54044 5.77403e-14 -6.31023e-14 -4.5771 83.8022 -0.0159249 2.53745 -6.99996e-14 -3.66755e-14 
-4.7918 82.9217 -0.0238618 3.65743 5.35396e-14 1.21882e-14 -0.0259531 83.2746 0.0104159 
-0.390795 1.66176e-13 -1.01764e-13 -0.149039 83.1357 0.00609519 -0.689542 9.20956e-14 -3.28513e-14 
-0.328101 83.1086 0.00491791 -0.907791 1.61942e-13 5.6601e-14 -0.554972 83.1633 0.00425142 
-1.04731 2.93895e-13 3.28904e-15 -0.823638 83.2764 0.00381246 -1.10823 2.67457e-13 2.66996e-14 
-1.13008 83.4273 0.0034514 -1.08858 1.3507e-13 -1.03186e-14 -1.47104 83.5963 0.00302537 
-0.983941 6.38786e-14 -7.81536e-14 -1.84265 83.7625 0.00237369 -0.787516 1.06032e-13 1.2874e-13 
-2.23883 83.9016 0.00131308 -0.490522 1.20071e-13 1.47559e-13 -2.64943 83.9836 -0.000361203 
-0.0831916 -7.67841e-14 -2.29893e-13 -3.05821 83.9712 -0.0028574 0.443377 2.02095e-16 -4.2473e-14 
-3.44067 83.8179 -0.00634204 1.09414 -1.02396e-13 8.8686e-14 -3.76227 83.4679 -0.010855 
1.86548 -1.06452e-13 -8.38739e-15 -3.97785 82.8583 -0.0161775 2.73878 2.16925e-13 -2.94556e-14 
-4.03359 81.9253 -0.0216639 3.67279 -2.08303e-13 4.62477e-15 -0.0250196 83.5665 0.0109094 
-0.3086 -1.48231e-13 -5.45388e-14 -0.146987 83.3562 0.00604224 -0.5452 -1.62161e-13 -6.45534e-14 
-0.323848 83.2576 0.00473001 -0.713391 -2.31244e-13 2.04943e-13 -0.54669 83.2402 0.00389045 
-0.811143 1.03049e-13 -1.81969e-13 -0.80778 83.2793 0.00322961 -0.836161 5.67207e-14 9.72963e-14 
-1.10086 83.3529 0.00260918 -0.785287 -1.01923e-13 1.74132e-14 -1.42007 83.4395 0.00190118 
-0.654213 -2.65991e-13 -1.16715e-13 -1.75869 83.5169 0.000969069 -0.437594 -9.35046e-14 4.98828e-14 
-2.10776 83.5601 -0.000329552 -0.129601 -9.66328e-15 8.45417e-15 -2.45466 83.5398 -0.00213404 
0.274964 -4.95467e-14 1.19453e-14 -2.78169 83.4218 -0.00455708 0.778806 2.69862e-14 2.4902e-14 
-3.06489 83.1662 -0.00764139 1.37936 1.17031e-13 -1.09654e-13 -3.27352 82.7285 -0.0112928 
2.06504 1.43997e-13 3.29372e-14 -3.37084 82.0624 -0.0151949 2.81061 7.68292e-14 1.57081e-13 
-3.31722 81.1267 -0.0187229 3.57245 -2.46882e-14 -1.98171e-13 -0.0232412 83.7914 0.0109607 
-0.229164 -1.69722e-13 -3.87667e-14 -0.139715 83.5238 0.00578158 -0.405333 8.18243e-14 -7.08799e-14 
-0.308166 83.3638 0.00440493 -0.525499 1.60148e-13 8.45296e-14 -0.519438 83.2817 0.00345298 
-0.584598 -6.33707e-14 4.60812e-14 -0.764655 83.2528 0.00263557 -0.578442 -1.42974e-13 -5.68174e-14 
-1.03596 83.2547 0.00183341 -0.503073 1.03093e-14 -2.57754e-14 -1.32566 83.2654 0.000940439 
-0.354501 8.20318e-14 8.49069e-14 -1.62511 83.2624 -0.00015034 -0.128842 9.55705e-14 -2.27179e-14 
-1.92371 83.2215 -0.00153971 0.177107 1.33001e-13 6.15038e-14 -2.20784 83.1154 -0.00331006 
0.564783 1.21901e-13 -1.76812e-14 -2.46004 82.9141 -0.00550224 1.03221 2.55395e-15 -9.01779e-14 
-2.65851 82.5844 -0.00808053 1.57171 -1.00307e-13 -4.99375e-14 -2.77744 82.0921 -0.0108866 
2.16715 -2.32131e-13 1.32805e-13 -2.78851 81.4051 -0.0135918 2.79084 -1.08648e-13 -7.56322e-14 
-2.66409 80.4986 -0.0156647 3.40101 1.91526e-14 3.75516e-14 -0.0208697 83.9526 0.0106555 
-0.154985 -7.23826e-14 -6.82301e-14 -0.12858 83.6412 0.00536504 -0.27433 -8.07614e-14 -7.18288e-14 
-0.284 83.4303 0.00398648 -0.349847 5.44638e-15 5.25274e-15 -0.478172 83.2919 0.00298045 
-0.374199 8.42539e-14 -3.95517e-15 -0.701639 83.2024 0.00207067 -0.341804 -1.05693e-13 1.42161e-14 
-0.945585 83.1398 0.0011607 -0.248203 -1.1294e-13 6.31439e-16 -1.20118 83.0827 0.000169122 
-0.0898048 5.07166e-14 7.1762e-14 -1.45877 83.0093 -0.000981284 0.135985 7.71655e-14 1.31084e-14 
-1.70707 82.8969 -0.00235433 0.430234 -1.90262e-13 -3.59322e-14 -1.93257 82.7213 -0.00398803 
0.791553 1.3461e-14 -7.52237e-14 -2.11908 82.4566 -0.00587512 1.21475 2.21286e-15 3.95829e-14 
-2.24777 82.0763 -0.00793784 1.68911 2.40983e-13 9.87526e-14 -2.29792 81.5551 -0.01 
2.19647 1.35068e-13 -3.07792e-14 -2.24865 80.8716 -0.0117656 2.70946 9.07027e-14 -8.63545e-14 
-2.08183 80.0128 -0.0128168 3.19035 -1.23145e-13 -3.58463e-14 -0.0181353 84.0547 0.010079 
-0.0878193 8.25874e-14 6.60288e-14 -0.114855 83.7122 0.00484082 -0.15532 -6.62706e-14 -1.08854e-15 
-0.254107 83.4608 0.00351195 -0.190495 -5.5805e-15 1.56307e-14 -0.427492 83.2752 0.00250327 
-0.184437 -3.03338e-15 -1.94294e-13 -0.625478 83.1333 0.00155865 -0.130623 9.39665e-14 2.75295e-13 
-0.838857 83.0145 0.000605213 -0.0243133 3.59455e-14 -1.03509e-13 -1.05832 82.8985 -0.000414343 
0.137689 -3.55026e-14 -1.04504e-13 -1.27387 82.7652 -0.00155035 0.35694 3.18144e-14 7.46365e-14 
-1.47434 82.5939 -0.0028367 0.632927 -1.48864e-13 -2.07768e-14 -1.64701 82.3635 -0.00427988 
0.962326 -4.09547e-14 -3.05493e-14 -1.77753 82.0526 -0.00584422 1.338 3.22991e-14 1.62257e-13 
-1.85025 81.6405 -0.00743549 1.74777 -6.31082e-14 1.57461e-14 -1.84916 81.1091 -0.00888643 
2.17327 -5.49704e-14 -6.5498e-14 -1.7595 80.445 -0.00995145 2.58901 2.37135e-14 -5.31328e-14 
-1.57026 79.6435 -0.0103191 2.96218 1.49887e-13 -1.14578e-14 -0.0152341 84.1039 0.00930979 
-0.0287585 5.64392e-15 -1.8598e-14 -0.0996554 83.7416 0.00425116 -0.0502886 -3.73102e-14 6.10241e-14 
-0.220904 83.4598 0.00301144 -0.0499949 -4.29714e-14 -9.94517e-14 -0.371415 83.2359 0.00204212 
-0.0180239 7.85879e-15 1.39215e-13 -0.54199 83.0502 0.00111039 0.0527076 1.57617e-14 -1.18447e-14 
-0.723506 82.8838 0.000165448 0.167054 -4.99903e-14 5.63343e-14 -0.906694 82.7182 -0.00082843 
0.327866 -2.07097e-14 -4.34808e-15 -1.08178 82.5353 -0.00189914 0.535941 -4.88854e-14 -1.85813e-13 
-1.23819 82.3169 -0.00305808 0.789703 -1.12685e-14 1.77656e-13 -1.36443 82.0449 -0.00429132 
1.08467 -5.32227e-14 1.61581e-14 -1.44822 81.702 -0.00554927 1.41276 -4.29398e-14 -9.12603e-14 
-1.47695 81.2725 -0.00673719 1.7615 -2.91493e-14 -6.25628e-14 -1.43864 80.744 -0.00770957 
2.11342 -1.01583e-14 5.70013e-14 -1.32335 80.1089 -0.00827361 2.44571 -1.34405e-13 2.88172e-14 
-1.12517 79.3677 -0.00820661 2.73064 9.80119e-15 3.03334e-14 -0.0123231 84.107 0.00841709 
0.0216706 2.8296e-14 1.21882e-14 -0.0839024 83.7348 0.00363125 0.0397537 -3.95592e-14 -8.25694e-14 
-0.186396 83.4317 0.00250815 0.0703721 -4.95006e-14 1.15345e-13 -0.31325 83.1782 0.00160987 
0.123804 -1.4882e-14 -4.71099e-14 -0.455919 82.9571 0.000727785 0.207377 1.88044e-13 7.21341e-14 
-0.605733 82.7517 -0.000169614 0.325934 -1.20333e-13 -1.19437e-13 -0.753859 82.5456 -0.00110005 
0.48205 4.15446e-14 5.13842e-14 -0.891115 82.3228 -0.00207384 0.676018 5.33714e-14 8.60857e-15 
-1.00786 82.0677 -0.0030866 0.905649 -6.1356e-14 2.79117e-14 -1.09404 81.7653 -0.00411257 
1.16592 -9.8239e-15 -8.64413e-14 -1.13941 81.4019 -0.00509791 1.44853 -7.99979e-15 2.7419e-14 
-1.13407 80.9658 -0.00595607 1.7415 -1.33966e-13 -5.98393e-14 -1.06935 80.4489 -0.00656744 
2.02888 4.24318e-14 3.09874e-14 -0.938968 79.8479 -0.00678664 2.29086 4.99557e-15 7.87478e-14 
-0.740515 79.1664 -0.00645997 2.50439 -4.68115e-14 3.89654e-14 -0.00952024 84.0711 0.0074587 
0.0633939 -1.1955e-13 1.45509e-14 -0.0683151 83.6974 0.00300902 0.114583 -1.75937e-14 -1.67791e-14 
-0.152152 83.3811 0.00201908 0.170348 2.05184e-13 -1.49143e-14 -0.255586 83.1061 0.00121345 
0.240973 -3.82717e-14 -2.17638e-14 -0.370938 82.8576 0.000407088 0.333773 -8.82921e-14 5.75755e-14 
-0.490259 82.6213 -0.000415722 0.453492 -1.92976e-14 -1.6518e-14 -0.605425 82.3831 -0.00125852 
0.602491 8.11156e-14 -3.56147e-14 -0.708099 82.1293 -0.00211867 0.780777 -1.50382e-13 3.92802e-14 
-0.789747 81.8467 -0.00298149 0.985897 1.89168e-14 5.06938e-14 -0.841782 81.5233 -0.00381549 
1.21274 -5.77766e-15 -9.1086e-14 -0.855867 81.1482 -0.00456846 1.45332 2.50875e-13 5.73656e-14 
-0.82443 80.7133 -0.00516582 1.69657 9.66232e-14 4.99288e-14 -0.74141 80.2136 -0.00551309 
1.9284 -3.27607e-14 -1.72466e-14 -0.603203 79.6486 -0.00550418 2.13194 -9.64289e-15 -1.59074e-14 
-0.409736 79.0237 -0.00503656 2.28834 2.48196e-14 -4.88897e-14 -0.00690746 84.0032 0.00648091 
0.0966778 4.03432e-14 1.40049e-13 -0.0534209 83.6348 0.0024055 0.174579 2.56841e-14 -2.32887e-14 
-0.119331 83.3125 0.00155603 0.250454 -1.78711e-14 -4.21885e-14 -0.200327 83.023 0.000855717 
0.334273 7.71555e-14 4.04191e-15 -0.289726 82.7545 0.000141532 0.433147 9.47566e-14 -3.17073e-14 
-0.380469 82.4948 -0.000589956 0.551649 1.55143e-14 7.06631e-14 -0.465314 82.2321 -0.00133181 
0.691978 1.6499e-14 -8.0826e-14 -0.536905 81.9551 -0.0020724 0.854019 1.28858e-13 -1.7911e-15 
-0.587882 81.653 -0.00279094 1.03532 -9.3959e-14 1.12414e-13 -0.611081 81.316 -0.00345434 
1.23099 -3.40368e-14 -6.23347e-14 -0.59986 80.9362 -0.00401504 1.43365 -1.22399e-13 6.27146e-14 
-0.548571 80.5078 -0.00441129 1.63345 -2.56618e-14 -5.62684e-14 -0.453177 80.0284 -0.00457063 
1.81819 -4.08987e-14 -2.66566e-14 -0.31198 79.4992 -0.0044178 1.97375 1.54742e-14 -2.89222e-14 
-0.126387 78.9266 -0.00388695 2.08486 -4.46912e-14 5.96866e-14 -0.00453556 83.9102 0.00551917 
0.122029 3.64118e-15 -5.5179e-14 -0.0395776 83.5525 0.00183561 0.220546 2.94318e-15 3.73347e-14 
-0.0887288 83.23 0.00112657 0.311762 -8.34929e-14 1.61902e-14 -0.148778 82.9324 0.000536758 
0.405102 -3.82136e-14 -4.92254e-14 -0.214099 82.6502 -7.68017e-05 0.507325 -1.26853e-14 -2.86125e-14 
-0.278609 82.3738 -0.000708584 0.622781 -7.77969e-15 3.29207e-14 -0.33604 82.0934 -0.00134441 
0.753547 -1.46457e-13 -1.14865e-14 -0.380072 81.7999 -0.00196689 0.8995 -7.93091e-14 5.30799e-14 
-0.404507 81.4846 -0.00255222 1.05835 -3.7729e-14 -9.3656e-14 -0.4035 81.1402 -0.00306815 
1.22564 -6.11056e-16 3.97841e-14 -0.371877 80.7607 -0.0034731 1.39479 1.25958e-13 5.07597e-14 
-0.30555 80.3424 -0.00371729 1.5572 -1.45678e-14 -4.59138e-14 -0.202015 79.8847 -0.00374645 
1.70252 7.65607e-14 8.68576e-14 -0.0608959 79.3899 -0.00350859 1.81911 -1.00285e-13 -9.72339e-14 
0.115521 78.8649 -0.00296341 1.89469 6.51389e-16 4.66693e-14 -0.00243024 83.7984 0.00459925 
0.140107 5.91307e-14 -1.14554e-13 -0.0270009 83.4554 0.0013091 0.253576 -8.01408e-14 7.02624e-14 
-0.0608313 83.1374 0.000734954 0.355713 5.90734e-14 1.01134e-15 -0.101741 82.8369 0.000255024 
0.455242 -1.36371e-13 -5.51148e-14 -0.145155 82.5467 -0.000255797 0.558475 4.82166e-15 -1.31145e-14 
-0.185998 82.2593 -0.000785885 0.669499 -8.89098e-14 5.3302e-14 -0.218995 81.967 -0.00131652 
0.790285 3.8782e-14 -3.01981e-14 -0.238862 81.6626 -0.00182705 0.920777 4.27047e-14 4.23238e-14 
-0.240504 81.3396 -0.00229277 1.05895 2.84155e-14 -2.98173e-14 -0.219264 80.9923 -0.00268367 
1.20088 4.86424e-14 3.43935e-14 -0.171214 80.6168 -0.00296431 1.34086 -1.49225e-14 -1.09138e-13 
-0.0935093 80.2109 -0.00309534 1.47153 5.47438e-14 6.97463e-14 0.0152119 79.775 -0.00303687 
1.58426 4.97952e-15 -5.43498e-14 0.154432 79.3125 -0.00275394 1.66952 8.14132e-14 4.98594e-14 
0.321393 78.83 -0.00222359 1.71756 7.97405e-14 -3.83296e-14 -0.000597874 83.6736 0.00373874 
0.151654 8.1957e-15 -2.35671e-14 -0.0157936 83.3481 0.000831519 0.274917 5.53286e-14 4.50568e-14 
-0.0358818 83.0384 0.000382991 0.383951 4.59827e-14 -4.47689e-14 -0.059615 82.7393 8.05198e-06 
0.486691 5.86241e-14 1.644e-14 -0.083428 82.4457 -0.000402619 0.588934 6.64666e-14 -1.6518e-14 
-0.103229 82.152 -0.000833665 0.694476 -1.30106e-13 2.28741e-14 -0.114716 81.8526 -0.00126395 
0.805194 3.44685e-14 1.19965e-14 -0.113594 81.5421 -0.00167144 0.921132 7.6019e-14 -6.59889e-15 
-0.0957884 81.2155 -0.00203187 1.04058 -1.62414e-14 -1.74548e-14 -0.0576851 80.8689 -0.00231816 
1.16019 1.70942e-14 -9.98941e-15 0.00360007 80.4998 -0.00250061 1.2751 7.68894e-15 -7.68049e-15 
0.0899257 80.1074 -0.00254849 1.37916 3.41517e-14 3.53051e-14 0.201816 79.693 -0.00243293 
1.46523 -1.92836e-14 3.83998e-14 0.33817 79.2602 -0.00213118 1.5256 -1.56276e-13 -8.62071e-14 
0.496028 78.8154 -0.00163168 1.55258 1.96219e-14 9.42068e-14 0.000969175 83.5411 0.0029486 
0.157442 2.53916e-14 3.04782e-14 -0.00597321 83.2348 0.000405163 0.285885 -1.24826e-14 -2.71155e-14 
-0.0139368 82.936 7.06623e-05 0.398211 3.61386e-15 1.04331e-13 -0.0224967 82.6416 -0.000207032 
0.501522 -3.5827e-14 -5.18145e-14 -0.0290248 82.3483 -0.000523412 0.601069 -2.24874e-15 5.96311e-15 
-0.0303576 82.0524 -0.000861228 0.700338 -7.95127e-14 -2.0246e-14 -0.0231133 81.7498 -0.00119854 
0.801107 7.76156e-14 5.87291e-15 -0.00391413 81.4367 -0.00151322 0.903533 -7.59898e-14 1.57339e-15 
0.0303953 81.1098 -0.00178235 1.00623 3.31141e-14 5.89286e-15 0.0825215 80.7666 -0.00198192 
1.10642 4.3188e-14 3.18487e-14 0.154484 80.4057 -0.00208731 1.20004 -7.09528e-14 -5.82e-15 
0.247368 80.0272 -0.0020747 1.28201 6.2076e-14 -4.67074e-15 0.361088 79.6331 -0.00192349 
1.34653 5.46282e-14 -2.10058e-14 0.494177 79.2272 -0.00161941 1.3874 3.22407e-14 1.72865e-14 
0.643641 78.8156 -0.00115821 1.39859 -4.07933e-14 -3.78673e-14 0.00228795 83.4055 0.0022346 
0.15823 -1.35573e-14 4.08805e-14 0.00250355 83.1191 2.9907e-05 0.28779 -6.43678e-14 -6.81313e-15 
0.005081 82.8331 -0.000203298 0.40022 1.04538e-13 2.07109e-14 0.00973749 82.5459 -0.000393197 
0.501788 8.2791e-14 3.81925e-14 0.0182537 82.2558 -0.00062322 0.597187 -2.18524e-14 -3.60528e-14 
0.0329405 81.9606 -0.00087559 0.689579 3.50343e-14 -4.65149e-14 0.0563355 81.6579 -0.0011287 
0.780641 -7.20393e-15 -1.10797e-14 0.0909833 81.3452 -0.00136125 0.870631 4.5404e-14 3.67527e-14 
0.139225 81.0204 -0.00155209 0.958479 1.08131e-13 -5.58234e-15 0.202989 80.6823 -0.00168023 
1.04191 -1.10692e-13 6.88113e-14 0.28358 80.3305 -0.00172536 1.11762 -1.15651e-13 -4.94743e-14 
0.381483 79.9658 -0.00166911 1.18147 -7.48551e-14 2.52636e-14 0.496169 79.5907 -0.00149689 
1.22877 1.45131e-14 -4.79217e-15 0.625955 79.209 -0.00120026 1.25462 1.7872e-14 -4.55903e-14 
0.767915 78.8264 -0.000779429 1.2543 -3.18148e-15 4.04746e-14 0.00338121 83.2707 0.00159861 
0.154739 3.7562e-14 -1.88426e-14 0.00972032 83.0045 -0.000296074 0.281888 -9.9005e-15 -4.20107e-14 
0.021339 82.7322 -0.000440976 0.39164 4.42211e-14 8.48653e-14 0.0373586 82.4538 -0.000553326 
0.489454 8.99888e-15 -3.40743e-14 0.0588107 82.169 -0.000706059 0.579469 -8.46382e-15 -2.59931e-14 
0.0872412 81.8769 -0.000881827 0.664522 7.43568e-15 1.97915e-14 0.12443 81.5763 -0.00106013 
0.746175 2.71602e-14 2.10361e-14 0.17218 81.2661 -0.00122102 0.82477 1.53818e-14 -2.96161e-14 
0.232121 80.9452 -0.00134537 0.899515 -1.08536e-13 5.28076e-14 0.305519 80.6134 -0.00141495 
0.968604 4.40403e-16 -5.24927e-15 0.393098 80.271 -0.00141304 1.02937 4.69394e-15 1.88252e-14 
0.494866 79.9197 -0.00132547 1.0785 6.06973e-14 -6.026e-14 0.609983 79.5619 -0.00114199 
1.11225 -5.05806e-14 2.77998e-14 0.736646 79.2017 -0.000858028 1.12677 -2.97763e-14 -2.47935e-14 
0.872051 78.8444 -0.000476372 1.11839 -4.51536e-14 -2.21221e-14 0.00427451 83.1402 0.00103979 
0.147636 -4.17669e-14 -1.82736e-14 0.0157845 82.8935 -0.00057571 0.269349 1.22422e-14 -1.43678e-14 
0.0350587 82.6354 -0.000644942 0.374024 -1.33439e-14 -2.96551e-15 0.0607272 82.3667 -0.000690109 
0.466352 -6.00507e-14 -7.42635e-15 0.0931719 82.0886 -0.000775046 0.549934 1.57961e-14 -3.23595e-14 
0.133267 81.8012 -0.000883451 0.627286 -3.75068e-14 2.06068e-14 0.182124 81.5044 -0.000996388 
0.699843 -6.90905e-14 9.33108e-15 0.240898 81.1981 -0.00109558 0.768005 -3.32601e-15 4.48764e-14 
0.310606 80.8822 -0.00116392 0.831218 -6.89867e-15 -3.40466e-14 0.391957 80.5573 -0.00118568 
0.888078 2.01227e-14 -3.24072e-14 0.485196 80.2245 -0.00114707 0.936478 -3.00373e-14 1.47486e-14 
0.589966 79.8856 -0.0010371 0.973784 -8.48837e-14 1.04777e-15 0.705197 79.5436 -0.000848618 
0.997052 2.96395e-14 2.20822e-14 0.829037 79.2023 -0.000579553 1.00327 -5.1124e-14 4.04624e-16 
0.958825 78.8667 -0.00023403 0.989627 -1.10049e-14 1.07908e-14 0.00499403 83.017 0.000555439 
0.137521 -4.63882e-14 -7.18176e-15 0.0208145 82.7888 -0.000812556 0.251242 -1.23423e-14 8.01963e-15 
0.0464881 82.5444 -0.000817987 0.348795 -4.02653e-14 -4.79851e-14 0.0802478 82.286 -0.000805996 
0.434158 3.6792e-14 3.50371e-14 0.121923 82.0153 -0.00083256 0.510422 -1.18373e-14 -4.19543e-15 
0.171807 81.7335 -0.000882772 0.579785 7.46714e-14 -1.85815e-14 0.230436 81.4415 -0.000939489 
0.643545 4.86763e-15 2.0599e-14 0.298406 81.14 -0.000986212 0.702135 -2.57063e-14 1.80871e-14 
0.376211 80.8298 -0.00100779 0.755191 2.01982e-14 -9.30419e-15 0.464096 80.512 -0.000990662 
0.801649 4.80562e-15 -4.86364e-14 0.561916 80.1883 -0.00092342 0.839868 -2.97711e-14 5.05906e-14 
0.66903 79.861 -0.000797461 0.867788 1.91893e-15 -1.47131e-14 0.784206 79.533 -0.000607809 
0.883115 -4.08579e-14 6.09408e-15 0.905576 79.2082 -0.000353952 0.883522 3.45047e-14 -2.69971e-14 
1.03063 78.8912 -4.05793e-05 0.866874 -2.83113e-14 1.00718e-14 0.0055651 82.9033 0.000141797 
0.124929 2.29738e-14 2.84482e-14 0.0249302 82.6921 -0.00101043 0.228522 -2.09143e-15 -2.84087e-14 
0.0558808 82.4609 -0.000962936 0.317234 2.38256e-14 1.41558e-14 0.096335 82.2125 -0.000903175 
0.394384 -7.22057e-15 1.09179e-14 0.14566 81.9495 -0.000880389 0.462586 -7.92975e-15 9.51322e-15 
0.20366 81.6739 -0.000881212 0.523728 -1.19808e-13 -3.63988e-14 0.270378 81.3872 -0.000890344 
0.578962 -1.51064e-14 -5.75668e-15 0.345938 81.091 -0.000893041 0.628726 4.38282e-14 2.94435e-14 
0.430397 80.7866 -0.000875951 0.672806 -8.12192e-14 -2.29252e-14 0.523614 80.4758 -0.000827384 
0.710411 -5.58497e-14 8.12891e-15 0.625131 80.1606 -0.000737821 0.740288 1.95731e-15 -1.39385e-14 
0.734082 79.8436 -0.000600459 0.760849 -5.57285e-14 1.19566e-15 0.849122 79.528 -0.000411818 
0.770328 -5.56063e-14 -1.86687e-14 0.968391 79.2174 -0.000172317 0.766948 6.02903e-15 1.35027e-14 
1.08952 78.9162 0.000113256 0.749102 -5.97005e-15 1.53063e-14 0.00601109 82.8013 -0.000205409 
0.110328 2.0756e-15 2.97548e-14 0.0282461 82.6054 -0.00117312 0.202037 -1.51071e-14 -2.29205e-14 
0.0634808 82.3862 -0.0010825 0.28048 -9.61995e-14 -2.61466e-15 0.109389 82.1472 -0.000983563 
0.348379 2.67518e-14 1.09075e-14 0.164958 81.8917 -0.000919864 0.407899 -2.00069e-14 -4.47645e-15 
0.229586 81.6222 -0.000879565 0.460632 1.38083e-14 2.66861e-14 0.302907 81.341 -0.000849133 
0.507573 3.04593e-14 -1.26375e-15 0.384651 81.05 -0.000815464 0.549144 1.01328e-14 -1.83048e-14 
0.474513 80.7513 -0.000766805 0.585238 9.47297e-15 7.44977e-15 0.572037 80.4471 -0.000693035 
0.615284 1.36926e-14 7.24681e-16 0.676515 80.1396 -0.000586135 0.63834 3.58546e-14 -2.71844e-14 
0.786906 79.8318 -0.000440641 0.653205 2.35179e-14 3.71179e-14 0.901784 79.5267 -0.000254092 
0.658538 -4.78809e-14 -1.50956e-14 1.01931 79.2281 -2.74287e-05 0.653001 -3.11535e-15 1.31644e-14 
1.13724 78.9401 0.000234723 0.635402 -2.14846e-15 -2.31347e-14 0.00635278 82.7126 -0.000490519 
0.0941255 -1.8606e-14 1.30273e-14 0.0308665 82.5298 -0.0013042 0.17253 2.90837e-14 -1.27936e-15 
0.0695116 82.3213 -0.00117916 0.239542 9.50368e-15 9.37488e-15 0.119776 82.0909 -0.00104882 
0.297338 8.6155e-15 2.32895e-14 0.180343 81.8423 -0.00095197 0.347669 -2.49605e-14 -4.7678e-14 
0.250282 81.5785 -0.000878209 0.391837 -1.67411e-14 2.78072e-14 0.328892 81.3024 -0.000815594 
0.43068 -1.17897e-14 -8.77423e-15 0.415584 81.0165 -0.000752485 0.46458 9.73526e-15 -4.34986e-14 
0.509759 80.723 -0.000678498 0.493501 -5.17029e-15 4.4245e-14 0.610709 80.4246 -0.000584804 
0.517044 3.35931e-14 -1.17011e-14 0.717527 80.124 -0.000464557 0.534518 2.77122e-14 5.57974e-15 
0.82904 79.8239 -0.000313276 0.545029 1.76665e-14 1.1571e-14 0.943761 79.5278 -0.00012919 
0.547582 8.57268e-15 7.7347e-15 1.05988 79.2392 8.65001e-05 0.541187 -4.69102e-15 -1.38184e-14 
1.17525 78.9621 0.000329451 0.524974 -6.54555e-15 2.24413e-14 0.006608 82.6383 -0.00071761 
0.0766741 -1.02459e-14 -1.66889e-14 0.0328828 82.4666 -0.00140685 0.140652 -1.92585e-14 5.89598e-14 
0.0741695 82.2671 -0.00125512 0.195309 3.87993e-15 -3.61135e-14 0.127819 82.044 -0.00110032 
0.242321 -1.08541e-14 7.71952e-17 0.192278 81.8014 -0.000977428 0.283054 -8.61138e-15 5.13695e-15 
0.266356 81.5428 -0.000877255 0.318534 3.5319e-15 1.14774e-14 0.349091 81.2713 -0.000789236 
0.349433 2.35592e-15 -2.80852e-15 0.439638 80.9898 -0.000702962 0.37608 1.71228e-14 -1.30278e-14 
0.537169 80.7009 -0.000609182 0.398479 -8.16602e-15 -1.21444e-14 0.640778 80.4076 -0.000500095 
0.416362 -1.56187e-14 1.43397e-14 0.749404 80.1126 -0.000369754 0.429235 3.76256e-15 -1.75342e-14 
0.861774 79.819 -0.000214391 0.436454 7.39534e-15 2.62364e-14 0.976361 79.5302 -3.26899e-05 
0.4373 -3.40915e-14 -7.96628e-15 1.09137 79.2496 0.000174038 0.431061 -1.52394e-14 2.03353e-15 
1.20476 78.9811 0.000401763 0.417117 -1.58186e-14 8.2729e-15 0.00679135 82.5796 -0.00089027 
0.0582804 -1.13375e-14 1.01338e-14 0.034371 82.4166 -0.00148378 0.106976 -3.90516e-14 -4.11607e-15 
0.0776189 82.2242 -0.00131223 0.148565 -5.55142e-14 2.16138e-14 0.133788 82.0071 -0.00113921 
0.184268 1.91512e-14 -2.75734e-15 0.201151 81.7694 -0.000996758 0.215087 -1.82808e-14 1.16647e-14 
0.27832 81.5151 -0.000876674 0.241781 8.22096e-16 -3.69171e-14 0.364135 81.2474 -0.000769491 
0.264857 -1.79958e-14 2.87209e-14 0.457561 80.9695 -0.00066578 0.284571 -5.35779e-14 1.63263e-14 
0.557596 80.6844 -0.000557175 0.30095 9.13331e-15 -3.59044e-15 0.663186 80.395 -0.000436658 
0.313819 1.57998e-14 -8.21739e-15 0.773156 80.1045 -0.000298942 0.322844 1.17423e-14 -1.73785e-14 
0.886158 79.816 -0.000140765 0.327582 -7.15194e-16 2.3293e-15 1.00064 79.5328 3.8897e-05 
0.327538 3.68392e-14 6.37511e-15 1.11482 79.2584 0.000238706 0.322223 -9.5747e-15 6.00214e-15 
1.22674 78.9965 0.000454919 0.311216 -9.15945e-15 2.82326e-16 0.00691423 82.5372 -0.00101143 
0.039213 1.04928e-14 -1.47872e-14 0.0353909 82.3804 -0.00153715 0.0720094 1.41051e-14 2.84547e-14 
0.0799893 82.1933 -0.00135196 0.100014 2.68685e-14 1.01377e-14 0.137898 81.9805 -0.00116637 
0.124025 -1.91817e-15 2.14867e-14 0.207268 81.7465 -0.00101033 0.144697 -5.58836e-15 -1.27121e-14 
0.286576 81.4952 -0.000876368 0.162532 1.20495e-14 1.33313e-15 0.374523 81.2304 -0.000755822 
0.17787 2.63818e-14 3.81422e-15 0.469942 80.9552 -0.00063997 0.190887 2.24655e-14 -1.04452e-14 
0.571709 80.6728 -0.000521079 0.20161 -3.5694e-15 -1.08533e-14 0.678667 80.3865 -0.000392678 
0.209935 8.89355e-15 3.03793e-15 0.789564 80.0993 -0.000249936 0.215657 -1.08613e-14 9.34279e-15 
0.903002 79.8144 -8.99236e-05 0.2185 -1.45732e-14 -6.89336e-15 1.01741 79.5352 8.82032e-05 
0.218155 -3.85656e-15 1.96718e-15 1.13102 79.2651 0.000283114 0.214315 9.54407e-15 -1.47066e-14 
1.24192 79.0078 0.000491292 0.206722 -1.37929e-14 2.78948e-14 0.00698472 82.5115 -0.00108324 
0.0197124 -9.53827e-16 -1.29163e-14 0.0359856 82.3586 -0.00156854 0.0362089 -2.01001e-14 8.93296e-15 
0.0813741 82.1746 -0.00137536 0.0502941 -1.03334e-14 -3.84285e-15 0.140302 81.9644 -0.00118241 
0.0623611 -5.55505e-15 -1.677e-14 0.210849 81.7327 -0.00101837 0.0727347 -3.9684e-15 -1.73472e-15 
0.291413 81.4833 -0.000876236 0.0816645 -1.14448e-14 1.13759e-14 0.380612 81.2202 -0.000747804 
0.0893199 -4.57743e-15 6.20727e-15 0.477201 80.9467 -0.000624794 0.0957909 -1.04781e-14 1.7087e-16 
0.579985 80.6661 -0.000499849 0.101094 2.55864e-15 1.05762e-14 0.687747 80.3815 -0.000366827 
0.105181 -1.07177e-15 -1.2304e-14 0.799187 80.0963 -0.000221163 0.107955 1.82307e-14 4.1191e-15 
0.912879 79.8135 -6.01141e-05 0.109283 4.88403e-15 2.8675e-15 1.02724 79.5367 0.000117065 
0.109017 1.81981e-15 -1.0365e-15 1.14052 79.2693 0.000309059 0.10701 7.15844e-16 -2.68405e-15 
1.25082 79.0147 0.000512494 0.103138 -3.50333e-15 1.40131e-14 -0.0157417 81.187 -0.000526429 
-0.684037 -1.18565e-13 -2.14722e-13 -0.00808642 81.3599 -0.00275765 -0.347708 1.37002e-13 1.58189e-14 
-0.0659851 81.5232 0.000986396 -1.20822 1.12344e-13 -1.283e-13 -0.0536861 81.5989 0.000146643 
-0.927334 -1.44731e-13 -9.79789e-14 -0.143755 81.9031 0.000960261 -1.61879 9.19577e-15 1.54526e-13 
-0.13544 81.9041 0.000401698 -1.37922 9.08093e-14 -6.99978e-14 -0.249447 82.3202 0.000976898 
-1.93979 5.55736e-14 1.32273e-13 -0.250307 82.2607 0.000636299 -1.72959 1.16806e-13 2.01847e-13 
-0.388779 82.7722 0.00108522 -2.18749 7.03168e-14 -5.28154e-14 -0.400513 82.6605 0.000937254 
-1.99639 -6.30277e-14 -5.25101e-14 -0.571186 83.2602 0.00126091 -2.37118 -1.24071e-13 1.00649e-14 
-0.592282 83.1 0.00132695 -2.19059 -1.41645e-13 2.13839e-14 -0.809517 83.7873 0.0014734 
-2.49327 -1.28376e-13 -9.67559e-14 -0.835275 83.5781 0.00181759 -2.31645 2.2397e-14 -1.49984e-13 
-1.11997 84.3567 0.00168196 -2.54884 -2.32273e-13 1.83638e-14 -1.14213 84.0948 0.00242623 
-2.37123 -4.30871e-14 -9.17946e-14 -1.52192 84.9699 0.00182009 -2.52429 -6.68285e-14 2.66887e-14 
-1.52798 84.6487 0.00316828 -2.34442 -3.34316e-14 2.6544e-13 -2.03729 85.6235 0.00177344 
-2.39532 -1.78954e-14 3.29545e-14 -2.00949 85.2344 0.00404968 -2.21626 -6.28664e-14 -1.88311e-13 
-2.68872 86.3039 0.00134807 -2.12418 -2.9142e-13 -3.03457e-14 -2.6031 85.8379 0.00505208 
-1.95598 -2.30427e-13 5.28809e-14 -3.49561 86.9792 0.000228568 -1.6566 3.77476e-14 1.76161e-13 
-3.3215 86.4303 0.00611023 -1.51987 8.28504e-14 5.78357e-14 -4.46639 87.586 -0.00206882 
-0.919778 2.08569e-13 -2.12854e-13 -4.16735 86.9573 0.00707064 -0.850431 1.63453e-13 -1.18239e-14 
-5.58479 88.0105 -0.0061581 0.175898 -3.2474e-15 -3.9628e-14 -5.12292 87.3257 0.00766247 
0.121354 1.69031e-14 -1.06123e-13 -6.78854 88.0631 -0.0129361 1.72568 -1.9644e-13 6.2797e-14 
-6.1352 87.3855 0.00740963 1.46667 -2.18214e-13 -1.385e-14 -7.09578 86.9123 0.00589589 
3.23627 -1.08691e-13 1.49769e-13 -0.0220539 81.7394 0.00166466 -0.639369 2.09902e-14 -1.34377e-13 
-0.0121677 81.9623 0.000371708 -0.319305 7.82707e-15 1.92667e-13 -0.100609 81.9537 0.00162336 
-1.12974 -2.89612e-13 -6.97116e-14 -0.0730168 82.0692 0.000402517 -0.85304 -8.80788e-14 -1.87502e-13 
-0.218402 82.237 0.00136283 -1.50926 -9.66588e-15 1.53436e-14 -0.183859 82.268 0.00047554 
-1.26692 -2.27561e-14 5.01335e-15 -0.373642 82.5745 0.0012316 -1.79705 -1.84798e-13 1.43809e-13 
-0.337389 82.5366 0.000698625 -1.58102 4.73302e-14 3.36823e-14 -0.569376 82.9575 0.00120086 
-2.00548 -1.99466e-15 4.54879e-14 -0.532862 82.8603 0.000989978 -1.80872 -7.91572e-14 5.71539e-14 
-0.812324 83.3806 0.00122879 -2.1406 -9.68409e-14 -1.08316e-14 -0.773554 83.2294 0.00135896 
-1.95748 -1.1436e-13 -1.44156e-15 -1.11212 83.8404 0.00126901 -2.20197 2.21939e-13 -9.59476e-14 
-1.06582 83.6367 0.00180475 -2.02879 7.92005e-14 5.23843e-14 -1.48062 84.3326 0.00126404 
-2.18224 2.05107e-13 8.49702e-14 -1.41811 84.0753 0.00232836 -2.0178 -7.2992e-14 -1.08605e-13 
-1.93095 84.8502 0.00113127 -2.06618 8.83391e-14 -3.97733e-14 -1.83991 84.5364 0.00292353 
-1.91284 -3.51698e-14 6.20195e-14 -2.4759 85.3792 0.000746736 -1.8295 -4.85167e-14 -4.52346e-14 
-2.34011 85.0058 0.00356846 -1.69462 1.29907e-13 -9.01753e-14 -3.12507 85.8938 -7.42082e-05 
-1.43762 4.5644e-14 2.27769e-15 -2.92453 85.4595 0.00421256 -1.33559 4.27366e-14 4.2244e-14 
-3.87996 86.3488 -0.00159027 -0.84527 2.68674e-14 1.52035e-13 -3.59193 85.8585 0.00476015 
-0.800038 -2.26694e-14 -2.651e-14 -4.72624 86.6694 -0.0041407 0.00170904 1.19169e-13 -2.22308e-13 
-4.32807 86.1399 0.00504673 -0.0459145 -2.0163e-13 5.84845e-14 -5.62229 86.7384 -0.00805193 
1.15966 1.22874e-13 1.04743e-13 -5.09734 86.2089 0.00483405 0.969572 -8.93244e-14 -5.77385e-14 
-6.48479 86.3841 -0.013523 2.67137 3.19911e-13 1.39194e-14 -5.83281 85.929 0.00379625 
2.27795 2.00479e-13 1.27731e-13 -6.42674 85.1188 0.00166715 3.87773 -2.85397e-13 -9.2204e-14 
-0.0265488 82.2486 0.0035085 -0.578583 2.33136e-13 -1.43898e-13 -0.0151652 82.5077 0.00307355 
-0.283748 -1.82267e-13 1.20915e-13 -0.12635 82.3485 0.00212413 -1.02293 -2.32515e-13 -7.36655e-14 
-0.0865962 82.4952 0.000602557 -0.759615 2.39586e-13 -3.14046e-13 -0.273933 82.5366 0.00166235 
-1.36231 4.27516e-13 7.63447e-14 -0.217914 82.5933 0.000509271 -1.12649 1.07279e-13 3.14634e-13 
-0.465388 82.792 0.00139612 -1.61056 3.51455e-15 -4.20323e-15 -0.398298 82.7745 0.000703566 
-1.3981 2.23816e-13 -2.26842e-13 -0.700879 83.0999 0.00123059 -1.77617 2.10709e-13 8.52729e-14 
-0.624164 83.0189 0.000962766 -1.58333 -9.27019e-14 2.15272e-13 -0.983922 83.4494 0.00111231 
-1.86225 6.68111e-14 -6.89501e-14 -0.895685 83.3116 0.00128392 -1.68639 7.35813e-14 -1.49459e-13 
-1.32029 83.8312 0.000985517 -1.86635 -1.35884e-13 -1.02553e-14 -1.21559 83.64 0.00165563 
-1.7066 4.17106e-14 -2.4912e-14 -1.71685 84.2344 0.000784877 -1.78005 -1.30264e-13 1.15525e-13 
-1.58788 83.9917 0.00206657 -1.6381 -1.84922e-14 8.50158e-14 -2.18015 84.6448 0.000424883 
-1.58856 -2.69097e-13 -2.62637e-14 -2.01635 84.3515 0.00249575 -1.46961 1.16018e-14 5.50272e-14 
-2.71425 85.0406 -0.000209223 -1.27031 7.76497e-14 -6.99631e-14 -2.50274 84.6987 0.00290594 
-1.18427 5.26662e-15 -1.85508e-13 -3.31758 85.388 -0.00126816 -0.797162 1.13409e-13 7.137e-14 
-3.04402 85.0033 0.00323458 -0.760085 -2.33143e-13 2.48593e-13 -3.97827 85.6355 -0.00293384 
-0.135946 9.46743e-14 -6.00353e-14 -3.62881 85.2211 0.00338485 -0.171289 -1.89015e-14 -9.45147e-14 
-4.66781 85.707 -0.00539293 0.747411 -1.84942e-13 -3.85872e-14 -4.23252 85.2889 0.00322008 
0.608146 7.74589e-14 -8.27394e-14 -5.33325 85.4951 -0.00875494 1.87919 1.79315e-13 1.09843e-14 
-4.81185 85.1196 0.00257228 1.59776 1.01051e-13 -2.56392e-14 -5.88962 84.858 -0.0129143 
3.26233 -3.29535e-13 -6.43097e-14 -5.29956 84.5994 0.00127526 2.79899 -7.27265e-14 -1.37418e-13 
-5.60248 83.5931 -0.000754309 4.17779 1.40415e-13 1.35641e-13 -0.0292418 82.703 0.00496126 
-0.50647 -1.86198e-13 -5.85226e-14 -0.0170987 82.9854 0.00530817 -0.243576 5.46396e-13 1.46751e-13 
-0.143133 82.6987 0.00247063 -0.896113 1.90212e-13 -2.38378e-13 -0.0945908 82.8686 0.000748911 
-0.653654 -2.32842e-13 -1.1403e-13 -0.310188 82.7961 0.00185249 -1.18925 1.74669e-13 8.84245e-14 
-0.238026 82.8742 0.000509925 -0.967716 -8.08208e-15 5.6977e-15 -0.524647 82.9691 0.00147533 
-1.39454 -1.48133e-13 -7.57172e-14 -0.43393 82.9711 0.000664801 -1.19346 -1.69227e-13 -1.40588e-13 
-0.783871 83.1989 0.00119332 -1.51682 2.52977e-14 8.84661e-14 -0.676227 83.1358 0.000877672 
-1.33554 1.87472e-13 8.90486e-14 -1.0881 83.4697 0.000947636 -1.55678 2.14339e-13 4.01658e-14 
-0.962157 83.3494 0.00113594 -1.39539 -5.04377e-14 7.16545e-14 -1.43915 83.7672 0.000679883 
-1.51074 1.38006e-13 -5.30223e-14 -1.29096 83.5951 0.0014209 -1.37079 3.45991e-14 1.36349e-14 
-1.83905 84.0756 0.000325349 -1.37039 -1.73854e-14 9.03565e-14 -1.66245 83.8561 0.00171354 
-1.25573 5.14554e-14 -5.59674e-14 -2.28832 84.3752 -0.000193794 -1.12281 2.23675e-14 3.89671e-14 
-2.07544 84.1127 0.00198545 -1.04037 -1.48014e-13 7.48273e-14 -2.78382 84.6391 -0.000971243 
-0.750807 2.08111e-13 -5.11674e-14 -2.52582 84.3403 0.00219475 -0.711478 -1.00787e-13 4.06793e-14 
-3.31578 84.8299 -0.00211411 -0.234106 -4.46657e-13 -4.53457e-14 -3.00419 84.5057 0.00228142 
-0.253423 -7.33164e-14 -1.566e-13 -3.86401 84.8956 -0.00372793 0.448019 2.34177e-13 1.42594e-15 
-3.49294 84.5646 0.0021653 0.349577 -3.52496e-13 8.58827e-14 -4.39358 84.7656 -0.00588128 
1.31168 1.51247e-13 -3.34247e-14 -3.96293 84.4583 0.00174998 1.10946 5.68087e-14 1.64452e-14 
-4.8505 84.3492 -0.00853468 2.35986 -1.50383e-13 -9.93788e-14 -4.37051 84.1124 0.000940125 
2.02781 -5.07129e-14 -2.16077e-14 -5.15951 83.5377 -0.0114367 3.56956 2.49505e-13 2.55351e-14 
-4.656 83.4387 -0.000323921 3.08626 2.88762e-13 4.37705e-14 -4.74594 82.3429 -0.00199275 
4.23426 3.80182e-14 -3.18912e-14 -0.0302767 83.095 0.00602665 -0.427685 2.10897e-13 -4.49953e-14 
-0.018058 83.389 0.00706733 -0.201158 -2.55292e-13 -6.64399e-15 -0.15153 82.9989 0.00267293 
-0.757374 -1.71873e-13 -2.14436e-13 -0.0975323 83.1843 0.000845605 -0.541345 -7.21298e-14 -9.18085e-14 
-0.328413 83.012 0.00194432 -1.00097 -5.86857e-14 3.70199e-14 -0.245516 83.1074 0.000485493 
-0.799753 1.42966e-13 -6.16e-15 -0.553716 83.1053 0.00148437 -1.16235 2.15472e-13 -8.07323e-14 
-0.446775 83.1255 0.000596051 -0.978674 3.19099e-13 7.6229e-14 -0.822322 83.2568 0.00111053 
-1.24315 -1.94237e-13 5.63612e-14 -0.693245 83.2128 0.000756345 -1.07906 3.89742e-13 -8.51437e-14 
-1.13145 83.4473 0.000764027 -1.24217 9.63101e-14 1.11794e-13 -0.979644 83.3478 0.000946881 
-1.10002 -3.18368e-14 1.73367e-13 -1.47932 83.6588 0.000389407 -1.15513 -9.19152e-14 -7.26554e-14 
-1.30218 83.5109 0.00114509 -1.03838 7.40293e-14 -2.04423e-13 -1.86373 83.8719 -7.13929e-05 
-0.974644 1.27363e-14 1.03891e-13 -1.65712 83.6821 0.00132867 -0.888567 -5.50844e-14 1.79724e-13 
-2.28037 84.0634 -0.000682447 -0.690502 5.47323e-14 1.10797e-13 -2.03933 83.8391 0.00146774 
-0.642779 -6.04794e-14 4.01137e-14 -2.72081 84.2043 -0.00151212 -0.290499 -1.63824e-13 -1.60785e-13 
-2.4405 83.9553 0.00152316 -0.291716 -1.33605e-13 -1.16299e-13 -3.17017 84.2568 -0.00262558 
0.237844 3.85483e-13 -6.75293e-14 -2.84728 83.9975 0.00144545 0.174029 5.13443e-14 5.83457e-14 
-3.60443 84.1721 -0.00406691 0.904229 1.1182e-14 9.38277e-14 -3.23921 83.924 0.00117716 
0.761533 3.61343e-14 -1.20841e-13 -3.98788 83.8894 -0.00582596 1.71066 -8.93799e-14 -1.93734e-14 
-3.58679 83.6837 0.000661253 1.47171 -3.12576e-13 9.07191e-14 -4.27171 83.3363 -0.00778789 
2.64425 -1.36613e-13 -4.1793e-14 -3.85047 83.2167 -0.000140905 2.29383 -6.85008e-14 2.70547e-14 
-4.395 82.4349 -0.00966845 3.66784 -2.01391e-13 1.36627e-14 -3.9814 82.4581 -0.00122096 
3.19844 1.11005e-14 -8.16083e-14 -3.92567 81.3468 -0.00248076 4.12967 -8.06404e-14 9.03444e-14 
-0.0298883 83.4207 0.00672769 -0.346443 -3.91527e-14 -6.6204e-14 -0.0181787 83.7162 0.00836813 
-0.158557 -3.88647e-14 1.58311e-13 -0.152579 83.2463 0.00274566 -0.614056 1.61732e-13 -4.43083e-14 
-0.0961845 83.4405 0.000898398 -0.428118 8.55045e-15 -1.03396e-13 -0.330842 83.1834 0.00195106 
-0.807253 2.65003e-13 1.26982e-13 -0.242279 83.2922 0.00044361 -0.630602 -1.66669e-13 7.33909e-14 
-0.556488 83.2018 0.001438 -0.925794 3.04513e-14 -1.27346e-13 -0.440324 83.2387 0.000509921 
-0.763731 -1.02924e-13 -3.80598e-15 -0.822412 83.2776 0.00100026 -0.968579 6.95546e-14 1.02144e-13 
-0.680849 83.2533 0.00061766 -0.825352 1.39284e-13 -9.66102e-14 -1.12331 83.3895 0.000583202 
-0.933013 2.83128e-13 1.12584e-14 -0.956611 83.3132 0.000743118 -0.812775 -4.63065e-14 1.85407e-13 
-1.45442 83.517 0.000138179 -0.814739 -5.79137e-15 -1.44124e-13 -1.26142 83.3968 0.000862837 
-0.722283 -7.60104e-14 -1.47384e-13 -1.81022 83.6386 -0.000382766 -0.607706 -2.44027e-13 1.1955e-13 
-1.58884 83.4827 0.000954644 -0.549054 -2.97887e-14 -8.35946e-14 -2.1829 83.7298 -0.00102779 
-0.304659 -2.62221e-14 8.37108e-14 -1.9309 83.5476 0.000991152 -0.287481 2.52107e-13 1.11324e-13 
-2.56072 83.7612 -0.00184101 0.101787 1.02175e-14 -1.26336e-13 -2.2767 83.5646 0.000939992 
0.0679972 -4.0485e-14 1.6806e-14 -2.92633 83.697 -0.00285343 0.617279 -2.68275e-14 -1.18967e-14 
-2.61102 83.5022 0.000764949 0.521421 -8.70328e-14 -1.23269e-14 -3.25515 83.4943 -0.00406635 
1.24279 2.01839e-13 -3.05173e-14 -2.91301 83.3234 0.000430384 1.07301 2.45274e-13 -3.7019e-14 
-3.5143 83.103 -0.00542611 1.9704 -2.62117e-14 3.7928e-14 -3.15545 82.9857 -8.98021e-05 
1.71591 1.24515e-13 4.2133e-14 -3.66294 82.4687 -0.00679158 2.77786 -2.34444e-13 6.86604e-14 
-3.30494 82.443 -0.000797279 2.43199 4.74811e-14 -1.25941e-14 -3.65501 81.5383 -0.0079035 
3.62241 5.04752e-14 -1.08427e-13 -3.32388 81.6501 -0.00164993 3.18714 -1.41527e-13 3.84276e-14 
-3.17512 80.5706 -0.00253914 3.92699 -2.69056e-14 -1.37279e-13 -0.0283593 83.6792 0.0071037 
-0.266325 -1.28033e-13 -3.91007e-14 -0.0176193 83.9679 0.00924679 -0.117459 -4.41973e-14 -7.63799e-14 
-0.147586 83.4404 0.00270882 -0.472418 -6.91582e-14 -7.27925e-14 -0.0914239 83.6376 0.000914316 
-0.31845 -5.91333e-14 -1.91895e-14 -0.320269 83.3112 0.00188829 -0.616397 9.67976e-15 1.2519e-13 
-0.23049 83.4298 0.000391293 -0.466848 3.19627e-13 1.17475e-14 -0.53773 83.2614 0.00135058 
-0.694621 -1.61685e-13 -6.08402e-14 -0.418534 83.3133 0.000417049 -0.556726 8.4926e-14 2.29261e-14 
-0.791447 83.2664 0.000876735 -0.703817 2.55252e-13 4.1165e-15 -0.645279 83.2617 0.000476694 
-0.583479 -8.96627e-14 2.78146e-14 -1.0742 83.304 0.000418998 -0.64041 -3.81062e-13 1.08941e-15 
-0.902133 83.2519 0.000544553 -0.543065 -3.93315e-14 -9.81368e-14 -1.37903 83.3526 -6.24015e-05 
-0.500255 -7.92153e-14 -2.05634e-14 -1.18121 83.2619 0.000598486 -0.431519 -1.63081e-14 1.23651e-14 
-1.69804 83.3899 -0.000604084 -0.278765 3.23774e-13 5.60316e-14 -1.47424 83.2697 0.00061868 
-0.244899 1.23652e-13 1.58554e-13 -2.02122 83.3913 -0.0012389 0.0285178 -2.33223e-13 5.04319e-14 
-1.77151 83.2523 0.000582382 0.0203675 1.60474e-13 -4.40065e-14 -2.3352 83.3289 -0.00199075 
0.424818 6.87315e-14 -1.14179e-14 -2.06086 83.1839 0.000465324 0.366655 7.90123e-14 -4.03844e-15 
-2.62216 83.1704 -0.00286606 0.91036 -6.95364e-14 -2.70756e-14 -2.32671 83.0362 0.000243934 
0.793785 -3.00142e-14 -3.29944e-14 -2.85907 82.8795 -0.00384063 1.47985 -1.3496e-13 -5.32803e-14 
-2.54951 82.7772 -9.98915e-05 1.29706 -2.51334e-13 -8.21773e-14 -3.01765 82.4168 -0.00484268 
2.11921 -9.85323e-16 9.80466e-14 -2.7056 82.373 -0.000571122 1.86476 5.47479e-15 9.71792e-14 
-3.06569 81.7429 -0.00573519 2.80178 1.96362e-14 -7.21645e-16 -2.76826 81.7896 -0.00115109 
2.47514 -1.97763e-14 -2.84009e-14 -2.97028 80.8246 -0.00630545 3.48472 -1.97285e-13 -8.18234e-14 
-2.70998 80.9973 -0.0017864 3.09368 8.74316e-14 -3.49165e-14 -2.50681 79.9772 -0.00237944 
3.67109 -7.0912e-14 6.56142e-14 -0.0259849 83.8723 0.00720297 -0.190181 2.33025e-13 -4.41938e-14 
-0.0165431 84.1479 0.00975185 -0.0791475 -3.20039e-14 6.86812e-14 -0.137952 83.5831 0.00258434 
-0.337472 1.53259e-13 -7.62723e-14 -0.0841407 83.7783 0.000900633 -0.215795 2.06895e-13 -3.87052e-14 
-0.299684 83.3978 0.00177182 -0.434979 -7.82577e-14 2.12538e-14 -0.212356 83.5229 0.000334286 
-0.313563 2.66315e-14 -7.83019e-14 -0.502477 83.2876 0.00123468 -0.476422 1.00531e-13 5.66769e-14 
-0.385397 83.3526 0.000325474 -0.363803 -9.5899e-14 3.33553e-14 -0.736972 83.2285 0.000750088 
-0.456884 -1.59908e-13 1.54755e-14 -0.592728 83.2425 0.000344156 -0.360085 -8.02019e-14 -8.17298e-14 
-0.994693 83.1982 0.00027847 -0.372141 1.50661e-13 -2.46522e-14 -0.825015 83.1702 0.000364379 
-0.297413 -1.81449e-13 5.30999e-14 -1.26721 83.1751 -0.000210404 -0.218409 -2.92435e-14 9.39457e-14 
-1.07336 83.114 0.000366726 -0.171768 1.81347e-13 -4.53595e-14 -1.54521 83.1372 -0.00074219 
0.00752421 -1.81259e-13 2.13163e-14 -1.32844 83.0527 0.000334913 0.0199533 -2.45133e-13 2.90531e-14 
-1.81758 83.0611 -0.0013366 0.307738 -7.80626e-17 -1.12514e-14 -1.57974 82.964 0.000251532 
0.279614 -2.03416e-13 -1.48631e-14 -2.07059 82.921 -0.00200236 0.682176 -2.62446e-13 -1.08687e-13 
-1.81485 82.8246 0.00010005 0.607107 -3.58056e-14 -2.75197e-14 -2.28729 82.6892 -0.00273021 
1.12714 -1.67472e-13 -5.18856e-14 -2.01891 82.6094 -0.000132725 0.999221 -5.98185e-14 -6.17284e-14 
-2.44735 82.3357 -0.00348362 1.63331 1.95789e-13 8.03732e-14 -2.17451 82.2921 -0.000452453 
1.44811 1.14381e-13 1.07449e-13 -2.52764 81.8309 -0.00418881 2.18341 1.74203e-13 7.97556e-14 
-2.26205 81.8463 -0.000851578 1.93946 2.31688e-13 -1.56819e-14 -2.50393 81.1476 -0.00472713 
2.74979 6.15474e-14 -8.63268e-14 -2.26101 81.2479 -0.00130281 2.45062 -4.09152e-14 1.52586e-14 
-2.35401 80.2669 -0.00493577 3.29268 -6.33608e-15 -2.30926e-14 -2.15226 80.4788 -0.00175389 
2.94913 -8.39676e-14 -1.63689e-14 -1.9216 79.5321 -0.00212576 3.39227 1.05818e-15 4.74065e-14 
-0.0230454 84.0042 0.00707733 -0.120116 4.13211e-15 6.19158e-14 -0.0151047 84.2618 0.00993834 
-0.0445218 -4.93329e-14 -4.69937e-14 -0.125037 83.6774 0.00239418 -0.212952 1.50303e-13 -8.36761e-14 
-0.0751673 83.8668 0.000864337 -0.122607 -3.9092e-15 1.1199e-13 -0.271991 83.4466 0.00161656 
-0.267867 -3.06261e-14 -1.10016e-14 -0.189945 83.5751 0.000276947 -0.174354 3.50349e-14 -1.3874e-13 
-0.455573 83.2848 0.00110076 -0.276677 6.23503e-14 -1.22534e-13 -0.344627 83.3607 0.000240666 
-0.189255 7.31446e-15 6.94583e-15 -0.666127 83.1692 0.000626784 -0.233297 -2.00233e-13 1.53887e-13 
-0.528893 83.2006 0.000226696 -0.159627 3.0189e-14 -4.73753e-14 -0.894526 83.0787 0.000163475 
-0.133115 2.01132e-13 -2.73843e-14 -0.733207 83.0738 0.000209959 -0.0798593 1.73998e-13 2.39468e-13 
-1.13157 82.9924 -0.000310255 0.0272579 -1.5604e-13 -3.43822e-14 -0.948256 82.9599 0.000174451 
0.0540132 -4.10011e-14 -1.88752e-13 -1.36731 82.8895 -0.000810421 0.249871 -3.59713e-13 4.19352e-14 
-1.16435 82.8389 0.000107775 0.244379 4.56211e-14 4.84925e-14 -1.59041 82.7483 -0.00134638 
0.534956 1.49862e-13 -4.97762e-14 -1.37087 82.6905 -2.33841e-06 0.49179 -1.13394e-13 5.43871e-14 
-1.78764 82.5461 -0.00191645 0.880091 -2.21817e-13 -6.71165e-14 -1.55589 82.4936 -0.000165916 
0.794375 1.88708e-13 -1.85889e-13 -1.94371 82.2593 -0.00250275 1.27903 -8.85468e-14 1.54345e-13 
-1.70589 82.2271 -0.000388488 1.14697 1.75197e-13 1.47687e-13 -2.04143 81.8645 -0.0030653 
1.72024 1.63942e-13 9.30471e-14 -1.80599 81.8695 -0.000667835 1.53999 1.34621e-14 8.70241e-14 
-2.06265 81.3396 -0.00353705 2.18539 -7.91062e-14 -6.86569e-14 -1.84051 81.4012 -0.000990232 
1.95825 -3.4232e-14 -5.30652e-14 -1.98989 80.6672 -0.00382227 2.64798 6.06e-14 -1.03514e-13 
-1.79428 80.8057 -0.00132695 2.37989 1.35081e-13 1.74652e-14 -1.80913 79.8382 -0.00380233 
3.07281 -5.56187e-14 -3.22381e-14 -1.65471 80.0734 -0.0016327 2.77578 3.09671e-13 -1.41269e-13 
-1.4145 79.2047 -0.00184749 3.10999 1.79662e-13 5.67324e-14 -0.0197887 84.08 0.00677777 
-0.057542 1.46562e-13 1.07865e-14 -0.013441 84.3166 0.00986304 -0.0141321 -1.44242e-15 3.38549e-14 
-0.110068 83.7279 0.0021587 -0.101396 -1.27156e-13 7.02216e-15 -0.0652322 83.9083 0.000811741 
-0.0404377 -7.3178e-14 -7.3351e-14 -0.239814 83.4616 0.00143579 -0.118343 2.31503e-13 -7.28931e-14 
-0.16507 83.591 0.000222298 -0.0515071 3.83803e-14 -9.01015e-15 -0.401367 83.2571 0.000957151 
-0.0989594 -1.57515e-13 -4.13038e-14 -0.299469 83.3418 0.000165822 -0.0357344 9.95991e-15 3.30812e-14 
-0.585235 83.0935 0.000510449 -0.0364095 6.19954e-14 1.94025e-13 -0.458704 83.1404 0.000127593 
0.0153157 -2.52656e-14 -2.75127e-15 -0.782168 82.9512 7.24699e-05 0.0741153 -8.52625e-14 -3.35947e-14 
-0.633477 82.9676 8.40818e-05 0.107596 7.30281e-14 1.30864e-13 -0.98278 82.8108 -0.000369808 
0.235635 1.51601e-13 -1.03521e-13 -0.81456 82.8049 2.28586e-05 0.244957 3.84243e-14 -1.42997e-13 
-1.1771 82.6531 -0.000824505 0.449304 -2.54159e-14 -2.53166e-14 -0.992411 82.634 -6.47642e-05 
0.429234 2.01951e-13 -1.43253e-14 -1.35418 82.4589 -0.00129336 0.714044 -9.77694e-14 8.39676e-14 
-1.15685 82.4366 -0.000186623 0.660064 -1.39637e-14 2.84633e-14 -1.50188 82.2085 -0.00176827 
1.0259 2.56809e-13 -1.64556e-14 -1.29687 82.1948 -0.000347736 0.934456 1.70492e-13 1.51025e-13 
-1.6069 81.8825 -0.00222773 1.37721 1.33613e-13 5.75165e-14 -1.40062 81.8906 -0.000548475 
1.24617 3.04667e-14 -1.79908e-13 -1.65521 81.4628 -0.00263354 1.75561 -4.90629e-15 -1.7205e-14 
-1.45575 81.5074 -0.000782274 1.585 -9.75831e-14 6.72865e-14 -1.63302 80.9339 -0.00292907 
2.14312 -2.04147e-13 -1.57582e-14 -1.45011 81.0306 -0.00103341 1.936 -1.59276e-13 -4.54636e-14 
-1.52829 80.2853 -0.00304085 2.5156 1.79174e-13 2.75127e-15 -1.37289 80.45 -0.00127554 
2.27907 -3.70181e-14 4.17895e-14 -1.33297 79.5146 -0.00288576 2.84286 1.89362e-13 -3.87398e-14 
-1.21639 79.7613 -0.00147211 2.58894 -2.2112e-13 5.69961e-14 -0.977992 78.9697 -0.00157974 
2.836 4.758e-14 -1.29806e-13 -0.0164202 84.1065 0.00635149 -0.00325994 -1.09619e-13 -1.45613e-14 
-0.0116668 84.3201 0.00958096 0.0117644 3.94333e-14 -6.35741e-14 -0.0940918 83.7395 0.0018958 
-0.00428827 2.24885e-13 -2.11289e-14 -0.054937 83.9089 0.000748291 0.0299342 5.51611e-14 5.11778e-14 
-0.205385 83.4473 0.0012408 0.0116936 2.79544e-14 -4.51028e-15 -0.13923 83.5753 0.000172211 
0.0538159 -8.95716e-14 -1.04465e-14 -0.343539 83.2089 0.00081021 0.0547801 -6.48787e-14 5.06262e-14 
-0.252605 83.3002 0.000102342 0.0954799 -1.37865e-13 -2.76966e-14 -0.499588 83.0058 0.000402718 
0.132204 3.12104e-14 5.45085e-14 -0.386199 83.0659 4.75927e-05 0.163696 4.17913e-14 4.30697e-14 
-0.664578 82.8202 2.04361e-06 0.248827 -2.87126e-13 -2.00361e-14 -0.531292 82.8556 -1.36946e-05 
0.264537 -2.42488e-14 -5.08239e-14 -0.829393 82.6348 -0.000398139 0.407357 -3.3264e-14 -2.57294e-14 
-0.679123 82.6528 -9.05772e-05 0.401711 -1.19162e-13 7.22825e-14 -0.984499 82.4324 -0.000799864 
0.608326 3.07208e-13 -8.2323e-14 -0.82068 82.4413 -0.000188511 0.576661 -1.09352e-13 8.65592e-14 
-1.11975 82.1962 -0.00119966 0.849826 -1.87032e-13 1.17264e-13 -0.946561 82.2052 -0.000311782 
0.788459 2.12206e-13 -2.12979e-13 -1.22438 81.9097 -0.00158594 1.12707 -2.57161e-13 -4.48599e-14 
-1.04694 81.9293 -0.000461833 1.03353 6.12231e-14 1.71536e-13 -1.28717 81.5574 -0.00193681 
1.43184 -4.89047e-14 -5.07094e-14 -1.11173 81.5989 -0.000635891 1.30524 -1.37897e-13 -1.40589e-13 
-1.29697 81.1255 -0.00221847 1.75187 7.97886e-14 -6.63566e-14 -1.13094 81.2013 -0.00082549 
1.59349 -1.17647e-14 5.7794e-14 -1.24364 80.6035 -0.00238542 2.07045 -2.33654e-13 2.49696e-14 
-1.09538 80.7262 -0.00101535 1.88432 -1.4027e-14 -7.01245e-14 -1.11933 79.9861 -0.00238333 
2.36629 -5.25613e-14 1.08837e-13 -0.997719 80.1675 -0.00118314 2.15988 -1.48926e-14 4.64941e-14 
-0.920186 79.275 -0.00215602 2.61407 4.28477e-15 5.30895e-14 -0.83374 79.5252 -0.00130079 
2.39871 -4.07487e-15 1.01141e-13 -0.603875 78.8066 -0.00133807 2.57678 -5.34035e-14 -2.68535e-15 
-0.0131004 84.0903 0.00584007 0.0424318 1.59348e-13 1.25941e-14 -0.00987294 84.2805 0.00914292 
0.0331433 -1.77827e-14 5.01266e-14 -0.0779456 83.7176 0.00162045 0.0777651 4.91859e-14 -5.65346e-14 
-0.0447511 83.8746 0.000678497 0.0883501 8.57881e-14 8.18443e-15 -0.170505 83.4082 0.00104075 
0.121491 -4.64255e-14 2.69923e-14 -0.113603 83.5331 0.000127658 0.14136 -4.93527e-14 -6.94514e-14 
-0.285044 83.1442 0.000664684 0.183906 -1.90172e-13 1.68303e-14 -0.20613 83.2401 5.03239e-05 
0.204203 -9.38854e-14 5.01092e-14 -0.413388 82.9097 0.000303968 0.272355 2.09969e-13 7.79446e-14 
-0.314511 82.981 -1.42742e-05 0.285648 1.32846e-13 7.05096e-14 -0.547194 82.6892 -5.19171e-05 
0.391642 -2.41625e-15 -9.06289e-14 -0.430842 82.7412 -8.58492e-05 0.391716 -8.5239e-14 -9.7318e-15 
-0.677945 82.4675 -0.000404059 0.544235 2.6826e-14 5.14935e-14 -0.547091 82.5065 -0.000170495 
0.525958 -1.07367e-13 -5.66144e-14 -0.796853 82.2297 -0.00075007 0.730273 -3.59205e-14 -3.09128e-15 
-0.655035 82.263 -0.000271035 0.689564 -1.00344e-13 -1.2941e-14 -0.894824 81.9614 -0.00108318 
0.947421 5.95635e-14 2.98511e-14 -0.746257 81.9972 -0.000389089 0.881325 -8.8286e-15 5.55458e-14 
-0.962552 81.6491 -0.00139039 1.19059 -4.04181e-14 -9.85878e-14 -0.812229 81.6965 -0.000523717 
1.09748 -2.38345e-14 -2.92023e-14 -0.990809 81.2805 -0.00165121 1.45162 2.00124e-13 3.36398e-14 
-0.844539 81.3492 -0.000670478 1.3315 3.90066e-14 -7.52176e-15 -0.970971 80.8457 -0.00183721 
1.71898 1.17773e-13 7.5287e-16 -0.835302 80.9457 -0.000820548 1.57388 8.97789e-14 5.86059e-14 
-0.895826 80.3379 -0.00191311 1.97765 8.19449e-14 6.25888e-15 -0.777787 80.4791 -0.000960324 
1.81204 1.78746e-14 -2.79325e-14 -0.760631 79.7552 -0.00183999 2.20933 9.59849e-14 5.74818e-14 
-0.667257 79.9465 -0.00107183 2.03051 7.81233e-14 8.32667e-15 -0.564368 79.1021 -0.00158121 
2.39315 1.49152e-14 2.82413e-15 -0.501965 79.3502 -0.00113429 2.21138 -3.66096e-14 -5.69475e-14 
-0.284195 78.6987 -0.00112737 2.33536 -2.38091e-14 4.85376e-14 -0.00994596 84.0386 0.00527861 
0.0796275 8.79691e-14 6.88477e-14 -0.00812802 84.2056 0.00859411 0.0501557 9.67455e-14 1.72456e-13 
-0.0622645 83.6678 0.00134453 0.144847 -1.22404e-13 -3.81153e-14 -0.0350185 83.8118 0.000605963 
0.135125 2.47623e-14 -1.35284e-13 -0.136539 83.3488 0.000842837 0.211192 2.18116e-13 -2.13475e-14 
-0.0890533 83.4693 8.89435e-05 0.211562 4.66966e-14 8.47135e-14 -0.228119 83.0668 0.000523992 
0.28879 1.32017e-13 1.76144e-14 -0.161589 83.1656 9.01391e-06 0.291075 1.29493e-13 -6.28664e-14 
-0.329789 82.8086 0.000213892 0.384877 -1.15636e-13 1.22923e-14 -0.245936 82.8887 -5.99982e-05 
0.382176 1.02842e-13 -8.25034e-15 -0.434031 82.561 -9.34553e-05 0.50412 -3.25814e-14 1.19765e-14 
-0.335152 82.6268 -0.000135942 0.490701 -7.52876e-14 -4.87214e-14 -0.533145 82.311 -0.000395272 
0.6488 8.70356e-14 -5.9508e-14 -0.422101 82.3678 -0.000222446 0.620034 1.29774e-13 6.90281e-14 
-0.619276 82.046 -0.000686163 0.818857 -1.23974e-13 1.64313e-14 -0.499499 82.1001 -0.000320316 
0.771221 3.63021e-14 -5.76518e-14 -0.684486 81.7542 -0.000957507 1.01183 1.65043e-13 8.39571e-14 
-0.560014 81.8125 -0.000429273 0.942986 1.54615e-14 2.83384e-14 -0.720932 81.4245 -0.0011962 
1.22271 2.78427e-14 -7.92526e-14 -0.596417 81.4947 -0.000546926 1.13167 -8.86537e-14 -1.7205e-14 
-0.721187 81.0475 -0.00138403 1.44381 -4.25675e-14 8.47551e-14 -0.601851 81.1377 -0.000668154 
1.33116 -1.07625e-13 2.01575e-14 -0.678739 80.6164 -0.00149789 1.66467 8.71976e-14 -8.18789e-15 
-0.570228 80.7346 -0.000784655 1.53284 2.04619e-14 7.71605e-15 -0.588668 80.1271 -0.00151117 
1.87216 -4.10262e-15 -3.7189e-14 -0.49677 80.281 -0.000884964 1.72567 -1.15149e-13 -8.47274e-14 
-0.448473 79.5802 -0.00139677 2.05082 1.8343e-14 -1.74478e-14 -0.37868 79.7761 -0.000955139 
1.89649 -1.65232e-13 2.77903e-14 -0.258972 78.9814 -0.00113177 2.18367 -3.12597e-14 7.42809e-15 
-0.21587 79.2238 -0.000980275 2.03057 -9.69329e-14 6.42333e-14 -0.0116712 78.6328 -0.0009472 
2.11256 -1.12519e-13 -3.33344e-14 -0.00703498 83.9584 0.00469565 0.108709 -1.41527e-14 7.02979e-14 
-0.00648016 84.1032 0.00797342 0.0630743 7.2436e-14 3.74804e-14 -0.0474977 83.5956 0.00107706 
0.197553 -1.04743e-14 -2.50563e-14 -0.0259724 83.7263 0.000533466 0.17091 -1.01186e-13 -4.50508e-14 
-0.104462 83.2734 0.000652413 0.281599 3.17437e-14 -2.88519e-14 -0.0661748 83.3885 5.59272e-05 
0.265352 1.04205e-14 2.65205e-14 -0.174358 82.9801 0.000390518 0.370537 -5.24207e-14 -2.06293e-14 
-0.120042 83.0802 -2.28219e-05 0.357319 -1.23261e-14 2.73774e-14 -0.251015 82.7051 0.000131884 
0.471321 4.04227e-14 -5.76587e-14 -0.182035 82.7921 -9.20538e-05 0.454877 -1.25639e-13 -1.48145e-14 
-0.327865 82.4374 -0.000126104 0.588419 -5.85274e-15 6.15272e-14 -0.246245 82.5146 -0.000167917 
0.563578 -6.45456e-14 -6.66481e-14 -0.398152 82.1663 -0.000378001 0.723972 -6.65193e-14 -3.64465e-14 
-0.306516 82.238 -0.000252087 0.686632 2.34383e-15 5.29195e-14 -0.455045 81.8814 -0.000616546 
0.877859 6.58411e-14 -4.46518e-15 -0.356578 81.9528 -0.000343904 0.825019 -7.47223e-14 5.18335e-14 
-0.491784 81.5731 -0.000832291 1.0477 -1.72925e-13 -1.17129e-14 -0.390197 81.65 -0.000441824 
0.977535 6.66048e-14 -1.41564e-13 -0.501903 81.2328 -0.0010128 1.22883 -2.91186e-14 -7.71605e-15 
-0.401386 81.3215 -0.000542673 1.14082 -4.83908e-14 1.6858e-14 -0.479555 80.8536 -0.00114242 
1.41427 -4.23663e-14 6.28664e-14 -0.384674 80.9605 -0.000641272 1.30934 7.82456e-14 1.26475e-13 
-0.419954 80.4306 -0.00120281 1.5948 -1.10143e-13 -6.2849e-14 -0.335478 80.5622 -0.000730262 
1.47554 -9.48304e-14 -7.91762e-14 -0.319931 79.9622 -0.00117434 1.75916 1.55579e-14 3.441e-14 
-0.250551 80.1242 -0.000800335 1.6299 2.60547e-14 -1.34059e-14 -0.178558 79.4503 -0.00103866 
1.89452 1.12847e-13 -5.26211e-14 -0.128499 79.6472 -0.000840988 1.76143 -1.92844e-13 1.12018e-13 
0.00221603 78.9013 -0.000782222 1.98715 -1.42421e-15 5.99139e-14 0.029684 79.1357 -0.000841825 
1.85812 8.7156e-14 -7.10126e-14 0.220161 78.5986 -0.000794704 1.90786 8.16222e-14 4.3375e-14 
-0.00441307 83.8562 0.00411348 0.130252 -6.7943e-14 -4.87596e-14 -0.00496043 83.9803 0.00731337 
0.0722489 -3.57917e-14 -3.7725e-14 -0.0339343 83.506 0.000824476 0.236829 1.36041e-13 1.97065e-14 
-0.0177533 83.6239 0.000463067 0.196576 1.91834e-14 -4.996e-16 -0.0749102 83.186 0.000473257 
0.333973 -8.77683e-15 -1.20216e-14 -0.04533 83.2952 2.81947e-05 0.303988 -3.77302e-15 1.8173e-14 
-0.124796 82.8872 0.000265843 0.430743 -6.97506e-14 -7.92907e-14 -0.0821374 82.9873 -4.66239e-05 
0.404537 3.61738e-14 -3.24567e-14 -0.178493 82.6013 5.72698e-05 0.533691 -8.54794e-14 -3.9288e-14 
-0.123757 82.6933 -0.000113021 0.505717 1.39862e-15 -4.5644e-14 -0.230437 82.3197 -0.000152695 
0.64704 -2.66579e-14 6.40182e-14 -0.165323 82.406 -0.000185639 0.612727 -4.36409e-14 5.17295e-15 
-0.274865 82.0338 -0.000356937 0.772817 -3.2542e-14 -2.88866e-14 -0.201684 82.1175 -0.000264674 
0.728593 -4.17101e-14 4.58834e-14 -0.305993 81.7352 -0.000547204 0.910934 -1.60294e-14 4.29934e-14 
-0.227584 81.8206 -0.000348473 0.854273 5.0812e-14 -6.8591e-14 -0.3182 81.4164 -0.000713919 
1.05923 1.14665e-13 -7.89542e-14 -0.237863 81.5081 -0.000434714 0.988729 2.37089e-13 9.4983e-14 
-0.306274 81.0708 -0.000845709 1.21353 7.41985e-14 7.25878e-14 -0.227675 81.1739 -0.000519894 
1.12899 -2.21559e-14 -7.26294e-14 -0.265718 80.6936 -0.000929422 1.36768 -8.62947e-14 -2.62429e-14 
-0.192761 80.8132 -0.00059913 1.27023 1.18356e-13 3.4691e-14 -0.193136 80.2818 -0.000950727 
1.51374 -4.91968e-15 -4.96131e-15 -0.129773 80.4227 -0.000666144 1.40592 2.39036e-14 -4.13176e-14 
-0.0866701 79.8351 -0.000895416 1.64221 -6.87176e-14 3.61447e-14 -0.0366454 80.0016 -0.000713581 
1.52806 2.47472e-13 3.66929e-14 0.0535291 79.3564 -0.000751414 1.74255 1.20329e-14 -3.64188e-14 
0.0870126 79.5516 -0.000733715 1.62754 2.46825e-14 6.73073e-15 0.224876 78.8525 -0.000511427 
1.8038 -1.769e-13 9.28424e-15 0.239542 79.0777 -0.000719501 1.69468 8.47621e-14 -1.1656e-13 
0.416944 78.588 -0.000666239 1.71997 3.73798e-14 1.07955e-13 -0.00210011 83.7381 0.00354885 
0.14495 3.97052e-14 -5.60385e-14 -0.00358611 83.8434 0.00664047 0.07807 5.3289e-14 7.3979e-14 
-0.0217334 83.4039 0.00059099 0.263843 -7.0402e-14 6.44311e-14 -0.0104283 83.5098 0.000396229 
0.213116 3.06907e-14 -2.72005e-14 -0.0482402 83.0903 0.00030783 0.369857 1.20665e-13 -3.51767e-14 
-0.0266982 83.1935 5.18839e-06 0.328911 -6.24544e-14 4.86486e-14 -0.0800194 82.7908 0.00015093 
0.471301 -8.37863e-14 -5.17468e-14 -0.0482008 82.89 -6.38501e-05 0.434543 2.05972e-14 -9.63604e-14 
-0.113016 82.4991 -1.05668e-05 0.574243 2.04158e-13 -7.57727e-15 -0.0715706 82.5947 -0.00012534 
0.536855 2.45463e-16 7.375e-14 -0.142666 82.2089 -0.000175333 0.682625 1.39074e-13 5.37487e-14 
-0.0929477 82.3021 -0.000192617 0.640646 -3.55111e-14 -1.36141e-14 -0.164202 81.9134 -0.000335372 
0.798379 -1.24317e-13 -3.94476e-15 -0.108161 82.0067 -0.000264808 0.748749 6.90522e-14 -3.6332e-14 
-0.172854 81.6062 -0.000482083 0.921498 1.39637e-14 3.71925e-15 -0.112937 81.7028 -0.000339645 
0.862124 1.03229e-13 7.56895e-14 -0.164068 81.2817 -0.000606214 1.05012 -1.63467e-13 -3.51559e-14 
-0.103119 81.3851 -0.000414383 0.979939 -1.65836e-13 -1.45182e-13 -0.133745 80.935 -0.000697612 
1.18062 1.03147e-13 3.81362e-14 -0.0748893 81.0492 -0.000485489 1.09966 -2.13254e-14 8.54282e-14 
-0.0785263 80.5629 -0.000745373 1.30771 -5.25031e-14 -5.32213e-14 -0.0250295 80.6918 -0.000548547 
1.21718 -4.67044e-14 -2.51119e-14 0.00388333 80.1639 -0.000738429 1.42466 -3.23751e-14 5.4675e-14 
0.0488027 80.3111 -0.000598336 1.32699 4.86052e-14 -4.92315e-15 0.11437 79.7388 -0.000666645 
1.52361 1.54432e-13 3.66374e-15 0.147771 79.9073 -0.000629157 1.42243 -1.43514e-14 6.66342e-14 
0.25207 79.2911 -0.000522364 1.59596 -3.39954e-14 -5.48346e-14 0.271567 79.4828 -0.000635447 
1.49605 -6.40165e-14 -3.4639e-14 0.414085 78.8272 -0.000302311 1.63303 1.40528e-13 1.37113e-14 
0.418146 79.0426 -0.000612584 1.54013 -4.82912e-14 9.54792e-15 0.583565 78.5945 -0.000558164 
1.54724 7.04124e-15 -3.74388e-14 -9.66432e-05 83.6096 0.00301377 0.153553 4.19977e-15 2.94903e-16 
-0.00236393 83.6983 0.0059757 0.0809403 -1.56021e-14 -2.80748e-14 -0.0109531 83.2938 0.000379037 
0.279874 9.81481e-14 1.53454e-14 -0.0040085 83.3885 0.000333936 0.221575 -7.51673e-14 8.22085e-14 
-0.0245942 82.9897 0.000157527 0.39094 -2.93916e-13 8.29198e-15 -0.0103194 83.0869 -1.37009e-05 
0.341644 2.5497e-14 -7.92248e-14 -0.0402606 82.6932 4.62745e-05 0.494247 1.7831e-13 -3.10862e-15 
-0.0183098 82.7909 -7.58594e-05 0.449235 2.12616e-14 5.43905e-14 -0.0548791 82.4 -7.21373e-05 
0.595328 -1.06736e-13 -5.95357e-15 -0.0255749 82.4978 -0.00013118 0.550506 1.18715e-13 -1.66048e-14 
-0.0648471 82.1054 -0.000195465 0.697825 -1.12489e-13 -2.92127e-15 -0.0291959 82.204 -0.000191872 
0.649827 1.38146e-13 -3.12042e-14 -0.0663463 81.8047 -0.000315423 0.803573 2.27653e-14 2.91295e-14 
-0.0259252 81.9055 -0.000256335 0.749827 -7.97142e-14 4.83953e-14 -0.0555653 81.4932 -0.000423516 
0.912673 -5.62925e-14 2.06432e-15 -0.0124085 81.5984 -0.000321971 0.851472 8.35873e-14 -6.45664e-14 
-0.0289186 81.1666 -0.000511084 1.02359 2.24881e-13 -2.74988e-14 0.0145953 81.279 -0.000385869 
0.95415 5.9251e-14 1.65087e-13 0.0167188 80.822 -0.000569213 1.13325 -1.31239e-13 3.98015e-14 
0.0579919 80.9444 -0.000444642 1.05577 -6.15415e-15 -1.5386e-13 0.0837585 80.4571 -0.000588933 
1.23722 1.40769e-13 3.21965e-15 0.120119 80.5925 -0.000494402 1.1529 -1.74713e-13 1.453e-13 
0.173629 80.0718 -0.00056175 1.32989 -7.71752e-14 -2.31759e-15 0.202507 80.2227 -0.000530877 
1.24098 -2.18575e-16 -1.00701e-13 0.286507 79.6675 -0.000480527 1.40481 -1.68916e-13 1.62127e-14 
0.305634 79.8359 -0.000549716 1.31454 2.33112e-14 1.42941e-15 0.421072 79.2481 -0.000340633 
1.45507 9.09689e-15 -2.85778e-14 0.42871 79.4351 -0.000546989 1.36756 7.64241e-14 2.45325e-14 
0.574324 78.8196 -0.000141291 1.47382 2.07351e-14 1.30625e-14 0.569501 79.0251 -0.00051979 
1.39392 -4.62278e-14 2.08132e-14 0.724232 78.613 -0.000467202 1.38785 -7.12121e-14 -6.53887e-14 
0.00161043 83.4757 0.00251632 0.156818 4.65591e-14 5.73916e-14 -0.0012929 83.5501 0.00533529 
0.0812551 -1.43323e-14 9.7573e-14 -0.00157731 83.1795 0.000189649 0.286228 4.70023e-15 -2.06918e-14 
0.00153417 83.2644 0.00027679 0.222985 7.632e-14 -3.49096e-14 -0.00395423 82.8872 2.29135e-05 
0.398949 1.10646e-13 5.12854e-14 0.0038663 82.9788 -2.90746e-05 0.343703 1.13516e-13 4.13732e-15 
-0.00549273 82.5966 -4.7983e-05 0.501641 2.91607e-14 1.55813e-14 0.00763614 82.6925 -8.38497e-05 
0.450503 9.95089e-14 1.57166e-15 -0.00401735 82.3051 -0.000127845 0.599282 -5.32595e-14 -1.16504e-14 
0.0143918 82.4042 -0.000132375 0.548848 -1.55518e-15 8.50708e-15 0.0031817 82.0097 -0.000213995 
0.695199 1.38367e-13 -3.65853e-14 0.026196 82.1121 -0.000185895 0.642668 -4.89851e-14 1.86223e-14 
0.0190387 81.7073 -0.000298282 0.791122 2.154e-14 -4.61783e-15 0.0454491 81.8137 -0.000242347 
0.734381 1.70705e-14 -4.61957e-14 0.0464884 81.3946 -0.000372621 0.887262 3.84344e-15 1.29636e-14 
0.074668 81.5064 -0.000299017 0.824953 3.90898e-14 -2.4418e-14 0.0882502 81.069 -0.000429087 
0.982402 6.30138e-16 6.76542e-15 0.116272 81.1881 -0.000352998 0.913974 4.30789e-14 1.52343e-14 
0.14661 80.7285 -0.000459937 1.07402 -1.71287e-14 5.37539e-14 0.172373 80.8569 -0.000401146 
0.999771 1.1806e-13 3.23491e-14 0.223197 80.3722 -0.000457819 1.15843 -9.46686e-14 -1.67852e-14 
0.244568 80.512 -0.000440094 1.07955 6.21638e-15 -4.64351e-14 0.31876 80.0007 -0.00041623 
1.23107 7.25071e-14 1.83534e-15 0.333733 80.1535 -0.000466382 1.14956 -5.06396e-14 7.89473e-14 
0.432963 79.616 -0.000330195 1.28667 5.02298e-14 -2.04975e-14 0.439829 79.783 -0.000476722 
1.2054 -2.13579e-14 -4.75054e-14 0.564207 79.2221 -0.00019711 1.31974 -1.07903e-13 1.83707e-15 
0.561744 79.4037 -0.000468389 1.24225 1.265e-13 6.11663e-15 0.709519 78.8248 -1.76711e-05 
1.32492 -1.22562e-13 2.6229e-15 0.697171 79.0204 -0.000439663 1.25527 -4.69694e-14 -1.10936e-14 
0.84257 78.6395 -0.000390557 1.24003 1.14648e-14 5.72303e-14 0.00304309 83.3407 0.00206149 
0.155477 -6.18446e-14 5.42118e-14 -0.000366774 83.403 0.00473141 0.0793881 -2.56774e-14 -2.44769e-14 
0.00646113 83.0644 2.28162e-05 0.284184 -4.80692e-15 -3.1768e-14 0.00625427 83.141 0.000225113 
0.218338 -1.92268e-14 1.71477e-14 0.013809 82.7854 -9.60672e-05 0.395575 -1.8258e-15 6.39246e-14 
0.0159861 82.872 -4.14915e-05 0.336548 1.04959e-14 -2.03344e-14 0.0244929 82.5027 -0.000131964 
0.49549 1.04386e-13 -1.56229e-14 0.0298571 82.5967 -8.88338e-05 0.440159 -9.11216e-14 3.15165e-14 
0.0398865 82.2154 -0.000178002 0.588348 -6.18646e-14 -4.65825e-14 0.0486676 82.3153 -0.000130421 
0.533952 -1.69248e-14 -7.68274e-14 0.0618908 81.922 -0.00023141 0.67715 -1.31545e-13 -9.76129e-15 
0.0737185 82.0271 -0.000176667 0.621421 -5.69579e-14 2.31898e-14 0.0926383 81.6205 -0.00028446 
0.763519 -2.87777e-14 -2.60902e-15 0.106651 81.731 -0.000225253 0.704763 -3.60896e-14 1.83169e-14 
0.134277 81.3092 -0.000329657 0.847758 1.43258e-14 3.26128e-15 0.149233 81.4259 -0.000273494 
0.784928 -3.30329e-14 -1.24605e-14 0.188764 80.9865 -0.000359873 0.928943 4.97566e-14 3.32893e-14 
0.203161 81.1105 -0.000318595 0.861687 -2.14483e-14 -2.22218e-15 0.257671 80.6517 -0.000368426 
1.00504 -1.43852e-15 2.31273e-14 0.269863 80.7842 -0.0003577 0.933739 3.33154e-15 1.85876e-14 
0.341982 80.3047 -0.000349298 1.07308 1.47589e-13 -2.03101e-14 0.350316 80.447 -0.00038792 
0.998842 -6.9467e-14 2.40381e-14 0.441919 79.9467 -0.000297498 1.12934 4.52373e-15 -1.60861e-14 
0.444872 80.0999 -0.000406468 1.05399 -8.44945e-14 -4.99913e-14 0.556772 79.5802 -0.00020959 
1.16963 -1.31969e-14 1.20841e-14 0.553103 79.7447 -0.000410873 1.09565 5.14415e-14 3.63598e-15 
0.684786 79.2091 -8.42841e-05 1.18958 3.17298e-14 -4.16472e-14 0.673682 79.3849 -0.000399283 
1.12 3.32928e-14 2.40329e-14 0.82309 78.8389 7.69212e-05 1.18503 8.93209e-15 5.86163e-15 
0.804308 79.0251 -0.000370779 1.12328 -1.25473e-13 -1.27832e-14 0.941696 78.671 -0.000325927 
1.10208 7.87738e-15 -3.35357e-14 0.00422835 83.2081 0.00165193 0.150219 8.93426e-14 -1.74947e-14 
0.000424019 83.2609 0.00417293 0.0756831 -1.06182e-14 3.32408e-14 0.0132617 82.9517 -0.000122204 
0.274949 -7.42696e-14 -3.36606e-14 0.0102218 83.0214 0.000179017 0.208552 2.6484e-14 -5.12611e-14 
0.0288961 82.6866 -0.000199913 0.382423 2.72005e-15 1.8081e-14 0.0262075 82.7689 -5.14492e-05 
0.321541 -5.04215e-14 3.31159e-15 0.0500211 82.4132 -0.000205979 0.47769 -4.02027e-14 -5.15907e-15 
0.0486459 82.5054 -9.16406e-05 0.419894 8.09222e-14 5.89806e-15 0.0773096 82.1318 -0.000222853 
0.564622 -2.85917e-14 -1.9592e-14 0.0776968 82.232 -0.000126496 0.507745 -4.25519e-14 -3.24567e-15 
0.111945 81.8422 -0.0002479 0.645898 2.44381e-14 3.6705e-14 0.113997 81.9492 -0.000165715 
0.588156 -3.34437e-14 -2.54328e-14 0.155348 81.5437 -0.000273987 0.723017 5.81304e-14 1.64157e-14 
0.158519 81.6572 -0.000206869 0.663101 -1.20021e-14 5.04111e-14 0.208971 81.2355 -0.000294308 
0.796354 5.33552e-14 1.6237e-15 0.212376 81.3558 -0.000247397 0.733495 6.25472e-14 -1.20546e-14 
0.274115 80.9172 -0.000302527 0.865244 1.42052e-15 4.64906e-16 0.276635 81.0447 -0.000284683 
0.79926 9.27622e-14 2.6746e-14 0.351741 80.589 -0.000292909 0.928087 -1.3198e-13 -8.9876e-15 
0.352142 80.7242 -0.000316162 0.859411 3.10095e-14 -6.98677e-14 0.442311 80.2514 -0.000260513 
0.98251 1.66143e-15 2.04958e-14 0.439359 80.3951 -0.000339372 0.912186 -4.4127e-14 2.73618e-14 
0.54563 79.9063 -0.000201491 1.02555 -4.93741e-14 -4.23446e-14 0.538219 80.0589 -0.000352066 
0.955206 3.0457e-14 -6.8192e-15 0.660726 79.5564 -0.00011348 1.05387 -1.26692e-13 3.35929e-14 
0.647999 79.7178 -0.000352391 0.985673 7.81493e-16 -8.57821e-15 0.785764 79.2055 3.97871e-06 
1.06405 -2.32748e-14 -1.7342e-14 0.767237 79.3754 -0.000339115 1.00059 3.46077e-16 4.57689e-14 
0.918011 78.8588 0.000149017 1.05289 -2.93732e-14 -2.38334e-14 0.893677 79.0359 -0.000311845 
0.997048 3.664e-14 -3.11869e-14 1.02429 78.7049 -0.000271453 0.972459 3.68273e-14 2.23779e-14 
0.00519538 83.0814 0.00128852 0.14167 -4.53457e-14 -6.20441e-14 0.00109081 83.1268 0.00366602 
0.0704495 -4.72756e-14 -1.53089e-15 0.0189411 82.8439 -0.000246631 0.259639 4.91412e-14 -8.98413e-15 
0.0135138 82.9083 0.000138469 0.194464 -2.54744e-15 -1.36176e-15 0.0415471 82.5927 -0.000289415 
0.360976 -2.90714e-14 -3.59122e-14 0.0347174 82.6718 -5.9378e-05 0.299928 1.04777e-14 -4.8777e-14 
0.0714819 82.3293 -0.000270465 0.44999 8.04174e-14 1.04083e-15 0.0643311 82.4201 -9.29296e-05 
0.39126 -5.23253e-14 3.87503e-14 0.108817 82.0549 -0.0002626 0.530031 -1.03559e-13 -1.69621e-14 
0.101975 82.1553 -0.000121501 0.471985 2.466e-14 -7.88328e-14 0.154112 81.7705 -0.000263458 
0.603454 4.64255e-16 1.85529e-14 0.147718 81.879 -0.000154178 0.54475 8.78108e-14 6.05852e-14 
0.208166 81.4762 -0.000266588 0.671629 -4.00097e-14 4.01693e-14 0.201955 81.592 -0.000188523 
0.611303 2.18653e-14 -2.85778e-14 0.271831 81.1724 -0.000265905 0.734975 -5.69052e-14 3.87156e-14 
0.265235 81.2952 -0.000222154 0.672508 -9.24749e-15 1.26375e-14 0.34584 80.8594 -0.000255829 
0.793039 -3.15999e-14 -4.11667e-14 0.338087 80.9892 -0.000252662 0.728396 1.69e-15 2.1599e-14 
0.430649 80.5381 -0.000231448 0.844593 -2.66508e-14 -4.49987e-14 0.420865 80.675 -0.000277767 
0.778248 -5.8798e-14 -2.67251e-14 0.526289 80.2099 -0.000188688 0.887772 3.81071e-14 2.77781e-14 
0.513606 80.354 -0.000295367 0.820706 1.56891e-14 2.59029e-14 0.632244 79.8768 -0.000124557 
0.920241 4.56766e-14 -7.07767e-16 0.615908 80.028 -0.000303645 0.853913 -2.47831e-14 -2.8838e-14 
0.747352 79.5417 -3.74327e-05 0.939389 -1.5531e-14 1.84748e-14 0.726828 79.6997 -0.000301208 
0.875683 -7.62992e-14 4.32536e-14 0.869749 79.2085 7.26458e-05 0.942561 -1.32038e-14 -7.78023e-15 
0.844816 79.3726 -0.000287257 0.883695 -3.94277e-14 -3.47396e-14 0.996851 78.8821 0.000203699 
0.927301 -2.00482e-14 5.67081e-15 0.967685 79.0507 -0.000261733 0.875706 -3.02787e-14 -4.83988e-15 
1.09263 78.7392 -0.000225652 0.849781 -3.81232e-14 1.68632e-14 0.00597336 82.963 0.000970955 
0.130395 1.07987e-14 4.47732e-15 0.00164553 83.0034 0.00321484 0.0639612 -2.62203e-14 1.47599e-14 
0.0236222 82.7433 -0.000351955 0.23926 -2.63704e-14 -1.11387e-14 0.0162085 82.8039 0.000103345 
0.176819 -3.18339e-14 -8.34055e-15 0.0520171 82.5055 -0.000365533 0.33258 2.09225e-14 -1.64643e-14 
0.0417066 82.5824 -6.5641e-05 0.272828 -2.29469e-14 3.31297e-14 0.0892906 82.2522 -0.000325935 
0.41398 -3.71751e-15 3.65714e-14 0.0772492 82.3421 -9.32137e-05 0.355655 -1.23126e-14 -1.79422e-14 
0.135007 81.9854 -0.000297416 0.486315 7.08747e-14 9.10383e-15 0.12201 82.086 -0.000116108 
0.428256 6.178e-14 3.20455e-14 0.189194 81.7068 -0.000277958 0.551627 5.16817e-15 9.42128e-15 
0.175579 81.8164 -0.000142883 0.492887 -2.0692e-14 -3.3671e-15 0.252117 81.4175 -0.000261811 
0.611141 3.71937e-14 -1.20338e-14 0.237865 81.5351 -0.000171154 0.551067 -2.62396e-14 -3.59886e-14 
0.324115 81.1187 -0.000243597 0.665297 5.52696e-14 2.51396e-14 0.308935 81.2434 -0.000198747 
0.60359 5.65748e-15 3.86705e-14 0.405444 80.8115 -0.000218433 0.71381 -6.58657e-14 -1.72432e-14 
0.388864 80.9428 -0.000223465 0.650565 -1.18905e-14 -1.82371e-14 0.496137 80.4972 -0.00018211 
0.75576 2.05656e-14 -2.05738e-14 0.477598 80.635 -0.000243288 0.691486 -8.79728e-14 3.20924e-15 
0.595876 80.1778 -0.000131249 0.789705 -1.47775e-13 1.82927e-14 0.574827 80.3216 -0.000256417 
0.725325 8.16491e-15 -3.06664e-14 0.703896 79.8556 -6.34962e-05 0.813832 2.51717e-14 4.22405e-15 
0.679881 80.005 -0.000261371 0.750656 -4.24561e-14 4.4709e-14 0.818898 79.5337 2.22658e-05 
0.826118 -6.24548e-14 -1.53592e-14 0.79165 79.6881 -0.000257095 0.765793 3.51394e-14 -4.14356e-14 
0.939018 79.2159 0.000125718 0.824525 -3.52791e-14 -3.50935e-15 0.90853 79.3742 -0.000243084 
0.768958 3.20416e-14 1.70489e-14 1.06182 78.9066 0.000244923 0.80719 -5.35943e-14 7.87911e-15 
1.02841 79.0675 -0.000219485 0.758449 5.60489e-14 1.5184e-14 1.1487 78.7724 -0.000187358 
0.732826 -4.64411e-14 -1.01603e-14 0.00658997 82.8553 0.000698152 0.116889 7.65221e-14 7.00481e-15 
0.00209988 82.8927 0.00282197 0.0564577 4.37905e-14 3.60614e-14 0.0274255 82.6517 -0.000439772 
0.21471 2.68136e-14 -1.30781e-14 0.0183804 82.7102 7.34659e-05 0.156279 5.17312e-14 -3.17264e-14 
0.0605584 82.4264 -0.000429297 0.298443 -4.18116e-14 3.2141e-14 0.0473585 82.5021 -7.05388e-05 
0.241238 5.26575e-15 8.1584e-15 0.103859 82.1828 -0.000372939 0.371087 8.60466e-15 2.3875e-14 
0.0877244 82.2725 -9.2883e-05 0.314323 1.06599e-15 1.64833e-14 0.156471 81.9236 -0.000327463 
0.435035 4.41613e-14 4.39059e-15 0.13829 82.0248 -0.000110803 0.377971 -9.61141e-14 -1.27745e-14 
0.217976 81.6511 -0.000291214 0.492024 -7.10493e-14 -1.6806e-14 0.19825 81.7619 -0.000132407 
0.434063 -4.50764e-14 -1.60288e-15 0.288193 81.3672 -0.000259123 0.543129 8.88668e-14 -1.07206e-14 
0.267106 81.4862 -0.000155403 0.483892 1.99144e-14 2.62967e-14 0.367027 81.0736 -0.00022647 
0.588783 -2.23931e-14 9.29291e-15 0.344528 81.1997 -0.000177824 0.528168 -2.49544e-14 -3.18773e-14 
0.454338 80.7721 -0.000188992 0.628828 3.00075e-14 -8.54178e-15 0.430214 80.9046 -0.000197679 
0.567043 -5.16487e-14 1.56247e-14 0.54981 80.4646 -0.000143075 0.66259 3.38835e-15 -1.40166e-15 
0.523774 80.6027 -0.000213177 0.600175 3.21886e-14 -1.06217e-14 0.652847 80.1533 -8.58932e-05 
0.688977 6.06722e-14 -2.11151e-14 0.624616 80.2964 -0.000222766 0.626806 -1.33999e-14 1.26028e-14 
0.762487 79.8408 -1.55651e-05 0.706602 -3.25651e-14 1.99788e-14 0.731859 79.9883 -0.000225225 
0.645855 -4.11335e-14 -1.6008e-14 0.877335 79.5304 6.86855e-05 0.713918 1.78681e-14 -1.99181e-14 
0.844266 79.6812 -0.000219743 0.656047 2.28333e-15 2.40641e-14 0.995544 79.2257 0.000166398 
0.709378 -5.73647e-14 1.0221e-14 0.960203 79.3787 -0.000206015 0.656036 1.22398e-14 -1.05471e-15 
1.11481 78.931 0.000275757 0.69159 -8.55973e-14 -8.1983e-15 1.07763 79.0846 -0.000184303 
0.64455 2.57854e-14 -2.4902e-14 1.19414 78.8033 -0.000155658 0.620529 2.33745e-14 5.52804e-14 
0.00707037 82.7599 0.000468594 0.101589 -4.8018e-14 9.80986e-15 0.00246469 82.7965 0.00248887 
0.0481465 1.54729e-14 5.13634e-14 0.0304632 82.5705 -0.000511667 0.186781 1.01134e-14 -1.53488e-14 
0.0200975 82.6285 4.86285e-05 0.133419 -2.09303e-14 -3.61603e-14 0.0674078 82.3567 -0.000481735 
0.259634 2.00751e-14 -1.51962e-15 0.0518409 82.4323 -7.43151e-05 0.206034 -1.89041e-15 -1.32359e-15 
0.115573 82.122 -0.000412023 0.32258 1.30425e-14 3.08729e-14 0.0960544 82.2122 -9.22282e-05 
0.26837 8.43292e-15 -3.22485e-15 0.173762 81.8699 -0.000352887 0.377577 -4.17275e-14 -3.66079e-14 
0.151262 81.9721 -0.000105927 0.322383 -1.4491e-14 1.20216e-14 0.241191 81.6034 -0.000303022 
0.426072 1.11818e-14 3.13326e-14 0.216339 81.7154 -0.000123143 0.369605 -2.42159e-14 -1.08628e-14 
0.317309 81.3247 -0.000257979 0.46898 -2.96651e-14 -1.51164e-14 0.29046 81.4451 -0.000141688 
0.411104 -3.33629e-14 -1.9186e-15 0.401666 81.0363 -0.000213628 0.506707 -1.61609e-14 -2.12261e-14 
0.372967 81.1637 -0.000159793 0.44749 6.45361e-15 -1.02245e-14 0.493797 80.7403 -0.000166242 
0.539184 -3.20908e-14 2.1854e-14 0.463255 80.8736 -0.00017565 0.478934 1.6183e-14 9.15587e-15 
0.593104 80.4389 -0.000112702 0.565931 1.23278e-14 -5.38632e-15 0.560661 80.5772 -0.000187664 
0.505215 1.17439e-14 -4.33334e-15 0.698768 80.1349 -5.06162e-05 0.586135 2.24263e-14 -7.50615e-15 
0.664369 80.2772 -0.000194482 0.525785 -1.41868e-14 -6.80012e-16 0.809675 79.8309 2.15461e-05 
0.598756 -3.4933e-16 2.34326e-14 0.773334 79.9763 -0.00019508 0.539848 -2.58443e-14 2.39739e-14 
0.924363 79.5302 0.000104335 0.602631 2.72785e-14 -1.80585e-15 0.886223 79.6776 -0.000188821 
0.546452 2.11927e-14 -3.23214e-14 1.04101 79.2365 0.000197233 0.596604 -2.58387e-15 6.98573e-15 
1.00139 79.3846 -0.000175532 0.544602 -1.24597e-15 1.79006e-14 1.15742 78.9538 0.000298575 
0.579649 4.14842e-14 -1.87003e-15 1.11685 79.1009 -0.000155536 0.53336 -4.60786e-15 1.96926e-14 
1.23036 78.8308 -0.000129844 0.511963 -3.78079e-14 -5.31832e-14 0.00743661 82.6785 0.000280596 
0.0848696 -7.02867e-14 2.67061e-14 0.00274955 82.7161 0.00221627 0.0392067 -3.90746e-14 1.05263e-14 
0.0328358 82.5012 -0.000569114 0.156166 2.25223e-14 3.80841e-14 0.0214191 82.5602 2.86312e-05 
0.108743 -1.47981e-14 8.92949e-15 0.0727775 82.2971 -0.000523809 0.2171 3.40604e-14 -4.17062e-14 
0.0553011 82.3739 -7.71637e-05 0.167989 1.53436e-15 -1.38778e-15 0.124779 82.0704 -0.000443705 
0.269582 -2.83029e-14 2.7929e-16 0.102501 82.1619 -9.14615e-05 0.21877 1.12948e-14 -3.87364e-14 
0.187378 81.8248 -0.000373828 0.315172 -1.43071e-15 -1.60184e-14 0.161319 81.9284 -0.000101714 
0.262604 -3.00198e-14 1.63411e-15 0.259494 81.5637 -0.000313185 0.355032 6.37773e-14 3.16431e-14 
0.230384 81.6773 -0.000115345 0.300689 -1.7846e-14 7.87738e-15 0.340282 81.2899 -0.000257868 
0.389918 -4.05275e-16 -1.87593e-14 0.308609 81.4117 -0.00013027 0.333873 -1.90307e-14 -7.41768e-15 
0.429006 81.0061 -0.000204251 0.420186 2.01306e-14 -3.72272e-14 0.39508 81.1347 -0.000144891 
0.362657 -8.58553e-15 1.72466e-14 0.524941 80.715 -0.000149057 0.445825 -6.64015e-14 1.07345e-14 
0.488951 80.8491 -0.000157559 0.387205 2.86685e-14 -1.98643e-14 0.627265 80.4191 -8.95662e-05 
0.466502 -1.11284e-14 4.34722e-15 0.589346 80.5575 -0.000166838 0.407383 4.35531e-14 3.85803e-15 
0.734986 80.1212 -2.37246e-05 0.48163 1.46265e-14 -3.48332e-15 0.695275 80.2628 -0.000171531 
0.422808 1.52012e-14 -3.79384e-15 0.846872 79.8244 4.97413e-05 0.490445 -5.0534e-14 1.70124e-14 
0.805567 79.9679 -0.000170759 0.432907 2.09039e-14 -1.33921e-15 0.961414 79.5319 0.000131234 
0.492094 -5.88505e-16 -4.28477e-16 0.918817 79.6761 -0.000164011 0.436994 -3.14792e-14 1.4426e-14 
1.07681 79.2472 0.000220224 0.485732 5.09675e-14 -1.66707e-15 1.03337 79.3907 -0.000151194 
0.43435 -4.62091e-14 3.9968e-15 1.19098 78.9742 0.000315203 0.470619 5.77403e-15 -2.18575e-16 
1.1473 79.1155 -0.000132661 0.424305 -7.1514e-16 -1.83551e-14 1.25848 78.8542 -0.000109372 
0.406323 1.87411e-14 1.85702e-14 0.00770725 82.612 0.000132504 0.0670604 -1.47191e-14 -2.06415e-14 
0.00296254 82.6526 0.00200439 0.0297936 -1.15654e-14 -6.7741e-16 0.034629 82.4446 -0.000613416 
0.123476 -6.04833e-14 4.23515e-14 0.022395 82.5061 1.32892e-05 0.0826925 9.9868e-15 -2.11168e-14 
0.0768494 82.2486 -0.000556374 0.171673 -3.01582e-14 -1.94584e-14 0.0578624 82.3277 -7.92342e-05 
0.127783 -6.61502e-14 4.57967e-14 0.131778 82.0285 -0.000468448 0.21309 9.3224e-15 6.03684e-15 
0.107283 82.1222 -9.07337e-05 0.16639 9.14243e-15 -1.81313e-14 0.197745 81.7884 -0.00039041 
0.24891 2.54571e-15 6.03684e-16 0.168793 81.8941 -9.83174e-05 0.199623 -1.26717e-14 2.63366e-14 
0.273447 81.5319 -0.000321529 0.280025 -7.30839e-15 -1.45335e-14 0.240834 81.6475 -0.00010917 
0.228363 1.3046e-14 -2.61371e-14 0.357807 81.2623 -0.00025834 0.307025 -3.7405e-15 1.64296e-14 
0.322124 81.3859 -0.000121298 0.253243 8.08793e-15 -2.16493e-14 0.449872 80.9826 -0.000197627 
0.330203 6.64548e-15 -4.90233e-15 0.411556 81.1126 -0.000133243 0.274646 -1.97279e-14 1.1189e-14 
0.548712 80.6956 -0.000136476 0.349578 5.97217e-15 -1.81018e-14 0.508101 80.8306 -0.000143483 
0.292711 -1.26811e-14 -6.64573e-15 0.653337 80.4042 -7.24767e-05 0.364928 2.84575e-14 7.89646e-15 
0.610725 80.5428 -0.000150704 0.307362 -1.25982e-14 6.70297e-15 0.762621 80.1115 -3.8312e-06 
0.375844 7.18783e-15 -1.71408e-14 0.718307 80.2524 -0.000153828 0.318342 -2.28728e-14 -1.05038e-14 
0.875245 79.8204 7.05495e-05 0.381787 2.10715e-14 1.49949e-14 0.829581 79.9623 -0.000152078 
0.325261 4.21005e-14 3.99333e-15 0.989667 79.5343 0.000150972 0.382152 -1.31119e-14 1.76942e-16 
0.943095 79.6758 -0.000145028 0.327648 -2.48586e-15 -4.16334e-16 1.10411 79.2567 0.00023692 
0.376343 -4.26959e-15 2.64719e-15 1.05719 79.3964 -0.000132639 0.325006 -3.98943e-15 -8.31106e-15 
1.21656 78.9913 0.000327024 0.363844 2.56028e-14 -9.88792e-16 1.16998 79.1275 -0.000115271 
0.316878 -2.81134e-14 3.11296e-14 1.27943 78.873 -9.38345e-05 0.302903 -2.58261e-14 -2.49063e-14 
0.00789721 82.5615 2.28449e-05 0.0484466 -1.19384e-14 -2.30076e-14 0.00311006 82.6067 0.0018532 
0.0200425 3.27845e-14 1.76014e-14 0.0359123 82.4015 -0.000645661 0.0892472 2.44331e-14 8.52703e-15 
0.023064 82.467 2.44784e-06 0.0556558 1.98223e-14 -1.38518e-14 0.079772 82.2117 -0.000580147 
0.124096 -1.37568e-14 2.17881e-15 0.0596219 82.2943 -8.06375e-05 0.0860226 4.25059e-14 -8.67362e-18 
0.136811 81.9967 -0.000486646 0.153994 2.09199e-14 1.27693e-14 0.110574 82.0936 -9.01484e-05 
0.112005 -1.53631e-15 4.14148e-14 0.205211 81.7609 -0.000402744 0.179771 2.6898e-15 3.31506e-15 
0.173943 81.8694 -9.58355e-05 0.134328 -1.08637e-15 -3.22659e-15 0.283506 81.5081 -0.000327912 
0.202056 1.0095e-14 -2.158e-14 0.248043 81.6262 -0.000104712 0.153571 -1.52964e-14 2.4444e-14 
0.370452 81.2418 -0.000259024 0.221272 -7.57998e-15 1.0103e-14 0.331454 81.3675 -0.000114855 
0.170155 2.05316e-14 -5.8703e-15 0.464932 80.9652 -0.000193176 0.237637 3.27163e-15 1.59872e-14 
0.422935 81.0969 -0.000124908 0.184337 1.25292e-14 7.70738e-15 0.565873 80.6815 -0.000127722 
0.251178 4.03318e-15 -1.3281e-14 0.521331 80.8176 -0.000133441 0.196218 -5.20815e-15 3.25087e-15 
0.672159 80.3937 -6.04841e-05 0.261758 -5.4471e-14 -1.11716e-15 0.625495 80.5328 -0.000139228 
0.205759 5.15286e-15 -1.49221e-14 0.782568 80.1048 1.01545e-05 0.26911 -4.58791e-15 -5.48693e-15 
0.734219 80.2454 -0.000141273 0.212805 9.73614e-16 1.67193e-14 0.895721 79.818 8.51548e-05 
0.272876 8.17597e-16 -8.34749e-15 0.846171 79.9588 -0.000138868 0.217112 -6.85378e-15 -1.15706e-15 
1.01005 79.5367 0.000164764 0.272657 1.92901e-15 -6.77236e-15 0.959865 79.6761 -0.000131642 
0.218386 -3.97577e-16 -7.72125e-15 1.1238 79.2644 0.000248486 0.268059 1.7457e-14 2.38871e-15 
1.07364 79.4008 -0.000119586 0.216317 7.78067e-15 -9.86711e-15 1.23502 79.0047 0.000335061 
0.258743 -1.05796e-14 1.41102e-14 1.18564 79.1365 -0.00010306 0.210622 1.85195e-14 9.86017e-15 
1.2939 78.8867 -8.29352e-05 0.20108 7.90427e-15 -6.57027e-15 0.00801765 82.5274 -4.95673e-05 
0.0292818 1.93218e-14 7.99361e-15 0.00319671 82.5789 0.00176257 0.0100743 -2.14271e-14 -3.02909e-14 
0.0367385 82.3725 -0.000666684 0.0539601 4.17153e-14 -4.42181e-15 0.0234541 82.4434 -4.00903e-06 
0.0279835 -4.59702e-15 3.44048e-14 0.0816575 82.1869 -0.00059568 0.0750358 1.55791e-14 -7.82013e-15 
0.0606495 82.2742 -8.14499e-05 0.0432577 -1.68912e-14 1.61416e-15 0.140062 81.9754 -0.000498602 
0.093099 -2.35607e-14 1.67071e-14 0.112498 82.0763 -8.97726e-05 0.0563214 -5.45928e-15 -4.25701e-15 
0.210041 81.7425 -0.000410916 0.10864 4.47082e-15 -1.79318e-14 0.176958 81.8545 -9.43261e-05 
0.0675324 -1.95167e-14 1.70992e-14 0.290019 81.4922 -0.000332226 0.122035 -2.09857e-14 -1.03563e-15 
0.252265 81.6133 -0.000102022 0.0771788 -9.47961e-15 -1.62544e-14 0.378642 81.2282 -0.000259639 
0.133538 1.82496e-14 8.13065e-15 0.336922 81.3565 -0.000110979 0.0854699 -7.75251e-15 -1.60982e-15 
0.474691 80.9538 -0.000190455 0.143281 -1.21207e-14 -2.64545e-15 0.429606 81.0876 -0.000119904 
0.0925354 1.52021e-15 8.37178e-15 0.576995 80.6723 -0.000122212 0.151288 1.28639e-14 3.46945e-17 
0.529089 80.81 -0.000127425 0.0984279 1.03239e-14 8.26075e-15 0.684358 80.3869 -5.28801e-05 
0.157485 3.31964e-14 -7.31012e-15 0.634158 80.5268 -0.000132366 0.103132 1.68355e-14 4.13558e-15 
0.795496 80.1006 1.90373e-05 0.161721 -5.56434e-15 7.24421e-15 0.743551 80.2414 -0.000133779 
0.106573 8.67741e-15 -1.26774e-14 0.908991 79.8167 9.44219e-05 0.163793 2.86576e-15 -1.45543e-15 
0.855901 79.9568 -0.000130998 0.108636 -1.70339e-15 1.12983e-14 1.02326 79.5386 0.000173486 
0.163473 -1.42575e-14 -9.24261e-15 0.9697 79.6764 -0.00012368 0.109179 4.57235e-15 -6.44623e-15 
1.13656 79.2698 0.000255753 0.160538 1.88895e-14 -1.60098e-14 1.08328 79.4036 -0.000111833 
0.108054 7.2602e-15 2.28637e-15 1.24698 79.0138 0.000340038 0.154796 -2.78586e-15 6.487e-15 
1.19483 79.142 -9.58156e-05 0.105125 -5.72654e-15 -7.07767e-15 1.30239 78.895 -7.6473e-05 
0.100287 -8.81858e-15 5.66214e-15 0.00807602 82.5103 -8.5561e-05 0.00979578 -7.6897e-16 9.34322e-15 
0.0371428 82.3579 -0.000677052 0.0180545 -2.88238e-14 1.41259e-14 0.0825813 82.1744 -0.000603351 
0.0251072 -2.80552e-14 8.54351e-15 0.141657 81.9647 -0.000504527 0.0311488 9.99152e-15 3.50067e-15 
0.212411 81.7333 -0.000414986 0.0363418 -1.21414e-14 -8.34402e-15 0.293216 81.4843 -0.000334401 
0.0408108 -9.08252e-15 6.47746e-15 0.382665 81.2214 -0.000259993 0.0446404 3.16107e-15 4.33681e-15 
0.479486 80.9482 -0.000189169 0.0478758 -6.69228e-15 -2.56739e-16 0.58246 80.6678 -0.000119554 
0.0505255 -3.29427e-15 1.17701e-14 0.690353 80.3835 -4.91951e-05 0.0525661 -3.16393e-15 -8.05085e-15 
0.801849 80.0986 2.33472e-05 0.053949 1.30767e-14 -3.30291e-15 0.915512 79.8162 9.89159e-05 
0.0546086 -6.95508e-15 -9.03791e-16 1.02976 79.5397 0.000177708 0.0544709 -7.51786e-16 -8.69443e-15 
1.14284 79.2726 0.000259256 0.0534634 -8.3245e-15 1.44641e-14 1.25286 79.0184 0.000342414 
0.0515247 5.76145e-15 1.24952e-14 1.45476 78.5577 0.000937051 0.089487 5.33829e-15 -7.52393e-15 
1.44763 78.5451 0.000929593 0.179608 6.08704e-15 1.19869e-14 1.43548 78.5242 0.000916664 
0.271023 -3.8165e-15 -7.52523e-15 1.41792 78.4951 0.000897467 0.364444 -1.66002e-14 -7.59202e-15 
1.39437 78.4579 0.000870775 0.460666 -3.83894e-15 4.34115e-16 1.36408 78.413 0.00083481 
0.560592 -1.50943e-15 -6.53531e-14 1.32611 78.3606 0.00078706 0.665269 -1.17684e-14 -3.07913e-14 
1.27934 78.3012 0.000724016 0.775921 2.56362e-14 -5.14146e-14 1.22239 78.2354 0.0006408 
0.893989 8.37741e-15 6.09408e-15 1.15363 78.1638 0.000530639 1.02117 -4.18502e-15 3.60007e-14 
1.07114 78.0876 0.000384132 1.15946 6.04174e-14 -7.54106e-14 0.972604 78.008 0.000188229 
1.3112 4.73467e-14 -8.97112e-15 0.855296 77.9268 -7.51923e-05 1.47913 -2.99379e-14 1.317e-14 
0.715918 77.8464 -0.000431279 1.6664 -4.37714e-14 2.10361e-14 0.55048 77.77 -0.000914884 
1.8766 -7.03751e-14 -3.12467e-14 0.3541 77.702 -0.00157418 2.11379 4.99956e-14 -1.42074e-14 
0.120763 77.6482 -0.00247547 2.38237 -1.53627e-14 -9.03357e-14 -0.156992 77.6167 -0.00370934 
2.687 5.6925e-15 -4.07677e-14 -0.488448 77.6187 -0.00539814 3.03225 -1.08599e-13 2.69645e-14 
-0.885132 77.6694 -0.00770422 3.42202 -9.482e-14 -5.17225e-14 -1.36122 77.7893 -0.0108368 
3.85861 -4.16325e-14 -9.19421e-14 -1.93377 78.0068 -0.0150518 4.34103 -8.42208e-15 4.08493e-14 
-2.62248 78.3599 -0.0206363 4.8623 -6.24969e-14 -5.34295e-14 -3.44826 78.899 -0.0278409 
5.40522 1.92207e-15 5.99347e-14 -4.42941 79.6896 -0.0367745 5.93579 -1.63384e-13 1.76491e-14 
-5.57286 80.8135 -0.0469597 6.39386 -1.6121e-13 4.77743e-14 -6.85748 82.3649 -0.0573007 
6.68104 -3.65558e-14 4.28546e-14 -8.20255 84.4396 -0.0642284 6.64734 -1.50959e-13 -5.16948e-15 
1.54414 78.3625 0.00114 0.0797031 -1.17029e-14 3.99572e-15 1.53805 78.3472 0.00114065 
0.160063 4.34429e-15 1.61865e-14 1.52769 78.3216 0.00114164 0.241763 -1.59453e-14 -3.64075e-16 
1.51272 78.2858 0.00114274 0.325546 -9.18753e-16 -5.00706e-15 1.49269 78.2398 0.0011436 
0.412238 -3.06482e-15 -7.11714e-15 1.46699 78.1836 0.00114359 0.502788 -5.14627e-15 1.55826e-14 
1.43485 78.1171 0.00114173 0.598301 4.21152e-14 8.54308e-15 1.39537 78.0404 0.00113643 
0.700079 7.53304e-16 3.41684e-14 1.34745 77.9535 0.00112521 0.809672 -2.05738e-15 1.7967e-14 
1.28978 77.8566 0.00110429 0.928928 4.05826e-14 -2.70049e-14 1.22082 77.7499 0.00106788 
1.06006 -2.57771e-14 5.53507e-15 1.13872 77.6336 0.00100734 1.20571 -1.49811e-14 1.98769e-14 
1.04125 77.5084 0.000909733 1.36904 -2.26876e-14 -5.61478e-14 0.925711 77.3751 0.000755905 
1.55381 1.91435e-14 -7.36139e-14 0.78875 77.2351 0.000517603 1.7645 -1.56123e-13 -2.01436e-14 
0.626168 77.0905 0.000153308 2.00639 -3.07913e-14 -1.99051e-14 0.432616 76.9446 -0.000397779 
2.28567 -3.72098e-14 2.97522e-14 0.201194 76.8024 -0.00122439 2.60948 -8.74205e-14 -1.07865e-14 
-0.0770932 76.6712 -0.00245549 2.98596 3.46789e-14 -6.40443e-14 -0.414059 76.5621 -0.0042773 
3.42404 -8.82176e-14 7.44439e-14 -0.825255 76.4913 -0.00695616 3.93305 7.55767e-14 7.36841e-14 
-1.33108 76.4828 -0.0108661 4.52177 -2.58486e-13 -3.88578e-15 -1.95794 76.5718 -0.0165199 
5.19653 -2.80314e-14 -2.1063e-14 -2.73912 76.8089 -0.0245722 5.95767 2.83454e-14 3.52392e-14 
-3.71437 77.2667 -0.0358317 6.79333 -7.32782e-14 1.43038e-13 -4.92572 78.0473 -0.0508241 
7.66849 1.57071e-14 -1.78052e-14 -6.40664 79.2878 -0.0704343 8.50796 -2.91247e-14 3.3161e-14 
-8.14639 81.1689 -0.0892971 9.16852 -1.81992e-13 -3.2932e-14 1.62226 78.1941 0.00132635 
0.068084 -9.22445e-15 -1.01737e-14 1.61721 78.1763 0.00133515 0.136796 5.9037e-15 -1.4741e-14 
1.60863 78.1465 0.0013501 0.20679 7.6369e-15 -6.48093e-15 1.59626 78.1046 0.00137167 
0.278778 -1.26362e-14 -2.70573e-14 1.57975 78.0504 0.00140044 0.353556 4.40641e-15 3.3694e-14 
1.55863 77.9836 0.00143711 0.432039 -3.31276e-14 -1.3139e-14 1.53235 77.904 0.00148245 
0.5153 6.85303e-15 -2.26895e-14 1.50023 77.8111 0.00153715 0.604614 -1.40834e-14 -5.33315e-14 
1.46146 77.7044 0.0016017 0.701507 1.37273e-14 -2.45841e-14 1.41511 77.5834 0.00167612 
0.807821 -7.02797e-14 -8.74648e-15 1.36007 77.4474 0.00175952 0.925782 3.52929e-14 1.71824e-14 
1.29504 77.2957 0.00184953 1.0581 1.12747e-13 2.72204e-14 1.21843 77.1274 0.00194125 
1.20805 8.11989e-14 7.02802e-14 1.12833 76.9418 0.00202582 1.37966 -2.44076e-14 8.29892e-15 
1.02231 76.738 0.00208805 1.5778 -4.73181e-14 1.96137e-14 0.897279 76.5156 0.00210284 
1.80843 -3.1598e-14 -1.35985e-14 0.749181 76.2743 0.00202963 2.07884 -6.85684e-14 -3.97798e-14 
0.572588 76.0148 0.00180373 2.39787 -6.06112e-15 1.65683e-14 0.360116 75.7392 0.00132294 
2.77631 1.2431e-14 1.98817e-14 0.101582 75.4515 0.000426618 3.22714 -5.43489e-14 4.3212e-14 
-0.217201 75.1599 -0.00113646 3.76588 -6.69621e-14 -1.05436e-14 -0.616102 74.8781 -0.00375679 
4.41063 -3.6221e-14 -3.08503e-14 -1.12298 74.6294 -0.00803787 5.18172 8.68576e-14 -4.91204e-14 
-1.77665 74.4519 -0.0148863 6.10024 5.42622e-14 -1.2396e-13 -2.63039 74.4067 -0.0256863 
7.18434 -9.95731e-15 -6.21309e-14 -3.75429 74.5907 -0.0420732 8.44109 9.18571e-14 1.28092e-14 
-5.23589 75.151 -0.0676019 9.8504 1.45647e-13 1.63966e-14 -7.15579 76.3216 -0.0977054 
11.3318 5.33549e-14 1.13104e-14 1.68727 78.0556 0.00148772 0.0548262 -1.84263e-14 4.56514e-15 
1.68318 78.0356 0.00150403 0.110202 5.69369e-15 1.2608e-14 1.67622 78.0021 0.00153191 
0.1667 1.54284e-14 1.74841e-14 1.66623 77.9549 0.00157247 0.224945 -2.03268e-14 1.66733e-14 
1.65296 77.8935 0.00162725 0.285636 2.92609e-14 -1.04144e-14 1.63607 77.8176 0.00169828 
0.349582 3.235e-14 -1.2438e-15 1.6152 77.7264 0.00178811 0.417735 3.5685e-14 -1.58285e-14 
1.5899 77.6193 0.00189985 0.491228 -4.7201e-14 -1.98556e-14 1.55966 77.4951 0.00203712 
0.57143 -2.86377e-14 -1.23163e-14 1.52389 77.3526 0.00220411 0.660005 1.59512e-14 -8.39823e-15 
1.48196 77.1904 0.00240545 0.758985 3.49738e-14 -4.31981e-14 1.43312 77.0067 0.00264607 
0.870861 -1.04243e-13 -6.08758e-15 1.37649 76.7992 0.00293087 0.998706 3.56937e-14 -5.5757e-14 
1.31101 76.5655 0.0032641 1.14632 -5.68877e-14 -1.83521e-14 1.23537 76.3026 0.00364825 
1.31843 2.75743e-14 -3.32082e-14 1.14782 76.0069 0.0040822 1.52092 5.3426e-14 3.96939e-14 
1.04603 75.6747 0.0045579 1.76118 4.56302e-14 6.74235e-14 0.926706 75.3015 0.00505477 
2.04852 5.60611e-14 -3.49634e-14 0.785134 74.883 0.00553008 2.3947 -6.42975e-14 -3.29511e-15 
0.614425 74.4147 0.0059025 2.81466 1.0063e-13 -5.71505e-14 0.404368 73.8933 0.00602371 
3.32744 7.92665e-14 -7.13631e-14 0.139681 73.3174 0.00562979 3.95727 -5.79051e-14 -7.6994e-14 
-0.202656 72.6903 0.00425724 4.73487 5.06782e-14 -5.52336e-14 -0.657445 72.0238 0.00110605 
5.69866 6.91461e-14 -1.80481e-14 -1.27733 71.3453 -0.00523013 6.89538 -1.54484e-13 -5.50948e-15 
-2.14103 70.7105 -0.0168731 8.37838 -2.29244e-13 4.44089e-16 -3.36554 70.2213 -0.0388569 
10.2006 1.96093e-14 -9.45563e-14 -5.10395 70.0788 -0.0687428 12.3915 -6.03129e-14 8.1754e-14 
1.73756 77.9493 0.00161642 0.0402014 -5.20038e-15 1.84104e-14 1.73425 77.9276 0.001639 
0.0808299 3.47595e-16 4.32542e-15 1.72865 77.8912 0.0016777 0.122332 2.90797e-14 5.96409e-15 
1.72064 77.8397 0.00173418 0.165193 -8.4494e-15 1.84811e-14 1.71006 77.7727 0.00181083 
0.209961 2.95894e-14 8.34922e-15 1.6967 77.6894 0.00191088 0.257267 1.1094e-14 2.05129e-14 
1.68035 77.5889 0.00203849 0.307858 1.7578e-14 7.80574e-14 1.66075 77.4702 0.00219893 
0.362629 -7.14463e-14 5.06155e-14 1.63766 77.3318 0.00239876 0.422664 4.94006e-15 3.00326e-14 
1.61083 77.1719 0.00264608 0.489288 -4.03787e-14 6.15805e-14 1.58 76.9883 0.0029508 
0.564128 9.45979e-14 4.10514e-14 1.54495 76.7782 0.00332502 0.6492 9.72738e-14 -6.14597e-14 
1.50546 76.5383 0.00378347 0.747009 -1.33468e-13 5.43797e-14 1.4613 76.2645 0.00434396 
0.860689 3.70277e-14 1.09543e-14 1.41221 75.9517 0.00502792 0.994185 -1.49099e-14 1.98734e-14 
1.35785 75.5939 0.00586088 1.1525 -6.94878e-14 2.40402e-14 1.29765 75.1835 0.00687274 
1.342 -6.45838e-15 -1.52981e-14 1.23071 74.7114 0.00809743 1.57092 1.23946e-14 6.61693e-14 
1.15542 74.1667 0.00957127 1.8499 -5.80196e-14 6.47997e-14 1.06904 73.5361 0.0113285 
2.19292 1.98765e-14 8.30672e-15 0.966892 72.8038 0.0133906 2.61846 4.46518e-15 1.25986e-13 
0.841054 71.9511 0.0157439 3.15119 1.41588e-14 1.31483e-13 0.678222 70.9568 0.0182933 
3.82433 -3.91145e-14 1.22426e-13 0.456091 69.7975 0.020763 4.6829 6.00943e-14 1.17684e-13 
0.13728 68.4504 0.0225077 5.78801 -2.16591e-13 3.57527e-14 -0.34092 66.8985 0.0222016 
7.22208 -4.07591e-14 -2.00465e-14 -1.08431 65.1407 0.0161761 9.09393 2.04489e-14 -6.78554e-14 
-2.26152 63.2338 0.00548502 11.5374 5.20278e-14 -9.7089e-14 1.77183 77.8774 0.00170606 
0.0245477 3.97783e-15 -1.01521e-14 1.76909 77.8544 0.00173315 0.0493663 1.83233e-14 -4.71702e-14 
1.76446 77.816 0.00177964 0.0747388 -1.79258e-14 -2.80539e-14 1.75786 77.7615 0.00184759 
0.100974 -2.70387e-14 -1.32154e-14 1.74921 77.6905 0.00194005 0.128419 -2.17716e-14 1.63002e-14 
1.73838 77.602 0.00206111 0.157477 9.70227e-14 -1.65528e-14 1.72527 77.4951 0.00221617 
0.188624 -3.60853e-14 -5.41014e-14 1.70978 77.3683 0.00241217 0.222433 4.46275e-14 -1.34428e-14 
1.69186 77.2199 0.00265791 0.259599 7.54128e-14 -2.4669e-14 1.67148 77.0476 0.00296452 
0.300977 1.84236e-14 -8.10684e-14 1.64871 76.8488 0.00334609 0.347619 3.66608e-14 -2.16097e-14 
1.62371 76.6199 0.00382046 0.400835 -5.11466e-14 1.94948e-14 1.59677 76.3568 0.00441029 
0.462265 2.91295e-14 -3.47561e-14 1.56831 76.0541 0.00514463 0.533974 -6.06633e-14 1.54952e-14 
1.53892 75.7054 0.00606085 0.618584 -5.38181e-14 -7.82458e-14 1.50939 75.3022 0.0072075 
0.719446 4.46136e-14 -3.94732e-14 1.48065 74.8345 0.00864808 0.840892 1.38865e-14 4.97762e-14 
1.45379 74.2892 0.0104664 0.988567 5.39499e-15 3.37386e-14 1.42999 73.65 0.012774 
1.16992 9.56596e-14 -1.95937e-14 1.41031 72.8963 0.0157199 1.39489 -1.02158e-13 -1.26972e-13 
1.39538 72.0017 0.0195044 1.67694 9.47124e-14 -8.05927e-14 1.38484 70.9322 0.0243963 
2.03452 -4.94049e-14 -1.25643e-13 1.37612 69.6439 0.030755 2.49331 -6.9833e-14 -5.38181e-14 
1.36238 68.0798 0.0390382 3.08961 1.02765e-13 -7.62758e-14 1.3284 66.1654 0.0498438 
3.8754 -2.97817e-14 2.0435e-15 1.24246 63.8034 0.063691 4.92594 1.65798e-13 -4.3604e-14 
1.04113 60.8672 0.0809611 6.35092 -1.59026e-13 9.1864e-14 0.598276 57.2054 0.103672 
8.30821 -1.03237e-13 2.0782e-14 1.7892 77.841 0.00175208 0.00825484 -8.19147e-15 2.2842e-15 
1.78675 77.8175 0.00178152 0.0166024 4.83272e-15 3.791e-14 1.78262 77.778 0.00183208 
0.0251398 -2.45721e-14 -9.50436e-15 1.77677 77.722 0.00190604 0.0339727 1.60095e-14 1.75845e-14 
1.76912 77.6489 0.00200678 0.0432203 4.34982e-16 -2.06833e-14 1.75961 77.5578 0.00213888 
0.0530209 -2.41153e-14 -8.05164e-15 1.7482 77.4475 0.00230839 0.0635383 -7.4888e-15 1.04017e-14 
1.73486 77.3166 0.00252315 0.0749694 2.87652e-14 -1.06015e-14 1.71963 77.1629 0.00279318 
0.087554 5.77923e-15 8.28607e-15 1.70264 76.9843 0.00313129 0.101587 1.37815e-14 2.19756e-14 
1.68411 76.7775 0.00355385 0.117432 1.81495e-14 2.67925e-14 1.66441 76.5389 0.00408188 
0.135544 -2.6157e-14 7.34053e-14 1.6441 76.2637 0.00474252 0.156494 7.14429e-14 2.99684e-14 
1.62396 75.946 0.00557114 0.181002 2.75786e-14 -6.45924e-15 1.60508 75.5783 0.00661426 
0.209988 2.37761e-14 1.11261e-13 1.58883 75.1513 0.00793372 0.244631 1.5328e-14 9.18005e-14 
1.57703 74.6531 0.00961284 0.286466 7.79758e-14 7.8621e-14 1.57193 74.0688 0.0117653 
0.337505 9.49726e-14 -6.43611e-14 1.5763 73.379 0.0145482 0.400422 3.93765e-14 3.84551e-14 
1.5935 72.5588 0.0181826 0.47882 6.00388e-14 1.83617e-13 1.62742 71.5757 0.0229835 
0.577626 2.29296e-14 1.05385e-13 1.68243 70.3868 0.0294069 0.703681 6.43478e-14 9.46617e-14 
1.76303 68.9346 0.0381264 0.866658 1.51192e-13 7.17152e-14 1.87293 67.1411 0.0501342 
1.08048 6.00214e-14 1.25767e-14 2.01304 64.8992 0.0669877 1.36556 3.02258e-14 1.34243e-13 
2.17623 62.0582 0.0907894 1.75237 4.36248e-14 1.26061e-13 2.33709 58.4044 0.125612 
2.28708 -2.03587e-13 2.64927e-14 2.41931 53.6309 0.175413 3.04002 -1.06734e-13 -9.17183e-14 
1.7892 77.841 0.00175208 -0.00825484 2.82418e-15 3.37461e-15 1.78675 77.8175 0.00178152 
-0.0166024 -1.26396e-14 -4.30566e-15 1.78262 77.778 0.00183208 -0.0251398 2.34545e-14 -2.35107e-14 
1.77677 77.722 0.00190604 -0.0339727 -2.92451e-14 -2.2498e-14 1.76912 77.6489 0.00200678 
-0.0432203 2.16428e-14 1.80707e-15 1.75961 77.5578 0.00213888 -0.0530209 -6.82137e-15 2.00425e-14 
1.7482 77.4475 0.00230839 -0.0635383 -4.35082e-14 3.65823e-15 1.73486 77.3166 0.00252315 
-0.0749694 -1.14969e-14 3.25907e-14 1.71963 77.1629 0.00279318 -0.087554 5.16319e-14 3.3203e-14 
1.70264 76.9843 0.00313129 -0.101587 1.26756e-14 -4.24921e-14 1.68411 76.7775 0.00355385 
-0.117432 -7.42089e-14 -4.04157e-14 1.66441 76.5389 0.00408188 -0.135544 1.01282e-14 -5.22424e-14 
1.6441 76.2637 0.00474252 -0.156494 -1.06868e-13 -5.5522e-16 1.62396 75.946 0.00557114 
-0.181002 1.4694e-14 -3.17577e-14 1.60508 75.5783 0.00661426 -0.209988 -3.4181e-14 8.06863e-15 
1.58883 75.1513 0.00793372 -0.244631 -1.13451e-13 -8.55638e-14 1.57703 74.6531 0.00961284 
-0.286466 1.12044e-13 -9.92823e-14 1.57193 74.0688 0.0117653 -0.337505 -1.5026e-13 6.52928e-14 
1.5763 73.379 0.0145482 -0.400422 -6.00162e-14 3.03997e-14 1.5935 72.5588 0.0181826 
-0.47882 -4.1963e-14 -6.7162e-14 1.62742 71.5757 0.0229835 -0.577626 -8.21357e-14 -4.89782e-14 
1.68243 70.3868 0.0294069 -0.703681 1.45127e-14 -1.08793e-14 1.76303 68.9346 0.0381264 
-0.866658 9.16454e-14 1.52586e-14 1.87293 67.1411 0.0501342 -1.08048 -2.00805e-13 2.53408e-14 
2.01304 64.8992 0.0669877 -1.36556 9.03652e-14 -9.1629e-14 2.17623 62.0582 0.0907894 
-1.75237 -2.0671e-14 -5.73395e-14 2.33709 58.4044 0.125612 -2.28708 -4.25909e-14 -7.0154e-14 
2.41931 53.6309 0.175413 -3.04002 -2.64372e-14 6.95624e-14 1.77183 77.8774 0.00170606 
-0.0245477 -1.07629e-15 -6.693e-15 1.76909 77.8544 0.00173315 -0.0493663 1.78348e-14 1.09126e-14 
1.76446 77.816 0.00177964 -0.0747388 -1.6314e-14 -2.10484e-14 1.75786 77.7615 0.00184759 
-0.100974 -2.80015e-14 9.60939e-15 1.74921 77.6905 0.00194005 -0.128419 1.70562e-14 -2.57837e-14 
1.73838 77.602 0.00206111 -0.157477 5.87993e-14 4.13736e-14 1.72527 77.4951 0.00221617 
-0.188624 1.52539e-14 -1.64135e-14 1.70978 77.3683 0.00241217 -0.222433 9.6121e-15 -3.01104e-14 
1.69186 77.2199 0.00265791 -0.259599 4.95038e-14 -2.87641e-14 1.67148 77.0476 0.00296452 
-0.300977 -1.91956e-14 4.39763e-15 1.64871 76.8488 0.00334609 -0.347619 -2.82135e-14 -2.68589e-14 
1.62371 76.6199 0.00382046 -0.400835 2.01427e-14 -4.73102e-15 1.59677 76.3568 0.00441029 
-0.462265 1.69847e-14 1.47471e-14 1.56831 76.0541 0.00514463 -0.533974 3.01538e-14 2.04216e-14 
1.53892 75.7054 0.00606085 -0.618584 -1.89085e-14 4.41583e-14 1.50939 75.3022 0.0072075 
-0.719446 -1.47625e-14 4.3398e-14 1.48065 74.8345 0.00864808 -0.840892 9.53508e-14 -2.40294e-14 
1.45379 74.2892 0.0104664 -0.988567 -6.25611e-14 -2.47116e-14 1.42999 73.65 0.012774 
-1.16992 -3.33362e-14 -1.05089e-13 1.41031 72.8963 0.0157199 -1.39489 -4.66502e-14 9.16151e-14 
1.39538 72.0017 0.0195044 -1.67694 -4.5932e-14 -7.14914e-14 1.38484 70.9322 0.0243963 
-2.03452 3.23665e-14 -4.96912e-14 1.37612 69.6439 0.030755 -2.49331 1.15487e-13 -3.82108e-14 
1.36238 68.0798 0.0390382 -3.08961 -2.05287e-13 -1.2137e-13 1.3284 66.1654 0.0498438 
-3.8754 -2.50057e-13 -2.25896e-14 1.24246 63.8034 0.063691 -4.92594 -1.68775e-13 -6.75501e-15 
1.04113 60.8672 0.0809611 -6.35092 -4.81837e-14 -4.01831e-14 0.598276 57.2054 0.103672 
-8.30821 -1.1198e-13 -1.16566e-13 1.73756 77.9493 0.00161642 -0.0402014 2.88045e-15 3.29597e-15 
1.73425 77.9276 0.001639 -0.0808299 -8.62472e-15 -8.97329e-15 1.72865 77.8912 0.0016777 
-0.122332 2.74392e-14 -7.30546e-15 1.72064 77.8397 0.00173418 -0.165193 -6.82332e-15 -1.67076e-16 
1.71006 77.7727 0.00181083 -0.209961 -2.06681e-14 -2.46871e-14 1.6967 77.6894 0.00191088 
-0.257267 1.09118e-14 -7.65011e-14 1.68035 77.5889 0.00203849 -0.307858 -3.18283e-14 1.95712e-14 
1.66075 77.4702 0.00219893 -0.362629 3.26323e-14 2.07182e-14 1.63766 77.3318 0.00239876 
-0.422664 -6.91027e-15 1.53341e-14 1.61083 77.1719 0.00264608 -0.489288 -8.39359e-14 1.64868e-14 
1.58 76.9883 0.0029508 -0.564128 1.06373e-14 4.8855e-14 1.54495 76.7782 0.00332502 
-0.6492 -4.80345e-15 -2.29385e-14 1.50546 76.5383 0.00378347 -0.747009 6.38725e-15 -3.82858e-14 
1.4613 76.2645 0.00434396 -0.860689 5.45362e-14 2.89235e-14 1.41221 75.9517 0.00502792 
-0.994185 6.59204e-14 -1.24158e-13 1.35785 75.5939 0.00586088 -1.1525 -1.08283e-13 -4.50594e-15 
1.29765 75.1835 0.00687274 -1.342 2.6602e-14 8.41644e-15 1.23071 74.7114 0.00809743 
-1.57092 1.64563e-13 2.31959e-14 1.15542 74.1667 0.00957127 -1.8499 -3.99871e-14 1.44069e-15 
1.06904 73.5361 0.0113285 -2.19292 9.47367e-14 -3.55957e-14 0.966892 72.8038 0.0133906 
-2.61846 1.03043e-14 3.43666e-14 0.841054 71.9511 0.0157439 -3.15119 -1.22714e-14 1.15168e-14 
0.678222 70.9568 0.0182933 -3.82433 -1.12133e-13 5.37678e-14 0.456091 69.7975 0.020763 
-4.6829 -1.04305e-13 8.67015e-14 0.13728 68.4504 0.0225077 -5.78801 2.52506e-14 -3.07809e-14 
-0.34092 66.8985 0.0222016 -7.22208 -4.12864e-15 1.07969e-14 -1.08431 65.1407 0.0161761 
-9.09393 -1.21431e-13 2.26277e-14 -2.26152 63.2338 0.00548502 -11.5374 7.82152e-14 3.63737e-14 
1.68727 78.0556 0.00148772 -0.0548262 1.02994e-14 1.32698e-14 1.68318 78.0356 0.00150403 
-0.110202 5.2367e-15 6.52386e-15 1.67622 78.0021 0.00153191 -0.1667 1.56275e-14 -1.50839e-14 
1.66623 77.9549 0.00157247 -0.224945 -3.38677e-14 1.80884e-14 1.65296 77.8935 0.00162725 
-0.285636 -1.89842e-14 -2.03511e-14 1.63607 77.8176 0.00169828 -0.349582 1.09363e-14 -1.23298e-14 
1.6152 77.7264 0.00178811 -0.417735 5.64796e-14 4.30211e-15 1.5899 77.6193 0.00189985 
-0.491228 1.40144e-14 -3.34173e-15 1.55966 77.4951 0.00203712 -0.57143 -2.68748e-14 4.28847e-14 
1.52389 77.3526 0.00220411 -0.660005 -3.13955e-14 -6.06199e-15 1.48196 77.1904 0.00240545 
-0.758985 -9.0347e-14 -1.86426e-14 1.43312 77.0067 0.00264607 -0.870861 1.94671e-14 1.79583e-14 
1.37649 76.7992 0.00293087 -0.998706 -4.90346e-14 -3.25139e-14 1.31101 76.5655 0.0032641 
-1.14632 -5.59899e-14 -1.67839e-14 1.23537 76.3026 0.00364825 -1.31843 -1.11126e-14 7.32517e-14 
1.14782 76.0069 0.0040822 -1.52092 8.35946e-14 -3.13126e-14 1.04603 75.6747 0.0045579 
-1.76118 6.82145e-14 -3.45349e-14 0.926706 75.3015 0.00505477 -2.04852 4.72868e-14 2.06788e-14 
0.785134 74.883 0.00553008 -2.3947 8.63389e-14 -1.82606e-14 0.614425 74.4147 0.0059025 
-2.81466 -7.18783e-14 -9.56752e-14 0.404368 73.8933 0.00602371 -3.32744 -8.2637e-14 -4.33317e-14 
0.139681 73.3174 0.00562979 -3.95727 -4.47836e-14 3.14228e-14 -0.202656 72.6903 0.00425724 
-4.73487 6.51597e-14 -4.61298e-14 -0.657445 72.0238 0.00110605 -5.69866 5.4505e-15 3.72306e-14 
-1.27733 71.3453 -0.00523013 -6.89538 -6.10137e-14 2.70686e-14 -2.14103 70.7105 -0.0168731 
-8.37838 2.51264e-13 -7.16788e-14 -3.36554 70.2213 -0.0388569 -10.2006 -1.07796e-13 -6.4157e-14 
-5.10395 70.0788 -0.0687428 -12.3915 9.1871e-15 4.75731e-14 1.62226 78.1941 0.00132635 
-0.068084 -7.66233e-15 2.70667e-14 1.61721 78.1763 0.00133515 -0.136796 2.1259e-15 1.11625e-14 
1.60863 78.1465 0.0013501 -0.20679 -9.88142e-15 -9.80119e-15 1.59626 78.1046 0.00137167 
-0.278778 -3.30857e-14 -1.71339e-14 1.57975 78.0504 0.00140044 -0.353556 1.91732e-14 -1.03841e-14 
1.55863 77.9836 0.00143711 -0.432039 -8.10918e-15 5.63403e-14 1.53235 77.904 0.00148245 
-0.5153 -1.63554e-14 -1.28994e-14 1.50023 77.8111 0.00153715 -0.604614 1.31631e-14 -5.08716e-14 
1.46146 77.7044 0.0016017 -0.701507 -6.56159e-15 4.0151e-14 1.41511 77.5834 0.00167612 
-0.807821 -4.35498e-14 3.92364e-14 1.36007 77.4474 0.00175952 -0.925782 2.84365e-14 1.01737e-14 
1.29504 77.2957 0.00184953 -1.0581 5.24667e-15 -5.00992e-14 1.21843 77.1274 0.00194125 
-1.20805 -3.14046e-14 1.00932e-13 1.12833 76.9418 0.00202582 -1.37966 1.34181e-15 4.68115e-15 
1.02231 76.738 0.00208805 -1.5778 1.96579e-14 7.7334e-15 0.897279 76.5156 0.00210284 
-1.80843 -2.03075e-14 -1.11126e-14 0.749181 76.2743 0.00202963 -2.07884 -1.06685e-15 4.28824e-15 
0.572588 76.0148 0.00180373 -2.39787 -1.11307e-13 6.26235e-15 0.360116 75.7392 0.00132294 
-2.77631 3.9994e-14 5.08725e-14 0.101582 75.4515 0.000426618 -3.22714 -7.45619e-14 5.4819e-14 
-0.217201 75.1599 -0.00113646 -3.76588 -1.14839e-14 8.17662e-14 -0.616102 74.8781 -0.00375679 
-4.41063 -1.13206e-13 -5.00294e-15 -1.12298 74.6294 -0.00803787 -5.18172 -4.01814e-14 4.80969e-14 
-1.77665 74.4519 -0.0148863 -6.10024 -2.88141e-13 3.2311e-14 -2.63039 74.4067 -0.0256863 
-7.18434 -3.34351e-14 9.69225e-14 -3.75429 74.5907 -0.0420732 -8.44109 3.97946e-15 7.74519e-14 
-5.23589 75.151 -0.0676019 -9.8504 5.64982e-14 1.4428e-13 -7.15579 76.3216 -0.0977054 
-11.3318 -5.7454e-14 7.32192e-14 1.54414 78.3625 0.00114 -0.0797031 -3.04121e-14 1.27314e-14 
1.53805 78.3472 0.00114065 -0.160063 2.70348e-14 3.04691e-14 1.52769 78.3216 0.00114164 
-0.241763 -2.33754e-16 4.60209e-14 1.51272 78.2858 0.00114274 -0.325546 -2.38874e-14 -3.66018e-14 
1.49269 78.2398 0.0011436 -0.412238 3.81702e-14 2.96941e-14 1.46699 78.1836 0.00114359 
-0.502788 -1.63686e-14 -1.60839e-14 1.43485 78.1171 0.00114173 -0.598301 3.26748e-14 -9.78471e-15 
1.39537 78.0404 0.00113643 -0.700079 1.8143e-14 -1.35551e-14 1.34745 77.9535 0.00112521 
-0.809672 8.35907e-14 -3.1611e-15 1.28978 77.8566 0.00110429 -0.928928 -2.26668e-14 3.91575e-14 
1.22082 77.7499 0.00106788 -1.06006 7.15734e-14 -5.33861e-16 1.13872 77.6336 0.00100734 
-1.20571 5.25881e-15 8.11972e-14 1.04125 77.5084 0.000909733 -1.36904 9.51626e-14 -8.44932e-14 
0.925711 77.3751 0.000755905 -1.55381 9.90093e-15 6.02296e-15 0.78875 77.2351 0.000517603 
-1.7645 1.97455e-14 -6.66047e-14 0.626168 77.0905 0.000153308 -2.00639 -2.09598e-14 1.7774e-14 
0.432616 76.9446 -0.000397779 -2.28567 -4.40229e-14 3.60727e-14 0.201194 76.8024 -0.00122439 
-2.60948 5.8651e-14 -8.2918e-14 -0.0770932 76.6712 -0.00245549 -2.98596 -3.41602e-14 -2.01662e-14 
-0.414059 76.5621 -0.0042773 -3.42404 8.46285e-14 5.3374e-14 -0.825255 76.4913 -0.00695616 
-3.93305 1.43729e-13 -4.8862e-14 -1.33108 76.4828 -0.0108661 -4.52177 -5.50202e-14 2.19824e-14 
-1.95794 76.5718 -0.0165199 -5.19653 -1.01606e-13 -2.94799e-14 -2.73912 76.8089 -0.0245722 
-5.95767 8.88387e-14 -7.5228e-14 -3.71437 77.2667 -0.0358317 -6.79333 -2.27873e-14 -1.30292e-13 
-4.92572 78.0473 -0.0508241 -7.66849 2.40331e-13 -2.08278e-13 -6.40664 79.2878 -0.0704343 
-8.50796 -1.03039e-14 -1.79197e-13 -8.14639 81.1689 -0.0892971 -9.16852 -1.52916e-14 -8.01859e-14 
1.45476 78.5577 0.000937051 -0.089487 1.33494e-14 2.76988e-14 1.44763 78.5451 0.000929593 
-0.179608 -5.95574e-15 1.25425e-14 1.43548 78.5242 0.000916664 -0.271023 2.00864e-14 3.3233e-14 
1.41792 78.4951 0.000897467 -0.364444 -3.67532e-14 -1.83742e-14 1.39437 78.4579 0.000870775 
-0.460666 1.34476e-14 2.66805e-14 1.36408 78.413 0.00083481 -0.560592 -7.41876e-15 7.86263e-16 
1.32611 78.3606 0.00078706 -0.665269 -3.97033e-14 5.55406e-14 1.27934 78.3012 0.000724016 
-0.775921 1.74557e-14 1.51901e-14 1.22239 78.2354 0.0006408 -0.893989 2.83671e-14 -2.38806e-14 
1.15363 78.1638 0.000530639 -1.02117 3.46945e-17 1.51225e-14 1.07114 78.0876 0.000384132 
-1.15946 3.54122e-14 -3.56186e-14 0.972604 78.008 0.000188229 -1.3112 -2.50616e-14 2.50798e-14 
0.855296 77.9268 -7.51923e-05 -1.47913 1.8003e-14 -3.72497e-14 0.715918 77.8464 -0.000431279 
-1.6664 -1.39916e-13 -4.72877e-14 0.55048 77.77 -0.000914884 -1.8766 -7.24403e-14 -7.01522e-15 
0.3541 77.702 -0.00157418 -2.11379 -8.43535e-14 3.03143e-14 0.120763 77.6482 -0.00247547 
-2.38237 4.13237e-14 -5.56959e-14 -0.156992 77.6167 -0.00370934 -2.687 -1.2652e-13 -3.43545e-14 
-0.488448 77.6187 -0.00539814 -3.03225 9.69103e-15 -3.83894e-15 -0.885132 77.6694 -0.00770422 
-3.42202 6.15497e-14 -1.48544e-14 -1.36122 77.7893 -0.0108368 -3.85861 7.83488e-15 1.06443e-14 
-1.93377 78.0068 -0.0150518 -4.34103 -8.04374e-14 6.0698e-14 -2.62248 78.3599 -0.0206363 
-4.8623 -6.51614e-14 -4.26846e-14 -3.44826 78.899 -0.0278409 -5.40522 1.55796e-14 -2.10283e-14 
-4.42941 79.6896 -0.0367745 -5.93579 -1.00325e-13 1.72501e-14 -5.57286 80.8135 -0.0469597 
-6.39386 2.30345e-14 1.73722e-13 -6.85748 82.3649 -0.0573007 -6.68104 -1.16331e-13 1.12292e-13 
-8.20255 84.4396 -0.0642284 -6.64734 1.12375e-14 7.67164e-14 1.40411 78.6658 -5.61616e-05 
0.0934672 8.51272e-15 -1.13824e-14 1.45609 78.5621 0.000511284 0.0446979 -1.13231e-14 2.06692e-15 
1.3965 78.6546 -6.16012e-05 0.187534 -3.46207e-15 3.35756e-15 1.45138 78.5537 0.000512081 
0.13441 1.77829e-14 -7.97105e-16 1.38353 78.6361 -7.0771e-05 0.282825 -1.5724e-14 -3.23162e-14 
1.44179 78.537 0.000513582 0.225081 1.21795e-14 1.28647e-14 1.36477 78.6104 -8.38354e-05 
0.380014 3.13031e-15 -9.75175e-15 1.42702 78.512 0.000515587 0.317397 -1.79969e-14 -6.11663e-15 
1.3396 78.5779 -0.000101043 0.479847 3.73456e-14 2.19408e-14 1.40657 78.4789 0.000517777 
0.412106 -1.11786e-14 -8.6155e-15 1.30722 78.5388 -0.000122746 0.583174 -4.18962e-14 -3.81232e-14 
1.37979 78.4379 0.000519674 0.510055 2.27951e-14 -2.74824e-14 1.26661 78.4936 -0.000149431 
0.690975 -1.37876e-14 -7.1991e-15 1.34584 78.3893 0.0005206 0.612215 -4.62824e-15 -4.54289e-14 
1.21655 78.4431 -0.000181759 0.80439 -8.67362e-16 -3.90746e-14 1.30368 78.3335 0.000519599 
0.719718 1.36263e-14 -4.85046e-14 1.15557 78.3879 -0.000220621 0.924752 -3.62549e-14 -2.91434e-15 
1.25208 78.2709 0.000515341 0.83389 -3.06742e-14 -3.07428e-14 1.08191 78.3292 -0.000267209 
1.05362 1.10086e-14 5.30079e-14 1.18954 78.2024 0.000505969 0.956294 -1.7198e-14 2.54102e-14 
0.993517 78.2684 -0.000323119 1.1928 -7.11757e-14 -2.549e-14 1.11429 78.1286 0.000488896 
1.08877 -3.36727e-14 -2.74954e-15 0.887939 78.2071 -0.000390467 1.34441 -1.88495e-14 7.72021e-14 
1.02423 78.0509 0.000460506 1.23348 5.3256e-15 -5.71522e-14 0.762294 78.1478 -0.000472052 
1.51084 -9.22162e-14 1.11872e-14 0.91688 77.9708 0.000415735 1.39295 -1.10086e-14 1.28526e-14 
0.61315 78.0934 -0.000571533 1.69482 2.94799e-14 3.46459e-14 0.789239 77.8903 0.000347483 
1.57012 -2.00326e-14 1.16799e-14 0.436409 78.048 -0.000693638 1.89937 3.90243e-14 -3.30361e-14 
0.637708 77.8123 0.000245771 1.76834 7.79446e-14 -9.36057e-15 0.227145 78.0167 -0.000844358 
2.12775 9.2714e-14 -7.94503e-15 0.457909 77.7405 9.65756e-05 1.99143 7.10716e-14 -2.33633e-14 
-0.0205846 78.0066 -0.00103105 2.38333 -4.22752e-14 -5.17017e-14 0.244466 77.6802 -0.000119819 
2.24361 3.8046e-14 -6.34666e-14 -0.313966 78.027 -0.00126235 2.66933 2.15175e-14 -3.81084e-14 
-0.00926397 77.6385 -0.000431083 2.52939 4.36179e-14 -8.79539e-14 -0.661676 78.09 -0.00154747 
2.98842 5.45952e-14 -1.05124e-14 -0.311533 77.6248 -0.000875925 2.85338 1.05849e-13 -7.8236e-15 
-1.0741 78.2122 -0.00189454 3.34201 6.46913e-14 3.06213e-14 -0.672599 77.6526 -0.00150818 
3.21981 -6.6145e-14 2.44527e-14 -1.56343 78.4152 -0.00230666 3.72909 -1.06515e-13 -3.85386e-14 
-1.10515 77.7397 -0.00240191 3.63184 -1.97828e-14 -4.66224e-14 -2.14348 78.7273 -0.00277422 
4.14446 -1.31678e-13 7.79932e-15 -1.62465 77.9108 -0.00365749 4.09018 9.15414e-14 -6.00214e-15 
-2.82878 79.1857 -0.00325913 4.576 -1.46569e-13 8.56884e-14 -2.24941 78.199 -0.0054068 
4.591 1.85497e-13 -4.56371e-14 -3.63242 79.837 -0.00367144 5.00058 5.82277e-14 -6.16174e-15 
-2.99988 78.6486 -0.00781606 5.12249 -4.0537e-14 -1.04083e-14 -4.56124 80.7387 -0.00381019 
5.37835 -1.18846e-13 -1.04639e-13 -3.89631 79.3171 -0.0110765 5.65955 3.84432e-13 1.9415e-14 
-5.60678 81.9567 -0.00334867 5.64524 -2.04184e-13 1.1445e-13 -4.95309 80.2774 -0.0153623 
6.15593 9.83303e-14 4.66155e-14 -6.72868 83.5587 -0.00164528 5.70469 2.23044e-13 5.5192e-14 
-6.16675 81.6158 -0.0208219 6.53363 1.33171e-13 5.80785e-14 -7.82755 85.6002 0.0024484 
5.42179 -2.70173e-13 -7.57727e-15 -7.49306 83.4248 -0.0269262 6.67031 -1.32824e-13 -7.71605e-15 
-8.80689 85.7786 -0.0349607 6.3936 1.1352e-13 2.69784e-14 1.49787 78.4581 -3.33341e-05 
0.0846605 1.03661e-15 1.34649e-14 1.54508 78.3672 0.00058865 0.0398082 -2.04193e-14 -8.34922e-15 
1.49125 78.4441 -3.7613e-05 0.169969 3.7611e-15 -2.80158e-16 1.54106 78.357 0.000591309 
0.119752 1.16591e-14 1.82172e-14 1.47999 78.4209 -4.48105e-05 0.256599 2.72915e-15 1.83195e-14 
1.53287 78.3366 0.00059662 0.20069 6.58067e-15 2.85275e-15 1.46371 78.3884 -5.50341e-05 
0.34528 8.80762e-15 1.04309e-14 1.52026 78.3059 0.000604561 0.283333 4.81516e-15 1.30677e-14 
1.44189 78.3467 -6.8453e-05 0.436826 1.49282e-14 -7.26415e-15 1.50284 78.265 0.00061509 
0.368462 1.88257e-14 1.79023e-15 1.41387 78.296 -8.53185e-05 0.532166 -1.72423e-14 -2.93446e-14 
1.48007 78.2139 0.000628118 0.456961 2.69819e-14 -3.87017e-15 1.3788 78.2365 -0.000105995 
0.632379 6.58171e-14 -3.05918e-15 1.45127 78.1526 0.000643484 0.549852 -3.4521e-14 6.08368e-15 
1.33566 78.1684 -0.000131003 0.738732 -1.16448e-13 3.09301e-15 1.41561 78.0811 0.000660909 
0.648336 2.49696e-14 1.94723e-14 1.2832 78.092 -0.000161081 0.852725 5.81844e-14 -1.61555e-14 
1.37208 77.9994 0.000679919 0.753831 -3.3148e-14 3.46815e-14 1.21998 78.0077 -0.000197272 
0.976136 5.76136e-14 -2.6975e-14 1.3195 77.9076 0.000699745 0.868029 -7.8439e-14 2.61249e-15 
1.14426 77.9163 -0.000241036 1.11108 2.4928e-15 -4.43395e-14 1.25645 77.8058 0.000719159 
0.992953 -2.88762e-14 -2.99587e-15 1.05398 77.8184 -0.000294414 1.26004 5.65971e-14 -7.2737e-15 
1.18123 77.6944 0.00073624 1.13102 8.18443e-14 3.17593e-14 0.946661 77.7154 -0.000360242 
1.42599 1.04909e-13 -4.8744e-14 1.09184 77.5739 0.000748018 1.28511 1.26059e-13 -2.96985e-14 
0.819335 77.6089 -0.00044244 1.61239 -4.22561e-14 -4.48166e-14 0.985844 77.4448 0.000749951 
1.45869 -4.69746e-14 -8.54386e-14 0.668358 77.5013 -0.000546385 1.82329 5.54071e-15 -2.175e-14 
0.860242 77.3084 0.000735142 1.65584 -2.55317e-14 -4.75037e-14 0.489232 77.3959 -0.000679396 
2.06335 1.41553e-14 -2.48274e-14 0.711321 77.1664 0.000693181 1.88143 -1.80071e-13 -2.77313e-14 
0.276338 77.2976 -0.000851314 2.33788 -1.11598e-13 -1.05124e-14 0.534383 77.0217 0.000608413 
2.14115 -7.74207e-14 1.89432e-15 0.0225856 77.2131 -0.00107515 2.65279 -8.37559e-14 -3.82888e-14 
0.323416 76.8783 0.000457364 2.44165 1.26857e-13 -8.35443e-15 -0.281035 77.152 -0.00136765 
3.0144 -1.30836e-13 2.24057e-14 0.0706242 76.7426 0.00020493 2.79052 -9.08891e-14 -5.53099e-14 
-0.646005 77.1279 -0.00174945 3.4291 4.66016e-14 7.49401e-16 -0.234189 76.6237 -0.000201273 
3.19625 6.01984e-14 -1.91513e-14 -1.08692 77.1602 -0.00224396 3.90264 -7.67997e-14 1.09079e-14 
-0.604428 76.5356 -0.000839109 3.66795 1.96683e-14 6.18949e-14 -1.62212 77.2759 -0.00287362 
4.43874 4.28824e-14 -4.71775e-14 -1.05771 76.4985 -0.00182384 4.21465 6.41431e-14 2.5431e-14 
-2.27414 77.5131 -0.00364837 5.03683 1.79336e-14 -6.00353e-14 -1.61702 76.5422 -0.00332397 
4.84392 1.15217e-13 7.77156e-15 -3.06936 77.9243 -0.0045472 5.68798 -9.67282e-14 -8.03246e-14 
-2.31179 76.7098 -0.00558372 5.55923 4.78437e-15 1.68615e-14 -4.03581 78.5811 -0.00544626 
6.36848 -9.53231e-14 1.09898e-13 -3.17829 77.0633 -0.00894219 6.35513 -2.94788e-13 1.15644e-13 
-5.1971 79.5777 -0.00611613 7.02958 -1.63811e-13 -7.33719e-14 -4.25796 77.6896 -0.0138577 
7.2089 -4.95506e-14 7.04437e-14 -6.55753 81.0324 -0.00570075 7.58262 1.30011e-13 -3.59712e-14 
-5.5905 78.7079 -0.020898 8.06663 -3.29355e-13 4.4964e-15 -8.07381 83.079 -0.00415918 
7.88016 -1.73292e-13 -5.52614e-14 -7.19483 80.2709 -0.0304764 8.82181 -1.06045e-13 2.4869e-14 
-9.02859 82.5663 -0.0445495 9.28859 -2.30614e-13 -6.79456e-14 1.5814 78.2757 -1.05919e-05 
0.0739563 -9.0043e-15 -3.89532e-15 1.62283 78.1991 0.000658627 0.034003 3.7128e-15 -1.98947e-14 
1.57582 78.2591 -1.36431e-05 0.148557 1.92808e-14 2.28706e-14 1.61948 78.1873 0.000663137 
0.102322 -4.53977e-15 -1.17918e-14 1.56632 78.2313 -1.87461e-05 0.224474 5.62571e-15 -3.91909e-14 
1.61269 78.1635 0.000672243 0.171592 6.84956e-15 -1.47365e-14 1.55261 78.1924 -2.59347e-05 
0.302436 -3.21449e-14 -1.20546e-14 1.60225 78.1276 0.000686113 0.242493 2.29023e-14 3.86063e-15 
1.53429 78.1421 -3.52715e-05 0.383258 1.07674e-14 -1.5897e-14 1.58785 78.0796 0.000704999 
0.315777 1.60523e-14 8.70831e-16 1.51082 78.0805 -4.68654e-05 0.467875 -5.10035e-14 5.22759e-14 
1.56909 78.0191 0.000729237 0.392295 -4.05882e-14 3.18929e-15 1.48154 78.0072 -6.08984e-05 
0.557379 4.57264e-14 -5.94923e-15 1.54546 77.9459 0.000759236 0.473037 1.52621e-14 3.92915e-15 
1.44566 77.9222 -7.76641e-05 0.653064 -2.38707e-14 4.98004e-14 1.51633 77.8597 0.000795473 
0.559173 -7.94009e-14 -3.2252e-14 1.40222 77.8251 -9.76237e-05 0.756472 -2.69923e-15 -3.59435e-15 
1.48098 77.7599 0.000838465 0.652096 9.28077e-15 -1.07735e-14 1.3501 77.7159 -0.000121485 
0.869455 4.03844e-14 5.00138e-14 1.43852 77.6461 0.000888725 0.753484 -8.07149e-14 -2.00898e-14 
1.28798 77.5942 -0.000150318 0.99424 -1.74959e-13 3.48194e-14 1.38795 77.5176 0.000946691 
0.86536 1.27348e-13 -4.25701e-15 1.21429 77.4598 -0.000185714 1.13351 5.62102e-14 5.77177e-14 
1.32807 77.3738 0.0010126 0.990179 -1.51882e-13 1.09981e-15 1.12713 77.3127 -0.000230015 
1.2905 3.31731e-14 3.90243e-14 1.25744 77.2138 0.00108629 1.13092 6.33972e-14 4.03861e-14 
1.02419 77.153 -0.00028664 1.46912 3.72133e-14 -9.15414e-15 1.17434 77.0369 0.00116686 
1.29122 -1.03965e-13 6.09582e-14 0.902611 76.9808 -0.00036054 1.67405 -6.61103e-14 3.01252e-14 
1.07662 76.8424 0.00125215 1.4755 8.71525e-14 2.05651e-14 0.758769 76.7972 -0.000458844 
1.91095 5.36723e-15 1.86032e-14 0.961572 76.6294 0.00133789 1.68914 5.00294e-15 -1.334e-15 
0.588004 76.6039 -0.000591752 2.18656 -1.00586e-13 1.25247e-14 0.825684 76.3978 0.00141635 
1.93873 -6.32064e-14 -1.38431e-15 0.384219 76.4037 -0.000773768 2.50891 9.23532e-14 3.40422e-14 
0.664315 76.1478 0.00147419 2.23228 -9.46118e-15 -1.11647e-14 0.139328 76.2017 -0.00102533 
2.88748 4.14946e-14 -4.71879e-14 0.471206 75.8809 0.00148899 2.57953 9.17461e-14 1.28716e-15 
-0.157506 76.006 -0.00137484 3.33325 -1.37324e-13 2.82344e-14 0.237791 75.6001 0.00142371 
2.99228 -7.70495e-14 4.08874e-14 -0.5209 75.8294 -0.00186087 3.85866 2.03088e-13 -1.63619e-14 
-0.0477965 75.3119 0.00121779 3.48468 1.90126e-13 -7.61197e-15 -0.970601 75.6921 -0.00253392 
4.4771 -1.44301e-13 1.88599e-14 -0.402121 75.0273 0.000772792 4.0734 -3.13916e-14 -4.38261e-14 
-1.53315 75.6249 -0.00345398 5.20176 -9.51114e-14 1.17184e-13 -0.848389 74.7652 -6.99214e-05 
4.77751 -1.32533e-15 -6.32688e-14 -2.24369 75.6749 -0.0046857 6.04306 7.32817e-14 7.67025e-14 
-1.41904 74.5569 -0.00156689 5.61756 1.37251e-14 -8.42798e-14 -3.14731 75.913 -0.00623653 
7.00347 4.4284e-14 -1.86656e-14 -2.15895 74.4527 -0.00412005 6.61309 2.96152e-14 -8.55843e-14 
-4.29839 76.4437 -0.00812534 8.06782 -2.13461e-13 2.43139e-14 -3.12873 74.5318 -0.0083839 
7.7769 9.19542e-14 -5.5303e-14 -5.75291 77.4189 -0.0094086 9.18578 3.40561e-14 7.36078e-14 
-4.40612 74.9183 -0.0152713 9.10288 1.62856e-14 -4.81282e-14 -7.55063 79.0428 -0.0120014 
10.2434 -2.24439e-14 4.37983e-14 -6.08024 75.795 -0.0264132 10.5435 -1.64521e-14 1.50435e-14 
-8.22225 77.4444 -0.0436504 11.9679 4.38581e-14 -1.77636e-15 1.65277 78.1217 1.05695e-05 
0.0615111 -1.32259e-14 4.60118e-14 1.6875 78.0609 0.000718504 0.0273804 -2.67829e-14 5.20417e-16 
1.64818 78.1028 8.71669e-06 0.123613 3.33266e-14 -1.79527e-14 1.68478 78.0475 0.000724716 
0.0824147 1.73535e-14 -7.14186e-15 1.64037 78.071 5.66427e-06 0.186922 1.05809e-14 -2.37067e-14 
1.67926 78.0208 0.000737311 0.138282 -4.61436e-15 -7.069e-16 1.62913 78.0263 1.46118e-06 
0.252107 3.82827e-14 -4.82774e-15 1.6708 77.9804 0.000756642 0.195578 -3.54361e-15 1.56108e-14 
1.61416 77.9683 -3.83374e-06 0.319921 -3.06786e-14 2.02329e-14 1.65918 77.9261 0.000783251 
0.254961 2.01445e-14 2.7825e-15 1.59506 77.8967 -1.01634e-05 0.391227 -3.31159e-15 -1.39472e-14 
1.64411 77.8575 0.000817885 0.317184 2.30779e-14 -9.92262e-16 1.57137 77.811 -1.74905e-05 
0.467041 2.03709e-14 -1.58745e-14 1.62525 77.7739 0.000861525 0.383122 2.62854e-14 4.08961e-15 
1.54251 77.7105 -2.58241e-05 0.548573 -8.31626e-15 -6.30416e-14 1.60217 77.6748 0.000915407 
0.453813 4.07105e-14 -3.01573e-14 1.50783 77.5946 -3.52607e-05 0.637275 -2.71866e-14 4.48946e-15 
1.5744 77.5591 0.000981059 0.530504 -5.96381e-14 -1.01056e-14 1.46657 77.4623 -4.60428e-05 
0.734907 5.88037e-14 -4.36266e-14 1.5414 77.4257 0.00106033 0.614703 -7.0487e-14 -2.00933e-14 
1.41784 77.3125 -5.86474e-05 0.843606 3.19397e-14 -4.00608e-14 1.50254 77.2733 0.00115544 
0.708248 3.458e-14 -2.35879e-14 1.36061 77.144 -7.3915e-05 0.965981 7.40172e-14 -6.7113e-14 
1.45714 77.1003 0.00126899 0.813391 9.12638e-15 -5.83093e-14 1.29366 76.9553 -9.32401e-05 
1.10523 2.37969e-14 3.76539e-14 1.40438 76.9047 0.00140398 0.932898 -1.32741e-14 -4.77916e-14 
1.21549 76.7445 -0.000118854 1.26527 -1.6203e-13 -1.65042e-14 1.34331 76.684 0.00156376 
1.07019 3.42538e-14 -5.43628e-14 1.12423 76.51 -0.000154246 1.45092 4.31218e-14 -7.18869e-15 
1.27275 76.4357 0.00175194 1.22949 2.74156e-14 1.73507e-14 1.01746 76.2497 -0.000204785 
1.66816 1.50858e-13 -1.94948e-14 1.19119 76.1563 0.00197213 1.41609 -2.59896e-14 -7.83054e-15 
0.892006 75.9615 -0.000278666 1.92433 1.13749e-13 1.36766e-14 1.09664 75.8423 0.00222738 
1.63656 -6.22974e-14 4.29431e-14 0.743521 75.6438 -0.000388315 2.22858 3.95933e-14 -1.10474e-13 
0.986344 75.4896 0.00251923 1.8992 7.07837e-14 -1.58241e-14 0.566008 75.2955 -0.000552506 
2.59222 1.64889e-13 5.10217e-14 0.856402 75.0939 0.00284582 2.21445 -5.00502e-14 3.3272e-15 
0.351017 74.9167 -0.000799504 3.02932 6.35603e-15 -5.40679e-14 0.701178 74.6508 0.00319855 
2.59555 1.54085e-13 -1.08177e-14 0.0865027 74.5102 -0.00117164 3.55724 -3.95031e-14 -1.94844e-14 
0.512382 74.1565 0.00355599 3.05932 -8.80962e-14 -8.55357e-14 -0.244842 74.0831 -0.0017318 
4.19724 6.36505e-14 -1.03972e-13 0.277688 73.609 0.00387301 3.62717 5.05845e-14 -8.25867e-14 
-0.667993 73.6502 -0.00257087 4.97495 -2.20657e-15 -1.12035e-13 -0.021393 73.0095 0.00406148 
4.32624 8.72913e-15 -6.15549e-14 -1.21898 73.2388 -0.00381947 5.92015 -1.23873e-13 -1.25344e-13 
-0.412729 72.3661 0.00395403 5.19069 1.41276e-14 -9.77551e-14 -1.94937 72.8975 -0.00562043 
7.0651 -1.18669e-13 7.20257e-15 -0.938407 71.6993 0.00324863 6.26249 -6.86395e-14 -6.25611e-14 
-2.93165 72.7092 -0.00825549 8.43947 -4.79755e-14 -6.64746e-14 -1.6618 71.0519 0.00136398 
7.59107 3.42337e-13 -1.03667e-14 -4.26224 72.8134 -0.0110699 10.0575 -3.77226e-13 -1.3739e-13 
-2.67687 70.5062 -0.00257566 9.22844 9.42996e-14 -8.62366e-14 -6.0631 73.4272 -0.018032 
11.8919 -3.34184e-13 1.41831e-14 -4.11948 70.2065 -0.011047 11.2168 3.76643e-14 -1.95677e-14 
-6.1626 70.4337 -0.0240646 13.5492 7.51899e-14 4.46865e-14 1.71026 77.9989 2.87435e-05 
0.0475595 -9.18623e-15 -2.43282e-14 1.73751 77.9548 0.000765841 0.020076 -3.32969e-15 4.21581e-14 
1.70653 77.978 2.79573e-05 0.0956089 9.32739e-15 3.28383e-14 1.7353 77.9403 0.000773467 
0.0604406 -1.7385e-14 1.72544e-14 1.7002 77.9429 2.67344e-05 0.14466 -1.18356e-14 1.30104e-15 
1.73084 77.9113 0.000788968 0.101453 1.13715e-14 1.88963e-14 1.69112 77.8933 2.52045e-05 
0.19527 4.66294e-15 1.99779e-14 1.72403 77.8673 0.000812854 0.143577 -1.67288e-14 1.52703e-14 
1.67909 77.8288 2.35466e-05 0.248065 2.77374e-14 -3.36597e-14 1.71472 77.808 0.000845917 
0.187327 3.28531e-14 -1.0417e-15 1.66384 77.7489 2.19845e-05 0.303766 -2.51058e-14 3.98613e-14 
1.70273 77.7328 0.00088927 0.23329 -1.77514e-14 3.04938e-14 1.64507 77.6526 2.07799e-05 
0.363228 1.29948e-14 1.47816e-14 1.68784 77.6409 0.00094439 0.282153 1.53783e-14 5.18639e-14 
1.62242 77.5392 2.02209e-05 0.427467 3.6627e-14 4.21555e-14 1.66982 77.5313 0.00101319 
0.334733 -6.99961e-15 6.383e-14 1.59551 77.4072 2.06034e-05 0.497716 -6.13988e-14 3.68837e-14 
1.64841 77.4027 0.00109812 0.392014 1.5956e-14 9.41894e-14 1.56391 77.2552 2.2201e-05 
0.575475 5.20729e-14 -1.29749e-14 1.62335 77.2535 0.00120223 0.455195 1.97602e-14 6.13251e-14 
1.52717 77.0813 2.52186e-05 0.662581 2.49453e-15 8.2114e-14 1.59439 77.0816 0.0013294 
0.525745 8.29475e-14 5.39794e-14 1.48479 76.8832 2.97197e-05 0.761298 -7.00846e-14 -2.41326e-14 
1.56128 76.8846 0.00148446 0.605475 6.51007e-14 7.72299e-15 1.4362 76.6581 3.5513e-05 
0.874429 -2.72317e-14 -5.53134e-14 1.52379 76.6595 0.00167343 0.696632 -2.07542e-14 -6.80705e-15 
1.38075 76.4026 4.19759e-05 1.00546 -2.79637e-15 -3.99385e-14 1.4817 76.4024 0.00190388 
0.80202 5.93345e-14 1.10242e-14 1.31762 76.1126 4.77768e-05 1.15874 -3.55618e-14 -8.59382e-15 
1.43474 76.1089 0.00218522 0.925155 -2.38178e-14 1.00033e-14 1.24575 75.7834 5.04373e-05 
1.33976 -9.36334e-14 -3.93522e-14 1.38263 75.7734 0.00252926 1.07048 -2.93029e-14 2.77348e-14 
1.16366 75.4091 4.56337e-05 1.55544 -4.61194e-14 -1.05662e-14 1.3249 75.3889 0.00295067 
1.24363 1.37324e-13 1.71634e-14 1.06922 74.9829 2.60732e-05 1.8146 7.17343e-14 3.1683e-14 
1.26084 74.9473 0.0034677 1.45186 9.70578e-14 3.70017e-14 0.959234 74.4971 -2.03306e-05 
2.12853 7.97556e-14 -2.51743e-14 1.18921 74.4385 0.00410275 1.7045 -6.25194e-15 8.68697e-14 
0.828869 73.9427 -0.000113436 2.5118 9.27314e-14 9.4022e-16 1.10793 73.8504 0.00488286 
2.01376 -3.57145e-14 3.04617e-15 0.670667 73.3102 -0.000285785 2.98334 1.67914e-13 -1.85442e-14 
1.01338 73.1686 0.0058395 2.39567 2.04142e-14 8.87519e-14 0.473064 72.5898 -0.000590577 
3.56782 2.79221e-14 4.17236e-14 0.899512 72.3758 0.00700687 2.87155 -1.23838e-13 1.38837e-13 
0.218021 71.7728 -0.00111477 4.29751 -3.18356e-14 1.09197e-13 0.756119 71.4522 0.00841642 
3.46995 -1.46841e-13 1.19835e-13 -0.122715 70.8548 -0.00199995 5.21454 4.18277e-14 6.81261e-14 
0.566142 70.3761 0.010083 4.22939 2.14079e-13 1.43156e-13 -0.593468 69.8403 -0.00346116 
6.37332 -1.5532e-13 -5.48173e-14 0.30108 69.1249 0.011978 5.20202 7.61891e-14 7.82985e-14 
-1.26375 68.7536 -0.0059138 7.84233 8.45157e-15 1.18128e-13 -0.0867907 67.6798 0.0139291 
6.45828 -1.31478e-13 7.27474e-14 -2.24068 67.6581 -0.00921579 9.7021 -1.28758e-13 -7.73825e-14 
-0.677037 66.0354 0.0157019 8.09125 -9.5951e-14 -3.36398e-14 -3.69038 66.6811 -0.0183549 
12.0351 9.07052e-14 -2.70617e-14 -1.6041 64.2143 0.0152194 10.2207 -6.56419e-14 -7.61058e-14 
-3.07651 62.34 0.0165173 12.9739 -1.39971e-13 -7.4496e-14 1.75242 77.9095 4.27031e-05 
0.0324068 -1.1653e-15 -5.04761e-15 1.77158 77.883 0.000798614 0.0122585 -2.23358e-14 -7.60633e-15 
1.74936 77.8871 4.27573e-05 0.065164 5.19203e-15 -4.85141e-14 1.76975 77.8677 0.000807254 
0.0369102 1.68583e-14 -2.62733e-14 1.74418 77.8494 4.29784e-05 0.0986375 -2.19143e-14 -2.26876e-14 
1.76605 77.837 0.000824838 0.0619727 8.14496e-15 1.02782e-16 1.73679 77.7962 4.35642e-05 
0.133226 -4.40238e-14 1.57036e-14 1.76041 77.7905 0.000851994 0.0877405 -3.49794e-14 -1.29213e-14 
1.72705 77.7269 4.47951e-05 0.169378 -8.70571e-15 5.61903e-14 1.75276 77.7278 0.000889699 
0.11454 -6.20597e-15 -6.18646e-15 1.7148 77.6406 4.70373e-05 0.207614 2.21012e-14 -2.19308e-14 
1.74297 77.648 0.000939335 0.142746 5.48277e-14 -7.96542e-15 1.69988 77.5364 5.07465e-05 
0.248548 2.15357e-14 -3.12077e-15 1.73093 77.5503 0.00100275 0.172794 3.92871e-14 -4.84994e-14 
1.68209 77.4129 5.64714e-05 0.292915 -1.9134e-15 7.43325e-14 1.71654 77.4333 0.00108237 
0.205208 -9.72625e-14 3.7071e-15 1.66128 77.2687 6.48571e-05 0.341611 6.69239e-14 -2.97514e-14 
1.69971 77.2956 0.00118133 0.240618 5.12021e-14 -2.4856e-14 1.6373 77.1016 7.66459e-05 
0.395727 1.17788e-15 7.10976e-15 1.68039 77.1352 0.00130362 0.279796 -1.89224e-14 -9.75908e-14 
1.61005 76.9091 9.2675e-05 0.456612 -2.31221e-14 6.02816e-17 1.6586 76.9495 0.00145437 
0.323689 -1.60531e-14 -4.10926e-14 1.57947 76.6881 0.000113867 0.525936 -8.03455e-14 3.662e-15 
1.63443 76.7354 0.00164016 0.373472 -1.24813e-14 1.74071e-14 1.54557 76.4348 0.000141206 
0.605781 -7.04298e-16 8.21565e-15 1.60809 76.4892 0.00186942 0.430613 -8.68576e-14 5.48251e-14 
1.50841 76.1442 0.000175695 0.698763 -4.07313e-15 9.19403e-16 1.57993 76.2061 0.00215306 
0.496951 2.93168e-14 -9.88966e-15 1.46814 75.8106 0.000218266 0.808184 3.11487e-14 -1.90481e-14 
1.55042 75.88 0.00250525 0.574814 -1.43566e-14 -3.25399e-14 1.4249 75.4266 0.000269624 
0.938246 -3.43406e-14 9.37722e-14 1.52022 75.5036 0.00294458 0.667166 5.48485e-14 -3.06179e-14 
1.37883 74.9831 0.000329954 1.09434 7.35592e-14 -6.20216e-14 1.49017 75.0676 0.0034956 
0.777818 5.34711e-14 6.41241e-14 1.32993 74.4689 0.000398396 1.28346 1.40936e-13 1.09935e-13 
1.46125 74.5604 0.00419107 0.911715 -7.25461e-14 6.73871e-14 1.27787 73.8701 0.000472087 
1.51473 -7.01522e-14 -7.63348e-14 1.43455 73.9673 0.00507509 1.07534 8.15667e-14 4.58383e-14 
1.22166 73.1691 0.00054442 1.80022 1.93512e-13 -7.57033e-15 1.41113 73.2698 0.00620768 
1.2773 -8.79852e-15 -7.44266e-14 1.15911 72.3444 0.000601778 2.15606 -4.93147e-14 8.29059e-14 
1.39182 72.4442 0.00767126 1.52914 -7.00828e-14 -9.72503e-14 1.08579 71.369 0.000617743 
2.60409 1.2973e-13 -1.35655e-14 1.37673 71.4605 0.00958017 1.84662 -3.94129e-15 -1.01523e-13 
0.993472 70.2094 0.00054095 3.17412 -2.17326e-13 -8.76729e-14 1.36443 70.2795 0.012094 
2.25148 6.95971e-14 -1.18242e-13 0.867164 68.8242 0.000277662 3.90743 -4.97241e-14 8.01789e-14 
1.3504 68.8508 0.0154375 2.77418 9.53682e-14 -1.09759e-13 0.680065 67.1637 -0.000360722 
4.86145 -1.78996e-13 7.68968e-14 1.32408 67.1087 0.0199277 3.458 -9.21208e-14 -5.29993e-14 
0.384559 65.1696 -0.00171179 6.11648 -7.91034e-15 -5.19029e-15 1.2632 64.9676 0.0259841 
4.36523 5.96467e-14 -7.05269e-14 -0.10391 62.7805 -0.00417713 7.78345 1.28397e-13 6.79179e-14 
1.12317 62.3171 0.0343783 5.58564 2.16105e-13 5.00849e-14 -0.937887 59.9375 -0.0115382 
10.0121 5.86475e-14 -5.52891e-14 0.812778 59.0147 0.0446465 7.25016 -4.73427e-13 6.4948e-14 
0.164741 54.9136 0.0660804 9.53226 3.19023e-13 -2.31482e-14 1.77817 77.8551 5.14876e-05 
0.016418 -6.1509e-15 -1.77076e-14 1.78885 77.8467 0.000815378 0.00412219 -2.26365e-14 4.7835e-16 
1.77553 77.8318 5.20795e-05 0.0330185 2.29218e-14 2.05612e-14 1.78721 77.8311 0.000824546 
0.0124128 1.50869e-14 -3.04867e-15 1.77108 77.7926 5.32254e-05 0.0499922 -1.23733e-14 6.57894e-15 
1.7839 77.7995 0.000843218 0.020844 -3.15234e-14 1.48384e-14 1.76476 77.7371 5.51685e-05 
0.0675471 -6.29531e-15 -1.37332e-14 1.77888 77.7517 0.000872082 0.0295169 2.07807e-14 1.44083e-14 
1.75647 77.6647 5.82572e-05 0.0859175 8.00141e-15 1.4117e-14 1.77209 77.6872 0.000912215 
0.0385435 -1.98635e-14 -1.39667e-15 1.74614 77.5745 6.29534e-05 0.105375 6.65995e-14 -1.19176e-14 
1.76345 77.605 0.00096514 0.0480519 6.19817e-15 -5.76201e-14 1.73366 77.4653 6.98441e-05 
0.126241 -4.06801e-14 5.02207e-14 1.7529 77.5043 0.00103291 0.0581924 -2.19356e-15 1.32307e-14 
1.71897 77.3356 7.96563e-05 0.148901 5.61357e-15 -5.92835e-14 1.74041 77.3836 0.00111822 
0.0691446 1.05228e-14 -9.83155e-16 1.70206 77.1837 9.32756e-05 0.173826 -3.6967e-14 2.65881e-14 
1.72598 77.2412 0.00122456 0.0811259 1.79232e-14 1.50428e-14 1.68296 77.0071 0.000111771 
0.201593 2.90705e-14 7.77373e-15 1.70966 77.0749 0.00135645 0.0944021 2.54467e-14 2.60561e-14 
1.66179 76.8029 0.000136427 0.232912 9.53231e-15 5.69228e-14 1.69163 76.8821 0.00151971 
0.109301 3.5168e-14 2.65494e-14 1.6388 76.5674 0.000168779 0.268672 -3.798e-14 4.71949e-14 
1.67217 76.6592 0.00172185 0.12623 -1.40631e-13 3.42356e-14 1.61439 76.2961 0.000210669 
0.309983 1.12271e-13 5.90248e-14 1.65171 76.402 0.00197264 0.145698 1.34684e-14 1.87669e-14 
1.58911 75.9832 0.0002643 0.358245 9.12152e-14 1.94059e-14 1.63092 76.1052 0.00228486 
0.168346 8.9137e-14 2.93929e-14 1.56374 75.6216 0.000332316 0.415241 -3.61794e-14 5.69033e-14 
1.61068 75.762 0.00267535 0.19499 -1.04881e-13 6.31001e-14 1.53931 75.2023 0.000417884 
0.483254 -4.24938e-14 -2.78388e-14 1.59219 75.3641 0.00316654 0.22667 2.24369e-14 1.02069e-13 
1.51709 74.714 0.00052478 0.565235 8.42104e-14 1.71171e-13 1.577 74.9009 0.00378867 
0.264733 -1.97207e-13 1.24e-13 1.49864 74.1423 0.000657439 0.665049 1.16455e-13 -1.19302e-13 
1.56706 74.3588 0.00458293 0.310936 2.75543e-13 5.4531e-15 1.48574 73.469 0.000820913 
0.787802 5.67602e-14 3.3128e-14 1.56481 73.7206 0.00560628 0.367598 -1.28654e-13 -2.29547e-14 
1.48036 72.6705 0.00102056 0.94034 5.69406e-14 5.40956e-14 1.57321 72.9641 0.00693858 
0.437825 -5.905e-14 9.7632e-14 1.48444 71.7164 0.00126102 1.13196 -1.16275e-13 -4.22475e-14 
1.59572 72.0606 0.00869355 0.525827 -1.49269e-13 1.08313e-13 1.49949 70.5667 0.00154404 
1.37548 2.47302e-14 -2.61492e-14 1.6363 70.972 0.0110361 0.637408 2.71214e-13 1.21425e-13 
1.52577 69.1686 0.00186101 1.68884 4.27436e-15 1.87628e-14 1.69914 69.648 0.0142088 
0.780698 -1.43344e-13 1.21847e-13 1.56068 67.4515 0.00218574 2.0976 -2.50633e-14 -1.09964e-13 
1.78807 68.0206 0.0185774 0.967289 -6.59889e-14 4.90163e-14 1.59543 65.3193 0.00241021 
2.63866 -5.90916e-14 -1.03584e-13 1.90514 65.9967 0.024701 1.214 -3.01564e-14 9.295e-14 
1.6085 62.6408 0.00238941 3.36614 -2.40363e-14 1.49464e-14 2.04729 63.4468 0.0334369 
1.5457 -3.6221e-14 1.02678e-13 1.55088 59.2338 0.00134107 4.35985 -4.08562e-14 6.85563e-14 
2.19907 60.1879 0.0463264 1.99955 -1.13493e-13 9.35432e-14 1.31647 54.8431 -0.00194254 
5.73784 -1.27676e-14 5.04319e-14 2.3123 55.9574 0.0644328 2.63237 6.56142e-14 -1.00336e-14 
2.2773 50.3903 0.100819 3.52495 -2.51854e-13 4.70457e-15 1.78683 77.8369 5.44857e-05 
2.41489e-13 -9.294e-15 -5.3719e-14 1.78885 77.8467 0.000815378 -0.00412219 1.55339e-14 4.90938e-15 
1.78433 77.8133 5.52626e-05 4.06233e-13 -4.66857e-15 7.7078e-15 1.78721 77.8311 0.000824546 
-0.0124128 6.54858e-15 -6.49405e-15 1.78014 77.7735 5.67269e-05 8.06374e-13 -1.08117e-14 -4.30306e-14 
1.7839 77.7995 0.000843218 -0.020844 2.61913e-14 -1.20776e-14 1.77418 77.7173 5.91377e-05 
7.70069e-13 -9.58955e-15 1.06125e-14 1.77888 77.7517 0.000872082 -0.0295169 -5.9037e-14 -4.0115e-14 
1.76639 77.6438 6.28673e-05 1.38308e-12 5.48199e-14 -1.16836e-15 1.77209 77.6872 0.000912215 
-0.0385435 1.98661e-14 2.5821e-14 1.75671 77.5523 6.84113e-05 1.2077e-12 -8.96505e-15 2.35782e-14 
1.76345 77.605 0.00096514 -0.0480519 -4.93529e-15 2.90688e-14 1.74507 77.4414 7.64032e-05 
2.23559e-12 8.76382e-15 -1.04294e-14 1.7529 77.5043 0.00103291 -0.0581924 -6.33495e-14 1.0311e-14 
1.73145 77.3096 8.76332e-05 3.08342e-12 -3.43978e-14 5.99597e-14 1.74041 77.3836 0.00111822 
-0.0691446 -3.7496e-14 -4.7178e-15 1.71588 77.1551 0.000103073 2.9989e-12 5.80508e-14 2.74584e-14 
1.72598 77.2412 0.00122456 -0.0811259 8.64586e-15 2.79384e-14 1.69845 76.9752 0.000123909 
4.72442e-12 -6.88425e-14 -3.66209e-14 1.70966 77.0749 0.00135645 -0.0944021 1.04125e-13 -1.5373e-14 
1.67938 76.767 0.000151585 5.1867e-12 -6.00249e-14 9.32921e-15 1.69163 76.8821 0.00151971 
-0.109301 -7.4326e-14 -7.51981e-14 1.65901 76.5266 0.000187861 5.98057e-12 -6.76612e-14 -4.15277e-14 
1.67217 76.6592 0.00172185 -0.12623 3.77129e-14 -7.41876e-14 1.63788 76.2491 0.000234891 
7.23062e-12 1.65742e-13 -6.44099e-14 1.65171 76.402 0.00197264 -0.145698 -3.91839e-14 -4.90628e-14 
1.61671 75.9286 0.000295322 7.65812e-12 -4.38746e-14 1.59465e-14 1.63092 76.1052 0.00228486 
-0.168346 -6.12878e-14 -1.86858e-14 1.59653 75.5573 0.000372433 8.73262e-12 -1.10974e-13 1.30832e-14 
1.61068 75.762 0.00267535 -0.19499 1.46598e-13 4.08419e-15 1.57866 75.1258 0.000470317 
1.14285e-11 7.8583e-14 -2.48533e-14 1.59219 75.3641 0.00316654 -0.22667 6.75952e-14 -5.24264e-14 
1.56479 74.622 0.000594114 1.26649e-11 2.62637e-14 -9.23347e-14 1.577 74.9009 0.00378867 
-0.264733 1.83811e-14 -9.10496e-14 1.55704 74.0303 0.000750307 1.49099e-11 -3.32998e-14 8.82784e-14 
1.56706 74.3588 0.00458293 -0.310936 6.62387e-14 -2.02217e-14 1.55799 73.331 0.000947053 
1.71082e-11 -7.45029e-14 4.44246e-14 1.56481 73.7206 0.00560628 -0.367598 1.24921e-13 8.77722e-14 
1.5707 72.4982 0.00119451 2.09239e-11 -7.71605e-14 -2.51066e-15 1.57321 72.9641 0.00693858 
-0.437825 5.75026e-14 2.01835e-15 1.5987 71.4983 0.00150482 2.46971e-11 -7.71744e-14 8.03372e-15 
1.59572 72.0606 0.00869355 -0.525827 5.86475e-14 -5.19784e-14 1.64576 70.2866 0.00189169 
2.98203e-11 2.01228e-14 7.63391e-14 1.6363 70.972 0.0110361 -0.637408 -1.06679e-13 -4.08527e-14 
1.71553 68.803 0.00236545 3.50505e-11 1.99354e-13 3.16063e-14 1.69914 69.648 0.0142088 
-0.780698 1.54959e-13 2.61891e-14 1.81043 66.9654 0.00293126 4.46255e-11 -1.78024e-13 7.07705e-14 
1.78807 68.0206 0.0185774 -0.967289 4.49363e-14 3.69444e-14 1.92928 64.66 0.00352386 
5.54793e-11 -2.24182e-13 1.3926e-13 1.90514 65.9967 0.024701 -1.214 8.38635e-14 -1.18655e-14 
2.06213 61.7257 0.00409864 7.0021e-11 -9.62563e-14 -2.78074e-14 2.04729 63.4468 0.0334369 
-1.5457 2.68507e-13 -4.12656e-14 2.17694 57.9302 0.00374285 9.1674e-11 -2.47025e-14 -8.53701e-16 
2.19907 60.1879 0.0463264 -1.99955 -3.51275e-13 -6.82301e-14 2.19269 52.9336 0.0025969 
1.16609e-10 -3.40228e-13 -1.5217e-13 2.3123 55.9574 0.0644328 -2.63237 1.55986e-13 -3.50622e-14 
2.2773 50.3903 0.100819 -3.52495 -3.37286e-13 -6.93889e-15 1.77817 77.8551 5.14876e-05 
-0.016418 6.17995e-16 2.42935e-14 1.77158 77.883 0.000798614 -0.0122585 -1.31952e-14 1.79847e-15 
1.77553 77.8318 5.20795e-05 -0.0330185 1.51498e-14 -1.33986e-15 1.76975 77.8677 0.000807254 
-0.0369102 6.27992e-15 1.59662e-14 1.77108 77.7926 5.32254e-05 -0.0499922 -2.96057e-14 2.02132e-14 
1.76605 77.837 0.000824838 -0.0619727 -3.37031e-14 -2.9679e-15 1.76476 77.7371 5.51685e-05 
-0.0675471 5.07927e-15 -4.34696e-14 1.76041 77.7905 0.000851994 -0.0877405 3.37438e-14 7.34048e-15 
1.75647 77.6647 5.82572e-05 -0.0859175 3.65203e-14 2.71267e-14 1.75276 77.7278 0.000889699 
-0.11454 -1.26323e-14 -2.37709e-14 1.74614 77.5745 6.29534e-05 -0.105375 -9.20184e-15 1.10285e-15 
1.74297 77.648 0.000939335 -0.142746 -3.55271e-15 1.65449e-15 1.73366 77.4653 6.98441e-05 
-0.126241 6.8192e-15 -2.65608e-14 1.73093 77.5503 0.00100275 -0.172794 -3.77424e-14 -2.27379e-15 
1.71897 77.3356 7.96563e-05 -0.148901 -6.31977e-14 -4.34266e-14 1.71654 77.4333 0.00108237 
-0.205208 1.49256e-14 -3.59842e-14 1.70206 77.1837 9.32756e-05 -0.173826 -2.14793e-14 5.51816e-15 
1.69971 77.2956 0.00118133 -0.240618 -1.30604e-13 -3.30977e-14 1.68296 77.0071 0.000111771 
-0.201593 5.9442e-14 2.19573e-15 1.68039 77.1352 0.00130362 -0.279796 5.3452e-14 -1.03446e-14 
1.66179 76.8029 0.000136427 -0.232912 5.75026e-14 -6.4095e-14 1.6586 76.9495 0.00145437 
-0.323689 1.08989e-13 -1.50028e-14 1.6388 76.5674 0.000168779 -0.268672 -5.76657e-14 -2.19434e-14 
1.63443 76.7354 0.00164016 -0.373472 -1.00576e-13 -2.12673e-14 1.61439 76.2961 0.000210669 
-0.309983 -1.72848e-14 3.01174e-14 1.60809 76.4892 0.00186942 -0.430613 -4.72643e-14 7.22903e-15 
1.58911 75.9832 0.0002643 -0.358245 -1.25899e-13 -5.8533e-14 1.57993 76.2061 0.00215306 
-0.496951 1.58207e-15 3.16127e-14 1.56374 75.6216 0.000332316 -0.415241 2.78978e-14 -1.6626e-14 
1.55042 75.88 0.00250525 -0.574814 -1.00614e-14 -1.50999e-14 1.53931 75.2023 0.000417884 
-0.483254 -5.24164e-14 4.93737e-14 1.52022 75.5036 0.00294458 -0.667166 9.81056e-14 6.13329e-14 
1.51709 74.714 0.00052478 -0.565235 7.89854e-14 -3.66946e-14 1.49017 75.0676 0.0034956 
-0.777818 1.35291e-13 6.53037e-15 1.49864 74.1423 0.000657439 -0.665049 -3.3043e-14 1.51962e-14 
1.46125 74.5604 0.00419107 -0.911715 -6.30329e-14 -2.74086e-16 1.48574 73.469 0.000820913 
-0.787802 -5.3707e-14 2.15453e-15 1.43455 73.9673 0.00507509 -1.07534 -1.07428e-13 -5.20799e-14 
1.48036 72.6705 0.00102056 -0.94034 4.9287e-14 2.19217e-14 1.41113 73.2698 0.00620768 
-1.2773 3.31679e-15 1.20598e-14 1.48444 71.7164 0.00126102 -1.13196 4.35485e-14 -4.26464e-14 
1.39182 72.4442 0.00767126 -1.52914 2.26263e-13 3.51316e-14 1.49949 70.5667 0.00154404 
-1.37548 -8.21565e-14 -1.02258e-13 1.37673 71.4605 0.00958017 -1.84662 8.95742e-14 -5.50775e-14 
1.52577 69.1686 0.00186101 -1.68884 -1.74999e-14 -1.43566e-14 1.36443 70.2795 0.012094 
-2.25148 -1.63328e-13 -9.44661e-14 1.56068 67.4515 0.00218574 -2.0976 1.84811e-13 -1.47989e-13 
1.3504 68.8508 0.0154375 -2.77418 1.17878e-13 -1.13826e-13 1.59543 65.3193 0.00241021 
-2.63866 -1.51823e-14 2.38559e-14 1.32408 67.1087 0.0199277 -3.458 -9.98784e-14 -7.43294e-14 
1.6085 62.6408 0.00238941 -3.36614 -3.20854e-14 3.75464e-14 1.2632 64.9676 0.0259841 
-4.36523 2.07306e-13 -4.20913e-14 1.55088 59.2338 0.00134107 -4.35985 -2.91434e-14 -6.25056e-14 
1.12317 62.3171 0.0343783 -5.58564 3.71925e-15 -9.46465e-15 1.31647 54.8431 -0.00194254 
-5.73784 -7.99361e-15 6.4615e-14 0.812778 59.0147 0.0446465 -7.25016 1.65562e-13 -5.88973e-14 
0.164741 54.9136 0.0660804 -9.53226 -1.60427e-14 -4.52693e-14 1.75242 77.9095 4.27031e-05 
-0.0324068 -7.73828e-15 -1.69101e-14 1.73751 77.9548 0.000765841 -0.020076 1.91828e-15 -1.31201e-14 
1.74936 77.8871 4.27573e-05 -0.065164 -1.24703e-14 -7.50181e-15 1.7353 77.9403 0.000773467 
-0.0604406 -1.71356e-14 -8.32754e-15 1.74418 77.8494 4.29784e-05 -0.0986375 -2.80756e-14 -2.44986e-15 
1.73084 77.9113 0.000788968 -0.101453 2.04507e-14 -1.02071e-14 1.73679 77.7962 4.35642e-05 
-0.133226 -3.08521e-14 2.86923e-14 1.72403 77.8673 0.000812854 -0.143577 1.66239e-14 -2.3901e-14 
1.72705 77.7269 4.47951e-05 -0.169378 2.3842e-14 -5.6055e-14 1.71472 77.808 0.000845917 
-0.187327 1.45595e-14 2.62203e-15 1.7148 77.6406 4.70373e-05 -0.207614 -5.87889e-14 4.94327e-14 
1.70273 77.7328 0.00088927 -0.23329 6.44276e-15 -3.08325e-14 1.69988 77.5364 5.07465e-05 
-0.248548 1.7414e-14 8.70224e-15 1.68784 77.6409 0.00094439 -0.282153 9.19325e-14 -4.13948e-14 
1.68209 77.4129 5.64714e-05 -0.292915 3.55549e-14 7.22599e-15 1.66982 77.5313 0.00101319 
-0.334733 1.38171e-14 3.47456e-14 1.66128 77.2687 6.48571e-05 -0.341611 3.59868e-14 -3.13347e-14 
1.64841 77.4027 0.00109812 -0.392014 4.13558e-14 -4.55443e-14 1.6373 77.1016 7.66459e-05 
-0.395727 -1.44161e-13 -4.45833e-14 1.62335 77.2535 0.00120223 -0.455195 5.12333e-14 -4.49406e-14 
1.61005 76.9091 9.2675e-05 -0.456612 1.01429e-14 4.09729e-14 1.59439 77.0816 0.0013294 
-0.525745 -1.71748e-13 1.4759e-14 1.57947 76.6881 0.000113867 -0.525936 -5.76865e-14 -2.14282e-14 
1.56128 76.8846 0.00148446 -0.605475 -9.66935e-15 1.67392e-14 1.54557 76.4348 0.000141206 
-0.605781 4.30697e-14 3.23691e-14 1.52379 76.6595 0.00167343 -0.696632 -1.60982e-14 -7.55533e-14 
1.50841 76.1442 0.000175695 -0.698763 2.80331e-15 7.18609e-15 1.4817 76.4024 0.00190388 
-0.80202 3.1225e-17 -4.01727e-14 1.46814 75.8106 0.000218266 -0.808184 7.34551e-14 -1.01889e-14 
1.43474 76.1089 0.00218522 -0.925155 -1.28942e-13 -6.18281e-14 1.4249 75.4266 0.000269624 
-0.938246 7.41039e-14 4.82843e-14 1.38263 75.7734 0.00252926 -1.07048 -1.54259e-13 -9.19542e-14 
1.37883 74.9831 0.000329954 -1.09434 -2.84148e-14 3.09076e-14 1.3249 75.3889 0.00295067 
-1.24363 1.69628e-13 -1.52638e-14 1.32993 74.4689 0.000398396 -1.28346 9.10175e-14 2.18783e-14 
1.26084 74.9473 0.0034677 -1.45186 3.24775e-14 2.28862e-14 1.27787 73.8701 0.000472087 
-1.51473 -1.50574e-13 -1.17163e-14 1.18921 74.4385 0.00410275 -1.7045 3.98084e-14 -1.25872e-14 
1.22166 73.1691 0.00054442 -1.80022 -4.80033e-14 -4.64767e-14 1.10793 73.8504 0.00488286 
-2.01376 7.2567e-14 -2.65968e-14 1.15911 72.3444 0.000601778 -2.15606 -3.93088e-14 5.47895e-14 
1.01338 73.1686 0.0058395 -2.39567 -4.67681e-14 8.91995e-15 1.08579 71.369 0.000617743 
-2.60409 1.57513e-14 -2.46331e-15 0.899512 72.3758 0.00700687 -2.87155 -5.05707e-14 -2.96776e-14 
0.993472 70.2094 0.00054095 -3.17412 1.21333e-13 2.62984e-14 0.756119 71.4522 0.00841642 
-3.46995 -3.82472e-14 3.35287e-14 0.867164 68.8242 0.000277662 -3.90743 -1.18877e-13 1.40693e-13 
0.566142 70.3761 0.010083 -4.22939 -1.317e-14 1.06644e-13 0.680065 67.1637 -0.000360722 
-4.86145 -1.249e-13 -5.905e-14 0.30108 69.1249 0.011978 -5.20202 -1.07858e-13 7.61613e-14 
0.384559 65.1696 -0.00171179 -6.11648 -2.02283e-13 -4.02456e-16 -0.0867907 67.6798 0.0139291 
-6.45828 -1.08469e-13 -4.51444e-14 -0.10391 62.7805 -0.00417713 -7.78345 -1.28231e-14 4.33265e-14 
-0.677037 66.0354 0.0157019 -8.09125 9.02611e-14 -3.13638e-14 -0.937887 59.9375 -0.0115382 
-10.0121 -2.04031e-13 5.84532e-14 -1.6041 64.2143 0.0152194 -10.2207 3.03091e-14 2.498e-14 
-3.07651 62.34 0.0165173 -12.9739 -1.19071e-13 1.31006e-14 1.71026 77.9989 2.87435e-05 
-0.0475595 -1.63421e-14 -9.61904e-16 1.6875 78.0609 0.000718504 -0.0273804 -3.53428e-15 4.14209e-14 
1.70653 77.978 2.79573e-05 -0.0956089 -8.37915e-15 -1.16573e-14 1.68478 78.0475 0.000724716 
-0.0824147 5.6179e-15 -3.80672e-14 1.7002 77.9429 2.67344e-05 -0.14466 2.88493e-14 1.70359e-14 
1.67926 78.0208 0.000737311 -0.138282 7.54345e-15 -2.56292e-14 1.69112 77.8933 2.52045e-05 
-0.19527 -5.27542e-14 -1.39402e-14 1.6708 77.9804 0.000756642 -0.195578 1.00722e-14 -3.60476e-15 
1.67909 77.8288 2.35466e-05 -0.248065 3.26041e-15 1.47174e-14 1.65918 77.9261 0.000783251 
-0.254961 -5.73977e-14 -1.58294e-15 1.66384 77.7489 2.19845e-05 -0.303766 3.64752e-14 -4.68375e-15 
1.64411 77.8575 0.000817885 -0.317184 6.55431e-14 -3.19484e-14 1.64507 77.6526 2.07799e-05 
-0.363228 2.29504e-15 -4.93919e-14 1.62525 77.7739 0.000861525 -0.383122 -4.26447e-14 -4.63518e-15 
1.62242 77.5392 2.02209e-05 -0.427467 5.57384e-14 -4.73857e-14 1.60217 77.6748 0.000915407 
-0.453813 -5.03356e-14 4.12352e-14 1.59551 77.4072 2.06034e-05 -0.497716 9.34426e-14 -4.51549e-14 
1.5744 77.5591 0.000981059 -0.530504 1.61676e-14 3.01582e-14 1.56391 77.2552 2.2201e-05 
-0.575475 -6.52273e-14 6.71026e-14 1.5414 77.4257 0.00106033 -0.614703 -8.36657e-14 4.93919e-14 
1.52717 77.0813 2.52186e-05 -0.662581 -3.49824e-14 -3.41524e-14 1.50254 77.2733 0.00115544 
-0.708248 9.00339e-14 -1.6695e-14 1.48479 76.8832 2.97197e-05 -0.761298 2.53651e-14 4.49632e-14 
1.45714 77.1003 0.00126899 -0.813391 1.80099e-14 1.06035e-14 1.4362 76.6581 3.5513e-05 
-0.874429 1.37061e-13 -9.87327e-14 1.40438 76.9047 0.00140398 -0.932898 9.93129e-14 -3.32078e-14 
1.38075 76.4026 4.19759e-05 -1.00546 -7.7556e-14 -4.78922e-14 1.34331 76.684 0.00156376 
-1.07019 -4.55122e-14 -7.48707e-14 1.31762 76.1126 4.77768e-05 -1.15874 1.59456e-14 -3.04062e-14 
1.27275 76.4357 0.00175194 -1.22949 -1.28925e-13 -9.02577e-15 1.24575 75.7834 5.04373e-05 
-1.33976 4.7129e-14 -5.82607e-14 1.19119 76.1563 0.00197213 -1.41609 -1.49453e-13 -5.84602e-15 
1.16366 75.4091 4.56337e-05 -1.55544 -6.99371e-14 -1.04104e-13 1.09664 75.8423 0.00222738 
-1.63656 1.77219e-13 -4.22544e-14 1.06922 74.9829 2.60732e-05 -1.8146 -1.57319e-13 -2.27041e-14 
0.986344 75.4896 0.00251923 -1.8992 -3.59712e-14 -8.97719e-14 0.959234 74.4971 -2.03306e-05 
-2.12853 8.62366e-14 -5.29021e-14 0.856402 75.0939 0.00284582 -2.21445 -5.56499e-15 -2.12677e-14 
0.828869 73.9427 -0.000113436 -2.5118 -1.32394e-14 -1.56195e-14 0.701178 74.6508 0.00319855 
-2.59555 3.3723e-15 -1.09229e-13 0.670667 73.3102 -0.000285785 -2.98334 1.22034e-13 -4.94535e-14 
0.512382 74.1565 0.00355599 -3.05932 -5.03486e-14 -9.99756e-14 0.473064 72.5898 -0.000590577 
-3.56782 9.1524e-14 7.50996e-14 0.277688 73.609 0.00387301 -3.62717 -2.2693e-13 2.70686e-14 
0.218021 71.7728 -0.00111477 -4.29751 -1.35003e-13 4.85723e-15 -0.021393 73.0095 0.00406148 
-4.32624 1.2039e-14 3.85803e-14 -0.122715 70.8548 -0.00199995 -5.21454 4.69069e-14 2.498e-14 
-0.412729 72.3661 0.00395403 -5.19069 -8.37663e-14 1.58207e-15 -0.593468 69.8403 -0.00346116 
-6.37332 -1.10259e-13 -4.06619e-14 -0.938407 71.6993 0.00324863 -6.26249 -2.12608e-14 6.09651e-14 
-1.26375 68.7536 -0.0059138 -7.84233 1.04416e-13 -6.16174e-14 -1.6618 71.0519 0.00136398 
-7.59107 -9.65339e-14 5.54973e-14 -2.24068 67.6581 -0.00921579 -9.7021 -3.99958e-14 -7.40796e-14 
-2.67687 70.5062 -0.00257566 -9.22844 5.42622e-15 -7.72715e-14 -3.69038 66.6811 -0.0183549 
-12.0351 1.43247e-13 -2.45359e-14 -4.11948 70.2065 -0.011047 -11.2168 1.0153e-13 -6.4837e-14 
-6.1626 70.4337 -0.0240646 -13.5492 2.20352e-13 1.87628e-14 1.65277 78.1217 1.05695e-05 
-0.0615111 -1.24384e-14 -2.78744e-14 1.62283 78.1991 0.000658627 -0.034003 -4.19928e-15 1.52482e-15 
1.64818 78.1028 8.71669e-06 -0.123613 1.45571e-14 3.01096e-14 1.61948 78.1873 0.000663137 
-0.102322 -2.77165e-15 4.98386e-14 1.64037 78.071 5.66427e-06 -0.186922 5.36073e-15 -2.67841e-14 
1.61269 78.1635 0.000672243 -0.171592 2.10652e-14 -3.94476e-14 1.62913 78.0263 1.46118e-06 
-0.252107 -5.34733e-14 3.90313e-14 1.60225 78.1276 0.000686113 -0.242493 -6.65757e-14 1.64356e-14 
1.61416 77.9683 -3.83374e-06 -0.319921 7.78717e-15 3.22312e-15 1.58785 78.0796 0.000704999 
-0.315777 4.56978e-14 1.5361e-14 1.59506 77.8967 -1.01634e-05 -0.391227 -7.0742e-15 3.65402e-14 
1.56909 78.0191 0.000729237 -0.392295 -5.9259e-14 1.13555e-14 1.57137 77.811 -1.74905e-05 
-0.467041 -4.1904e-14 2.23493e-14 1.54546 77.9459 0.000759236 -0.473037 4.04659e-14 2.9015e-14 
1.54251 77.7105 -2.58241e-05 -0.548573 6.18412e-14 5.13929e-14 1.51633 77.8597 0.000795473 
-0.559173 -6.76386e-14 2.05504e-14 1.50783 77.5946 -3.52607e-05 -0.637275 2.89126e-14 4.17886e-14 
1.48098 77.7599 0.000838465 -0.652096 -2.01644e-14 2.4915e-14 1.46657 77.4623 -4.60428e-05 
-0.734907 1.60982e-14 -5.42292e-14 1.43852 77.6461 0.000888725 -0.753484 7.40276e-14 4.74959e-14 
1.41784 77.3125 -5.86474e-05 -0.843606 -7.00863e-14 4.24417e-14 1.38795 77.5176 0.000946691 
-0.86536 1.41588e-14 1.33019e-14 1.36061 77.144 -7.3915e-05 -0.965981 1.14329e-13 -4.78471e-14 
1.32807 77.3738 0.0010126 -0.990179 -2.42133e-14 -7.54952e-15 1.29366 76.9553 -9.32401e-05 
-1.10523 4.30749e-14 7.59497e-14 1.25744 77.2138 0.00108629 -1.13092 -5.77732e-14 3.57804e-14 
1.21549 76.7445 -0.000118854 -1.26527 3.17975e-14 2.4182e-15 1.17434 77.0369 0.00116686 
-1.29122 1.46449e-13 1.34082e-13 1.12423 76.51 -0.000154246 -1.45092 2.22496e-14 -1.14214e-14 
1.07662 76.8424 0.00125215 -1.4755 5.35544e-14 8.1225e-14 1.01746 76.2497 -0.000204785 
-1.66816 5.19446e-14 5.38805e-15 0.961572 76.6294 0.00133789 -1.68914 -2.0605e-14 3.45175e-14 
0.892006 75.9615 -0.000278666 -1.92433 -9.32379e-14 -1.66568e-14 0.825684 76.3978 0.00141635 
-1.93873 6.14578e-14 1.54599e-14 0.743521 75.6438 -0.000388315 -2.22858 -4.60187e-14 -5.98237e-14 
0.664315 76.1478 0.00147419 -2.23228 -2.11921e-13 6.65301e-14 0.566008 75.2955 -0.000552506 
-2.59222 1.21667e-13 -2.2024e-14 0.471206 75.8809 0.00148899 -2.57953 1.83003e-13 4.33577e-14 
0.351017 74.9167 -0.000799504 -3.02932 3.63667e-14 -3.32928e-14 0.237791 75.6001 0.00142371 
-2.99228 1.28439e-14 2.45394e-14 0.0865027 74.5102 -0.00117164 -3.55724 6.96734e-14 5.44634e-14 
-0.0477965 75.3119 0.00121779 -3.48468 -1.01162e-13 4.61992e-14 -0.244842 74.0831 -0.0017318 
-4.19724 -1.75041e-13 -6.07292e-14 -0.402121 75.0273 0.000772792 -4.0734 9.28424e-14 3.39243e-14 
-0.667993 73.6502 -0.00257087 -4.97495 -2.86438e-14 -5.33323e-14 -0.848389 74.7652 -6.99214e-05 
-4.77751 2.31551e-14 4.75592e-14 -1.21898 73.2388 -0.00381947 -5.92015 2.28983e-15 -6.93889e-16 
-1.41904 74.5569 -0.00156689 -5.61756 1.64729e-14 3.88717e-14 -1.94937 72.8975 -0.00562043 
-7.0651 1.11994e-14 1.38653e-13 -2.15895 74.4527 -0.00412005 -6.61309 1.21105e-13 1.29896e-14 
-2.93165 72.7092 -0.00825549 -8.43947 1.70725e-13 9.37583e-14 -3.12873 74.5318 -0.0083839 
-7.7769 9.58331e-14 3.43892e-14 -4.26224 72.8134 -0.0110699 -10.0575 1.56888e-13 8.26283e-14 
-4.40612 74.9183 -0.0152713 -9.10288 6.64052e-14 1.62564e-13 -6.0631 73.4272 -0.018032 
-11.8919 -2.17083e-13 9.98368e-14 -6.08024 75.795 -0.0264132 -10.5435 -3.07379e-13 1.37085e-13 
-8.22225 77.4444 -0.0436504 -11.9679 -2.08384e-14 3.94684e-14 1.5814 78.2757 -1.05919e-05 
-0.0739563 -1.48448e-14 2.39392e-14 1.54508 78.3672 0.00058865 -0.0398082 -1.55303e-14 -8.26075e-15 
1.57582 78.2591 -1.36431e-05 -0.148557 1.80875e-14 -1.33869e-14 1.54106 78.357 0.000591309 
-0.119752 2.31534e-14 -5.96346e-14 1.56632 78.2313 -1.87461e-05 -0.224474 -2.07273e-14 1.31006e-14 
1.53287 78.3366 0.00059662 -0.20069 -3.29832e-14 6.14135e-14 1.55261 78.1924 -2.59347e-05 
-0.302436 -2.94313e-14 7.66748e-16 1.52026 78.3059 0.000604561 -0.283333 4.03757e-15 -1.74739e-14 
1.53429 78.1421 -3.52715e-05 -0.383258 3.10949e-14 2.67971e-14 1.50284 78.265 0.00061509 
-0.368462 1.13043e-14 -4.91256e-14 1.51082 78.0805 -4.68654e-05 -0.467875 4.81212e-15 -6.60687e-14 
1.48007 78.2139 0.000628118 -0.456961 5.26662e-15 3.33449e-14 1.48154 78.0072 -6.08984e-05 
-0.557379 -7.09155e-14 1.88729e-14 1.45127 78.1526 0.000643484 -0.549852 2.05495e-14 -1.25655e-14 
1.44566 77.9222 -7.76641e-05 -0.653064 6.6688e-14 -8.35408e-14 1.41561 78.0811 0.000660909 
-0.648336 4.77205e-14 -2.60191e-14 1.40222 77.8251 -9.76237e-05 -0.756472 1.1683e-13 -2.48855e-14 
1.37208 77.9994 0.000679919 -0.753831 -1.9167e-14 -1.40886e-14 1.3501 77.7159 -0.000121485 
-0.869455 6.63358e-14 1.38032e-14 1.3195 77.9076 0.000699745 -0.868029 -5.29195e-14 6.26842e-14 
1.28798 77.5942 -0.000150318 -0.99424 -1.1588e-14 4.21815e-14 1.25645 77.8058 0.000719159 
-0.992953 1.00782e-13 2.12035e-14 1.21429 77.4598 -0.000185714 -1.13351 -1.75485e-14 6.49949e-14 
1.18123 77.6944 0.00073624 -1.13102 6.30399e-15 2.92474e-14 1.12713 77.3127 -0.000230015 
-1.2905 3.0545e-14 7.38992e-16 1.09184 77.5739 0.000748018 -1.28511 -8.84189e-15 -7.42306e-14 
1.02419 77.153 -0.00028664 -1.46912 -1.46202e-14 2.91676e-14 0.985844 77.4448 0.000749951 
-1.45869 -5.19862e-14 -9.41434e-14 0.902611 76.9808 -0.00036054 -1.67405 6.75987e-14 2.70721e-14 
0.860242 77.3084 0.000735142 -1.65584 9.75782e-14 -5.64011e-14 0.758769 76.7972 -0.000458844 
-1.91095 2.72386e-14 2.33147e-15 0.711321 77.1664 0.000693181 -1.88143 7.48984e-14 -3.05658e-15 
0.588004 76.6039 -0.000591752 -2.18656 -6.72448e-14 1.06009e-13 0.534383 77.0217 0.000608413 
-2.14115 -1.80918e-13 -1.59595e-16 0.384219 76.4037 -0.000773768 -2.50891 1.98695e-14 -3.51316e-14 
0.323416 76.8783 0.000457364 -2.44165 9.15448e-14 -3.53849e-14 0.139328 76.2017 -0.00102533 
-2.88748 4.57308e-14 4.86416e-14 0.0706242 76.7426 0.00020493 -2.79052 -2.7988e-14 -3.62696e-14 
-0.157506 76.006 -0.00137484 -3.33325 -4.67161e-14 4.1564e-14 -0.234189 76.6237 -0.000201273 
-3.19625 6.13433e-14 2.86993e-14 -0.5209 75.8294 -0.00186087 -3.85866 9.23497e-14 4.55538e-14 
-0.604428 76.5356 -0.000839109 -3.66795 -3.58186e-14 -5.05845e-14 -0.970601 75.6921 -0.00253392 
-4.4771 7.03326e-14 2.86438e-14 -1.05771 76.4985 -0.00182384 -4.21465 -1.42629e-13 -1.09704e-14 
-1.53315 75.6249 -0.00345398 -5.20176 6.76334e-14 4.37705e-14 -1.61702 76.5422 -0.00332397 
-4.84392 2.92752e-14 -3.95309e-14 -2.24369 75.6749 -0.0046857 -6.04306 -7.45792e-14 -7.37743e-14 
-2.31179 76.7098 -0.00558372 -5.55923 7.4829e-14 -5.52197e-14 -3.14731 75.913 -0.00623653 
-7.00347 -5.52614e-14 -1.3553e-13 -3.17829 77.0633 -0.00894219 -6.35513 1.01238e-13 -1.20515e-13 
-4.29839 76.4437 -0.00812534 -8.06782 2.05891e-13 -1.74305e-13 -4.25796 77.6896 -0.0138577 
-7.2089 -5.04978e-14 -1.86393e-13 -5.75291 77.4189 -0.0094086 -9.18578 2.566e-14 2.91711e-14 
-5.5905 78.7079 -0.020898 -8.06663 -9.13245e-14 -2.39919e-13 -7.55063 79.0428 -0.0120014 
-10.2434 -1.36254e-13 -7.71605e-14 -7.19483 80.2709 -0.0304764 -8.82181 8.75688e-14 -1.42497e-13 
-9.02859 82.5663 -0.0445495 -9.28859 2.03976e-13 -8.27116e-14 1.49787 78.4581 -3.33341e-05 
-0.0846605 -3.86431e-15 3.3213e-14 1.45609 78.5621 0.000511284 -0.0446979 1.06339e-14 4.09178e-14 
1.49125 78.4441 -3.7613e-05 -0.169969 1.36631e-15 7.26155e-15 1.45138 78.5537 0.000512081 
-0.13441 1.00855e-14 -4.03575e-14 1.47999 78.4209 -4.48105e-05 -0.256599 5.8187e-15 2.6177e-15 
1.44179 78.537 0.000513582 -0.225081 -3.21481e-14 -1.14058e-14 1.46371 78.3884 -5.50341e-05 
-0.34528 1.00657e-15 -7.99534e-15 1.42702 78.512 0.000515587 -0.317397 3.49508e-14 4.80354e-14 
1.44189 78.3467 -6.8453e-05 -0.436826 3.8235e-14 1.30191e-15 1.40657 78.4789 0.000517777 
-0.412106 -3.94511e-14 1.50808e-14 1.41387 78.296 -8.53185e-05 -0.532166 -7.66696e-14 3.92342e-14 
1.37979 78.4379 0.000519674 -0.510055 -5.65867e-15 6.5942e-14 1.3788 78.2365 -0.000105995 
-0.632379 6.22887e-14 4.05665e-14 1.34584 78.3893 0.0005206 -0.612215 -3.31367e-14 2.90462e-14 
1.33566 78.1684 -0.000131003 -0.738732 5.38241e-14 -2.09936e-14 1.30368 78.3335 0.000519599 
-0.719718 2.48673e-14 4.09048e-14 1.2832 78.092 -0.000161081 -0.852725 -2.75838e-14 3.46979e-14 
1.25208 78.2709 0.000515341 -0.83389 -3.16015e-14 -1.16261e-14 1.21998 78.0077 -0.000197272 
-0.976136 -2.37241e-14 -3.48662e-14 1.18954 78.2024 0.000505969 -0.956294 2.54952e-14 -3.00506e-14 
1.14426 77.9163 -0.000241036 -1.11108 4.02282e-15 9.27036e-15 1.11429 78.1286 0.000488896 
-1.08877 2.83228e-14 -8.57318e-14 1.05398 77.8184 -0.000294414 -1.26004 1.04786e-13 -3.35322e-15 
1.02423 78.0509 0.000460506 -1.23348 -2.61076e-15 -6.37788e-14 0.946661 77.7154 -0.000360242 
-1.42599 7.25982e-14 -4.8711e-14 0.91688 77.9708 0.000415735 -1.39295 6.53262e-14 4.39995e-14 
0.819335 77.6089 -0.00044244 -1.61239 2.12625e-14 -5.47964e-14 0.789239 77.8903 0.000347483 
-1.57012 -2.31568e-14 -4.58782e-14 0.668358 77.5013 -0.000546385 -1.82329 -4.92488e-15 8.29198e-15 
0.637708 77.8123 0.000245771 -1.76834 -1.08837e-14 1.01759e-14 0.489232 77.3959 -0.000679396 
-2.06335 1.93456e-14 9.16038e-14 0.457909 77.7405 9.65756e-05 -1.99143 3.40439e-14 3.25642e-14 
0.276338 77.2976 -0.000851314 -2.33788 -2.80539e-14 -6.24292e-14 0.244466 77.6802 -0.000119819 
-2.24361 2.2711e-14 -1.35135e-14 0.0225856 77.2131 -0.00107515 -2.65279 7.23033e-14 -4.47975e-14 
-0.00926397 77.6385 -0.000431083 -2.52939 1.05405e-13 -9.90319e-14 -0.281035 77.152 -0.00136765 
-3.0144 8.99281e-15 5.78843e-14 -0.311533 77.6248 -0.000875925 -2.85338 -9.57567e-14 -9.85323e-16 
-0.646005 77.1279 -0.00174945 -3.4291 -8.2153e-14 -1.15741e-13 -0.672599 77.6526 -0.00150818 
-3.21981 1.52447e-13 2.16771e-14 -1.08692 77.1602 -0.00224396 -3.90264 9.09724e-14 -3.8719e-15 
-1.10515 77.7397 -0.00240191 -3.63184 1.32224e-13 3.99125e-14 -1.62212 77.2759 -0.00287362 
-4.43874 -1.60323e-14 2.35575e-14 -1.62465 77.9108 -0.00365749 -4.09018 3.65263e-14 5.47132e-14 
-2.27414 77.5131 -0.00364837 -5.03683 1.0035e-13 -5.66908e-15 -2.24941 78.199 -0.0054068 
-4.591 -1.85442e-14 1.96648e-14 -3.06936 77.9243 -0.0045472 -5.68798 6.65266e-14 4.62269e-14 
-2.99988 78.6486 -0.00781606 -5.12249 2.50964e-13 -2.64094e-14 -4.03581 78.5811 -0.00544626 
-6.36848 -1.30545e-13 2.3731e-15 -3.89631 79.3171 -0.0110765 -5.65955 1.11595e-13 -1.05055e-14 
-5.1971 79.5777 -0.00611613 -7.02958 4.86126e-14 8.42659e-14 -4.95309 80.2774 -0.0153623 
-6.15593 -4.35503e-14 1.44551e-13 -6.55753 81.0324 -0.00570075 -7.58262 -2.14776e-14 -5.44842e-14 
-6.16675 81.6158 -0.0208219 -6.53363 1.24602e-13 1.68102e-13 -8.07381 83.079 -0.00415918 
-7.88016 7.85483e-15 -5.37625e-14 -7.49306 83.4248 -0.0269262 -6.67031 1.50782e-13 1.00059e-13 
-8.80689 85.7786 -0.0349607 -6.3936 -3.45279e-13 6.9833e-14 1.40411 78.6658 -5.61616e-05 
-0.0934672 2.8865e-14 -5.19107e-14 1.3965 78.6546 -6.16012e-05 -0.187534 -1.70447e-14 2.4928e-15 
1.38353 78.6361 -7.0771e-05 -0.282825 -5.75625e-15 5.79892e-14 1.36477 78.6104 -8.38354e-05 
-0.380014 -2.05387e-14 -1.71486e-14 1.3396 78.5779 -0.000101043 -0.479847 -9.43343e-15 -3.84588e-15 
1.30722 78.5388 -0.000122746 -0.583174 -4.42779e-14 1.54651e-15 1.26661 78.4936 -0.000149431 
-0.690975 -2.68136e-14 -1.4877e-14 1.21655 78.4431 -0.000181759 -0.80439 7.58204e-14 -7.43242e-14 
1.15557 78.3879 -0.000220621 -0.924752 -4.97866e-14 3.76782e-14 1.08191 78.3292 -0.000267209 
-1.05362 5.72806e-14 -1.22992e-15 0.993517 78.2684 -0.000323119 -1.1928 -2.71796e-14 -3.99663e-14 
0.887939 78.2071 -0.000390467 -1.34441 7.93809e-15 8.47551e-14 0.762294 78.1478 -0.000472052 
-1.51084 5.17364e-14 2.43191e-14 0.61315 78.0934 -0.000571533 -1.69482 -1.38988e-13 1.92554e-15 
0.436409 78.048 -0.000693638 -1.89937 1.22714e-14 -4.77569e-14 0.227145 78.0167 -0.000844358 
-2.12775 -1.90837e-14 3.71127e-14 -0.0205846 78.0066 -0.00103105 -2.38333 -1.1678e-13 -8.7326e-15 
-0.313966 78.027 -0.00126235 -2.66933 -7.86003e-14 1.82042e-14 -0.661676 78.09 -0.00154747 
-2.98842 -5.0928e-14 -5.54799e-14 -1.0741 78.2122 -0.00189454 -3.34201 1.45602e-13 7.38923e-14 
-1.56343 78.4152 -0.00230666 -3.72909 -1.37203e-13 8.76452e-14 -2.14348 78.7273 -0.00277422 
-4.14446 5.04336e-14 -1.18364e-13 -2.82878 79.1857 -0.00325913 -4.576 3.31095e-13 -7.23449e-14 
-3.63242 79.837 -0.00367144 -5.00058 -2.17429e-13 5.72042e-14 -4.56124 80.7387 -0.00381019 
-5.37835 2.19312e-13 5.30131e-15 -5.60678 81.9567 -0.00334867 -5.64524 -1.18364e-13 9.7089e-14 
-6.72868 83.5587 -0.00164528 -5.70469 2.37088e-13 4.76008e-14 -7.82755 85.6002 0.0024484 
-5.42179 1.12299e-13 1.28675e-13 1.25082 79.0147 0.000512494 -0.103138 -1.23834e-14 -2.6494e-14 
1.24192 79.0078 0.000491292 -0.206722 -2.79507e-14 2.82942e-14 1.22674 78.9965 0.000454919 
-0.311216 6.24078e-15 -1.56728e-14 1.20476 78.9811 0.000401763 -0.417117 1.914e-14 -2.515e-14 
1.17525 78.9621 0.000329451 -0.524974 -3.80971e-14 6.25164e-14 1.13724 78.9401 0.000234723 
-0.635402 -1.24228e-15 -3.25798e-14 1.08952 78.9162 0.000113256 -0.749102 4.19493e-14 5.10546e-14 
1.03063 78.8912 -4.05793e-05 -0.866874 1.48362e-14 3.12805e-14 0.958825 78.8667 -0.00023403 
-0.989627 -3.36658e-14 -1.35686e-14 0.872051 78.8444 -0.000476372 -1.11839 -2.31967e-14 5.81219e-15 
0.767915 78.8264 -0.000779429 -1.2543 -4.30263e-14 5.01656e-14 0.643641 78.8156 -0.00115821 
-1.39859 7.04883e-14 1.05497e-14 0.496028 78.8154 -0.00163168 -1.55258 2.80006e-14 1.0934e-14 
0.321393 78.83 -0.00222359 -1.71756 4.52971e-14 7.32608e-14 0.115521 78.8649 -0.00296341 
-1.89469 -5.06969e-14 -1.5413e-15 -0.126387 78.9266 -0.00388695 -2.08486 -1.13789e-14 2.06102e-14 
-0.409736 79.0237 -0.00503656 -2.28834 -3.22624e-14 8.51437e-14 -0.740515 79.1664 -0.00645997 
-2.50439 -5.95726e-14 1.17614e-13 -1.12517 79.3677 -0.00820661 -2.73064 6.56684e-14 7.18106e-14 
-1.57026 79.6435 -0.0103191 -2.96218 1.1163e-13 4.19699e-14 -2.08183 80.0128 -0.0128168 
-3.19035 -1.7697e-13 1.14086e-13 -2.66409 80.4986 -0.0156647 -3.40101 -3.35884e-14 3.8405e-14 
-3.31722 81.1267 -0.0187229 -3.57245 -2.61263e-14 1.61021e-13 -4.03359 81.9253 -0.0216639 
-3.67279 1.88852e-13 -4.57238e-14 -4.7918 82.9217 -0.0238618 -3.65743 -7.45038e-14 3.19883e-15 
-5.54772 84.1367 -0.0242621 -3.46738 -5.75321e-14 2.26451e-14 -6.22202 85.5751 -0.0212201 
-3.03049 -1.07886e-13 -2.89907e-14 -6.68655 87.2101 -0.0129426 -2.26947 1.73285e-13 -7.7667e-14 
1.14052 79.2693 0.000309059 -0.10701 3.86446e-14 4.19764e-14 1.13102 79.2651 0.000283114 
-0.214315 -4.09648e-14 -6.01893e-14 1.11482 79.2584 0.000238706 -0.322223 1.41333e-14 -4.40117e-14 
1.09137 79.2496 0.000174038 -0.431061 -5.64219e-16 4.21863e-14 1.05988 79.2392 8.65001e-05 
-0.541187 -4.91534e-15 -2.09724e-14 1.01931 79.2281 -2.74287e-05 -0.653001 1.33645e-14 -4.29257e-15 
0.968391 79.2174 -0.000172317 -0.766948 1.28721e-14 -5.00251e-15 0.905576 79.2082 -0.000353952 
-0.883522 -4.51655e-14 -4.05752e-15 0.829037 79.2023 -0.000579553 -1.00327 2.78842e-14 -4.85332e-15 
0.736646 79.2017 -0.000858028 -1.12677 -7.19589e-14 4.77405e-14 0.625955 79.209 -0.00120026 
-1.25462 1.86452e-14 -7.63278e-15 0.494177 79.2272 -0.00161941 -1.3874 -5.98163e-14 1.07921e-13 
0.33817 79.2602 -0.00213118 -1.5256 -1.50969e-13 4.66268e-14 0.154432 79.3125 -0.00275394 
-1.66952 4.14946e-14 9.69624e-14 -0.0608959 79.3899 -0.00350859 -1.81911 4.82097e-14 6.31084e-14 
-0.31198 79.4992 -0.0044178 -1.97375 7.71818e-14 2.70608e-14 -0.603203 79.6486 -0.00550418 
-2.13194 -1.07306e-14 -1.08417e-13 -0.938968 79.8479 -0.00678664 -2.29086 -6.21777e-14 -5.52683e-15 
-1.32335 80.1089 -0.00827361 -2.44571 3.91874e-14 1.46027e-13 -1.7595 80.445 -0.00995145 
-2.58901 -8.57645e-14 6.44432e-14 -2.24865 80.8716 -0.0117656 -2.70946 -1.35695e-14 6.50521e-14 
-2.78851 81.4051 -0.0135918 -2.79084 -9.7664e-14 9.34634e-14 -3.37084 82.0624 -0.0151949 
-2.81061 -9.51843e-15 -3.73104e-14 -3.97785 82.8583 -0.0161775 -2.73878 -8.56173e-15 5.63265e-14 
-4.5771 83.8022 -0.0159249 -2.53745 -3.83218e-14 1.66499e-14 -5.11509 84.8922 -0.0135927 
-2.16214 -6.75432e-14 3.83062e-14 -5.50992 86.1074 -0.00814278 -1.56644 2.73861e-13 2.2422e-13 
-5.64577 87.3978 0.00125639 -0.71257 7.87426e-14 -6.89865e-14 1.02724 79.5367 0.000117065 
-0.109017 -5.36325e-15 -2.74529e-14 1.01741 79.5352 8.82032e-05 -0.218155 4.80683e-14 8.31626e-15 
1.00064 79.5328 3.8897e-05 -0.327538 5.81398e-15 1.48709e-15 0.976361 79.5302 -3.26899e-05 
-0.4373 -1.61095e-14 -7.99664e-15 0.943761 79.5278 -0.00012919 -0.547582 -9.64864e-15 5.51612e-14 
0.901784 79.5267 -0.000254092 -0.658538 -1.58584e-14 -1.25152e-14 0.849122 79.528 -0.000411818 
-0.770328 -1.14984e-14 -2.74325e-14 0.784206 79.533 -0.000607809 -0.883115 -1.70864e-14 -3.14935e-14 
0.705197 79.5436 -0.000848618 -0.997052 -2.05411e-14 -4.44063e-14 0.609983 79.5619 -0.00114199 
-1.11225 -1.32307e-14 -7.57042e-14 0.496169 79.5907 -0.00149689 -1.22877 -9.19555e-14 -9.09264e-14 
0.361088 79.6331 -0.00192349 -1.34653 -2.41651e-14 -6.24735e-14 0.201816 79.693 -0.00243293 
-1.46523 4.28008e-14 -1.10959e-13 0.0152119 79.775 -0.00303687 -1.58426 -5.20781e-14 -5.95253e-14 
-0.202015 79.8847 -0.00374645 -1.70252 1.23755e-14 -6.74903e-14 -0.453177 80.0284 -0.00457063 
-1.81819 5.03469e-14 -1.46972e-13 -0.74141 80.2136 -0.00551309 -1.9284 -2.41185e-14 3.68768e-14 
-1.06935 80.4489 -0.00656744 -2.02888 9.86696e-14 -1.46926e-13 -1.43864 80.744 -0.00770957 
-2.11342 5.6408e-14 -7.40519e-14 -1.84916 81.1091 -0.00888643 -2.17327 2.81581e-14 -2.06418e-13 
-2.29792 81.5551 -0.01 -2.19647 -5.46458e-14 -1.23374e-13 -2.77744 82.0921 -0.0108866 
-2.16715 2.95022e-14 -2.26033e-13 -3.27352 82.7285 -0.0112928 -2.06504 -3.08126e-14 -7.00499e-14 
-3.76227 83.4679 -0.010855 -1.86548 -1.08065e-14 -2.05032e-13 -4.20654 84.3068 -0.00909485 
-1.54044 -4.10262e-15 -1.78654e-13 -4.55211 85.2291 -0.00546203 -1.06145 8.76365e-14 -8.6495e-14 
-4.7247 86.2017 0.000542258 -0.405362 -8.8745e-14 -2.40825e-13 -4.63011 87.1692 0.00907089 
0.435845 1.56583e-13 3.78378e-14 0.912879 79.8135 -6.01141e-05 -0.109283 -1.74402e-14 -3.19046e-14 
0.903002 79.8144 -8.99236e-05 -0.2185 -2.23245e-14 -1.79622e-14 0.886158 79.816 -0.000140765 
-0.327582 -1.77417e-14 2.18779e-14 0.861774 79.819 -0.000214391 -0.436454 6.4665e-14 -4.4951e-15 
0.82904 79.8239 -0.000313276 -0.545029 -2.92008e-14 -1.36171e-14 0.786906 79.8318 -0.000440641 
-0.653205 4.14629e-14 -3.98279e-14 0.734082 79.8436 -0.000600459 -0.760849 4.21028e-14 7.27977e-15 
0.66903 79.861 -0.000797461 -0.867788 3.28897e-14 -4.22926e-14 0.589966 79.8856 -0.0010371 
-0.973784 4.0073e-14 3.07514e-14 0.494866 79.9197 -0.00132547 -1.0785 3.13139e-15 4.50057e-14 
0.381483 79.9658 -0.00166911 -1.18147 3.33444e-14 -5.50142e-14 0.247368 80.0272 -0.0020747 
-1.28201 -8.58617e-14 -6.84262e-15 0.0899257 80.1074 -0.00254849 -1.37916 -4.58938e-14 8.9922e-14 
-0.0935093 80.2109 -0.00309534 -1.47153 1.0784e-13 7.99794e-15 -0.30555 80.3424 -0.00371729 
-1.5572 -6.36125e-14 4.2885e-14 -0.548571 80.5078 -0.00441129 -1.63345 2.34383e-15 -2.70175e-14 
-0.82443 80.7133 -0.00516582 -1.69657 2.24757e-14 1.40565e-14 -1.13407 80.9658 -0.00595607 
-1.7415 -3.62277e-14 6.55205e-15 -1.47695 81.2725 -0.00673719 -1.7615 -4.83124e-14 3.3468e-14 
-1.85025 81.6405 -0.00743549 -1.74777 7.84362e-14 1.46485e-13 -2.24777 82.0763 -0.00793784 
-1.68911 3.61237e-14 -4.76286e-14 -2.65851 82.5844 -0.00808053 -1.57171 -1.86337e-13 9.28459e-14 
-3.06489 83.1662 -0.00764139 -1.37936 1.04437e-13 2.67841e-14 -3.44067 83.8179 -0.00634204 
-1.09414 7.35393e-14 1.19684e-13 -3.74879 84.5277 -0.00387275 -0.698293 3.38635e-14 1.85964e-13 
-3.93983 85.2729 4.26685e-05 -0.177555 -5.27235e-14 2.78857e-14 -3.95193 86.0175 0.00552212 
0.473444 -1.07437e-13 9.58383e-14 -3.714 86.7108 0.0123107 1.24357 -5.62085e-14 2.50581e-14 
0.799187 80.0963 -0.000221163 -0.107955 -4.46583e-16 3.12888e-14 0.789564 80.0993 -0.000249936 
-0.215657 -7.71727e-15 -7.14242e-14 0.773156 80.1045 -0.000298942 -0.322844 -3.6442e-14 -3.4645e-14 
0.749404 80.1126 -0.000369754 -0.429235 1.73369e-15 -4.92674e-14 0.717527 80.124 -0.000464557 
-0.534518 1.11768e-14 -2.57606e-15 0.676515 80.1396 -0.000586135 -0.63834 5.0319e-14 -8.74301e-16 
0.625131 80.1606 -0.000737821 -0.740288 -2.23533e-14 -2.97288e-15 0.561916 80.1883 -0.00092342 
-0.839868 4.03274e-14 2.32644e-14 0.485196 80.2245 -0.00114707 -0.936478 1.79477e-14 4.76286e-14 
0.393098 80.271 -0.00141304 -1.02937 -2.24891e-14 6.57781e-14 0.28358 80.3305 -0.00172536 
-1.11762 7.78483e-14 7.77373e-14 0.154484 80.4057 -0.00208731 -1.20004 -4.58169e-14 2.50017e-14 
0.00360007 80.4998 -0.00250061 -1.2751 -1.02999e-14 -6.72899e-14 -0.171214 80.6168 -0.00296431 
-1.34086 6.81837e-14 -3.05173e-14 -0.371877 80.7607 -0.0034731 -1.39479 2.72759e-14 -2.02078e-14 
-0.59986 80.9362 -0.00401504 -1.43365 -8.12634e-14 7.30908e-14 -0.855867 81.1482 -0.00456846 
-1.45332 8.00693e-14 -1.07813e-14 -1.13941 81.4019 -0.00509791 -1.44853 7.89687e-14 -8.47473e-14 
-1.44822 81.702 -0.00554927 -1.41276 -3.01557e-14 -7.48186e-15 -1.77753 82.0526 -0.00584422 
-1.338 -7.95e-14 -1.1071e-13 -2.11908 82.4566 -0.00587512 -1.21475 5.86618e-14 -1.80776e-14 
-2.46004 82.9141 -0.00550224 -1.03221 -6.17557e-14 2.30788e-14 -2.78169 83.4218 -0.00455708 
-0.778806 -9.50516e-14 -8.48488e-14 -3.05821 83.9712 -0.0028574 -0.443377 -5.4865e-14 -2.05044e-14 
-3.25574 84.5467 -0.000241971 -0.0171696 1.44483e-13 -5.47834e-14 -3.33232 85.1243 0.0033667 
0.503051 -3.22674e-13 -5.26228e-14 -3.23952 85.6706 0.00786921 1.11072 -9.95939e-14 -9.02759e-14 
-2.92673 86.1438 0.0128489 1.78427 -5.98063e-14 -8.4383e-14 0.687747 80.3815 -0.000366827 
-0.105181 -1.37109e-14 -6.39475e-14 0.678667 80.3865 -0.000392678 -0.209935 6.53516e-14 -2.33672e-14 
0.663186 80.395 -0.000436658 -0.313819 -4.90101e-14 3.86431e-14 0.640778 80.4076 -0.000500095 
-0.416362 -7.55738e-15 2.13805e-16 0.610709 80.4246 -0.000584804 -0.517044 5.87816e-15 -4.09265e-15 
0.572037 80.4471 -0.000693035 -0.615284 -3.0863e-14 2.85861e-14 0.523614 80.4758 -0.000827384 
-0.710411 -6.84397e-15 -5.93406e-14 0.464096 80.512 -0.000990662 -0.801649 -5.64672e-14 -2.29374e-14 
0.391957 80.5573 -0.00118568 -0.888078 2.47758e-14 -1.9533e-14 0.305519 80.6134 -0.00141495 
-0.968604 4.88687e-14 -2.29001e-14 0.202989 80.6823 -0.00168023 -1.04191 -1.55361e-14 -4.826e-15 
0.0825215 80.7666 -0.00198192 -1.10642 -6.22707e-14 4.14148e-14 -0.0576851 80.8689 -0.00231816 
-1.16019 2.95202e-14 4.46353e-14 -0.219264 80.9923 -0.00268367 -1.20088 2.61325e-14 -8.4481e-15 
-0.4035 81.1402 -0.00306815 -1.22564 6.93965e-15 6.00908e-15 -0.611081 81.316 -0.00345434 
-1.23099 1.29778e-14 -9.43958e-14 -0.841782 81.5233 -0.00381549 -1.21274 -1.35193e-14 -5.83223e-14 
-1.09404 81.7653 -0.00411257 -1.16592 -7.8513e-15 -2.54033e-14 -1.36443 82.0449 -0.00429132 
-1.08467 -2.65074e-13 7.5849e-14 -1.64701 82.3635 -0.00427988 -0.962326 -2.07426e-14 2.63244e-14 
-1.93257 82.7213 -0.00398803 -0.791553 -8.38674e-15 2.13137e-14 -2.20784 83.1154 -0.00331006 
-0.564783 6.23833e-14 3.8196e-14 -2.45466 83.5398 -0.00213404 -0.274964 2.06692e-13 3.88153e-14 
-2.64943 83.9836 -0.000361203 0.0831916 5.63499e-14 6.65188e-14 -2.76304 84.4307 0.00206096 
0.511357 -4.39657e-14 2.92275e-14 -2.76171 84.8586 0.00508952 1.00509 -1.17163e-13 1.8362e-15 
-2.60923 85.2393 0.00852767 1.55078 -2.20098e-13 1.22945e-13 -2.27134 85.541 0.011947 
2.12255 -1.55338e-13 3.89448e-14 0.579985 80.6661 -0.000499849 -0.101094 -3.3609e-14 -2.97384e-14 
0.571709 80.6728 -0.000521079 -0.20161 -1.43614e-14 4.24031e-14 0.557596 80.6844 -0.000557175 
-0.30095 -9.98126e-15 -3.64335e-15 0.537169 80.7009 -0.000609182 -0.398479 3.41072e-14 8.46935e-15 
0.509759 80.723 -0.000678498 -0.493501 -2.73007e-14 3.92785e-14 0.474513 80.7513 -0.000766805 
-0.585238 -4.65025e-14 7.16614e-15 0.430397 80.7866 -0.000875951 -0.672806 4.5782e-14 3.92169e-14 
0.376211 80.8298 -0.00100779 -0.755191 -6.38845e-14 1.00604e-13 0.310606 80.8822 -0.00116392 
-0.831218 3.53638e-14 3.77268e-14 0.232121 80.9452 -0.00134537 -0.899515 -4.25836e-14 6.15411e-14 
0.139225 81.0204 -0.00155209 -0.958479 6.43874e-14 3.43918e-14 0.0303953 81.1098 -0.00178235 
-1.00623 1.50056e-14 7.24247e-16 -0.0957884 81.2155 -0.00203187 -1.04058 -3.26345e-15 7.62489e-14 
-0.240504 81.3396 -0.00229277 -1.05895 5.00204e-14 1.60462e-14 -0.404507 81.4846 -0.00255222 
-1.05835 4.11666e-15 -1.97264e-14 -0.587882 81.653 -0.00279094 -1.03532 7.72183e-14 9.95272e-14 
-0.789747 81.8467 -0.00298149 -0.985897 6.91035e-15 8.4514e-14 -1.00786 82.0677 -0.0030866 
-0.905649 2.11062e-14 6.32957e-14 -1.23819 82.3169 -0.00305808 -0.789703 2.11728e-14 4.80727e-14 
-1.47434 82.5939 -0.0028367 -0.632927 -2.53431e-13 -1.26787e-13 -1.70707 82.8969 -0.00235433 
-0.430234 1.39641e-14 5.53915e-14 -1.92371 83.2215 -0.00153971 -0.177107 -2.43155e-13 -3.78187e-14 
-2.10776 83.5601 -0.000329552 0.129601 -1.50816e-13 2.2508e-15 -2.23883 83.9016 0.00131308 
0.490522 -8.02891e-14 -6.41726e-14 -2.29302 84.231 0.0033725 0.902257 7.94555e-14 -1.07418e-13 
-2.24418 84.5292 0.00574713 1.35555 -1.67808e-14 4.57533e-16 -2.0663 84.7743 0.00821828 
1.83338 -2.15706e-13 -8.22048e-14 -1.73721 84.9432 0.0104143 2.3093 1.68355e-14 -1.12681e-14 
0.477201 80.9467 -0.000624794 -0.0957909 1.65281e-14 8.49646e-14 0.469942 80.9552 -0.00063997 
-0.190887 -4.24984e-14 -8.19449e-14 0.457561 80.9695 -0.00066578 -0.284571 -1.91267e-15 2.80275e-14 
0.439638 80.9898 -0.000702962 -0.37608 7.8008e-15 -8.42265e-14 0.415584 81.0165 -0.000752485 
-0.46458 -6.86801e-16 -4.4183e-14 0.384651 81.05 -0.000815464 -0.549144 -2.08029e-15 4.16854e-14 
0.345938 81.091 -0.000893041 -0.628726 -3.75438e-14 1.91167e-15 0.298406 81.14 -0.000986212 
-0.702135 5.269e-14 -8.13282e-14 0.240898 81.1981 -0.00109558 -0.768005 3.32775e-14 -3.73599e-14 
0.17218 81.2661 -0.00122102 -0.82477 3.87304e-14 -1.28743e-13 0.0909833 81.3452 -0.00136125 
-0.870631 2.23735e-15 -7.50598e-14 -0.00391413 81.4367 -0.00151322 -0.903533 9.09995e-14 1.40686e-15 
-0.113594 81.5421 -0.00167144 -0.921132 -2.59342e-14 -1.14284e-14 -0.238862 81.6626 -0.00182705 
-0.920777 -1.76375e-14 -6.56714e-14 -0.380072 81.7999 -0.00196689 -0.8995 1.59353e-14 -3.57258e-14 
-0.536905 81.9551 -0.0020724 -0.854019 -7.62833e-14 -2.70712e-14 -0.708099 82.1293 -0.00211867 
-0.780777 3.68225e-14 3.90339e-14 -0.891115 82.3228 -0.00207384 -0.676018 -2.80255e-14 -8.06568e-14 
-1.08178 82.5353 -0.00189914 -0.535941 9.81397e-14 -2.07395e-14 -1.27387 82.7652 -0.00155035 
-0.35694 -4.68929e-14 -3.96671e-14 -1.45877 83.0093 -0.000981284 -0.135985 1.1142e-13 -8.81586e-14 
-1.62511 83.2624 -0.00015034 0.128842 -2.5843e-15 1.1103e-13 -1.75869 83.5169 0.000969069 
0.437594 -1.52782e-13 -7.3672e-14 -1.84265 83.7625 0.00237369 0.787516 1.06926e-13 1.37827e-13 
-1.85811 83.9863 0.00401203 1.1719 5.33913e-14 -1.44212e-14 -1.78549 84.1731 0.00576461 
1.5789 1.51542e-13 -2.32772e-14 -1.60668 84.3066 0.00743102 1.99043 2.92778e-14 -2.81755e-14 
-1.30802 84.3713 0.00871822 2.3816 -9.41842e-14 -1.03046e-13 0.380612 81.2202 -0.000747804 
-0.0893199 -4.41624e-14 -8.42512e-15 0.374523 81.2304 -0.000755822 -0.17787 1.54955e-14 1.80177e-14 
0.364135 81.2474 -0.000769491 -0.264857 -9.25974e-15 1.75359e-14 0.349091 81.2713 -0.000789236 
-0.349433 2.06124e-14 -3.07749e-14 0.328892 81.3024 -0.000815594 -0.43068 -1.08631e-14 -3.67024e-15 
0.302907 81.341 -0.000849133 -0.507573 -1.7968e-14 -3.20516e-14 0.270378 81.3872 -0.000890344 
-0.578962 1.03661e-14 -6.44667e-14 0.230436 81.4415 -0.000939489 -0.643545 -7.00542e-14 -4.4925e-14 
0.182124 81.5044 -0.000996388 -0.699843 -4.96829e-14 4.07833e-15 0.12443 81.5763 -0.00106013 
-0.746175 7.78683e-14 -5.56846e-15 0.0563355 81.6579 -0.0011287 -0.780641 -3.96122e-14 1.79128e-14 
-0.0231133 81.7498 -0.00119854 -0.801107 5.19843e-14 8.90026e-14 -0.114716 81.8526 -0.00126395 
-0.805194 -1.55202e-13 -2.99327e-15 -0.218995 81.967 -0.00131652 -0.790285 4.92738e-14 9.15882e-14 
-0.33604 82.0934 -0.00134441 -0.753547 -9.67737e-14 -5.16948e-15 -0.465314 82.2321 -0.00133181 
-0.691978 2.66809e-14 6.35941e-14 -0.605425 82.3831 -0.00125852 -0.602491 -4.94829e-14 -6.67782e-15 
-0.753859 82.5456 -0.00110005 -0.48205 -9.72765e-14 1.93966e-13 -0.906694 82.7182 -0.00082843 
-0.327866 -1.67366e-13 -3.56477e-14 -1.05832 82.8985 -0.000414343 -0.137689 4.04534e-14 -1.09304e-13 
-1.20118 83.0827 0.000169122 0.0898048 -2.76354e-14 6.08133e-14 -1.32566 83.2654 0.000940439 
0.354501 5.54366e-14 -1.13092e-13 -1.42007 83.4395 0.00190118 0.654213 7.48989e-15 2.89569e-14 
-1.47104 83.5963 0.00302537 0.983941 -1.84567e-13 -1.65996e-14 -1.46414 83.7253 0.00424799 
1.3351 -1.93388e-13 -2.09372e-14 -1.38516 83.8153 0.00545493 1.69479 3.24562e-14 2.02152e-14 
-1.22185 83.8549 0.00648078 2.04536 5.95886e-14 6.43936e-14 -0.966202 83.8346 0.00710931 
2.36444 -1.14362e-14 -2.07694e-14 0.291413 81.4833 -0.000876236 -0.0816645 2.39334e-14 3.17107e-15 
0.286576 81.4952 -0.000876368 -0.162532 -2.51352e-14 -8.63892e-16 0.27832 81.5151 -0.000876674 
-0.241781 4.47502e-14 -3.03195e-14 0.266356 81.5428 -0.000877255 -0.318534 -7.62615e-14 2.72941e-14 
0.250282 81.5785 -0.000878209 -0.391837 9.17326e-14 4.80276e-14 0.229586 81.6222 -0.000879565 
-0.460632 -4.55108e-14 2.44145e-14 0.20366 81.6739 -0.000881212 -0.523728 6.08183e-14 5.38718e-15 
0.171807 81.7335 -0.000882772 -0.579785 -2.12642e-14 6.16824e-14 0.133267 81.8012 -0.000883451 
-0.627286 3.89757e-14 4.5389e-14 0.0872412 81.8769 -0.000881827 -0.664522 8.39812e-15 7.76098e-14 
0.0329405 81.9606 -0.00087559 -0.689579 -4.00862e-14 2.48673e-14 -0.0303576 82.0524 -0.000861228 
-0.700338 2.45158e-14 8.55045e-15 -0.103229 82.152 -0.000833665 -0.694476 1.8793e-13 5.81358e-14 
-0.185998 82.2593 -0.000785885 -0.669499 1.5473e-14 5.59587e-14 -0.278609 82.3738 -0.000708584 
-0.622781 -2.85963e-14 1.11688e-13 -0.380469 82.4948 -0.000589956 -0.551649 -6.02445e-14 -3.49035e-14 
-0.490259 82.6213 -0.000415722 -0.453492 -8.63296e-16 8.87086e-14 -0.605733 82.7517 -0.000169614 
-0.325934 -2.16799e-14 -7.01479e-14 -0.723506 82.8838 0.000165448 -0.167054 -6.72555e-14 5.05325e-14 
-0.838857 83.0145 0.000605213 0.0243133 -9.23567e-15 1.72543e-13 -0.945585 83.1398 0.0011607 
0.248203 1.02911e-13 1.21422e-13 -1.03596 83.2547 0.00183341 0.503073 -1.8629e-13 1.73649e-13 
-1.10086 83.3529 0.00260918 0.785287 6.18879e-14 1.13829e-13 -1.13008 83.4273 0.0034514 
1.08858 2.08807e-13 6.14127e-14 -1.113 83.4701 0.00429475 1.40356 -1.32594e-13 1.43675e-13 
-1.03962 83.4735 0.00504144 1.71736 1.21214e-14 -3.13411e-14 -0.901874 83.4305 0.00556439 
2.01358 8.24364e-14 8.84145e-15 -0.695319 83.3362 0.00571296 2.27266 -7.67494e-14 5.96259e-14 
0.210849 81.7327 -0.00101837 -0.0727347 2.44873e-14 2.75474e-14 0.207268 81.7465 -0.00101033 
-0.144697 2.08257e-14 2.01948e-14 0.201151 81.7694 -0.000996758 -0.215087 -2.54776e-14 1.76989e-14 
0.192278 81.8014 -0.000977428 -0.283054 8.04803e-15 -6.97159e-14 0.180343 81.8423 -0.00095197 
-0.347669 -5.19539e-14 -7.19056e-14 0.164958 81.8917 -0.000919864 -0.407899 4.2463e-14 -3.4446e-14 
0.14566 81.9495 -0.000880389 -0.462586 2.85481e-14 1.10025e-14 0.121923 82.0153 -0.00083256 
-0.510422 -3.49926e-15 -4.10358e-14 0.0931719 82.0886 -0.000775046 -0.549934 1.66778e-14 -7.64631e-14 
0.0588107 82.169 -0.000706059 -0.579469 6.68195e-14 5.97959e-15 0.0182537 82.2558 -0.00062322 
-0.597187 -1.06371e-14 -9.13705e-14 -0.0290248 82.3483 -0.000523412 -0.601069 -3.32563e-14 -2.67902e-14 
-0.083428 82.4457 -0.000402619 -0.588934 1.43021e-14 -7.5176e-14 -0.145155 82.5467 -0.000255797 
-0.558475 3.47387e-14 -1.08377e-13 -0.214099 82.6502 -7.68017e-05 -0.507325 4.06414e-14 -1.20984e-13 
-0.289726 82.7545 0.000141532 -0.433147 -1.12863e-14 -4.16811e-14 -0.370938 82.8576 0.000407088 
-0.333773 1.78051e-13 4.42979e-14 -0.455919 82.9571 0.000727785 -0.207377 -1.25598e-13 -3.60423e-14 
-0.54199 83.0502 0.00111039 -0.0527076 7.56001e-14 2.22513e-14 -0.625478 83.1333 0.00155865 
0.130623 -1.29176e-13 -1.8677e-13 -0.701639 83.2024 0.00207067 0.341804 -6.17761e-14 1.56541e-14 
-0.764655 83.2528 0.00263557 0.578442 -2.0635e-14 -5.12368e-14 -0.80778 83.2793 0.00322961 
0.836161 -1.06966e-13 -4.39865e-14 -0.823638 83.2764 0.00381246 1.10823 7.31663e-15 -6.97103e-14 
-0.804762 83.2387 0.00432478 1.38528 -1.91032e-13 -1.01203e-13 -0.744352 83.1614 0.00468809 
1.65519 -1.86306e-13 -3.03018e-14 -0.637271 83.0412 0.00481025 1.90324 1.17622e-13 -4.38213e-14 
-0.481187 82.8767 0.00459278 2.11271 1.13384e-13 -1.26682e-13 0.140302 81.9644 -0.00118241 
-0.0623611 4.88208e-14 -2.7851e-15 0.137898 81.9805 -0.00116637 -0.124025 -4.81857e-14 -1.08529e-14 
0.133788 82.0071 -0.00113921 -0.184268 3.24311e-14 2.16723e-14 0.127819 82.044 -0.00110032 
-0.242321 -2.22348e-15 3.63065e-14 0.119776 82.0909 -0.00104882 -0.297338 -3.27668e-15 -9.26052e-14 
0.109389 82.1472 -0.000983563 -0.348379 -3.42098e-15 -2.06137e-14 0.096335 82.2125 -0.000903175 
-0.394384 -2.5327e-16 3.52856e-14 0.0802478 82.286 -0.000805996 -0.434158 -8.44034e-14 5.60784e-14 
0.0607272 82.3667 -0.000690109 -0.466352 7.58304e-14 -2.93038e-14 0.0373586 82.4538 -0.000553326 
-0.489454 1.07132e-14 2.50269e-14 0.00973749 82.5459 -0.000393197 -0.501788 8.73756e-14 1.41744e-14 
-0.0224967 82.6416 -0.000207032 -0.501522 -1.12621e-13 8.85732e-14 -0.059615 82.7393 8.05197e-06 
-0.486691 6.16601e-14 2.40693e-14 -0.101741 82.8369 0.000255024 -0.455242 -3.11035e-14 -2.07568e-14 
-0.148778 82.9324 0.000536758 -0.405102 1.38784e-14 -1.01716e-13 -0.200327 83.023 0.000855717 
-0.334273 -1.1043e-13 1.07087e-13 -0.255586 83.1061 0.00121345 -0.240973 -3.85222e-15 -1.84956e-14 
-0.31325 83.1782 0.00160987 -0.123804 1.59881e-13 -3.95812e-14 -0.371415 83.2359 0.00204212 
0.0180239 -1.32719e-13 -1.81312e-13 -0.427492 83.2752 0.00250327 0.184437 5.39759e-14 1.00925e-13 
-0.478172 83.2919 0.00298045 0.374199 -7.86752e-14 -4.51713e-14 -0.519438 83.2817 0.00345298 
0.584598 -1.20931e-13 5.09705e-14 -0.54669 83.2402 0.00389045 0.811143 2.63286e-13 2.06996e-14 
-0.554972 83.1633 0.00425142 1.04731 -1.98134e-13 3.47691e-14 -0.539361 83.0478 0.00448361 
1.28439 -1.3301e-14 1.73589e-13 -0.495496 82.8914 0.00452589 1.51152 -1.1826e-13 1.10654e-13 
-0.420243 82.6936 0.00431455 1.71597 -7.55186e-14 1.53974e-14 -0.312437 82.4563 0.00379068 
1.88373 1.27719e-13 5.61114e-14 0.0813741 82.1746 -0.00137536 -0.0502941 -2.19927e-14 4.75761e-14 
0.0799893 82.1933 -0.00135196 -0.100014 3.09359e-14 -4.42753e-14 0.0776189 82.2242 -0.00131223 
-0.148565 2.48798e-14 3.70255e-14 0.0741695 82.2671 -0.00125512 -0.195309 -5.72312e-14 4.5049e-14 
0.0695116 82.3213 -0.00117916 -0.239542 4.3199e-15 7.02121e-14 0.0634808 82.3862 -0.0010825 
-0.28048 -8.91756e-15 2.44986e-15 0.0558808 82.4609 -0.000962936 -0.317234 -8.42902e-15 -1.28803e-15 
0.0464881 82.5444 -0.000817987 -0.348795 4.35272e-14 -8.7777e-16 0.0350587 82.6354 -0.000644942 
-0.374024 -1.17681e-14 6.88069e-14 0.021339 82.7322 -0.000440976 -0.39164 -4.29617e-14 7.99343e-14 
0.005081 82.8331 -0.000203298 -0.40022 -5.03987e-14 2.76628e-14 -0.0139368 82.936 7.06623e-05 
-0.398211 7.73014e-14 6.17562e-14 -0.0358818 83.0384 0.000382991 -0.383951 1.17566e-13 -3.21462e-14 
-0.0608313 83.1374 0.000734954 -0.355713 3.31898e-14 -3.95482e-14 -0.0887288 83.23 0.00112657 
-0.311762 7.28165e-14 3.16457e-14 -0.119331 83.3125 0.00155603 -0.250454 -5.34805e-14 -4.30107e-14 
-0.152152 83.3811 0.00201908 -0.170348 -5.22994e-14 9.07061e-14 -0.186396 83.4317 0.00250815 
-0.0703721 1.64518e-13 1.48686e-13 -0.220904 83.4598 0.00301144 0.0499949 -2.51367e-14 7.95163e-14 
-0.254107 83.4608 0.00351195 0.190495 -1.42468e-13 3.00393e-14 -0.284 83.4303 0.00398648 
0.349847 1.12463e-13 4.24001e-14 -0.308166 83.3638 0.00440493 0.525499 -1.16069e-13 -9.3113e-14 
-0.323848 83.2576 0.00473001 0.713391 7.17911e-14 2.70704e-15 -0.328101 83.1086 0.00491791 
0.907791 4.33607e-14 -4.79989e-14 -0.31803 82.9151 0.00492039 1.10122 -3.14557e-14 -3.72172e-14 
-0.29111 82.6769 0.00468822 1.28455 -1.33218e-14 8.33133e-14 -0.245583 82.3961 0.00417797 
1.44728 -1.93523e-13 -1.44229e-13 -0.180884 82.0772 0.00335948 1.57813 2.18835e-13 1.29096e-13 
0.0359856 82.3586 -0.00156854 -0.0362089 2.83902e-14 -1.41579e-14 0.0353909 82.3804 -0.00153715 
-0.0720094 -6.88186e-15 -8.1519e-15 0.034371 82.4166 -0.00148378 -0.106976 -2.95224e-14 1.77662e-14 
0.0328828 82.4666 -0.00140685 -0.140652 -1.86327e-14 -2.85562e-14 0.0308665 82.5298 -0.0013042 
-0.17253 1.75283e-14 -4.66116e-14 0.0282461 82.6054 -0.00117312 -0.202037 3.69088e-14 -4.83762e-14 
0.0249302 82.6921 -0.00101043 -0.228522 -1.10829e-14 6.55825e-14 0.0208145 82.7888 -0.000812556 
-0.251242 -2.814e-14 4.18754e-14 0.0157845 82.8935 -0.00057571 -0.269349 2.28695e-14 7.2076e-14 
0.00972032 83.0045 -0.000296074 -0.281888 -9.09949e-15 -1.15541e-14 0.00250355 83.1191 2.9907e-05 
-0.28779 1.87606e-14 -2.0579e-14 -0.00597321 83.2348 0.000405163 -0.285885 1.258e-13 5.2458e-14 
-0.0157936 83.3481 0.000831519 -0.274917 -8.94827e-14 6.7577e-14 -0.0270009 83.4554 0.0013091 
-0.253576 3.01187e-14 1.11883e-13 -0.0395776 83.5525 0.00183561 -0.220546 2.15132e-14 1.45089e-13 
-0.0534209 83.6348 0.0024055 -0.174579 -1.67617e-13 3.30274e-14 -0.0683151 83.6974 0.00300902 
-0.114583 -5.34494e-14 -6.91365e-14 -0.0839024 83.7348 0.00363125 -0.0397537 9.65591e-14 6.81061e-14 
-0.0996554 83.7416 0.00425116 0.0502886 2.04311e-14 3.86358e-14 -0.114855 83.7122 0.00484082 
0.15532 -6.51467e-14 1.39585e-14 -0.12858 83.6412 0.00536504 0.27433 -1.66585e-13 7.20717e-14 
-0.139715 83.5238 0.00578158 0.405333 -3.00814e-14 -1.98938e-14 -0.146987 83.3562 0.00604224 
0.5452 7.10122e-14 2.37839e-14 -0.149039 83.1357 0.00609519 0.689542 2.49567e-13 9.82599e-14 
-0.144532 82.8616 0.00588892 0.832674 1.75554e-14 -5.44066e-14 -0.132304 82.5352 0.00537721 
0.967708 -7.34569e-15 6.64873e-14 -0.111551 82.1607 0.00452713 1.0868 1.97819e-14 6.59546e-14 
-0.0820228 81.7451 0.00332582 1.18157 2.45975e-13 7.18245e-14 0.00698472 82.5115 -0.00108324 
-0.0197124 -1.94118e-14 5.39282e-15 0.00691423 82.5372 -0.00101143 -0.039213 -3.1627e-14 6.08814e-14 
0.00679135 82.5796 -0.00089027 -0.0582804 4.1423e-15 -9.33325e-15 0.006608 82.6383 -0.00071761 
-0.0766741 7.17959e-15 3.33583e-14 0.00635278 82.7126 -0.000490519 -0.0941255 -4.08293e-14 -1.11651e-13 
0.00601109 82.8013 -0.000205409 -0.110328 2.26071e-14 7.24798e-14 0.0055651 82.9033 0.000141797 
-0.124929 -4.43278e-14 1.98561e-14 0.00499403 83.017 0.000555439 -0.137521 4.53457e-15 -7.61995e-14 
0.00427451 83.1402 0.00103979 -0.147636 2.09555e-14 -1.39444e-13 0.00338121 83.2707 0.00159861 
-0.154739 -1.47855e-14 2.45064e-14 0.00228795 83.4055 0.0022346 -0.15823 -2.62156e-14 -4.12708e-14 
0.000969175 83.5411 0.0029486 -0.157442 2.45507e-15 -6.33174e-14 -0.000597874 83.6736 0.00373874 
-0.151654 -4.60448e-14 2.14004e-14 -0.00243024 83.7984 0.00459925 -0.140107 3.904e-14 1.92381e-15 
-0.00453556 83.9102 0.00551917 -0.122029 3.02503e-14 -1.21215e-13 -0.00690746 84.0032 0.00648091 
-0.0966778 2.70407e-14 -9.14095e-14 -0.00952024 84.0711 0.0074587 -0.0633939 8.98308e-14 1.59837e-14 
-0.0123231 84.107 0.00841709 -0.0216706 -5.33925e-14 9.77864e-15 -0.0152341 84.1039 0.00930979 
0.0287585 -2.0138e-13 3.51212e-14 -0.0181353 84.0547 0.010079 0.0878193 2.74672e-15 8.70918e-14 
-0.0208697 83.9526 0.0106555 0.154985 -8.29805e-14 7.61179e-14 -0.0232412 83.7914 0.0109607 
0.229164 1.20468e-13 1.35665e-13 -0.0250196 83.5665 0.0109094 0.3086 1.03869e-13 -7.81233e-15 
-0.0259531 83.2746 0.0104159 0.390795 -5.3825e-14 1.60028e-14 -0.0257868 82.9151 0.00940144 
0.472491 4.66484e-14 -1.34389e-14 -0.0242908 82.4902 0.00780409 0.549715 2.18877e-13 -2.17285e-14 
-0.0212943 82.0057 0.00559157 0.617927 -2.56998e-13 -2.82378e-14 -0.016717 81.4711 0.0027719 
0.67227 1.57542e-13 1.04618e-13 1.30239 78.895 -7.6473e-05 -0.100287 9.75327e-15 -4.8208e-15 
1.25286 79.0184 0.000342414 -0.0515247 -1.78692e-14 2.30579e-14 1.2939 78.8867 -8.29352e-05 
-0.20108 -3.8284e-14 -3.23795e-14 1.24698 79.0138 0.000340038 -0.154796 1.36761e-14 2.86594e-14 
1.27943 78.873 -9.38345e-05 -0.302903 3.56369e-14 1.25542e-14 1.23502 79.0047 0.000335061 
-0.258743 -6.16035e-14 5.3884e-14 1.25848 78.8542 -0.000109372 -0.406323 2.75942e-14 -7.04731e-15 
1.21656 78.9913 0.000327024 -0.363844 3.6162e-14 1.31076e-14 1.23036 78.8308 -0.000129844 
-0.511963 -4.84443e-14 -5.77316e-14 1.19098 78.9742 0.000315203 -0.470619 1.70068e-14 4.8142e-14 
1.19414 78.8033 -0.000155658 -0.620529 -1.6296e-14 -7.63625e-15 1.15742 78.9538 0.000298575 
-0.579649 -7.86073e-14 6.15376e-14 1.1487 78.7724 -0.000187358 -0.732826 9.22023e-14 -2.03743e-14 
1.11481 78.931 0.000275757 -0.69159 -3.71439e-14 -5.67376e-14 1.09263 78.7392 -0.000225652 
-0.849781 4.10835e-14 2.2031e-14 1.06182 78.9066 0.000244923 -0.80719 5.74332e-14 1.17215e-14 
1.02429 78.7049 -0.000271453 -0.972459 -1.25785e-14 -7.74814e-14 0.996851 78.8821 0.000203699 
-0.927301 1.64738e-14 7.42722e-14 0.941696 78.671 -0.000325927 -1.10208 -7.05165e-16 4.66762e-14 
0.918011 78.8588 0.000149017 -1.05289 3.27707e-14 -5.30756e-14 0.84257 78.6395 -0.000390557 
-1.24003 -1.22602e-13 8.35564e-14 0.82309 78.8389 7.69212e-05 -1.18503 -5.38875e-14 4.25701e-15 
0.724232 78.613 -0.000467202 -1.38785 -9.66657e-14 1.0875e-14 0.709519 78.8248 -1.76711e-05 
-1.32492 9.22526e-15 3.93366e-14 0.583565 78.5945 -0.000558164 -1.54724 8.02899e-14 -4.24487e-14 
0.574324 78.8196 -0.000141291 -1.47382 1.26465e-13 1.44485e-14 0.416944 78.588 -0.000666239 
-1.71997 7.74329e-14 1.89362e-14 0.414085 78.8272 -0.000302311 -1.63303 -8.99159e-14 7.4378e-14 
0.220161 78.5986 -0.000794704 -1.90786 5.32387e-14 9.44939e-14 0.224876 78.8525 -0.000511427 
-1.8038 -1.36781e-13 1.35239e-14 -0.0116712 78.6328 -0.0009472 -2.11256 -8.24792e-14 4.66745e-14 
0.00221603 78.9013 -0.000782222 -1.98715 4.142e-14 1.05489e-13 -0.284195 78.6987 -0.00112737 
-2.33536 -3.65628e-14 1.31142e-13 -0.258972 78.9814 -0.00113177 -2.18367 3.59851e-14 1.92034e-14 
-0.603875 78.8066 -0.00133807 -2.57678 1.00614e-14 3.9628e-14 -0.564368 79.1021 -0.00158121 
-2.39315 4.85549e-15 1.19005e-13 -0.977992 78.9697 -0.00157974 -2.836 -3.95864e-14 3.07462e-14 
-0.920186 79.275 -0.00215602 -2.61407 4.92315e-14 1.24262e-13 -1.4145 79.2047 -0.00184749 
-3.10999 6.55101e-14 2.44665e-14 -1.33297 79.5146 -0.00288576 -2.84286 2.20414e-14 -9.86017e-15 
-1.9216 79.5321 -0.00212576 -3.39227 -1.51653e-13 -3.76088e-14 -1.80913 79.8382 -0.00380233 
-3.07281 5.83734e-16 1.32019e-13 -2.50681 79.9772 -0.00237944 -3.67109 8.3232e-14 1.50921e-13 
-2.35401 80.2669 -0.00493577 -3.29268 -1.55901e-13 7.63278e-14 -3.17512 80.5706 -0.00253914 
-3.92699 -2.6231e-13 2.98025e-14 -2.97028 80.8246 -0.00630545 -3.48472 8.99387e-14 8.23439e-14 
-3.92567 81.3468 -0.00248076 -4.12967 -1.72591e-13 -4.75314e-15 -3.65501 81.5383 -0.0079035 
-3.62241 1.52632e-13 8.48072e-14 -4.74594 82.3429 -0.00199275 -4.23426 1.08327e-13 3.84692e-14 
-4.395 82.4349 -0.00966845 -3.66784 3.66632e-13 -2.34465e-14 -5.60248 83.5931 -0.000754309 
-4.17779 -8.01165e-14 -4.81837e-14 -5.15951 83.5377 -0.0114367 -3.56956 2.36568e-13 3.26128e-14 
-6.42674 85.1188 0.00166715 -3.87773 1.4317e-13 -4.73788e-14 -5.88962 84.858 -0.0129143 
-3.26233 -5.46785e-14 1.45578e-14 -7.09578 86.9123 0.00589589 -3.23627 -4.29379e-14 6.80012e-15 
-6.48479 86.3841 -0.013523 -2.67137 8.05189e-14 -8.69582e-14 -6.78854 88.0631 -0.0129361 
-1.72568 -2.46303e-13 7.69801e-14 1.19483 79.142 -9.58156e-05 -0.105125 1.44713e-14 -7.34135e-15 
1.14284 79.2726 0.000259256 -0.0534634 5.61925e-14 -5.6552e-16 1.18564 79.1365 -0.00010306 
-0.210622 -3.73855e-14 8.38114e-14 1.13656 79.2698 0.000255753 -0.160538 -2.46513e-14 2.65482e-14 
1.16998 79.1275 -0.000115271 -0.316878 1.42514e-14 -6.95503e-14 1.1238 79.2644 0.000248486 
-0.268059 1.52395e-15 -2.89803e-14 1.1473 79.1155 -0.000132661 -0.424305 -4.50317e-14 2.43191e-14 
1.10411 79.2567 0.00023692 -0.376343 1.94348e-14 -2.27041e-14 1.11685 79.1009 -0.000155536 
-0.53336 -4.50594e-14 5.54747e-14 1.07681 79.2472 0.000220224 -0.485732 -4.5847e-14 -2.02616e-15 
1.07763 79.0846 -0.000184303 -0.64455 1.94215e-14 -3.64396e-14 1.04101 79.2365 0.000197233 
-0.596604 5.91124e-14 -2.39322e-14 1.02841 79.0675 -0.000219485 -0.758449 -7.27543e-15 -5.23435e-14 
0.995544 79.2257 0.000166398 -0.709378 -6.58648e-14 1.35482e-14 0.967685 79.0507 -0.000261733 
-0.875706 -7.37431e-15 5.67428e-14 0.939018 79.2159 0.000125718 -0.824525 -8.82627e-15 -7.4888e-15 
0.893677 79.0359 -0.000311845 -0.997048 7.95371e-15 3.23977e-14 0.869749 79.2085 7.26458e-05 
-0.942561 -7.70139e-14 6.26964e-14 0.804308 79.0251 -0.000370779 -1.12328 -3.05259e-14 -3.66322e-14 
0.785764 79.2055 3.97871e-06 -1.06405 -3.20742e-14 -1.85858e-14 0.697171 79.0204 -0.000439663 
-1.25527 -5.75625e-14 2.10908e-14 0.684786 79.2091 -8.42841e-05 -1.18958 1.17107e-13 3.52132e-14 
0.569501 79.0251 -0.00051979 -1.39392 1.33227e-14 2.77209e-15 0.564207 79.2221 -0.00019711 
-1.31974 1.09708e-13 5.9272e-14 0.418146 79.0426 -0.000612584 -1.54013 1.0247e-14 1.86757e-13 
0.421072 79.2481 -0.000340633 -1.45507 -1.69056e-13 1.1674e-13 0.239542 79.0777 -0.000719501 
-1.69468 9.66935e-14 1.05749e-14 0.25207 79.2911 -0.000522364 -1.59596 7.70564e-14 1.16004e-13 
0.029684 79.1357 -0.000841825 -1.85812 1.13253e-13 -1.79023e-14 0.0535291 79.3564 -0.000751414 
-1.74255 -9.20947e-14 7.30631e-14 -0.21587 79.2238 -0.000980275 -2.03057 3.70398e-14 5.88869e-14 
-0.178558 79.4503 -0.00103866 -1.89452 -1.84994e-13 -8.11157e-15 -0.501965 79.3502 -0.00113429 
-2.21138 -5.80438e-15 -9.93927e-14 -0.448473 79.5802 -0.00139677 -2.05082 1.50645e-13 -6.18464e-14 
-0.83374 79.5252 -0.00130079 -2.39871 1.58429e-13 8.16881e-14 -0.760631 79.7552 -0.00183999 
-2.20933 -1.71574e-13 -7.74866e-14 -1.21639 79.7613 -0.00147211 -2.58894 -8.34905e-14 -1.81105e-14 
-1.11933 79.9861 -0.00238333 -2.36629 3.19345e-14 3.38271e-15 -1.65471 80.0734 -0.0016327 
-2.77578 -1.2514e-13 1.06547e-13 -1.52829 80.2853 -0.00304085 -2.5156 -6.36279e-14 6.61658e-14 
-2.15226 80.4788 -0.00175389 -2.94913 1.30169e-13 4.58383e-14 -1.98989 80.6672 -0.00382227 
-2.64798 2.40729e-13 5.46924e-14 -2.70998 80.9973 -0.0017864 -3.09368 -1.7731e-13 -2.87409e-14 
-2.50393 81.1476 -0.00472713 -2.74979 -5.31629e-14 9.61453e-14 -3.32388 81.6501 -0.00164993 
-3.18714 -1.25539e-13 -4.55191e-15 -3.06569 81.7429 -0.00573519 -2.80178 -2.0998e-14 2.88172e-14 
-3.9814 82.4581 -0.00122096 -3.19844 -1.03329e-13 -7.63556e-14 -3.66294 82.4687 -0.00679158 
-2.77786 -9.7318e-15 -2.9185e-14 -4.656 83.4387 -0.000323921 -3.08626 -2.70409e-14 -2.71727e-14 
-4.27171 83.3363 -0.00778789 -2.64425 9.35189e-14 8.95187e-14 -5.29956 84.5994 0.00127526 
-2.79899 -4.03289e-14 1.89238e-13 -4.8505 84.3492 -0.00853468 -2.35986 -2.20532e-13 -5.69614e-14 
-5.83281 85.929 0.00379625 -2.27795 -1.77428e-13 6.27415e-14 -5.33325 85.4951 -0.00875494 
-1.87919 7.13596e-14 1.61905e-13 -6.1352 87.3855 0.00740963 -1.46667 -5.1556e-14 -5.01682e-14 
-5.62229 86.7384 -0.00805193 -1.15966 -1.12133e-13 5.77038e-14 -5.58479 88.0105 -0.0061581 
-0.175898 -3.76366e-14 -7.87148e-14 1.08328 79.4036 -0.000111833 -0.108054 1.55622e-14 2.71866e-14 
1.02976 79.5397 0.000177708 -0.0544709 -1.06946e-14 -4.90233e-15 1.07364 79.4008 -0.000119586 
-0.216317 2.95216e-14 -4.11997e-14 1.02326 79.5386 0.000173486 -0.163473 1.29475e-15 -2.76029e-14 
1.05719 79.3964 -0.000132639 -0.325006 9.54185e-15 6.04135e-14 1.01005 79.5367 0.000164764 
-0.272657 2.53705e-14 7.79932e-15 1.03337 79.3907 -0.000151194 -0.43435 -4.8639e-14 -3.16934e-15 
0.989667 79.5343 0.000150972 -0.382152 -9.05372e-14 1.12063e-14 1.00139 79.3846 -0.000175532 
-0.544602 -2.38082e-14 1.83343e-14 0.961414 79.5319 0.000131234 -0.492094 1.86162e-14 3.28522e-14 
0.960203 79.3787 -0.000206015 -0.656036 1.55405e-14 5.25795e-15 0.924363 79.5302 0.000104335 
-0.602631 -8.85984e-14 3.2311e-14 0.90853 79.3742 -0.000243084 -0.768958 4.44696e-15 -5.57349e-14 
0.877335 79.5304 6.86855e-05 -0.713918 9.73223e-14 5.02549e-15 0.844816 79.3726 -0.000287257 
-0.883695 5.98913e-15 5.15785e-14 0.818898 79.5337 2.22658e-05 -0.826118 5.86952e-14 -7.32539e-14 
0.767237 79.3754 -0.000339115 -1.00059 -9.00408e-14 -3.69878e-14 0.747352 79.5417 -3.74327e-05 
-0.939389 -4.32666e-14 -1.07064e-13 0.673682 79.3849 -0.000399283 -1.12 4.26863e-14 -1.98296e-14 
0.660726 79.5564 -0.00011348 -1.05387 6.95086e-14 -4.98906e-14 0.561744 79.4037 -0.000468389 
-1.24225 -1.14735e-14 -6.77375e-14 0.556772 79.5802 -0.00020959 -1.16963 -4.12517e-15 -1.23294e-13 
0.42871 79.4351 -0.000546989 -1.36756 2.74277e-14 3.77996e-14 0.432963 79.616 -0.000330195 
-1.28667 -7.71631e-14 -1.5642e-13 0.271567 79.4828 -0.000635447 -1.49605 1.5029e-13 -1.40648e-13 
0.286507 79.6675 -0.000480527 -1.40481 1.05287e-13 -1.2047e-13 0.0870126 79.5516 -0.000733715 
-1.62754 5.43445e-14 7.56339e-16 0.11437 79.7388 -0.000666645 -1.52361 -1.03145e-13 -9.62529e-14 
-0.128499 79.6472 -0.000840988 -1.76143 9.50455e-15 -5.0189e-14 -0.0866701 79.8351 -0.000895416 
-1.64221 -3.61412e-14 -1.02689e-13 -0.37868 79.7761 -0.000955139 -1.89649 -5.69527e-14 -4.32501e-14 
-0.319931 79.9622 -0.00117434 -1.75916 -1.10304e-13 -1.20192e-13 -0.667257 79.9465 -0.00107183 
-2.03051 5.43949e-14 8.24341e-15 -0.588668 80.1271 -0.00151117 -1.87216 3.91302e-14 -1.39458e-13 
-0.997719 80.1675 -0.00118314 -2.15988 8.53085e-14 -1.53436e-13 -0.895826 80.3379 -0.00191311 
-1.97765 -4.30784e-14 -6.45629e-14 -1.37289 80.45 -0.00127554 -2.27907 1.38186e-13 6.02782e-14 
-1.24364 80.6035 -0.00238542 -2.07045 -5.57601e-14 -9.1132e-14 -1.79428 80.8057 -0.00132695 
-2.37989 -2.25975e-13 -1.29972e-13 -1.63302 80.9339 -0.00292907 -2.14312 -3.99715e-14 -1.61725e-13 
-2.26101 81.2479 -0.00130281 -2.45062 1.6141e-13 -3.88092e-14 -2.06265 81.3396 -0.00353705 
-2.18539 -5.50995e-14 -2.29726e-13 -2.76826 81.7896 -0.00115109 -2.47514 1.2875e-13 7.21645e-15 
-2.52764 81.8309 -0.00418881 -2.18341 7.61331e-14 -1.96981e-13 -3.30494 82.443 -0.000797279 
-2.43199 -2.92457e-13 -1.78114e-13 -3.01765 82.4168 -0.00484268 -2.11921 3.38073e-13 -9.27591e-14 
-3.85047 83.2167 -0.000140905 -2.29383 2.60895e-13 -3.67067e-15 -3.5143 83.103 -0.00542611 
-1.9704 1.84098e-13 -1.91534e-13 -4.37051 84.1124 0.000940125 -2.02781 -3.62904e-14 4.26256e-14 
-3.98788 83.8894 -0.00582596 -1.71066 -1.05742e-13 -1.70003e-13 -4.81185 85.1196 0.00257228 
-1.59776 -7.93532e-14 -1.40166e-13 -4.39358 84.7656 -0.00588128 -1.31168 5.98618e-14 -2.45817e-13 
-5.09734 86.2089 0.00483405 -0.969572 -6.17006e-14 -7.91728e-14 -4.66781 85.707 -0.00539293 
-0.747411 2.75821e-14 -1.67096e-13 -5.12292 87.3257 0.00766247 -0.121354 3.55549e-14 -4.71012e-14 
-4.72624 86.6694 -0.0041407 -0.00170904 7.85483e-14 -9.76719e-14 -4.46639 87.586 -0.00206882 
0.919778 -1.60497e-13 -2.88033e-14 0.9697 79.6764 -0.00012368 -0.109179 -4.26287e-15 -7.55125e-14 
0.915512 79.8162 9.89159e-05 -0.0546086 -3.42236e-14 1.61607e-14 0.959865 79.6761 -0.000131642 
-0.218386 2.39929e-14 -6.21551e-15 0.908991 79.8167 9.44219e-05 -0.163793 3.46848e-14 -1.34406e-14 
0.943095 79.6758 -0.000145028 -0.327648 -4.86544e-14 4.30211e-14 0.895721 79.818 8.51548e-05 
-0.272876 -6.04313e-15 3.09787e-14 0.918817 79.6761 -0.000164011 -0.436994 8.79396e-15 -7.71518e-14 
0.875245 79.8204 7.05495e-05 -0.381787 1.66765e-14 4.55955e-14 0.886223 79.6776 -0.000188821 
-0.546452 -3.92594e-14 -6.75675e-15 0.846872 79.8244 4.97413e-05 -0.490445 2.84293e-14 -6.84348e-15 
0.844266 79.6812 -0.000219743 -0.656047 7.11931e-15 2.01228e-14 0.809675 79.8309 2.15461e-05 
-0.598756 -1.02392e-15 -4.95663e-14 0.79165 79.6881 -0.000257095 -0.765793 8.94354e-14 5.10876e-15 
0.762487 79.8408 -1.55651e-05 -0.706602 1.07603e-13 -6.1201e-15 0.726828 79.6997 -0.000301208 
-0.875683 6.84314e-14 1.24796e-14 0.703896 79.8556 -6.34962e-05 -0.813832 -1.59946e-14 -2.24664e-14 
0.647999 79.7178 -0.000352391 -0.985673 -1.25594e-14 -8.80528e-14 0.632244 79.8768 -0.000124557 
-0.920241 9.69841e-14 1.2837e-16 0.553103 79.7447 -0.000410873 -1.09565 1.8068e-14 -2.61388e-14 
0.54563 79.9063 -0.000201491 -1.02555 -4.02595e-14 5.06539e-14 0.439829 79.783 -0.000476722 
-1.2054 -5.86007e-14 1.64833e-14 0.441919 79.9467 -0.000297498 -1.12934 2.92205e-14 1.44433e-14 
0.305634 79.8359 -0.000549716 -1.31454 -1.54035e-14 -1.42648e-13 0.31876 80.0007 -0.00041623 
-1.23107 9.58591e-14 -3.64431e-14 0.147771 79.9073 -0.000629157 -1.42243 -7.72412e-14 7.51274e-14 
0.173629 80.0718 -0.00056175 -1.32989 -8.74127e-14 8.24202e-14 -0.0366454 80.0016 -0.000713581 
-1.52806 1.0777e-13 -2.90844e-14 0.00388333 80.1639 -0.000738429 -1.42466 5.28839e-14 3.11209e-14 
-0.250551 80.1242 -0.000800335 -1.6299 1.43704e-13 1.03251e-14 -0.193136 80.2818 -0.000950727 
-1.51374 -5.52518e-14 2.03587e-14 -0.49677 80.281 -0.000884964 -1.72567 -5.7853e-15 -1.15324e-14 
-0.419954 80.4306 -0.00120281 -1.5948 2.21915e-14 -2.98754e-14 -0.777787 80.4791 -0.000960324 
-1.81204 7.78579e-14 -5.59379e-14 -0.678739 80.6164 -0.00149789 -1.66467 -5.3361e-14 8.30273e-14 
-1.09538 80.7262 -0.00101535 -1.88432 -1.30757e-13 -6.52534e-14 -0.970971 80.8457 -0.00183721 
-1.71898 4.10791e-14 7.36217e-14 -1.45011 81.0306 -0.00103341 -1.936 1.44244e-13 -1.13104e-15 
-1.29697 81.1255 -0.00221847 -1.75187 5.03777e-14 -7.21645e-16 -1.84051 81.4012 -0.000990232 
-1.95825 1.25087e-13 7.5287e-15 -1.65521 81.4628 -0.00263354 -1.75561 1.42691e-13 8.90503e-14 
-2.26205 81.8463 -0.000851578 -1.93946 -2.78865e-14 -5.02931e-14 -2.04143 81.8645 -0.0030653 
-1.72024 -9.59424e-14 7.10196e-14 -2.7056 82.373 -0.000571122 -1.86476 -4.29171e-15 -1.05235e-13 
-2.44735 82.3357 -0.00348362 -1.63331 1.83534e-14 2.50841e-15 -3.15545 82.9857 -8.98021e-05 
-1.71591 1.38205e-14 7.39547e-14 -2.85907 82.8795 -0.00384063 -1.47985 -1.43913e-14 -3.94164e-14 
-3.58679 83.6837 0.000661253 -1.47171 2.10595e-14 -1.12535e-13 -3.25515 83.4943 -0.00406635 
-1.24279 -1.3687e-14 6.02643e-14 -3.96293 84.4583 0.00174998 -1.10946 2.89074e-14 2.29053e-14 
-3.60443 84.1721 -0.00406691 -0.904229 -3.89768e-13 1.61662e-13 -4.23252 85.2889 0.00322008 
-0.608146 6.33243e-14 -8.16014e-15 -3.86401 84.8956 -0.00372793 -0.448019 -9.63951e-14 1.39382e-13 
-4.32807 86.1399 0.00504673 0.0459145 9.30922e-14 -5.17988e-14 -3.97827 85.6355 -0.00293384 
0.135946 -3.0586e-13 1.70794e-13 -4.16735 86.9573 0.00707064 0.850431 -1.36349e-13 5.01196e-14 
-3.87996 86.3488 -0.00159027 0.84527 -2.12122e-14 1.55501e-13 -3.49561 86.9792 0.000228568 
1.6566 -5.50254e-14 7.2619e-14 0.855901 79.9568 -0.000130998 -0.108636 -1.62805e-14 6.24275e-14 
0.801849 80.0986 2.33472e-05 -0.053949 -4.96422e-14 4.83572e-14 0.846171 79.9588 -0.000138868 
-0.217112 -7.79899e-15 2.31603e-14 0.795496 80.1006 1.90373e-05 -0.161721 3.42387e-14 3.44169e-15 
0.829581 79.9623 -0.000152078 -0.325261 -2.72484e-14 -9.04242e-14 0.782568 80.1048 1.01545e-05 
-0.26911 -3.63819e-14 -4.10227e-14 0.805567 79.9679 -0.000170759 -0.432907 1.21268e-14 4.06741e-14 
0.762621 80.1115 -3.8312e-06 -0.375844 1.25128e-14 -6.62491e-15 0.773334 79.9763 -0.00019508 
-0.539848 -1.26613e-15 6.87124e-15 0.734986 80.1212 -2.37246e-05 -0.48163 4.9058e-14 -6.33556e-14 
0.731859 79.9883 -0.000225225 -0.645855 4.06361e-14 1.46255e-14 0.698768 80.1349 -5.06162e-05 
-0.586135 -6.54513e-14 -4.826e-14 0.679881 80.005 -0.000261371 -0.750656 4.69538e-14 6.15133e-15 
0.652847 80.1533 -8.58932e-05 -0.688977 7.84746e-16 3.85317e-14 0.615908 80.028 -0.000303645 
-0.853913 4.98117e-14 4.3316e-15 0.595876 80.1778 -0.000131249 -0.789705 -2.04502e-14 5.44183e-14 
0.538219 80.0589 -0.000352066 -0.955206 5.02909e-14 1.63931e-14 0.526289 80.2099 -0.000188688 
-0.887772 5.13318e-14 2.8642e-14 0.444872 80.0999 -0.000406468 -1.05399 -6.64521e-14 3.31089e-14 
0.442311 80.2514 -0.000260513 -0.98251 -5.26723e-14 3.49304e-14 0.333733 80.1535 -0.000466382 
-1.14956 -3.9249e-14 -2.11827e-14 0.341982 80.3047 -0.000349298 -1.07308 1.38936e-13 5.3374e-14 
0.202507 80.2227 -0.000530877 -1.24098 -1.82798e-13 1.04507e-13 0.223197 80.3722 -0.000457819 
-1.15843 -4.87587e-14 2.41057e-14 0.0488027 80.3111 -0.000598336 -1.32699 1.23266e-13 3.42087e-14 
0.0837585 80.4571 -0.000588933 -1.23722 1.04779e-13 6.00145e-14 -0.129773 80.4227 -0.000666144 
-1.40592 9.0072e-14 -3.16518e-14 -0.0785263 80.5629 -0.000745373 -1.30771 8.1081e-14 -2.76515e-14 
-0.335478 80.5622 -0.000730262 -1.47554 4.31799e-14 4.30628e-14 -0.265718 80.6936 -0.000929422 
-1.36768 4.89318e-14 3.62314e-14 -0.570228 80.7346 -0.000784655 -1.53284 -4.53877e-14 4.76841e-14 
-0.479555 80.8536 -0.00114242 -1.41427 -3.88925e-14 1.02505e-13 -0.835302 80.9457 -0.000820548 
-1.57388 -6.19591e-14 3.71092e-14 -0.721187 81.0475 -0.00138403 -1.44381 -1.39979e-14 -2.32175e-14 
-1.13094 81.2013 -0.00082549 -1.59349 7.9513e-14 8.01442e-14 -0.990809 81.2805 -0.00165121 
-1.45162 -6.40644e-14 -7.05443e-14 -1.45575 81.5074 -0.000782274 -1.585 -1.52204e-13 -6.58917e-14 
-1.28717 81.5574 -0.00193681 -1.43184 1.36941e-14 -5.60975e-14 -1.80599 81.8695 -0.000667835 
-1.53999 -7.6897e-14 7.41074e-14 -1.6069 81.8825 -0.00222773 -1.37721 -1.40116e-13 -5.39152e-14 
-2.17451 82.2921 -0.000452453 -1.44811 1.15338e-13 7.0232e-14 -1.94371 82.2593 -0.00250275 
-1.27903 2.55806e-13 -5.38632e-14 -2.54951 82.7772 -9.98915e-05 -1.29706 2.56271e-14 8.86097e-14 
-2.28729 82.6892 -0.00273021 -1.12714 -3.42209e-14 1.4249e-14 -2.91301 83.3234 0.000430384 
-1.07301 -2.72282e-14 -3.21514e-14 -2.62216 83.1704 -0.00286606 -0.91036 5.30825e-15 -9.42996e-15 
-3.23921 83.924 0.00117716 -0.761533 1.26572e-13 1.49686e-13 -2.92633 83.697 -0.00285343 
-0.617279 -1.61059e-13 6.10623e-15 -3.49294 84.5646 0.0021653 -0.349577 -8.71039e-14 6.67452e-14 
-3.17017 84.2568 -0.00262558 -0.237844 1.58352e-13 -2.48829e-14 -3.62881 85.2211 0.00338485 
0.171289 -1.16039e-13 5.11674e-14 -3.31578 84.8299 -0.00211411 0.234106 -2.71727e-14 -2.55143e-14 
-3.59193 85.8585 0.00476015 0.800038 -2.57433e-15 6.66828e-15 -3.31758 85.388 -0.00126816 
0.797162 -7.0631e-14 -6.47121e-14 -3.3215 86.4303 0.00611023 1.51987 3.82194e-14 -9.51461e-14 
-3.12507 85.8938 -7.42082e-05 1.43762 -5.57193e-14 -9.38485e-14 -2.68872 86.3039 0.00134807 
2.12418 -1.17822e-13 -3.52461e-14 0.743551 80.2414 -0.000133779 -0.106573 8.35944e-15 -1.72778e-14 
0.690353 80.3835 -4.91951e-05 -0.0525661 8.57298e-14 -5.7284e-14 0.734219 80.2454 -0.000141273 
-0.212805 4.19875e-14 3.20455e-14 0.684358 80.3869 -5.28801e-05 -0.157485 7.69366e-15 -2.19998e-14 
0.718307 80.2524 -0.000153828 -0.318342 -2.64492e-14 -3.05589e-14 0.672159 80.3937 -6.04841e-05 
-0.261758 -1.27063e-14 -1.71044e-15 0.695275 80.2628 -0.000171531 -0.422808 -7.3369e-15 -1.03643e-13 
0.653337 80.4042 -7.24767e-05 -0.364928 2.47111e-15 -2.80175e-14 0.664369 80.2772 -0.000194482 
-0.525785 -2.23755e-14 -1.27173e-14 0.627265 80.4191 -8.95662e-05 -0.466502 1.00178e-14 1.71876e-14 
0.624616 80.2964 -0.000222766 -0.626806 -1.62574e-14 -1.52083e-14 0.593104 80.4389 -0.000112702 
-0.565931 -2.52523e-14 9.19074e-14 0.574827 80.3216 -0.000256417 -0.725325 -5.86343e-14 -6.39037e-14 
0.54981 80.4646 -0.000143075 -0.66259 -5.41863e-15 -3.00593e-14 0.513606 80.354 -0.000295367 
-0.820706 -3.04722e-14 -3.39607e-14 0.496137 80.4972 -0.00018211 -0.75576 -5.87755e-14 -2.91087e-14 
0.439359 80.3951 -0.000339372 -0.912186 3.97547e-14 1.54078e-14 0.430649 80.5381 -0.000231448 
-0.844593 -6.67869e-17 1.18672e-14 0.350316 80.447 -0.00038792 -0.998842 -1.14383e-13 -3.22485e-15 
0.351741 80.589 -0.000292909 -0.928087 3.43575e-14 8.6476e-15 0.244568 80.512 -0.000440094 
-1.07955 -9.10582e-14 5.21666e-14 0.257671 80.6517 -0.000368426 -1.00504 -1.30087e-14 -6.39853e-14 
0.120119 80.5925 -0.000494402 -1.1529 -7.84546e-14 -2.75058e-14 0.14661 80.7285 -0.000459937 
-1.07402 -1.93547e-14 -1.68199e-14 -0.0250295 80.6918 -0.000548547 -1.21718 -1.6456e-14 -3.90278e-14 
0.0167188 80.822 -0.000569213 -1.13325 1.21844e-13 -6.64746e-15 -0.192761 80.8132 -0.00059913 
-1.27023 4.81386e-17 3.48332e-14 -0.133745 80.935 -0.000697612 -1.18062 -6.56645e-14 7.62237e-15 
-0.384674 80.9605 -0.000641272 -1.30934 -2.76914e-14 7.00655e-14 -0.306274 81.0708 -0.000845709 
-1.21353 -3.25525e-14 2.83697e-14 -0.601851 81.1377 -0.000668154 -1.33116 -4.30125e-15 2.02408e-14 
-0.501903 81.2328 -0.0010128 -1.22883 1.05186e-13 -5.27807e-14 -0.844539 81.3492 -0.000670478 
-1.3315 1.28855e-14 2.84842e-14 -0.720932 81.4245 -0.0011962 -1.22271 -1.22742e-13 -5.99312e-14 
-1.11173 81.5989 -0.000635891 -1.30524 3.35573e-13 -7.57623e-14 -0.962552 81.6491 -0.00139039 
-1.19059 1.32074e-13 2.88311e-15 -1.40062 81.8906 -0.000548475 -1.24617 -5.8065e-14 4.84751e-14 
-1.22438 81.9097 -0.00158594 -1.12707 1.18146e-13 1.01079e-13 -1.70589 82.2271 -0.000388488 
-1.14697 1.60969e-13 -1.14304e-13 -1.50188 82.2085 -0.00176827 -1.0259 1.51608e-13 5.53203e-14 
-2.01891 82.6094 -0.000132725 -0.999221 -8.71785e-15 3.58498e-14 -1.78764 82.5461 -0.00191645 
-0.880091 -1.05942e-13 3.07566e-14 -2.32671 83.0362 0.000243934 -0.793785 -1.0154e-13 3.14332e-15 
-2.07059 82.921 -0.00200236 -0.682176 -2.82505e-13 4.90892e-14 -2.61102 83.5022 0.000764949 
-0.521421 -2.41439e-14 -3.77268e-14 -2.3352 83.3289 -0.00199075 -0.424818 -5.98514e-14 1.38823e-13 
-2.84728 83.9975 0.00144545 -0.174029 9.92401e-14 -7.16788e-14 -2.56072 83.7612 -0.00184101 
-0.101787 1.94216e-13 7.25461e-15 -3.00419 84.5057 0.00228142 0.253423 8.64274e-14 3.69427e-14 
-2.72081 84.2043 -0.00151212 0.290499 -9.84594e-14 1.20941e-13 -3.04402 85.0033 0.00323458 
0.760085 -6.67591e-14 -1.25237e-13 -2.78382 84.6391 -0.000971243 0.750807 -3.1173e-14 6.20788e-14 
-2.92453 85.4595 0.00421256 1.33559 1.47007e-13 -7.18557e-14 -2.71425 85.0406 -0.000209223 
1.27031 8.13308e-14 3.14384e-14 -2.6031 85.8379 0.00505208 1.95598 3.06213e-14 4.89925e-14 
-2.4759 85.3792 0.000746736 1.8295 -6.77722e-14 1.42524e-13 -2.03729 85.6235 0.00177344 
2.39532 8.59729e-15 1.02649e-13 0.634158 80.5268 -0.000132366 -0.103132 -1.66465e-14 -8.32667e-15 
0.58246 80.6678 -0.000119554 -0.0505255 -2.74971e-14 5.92859e-14 0.625495 80.5328 -0.000139228 
-0.205759 1.94075e-14 4.52745e-14 0.576995 80.6723 -0.000122212 -0.151288 -1.25194e-14 7.48273e-14 
0.610725 80.5428 -0.000150704 -0.307362 -1.29215e-14 1.91756e-14 0.565873 80.6815 -0.000127722 
-0.251178 -3.76679e-15 -4.27089e-15 0.589346 80.5575 -0.000166838 -0.407383 4.47219e-14 7.27335e-14 
0.548712 80.6956 -0.000136476 -0.349578 -5.32533e-16 -4.30385e-15 0.560661 80.5772 -0.000187664 
-0.505215 -1.22289e-14 -4.02664e-14 0.524941 80.715 -0.000149057 -0.445825 1.37678e-14 4.56475e-14 
0.523774 80.6027 -0.000213177 -0.600175 2.23939e-14 6.00908e-15 0.493797 80.7403 -0.000166242 
-0.539184 -4.50849e-15 2.27457e-14 0.477598 80.635 -0.000243288 -0.691486 7.59283e-14 -2.03761e-14 
0.454338 80.7721 -0.000188992 -0.628828 1.1698e-13 2.88797e-14 0.420865 80.675 -0.000277767 
-0.778248 -8.40105e-14 3.52253e-14 0.405444 80.8115 -0.000218433 -0.71381 -8.79847e-14 4.94969e-14 
0.352142 80.7242 -0.000316162 -0.859411 -4.78914e-15 4.12257e-14 0.34584 80.8594 -0.000255829 
-0.793039 3.29493e-14 8.83668e-14 0.269863 80.7842 -0.0003577 -0.933739 1.10985e-13 2.79655e-14 
0.274115 80.9172 -0.000302527 -0.865244 -8.24273e-14 2.96395e-14 0.172373 80.8569 -0.000401146 
-0.999771 8.68359e-15 1.01185e-13 0.188764 80.9865 -0.000359873 -0.928943 -4.58506e-14 7.4744e-14 
0.0579919 80.9444 -0.000444642 -1.05577 -5.92278e-15 -6.75154e-14 0.0882502 81.069 -0.000429087 
-0.982402 -6.36971e-14 5.6068e-14 -0.0748893 81.0492 -0.000485489 -1.09966 -6.57089e-14 4.41522e-14 
-0.0289186 81.1666 -0.000511084 -1.02359 -9.49332e-14 -2.06501e-14 -0.227675 81.1739 -0.000519894 
-1.12899 8.45463e-14 -6.76299e-14 -0.164068 81.2817 -0.000606214 -1.05012 2.11806e-13 3.01911e-14 
-0.401386 81.3215 -0.000542673 -1.14082 7.93827e-14 -3.15373e-14 -0.3182 81.4164 -0.000713919 
-1.05923 -1.18436e-13 -5.23297e-14 -0.596417 81.4947 -0.000546926 -1.13167 1.8193e-13 1.26461e-14 
-0.491784 81.5731 -0.000832291 -1.0477 5.69066e-14 3.8948e-14 -0.812229 81.6965 -0.000523717 
-1.09748 2.15897e-14 -5.3943e-14 -0.684486 81.7542 -0.000957507 -1.01183 1.14278e-13 1.13007e-13 
-1.04694 81.9293 -0.000461833 -1.03353 1.02201e-13 9.98993e-14 -0.894824 81.9614 -0.00108318 
-0.947421 -1.30182e-14 7.77295e-14 -1.29687 82.1948 -0.000347736 -0.934456 -9.82031e-14 1.94116e-14 
-1.11975 82.1962 -0.00119966 -0.849826 7.17193e-14 9.38763e-14 -1.55589 82.4936 -0.000165916 
-0.794375 8.1202e-14 1.51539e-13 -1.35418 82.4589 -0.00129336 -0.714044 -1.11215e-13 -3.79488e-14 
-1.81485 82.8246 0.00010005 -0.607107 -1.40119e-13 3.17593e-14 -1.59041 82.7483 -0.00134638 
-0.534956 1.85311e-13 1.61537e-14 -2.06086 83.1839 0.000465324 -0.366655 -1.13942e-13 7.99499e-14 
-1.81758 83.0611 -0.0013366 -0.307738 9.78939e-14 -1.33192e-14 -2.2767 83.5646 0.000939992 
-0.0679972 1.16494e-13 5.20833e-14 -2.02122 83.3913 -0.0012389 -0.0285178 7.46972e-14 -4.4631e-14 
-2.4405 83.9553 0.00152316 0.291716 -1.04977e-13 6.23529e-14 -2.1829 83.7298 -0.00102779 
0.304659 7.48568e-14 6.25437e-14 -2.52582 84.3403 0.00219475 0.711478 2.47406e-14 8.67657e-14 
-2.28037 84.0634 -0.000682447 0.690502 -1.80843e-13 -1.18142e-13 -2.50274 84.6987 0.00290594 
1.18427 -3.02668e-13 -2.50581e-14 -2.28832 84.3752 -0.000193794 1.12281 7.67789e-14 -3.9066e-14 
-2.34011 85.0058 0.00356846 1.69462 -2.75668e-13 1.27158e-13 -2.18015 84.6448 0.000424883 
1.58856 5.75304e-14 -4.90736e-14 -2.00949 85.2344 0.00404968 2.21626 -4.46657e-14 5.80022e-14 
-1.93095 84.8502 0.00113127 2.06618 -2.32175e-13 -6.8208e-14 -1.52192 84.9699 0.00182009 
2.52429 -6.03129e-14 3.71682e-14 0.529089 80.81 -0.000127425 -0.0984279 4.32857e-15 -7.92057e-14 
0.479486 80.9482 -0.000189169 -0.0478758 6.34704e-14 -1.60219e-14 0.521331 80.8176 -0.000133441 
-0.196218 -4.18523e-14 -5.19029e-14 0.474691 80.9538 -0.000190455 -0.143281 -4.64974e-14 -7.66089e-14 
0.508101 80.8306 -0.000143483 -0.292711 -2.58508e-16 -3.97425e-14 0.464932 80.9652 -0.000193176 
-0.237637 4.63567e-15 -4.01432e-14 0.488951 80.8491 -0.000157559 -0.387205 4.82946e-14 -3.41203e-14 
0.449872 80.9826 -0.000197627 -0.330203 3.74869e-14 2.46053e-14 0.463255 80.8736 -0.00017565 
-0.478934 -2.37444e-14 7.54865e-14 0.429006 81.0061 -0.000204251 -0.420186 -1.66445e-14 -7.2135e-14 
0.430214 80.9046 -0.000197679 -0.567043 2.00298e-14 -1.27155e-14 0.401666 81.0363 -0.000213628 
-0.506707 -1.9216e-14 -5.42708e-14 0.388864 80.9428 -0.000223465 -0.650565 -4.75516e-14 7.35367e-14 
0.367027 81.0736 -0.00022647 -0.588783 -7.93582e-15 -1.13781e-14 0.338087 80.9892 -0.000252662 
-0.728396 9.12378e-15 -5.80924e-14 0.324115 81.1187 -0.000243597 -0.665297 3.80162e-14 -5.68434e-14 
0.276635 81.0447 -0.000284683 -0.79926 2.48712e-14 -2.11949e-14 0.271831 81.1724 -0.000265905 
-0.734975 -7.68582e-14 -9.8116e-14 0.203161 81.1105 -0.000318595 -0.861687 -5.16916e-14 -8.89497e-14 
0.208971 81.2355 -0.000294308 -0.796354 1.3358e-13 7.8184e-15 0.116272 81.1881 -0.000352998 
-0.913974 1.5206e-14 -1.54078e-14 0.134277 81.3092 -0.000329657 -0.847758 -5.56947e-14 1.10502e-15 
0.0145953 81.279 -0.000385869 -0.95415 -2.08841e-14 9.79078e-15 0.0464884 81.3946 -0.000372621 
-0.887262 9.73227e-14 -7.62168e-14 -0.103119 81.3851 -0.000414383 -0.979939 8.81321e-14 -3.48159e-14 
-0.0555653 81.4932 -0.000423516 -0.912673 7.31436e-14 3.25157e-14 -0.237863 81.5081 -0.000434714 
-0.988729 -9.46075e-16 3.26579e-14 -0.172854 81.6062 -0.000482083 -0.921498 1.2639e-13 -6.28872e-14 
-0.390197 81.65 -0.000441824 -0.977535 -6.3673e-15 -1.36204e-13 -0.305993 81.7352 -0.000547204 
-0.910934 1.11194e-13 -5.24338e-14 -0.560014 81.8125 -0.000429273 -0.942986 -9.87575e-14 2.66905e-14 
-0.455045 81.8814 -0.000616546 -0.877859 -1.51229e-13 2.85987e-14 -0.746257 81.9972 -0.000389089 
-0.881325 8.28732e-14 2.36998e-14 -0.619276 82.046 -0.000686163 -0.818857 -6.24522e-14 -1.64452e-15 
-0.946561 82.2052 -0.000311782 -0.788459 -1.65493e-14 -3.94164e-14 -0.796853 82.2297 -0.00075007 
-0.730273 8.0342e-14 -2.82968e-14 -1.15685 82.4366 -0.000186623 -0.660064 9.90098e-14 -6.40737e-14 
-0.984499 82.4324 -0.000799864 -0.608326 -4.5723e-14 1.73021e-14 -1.37087 82.6905 -2.33841e-06 
-0.49179 1.65727e-14 -1.09648e-13 -1.1771 82.6531 -0.000824505 -0.449304 -5.07589e-14 8.92203e-14 
-1.57974 82.964 0.000251532 -0.279614 -8.34584e-14 -1.45578e-14 -1.36731 82.8895 -0.000810421 
-0.249871 -1.34835e-13 -9.26273e-14 -1.77151 83.2523 0.000582382 -0.0203675 -1.59924e-13 -9.47298e-14 
-1.54521 83.1372 -0.00074219 -0.00752421 -4.07504e-14 1.74895e-14 -1.9309 83.5476 0.000991152 
0.287481 1.63706e-14 3.04617e-14 -1.69804 83.3899 -0.000604084 0.278765 5.33297e-14 6.96873e-14 
-2.03933 83.8391 0.00146774 0.642779 -3.23734e-14 -6.50192e-14 -1.81022 83.6386 -0.000382766 
0.607706 -3.3289e-13 -7.0206e-14 -2.07544 84.1127 0.00198545 1.04037 1.41692e-14 -1.76839e-13 
-1.86373 83.8719 -7.13929e-05 0.974644 7.03604e-15 -6.12531e-14 -2.01635 84.3515 0.00249575 
1.46961 1.11536e-13 -8.55999e-15 -1.83905 84.0756 0.000325349 1.37039 -1.11369e-13 3.67414e-14 
-1.83991 84.5364 0.00292353 1.91284 7.51621e-14 -1.68692e-13 -1.71685 84.2344 0.000784877 
1.78005 -8.54143e-14 8.27003e-14 -1.52798 84.6487 0.00316828 2.34442 9.5722e-14 -8.2578e-14 
-1.48062 84.3326 0.00126404 2.18224 1.69326e-13 -1.03086e-13 -1.11997 84.3567 0.00168196 
2.54884 1.76782e-13 -6.4608e-14 0.429606 81.0876 -0.000119904 -0.0925354 -7.89939e-15 5.23193e-14 
0.382665 81.2214 -0.000259993 -0.0446404 -3.15516e-14 4.59684e-14 0.422935 81.0969 -0.000124908 
-0.184337 -1.14018e-14 2.68275e-14 0.378642 81.2282 -0.000259639 -0.133538 1.18432e-14 8.70918e-14 
0.411556 81.1126 -0.000133243 -0.274646 -2.67627e-14 -2.67598e-14 0.370452 81.2418 -0.000259024 
-0.221272 5.90234e-14 6.50521e-15 0.39508 81.1347 -0.000144891 -0.362657 1.72083e-14 1.08061e-13 
0.357807 81.2623 -0.00025834 -0.307025 -4.95002e-14 1.67002e-14 0.372967 81.1637 -0.000159793 
-0.44749 -3.46617e-14 -1.18589e-13 0.340282 81.2899 -0.000257868 -0.389918 2.02176e-14 2.04645e-14 
0.344528 81.1997 -0.000177824 -0.528168 1.41991e-14 -5.94871e-14 0.317309 81.3247 -0.000257979 
-0.46898 -3.90909e-14 -1.09097e-14 0.308935 81.2434 -0.000198747 -0.60359 1.37948e-14 -1.30378e-13 
0.288193 81.3672 -0.000259123 -0.543129 1.12218e-13 -1.7741e-14 0.265235 81.2952 -0.000222154 
-0.672508 8.22487e-15 2.73323e-14 0.252117 81.4175 -0.000261811 -0.611141 3.25248e-14 -3.68386e-14 
0.212376 81.3558 -0.000247397 -0.733495 -3.83316e-14 -3.20178e-14 0.208166 81.4762 -0.000266588 
-0.671629 4.04505e-15 4.78992e-14 0.149233 81.4259 -0.000273494 -0.784928 2.82977e-14 8.76417e-14 
0.155348 81.5437 -0.000273987 -0.723017 2.56392e-14 -7.15261e-14 0.074668 81.5064 -0.000299017 
-0.824953 1.10636e-14 -8.82124e-14 0.0926383 81.6205 -0.00028446 -0.763519 8.19698e-14 -3.10862e-14 
-0.0124085 81.5984 -0.000321971 -0.851472 9.03958e-14 1.9984e-15 0.0190387 81.7073 -0.000298282 
-0.791122 4.96906e-14 -2.25948e-14 -0.112937 81.7028 -0.000339645 -0.862124 -1.17451e-13 5.66075e-14 
-0.0663463 81.8047 -0.000315423 -0.803573 -1.09205e-14 4.21538e-14 -0.227584 81.8206 -0.000348473 
-0.854273 4.85567e-14 8.60076e-15 -0.164202 81.9134 -0.000335372 -0.798379 -4.25224e-14 6.8192e-14 
-0.356578 81.9528 -0.000343904 -0.825019 5.74856e-14 1.7341e-13 -0.274865 82.0338 -0.000356937 
-0.772817 -1.13696e-13 6.07743e-14 -0.499499 82.1001 -0.000320316 -0.771221 -1.07504e-13 4.13905e-15 
-0.398152 82.1663 -0.000378001 -0.723972 -2.4449e-14 8.82489e-14 -0.655035 82.263 -0.000271035 
-0.689564 1.13846e-13 -9.312e-15 -0.533145 82.311 -0.000395272 -0.6488 -9.9108e-15 -1.35794e-14 
-0.82068 82.4413 -0.000188511 -0.576661 1.49755e-13 8.70276e-14 -0.677945 82.4675 -0.000404059 
-0.544235 4.33838e-14 5.72632e-14 -0.992411 82.634 -6.47642e-05 -0.429234 -5.32701e-14 1.55882e-13 
-0.829393 82.6348 -0.000398139 -0.407357 -2.61733e-13 -3.84554e-14 -1.16435 82.8389 0.000107775 
-0.244379 7.0513e-14 1.03653e-13 -0.98278 82.8108 -0.000369808 -0.235635 1.98217e-13 -1.0425e-13 
-1.32844 83.0527 0.000334913 -0.0199533 -5.32786e-14 2.70617e-15 -1.13157 82.9924 -0.000310255 
-0.0272579 -1.11194e-13 -6.56419e-15 -1.47424 83.2697 0.00061868 0.244899 5.49023e-14 4.42008e-14 
-1.26721 83.1751 -0.000210404 0.218409 -8.00189e-14 -3.24185e-14 -1.58884 83.4827 0.000954644 
0.549054 2.57238e-13 -9.09689e-15 -1.37903 83.3526 -6.24015e-05 0.500255 1.76543e-14 -2.45359e-14 
-1.65712 83.6821 0.00132867 0.888567 -9.13054e-14 -1.38778e-14 -1.45442 83.517 0.000138179 
0.814739 3.4403e-14 -1.82909e-14 -1.66245 83.8561 0.00171354 1.25573 -1.15382e-13 1.75098e-13 
-1.47932 83.6588 0.000389407 1.15513 -3.3128e-14 -7.06622e-14 -1.58788 83.9917 0.00206657 
1.6381 -3.87242e-14 5.05585e-15 -1.43915 83.7672 0.000679883 1.51074 -9.03774e-14 5.16948e-14 
-1.41811 84.0753 0.00232836 2.0178 -1.48798e-13 -3.57661e-14 -1.32029 83.8312 0.000985517 
1.86635 -5.84602e-15 8.68429e-14 -1.14213 84.0948 0.00242623 2.37123 -3.58151e-14 -7.5915e-14 
-1.11212 83.8404 0.00126901 2.20197 3.54005e-14 -2.16632e-14 -0.809517 83.7873 0.0014734 
2.49327 -5.22308e-14 1.87871e-14 0.336922 81.3565 -0.000110979 -0.0854699 1.71448e-15 2.70565e-14 
0.293216 81.4843 -0.000334401 -0.0408108 2.47772e-14 -1.36106e-14 0.331454 81.3675 -0.000114855 
-0.170155 1.57397e-14 1.15359e-15 0.290019 81.4922 -0.000332226 -0.122035 -1.40862e-14 -1.66464e-14 
0.322124 81.3859 -0.000121298 -0.253243 9.95959e-15 -4.40759e-14 0.283506 81.5081 -0.000327912 
-0.202056 -2.54159e-14 -5.4989e-14 0.308609 81.4117 -0.00013027 -0.333873 -2.24422e-14 -3.10533e-14 
0.273447 81.5319 -0.000321529 -0.280025 1.7222e-14 2.45082e-14 0.29046 81.4451 -0.000141688 
-0.411104 3.54992e-14 9.26516e-15 0.259494 81.5637 -0.000313185 -0.355032 -1.86541e-14 1.31339e-13 
0.267106 81.4862 -0.000155403 -0.483892 -3.36755e-14 1.94358e-14 0.241191 81.6034 -0.000303022 
-0.426072 -3.39954e-14 5.1327e-14 0.237865 81.5351 -0.000171154 -0.551067 2.43386e-14 -1.88079e-14 
0.217976 81.6511 -0.000291214 -0.492024 2.70797e-14 2.47354e-14 0.201955 81.592 -0.000188523 
-0.611303 2.5989e-14 9.71376e-14 0.189194 81.7068 -0.000277958 -0.551627 -1.00447e-14 6.05956e-14 
0.158519 81.6572 -0.000206869 -0.663101 -1.18502e-13 -4.33681e-16 0.154112 81.7705 -0.000263458 
-0.603454 1.44238e-14 3.21063e-14 0.106651 81.731 -0.000225253 -0.704763 3.41938e-14 -7.22478e-14 
0.111945 81.8422 -0.0002479 -0.645898 8.73847e-14 2.1776e-14 0.0454491 81.8137 -0.000242347 
-0.734381 5.75135e-14 2.76411e-14 0.0618908 81.922 -0.00023141 -0.67715 3.33433e-14 3.29216e-14 
-0.0259252 81.9055 -0.000256335 -0.749827 1.2969e-14 -4.90892e-14 0.0031817 82.0097 -0.000213995 
-0.695199 -4.00912e-14 7.85795e-14 -0.108161 82.0067 -0.000264808 -0.748749 8.38682e-14 -1.82562e-14 
-0.0648471 82.1054 -0.000195465 -0.697825 5.64579e-14 1.71273e-13 -0.201684 82.1175 -0.000264674 
-0.728593 -4.29758e-14 -7.07767e-15 -0.142666 82.2089 -0.000175333 -0.682625 1.72351e-13 1.31818e-13 
-0.306516 82.238 -0.000252087 -0.686632 -2.78064e-14 -2.96638e-15 -0.230437 82.3197 -0.000152695 
-0.64704 -4.82327e-14 4.0256e-14 -0.422101 82.3678 -0.000222446 -0.620034 -3.04646e-14 1.14977e-13 
-0.327865 82.4374 -0.000126104 -0.588419 -1.75868e-13 -3.29597e-15 -0.547091 82.5065 -0.000170495 
-0.525958 -1.9932e-15 -6.17145e-14 -0.434031 82.561 -9.34553e-05 -0.50412 -1.73161e-14 3.35114e-14 
-0.679123 82.6528 -9.05772e-05 -0.401711 7.76406e-14 5.04527e-14 -0.547194 82.6892 -5.19171e-05 
-0.391642 1.23958e-13 -1.29258e-13 -0.81456 82.8049 2.28586e-05 -0.244957 -4.46056e-14 -2.39263e-13 
-0.664578 82.8202 2.04361e-06 -0.248827 6.59195e-14 5.2576e-14 -0.948256 82.9599 0.000174451 
-0.0540132 -1.39939e-13 8.06993e-14 -0.782168 82.9512 7.24699e-05 -0.0741153 -1.11091e-13 3.9635e-14 
-1.07336 83.114 0.000366726 0.171768 4.09575e-14 -3.4521e-14 -0.894526 83.0787 0.000163475 
0.133115 4.64031e-14 1.34347e-13 -1.18121 83.2619 0.000598486 0.431519 -3.19497e-14 7.37795e-14 
-0.994693 83.1982 0.00027847 0.372141 -5.97638e-14 7.94503e-15 -1.26142 83.3968 0.000862837 
0.722283 -8.09634e-14 2.28983e-16 -1.0742 83.304 0.000418998 0.64041 -2.28356e-13 1.61508e-13 
-1.30218 83.5109 0.00114509 1.03838 4.48053e-14 -1.23207e-13 -1.12331 83.3895 0.000583202 
0.933013 1.45641e-13 1.96074e-13 -1.29096 83.5951 0.0014209 1.37079 -8.88629e-14 -9.10209e-14 
-1.13145 83.4473 0.000764027 1.24217 -9.13419e-14 1.29929e-13 -1.21559 83.64 0.00165563 
1.7066 -1.08326e-13 9.34304e-14 -1.0881 83.4697 0.000947636 1.55678 -5.12203e-14 1.20338e-14 
-1.06582 83.6367 0.00180475 2.02879 2.6576e-13 6.45872e-14 -0.983922 83.4494 0.00111231 
1.86225 9.46144e-14 6.44896e-14 -0.835275 83.5781 0.00181759 2.31645 -3.09907e-13 5.49855e-14 
-0.812324 83.3806 0.00122879 2.1406 1.38552e-13 9.3172e-15 -0.571186 83.2602 0.00126091 
2.37118 1.20795e-13 -1.17018e-13 0.252265 81.6133 -0.000102022 -0.0771788 4.03387e-14 -5.76969e-15 
0.212411 81.7333 -0.000414986 -0.0363418 -1.34231e-14 3.40578e-14 0.248043 81.6262 -0.000104712 
-0.153571 2.46661e-14 1.34729e-13 0.210041 81.7425 -0.000410916 -0.10864 2.34703e-14 1.83811e-14 
0.240834 81.6475 -0.00010917 -0.228363 -2.22296e-14 2.74485e-14 0.205211 81.7609 -0.000402744 
-0.179771 5.4519e-14 8.70172e-14 0.230384 81.6773 -0.000115345 -0.300689 -5.77823e-14 3.39173e-14 
0.197745 81.7884 -0.00039041 -0.24891 -2.88654e-14 -2.34292e-14 0.216339 81.7154 -0.000123143 
-0.369605 5.88037e-14 3.65801e-14 0.187378 81.8248 -0.000373828 -0.315172 7.02129e-14 -1.37782e-13 
0.19825 81.7619 -0.000132407 -0.434063 -3.048e-14 -3.17055e-14 0.173762 81.8699 -0.000352887 
-0.377577 -2.5824e-14 2.84009e-14 0.175579 81.8164 -0.000142883 -0.492887 9.26492e-14 -6.12548e-14 
0.156471 81.9236 -0.000327463 -0.435035 5.91372e-14 -7.72993e-15 0.147718 81.879 -0.000154178 
-0.54475 3.39065e-14 -3.4377e-14 0.135007 81.9854 -0.000297416 -0.486315 -1.19392e-14 -3.21826e-14 
0.113997 81.9492 -0.000165715 -0.588156 -8.06143e-14 1.69968e-14 0.108817 82.0549 -0.0002626 
-0.530031 5.75382e-14 -2.84425e-14 0.0737185 82.0271 -0.000176667 -0.621421 2.84659e-14 -5.25708e-14 
0.0773096 82.1318 -0.000222853 -0.564622 1.04751e-14 -8.66703e-14 0.026196 82.1121 -0.000185895 
-0.642668 1.06469e-15 2.03448e-14 0.0398865 82.2154 -0.000178002 -0.588348 -6.02504e-14 2.47372e-15 
-0.0291959 82.204 -0.000191872 -0.649827 -8.71547e-14 -6.70748e-14 -0.00401735 82.3051 -0.000127845 
-0.599282 5.22716e-15 -1.22461e-13 -0.0929477 82.3021 -0.000192617 -0.640646 -3.29131e-14 5.85192e-14 
-0.0548791 82.4 -7.21373e-05 -0.595328 -7.0154e-14 -1.03362e-13 -0.165323 82.406 -0.000185639 
-0.612727 1.46033e-14 -5.12299e-14 -0.113016 82.4991 -1.05668e-05 -0.574243 1.17216e-13 -1.05541e-13 
-0.246245 82.5146 -0.000167917 -0.563578 -5.56462e-14 4.51167e-14 -0.178493 82.6013 5.72698e-05 
-0.533691 -2.4764e-14 -3.87468e-14 -0.335152 82.6268 -0.000135942 -0.490701 9.02527e-14 4.48079e-14 
-0.251015 82.7051 0.000131884 -0.471321 -3.25996e-14 -6.83863e-14 -0.430842 82.7412 -8.58492e-05 
-0.391716 1.333e-14 -1.21146e-13 -0.329789 82.8086 0.000213892 -0.384877 2.13856e-13 1.22645e-14 
-0.531292 82.8556 -1.36946e-05 -0.264537 -1.80264e-13 -6.99961e-14 -0.413388 82.9097 0.000303968 
-0.272355 -9.47289e-14 -3.23942e-14 -0.633477 82.9676 8.40818e-05 -0.107596 2.86297e-14 3.38167e-14 
-0.499588 83.0058 0.000402718 -0.132204 -7.73538e-14 -3.67067e-15 -0.733207 83.0738 0.000209959 
0.0798593 4.73463e-14 -3.55965e-14 -0.585235 83.0935 0.000510449 0.0364095 7.7083e-14 -7.23692e-14 
-0.825015 83.1702 0.000364379 0.297413 6.7033e-15 -6.27241e-14 -0.666127 83.1692 0.000626784 
0.233297 1.05324e-13 -1.88367e-13 -0.902133 83.2519 0.000544553 0.543065 -1.91771e-14 -1.25056e-13 
-0.736972 83.2285 0.000750088 0.456884 -1.3824e-13 -2.4411e-14 -0.956611 83.3132 0.000743118 
0.812775 1.07345e-13 -3.59105e-14 -0.791447 83.2664 0.000876735 0.703817 -9.60412e-14 7.12971e-16 
-0.979644 83.3478 0.000946881 1.10002 1.16639e-13 9.05612e-14 -0.822412 83.2776 0.00100026 
0.968579 4.04646e-14 -1.03063e-13 -0.962157 83.3494 0.00113594 1.39539 -1.64009e-14 -1.20026e-14 
-0.822322 83.2568 0.00111053 1.24315 3.1977e-14 -5.11405e-14 -0.895685 83.3116 0.00128392 
1.68639 -2.90566e-16 -1.14158e-13 -0.783871 83.1989 0.00119332 1.51682 -1.95608e-13 -1.06972e-14 
-0.773554 83.2294 0.00135896 1.95748 1.6616e-13 6.66672e-14 -0.700879 83.0999 0.00123059 
1.77617 -2.09049e-13 7.71952e-15 -0.592282 83.1 0.00132695 2.19059 1.42449e-13 -9.65408e-14 
-0.569376 82.9575 0.00120086 2.00548 3.96988e-13 -1.4971e-13 -0.388779 82.7722 0.00108522 
2.18749 -3.12999e-14 -7.31394e-14 0.176958 81.8545 -9.43261e-05 -0.0675324 5.72158e-14 -4.27037e-14 
0.141657 81.9647 -0.000504527 -0.0311488 9.39821e-14 -1.64355e-13 0.173943 81.8694 -9.58355e-05 
-0.134328 -1.12926e-14 1.20529e-14 0.140062 81.9754 -0.000498602 -0.093099 1.99079e-14 -6.69499e-14 
0.168793 81.8941 -9.83174e-05 -0.199623 -6.99159e-15 1.02567e-13 0.136811 81.9967 -0.000486646 
-0.153994 -6.95073e-14 2.14759e-15 0.161319 81.9284 -0.000101714 -0.262604 -3.33826e-15 -1.35697e-13 
0.131778 82.0285 -0.000468448 -0.21309 8.33882e-14 3.11817e-14 0.151262 81.9721 -0.000105927 
-0.322383 -9.95731e-15 1.64903e-14 0.124779 82.0704 -0.000443705 -0.269582 -6.34458e-14 -7.46972e-15 
0.13829 82.0248 -0.000110803 -0.377971 -6.67305e-15 -4.125e-14 0.115573 82.122 -0.000412023 
-0.32258 7.15161e-14 4.08059e-14 0.12201 82.086 -0.000116108 -0.428256 -4.96226e-14 3.35235e-14 
0.103859 82.1828 -0.000372939 -0.371087 -4.32905e-14 3.13014e-14 0.101975 82.1553 -0.000121501 
-0.471985 -9.54731e-14 1.45023e-14 0.0892906 82.2522 -0.000325935 -0.41398 3.71543e-14 5.49248e-14 
0.0776968 82.232 -0.000126496 -0.507745 4.22193e-14 1.81594e-13 0.0714819 82.3293 -0.000270465 
-0.44999 -3.79046e-14 -6.61277e-15 0.0486676 82.3153 -0.000130421 -0.533952 -2.45468e-14 -7.20517e-14 
0.0500211 82.4132 -0.000205979 -0.47769 1.41037e-14 3.17628e-15 0.0143918 82.4042 -0.000132375 
-0.548848 2.36352e-14 -2.01471e-14 0.0244929 82.5027 -0.000131964 -0.49549 4.30385e-14 -1.0849e-14 
-0.0255749 82.4978 -0.00013118 -0.550506 -1.32166e-13 -6.52568e-14 -0.00549273 82.5966 -4.7983e-05 
-0.501641 -1.06678e-13 2.36582e-14 -0.0715706 82.5947 -0.00012534 -0.536855 -8.77033e-15 -4.78957e-14 
-0.0402606 82.6932 4.62745e-05 -0.494247 1.49872e-13 9.78453e-14 -0.123757 82.6933 -0.000113021 
-0.505717 3.76812e-14 1.7478e-13 -0.0800194 82.7908 0.00015093 -0.471301 1.96549e-14 -2.98025e-14 
-0.182035 82.7921 -9.20538e-05 -0.454877 -2.34066e-14 -1.89154e-14 -0.124796 82.8872 0.000265843 
-0.430743 7.28749e-14 2.82691e-14 -0.245936 82.8887 -5.99982e-05 -0.382176 -3.21076e-14 -1.01443e-13 
-0.174358 82.9801 0.000390518 -0.370537 -4.65682e-14 -1.86344e-14 -0.314511 82.981 -1.42742e-05 
-0.285648 1.12406e-13 -5.66942e-14 -0.228119 83.0668 0.000523992 -0.28879 1.04517e-15 9.06566e-15 
-0.386199 83.0659 4.75927e-05 -0.163696 9.85817e-14 6.39488e-14 -0.285044 83.1442 0.000664684 
-0.183906 -1.01107e-13 -2.45914e-14 -0.458704 83.1404 0.000127593 -0.0153157 -1.3565e-14 1.17677e-13 
-0.343539 83.2089 0.00081021 -0.0547801 -1.14597e-13 -2.28297e-13 -0.528893 83.2006 0.000226696 
0.159627 -1.25524e-13 -7.49539e-14 -0.401367 83.2571 0.000957151 0.0989594 1.98511e-13 3.42365e-14 
-0.592728 83.2425 0.000344156 0.360085 -2.3431e-13 -1.97481e-14 -0.455573 83.2848 0.00110076 
0.276677 -1.31042e-13 1.08177e-13 -0.645279 83.2617 0.000476694 0.583479 -5.97339e-14 3.31176e-13 
-0.502477 83.2876 0.00123468 0.476422 -1.09478e-13 2.59931e-14 -0.680849 83.2533 0.00061766 
0.825352 -1.63638e-13 -2.46851e-14 -0.53773 83.2614 0.00135058 0.694621 2.53643e-13 1.31442e-13 
-0.693245 83.2128 0.000756345 1.07906 -4.95107e-14 -8.11972e-14 -0.556488 83.2018 0.001438 
0.925794 -4.30819e-14 2.41248e-14 -0.676227 83.1358 0.000877672 1.33554 -6.90914e-14 1.559e-14 
-0.553716 83.1053 0.00148437 1.16235 -3.7893e-13 2.92544e-14 -0.624164 83.0189 0.000962766 
1.58333 2.02164e-13 2.74858e-14 -0.524647 82.9691 0.00147533 1.39454 1.3422e-13 -1.11816e-14 
-0.532862 82.8603 0.000989978 1.80872 -1.03563e-15 3.76522e-15 -0.465388 82.792 0.00139612 
1.61056 -1.8258e-13 4.55131e-14 -0.400513 82.6605 0.000937254 1.99639 2.12717e-13 1.4681e-13 
-0.373642 82.5745 0.0012316 1.79705 -9.86624e-14 4.38833e-14 -0.249447 82.3202 0.000976898 
1.93979 7.64389e-14 1.611e-13 0.112498 82.0763 -8.97726e-05 -0.0563214 3.23921e-14 3.76123e-14 
0.0825813 82.1744 -0.000603351 -0.0251072 -2.41014e-14 -7.61544e-15 0.110574 82.0936 -9.01484e-05 
-0.112005 -3.03557e-14 9.32067e-15 0.0816575 82.1869 -0.00059568 -0.0750358 -8.3618e-15 4.93876e-14 
0.107283 82.1222 -9.07337e-05 -0.16639 1.22385e-14 -5.83891e-14 0.079772 82.2117 -0.000580147 
-0.124096 -2.18697e-14 -5.30166e-14 0.102501 82.1619 -9.14615e-05 -0.21877 4.50074e-15 8.65228e-14 
0.0768494 82.2486 -0.000556374 -0.171673 1.51372e-14 1.7257e-14 0.0960544 82.2122 -9.22282e-05 
-0.26837 5.67693e-14 -3.44447e-14 0.0727775 82.2971 -0.000523809 -0.2171 2.08093e-14 3.09874e-14 
0.0877244 82.2725 -9.2883e-05 -0.314323 1.07809e-14 8.83217e-14 0.0674078 82.3567 -0.000481735 
-0.259634 -6.65058e-14 1.24033e-15 0.0772492 82.3421 -9.32137e-05 -0.355655 -4.67252e-14 -8.72392e-14 
0.0605584 82.4264 -0.000429297 -0.298443 1.05612e-13 1.25715e-14 0.0643311 82.4201 -9.29296e-05 
-0.39126 -8.06755e-14 -4.30558e-14 0.0520171 82.5055 -0.000365533 -0.33258 -1.02383e-14 1.22128e-13 
0.0486459 82.5054 -9.16406e-05 -0.419894 7.36911e-14 -9.36057e-15 0.0415471 82.5927 -0.000289415 
-0.360976 4.06966e-14 7.58144e-14 0.0298571 82.5967 -8.88338e-05 -0.440159 -1.9343e-14 -4.79027e-14 
0.0288961 82.6866 -0.000199913 -0.382423 -1.33574e-16 1.0297e-13 0.00763614 82.6925 -8.38497e-05 
-0.450503 -1.64114e-14 3.47916e-14 0.013809 82.7854 -9.60673e-05 -0.395575 2.24733e-14 6.54529e-14 
-0.0183098 82.7909 -7.58594e-05 -0.449235 -2.10448e-14 2.30024e-14 -0.00395423 82.8872 2.29135e-05 
-0.398949 -9.84482e-14 1.08118e-13 -0.0482008 82.89 -6.38501e-05 -0.434543 1.10265e-13 -1.05405e-13 
-0.0245942 82.9897 0.000157527 -0.39094 5.70585e-14 1.62335e-14 -0.0821374 82.9873 -4.66239e-05 
-0.404537 -4.70414e-15 -4.90753e-14 -0.0482402 83.0903 0.00030783 -0.369857 -5.03356e-14 -1.43406e-13 
-0.120042 83.0802 -2.28219e-05 -0.357319 3.99199e-14 -1.18388e-13 -0.0749102 83.186 0.000473257 
-0.333973 2.25384e-14 -3.06005e-14 -0.161589 83.1656 9.01391e-06 -0.291075 4.69681e-14 3.06838e-14 
-0.104462 83.2734 0.000652413 -0.281599 -1.4634e-13 -3.39589e-14 -0.20613 83.2401 5.03239e-05 
-0.204203 3.38152e-14 1.02002e-13 -0.136539 83.3488 0.000842837 -0.211192 1.54783e-13 -1.62127e-14 
-0.252605 83.3002 0.000102342 -0.0954799 5.78474e-14 -7.72646e-14 -0.170505 83.4082 0.00104075 
-0.121491 1.0055e-14 1.10589e-13 -0.299469 83.3418 0.000165822 0.0357344 1.65603e-13 3.29008e-14 
-0.205385 83.4473 0.0012408 -0.0116936 -1.18992e-13 1.06963e-13 -0.344627 83.3607 0.000240666 
0.189255 2.40424e-14 1.41543e-13 -0.239814 83.4616 0.00143579 0.118343 -9.55828e-14 8.71941e-14 
-0.385397 83.3526 0.000325474 0.363803 -6.90606e-14 -7.77781e-14 -0.271991 83.4466 0.00161656 
0.267867 1.0448e-13 7.22478e-14 -0.418534 83.3133 0.000417049 0.556726 -7.00794e-14 -2.22426e-13 
-0.299684 83.3978 0.00177182 0.434979 -9.21433e-14 -2.94903e-15 -0.440324 83.2387 0.000509921 
0.763731 2.05488e-13 1.15703e-13 -0.320269 83.3112 0.00188829 0.616397 1.71253e-13 -1.3177e-13 
-0.446775 83.1255 0.000596051 0.978674 -1.89949e-13 2.02217e-14 -0.330842 83.1834 0.00195106 
0.807253 1.78857e-13 -4.44002e-14 -0.43393 82.9711 0.000664801 1.19346 6.61745e-14 5.67628e-14 
-0.328413 83.012 0.00194432 1.00097 3.46719e-14 3.56052e-15 -0.398298 82.7745 0.000703566 
1.3981 3.38098e-14 6.44785e-14 -0.310188 82.7961 0.00185249 1.18925 1.19904e-14 3.62071e-14 
-0.337389 82.5366 0.000698625 1.58102 -9.81056e-14 6.50374e-14 -0.273933 82.5366 0.00166235 
1.36231 -2.62377e-13 -1.08317e-13 -0.250307 82.2607 0.000636299 1.72959 4.40122e-13 -1.07461e-13 
-0.218402 82.237 0.00136283 1.50926 1.84826e-13 -2.00413e-14 -0.143755 81.9031 0.000960261 
1.61879 -5.48138e-14 6.32272e-14 0.0606495 82.2742 -8.14499e-05 -0.0432577 2.08507e-14 -4.76875e-15 
0.0371428 82.3579 -0.000677052 -0.0180545 -1.22098e-14 5.57419e-14 0.0596219 82.2943 -8.06375e-05 
-0.0860226 2.41328e-14 -5.86597e-14 0.0367385 82.3725 -0.000666684 -0.0539601 7.53609e-14 7.9361e-14 
0.0578624 82.3277 -7.92342e-05 -0.127783 -2.48855e-14 -4.02976e-14 0.0359123 82.4015 -0.000645661 
-0.0892472 9.17365e-15 7.86064e-14 0.0553011 82.3739 -7.71637e-05 -0.167989 -2.20665e-14 7.14741e-14 
0.034629 82.4446 -0.000613416 -0.123476 -8.04851e-14 1.37737e-14 0.0518409 82.4323 -7.43151e-05 
-0.206034 -1.91579e-14 -9.21312e-14 0.0328358 82.5012 -0.000569114 -0.156166 6.26608e-14 3.04947e-14 
0.0473585 82.5021 -7.05388e-05 -0.241238 1.7094e-14 -3.03368e-14 0.0304632 82.5705 -0.000511667 
-0.186781 3.69149e-15 -9.41296e-14 0.0417066 82.5824 -6.5641e-05 -0.272828 -1.5354e-14 8.96817e-14 
0.0274255 82.6517 -0.000439772 -0.21471 5.4302e-14 -4.69624e-14 0.0347174 82.6718 -5.9378e-05 
-0.299928 3.65454e-14 -4.98022e-14 0.0236222 82.7433 -0.000351955 -0.23926 2.06701e-14 1.44161e-13 
0.0262075 82.7689 -5.14492e-05 -0.321541 -6.58258e-14 1.42959e-13 0.0189411 82.8439 -0.000246631 
-0.259639 -1.33005e-13 -3.41012e-14 0.0159861 82.872 -4.14915e-05 -0.336548 -1.30399e-14 -1.14599e-13 
0.0132617 82.9517 -0.000122204 -0.274949 1.58108e-13 -5.34416e-14 0.0038663 82.9788 -2.90746e-05 
-0.343703 -2.81147e-14 -1.65475e-14 0.00646113 83.0644 2.28162e-05 -0.284184 -8.46571e-14 1.9167e-14 
-0.0103194 83.0869 -1.37009e-05 -0.341644 3.76435e-15 8.7319e-14 -0.00157731 83.1795 0.000189649 
-0.286228 -8.20498e-14 -4.63726e-14 -0.0266982 83.1935 5.18839e-06 -0.328911 5.31667e-14 7.43884e-14 
-0.0109531 83.2938 0.000379037 -0.279874 6.98608e-14 8.48314e-14 -0.04533 83.2952 2.81947e-05 
-0.303988 5.17555e-15 -5.09731e-14 -0.0217334 83.4039 0.00059099 -0.263843 2.05478e-14 1.02203e-13 
-0.0661748 83.3885 5.59272e-05 -0.265352 -2.4902e-14 6.52291e-14 -0.0339343 83.506 0.000824476 
-0.236829 2.46383e-14 5.50879e-14 -0.0890533 83.4693 8.89435e-05 -0.211562 6.60483e-14 -8.39849e-14 
-0.0474977 83.5956 0.00107706 -0.197553 -1.63094e-14 1.52635e-13 -0.113603 83.5331 0.000127658 
-0.14136 1.25016e-13 1.40443e-14 -0.0622645 83.6678 0.00134453 -0.144847 -2.24118e-14 9.47228e-14 
-0.13923 83.5753 0.000172211 -0.0538159 -5.71717e-14 1.98834e-14 -0.0779456 83.7176 0.00162045 
-0.0777651 2.34025e-13 -9.1982e-14 -0.16507 83.591 0.000222298 0.0515071 3.84586e-14 3.02675e-14 
-0.0940918 83.7395 0.0018958 0.00428827 -7.29703e-14 4.99947e-14 -0.189945 83.5751 0.000276947 
0.174354 -8.78282e-14 2.72074e-14 -0.110068 83.7279 0.0021587 0.101396 -1.95986e-13 5.55112e-14 
-0.212356 83.5229 0.000334286 0.313563 -6.49333e-14 1.82354e-14 -0.125037 83.6774 0.00239418 
0.212952 -6.89015e-14 6.97532e-14 -0.23049 83.4298 0.000391293 0.466848 1.9814e-14 -1.62856e-14 
-0.137952 83.5831 0.00258434 0.337472 7.70634e-14 -2.25514e-14 -0.242279 83.2922 0.00044361 
0.630602 -3.41463e-14 1.14971e-13 -0.147586 83.4404 0.00270882 0.472418 -1.4963e-13 1.19522e-14 
-0.245516 83.1074 0.000485493 0.799753 -1.39144e-13 2.29001e-14 -0.152579 83.2463 0.00274566 
0.614056 2.57388e-13 1.7502e-13 -0.238026 82.8742 0.000509925 0.967716 -1.19339e-13 3.29858e-14 
-0.15153 82.9989 0.00267293 0.757374 -2.43694e-13 1.72813e-14 -0.217914 82.5933 0.000509271 
1.12649 -4.62581e-14 3.04585e-15 -0.143133 82.6987 0.00247063 0.896113 -4.54567e-14 -1.16556e-13 
-0.183859 82.268 0.00047554 1.26692 1.76824e-13 -9.70318e-15 -0.12635 82.3485 0.00212413 
1.02293 1.7232e-13 9.95638e-14 -0.13544 81.9041 0.000401698 1.37922 -2.94625e-14 -1.7474e-13 
-0.100609 81.9537 0.00162336 1.12974 1.55757e-13 1.51896e-13 -0.0659851 81.5232 0.000986396 
1.20822 -3.46403e-13 -5.48797e-14 0.0234541 82.4434 -4.00903e-06 -0.0279835 -2.42232e-15 -1.00456e-13 
0.00807602 82.5103 -8.5561e-05 -0.00979578 -1.51736e-14 -1.02756e-14 0.023064 82.467 2.44784e-06 
-0.0556558 -8.542e-15 -3.20421e-14 0.00801765 82.5274 -4.95673e-05 -0.0292818 -1.75704e-14 4.06073e-14 
0.022395 82.5061 1.32892e-05 -0.0826925 -1.57634e-14 1.64565e-13 0.00789721 82.5615 2.28449e-05 
-0.0484466 -4.61133e-14 7.72915e-14 0.0214191 82.5602 2.86312e-05 -0.108743 -1.74149e-14 -2.16754e-14 
0.00770725 82.612 0.000132504 -0.0670604 1.73013e-14 1.94471e-14 0.0200975 82.6285 4.86285e-05 
-0.133419 -1.83248e-14 1.00179e-13 0.00743661 82.6785 0.000280596 -0.0848696 3.20265e-14 -3.9059e-14 
0.0183804 82.7102 7.34659e-05 -0.156279 1.6433e-14 -7.86957e-14 0.00707037 82.7599 0.000468594 
-0.101589 -5.20417e-15 -3.43996e-14 0.0162085 82.8039 0.000103345 -0.176819 -6.6387e-14 -1.02439e-13 
0.00658997 82.8553 0.000698152 -0.116889 -5.59119e-14 -4.65513e-14 0.0135138 82.9083 0.000138469 
-0.194464 -6.80671e-14 1.29528e-13 0.00597336 82.963 0.000970955 -0.130395 -8.07462e-14 -1.09437e-13 
0.0102218 83.0214 0.000179017 -0.208552 2.56765e-14 -1.9945e-13 0.00519538 83.0814 0.00128852 
-0.14167 9.15457e-14 -5.56569e-14 0.00625427 83.141 0.000225113 -0.218338 9.60516e-15 8.12614e-14 
0.00422835 83.2081 0.00165193 -0.150219 -1.55285e-13 -8.42208e-15 0.00153417 83.2644 0.00027679 
-0.222985 -1.70037e-13 1.36197e-13 0.00304309 83.3407 0.00206149 -0.155477 -3.27394e-14 -4.39839e-14 
-0.0040085 83.3885 0.000333936 -0.221575 1.30271e-13 -8.74162e-14 0.00161043 83.4757 0.00251632 
-0.156818 4.97866e-14 -5.69891e-14 -0.0104283 83.5098 0.000396229 -0.213116 8.00748e-15 6.33105e-14 
-9.66432e-05 83.6096 0.00301377 -0.153553 5.41407e-15 -2.87964e-15 -0.0177533 83.6239 0.000463067 
-0.196576 -2.6458e-14 1.27072e-13 -0.00210011 83.7381 0.00354885 -0.14495 -4.32059e-14 5.01196e-14 
-0.0259724 83.7263 0.000533466 -0.17091 9.70838e-15 -9.29326e-14 -0.00441307 83.8562 0.00411348 
-0.130252 1.94639e-13 -4.88845e-15 -0.0350185 83.8118 0.000605963 -0.135125 2.10856e-15 2.21559e-14 
-0.00703498 83.9584 0.00469565 -0.108709 -4.84907e-14 -7.10161e-14 -0.0447511 83.8746 0.000678497 
-0.0883501 -4.78107e-14 -1.73851e-13 -0.00994596 84.0386 0.00527861 -0.0796275 1.92615e-14 -4.54636e-14 
-0.054937 83.9089 0.000748291 -0.0299342 -8.22767e-14 9.79147e-14 -0.0131004 84.0903 0.00584007 
-0.0424318 -1.05633e-13 1.02057e-13 -0.0652322 83.9083 0.000811741 0.0404377 1.36757e-13 -1.02349e-14 
-0.0164202 84.1065 0.00635149 0.00325994 4.64303e-14 -2.78597e-14 -0.0751673 83.8668 0.000864337 
0.122607 -8.03307e-14 8.0061e-14 -0.0197887 84.08 0.00677777 0.057542 4.94691e-14 -8.59209e-14 
-0.0841407 83.7783 0.000900633 0.215795 -6.27441e-14 2.11324e-14 -0.0230454 84.0042 0.00707733 
0.120116 9.27496e-14 4.16681e-14 -0.0914239 83.6376 0.000914316 0.31845 1.75963e-13 -1.49949e-14 
-0.0259849 83.8723 0.00720297 0.190181 1.02572e-13 9.14338e-14 -0.0961845 83.4405 0.000898398 
0.428118 -1.67717e-13 1.18308e-14 -0.0283593 83.6792 0.0071037 0.266325 5.14293e-14 6.36123e-14 
-0.0975323 83.1843 0.000845605 0.541345 3.39728e-14 1.04359e-13 -0.0298883 83.4207 0.00672769 
0.346443 -4.71494e-13 -9.37722e-14 -0.0945908 82.8686 0.000748911 0.653654 2.82378e-13 -1.90748e-13 
-0.0302767 83.095 0.00602665 0.427685 3.75221e-13 2.49176e-14 -0.0865962 82.4952 0.000602557 
0.759615 4.65981e-14 -3.66283e-14 -0.0292418 82.703 0.00496126 0.50647 1.98969e-13 3.76556e-14 
-0.0730168 82.0692 0.000402517 0.85304 -1.00343e-13 1.54583e-13 -0.0265488 82.2486 0.0035085 
0.578583 -1.5591e-13 1.37908e-13 -0.0536861 81.5989 0.000146643 0.927334 2.89012e-13 3.61482e-14 
-0.0220539 81.7394 0.00166466 0.639369 1.3976e-13 7.96151e-14 -0.0157417 81.187 -0.000526429 
0.684037 9.77968e-14 -3.27759e-14 0.00319671 82.5789 0.00176257 -0.0100743 -2.93413e-14 -4.3303e-14 
0.00311006 82.6067 0.0018532 -0.0200425 -2.58422e-14 1.01552e-13 0.00296254 82.6526 0.00200439 
-0.0297936 3.24827e-16 -4.96114e-14 0.00274955 82.7161 0.00221627 -0.0392067 4.19109e-15 -5.31337e-14 
0.00246469 82.7965 0.00248887 -0.0481465 -1.82701e-14 4.03982e-14 0.00209988 82.8927 0.00282197 
-0.0564577 -9.86277e-15 1.95252e-14 0.00164553 83.0034 0.00321484 -0.0639612 -2.69507e-14 1.47451e-14 
0.00109081 83.1268 0.00366602 -0.0704495 4.8162e-14 -7.20266e-14 0.000424019 83.2609 0.00417293 
-0.0756831 6.17431e-14 1.78446e-13 -0.000366774 83.403 0.00473141 -0.0793881 -5.1955e-14 -1.54658e-13 
-0.0012929 83.5501 0.00533529 -0.0812551 -1.02977e-13 -2.92995e-14 -0.00236393 83.6983 0.0059757 
-0.0809403 -6.24899e-14 -1.82528e-14 -0.00358611 83.8434 0.00664047 -0.07807 -3.72636e-14 4.01103e-14 
-0.00496043 83.9803 0.00731337 -0.0722489 1.46147e-13 1.24102e-14 -0.00648016 84.1032 0.00797342 
-0.0630743 -1.5864e-15 1.34972e-13 -0.00812802 84.2056 0.00859411 -0.0501557 1.02607e-13 5.6892e-14 
-0.00987294 84.2805 0.00914292 -0.0331433 -3.65593e-15 9.74776e-14 -0.0116668 84.3201 0.00958096 
-0.0117644 -2.85823e-14 -2.01623e-13 -0.013441 84.3166 0.00986304 0.0141321 2.39437e-13 1.39576e-14 
-0.0151047 84.2618 0.00993834 0.0445218 -2.74114e-13 -2.06661e-13 -0.0165431 84.1479 0.00975185 
0.0791475 2.57246e-13 1.16331e-13 -0.0176193 83.9679 0.00924679 0.117459 1.78788e-13 1.31561e-14 
-0.0181787 83.7162 0.00836813 0.158557 -1.0731e-14 1.58762e-14 -0.018058 83.389 0.00706733 
0.201158 -1.82777e-13 -1.47642e-13 -0.0170987 82.9854 0.00530817 0.243576 1.92891e-13 4.12673e-14 
-0.0151652 82.5077 0.00307355 0.283748 -1.05988e-13 3.1971e-14 -0.0121677 81.9623 0.000371708 
0.319305 -5.44634e-14 1.83042e-13 -0.00808642 81.3599 -0.00275765 0.347708 2.49967e-13 5.8154e-14 
-0.00285768 80.2799 -0.00459606 0.721189 8.83581e-14 3.07063e-14 0.00287692 80.8117 -0.000123718 
1.2665 1.75179e-13 4.23116e-14 0.00508072 81.3391 0.000752305 1.70081 -7.36876e-14 -9.1923e-14 
0.000186953 81.8701 0.00168899 2.05421 -1.37142e-13 -2.77001e-14 -0.0205034 82.414 0.00291083 
2.34804 1.11611e-13 1.66972e-13 -0.0686213 82.9822 0.00449078 2.59662 -2.25382e-13 -1.11538e-13 
-0.1592 83.5879 0.00653109 2.80793 4.95697e-15 -2.56808e-14 -0.311663 84.2463 0.00916395 
2.98334 9.9077e-14 6.6263e-14 -0.55113 84.9736 0.012535 3.11623 -1.06208e-13 -1.45561e-14 
-0.909893 85.7855 0.0167624 3.18923 -1.10367e-13 8.48393e-14 -1.42871 86.6941 0.0218369 
3.16961 -1.44152e-13 -9.06393e-14 -2.15703 87.7011 0.0274346 3.00218 2.24071e-13 3.07033e-14 
-3.15041 88.7834 0.0324808 2.59954 2.74371e-13 -8.72838e-14 -4.46136 89.8672 0.0345282 
1.83057 1.67713e-14 1.64278e-15 -6.11535 90.7851 0.0295217 0.511833 1.96329e-13 1.16216e-13 
0.0057848 79.6615 -0.00893993 0.704762 -1.23805e-13 -6.74096e-14 0.0548306 80.3232 -0.00232216 
1.23815 2.57858e-14 -1.16974e-13 0.119038 80.9428 -0.00106506 1.66727 -1.98797e-13 -1.55622e-14 
0.193108 81.5392 -1.53443e-05 2.02409 -1.17515e-14 7.41959e-14 0.267472 82.1291 0.00118243 
2.33194 -1.82234e-13 2.96672e-14 0.330807 82.7304 0.00265659 2.60786 -2.2046e-13 6.31769e-14 
0.369175 83.3623 0.00456503 2.86357 -7.62012e-14 -4.38052e-14 0.364526 84.0462 0.00712235 
3.10572 -7.17777e-14 1.14984e-13 0.292639 84.8069 0.0106106 3.33495 -1.25521e-13 -6.29687e-14 
0.120392 85.6723 0.0153826 3.54346 1.89893e-13 2.87791e-15 -0.19772 86.6731 0.0218241 
3.71041 -6.91114e-15 -7.41022e-14 -0.723548 87.8393 0.0302532 3.79376 -2.2219e-13 -4.431e-14 
-1.53893 89.1908 0.0404678 3.71689 -3.5652e-14 1.02356e-13 -2.74522 90.7149 0.0514222 
3.34829 2.09832e-14 -1.28927e-13 -4.45512 92.3154 0.0571202 2.47273 4.93564e-14 1.15937e-13 
0.0147724 79.0705 -0.0132865 0.657313 6.25801e-14 -1.68927e-13 0.108121 79.8537 -0.00458814 
1.156 -4.51028e-14 7.59184e-14 0.236015 80.5565 -0.00300982 1.5609 4.37679e-14 -6.95329e-14 
0.391923 81.2081 -0.00194986 1.90348 -1.07274e-13 -9.87058e-16 0.566389 81.8324 -0.000932671 
2.2074 1.00791e-13 1.16429e-13 0.749877 82.4524 0.000203229 2.49101 -2.22992e-13 -5.9697e-14 
0.931739 83.0915 0.00163559 2.76882 3.43501e-14 4.78853e-14 1.09855 83.7758 0.00360846 
3.05223 -4.15709e-14 1.12578e-13 1.23181 84.5354 0.00646765 3.34934 3.95153e-14 -4.77604e-14 
1.30466 85.4069 0.0107107 3.66355 -1.92471e-13 1.69309e-15 1.27711 86.4356 0.017036 
3.99024 4.24358e-13 -5.49595e-14 1.08931 87.677 0.0263998 4.30981 1.48936e-13 -6.35568e-14 
0.651884 89.1948 0.0397398 4.57443 7.58768e-14 8.1643e-14 -0.163907 91.0512 0.058492 
4.68377 2.23432e-14 2.1854e-14 -1.54416 93.2661 0.0773911 4.44158 -1.70072e-13 3.07601e-14 
0.0233232 78.5331 -0.0173298 0.579256 -1.59719e-13 -2.48204e-13 0.158439 79.4242 -0.00674165 
1.02079 3.41793e-13 -5.63091e-14 0.346556 80.1989 -0.00491543 1.38227 -1.22283e-13 -3.42018e-14 
0.580453 80.8957 -0.00393096 1.69209 1.37119e-13 1.52989e-13 0.851579 81.5445 -0.00321403 
1.97206 8.16764e-14 -1.9993e-13 1.1533 82.172 -0.00259663 2.23998 -8.18772e-14 3.22242e-14 
1.47994 82.8044 -0.00192377 2.51131 1.09994e-13 -1.26593e-13 1.82533 83.4694 -0.000991103 
2.80029 4.89261e-14 1.36641e-13 2.18094 84.1995 0.00049983 3.12054 -4.66831e-14 1.36176e-14 
2.53307 85.0349 0.00301597 3.48503 1.3126e-13 -2.17604e-14 2.85853 86.0282 0.00730493 
3.90479 -1.90455e-13 -5.36515e-14 3.11758 87.2509 0.0145878 4.38518 -1.40516e-13 -6.15098e-14 
3.24217 88.7994 0.0266076 4.91692 1.95975e-13 7.0683e-14 3.11961 90.8027 0.0468761 
5.45616 2.62984e-15 -7.86246e-14 2.55257 93.4094 0.0728092 5.88082 -8.1643e-14 2.81788e-14 
0.0306276 78.0741 -0.0207503 0.473635 -9.86659e-14 -7.59497e-14 0.201262 79.0549 -0.0085872 
0.837793 1.9997e-14 3.23699e-14 0.44072 79.8885 -0.00658771 1.13827 3.82021e-14 -1.03372e-13 
0.741534 80.6213 -0.00572713 1.39775 5.39319e-14 1.10276e-13 1.09648 81.2877 -0.00535858 
1.63398 -6.69529e-14 1.12001e-13 1.50227 81.9168 -0.00532916 1.86207 1.95456e-13 1.06477e-14 
1.9588 82.5358 -0.00553972 2.09596 1.54564e-13 -1.91794e-13 2.4683 83.1724 -0.00588293 
2.34972 7.29798e-15 7.21471e-14 3.03434 83.8582 -0.00621001 2.63864 -8.25572e-14 -5.44148e-14 
3.6605 84.6323 -0.0062705 2.98018 1.4164e-14 5.92443e-14 4.3481 85.5474 -0.00560286 
3.39463 -9.03132e-14 1.35933e-14 5.0921 86.678 -0.00333137 3.90482 -3.84449e-14 4.928e-14 
5.87294 88.1346 0.00212207 4.53334 8.37941e-14 -2.09506e-13 6.64313 90.0843 0.0144687 
5.29269 -3.65957e-14 3.53745e-14 7.28559 92.7755 0.0339067 6.15687 -9.87682e-14 1.09635e-14 
0.0359354 77.7146 -0.0232589 0.346086 -2.20926e-14 -1.39909e-13 0.23244 78.7628 -0.00994263 
0.616766 6.46419e-14 1.46098e-14 0.509364 79.6415 -0.00783766 0.842021 -7.82143e-14 -8.28365e-14 
0.859276 80.4025 -0.0071013 1.03658 -8.36089e-14 1.3143e-13 1.27625 81.083 -0.00703934 
1.2122 3.94967e-14 -7.14533e-14 1.75989 81.7135 -0.00752265 1.37922 -1.51066e-13 1.04278e-13 
2.31499 82.3214 -0.00851624 1.54757 -7.74571e-14 -3.80009e-14 2.95114 82.9332 -0.0100258 
1.72784 2.9546e-13 9.9365e-15 3.68293 83.5781 -0.0120892 1.93225 -4.53552e-14 6.44242e-14 
4.53027 84.2918 -0.014758 2.17583 9.1956e-14 -9.30298e-14 5.51909 85.122 -0.0180516 
2.47774 2.13288e-13 -2.26e-14 6.6817 86.1383 -0.0218703 2.86289 1.68018e-13 -2.08167e-15 
8.05627 87.4477 -0.025723 3.36309 -1.01689e-13 -1.21216e-13 9.68432 89.2247 -0.0278527 
4.01596 -2.01159e-13 -7.74103e-14 11.59 91.7644 -0.0271233 4.85492 2.85258e-14 2.63081e-13 
0.0386692 77.4699 -0.0246366 0.204444 -1.39081e-13 -9.15448e-14 0.248792 78.5608 -0.0106668 
0.371255 2.17491e-15 -4.62928e-14 0.545467 79.4702 -0.00851445 0.511982 -1.76491e-13 -1.03043e-15 
0.921428 80.2527 -0.00785794 0.631913 -2.00437e-13 6.53574e-14 1.37156 80.9469 -0.00797767 
0.735465 -9.99338e-14 7.19702e-14 1.89721 81.5839 -0.00876157 0.826708 -7.17738e-14 1.35419e-13 
2.50598 82.1906 -0.0102171 0.909738 -7.04988e-14 -1.36339e-13 3.21185 82.7927 -0.0124257 
0.989038 -2.0797e-13 2.1011e-13 4.03594 83.4176 -0.0155539 1.06987 3.09314e-14 -8.98795e-14 
5.00818 84.0979 -0.019871 1.15875 5.16609e-14 -5.21805e-15 6.1699 84.8772 -0.0257669 
1.26413 1.5296e-13 1.79648e-14 7.57781 85.8188 -0.0337892 1.39729 -1.98097e-14 -7.11722e-14 
9.30945 87.0224 -0.0445038 1.57341 1.00215e-14 -1.80411e-13 11.4708 88.656 -0.0583133 
1.81253 -4.02959e-14 -1.02973e-14 14.1985 91.0234 -0.0746112 2.13841 4.74551e-14 5.30825e-14 
0.0385147 77.3482 -0.0247658 0.0580145 -1.10797e-14 1.34059e-14 0.248595 78.4554 -0.010683 
0.117351 -7.33881e-14 -1.59924e-13 0.545227 79.381 -0.00853452 0.170233 1.36772e-13 -1.54543e-13 
0.92133 80.1793 -0.00788651 0.211992 1.83258e-13 1.26066e-13 1.37188 80.8887 -0.00801301 
0.239222 6.33194e-14 -1.09659e-13 1.89829 81.54 -0.00880183 0.249222 5.8921e-14 6.933e-14 
2.50821 82.1603 -0.0102608 0.239553 1.27133e-13 -1.33664e-13 3.21564 82.775 -0.0124719 
0.207615 1.62308e-13 2.29622e-13 4.04174 83.4113 -0.0156027 0.150195 -1.27437e-13 -1.76803e-14 
5.01645 84.102 -0.0199241 0.0629246 -1.20251e-14 -1.32311e-13 6.18116 84.8906 -0.0258284 
-0.0604249 -1.5183e-13 1.64556e-13 7.59263 85.8403 -0.0338677 -0.228866 1.38604e-15 -1.87357e-13 
9.32856 87.0507 -0.0446152 -0.455316 5.52952e-14 -4.82461e-14 11.4953 88.69 -0.0584929 
-0.757508 1.33392e-13 1.56819e-14 14.2299 91.0619 -0.0749068 -1.1569 -9.97431e-14 1.19904e-14 
0.0354724 77.3493 -0.0236483 -0.083382 1.35951e-13 -1.53249e-13 0.23186 78.4469 -0.00999205 
-0.127967 4.25007e-16 -6.7963e-14 0.508673 79.3742 -0.00789873 -0.159893 -5.79333e-14 -6.57564e-14 
0.85904 80.1826 -0.00718767 -0.19323 -1.48833e-14 2.48034e-13 1.2773 80.9086 -0.00714568 
-0.238697 -1.46753e-13 -4.52624e-14 1.76326 81.5824 -0.00764317 -0.305202 6.51619e-14 -7.26051e-14 
2.32182 82.2309 -0.00864611 -0.401003 3.75017e-14 7.14706e-16 2.9627 82.8803 -0.0101619 
-0.534776 -9.50524e-14 5.42795e-14 3.70051 83.5597 -0.0122308 -0.716689 8.96141e-14 -1.42397e-13 
4.55524 84.3046 -0.0149082 -0.959613 -2.13961e-14 2.21767e-13 5.55286 85.1627 -0.0182195 
-1.28056 5.95982e-14 5.23748e-14 6.72588 86.2034 -0.022075 -1.70226 2.38958e-14 -6.09929e-14 
8.11278 87.5339 -0.0259984 -2.25448 9.00564e-14 -1.1615e-13 9.75575 89.3287 -0.0282683 
-2.97294 -5.56222e-14 1.31367e-13 11.6802 91.8831 -0.0277635 -3.88952 -1.18031e-14 8.00332e-14 
0.0298576 77.4651 -0.0214059 -0.210452 -1.3055e-13 -7.04679e-14 0.200335 78.5285 -0.00867281 
-0.348635 3.40084e-14 1.22562e-13 0.439671 79.4435 -0.00669242 -0.456368 -1.07078e-13 -7.24247e-14 
0.741335 80.2557 -0.00587341 -0.55558 -2.22689e-13 3.6058e-14 1.09855 80.9982 -0.00553708 
-0.66291 2.66268e-13 -1.80536e-13 1.50831 81.6996 -0.00552955 -0.791957 -1.63648e-13 8.53241e-14 
1.97076 82.3863 -0.00575299 -0.954904 4.67204e-14 -1.77008e-13 2.48823 83.0858 -0.00610227 
-1.16386 -1.91041e-13 4.74263e-13 3.06434 83.8291 -0.00643177 -1.43202 -2.91989e-14 -2.25049e-13 
3.70269 84.6553 -0.00649534 -1.77472 -1.97226e-13 -1.45876e-13 4.40464 85.617 -0.00583737 
-2.21011 -2.39357e-13 2.06196e-13 5.16522 86.7888 -0.00359035 -2.75902 -3.73451e-14 -1.03771e-13 
5.96512 88.2814 0.00181427 -3.4422 -1.82875e-13 -2.2319e-13 6.75731 90.2625 0.0140741 
-4.27072 -1.37446e-13 2.52902e-13 7.42559 92.9813 0.0334015 -5.21775 -1.32699e-13 -1.47576e-13 
0.0222497 77.6803 -0.018262 -0.315387 2.8995e-13 2.94126e-13 0.157228 78.688 -0.00686862 
-0.531167 6.5115e-14 -2.17656e-13 0.345315 79.5773 -0.00506852 -0.700819 -3.45035e-13 1.71117e-13 
0.580607 80.3857 -0.00414119 -0.851856 2.26215e-13 -2.11532e-14 0.855157 81.1416 -0.00346735 
-1.00482 -1.94883e-13 -4.41244e-14 1.16275 81.8707 -0.0028774 -1.17592 -6.92892e-14 -1.22187e-13 
1.49795 82.5981 -0.00221776 -1.37871 -2.22721e-14 7.5509e-14 1.85475 83.3512 -0.00128638 
-1.62536 1.2596e-13 2.61863e-13 2.2246 84.1619 0.00021227 -1.92734 3.48627e-14 -1.39451e-13 
2.59375 85.0703 0.00274176 -2.29544 1.41413e-13 -6.3765e-14 2.93885 86.1291 0.00704636 
-2.73858 -6.69326e-14 1.407e-13 3.22003 87.41 0.0143451 -3.26014 2.31839e-13 -1.28578e-14 
3.3691 89.01 0.0263829 -3.84914 -7.78544e-14 -3.37202e-13 3.27322 91.0591 0.0466888 
-4.46043 9.63465e-14 1.09156e-13 2.73482 93.7077 0.0727191 -4.97112 1.84464e-13 -1.14977e-14 
0.0134021 77.9736 -0.0145106 -0.392595 -1.03953e-14 1.73472e-16 0.106724 78.9082 -0.00476428 
-0.665912 4.2839e-15 -9.19993e-14 0.234839 79.7598 -0.00321858 -0.880282 1.28023e-13 -1.94674e-13 
0.392914 80.5558 -0.00223051 -1.06614 5.58269e-14 1.50997e-13 0.572258 81.3186 -0.00126576 
-1.24567 1.80339e-13 -1.4664e-13 0.763839 82.0696 -0.000160567 -1.43543 2.8498e-13 1.61766e-13 
0.9573 82.8312 0.00126144 -1.64788 -8.71074e-14 -1.61714e-13 1.13932 83.6288 0.00324212 
-1.89218 2.33541e-13 5.03209e-14 1.29131 84.492 0.00612486 -2.17415 3.34767e-14 -2.18957e-14 
1.38619 85.4574 0.0104051 -2.49492 1.13867e-13 6.34458e-14 1.38363 86.5703 0.0167806 
-2.84766 1.15092e-13 1.36557e-13 1.22329 87.8868 0.0262106 -3.21074 -3.39281e-13 -7.95371e-14 
0.815184 89.4715 0.039642 -3.53451 -2.26485e-13 -2.69722e-13 0.0297243 91.3878 0.0585391 
-3.71711 -1.41116e-13 6.57183e-14 -1.32047 93.6578 0.0776782 -3.56092 -1.97439e-13 1.91416e-13 
0.00412909 78.3205 -0.0104766 -0.439097 -9.49414e-14 9.56214e-14 0.0533921 79.1696 -0.00255837 
-0.747737 8.70918e-14 -1.45044e-13 0.118296 79.9729 -0.00133984 -0.988122 4.04442e-13 4.30003e-14 
0.195628 80.7473 -0.000376003 -1.19092 -6.17094e-14 7.44751e-14 0.276738 81.5076 0.000761484 
-1.37777 1.10105e-13 -2.99816e-13 0.350883 82.2697 0.00220387 -1.56363 -5.33774e-14 1.4112e-14 
0.404427 83.0516 0.00410761 -1.75796 -3.57171e-14 -2.74433e-15 0.419364 83.874 0.00668506 
-1.96497 1.4575e-13 9.31564e-14 0.371279 84.7611 0.010216 -2.1828 5.69423e-14 3.98605e-14 
0.226642 85.7408 0.0150517 -2.4012 -3.99684e-13 8.55115e-14 -0.0606601 86.8441 0.0215779 
-2.59697 -1.81247e-13 -9.77551e-14 -0.553284 88.1017 0.0301171 -2.72585 -1.08493e-13 1.19203e-13 
-1.33411 89.5344 0.0404745 -2.70916 2.90303e-13 -2.21462e-13 -2.50585 91.1311 0.0516229 
-2.41347 -5.16531e-14 -1.31304e-13 -4.183 92.7975 0.0575903 -1.62146 -3.75561e-13 8.3206e-14 
-0.0047831 78.6948 -0.00647254 -0.454574 1.5778e-13 -1.16176e-13 0.00159473 79.4513 -0.000434439 
-0.776106 -3.62158e-14 6.76924e-14 0.00527081 80.1986 0.000397356 -1.02406 7.57098e-14 -1.45453e-13 
0.00517002 80.9422 0.00123491 -1.22692 7.81566e-15 1.01499e-13 -0.00634603 81.6888 0.00239001 
-1.40399 -3.31421e-13 9.93546e-14 -0.0402645 82.4478 0.00393915 -1.56723 -9.62672e-14 1.78694e-13 
-0.111325 83.2312 0.00598274 -1.72203 -1.49554e-13 -3.39498e-13 -0.238986 84.0531 0.00865025 
-1.86702 1.25589e-13 4.1242e-13 -0.448699 84.9291 0.0120844 -1.99286 5.92564e-14 -2.20971e-13 
-0.773362 85.8752 0.0164013 -2.07948 3.22728e-14 -2.38299e-14 -1.25459 86.9038 0.0215903 
-2.09155 1.78673e-13 2.27023e-14 -1.94292 88.0173 0.0273288 -1.97144 5.62224e-14 1.38389e-13 
-2.89526 89.1938 0.032543 -1.62941 1.98869e-14 -3.60963e-13 -4.16574 90.3611 0.0347889 
-0.932015 1.59914e-13 5.60836e-15 -5.78167 91.3531 0.0300265 0.306629 -2.35381e-13 1.0968e-13 
-0.00759607 80.5921 -0.00310327 0.708034 7.89022e-14 -2.76792e-13 0.00324023 80.0163 -0.0101358 
0.373802 -1.07289e-13 1.86191e-13 -0.0223407 81.0571 0.000171514 1.25072 -6.42833e-13 2.42029e-14 
0.00193258 80.55 -0.000517675 0.993695 -7.63452e-14 -3.39548e-13 -0.0495949 81.5347 0.000409223 
1.68055 4.40764e-13 5.26315e-15 0.00379781 81.0776 0.000140913 1.48207 -4.60944e-13 4.19567e-13 
-0.0918849 82.0278 0.000571244 2.02578 -6.52695e-13 6.44762e-14 0.00168135 81.6052 0.000356859 
1.87484 2.50668e-13 -2.72976e-13 -0.157127 82.5416 0.000798973 2.30622 1.23084e-13 1.65458e-14 
-0.012042 82.1405 0.000617878 2.19752 -5.47821e-14 3.61461e-13 -0.256582 83.084 0.00108976 
2.53452 -1.44504e-13 -1.63914e-13 -0.0476183 82.6939 0.000973667 2.4679 5.64496e-14 -2.8539e-13 
-0.405084 83.6648 0.00143349 2.71671 1.17809e-13 3.18079e-14 -0.1184 83.2777 0.00146415 
2.6971 2.47621e-13 1.20827e-13 -0.621683 84.2949 0.00181345 2.85172 -9.80917e-14 2.49731e-14 
-0.241642 83.906 0.00214351 2.88982 1.07966e-13 -4.86347e-14 -0.930443 84.9854 0.00219291 
2.93004 2.62276e-13 6.00041e-14 -0.439619 84.5947 0.00308469 3.0435 2.0265e-14 2.26291e-13 
-1.36115 85.7452 0.00249197 2.93108 1.09524e-13 -1.12084e-13 -0.740963 85.3597 0.00438104 
3.14632 8.52096e-14 -4.18068e-14 -1.94937 86.577 0.00255023 2.81904 -3.8565e-13 7.57068e-14 
-1.18194 86.2158 0.00614326 3.17356 -1.45925e-13 -1.55848e-14 -2.73482 87.4696 0.00205748 
2.53716 6.96387e-14 -3.86952e-15 -1.80701 87.1712 0.00848585 3.08179 5.8481e-14 8.52599e-14 
-3.75609 88.384 0.000476758 2.00063 -5.03764e-15 -8.1192e-14 -2.66731 88.2181 0.0114696 
2.80056 -2.37713e-13 -1.43433e-13 -5.03798 89.2297 -0.0030239 1.09026 -1.62675e-13 1.7264e-14 
-3.81407 89.314 0.0150777 2.2219 -6.34215e-15 4.66901e-14 -6.56957 89.8262 -0.010448 
-0.347583 1.67089e-14 1.53932e-13 -5.28309 90.348 0.0186378 1.19006 1.61676e-13 1.85116e-13 
-7.05579 91.0828 0.0218848 -0.495994 1.32144e-13 -1.30618e-13 0.00220017 79.9737 -0.00591525 
0.706263 -1.17135e-13 -1.81681e-13 0.00998356 79.3187 -0.014194 0.365435 1.01918e-13 2.12261e-13 
0.0289304 80.5701 -0.000731608 1.24793 2.00305e-13 -7.42462e-15 0.0359657 80.0046 -0.000978718 
0.971086 1.18343e-14 -1.35801e-13 0.0610185 81.1431 -0.000197756 1.68148 3.17316e-14 -1.08115e-13 
0.0891365 80.641 -0.000124889 1.45082 -1.58623e-14 -7.28584e-16 0.0940896 81.7063 0.000124017 
2.03794 2.75019e-13 9.23636e-14 0.156944 81.246 2.71696e-05 1.84259 -1.05221e-13 -3.40214e-14 
0.118823 82.2724 0.000479298 2.33981 6.45784e-14 1.49492e-13 0.229867 81.836 0.000184307 
2.17383 1.64746e-13 2.46275e-13 0.123457 82.856 0.000889614 2.60281 1.77774e-14 -9.79633e-14 
0.297266 82.4282 0.000405432 2.46463 -1.16403e-13 -1.78496e-13 0.0930846 83.4732 0.00136881 
2.8368 -6.27623e-14 -9.01432e-14 0.346416 83.0408 0.000735807 2.72932 1.3109e-13 -4.60881e-14 
0.00836967 84.1422 0.00192981 3.04572 -8.82003e-14 9.28424e-14 0.361204 83.694 0.00123661 
2.97704 6.00353e-14 1.26843e-14 -0.156182 84.883 0.00257653 3.22642 -8.24063e-14 -2.06224e-14 
0.320362 84.4107 0.00199653 3.21144 5.03625e-14 4.2924e-14 -0.43438 85.717 0.00328488 
3.36604 7.92422e-14 -3.35842e-15 0.19509 85.217 0.0031425 3.42901 1.83666e-13 -1.79495e-13 
-0.870729 86.6653 0.00396726 3.43727 6.54338e-14 -8.9477e-15 -0.0539706 86.1421 0.00485321 
3.61565 -9.5389e-14 1.45974e-13 -1.52243 87.743 0.00438816 3.3907 1.64313e-14 -1.32998e-13 
-0.480312 87.217 0.0073701 3.74034 -2.20407e-13 -7.70078e-14 -2.45932 88.9478 0.00404915 
3.14316 -8.42382e-14 -4.1302e-14 -1.15488 88.4684 0.0109899 3.7446 -2.52853e-14 -1.57263e-13 
-3.75803 90.2364 0.00187698 2.56185 1.48381e-13 4.45772e-14 -2.16719 89.9048 0.0160442 
3.52591 -2.07612e-14 1.49769e-13 -5.48292 91.4778 -0.00399061 1.44687 -2.73948e-13 9.55069e-14 
-3.61766 91.4834 0.0225777 2.91335 -2.06501e-13 9.90787e-14 -5.59475 93.0433 0.0307685 
1.64285 -7.64389e-14 6.12704e-14 0.0127707 79.3698 -0.0087743 0.67472 -7.7386e-14 -8.2212e-14 
0.0168514 78.6523 -0.0181307 0.340869 -9.56665e-14 -6.81052e-14 0.0835958 80.092 -0.0016701 
1.19313 1.68639e-13 -3.96766e-14 0.0708884 79.4825 -0.00144659 0.906155 1.19984e-13 -3.62418e-14 
0.179032 80.7529 -0.000845101 1.61202 -3.64569e-14 2.02477e-14 0.176741 80.219 -0.000416575 
1.35645 -1.72327e-14 -7.81042e-14 0.293373 81.3766 -0.000379753 1.96316 -7.17395e-15 1.1121e-13 
0.316806 80.8919 -0.000353199 1.72898 1.46513e-13 5.88904e-14 0.416874 81.9833 7.48676e-05 
2.27023 -3.38204e-13 1.44794e-13 0.480439 81.5259 -0.000335863 2.05105 -1.50904e-13 3.09683e-14 
0.53882 82.5934 0.000563464 2.551 -1.9919e-13 -2.85397e-14 0.657839 82.1441 -0.000303954 
2.34358 -3.5216e-13 2.498e-16 0.6465 83.228 0.00112159 2.81863 5.06713e-14 -1.61468e-14 
0.838763 82.7694 -0.000216635 2.62288 -3.10973e-13 -6.13953e-14 0.723553 83.9107 0.00178957 
3.08213 1.30659e-13 1.75429e-13 1.01099 83.4261 -2.13223e-05 2.90183 2.00638e-14 2.44312e-13 
0.747687 84.6685 0.00261241 3.34579 -2.51209e-13 9.64506e-16 1.15833 84.1418 0.000362893 
3.19007 -5.96155e-14 -1.60094e-13 0.687508 85.5333 0.00363141 3.6072 1.84394e-13 -4.15223e-14 
1.25778 84.9494 0.0010621 3.49328 -1.09766e-13 6.0299e-14 0.498214 86.5423 0.00486321 
3.85319 2.60306e-13 -7.21159e-14 1.27558 85.8892 0.00227497 3.81084 2.02866e-13 -1.74284e-13 
0.115943 87.7373 0.0062244 4.05209 2.68605e-13 -1.24928e-13 1.1614 87.0108 0.00430914 
4.13075 4.66432e-14 5.89806e-14 -0.548603 89.1586 0.00746524 4.14022 8.64031e-14 4.93078e-14 
0.840638 88.374 0.0076444 4.41975 5.19029e-15 -1.12965e-13 -1.61604 90.8284 0.00743281 
3.99903 -1.47549e-13 -1.71183e-14 0.204306 90.0434 0.0129342 4.60488 8.00471e-14 -1.85893e-14 
-3.23271 92.7109 0.00560459 3.4198 1.40082e-13 1.48718e-13 -0.897152 92.0693 0.0212133 
4.54049 -2.89824e-13 1.45904e-13 -2.66513 94.4289 0.0329596 3.95678 -8.72635e-14 5.3773e-14 
0.0232849 78.8064 -0.0115152 0.612652 -1.15564e-13 -2.21267e-13 0.02331 78.0471 -0.0217162 
0.300297 2.09537e-13 2.11761e-13 0.137508 79.6434 -0.00259169 1.085 -1.72657e-13 5.52336e-15 
0.103879 79.0067 -0.00188584 0.799504 -1.8853e-13 -9.70612e-14 0.295532 80.382 -0.00149525 
1.46997 8.46545e-16 8.505e-14 0.259534 79.8311 -0.000707267 1.19967 1.32699e-13 8.88387e-14 
0.490858 81.0563 -0.000909331 1.79759 1.24255e-13 1.28009e-13 0.468287 80.5614 -0.000745475 
1.5342 1.87291e-13 8.17957e-14 0.714244 81.693 -0.000387664 2.09075 -9.65036e-14 -3.97113e-14 
0.71909 81.2298 -0.000887566 1.82796 4.03661e-13 4.56857e-14 0.95739 82.3169 0.000133796 
2.36767 -1.06813e-13 -9.98715e-14 1.00396 81.8638 -0.00107748 2.10066 1.04893e-13 7.93532e-14 
1.21183 82.9527 0.000706187 2.64339 2.13198e-13 -3.41394e-15 1.31654 82.4895 -0.00128874 
2.36879 3.13503e-13 -2.45685e-13 1.46731 83.6271 0.00138845 2.9308 -6.72379e-14 1.60684e-13 
1.65073 83.1335 -0.00149366 2.64707 -8.67813e-14 6.41154e-14 1.70956 84.3712 0.00225558 
3.24077 4.79478e-14 9.70751e-15 1.9989 83.8253 -0.00164642 2.94923 -8.3003e-14 3.04895e-14 
1.91706 85.223 0.00340334 3.58144 -3.00315e-14 8.95881e-14 2.34956 84.6003 -0.00166739 
3.28838 -8.62851e-14 9.96841e-14 2.05614 86.2308 0.00495014 3.95579 1.16684e-13 -7.25531e-14 
2.68369 85.504 -0.00141398 3.67623 -5.65908e-13 -3.95517e-14 2.07346 87.4568 0.00699954 
4.35617 -3.88106e-13 -1.5897e-13 2.96899 86.5968 -0.000635077 4.12068 1.01252e-13 -1.73153e-13 
1.88499 88.9796 0.00964924 4.75281 3.32026e-13 1.19682e-13 3.15063 87.9607 0.00113524 
4.61949 6.75016e-14 8.69582e-14 1.35921 90.8904 0.0121271 5.07088 1.14742e-13 -3.94129e-14 
3.13604 89.7063 0.00459413 5.146 8.47655e-14 1.43247e-13 0.303933 93.2755 0.0158245 
5.14687 -1.46244e-13 5.50948e-15 2.77697 91.9757 0.0116104 5.61839 -4.77396e-15 -1.43996e-13 
1.81929 94.9168 0.0219177 5.83573 4.32432e-14 7.41074e-15 0.0327976 78.3089 -0.0139422 
0.521762 -2.30978e-13 -2.25139e-13 0.028801 77.5316 -0.024724 0.245296 -2.82101e-14 -1.05534e-13 
0.186046 79.2448 -0.00341861 0.926507 4.40755e-13 -1.50394e-13 0.131967 78.5991 -0.00226065 
0.655303 -2.05624e-13 -1.06269e-13 0.400523 80.049 -0.00208952 1.25902 -1.46468e-13 9.5382e-14 
0.330063 79.496 -0.000965202 0.986549 1.12649e-13 -1.47098e-13 0.669429 80.7643 -0.00141161 
1.54491 8.29788e-14 2.98879e-13 0.597631 80.273 -0.00110206 1.26562 1.97809e-13 1.82285e-13 
0.984665 81.4226 -0.000854312 1.80413 -2.29871e-13 2.70478e-14 0.923739 80.9678 -0.00139894 
1.51253 -1.84982e-14 5.34919e-14 1.34118 82.0518 -0.000339897 2.05326 1.65223e-13 -1.19349e-15 
1.30267 81.6114 -0.00180854 1.74361 -3.50926e-14 2.00576e-13 1.736 82.6786 0.000190201 
2.30711 -5.61183e-15 -1.68365e-13 1.73254 82.2316 -0.00232481 1.97326 6.6269e-14 -2.78527e-13 
2.16703 83.3307 0.000801094 2.57992 -9.43343e-15 1.06679e-13 2.21423 82.8555 -0.00295564 
2.21533 -6.74044e-14 2.14467e-13 2.63151 84.0399 0.00157847 2.88627 1.80848e-13 3.57492e-14 
2.75042 83.512 -0.00371003 2.48429 -2.38178e-14 9.29812e-14 3.12384 84.8458 0.00264378 
3.24149 -6.41848e-14 6.92918e-14 3.34433 84.2357 -0.00459211 2.79624 1.94983e-15 6.80428e-14 
3.63192 85.8008 0.00417641 3.66133 -1.64861e-13 -1.30562e-13 3.99788 85.0714 -0.00558597 
3.16962 1.67831e-13 -9.72278e-14 4.131 86.977 0.0064313 4.15985 4.50515e-13 -1.69309e-14 
4.70831 86.0807 -0.00663106 3.62535 -5.27078e-14 1.98869e-13 4.57301 88.4767 0.00981977 
4.74329 -1.08316e-13 -7.94087e-14 5.46192 87.353 -0.00752747 4.18523 8.57786e-14 -2.93737e-13 
4.86682 90.4444 0.0142745 5.39441 -1.74111e-13 -7.74381e-14 6.22161 89.022 -0.00800916 
4.86539 -1.0715e-13 2.41751e-14 4.85443 93.0809 0.0230955 6.03552 1.1513e-13 9.25926e-14 
6.90863 91.2912 -0.00626703 5.65773 -2.43111e-13 6.97775e-14 7.33613 94.4568 -0.00471897 
6.47567 -1.6448e-13 8.44325e-14 0.0403731 77.9003 -0.0158712 0.406347 -4.10168e-13 -2.40447e-13 
0.0328143 77.1298 -0.0269552 0.178809 2.33383e-13 -6.59611e-14 0.224656 78.9148 -0.00407741 
0.72515 -9.19403e-15 7.92699e-14 0.152425 78.278 -0.00253782 0.481231 -2.35126e-13 3.07809e-14 
0.484133 79.7712 -0.00256976 0.989143 2.08736e-13 -3.13152e-14 0.381475 79.2301 -0.00115915 
0.728503 1.54304e-13 8.13238e-14 0.812043 80.5189 -0.00182947 1.21709 -8.84709e-17 8.97962e-14 
0.692122 80.0431 -0.0013743 0.93781 -5.09937e-13 -5.33462e-14 1.20164 81.1935 -0.00126001 
1.42389 -2.97264e-14 -1.67227e-14 1.07378 80.7588 -0.00179439 1.12227 1.01234e-13 7.01869e-14 
1.65116 81.825 -0.000775728 1.62236 -2.49571e-13 -1.9415e-14 1.5228 81.4104 -0.00238121 
1.29285 1.17216e-13 -1.08052e-13 2.16309 82.4405 -0.000317453 1.82453 -1.2515e-13 -1.94608e-13 
2.0412 82.0262 -0.00314865 1.45959 -1.36186e-13 -4.68653e-14 2.74364 83.0674 0.00017567 
2.04285 -2.35763e-13 3.44724e-14 2.63603 82.6329 -0.00413951 1.63265 3.22815e-14 -1.59872e-13 
3.40225 83.7361 0.00078228 2.29122 6.72552e-14 4.54636e-14 3.31923 83.2578 -0.00541913 
1.82325 -2.20615e-13 1.20598e-14 4.15115 84.4841 0.00161851 2.58609 8.55011e-14 -5.42899e-14 
4.10784 83.9328 -0.00708309 2.04477 2.98123e-13 3.57214e-14 5.00448 85.362 0.00287011 
2.94746 3.29542e-13 2.04975e-14 5.02445 84.6985 -0.00926487 2.31392 -1.20348e-13 7.6758e-14 
5.97622 86.4418 0.00485572 3.39958 -2.6977e-13 1.05083e-13 6.09753 85.6118 -0.0121539 
2.65209 -1.14075e-13 7.64527e-14 7.07556 87.8324 0.00814679 3.97004 4.88498e-14 -2.77334e-13 
7.36118 86.758 -0.0159618 3.08663 5.02237e-14 -6.48925e-14 8.29549 89.7036 0.0134555 
4.68401 -1.16296e-14 1.68199e-14 8.85193 88.2713 -0.0211528 3.65043 9.28008e-14 -3.41671e-14 
9.59597 92.3308 0.0249007 5.54389 3.56937e-14 1.47882e-13 10.6027 90.3769 -0.0269444 
4.3763 -3.57908e-13 1.77636e-14 12.5951 93.456 -0.0387032 5.26615 6.66411e-14 4.996e-14 
0.0452149 77.5985 -0.0171489 0.273078 -1.84831e-13 -6.6544e-14 0.0349596 76.8594 -0.0282624 
0.104938 3.06607e-13 1.69594e-13 0.249479 78.6682 -0.00450524 0.492552 -2.94122e-14 -1.19349e-14 
0.163163 78.0572 -0.0026918 0.287946 5.62848e-14 4.63241e-14 0.537977 79.5627 -0.00288486 
0.676148 -3.16251e-13 2.23432e-15 0.408509 79.0452 -0.00126397 0.441468 1.12934e-13 -1.72126e-13 
0.904147 80.3354 -0.00211018 0.833902 -2.25726e-13 1.66867e-13 0.74196 79.8842 -0.00152227 
0.571582 -9.12248e-14 1.80397e-13 1.34234 81.0243 -0.00154116 0.973986 9.78566e-14 8.73052e-14 
1.15324 80.6175 -0.00201075 0.683089 2.09043e-14 2.66315e-14 1.85323 81.6602 -0.00108841 
1.10364 -3.00946e-13 -1.96371e-14 1.63994 81.2792 -0.00269663 0.780207 -4.01049e-13 2.34673e-14 
2.44335 82.2702 -0.000695216 1.22996 3.53212e-13 -8.32667e-15 2.20638 81.8981 -0.00360611 
0.866987 -7.00341e-14 -1.633e-13 3.12513 82.8809 -0.000308534 1.36054 1.74523e-13 2.0535e-13 
2.86325 82.4999 -0.00480368 0.947675 -4.02204e-14 3.46431e-13 3.91734 83.5207 0.000136644 
1.50423 1.63227e-13 -6.26443e-14 3.62799 83.1108 -0.0063905 1.02708 9.38659e-14 6.55309e-14 
4.84635 84.2241 0.000736726 1.67195 7.7216e-14 6.08819e-14 4.52604 83.7603 -0.00852206 
1.11099 3.55911e-13 -6.53505e-14 5.94791 85.0377 0.00165256 1.87776 1.66499e-14 -2.01644e-14 
5.59287 84.4858 -0.0114331 1.20674 -1.78123e-13 4.27436e-15 7.26976 86.0287 0.00319496 
2.14011 5.62744e-14 -1.2082e-13 6.87718 85.3393 -0.0154909 1.32392 -3.31041e-13 -1.56875e-13 
8.87467 87.3019 0.00595226 2.48306 5.58165e-14 -2.29816e-13 8.44536 86.3994 -0.0212179 
1.47531 -2.9848e-13 -5.08482e-14 10.8426 89.0308 0.0112087 2.93621 -5.37487e-14 -7.99916e-14 
10.3868 87.7939 -0.0296503 1.67769 -1.09759e-13 3.84692e-14 13.2722 91.5204 0.0227939 
3.52845 -2.92433e-13 1.85574e-13 12.8209 89.7462 -0.0410709 1.95156 1.57513e-13 4.22995e-14 
15.8781 92.6664 -0.0629605 2.31218 4.29379e-14 1.03806e-13 0.0467873 77.4154 -0.017674 
0.130448 6.10172e-14 -1.11619e-13 0.0350258 76.7295 -0.028568 0.0285626 1.81858e-13 -1.87503e-13 
0.257927 78.5146 -0.00466017 0.24352 -4.8473e-13 -8.53762e-14 0.163047 77.9436 -0.00270878 
0.0880996 3.45874e-13 -1.97162e-13 0.55643 79.4326 -0.00300004 0.340345 4.99835e-13 -2.78153e-13 
0.408312 78.948 -0.00126569 0.144434 3.02206e-14 6.97359e-14 0.935942 80.2241 -0.00221676 
0.42122 -2.09807e-13 2.10484e-13 0.741825 79.803 -0.00152344 0.191947 1.07616e-13 5.701e-14 
1.39129 80.9275 -0.00165139 0.486651 -2.85154e-14 -2.35229e-14 1.15339 80.5518 -0.00201194 
0.226635 4.47914e-14 2.31301e-13 1.92407 81.574 -0.00121333 0.537319 -5.15017e-13 -4.69486e-14 
1.64069 81.2284 -0.00269764 0.245477 3.19933e-13 -2.27887e-13 2.54236 82.1906 -0.000847287 
0.574052 1.85395e-13 -4.90719e-14 2.2081 81.8612 -0.00360678 0.245938 3.34973e-13 8.95256e-14 
3.2609 82.803 -0.000503983 0.59779 -2.47853e-13 2.67453e-13 2.86632 82.476 -0.00480401 
0.225544 -3.73833e-16 4.53526e-14 4.10199 83.4391 -0.000125081 0.609553 -5.45739e-13 -2.68535e-14 
3.63286 83.099 -0.00639074 0.181453 -2.89045e-13 1.93318e-14 5.09737 84.1319 0.0003754 
0.61042 -6.76267e-14 3.88856e-14 4.53315 83.7594 -0.00852283 0.109974 -8.44559e-14 1.01572e-13 
6.29123 84.926 0.00114302 0.601502 1.23816e-13 -2.57294e-14 5.60272 84.4947 -0.0114357 
0.00596716 -3.00194e-13 2.90878e-14 7.74477 85.8859 0.00247368 0.583928 -8.25295e-14 -8.96505e-14 
6.89031 85.3569 -0.0154975 -0.137926 -3.86937e-13 3.73035e-14 9.54284 87.1134 0.00493884 
0.558842 9.46855e-15 -1.42691e-13 8.46243 86.4245 -0.0212329 -0.332225 4.7691e-14 -8.58758e-14 
11.8028 88.7799 0.0100267 0.527396 -2.05568e-13 4.35207e-14 10.4088 87.8254 -0.0296815 
-0.591441 -6.78867e-14 4.16889e-14 14.6858 91.196 0.0212379 0.490757 4.82778e-14 5.973e-14 
12.8491 89.7828 -0.0411323 -0.933793 1.39652e-13 2.1716e-13 15.9148 92.7069 -0.0630961 
-1.37239 9.38e-14 -3.66152e-13 0.0449016 77.355 -0.0174122 -0.0120666 2.34121e-14 -3.42781e-14 
0.0330147 76.7399 -0.0278747 -0.0451656 1.51556e-13 3.53675e-14 0.249098 78.4575 -0.0045277 
-0.00542143 2.25394e-13 -2.42167e-13 0.152084 77.9375 -0.00258897 -0.104963 3.4296e-13 -1.59775e-13 
0.537528 79.3844 -0.00290316 0.00449464 -1.2953e-13 -2.08694e-13 0.380907 78.9386 -0.00116432 
-0.142547 3.71504e-13 -4.8489e-14 0.904001 80.1887 -0.00213606 0.00825504 -1.79794e-13 3.26891e-13 
0.691759 79.7997 -0.00137777 -0.174605 1.04598e-13 1.85046e-13 1.34305 80.908 -0.00157387 
-0.00127746 1.83747e-13 -6.27276e-15 1.07433 80.562 -0.00179784 -0.213416 7.35939e-14 -4.47281e-14 
1.85546 81.5727 -0.00112649 -0.0299644 -6.6812e-14 -7.78683e-14 1.52517 81.2581 -0.00238398 
-0.268714 -6.65412e-13 1.1785e-13 2.44789 82.2099 -0.000737281 -0.0832192 1.46425e-13 -7.11653e-14 
2.04649 81.9159 -0.0031502 -0.348988 3.16837e-13 -1.2973e-13 3.13281 82.8456 -0.00035339 
-0.166757 1.0014e-13 1.86046e-13 2.64543 82.5618 -0.00413973 -0.462586 4.96499e-13 2.51188e-13 
3.92904 83.5083 8.99171e-05 -0.287373 1.69323e-13 -1.71002e-13 3.33401 83.2228 -0.00541854 
-0.618761 4.79353e-13 -1.65451e-13 4.863 84.2326 0.000688677 -0.453845 9.52276e-14 2.14551e-14 
4.12934 83.9306 -0.00708321 -0.828779 -3.43198e-13 -2.35922e-14 5.9705 85.0647 0.00160322 
-0.678029 6.24677e-13 1.06443e-13 5.05405 84.7258 -0.0092688 -1.10719 -1.38778e-16 1.98563e-13 
7.29943 86.072 0.00314386 -0.976172 7.91069e-14 -9.37861e-14 6.13676 85.6653 -0.0121673 
-1.47323 1.31381e-13 -1.9755e-13 8.91287 87.3593 0.00589753 -1.37017 -3.11973e-14 -1.43302e-13 
7.41181 86.8342 -0.0159949 -1.95213 -9.38694e-14 -1.32699e-13 10.8914 89.1001 0.0111525 
-1.88751 -3.68594e-13 1.04639e-13 8.91625 88.3671 -0.0212235 -2.57481 -1.4741e-13 2.93654e-14 
13.3346 91.5995 0.0227243 -2.55518 8.00748e-14 2.33702e-14 10.6839 90.489 -0.0270844 
-3.37238 1.19557e-13 5.64271e-14 12.6984 93.5817 -0.0389962 -4.34554 -3.28071e-14 -1.07803e-13 
0.0397482 77.4131 -0.016401 -0.144992 -1.42794e-14 -1.43802e-13 0.029141 76.8814 -0.0262658 
-0.111373 -5.23106e-14 -3.45744e-13 0.223919 78.4936 -0.00412325 -0.237759 -1.32698e-13 -2.81442e-14 
0.131423 78.0316 -0.0023466 -0.27861 1.92834e-13 -1.26704e-14 0.483296 79.4151 -0.00260721 
-0.308668 2.685e-13 -6.99163e-14 0.329191 79.0107 -0.000973935 -0.400522 -2.26577e-13 -2.52576e-15 
0.811865 80.2261 -0.00188206 -0.37581 6.14339e-14 9.34114e-14 0.597178 79.8682 -0.00110776 
-0.503112 -6.93259e-14 2.07265e-14 1.20324 80.9616 -0.00132614 -0.453 -1.94256e-13 -1.56375e-13 
0.9249 80.6408 -0.00140432 -0.605484 -2.00627e-13 -4.32987e-15 1.65589 81.6509 -0.000852385 
-0.551591 -4.9956e-13 -6.80012e-15 1.307 81.3588 -0.00181235 -0.722649 -3.36259e-14 -1.48853e-13 
2.1725 82.3206 -0.000401756 -0.681908 1.47334e-13 -5.37487e-14 1.74185 82.0492 -0.00232597 
-0.867368 1.30292e-13 7.17482e-15 2.75937 82.9977 8.6297e-05 -0.854462 -1.02843e-13 3.38188e-13 
2.2305 82.7384 -0.00295362 -1.05163 -1.06151e-13 4.6893e-14 3.42603 83.7124 0.000689977 
-1.08109 -2.87138e-13 -2.95056e-13 2.77572 83.4551 -0.00370516 -1.28788 -1.14946e-13 -1.90681e-14 
4.18474 84.5021 0.00152489 -1.3761 1.78479e-13 -3.93435e-14 3.38077 84.2336 -0.00458593 
-1.5901 1.06512e-15 -6.99163e-14 5.04971 85.4172 0.00277618 -1.75735 9.98507e-15 1.04944e-13 
4.04761 85.1186 -0.00558182 -1.97458 2.95014e-13 1.19613e-13 6.03508 86.5299 0.00476219 
-2.24699 -3.33365e-13 -5.38875e-14 4.77351 86.1718 -0.00663495 -2.46019 4.30142e-14 1.00531e-13 
7.15039 87.9491 0.008054 -2.87071 -1.35766e-13 -2.17687e-13 5.54495 87.4828 -0.00754978 
-3.06679 -2.69229e-15 -1.38334e-13 8.3893 89.845 0.0133701 -3.65201 1.7332e-13 2.28817e-13 
6.32517 89.1853 -0.00806627 -3.80888 -3.77198e-14 -3.39173e-14 9.71298 92.4937 0.0248262 
-4.59216 -3.74784e-13 6.38656e-14 7.03607 91.4839 -0.00638648 -4.67718 -2.1716e-13 3.46945e-13 
7.49179 94.6761 -0.00494078 -5.58477 2.5091e-14 -1.95066e-13 0.0318653 77.578 -0.0147446 
-0.259856 3.62941e-13 1.53155e-13 0.0237994 77.1362 -0.0238947 -0.165969 -3.548e-13 2.52492e-13 
0.185002 78.6135 -0.00348978 -0.438732 2.21099e-14 -6.0188e-14 0.103174 78.2125 -0.00200767 
-0.422228 -1.2953e-13 -7.29902e-14 0.399427 79.5158 -0.00214791 -0.578903 1.09247e-13 5.85504e-14 
0.258479 79.1526 -0.000719768 -0.613629 1.12153e-13 -3.79557e-14 0.669462 80.3265 -0.00149264 
-0.705199 9.54887e-14 -8.19483e-15 0.467992 79.9963 -0.000753329 -0.772887 2.13277e-14 1.30895e-13 
0.987532 81.0765 -0.000955393 -0.836386 2.07331e-13 -1.47528e-13 0.721283 80.7742 -0.000894437 
-0.923811 -4.13176e-13 -1.3118e-13 1.34895 81.7926 -0.000456311 -0.987479 5.21732e-13 -6.31439e-15 
1.01086 81.5127 -0.00108138 -1.08465 -1.61281e-13 -9.46743e-14 1.75098 82.5008 6.30417e-05 
-1.17147 -4.71515e-14 -1.04958e-13 1.33071 82.2369 -0.00128777 -1.27016 2.96917e-13 -5.69891e-14 
2.19166 83.2283 0.000667417 -1.4006 1.68122e-13 4.04871e-13 1.67492 82.9725 -0.00148657 
-1.49307 -1.8447e-14 1.92873e-13 2.66827 84.0066 0.00144204 -1.68733 -7.72646e-15 -1.10634e-13 
2.03592 83.7486 -0.00163275 -1.765 -5.27252e-14 -9.15379e-14 3.17519 84.875 0.00250791 
-2.04482 -2.9754e-14 -5.77316e-14 2.4022 84.6005 -0.00164777 -2.09688 2.37449e-14 6.36158e-14 
3.70029 85.886 0.0040442 -2.48672 -2.95527e-14 1.26232e-13 2.75466 85.5734 -0.00139043 
-2.49828 8.04426e-14 -9.14963e-14 4.2188 87.1119 0.00630629 -3.0251 -3.92561e-13 -3.13638e-15 
3.06082 86.728 -0.000611232 -2.97503 1.08191e-13 2.28831e-13 4.68276 88.6555 0.00970773 
-3.66446 4.64961e-13 -3.98598e-13 3.26573 88.1467 0.00115373 -3.52307 1.24054e-13 -1.91139e-13 
5.0012 90.6619 0.0141878 -4.38618 -2.87104e-13 1.33282e-13 3.27663 89.9407 0.00460128 
-4.1142 1.77774e-13 -9.72139e-14 5.01645 93.3333 0.0230642 -5.11183 -1.82521e-13 -6.65579e-14 
2.94504 92.2536 0.0115958 -4.66552 1.22208e-13 -5.04596e-14 2.01624 95.2355 0.0219171 
-4.97556 3.34732e-14 4.06897e-14 0.0220533 77.8315 -0.0126 -0.350023 2.26336e-13 3.85525e-13 
0.0175053 77.4799 -0.0209664 -0.206033 -2.69298e-13 4.34444e-13 0.136241 78.8026 -0.00269123 
-0.596793 -1.33771e-13 -1.46085e-13 0.070089 78.4618 -0.00160591 -0.52821 3.05558e-13 -2.03081e-13 
0.29439 79.6729 -0.00157742 -0.790529 4.4085e-13 -2.30163e-14 0.175693 79.3485 -0.000433242 
-0.770595 -3.87078e-13 -7.01522e-14 0.491502 80.4752 -0.00102156 -0.960312 -2.44028e-14 2.34535e-14 
0.31705 80.1683 -0.000363285 -0.969536 -2.3723e-13 -3.76296e-14 0.71902 81.2347 -0.000526229 
-1.12769 2.82101e-14 -1.8778e-13 0.484306 80.9441 -0.000343882 -1.15111 -2.76894e-13 -1.38362e-14 
0.969105 81.9748 -2.44745e-05 -1.30915 -1.18704e-13 7.78683e-14 0.668268 81.6972 -0.000306995 
-1.33458 -2.58613e-14 5.4623e-14 1.23358 82.7194 0.000534712 -1.51781 -7.66054e-14 9.9365e-15 
0.85909 82.4494 -0.000211823 -1.53435 -1.00522e-13 3.36745e-14 1.50229 83.4945 0.00120989 
-1.76438 -1.61905e-13 2.22933e-13 1.04475 83.2241 -6.33402e-06 -1.76113 -1.61832e-13 1.3916e-13 
1.76096 84.3307 0.00207561 -2.05753 2.72324e-13 -1.11508e-13 1.20906 84.0483 0.000389671 
-2.02231 1.62079e-13 -2.13773e-13 1.98792 85.2659 0.00322734 -2.40318 -4.69486e-14 5.4623e-14 
1.3289 84.9546 0.00110152 -2.32129 5.78496e-14 1.19578e-13 2.14925 86.3485 0.00478365 
-2.80215 3.73312e-15 1.37793e-13 1.37017 85.9833 0.00232718 -2.6552 4.0086e-13 -4.30211e-15 
2.19133 87.6412 0.00684912 -3.24479 -1.76234e-13 5.72598e-14 1.28216 87.1845 0.00437401 
-3.00991 1.61399e-14 1.15505e-13 2.02974 89.2231 0.00952516 -3.6996 -2.95874e-13 -5.0418e-13 
0.9897 88.6185 0.0077221 -3.35024 1.15186e-15 -2.29525e-13 1.53241 91.1868 0.0120446 
-4.0903 -1.3009e-13 -2.7478e-14 0.383054 90.3509 0.0130298 -3.60154 -1.58318e-13 -6.95416e-14 
0.506296 93.6204 0.0158205 -4.25234 6.98885e-14 1.42136e-13 -0.688456 92.4338 0.0213289 
-3.61669 -1.82215e-13 2.4921e-13 -2.42794 94.847 0.0331831 -3.12448 8.89844e-14 -7.79932e-14 
0.0112532 78.1509 -0.010155 -0.411252 -3.19383e-13 1.72903e-13 0.010823 77.8841 -0.017714 
-0.230019 -1.22978e-13 5.65936e-14 0.0822323 79.0425 -0.00180239 -0.704578 -1.73301e-13 -2.187e-13 
0.0351662 78.7579 -0.00117775 -0.592493 -7.86888e-14 -9.80743e-14 0.17816 79.8696 -0.000955105 
-0.933765 1.48229e-13 -3.88439e-14 0.0883641 79.58 -0.000146327 -0.865529 2.87669e-13 -2.43625e-14 
0.295215 80.6546 -0.000527206 -1.12945 3.0797e-13 1.68122e-13 0.158271 80.3663 1.45689e-05 
-1.08597 1.31404e-13 -3.40006e-15 0.424494 81.4157 -0.000104956 -1.31371 2.65025e-13 -2.63997e-13 
0.23632 81.1308 0.000175285 -1.27976 -5.60489e-14 -3.17801e-15 0.555829 82.1717 0.000360001 
-1.5024 -2.97894e-13 -1.97273e-14 0.312587 81.8887 0.000403951 -1.46511 -2.31003e-13 -5.96259e-14 
0.676808 82.9425 0.000903075 -1.70654 1.69913e-13 -2.54241e-14 0.374789 82.657 0.000745892 
-1.65416 -1.09626e-13 -2.11178e-13 0.771148 83.751 0.00156413 -1.93279 1.74281e-13 3.03021e-14 
0.406989 83.4546 0.00126178 -1.85369 3.72619e-15 1.81667e-13 0.816424 84.6238 0.00238771 
-2.18306 2.75571e-13 -3.28626e-14 0.387843 84.3037 0.00203968 -2.06489 3.19036e-13 -1.8209e-13 
0.780931 85.5926 0.00341476 -2.45258 -2.43208e-13 1.11862e-13 0.288253 85.2303 0.00320605 
-2.28177 -1.45516e-13 1.30132e-13 0.619385 86.695 0.00466211 -2.7259 -1.33782e-14 -1.70489e-14 
0.0683509 86.2637 0.00493934 -2.48781 -1.25906e-13 -5.67324e-14 0.267278 87.9731 0.00604712 
-2.96923 -5.88973e-14 -1.62093e-14 -0.326063 87.4353 0.00748156 -2.6497 2.6637e-13 -8.00748e-15 
-0.365541 89.4684 0.00732301 -3.11697 -9.50628e-14 -3.36328e-13 -0.966858 88.7728 0.0111306 
-2.70683 5.28744e-14 -8.0165e-14 -1.40085 91.2044 0.00733834 -3.04879 2.2754e-13 -5.64063e-14 
-1.94477 90.2858 0.0162252 -2.55467 -1.74735e-13 -2.61957e-13 -2.98668 93.1472 0.00557787 
-2.55427 5.01571e-13 1.80246e-13 -3.36182 91.9332 0.0228013 -2.02031 -2.88658e-15 1.68259e-13 
-5.30847 93.5563 0.0311432 -0.837399 -1.17295e-13 1.62051e-13 0.000416547 78.5106 -0.00760961 
-0.441918 5.76206e-14 8.64447e-14 0.0042936 78.3187 -0.0143744 -0.237778 6.48689e-13 2.30056e-13 
0.0276472 79.3131 -0.000902353 -0.759287 3.73739e-13 2.02963e-14 0.00126325 79.0781 -0.000759155 
-0.614623 2.47115e-13 -8.45435e-14 0.0608542 80.088 -0.000340872 -1.0052 -4.18797e-14 -9.91221e-14 
0.00366812 79.8283 0.000113592 -0.897988 3.47229e-13 -3.82402e-14 0.0979448 80.8464 -6.38755e-05 
-1.20927 1.74254e-13 2.42244e-13 0.00482679 80.5725 0.000341067 -1.12237 -1.2664e-13 -1.42553e-13 
0.130587 81.599 0.00025326 -1.39213 3.5243e-13 -1.73923e-13 -0.00177198 81.3158 0.000607549 
-1.31148 1.04552e-14 3.46972e-13 0.147635 82.3585 0.000636445 -1.56731 7.85535e-14 8.60423e-16 
-0.025558 82.0662 0.000973966 -1.48089 1.60569e-13 -2.06168e-13 0.134484 83.1395 0.0010993 
-1.74221 1.30833e-13 -7.26016e-14 -0.0794163 82.8345 0.00148033 -1.63925 2.64892e-13 -5.19029e-14 
0.0718056 83.9594 0.00165415 -1.91822 1.03043e-13 2.77708e-13 -0.18047 83.6335 0.00218029 
-1.78859 1.01832e-13 3.26544e-14 -0.0661528 84.8377 0.00230419 -2.08956 -1.96329e-13 -6.26582e-14 
-0.351174 84.4782 0.00314618 -1.92361 -3.70329e-13 -1.45689e-13 -0.313705 85.796 0.0030247 
-2.24081 6.01519e-13 1.50206e-13 -0.620628 85.3847 0.00447088 -2.02979 1.27939e-13 3.06977e-13 
-0.716091 86.8554 0.00372777 -2.34218 -1.53696e-13 -4.85445e-14 -1.02582 86.3677 0.00626495 
-2.07974 -3.19605e-13 -3.15657e-13 -1.33147 88.0319 0.00417764 -2.34193 2.65149e-13 1.40214e-13 
-1.6122 87.4361 0.00864345 -2.02751 -1.49436e-13 3.41241e-13 -2.23089 89.3244 0.00387663 
-2.1547 1.46355e-13 -4.07138e-13 -2.43211 88.5831 0.0116679 -1.80026 9.36473e-14 -2.03242e-13 
-3.49252 90.6908 0.00174951 -1.64552 -5.11813e-14 -8.56073e-14 -3.53825 89.7676 0.0153276 
-1.28772 2.0571e-13 -2.55374e-13 -5.18266 92.002 -0.00407671 -0.612225 -9.49241e-14 1.33199e-13 
-4.96821 90.88 0.0189337 -0.331736 7.66998e-13 8.91578e-14 -6.70515 91.6847 0.0223327 
1.27138 9.32587e-15 -7.16788e-14 -0.00961415 78.885 -0.00513334 -0.442887 2.40738e-13 -1.09406e-13 
-0.0233083 79.5945 -4.63142e-05 -0.76247 -2.62358e-13 -7.13388e-14 -0.0484704 80.3107 0.000224838 
-1.0074 3.03109e-13 5.11119e-14 -0.0849411 81.0341 0.000334561 -1.20416 -1.67668e-13 4.27505e-14 
-0.139504 81.7671 0.000518529 -1.37033 -5.28704e-13 -1.69656e-14 -0.222749 82.5156 0.000779143 
-1.51601 -2.08385e-13 7.26502e-14 -0.34923 83.2877 0.0011059 -1.64444 -9.49935e-14 -1.5906e-13 
-0.53807 84.0935 0.00148114 -1.75168 -2.0042e-13 2.63817e-14 -0.813744 84.9437 0.00186705 
-1.82532 9.3793e-14 -5.80959e-14 -1.20674 85.847 0.00218252 -1.84193 -2.62276e-13 1.34316e-13 
-1.75359 86.8068 0.00226601 -1.763 5.27668e-13 1.33355e-13 -2.49525 87.8127 0.00180573 
-1.52918 -6.25777e-13 1.91598e-13 -3.47175 88.8269 0.000263304 -1.05322 1.28314e-13 -2.71723e-13 
-4.70956 89.7603 -0.003198 -0.213496 6.79318e-14 -7.28584e-14 -6.19969 90.4337 -0.0106081 
1.14617 -1.84575e-13 1.38223e-14 -0.0190836 79.4102 0.00013145 -0.404427 8.16118e-14 -1.34285e-13 
-0.0821784 79.9874 0.00282319 -0.69344 -1.39299e-13 -1.65404e-13 -0.176821 80.614 0.00280937 
-0.910616 -1.45545e-13 6.73038e-14 -0.298837 81.276 0.00312105 -1.07529 1.04678e-13 3.25739e-13 
-0.451405 81.9643 0.00384974 -1.19889 2.7054e-13 3.77563e-14 -0.64199 82.6745 0.00494663 
-1.28581 -2.79124e-13 -7.49522e-14 -0.881747 83.4042 0.00636634 -1.3335 2.9226e-13 -1.17096e-13 
-1.18511 84.152 0.0080402 -1.33207 1.7554e-13 1.41071e-13 -1.56918 84.9145 0.009837 
-1.26326 -8.64222e-14 -1.47696e-13 -2.05253 85.6825 0.0115001 -1.09881 2.99386e-13 1.29954e-13 
-2.6528 86.436 0.0125557 -0.798541 1.01251e-13 -2.03157e-13 -3.38215 87.135 0.0121868 
-0.308673 -6.32445e-14 2.95289e-13 -4.23925 87.7082 0.0091234 0.438136 -1.76838e-14 -2.83789e-13 
-5.19657 88.0359 0.00147395 1.51811 1.14218e-13 -1.57619e-13 -6.18138 87.9326 -0.012579 
3.00152 -5.86441e-14 2.00156e-13 -0.023821 79.7141 0.00251432 -0.349999 -1.06645e-13 -3.96721e-13 
-0.110638 80.2135 0.00389227 -0.601423 -2.0397e-13 -4.17114e-14 -0.238332 80.7823 0.00349387 
-0.787435 -5.76882e-15 1.0089e-13 -0.400027 81.3987 0.00350111 -0.921608 2.08296e-13 -1.22914e-13 
-0.596021 82.0471 0.00392237 -1.01089 -1.21225e-13 1.57088e-13 -0.83079 82.7165 0.00466072 
-1.05601 -1.31733e-13 2.74893e-14 -1.112 83.3981 0.0056151 -1.05145 1.15871e-14 1.94006e-13 
-1.44952 84.0834 0.00665021 -0.985156 -2.32123e-14 -4.75887e-14 -1.85416 84.7608 0.00756128 
-0.837928 1.84367e-13 -1.00257e-13 -2.33568 85.412 0.00802484 -0.582736 -2.71016e-13 -8.31366e-14 
-2.89969 86.0068 0.00754184 -0.184312 -2.01079e-13 7.69915e-14 -3.5427 86.4959 0.00538135 
0.400161 9.72174e-14 -9.60438e-14 -4.24483 86.8026 0.000587935 1.21779 2.18036e-13 -6.21551e-14 
-4.96003 86.8126 -0.00792623 2.31186 9.83831e-14 3.79335e-13 -5.60447 86.3677 -0.0208663 
3.70533 1.97412e-14 -2.6959e-13 -0.0269321 79.9697 0.00423772 -0.282352 3.17957e-13 -1.7836e-13 
-0.129881 80.4028 0.00458083 -0.486788 -4.02464e-13 -2.3147e-13 -0.279574 80.9185 0.00384199 
-0.635356 2.35626e-13 7.25938e-14 -0.466636 81.4892 0.00354214 -0.735677 3.53623e-14 -3.3004e-14 
-0.688409 82.0936 0.00363167 -0.790232 -1.55413e-13 3.34438e-13 -0.946127 82.7152 0.0039805 
-0.796442 -1.87611e-13 -2.1864e-13 -1.24363 83.3399 0.0044509 -0.746589 -4.04494e-14 -2.15175e-14 
-1.58603 83.953 0.00486973 -0.627693 5.97933e-14 1.4192e-13 -1.97799 84.5368 0.0050033 
-0.421394 2.46722e-13 3.14913e-14 -2.42152 85.0668 0.00452754 -0.104086 2.53503e-13 -1.0985e-13 
-2.9127 85.5074 0.00300596 0.352265 3.1062e-13 -7.39092e-14 -3.43734 85.8066 -0.000109321 
0.977871 -1.76401e-13 -5.25855e-14 -3.96544 85.8912 -0.0054102 1.80028 1.10354e-13 2.32078e-13 
-4.44494 85.6624 -0.0133548 2.83543 -2.685e-14 -3.11541e-13 -4.79666 84.9962 -0.0238689 
4.07313 -1.0248e-13 -9.62945e-14 -0.0284853 80.1685 0.00528539 -0.206599 -5.82303e-15 -6.89683e-14 
-0.140072 80.5495 0.00489614 -0.358445 1.09173e-13 -4.91066e-13 -0.300903 81.0196 0.00387896 
-0.466511 -1.99856e-13 3.79289e-13 -0.499444 81.5471 0.00329876 -0.532616 -1.85523e-13 -5.85434e-14 
-0.730303 82.1066 0.00307291 -0.555014 -4.69145e-13 -1.39082e-13 -0.991598 82.6772 0.00305471 
-0.528242 -1.31364e-13 2.73694e-13 -1.28354 83.2404 0.00308957 -0.443047 -3.98405e-14 -1.69888e-13 
-1.60689 83.7773 0.00299311 -0.286453 -3.23886e-14 1.52742e-13 -1.96118 84.2663 0.00253778 
-0.0420515 3.57116e-13 -2.41033e-14 -2.34244 84.6794 0.0014415 0.309249 2.70678e-13 9.06594e-15 
-2.74038 84.9798 -0.000628658 0.787642 -8.80494e-14 -7.3822e-14 -3.13502 85.118 -0.00402228 
1.41142 -6.09799e-14 2.15532e-13 -3.49307 85.0296 -0.00901528 2.19184 4.98877e-13 -5.58217e-14 
-3.76494 84.635 -0.0156354 3.12505 -2.85796e-14 -1.00555e-13 -3.88404 83.8443 -0.0233905 
4.18097 1.22684e-13 1.23082e-13 -0.0286406 80.3061 0.00567983 -0.127582 1.62077e-13 -2.59399e-13 
-0.14192 80.651 0.00486478 -0.224879 1.27801e-14 2.54224e-15 -0.303838 81.0854 0.00364251 
-0.292371 9.90982e-14 1.40145e-13 -0.501145 81.5749 0.00282993 -0.326468 1.59819e-13 -3.93522e-14 
-0.726151 82.0912 0.00233485 -0.321546 9.93671e-14 -1.20683e-13 -0.974293 82.6108 0.00200877 
-0.26966 4.05358e-13 1.4698e-13 -1.24271 83.1122 0.00169672 -0.160505 -3.19213e-14 -3.47729e-13 
-1.52868 83.5738 0.00122274 0.0183463 -5.25672e-13 4.59338e-13 -1.82792 83.972 0.000387115 
0.28087 -2.38683e-13 3.46289e-13 -2.13256 84.2784 -0.00103137 0.641487 -4.53869e-13 -5.31636e-13 
-2.42891 84.4577 -0.00325658 1.11314 -1.51215e-13 -3.49243e-15 -2.69518 84.4661 -0.00646926 
1.70421 2.62815e-14 9.40133e-14 -2.89955 84.2505 -0.0107216 2.41383 1.87077e-14 -4.33629e-14 
-2.99947 83.7511 -0.0158045 3.22561 -1.83445e-13 5.46872e-14 -2.9435 82.9065 -0.0210785 
4.09983 -1.66597e-13 -5.74957e-14 -0.0276146 80.3817 0.00547181 -0.0496324 -1.00223e-13 2.04858e-14 
-0.136476 80.7079 0.00452553 -0.0937352 4.23841e-13 -2.13832e-13 -0.290619 81.118 0.00317517 
-0.123227 1.26852e-13 2.91796e-13 -0.475583 81.5767 0.0021914 -0.129633 -1.67466e-15 -3.91002e-13 
-0.681946 82.0544 0.00149247 -0.103829 -1.39002e-13 3.29606e-13 -0.903097 82.5259 0.000939123 
-0.0357042 -3.10809e-14 5.13027e-14 -1.13388 82.9681 0.000387302 0.0858156 4.75842e-14 -2.88957e-13 
-1.36916 83.3587 -0.000319048 0.272416 1.9685e-13 1.80113e-13 -1.60226 83.6738 -0.00134266 
0.535667 3.15788e-13 -4.92781e-14 -1.82332 83.8865 -0.00284258 0.885786 -2.45859e-13 5.87663e-14 
-2.0177 83.9651 -0.00494936 1.32973 1.30402e-13 6.84244e-14 -2.16459 83.8732 -0.00772102 
1.86839 -4.91595e-14 -2.41611e-13 -2.23636 83.5695 -0.0110757 2.49291 1.30241e-13 -3.51802e-15 
-2.19926 83.0115 -0.0147055 3.18003 8.24991e-14 3.46341e-13 -2.01633 82.1611 -0.0179906 
3.88746 -3.24801e-14 -4.04588e-13 -0.0256464 80.3981 0.00472693 0.023569 -2.90035e-13 -4.70184e-14 
-0.124939 80.7232 0.00392095 0.0284074 -7.49378e-14 -1.75618e-13 -0.263804 81.1217 0.00251732 
0.0320715 -4.14571e-13 2.22953e-13 -0.427058 81.5585 0.00142939 0.0473663 -3.84871e-13 1.05996e-13 
-0.604192 82.0038 0.000601497 0.0865724 1.7686e-13 -1.39266e-13 -0.787275 82.4321 -8.98081e-05 
0.161753 2.85412e-13 -1.45047e-13 -0.969747 82.8202 -0.000771917 0.284658 -2.63445e-14 1.76665e-13 
-1.14512 83.1462 -0.00157674 0.466306 -2.95135e-14 -1.40662e-13 -1.30567 83.3876 -0.00263021 
0.716211 -5.55145e-13 4.06059e-13 -1.44115 83.5203 -0.00403813 1.0412 -2.64027e-13 -1.4173e-13 
-1.53771 83.5176 -0.00586169 1.44372 5.38384e-14 -2.01716e-13 -1.57725 83.3507 -0.00808165 
1.91956 -2.05728e-13 -3.07151e-13 -1.53753 82.9894 -0.0105519 2.45517 -1.38506e-13 3.65615e-13 
-1.39355 82.4059 -0.0129517 3.02464 -1.41651e-13 -7.2992e-14 -1.12075 81.5793 -0.0147535 
3.58722 3.7448e-13 6.19071e-14 -0.0229681 80.3608 0.00351536 0.0890237 5.76412e-14 -2.2159e-13 
-0.108502 80.7025 0.00309191 0.136095 -4.13947e-14 -2.08321e-13 -0.225919 81.1024 0.00170334 
0.166161 5.3241e-13 2.01423e-13 -0.359762 81.5272 0.000578386 0.195859 1.73934e-14 -6.32662e-14 
-0.499082 81.9476 -0.0003014 0.240357 -2.19027e-13 1.06492e-13 -0.635395 82.339 -0.00104152 
0.313567 1.06336e-14 -8.74622e-14 -0.761614 82.6792 -0.00175182 0.427969 -2.32997e-14 1.74675e-13 
-0.870924 82.9479 -0.00254138 0.594156 2.30854e-13 -2.42068e-14 -0.955689 83.1252 -0.00350508 
0.82011 -6.79093e-13 -9.06111e-15 -1.00649 83.1907 -0.00470871 1.11017 -2.32253e-13 -6.20757e-14 
-1.01142 83.1234 -0.00616807 1.46368 6.60796e-13 -7.69987e-14 -0.955948 82.9017 -0.00782294 
1.87333 -2.85856e-13 3.53141e-13 -0.823402 82.5054 -0.00950923 2.32335 -1.79134e-13 -2.54565e-13 
-0.596631 81.918 -0.0109378 2.78781 -3.3581e-13 -2.15265e-13 -0.260857 81.1314 -0.0116934 
3.22969 6.91842e-14 -3.94459e-14 -0.0197847 80.2776 0.00190299 0.144374 1.4105e-14 3.0787e-14 
-0.0882255 80.6529 0.00207297 0.224922 4.73488e-14 7.40293e-14 -0.179192 81.0677 0.000759086 
0.273037 3.01226e-13 3.58637e-14 -0.27734 81.4905 -0.000339069 0.308805 -6.60151e-13 -4.49386e-13 
-0.371902 81.894 -0.00119589 0.350121 1.90233e-13 5.44448e-13 -0.454588 82.2551 -0.00190066 
0.412751 -1.71222e-13 -1.10684e-14 -0.518623 82.5539 -0.00254875 0.510055 -2.93306e-13 -4.75917e-13 
-0.557771 82.7725 -0.00323135 0.652527 2.47083e-13 1.78847e-13 -0.565412 82.8945 -0.00402066 
0.847167 3.5113e-13 4.0065e-14 -0.533805 82.9039 -0.00495601 1.09667 2.70083e-13 -3.92003e-14 
-0.453677 82.7852 -0.00602746 1.39845 -7.75647e-14 3.6875e-13 -0.314297 82.5238 -0.00715912 
1.74358 4.93316e-13 2.88268e-14 -0.104212 82.1077 -0.0081951 2.11575 -1.52965e-13 -1.65826e-13 
0.187208 81.5295 -0.00889519 2.49052 6.53106e-14 -1.8875e-13 0.567367 80.7895 -0.00894866 
2.83537 4.61967e-13 3.36146e-14 -0.0162593 80.1584 -5.5311e-05 0.187806 -4.05755e-13 1.2385e-13 
-0.0649543 80.5835 0.000889206 0.291359 -1.65593e-13 2.3792e-13 -0.12537 81.026 -0.000299228 
0.347796 1.5229e-13 -4.98677e-13 -0.182593 81.4569 -0.0013111 0.380441 2.75119e-13 4.04115e-13 
-0.226624 81.8512 -0.00207375 0.409885 3.38405e-13 -2.08784e-13 -0.250081 82.1885 -0.00266537 
0.45385 -3.25549e-13 1.92849e-13 -0.247284 82.4516 -0.00317285 0.526781 6.23794e-13 -1.54549e-13 
-0.213363 82.6264 -0.00367655 0.639404 -6.76724e-14 -2.69277e-13 -0.143441 82.7003 -0.00423498 
0.798221 1.93645e-13 3.28414e-13 -0.0320397 82.6621 -0.00487254 1.00496 -1.97719e-13 5.88211e-14 
0.127184 82.5017 -0.00556779 1.25598 1.13508e-13 -1.66392e-13 0.341234 82.211 -0.00624431 
1.54173 -1.34701e-13 -9.93749e-14 0.617021 81.7844 -0.00676625 1.84633 -1.19887e-13 9.73696e-14 
0.960006 81.2215 -0.00694363 2.14753 8.93365e-14 6.12834e-14 1.37229 80.5285 -0.00655163 
2.4173 1.98615e-13 2.17299e-13 -0.0125051 80.0143 -0.00232081 0.217904 -6.99718e-14 9.39891e-14 
-0.0392546 80.5047 -0.000446118 0.332506 -4.61907e-13 2.91711e-14 -0.0655786 80.9868 -0.00146539 
0.386297 -3.88845e-13 9.10383e-15 -0.077261 81.435 -0.00233448 0.405847 1.15181e-13 2.94148e-14 
-0.0656363 81.8271 -0.0029342 0.414569 3.2893e-13 1.8743e-13 -0.0249199 82.1459 -0.00333982 
0.43232 -3.01283e-13 -1.97643e-13 0.0487365 82.3781 -0.00363804 0.474857 1.08827e-13 4.40464e-14 
0.158144 82.5136 -0.00390655 0.553414 -1.33214e-13 2.16892e-14 0.305864 82.5445 -0.00419841 
0.674351 1.78592e-13 6.09599e-14 0.494749 82.4644 -0.00453174 0.838877 1.89563e-13 -2.1847e-13 
0.728136 82.2687 -0.00488236 1.04285 2.70724e-13 3.40131e-14 1.0096 81.9547 -0.00518052 
1.27665 8.93938e-14 -1.98423e-13 1.34228 81.5224 -0.00531301 1.5253 6.06527e-13 1.35577e-14 
1.72771 80.9763 -0.00513321 1.76885 1.57978e-13 6.999e-14 2.16436 80.3266 -0.00448125 
1.9833 6.04464e-14 2.37296e-13 -0.00858053 79.8582 -0.00487494 0.233497 -9.89009e-15 1.13312e-14 
-0.0113731 80.4279 -0.00193346 0.345792 3.35259e-13 3.79263e-14 -0.000227908 80.9608 -0.00274316 
0.384754 -2.94856e-13 -1.35151e-13 0.0381235 81.4341 -0.00341217 0.380461 -5.1765e-13 -1.81341e-13 
0.11044 81.8294 -0.00377903 0.359442 -3.4337e-13 2.43357e-13 0.220198 82.1334 -0.00392738 
0.343944 9.05769e-14 1.65814e-14 0.368693 82.3374 -0.003954 0.351244 -2.51187e-13 6.31439e-14 
0.556047 82.4361 -0.00394232 0.393257 2.8562e-13 1.4564e-13 0.78205 82.4266 -0.00394674 
0.476376 -1.50014e-13 -7.79437e-14 1.04672 82.3078 -0.00398448 0.601502 4.26499e-14 -2.86932e-14 
1.35045 82.0799 -0.0040325 0.764206 -5.99751e-13 3.64234e-14 1.69383 81.7453 -0.00402913 
0.955024 4.87624e-13 8.91369e-14 2.07697 81.3084 -0.00388067 1.15993 4.017e-13 2.10637e-14 
2.49857 80.7774 -0.00347378 1.36105 -2.62582e-13 -2.72369e-14 2.95481 80.165 -0.00269424 
1.53776 5.14259e-14 -2.29075e-13 -0.00448507 79.7039 -0.00772314 0.233462 -7.08938e-15 4.95231e-13 
0.0188041 80.3661 -0.00358891 0.328646 6.67856e-14 -2.42166e-13 0.0710842 80.9593 -0.004146 
0.339287 3.06731e-13 7.83332e-14 0.164391 81.464 -0.00455055 0.299557 3.59722e-13 -1.33131e-13 
0.302926 81.8659 -0.00460759 0.239579 -3.63719e-14 2.02286e-14 0.487072 82.1565 -0.0044242 
0.184308 4.24757e-13 1.12754e-13 0.71482 82.3325 -0.00411937 0.152685 4.61763e-13 -3.88287e-13 
0.982995 82.3943 -0.00379048 0.157325 -5.42622e-15 2.48204e-14 1.28825 82.3445 -0.00349779 
0.204613 2.37791e-13 5.19044e-13 1.62764 82.1871 -0.00325945 0.295077 -1.82026e-13 -2.80493e-13 
1.99886 81.9275 -0.00305309 0.423944 1.87102e-13 2.90572e-13 2.39996 81.5722 -0.00282227 
0.581801 2.14552e-13 -1.07367e-13 2.82877 81.1293 -0.00248654 0.755374 3.33344e-14 -2.63896e-13 
3.28214 80.6097 -0.00195495 0.928456 3.62663e-13 -1.27663e-13 3.75493 80.0275 -0.00114283 
1.08307 9.13904e-14 4.22448e-13 -0.000153535 79.5667 -0.0108994 0.216527 -3.87617e-13 -1.58918e-13 
0.0518052 80.3336 -0.0054466 0.278099 3.80839e-13 5.31051e-14 0.1497 80.995 -0.00569666 
0.245406 -1.51515e-13 5.00659e-14 0.303928 81.535 -0.00575578 0.157673 2.53838e-13 -1.65064e-13 
0.515312 81.9439 -0.00541082 0.0493113 -2.37718e-14 -1.15184e-13 0.780201 82.2195 -0.00481241 
-0.051671 -9.17062e-14 2.27382e-13 1.09244 82.3648 -0.0041158 -0.124646 -3.38252e-13 -2.96823e-13 
1.44494 82.3867 -0.00343932 -0.156496 -1.45372e-13 3.25268e-13 1.8309 82.2939 -0.00285041 
-0.141161 -4.06473e-13 -5.11157e-13 2.24449 82.0959 -0.00236575 -0.0788235 -3.89392e-13 2.96513e-13 
2.68093 81.8026 -0.00195911 0.0250687 1.10396e-13 3.45399e-14 3.1363 81.4245 -0.00157316 
0.160822 -2.48343e-13 -3.41969e-13 3.6069 80.9725 -0.00113275 0.315533 -1.25384e-13 5.56523e-13 
4.08854 80.4594 -0.00055912 0.47415 1.45613e-13 -2.00918e-13 4.57564 79.9001 0.000215587 
0.62063 3.08188e-13 3.48445e-14 0.00455548 79.4636 -0.0144731 0.181023 -1.70514e-13 -5.20941e-13 
0.0886637 80.3465 -0.00756231 0.190328 -1.27855e-13 3.09829e-13 0.238108 81.0818 -0.00742627 
0.0974117 1.34427e-13 -4.51375e-14 0.460993 81.6578 -0.00702849 -0.0520114 5.78114e-14 -1.90672e-13 
0.753626 82.0708 -0.00616337 -0.218325 9.08852e-13 -3.09128e-14 1.10712 82.326 -0.00505214 
-0.370151 4.65183e-14 3.86356e-13 1.51016 82.4343 -0.00390185 -0.485364 3.81441e-13 -1.13558e-13 
1.95116 82.4101 -0.00285593 -0.55086 -2.02807e-14 2.33051e-14 2.41965 82.2689 -0.00198516 
-0.561547 9.12517e-14 -3.13846e-14 2.90701 82.0258 -0.00129704 -0.518962 1.85751e-13 3.33665e-13 
3.40649 81.6952 -0.000752679 -0.429802 -2.94407e-13 -4.4034e-13 3.91282 81.2907 -0.000285159 
-0.304547 1.65147e-13 2.64326e-13 4.4215 80.8256 0.000183891 -0.156215 3.67999e-13 -2.65564e-13 
4.92805 80.3138 0.000729968 0.000773958 -2.66294e-13 9.72077e-14 5.42719 79.7702 0.00141343 
0.151687 -3.00161e-13 -9.21073e-14 0.00988199 79.4136 -0.0185595 0.124579 3.98257e-13 -2.10228e-13 
0.131078 80.423 -0.0100187 0.060075 -1.34116e-14 1.22687e-13 0.340294 81.2353 -0.00937192 
-0.112342 -1.39205e-13 -4.18797e-14 0.642233 81.844 -0.0083548 -0.338404 2.38495e-13 -1.45007e-13 
1.02702 82.2534 -0.00681172 -0.57216 -1.76177e-13 1.48359e-13 1.47893 82.478 -0.00507098 
-0.778693 -2.43229e-13 -9.39873e-14 1.98031 82.5389 -0.00340658 -0.934945 -1.50583e-13 -1.71477e-14 
2.51447 82.4592 -0.00198462 -1.02879 -3.7307e-14 1.73982e-13 3.06722 82.2617 -0.000867066 
-1.05717 4.15251e-13 -9.41703e-14 3.62752 81.9673 -3.74274e-05 -1.02394 6.15844e-14 -1.59166e-13 
4.18729 81.5943 0.000569136 -0.937835 4.67491e-13 2.09871e-14 4.74066 81.1591 0.00103969 
-0.810736 -8.31141e-14 1.14052e-13 5.28315 80.6767 0.00146408 -0.656291 -1.84443e-13 2.83673e-13 
5.81072 80.1612 0.00192134 -0.488763 -2.57641e-13 -2.96927e-14 6.31898 79.6272 0.00247035 
-0.32207 3.35338e-13 2.22811e-13 0.0162068 79.4392 -0.0233381 0.0437116 2.14876e-13 2.18998e-13 
0.18169 80.5845 -0.0129326 -0.120152 2.27719e-13 -1.67161e-13 0.462333 81.4731 -0.0115707 
-0.394404 -2.29336e-13 3.69951e-13 0.857526 82.1057 -0.00969034 -0.713365 5.93119e-14 -2.01689e-13 
1.34872 82.4975 -0.0072559 -1.02347 1.87699e-13 1.48331e-13 1.91114 82.6759 -0.00475004 
-1.28646 -1.03634e-13 -2.07799e-13 2.51948 82.6743 -0.00252309 -1.47956 -2.24185e-13 -1.76196e-14 
3.15143 82.5261 -0.000747735 -1.59326 -2.47271e-13 1.35841e-13 3.78937 82.2621 0.000548463 
-1.62809 -1.35331e-13 -1.49073e-14 4.42057 81.9086 0.00142996 -1.59152 3.40431e-13 1.97712e-13 
5.03649 81.4877 0.00200515 -1.49527 1.13522e-13 -1.90088e-13 5.63164 81.0176 0.00239236 
-1.35328 2.23767e-13 1.85722e-13 6.20241 80.5139 0.00269937 -1.18027 2.00673e-14 -4.01678e-13 
6.74594 79.9907 0.00301262 -0.990707 -7.24941e-14 2.27422e-13 7.25928 79.4612 0.00339204 
-0.798029 1.14499e-13 -1.02777e-13 0.024131 79.567 -0.0290832 -0.0667926 3.10021e-13 2.18957e-13 
0.244584 80.8561 -0.0164654 -0.361216 2.68761e-14 -2.97283e-13 0.613412 81.8148 -0.0140448 
-0.763539 -7.72698e-14 1.4317e-13 1.12137 82.4548 -0.0109306 -1.19277 -1.56493e-13 3.78864e-13 
1.73742 82.8072 -0.0073203 -1.58649 -1.28231e-13 -1.29018e-13 2.42486 82.9167 -0.00390603 
-1.90418 3.46055e-13 -3.56656e-13 3.14927 82.8323 -0.00110426 -2.12561 1.52482e-14 -4.49571e-14 
3.88269 82.5994 0.000948248 -2.2464 -5.06158e-14 2.45802e-14 4.60486 82.257 0.00230427 
-2.2729 2.08437e-13 8.25581e-14 5.30258 81.8365 0.00311051 -2.21775 -5.02792e-14 5.5623e-14 
5.96816 81.3625 0.00353896 -2.09663 -8.76348e-14 -1.97469e-13 6.59766 80.8539 0.00374819 
-1.92611 -7.16899e-13 2.41487e-13 7.18928 80.3262 0.00386645 -1.72228 3.49391e-14 -1.37722e-13 
7.74205 79.7923 0.0039872 -1.49998 8.96175e-14 -1.082e-13 8.25494 79.264 0.00417018 
-1.27231 5.13894e-14 2.07902e-13 0.0346229 79.8305 -0.0362138 -0.214838 5.88255e-13 -3.37223e-13 
0.326186 81.2686 -0.020831 -0.679103 7.43659e-14 -2.44266e-13 0.807576 82.283 -0.0167672 
-1.24057 -6.49186e-14 2.32505e-13 1.45512 82.9029 -0.0118578 -1.79776 -2.37449e-14 -1.72265e-13 
2.2195 83.1832 -0.00671069 -2.27883 -8.41237e-14 -2.34354e-13 3.04841 83.1929 -0.0022724 
-2.64366 -8.61707e-13 3.21167e-13 3.89723 83 0.00103361 -2.87863 -4.22613e-14 -1.93337e-13 
4.73316 82.6637 0.00319615 -2.98827 1.84377e-13 -2.17933e-13 5.53505 82.2305 0.00442129 
-2.9875 -3.39135e-13 3.87101e-13 6.29121 81.7356 0.00498031 -2.89584 -2.65472e-13 -1.32686e-13 
6.99653 81.2044 0.00512576 -2.73381 2.955e-13 2.51608e-13 7.64999 80.6555 0.00505847 
-2.52087 8.59278e-14 -3.10069e-13 8.25255 80.1027 0.00492271 -2.27451 -6.58258e-13 1.89887e-13 
8.8058 79.5571 0.00481301 -2.00985 1.66998e-13 -1.36608e-13 9.31101 79.0285 0.00478357 
-1.73956 1.32856e-13 -1.65344e-13 0.0493263 80.2727 -0.0453992 -0.41265 -2.1849e-13 -1.23845e-13 
0.436935 81.86 -0.0263051 -1.09773 -2.13371e-14 9.74845e-14 1.06682 82.9024 -0.019578 
-1.85507 2.43795e-13 -1.42754e-13 1.89062 83.4585 -0.0120365 -2.5562 1.56774e-13 -5.99486e-14 
2.8321 83.6203 -0.0049495 -3.12126 1.65978e-14 1.2482e-13 3.8193 83.4896 0.000511393 
-3.51647 -4.39815e-13 -1.84646e-13 4.79757 83.1581 0.00408648 -3.74146 -9.51461e-14 1.42211e-13 
5.73179 82.6983 0.00605224 -3.81488 2.91368e-13 3.94386e-13 6.60315 82.1631 0.00686613 
-3.76342 2.6347e-13 -1.95705e-13 7.40429 81.5886 0.00696286 -3.61496 -1.34538e-13 -9.57394e-14 
8.13489 80.999 0.0066784 -3.39519 1.16851e-13 -6.62057e-14 8.79823 80.4104 0.00624378 
-3.12632 -7.43086e-14 2.7581e-13 9.39899 79.8338 0.00580447 -2.82682 4.14582e-13 2.06127e-13 
9.94176 79.2776 0.00544361 -2.5117 -2.68813e-14 -1.1989e-13 10.4303 78.7489 0.00520097 
-2.19286 4.53994e-13 -2.63377e-14 0.0711122 80.9516 -0.0576736 -0.679639 1.88308e-13 8.84015e-15 
0.594517 82.6783 -0.033167 -1.65356 3.77091e-13 9.77829e-14 1.42651 83.6989 -0.0220203 
-2.6491 -2.48628e-13 -3.66179e-13 2.47593 84.124 -0.01067 -3.50383 1.5658e-13 4.148e-13 
3.62738 84.1029 -0.00132037 -4.1364 -3.1565e-13 -1.24529e-13 4.78627 83.7817 0.0048748 
-4.53104 7.06709e-13 -2.3463e-13 5.89127 83.2785 0.00819748 -4.71098 -2.92162e-13 3.70403e-13 
6.91048 82.6771 0.00947084 -4.71546 -1.95871e-13 2.35428e-14 7.83252 82.0322 0.00950491 
-4.5858 -2.48593e-13 3.7228e-14 8.65811 81.3772 0.00890336 -4.35881 -2.64136e-13 -3.74449e-14 
9.394 80.7319 0.00805662 -4.06485 -5.01498e-13 -5.12014e-14 10.0491 80.1076 0.00719208 
-3.72793 3.9628e-13 -2.96499e-13 10.6324 79.5114 0.00642958 -3.36662 -4.22128e-14 1.87988e-13 
11.1516 78.948 0.00582284 -2.99506 5.18575e-13 -1.26543e-13 11.6129 78.4215 0.00538629 
-2.62384 8.79609e-14 -4.58778e-14 0.105787 81.9482 -0.0749857 -1.04794 -1.25521e-13 1.13742e-13 
0.830704 83.7845 -0.0415693 -2.40382 7.27508e-14 -2.25334e-13 1.94597 84.6962 -0.0227842 
-3.68254 3.35267e-13 2.54227e-13 3.28464 84.8882 -0.00621589 -4.68426 -1.46577e-13 -5.58407e-14 
4.6777 84.5983 0.00517163 -5.34458 1.86684e-13 -7.40588e-14 6.01033 84.0292 0.0111768 
-5.68721 -4.86135e-13 -1.38702e-13 7.22445 83.3233 0.0133115 -5.77329 1.88276e-13 1.78664e-13 
8.30125 82.5684 0.0132052 -5.66894 3.78409e-13 1.86533e-13 9.24378 81.8135 0.0120508 
-5.43121 4.78336e-13 -2.53655e-13 10.0648 81.0836 0.0105501 -5.10459 3.32352e-13 3.08889e-13 
10.7802 80.3904 0.00906672 -4.72215 3.66315e-13 -6.56736e-14 11.405 79.7385 0.00776628 
-4.30788 -3.24567e-14 -3.92957e-13 11.9525 79.1297 0.00670705 -3.87902 1.37345e-13 -9.62533e-15 
12.4334 78.5648 0.00589387 -3.44785 3.39884e-13 1.24852e-13 12.8558 78.0447 0.00530623 
-3.02301 -1.27016e-14 1.59965e-13 0.163921 83.3813 -0.0998811 -1.57323 7.72923e-14 1.45411e-13 
1.2051 85.2525 -0.0509813 -3.44006 1.25691e-13 -8.19553e-14 2.72526 85.9041 -0.0195753 
-5.03832 -2.96124e-13 -1.62453e-13 4.42833 85.7122 0.00348047 -6.14395 -7.41074e-15 9.80951e-14 
6.07989 85.0475 0.0156032 -6.75413 -4.19734e-14 1.04999e-13 7.56264 84.1739 0.019421 
-6.96685 -3.78579e-13 7.08877e-14 8.84334 83.2451 0.0189291 -6.89696 -8.13342e-14 -7.16658e-14 
9.93093 82.3375 0.0166888 -6.6401 -4.06682e-13 -6.48028e-14 10.8503 81.4833 0.0140317 
-6.26599 3.87503e-14 7.33889e-14 11.6292 80.6924 0.0115616 -5.82257 -2.5073e-13 1.16492e-13 
12.2929 79.9651 0.00948254 -5.34199 2.34663e-13 -4.17572e-13 12.8624 79.2978 0.00782589 
-4.84557 2.73705e-14 4.43359e-13 13.3543 78.6863 0.00655506 -4.34748 1.72397e-14 -2.6741e-13 
13.7812 78.1275 0.00561274 -3.85702 -2.95618e-13 2.43946e-13 14.1526 77.6192 0.00494006 
-3.3802 -1.94823e-13 -1.24328e-13 0.279259 85.4304 -0.139652 -2.36 1.41963e-13 -1.62093e-14 
1.84473 87.179 -0.0558791 -4.91616 2.88831e-13 -4.4853e-14 3.94891 87.3003 -0.00356299 
-6.82656 -4.60777e-13 -8.34922e-14 6.07341 86.5083 0.0220932 -7.91756 -2.51826e-13 9.48408e-14 
7.95254 85.3535 0.0298512 -8.3419 -5.93345e-14 -2.05164e-13 9.51427 84.1385 0.0285226 
-8.31975 2.37206e-13 2.57423e-13 10.7835 82.9909 0.0238396 -8.02571 2.59223e-13 9.22225e-14 
11.8125 81.9516 0.0189713 -7.57693 2.01072e-13 -4.71278e-13 12.6521 81.0229 0.0148252 
-7.04612 1.83031e-13 4.60782e-13 13.3445 80.1942 0.0115645 -6.4771 -1.16684e-13 -9.84672e-14 
13.9224 79.4522 0.00909638 -5.89614 1.75786e-13 -5.80352e-15 14.4104 78.7848 0.00726467 
-5.31895 -3.44065e-14 1.13709e-13 14.8266 78.1825 0.0059263 -4.75487 -2.95822e-13 2.15434e-13 
15.1844 77.6385 0.00496481 -4.20935 1.27461e-13 -2.83688e-13 15.4933 77.1484 0.00428999 
-3.68532 2.41997e-13 2.19707e-13 0.494003 88.3825 -0.199874 -3.617 1.15047e-14 -5.48256e-13 
2.99685 89.5965 -0.0555694 -7.07992 -9.76302e-14 7.84504e-13 5.90528 88.753 0.0266659 
-9.15061 -3.80251e-14 -4.41831e-13 8.44648 87.1043 0.0523957 -9.97881 2.77105e-13 -1.44723e-13 
10.4156 85.3796 0.0459575 -10.0211 -2.17285e-13 3.67711e-13 11.9117 83.8364 0.0353626 
-9.64809 -4.96402e-13 1.2115e-13 13.0517 82.5142 0.0260272 -9.07411 -9.16003e-14 -2.24276e-13 
13.9336 81.389 0.0188827 -8.41173 2.13395e-13 -1.73796e-13 14.6294 80.4249 0.013831 
-7.72012 6.4948e-15 -8.82757e-14 15.1892 79.5889 0.0102831 -7.02966 1.39333e-13 9.08787e-14 
15.6481 78.8553 0.00780229 -6.35588 -1.2515e-13 -1.77291e-13 16.0303 78.205 0.00606062 
-5.7065 -9.92192e-14 3.28835e-13 16.3531 77.6243 0.00483698 -5.08503 -2.4861e-13 -2.10843e-13 
16.6283 77.104 0.00398121 -4.49264 -2.38642e-13 1.9255e-13 16.8645 76.6383 0.00339052 
-3.92914 -3.69215e-13 1.11217e-13 1.24435 92.7986 -0.263136 -5.82634 1.46133e-14 -1.49186e-14 
5.43868 92.6845 0.0897687 -10.3775 -3.98778e-13 -4.53387e-13 9.13702 89.9261 0.095129 
-12.0628 -4.20552e-13 3.04066e-13 11.757 87.2036 0.0779137 -12.1494 1.47327e-13 1.23175e-13 
13.5235 84.9717 0.0558029 -11.5996 -1.17892e-14 2.66022e-13 14.7353 83.2004 0.0352246 
-10.8003 9.24261e-15 -7.21328e-13 15.6034 81.7941 0.0232315 -9.93349 -2.49849e-13 3.19265e-13 
16.2462 80.6505 0.0155719 -9.06939 -5.10262e-13 1.94443e-13 16.7384 79.6987 0.010805 
-8.23633 2.78316e-13 -3.52844e-13 17.126 78.8887 0.00773011 -7.44434 3.71789e-13 2.31227e-13 
17.4387 78.1866 0.00570232 -6.69584 8.64968e-14 -4.00823e-13 17.6962 77.5695 0.00433661 
-5.98997 2.25403e-13 2.12317e-13 17.9118 77.0217 0.0034041 -5.32456 1.06876e-13 2.65158e-13 
18.0943 76.5332 0.00276441 -4.69692 -2.64355e-13 -2.59553e-13 18.2502 76.0973 0.00232815 
-4.10415 8.68507e-14 7.78639e-14 2.32003 99.334 -0.527615 -10.7135 7.5745e-14 -2.76695e-13 
10.0693 94.9427 0.0931157 -14.7335 2.06501e-13 5.18127e-13 14.1914 90.1895 0.211344 
-15.0657 1.26302e-13 -3.67331e-13 16.0299 86.5187 0.0821993 -14.0073 6.22558e-14 1.26846e-13 
17.1575 84.0403 0.0465447 -12.7835 -5.37161e-13 2.62394e-14 17.855 82.2318 0.0254734 
-11.5968 -1.62571e-13 2.56298e-13 18.3278 80.8583 0.0153635 -10.4964 4.0478e-13 -3.07063e-14 
18.6634 79.7684 0.00988597 -9.48478 2.11359e-13 -3.1063e-13 18.9123 78.8736 0.00671278 
-8.5541 1.86427e-13 -1.37839e-13 19.1036 78.1181 0.00478956 -7.69487 2.47361e-13 2.0222e-13 
19.2547 77.4663 0.00355913 -6.89833 -3.99181e-13 2.96058e-13 19.3769 76.895 0.00274431 
-6.15697 -2.48444e-13 -7.71345e-15 19.4777 76.3888 0.00218898 -5.46447 -1.32495e-13 -7.19916e-13 
19.5619 75.9378 0.00180441 -4.81545 3.45501e-13 2.74468e-13 19.6331 75.5357 0.00153666 
-4.20519 3.99193e-13 3.30827e-13 17.1468 111.146 2.50637 -22.4263 1.67866e-13 -5.38458e-15 
19.04 94.5179 0.17122 -19.6958 3.85719e-13 1.33532e-13 20.4051 88.7009 0.131315 
-16.8929 -2.69382e-13 2.57801e-13 20.76 85.028 0.0507158 -14.9078 -6.46205e-13 -5.86545e-13 
20.9453 82.6978 0.02763 -13.2822 -2.8845e-14 -3.18079e-14 21.0254 81.0435 0.0199273 
-11.9026 3.14609e-14 2.04916e-13 21.061 79.7961 0.0151927 -10.6975 1.0221e-13 3.94417e-13 
21.0738 78.8095 0.0128206 -9.62455 -6.00561e-14 8.12267e-14 21.074 77.9996 0.0111665 
-8.65545 -3.82191e-13 -2.65159e-13 21.0671 77.3153 0.00999613 -7.77081 5.54973e-14 1.2408e-13 
21.056 76.7242 0.00907678 -6.95674 1.93456e-14 -1.84174e-13 21.0425 76.2053 0.00832455 
-6.20287 7.36564e-15 -4.33879e-13 21.0277 75.745 0.00768684 -5.50121 3.91416e-13 5.05542e-13 
21.0126 75.3344 0.00713622 -4.84529 1.5286e-13 -1.68894e-13 20.9977 74.9681 0.00665639 
-4.22971 5.8363e-13 1.7031e-13 -0.0179541 79.242 -0.00291201 -0.418256 3.77337e-14 -1.34216e-13 
-0.00649911 79.1468 -0.00852682 -0.210793 -1.61753e-13 -1.13975e-13 -0.0663547 79.8619 0.000710442 
-0.72107 -2.70823e-13 -1.75963e-13 -0.0535583 79.6911 -0.000181514 -0.54875 -1.16261e-13 2.97366e-14 
-0.14066 80.5178 0.000722137 -0.950213 3.09787e-14 1.47146e-13 -0.132802 80.2953 0.000372901 
-0.800896 -6.09825e-14 -1.00017e-13 -0.238169 81.2003 0.00067814 -1.12754 2.35812e-13 2.31933e-13 
-0.240607 80.9412 0.000629367 -0.991207 -4.4057e-13 2.58446e-13 -0.363333 81.9042 0.000737088 
-1.26666 2.38677e-13 -1.68227e-13 -0.377775 81.617 0.000942929 -1.13496 -3.09588e-13 -9.2721e-14 
-0.524878 82.6281 0.000880364 -1.37386 4.20953e-13 -3.56312e-14 -0.549555 82.3161 0.00135102 
-1.24007 -1.55966e-13 5.32456e-14 -0.735407 83.3734 0.00107669 -1.44841 1.73375e-13 -1.15755e-13 
-0.765142 83.0354 0.00186599 -1.30747 -4.16004e-14 -2.43628e-13 -1.0113 84.1423 0.00128393 
-1.48211 -1.57905e-13 -1.07914e-13 -1.03719 83.7734 0.00250417 -1.33103 1.31492e-13 -1.82347e-13 
-1.37252 84.936 0.00143386 -1.45815 2.15258e-13 4.99947e-14 -1.38127 84.5282 0.00328009 
-1.29676 2.40051e-14 4.68035e-13 -1.84187 85.7512 0.00141023 -1.34909 5.44356e-14 1.0322e-13 
-1.81489 85.2941 0.00419888 -1.18159 1.74888e-13 -3.90405e-13 -2.4432 86.5749 0.0010169 
-1.11421 -5.24969e-13 5.68989e-14 -2.35566 86.0579 0.00524144 -0.951527 -1.61732e-13 2.78597e-13 
-3.19735 87.3763 -6.40951e-05 -0.696454 4.04357e-13 2.21957e-13 -3.01766 86.7912 0.00634195 
-0.55989 -3.1726e-13 6.57868e-14 -4.11435 88.0931 -0.00232035 -0.0203544 1.29827e-13 -2.41029e-13 
-3.80516 87.4414 0.00734612 0.0536265 -2.80068e-13 2.69056e-15 -5.17968 88.6131 -0.00636963 
1.00624 -2.27679e-13 -1.23519e-13 -4.70219 87.9164 0.00798263 0.960688 1.65659e-13 -9.55833e-14 
-6.33279 88.7478 -0.0131234 2.48112 -6.23446e-13 7.53564e-14 -5.65741 88.0677 0.00777224 
2.235 -1.80619e-13 -1.73306e-13 -6.56398 87.6719 0.00629438 3.92974 -2.23432e-15 4.47295e-13 
-0.0244118 79.5631 -0.00109837 -0.373389 1.4367e-13 -3.77722e-13 -0.0102466 79.4973 -0.00621929 
-0.182147 2.15866e-13 1.43269e-13 -0.100043 80.1013 0.001283 -0.644802 -1.74045e-13 -1.80547e-13 
-0.0721576 79.9517 2.41968e-05 -0.475774 1.92133e-13 -2.72473e-13 -0.212529 80.6986 0.00106689 
-0.847253 -3.44845e-13 8.70241e-14 -0.178917 80.4896 0.000440329 -0.693813 -2.03412e-13 -2.18922e-14 
-0.356561 81.3371 0.000868288 -0.997151 -3.27688e-13 2.26694e-13 -0.322591 81.0851 0.00068916 
-0.853524 1.53497e-14 -3.94823e-14 -0.5338 82.0044 0.000783784 -1.10373 -3.87712e-13 3.44932e-14 
-0.500869 81.7192 0.000996231 -0.965101 -1.6284e-13 1.92665e-13 -0.750235 82.6928 0.000777935 
-1.16954 -4.86451e-14 -1.02911e-13 -0.715996 82.3791 0.00138772 -1.0324 -5.00103e-13 -1.23249e-13 
-1.01532 83.3968 0.000803273 -1.19052 -1.67411e-13 -6.62456e-14 -0.973889 83.0552 0.00186287 
-1.05305 4.74829e-14 2.74593e-13 -1.34122 84.1113 0.000800382 -1.15564 5.00752e-13 1.97273e-14 
-1.28313 83.7394 0.00242171 -1.01834 -3.99484e-13 -5.37625e-14 -1.74182 84.8289 0.00068428 
-1.04607 -7.45078e-13 -6.37129e-14 -1.65383 84.422 0.00305674 -0.912717 1.05319e-13 1.94428e-14 
-2.23103 85.536 0.000328331 -0.834088 -7.13318e-14 -1.02682e-13 -2.09591 85.0891 0.00374495 
-0.713198 -2.29216e-13 -5.15525e-14 -2.81987 86.2075 -0.000455106 -0.481896 -3.7443e-13 4.6397e-14 
-2.6166 85.7175 0.00443455 -0.388766 -2.98175e-13 -5.57865e-14 -3.51149 86.7995 -0.0019281 
0.0587609 -4.76216e-14 9.58053e-14 -3.2163 86.2689 0.00502869 0.0995082 2.41349e-13 6.51805e-14 
-4.29333 87.2385 -0.00443448 0.844807 1.48076e-14 -2.55823e-13 -3.88256 86.6824 0.00536147 
0.796595 8.85819e-14 -6.78693e-14 -5.12556 87.409 -0.00830502 1.93513 2.56878e-13 1.30909e-13 
-4.58164 86.8644 0.00519302 1.74795 -7.8125e-14 8.89497e-14 -5.92657 87.1406 -0.0137474 
3.37491 5.16198e-13 -9.07052e-14 -5.24838 86.6801 0.00419472 2.98751 3.21472e-13 2.1938e-13 
-5.7766 85.9494 0.00209826 4.5159 -4.25771e-14 -2.50328e-13 -0.0289928 79.8425 0.00033354 
-0.312961 5.19029e-14 -3.75727e-13 -0.01285 79.7914 -0.00439959 -0.146642 3.5548e-14 6.94306e-14 
-0.12443 80.3088 0.00170594 -0.541689 -1.87551e-13 -2.12851e-13 -0.0847139 80.1712 0.000169664 
-0.384839 4.10491e-13 -5.81164e-13 -0.264265 80.8507 0.00129631 -0.709522 3.59865e-13 1.44388e-13 
-0.209858 80.6506 0.00046648 -0.560941 3.16184e-13 4.77396e-13 -0.440635 81.4436 0.000956189 
-0.826997 -1.60944e-13 -9.72555e-14 -0.3768 81.1977 0.000691093 -0.685231 1.5971e-13 -3.84529e-13 
-0.652209 82.0691 0.000733137 -0.898848 2.75773e-13 2.62401e-13 -0.580252 81.7879 0.000969672 
-0.762727 6.72121e-13 4.10973e-13 -0.901779 82.7134 0.000580732 -0.924134 4.9157e-13 -1.06252e-13 
-0.819322 82.403 0.00131807 -0.793404 4.70464e-13 -2.97311e-13 -1.19502 83.3651 0.000441606 
-0.896218 -2.24045e-13 1.67005e-13 -1.09637 83.0278 0.00172482 -0.772142 -1.05261e-13 3.62939e-14 
-1.5393 84.0127 0.000247846 -0.802548 4.9258e-13 6.41397e-14 -1.41568 83.6486 0.00217719 
-0.688639 9.79355e-14 1.9755e-13 -1.94212 84.6416 -8.91615e-05 -0.624309 1.35999e-13 -7.46209e-14 
-1.78188 84.2498 0.00265259 -0.527281 -1.11522e-13 1.12924e-13 -2.40892 85.2306 -0.000687615 
-0.336174 -1.70627e-13 -1.43551e-13 -2.19801 84.8109 0.00311211 -0.267149 -1.26142e-13 -2.76112e-13 
-2.9398 85.747 -0.00170196 0.0934557 3.70478e-13 1.20084e-13 -2.66272 85.3029 0.00349154 
0.117539 6.83273e-14 4.1846e-13 -3.52478 86.1408 -0.0033181 0.700896 1.91437e-13 -3.88578e-14 
-3.16651 85.6831 0.00369242 0.655933 1.45935e-13 -1.17109e-13 -4.13729 86.3376 -0.00572709 
1.52303 4.07827e-13 -4.11268e-14 -3.68686 85.89 0.0035764 1.37708 -1.70763e-13 -7.26433e-14 
-4.72634 86.2316 -0.00904322 2.58863 3.59324e-13 4.03844e-15 -4.18252 85.8384 0.00297357 
2.30316 -1.76491e-13 -4.66016e-14 -5.20873 85.6829 -0.0131651 3.90278 -5.54071e-13 -1.60455e-13 
-4.58817 85.4166 0.0017154 3.43784 -2.96457e-13 -2.3101e-13 -4.81236 84.4908 -0.000283711 
4.74889 -2.79162e-13 1.32727e-13 -0.0317044 80.0695 0.00133358 -0.241998 7.99014e-14 -3.40158e-13 
-0.0143185 80.019 -0.00311567 -0.106944 -4.14911e-14 3.10562e-13 -0.139358 80.4766 0.00195943 
-0.420543 7.36613e-13 -4.1463e-13 -0.0913392 80.3424 0.000256002 -0.28294 -3.45583e-13 -3.63445e-13 
-0.295507 80.9694 0.00140238 -0.549093 -5.80229e-13 2.56763e-13 -0.225895 80.7738 0.000458128 
-0.412765 -6.07278e-13 2.21351e-14 -0.48999 81.5179 0.000945301 -0.6323 4.63157e-13 -2.25202e-14 
-0.403829 81.2773 0.000648537 -0.499906 -5.2593e-13 -1.19162e-13 -0.718581 82.0991 0.000603011 
-0.670533 -2.04243e-13 1.38053e-13 -0.617236 81.8242 0.000885173 -0.544391 -4.306e-13 1.39781e-13 
-0.980825 82.6942 0.000324285 -0.659757 -8.2232e-14 4.26742e-16 -0.862288 82.3921 0.00117625 
-0.542642 -2.50968e-13 6.4157e-14 -1.27859 83.2871 4.85262e-05 -0.591477 1.55717e-13 -4.10488e-14 
-1.13797 82.9616 0.00150277 -0.487323 1.89633e-13 9.88133e-14 -1.61461 83.8609 -0.000292356 
-0.452708 -3.73717e-13 1.47689e-13 -1.44458 83.5145 0.00184385 -0.367345 -1.64526e-13 -1.20827e-13 
-1.99064 84.3963 -0.000780131 -0.226076 -1.50605e-13 -5.55563e-14 -1.78203 84.0311 0.00216899 
-0.168043 -3.63893e-14 2.13878e-13 -2.40521 84.867 -0.00151274 0.109717 4.68622e-13 -3.48141e-14 
-2.14786 84.4871 0.00243416 0.128326 2.25729e-13 -3.87255e-14 -2.85052 85.2373 -0.00260167 
0.578658 -9.31373e-14 -7.35748e-14 -2.53464 84.851 0.00257727 0.541435 6.26652e-14 -1.34536e-14 
-3.30857 85.4568 -0.0041569 1.20474 -2.56562e-13 -2.20032e-14 -2.92699 85.0802 0.00251623 
1.09064 -7.6125e-13 -1.0696e-13 -3.74661 85.457 -0.00625132 2.00689 3.82798e-13 7.50823e-14 
-3.29812 85.1183 0.00215274 1.79096 -4.14738e-14 1.81393e-13 -4.11281 85.1494 -0.00884951 
2.99048 -2.88006e-13 -2.16577e-13 -3.60669 84.8932 0.00138973 2.64653 -3.95493e-13 -1.05388e-13 
-4.33387 84.4273 -0.0117032 4.13443 3.27278e-13 5.50809e-14 -3.79521 84.3189 0.000165845 
3.64106 -2.90219e-13 2.51889e-13 -3.79217 83.3034 -0.00147086 4.72554 3.43208e-13 -8.69235e-14 
-0.0326761 80.2376 0.00189932 -0.165436 -6.28011e-13 -3.21673e-13 -0.0147301 80.175 -0.00238501 
-0.0655706 -1.25264e-13 -1.1858e-13 -0.145306 80.6007 0.0020506 -0.290042 -6.98552e-13 -2.36623e-13 
-0.0925017 80.4617 0.000286493 -0.176733 2.82975e-13 -1.80758e-13 -0.307278 81.0529 0.00139343 
-0.377761 3.65975e-14 3.55542e-13 -0.228173 80.8576 0.000423056 -0.259246 4.02217e-13 6.63115e-14 
-0.506513 81.561 0.000848219 -0.427643 5.75861e-13 -1.03889e-13 -0.405819 81.3247 0.000575234 
-0.310281 6.40521e-14 2.63463e-13 -0.73624 82.0984 0.000412683 -0.435992 1.37764e-13 -2.61839e-14 
-0.615444 81.8318 0.000764637 -0.325245 -1.79173e-13 -2.19394e-13 -0.993066 82.6427 3.61646e-05 
-0.396094 3.263e-13 2.49686e-13 -0.850736 82.3532 0.000994652 -0.297374 2.54493e-13 4.8227e-13 
-1.27546 83.1742 -0.000339796 -0.298171 -2.72063e-13 -2.48593e-13 -1.10782 82.8669 0.00124208 
-0.217557 1.49112e-13 -4.19628e-13 -1.5822 83.6728 -0.000777607 -0.129536 -2.06216e-13 3.81466e-13 
-1.38372 83.3518 0.00148218 -0.0744378 -1.59777e-14 3.78577e-13 -1.91055 84.1158 -0.00134626 
0.124961 1.68353e-13 1.36851e-13 -1.67476 83.7858 0.0016824 0.14519 -3.04022e-13 -7.31516e-14 
-2.25414 84.4754 -0.00211925 0.481989 6.24951e-14 -3.39449e-13 -1.97465 84.1433 0.00180095 
0.455553 -4.5117e-13 -1.32851e-13 -2.60041 84.7157 -0.0031668 0.95796 -5.43749e-13 -1.09805e-13 
-2.27245 84.393 0.00178592 0.870406 -1.78199e-13 -4.36482e-14 -2.92785 84.7904 -0.00453782 
1.56594 3.82966e-13 1.28009e-13 -2.55029 84.4957 0.00157766 1.40056 1.30327e-13 -1.16303e-13 
-3.20329 84.6409 -0.00622648 2.31075 -5.97116e-13 9.26689e-15 -2.78141 84.4028 0.00111728 
2.05001 2.25797e-13 1.20043e-15 -3.38033 84.1978 -0.00812152 3.18174 -1.64055e-13 -4.21052e-14 
-2.92887 84.0575 0.000364576 2.81052 -2.28905e-13 1.68809e-13 -3.40029 83.3853 -0.00994109 
4.14344 -2.05249e-13 4.74551e-14 -2.94632 83.3977 -0.0006732 3.6545 4.20114e-13 -1.92166e-13 
-2.78209 82.3649 -0.00189849 4.52736 -5.08274e-16 1.67893e-13 -0.0321272 80.3443 0.00204676 
-0.0878215 -2.16054e-13 -1.80661e-13 -0.0142067 80.2582 -0.00220066 -0.0247594 -6.17984e-13 2.34476e-13 
-0.143206 80.68 0.00199088 -0.158226 3.468e-13 -1.08771e-13 -0.0888914 80.5289 0.00026601 
-0.0722065 4.62243e-14 -2.89317e-14 -0.301548 81.1023 0.00127973 -0.206391 5.38308e-13 1.90152e-13 
-0.218378 80.9035 0.000368736 -0.109346 5.97892e-13 3.90365e-14 -0.493618 81.5762 0.000677091 
-0.226235 1.43084e-14 -3.19599e-13 -0.385853 81.3433 0.000483888 -0.127696 -2.53169e-13 -1.26388e-13 
-0.710624 82.0729 0.000178076 -0.210364 -2.94076e-14 2.61034e-13 -0.579838 81.816 0.000627364 
-0.118485 -2.09934e-14 -2.0766e-13 -0.946789 82.5679 -0.000263412 -0.149744 -2.83e-13 1.8005e-13 
-0.792155 82.2944 0.00080042 -0.0721116 5.06744e-13 4.79554e-13 -1.19789 83.0392 -0.000700089 
-0.0336974 7.33945e-13 -4.38658e-13 -1.01678 82.7548 0.000978512 0.022012 8.0583e-14 -2.61683e-13 
-1.45973 83.4649 -0.00118547 0.149803 -2.67114e-13 3.06394e-13 -1.2484 83.1749 0.00113628 
0.175271 -5.2853e-14 -1.80302e-13 -1.72652 83.8214 -0.00177382 0.413471 2.39442e-13 1.92488e-13 
-1.48098 83.5319 0.001243 0.399316 1.38299e-13 1.0862e-13 -1.98901 84.0811 -0.0025154 
0.769527 2.54374e-13 -1.9991e-13 -1.70611 83.8008 0.00126312 0.70509 -7.64991e-14 8.38616e-14 
-2.23264 84.211 -0.00344705 1.22776 1.42933e-14 3.3952e-14 -1.91143 83.9526 0.0011576 
1.10127 1.60069e-13 9.47202e-14 -2.43574 84.1707 -0.00457534 1.79259 -2.83202e-14 -4.93217e-14 
-2.07922 83.9533 0.000888441 1.59193 -1.52179e-13 -2.64041e-13 -2.56832 83.9135 -0.00585105 
2.45885 -2.62767e-13 -3.18738e-14 -2.18536 83.7637 0.000427737 2.1733 -4.80583e-15 2.77178e-13 
-2.59234 83.388 -0.00713642 3.20637 3.58288e-13 2.91808e-13 -2.19947 83.3413 -0.00022745 
2.8296 7.84693e-14 -1.58186e-13 -2.46425 82.5444 -0.0081743 3.99384 -1.2668e-13 -2.90296e-13 
-2.0868 82.6444 -0.00103566 3.52838 -4.29205e-13 6.9833e-14 -1.81273 81.6399 -0.00188835 
4.21628 -4.93737e-14 -9.74013e-14 -0.0303219 80.3904 0.00180723 -0.0131277 8.06779e-14 1.00048e-13 
-0.0128906 80.2715 -0.00253778 0.0135967 4.85839e-13 -4.58054e-14 -0.134234 80.7163 0.00179636 
-0.0321803 -6.44054e-13 -1.60106e-13 -0.0812953 80.5467 0.00020059 0.0255019 -2.37965e-13 1.26538e-13 
-0.280798 81.1208 0.00107332 -0.0445314 -2.30283e-13 2.12642e-13 -0.198436 80.9149 0.000302021 
0.0292164 -2.86289e-13 4.41661e-15 -0.455502 81.5684 0.000443135 -0.0395127 5.47104e-14 -1.05548e-13 
-0.347395 81.338 0.000385332 0.0381582 5.03104e-13 5.23921e-14 -0.648156 82.0298 -8.90334e-05 
-0.00639875 -7.9485e-15 -5.49387e-15 -0.515853 81.7837 0.000489048 0.0648312 -1.48493e-13 -1.83326e-14 
-0.8513 82.4793 -0.00056226 0.0658969 -7.60875e-13 -4.46587e-14 -0.694459 82.2245 0.000614519 
0.121401 2.03256e-13 -2.48537e-13 -1.05886 82.8942 -0.00102177 0.188769 2.40688e-13 -7.42184e-14 
-0.875848 82.6363 0.000737865 0.219776 2.67186e-13 -7.31429e-14 -1.26479 83.2524 -0.0015113 
0.373531 3.16089e-13 1.33159e-13 -1.05337 82.997 0.00083515 0.371357 -4.31941e-13 4.5681e-13 
-1.46161 83.5307 -0.00207127 0.630664 2.82771e-13 2.24652e-13 -1.21981 83.2846 0.000879482 
0.586441 -8.4167e-14 -1.56593e-14 -1.63898 83.7038 -0.00273299 0.968595 -3.71822e-13 -1.04325e-13 
-1.36608 83.4761 0.000842782 0.873258 -3.94233e-14 7.92991e-15 -1.78242 83.7427 -0.00350961 
1.39188 -7.82175e-13 -1.50156e-13 -1.48012 83.5462 0.000698279 1.23653 -2.31556e-13 -2.34723e-13 
-1.87227 83.6148 -0.00438273 1.89871 -3.52342e-13 -1.91205e-13 -1.54596 83.4671 0.000425401 
1.67551 1.61435e-13 -5.35058e-14 -1.88362 83.2844 -0.00528522 2.47764 -1.0618e-13 2.46532e-13 
-1.5436 83.209 1.74777e-05 2.18147 -2.14098e-13 1.40762e-13 -1.78736 82.7161 -0.00608342 
3.1039 2.82139e-13 1.09645e-13 -1.44972 82.742 -0.00050778 2.73488 -2.47337e-13 1.31145e-13 
-1.55348 81.8803 -0.0065666 3.73585 -3.56108e-13 -1.701e-13 -1.24002 82.0407 -0.00109719 
3.30258 5.36376e-14 -4.67612e-14 -0.89339 81.09 -0.00165282 3.83603 -1.07411e-13 1.11383e-13 
-0.0275326 80.3802 0.00121973 0.0553322 -3.07178e-14 -1.07081e-13 -0.0109259 80.2208 -0.00336082 
0.0479678 1.32437e-14 2.29913e-13 -0.119634 80.7139 0.00148431 0.0821061 5.05183e-13 -1.03582e-13 
-0.0704943 80.5205 9.63624e-05 0.112155 -4.2663e-13 -2.96662e-13 -0.247638 81.1133 0.000785742 
0.0997404 -1.07283e-13 1.81553e-13 -0.170247 80.8975 0.000228506 0.150018 -3.48633e-13 1.11152e-13 
-0.396509 81.5441 0.000155288 0.122959 -2.07877e-13 5.7945e-14 -0.293833 81.3152 0.000287941 
0.179245 1.04788e-13 -4.77153e-14 -0.555316 81.9769 -0.00038129 0.165508 3.40329e-13 5.51711e-14 
-0.428702 81.7423 0.000361293 0.215692 5.14758e-14 -2.74607e-14 -0.715675 82.3866 -0.000855048 
0.24037 -4.07281e-13 -1.99996e-13 -0.565043 82.1521 0.000451601 0.273904 -1.69522e-13 1.41387e-13 
-0.870561 82.7506 -0.00130357 0.359637 3.52107e-13 2.59183e-13 -0.694973 82.5214 0.000536774 
0.367085 -3.05959e-13 -1.3551e-13 -1.01311 83.048 -0.00176168 0.534076 -3.39929e-13 6.62239e-14 
-0.811442 82.8292 0.000595209 0.506791 2.03612e-13 1.37026e-13 -1.13543 83.2575 -0.00225849 
0.772378 -4.45919e-13 1.43167e-13 -0.907138 83.0557 0.000604373 0.702346 -1.19325e-13 -1.37021e-13 
-1.22748 83.3572 -0.00281163 1.08004 -5.89771e-14 -2.28585e-13 -0.973477 83.1808 0.000543225 
0.959965 -6.92304e-13 -5.56211e-14 -1.27626 83.323 -0.00341961 1.45786 4.21676e-13 -1.9613e-13 
-0.999794 83.1839 0.000395008 1.28156 -3.94781e-13 -1.8889e-14 -1.26539 83.13 -0.00405235 
1.89995 4.69416e-13 2.17205e-14 -0.972927 83.0435 0.000151542 1.66326 6.59646e-14 3.75047e-15 
-1.17554 82.7529 -0.00464097 2.3915 -4.89359e-13 1.75825e-13 -0.877426 82.7384 -0.000181112 
2.09362 -1.07813e-13 1.97047e-14 -0.986025 82.1692 -0.00507014 2.90652 -3.91583e-13 -8.55219e-14 
-0.696651 82.2497 -0.000576225 2.55192 -1.94435e-13 -1.96457e-13 -0.677812 81.3644 -0.005179 
3.40609 1.60129e-13 -6.66099e-14 -0.415004 81.5639 -0.000981299 3.00676 5.38979e-14 3.36849e-14 
-0.0214203 80.6786 -0.00131652 3.41579 -9.8397e-14 -2.78354e-14 -0.0240111 80.3202 0.000324971 
0.114899 -1.02732e-12 -1.573e-13 -0.00844302 80.1144 -0.00462976 0.0771637 3.00211e-14 -8.13048e-14 
-0.100574 80.6791 0.00107087 0.179728 5.4935e-13 -5.50844e-14 -0.0571828 80.4578 -4.10283e-05 
0.184358 4.57288e-13 6.91461e-14 -0.204496 81.0868 0.000426712 0.219769 -7.14997e-13 2.11841e-13 
-0.135493 80.8585 0.000152435 0.247836 5.24876e-13 -2.06654e-13 -0.320628 81.5106 -0.000180325 
0.25336 3.86102e-14 -2.60708e-13 -0.228126 81.2824 0.000197729 0.289017 -1.74143e-13 1.47046e-13 
-0.437934 81.9226 -0.000695335 0.297047 1.27869e-13 3.27124e-13 -0.322861 81.6999 0.000252043 
0.326844 -8.54893e-13 -2.93224e-13 -0.547864 82.2987 -0.00114165 0.365659 4.73237e-13 2.447e-14 
-0.410115 82.0858 0.00032104 0.378162 9.97952e-14 5.00317e-13 -0.643306 82.6182 -0.00155033 
0.472092 2.39123e-13 -1.88492e-13 -0.482274 82.4188 0.000384721 0.457546 -2.94261e-14 -4.32361e-13 
-0.717553 82.8619 -0.00194922 0.626854 -5.9871e-13 7.09233e-14 -0.532752 82.6804 0.000423825 
0.576946 -3.11124e-13 -5.05481e-14 -0.763309 83.0118 -0.0023594 0.837387 2.788e-13 -1.04373e-13 
-0.555054 82.8535 0.000419759 0.745141 3.12989e-13 9.51201e-14 -0.771863 83.0498 -0.00278989 
1.10714 -3.44844e-13 -3.00797e-14 -0.541964 82.9221 0.000357223 0.96702 8.40997e-13 -2.05026e-13 
-0.732566 82.9575 -0.0032318 1.43443 2.81289e-13 2.58073e-13 -0.484984 82.8703 0.000226804 
1.2427 -1.93595e-13 1.39384e-13 -0.632816 82.717 -0.00365221 1.81105 7.43766e-13 2.60701e-13 
-0.37418 82.683 2.82716e-05 1.56649 1.20341e-13 3.9075e-13 -0.458744 82.312 -0.00398915 
2.22088 -3.05846e-13 -3.05291e-13 -0.198597 82.3465 -0.000225782 1.92584 -2.03445e-13 7.77503e-14 
-0.196817 81.7304 -0.00415017 2.63873 -9.55902e-14 -2.40929e-13 0.052593 81.8506 -0.000506664 
2.30043 3.52315e-13 -2.36557e-13 0.163507 80.9681 -0.00401834 3.02985 -6.1658e-13 -9.26689e-15 
0.388136 81.191 -0.00076825 2.6618 -7.75699e-14 -2.22433e-13 0.811958 80.3733 -0.000949292 
2.97396 4.51944e-13 1.35714e-13 -0.0199686 80.2194 -0.000839512 0.163498 3.57873e-13 1.09079e-14 
-0.00554855 79.9627 -0.0063055 0.100281 -9.49327e-14 1.21857e-13 -0.0780334 80.62 0.000569143 
0.256738 -7.15196e-14 1.96346e-13 -0.0419123 80.3678 -0.00020687 0.239425 -1.36958e-13 1.38382e-13 
-0.153398 81.049 3.09209e-06 0.31013 6.5893e-14 -3.81865e-13 -0.0954908 80.8067 7.67829e-05 
0.318432 -4.72727e-13 1.40443e-13 -0.231128 81.4759 -0.000560545 0.345322 2.03033e-13 -7.72056e-14 
-0.152555 81.2481 0.000118765 0.362112 1.68333e-13 -1.27051e-14 -0.300692 81.8748 -0.00103099 
0.381568 1.10582e-13 4.38299e-13 -0.201717 81.6646 0.000166456 0.392379 6.34214e-13 -1.49668e-13 
-0.354099 82.224 -0.00142522 0.435591 -1.86443e-13 1.44948e-13 -0.234264 82.0335 0.00022843 
0.428415 -1.60011e-14 3.82694e-13 -0.38496 82.5049 -0.00176981 0.521272 1.43502e-13 -3.6535e-13 
-0.243597 82.3363 0.000286391 0.486318 1.69519e-13 -3.86703e-13 -0.387565 82.7017 -0.0020882 
0.64919 3.3834e-13 -2.96742e-14 -0.224369 82.5575 0.00032279 0.578695 5.86631e-14 -3.00471e-14 
-0.356034 82.7998 -0.00239679 0.826058 1.9904e-13 2.05808e-13 -0.171651 82.6839 0.000322043 
0.714184 3.16634e-13 7.32608e-14 -0.283674 82.7858 -0.00270024 1.05404 6.72237e-13 -1.90137e-14 
-0.0802378 82.7037 0.000273063 0.896928 6.04912e-13 2.18167e-13 -0.162664 82.6469 -0.00298733 
1.33 -1.1768e-13 1.32219e-13 0.05577 82.6062 0.000171408 1.12601 -8.29579e-14 -4.21168e-13 
0.0157806 82.3716 -0.0032275 1.64463 3.43409e-13 6.62586e-14 0.242983 82.3821 2.14851e-05 
1.39487 -1.02793e-13 2.88977e-13 0.260644 81.9511 -0.00336922 1.98182 1.05506e-14 -1.23788e-13 
0.488243 82.0244 -0.000161511 1.69083 -5.19099e-13 -2.15928e-13 0.579652 81.3812 -0.00334197 
2.31824 3.07011e-13 -7.66158e-14 0.797575 81.5296 -0.000350516 1.99485 -3.99861e-13 1.33822e-13 
0.977127 80.6652 -0.0030639 2.62368 4.81708e-13 5.00086e-14 1.17457 80.9001 -0.000507392 
2.28175 1.50893e-13 1.50893e-13 1.6183 80.1465 -0.000586784 2.52134 2.11095e-13 -4.809e-13 
-0.0155624 80.0882 -0.00224318 0.199518 -3.57873e-15 2.70096e-14 -0.00231809 79.7778 -0.00835423 
0.116633 -6.08746e-13 -1.25469e-13 -0.052738 80.5464 -1.2199e-05 0.309937 -1.32719e-13 9.16038e-14 
-0.0250532 80.2613 -0.000397651 0.275182 6.71078e-14 7.89299e-15 -0.0958001 81.0089 -0.000481823 
0.366327 -1.08655e-13 -2.27544e-13 -0.0510983 80.752 3.51948e-06 0.358257 -1.94293e-13 1.59688e-13 
-0.130309 81.4486 -0.000985119 0.39354 8.06594e-14 1.06134e-13 -0.0685557 81.2214 5.38308e-05 
0.393966 -6.05684e-13 -1.84051e-13 -0.146803 81.8417 -0.00139037 0.413581 4.99906e-13 8.33222e-14 
-0.0673268 81.6448 0.000108036 0.407259 -3.99563e-13 1.36318e-13 -0.138546 82.1697 -0.00171042 
0.445208 -1.16907e-12 3.42157e-14 -0.0401961 82.0027 0.000177274 0.41981 -2.25972e-13 -3.28366e-13 
-0.100622 82.4173 -0.00197016 0.503504 7.09223e-13 -2.91434e-14 0.0177207 82.2801 0.000243981 
0.449441 -2.781e-13 4.77299e-13 -0.0290488 82.5725 -0.00219151 0.599425 5.29098e-13 -2.38195e-13 
0.109824 82.4655 0.000291293 0.509665 -1.12738e-13 1.02583e-13 0.0799984 82.625 -0.00238921 
0.739379 -2.51701e-13 2.35735e-13 0.238855 82.5498 0.000305532 0.609293 2.75596e-13 -5.87369e-13 
0.230738 82.5661 -0.00256686 0.92481 -3.43742e-13 -6.51909e-14 0.40755 82.5262 0.000278465 
0.752121 -1.27003e-13 5.10232e-13 0.427991 82.3885 -0.00271408 1.15181 6.00624e-13 -8.37591e-14 
0.618993 82.3892 0.000208876 0.936697 2.89428e-13 -2.86529e-13 0.676948 82.0866 -0.00280502 
1.41078 -2.81046e-13 -2.08325e-13 0.876591 82.1348 0.000103723 1.15616 3.58297e-13 -1.20947e-14 
0.982443 81.6577 -0.00279899 1.68631 -3.21597e-13 1.59803e-14 1.18361 81.7615 -2.12684e-05 
1.39821 1.95399e-13 -2.2493e-13 1.34771 81.1036 -0.00264393 1.95732 -2.3612e-13 2.20768e-13 
1.54226 81.2713 -0.000141969 1.64538 -2.42979e-13 1.40487e-13 1.7727 80.4324 -0.00228409 
2.19788 -2.04142e-13 2.72189e-13 1.95242 80.6711 -0.000227703 1.87564 2.5039e-13 2.4802e-13 
2.41008 79.9748 -0.000245424 2.06373 3.52239e-13 -1.08698e-14 -0.0108883 79.9386 -0.00386547 
0.221665 1.13484e-13 1.13021e-13 0.00120865 79.5728 -0.010751 0.125661 2.83093e-13 9.7318e-14 
-0.0251036 80.469 -0.000670124 0.336606 7.22531e-13 -1.18107e-13 -0.00676729 80.1503 -0.000611217 
0.289745 7.05876e-14 1.6414e-13 -0.0324863 80.9768 -0.00102886 0.384423 -8.18878e-13 2.90878e-14 
-0.00263859 80.7054 -6.60334e-05 0.364111 3.02889e-13 -4.92092e-13 -0.0193283 81.4375 -0.00145655 
0.393307 -1.77658e-13 7.79932e-15 0.0234124 81.2121 5.21889e-06 0.380371 3.5057e-14 3.5032e-13 
0.0222065 81.8311 -0.00177695 0.388217 1.84797e-13 1.75981e-13 0.0797445 81.6491 7.98952e-05 
0.366799 -5.10805e-13 8.19726e-14 0.0969071 82.1424 -0.00200192 0.390168 7.05326e-13 -1.63133e-13 
0.171444 82.0004 0.000170682 0.347833 1.89678e-13 1.26392e-14 0.207504 82.3603 -0.00215798 
0.415659 -9.877e-13 2.1666e-13 0.300974 82.2555 0.000259296 0.34325 1.27162e-13 -2.39864e-13 
0.355599 82.4773 -0.00226858 0.47625 -1.26732e-13 -5.53203e-14 0.469125 82.4074 0.000328299 
0.367656 -2.68036e-13 1.70596e-13 0.542459 82.488 -0.00234949 0.578311 4.02598e-13 2.0834e-15 
0.675916 82.4522 0.000364909 0.430204 8.70727e-14 1.3905e-13 0.769548 82.3887 -0.00240541 
0.722893 -3.68042e-13 -1.40141e-13 0.921282 82.3881 0.000362817 0.534536 9.77968e-14 -2.03799e-13 
1.0387 82.1772 -0.00242838 0.905713 3.94955e-13 6.48062e-14 1.20543 82.2146 0.000323059 
0.678881 4.36873e-14 1.43638e-13 1.35189 81.8531 -0.00239778 1.11725 4.42792e-13 -1.13541e-13 
1.52882 81.933 0.000254167 0.856284 3.63501e-13 -4.26974e-14 1.71057 81.4188 -0.00228229 
1.34302 7.68191e-13 -3.65159e-15 1.89172 81.5463 0.000171683 1.05499 7.05862e-13 1.92143e-13 
2.11464 80.8805 -0.00204402 1.56417 3.94414e-13 7.18176e-14 2.29346 81.0607 9.68719e-05 
1.25901 6.13086e-13 -2.22971e-13 2.56117 80.2494 -0.00164551 1.75846 -1.15283e-13 6.45491e-14 
2.73137 80.4864 5.44155e-05 1.44906 1.6414e-13 -7.27855e-14 3.19968 79.8388 6.85006e-05 
1.60385 3.23401e-13 1.30375e-13 -0.00597543 79.7839 -0.00569823 0.228785 3.33386e-13 2.92051e-13 
0.00503204 79.3619 -0.0134826 0.126845 5.61357e-14 5.17017e-13 0.0048015 80.4003 -0.0014083 
0.334184 2.13635e-13 -5.93553e-14 0.013018 80.0484 -0.000846857 0.281249 8.15079e-13 -3.8787e-13 
0.0365302 80.9634 -0.00164347 0.360611 3.30073e-13 -1.30139e-13 0.0501694 80.6792 -0.000130739 
0.332733 5.48857e-13 3.36488e-13 0.101945 81.4524 -0.0019799 0.340012 1.64192e-14 -9.64367e-14 
0.123987 81.2311 -2.43234e-05 0.316984 2.20674e-14 -3.05436e-13 0.206659 81.8507 -0.00219471 
0.300687 7.04679e-14 9.84074e-14 0.240588 81.6862 8.6136e-05 0.266131 4.29018e-13 -5.21493e-14 
0.352791 82.1477 -0.00230292 0.266191 -7.12694e-14 -7.1651e-14 0.402225 82.0331 0.000213072 
0.207776 1.27409e-13 2.73323e-14 0.540158 82.3374 -0.00233669 0.254617 7.62206e-13 -2.12663e-13 
0.608187 82.2665 0.000335574 0.16388 1.64188e-13 9.9875e-14 0.767375 82.4174 -0.0023241 
0.278229 1.19623e-13 8.99142e-14 0.855983 82.3849 0.000434327 0.150216 4.17222e-13 -4.80796e-14 
1.03274 82.3876 -0.00228402 0.343426 -6.60194e-13 2.35355e-13 1.14243 82.3902 0.000496769 
0.176265 -3.53502e-14 -1.09975e-13 1.33483 82.2495 -0.0022235 0.45094 6.80955e-13 -1.28238e-13 
1.46443 82.2857 0.000518203 0.245459 -3.7283e-13 1.24147e-13 1.67261 82.0059 -0.00213728 
0.596195 -2.74177e-13 2.75886e-13 1.81936 82.0762 0.000501773 0.355647 -1.24192e-13 9.39439e-14 
2.0453 81.6611 -0.00200911 0.769785 7.79446e-14 4.63249e-14 2.20507 81.7676 0.000457552 
0.49971 -2.87492e-13 1.13278e-13 2.45173 81.2214 -0.00181464 0.9581 -9.92262e-14 -2.19444e-13 
2.61944 81.367 0.000401127 0.666273 -1.79648e-13 -3.11316e-13 2.88947 80.6961 -0.0015259 
1.14416 -1.61982e-13 -9.23046e-14 3.05974 80.8837 0.000351704 0.840559 1.75041e-13 -1.23241e-13 
3.35385 80.0987 -0.00111733 1.30874 -7.27474e-14 1.42424e-13 3.52176 80.33 0.000329695 
1.00543 1.13451e-13 2.21179e-13 3.99893 79.7221 0.000353307 1.14265 3.35169e-13 -2.03258e-14 
-0.000780121 79.6388 -0.00774819 0.219672 1.63105e-13 3.40075e-14 0.00919786 79.1609 -0.0165506 
0.119597 -3.85093e-13 2.91753e-13 0.0373031 80.3537 -0.00223832 0.299912 -2.49979e-13 -5.70793e-14 
0.0346439 79.9705 -0.00110535 0.247556 -3.21321e-13 -3.54515e-13 0.11211 80.9809 -0.0023363 
0.290735 3.09945e-13 1.72889e-13 0.108305 80.687 -0.000189036 0.260361 -7.41833e-13 1.92943e-13 
0.235088 81.5031 -0.00256249 0.228602 -3.5213e-13 -2.34028e-13 0.235064 81.2898 -3.0409e-05 
0.198785 1.98749e-13 1.17018e-13 0.40892 81.908 -0.00264708 0.145735 -4.62706e-13 -1.98591e-13 
0.418161 81.765 0.000133466 0.0996449 -3.05617e-13 -1.35086e-13 0.632212 82.1906 -0.00261381 
0.0685634 1.00642e-13 1.4394e-13 0.656146 82.1068 0.000311933 -0.00577421 -4.50841e-13 -8.62886e-14 
0.90109 82.3508 -0.00250519 0.0168626 -9.0955e-13 -1.96895e-13 0.94426 82.316 0.000479132 
-0.0931516 -4.75255e-13 6.93196e-15 1.21058 82.3922 -0.00235697 0.00351324 5.33958e-13 5.97994e-14 
1.27602 82.398 0.000612751 -0.145638 7.98459e-14 3.92374e-13 1.55568 82.3207 -0.00219263 
0.0347691 4.792e-14 -1.22225e-13 1.64458 82.3607 0.000700399 -0.15369 -1.1402e-13 -6.23158e-13 
1.93201 82.1429 -0.00202169 0.110844 -7.11653e-13 3.73989e-14 2.04368 82.2135 0.000739531 
-0.114417 -1.17246e-13 9.98368e-14 2.33596 81.8665 -0.00184071 0.226671 2.19783e-13 2.72312e-13 
2.46803 81.9662 0.000736137 -0.0306831 1.09968e-13 2.4749e-13 2.76446 81.4998 -0.00163596 
0.372743 -7.41199e-13 -2.54828e-13 2.91325 81.6287 0.000702588 0.0898988 -2.51021e-13 -1.02855e-13 
3.21446 81.0525 -0.00138727 0.536023 -5.42462e-13 2.38267e-13 3.37549 81.2116 0.000655353 
0.235989 -2.91434e-14 -2.17709e-13 3.68209 80.5361 -0.00107259 0.700943 6.36456e-13 -1.03018e-13 
3.85074 80.7268 0.000612692 0.393569 -4.05648e-13 6.94434e-13 4.16187 79.9652 -0.00067329 
0.850559 -6.88095e-13 1.84056e-13 4.33405 80.1878 0.00059234 0.547043 1.32533e-15 -5.2047e-13 
4.81883 79.6108 0.000608707 0.680448 -1.69392e-13 2.89253e-13 0.00482407 79.5193 -0.0100401 
0.192842 -5.56941e-13 -3.37064e-13 0.0138061 78.9866 -0.0199743 0.103141 3.14287e-13 -2.44554e-13 
0.0731913 80.3446 -0.00318142 0.230413 -2.55525e-13 1.47368e-13 0.0587779 79.9332 -0.001389 
0.185896 -3.43101e-13 6.64885e-14 0.196146 81.0427 -0.00312385 0.169736 2.32009e-13 -3.54161e-14 
0.173597 80.744 -0.000238048 0.142186 -1.66565e-13 1.4079e-13 0.383371 81.6001 -0.00321341 
0.0529805 -2.029e-13 -2.86736e-13 0.360063 81.4008 -5.36118e-06 0.0194564 -1.3272e-13 -2.18103e-13 
0.633674 82.0104 -0.00313556 -0.0829094 -5.00378e-13 -1.76359e-13 0.617621 81.8947 0.000233269 
-0.139604 2.64816e-13 -1.29952e-13 0.941111 82.275 -0.00293033 -0.208298 1.45189e-13 2.91728e-13 
0.939977 82.2268 0.000479837 -0.299418 -2.25479e-14 -7.78544e-15 1.29721 82.4011 -0.00265623 
-0.301804 -2.25257e-13 1.60774e-14 1.31724 82.4058 0.000700909 -0.43325 -5.46785e-14 2.43784e-13 
1.6928 82.3994 -0.00235948 -0.350276 -4.09298e-13 2.10023e-13 1.73816 82.4449 0.00087065 
-0.523542 3.13756e-13 -1.7978e-13 2.11932 82.2821 -0.00206863 -0.348082 4.27935e-13 -3.64927e-13 
2.19181 82.3594 0.00097789 -0.561274 -4.22967e-13 3.31152e-13 2.56951 82.0613 -0.00179451 
-0.296014 6.85493e-14 3.82418e-13 2.66872 82.1646 0.00102394 -0.544747 3.71099e-13 -1.42582e-13 
3.03751 81.7494 -0.00153343 -0.200083 4.34326e-13 -2.27074e-13 3.16121 81.8753 0.00101933 
-0.478144 -1.75276e-14 4.13281e-14 3.51859 81.3581 -0.00127155 -0.0703164 2.25028e-13 -7.59267e-14 
3.66325 81.5054 0.000980132 -0.370112 -6.8695e-14 -1.96431e-14 4.00852 80.8996 -0.000989782 
0.0803821 -2.17604e-14 2.90407e-13 4.16991 81.0684 0.000924854 -0.232444 4.32765e-13 1.3183e-14 
4.50278 80.3872 -0.000668525 0.237335 -4.56385e-13 -4.63744e-14 4.67663 80.5776 0.000871908 
-0.0789022 -6.4268e-14 6.47866e-14 4.99581 79.8356 -0.000292304 0.385214 -6.14037e-13 -5.57887e-14 
5.17847 80.0472 0.000837591 0.0758976 1.69378e-14 -4.97133e-13 5.66942 79.493 0.000833976 
0.217565 -2.55837e-14 3.99247e-13 0.011066 79.4436 -0.0126212 0.146265 -1.58279e-13 -4.6424e-13 
0.0190265 78.858 -0.0237953 0.0763661 1.61272e-13 9.58261e-14 0.113842 80.39 -0.00427096 
0.121167 1.81083e-13 2.18353e-13 0.0865151 79.9558 -0.00170158 0.0924185 1.86177e-13 -6.10623e-16 
0.291832 81.1633 -0.00402931 -0.00900608 7.46261e-13 -7.85969e-14 0.248987 80.8674 -0.000272089 
-0.0283109 -5.08656e-14 2.17604e-13 0.552149 81.7547 -0.00394248 -0.194655 2.66683e-13 -2.294e-13 
0.504353 81.5777 6.43314e-05 -0.229352 2.2319e-14 -4.2339e-13 0.888386 82.1648 -0.00365747 
-0.393088 6.96349e-13 1.63355e-13 0.846876 82.0843 0.000404507 -0.460548 6.18179e-13 1.93241e-13 
1.28868 82.4036 -0.00324112 -0.571215 2.29636e-13 1.77892e-13 1.26382 82.3975 0.000736876 
-0.681388 2.33306e-13 1.18454e-13 1.73889 82.4873 -0.0027745 -0.706409 2.29594e-13 3.08885e-14 
1.7388 82.5358 0.0010179 -0.862943 -3.24428e-13 -1.89338e-13 2.22503 82.4347 -0.00231634 
-0.785979 8.43492e-13 -8.77007e-14 2.25489 82.5219 0.0012191 -0.98773 -1.88509e-13 2.09437e-13 
2.73483 82.2649 -0.00189898 -0.805758 -5.41178e-13 -9.839e-14 2.7968 82.3793 0.00133347 
-1.04828 4.83183e-13 -5.05436e-13 3.25838 81.996 -0.00153168 -0.768347 -7.87703e-14 7.93358e-14 
3.352 82.1298 0.00136944 -1.0451 4.33681e-13 2.84604e-13 3.78812 81.6441 -0.00120699 
-0.681379 -7.98445e-13 -2.11749e-13 3.9109 81.7931 0.0013448 -0.984573 7.43988e-14 -2.13916e-13 
4.31832 81.2244 -0.00090757 -0.555967 -7.0409e-14 3.10739e-13 4.46649 81.3865 0.00128118 
-0.877072 9.79217e-14 -2.59055e-14 4.84432 80.7507 -0.000612262 -0.405385 4.04496e-13 6.22354e-14 
5.01353 80.9253 0.00120025 -0.735406 -3.1479e-13 5.10684e-13 5.36171 80.2371 -0.000300954 
-0.243923 -6.19088e-14 -1.2664e-13 5.54769 80.424 0.00112138 -0.573567 3.14873e-13 -3.00789e-13 
5.86553 79.6983 4.14169e-05 -0.0858557 7.10182e-13 1.30341e-13 6.06469 79.8968 0.00106011 
-0.405675 -6.00624e-13 6.85446e-14 6.55964 79.3583 0.00102694 -0.245064 -1.82701e-14 -2.92336e-14 
0.0183134 79.4323 -0.0155685 0.0770036 -6.19341e-13 1.93456e-14 0.0251265 78.797 -0.0280834 
0.0376218 -1.43342e-13 -1.22125e-13 0.16143 80.5098 -0.00555616 -0.0341572 -4.07261e-14 -4.57967e-16 
0.119556 80.0605 -0.00204813 -0.0384207 4.7818e-13 3.5115e-13 0.404113 81.3593 -0.00508313 
-0.254515 -4.9874e-13 6.30954e-14 0.338971 81.077 -0.000280053 -0.260245 -3.3042e-13 -4.55594e-13 
0.74952 81.9785 -0.00475799 -0.524605 3.22978e-13 -2.10505e-13 0.675975 81.8355 0.000202243 
-0.558945 -4.98108e-14 2.45262e-13 1.18403 82.3775 -0.00420215 -0.794784 3.96926e-13 1.76192e-13 
1.11746 82.3428 0.000678078 -0.874826 1.79613e-13 8.90538e-14 1.68802 82.5776 -0.00352393 
-1.02851 -2.5048e-13 -1.48007e-13 1.64196 82.6217 0.00111373 -1.16193 -1.978e-13 -2.4214e-13 
2.24042 82.606 -0.00283406 -1.20277 2.88734e-13 3.33136e-14 2.22487 82.7034 0.00145428 
-1.38989 -5.86337e-14 1.11688e-13 2.82187 82.4913 -0.00220372 -1.30661 -2.16042e-13 6.35464e-14 
2.84271 82.6224 0.00167257 -1.54274 3.34455e-15 -1.47587e-13 3.41643 82.2602 -0.00166485 
-1.33863 7.62237e-13 -1.33244e-13 3.47568 82.4112 0.00177171 -1.61616 -1.93665e-14 7.78513e-13 
4.01208 81.9361 -0.00121959 -1.30438 -4.50112e-13 1.31926e-13 4.10863 82.0983 0.00177263 
-1.61433 2.34895e-13 -6.57436e-13 4.6003 81.5392 -0.000851669 -1.21397 4.08909e-13 -9.64333e-14 
4.73091 81.7078 0.00170393 -1.54691 2.64989e-13 5.67308e-13 5.17519 81.0868 -0.000536197 
-1.08023 3.03695e-13 2.94938e-14 5.33542 81.2596 0.00159465 -1.42682 2.27499e-13 -5.19422e-13 
5.73252 80.5939 -0.000246882 -0.917315 -6.53144e-13 -9.9044e-15 5.91752 80.7703 0.00147038 
-1.26841 4.80518e-13 -6.53739e-14 6.26868 80.0747 3.92132e-05 -0.73953 7.11931e-15 8.65513e-14 
6.47388 80.2547 0.00135156 -1.0863 -9.50628e-15 8.53289e-14 6.77989 79.543 0.000338501 
-0.560518 -5.48776e-13 6.90112e-14 7.00153 79.7262 0.00125297 -0.894463 1.2132e-13 4.39464e-14 
7.49714 79.1981 0.00118355 -0.705517 -2.38157e-13 -1.31688e-13 0.027141 79.5103 -0.0190008 
-0.0192935 6.00216e-13 2.75321e-13 0.032521 78.8296 -0.0329463 -0.0155754 7.40388e-13 3.92825e-13 
0.219305 80.7273 -0.00710828 -0.244666 -1.27183e-13 -3.30111e-13 0.160521 80.2742 -0.00243395 
-0.214753 4.68375e-16 -2.4622e-13 0.540451 81.6494 -0.00632357 -0.57933 4.86621e-13 2.70339e-13 
0.450371 81.3959 -0.000240099 -0.566582 -1.25552e-13 -1.25386e-13 0.987384 82.2835 -0.00566238 
-0.950619 -2.04933e-13 2.63609e-13 0.886833 82.1903 0.000449234 -0.984782 -4.57141e-13 2.2593e-13 
1.53625 82.6533 -0.00474456 -1.30067 -1.2268e-14 -8.12544e-14 1.44593 82.6782 0.00110323 
-1.39758 -4.74829e-13 1.5362e-13 2.15716 82.7954 -0.00374014 -1.59008 4.02837e-13 -3.32206e-13 
2.09419 82.8996 0.00165513 -1.75356 -1.69198e-13 -7.09571e-14 2.82071 82.751 -0.00279527 
-1.79716 6.5245e-13 -1.93214e-14 2.79669 82.903 0.00204153 -2.02262 3.6332e-14 -2.07598e-13 
3.50182 82.5597 -0.00198873 -1.91475 1.49519e-13 1.02064e-13 3.52261 82.7365 0.00224652 
-2.19275 -4.74815e-13 -1.64938e-13 4.18139 82.2562 -0.00134283 -1.94608 -1.40585e-12 1.00975e-13 
4.24802 82.4427 0.00229402 -2.26522 -8.06882e-13 -3.35634e-14 4.84617 81.8693 -0.000843552 
-1.90106 3.83443e-14 8.09595e-14 4.95615 82.0566 0.00222505 -2.24967 -1.56472e-13 4.12866e-13 
5.48776 81.4221 -0.000458967 -1.79327 -1.05858e-12 -1.24959e-13 5.63647 81.6059 0.00208288 
-2.16038 -6.41251e-13 -5.07157e-13 6.10117 80.9331 -0.000152247 -1.6379 5.89237e-13 2.00416e-13 
6.28303 81.1119 0.00190507 -2.01352 -3.21645e-13 6.64946e-13 6.68348 80.4178 0.000110587 
-1.4503 3.91021e-13 -3.3541e-13 6.89282 80.5917 0.00172067 -1.82543 -7.51489e-13 -2.86327e-13 
7.23262 79.8895 0.000356701 -1.2451 1.36086e-13 1.00267e-13 7.46436 80.059 0.0015503 
-1.6116 3.17593e-14 -9.59933e-14 7.74651 79.3609 0.000604593 -1.03554 -1.3789e-13 5.67445e-14 
7.99658 79.5262 0.0014071 -1.38597 3.93206e-13 1.16614e-13 8.48806 79.0047 0.00129779 
-1.1606 -2.65739e-13 1.13111e-13 0.0384519 79.7075 -0.0230991 -0.149175 -5.60083e-13 8.99281e-15 
0.0418625 78.9884 -0.0385486 -0.0870135 1.18343e-13 1.06581e-14 0.29266 81.0705 -0.00902724 
-0.523658 4.78232e-13 -2.98706e-13 0.213522 80.6301 -0.00286329 -0.448693 -2.49752e-13 2.01228e-15 
0.712146 82.0544 -0.00779342 -1.00106 6.07819e-13 3.23658e-13 0.593671 81.8512 -0.000110051 
-0.965971 2.76029e-14 2.13163e-14 1.28318 82.6811 -0.00664198 -1.49104 3.40825e-13 1.49741e-13 
1.15467 82.6589 0.000876941 -1.52805 -5.75373e-14 -1.18655e-14 1.96707 82.9944 -0.00523415 
-1.92657 -7.26114e-13 -1.86233e-13 1.856 83.0959 0.00175785 -2.04828 3.56923e-13 -3.60337e-13 
2.72042 83.0517 -0.00382685 -2.26718 -1.27204e-13 -2.05114e-14 2.64763 83.2272 0.00242331 
-2.47094 -6.70297e-13 3.02099e-13 3.5041 82.9117 -0.00260158 -2.4956 -2.27429e-13 -2.4758e-13 
3.48194 83.1237 0.00281577 -2.76969 8.86444e-14 -8.20038e-14 4.2876 82.6264 -0.00163006 
-2.61156 -1.52552e-13 -1.47885e-13 4.32065 82.8496 0.00295164 -2.94046 -1.01988e-13 -2.51348e-13 
5.0498 82.2386 -0.000907791 -2.62543 6.37448e-13 3.34573e-13 5.13686 82.4579 0.00289243 
-2.99329 2.41182e-13 2.53682e-13 5.7778 81.7813 -0.000391228 -2.5531 3.41137e-13 -7.97765e-14 
5.914 81.989 0.00270807 -2.94559 -5.59372e-13 -3.68247e-14 6.46481 81.2792 -2.46831e-05 
-2.41257 9.47561e-13 -7.34308e-15 6.64349 81.4727 0.00245901 -2.81746 1.85331e-13 4.28633e-14 
7.108 80.7511 0.000244516 -2.22178 -1.44044e-13 -3.88327e-14 7.32206 80.9304 0.00219021 
-2.62889 1.68671e-13 -2.00208e-13 7.70673 80.2114 0.000459366 -1.99752 4.23439e-13 4.86941e-14 
7.94948 80.3779 0.00193185 -2.39837 6.21933e-14 4.04347e-14 8.26118 79.6721 0.000651348 
-1.75474 2.68986e-13 -1.58163e-13 8.52693 79.8273 0.00170232 -2.14216 -3.54515e-13 2.18518e-13 
8.77139 79.144 0.000840623 -1.50632 -4.45116e-13 -8.01139e-15 9.05574 79.2889 0.00151132 
-1.87414 -1.77157e-13 -1.90035e-14 9.5367 78.7719 0.0013621 -1.60571 -1.52947e-13 -1.81093e-13 
0.0537284 80.0626 -0.0281414 -0.322647 4.57401e-13 -2.61222e-13 0.0542134 79.3155 -0.0451255 
-0.182553 -4.27811e-13 3.94268e-14 0.389744 81.5738 -0.0114625 -0.890846 2.37935e-14 -1.00295e-13 
0.285209 81.1707 -0.00332792 -0.758612 -1.16809e-13 -2.63595e-13 0.936602 82.5978 -0.0095384 
-1.54461 7.11445e-14 1.0196e-13 0.785396 82.4753 0.000195306 -1.48554 1.26822e-13 8.607e-14 
1.66269 83.181 -0.00765155 -2.17014 -4.7462e-15 -1.51781e-13 1.50634 83.2579 0.0016071 
-2.21772 -9.07469e-14 -4.30211e-14 2.50751 83.3981 -0.00557761 -2.69157 -2.13767e-13 -9.32032e-14 
2.38189 83.5967 0.00275853 -2.85128 -2.23432e-13 1.58346e-14 3.41021 83.3351 -0.00368695 
-3.0715 4.06813e-13 2.148e-13 3.33924 83.5935 0.0034967 -3.33013 -1.85532e-13 -1.24623e-13 
4.32128 83.0717 -0.00217798 -3.30234 1.74506e-13 -2.7256e-14 4.31619 83.3475 0.00380881 
-3.63812 7.86593e-14 3.53148e-13 5.20615 82.6735 -0.0010818 -3.39519 4.28407e-13 5.43385e-14 
5.2682 82.9411 0.00378234 -3.78506 -2.25674e-13 -3.94199e-14 6.04411 82.1897 -0.000338535 
-3.37049 5.54633e-13 7.17829e-14 6.16817 82.4365 0.00353962 -3.79398 5.28258e-14 1.99916e-13 
6.82494 81.6558 0.000142116 -3.25177 -5.45099e-13 -1.04552e-13 7.00269 81.8771 0.00318608 
-3.6923 -3.8046e-14 -3.71871e-13 7.54541 81.0964 0.000447191 -3.06206 -4.93543e-13 4.06498e-14 
7.76756 81.2924 0.00279703 -3.50683 2.93175e-13 -6.00232e-14 8.2063 80.5285 0.000646957 
-2.82214 4.33223e-13 -1.49745e-13 8.46398 80.7017 0.00241951 -3.26147 4.60118e-14 2.67459e-13 
8.81021 79.9646 0.000792506 -2.55003 9.20444e-14 2.2693e-13 9.09573 80.1181 0.00207961 
-2.9765 -2.91413e-13 -2.14818e-13 9.36014 79.4144 0.000917902 -2.26079 4.26797e-13 -1.22941e-13 
9.66728 79.5509 0.00178959 -2.66861 8.05071e-13 5.03094e-13 9.85854 78.8862 0.00104328 
-1.96671 1.05797e-13 -3.12692e-13 10.1827 79.0076 0.00155304 -2.35122 4.43395e-14 -5.84698e-13 
10.6452 78.4951 0.00136818 -2.03478 -9.41885e-14 9.91711e-14 0.0754435 80.6262 -0.0345615 
-0.555451 -8.59902e-13 -1.45661e-13 0.0713852 79.8682 -0.0530958 -0.311605 -4.93453e-13 -6.01463e-14 
0.524179 82.28 -0.0145919 -1.37603 5.18634e-13 8.86791e-14 0.386868 81.952 -0.00380551 
-1.17308 3.86781e-13 2.65371e-13 1.24134 83.3042 -0.0115636 -2.24532 -3.60115e-13 -2.3076e-13 
1.05253 83.306 0.000849467 -2.16527 -4.01665e-13 -1.599e-13 2.16452 83.788 -0.00856669 
-3.01943 -1.71071e-13 1.9959e-13 1.98343 84.0003 0.00286967 -3.09304 -1.28675e-13 2.68757e-13 
3.20117 83.8536 -0.00560993 -3.61728 -7.1923e-13 -1.68296e-13 3.07318 84.1724 0.00428282 
-3.83568 -1.44093e-13 -5.24331e-13 4.26915 83.6253 -0.00317981 -4.01315 1.58484e-13 -1.0069e-13 
4.21889 83.9765 0.00495853 -4.34633 2.91295e-13 2.49425e-13 5.30975 83.2075 -0.00143537 
-4.21744 -5.21791e-13 4.06251e-13 5.34386 83.5468 0.00502409 -4.6302 3.3902e-13 -1.10315e-13 
6.28814 82.6775 -0.000303329 -4.25843 -6.04544e-13 2.7733e-13 6.40147 82.9834 0.00469599 
-4.71934 -2.72449e-13 2.47136e-13 7.18797 82.0886 0.000372432 -4.16975 4.36803e-14 -1.7442e-13 
7.36953 82.3539 0.00417528 -4.65429 -2.57641e-13 -1.57405e-13 8.00502 81.4753 0.000746451 
-3.98361 -1.38452e-13 -3.45834e-14 8.24206 81.7006 0.00359942 -4.47413 -4.04676e-14 1.68528e-13 
8.74193 80.8592 0.000940172 -3.72803 -5.33802e-13 -1.3382e-13 9.02227 81.0489 0.00304646 
-4.21235 2.43229e-13 2.93922e-13 9.4045 80.254 0.00103853 -3.42612 -2.47448e-13 -8.27073e-15 
9.71765 80.4135 0.00255399 -3.896 -2.89116e-13 -4.44865e-13 9.99939 79.6686 0.00109635 
-3.09648 3.80078e-13 2.76214e-13 10.3369 79.8029 0.00213576 -3.54626 3.77955e-13 3.73633e-13 
10.5327 79.1097 0.00114639 -2.75371 -9.00752e-13 -1.87477e-13 10.8882 79.223 0.00179275 
-3.17942 -6.65523e-13 -3.59247e-13 11.0095 78.5827 0.00120589 -2.40908 3.00523e-14 -6.0992e-14 
11.3785 78.6778 0.00151966 -2.80779 3.02536e-14 1.94185e-13 11.813 78.1714 0.00130835 
-2.44046 4.10505e-14 -1.6591e-13 0.108315 81.4687 -0.0430963 -0.872862 4.85723e-13 9.67282e-14 
0.0966698 80.7291 -0.0628536 -0.489478 4.51722e-14 2.35229e-14 0.719415 83.2429 -0.0188006 
-2.02511 -2.99399e-13 -1.24026e-13 0.538495 83.0493 -0.00414943 -1.7379 2.5932e-13 -1.32477e-13 
1.6713 84.197 -0.0138626 -3.15333 1.31228e-13 3.23352e-14 1.44067 84.3854 0.00217643 
-3.06466 1.97203e-14 2.03032e-13 2.84724 84.4965 -0.00914813 -4.07819 -1.11536e-13 6.57807e-14 
2.65139 84.8894 0.00496881 -4.20588 1.7307e-13 -6.40599e-14 4.10903 84.3362 -0.00505709 
-4.72525 2.43042e-13 -1.01266e-13 4.00166 84.7977 0.00653568 -5.03295 -3.38202e-13 7.03326e-14 
5.3518 83.8898 -0.00211944 -5.09654 1.45856e-13 -1.79808e-13 5.35239 84.3377 0.00685559 
-5.52895 7.09433e-13 -6.86118e-14 6.51344 83.2861 -0.0002884 -5.23269 1.48756e-13 2.0179e-13 
6.61806 83.6818 0.00639393 -5.73834 -9.16073e-14 -2.02793e-13 7.56615 82.6099 0.000720722 
-5.18562 1.21181e-13 1.2303e-13 7.75942 82.9418 0.00558109 -5.72543 7.62446e-14 4.19172e-13 
8.50401 81.9122 0.00120441 -5.00422 3.46279e-13 -8.02448e-14 8.76732 82.1825 0.00469103 
-5.55177 3.21826e-13 -2.1967e-13 9.33282 81.2218 0.00138875 -4.72917 -7.11098e-14 1.92189e-13 
9.64866 81.4387 0.00386016 -5.26789 -1.34753e-14 2.65632e-13 10.0633 80.5544 0.00142178 
-4.39225 -8.28101e-13 -9.69192e-14 10.417 80.7271 0.00314281 -4.91228 1.93116e-13 -3.65284e-13 
10.7075 79.9179 0.00139259 -4.01757 5.6475e-13 -2.83233e-13 11.0875 80.0551 0.00254942 
-4.51328 -3.06657e-13 2.42705e-13 11.2763 79.3166 0.00135124 -3.62313 -7.43357e-13 8.97173e-14 
11.6741 79.4255 0.00207152 -4.09135 -2.98116e-13 -3.66156e-13 11.779 78.7534 0.00132341 
-3.22221 3.61461e-13 -6.5256e-15 12.1887 78.8391 0.00169406 -3.66116 1.75776e-13 2.92825e-13 
12.223 78.2309 0.00131985 -2.82448 2.65343e-14 1.41344e-13 12.6406 78.2969 0.00140095 
-3.23311 -4.38816e-14 -3.26033e-14 13.0368 77.7999 0.00117724 -2.81438 -3.82069e-13 2.88502e-14 
0.160497 82.6906 -0.0548075 -1.31891 3.6518e-13 8.50431e-14 0.136547 82.0199 -0.0762977 
-0.744326 3.92936e-13 3.23769e-13 1.0187 84.5296 -0.0239808 -2.91136 -9.40775e-14 -1.34781e-13 
0.779188 84.5682 -0.00401075 -2.52985 -2.87798e-13 -1.3331e-13 2.302 85.2913 -0.0159781 
-4.33902 -1.51892e-13 6.38933e-14 2.0315 85.7551 0.00516901 -4.27318 1.09718e-13 -1.62259e-13 
3.8003 85.2801 -0.00882384 -5.39126 1.8964e-13 -4.1564e-14 3.61571 85.9055 0.00876238 
-5.62086 -3.12139e-13 2.0306e-13 5.31457 84.7995 -0.00351715 -6.03021 -7.33164e-14 1.04673e-13 
5.26984 85.4187 0.00969798 -6.46932 -7.97251e-13 -1.10537e-13 6.72475 84.0797 -0.000305614 
-6.31311 -2.56073e-13 -9.24261e-14 6.82244 84.6162 0.00905613 -6.87188 -4.31252e-13 1.34344e-13 
7.97967 83.2657 0.0013001 -6.32592 6.27581e-13 6.87991e-14 8.19709 83.6993 0.00769376 
-6.93699 1.32006e-13 6.89934e-14 9.0708 82.438 0.00194698 -6.14891 -4.70568e-13 1.04399e-13 
9.37868 82.7754 0.00622458 -6.76966 -5.3986e-13 -1.93259e-13 10.0102 81.6367 0.00209118 
-5.84553 -2.71588e-14 -7.90141e-14 10.3819 81.8937 0.00492307 -6.45188 -1.71821e-13 3.29241e-13 
10.8175 80.8791 0.0020067 -5.46223 -5.33198e-13 1.27446e-13 11.2318 81.0725 0.00385706 
-6.04188 3.1701e-13 -3.26912e-13 11.513 80.1711 0.00184304 -5.03185 8.79435e-14 -2.80834e-13 
11.9541 80.3153 0.00301575 -5.57928 7.24976e-14 2.70668e-13 12.1149 79.5132 0.00167433 
-4.57725 -4.51188e-13 1.67349e-14 12.5717 79.6198 0.00236394 -5.09054 3.58602e-14 -2.36118e-13 
12.6383 78.9044 0.00153414 -4.11424 9.37736e-13 -7.46686e-14 13.1031 78.9819 0.00186354 
-4.59326 3.85844e-13 3.48893e-13 13.0951 78.3436 0.00143462 -3.65371 -2.77389e-13 2.32024e-13 
13.5632 78.3978 0.00148169 -4.09908 -1.36113e-13 -3.36701e-13 13.4942 77.8302 0.0013767 
-3.20303 4.01484e-14 4.10089e-15 13.9628 77.865 0.00119198 -3.6156 -5.41435e-13 -1.53162e-13 
14.31 77.382 0.000973808 -3.14764 -9.99686e-14 2.92973e-13 0.254317 84.442 -0.072714 
-1.9683 3.97377e-13 1.23623e-13 0.20495 83.9495 -0.0910902 -1.12348 6.53366e-14 1.58151e-13 
1.5047 86.2136 -0.0324098 -4.1522 -2.11581e-13 -1.87766e-13 1.18491 86.6471 -0.00291409 
-3.68268 3.03924e-14 -1.79801e-13 3.2657 86.5722 -0.0175877 -5.89638 1.80772e-13 -1.15158e-13 
2.97164 87.4322 0.00972558 -5.92234 -5.60385e-14 1.49075e-13 5.15868 86.0737 -0.0066702 
-6.99946 8.42104e-14 9.45077e-14 5.04299 86.9775 0.0142356 -7.40673 -1.30007e-13 -2.52798e-13 
6.9261 85.167 -0.000430743 -7.52609 3.33122e-13 -2.48274e-14 7.01713 85.9371 0.0138145 
-8.14727 1.0536e-13 2.39128e-13 8.46145 84.1287 0.00235549 -7.62979 -2.48135e-13 1.53575e-13 
8.72314 84.7238 0.011085 -8.33679 7.06213e-13 -1.71155e-13 9.75186 83.097 0.00324081 
-7.4539 6.8201e-13 2.44076e-15 10.1344 83.5353 0.00844733 -8.17226 1.11661e-13 3.76517e-13 
10.824 82.1289 0.00323625 -7.10499 -1.65284e-14 -2.67334e-13 11.2841 82.4432 0.00630002 
-7.7978 -1.90417e-13 -4.27352e-13 11.7146 81.2416 0.0029097 -6.6549 -4.67737e-13 2.2898e-13 
12.2204 81.4633 0.00467225 -7.30674 1.40971e-13 1.99972e-13 12.4589 80.435 0.00251072 
-6.15009 1.78274e-13 -7.76983e-15 12.9886 80.5889 0.00347824 -6.75647 -1.87073e-13 -5.38623e-14 
13.0863 79.7028 0.00214454 -5.62013 -2.46192e-14 -2.04304e-13 13.6256 79.8073 0.0026076 
-6.18157 -5.04111e-13 9.8541e-14 13.6199 79.0372 0.00184696 -5.08377 3.34871e-13 2.7001e-13 
14.16 79.1056 0.00197087 -5.60278 -3.76116e-13 1.66584e-13 14.0777 78.4316 0.00162363 
-4.55292 -2.42216e-13 1.5956e-14 14.6132 78.4729 0.00150222 -5.0325 3.69496e-13 -3.16094e-13 
14.4728 77.8812 0.00146842 -4.03501 6.70318e-13 3.31679e-15 15.001 77.9013 0.00115488 
-4.47809 -4.09131e-13 3.32989e-13 14.815 77.3827 0.00137079 -3.53459 2.73108e-13 8.03455e-14 
15.3349 77.3852 0.000896233 -3.94369 4.47663e-13 -7.19199e-14 15.6229 76.9213 0.000703251 
-3.4314 -2.36512e-13 -2.34066e-13 0.422745 86.9659 -0.0964514 -2.98905 -3.65791e-13 -2.67286e-13 
0.33812 86.8286 -0.129172 -1.75482 6.06543e-13 6.5753e-14 2.35652 88.3757 -0.0363515 
-5.9474 1.96593e-13 3.82028e-13 1.95946 89.5142 0.0117517 -5.44719 -2.11081e-13 1.34004e-13 
4.78883 87.9659 -0.0154017 -7.93372 -2.03976e-13 -3.27058e-13 4.55957 89.3694 0.0254018 
-8.19419 -2.16077e-13 2.62818e-13 7.11766 86.7476 -0.00111869 -8.90914 -2.19713e-13 -4.10227e-14 
7.19516 87.9366 0.0226603 -9.59834 5.86031e-13 -4.29157e-13 9.06853 85.3245 0.00458715 
-9.16028 -1.453e-13 2.54973e-13 9.40908 86.1922 0.0168437 -10.0055 4.58245e-14 4.33611e-14 
10.6265 83.9576 0.00563106 -8.97403 7.65263e-13 1.92244e-13 11.1372 84.5518 0.0117728 
-9.82966 -6.15896e-14 4.09401e-13 11.8553 82.7319 0.00519404 -8.5463 -5.54418e-13 -1.41591e-13 
12.4585 83.1272 0.00795747 -9.35258 -5.37098e-13 -4.27172e-13 12.8285 81.6561 0.00433269 
-7.99404 -3.83443e-14 -3.90817e-13 13.4744 81.9139 0.00543202 -8.73373 -2.96291e-14 2.57634e-13 
13.6087 80.7142 0.00349031 -7.38448 -2.78944e-14 1.71918e-13 14.2678 80.8783 0.00376989 
-8.05724 4.24549e-13 -1.31617e-13 14.2436 79.885 0.00280014 -6.75551 -3.44835e-13 -3.62037e-15 
14.899 79.9852 0.00265629 -7.36705 -2.26541e-13 -2.13246e-13 14.7682 79.1495 0.00227047 
-6.12846 -6.74183e-13 8.97546e-15 15.4108 79.2055 0.00190103 -6.68583 5.67518e-13 1.71325e-13 
15.2078 78.4922 0.00188175 -5.51525 -1.56056e-14 2.25061e-13 15.8331 78.5171 0.00137505 
-6.02508 2.87312e-13 -1.62346e-13 15.5805 77.9019 0.00160654 -4.92243 2.87104e-13 8.42191e-14 
16.1868 77.9041 0.00100103 -5.39039 -6.34812e-13 1.81346e-13 15.8994 77.3706 0.00142017 
-4.35336 -7.18106e-14 -1.16684e-13 16.4866 77.3554 0.000729392 -4.7841 -2.69659e-13 6.058e-14 
16.1736 76.8932 0.00130185 -3.80943 -4.67751e-13 7.3757e-14 16.7428 76.8635 0.000528882 
-4.20672 -4.21101e-13 -2.35213e-13 16.9627 76.4239 0.000379043 -3.65764 -2.10013e-13 3.85665e-13 
0.860642 90.5808 -0.158513 -4.64858 4.36262e-13 -2.289e-13 0.609531 91.5 -0.117941 
-2.80963 -8.32112e-14 1.06054e-13 3.96268 90.9154 -0.0619531 -8.59811 -2.90212e-13 2.31981e-13 
3.44011 93.112 -0.0296347 -8.29619 -3.30069e-13 -4.38899e-13 7.27744 89.2397 -0.00250307 
-10.5264 -1.69864e-14 -8.65696e-14 7.29319 91.3107 0.0432657 -11.2661 2.67231e-13 5.3689e-13 
9.91002 87.0882 0.00909678 -11.0297 8.69027e-14 -1.33771e-13 10.4159 88.4559 0.0308559 
-12.1042 1.11633e-13 -5.11623e-13 11.8433 85.1324 0.0105349 -10.7972 2.96041e-13 4.31271e-13 
12.5888 85.9744 0.0164203 -11.8578 1.12937e-13 6.4284e-13 13.2435 83.493 0.00882947 
-10.2222 2.05919e-13 -4.13414e-13 14.0865 84.0003 0.00929592 -11.18 -2.1777e-13 -3.3943e-13 
14.2758 82.138 0.00658985 -9.50594 -5.10758e-13 1.24178e-13 15.141 82.4376 0.00565816 
-10.3496 -6.6086e-14 -1.33123e-13 15.0562 81.0098 0.00492315 -8.74425 -8.65419e-14 6.90593e-14 
15.9053 81.1806 0.00345257 -9.48693 4.87527e-14 4.80092e-13 15.6614 80.0556 0.00367886 
-7.98229 -5.00155e-14 -2.37352e-13 16.4789 80.1452 0.00222444 -8.6409 7.84345e-13 -2.08621e-13 
16.1423 79.2351 0.0028061 -7.24098 5.27481e-13 1.60965e-13 16.9227 79.2725 0.00145693 
-7.8304 6.34798e-13 3.37692e-13 16.5328 78.519 0.00219615 -6.52958 -2.71921e-13 -2.99923e-13 
17.2754 78.522 0.000973561 -7.06176 5.93969e-14 -4.36276e-13 16.856 77.8864 0.00177508 
-5.85165 1.25726e-13 2.06227e-13 17.5622 77.8662 0.000649745 -6.33584 4.91593e-13 1.18142e-13 
17.1274 77.323 0.00148869 -5.2079 -5.62606e-14 9.27695e-14 17.7998 77.2863 0.00042415 
-5.65121 3.01759e-13 -1.21333e-13 17.358 76.8192 0.0012993 -4.59759 3.15498e-13 5.48693e-15 
17.9996 76.7698 0.000259982 -5.00551 -2.2797e-13 1.70412e-13 17.5552 76.3688 0.00118003 
-4.01917 5.33122e-13 1.68046e-13 18.1694 76.3086 0.000136353 -4.396 -2.09804e-13 4.16681e-15 
18.3143 75.8977 4.06388e-05 -3.81978 -1.86802e-13 9.33489e-14 1.66367 96.2531 -0.170588 
-8.08225 -5.91083e-13 -3.24879e-13 1.93871 99.9026 0.00604588 -5.4208 -4.74287e-13 -1.14964e-13 
7.26011 93.6731 -0.016021 -12.4079 9.448e-14 6.22974e-14 7.42262 97.8706 0.184132 
-13.1717 7.57172e-14 -1.46272e-13 11.2957 89.8926 0.023671 -13.4735 -1.02029e-13 7.34517e-14 
12.1822 92.2817 0.0633357 -14.9273 7.08433e-13 1.35031e-14 13.7179 86.8192 0.0243851 
-13.0688 -7.94365e-14 1.91874e-13 14.9037 88.0662 0.0105081 -14.463 2.04337e-13 4.08576e-13 
15.2418 84.4755 0.0145763 -12.1956 -5.24275e-13 1.67054e-13 16.5207 85.1256 0.0104306 
-13.3496 -7.70356e-13 -4.05856e-13 16.2464 82.7026 0.0104125 -11.2071 2.9754e-13 -3.60406e-13 
17.4579 83.0408 0.00332702 -12.1568 -3.98293e-14 4.60069e-13 16.9385 81.3186 0.00693503 
-10.2232 4.76008e-14 1.32394e-13 18.0651 81.4864 0.00221907 -11.0232 -1.84269e-13 -3.45078e-13 
17.4396 80.2057 0.00483708 -9.28439 -1.37168e-13 4.44332e-14 18.4789 80.2751 0.00116216 
-9.97291 8.72552e-13 1.28703e-13 17.8165 79.2845 0.00347436 -8.40148 1.3152e-13 -3.18155e-13 
18.7769 79.2952 0.000775117 -9.00576 -5.31755e-13 -1.45613e-13 18.1097 78.5031 0.00258585 
-7.57498 -7.80431e-13 1.54772e-13 19.0004 78.4778 0.000536513 -8.11355 4.03566e-13 -2.61857e-13 
18.3439 77.8271 0.00199757 -6.80172 3.96572e-13 7.29486e-14 19.1738 77.7792 0.00040127 
-7.28765 4.25049e-13 3.43236e-13 18.5353 77.2334 0.00160476 -6.0775 2.63324e-13 9.77933e-14 
19.3118 77.171 0.000305169 -6.52017 -1.11265e-13 3.32033e-13 18.6945 76.7068 0.00134368 
-5.39805 6.42347e-13 -4.04267e-13 19.4242 76.6343 0.0002287 -5.80437 -2.39142e-13 -1.51809e-13 
18.8287 76.2374 0.00117343 -4.75929 -7.14998e-13 2.54761e-14 19.5173 76.1571 0.000161002 
-5.13451 2.2856e-13 -4.40706e-13 18.9429 75.8186 0.00106692 -4.1574 1.59948e-13 3.02636e-13 
19.5953 75.7314 9.81066e-05 -4.5056 -1.81972e-13 3.70273e-13 19.6613 75.3525 3.86525e-05 
-3.91323 2.36179e-13 -1.82833e-13 6.91589 101.442 -0.741635 -14.9116 -6.24056e-13 -2.19928e-13 
7.1514 112.315 -0.165663 -12.0999 2.80442e-13 -2.91378e-13 14.1114 95.1028 0.126947 
-17.1606 1.40332e-13 5.3299e-13 15.0805 100.607 -0.106815 -19.7041 -1.11022e-14 4.68126e-13 
16.9065 89.3148 0.0176814 -16.0052 2.82163e-13 1.02002e-14 19.6107 91.097 0.0702264 
-18.0352 -2.498e-13 1.93873e-13 18.3584 85.7788 0.0336188 -14.4961 -3.07476e-13 -3.69899e-13 
20.3992 86.5667 -0.00261142 -15.7931 -7.08045e-13 -3.92936e-13 19.0374 83.3633 0.0179539 
-13.0567 4.25771e-14 -5.34017e-14 20.8064 83.7312 0.0147324 -14.0463 -4.75925e-13 1.52239e-14 
19.443 81.6365 0.0112479 -11.7669 -4.36082e-13 3.99659e-13 20.9564 81.7947 0.00951975 
-12.559 -1.40471e-13 -1.50976e-13 19.6997 80.3267 0.00770829 -10.6093 1.18611e-12 2.97186e-13 
21.0273 80.3743 0.00992795 -11.2775 -2.54699e-13 6.77097e-13 19.8739 79.2889 0.0055424 
-9.56409 3.13027e-13 -1.61378e-13 21.0573 79.2736 0.00927202 -10.1442 -3.66249e-13 -2.17354e-13 
19.9978 78.4367 0.00423627 -8.61221 3.8497e-13 -3.0885e-13 21.0672 78.3851 0.00885995 
-9.12706 -6.99163e-14 7.09155e-15 20.0893 77.7169 0.00337646 -7.73891 5.68837e-13 5.4623e-14 
21.066 77.644 0.0083902 -8.20275 1.67436e-13 -9.41053e-14 20.1588 77.0956 0.00279977 
-6.93261 3.81639e-15 8.49147e-14 21.0583 77.0101 0.00792834 -7.35521 1.1238e-12 -2.42376e-13 
20.2129 76.5506 0.00240058 -6.18424 -7.53141e-13 -1.00774e-13 21.0468 76.4576 0.00746854 
-6.57258 -2.91371e-13 -1.70444e-13 20.2557 76.0675 0.00212058 -5.48657 -3.43142e-13 -2.02203e-13 
21.0332 75.9697 0.00702008 -5.84584 1.186e-13 1.88793e-13 20.2903 75.6368 0.00192287 
-4.83362 1.51511e-12 7.37188e-14 21.0186 75.5352 0.00658773 -5.16787 1.00614e-14 2.79863e-13 
20.3185 75.2528 0.00178371 -4.22028 -4.91177e-13 3.50279e-13 21.0037 75.1474 0.00617643 
-4.5328 1.11477e-12 -9.52502e-14 20.9893 74.8019 0.00579061 -3.93561 -6.79734e-14 -5.00607e-14 
19.9519 106.575 0.142459 -22.6876 7.65832e-13 9.31477e-14 24.3967 93.5184 0.338712 
-19.6642 -7.3197e-13 -5.13478e-14 23.4466 87.5587 0.135766 -16.7602 3.85664e-13 -2.60791e-13 
23.0368 84.1629 0.0659651 -14.805 -4.52527e-13 -2.22433e-13 22.756 81.9821 0.0512678 
-13.1916 -6.41709e-14 2.60625e-13 22.5449 80.425 0.0399056 -11.829 5.29993e-13 1.45522e-13 
22.3785 79.2496 0.0339748 -10.6363 -5.50809e-13 1.63508e-13 22.2417 78.3177 0.0295595 
-9.57282 3.72424e-13 3.22797e-14 22.1262 77.552 0.0263743 -8.61073 -8.2586e-13 1.10328e-15 
22.0262 76.9043 0.0238735 -7.73145 8.79435e-14 6.81399e-15 21.938 76.3444 0.0218556 
-6.92161 1.96246e-13 -6.81101e-13 21.8593 75.8525 0.0201762 -6.17123 2.10866e-13 2.00628e-13 
21.7885 75.4159 0.0187514 -5.47259 5.66068e-13 2.94331e-13 21.7246 75.0263 0.0175264 
-4.81943 -1.12022e-12 1.71179e-13 21.6672 74.6786 0.0164657 -4.20647 4.89799e-13 3.02317e-13 
20.9703 74.356 0.00587734 -3.09886 6.44727e-14 1.69052e-13 19.7448 74.8645 0.00123145 
-3.08209 -3.45755e-13 2.81239e-13 18.4979 75.3688 0.00185583 -3.00911 2.68164e-13 -1.1424e-13 
17.2415 75.857 0.00274654 -2.8819 2.77001e-14 -1.36689e-13 15.9894 76.3203 0.00355054 
-2.70362 2.28312e-13 3.32845e-13 14.7545 76.7514 0.00420904 -2.47855 -1.82502e-13 -1.75097e-13 
13.5481 77.1442 0.00469427 -2.2119 -2.39029e-13 -3.55883e-13 12.3792 77.4942 0.00499436 
-1.90935 2.04958e-14 -6.31554e-14 11.2549 77.7987 0.00511028 -1.57665 -1.04772e-13 1.31141e-13 
10.1794 78.0566 0.00505186 -1.21919 2.37784e-13 1.17689e-13 9.15501 78.2683 0.004833 
-0.841622 7.1344e-14 -2.31431e-13 8.18148 78.436 0.00446686 -0.447572 5.11414e-14 -1.47938e-13 
7.25667 78.5629 0.00396134 -0.0394564 1.5506e-13 2.82339e-14 6.37655 78.6535 0.00331509 
0.381639 5.08956e-13 2.22351e-13 5.53534 78.7139 0.00251354 0.815976 2.35973e-13 -1.68081e-13 
4.72562 78.7511 0.00152487 1.26511 -1.43665e-13 -2.46597e-13 3.93825 78.7742 0.000295219 
1.73175 6.22193e-14 -2.76973e-13 3.16231 78.7942 -0.00125711 2.2195 -9.70161e-14 6.17024e-14 
2.38482 78.8252 -0.00324867 2.73242 -1.82437e-13 1.76451e-13 1.59047 78.885 -0.00583847 
3.27441 4.65029e-13 2.83818e-14 0.761298 78.997 -0.00923437 3.84806 -2.84245e-13 -2.83263e-14 
-0.123498 79.1918 -0.0136924 4.45293 5.119e-13 2.97106e-13 -1.08725 79.5096 -0.0195003 
5.08274 2.96149e-13 -2.11112e-13 -2.15433 80.0029 -0.0269095 5.72106 1.63191e-13 8.87589e-14 
-3.34634 80.7391 -0.0360276 6.33465 -9.37644e-14 -1.57121e-13 -4.67323 81.8016 -0.0463722 
6.86398 1.61907e-13 2.61131e-13 -6.11649 83.2863 -0.0568326 7.21113 1.53688e-14 3.19973e-13 
-7.59749 85.2899 -0.0638176 7.22632 1.88946e-14 8.70901e-14 20.9586 74.1085 0.00556722 
-2.57532 3.24237e-14 -2.95597e-15 19.7879 74.5932 0.00114871 -2.56157 3.1045e-13 -7.69784e-15 
18.5942 75.0742 0.0017401 -2.5007 -5.50197e-13 1.25334e-13 17.3885 75.54 0.00258982 
-2.39439 3.5771e-13 -7.16697e-14 16.1838 75.9824 0.0033741 -2.24512 1.17673e-13 -3.37297e-13 
14.992 76.3943 0.00404517 -2.05611 -2.52727e-13 -1.9292e-13 13.8237 76.7694 0.00458082 
-1.83118 -2.22785e-13 3.21752e-14 12.6879 77.1028 0.00497023 -1.57449 2.33603e-13 7.70651e-14 
11.5916 77.391 0.00521222 -1.29019 3.27412e-14 3.12005e-14 10.5398 77.6318 0.00531294 
-0.98211 2.32571e-13 -2.55815e-14 9.53547 77.8241 0.00528263 -0.653444 9.38936e-14 1.14385e-14 
8.57955 77.9684 0.0051321 -0.306476 7.65551e-14 2.78689e-13 7.67121 78.0659 0.00486899 
0.0576336 -7.9943e-14 -2.23398e-13 6.80782 78.1191 0.00449399 0.439015 -6.53661e-14 -3.04553e-13 
5.9851 78.1314 0.00399676 0.839213 -2.28715e-13 8.2935e-14 5.19705 78.1072 0.00335107 
1.26126 3.87466e-13 3.52353e-14 4.43592 78.0524 0.00250852 1.70975 -4.20115e-13 1.21278e-13 
3.69192 77.9746 0.00138991 2.19077 4.13558e-15 -7.57467e-15 2.95288 77.8838 -0.000126857 
2.71191 9.46812e-15 -1.38058e-14 2.20359 77.7938 -0.00222359 3.28193 1.41376e-13 7.09554e-14 
1.42501 77.7232 -0.00516434 3.91032 6.77756e-14 9.65287e-14 0.59321 77.6984 -0.00932277 
4.60625 1.41373e-13 -2.63227e-13 -0.321732 77.7569 -0.0152128 5.3766 -3.57499e-13 2.98858e-14 
-1.35654 77.9514 -0.0234916 6.22235 1.70933e-13 2.0306e-13 -2.55435 78.3568 -0.0349706 
7.13224 8.83963e-14 9.13332e-14 -3.96036 79.0769 -0.0501754 8.07176 -2.38858e-13 -1.16226e-14 
-5.61099 80.2509 -0.0699839 8.96597 -1.39693e-13 -1.09288e-13 -7.49791 82.0613 -0.0889945 
9.67147 -1.84152e-13 -1.78232e-13 20.9486 73.9006 0.00530927 -2.07501 -2.2468e-13 -3.01315e-13 
19.8233 74.3653 0.00109711 -2.06398 -4.35135e-13 -5.25331e-14 18.6736 74.8265 0.00167564 
-2.01456 -1.15047e-13 6.93113e-14 17.5101 75.2731 0.00250401 -1.92817 -1.40254e-13 -2.08547e-13 
16.3448 75.6971 0.00328192 -1.80669 -3.61962e-13 2.20691e-13 15.1893 76.0915 0.00397079 
-1.65251 -3.6064e-13 2.00796e-13 14.0538 76.4498 0.00455394 -1.46837 1.72235e-13 -3.79102e-15 
12.9471 76.7667 0.00502322 -1.25723 1.89166e-13 -2.96282e-13 11.8765 77.0381 0.00537804 
-1.02199 1.26432e-13 -1.11038e-13 10.8472 77.2605 0.00562419 -0.765247 3.74544e-14 -9.40162e-14 
9.86322 77.4318 0.00577187 -0.489044 -2.26253e-13 3.01328e-14 8.9264 77.5506 0.00583325 
-0.194614 3.02695e-13 -1.35475e-13 8.03716 77.6165 0.00581975 0.117833 3.73897e-13 2.58851e-13 
7.1943 77.6294 0.00573906 0.449314 3.58946e-13 1.54008e-13 6.39509 77.5903 0.0055917 
0.802263 -1.82934e-13 3.88101e-14 5.63528 77.5004 0.00536665 1.18072 3.63088e-13 1.49416e-13 
4.90896 77.3617 0.00503539 1.59056 -1.35406e-13 -1.52864e-13 4.20833 77.1773 0.00454307 
2.03968 1.18624e-13 9.50733e-14 3.52324 76.9516 0.00379499 2.5383 -6.91461e-14 -8.89054e-14 
2.84048 76.6913 0.00263586 3.09922 -6.61485e-14 -8.36414e-14 2.14265 76.4067 0.000817608 
3.73801 -1.94712e-13 -2.52428e-13 1.40654 76.114 -0.00204934 4.47308 -2.40478e-13 -1.76399e-13 
0.600924 75.8387 -0.00656995 5.32521 -3.63248e-13 2.95736e-14 -0.316421 75.6211 -0.0136549 
6.31603 7.4489e-15 -2.64309e-13 -1.40217 75.5244 -0.024696 7.4643 3.78343e-14 -5.47201e-14 
-2.72981 75.6476 -0.0413374 8.77761 -3.48409e-13 -3.43649e-13 -4.39019 76.1405 -0.06715 
10.2362 2.11834e-13 -4.91412e-14 -6.467 77.2393 -0.0975437 11.7594 1.45597e-13 2.02699e-13 
20.9404 73.7329 0.00510281 -1.59383 -1.34795e-13 -3.7737e-13 19.8515 74.1814 0.00106693 
-1.58535 -3.22502e-14 -6.07487e-14 18.7369 74.6266 0.00164456 -1.54705 2.26262e-13 -1.69918e-13 
17.6069 75.0574 0.00246429 -1.48005 -1.42128e-13 2.20117e-13 16.4733 75.466 0.00324425 
-1.38576 3.71661e-13 -8.60228e-14 15.3473 75.8454 0.00395319 -1.26586 -1.36027e-13 8.38698e-14 
14.2387 76.1889 0.00457948 -1.12227 1.57799e-13 -3.10828e-14 13.1564 76.4908 0.00511821 
-0.957001 -5.83231e-14 5.86484e-14 12.1077 76.7463 0.00557083 -0.771997 -2.49746e-13 -1.41392e-13 
11.0986 76.9513 0.00594479 -0.568924 9.3597e-14 -1.91056e-13 10.1334 77.1022 0.0062525 
-0.348972 2.40448e-13 1.9204e-14 9.21503 77.1965 0.00651001 -0.112651 -2.24275e-13 7.57506e-14 
8.34503 77.2316 0.00673537 0.140417 3.63765e-13 -2.909e-13 7.52351 77.2057 0.00694683 
0.411706 2.3424e-13 -2.86263e-13 6.74933 77.1169 0.00716076 0.704004 5.05394e-14 -2.66352e-13 
6.02007 76.9632 0.00738901 1.02167 -7.20257e-15 -1.00937e-13 5.33198 76.7426 0.00763513 
1.37093 -1.42969e-13 3.10102e-13 4.67981 76.4529 0.00788848 1.76031 -1.80828e-14 -1.12439e-13 
4.05645 76.0919 0.00811445 2.20109 -2.46018e-14 2.49124e-14 3.45224 75.6574 0.0082379 
2.70801 4.72161e-13 -7.101e-14 2.85403 75.1484 0.00811474 3.30015 -3.0918e-13 -3.41515e-14 
2.24339 74.5658 0.00748313 4.00195 1.05013e-13 -1.6327e-13 1.59407 73.9149 0.00587906 
4.84454 -8.06161e-14 -1.36179e-13 0.867968 73.2097 0.00249862 5.86684 2.77309e-13 4.89123e-14 
0.00905576 72.4796 -0.0040741 7.11622 3.39583e-13 1.63869e-13 -1.06484 71.7826 -0.0159762 
8.64668 3.0935e-13 2.63886e-13 -2.47433 71.2229 -0.0382804 10.5118 -2.03587e-14 -1.02841e-13 
-4.37622 71.0043 -0.0685482 12.7414 1.47979e-13 -1.55154e-14 20.9342 73.6061 0.00494776 
-1.12765 2.32765e-14 7.36176e-13 19.8725 74.0425 0.00105075 -1.12163 2.05756e-14 3.07449e-13 
18.7842 74.4755 0.00163311 -1.0943 2.29886e-14 4.13854e-13 17.6795 74.8942 0.00245135 
-1.04648 -2.701e-13 1.55215e-13 16.5697 75.2909 0.00323728 -0.979138 1.31324e-13 5.92072e-13 
15.4659 75.6583 0.00396519 -0.893394 -3.74685e-13 9.44648e-14 14.378 75.9898 0.00462757 
-0.790497 2.8786e-14 4.7272e-13 13.3146 76.2795 0.0052226 -0.671736 -2.78021e-13 2.24344e-13 
12.2834 76.5217 0.00575423 -0.53832 -4.74511e-13 4.80835e-13 11.2906 76.7118 0.00623232 
-0.391238 -1.56009e-13 4.41707e-13 10.3411 76.8454 0.00667252 -0.231115 2.45326e-13 1.36552e-13 
9.43866 76.9184 0.00709573 -0.0580458 8.19657e-14 -2.52678e-13 8.58562 76.9272 0.00752763 
0.128569 2.99785e-13 7.70133e-14 7.78332 76.8678 0.00799819 0.330203 -2.85386e-13 2.03657e-14 
7.03202 76.736 0.00854132 0.549407 1.6534e-13 2.53354e-13 6.33105 76.527 0.00919465 
0.790065 -1.20907e-13 2.60854e-13 5.67878 76.2349 0.00999933 1.05771 6.52187e-14 -2.88879e-14 
5.07262 75.8525 0.0109993 1.35996 5.64583e-14 2.1966e-13 4.50884 75.3709 0.0122395 
1.70711 -1.91028e-13 -1.29645e-14 3.98219 74.7789 0.0137612 2.11297 -2.4938e-13 1.97018e-13 
3.48523 74.063 0.0155917 2.59604 -3.19401e-13 4.98279e-13 3.00708 73.2065 0.017721 
3.18117 -9.00009e-14 3.31568e-13 2.53136 72.1902 0.020056 3.9019 1.27977e-13 1.34016e-13 
2.03259 70.9928 0.0223205 4.80371 4.9466e-13 5.03209e-14 1.47015 69.5932 0.0238641 
5.9483 -5.57929e-13 -1.2175e-13 0.77797 67.9764 0.0233494 7.41885 2.98164e-14 -5.18544e-14 
-0.153331 66.143 0.01707 9.32516 -5.59899e-14 -8.66113e-14 -1.49628 64.1522 0.00606785 
11.8022 -3.60961e-14 -9.21069e-14 20.93 73.5211 0.00484424 -0.672256 -1.46275e-13 -2.65414e-13 
19.8866 73.9494 0.00104303 -0.668647 -3.57941e-13 -1.95936e-13 18.8158 74.3741 0.00163113 
-0.652249 -1.46419e-13 -2.22956e-13 17.7278 74.7846 0.0024508 -0.623555 -3.67704e-13 -1.16646e-13 
16.6341 75.1731 0.00324291 -0.583127 -7.32157e-14 -6.26882e-13 15.5452 75.5323 0.0039855 
-0.531608 6.84335e-13 1.89051e-13 14.4712 75.8555 0.00467399 -0.469698 -4.70434e-13 -5.12472e-13 
13.4208 76.1363 0.00530894 -0.398111 1.43451e-13 -3.32796e-14 12.4017 76.3691 0.0058964 
-0.317499 5.4479e-13 -1.8146e-13 11.4204 76.5484 0.00644851 -0.228374 2.40958e-13 -3.58224e-13 
10.4823 76.6692 0.00698384 -0.131012 -1.76779e-13 -1.71698e-13 9.59141 76.7268 0.00752763 
-0.0253562 -2.70488e-13 3.8173e-14 8.75098 76.7163 0.00811216 0.0890976 3.10429e-13 -1.41012e-13 
7.96315 76.6323 0.0087774 0.213419 -2.54099e-13 1.9767e-13 7.22927 76.4689 0.0095723 
0.349389 -2.17541e-13 -2.44362e-13 6.55001 76.2191 0.0105569 0.499684 4.53967e-13 -2.17039e-13 
5.92547 75.874 0.0118058 0.668118 6.68562e-14 -8.12293e-14 5.35526 75.4224 0.0134128 
0.859969 3.72851e-13 -7.05768e-14 4.83861 74.85 0.0154984 1.08246 1.26912e-14 6.40876e-14 
4.37424 74.1382 0.0182198 1.34543 -6.65787e-15 -3.41904e-13 3.96017 73.2624 0.021784 
1.66235 1.39264e-13 -3.92955e-13 3.5932 72.191 0.0264658 2.05179 4.75096e-13 -3.36484e-13 
3.26784 70.8818 0.0326298 2.53965 8.16014e-15 -1.21222e-13 2.97421 69.2796 0.0407388 
3.16255 -1.63786e-13 -2.5234e-13 2.69402 67.3115 0.0513949 3.97293 -3.29028e-13 2.16598e-14 
2.39246 64.8816 0.0651212 5.0467 -1.10849e-13 -2.77868e-14 2.00287 61.8643 0.0822968 
6.4945 -2.86007e-13 5.02931e-14 1.39564 58.1093 0.104948 8.47559 1.98355e-13 6.27623e-14 
20.9279 73.4785 0.00479243 -0.223361 1.73007e-13 6.93435e-13 19.8936 73.9026 0.0010401 
-0.222159 -1.61668e-13 2.81635e-13 18.8316 74.3232 0.00163184 -0.216692 1.16301e-13 3.55958e-13 
17.752 74.7296 0.00245295 -0.207124 5.82583e-13 4.4601e-13 16.6663 75.1139 0.00324884 
-0.193642 -3.07766e-13 3.12381e-13 15.585 75.469 0.00399942 -0.176453 4.65322e-14 -3.04356e-13 
14.518 75.7878 0.00470163 -0.155784 9.62754e-14 2.71026e-13 13.4742 76.0641 0.00535733 
-0.131862 -3.53143e-13 1.939e-13 12.4613 76.2919 0.00597376 -0.104892 -2.84417e-13 -8.39751e-14 
11.486 76.4655 0.00656439 -0.0750309 4.09438e-13 3.28444e-13 10.5537 76.5797 0.00714952 
-0.0423539 -1.63189e-13 2.66515e-13 9.66894 76.6291 0.00775692 -0.0068215 -1.4096e-13 4.14096e-13 
8.83522 76.6083 0.00842266 0.031759 1.22985e-13 4.2488e-13 8.05516 76.5113 0.00919248 
0.0737772 -1.10606e-14 5.46326e-14 7.33068 76.3313 0.010124 0.119872 2.67935e-13 5.43768e-13 
6.6632 76.0598 0.0112903 0.170996 -2.88259e-13 1.49602e-13 6.05377 75.6864 0.0127856 
0.22851 -3.85792e-13 3.67671e-13 5.50329 75.1979 0.0147336 0.294303 2.14162e-13 -1.57129e-13 
5.01266 74.5767 0.017301 0.370973 1.34802e-13 1.14124e-13 4.58299 73.7999 0.020717 
0.462087 -1.22867e-13 2.08903e-13 4.21563 72.837 0.0253043 0.572576 -9.25891e-14 1.4084e-13 
3.91222 71.647 0.0315263 0.709324 3.95739e-13 3.78371e-13 3.67436 70.1743 0.0400643 
0.882082 -2.06314e-13 1.09078e-13 3.50286 68.3426 0.0519196 1.10489 5.21805e-15 2.97784e-13 
3.39568 66.0461 0.0686622 1.39834 -1.1692e-14 1.95783e-13 3.34281 63.1353 0.0924124 
1.79316 -3.28126e-13 3.02171e-13 3.31596 59.3968 0.127282 2.33591 -3.20508e-13 2.40414e-13 
3.23591 54.5235 0.177269 3.09758 -7.28792e-13 -1.40818e-13 20.9279 73.4785 0.00479243 
0.223361 8.7921e-13 -3.49197e-13 19.8936 73.9026 0.0010401 0.222159 -3.13981e-13 -2.57021e-13 
18.8316 74.3232 0.00163184 0.216692 -2.65749e-13 -1.78003e-13 17.752 74.7296 0.00245295 
0.207124 2.58255e-13 -4.76071e-13 16.6663 75.1139 0.00324884 0.193642 3.19219e-13 2.00838e-15 
15.585 75.469 0.00399942 0.176453 1.47002e-13 -8.19359e-14 14.518 75.7878 0.00470163 
0.155784 -4.45633e-13 1.51265e-14 13.4742 76.0641 0.00535733 0.131862 2.04954e-13 1.95657e-14 
12.4613 76.2919 0.00597376 0.104892 2.05645e-13 2.37834e-13 11.486 76.4655 0.00656439 
0.0750309 4.07598e-13 -3.20924e-13 10.5537 76.5797 0.00714952 0.0423539 -2.1436e-13 -5.74177e-13 
9.66894 76.6291 0.00775692 0.0068215 3.44658e-13 -2.41037e-13 8.83522 76.6083 0.00842266 
-0.031759 -3.79485e-13 4.55203e-14 8.05516 76.5113 0.00919248 -0.0737772 4.24973e-13 -1.25548e-13 
7.33068 76.3313 0.010124 -0.119872 1.00926e-13 -8.50841e-14 6.6632 76.0598 0.0112903 
-0.170996 -4.14099e-13 -8.99996e-14 6.05377 75.6864 0.0127856 -0.22851 8.98413e-14 -3.35209e-13 
5.50329 75.1979 0.0147336 -0.294303 -1.54182e-14 3.61749e-13 5.01266 74.5767 0.017301 
-0.370973 1.59279e-13 -6.93369e-15 4.58299 73.7999 0.020717 -0.462087 1.6058e-13 -1.29744e-13 
4.21563 72.837 0.0253043 -0.572576 2.86517e-13 -6.00464e-14 3.91222 71.647 0.0315263 
-0.709324 -6.42056e-14 1.77727e-14 3.67436 70.1743 0.0400643 -0.882082 1.77469e-13 7.93883e-14 
3.50286 68.3426 0.0519196 -1.10489 1.7257e-14 -3.46841e-14 3.39568 66.0461 0.0686622 
-1.39834 1.76331e-13 -1.18017e-13 3.34281 63.1353 0.0924124 -1.79316 2.47607e-13 -3.11041e-13 
3.31596 59.3968 0.127282 -2.33591 -1.52933e-14 -1.03632e-13 3.23591 54.5235 0.177269 
-3.09758 -2.06779e-14 8.89705e-14 20.93 73.5211 0.00484424 0.672256 -4.56492e-14 -1.20228e-13 
19.8866 73.9494 0.00104303 0.668647 -2.62321e-13 2.75303e-13 18.8158 74.3741 0.00163113 
0.652249 2.81129e-14 -1.8548e-13 17.7278 74.7846 0.0024508 0.623555 -3.44325e-14 1.96566e-13 
16.6341 75.1731 0.00324291 0.583127 1.38351e-13 -1.42295e-13 15.5452 75.5323 0.0039855 
0.531608 4.09603e-14 2.29612e-13 14.4712 75.8555 0.00467399 0.469698 9.9554e-14 -2.17587e-13 
13.4208 76.1363 0.00530894 0.398111 -7.10099e-13 -2.61045e-13 12.4017 76.3691 0.0058964 
0.317499 1.16573e-15 -3.2762e-13 11.4204 76.5484 0.00644851 0.228374 -2.47111e-13 9.46256e-14 
10.4823 76.6692 0.00698384 0.131012 -3.6263e-13 9.05361e-14 9.59141 76.7268 0.00752763 
0.0253562 -1.4138e-13 5.37254e-14 8.75098 76.7163 0.00811216 -0.0890976 2.69878e-13 -3.67685e-13 
7.96315 76.6323 0.0087774 -0.213419 4.91378e-14 8.79499e-14 7.22927 76.4689 0.0095723 
-0.349389 2.15231e-13 8.51042e-14 6.55001 76.2191 0.0105569 -0.499684 9.44904e-14 8.08143e-14 
5.92547 75.874 0.0118058 -0.668118 2.50713e-13 -8.27006e-14 5.35526 75.4224 0.0134128 
-0.859969 -5.86885e-13 -1.64198e-13 4.83861 74.85 0.0154984 -1.08246 2.76099e-14 -2.82504e-13 
4.37424 74.1382 0.0182198 -1.34543 1.36662e-14 2.22777e-13 3.96017 73.2624 0.021784 
-1.66235 1.24553e-14 -1.13475e-13 3.5932 72.191 0.0264658 -2.05179 2.37144e-13 -2.49855e-13 
3.26784 70.8818 0.0326298 -2.53965 2.72074e-14 8.75671e-14 2.97421 69.2796 0.0407388 
-3.16255 -4.08659e-13 -1.07506e-13 2.69402 67.3115 0.0513949 -3.97293 -2.35804e-13 -1.1452e-13 
2.39246 64.8816 0.0651212 -5.0467 2.3577e-13 7.38749e-14 2.00287 61.8643 0.0822968 
-6.4945 -2.1759e-13 -1.41893e-13 1.39564 58.1093 0.104948 -8.47559 -6.31301e-14 -1.3578e-13 
20.9342 73.6061 0.00494776 1.12765 3.37601e-13 -1.86886e-13 19.8725 74.0425 0.00105075 
1.12163 -2.58713e-13 -2.34557e-13 18.7842 74.4755 0.00163311 1.0943 -1.03575e-13 -8.04586e-14 
17.6795 74.8942 0.00245135 1.04648 -1.49398e-13 -1.58294e-13 16.5697 75.2909 0.00323728 
0.979138 2.78926e-13 3.51358e-13 15.4659 75.6583 0.00396519 0.893394 -1.90972e-13 -2.57503e-13 
14.378 75.9898 0.00462757 0.790497 -2.78067e-13 2.42048e-13 13.3146 76.2795 0.0052226 
0.671736 -9.3937e-14 9.29052e-14 12.2834 76.5217 0.00575423 0.53832 -7.56322e-14 -3.38865e-14 
11.2906 76.7118 0.00623232 0.391238 1.39028e-13 -1.83001e-13 10.3411 76.8454 0.00667252 
0.231115 4.39669e-13 5.46877e-14 9.43866 76.9184 0.00709573 0.0580458 -1.38778e-17 -3.86861e-14 
8.58562 76.9272 0.00752763 -0.128569 -5.36137e-13 8.16736e-14 7.78332 76.8678 0.00799819 
-0.330203 -5.03157e-13 5.51417e-14 7.03202 76.736 0.00854132 -0.549407 -1.83051e-13 -3.19196e-13 
6.33105 76.527 0.00919465 -0.790065 -4.13416e-13 -6.57686e-14 5.67878 76.2349 0.00999933 
-1.05771 -3.22721e-13 2.46495e-13 5.07262 75.8525 0.0109993 -1.35996 1.47476e-13 9.18441e-14 
4.50884 75.3709 0.0122395 -1.70711 4.99961e-13 9.01232e-14 3.98219 74.7789 0.0137612 
-2.11297 5.48173e-16 -2.05266e-13 3.48523 74.063 0.0155917 -2.59604 -7.20361e-14 1.33758e-13 
3.00708 73.2065 0.017721 -3.18117 3.80251e-15 -1.11591e-13 2.53136 72.1902 0.020056 
-3.9019 -1.8811e-13 -5.64132e-15 2.03259 70.9928 0.0223205 -4.80371 -9.26897e-14 -2.26208e-14 
1.47015 69.5932 0.0238641 -5.9483 5.98271e-14 2.82691e-14 0.77797 67.9764 0.0233494 
-7.41885 -2.35652e-13 5.76483e-14 -0.153331 66.143 0.01707 -9.32516 -3.04756e-13 1.09648e-13 
-1.49628 64.1522 0.00606785 -11.8022 6.16479e-13 8.06855e-14 20.9404 73.7329 0.00510281 
1.59383 -2.18735e-13 2.11026e-13 19.8515 74.1814 0.00106693 1.58535 -2.47077e-14 6.67261e-15 
18.7369 74.6266 0.00164456 1.54705 1.81719e-13 1.30422e-13 17.6069 75.0574 0.00246429 
1.48005 -8.82645e-14 1.04837e-13 16.4733 75.466 0.00324425 1.38576 -1.84264e-13 -4.8941e-13 
15.3473 75.8454 0.00395319 1.26586 4.29977e-13 -5.80157e-14 14.2387 76.1889 0.00457948 
1.12227 -2.37447e-13 4.41886e-14 13.1564 76.4908 0.00511821 0.957001 -4.47493e-13 -1.10551e-13 
12.1077 76.7463 0.00557083 0.771997 -6.14439e-15 8.33671e-14 11.0986 76.9513 0.00594479 
0.568924 2.73618e-14 -1.29096e-14 10.1334 77.1022 0.0062525 0.348972 -1.01738e-13 3.62768e-14 
9.21503 77.1965 0.00651001 0.112651 1.53311e-13 2.92169e-14 8.34503 77.2316 0.00673537 
-0.140417 -9.72243e-14 -2.02053e-13 7.52351 77.2057 0.00694683 -0.411706 -2.72497e-13 1.23623e-13 
6.74933 77.1169 0.00716076 -0.704004 2.50636e-13 1.39654e-14 6.02007 76.9632 0.00738901 
-1.02167 8.95777e-14 -8.15628e-14 5.33198 76.7426 0.00763513 -1.37093 1.47857e-13 -2.48961e-13 
4.67981 76.4529 0.00788848 -1.76031 4.96301e-13 -2.32178e-13 4.05645 76.0919 0.00811445 
-2.20109 1.42251e-13 -7.55958e-14 3.45224 75.6574 0.0082379 -2.70801 1.06859e-13 -2.60464e-13 
2.85403 75.1484 0.00811474 -3.30015 1.10915e-13 3.20178e-14 2.24339 74.5658 0.00748313 
-4.00195 -5.96231e-13 2.09862e-13 1.59407 73.9149 0.00587906 -4.84454 1.28026e-13 3.96488e-14 
0.867968 73.2097 0.00249862 -5.86684 9.06705e-14 2.26003e-13 0.00905576 72.4796 -0.0040741 
-7.11622 -1.12192e-13 -1.83673e-14 -1.06484 71.7826 -0.0159762 -8.64668 2.46414e-13 -2.08791e-13 
-2.47433 71.2229 -0.0382804 -10.5118 1.46598e-13 -2.19373e-13 -4.37622 71.0043 -0.0685482 
-12.7414 6.42056e-14 8.49876e-14 20.9486 73.9006 0.00530927 2.07501 3.01969e-13 5.48793e-14 
19.8233 74.3653 0.00109711 2.06398 1.82361e-13 2.23462e-13 18.6736 74.8265 0.00167564 
2.01456 -1.03128e-13 2.18037e-14 17.5101 75.2731 0.00250401 1.92817 -1.15498e-14 1.62064e-13 
16.3448 75.6971 0.00328192 1.80669 2.66299e-13 2.93579e-13 15.1893 76.0915 0.00397079 
1.65251 3.10092e-13 3.05542e-13 14.0538 76.4498 0.00455394 1.46837 2.90757e-14 -4.12196e-14 
12.9471 76.7667 0.00502322 1.25723 1.85588e-13 6.63499e-14 11.8765 77.0381 0.00537804 
1.02199 -4.38469e-14 1.25823e-13 10.8472 77.2605 0.00562419 0.765247 1.1581e-13 3.68858e-13 
9.86322 77.4318 0.00577187 0.489044 2.19425e-14 2.5937e-13 8.9264 77.5506 0.00583325 
0.194614 2.36377e-13 4.63405e-14 8.03716 77.6165 0.00581975 -0.117833 -6.65423e-14 2.02204e-13 
7.1943 77.6294 0.00573906 -0.449314 2.1071e-13 -1.39671e-13 6.39509 77.5903 0.0055917 
-0.802263 -2.31083e-13 5.36854e-15 5.63528 77.5004 0.00536665 -1.18072 2.60014e-13 -1.24784e-13 
4.90896 77.3617 0.00503539 -1.59056 -5.87981e-13 7.34308e-14 4.20833 77.1773 0.00454307 
-2.03968 3.86264e-13 1.50198e-13 3.52324 76.9516 0.00379499 -2.5383 9.839e-14 4.01641e-14 
2.84048 76.6913 0.00263586 -3.09922 2.76616e-13 2.23091e-13 2.14265 76.4067 0.000817608 
-3.73801 -3.16431e-13 4.57342e-14 1.40654 76.114 -0.00204934 -4.47308 -3.00877e-13 -6.8584e-14 
0.600924 75.8387 -0.00656995 -5.32521 8.72358e-14 -3.90139e-14 -0.316421 75.6211 -0.0136549 
-6.31603 -1.8659e-13 -6.69742e-14 -1.40217 75.5244 -0.024696 -7.4643 2.53353e-13 1.18967e-13 
-2.72981 75.6476 -0.0413374 -8.77761 1.11078e-13 1.07823e-13 -4.39019 76.1405 -0.06715 
-10.2362 -3.79211e-14 4.62103e-13 -6.467 77.2393 -0.0975437 -11.7594 -2.20296e-13 -5.30825e-14 
20.9586 74.1085 0.00556722 2.57532 -2.0624e-13 -1.9213e-13 19.7879 74.5932 0.00114871 
2.56157 4.95472e-14 -3.67768e-13 18.5942 75.0742 0.0017401 2.5007 1.59772e-13 2.62251e-14 
17.3885 75.54 0.00258982 2.39439 -8.36674e-14 -5.96981e-13 16.1838 75.9824 0.0033741 
2.24512 -2.73849e-13 -1.81638e-13 14.992 76.3943 0.00404517 2.05611 -4.58937e-13 8.93339e-15 
13.8237 76.7694 0.00458082 1.83118 1.46343e-13 -7.12958e-14 12.6879 77.1028 0.00497023 
1.57449 -3.67937e-13 4.68078e-14 11.5916 77.391 0.00521222 1.29019 7.02424e-14 9.06094e-14 
10.5398 77.6318 0.00531294 0.98211 1.67867e-13 -7.93636e-17 9.53547 77.8241 0.00528263 
0.653444 -2.23398e-14 -2.78206e-13 8.57955 77.9684 0.0051321 0.306476 4.50905e-13 -7.78154e-15 
7.67121 78.0659 0.00486899 -0.0576336 1.30937e-14 -6.92961e-14 6.80782 78.1191 0.00449399 
-0.439015 3.00721e-13 -1.79609e-13 5.9851 78.1314 0.00399676 -0.839213 -2.71861e-13 -1.2257e-13 
5.19705 78.1072 0.00335107 -1.26126 1.87874e-13 1.05862e-13 4.43592 78.0524 0.00250852 
-1.70975 2.6925e-13 2.64337e-14 3.69192 77.9746 0.00138991 -2.19077 8.17419e-14 -3.63277e-14 
2.95288 77.8838 -0.000126857 -2.71191 2.11289e-15 8.90954e-14 2.20359 77.7938 -0.00222359 
-3.28193 3.26971e-13 8.20056e-14 1.42501 77.7232 -0.00516434 -3.91032 -1.14683e-13 -1.05322e-13 
0.59321 77.6984 -0.00932277 -4.60625 -8.22779e-14 1.7205e-14 -0.321732 77.7569 -0.0152128 
-5.3766 -4.05405e-14 -1.29063e-14 -1.35654 77.9514 -0.0234916 -6.22235 -1.93753e-13 -1.62648e-14 
-2.55435 78.3568 -0.0349706 -7.13224 3.3607e-13 -3.67831e-14 -3.96036 79.0769 -0.0501754 
-8.07176 -1.16997e-13 -1.94907e-13 -5.61099 80.2509 -0.0699839 -8.96597 -2.68562e-13 -2.66627e-13 
-7.49791 82.0613 -0.0889945 -9.67147 -1.57576e-13 -1.06776e-13 20.9703 74.356 0.00587734 
3.09886 -4.48374e-13 2.34281e-13 19.7448 74.8645 0.00123145 3.08209 -4.07993e-13 -1.32099e-13 
18.4979 75.3688 0.00185583 3.00911 3.63234e-13 2.05699e-13 17.2415 75.857 0.00274654 
2.8819 1.14594e-13 3.28805e-13 15.9894 76.3203 0.00355054 2.70362 1.08837e-14 7.02207e-14 
14.7545 76.7514 0.00420904 2.47855 -1.62353e-13 5.30825e-16 13.5481 77.1442 0.00469427 
2.2119 4.64977e-13 -1.6172e-14 12.3792 77.4942 0.00499436 1.90935 -1.79761e-13 2.97101e-13 
11.2549 77.7987 0.00511028 1.57665 -3.0204e-13 1.04828e-13 10.1794 78.0566 0.00505186 
1.21919 2.90443e-13 -1.08868e-13 9.15501 78.2683 0.004833 0.841622 -1.55851e-13 -8.6124e-14 
8.18148 78.436 0.00446686 0.447572 2.50508e-13 1.12692e-13 7.25667 78.5629 0.00396134 
0.0394564 2.09091e-13 -1.41796e-14 6.37655 78.6535 0.00331509 -0.381639 3.03963e-13 9.00334e-14 
5.53534 78.7139 0.00251354 -0.815976 3.29714e-13 3.91332e-14 4.72562 78.7511 0.00152487 
-1.26511 -2.44428e-13 2.36242e-13 3.93825 78.7742 0.000295219 -1.73175 -4.07141e-13 -1.35496e-13 
3.16231 78.7942 -0.00125711 -2.2195 -2.93614e-13 -8.7123e-14 2.38482 78.8252 -0.00324867 
-2.73242 -3.70674e-13 -3.50336e-14 1.59047 78.885 -0.00583847 -3.27441 1.22524e-14 -3.81049e-14 
0.761298 78.997 -0.00923437 -3.84806 -2.40839e-13 1.84592e-13 -0.123498 79.1918 -0.0136924 
-4.45293 -7.12895e-13 1.91923e-13 -1.08725 79.5096 -0.0195003 -5.08274 1.51962e-13 -4.36803e-15 
-2.15433 80.0029 -0.0269095 -5.72106 -3.87993e-13 -1.32918e-13 -3.34634 80.7391 -0.0360276 
-6.33465 -3.44516e-15 -2.24126e-14 -4.67323 81.8016 -0.0463722 -6.86398 3.61506e-13 2.43722e-13 
-6.11649 83.2863 -0.0568326 -7.21113 -3.10238e-14 1.67352e-13 -7.59749 85.2899 -0.0638176 
-7.22632 -3.95992e-13 2.66231e-13 20.9757 74.496 0.00543306 -3.37071 -5.21139e-13 2.22253e-14 
21.5704 74.0974 0.0147528 -3.08078 2.18024e-13 1.95535e-13 19.7173 75.0171 -1.94515e-05 
-3.35222 4.05051e-13 4.21798e-14 20.3611 74.6115 0.00162573 -3.09259 9.13158e-14 2.6131e-13 
18.4383 75.5338 -3.81653e-05 -3.27278 -1.92506e-13 -3.46043e-13 19.1235 75.1191 0.000982988 
-3.04766 5.65381e-14 3.68577e-14 17.1514 76.0335 0.000261857 -3.13448 4.34923e-13 -3.68474e-13 
17.8692 75.6145 0.00108935 -2.94747 -1.11994e-13 -2.54198e-13 15.8711 76.5075 0.00055418 
-2.94091 -3.13582e-13 2.54831e-13 16.6124 76.0894 0.00121841 -2.79457 -5.93338e-13 3.33691e-14 
14.6111 76.9481 0.000805116 -2.69704 4.52784e-13 6.08567e-14 15.3666 76.5358 0.00131896 
-2.59272 1.68025e-13 -5.30661e-14 13.3829 77.3494 0.00100326 -2.40892 2.45665e-13 4.44818e-14 
14.1441 76.947 0.00138262 -2.34668 -5.50671e-13 -3.86414e-13 12.196 77.7072 0.00114314 
-2.08318 1.71946e-13 -8.17575e-15 12.955 77.3179 0.00140715 -2.0619 -2.12677e-14 -3.68448e-13 
11.0572 78.019 0.00122373 -1.72652 -1.89612e-13 -2.12946e-14 11.8074 77.6448 0.00139338 
-1.74415 1.76803e-14 3.58567e-14 9.97044 78.2845 0.0012474 -1.34525 -1.10023e-13 1.6634e-13 
10.707 77.9258 0.00134419 -1.399 -2.77701e-13 1.41013e-13 8.93743 78.5049 0.00121853 
-0.944883 7.96169e-14 6.85606e-14 9.65698 78.1606 0.0012633 -1.0315 -5.71938e-13 -1.57147e-13 
7.95737 78.683 0.00114226 -0.529821 -1.75679e-13 1.19252e-13 8.65833 78.3505 0.00115397 
-0.645804 1.70218e-13 -1.51402e-13 7.02741 78.8232 0.00102335 -0.103194 -1.50921e-13 -1.12358e-13 
7.70986 78.4981 0.00101775 -0.244943 -2.13052e-13 -5.43706e-14 6.14281 78.9311 0.000865268 
0.333209 -2.46025e-13 2.00332e-13 6.80843 78.6073 0.000853429 0.169324 -5.85372e-13 1.75606e-14 
5.29718 79.0137 0.000669617 0.778914 -4.55788e-13 -3.58245e-13 5.94913 78.6834 0.000655832 
0.596576 3.44724e-14 -4.72816e-14 4.48255 79.0794 0.00043571 1.23463 -8.59868e-14 3.71647e-14 
5.12537 78.7329 0.000414594 1.03772 -4.77764e-13 -2.54406e-13 3.68946 79.1383 0.000160437 
1.702 1.92915e-13 -2.26546e-13 4.32891 78.764 0.000112556 1.49487 4.6925e-13 -3.03042e-13 
2.90689 79.203 -0.000161551 2.18327 -1.95288e-13 -8.5966e-14 3.54978 78.7867 -0.000276375 
1.97118 4.6782e-14 -8.31869e-14 2.12222 79.2888 -0.000537064 2.68069 1.38778e-16 2.19234e-13 
2.77612 78.8135 -0.000790146 2.4705 2.74641e-13 1.22666e-13 1.32106 79.4149 -0.000972494 
3.19573 -4.95382e-13 5.47028e-14 1.99393 78.8606 -0.00148248 2.99681 -1.84935e-13 2.05783e-13 
0.487257 79.6055 -0.00146973 3.72779 2.01235e-13 3.96627e-14 1.18671 78.9487 -0.00242786 
3.55338 2.16487e-13 7.03188e-14 -0.396832 79.8916 -0.00201833 4.27235 6.13468e-14 7.16718e-14 
0.335222 79.1047 -0.00372743 4.14138 1.249e-14 1.26649e-13 -1.34943 80.3122 -0.00257946 
4.81809 4.23973e-13 -6.67036e-14 -0.582525 79.3642 -0.00551415 4.75761 6.5721e-13 -8.5168e-14 
-2.3871 80.916 -0.00306235 5.34275 2.75526e-13 7.34551e-14 -1.59055 79.7734 -0.00795539 
5.39099 -4.54935e-13 -1.78572e-13 -3.51995 81.7623 -0.0032647 5.80733 -5.54119e-13 -1.33574e-13 
-2.7125 80.3921 -0.0112436 6.01718 1.73479e-13 -7.52731e-14 -4.74246 82.9185 -0.00285795 
6.14855 2.42471e-13 2.69409e-13 -3.96591 81.2947 -0.015553 6.59065 -4.31981e-13 1.50574e-14 
-6.01685 84.4535 -0.00119693 6.27047 -2.54657e-14 6.35325e-14 -5.35017 82.5693 -0.0210322 
7.03394 1.78366e-13 3.55632e-13 -7.24576 86.4237 0.0028649 6.03867 -2.14051e-13 -1.09968e-13 
-6.82345 84.3094 -0.0271455 7.22505 -4.848e-13 2.11164e-13 -8.26227 86.5903 -0.0351633 
6.99181 3.08586e-13 1.38334e-13 20.9633 74.2289 0.00511092 -2.83403 -2.19574e-13 2.77152e-13 
21.531 73.8624 0.014077 -2.55987 -8.34884e-13 3.17822e-13 19.7645 74.7243 -7.08055e-05 
-2.81882 5.52711e-13 3.38601e-14 20.377 74.3523 0.00158258 -2.57023 -1.09752e-13 3.51073e-14 
18.5436 75.2158 -9.77779e-05 -2.75201 -3.60358e-13 1.08732e-13 19.1935 74.8363 0.000974108 
-2.53288 -2.37789e-13 1.13503e-13 17.3121 75.6918 0.00017734 -2.63541 4.31981e-13 2.51934e-13 
17.9914 75.3089 0.00108109 -2.44922 -4.14085e-13 7.18349e-14 16.0832 76.1439 0.000448295 
-2.47184 -9.80271e-13 -3.9178e-13 16.7838 75.7621 0.00121465 -2.32134 6.04725e-13 -1.51087e-13 
14.8695 76.5647 0.000686025 -2.26505 4.02012e-13 -4.23594e-13 15.5834 76.1885 0.00132788 
-2.15208 5.61426e-14 -3.20364e-13 13.6819 76.9483 0.000881153 -2.01953 3.23658e-13 -2.38902e-13 
14.4015 76.5813 0.00141389 -1.945 -2.40225e-13 -5.35622e-14 12.5294 77.2899 0.0010286 
-1.74017 -1.52878e-13 -1.4691e-13 13.248 76.935 0.00147075 -1.70408 -3.2381e-13 1.36157e-13 
11.4191 77.5863 0.00112652 -1.43189 -5.70377e-15 7.74237e-14 12.1308 77.2454 0.00149887 
-1.43352 -4.58487e-13 1.50512e-13 10.3555 77.836 0.00117561 -1.09929 4.55178e-13 -9.88823e-14 
11.0561 77.5097 0.00150047 -1.13732 -3.20396e-13 9.88068e-14 9.3413 78.0385 0.00117825 
-0.746262 -1.85199e-14 -3.21374e-13 10.0277 77.7261 0.00147871 -0.819017 3.05166e-13 8.74808e-14 
8.37682 78.1952 0.00113756 -0.375754 -4.49085e-14 2.28572e-14 9.04754 77.8945 0.00143681 
-0.481357 -1.50477e-13 2.24862e-13 7.46055 78.3082 0.00105646 0.0104598 6.40009e-13 -1.74721e-13 
8.11576 78.0155 0.00137709 -0.126083 -1.13604e-13 5.97682e-14 6.58919 78.3812 0.00093678 
0.41191 4.39357e-13 -1.69966e-13 7.23057 78.0912 0.00129996 0.246275 2.74808e-13 -3.03763e-13 
5.7577 78.4187 0.000778503 0.829507 2.16813e-13 1.4227e-13 6.3885 78.1243 0.00120288 
0.636537 2.8668e-13 -1.37407e-13 4.95942 78.4269 0.000579048 1.26555 4.33389e-13 -3.71831e-13 
5.58443 78.1189 0.00107899 1.04697 1.78572e-13 7.29625e-15 4.18595 78.4131 0.00033257 
1.72368 -3.70204e-13 1.57919e-13 4.81151 78.0801 0.000915352 1.48137 -4.83016e-14 -1.22992e-15 
3.42703 78.3871 2.93064e-05 2.20874 9.59857e-14 -9.56943e-14 4.06108 78.0147 0.000690433 
1.94504 2.3917e-13 5.60871e-14 2.67021 78.3612 -0.000344953 2.72654 -1.78087e-13 1.06078e-13 
3.32227 77.9317 0.000370325 2.4448 -1.32047e-14 -4.90372e-14 1.90042 78.3517 -0.000808933 
3.28337 1.57881e-13 -3.37265e-14 2.58157 77.8428 -9.68007e-05 2.98876 -3.3773e-13 -5.90639e-14 
1.09942 78.3804 -0.00138466 3.88517 -9.46951e-14 -6.21031e-14 1.82215 77.7646 -0.000788817 
3.58605 -1.09635e-13 9.21103e-14 0.245235 78.4769 -0.00209358 4.53617 2.01922e-15 -2.37171e-13 
1.02284 77.7197 -0.00182151 4.24597 -4.70089e-13 -1.11064e-13 -0.688226 78.6815 -0.00294485 
5.23638 7.59122e-13 -4.5644e-14 0.157147 77.7403 -0.00336441 4.97656 -8.03316e-14 -1.14284e-13 
-1.73081 79.0488 -0.00391668 5.9776 -1.44891e-13 -1.86323e-13 -0.807847 77.8717 -0.00566325 
5.7819 1.52531e-13 1.59622e-13 -2.91386 79.6524 -0.00488397 6.73678 -1.19391e-13 -4.22162e-14 
-1.91183 78.1779 -0.00905914 6.65715 6.4386e-14 1.1649e-13 -4.2641 80.5883 -0.00561473 
7.46572 -6.91291e-13 -1.24387e-13 -3.19953 78.7479 -0.0140125 7.58015 1.71689e-13 4.11615e-14 
-5.78861 81.9765 -0.00524889 8.0761 4.87888e-13 1.28453e-13 -4.71374 79.7029 -0.021094 
8.49741 -5.14835e-13 -2.0095e-14 -7.44634 83.9524 -0.00373175 8.42053 -2.73948e-13 -1.32561e-13 
-6.4761 81.1974 -0.0307135 9.30244 1.30919e-13 -1.08691e-13 -8.44631 83.4208 -0.0448303 
9.80898 1.23249e-13 -1.58235e-13 20.9524 74.0012 0.00482841 -2.32262 3.56368e-13 -3.5745e-13 
21.498 73.665 0.0135156 -2.06225 8.83148e-13 -6.22273e-13 19.8038 74.4746 -0.000116397 
-2.31028 2.87069e-13 2.25179e-13 20.39 74.1346 0.00155578 -2.07096 -1.58616e-13 -3.45135e-13 
18.6315 74.9446 -0.000144308 -2.25522 6.91697e-13 9.97154e-14 19.2512 74.5986 0.000978636 
-2.0407 -2.67009e-13 -1.88963e-14 17.4464 75.3998 0.000115049 -2.15899 -3.94282e-13 -1.10864e-13 
18.0922 75.0517 0.0010884 -1.97275 6.37046e-13 -9.21485e-14 16.2609 75.8321 0.000372113 
-2.02377 -2.85799e-13 3.0759e-13 16.9256 75.4862 0.00122747 -1.86876 3.08156e-14 7.05954e-14 
15.0868 76.2345 0.000601526 -1.85235 -5.0078e-13 3.42193e-13 15.7631 75.8946 0.00135254 
-1.73086 7.47319e-14 2.46352e-13 13.9346 76.6006 0.000795751 -1.648 2.99066e-14 2.40486e-13 
14.6158 76.2702 0.00145821 -1.56163 -9.36473e-14 1.66344e-13 12.8132 76.9254 0.000950466 
-1.41425 -2.25195e-13 4.03651e-13 13.4932 76.6073 0.00154327 -1.36394 -3.57367e-13 -7.05659e-14 
11.7295 77.2049 0.00106369 -1.15462 -3.05957e-13 4.82474e-14 12.4033 76.901 0.00160847 
-1.14073 1.33026e-13 -2.2299e-13 10.6889 77.4364 0.00113538 -0.872306 2.74961e-13 3.42887e-13 
11.3525 77.1476 0.00165615 -0.894768 4.47649e-13 -1.2655e-13 9.6947 77.6183 0.00116694 
-0.569894 -2.35811e-13 1.8141e-13 10.3453 77.3442 0.00168986 -0.628393 4.76376e-13 -3.92039e-14 
8.74835 77.7499 0.00116044 -0.249132 3.44683e-13 3.09641e-13 9.3846 77.4892 0.00171371 
-0.343257 -1.11605e-13 -1.13277e-13 7.84962 77.8318 0.00111793 0.0893099 3.58429e-13 1.43574e-13 
8.47159 77.5815 0.00173175 -0.0401003 3.04097e-13 1.21869e-13 6.99659 77.8652 0.00104061 
0.446021 1.28432e-13 5.72459e-16 7.60583 77.6211 0.00174727 0.28146 5.95218e-13 2.40159e-13 
6.18576 77.8521 0.000928069 0.823006 -1.33067e-13 3.05745e-15 6.78535 77.6082 0.00176196 
0.623127 -1.51393e-13 9.86563e-14 5.41202 77.7955 0.000777355 1.22382 2.11609e-13 1.37813e-13 
6.00666 77.544 0.00177492 0.98811 6.73364e-13 8.8176e-14 4.66856 77.6995 0.000581961 
1.65371 -6.27297e-13 2.86403e-14 5.26472 77.4301 0.00178119 1.38132 5.53724e-15 4.32189e-14 
3.94668 77.5696 0.000330515 2.1197 5.49193e-13 6.61068e-14 4.55274 77.2692 0.00176955 
1.80961 -1.83395e-14 -1.316e-13 3.23529 77.4133 5.13688e-06 2.6307 1.28092e-13 -2.64865e-13 
3.86188 77.065 0.0017191 2.28196 2.76161e-13 -9.96876e-14 2.52036 77.2412 -0.000420581 
3.19752 -2.57981e-13 1.27308e-13 3.18065 76.8232 0.00159372 2.8098 -4.02442e-13 -5.44877e-14 
1.7839 77.0687 -0.000983724 3.83269 2.0442e-13 3.16205e-14 2.49405 76.5523 0.00133324 
3.40721 -2.18374e-13 -1.9364e-13 1.00275 76.9181 -0.00173376 4.54994 -3.61218e-13 7.60919e-14 
1.78223 76.266 0.000838991 4.09105 -7.68607e-13 -2.24057e-13 0.146918 76.8226 -0.00273 
5.36297 -1.29549e-14 1.78815e-13 1.01862 75.9855 -4.84943e-05 4.88076 -7.63972e-15 -1.15727e-13 
-0.822159 76.8316 -0.00403667 6.28279 1.6688e-14 9.79772e-14 0.167395 75.744 -0.00158739 
5.79741 -2.26236e-13 -1.39985e-13 -1.95293 77.018 -0.00566057 7.31244 5.61357e-14 1.92901e-14 
-0.819728 75.5942 -0.00418233 6.86111 4.27602e-13 -6.45872e-14 -3.30308 77.4885 -0.00761951 
8.43728 -1.67429e-13 2.42584e-14 -2.00675 75.6176 -0.00849193 8.08521 9.61176e-14 -1.24095e-13 
-4.93167 78.3971 -0.00896413 9.60721 1.57069e-13 -1.55431e-14 -3.47477 75.9403 -0.0154356 
9.46405 -1.02439e-13 -3.05367e-13 -6.88123 79.9503 -0.0116049 10.7081 1.80422e-13 5.65936e-14 
-5.31615 76.7475 -0.0266486 10.9501 1.0783e-13 5.48728e-14 -7.6049 78.3247 -0.0439977 
12.4121 4.72899e-13 9.88654e-14 20.9432 73.8132 0.00458995 -1.83237 1.13798e-14 -4.43305e-13 
21.4713 73.5058 0.0130667 -1.58383 2.21975e-13 -3.27443e-13 19.8355 74.2687 -0.000155387 
-1.82267 -8.02344e-14 -3.78491e-13 20.4002 73.9589 0.00154015 -1.59073 -5.57221e-13 -2.89135e-13 
18.7028 74.7207 -0.000180202 -1.77888 -1.68074e-13 -1.16228e-13 19.2971 74.4068 0.000989941 
-1.56732 -2.47719e-13 -2.03321e-13 17.5555 75.1584 6.96774e-05 -1.70227 3.13985e-14 9.30939e-15 
18.1726 74.844 0.00110348 -1.51465 7.71605e-15 -1.42542e-14 16.4056 75.5737 0.000318197 
-1.59449 4.82003e-13 -7.1422e-14 17.0386 75.2629 0.00124827 -1.43397 -9.63812e-15 8.29007e-14 
15.2644 75.9597 0.00054293 -1.45757 1.64042e-13 -8.86747e-14 15.9067 75.6561 0.00138394 
-1.32683 -5.23748e-14 -7.57068e-14 14.142 76.3098 0.000737915 -1.29383 -1.32679e-13 -1.41299e-13 
14.7876 76.0168 0.00150644 -1.19505 4.12344e-13 -1.0626e-13 13.0471 76.6186 0.000899699 
-1.10573 3.35072e-13 -2.84486e-13 13.6905 76.339 0.00161544 -1.0406 1.69781e-13 -1.22271e-13 
11.9872 76.8815 0.00102656 -0.895691 -6.77916e-13 -2.46902e-13 12.6238 76.6172 0.00171235 
-0.865471 -1.48562e-14 -1.2675e-13 10.9678 77.0947 0.00111836 -0.665821 -6.1437e-13 -2.15463e-13 
11.5938 76.847 0.00180017 -0.671481 -1.25656e-12 -2.04496e-13 9.99298 77.2554 0.00117614 
-0.417721 -2.06078e-13 -2.64759e-13 10.6059 77.0247 0.00188334 -0.460074 3.36203e-13 -1.5883e-13 
9.06522 77.3616 0.00120173 -0.152245 -4.46303e-13 -2.40368e-13 9.66364 77.1471 0.00196745 
-0.232116 -5.12791e-13 -6.64464e-14 8.18541 77.4116 0.00119712 0.130709 4.90954e-13 9.34808e-14 
8.76918 77.2117 0.00205891 0.0123117 3.40422e-13 -2.8236e-13 7.35301 77.4046 0.00116384 
0.432402 3.97772e-13 -5.38831e-14 7.92334 77.2162 0.00216465 0.274112 2.57711e-14 -3.46744e-13 
6.56607 77.3399 0.00110224 0.755469 -3.19009e-13 -5.44269e-15 7.1256 77.1589 0.00229172 
0.555392 -3.3596e-13 -2.68648e-13 5.82126 77.2174 0.00101068 1.10414 3.74971e-13 5.33497e-14 
6.37417 77.0376 0.00244687 0.859689 -5.24247e-13 -2.55787e-13 5.11374 77.0369 0.000884339 
1.48449 -6.80844e-14 -9.92956e-15 5.66598 76.8506 0.00263591 1.19226 4.05467e-13 1.51353e-13 
4.437 76.799 0.000713797 1.90479 3.41595e-13 -2.1189e-13 4.99657 76.5957 0.00286262 
1.56041 4.63511e-13 2.18211e-14 3.78247 76.5048 0.000482815 2.37583 -3.50775e-13 1.74694e-13 
4.35982 76.2707 0.00312692 1.97395 -3.26086e-13 -6.25593e-14 3.13879 76.157 0.000165183 
2.91148 6.06779e-13 -1.93307e-13 3.74751 75.8735 0.00342145 2.44579 -2.2303e-13 -1.03771e-14 
2.49082 75.7606 -0.000279865 3.52913 1.7198e-13 -1.22496e-13 3.14847 75.4026 0.00372558 
2.99267 -7.17759e-14 -1.58835e-13 1.81804 75.325 -0.000914128 4.25032 3.23075e-14 -2.78791e-13 
2.54733 74.8581 0.00399441 3.63613 -3.25018e-14 -1.35295e-13 1.09216 74.8672 -0.0018279 
5.10109 -4.50862e-13 -1.99507e-13 1.92239 74.2435 0.00413945 4.40362 -2.92696e-13 -1.86462e-13 
0.273793 74.4166 -0.00315178 6.11176 -1.27051e-13 -1.19932e-13 1.24252 73.5691 0.00399218 
5.32975 -3.7173e-13 -1.04881e-13 -0.691983 74.0242 -0.00502873 7.31518 2.26541e-13 1.9508e-13 
0.462301 72.8575 0.00324814 6.45706 3.1207e-13 -3.52496e-15 -1.88108 73.7749 -0.00774181 
8.74161 -4.98532e-13 -2.21184e-13 -0.485054 72.1535 0.00132153 7.83562 3.84734e-13 2.53048e-13 
-3.39336 73.8106 -0.0106317 10.4057 -3.51247e-14 -1.53377e-13 -1.69701 71.5418 -0.00267184 
9.51807 -1.22818e-13 3.43336e-14 -5.35417 74.3513 -0.0176782 12.2803 1.98189e-13 9.1871e-15 
-3.31311 71.1691 -0.0112207 11.5472 4.62852e-13 -1.31367e-13 -5.51013 71.3198 -0.0243862 
13.9158 -6.07847e-14 -2.13163e-14 20.936 73.6659 0.00439964 -1.3592 -5.55923e-13 4.33866e-13 
21.4511 73.3854 0.0127295 -1.12046 6.71043e-13 6.66683e-13 19.8601 74.1072 -0.000186801 
-1.35199 -5.62994e-13 4.25861e-13 20.4077 73.8262 0.00153179 -1.12546 -6.03635e-13 5.1612e-13 
18.7581 74.5451 -0.000206852 -1.31923 -1.41546e-13 -7.22417e-14 19.3315 74.2618 0.0010029 
-1.10877 -1.1921e-14 3.90387e-13 17.6402 74.9687 3.7749e-05 -1.26188 -5.69655e-13 3.03532e-13 
18.2327 74.6869 0.00112021 -1.07118 -7.00134e-13 2.87994e-13 16.518 75.3703 0.000281411 
-1.18113 -2.62665e-13 -4.43751e-14 17.1233 75.0938 0.00127014 -1.01358 3.36411e-13 4.42749e-13 
15.4026 75.7428 0.00050394 -1.07839 2.14342e-13 5.31836e-14 16.0145 75.4751 0.00141457 
-0.937017 -4.10644e-14 4.34063e-13 14.3039 76.0794 0.00070065 -0.95522 6.82614e-13 -3.57453e-14 
14.9168 75.8239 0.00155054 -0.842681 -1.05124e-14 1.94174e-13 13.2306 76.3743 0.000868909 
-0.813271 4.14023e-13 1.78152e-14 13.8395 76.1338 0.00167856 -0.731848 4.84793e-13 4.25545e-13 
12.1903 76.6224 0.00100744 -0.654102 -1.9422e-13 2.67534e-13 12.7909 76.3992 0.00180077 
-0.605778 -1.42983e-13 5.41312e-13 11.189 76.8191 0.00111629 -0.47903 -1.72765e-13 -9.43568e-14 
11.7777 76.615 0.00192101 -0.465579 4.29545e-13 3.71808e-13 10.2314 76.9606 0.00119665 
-0.288948 -1.23887e-13 4.27641e-13 10.8056 76.7764 0.00204479 -0.31207 -2.41425e-13 2.30484e-13 
9.32058 77.0433 0.00125054 -0.0841429 5.1574e-13 -2.26755e-13 9.87896 76.8794 0.00217934 
-0.145623 7.37466e-14 -1.01291e-13 8.45864 77.0642 0.00128046 0.135889 -2.76779e-13 -3.10221e-13 
9.00066 76.9201 0.00233355 0.0339992 -7.23727e-15 -1.76428e-13 7.64623 77.0203 0.00128893 
0.372641 -5.48797e-14 2.36313e-14 8.17258 76.8945 0.00251807 0.227814 -1.0044e-13 4.672e-14 
6.8829 76.9083 0.00127794 0.628806 -1.37411e-13 -1.79768e-13 7.3955 76.7988 0.00274547 
0.437812 -1.37952e-13 1.15108e-13 6.16704 76.725 0.00124835 0.908535 -6.27338e-13 -3.24345e-13 
6.66916 76.6282 0.0030305 0.667179 -2.80054e-14 2.69408e-13 5.49595 76.4661 0.00119898 
1.21775 2.89921e-13 8.34315e-14 5.99239 76.3774 0.00339056 0.92058 -8.12135e-13 5.86883e-14 
4.86566 76.127 0.00112541 1.56459 1.33407e-13 -6.0927e-14 5.36308 76.04 0.00384622 
1.20453 3.34836e-13 1.41682e-13 4.27071 75.7019 0.00101808 1.9599 -1.71044e-13 -1.59008e-13 
4.77807 75.6078 0.00442185 1.52791 5.18356e-13 1.39016e-13 3.70362 75.1842 0.000859249 
2.41809 -2.55587e-13 1.16313e-13 4.23292 75.0708 0.00514607 1.90264 -5.86114e-13 3.21323e-14 
3.15408 74.5664 0.000618065 2.9581 3.65041e-13 6.41605e-14 3.72139 74.4166 0.00605155 
2.34471 3.12764e-13 4.44512e-13 2.60748 73.841 0.000242549 3.60481 -1.5056e-13 3.06422e-14 
3.23452 73.6303 0.00717331 2.87551 1.02002e-13 4.8244e-13 2.04262 73.0014 -0.00035356 
4.39083 -2.294e-13 1.66527e-13 2.75911 72.6941 0.00854322 3.52386 -3.26558e-13 2.10415e-13 
1.42802 72.0452 -0.00131185 5.3588 1.60066e-13 -5.87932e-14 2.27496 71.5882 0.0101761 
4.32866 2.75807e-13 7.36911e-14 0.71604 70.9791 -0.00284797 6.56372 1.36752e-13 -1.70003e-13 
1.75036 70.2919 0.0120426 5.34256 -5.70877e-13 -1.08136e-13 -0.166226 69.829 -0.00538031 
8.07479 1.9193e-13 2.76418e-13 1.13429 68.7883 0.0139682 6.63672 -2.51632e-13 -2.63817e-14 
-1.32945 68.661 -0.00876441 9.97332 -7.08877e-14 -5.58997e-14 0.343767 67.0741 0.0157136 
8.30503 3.64292e-13 -3.39173e-14 -2.9436 67.6048 -0.0180194 12.3426 2.23599e-13 -1.29285e-13 
-0.759362 65.1735 0.0151912 10.4683 -4.21052e-13 -4.72955e-14 -2.38786 63.2132 0.0164007 
13.255 8.37663e-14 -1.52156e-13 20.9307 73.5599 0.00426099 -0.898921 -6.30551e-13 -3.95363e-13 
21.4376 73.3047 0.0125043 -0.667919 -5.90888e-13 -2.62165e-13 19.8776 73.991 -0.000209839 
-0.894136 8.33639e-14 -1.67457e-13 20.4128 73.7372 0.0015278 -0.670943 -6.71532e-13 -1.84757e-13 
18.7975 74.4187 -0.000225241 -0.872306 2.85806e-13 2.97852e-14 19.3544 74.1646 0.00101368 
-0.660934 3.0051e-13 -1.0031e-13 17.7006 74.8322 1.66999e-05 -0.83409 -1.51122e-13 -2.34709e-13 
18.2728 74.5815 0.00113397 -0.63838 -2.66905e-13 -4.99414e-14 16.5983 75.2237 0.000257864 
-0.780247 -2.51743e-13 2.00376e-13 17.1798 74.9802 0.00128777 -0.60381 -1.04555e-13 -3.82461e-13 
15.5015 75.586 0.000479636 -0.711661 9.68739e-14 -6.5452e-14 16.0865 75.3533 0.00143846 
-0.557827 -2.06259e-13 -1.70108e-13 14.42 75.9123 0.00067827 -0.629301 8.06577e-14 2.75192e-14 
15.0032 75.6937 0.00158389 -0.501107 -1.41158e-13 -1.27491e-13 13.3627 76.1965 0.000851798 
-0.534162 1.31686e-13 2.97779e-13 13.9394 75.9951 0.00172518 -0.434361 1.44329e-14 -2.31892e-13 
12.3371 76.4331 0.00099939 -0.427165 1.41637e-13 2.34621e-15 12.9032 76.2513 0.00186513 
-0.358278 -2.27943e-13 -6.98447e-14 11.3496 76.6167 0.0011214 -0.309053 -4.23814e-13 -8.06857e-14 
11.9018 76.4569 0.00200824 -0.273446 6.67418e-13 -2.91082e-13 10.4053 76.7428 0.00121931 
-0.180267 5.0495e-13 -2.96261e-13 10.941 76.6065 0.002161 -0.180266 2.01769e-13 -3.01651e-13 
9.50816 76.8068 0.00129559 -0.0408132 -4.38538e-15 -4.13719e-14 10.0256 76.6954 0.00233198 
-0.0788565 1.48256e-13 9.43278e-15 8.66082 76.8044 0.00135346 0.109872 -1.22159e-13 2.25023e-13 
9.15921 76.7185 0.00253214 0.0310536 -1.11744e-13 1.31182e-13 7.86503 76.7308 0.00139662 
0.273074 -5.83006e-14 -3.4122e-14 8.34444 76.6709 0.0027752 0.150238 1.85713e-13 1.29254e-13 
7.12155 76.5808 0.00142898 0.450982 -4.18478e-13 1.58991e-13 7.583 76.5469 0.00307823 
0.280107 3.61843e-13 4.84664e-14 6.43031 76.3483 0.00145431 0.6469 4.28213e-13 3.74719e-13 
6.87584 76.34 0.00346268 0.422867 -3.73035e-13 -1.50427e-13 5.79047 76.0257 0.00147576 
0.86554 -4.75529e-13 -2.98431e-13 6.22329 76.0421 0.00395576 0.581733 7.7835e-13 -4.06073e-14 
5.20046 75.6037 0.00149526 1.1134 6.70873e-13 3.46813e-13 5.62515 75.6432 0.00459263 
0.761208 -1.6688e-13 1.02453e-14 4.6579 75.0702 0.00151248 1.39932 -6.20171e-13 -1.46397e-13 
5.08078 75.1305 0.00541952 0.96748 1.10328e-14 7.57979e-14 4.15937 74.4099 0.001523 
1.73524 -8.59729e-14 1.7604e-14 4.58908 74.4875 0.00649827 1.20899 -7.41907e-14 -8.04166e-14 
3.69997 73.6032 0.00151505 2.13731 -6.73253e-13 2.16042e-13 4.14837 73.6926 0.00791284 
1.49725 -4.76133e-13 -3.25955e-13 3.27242 72.6252 0.00146367 2.62749 4.46074e-13 -3.16656e-14 
3.75604 72.7175 0.00977899 1.84807 2.4368e-13 -3.03049e-13 2.86544 71.4443 0.00131853 
3.2359 -2.57766e-13 -1.80578e-13 3.40776 71.5253 0.0122576 2.28335 3.14027e-13 -2.42549e-13 
2.46095 70.0212 0.000986343 4.00417 8.98032e-14 -6.81608e-14 3.09601 70.0673 0.0155748 
2.83384 3.66401e-13 -1.75027e-13 2.02899 68.3077 0.000278247 4.9903 1.15852e-13 8.21565e-14 
2.80719 68.2795 0.0200494 3.54321 1.30479e-13 -8.08659e-14 1.51871 66.2472 -0.00114558 
6.27529 -4.53471e-13 -2.44804e-14 2.51593 66.0779 0.0261028 4.47427 2.53408e-14 -7.35176e-14 
0.84218 63.7799 -0.00368716 7.97105 2.52298e-13 -4.32987e-15 2.1745 63.353 0.0345096 
5.71758 -8.87346e-14 2.58127e-15 -0.156883 60.8484 -0.011157 10.2286 -1.26982e-13 1.56153e-13 
1.68836 59.9638 0.0448075 7.40521 -6.43929e-14 1.05888e-13 0.886527 55.7638 0.066311 
9.71231 1.10412e-13 1.78191e-14 20.9275 73.496 0.00417667 -0.44729 -3.73077e-13 5.4298e-13 
21.4308 73.2642 0.0123916 -0.221912 -1.94764e-13 5.80938e-13 19.8881 73.921 -0.000223904 
-0.444902 4.86465e-13 5.45857e-14 20.4153 73.6925 0.00152628 -0.222924 -2.99996e-13 5.52025e-13 
18.8212 74.3425 -0.000236022 -0.433986 -2.28845e-14 3.39844e-13 19.3658 74.1158 0.00101971 
-0.219587 3.356e-13 3.08721e-13 17.7369 74.7498 4.76562e-06 -0.414874 -3.91062e-13 8.78204e-14 
18.2928 74.5285 0.00114163 -0.212068 5.93782e-13 4.04997e-13 16.6465 75.1351 0.000244825 
-0.387939 -2.49613e-13 -1.62261e-13 17.208 74.9231 0.00129751 -0.20054 3.30722e-13 3.58879e-13 
15.561 75.4911 0.000466483 -0.353606 1.15949e-14 4.22999e-14 16.1225 75.292 0.00145148 
-0.185202 -7.4038e-14 -7.11664e-14 14.49 75.811 0.000666573 -0.312336 2.32245e-14 7.14413e-14 
15.0465 75.6282 0.00160179 -0.166272 2.33688e-13 7.24166e-14 13.4424 76.0885 0.000843556 
-0.264596 2.57849e-14 -1.2459e-13 13.9895 75.9252 0.00174992 -0.143978 -2.53027e-13 2.80101e-13 
12.4259 76.3177 0.000996921 -0.210811 2.44971e-13 -1.49446e-13 12.9597 76.1766 0.00189901 
-0.118539 -9.79355e-14 4.72188e-14 11.4471 76.493 0.00112728 -0.15131 -4.75731e-14 1.78661e-13 
11.9643 76.3768 0.00205398 -0.0901362 -4.35971e-13 1.90317e-13 10.5113 76.6091 0.00123639 
-0.0862641 -1.3467e-13 2.24599e-13 11.0094 76.5202 0.00222184 -0.0588897 3.93297e-14 3.53247e-13 
9.62291 76.6611 0.0013271 -0.0156186 -4.5125e-13 4.37529e-13 10.0999 76.6016 0.00241195 
-0.0248198 -3.36599e-13 4.3176e-13 8.78512 76.6435 0.00140322 0.0609814 -2.14356e-13 3.57162e-14 
9.23983 76.6155 0.00263643 0.0121861 5.23553e-13 4.02369e-13 8.0003 76.5507 0.00146943 
0.144274 -2.60174e-13 2.37438e-13 8.43216 76.5563 0.00291071 0.0524148 -6.34624e-13 2.86005e-13 
7.27003 76.3761 0.00153112 0.235481 9.12673e-14 7.17724e-14 7.67914 76.4173 0.00325444 
0.0963744 1.36113e-13 3.25616e-13 6.59527 76.1116 0.00159438 0.336433 -4.7657e-13 -1.79508e-13 
6.98236 76.1911 0.00369285 0.144854 1.31041e-13 2.87517e-13 5.9765 75.7475 0.00166583 
0.449738 1.5362e-13 5.99419e-13 6.34298 75.8681 0.00425879 0.198998 1.86753e-13 3.10476e-13 
5.41384 75.271 0.00175266 0.579011 1.67463e-13 -2.75563e-13 5.76188 75.4364 0.00499593 
0.260417 4.91385e-13 1.00299e-13 4.90718 74.6657 0.00186246 0.729211 5.58609e-13 2.82841e-13 
5.23986 74.8806 0.0059634 0.331329 2.44277e-13 -2.00417e-14 4.45618 73.9102 0.00200284 
0.907111 4.86167e-13 -3.29485e-14 4.77779 74.1803 0.00724304 0.414784 2.59515e-14 2.42015e-13 
4.06018 72.9759 0.00218043 1.12202 -4.37081e-13 -1.61326e-13 4.37673 73.3087 0.00895034 
0.514979 2.54519e-14 1.38417e-13 3.71792 71.825 0.00239868 1.38683 3.17357e-13 -1.01308e-14 
4.03799 72.2299 0.0112519 0.63774 1.96163e-13 2.17443e-13 3.42674 70.4064 0.00265038 
1.71964 4.24327e-13 5.5414e-14 3.76292 70.8954 0.0143924 0.791255 1.63147e-13 3.33884e-13 
3.18106 68.6512 0.00291044 2.14622 -5.12604e-13 3.86219e-14 3.55245 69.2388 0.0187397 
0.987214 6.94722e-14 2.24152e-13 2.96909 66.4649 0.00307143 2.7038 -7.99194e-13 -1.11175e-13 
3.40568 67.1686 0.0248565 1.24258 -3.68594e-14 3.3753e-13 2.76627 63.7173 0.00298869 
3.44698 -3.76477e-13 3.76088e-14 3.31662 64.5567 0.0336058 1.58244 -7.33302e-14 2.72816e-13 
2.52055 60.227 0.00187666 4.45623 -1.34226e-13 7.14151e-14 3.26693 61.2207 0.0465382 
2.04426 9.20652e-14 3.10932e-13 2.12259 55.739 -0.00147452 5.8507 3.77476e-15 -2.59098e-14 
3.20554 56.898 0.0647306 2.68539 4.47864e-13 -2.21628e-14 3.01988 51.2227 0.101332 
3.58741 -7.87703e-14 -4.46032e-14 20.9265 73.4747 0.00414837 -8.06288e-12 3.21035e-13 -1.56494e-14 
21.4308 73.2642 0.0123916 0.221912 9.97813e-14 -2.25135e-13 19.8916 73.8976 -0.000228633 
-7.04901e-12 -1.0357e-13 -1.69935e-13 20.4153 73.6925 0.00152628 0.222924 1.26316e-13 -2.88586e-13 
18.8291 74.317 -0.000239574 -6.19653e-12 -3.00641e-13 -2.91096e-13 19.3658 74.1158 0.00101971 
0.219587 -9.26342e-15 -1.70996e-13 17.7489 74.7222 9.02767e-07 -7.6277e-12 -1.06026e-13 1.47174e-13 
18.2928 74.5285 0.00114163 0.212068 6.78693e-14 -3.64245e-13 16.6626 75.1054 0.00024066 
-5.3016e-12 3.08795e-13 1.47738e-13 17.208 74.9231 0.00129751 0.20054 1.26149e-13 -2.01131e-13 
15.5808 75.4593 0.000462339 -2.75414e-12 5.64521e-13 -1.66238e-13 16.1225 75.292 0.00145148 
0.185202 4.40661e-13 9.97856e-15 14.5133 75.7771 0.000662967 1.53929e-13 -6.77645e-13 2.51489e-13 
15.0465 75.6282 0.00160179 0.166272 -7.10335e-13 -4.31177e-14 13.469 76.0523 0.000841154 
-2.39701e-12 -1.75811e-13 -8.46066e-15 13.9895 75.9252 0.00174992 0.143978 1.10398e-14 -6.84547e-14 
12.4556 76.2789 0.000996505 -4.91903e-13 -9.13852e-15 3.45826e-13 12.9597 76.1766 0.00189901 
0.118539 3.03438e-14 1.27536e-13 11.4798 76.4513 0.00112973 2.45868e-12 2.25965e-13 -2.17174e-13 
11.9643 76.3768 0.00205398 0.0901362 5.21347e-13 -5.68705e-14 10.5469 76.5641 0.0012427 
3.81306e-12 1.32706e-13 -4.13262e-14 11.0094 76.5202 0.00222184 0.0588897 -3.57873e-13 -5.44311e-13 
9.66154 76.6119 0.00133839 3.8904e-12 -1.42872e-13 -1.77702e-13 10.0999 76.6016 0.00241195 
0.0248198 -1.4691e-13 -5.76424e-13 8.82706 76.5891 0.00142087 7.00817e-12 3.91145e-13 -7.08473e-14 
9.23983 76.6155 0.00263643 -0.0121861 -2.24244e-13 -1.44692e-13 8.04607 76.4896 0.00149515 
6.2207e-12 3.03924e-14 -2.00867e-13 8.43216 76.5563 0.00291071 -0.0524148 1.84443e-13 -1.18513e-13 
7.32044 76.3064 0.00156723 6.5558e-12 -2.64677e-13 6.96991e-14 7.67914 76.4173 0.00325444 
-0.0963744 -3.28119e-13 -1.66214e-13 6.65148 76.0309 0.00164404 6.80623e-12 -8.58688e-14 -5.5823e-14 
6.98236 76.1911 0.00369285 -0.144854 3.40422e-14 -8.14496e-14 6.04014 75.6523 0.00173354 
9.45346e-12 3.52766e-13 -3.36961e-13 6.34298 75.8681 0.00425879 -0.198998 5.4886e-13 -2.80853e-13 
5.48717 75.1568 0.00184496 1.01555e-11 -1.22e-13 1.26955e-15 5.76188 75.4364 0.00499593 
-0.260417 1.35017e-13 -5.53355e-14 4.99328 74.5264 0.00198898 1.45553e-11 5.06539e-13 2.2971e-15 
5.23986 74.8806 0.0059634 -0.331329 -5.00683e-13 2.72573e-13 4.55927 73.7374 0.00217806 
1.8252e-11 1.41581e-13 -7.19565e-14 4.77779 74.1803 0.00724304 -0.414784 1.12466e-13 -1.20056e-14 
4.18612 72.7581 0.00242638 2.28043e-11 5.94441e-13 -7.58966e-15 4.37673 73.3087 0.00895034 
-0.514979 -3.66485e-13 -5.43315e-14 3.87487 71.5455 0.00274945 2.64686e-11 5.45397e-14 1.86603e-13 
4.03799 72.2299 0.0112519 -0.63774 4.5669e-13 -6.65622e-14 3.62627 70.0416 0.00315915 
3.49059e-11 -2.9364e-13 1.1243e-13 3.76292 70.8954 0.0143924 -0.791255 -3.96072e-14 7.36789e-14 
3.43982 68.1659 0.00366209 4.21357e-11 -1.49603e-13 1.35817e-13 3.55245 69.2388 0.0187397 
-0.987214 2.17729e-13 3.33067e-14 3.31139 65.8058 0.00419399 5.37662e-11 -1.15519e-13 2.30682e-13 
3.40568 67.1686 0.0248565 -1.24258 -7.55701e-13 -8.34922e-15 3.2281 62.8013 0.00471211 
7.27161e-11 -3.31957e-14 -1.03589e-13 3.31662 64.5567 0.0336058 -1.58244 2.92766e-13 -8.5057e-14 
3.15502 58.9205 0.00429906 8.92816e-11 -3.85469e-13 1.32538e-13 3.26693 61.2207 0.0465382 
-2.04426 5.30131e-14 -1.99743e-13 3.00821 53.8228 0.00311026 1.2038e-10 -1.33671e-13 -3.23302e-13 
3.20554 56.898 0.0647306 -2.68539 3.39173e-14 -6.91877e-14 3.01988 51.2227 0.101332 
-3.58741 -3.90132e-13 -7.71744e-14 20.9275 73.496 0.00417667 0.44729 9.31373e-13 -9.99643e-14 
21.4376 73.3047 0.0125043 0.667919 7.07944e-13 -2.36261e-14 19.8881 73.921 -0.000223904 
0.444902 -2.3153e-13 2.83898e-13 20.4128 73.7372 0.0015278 0.670943 4.52173e-13 1.06574e-13 
18.8212 74.3425 -0.000236022 0.433986 2.46428e-13 3.47118e-13 19.3544 74.1646 0.00101368 
0.660934 -3.3043e-14 1.32842e-13 17.7369 74.7498 4.76562e-06 0.414874 -2.5635e-13 -3.39685e-13 
18.2728 74.5815 0.00113397 0.63838 -4.53096e-13 1.7352e-14 16.6465 75.1351 0.000244825 
0.387939 3.37508e-13 -1.49019e-14 17.1798 74.9802 0.00128777 0.60381 -2.90962e-13 9.42059e-14 
15.561 75.4911 0.000466483 0.353606 2.88422e-13 7.20851e-14 16.0865 75.3533 0.00143846 
0.557827 2.14884e-13 1.45305e-13 14.49 75.811 0.000666573 0.312336 2.2677e-13 -2.87987e-13 
15.0032 75.6937 0.00158389 0.501107 4.61672e-13 2.3914e-14 13.4424 76.0885 0.000843556 
0.264596 -2.84481e-13 -1.60378e-13 13.9394 75.9951 0.00172518 0.434361 -2.89588e-13 -3.5341e-13 
12.4259 76.3177 0.000996921 0.210811 5.50553e-13 -2.27269e-13 12.9032 76.2513 0.00186513 
0.358278 4.72067e-13 -4.13088e-13 11.4471 76.493 0.00112728 0.15131 4.28289e-13 1.90441e-13 
11.9018 76.4569 0.00200824 0.273446 -1.34739e-13 -1.35052e-13 10.5113 76.6091 0.00123639 
0.0862641 -3.35502e-13 -3.89626e-13 10.941 76.6065 0.002161 0.180266 4.7054e-13 1.7925e-13 
9.62291 76.6611 0.0013271 0.0156186 -1.97592e-13 -7.54345e-15 10.0256 76.6954 0.00233198 
0.0788565 -2.67147e-14 6.86285e-14 8.78512 76.6435 0.00140322 -0.0609814 1.6262e-13 -1.78659e-14 
9.15921 76.7185 0.00253214 -0.0310536 5.04839e-13 -9.92008e-14 8.0003 76.5507 0.00146943 
-0.144274 -4.67237e-13 -6.14266e-14 8.34444 76.6709 0.0027752 -0.150238 -2.43278e-14 -1.49878e-13 
7.27003 76.3761 0.00153112 -0.235481 -2.99344e-13 2.81541e-14 7.583 76.5469 0.00307823 
-0.280107 -2.571e-13 5.97673e-14 6.59527 76.1116 0.00159438 -0.336433 2.35978e-13 9.60568e-14 
6.87584 76.34 0.00346268 -0.422867 7.83054e-14 1.02615e-13 5.9765 75.7475 0.00166583 
-0.449738 -1.6874e-13 -1.24635e-13 6.22329 76.0421 0.00395576 -0.581733 1.74291e-13 6.06789e-14 
5.41384 75.271 0.00175266 -0.579011 3.80591e-13 1.29535e-13 5.62515 75.6432 0.00459263 
-0.761208 -2.39878e-13 -4.05266e-14 4.90718 74.6657 0.00186246 -0.729211 2.96763e-13 1.78693e-13 
5.08078 75.1305 0.00541952 -0.96748 2.60958e-13 -1.89381e-13 4.45618 73.9102 0.00200284 
-0.907111 2.14176e-13 9.5951e-14 4.58908 74.4875 0.00649827 -1.20899 3.38757e-13 -1.90715e-14 
4.06018 72.9759 0.00218043 -1.12202 1.43108e-13 -6.33243e-14 4.14837 73.6926 0.00791284 
-1.49725 8.89566e-15 4.8659e-14 3.71792 71.825 0.00239868 -1.38683 2.05877e-13 -2.45068e-13 
3.75604 72.7175 0.00977899 -1.84807 -2.32259e-13 -1.84991e-13 3.42674 70.4064 0.00265038 
-1.71964 5.45952e-14 -2.19755e-14 3.40776 71.5253 0.0122576 -2.28335 -6.91114e-14 -1.38164e-13 
3.18106 68.6512 0.00291044 -2.14622 -2.37588e-14 -6.87228e-14 3.09601 70.0673 0.0155748 
-2.83384 -6.26194e-13 1.15394e-14 2.96909 66.4649 0.00307143 -2.7038 -3.89466e-13 -6.43097e-14 
2.80719 68.2795 0.0200494 -3.54321 -6.33715e-13 -1.63258e-13 2.76627 63.7173 0.00298869 
-3.44698 2.67286e-13 1.7647e-13 2.51593 66.0779 0.0261028 -4.47427 5.77927e-13 -6.8584e-14 
2.52055 60.227 0.00187666 -4.45623 -1.9959e-13 -2.81636e-13 2.1745 63.353 0.0345096 
-5.71758 1.10773e-13 7.84095e-15 2.12259 55.739 -0.00147452 -5.8507 -5.57387e-13 1.29841e-13 
1.68836 59.9638 0.0448075 -7.40521 -5.28466e-14 -7.66609e-14 0.886527 55.7638 0.066311 
-9.71231 1.11966e-13 -3.86913e-14 20.9307 73.5599 0.00426099 0.898921 1.22777e-13 -6.3189e-14 
21.4511 73.3854 0.0127295 1.12046 -1.03216e-13 -3.57405e-13 19.8776 73.991 -0.000209839 
0.894136 2.12788e-13 -1.04438e-13 20.4077 73.8262 0.00153179 1.12546 1.31936e-13 -2.34548e-13 
18.7975 74.4187 -0.000225241 0.872306 -1.36044e-13 -1.5454e-13 19.3315 74.2618 0.0010029 
1.10877 -1.87905e-14 -2.92617e-13 17.7006 74.8322 1.66999e-05 0.83409 1.25386e-13 2.25822e-13 
18.2327 74.6869 0.00112021 1.07118 1.54043e-13 -3.31538e-13 16.5983 75.2237 0.000257864 
0.780247 -3.08656e-13 2.29757e-13 17.1233 75.0938 0.00127014 1.01358 -5.46764e-13 -9.40363e-14 
15.5015 75.586 0.000479636 0.711661 2.45935e-13 1.47106e-13 16.0145 75.4751 0.00141457 
0.937017 3.12389e-13 -4.36556e-14 14.42 75.9123 0.00067827 0.629301 5.68559e-13 -2.34144e-14 
14.9168 75.8239 0.00155054 0.842681 1.75818e-13 -8.18521e-14 13.3627 76.1965 0.000851798 
0.534162 -5.4301e-13 3.011e-14 13.8395 76.1338 0.00167856 0.731848 -6.65856e-14 2.30663e-13 
12.3371 76.4331 0.00099939 0.427165 6.71824e-14 6.91105e-14 12.7909 76.3992 0.00180077 
0.605778 -3.22853e-13 3.85976e-16 11.3496 76.6167 0.0011214 0.309053 -4.1106e-13 -1.42397e-13 
11.7777 76.615 0.00192101 0.465579 1.633e-13 -1.1838e-13 10.4053 76.7428 0.00121931 
0.180267 3.83533e-13 5.84015e-13 10.8056 76.7764 0.00204479 0.31207 -1.33088e-13 -4.90918e-14 
9.50816 76.8068 0.00129559 0.0408132 1.69184e-13 -2.21798e-13 9.87896 76.8794 0.00217934 
0.145623 2.66273e-13 3.96601e-14 8.66082 76.8044 0.00135346 -0.109872 6.08125e-14 2.01299e-13 
9.00066 76.9201 0.00233355 -0.0339992 -9.37653e-14 -7.39903e-15 7.86503 76.7308 0.00139662 
-0.273074 -1.39791e-13 1.17365e-13 8.17258 76.8945 0.00251807 -0.227814 5.317e-13 3.69453e-14 
7.12155 76.5808 0.00142898 -0.450982 2.56219e-13 -9.48018e-14 7.3955 76.7988 0.00274547 
-0.437812 -1.8166e-14 -1.6467e-13 6.43031 76.3483 0.00145431 -0.6469 2.9643e-13 2.00456e-13 
6.66916 76.6282 0.0030305 -0.667179 -2.21649e-13 -2.63672e-13 5.79047 76.0257 0.00147576 
-0.86554 1.13187e-13 1.72657e-13 5.99239 76.3774 0.00339056 -0.92058 6.16986e-13 9.72226e-14 
5.20046 75.6037 0.00149526 -1.1134 -3.19952e-13 1.49221e-14 5.36308 76.04 0.00384622 
-1.20453 4.45685e-13 1.80668e-13 4.6579 75.0702 0.00151248 -1.39932 -4.27131e-13 -1.02826e-13 
4.77807 75.6078 0.00442185 -1.52791 7.08322e-14 2.44769e-14 4.15937 74.4099 0.001523 
-1.73524 7.15261e-14 1.21517e-14 4.23292 75.0708 0.00514607 -1.90264 1.71432e-13 -1.89369e-13 
3.69997 73.6032 0.00151505 -2.13731 5.04943e-13 5.39777e-14 3.72139 74.4166 0.00605155 
-2.34471 9.85323e-15 -9.41296e-14 3.27242 72.6252 0.00146367 -2.62749 -3.3816e-13 -3.93088e-15 
3.23452 73.6303 0.00717331 -2.87551 -1.72376e-13 4.62477e-14 2.86544 71.4443 0.00131853 
-3.2359 4.32987e-13 1.47465e-13 2.75911 72.6941 0.00854322 -3.52386 -2.59098e-13 1.23443e-14 
2.46095 70.0212 0.000986343 -4.00417 -7.15511e-13 7.63209e-14 2.27496 71.5882 0.0101761 
-4.32866 4.65461e-14 1.95677e-14 2.02899 68.3077 0.000278247 -4.9903 -2.6415e-13 -4.87527e-14 
1.75036 70.2919 0.0120426 -5.34256 -8.94562e-14 -8.13238e-15 1.51871 66.2472 -0.00114558 
-6.27529 7.17371e-13 2.32592e-14 1.13429 68.7883 0.0139682 -6.63672 -7.7055e-13 -2.83384e-14 
0.84218 63.7799 -0.00368716 -7.97105 1.5471e-13 2.16521e-13 0.343767 67.0741 0.0157136 
-8.30503 -2.11997e-13 9.63951e-14 -0.156883 60.8484 -0.011157 -10.2286 -4.07674e-13 1.20876e-13 
-0.759362 65.1735 0.0151912 -10.4683 -1.78468e-14 9.18987e-14 -2.38786 63.2132 0.0164007 
-13.255 2.80304e-13 5.28466e-14 20.936 73.6659 0.00439964 1.3592 -1.05811e-13 4.08458e-14 
21.4713 73.5058 0.0130667 1.58383 -4.06654e-13 9.98576e-14 19.8601 74.1072 -0.000186801 
1.35199 -9.42316e-13 -1.18307e-13 20.4002 73.9589 0.00154015 1.59073 -2.11671e-13 1.26689e-13 
18.7581 74.5451 -0.000206852 1.31923 8.07757e-13 -1.90411e-13 19.2971 74.4068 0.000989941 
1.56732 -4.19109e-14 -2.64302e-14 17.6402 74.9687 3.7749e-05 1.26188 -1.46508e-13 -6.5721e-13 
18.1726 74.844 0.00110348 1.51465 2.25632e-13 1.17972e-13 16.518 75.3703 0.000281411 
1.18113 -4.6177e-13 -3.45961e-13 17.0386 75.2629 0.00124827 1.43397 -9.09738e-13 -2.49291e-13 
15.4026 75.7428 0.00050394 1.07839 1.60288e-15 -3.81722e-13 15.9067 75.6561 0.00138394 
1.32683 4.43139e-13 -2.45511e-13 14.3039 76.0794 0.00070065 0.95522 -3.80342e-13 -7.34222e-15 
14.7876 76.0168 0.00150644 1.19505 -1.63133e-13 6.659e-14 13.2306 76.3743 0.000868909 
0.813271 -1.88266e-13 -1.33201e-13 13.6905 76.339 0.00161544 1.0406 1.237e-13 2.94244e-14 
12.1903 76.6224 0.00100744 0.654102 1.69365e-13 -3.04821e-13 12.6238 76.6172 0.00171235 
0.865471 3.0851e-13 2.46183e-14 11.189 76.8191 0.00111629 0.47903 -4.57384e-13 7.20409e-14 
11.5938 76.847 0.00180017 0.671481 -6.8151e-13 3.12562e-14 10.2314 76.9606 0.00119665 
0.288948 1.96128e-13 -4.89645e-13 10.6059 77.0247 0.00188334 0.460074 1.5983e-13 -6.02448e-14 
9.32058 77.0433 0.00125054 0.0841429 -6.33521e-13 1.05731e-13 9.66364 77.1471 0.00196745 
0.232116 -1.99701e-13 -1.20477e-14 8.45864 77.0642 0.00128046 -0.135889 1.64549e-13 -3.75708e-13 
8.76918 77.2117 0.00205891 -0.0123117 4.17236e-13 -1.5206e-13 7.64623 77.0203 0.00128893 
-0.372641 -5.52489e-13 -1.76621e-13 7.92334 77.2162 0.00216465 -0.274112 2.16938e-13 -8.23317e-14 
6.8829 76.9083 0.00127794 -0.628806 4.61998e-13 -4.56354e-14 7.1256 77.1589 0.00229172 
-0.555392 5.02855e-13 -1.18239e-14 6.16704 76.725 0.00124835 -0.908535 2.15696e-13 -2.67696e-13 
6.37417 77.0376 0.00244687 -0.859689 2.28068e-13 -1.13926e-13 5.49595 76.4661 0.00119898 
-1.21775 -1.70759e-13 -1.74603e-13 5.66598 76.8506 0.00263591 -1.19226 1.81549e-13 -3.1599e-13 
4.86566 76.127 0.00112541 -1.56459 2.85279e-13 -7.5967e-14 4.99657 76.5957 0.00286262 
-1.56041 -4.24882e-13 -3.01717e-13 4.27071 75.7019 0.00101808 -1.9599 4.09769e-13 -2.01814e-13 
4.35982 76.2707 0.00312692 -1.97395 4.21545e-13 -2.26161e-13 3.70362 75.1842 0.000859249 
-2.41809 3.31984e-13 -1.94417e-13 3.74751 75.8735 0.00342145 -2.44579 -3.46202e-13 -2.46574e-13 
3.15408 74.5664 0.000618065 -2.9581 -5.15865e-13 2.80644e-14 3.14847 75.4026 0.00372558 
-2.99267 -4.55178e-13 -1.2149e-13 2.60748 73.841 0.000242549 -3.60481 -2.73115e-13 7.86107e-14 
2.54733 74.8581 0.00399441 -3.63613 4.6603e-13 1.62072e-13 2.04262 73.0014 -0.00035356 
-4.39083 -7.92422e-14 -1.08018e-13 1.92239 74.2435 0.00413945 -4.40362 1.18433e-13 1.26191e-13 
1.42802 72.0452 -0.00131185 -5.3588 -2.12913e-13 1.5523e-13 1.24252 73.5691 0.00399218 
-5.32975 6.7446e-14 1.79801e-13 0.71604 70.9791 -0.00284797 -6.56372 -2.91461e-13 -6.5184e-14 
0.462301 72.8575 0.00324814 -6.45706 4.24341e-13 1.55861e-13 -0.166226 69.829 -0.00538031 
-8.07479 -2.27568e-13 -9.04277e-14 -0.485054 72.1535 0.00132153 -7.83562 1.99007e-13 -1.09676e-13 
-1.32945 68.661 -0.00876441 -9.97332 4.2466e-15 -2.58488e-13 -1.69701 71.5418 -0.00267184 
-9.51807 -4.81282e-13 -2.37588e-13 -2.9436 67.6048 -0.0180194 -12.3426 1.23818e-13 -8.04357e-14 
-3.31311 71.1691 -0.0112207 -11.5472 -8.36553e-14 -1.2218e-13 -5.51013 71.3198 -0.0243862 
-13.9158 -1.74555e-13 -5.16254e-14 20.9432 73.8132 0.00458995 1.83237 -4.42348e-13 1.05273e-13 
21.498 73.665 0.0135156 2.06225 3.82305e-13 3.5744e-13 19.8355 74.2687 -0.000155387 
1.82267 -4.62942e-13 2.52265e-13 20.39 74.1346 0.00155578 2.07096 -3.96072e-14 1.83454e-13 
18.7028 74.7207 -0.000180202 1.77888 7.72452e-13 -3.93973e-14 19.2512 74.5986 0.000978636 
2.0407 5.86059e-14 8.71733e-14 17.5555 75.1584 6.96774e-05 1.70227 3.60552e-13 6.77748e-13 
18.0922 75.0517 0.0010884 1.97275 -4.77965e-13 2.40145e-13 16.4056 75.5737 0.000318197 
1.59449 -7.01474e-13 3.51759e-14 16.9256 75.4862 0.00122747 1.86876 2.78881e-13 4.07846e-13 
15.2644 75.9597 0.00054293 1.45757 -4.57023e-13 5.91346e-13 15.7631 75.8946 0.00135254 
1.73086 -8.23251e-13 2.87621e-13 14.142 76.3098 0.000737915 1.29383 1.30111e-13 5.92694e-14 
14.6158 76.2702 0.00145821 1.56163 3.10758e-13 1.58467e-13 13.0471 76.6186 0.000899699 
1.10573 1.05443e-13 4.38916e-13 13.4932 76.6073 0.00154327 1.36394 -4.81108e-13 3.54161e-14 
11.9872 76.8815 0.00102656 0.895691 -5.12784e-15 2.34745e-13 12.4033 76.901 0.00160847 
1.14073 -1.55889e-13 6.42975e-14 10.9678 77.0947 0.00111836 0.665821 4.09811e-14 -1.25374e-13 
11.3525 77.1476 0.00165615 0.894768 2.74621e-13 2.65165e-13 9.99298 77.2554 0.00117614 
0.417721 -5.4691e-13 1.99007e-13 10.3453 77.3442 0.00168986 0.628393 -2.11865e-13 3.45989e-13 
9.06522 77.3616 0.00120173 0.152245 6.18533e-14 1.31501e-13 9.3846 77.4892 0.00171371 
0.343257 -2.00014e-13 1.90569e-13 8.18541 77.4116 0.00119712 -0.130709 -3.47389e-13 -1.56125e-15 
8.47159 77.5815 0.00173175 0.0401003 -2.66544e-13 1.58474e-13 7.35301 77.4046 0.00116384 
-0.432402 8.19553e-14 1.31081e-13 7.60583 77.6211 0.00174727 -0.28146 -2.33015e-13 1.26263e-13 
6.56607 77.3399 0.00110224 -0.755469 -8.89289e-14 -1.71802e-13 6.78535 77.6082 0.00176196 
-0.623127 -1.29667e-13 -4.05578e-14 5.82126 77.2174 0.00101068 -1.10414 -1.72501e-14 -3.07428e-14 
6.00666 77.544 0.00177492 -0.98811 -1.64875e-13 -4.07192e-14 5.11374 77.0369 0.000884339 
-1.48449 1.30458e-13 -1.28149e-13 5.26472 77.4301 0.00178119 -1.38132 4.63712e-13 2.15782e-14 
4.437 76.799 0.000713797 -1.90479 6.52534e-14 3.39017e-14 4.55274 77.2692 0.00176955 
-1.80961 -3.4793e-13 1.20733e-13 3.78247 76.5048 0.000482815 -2.37583 7.54674e-14 -7.64597e-14 
3.86188 77.065 0.0017191 -2.28196 2.3806e-13 1.0095e-13 3.13879 76.157 0.000165183 
-2.91148 1.50782e-13 6.57113e-14 3.18065 76.8232 0.00159372 -2.8098 -3.15539e-13 2.38636e-13 
2.49082 75.7606 -0.000279865 -3.52913 1.85407e-13 -7.3188e-14 2.49405 76.5523 0.00133324 
-3.40721 -1.49734e-13 9.4931e-14 1.81804 75.325 -0.000914128 -4.25032 -6.37046e-13 1.01544e-13 
1.78223 76.266 0.000838991 -4.09105 -3.77018e-13 1.36696e-14 1.09216 74.8672 -0.0018279 
-5.10109 7.23172e-14 -5.33462e-14 1.01862 75.9855 -4.84943e-05 -4.88076 2.32245e-13 -8.88178e-14 
0.273793 74.4166 -0.00315178 -6.11176 2.30732e-13 6.93889e-15 0.167395 75.744 -0.00158739 
-5.79741 -5.81479e-15 -1.06457e-13 -0.691983 74.0242 -0.00502873 -7.31518 -6.63219e-14 1.77247e-13 
-0.819728 75.5942 -0.00418233 -6.86111 -3.22645e-13 -1.01169e-14 -1.88108 73.7749 -0.00774181 
-8.74161 1.37251e-14 3.03646e-14 -2.00675 75.6176 -0.00849193 -8.08521 6.16174e-14 6.68909e-14 
-3.39336 73.8106 -0.0106317 -10.4057 -4.59799e-13 8.84293e-14 -3.47477 75.9403 -0.0154356 
-9.46405 4.47142e-13 3.0384e-13 -5.35417 74.3513 -0.0176782 -12.2803 -1.54571e-13 1.45106e-13 
-5.31615 76.7475 -0.0266486 -10.9501 -3.40485e-13 2.35006e-13 -7.6049 78.3247 -0.0439977 
-12.4121 6.44554e-14 1.73528e-13 20.9524 74.0012 0.00482841 2.32262 3.82167e-13 2.25202e-14 
21.531 73.8624 0.014077 2.55987 -7.92789e-13 -5.17858e-13 19.8038 74.4746 -0.000116397 
2.31028 1.01148e-13 -1.2503e-13 20.377 74.3523 0.00158258 2.57023 7.00863e-13 -4.06062e-13 
18.6315 74.9446 -0.000144308 2.25522 -3.46737e-13 6.42455e-14 19.1935 74.8363 0.000974108 
2.53288 -1.13819e-13 -1.57188e-13 17.4464 75.3998 0.000115049 2.15899 2.28387e-13 -1.91853e-13 
17.9914 75.3089 0.00108109 2.44922 1.99001e-13 -2.60065e-13 16.2609 75.8321 0.000372113 
2.02377 7.90479e-14 1.28493e-13 16.7838 75.7621 0.00121465 2.32134 -3.51864e-13 -4.39681e-13 
15.0868 76.2345 0.000601526 1.85235 -4.08854e-13 -5.15127e-13 15.5834 76.1885 0.00132788 
2.15208 5.70821e-13 -1.55429e-13 13.9346 76.6006 0.000795751 1.648 -5.83353e-14 2.88684e-14 
14.4015 76.5813 0.00141389 1.945 -4.93057e-13 -9.2963e-14 12.8132 76.9254 0.000950466 
1.41425 2.54463e-13 -5.09702e-13 13.248 76.935 0.00147075 1.70408 4.18797e-13 -8.66876e-14 
11.7295 77.2049 0.00106369 1.15462 -2.91059e-13 -2.13656e-13 12.1308 77.2454 0.00149887 
1.43352 4.30815e-13 7.21818e-14 10.6889 77.4364 0.00113538 0.872306 -1.96509e-14 3.08935e-13 
11.0561 77.5097 0.00150047 1.13732 -5.09807e-13 1.44666e-13 9.6947 77.6183 0.00116694 
0.569894 -2.57031e-13 2.76684e-14 10.0277 77.7261 0.00147871 0.819017 -5.14033e-14 -1.07605e-13 
8.74835 77.7499 0.00116044 0.249132 1.37959e-13 -3.79271e-14 9.04754 77.8945 0.00143681 
0.481357 2.75266e-13 -1.5465e-13 7.84962 77.8318 0.00111793 -0.0893099 8.90954e-15 1.87999e-13 
8.11576 78.0155 0.00137709 0.126083 2.05003e-13 -1.0247e-13 6.99659 77.8652 0.00104061 
-0.446021 -1.31312e-13 -1.16972e-14 7.23057 78.0912 0.00129996 -0.246275 -1.9286e-13 -1.86453e-13 
6.18576 77.8521 0.000928069 -0.823006 5.10605e-13 3.71263e-13 6.3885 78.1243 0.00120288 
-0.636537 -2.24813e-13 -1.15502e-13 5.41202 77.7955 0.000777355 -1.22382 2.27283e-13 -2.07447e-13 
5.58443 78.1189 0.00107899 -1.04697 6.30024e-13 1.75884e-14 4.66856 77.6995 0.000581961 
-1.65371 -2.16181e-13 4.13754e-13 4.81151 78.0801 0.000915352 -1.48137 -9.25329e-13 1.55764e-13 
3.94668 77.5696 0.000330515 -2.1197 1.09933e-13 -1.00718e-13 4.06108 78.0147 0.000690433 
-1.94504 2.54741e-13 -6.93889e-16 3.23529 77.4133 5.13687e-06 -2.6307 -1.79724e-13 2.87301e-13 
3.32227 77.9317 0.000370325 -2.4448 -4.67126e-14 1.02997e-13 2.52036 77.2412 -0.000420581 
-3.19752 -2.26694e-14 9.21069e-14 2.58157 77.8428 -9.68007e-05 -2.98876 3.63917e-13 6.96526e-14 
1.7839 77.0687 -0.000983724 -3.83269 -1.23332e-13 -5.40956e-14 1.82215 77.7646 -0.000788817 
-3.58605 -3.67817e-13 8.33708e-15 1.00275 76.9181 -0.00173376 -4.54994 2.21365e-13 -2.71866e-14 
1.02284 77.7197 -0.00182151 -4.24597 1.42469e-13 -7.88397e-14 0.146918 76.8226 -0.00273 
-5.36297 -1.83797e-13 2.81858e-14 0.157147 77.7403 -0.00336441 -4.97656 -1.71078e-13 5.2007e-14 
-0.822159 76.8316 -0.00403667 -6.28279 -2.98497e-13 -2.2865e-13 -0.807847 77.8717 -0.00566325 
-5.7819 -2.10429e-13 -3.45418e-14 -1.95293 77.018 -0.00566057 -7.31244 -8.09075e-15 -1.70614e-13 
-1.91183 78.1779 -0.00905914 -6.65715 6.16868e-14 -4.02456e-14 -3.30308 77.4885 -0.00761951 
-8.43728 1.1674e-13 -2.08639e-13 -3.19953 78.7479 -0.0140125 -7.58015 5.41324e-13 -1.21236e-13 
-4.93167 78.3971 -0.00896413 -9.60721 -2.826e-13 1.2057e-13 -4.71374 79.7029 -0.021094 
-8.49741 2.16563e-14 -3.09031e-13 -6.88123 79.9503 -0.0116049 -10.7081 3.68641e-13 -2.06613e-13 
-6.4761 81.1974 -0.0307135 -9.30244 4.19783e-13 -2.1011e-13 -8.44631 83.4208 -0.0448303 
-9.80898 -9.33559e-14 -1.68893e-13 20.9633 74.2289 0.00511092 2.83403 -7.42462e-16 -4.50943e-13 
21.5704 74.0974 0.0147528 3.08078 5.14446e-13 4.03226e-13 19.7645 74.7243 -7.08055e-05 
2.81882 5.11292e-13 -2.42507e-13 20.3611 74.6115 0.00162573 3.09259 -3.13242e-13 4.74586e-14 
18.5436 75.2158 -9.77779e-05 2.75201 -6.30052e-15 2.67675e-13 19.1235 75.1191 0.000982988 
3.04766 -3.67498e-13 8.86756e-14 17.3121 75.6918 0.00017734 2.63541 2.06619e-13 -6.91808e-14 
17.8692 75.6145 0.00108935 2.94747 -1.23498e-13 2.57358e-13 16.0832 76.1439 0.000448295 
2.47184 6.89067e-13 -1.20589e-13 16.6124 76.0894 0.00121841 2.79457 -9.74984e-14 2.19852e-13 
14.8695 76.5647 0.000686025 2.26505 -7.75213e-14 2.99621e-13 15.3666 76.5358 0.00131896 
2.59272 -2.64191e-13 1.83218e-13 13.6819 76.9483 0.000881153 2.01953 5.04034e-13 3.98171e-14 
14.1441 76.947 0.00138262 2.34668 1.83811e-13 -1.77133e-14 12.5294 77.2899 0.0010286 
1.74017 -4.83995e-13 3.60266e-13 12.955 77.3179 0.00140715 2.0619 2.00326e-13 1.61677e-13 
11.4191 77.5863 0.00112652 1.43189 -3.22763e-13 4.49425e-13 11.8074 77.6448 0.00139338 
1.74415 -5.17447e-13 2.36184e-13 10.3555 77.836 0.00117561 1.09929 6.66647e-13 -1.51087e-13 
10.707 77.9258 0.00134419 1.399 2.26867e-13 1.70185e-14 9.3413 78.0385 0.00117825 
0.746262 5.78954e-13 -4.71212e-14 9.65698 78.1606 0.0012633 1.0315 4.01887e-13 -1.12153e-13 
8.37682 78.1952 0.00113756 0.375754 4.02733e-13 -9.09403e-14 8.65833 78.3505 0.00115397 
0.645804 6.70436e-14 1.05324e-14 7.46055 78.3082 0.00105646 -0.0104598 -1.67498e-13 -2.80867e-13 
7.70986 78.4981 0.00101775 0.244943 4.56107e-13 -1.21248e-14 6.58919 78.3812 0.00093678 
-0.41191 1.52739e-13 -8.62175e-14 6.80843 78.6073 0.000853429 -0.169324 -3.0273e-13 3.19883e-15 
5.7577 78.4187 0.000778503 -0.829507 -4.68056e-13 -3.81493e-13 5.94913 78.6834 0.000655832 
-0.596576 -2.04142e-14 9.23619e-14 4.95942 78.4269 0.000579048 -1.26555 -2.80831e-13 3.72443e-13 
5.12537 78.7329 0.000414594 -1.03772 -6.54948e-13 9.52155e-14 4.18595 78.4131 0.00033257 
-1.72368 -1.2474e-13 -2.25001e-13 4.32891 78.764 0.000112556 -1.49487 3.44134e-13 2.18853e-14 
3.42703 78.3871 2.93064e-05 -2.20874 -4.99024e-13 4.31391e-14 3.54978 78.7867 -0.000276375 
-1.97118 -3.68386e-14 -5.66162e-14 2.67021 78.3612 -0.000344953 -2.72654 2.97103e-13 -1.18232e-13 
2.77612 78.8135 -0.000790146 -2.4705 3.65485e-13 -3.06977e-14 1.90042 78.3517 -0.000808933 
-3.28337 2.28845e-14 -2.92301e-14 1.99393 78.8606 -0.00148248 -2.99681 -1.49464e-14 -6.48613e-14 
1.09942 78.3804 -0.00138466 -3.88517 -4.93744e-13 6.8695e-14 1.18671 78.9487 -0.00242786 
-3.55338 7.58005e-14 5.14415e-14 0.245235 78.4769 -0.00209358 -4.53617 -2.57842e-13 3.46945e-17 
0.335222 79.1047 -0.00372743 -4.14138 6.96873e-14 2.01499e-13 -0.688226 78.6815 -0.00294485 
-5.23638 3.15879e-13 2.60972e-14 -0.582525 79.3642 -0.00551415 -4.75761 -2.25979e-13 7.61613e-14 
-1.73081 79.0488 -0.00391668 -5.9776 -2.30052e-13 1.22971e-13 -1.59055 79.7734 -0.00795539 
-5.39099 5.66144e-14 -1.50574e-15 -2.91386 79.6524 -0.00488397 -6.73678 3.80911e-13 3.84137e-14 
-2.7125 80.3921 -0.0112436 -6.01718 -5.76622e-14 -9.88654e-14 -4.2641 80.5883 -0.00561473 
-7.46572 -5.19237e-14 3.82749e-14 -3.96591 81.2947 -0.015553 -6.59065 -1.69219e-13 1.81993e-13 
-5.78861 81.9765 -0.00524889 -8.0761 -2.17979e-13 -1.51656e-13 -5.35017 82.5693 -0.0210322 
-7.03394 2.70126e-13 2.58016e-13 -7.44634 83.9524 -0.00373175 -8.42053 2.72067e-13 2.78388e-14 
-6.82345 84.3094 -0.0271455 -7.22505 4.73836e-13 1.95371e-13 -8.26227 86.5903 -0.0351633 
-6.99181 -6.71102e-13 2.9135e-13 20.9757 74.496 0.00543306 3.37071 1.15338e-13 6.10314e-13 
19.7173 75.0171 -1.94515e-05 3.35222 2.76557e-13 2.93784e-13 18.4383 75.5338 -3.81653e-05 
3.27278 2.45873e-13 -1.07091e-13 17.1514 76.0335 0.000261857 3.13448 5.28605e-14 1.64816e-13 
15.8711 76.5075 0.00055418 2.94091 2.43784e-13 2.17524e-13 14.6111 76.9481 0.000805116 
2.69704 2.10665e-14 3.23813e-13 13.3829 77.3494 0.00100326 2.40892 -1.26898e-13 -1.8353e-13 
12.196 77.7072 0.00114314 2.08318 -2.30489e-13 2.38785e-15 11.0572 78.019 0.00122373 
1.72652 -6.24639e-14 -2.43044e-13 9.97044 78.2845 0.0012474 1.34525 1.26246e-13 1.49516e-13 
8.93743 78.5049 0.00121853 0.944883 2.91406e-13 -1.96189e-14 7.95737 78.683 0.00114226 
0.529821 1.78857e-13 1.82836e-13 7.02741 78.8232 0.00102335 0.103194 -1.45391e-13 2.2166e-13 
6.14281 78.9311 0.000865268 -0.333209 -2.80172e-13 4.3093e-13 5.29718 79.0137 0.000669617 
-0.778914 -6.59195e-16 1.21859e-13 4.48255 79.0794 0.00043571 -1.23463 -4.00305e-14 -5.08343e-14 
3.68946 79.1383 0.000160437 -1.702 8.76244e-14 1.28196e-13 2.90689 79.203 -0.000161551 
-2.18327 4.71949e-13 -3.1905e-14 2.12222 79.2888 -0.000537064 -2.68069 3.32533e-13 2.51181e-13 
1.32106 79.4149 -0.000972494 -3.19573 4.89886e-14 -1.39111e-13 0.487257 79.6055 -0.00146973 
-3.72779 5.34572e-14 -1.7486e-15 -0.396832 79.8916 -0.00201833 -4.27235 -5.4047e-13 -7.49817e-14 
-1.34943 80.3122 -0.00257946 -4.81809 -1.4173e-13 1.26024e-13 -2.3871 80.916 -0.00306235 
-5.34275 3.50546e-13 -9.70474e-14 -3.51995 81.7623 -0.0032647 -5.80733 -3.43513e-13 1.62273e-13 
-4.74246 82.9185 -0.00285795 -6.14855 2.17134e-13 1.85768e-13 -6.01685 84.4535 -0.00119693 
-6.27047 2.69527e-13 1.02793e-13 -7.24576 86.4237 0.0028649 -6.03867 -3.63418e-13 1.75443e-13 

METADATA
COMPONENT_NAMES
XX
YY
ZZ
XY
YZ
ZX

S_Mises 1 12618 double
81.379551632 80.253964182 80.253964182 81.379551632 93.682114115 93.14136245 93.14136245 93.682114115 172.28507318 
78.462745552 80.548816894 82.617596189 78.108985674 78.108985674 82.617596189 80.548816894 78.462745552 172.28507318 
66.1029412 66.1029412 95.659208333 97.80444174 100.05003966 102.33241831 104.53055318 106.4713647 107.91555784 
108.55322584 108.0082226 105.86579017 101.75344801 95.531541115 87.826824835 81.059462266 94.575300667 96.625196526 
98.812110267 101.0683905 103.30391278 105.37231919 107.06846896 108.11816047 108.17713296 106.84592659 103.71796569 
98.509747876 91.372601127 83.722737046 79.677196474 95.104271548 97.240102179 99.47863089 101.75414099 103.94397119 
105.87400943 107.30447319 107.92503514 107.35923799 105.19171419 101.04761222 94.780922143 87.003614744 80.111153823 
94.027468902 96.065623291 98.244344853 100.49368772 102.72168436 104.7807044 106.46484479 107.49927321 107.5395997 
106.18565041 103.0299902 97.784705793 90.591152612 82.844879857 78.644553828 95.104271548 97.240102179 99.47863089 
101.75414099 103.94397119 105.87400943 107.30447319 107.92503514 107.35923799 105.19171419 101.04761222 94.780922143 
87.003614744 80.111153823 94.027468902 96.065623291 98.244344853 100.49368772 102.72168436 104.7807044 106.46484479 
107.49927321 107.5395997 106.18565041 103.0299902 97.784705793 90.591152612 82.844879857 78.644553828 95.659208333 
97.80444174 100.05003966 102.33241831 104.53055318 106.4713647 107.91555784 108.55322584 108.0082226 105.86579017 
101.75344801 95.531541115 87.826824835 81.059462266 94.575300667 96.625196526 98.812110267 101.0683905 103.30391278 
105.37231919 107.06846896 108.11816047 108.17713296 106.84592659 103.71796569 98.509747876 91.372601127 83.722737046 
79.677196474 115.86470008 148.74735583 178.71239748 204.39046855 224.65375204 238.60811357 245.642551 245.45458879 
238.05934712 223.79107211 203.2846351 177.45437426 147.43735897 114.60145267 98.647148195 132.54622562 164.15494134 
192.15557635 215.28199974 232.51342448 243.08659654 246.5365699 242.71519555 231.80198999 214.29059084 190.96606219 
162.86341961 131.25294278 97.44726136 46.061858457 13.855696786 17.09102928 42.271760405 62.358428206 76.26966385 
83.380524062 83.380524062 76.26966385 62.358428206 42.271760405 17.09102928 13.855696786 46.061858457 63.195233642 
29.644954312 4.5150271349 30.095452168 52.958580002 70.088780042 80.681590093 84.265342875 80.681590093 70.088780042 
52.958580002 30.095452168 4.5150271349 29.644954312 63.195233642 114.60145267 147.43735897 177.45437426 203.2846351 
223.79107211 238.05934712 245.45458879 245.642551 238.60811357 224.65375204 204.39046855 178.71239748 148.74735583 
115.86470008 97.44726136 131.25294278 162.86341961 190.96606219 214.29059084 231.80198999 242.71519555 246.5365699 
243.08659654 232.51342448 215.28199974 192.15557635 164.15494134 132.54622562 98.647148195 46.980632707 14.503121401 
16.720969809 42.144425358 62.452087027 76.52493965 83.72112388 83.72112388 76.52493965 62.452087027 42.144425358 
16.720969809 14.503121401 46.980632707 64.222490171 30.437295402 4.3428073228 29.843396455 52.946465264 70.270498293 
80.988315056 84.615257502 80.988315056 70.270498293 52.946465264 29.843396455 4.3428073228 30.437295402 64.222490171 
95.986428686 97.645610626 98.064576623 96.76775838 93.773702922 90.028330215 87.361856564 87.399217356 90.099001586 
93.792722186 96.669423152 97.825660422 97.276440045 95.514851014 94.870744213 96.855334231 97.884018951 97.422891568 
95.245134998 91.829093687 88.566465632 87.22313449 88.622717306 91.875426165 95.205048305 97.252550679 97.57770118 
96.432757629 94.362355878 92.833743599 90.940684432 86.645997011 79.213932015 68.522468737 56.084226779 46.524644235 
46.524644235 56.084226779 68.522468737 79.213932015 86.645997011 90.940684432 92.833743599 93.131731353 92.035919606 
88.929204377 83.019013144 73.858640902 62.069979989 50.548231189 45.297728299 50.548231189 62.069979989 73.858640902 
83.019013144 88.929204377 92.035919606 93.131731353 95.514851014 97.276440045 97.825660422 96.669423152 93.792722186 
90.099001586 87.399217356 87.361856564 90.028330215 93.773702922 96.76775838 98.064576623 97.645610626 95.986428686 
94.362355878 96.432757629 97.57770118 97.252550679 95.205048305 91.875426165 88.622717306 87.22313449 88.566465632 
91.829093687 95.245134998 97.422891568 97.884018951 96.855334231 94.870744213 93.448613595 91.615413601 87.355157242 
79.918192493 69.173111911 56.64182097 46.998105201 46.998105201 56.64182097 69.173111911 79.918192493 87.355157242 
91.615413601 93.448613595 93.711689389 92.683775131 89.624731224 83.729266506 74.538320057 62.672226033 51.053559297 
45.754101063 51.053559297 62.672226033 74.538320057 83.729266506 89.624731224 92.683775131 93.711689389 120.13108781 
93.094672556 88.696488387 84.39506649 81.988200374 80.36691287 79.32475141 78.663194708 78.276750691 78.091312481 
78.055606005 78.131505707 78.289195478 78.504500507 78.756788624 79.027793377 79.300671482 79.559976977 79.790943889 
79.979873025 80.113919565 80.181978593 80.174766237 80.085796105 79.911948482 79.65423599 79.31846358 78.915789825 
143.95754766 104.00844938 91.477927957 86.601952581 83.198289397 81.178156923 79.843226202 78.991980002 78.46854531 
78.183354921 78.073444798 78.094029075 78.211229054 78.398164789 78.632388505 78.894418558 79.166691478 79.433136529 
79.678657453 79.88891969 80.050639331 80.151970905 80.182592368 80.134686095 80.003315048 79.78749431 79.490558322 
79.121034132 78.692773849 77.957887586 77.451683749 76.978531919 76.573335201 76.269289587 76.094909075 76.070950899 
76.20851177 76.507881362 76.958145248 77.538925448 78.22198582 78.97440642 79.761458803 78.213354283 77.706917481 
77.216400472 76.776320742 76.42090617 76.18104538 76.081384931 76.138025628 76.356688445 76.73193413 77.24804385 
77.880849666 78.599442117 79.370069987 80.158187058 81.27280093 81.947624529 82.556424779 83.087507841 83.534232533 
83.894245242 84.169218849 84.363985792 84.485166009 84.541087318 84.540599745 84.492983849 84.407253953 84.292058626 
84.155178201 84.003621651 83.843922111 83.681332814 83.520623048 83.365774438 83.219977686 83.086130201 82.966233488 
82.862191939 82.775411026 82.706896384 82.657453269 82.627585675 80.914392855 81.614128863 82.256329549 82.826516815 
83.315430386 83.718700136 84.036170846 84.270933669 84.428652819 84.516986957 84.544505055 84.520196678 84.453377907 
84.352693655 84.226517089 84.082147974 83.926309277 83.765044166 83.60331211 83.445485882 83.295048439 83.155190351 
83.028307681 82.916300142 82.820869809 82.743219809 82.684253506 82.644574074 82.624583744 82.499949974 82.333905444 
82.128108462 81.889240064 81.622705056 81.333733306 81.026543766 80.705484909 80.374277363 80.036947964 79.697257669 
79.359225165 79.027034528 78.704944819 78.397478245 82.56712118 82.423714458 82.236964214 82.014037935 81.760817302 
81.48261891 81.184023656 80.869522205 80.542956816 80.208357012 79.869470927 79.530192417 79.194674128 78.867038549 
78.551768025 78.253407005 77.843190849 77.605495396 77.400230354 77.230966264 77.101142488 77.013055954 76.968605918 
76.968605918 77.013055954 77.101142488 77.230966264 77.400230354 77.605495396 77.843190849 77.975838711 77.72364867 
77.501714562 77.314224161 77.164371677 77.05512213 76.988771129 76.966518716 76.988771129 77.05512213 77.164371677 
77.314224161 77.501714562 77.72364867 77.975838711 78.397478245 78.704944819 79.027034528 79.359225165 79.697257669 
80.036947964 80.374277363 80.705484909 81.026543766 81.333733306 81.622705056 81.889240064 82.128108462 82.333905444 
82.499949974 78.253407005 78.551768025 78.867038549 79.194674128 79.530192417 79.869470927 80.208357012 80.542956816 
80.869522205 81.184023656 81.48261891 81.760817302 82.014037935 82.236964214 82.423714458 82.56712118 82.627585675 
82.657453269 82.706896384 82.775411026 82.862191939 82.966233488 83.086130201 83.219977686 83.365774438 83.520623048 
83.681332814 83.843922111 84.003621651 84.155178201 84.292058626 84.407253953 84.492983849 84.540599745 84.541087318 
84.485166009 84.363985792 84.169218849 83.894245242 83.534232533 83.087507841 82.556424779 81.947624529 81.27280093 
82.624583744 82.644574074 82.684253506 82.743219809 82.820869809 82.916300142 83.028307681 83.155190351 83.295048439 
83.445485882 83.60331211 83.765044166 83.926309277 84.082147974 84.226517089 84.352693655 84.453377907 84.520196678 
84.544505055 84.516986957 84.428652819 84.270933669 84.036170846 83.718700136 83.315430386 82.826516815 82.256329549 
81.614128863 80.914392855 79.761458803 78.97440642 78.22198582 77.538925448 76.958145248 76.507881362 76.20851177 
76.070950899 76.094909075 76.269289587 76.573335201 76.978531919 77.451683749 77.957887586 80.158187058 79.370069987 
78.599442117 77.880849666 77.24804385 76.73193413 76.356688445 76.138025628 76.081384931 76.18104538 76.42090617 
76.776320742 77.216400472 77.706917481 78.213354283 78.915789825 79.31846358 79.65423599 79.911948482 80.085796105 
80.174766237 80.181978593 80.113919565 79.979873025 79.790943889 79.559976977 79.300671482 79.027793377 78.756788624 
78.504500507 78.289195478 78.131505707 78.055606005 78.091312481 78.276750691 78.663194708 79.32475141 80.36691287 
81.988200374 84.39506649 88.696488387 93.094672556 120.13108781 78.692773849 79.121034132 79.490558322 79.78749431 
80.003315048 80.134686095 80.182592368 80.151970905 80.050639331 79.88891969 79.678657453 79.433136529 79.166691478 
78.894418558 78.632388505 78.398164789 78.211229054 78.094029075 78.073444798 78.183354921 78.46854531 78.991980002 
79.843226202 81.178156923 83.198289397 86.601952581 91.477927957 104.00844938 143.95754766 97.380798246 88.392517885 
81.683883898 78.115450391 75.554341726 73.672158062 72.202142665 71.016319856 70.033947372 69.20416498 68.493019848 
67.877007051 67.339976427 66.870329309 66.45989837 127.49695739 90.911078021 84.5323936 79.666810006 76.717412972 
74.542977927 72.892304209 71.578717015 70.503548785 69.603164399 68.836532886 68.175587311 67.600903493 67.098781378 
66.659682256 66.276656445 65.794378362 65.532875555 65.316667709 65.144553996 65.015867341 64.930307985 64.8875729 
64.8875729 64.930307985 65.015867341 65.144553996 65.316667709 65.532875555 65.794378362 65.944289622 65.659535772 
65.420866453 65.226847418 65.076521186 64.969396693 64.905121307 64.883822685 64.905121307 64.969396693 65.076521186 
65.226847418 65.420866453 65.659535772 65.944289622 66.45989837 66.870329309 67.339976427 67.877007051 68.493019848 
69.20416498 70.033947372 71.016319856 72.202142665 73.672158062 75.554341726 78.115450391 81.683883898 88.392517885 
97.380798246 66.276656445 66.659682256 67.098781378 67.600903493 68.175587311 68.836532886 69.603164399 70.503548785 
71.578717015 72.892304209 74.542977927 76.717412972 79.666810006 84.5323936 90.911078021 127.49695739 93.004684647 
91.848917218 90.508118734 89.150921561 87.860273866 86.668878497 85.580881557 84.586366918 83.669783791 82.814499245 
82.005664646 81.231657898 80.485458045 79.76614617 79.08232195 93.41319866 92.464533855 91.195305216 89.834509418 
88.504558006 87.26102618 86.120841442 85.080160402 84.125587645 83.240632146 82.409487852 81.618603356 80.85872543 
80.125522916 79.421881778 78.761866877 92.546683558 91.478781608 90.231201992 88.97426335 87.793398547 86.723341827 
85.770697852 84.927260889 84.178410866 83.507815716 82.900143329 82.342594149 81.826345197 81.348357377 80.914729004 
92.911901861 92.048682034 90.869923552 89.605904464 88.380823809 87.252751013 86.240866619 85.343308321 84.548110606 
83.839489539 83.201340883 82.61946986 82.082964945 81.585643234 81.128247264 80.722710775 90.701874126 88.366195709 
86.27593315 84.491215132 83.015447326 81.823331818 80.87695715 80.136106635 79.562764556 79.123993289 78.791974434 
78.544178067 78.362216068 78.231637354 78.140806959 78.080630318 78.043665364 78.02422837 78.017618058 78.020155682 
78.028716975 78.041010228 78.055014539 78.069184528 78.082318125 78.093536251 78.10196871 78.107170504 91.926657301 
89.533111566 87.314535973 85.3750591 83.744536724 82.411347476 81.34331377 80.501123854 79.845357019 79.340498423 
78.956113839 78.667056816 78.45277027 78.297091668 78.186784947 78.111684857 78.063312325 78.035386121 78.022540059 
78.020651684 78.026287056 78.03684903 78.050035225 78.064227588 78.077949806 78.090170309 78.09996319 78.106824129 
78.110353168 90.701874126 88.366195709 86.27593315 84.491215132 83.015447326 81.823331818 80.87695715 80.136106635 
79.562764556 79.123993289 78.791974434 78.544178067 78.362216068 78.231637354 78.140806959 78.080630318 78.043665364 
78.02422837 78.017618058 78.020155682 78.028716975 78.041010228 78.055014539 78.069184528 78.082318125 78.093536251 
78.10196871 78.107170504 91.926657301 89.533111566 87.314535973 85.3750591 83.744536724 82.411347476 81.34331377 
80.501123854 79.845357019 79.340498423 78.956113839 78.667056816 78.45277027 78.297091668 78.186784947 78.111684857 
78.063312325 78.035386121 78.022540059 78.020651684 78.026287056 78.03684903 78.050035225 78.064227588 78.077949806 
78.090170309 78.09996319 78.106824129 78.110353168 92.546683558 91.478781608 90.231201992 88.97426335 87.793398547 
86.723341827 85.770697852 84.927260889 84.178410866 83.507815716 82.900143329 82.342594149 81.826345197 81.348357377 
80.914729004 92.911901861 92.048682034 90.869923552 89.605904464 88.380823809 87.252751013 86.240866619 85.343308321 
84.548110606 83.839489539 83.201340883 82.61946986 82.082964945 81.585643234 81.128247264 80.722710775 93.004684647 
91.848917218 90.508118734 89.150921561 87.860273866 86.668878497 85.580881557 84.586366918 83.669783791 82.814499245 
82.005664646 81.231657898 80.485458045 79.76614617 79.08232195 93.41319866 92.464533855 91.195305216 89.834509418 
88.504558006 87.26102618 86.120841442 85.080160402 84.125587645 83.240632146 82.409487852 81.618603356 80.85872543 
80.125522916 79.421881778 78.761866877 91.278792094 88.952991254 86.848674186 85.02768447 83.494123629 82.222296562 
81.172925488 80.303431601 79.57329574 78.946400883 78.391498399 77.882212782 77.396678754 76.916731114 76.427278744 
75.916103575 75.373542765 74.7921495 74.166875856 73.495401263 72.777315828 72.01557525 71.215038598 70.383796422 
69.531729834 68.67046877 67.812645227 66.969785732 92.486874273 90.116203292 87.895259196 85.930418648 84.252872003 
82.850878471 81.691601415 80.733610492 79.935227118 79.257928019 78.668076585 78.136918993 77.640217142 77.158047883 
76.673722892 76.173612502 75.646927692 75.084924657 74.481541031 73.832983406 73.137930678 72.39762577 71.616021443 
70.799715705 69.957531221 69.100498008 68.240587034 67.389790679 66.547464018 91.278792094 88.952991254 86.848674186 
85.02768447 83.494123629 82.222296562 81.172925488 80.303431601 79.57329574 78.946400883 78.391498399 77.882212782 
77.396678754 76.916731114 76.427278744 75.916103575 75.373542765 74.7921495 74.166875856 73.495401263 72.777315828 
72.01557525 71.215038598 70.383796422 69.531729834 68.67046877 67.812645227 66.969785732 92.486874273 90.116203292 
87.895259196 85.930418648 84.252872003 82.850878471 81.691601415 80.733610492 79.935227118 79.257928019 78.668076585 
78.136918993 77.640217142 77.158047883 76.673722892 76.173612502 75.646927692 75.084924657 74.481541031 73.832983406 
73.137930678 72.39762577 71.616021443 70.799715705 69.957531221 69.100498008 68.240587034 67.389790679 66.547464018 
106.8362981 133.87296847 160.0962443 183.73295794 203.12307117 216.85581992 223.90641244 223.73846723 216.37002968 
202.36634336 182.77705785 159.02459724 132.77156783 105.7812348 104.77153056 124.60593069 145.56546328 165.76113188 
183.17397923 195.94270849 202.63912984 202.49353122 195.52500086 182.52940876 164.95661343 144.67431058 123.69362035 
103.88855551 106.2676922 119.78506417 135.32310145 151.48179633 166.27300907 177.58368755 183.66639985 183.54409695 
177.23243454 165.73614189 150.81770602 134.58906297 119.02575732 105.50800683 108.72654648 117.54628769 128.28982633 
140.34326269 152.14565078 161.62948458 166.88483185 166.78558887 161.34390893 151.71287387 139.80714496 127.69058327 
116.90526276 108.05262165 110.77303741 116.47068917 123.44148618 131.75232764 140.49047981 147.92419035 152.19475113 
152.11688584 147.70200142 140.1519955 131.32854448 122.95045105 115.91802342 110.15716336 111.87412033 115.67188277 
119.9290502 125.11829335 130.96553111 136.28301885 139.47288283 139.4160662 136.12065049 130.71325838 124.78845781 
119.52131942 115.1824379 111.30010071 111.94541281 114.67982804 117.1285432 119.90339739 123.216758 126.49207951 
128.57577605 128.53891477 126.38360855 123.03891144 119.64971346 116.78510968 114.23508416 111.40247313 111.11578259 
113.30951345 114.642276 115.67181315 116.90141446 118.32298874 119.33720074 119.31837281 118.26208805 116.78511938 
115.47668253 114.34499442 112.89674846 110.59511748 109.59106753 111.54423458 112.24794234 112.09689493 111.71454693 
111.54850663 111.58551684 111.58299247 111.52868812 111.64764312 111.94595896 111.98168562 111.15346948 109.08622451 
107.59007501 109.4557413 109.8478433 108.96050578 107.40727788 105.95768102 105.14928957 105.15963505 105.97166211 
107.37813746 108.83930528 109.60236654 109.07801578 107.09508004 105.30693783 107.1475132 107.42219755 106.12790204 
103.78655779 101.364024 99.865292692 99.886351884 101.40233125 103.78388515 106.02515772 107.18792803 106.77745581 
104.81888687 102.90207982 104.72824477 104.99484759 103.52278144 100.70817754 97.602997927 95.580251941 95.60949489 
97.65932597 100.72135301 103.43055023 104.76372524 104.36054041 102.41803601 100.49568329 102.29327284 102.60435567 
101.11026009 98.066922528 94.538425178 92.154312024 92.187961994 94.60509249 98.088405208 101.02001789 102.37269785 
101.92559682 100.01420281 98.170481448 99.917005652 100.29038333 98.871183127 95.78330396 92.051452968 89.456056295 
89.492798718 92.122278183 95.805386955 98.777821673 100.05534234 99.547567081 97.692268415 110.17720114 93.554649749 
140.41116216 120.1437013 168.70375192 146.78657513 193.5044627 171.69556587 213.43374529 193.1696856 227.34311005 
209.69061372 234.4183725 220.05340152 234.2410189 223.48349199 226.82615802 219.72623764 212.62400115 209.06916612 
192.47426827 192.31203298 167.5410841 170.68092555 139.20849932 145.69895097 109.0220564 119.06416998 92.552091561 
105.04926533 95.671963202 128.51553025 114.36929416 152.18768035 134.90683905 174.18487865 155.56994563 192.65231558 
174.41015242 205.95017515 189.50461262 212.84619157 199.22807171 212.69054361 202.4989129 205.49838947 198.94634136 
191.95298052 188.97107138 173.30626357 173.68200974 151.20844624 154.71795888 127.5116002 134.00085823 104.08513883 
113.46813303 94.818146727 105.10504528 100.30551167 121.68526258 112.6407282 139.92379252 127.30042263 158.13232287 
143.2798582 174.27509651 158.85084477 186.34793534 171.95408827 192.7552546 180.67104717 192.62206445 183.65517429 
185.96411396 180.43289032 173.68567765 171.50729571 157.39986319 158.24716294 139.11350712 142.57701941 120.85191721 
126.55030665 104.2878416 111.87906592 99.551029033 107.30243604 104.74886857 118.3448747 112.75260175 131.41357914 
122.60506615 145.50021936 134.127671 158.80705318 146.18456935 169.22185966 156.92419035 174.9033439 164.34598316 
174.79232039 166.93927047 168.90380929 164.15079266 158.32339882 156.55990066 144.90227284 145.69474699 130.74854791 
133.55491659 117.64714571 121.98213957 106.58810718 112.09387369 104.05957596 109.65573526 107.94638482 116.81318172 
113.29083483 125.57891156 119.63365725 135.7084265 127.35581286 145.96050596 136.01077998 154.42064633 144.22184844 
159.18778395 150.15718327 159.09957365 152.27977704 154.16689774 150.00411629 145.57571601 143.93690647 135.23013386 
135.62409769 125.03531186 126.89454055 116.21798812 119.10958504 109.01207924 112.7057684 107.30199519 111.26746577 
109.67200141 115.95057546 113.50995664 121.48171535 117.50161475 128.16531495 122.25848939 135.41903274 127.88349629 
141.77952326 133.60134211 145.50683328 137.96101762 145.43939102 139.56609465 141.58770563 137.84894994 135.12406845 
133.38940419 127.78942494 127.58762433 121.03450787 121.88643871 115.43057799 117.05254363 110.673802 112.97784505 
109.06053319 111.86156947 110.06611622 115.09155828 113.11853936 118.38321016 115.64924497 122.30002791 118.25352976 
126.83038707 121.36951468 131.09907232 124.789459 133.72572898 127.5860533 133.67940687 128.65492827 130.96350311 
127.5101798 126.61532624 124.64198407 122.00829129 121.15021529 118.00827612 117.95339185 114.62527596 115.25521175 
111.3036338 112.62465766 109.47980846 111.47756856 109.40063938 113.92481981 112.08013254 115.77531415 113.7718443 
117.62256587 114.91679094 119.84145275 116.08125332 122.15394939 117.50967241 123.68774874 118.84112429 123.66005436 
119.38736956 122.07039587 118.79904702 119.69479653 117.4182855 117.39807607 115.92267708 115.45494116 114.66869818 
113.49715628 113.41586307 110.94509131 111.61284474 108.83339968 110.29153156 107.96904288 112.35958669 110.48714963 
113.35424566 111.74244236 113.75124721 111.96417203 114.12731353 111.70214028 114.71695241 111.50135036 115.22270484 
111.53594045 115.21230912 111.59867217 114.67703401 111.52272721 114.03696 111.45625409 113.57894895 111.591726 
113.07272945 111.75443791 111.95866823 111.41310439 109.77831249 110.03858173 107.41616607 108.52111482 106.03757959 
110.43085009 108.48414271 110.96531988 109.5433066 110.41797269 109.23289691 109.41073056 107.99417091 108.56600131 
106.53666663 108.15842024 105.48348814 108.16315376 105.12238035 108.56322049 105.49383935 109.36275701 106.52635164 
110.28238398 107.91757445 110.70993765 109.0493058 110.04718346 109.23131074 108.02106508 108.04740456 105.49521165 
106.37370714 103.82570846 108.22815105 106.22168341 108.55578275 107.21659866 107.44800667 106.6412491 105.46985174 
104.78948684 103.5008059 102.42255012 102.32705581 100.5117344 102.34220363 99.800705935 103.52728058 100.54136708 
105.45417347 102.43940693 107.33570453 104.73607991 108.31559833 106.47213624 107.85504202 106.91336992 105.88195292 
105.79143535 103.29063266 104.02782467 101.50217597 105.86260913 103.83389636 106.13125836 104.82522101 104.73762665 
104.16083408 102.13762957 101.97258657 99.346822291 99.006029709 97.567730913 96.465290604 97.592886818 95.483404113 
99.394608351 96.507278508 102.14374628 99.040846709 104.64045238 101.93281252 105.89791889 103.99802714 105.49286079 
104.52565096 103.54151033 103.40676012 100.97230034 101.6228982 99.188334633 103.43418726 101.43026149 103.72252366 
102.43914964 102.23591731 101.78962233 99.292334964 99.472823296 95.954447715 96.163255912 93.735146106 93.20414368 
93.766623277 92.031273294 96.015982319 93.255985603 99.309600641 96.207741717 102.14410531 99.437431093 103.49113172 
101.62838374 103.0661768 102.13823128 101.13976193 101.00392508 98.663218775 99.260833054 96.960830558 101.03195085 
99.092411364 101.37532821 100.117061 99.91764919 99.544679955 96.842429398 97.24328141 93.19680932 93.797061765 
90.693505834 90.606570359 90.728987018 89.31586144 93.265481031 90.661895898 96.864445558 93.844490361 99.825857635 
97.207297008 101.14185239 99.379249682 100.66283581 99.813087312 98.780573367 98.666435582 96.441614524 97.010810726 
98.716748448 99.117608238 97.76122649 94.714216259 90.962696451 88.320414264 88.357344905 91.033071364 94.733927594 
97.664365178 98.879435846 98.346492416 96.535199376 54.610204008 31.025778275 20.929427725 33.639761776 50.14666251 
62.768436306 69.458859345 69.458859345 62.768436306 50.14666251 33.639761836 20.929427725 31.025778275 54.610204008 
68.30829249 49.824405276 36.374298344 34.382685468 42.114123913 51.109469421 56.49861931 56.49861931 51.109469421 
42.114123913 34.382685468 36.374298344 49.824405276 68.30829249 80.48899994 64.790039545 50.37212041 40.939023988 
39.202884228 42.499150216 45.614197638 45.614197638 42.499150216 39.202884228 40.939023988 50.37212041 64.790039545 
80.48899994 89.84412851 76.196044391 61.754696297 48.839470851 40.197322772 36.924351651 36.710287246 36.710287246 
36.924351651 40.197322772 48.839470851 61.754696297 76.196044391 89.84412851 96.352263859 84.484468716 70.565261998 
56.113221466 43.247554937 34.123223594 29.75885506 29.75885506 34.123223594 43.247554937 56.113221466 70.565261998 
84.484468716 96.352263859 100.4215899 90.184519984 77.11645795 62.183896766 46.957924828 33.526479749 24.83623169 
24.83623169 33.526479749 46.957924828 62.183896766 77.11645795 90.184519984 100.4215899 102.54419054 93.803484177 
81.771022342 66.984610178 50.597088067 34.425507946 22.093471684 22.093471684 34.425507946 50.597088067 66.984610178 
81.771022342 93.803484177 102.54419054 103.19493041 95.806813059 84.892752287 70.641320374 53.878819897 36.227440879 
21.570803976 21.570810998 36.227440879 53.878819897 70.641320374 84.892752287 95.806813059 103.19493041 102.79074696 
96.60180916 86.820006064 73.347207415 56.747715677 38.554102734 22.976144964 22.976144964 38.554102734 56.747715677 
73.347207415 86.820006064 96.60180916 102.79074696 101.67642542 96.532525235 87.851227434 75.306059459 59.250001457 
41.198975645 25.766686183 25.766686183 41.198975645 59.250001457 75.306059459 87.851227434 96.532525235 101.67642542 
100.12427685 95.87774904 88.23843268 76.705251137 61.464314387 44.051252367 29.418239374 29.418239374 44.051252367 
61.464314387 76.705251137 88.23843268 95.87774904 100.12427685 98.34004904 94.855423501 88.184378857 77.701668411 
63.46592012 47.037791975 33.546238166 33.546238166 47.037791975 63.46592012 77.701668411 88.184378857 94.855423501 
98.34004904 96.472956215 93.63017019 87.846959639 78.419044593 65.311241524 50.093974945 37.888465983 37.888465983 
50.093974945 65.311241524 78.419044593 87.846959639 93.63017019 96.472956215 94.620962308 92.312573677 87.331444855 
78.933805968 67.020644079 53.148026592 42.263527898 42.263527898 53.148026592 67.020644079 78.933805968 87.331444855 
92.312573677 94.620962308 48.804756394 66.916107507 21.09897779 41.807379548 15.774443122 22.621786317 36.756088683 
25.399132041 55.674486903 41.671669041 69.152331192 56.464023812 76.127940644 66.151589367 76.127940644 69.499338546 
69.152331192 66.151589367 55.674486903 56.464023812 36.756088683 41.671669041 15.774443122 25.399132041 21.09897779 
22.621786317 48.804756394 41.807379548 66.916107507 61.080902366 77.03635197 40.644077169 57.985061944 28.52016374 
41.392691122 32.943746983 33.279831474 45.46705692 37.264836276 56.532155663 46.452627168 62.665024733 53.910163299 
62.665024733 56.661979516 56.532155663 53.910163299 45.46705692 46.452627168 32.943746983 37.264836276 28.52016374 
33.279831474 40.644077169 41.392691122 61.080902366 57.985061944 77.03635197 74.274986061 87.133103263 57.456219053 
71.792838929 43.509814764 56.45953654 37.226107239 44.238127791 40.051823102 38.800707241 46.393488681 40.296466796 
50.761978413 44.008730076 50.761978413 45.710375692 46.393488681 44.008730076 40.051823102 40.296466796 37.226107239 
38.800707241 43.509814764 44.238127791 57.456219053 56.45953654 74.274986061 71.792838929 87.133103263 85.11187009 
95.061860817 70.602604302 82.344149224 56.216776772 68.11308921 44.821267052 54.259659889 39.312281659 43.402745532 
39.323885427 37.709970339 40.887307014 36.453326338 40.887307014 36.562733016 39.323885427 36.453326338 39.312281659 
37.709970339 44.821267052 43.402745532 56.216776772 54.259659889 70.602604302 68.11308921 85.11187009 82.344149224 
95.061860817 93.025229621 100.50607871 80.385800718 89.894548426 66.267028881 76.833867446 52.513249854 62.516709283 
41.538629739 48.780530076 35.192445356 37.805539401 32.966922008 31.228952378 32.966922008 29.177666905 35.192445356 
31.228952378 41.538629739 37.805539401 52.513249854 48.780530076 66.267028881 62.516709283 80.385800718 76.833867446 
93.025229621 89.894548426 100.50607871 98.283232674 103.72995309 87.32426906 94.913787683 73.897476065 83.095462431 
59.199158031 68.969719435 45.036824946 53.829196516 33.583111228 39.474334557 27.027944665 28.244589666 27.027944665 
23.631644534 33.583111228 28.244589666 45.036824946 39.474334557 59.199158031 53.829196516 73.897476065 68.969719435 
87.32426906 83.095462431 98.283232674 94.913787683 103.72995309 101.34883507 105.16599897 91.935711521 97.905842197 
79.451602661 87.353294379 64.61539523 73.811123185 48.758449819 58.160921346 33.821174359 41.861085822 23.194170915 
27.265729657 23.194170915 20.179826839 33.821174359 27.265729657 48.758449819 41.861085822 64.61539523 58.160921346 
79.451602661 73.811123185 91.935711521 87.353294379 101.34883507 97.905842197 105.16599897 102.71225643 105.25827245 
94.708705685 99.340054414 83.297145587 90.02689457 68.814872076 77.302608774 52.227257114 61.718072575 35.231140303 
44.483141052 21.58985178 27.911328998 21.58985178 19.109002277 35.231140303 27.911328998 52.227257114 44.483141052 
68.814872076 61.718072575 83.297145587 77.302608774 94.708705685 90.02689457 102.71225643 99.340054414 105.25827245 
102.82056563 104.40289731 96.079731702 99.627328314 85.786675577 91.489368178 71.966089091 79.715024742 55.293591837 
64.582520385 37.326689351 47.128288465 22.097700867 29.755606438 22.097700867 20.316424197 37.326689351 29.755606438 
55.293591837 47.128288465 71.966089091 64.582520385 85.786675577 79.715024742 96.079731702 91.489368178 102.82056563 
99.627328314 104.40289731 102.05425435 102.92773624 96.423788703 99.111347387 87.239533903 92.060076789 74.272131442 
81.299622579 57.964508359 66.88449517 39.825863699 49.731184983 24.266920327 32.431394107 24.266920327 23.204391687 
39.825863699 32.431394107 57.964508359 49.731184983 74.272131442 66.88449517 87.239533903 81.299622579 96.423788703 
92.060076789 102.05425435 99.111347387 102.92773624 100.72107071 101.08984713 96.051589908 98.067446834 87.930605753 
92.002863629 75.930516707 82.274254607 60.308535724 68.758165357 42.579536476 52.287217735 27.538398833 35.659888133 
27.538398833 27.096500624 42.579536476 35.659888133 60.308535724 52.287217735 75.930516707 68.758165357 87.930605753 
82.274254607 96.051589908 92.002863629 100.72107071 98.067446834 101.08984713 99.058462813 99.081033745 95.210383815 
96.708606918 88.086810238 91.527699791 77.11452767 82.817375893 62.405715648 70.319118152 45.501802082 54.804709652 
31.45789027 39.231444083 31.45789027 31.50580394 45.501802082 39.231444083 62.405715648 54.804709652 77.11452767 
70.319118152 88.086810238 82.817375893 95.210383815 91.527699791 99.058462813 96.708606918 99.081033745 97.24180745 
97.038075914 94.088366724 95.191510028 87.886132733 90.793488302 77.963162408 83.066065519 64.322886623 71.655087196 
48.526475175 57.283054819 35.710095056 42.981326313 35.710095056 36.122837587 48.526475175 42.981326313 64.322886623 
57.283054819 77.963162408 71.655087196 87.886132733 83.066065519 94.088366724 90.793488302 97.24180745 95.191510028 
97.038075914 95.395675102 95.046435425 92.828578087 93.630108513 87.468886366 89.921862309 78.585601541 83.128641747 
66.104928506 72.833640409 51.588437066 59.712546902 40.078026022 46.776190338 40.078026022 40.745358402 51.588437066 
46.776190338 66.104928506 59.712546902 78.585601541 72.833640409 87.468886366 83.128641747 92.828578087 89.921862309 
95.395675102 93.630108513 95.046435425 93.603001968 91.516172678 86.903299657 79.016262262 67.739396396 54.60680648 
44.411074875 44.411074875 54.60680648 67.739396396 79.016262262 86.903299657 91.516172678 93.603001968 105.7812348 
132.77156783 159.02459724 182.77705785 202.36634336 216.37002968 223.73846723 223.90641244 216.85581992 203.12307117 
183.73295794 160.0962443 133.87296847 106.8362981 103.88855551 123.69362035 144.67431058 164.95661343 182.52940876 
195.52500086 202.49353122 202.63912984 195.94270849 183.17397923 165.76113188 145.56546328 124.60593069 104.77153056 
105.50800683 119.02575732 134.58906297 150.81770602 165.73614189 177.23243454 183.54409695 183.66639985 177.58369327 
166.27300907 151.48179633 135.32310145 119.78506417 106.2676922 108.05262165 116.90526276 127.69058327 139.80714496 
151.71287387 161.34390893 166.78558887 166.88483185 161.62948458 152.14565078 140.34326269 128.28982633 117.54628769 
108.72654695 110.15716336 115.91802342 122.95045105 131.32854448 140.1519955 147.70200142 152.11688584 152.19475113 
147.92419035 140.49047981 131.75232764 123.44148618 116.47068917 110.77303741 111.30010071 115.1824379 119.52131942 
124.78845781 130.71325838 136.12065049 139.4160662 139.47288283 136.28301885 130.96553111 125.11829335 119.9290502 
115.67188277 111.87412033 111.40247313 114.23508416 116.78510968 119.64971346 123.03891144 126.38360855 128.53891477 
128.57577605 126.49207951 123.216758 119.90339739 117.1285432 114.67982804 111.94541281 110.59511748 112.89674708 
114.34499442 115.47668253 116.78511938 118.26208805 119.31837281 119.33720074 118.32298874 116.90141446 115.67181315 
114.642276 113.30951345 111.11578259 109.08622451 111.15346948 111.98168562 111.94595902 111.64764312 111.52868812 
111.58299247 111.58551684 111.54850663 111.71454693 112.09689493 112.24794234 111.54423458 109.59106753 107.09508004 
109.07801578 109.60236654 108.83930528 107.37813746 105.97166211 105.15963505 105.14928991 105.95768102 107.40727788 
108.96050578 109.8478433 109.4557413 107.59007501 104.81888687 106.77745581 107.18792803 106.02515772 103.78388515 
101.40233125 99.886351884 99.865292692 101.364024 103.78655779 106.12790204 107.42219755 107.1475132 105.30693783 
102.41803601 104.36054041 104.76372524 103.43055023 100.72135301 97.65932597 95.60949489 95.580251941 97.602997927 
100.70817754 103.52278144 104.99484759 104.72824477 102.90207982 100.01420281 101.92559682 102.37269785 101.02001789 
98.088405208 94.60509249 92.187961994 92.154312024 94.538425178 98.066922528 101.11026004 102.60435567 102.29327284 
100.49568329 97.692268415 99.547567081 100.05534234 98.777821673 95.805386955 92.122278183 89.492798718 89.456056295 
92.051452968 95.78330396 98.871183127 100.29038333 99.917005652 98.170481448 109.0220564 92.552091561 139.20849932 
119.06416998 167.5410841 145.69895097 192.47426827 170.68092555 212.62400115 192.31203298 226.82615802 209.06916612 
234.2410189 219.72623764 234.4183725 223.48349199 227.34311005 220.05340152 213.43374529 209.69061372 193.5044627 
193.1696856 168.70375192 171.69556587 140.41116216 146.78657513 110.17720114 120.1437013 93.554649749 104.08513883 
94.818146727 127.5116002 113.46813303 151.20844624 134.00085823 173.30626357 154.71795888 191.95298052 173.68200974 
205.49838947 188.97107138 212.69054361 198.94634136 212.84619157 202.4989129 205.95017515 199.22807171 192.65231558 
189.50461262 174.18487865 174.41015242 152.18768035 155.56994563 128.51553025 134.90683905 105.04926533 114.36929416 
95.671963202 104.2878416 99.551029033 120.85191721 111.87906592 139.11350712 126.55030665 157.39986319 142.57701941 
173.68567765 158.24716294 185.96411396 171.50729571 192.62206445 180.43289032 192.7552546 183.65517429 186.34793534 
180.67104717 174.27509651 171.95408827 158.13232287 158.85084477 139.92379252 143.2798582 121.68526258 127.30042263 
105.10504528 112.6407282 100.30551167 106.58810718 104.05957596 117.64714571 112.09387369 130.74854791 121.98213957 
144.90227284 133.55491659 158.32339882 145.69474699 168.90380929 156.55990066 174.79232039 164.15079266 174.9033439 
166.93927047 169.2218655 164.34598316 158.80705318 156.92419035 145.50021936 146.18456935 131.41357914 134.12772126 
118.3448747 122.60506615 107.30243604 112.75260175 104.74886857 109.01207924 107.30199519 116.21798812 112.7057684 
125.03531186 119.10958504 135.23013386 126.89454055 145.57571601 135.62409769 154.16689774 143.93690647 159.09957365 
150.00411629 159.18778395 152.27977704 154.42064633 150.15718327 145.96050596 144.22184844 135.7084265 136.01077998 
125.57891156 127.35581286 116.81318172 119.63365725 109.65573526 113.29083483 107.94638482 110.673802 109.06053319 
115.43057799 112.97784505 121.03450787 117.05254363 127.78942494 121.88643871 135.12406845 127.58762433 141.58770563 
133.38940419 145.43939102 137.84894994 145.50683328 139.56609465 141.77952326 137.96101762 135.41903478 133.60134211 
128.16531495 127.88349629 121.48171535 122.25848939 115.95057546 117.50161475 111.26746577 113.50995664 109.67200141 
111.3036338 109.47980846 114.62527596 112.62465766 118.00827612 115.25521175 122.00829129 117.95339185 126.61532624 
121.15021529 130.96350311 124.64198407 133.67940687 127.5101798 133.72572898 128.65492827 131.09907232 127.5860533 
126.83038707 124.789459 122.30002791 121.36951468 118.38321016 118.25352976 115.09155828 115.64924502 111.86156947 
113.11853936 110.06611622 110.94509131 108.83339968 113.49715628 111.61284474 115.45494116 113.41586307 117.39807607 
114.66869818 119.69479653 115.92267708 122.07039587 117.4182855 123.66005436 118.79904702 123.68774874 119.38736956 
122.15394939 118.84112429 119.84145275 117.50967241 117.62256587 116.08125332 115.77531415 114.91679094 113.92481981 
113.7718443 111.47756856 112.08013254 109.40063938 109.77831249 107.41616607 111.95866823 110.03858173 113.07272945 
111.41310439 113.57894895 111.75443791 114.03696 111.591726 114.67703401 111.45625409 115.21230912 111.52272721 
115.22270484 111.59867217 114.71695241 111.53594045 114.12731353 111.50135036 113.75124721 111.70214028 113.35424566 
111.96417203 112.35958669 111.74244236 110.29153156 110.48714963 107.96904288 108.02106508 105.49521165 110.04718346 
108.04740456 110.70993765 109.23131074 110.28238398 109.0493058 109.36275701 107.91757445 108.56322049 106.52635164 
108.16315376 105.49383935 108.15842024 105.12238035 108.56600131 105.48348814 109.41073056 106.53666663 110.41797269 
107.99417091 110.96531988 109.23289691 110.43085009 109.5433066 108.52111482 108.48414271 106.03757959 105.88195292 
103.29063266 107.85504202 105.79143535 108.31559833 106.91336992 107.33570453 106.47213624 105.45417347 104.73607991 
103.52728058 102.43940693 102.34220363 100.54136708 102.32705581 99.800705935 103.5008059 100.5117344 105.46985174 
102.42255012 107.44800667 104.78948684 108.55578275 106.6412491 108.22815105 107.21659866 106.37370714 106.22168341 
103.82570846 103.54151033 100.97230034 105.49286079 103.40676012 105.89791889 104.52565096 104.64045238 103.99802714 
102.14374628 101.93281252 99.394608351 99.040846709 97.592886818 96.507278508 97.567730913 95.483404113 99.346822291 
96.465290604 102.13762957 99.006029709 104.73762665 101.97258657 106.13125836 104.16083409 105.86260913 104.82522101 
104.02782467 103.83389636 101.50217597 101.13976193 98.663218775 103.0661768 101.00392508 103.49113172 102.13823128 
102.14410531 101.62838373 99.309600641 99.437431093 96.015982319 96.207741717 93.766623277 93.255985603 93.735146106 
92.031273294 95.954447715 93.20414368 99.292334964 96.163255912 102.23591731 99.472823296 103.72252366 101.78962233 
103.43418726 102.43914964 101.6228982 101.43026149 99.188334633 98.780573367 96.441614524 100.66283581 98.666435582 
101.14185239 99.813087312 99.825857635 99.379249682 96.864445558 97.207297008 93.265481031 93.844490361 90.728987018 
90.661895898 90.693505834 89.31586144 93.19680932 90.606570359 96.842429398 93.797061765 99.91764919 97.24328141 
101.37532821 99.544680462 101.03195085 100.117061 99.260833054 99.092411364 96.960830558 96.535199376 98.346492416 
98.879435846 97.664365178 94.733927594 91.033071364 88.357344905 88.320414264 90.962696451 94.714216259 97.76122649 
99.117608238 98.716748448 97.010810726 55.419560269 31.587592074 20.979925711 33.530719057 50.163151774 62.91266794 
69.675852315 69.675852315 62.91266794 50.163151774 33.530719057 20.979925711 31.587592074 55.419560269 69.06184803 
50.428029525 36.728178061 34.472256946 42.134675394 51.1745559 56.60681398 56.60681398 51.1745559 42.134675418 
34.472256946 36.728178061 50.428029525 69.06184803 81.227102711 65.448781175 50.87802131 41.230031063 39.306964064 
42.530190049 45.637599958 45.637599958 42.530190049 39.306964064 41.230031063 50.87802131 65.448781175 81.227102711 
90.576965274 76.896166037 62.354798301 49.270772217 40.416588445 36.967208491 36.671622791 36.671622791 36.967208491 
40.416588445 49.270772217 62.354798301 76.896166037 90.576965274 97.079134319 85.210331914 71.225521073 56.637846701 
43.570807653 34.214588415 29.683319033 29.683319085 34.214588415 43.570807653 56.637846701 71.225521073 85.210331914 
97.079134319 101.13912099 90.922999806 77.814475859 62.770926356 47.361757174 33.684398194 24.755119683 24.755119683 
33.684398194 47.361757174 62.770926356 77.814475859 90.922999806 101.13912099 103.24979547 94.545483474 82.491334286 
67.613615173 51.060730612 34.651239265 22.045518335 22.045524734 34.651239265 51.060730612 67.613615173 82.491334286 
94.545483474 103.24979547 103.88775269 96.545970413 85.624852838 71.298739257 54.387275075 36.51434249 21.591230727 
21.591230727 36.51434249 54.387275075 71.298739257 85.624852838 96.545970413 103.88775269 103.47085661 97.334882796 
87.557031763 74.0236011 57.290565552 38.894086464 23.080964691 23.080964691 38.894086464 57.290565552 74.0236011 
87.557031763 97.334882796 103.47085661 102.34473986 97.257550334 88.588891068 75.995436971 59.820454632 41.58576793 
25.953755465 25.953755465 41.58576793 59.820454632 75.995436971 88.588891068 97.257550334 102.34473986 100.7820972 
96.594169906 88.974051535 77.403408872 62.057575974 44.479975164 29.678419751 29.678419751 44.479975164 62.057575974 
77.403408872 88.974051535 96.594169906 100.7820972 98.988288658 95.562978498 88.916161066 78.405609857 64.078604422 
47.504621176 33.870676548 33.870677034 47.504621176 64.078604422 78.405609857 88.916161066 95.562978498 98.988288658 
97.111822978 94.328279535 88.573355148 79.126198407 65.940270659 50.595492866 38.269458035 38.269458035 50.595492866 
65.940270659 79.126198407 88.573355148 94.328279535 97.111822978 95.249183747 92.9999281 88.050439256 79.641139817 
67.662546532 53.679998112 42.694158251 42.694158251 53.679998112 67.662546532 79.641139817 88.050439256 92.9999281 
95.249183747 49.664271094 67.796628806 21.681308646 42.503937983 15.557911814 22.955430555 36.611785734 25.290490942 
55.720335462 41.614255278 69.347545805 56.54377307 76.403529525 66.33353812 76.403529525 69.717973852 69.347545805 
66.33353812 55.720335462 56.54377307 36.611785734 41.614255278 15.557911814 25.290490942 21.681308646 22.955430555 
49.664271094 42.503937983 67.796628806 61.8513984 77.826745285 41.21682295 58.664646096 28.750773957 41.873039217 
32.921817851 33.475730969 45.474583097 37.289527719 56.631635068 46.486831639 62.824526429 53.996669036 62.824526429 
56.771950419 56.631635068 53.996669036 45.474583097 46.486831639 32.921817851 37.289527719 28.750773957 33.475730969 
41.21682295 41.873039217 61.8513984 58.664646096 77.826745285 75.014500931 87.879325693 58.084388378 72.490527773 
43.945915544 57.039875741 37.421464419 44.629687649 40.106194975 38.977850095 46.43573323 40.346731297 50.824769853 
44.030058572 50.824769853 45.731932305 46.43573323 44.030058572 40.106194975 40.346731297 37.421464419 38.977850095 
43.945915544 44.629687649 58.084388378 57.039875741 75.014500931 72.490527773 87.879325693 85.843543228 95.783530056 
71.280255336 83.060662805 56.771604203 68.761224737 45.187387394 54.771515547 39.472654422 43.719383242 39.355347675 
37.824904796 40.876761963 36.44184164 40.876761963 36.514462738 39.355347675 36.44184164 39.472654422 37.824904796 
45.187387394 43.719383242 56.771604203 54.771515547 71.280255336 68.761301367 85.843543228 83.060662805 95.783530056 
93.752254662 101.20944318 81.097267719 90.621982667 66.897545504 77.526197173 52.993642333 63.106608302 41.81168585 
49.200400505 35.255876821 38.004280003 32.906661902 31.218525905 32.906661902 29.078955565 35.255876821 31.218525905 
41.81168585 38.004280003 52.993642333 49.200400505 66.897545504 63.106608302 81.097267719 77.526197173 93.752254662 
90.621982667 101.20944318 99.002938361 104.4164698 88.054757039 95.644217842 74.576114536 83.814181001 59.755993963 
69.610788435 45.402291846 54.322136565 33.706652781 39.751974498 26.945637617 28.267659303 26.945637617 23.508130884 
33.706652781 28.267659303 45.402291846 39.751974498 59.755993963 54.322136565 74.576114536 69.610788435 88.054757039 
83.814181001 99.002938361 95.644217842 104.4164698 102.05840437 105.83649862 92.674284431 98.63289836 80.159891144 
88.086123953 65.22370245 74.485577886 49.193241518 58.7057483 34.013388968 42.204481783 23.125396075 27.345551794 
23.125396075 20.070829177 34.013388968 27.345551794 49.193241518 42.204481783 65.22370245 58.7057483 80.159891144 
74.485577886 92.674284431 88.086123953 102.05840437 98.63289836 105.83649862 103.40973059 105.91394152 95.447738283 
100.05994718 84.022249788 90.765320596 69.457771649 77.998208981 52.713753738 62.300184386 35.488194364 44.879307127 
21.573736985 28.057853701 21.573736985 19.062520622 35.488194364 28.057853701 52.713753738 44.879307127 69.457771649 
62.300184386 84.022249788 77.998208981 95.447738283 90.765320596 103.40973059 100.05994718 105.91394152 103.50540769 
105.04523528 96.814320674 100.33828575 86.520089479 92.22783199 72.63240754 80.42353461 55.819290363 65.192050749 
37.640802664 47.56786917 22.160645012 29.968658094 22.160645012 20.362887059 37.640802664 29.968658094 55.819290363 
47.56786917 72.632407781 65.192050749 86.520089479 80.42353461 96.814320674 92.22783199 103.50540769 100.33828575 
105.04523528 102.72725493 103.5586743 97.151478726 99.812534332 87.975640348 92.795427001 74.954215673 82.015781434 
58.520808475 67.514961593 40.189758298 50.207485416 24.414395106 32.70621781 24.414395106 23.345246581 40.189758298 
32.70621781 58.520808475 50.207485416 74.954215673 67.514961593 87.975640348 82.015781434 97.151478726 92.795427001 
102.72725493 99.812534332 103.5586743 101.38289629 101.71107001 96.771084273 98.759071132 88.666085292 92.733283271 
76.623477268 82.994496635 60.889875033 69.405098866 42.987482735 52.795750482 27.763624723 35.990964126 27.763624723 
27.320310029 42.987482735 35.990964126 60.889875033 52.795750482 76.623477268 69.405098866 88.666085292 82.994496635 
96.771084273 92.733283271 101.38289629 98.759071132 101.71107001 99.710485688 99.693723483 95.921119601 97.390739705 
88.819462072 92.251958704 77.814648191 83.53893499 63.008243444 70.979006749 45.949676295 55.341925177 31.751476356 
39.613594828 31.751476356 31.800754089 45.949676295 39.613594828 63.008243444 55.341925177 77.814648191 70.979006749 
88.819462072 83.53893499 95.921119601 92.251958704 99.710485688 97.390739705 99.693723483 97.884414191 97.64211992 
94.790077335 95.863978228 88.614155153 91.510251693 78.667745267 83.786681603 64.943264328 72.324992728 49.010516039 
57.845744749 36.063741193 43.409688932 36.063741193 36.47943127 49.010516039 43.409688932 64.943264328 57.845744749 
78.667745267 72.324992728 88.614155153 83.786681603 94.790077335 91.510251693 97.884414191 95.863978228 97.64211992 
96.028289208 95.640287866 93.520234468 94.291576449 88.190576154 90.629376388 79.292039235 83.845897997 66.740051311 
73.51047257 52.105054202 60.29718177 40.484526856 47.245673336 40.484526856 41.155365775 52.105054202 47.245673336 
66.740051311 60.29718177 79.292039235 73.51047257 88.190576154 83.845897997 93.520234468 90.629376388 96.028289208 
94.291576449 95.640287866 94.223517227 92.195984399 87.616058256 79.721106011 68.385108694 55.15138957 44.863400128 
44.863400128 55.15138957 68.385108694 79.721106011 87.616058256 92.195984399 94.223517227 109.24832856 92.956407794 
85.53401214 80.974823591 77.922327363 75.690993072 73.974151513 72.600566005 71.469796202 70.518382573 69.70476665 
69.000737988 68.38692984 67.849632068 67.379480171 100.20188646 93.813426694 87.832435995 83.281136688 80.004849509 
77.546950783 75.637410124 74.104525776 72.841610315 71.778935574 70.870285604 70.084086635 69.398291658 68.797696977 
68.271555332 92.867156038 91.816075013 88.1796503 84.572818458 81.560523692 79.119806037 77.144250251 75.52106258 
74.165339652 73.015008301 72.025950755 71.16687115 70.415248562 69.755582607 69.176516354 88.459602327 89.01421739 
87.387262104 84.950006577 82.496957505 80.297377209 78.399753009 76.777241243 75.386352253 74.185490038 73.140550322 
72.225094467 71.419016632 70.707828591 70.081175708 85.45918236 86.719334228 86.210939791 84.741903652 82.919618984 
81.08191181 79.371544473 77.833140509 76.467189147 75.2582937 74.187358154 73.236470184 72.390786159 71.638702564 
70.971698575 83.394123512 84.891787547 85.033639026 84.258887213 82.996361695 81.54564256 80.079635317 78.683750173 
77.392709156 76.215178047 75.148289747 74.184498835 73.315544999 72.534481513 71.835553369 81.953051518 83.497224892 
83.994492222 83.691954025 82.87496427 81.780279662 80.571629431 79.34885862 78.166663062 77.051730509 76.014959711 
75.058980272 74.182905576 73.384714773 72.662598323 80.953516776 82.449177546 83.132855349 83.141127483 82.66092033 
81.868425179 80.902710667 79.860988357 78.805748384 77.774256254 76.787592854 75.856751375 74.987575608 74.183117495 
73.445617691 80.273960286 81.677803396 82.446784529 82.654324036 82.420925883 81.873564514 81.123150975 80.255702073 
79.332981002 78.396439435 77.473112752 76.580263488 75.728953289 74.927016796 74.180643508 79.832186258 81.12500688 
81.918892883 82.25005045 82.194270997 81.840748653 81.274153499 80.566367254 79.772986851 78.935360254 78.082815469 
77.236234698 76.410606961 75.61748201 74.866676281 79.569573547 80.744781116 81.527654533 81.931501467 82.002133581 
81.799809059 81.387321791 80.821316686 80.149453466 79.4095064 78.630588494 77.834681531 77.039321104 76.258739304 
75.505612587 79.442809109 80.500566751 81.251627186 81.694579107 81.854391627 81.769911519 81.485419959 81.043771888 
80.483512118 79.837039372 79.131115901 78.387446264 77.624241086 76.857599077 76.10233081 79.418235705 80.362630613 
81.070638032 81.531114669 81.754205551 81.76229808 81.584614551 81.251737891 80.79298983 80.234703922 79.599585275 
78.907593054 78.176600034 77.42312093 76.663920328 79.46917905 80.306669166 80.966914152 81.431876297 81.700593566 
81.783151114 81.696020134 81.459116094 81.093025587 80.617311289 80.050198247 79.408530608 78.708413911 77.966271577 
77.199480412 79.573110807 80.311880494 80.924226546 81.386813982 81.690238797 81.834678585 81.826433518 81.676031728 
81.395736056 80.998328865 80.496665209 79.903845589 79.233138682 78.499627132 77.720690301 79.711029825 80.360510839 
80.927990822 81.385865173 81.718228402 81.916903995 81.979940619 81.909609171 81.710550773 81.38877084 80.951494887 
80.406878319 79.764589068 79.037168194 78.240766019 79.865951788 80.436783529 80.965028195 81.419419083 81.778499164 
82.027657616 82.15791686 82.16430232 82.044521377 81.798128936 81.425901161 80.930667281 80.317211894 79.594282962 
78.775655205 80.022603485 80.526616847 81.023103712 81.477855965 81.864552439 82.163444168 82.359670151 82.442173318 
82.402383141 82.233265642 81.929446673 81.487238325 80.905484608 80.18761522 79.343314533 80.16721849 80.617132234 
81.091144506 81.551665367 81.968854064 82.31890547 82.582139595 82.742531016 82.785771265 82.698879966 82.469669158 
82.087502631 81.543795005 80.834936061 79.964246269 80.286932478 80.69695453 81.158443943 81.631444319 82.08341694 
82.487374042 82.820403818 83.06207928 83.193578329 83.196228317 83.051286423 82.740087892 82.245626967 81.554683966 
80.661477816 80.370677555 80.755606909 81.215256999 81.708091971 82.199480922 82.660828126 83.066797128 83.394373906 
83.620929318 83.722879981 83.675138811 83.450731738 83.022435645 82.365009325 81.46026201 80.4085744 80.783801089 
81.252689674 81.772197445 82.307398364 82.829061738 83.311144817 83.729301153 84.058480059 84.271385776 84.336904543 
84.219990864 83.881740358 83.282686287 82.387256141 80.392822464 80.7741307 81.262400528 81.814750185 82.396948834 
82.980695461 83.540753942 84.053123991 84.492072052 84.828111148 85.025500121 85.04148279 84.825107535 84.319844173 
83.468287646 80.317889874 80.720567445 81.237512545 81.827175367 82.45740249 83.102555991 83.740103044 84.347941273 
84.901926 85.372387245 85.721218091 85.89923994 85.844013949 85.480656595 84.724842754 80.180903796 80.619576262 
81.172562947 81.801533397 82.478263023 83.180964258 83.89153545 84.592193648 85.262614105 85.875563704 86.393668029 
86.764364809 86.916030758 86.755208419 86.167972079 79.982546885 80.469951566 81.064207547 81.73169484 82.449528909 
83.201779098 83.976403533 84.761751935 85.543647461 86.301063268 87.001038411 87.592305987 87.998782038 88.112271023 
87.788073466 79.727061361 80.273693364 80.911485997 81.613323495 82.363401362 83.152832014 83.976621407 84.831373573 
85.711555567 86.605498551 87.489691366 88.320747734 89.025685778 89.489135943 89.541660401 79.42276694 80.036124007 
80.7165671 81.445575554 82.215251376 83.024788261 83.87722456 84.778235368 85.733006932 86.742320218 87.797369373 
88.870220604 89.901785448 90.783261786 91.334288688 105.62249844 111.00285403 90.44096147 100.04553616 83.612055236 
88.683722696 79.534526989 83.02153242 76.746357939 79.3223238 74.69235435 76.730884048 73.10095883 74.784091455 
71.821874109 73.254418022 70.765501018 72.011977115 69.874745525 70.977079289 69.112070726 70.098684708 68.451657342 
69.342720138 67.875788945 68.685846747 67.371899993 68.111588179 66.931171598 67.60886547 67.169545634 101.90547902 
99.388859777 93.654956107 96.997012609 86.715535099 90.564808833 82.141236698 85.391550112 78.958444598 81.526327903 
76.61287694 78.701103952 74.799370234 76.541708671 73.347036601 74.836006807 72.150952721 73.448061911 71.144643913 
72.2918217 70.284172739 71.310632851 69.539544537 70.466349057 68.890206659 69.73238614 68.321560437 69.090680174 
67.823765413 68.528338427 68.036565906 96.540118521 91.386043267 92.794219139 92.578106781 87.949323307 90.007771909 
83.932751373 86.302227987 80.781238991 82.993764277 78.33143119 80.282470912 76.38764605 78.088479626 74.8095317 
76.300307508 73.50037119 74.819001736 72.394209023 73.57178563 71.445795555 72.506255382 70.623406305 71.585199556 
69.905013184 70.782007303 69.27518272 70.077834248 68.722778108 69.459409867 68.917556049 90.592560755 86.778315157 
90.270197013 89.045902739 87.749105482 88.313318528 84.756107918 86.174980311 82.025958068 83.698010235 79.707953557 
81.364083344 77.770927897 79.318075379 76.147816153 77.563018326 74.774290451 76.061243693 73.598681442 74.769520324 
72.58185321 73.649880998 71.694631135 72.672057799 70.91599447 71.813076326 70.230713493 71.055842423 69.62800768 
70.387845182 69.800355212 86.958170384 83.915526989 87.846301609 86.298304095 86.775222682 86.58952833 84.832721282 
85.528707317 82.704534118 83.84058425 80.688863729 81.991635886 78.885552479 80.211212297 77.30503524 78.585885732 
75.926450559 77.135082603 74.721419691 75.849599434 73.663479889 74.711656091 72.730231636 73.702482157 71.904438122 
72.805492935 71.172869267 72.007622665 70.526050486 71.29873076 70.671677898 84.420539651 82.000117699 85.789799047 
84.297306035 85.607090936 85.077489041 84.49173356 84.71255381 82.954682521 83.65799151 81.313015612 82.279999079 
79.726036228 80.81047538 78.259145267 79.374516081 76.930547848 78.029326249 75.737173102 76.79498952 74.66814195 
75.673361474 73.710683902 74.658735699 72.853263646 73.74311178 72.086701455 72.918595112 71.403749071 72.179033115 
71.519558355 82.669534476 80.716762653 84.188246598 82.838169479 84.507074264 83.84145384 83.970417019 83.909466247 
82.933311949 83.323124518 81.662703096 82.347923415 80.326535383 81.183985514 79.017553536 79.961278065 77.780937342 
78.754991933 76.634596136 77.604668472 75.5826312 76.528095549 74.622553892 75.531566287 73.749942123 74.615696443 
72.960274404 73.778587898 72.249772733 73.018498531 72.333782751 81.450228475 79.860951836 82.969234505 81.786411282 
83.559742861 82.869227791 83.413892667 83.197533811 82.766962285 82.942896653 81.824765091 82.2909377 80.738400844 
81.400441731 79.606596975 80.389082156 78.487975408 79.335855224 77.414619264 78.289642581 76.402781471 77.278960764 
75.459239238 76.319327277 74.586453212 75.418665598 73.785057133 74.581534917 73.055272439 73.810198003 73.106947716 
80.611556474 79.31163299 82.061151432 81.040797348 82.787825175 82.125637972 82.896565451 82.603576748 82.540818024 
82.577937327 81.871870071 82.175728406 81.014553851 81.517271041 80.060300276 80.701153101 79.071372597 79.801063562 
78.087349187 78.867948446 77.13220133 77.935807983 76.220221569 77.026239645 75.359820084 76.153153429 74.556620488 
75.325732297 73.814609369 74.55081315 73.834300968 80.051788556 78.986917532 81.40002645 80.528738849 82.181913212 
81.573200722 82.45190628 82.129864066 82.308091623 82.259250943 81.858416848 82.045904657 81.200439773 81.578253023 
80.413170394 80.93479932 79.555169178 80.179448218 78.66805574 79.36044375 77.780092004 78.512873511 76.910192158 
77.661476058 76.07160929 76.823983473 75.274041176 76.013424508 74.525377311 75.240415432 74.514102882 79.700260243 
78.829837655 80.934187751 80.196143263 81.722998336 81.177704542 82.091068017 81.768055391 82.099109287 81.999972327 
81.82174906 81.928054069 81.33269151 81.61478367 80.695966149 81.120401078 79.963474263 80.497335476 79.174725904 
79.788179894 78.358861553 79.026220433 77.537554982 78.236721462 76.726948633 77.439492831 75.940009988 76.650029567 
75.18803246 75.881906572 75.147325849 79.506246965 78.798518867 80.622553826 80.001843057 81.389899562 80.909443589 
81.813730272 81.505262539 81.929400248 81.803484112 81.786499418 81.837254446 81.438298047 81.648453628 80.934711703 
81.281410272 80.318733578 80.777069972 79.625563343 80.17085218 78.883054426 79.492297433 78.113159898 78.765503639 
77.333829479 78.010240798 76.560122469 77.243715752 75.806036868 76.481203797 75.737557158 79.431044945 78.860504046 
80.432014845 79.913590079 81.161755936 80.743345989 81.613791666 81.32763416 81.805642853 81.66784587 81.767886422 
81.781054408 81.536979452 81.693431118 81.149907588 81.435214638 80.640527747 81.036756027 80.038091717 80.525775402 
79.367459626 79.926932949 78.649596779 79.261577711 77.902362429 78.54831356 77.142262001 77.80436846 76.38505278 
77.046300237 76.290882249 79.44478418 78.989891532 80.335553729 79.905171261 81.019805308 80.657836995 81.482717463 
81.221376766 81.728923051 81.587883154 81.774520756 81.762264776 81.642346812 81.758224136 81.357607125 81.594297008 
80.945177157 81.29096535 80.428157917 80.868242425 79.826857756 80.345081788 79.159983746 79.738964417 78.444287068 
79.066484395 77.69643715 78.343686485 76.933537975 77.587335651 76.815826162 79.522610522 79.16485053 80.310613892 
79.95488645 80.946906758 80.634257796 81.410761322 81.173268747 81.697118431 81.55683888 81.81079043 81.780543952 
81.763244126 81.847870565 81.569648075 81.76753326 81.246485957 81.550921595 80.80975656 81.210806473 80.275316033 
80.76010614 79.657880174 80.2115436 78.972332329 79.578267147 78.23449885 78.874580119 77.461652591 78.1164325 
77.322747777 79.64397323 79.36643099 80.337854344 80.043797675 80.927640571 80.656251406 81.388060621 81.171046531 
81.706030884 81.56743133 81.877732806 81.833412888 81.905251129 81.96442068 81.794833988 81.960453403 81.555138793 
81.825282633 81.195410064 81.564187504 80.725787682 81.183889289 80.156792411 80.692070059 79.500184623 80.097517131 
78.769564665 79.411220476 77.981899183 78.647401329 77.824732188 79.790720834 79.577869496 80.400687151 80.155560494 
80.948373111 80.709216352 81.404597484 81.203066363 81.750326908 81.611689837 81.974329383 81.916942416 82.071018991 
82.107448833 82.038998069 82.176143656 81.879439292 82.119524344 81.595151919 81.936390382 81.190187615 81.626866031 
80.669963082 81.192804017 80.041861308 80.637705625 79.316426318 79.968336322 78.508870027 79.195818229 78.337249392 
79.946899022 79.783392085 80.484001338 80.275443252 80.996299019 80.77994284 81.45074273 81.258537809 81.823650785 
81.681476171 82.097773543 82.025939819 82.260977893 82.274801863 82.305352079 82.41522482 82.225400354 82.437233813 
82.01741151 82.33334801 81.679107939 82.097380935 81.209885202 81.724516909 80.611880794 81.212294781 79.891197095 
80.561745745 79.059510809 79.779115938 78.878568816 80.097849102 79.968815657 80.574576357 80.389937323 81.059566308 
80.856330484 81.517173886 81.32684412 81.919025586 81.768386586 82.243528727 82.154119986 82.473251345 82.462527962 
82.594649117 82.675828263 82.596154912 82.778941533 82.467819951 82.758294285 82.200920608 82.601270981 81.788158436 
82.296337726 81.224893775 81.833873075 80.510977076 81.207468671 79.653064713 80.416688304 79.470112124 80.230305547 
80.121047931 80.659986645 80.487060546 81.12758457 80.927394029 81.594180836 81.398143626 82.028734439 81.863640166 
82.405781966 82.294071307 82.703859147 82.664600335 82.904824405 82.953868513 82.991914702 83.142226779 82.949437101 
83.211087852 82.761907488 83.141607067 82.41456911 82.915114246 81.894752557 82.513540692 81.193962624 81.921524339 
80.311333988 81.129120494 80.136616278 80.332292339 80.227986647 80.729499752 80.55595639 81.189920933 80.983060677 
81.672654602 81.462962351 82.144398709 81.958164166 82.576989066 82.43721552 82.946520727 82.87324612 83.231040591 
83.242222438 83.409849224 83.521526597 83.461817326 83.688037875 83.364823615 83.717514871 83.096249581 83.583799907 
82.633887667 83.259678683 81.958587328 82.718690081 81.058541219 81.938347589 80.906576798 80.393417416 80.279218145 
80.773168143 80.587290366 81.237194698 81.014165618 81.74327611 81.512088072 82.256652119 82.042677447 82.748228058 
82.573884073 83.192270532 83.078195709 83.565146377 83.530733451 83.842762067 83.906873896 83.999876073 84.180633253 
84.008033113 84.322870006 83.836454917 84.300478793 83.452022942 84.07637481 82.822254079 83.610842413 81.920675248 
82.865891498 81.811424462 80.404665365 80.26641581 80.782623947 80.573346754 81.261065595 81.012947508 81.796911127 
81.536970991 82.355835676 82.107400676 82.908583343 82.693023081 83.429811518 83.267374542 83.895179175 83.80606844 
84.279099755 84.284382092 84.553178903 84.674943382 84.684007572 84.945309152 84.632518746 85.056258447 84.353789589 
84.960707861 83.799679293 84.604698494 82.924022331 83.930600779 82.884450618 80.359489635 80.183638699 80.751170514 
80.508429658 81.253643753 80.97296201 81.824728492 81.529852836 82.431226752 82.142804952 83.045876894 82.782959371 
83.644941315 83.426569109 84.205232029 84.05157899 84.701746099 84.635165911 85.104692602 85.150586328 85.377367192 
85.564288772 85.473221722 85.832809937 85.335820668 85.900198554 84.899163053 85.697739564 84.092612499 85.145133445 
84.15762234 80.253505527 80.027932043 80.673992805 80.38947451 81.208918167 80.889915419 81.8183651 81.48424371 
82.472238653 82.139532085 83.146493717 82.831364139 83.820965491 83.539926703 84.475689369 84.247583965 85.088089471 
84.935585369 85.629813281 85.580364648 86.062887628 86.150163379 86.336352788 86.600221558 86.382858099 86.868748341 
86.118170789 86.873163136 85.442986558 86.509230999 85.655395605 80.085787409 79.800429338 80.5486858 80.216275258 
81.122435005 80.76134555 81.770862056 81.395064514 82.468619507 82.089715464 83.196638211 82.826452458 83.939927493 
83.591232105 84.683522842 84.372719056 85.410294291 85.158336405 86.095740546 85.93074088 86.704742022 86.663518744 
87.185129472 87.315078172 87.462584261 87.822232444 87.436176464 88.093223634 86.976240306 88.00153591 87.384968468 
79.858673401 79.506158967 80.37571249 79.99203593 80.991835007 80.587948502 81.67689612 81.259982047 82.411484946 
81.987331222 83.183072273 82.758057607 83.983118935 83.565394106 84.804102284 84.405529683 85.63605014 85.274117055 
86.462522272 86.163229025 87.255009042 87.055785183 87.966111501 87.91897657 88.520798087 88.695671549 88.806684187 
89.292415919 88.666476254 89.567568987 89.320633738 79.578485649 79.155155013 80.158508678 79.723649205 80.817867131 
80.373569198 81.533828725 81.079636485 82.294418496 81.829689391 83.094769891 82.619503803 83.934006239 83.45041575 
84.813098522 84.327071494 85.731900829 85.255221598 86.684934849 86.238127837 87.655651773 87.272630058 88.608409806 
88.341010776 89.476483888 89.401344921 90.14733684 90.370947524 90.445231988 91.107114874 91.382397463 79.255745086 
79.904504399 80.604666163 81.342756131 82.115416748 82.925498324 83.78056298 84.690765154 85.667047655 86.717617306 
87.842706989 89.026254563 90.221749583 91.332727517 92.183767666 78.704366167 79.462091025 80.215378734 80.966890342 
81.726965152 82.510636254 83.33732461 84.230639324 85.218276701 86.331557843 87.602215196 89.056941191 90.704538513 
92.512221658 94.364737166 78.327367178 79.154793941 79.932813791 80.676226988 81.404187024 82.138373212 82.903992645 
83.730937328 84.655396428 85.721101484 86.980055053 88.49076734 90.311061285 92.479292943 94.972800403 77.977122977 
78.86571376 79.658849492 80.382400554 81.063343768 81.728265681 82.405525554 83.127976594 83.935186855 84.877552472 
86.019776064 87.445220688 89.25681381 91.570284926 94.488482616 77.680234836 78.61833201 79.417033685 80.112656046 
80.737940586 81.322540798 81.895367314 82.488193065 83.138879444 83.896359746 84.826942104 86.023249871 87.614259385 
89.77583984 92.733309898 77.461744527 78.435202262 79.231896806 79.896385221 80.465567783 80.970445448 81.438587669 
81.898051341 82.380448445 82.926474959 83.592695626 84.462173733 85.661860445 87.386499703 89.936325504 77.343539735 
78.336559594 79.125562206 79.760903941 80.282294115 80.720893338 81.102404106 81.450000871 81.788214763 82.146671511 
82.566311538 83.109655744 83.878441521 85.044927547 86.913631273 77.341410242 78.337029502 79.114656743 79.727485147 
80.21673861 80.613332398 80.941780041 81.222338669 81.474451608 81.72028865 81.98940288 82.327238153 82.811307396 
83.583041763 84.916817477 77.463712465 78.444694826 79.208140928 79.807478768 80.284106557 80.669276647 80.987375509 
81.25904768 81.50405342 81.744482119 82.010143574 82.346738086 82.832054486 83.607465357 84.947252433 77.710590647 
78.659085853 79.405394752 80.000081449 80.483461749 80.887089604 81.237335222 81.557923334 81.873721752 82.214840772 
82.622475081 83.159608343 83.927884954 85.09930705 86.977000431 78.073484129 78.972104738 79.696765376 80.29251257 
80.797359271 81.242872194 81.657646954 82.070174831 82.512893181 83.026664555 83.668209089 84.520297631 85.709065753 
87.427163733 89.9709871 78.536520017 79.368175978 80.064462798 80.662288915 81.19557241 81.694966921 82.190604811 
82.714707127 83.305752361 84.012639028 84.901125407 86.062759318 87.624325193 89.758018107 92.683159788 79.077956799 
79.827107783 80.485683568 81.080889289 81.640726425 82.193247328 82.767793171 83.397851554 84.123238304 84.993822765 
86.073388747 87.443216794 89.203138713 91.464595128 94.32421771 79.672430352 80.325593665 80.935415471 81.518247225 
82.094517351 82.687622235 83.323777867 84.033296536 84.852465779 85.824192803 86.998948374 88.432829457 90.180518302 
92.276074148 94.692054593 80.293343973 80.840091795 81.389514204 81.946440003 82.523073344 83.136030408 83.805597305 
84.556043639 85.415001792 86.412537676 87.578803043 88.93819631 90.496484802 92.217419949 93.982986463 78.896103179 
78.324824843 79.617133538 79.085013272 80.353780832 79.841560316 81.103259028 80.593365323 81.871093972 81.348103606 
82.668524056 82.118563585 83.510899436 82.922120244 84.41762757 83.780089788 85.411094614 84.718311499 86.514461411 
85.766575664 87.748794415 86.956718866 89.125037509 88.318887578 90.630907226 89.872367006 92.207546731 91.607939874 
93.713317889 93.456258817 95.23001005 78.517927761 77.888568359 79.310635827 78.747599181 80.076690477 79.550055136 
80.824647688 80.309304505 81.56930467 81.04312938 82.329230489 81.772036737 83.126577933 82.519621819 83.988433464 
83.313105113 84.946779971 84.18542765 86.039361924 85.176666375 87.308109552 86.33467209 88.795786986 87.715212436 
90.535566482 89.377732703 92.529611425 91.373075115 94.707557598 93.713947207 96.316967854 78.15359924 77.482459509 
79.011743616 78.432919095 79.797539958 79.272253958 80.531427746 80.028049617 81.236211242 80.727834905 81.936351202 
81.398108349 82.658584251 82.066378484 83.43449577 82.762909659 84.302185176 83.523620087 85.308918795 84.393269805 
86.513545905 85.429154777 87.987157607 86.705179982 89.810504094 88.314736818 92.060822558 90.368986844 94.776537274 
92.980658879 96.220333625 77.829140423 77.136794364 78.742702004 78.165391128 79.538693148 79.031186205 80.248333181 
79.774946452 80.901435592 80.432355126 81.526121349 81.03433105 82.151361582 81.610002955 82.809369809 82.189308454 
83.539131871 82.806722341 84.39056805 83.505220941 85.429684704 84.34166433 86.745039244 85.39474866 88.45322909 
86.77426458 90.701269297 88.632468384 93.650383358 91.169659932 94.625502142 77.57075591 76.880219386 78.526590479 
77.968641242 79.324260321 78.850161676 80.003950273 79.576623222 80.600778299 80.189923106 81.14479796 80.723869594 
81.664572462 81.20738726 82.189860623 81.66785607 82.755619017 82.134680646 83.406691915 82.643460814 84.205006239 
83.241978326 85.238790954 83.998718026 86.636899097 85.016569051 88.586299709 86.453493316 91.346551211 88.551569104 
91.675902781 77.401849082 76.737387993 78.385032687 77.863079948 79.177678858 78.749810847 79.826873324 79.457352405 
80.371243715 80.032014013 80.841760878 80.508922013 81.264927112 80.915960169 81.666357088 81.277502213 82.074043066 
81.616800057 82.522986819 81.960377638 83.061899992 82.342613658 83.763578115 82.81379361 84.742309174 83.453308929 
86.182747859 84.393689363 88.384184531 85.863200468 88.268019535 77.341276951 76.726306815 78.335523348 77.863712735 
79.118472288 78.745673104 79.741630209 79.436153553 80.245711522 79.98333346 80.661576423 80.423121935 81.014210018 
80.782787426 81.325163519 81.084316466 81.616211385 81.34744948 81.91283847 81.5921655 82.249647343 81.843602185 
82.679861646 82.137860697 83.2918293 82.533580657 84.241311932 83.13514904 85.813985233 84.138347127 85.93571053 
77.401193258 76.856285823 78.389431209 77.978691619 79.15956265 78.846083972 79.764712121 79.522750759 80.246175942 
80.056881024 80.635183899 80.48449865 80.955917819 80.833327711 81.228525832 81.125324073 81.472504511 81.380349359 
81.709195912 81.618783233 81.967659501 81.865811995 82.292126288 82.157684064 82.75844721 82.553309229 83.505397165 
83.157156688 84.803131971 84.1651282 85.96909847 77.585927535 77.127509636 78.550654058 78.207613388 79.305184974 
79.050707775 79.901292707 79.716539809 80.380033572 80.25175954 80.772721601 80.692083015 81.104489232 81.065948598 
81.39764234 81.398228728 81.674047763 81.712720456 81.95930266 82.03641664 82.288632628 82.40395413 82.715299491 
82.86588665 83.327848206 83.501980223 84.282054042 84.444298168 85.86279533 85.920542998 88.333888382 77.891244123 
77.530739487 78.814768123 78.542534357 79.549986292 79.350369598 80.144622914 80.006453277 80.637765545 80.553228491 
81.061160235 81.025152396 81.44201842 81.452100454 81.806589562 81.862384929 82.183328622 82.285849449 82.60756114 
82.758593461 83.128374519 83.32861415 83.818419687 84.064213754 84.791751644 85.067686286 86.231763834 86.495917213 
88.434848352 88.587586205 91.701918144 78.304697865 78.048045991 79.169922082 78.967899251 79.880315807 79.729086729 
80.476888114 80.372596831 80.99549635 80.935054276 81.467333263 81.448322956 81.921833221 81.942612025 82.389446686 
82.448895378 82.905564695 83.00212833 83.515343842 83.645340711 84.280418864 84.435411273 85.288269167 85.450058696 
86.666122558 86.797437896 88.598179863 88.627026921 91.338852057 91.134110684 94.550912396 78.807665386 78.655161359 
79.598221817 79.46330523 80.275780162 80.165420057 80.872403956 80.789662772 81.418998468 81.364506585 81.945016238 
81.917950378 82.480285496 82.478541455 83.057742514 83.077415473 83.716772333 83.750934022 84.50704601 84.543789663 
85.493764677 85.512528016 86.763788274 86.729367474 88.431259602 88.285336505 90.638821827 90.287910943 93.541712557 
92.844362118 96.018385117 79.376407401 79.32333331 80.077741471 80.004795203 80.71226536 80.635696116 81.301638385 
81.230347022 81.870105779 81.80790808 82.443514215 82.390430784 83.049689933 83.00249402 83.720740471 83.672396023 
84.494782018 84.433392696 85.418591851 85.325002758 86.549519166 86.393949097 87.956729324 87.694118312 89.717514569 
89.281961076 91.904873858 91.204710737 94.551850776 93.470504997 95.991239493 79.984912799 80.022367833 80.584997866 
80.56767853 81.164976155 81.116259085 81.735488334 81.668766466 82.312640038 82.234345371 82.916541566 82.827605482 
83.570578745 83.467063595 84.302268585 84.174962362 85.143504403 84.9774974 86.130929804 85.903452081 87.305203193 
86.983648787 88.70651964 88.246079787 90.364808743 89.707307605 92.278755325 91.354853061 94.373933107 93.116338052 
94.802011226 80.60677915 81.097125935 81.611230039 82.148463653 82.716383281 83.32776166 83.999263769 84.750613856 
85.603908152 86.581565849 87.702752095 88.976182109 90.386863764 91.873166081 93.291250294 81.486394154 81.810083737 
82.211570331 82.675482309 83.196576623 83.775735158 84.417755861 85.128599751 85.913104222 86.771166507 87.69219718 
88.646592409 89.573051716 90.360935133 90.829180448 82.020537983 82.235820373 82.555153327 82.955639934 83.424441068 
83.954808251 84.543540788 85.187492612 85.880876038 86.611000866 87.352906692 88.061242882 88.661050179 89.035419891 
89.014028086 82.503942259 82.615753873 82.850386821 83.179223675 83.582931688 84.048314368 84.564697728 85.121048178 
85.702744497 86.287755158 86.841211632 87.310031333 87.615718618 87.648103967 87.261124402 82.927336511 82.943563676 
83.094019708 83.346264446 83.676261116 84.065182101 84.496468425 84.952913479 85.413280864 85.849164482 86.220803472 
86.473335665 86.532184072 86.301260024 85.663931454 83.285125166 83.21585132 83.285534336 83.459781655 83.711390933 
84.01750996 84.357185841 84.708693967 85.046733441 85.339459563 85.546113879 85.614073185 85.477360461 85.057028845 
84.265258357 83.575270159 83.432121854 83.426795261 83.524777821 83.697053862 83.918490978 84.165222887 84.412920516 
84.634123335 84.796139088 84.859738521 84.777506885 84.493932398 83.947089309 83.074694582 83.798485533 83.593809822 
83.521078886 83.547055905 83.642450132 83.781115618 83.937868547 84.087102871 84.201140326 84.248291014 84.192700743 
83.993207927 83.604940885 82.981926459 82.082261174 83.958140689 83.704236493 83.572875701 83.533049566 83.55650408 
83.617137212 83.689817165 83.749023122 83.767937696 83.717470551 83.565617303 83.278167267 82.820214808 82.158826317 
81.268008569 84.058869323 83.767703215 83.587046485 83.48913602 83.447333274 83.436803784 83.433238394 83.412479535 
83.349441485 83.218002689 82.990840754 82.640228916 82.139898486 81.467348643 80.608579532 84.106879591 83.789395713 
83.56901613 83.421219239 83.32201732 83.248332223 83.177599539 83.087588871 82.955698716 82.758972802 82.474660768 
82.08094996 81.558787823 80.893730467 80.080030741 84.108963298 83.774998169 83.523893077 83.334742065 83.186411112 
83.058225558 82.929845165 82.78125663 82.592655402 82.344554209 82.018422516 81.597437183 81.068288976 80.422777305 
79.660615969 84.072203758 83.73031103 83.456794823 83.234629858 83.045500416 82.8714457 82.694681812 82.497759637 
82.263611914 81.976227989 81.62057454 81.184399457 80.658767821 80.03985398 79.330935764 84.003580972 83.660868125 
83.372581782 83.124934597 82.903067008 82.691504351 82.475111004 82.239197264 81.969520319 81.652806087 81.27771723 
80.835191933 80.319974979 79.731168388 79.074304857 83.909974845 83.572251722 83.275588225 83.009586854 82.76216038 
82.520860222 82.272956243 82.006374111 81.709436475 81.371919241 80.985045112 80.542630752 80.042103146 79.484591454 
78.87698559 83.797667098 83.469405036 83.169747346 82.891440441 82.625163106 82.36101192 82.08878539 81.798750878 
81.481905609 81.130158051 80.737430429 80.299700433 79.816096673 79.289525559 78.727141606 83.672441955 83.356942338 
83.058817686 82.773412159 82.493953591 82.212879293 81.922520809 81.615385973 81.284434965 80.92386982 80.529540927 
80.099379167 79.633954677 79.136857723 78.615390371 83.539586213 83.23905703 82.945801637 82.657518701 82.369657261 
82.076977537 81.773731194 81.454448741 81.114224049 80.749106747 80.3565026 79.935692661 79.488362319 79.01863648 
78.533714539 83.403689007 83.119327966 82.833561891 82.545803928 82.253490299 81.953276721 81.641509055 81.314412241 
80.968676351 80.60204561 80.213314601 79.802824705 79.373073411 78.928412307 78.475734464 83.268641435 83.001224361 
82.724534377 82.43976293 82.146095552 81.841849766 81.524932453 81.193327521 80.845079006 80.479275316 80.095732651 
79.695984051 79.282655489 78.860546135 78.436177303 83.137936155 82.887209735 82.620738755 82.34066064 82.047971075 
81.742311749 81.423014034 81.089381147 80.740767458 80.377355299 80.000029769 79.610649963 79.212613485 78.810507074 
78.41054213 83.014567079 82.779944956 82.523786468 82.2497467 81.959592023 81.654350214 81.334636845 81.00083506 
80.653467519 80.293464094 79.922530113 79.543201504 79.158899098 78.774362328 78.395367548 82.900729082 82.681090589 
82.435286995 82.167666705 81.881128698 81.577746582 81.258983595 80.926362282 80.581131895 80.225129301 79.860537126 
79.490330515 79.118317312 78.748963624 78.387800699 82.798617851 82.592608774 82.356452682 82.095270528 81.812857642 
81.511995856 81.195156836 80.864365316 80.521859567 80.170046026 79.811448568 79.44954968 79.088019161 78.731532818 
78.385274604 82.709829757 82.515564664 82.288202525 82.033219761 81.754973012 81.456915885 81.142293172 80.813894857 
80.474213596 80.126291673 79.773264769 79.418395533 79.065898818 78.720148775 78.386189044 82.635461763 82.451227277 
82.231364578 81.981791067 81.70739199 81.412259048 81.099973597 80.773859278 80.436929549 80.092633351 79.744192324 
79.395328893 79.050187431 78.713042192 78.388787961 82.576711427 82.400370563 82.186477925 81.94148049 81.670360196 
81.377815088 81.06763119 80.743532012 80.409023107 80.067533022 79.722846651 79.378730369 79.039246999 78.708768522 
78.391949894 82.534276831 82.363573769 82.154194166 81.912504403 81.643955084 81.353218142 81.044753631 80.722254847 
80.389491975 80.050348888 79.708453059 79.367699868 79.032265083 78.706415891 78.39478449 82.50855662 82.341421777 
82.134678089 81.895003097 81.628088116 81.338548484 81.031088644 80.70964327 80.378120249 80.040235697 79.700043324 
79.361254674 79.028253252 78.705298351 78.396715344 81.203778787 81.367550988 81.582564604 81.641484413 82.022529643 
82.006505409 82.513152047 82.440269948 83.053201441 82.933135098 83.647519031 83.483327701 84.304929461 84.093725176 
85.036074104 84.770006374 85.851510046 85.517859134 86.758507622 86.340124364 87.755701223 87.232006359 88.824882619 
88.17442713 89.917513359 89.122975176 90.934914053 89.993328239 91.700595371 90.641299592 90.839189346 81.757097677 
81.970064461 82.026583549 82.118824745 82.387222404 82.389074307 82.819852022 82.750785849 83.315496276 83.18653296 
83.871100128 83.686898478 84.487461217 84.24710189 85.165873331 84.864110376 85.905995124 85.533985497 86.701254542 
86.247929282 87.533659094 86.987422215 88.365569287 87.71835788 89.128457599 88.381149272 89.707949806 88.880940163 
89.927400142 89.074605595 88.76107637 82.266228305 82.515210951 82.429731656 82.548717023 82.706745773 82.725231434 
83.071830532 83.009345881 83.50862547 83.377372364 84.007085193 83.81331527 84.560411696 84.305398378 85.161261824 
84.843241323 85.799586903 85.41426781 86.457796277 86.000470649 87.105733932 86.573938966 87.694022914 87.091142952 
88.145647812 87.486834386 88.346581007 87.667182546 88.13794609 87.503630334 86.832847691 82.719797164 82.992369855 
82.783678821 82.923291188 82.976279106 83.010139026 83.266973606 83.214262899 83.634278275 83.507579457 84.061827159 
83.868892858 84.536143439 84.280754053 85.043018545 84.726651976 85.564515168 85.187492315 86.075069316 85.638971459 
86.537392889 86.04717546 86.897267949 86.365168612 87.077948825 86.528396646 86.976066087 86.451560717 86.459836096 
86.027821678 85.132914306 83.110432328 83.395225998 83.083792607 83.237968143 83.193793532 83.241714274 83.407103184 
83.366725265 83.698145613 83.582104716 84.045907527 83.863095456 84.431702079 84.188199169 84.835955366 84.536210349 
85.235187302 84.883735682 85.599341301 85.202538019 85.888004514 85.456567759 86.047122815 85.599197061 86.006511902 
85.571183196 85.678275492 85.299852499 84.960249044 84.701088273 83.686367109 83.43444415 83.72155887 83.328113119 
83.491478332 83.360070658 83.420533239 83.496122348 83.469962831 83.708156598 83.607721287 83.972057002 83.807060155 
84.265375341 84.043500829 84.564979832 84.293252798 84.844448883 84.530579933 85.071531481 84.725525803 85.205926085 
84.842291972 85.197655382 84.837585753 84.985805293 84.65979392 84.500096387 84.249907226 83.665153693 83.545107351 
82.486268982 83.691104709 83.972335928 83.516948502 83.684710743 83.477684089 83.549001636 83.539558342 83.528712649 
83.67337968 83.592081318 83.853392295 83.711629414 84.055096615 83.861782355 84.253430948 84.017290875 84.42067081 
84.151766332 84.524854538 84.235409981 84.528068626 84.234766236 84.386144036 84.111005512 84.048782689 83.821102825 
83.46196572 83.31918582 82.573791169 82.560644895 81.509136348 83.882342669 84.151410368 83.652914535 83.820785733 
83.55056092 83.630877218 83.543435544 83.548179836 83.602797607 83.54259891 83.702324581 83.587169106 83.816846403 
83.656193836 83.920836851 83.724668306 83.986980088 83.766320828 83.984718641 83.753327711 83.880274962 83.655101063 
83.6357741 83.438543419 83.211527184 83.068805246 82.567828951 82.511546203 81.671142353 81.736835375 80.725236657 
84.012445688 84.264421256 83.739606448 83.904246062 83.583410788 83.670641185 83.514347513 83.534070256 83.504924255 
83.466648933 83.529793196 83.442830579 83.564096628 83.438036085 83.583059071 83.428190069 83.560649145 83.388738826 
83.4691287 83.293891287 83.278853489 83.117112107 82.959067081 82.830551765 82.478896613 82.407193708 81.810829402 
81.822155434 80.934986279 81.056946705 80.103559184 84.086567678 84.318394948 83.782095093 83.940558936 83.581301579 
83.673593858 83.45820824 83.491877779 83.387429075 83.370639374 83.345099837 83.286312304 83.307719231 83.216240416 
83.25193252 83.13800418 83.154089867 83.029033021 82.98952069 82.866825355 82.733136545 82.628280165 82.360319499 
82.29112442 81.848279013 81.834532852 81.178744232 81.241736043 80.341833308 80.502104879 79.615661891 84.111536856 
84.32114739 83.785639567 83.936024221 83.549566182 83.644967954 83.380851671 83.426902294 83.256833537 83.2601304 
83.155596634 83.123789055 83.05579557 82.997406667 82.936118506 82.860801273 82.775432392 82.693974744 82.552561946 
82.477410546 82.246887535 82.191815321 81.839052223 81.819604462 81.312743105 81.345423525 80.656964302 80.758263061 
79.868574155 80.053854932 79.23672275 84.09396388 84.280886169 83.755899224 83.896785086 83.49332947 83.590254281 
83.28736632 83.344081598 83.118352813 83.140180898 82.966949245 82.960277102 82.814118471 82.786498196 82.641058178 
82.601234847 82.429324019 82.387198685 82.161172357 82.127887118 81.819857085 81.807584077 81.39091012 81.412623179 
80.863061678 80.932151177 80.230440195 80.359733969 79.494711255 79.695026662 78.945437157 84.041047878 84.205413012 
83.698654117 83.829338659 83.417534959 83.514621767 83.182337117 83.248034249 82.97655759 83.014610289 82.783520241 
82.799314561 82.586704812 82.586752763 82.36993499 82.361977397 82.117759161 82.110398031 81.815353505 81.818292224 
81.449571566 81.473254283 81.009970059 81.065094979 80.489142695 80.586421633 79.88508653 80.034024032 79.20212702 
79.410365961 78.724191398 83.95978141 84.102525257 83.61952099 83.739545848 83.326782007 83.422845215 83.069700836 
83.14260087 82.83484986 82.887057873 82.608170404 82.643846306 82.375830025 82.40039383 82.124250781 82.144270474 
81.840633858 81.863526466 81.513204594 81.54714654 81.131995262 81.185520377 80.689288819 80.7712678 80.181142618 
80.299807274 79.607904729 79.770309936 78.975618484 79.186711672 78.558681723 83.856653595 83.979217438 83.523567627 
83.633239671 83.225254392 83.319523811 82.952890882 83.031378917 82.695828995 82.759939805 82.442853729 82.49570501 
82.182656534 82.22834361 81.904095812 81.948161776 81.596948113 81.645470114 81.251981907 81.311752433 80.861955375 
80.939958238 80.421765637 80.524825561 79.92954391 80.064043116 79.387419164 79.558454825 78.802517831 79.013103201 
78.43728908 83.737752136 83.841982331 83.415725254 83.515632313 83.116745568 83.208799941 82.834785738 82.917558816 
82.561662576 82.635802931 82.288907681 82.356185022 82.007451183 82.071213181 81.708594705 81.773131509 81.384487651 
81.454600908 81.028110699 81.109279467 80.634382474 80.732123225 80.200297646 80.319901372 79.72569834 79.871839448 
79.213874963 79.389983725 78.671990452 78.879786966 78.350475611 83.608564497 83.696611839 83.300498108 83.391220477 
83.004683056 83.094174075 82.717744412 82.803750267 82.433938618 82.516165211 82.146832725 82.22640136 81.849885486 
81.928888245 81.536533739 81.61809133 81.200675454 81.288697481 80.837760348 80.936302751 80.444095889 80.557508863 
80.018569196 80.150731352 79.562090469 79.716321272 79.078747609 79.257293851 78.575561456 78.779161582 78.290546558 
83.474078537 83.54819754 83.181671223 83.264390275 82.892045917 82.979016934 82.6039402 82.692405675 82.313717503 
82.402554891 82.017055722 82.106643944 81.709421945 81.80099632 81.386062775 81.481770556 81.042990804 81.145646487 
80.676975377 80.789613036 80.286140114 80.411958837 79.870473999 80.01216829 79.431839471 79.591625647 78.974696342 
79.153809689 78.506002722 78.704390536 78.251298178 83.338582804 83.400931151 83.062616655 83.138620573 82.781379871 
82.866079142 82.494986505 82.585338918 82.201869841 82.296238983 81.899586474 81.997418562 81.585081637 81.686960706 
81.255578325 81.362882669 80.90846369 81.023017804 80.542172981 80.666001065 80.155983581 80.291251442 79.75080131 
79.89945627 79.329257522 79.492455034 78.895888406 79.074213138 78.457408068 78.650287312 78.227863037 83.205566698 
83.258704784 82.946498164 83.016985925 82.674909206 82.75769906 82.39245831 82.484339995 82.099108923 82.197947203 
81.794060155 81.898680054 81.475899119 81.586244284 81.143088272 81.259876337 80.794543633 80.918722957 80.429919384 
80.562618401 80.04938328 80.192060159 79.654797006 79.808480495 79.249185402 79.414315202 78.837098588 79.013756731 
78.424955721 78.612001764 78.216062828 83.078520495 83.124511176 82.835775153 82.90215891 82.574446162 82.656108981 
82.297408543 82.390786895 82.005816025 82.108490634 81.700371232 81.810759463 81.38076528 81.498182996 81.046958366 
81.171377223 80.69885542 80.830660361 80.337078053 80.476822776 79.962935798 80.111193795 79.578589091 79.735702359 
79.187406106 79.353432017 78.794104274 78.968562707 78.404777292 78.586098864 78.212575986 82.959835385 83.00104376 
82.732705386 82.796311674 82.481698244 82.562939791 82.21088131 82.305854546 81.922459485 82.028475082 81.618099494 
81.733282225 81.29875765 81.422108702 80.965452215 81.09621277 80.619133547 80.757044432 80.261049019 80.406308226 
79.893304837 80.045723562 79.518515871 79.677976416 79.140354216 79.306461999 78.763474144 78.935217838 78.393427405 
78.569438653 78.214773114 82.85190346 82.890296759 82.639047442 82.701417563 82.39797382 82.479524622 82.133621519 
82.230521662 81.849109324 81.958412745 81.546929856 81.666482612 81.229064748 81.357371161 80.897253141 81.033238824 
80.553350968 80.696429817 80.19939258 80.348926019 79.837841136 79.993401389 79.471732539 79.632864846 79.105012175 
79.270695585 78.742150599 78.911266866 78.388553446 78.559355995 78.220531253 82.756317777 82.794065217 82.556162474 
82.618751943 82.324486218 82.407201663 82.066382964 82.165575944 81.785949204 81.898530428 81.486566205 81.610018286 
81.170704965 81.303448498 80.841087203 80.981650337 80.500038661 80.647325453 80.150045155 80.303200187 79.794295066 
79.952371036 79.435916771 79.598041907 79.078906687 79.243954046 78.727838919 78.894400555 78.387776522 78.553941913 
78.227969839 82.674772313 82.713644968 82.485515224 82.549693085 82.261857087 82.34681605 82.009633321 82.111617608 
81.733282676 81.849174553 81.436742157 81.564072718 81.123235279 81.259958235 80.795832086 80.940393551 80.457594821 
80.608606205 80.111429589 80.267635543 79.760621576 79.92087299 79.408869621 79.571794535 79.060105353 79.224386968 
78.718702782 78.882756492 78.389573189 78.551640189 78.235773487 82.608162042 82.650132649 82.427875307 82.495022468 
82.211018551 82.299121321 81.963756235 82.069162567 81.691040558 81.81061405 81.397127605 81.528364095 81.085862431 
81.226562393 80.760728567 80.909072629 80.424996129 80.579418366 80.082061538 80.241022923 79.735584257 79.897648842 
79.389114461 79.552825795 79.046807708 79.210570234 78.713031335 78.875195477 78.392466191 78.551021686 78.242938081 
82.557582898 82.604225672 82.384017787 82.455525545 82.172414652 82.264680545 81.929058278 82.03864343 81.659283665 
81.782946255 81.367634882 81.502948227 81.058245343 81.202872956 80.734884683 80.886954876 80.401298623 80.558983944 
80.061051101 80.222743446 79.717754495 79.881743218 79.375293966 79.540049781 79.037842572 79.201500268 78.709759831 
78.870411888 78.39559599 78.551291126 78.24859144 82.523431839 82.576422213 82.354523496 82.431691707 82.146502786 
82.24396692 81.905867491 82.020211854 81.638105262 81.766295595 81.348019849 81.487621251 81.040003224 81.18875412 
80.71797893 80.873872037 80.385844467 80.547003556 80.047406648 80.211867026 79.706311848 79.872501378 79.36656767 
79.532592812 79.032357153 79.196291355 78.708035359 78.86781907 78.398032597 78.551660697 78.252166047 82.506306818 
82.339679578 82.133454131 81.894234078 81.62753435 81.338287201 81.030912979 80.709663246 80.378260879 80.040633101 
79.700743686 79.362410601 79.029817561 78.707325089 78.399353841 77.840188882 77.831526651 77.817335697 77.797931777 
77.773736602 77.745571388 77.714171525 77.680688193 77.646536386 77.613302107 77.583377717 77.559435271 77.5450618 
77.544873731 77.564822157 77.612750975 77.698777974 77.836425994 78.04366649 78.34404324 78.76808638 79.355695506 
80.156957588 81.232737028 82.65288712 84.489175003 86.798941447 89.595814701 77.601488834 77.589517174 77.569581205 
77.541969675 77.50693711 77.464831442 77.415998687 77.361074944 77.300729734 77.235983407 77.168034639 77.098323325 
77.029098423 76.963107063 76.904249617 76.857859457 76.831470127 76.835664794 76.885145733 77.000816255 77.211772999 
77.558694749 78.097642301 78.903744198 80.075098328 81.732606955 84.011089152 87.032760854 77.395128305 77.380044977 
77.354863837 77.319629904 77.274341932 77.218969704 77.153638684 77.078260164 76.992839349 76.897482162 76.792240679 
76.677341621 76.553067435 76.420221197 76.279890747 76.134320688 75.986809767 75.843020217 75.711982017 75.607444888 
75.551394937 75.576993591 75.73478275 76.100182249 76.78335202 77.93997963 79.77713845 82.548953914 77.225080667 
77.207231121 77.177392719 77.135455951 77.0810619 77.014104195 76.933998245 76.840419196 76.73249385 76.609419043 
76.47025507 76.313783043 76.138437345 75.94277032 75.725047846 75.483433593 75.216700225 74.923937073 74.606114221 
74.266593771 73.913945044 73.564842466 73.250258099 73.02435848 72.978902321 73.264596771 74.117787782 75.893914787 
77.094402801 77.074389792 77.040846084 76.993436694 76.931849786 76.855402696 76.763319466 76.654757483 76.528377335 
76.382562546 76.215327287 76.024103761 75.805878618 75.556924116 75.272648265 74.947782454 74.575854022 74.149500123 
73.660615318 73.10040681 72.460445117 71.734215081 70.920867042 70.031388867 69.101658229 68.215325932 67.543926483 
67.421308432 77.005903819 76.98425263 76.948132479 76.89688417 76.830149599 76.746996529 76.64658039 76.527459816 
76.387973712 76.225857782 76.038508595 75.822292938 75.573035016 75.285226905 74.952325639 74.565665258 74.115129397 
73.587614401 72.967087359 72.233804109 71.363347412 70.325807302 69.085415677 67.600979176 65.828756625 63.732254482 
61.306820684 58.648855836 76.961094648 76.938770313 76.90125186 76.848057984 76.778626377 76.69208483 76.587251172 
76.46273803 76.316323928 76.145843346 75.947886869 75.718671937 75.453123644 75.144960304 74.78615054 74.366729078 
73.873917438 73.291739371 72.599489015 71.770719006 70.771213218 69.556296293 68.066973488 66.22484018 63.925192669 
61.026978353 57.342111166 52.633646292 76.961094648 76.938770313 76.90125186 76.848057984 76.778626377 76.69208483 
76.587251172 76.46273803 76.316323928 76.145843346 75.947886869 75.718671937 75.453123644 75.144960304 74.78615054 
74.366729078 73.873917438 73.291739371 72.599489015 71.770719006 70.771213218 69.556296293 68.066973488 66.22484018 
63.925192669 61.026978353 57.342111166 52.633646292 77.005903819 76.98425263 76.948132479 76.89688417 76.830149599 
76.746996529 76.64658039 76.527459816 76.387973712 76.225857782 76.038508595 75.822292938 75.573035016 75.285226905 
74.952325639 74.565665258 74.115129397 73.587614401 72.967087359 72.233804109 71.363347412 70.325807302 69.085415677 
67.600979176 65.828756625 63.732254482 61.306820684 58.648855836 77.094402801 77.074389792 77.040846084 76.993436694 
76.931849786 76.855402696 76.763319466 76.654757483 76.528377335 76.382562546 76.215327287 76.024103761 75.805878618 
75.556924116 75.272648265 74.947782454 74.575854022 74.149500123 73.660615318 73.10040681 72.460445117 71.734215081 
70.920867042 70.031388867 69.101658229 68.215325932 67.543926483 67.421308432 77.225080667 77.207231121 77.177392719 
77.135455951 77.0810619 77.014104195 76.933998245 76.840419196 76.73249385 76.609419043 76.47025507 76.313783043 
76.138437345 75.94277032 75.725047846 75.483433593 75.216700225 74.923937073 74.606114221 74.266593771 73.913945044 
73.564842466 73.250258099 73.02435848 72.978902321 73.264596771 74.117787782 75.893914787 77.395128305 77.380044977 
77.354863837 77.319629904 77.274341932 77.218969704 77.153638684 77.078260164 76.992839349 76.897482162 76.792240679 
76.677341621 76.553067435 76.420221197 76.279890747 76.134320688 75.986809767 75.843020217 75.711982017 75.607444888 
75.551394937 75.576993591 75.73478275 76.100182249 76.78335202 77.93997963 79.77713845 82.548953914 77.601488834 
77.589517174 77.569581205 77.541969675 77.50693711 77.464831442 77.415998687 77.361074944 77.300729734 77.235983407 
77.168034639 77.098323325 77.029098423 76.963107063 76.904249617 76.857859457 76.831470127 76.835664794 76.885145733 
77.000816255 77.211772999 77.558694749 78.097642301 78.903744198 80.075098328 81.732606955 84.011089152 87.032760854 
77.840188882 77.831526651 77.817335697 77.797931777 77.773736602 77.745571388 77.714171525 77.680688193 77.646536386 
77.613302107 77.583377717 77.559435271 77.5450618 77.544873731 77.564822157 77.612750975 77.698777974 77.836425994 
78.04366649 78.34404324 78.76808638 79.355695506 80.156957588 81.232737028 82.65288712 84.489175003 86.798941447 
89.595814701 77.973424212 77.84404504 77.966438951 77.838244121 77.955119191 77.826834544 77.939799887 77.809982285 
77.921221604 77.788162657 77.900028986 77.761938866 77.877294645 77.732085371 77.85451552 77.699598386 77.833145578 
77.665598556 77.815425989 77.631880135 77.804000252 77.600124881 77.801985777 77.573049244 77.813708949 77.55375289 
77.844295465 77.546219512 77.900559476 77.555792659 77.99092253 77.589218159 78.12654476 77.655609986 78.321664942 
77.766849717 78.594325346 77.938324131 78.968113065 78.190954519 79.472512188 78.551583068 80.144087611 79.055535998 
81.027428695 79.747649341 82.173230158 80.683635091 83.635407498 81.928960897 85.461755945 83.555125825 87.677409333 
85.627730549 90.259080609 88.184321848 91.193743173 77.720146702 77.605923928 77.709784212 77.597920423 77.692772437 
77.581994973 77.669220841 77.55818726 77.639519815 77.526816065 77.604243966 77.48818682 77.564081145 77.442690655 
77.519829278 77.390814842 77.472534601 77.333164974 77.423484361 77.270570883 77.374577117 77.204035464 77.327754001 
77.135074301 77.286079638 77.065553064 77.253214079 76.997694478 77.234159933 76.934990401 77.235518311 76.881951974 
77.266410253 76.845137342 77.338957473 76.833349475 77.469719591 76.859332694 77.681177094 76.940588061 78.003893051 
77.102198069 78.478477456 77.378807824 79.158774042 77.81859126 80.113637923 78.486975359 81.427845753 79.470793728 
83.197917006 80.879700074 85.519216652 82.842885817 88.457184288 85.489294443 88.917255744 77.497213491 77.400128351 
77.483643327 77.390130606 77.461003543 77.369985843 77.42955627 77.339710661 77.389228359 77.299479243 77.340428803 
77.249120814 77.283143572 77.188732615 77.217846511 77.118389664 77.144727515 77.037937022 77.064499658 76.947538284 
76.977635618 76.847160049 76.885015454 76.737035027 76.787998756 76.617309036 76.688411071 76.488600523 76.588575968 
76.351930033 76.492516625 76.208665223 76.405815597 76.061763103 76.336495528 75.915601967 76.296738874 75.777475046 
76.304286861 75.658495166 76.385055406 75.57659387 76.576925471 75.558901481 76.934070535 75.646968492 77.533318466 
75.90342402 78.480637699 76.420560113 79.915928899 77.330506714 82.012048154 78.815790975 84.954335163 81.1051256 
84.467289973 77.30863448 77.230621818 77.292182901 77.218653619 77.264551357 77.194860844 77.225857895 77.158921648 
77.175872912 77.11075926 77.114526262 77.050138898 77.04159152 76.976560534 76.956720094 76.889781755 76.859724058 
76.788998893 76.750105945 76.673468747 76.627382848 76.542328952 76.491112283 76.394494001 76.340747029 76.228621241 
76.175622835 76.043039524 75.995767232 75.836346097 75.80128661 75.606532374 75.59310549 75.352166573 75.373894135 
75.072112641 75.148623126 74.766382212 74.926154532 74.436951342 74.722027036 74.089576724 74.561938377 73.736724862 
74.487811148 73.40164899 74.566104835 73.126162626 74.900570451 72.982051429 75.648068979 73.088894551 77.035868212 
73.638935554 79.36610252 74.922072999 77.364256304 77.158016345 77.100341877 77.139057083 77.086971409 77.107253045 
77.060252556 77.06238732 77.019739516 77.004172806 76.965214222 76.932263456 76.896177724 76.845837463 76.811956456 
76.744414897 76.711689832 76.626743623 76.594242973 76.491720639 76.458196677 76.337787938 76.301648994 76.163062123 
76.122429523 75.965266456 75.917803931 75.741669191 75.684200164 75.489077707 75.417669979 75.204051909 75.113220396 
74.882511981 74.76478013 74.520343827 74.365653218 74.113907878 73.907964321 73.660416743 73.383156897 73.160034047 
72.782607275 72.618140989 72.098451187 72.050124264 71.326546454 71.490058299 70.471420536 71.003978771 69.554884225 
70.713842456 68.633983301 70.832439499 67.832291846 71.706024997 67.390586044 67.760739302 77.048236507 77.012083842 
77.02738061 76.997689292 76.992296011 76.96882051 76.942831339 76.925113445 76.8784622 76.866205363 76.798377487 
76.791264277 76.701770832 76.699550735 76.587361746 76.589723621 76.453854579 76.460441158 76.29916637 76.309748292 
76.120907996 76.135064616 75.916096895 75.933288105 75.681054462 75.700676628 75.410934139 75.432346908 75.100230026 
75.122097879 74.7418702 74.762498195 74.327283378 74.344126132 73.846184517 73.855346411 73.286260553 73.281621405 
72.632663189 72.605045253 71.86864533 71.803331685 70.975491901 70.84948092 69.93412871 69.710253926 68.728635135 
68.346798402 67.354843669 66.715691537 65.836990319 64.774710173 64.264559492 62.498864805 62.857023967 59.920405041 
57.231466809 76.981397687 76.96744594 76.959392064 76.952638295 76.922374404 76.922637561 76.869975098 76.87726309 
76.801644617 76.816043964 76.716519967 76.738019064 76.613458791 76.642417655 76.490996374 76.527754774 76.347446282 
76.392331184 76.180306246 76.233923837 75.986635289 76.049847329 75.762636619 75.836368668 75.503651067 75.589083327 
75.203662185 75.30237237 74.855265506 74.96901805 74.449071737 74.580152414 73.973332785 74.124446345 73.413153428 
73.587391685 72.749886032 72.950669002 71.959652432 72.190754006 71.012242553 71.277465421 69.86886376 70.171136903 
68.480017577 68.820085664 66.782627282 67.155670274 64.696756376 65.08614116 62.125184534 62.488179615 58.958690087 
59.196016699 55.101514812 54.992952613 49.614420146 76.959015825 76.96744594 76.936626428 76.952638295 76.89885545 
76.922637561 76.845541534 76.87726309 76.775813821 76.816043964 76.68900142 76.738019064 76.583738413 76.642417655 
76.458534761 76.527754774 76.311576302 76.392331184 76.14011998 76.233923837 75.941159791 76.049847329 75.710631612 
75.836368668 75.443374334 75.589083327 75.133139303 75.30237237 74.771627377 74.96901805 74.348798393 74.580152414 
73.851732743 74.124446345 73.263803069 73.587391685 72.564061395 72.950669002 71.725133004 72.190754006 70.711727576 
71.277465421 69.477361209 70.171136903 67.960248963 68.820085664 66.077263061 67.155670274 63.715428568 65.08614116 
60.718749792 62.488179615 56.871008539 59.196016699 51.87064461 54.992952613 49.614420146 76.981397687 77.012083842 
76.959392064 76.997689292 76.922374404 76.96882051 76.869975098 76.925113445 76.801644617 76.866205363 76.716519967 
76.791264277 76.613458791 76.699550735 76.490996374 76.589723621 76.347446282 76.460441158 76.180306246 76.309748292 
75.986635289 76.135064616 75.762636619 75.933288105 75.503651067 75.700676628 75.203662185 75.432346908 74.855265506 
75.122097879 74.449071737 74.762498195 73.973332785 74.344126132 73.413153428 73.855346411 72.749886032 73.281621405 
71.959652432 72.605045253 71.012242553 71.803331685 69.86886376 70.84948092 68.480017577 69.710253926 66.782627282 
68.346798402 64.696756376 66.715691537 62.125184534 64.774710173 58.958690087 62.498864805 55.101514812 59.920405041 
57.231466809 77.048236507 77.100341877 77.02738061 77.086971409 76.992296011 77.060252556 76.942831339 77.019739516 
76.8784622 76.965214222 76.798377487 76.896177724 76.701770832 76.811956456 76.587361746 76.711689832 76.453854579 
76.594242973 76.29916637 76.458196677 76.120907996 76.301648994 75.916096895 76.122429523 75.681054462 75.917803931 
75.410934139 75.684200164 75.100230026 75.417669979 74.7418702 75.113220396 74.327283378 74.76478013 73.846184517 
74.365653218 73.286260553 73.907964321 72.632663189 73.383156897 71.86864533 72.782607275 70.975491901 72.098451187 
69.93412871 71.326546454 68.728635135 70.471420536 67.354843669 69.554884225 65.836990319 68.633983301 64.264559492 
67.832291846 62.857023967 67.390586044 67.760739302 77.158016345 77.230621818 77.139057083 77.218653619 77.107253045 
77.194860844 77.06238732 77.158921648 77.004172806 77.11075926 76.932263456 77.050138898 76.845837463 76.976560534 
76.744414897 76.889781755 76.626743623 76.788998893 76.491720639 76.673468747 76.337787938 76.542328952 76.163062123 
76.394494001 75.965266456 76.228621241 75.741669191 76.043039524 75.489077707 75.836346097 75.204051909 75.606532374 
74.882511981 75.352166573 74.520343827 75.072112641 74.113907878 74.766382212 73.660416743 74.436951342 73.160034047 
74.089576724 72.618140989 73.736724862 72.050124264 73.40164899 71.490058299 73.126162626 71.003978771 72.982051429 
70.713842456 73.088894551 70.832439499 73.638935554 71.706024997 74.922072999 77.364256304 77.30863448 77.400128351 
77.292182901 77.390130606 77.264551357 77.369985843 77.225857895 77.339710661 77.175872912 77.299479243 77.114526262 
77.249120814 77.04159152 77.188732615 76.956720094 77.118389664 76.859724058 77.037937022 76.750105945 76.947538284 
76.627382848 76.847160049 76.491112283 76.737035027 76.340747029 76.617309036 76.175622835 76.488600523 75.995767232 
76.351930033 75.80128661 76.208665223 75.59310549 76.061763103 75.373894135 75.915601967 75.148623126 75.777475046 
74.926154532 75.658495166 74.722027036 75.57659387 74.561938377 75.558901481 74.487811148 75.646968492 74.566104835 
75.90342402 74.900570451 76.420560113 75.648068979 77.330506714 77.035868212 78.815790975 79.36610252 81.1051256 
84.467289973 77.497213491 77.605923928 77.483643327 77.597920423 77.461003543 77.581994973 77.42955627 77.55818726 
77.389228359 77.526816065 77.340428803 77.48818682 77.283143572 77.442690655 77.217846511 77.390814842 77.144727515 
77.333164974 77.064499658 77.270570883 76.977635618 77.204035464 76.885015454 77.135074301 76.787998756 77.065553064 
76.688411071 76.997694478 76.588575968 76.934990401 76.492516625 76.881951974 76.405815597 76.845137342 76.336495528 
76.833349475 76.296738874 76.859332694 76.304286861 76.940588061 76.385055406 77.102198069 76.576925471 77.378807824 
76.934070535 77.81859126 77.533318466 78.486975359 78.480637699 79.470793728 79.915928899 80.879700074 82.012048154 
82.842885817 84.954335163 85.489294443 88.917255744 77.720146702 77.84404504 77.709784212 77.838244121 77.692772437 
77.826834544 77.669220841 77.809982285 77.639519815 77.788162657 77.604243966 77.761938866 77.564081145 77.732085371 
77.519829278 77.699598386 77.472534601 77.665598556 77.423484361 77.631880135 77.374577117 77.600124881 77.327754001 
77.573049244 77.286079638 77.55375289 77.253214079 77.546219512 77.234159933 77.555792659 77.235518311 77.589218159 
77.266410253 77.655609986 77.338957473 77.766849717 77.469719591 77.938324131 77.681177094 78.190954519 78.003893051 
78.551583068 78.478477456 79.055535998 79.158774042 79.747649341 80.113637923 80.683635091 81.427845753 81.928960897 
83.197917006 83.555125825 85.519216652 85.627730549 88.457184288 88.184321848 91.193743173 77.973424212 77.966438951 
77.955119191 77.939799887 77.921221604 77.900028986 77.877294645 77.85451552 77.833145578 77.815425989 77.804000252 
77.801985777 77.813708949 77.844295465 77.900559476 77.99092253 78.12654476 78.321664942 78.594325346 78.968113065 
79.472512188 80.144087611 81.027428695 82.173230158 83.635407498 85.461755945 87.677409333 90.259080609 78.396715344 
78.39478449 78.391949894 78.388787961 78.386189044 78.385274604 78.387800699 78.395367548 78.41054213 78.436177303 
78.475734464 78.533714539 78.615390371 78.727141606 78.87698559 79.074304857 79.330935764 79.660615969 80.080030741 
80.608579532 81.268008569 82.082261174 83.074694582 84.265258357 85.663931454 87.261124402 89.014028086 90.829180448 
78.705298351 78.706415891 78.708768522 78.713042192 78.720148775 78.731532818 78.748963624 78.774362328 78.810507074 
78.860546135 78.928412307 79.01863648 79.136857723 79.289525559 79.484591454 79.731168388 80.03985398 80.422777305 
80.893730467 81.467348643 82.158826317 82.981926459 83.947089309 85.057028845 86.301260024 87.648103967 89.035419891 
90.360935133 79.028253252 79.032265083 79.039246999 79.050187431 79.065898818 79.088019161 79.118317312 79.158899098 
79.212613485 79.282655489 79.373073411 79.488362319 79.633954677 79.816096673 80.042103146 80.319974979 80.658767821 
81.068288976 81.558787823 82.139898486 82.820214808 83.604940885 84.493932398 85.477360461 86.532184072 87.615718618 
88.661050179 89.573051716 79.361254674 79.367699868 79.378730369 79.395328893 79.418395533 79.44954968 79.490330515 
79.543201504 79.610649963 79.695984051 79.802824705 79.935692661 80.099379167 80.299700433 80.542630752 80.835191933 
81.184399457 81.597437183 82.08094996 82.640228916 83.278167267 83.993207927 84.777506885 85.614073185 86.473335665 
87.310031333 88.061242882 88.646592409 79.700043324 79.708453059 79.722846651 79.744192324 79.773264769 79.811448568 
79.860537126 79.922530113 80.000029769 80.095732651 80.213314601 80.3565026 80.529540927 80.737430429 80.985045112 
81.27771723 81.62057454 82.018422516 82.474660768 82.990840754 83.565617303 84.192700743 84.859738521 85.546113879 
86.220803472 86.841211632 87.352906692 87.69219718 80.040235697 80.050348888 80.067533022 80.092633351 80.126291673 
80.170046026 80.225129301 80.293464094 80.377355299 80.479275316 80.60204561 80.749106747 80.92386982 81.130158051 
81.371919241 81.652806087 81.976227989 82.344554209 82.758972802 83.218002689 83.717470551 84.248291014 84.796139088 
85.339459563 85.849164482 86.287755158 86.611000866 86.771166507 80.378120249 80.389491975 80.409023107 80.436929549 
80.474213596 80.521859567 80.581131895 80.653467519 80.740767458 80.845079006 80.968676351 81.114224049 81.284434965 
81.481905609 81.709436475 81.969520319 82.263611914 82.592655402 82.955698716 83.349441485 83.767937696 84.201140326 
84.634123335 85.046733441 85.413280864 85.702744497 85.880876038 85.913104222 80.70964327 80.722254847 80.743532012 
80.773859278 80.813894857 80.864365316 80.926362282 81.00083506 81.089381147 81.193327521 81.314412241 81.454448741 
81.615385973 81.798750878 82.006374111 82.239197264 82.497759637 82.78125663 83.087588871 83.412479535 83.749023122 
84.087102871 84.412920516 84.708693967 84.952913479 85.121048178 85.187492612 85.128599751 81.031088644 81.044753631 
81.06763119 81.099973597 81.142293172 81.195156836 81.258983595 81.334636845 81.423014034 81.524932453 81.641509055 
81.773731194 81.922520809 82.08878539 82.272956243 82.475111004 82.694681812 82.929845165 83.177599539 83.433238394 
83.689817165 83.937868547 84.165222887 84.357185841 84.496468425 84.564697728 84.543540788 84.417755861 81.338548484 
81.353218142 81.377815088 81.412259048 81.456915885 81.511995856 81.577746582 81.654350214 81.742311749 81.841849766 
81.953276721 82.076977537 82.212879293 82.36101192 82.520860222 82.691504351 82.8714457 83.058225558 83.248332223 
83.436803784 83.617137212 83.781115618 83.918490978 84.01750996 84.065182101 84.048314368 83.954808251 83.775735158 
81.628088116 81.643955084 81.670360196 81.70739199 81.754973012 81.812857642 81.881128698 81.959592023 82.047971075 
82.146095552 82.253490299 82.369657261 82.493953591 82.625163106 82.76216038 82.903067008 83.045500416 83.186411112 
83.32201732 83.447333274 83.55650408 83.642450132 83.697053862 83.711390933 83.676261116 83.582931688 83.424441068 
83.196576623 81.895003097 81.912504403 81.94148049 81.981791067 82.033219761 82.095270528 82.167666705 82.2497467 
82.34066064 82.43976293 82.545803928 82.657518701 82.773412159 82.891440441 83.009586854 83.124934597 83.234629858 
83.334742065 83.421219239 83.48913602 83.533049566 83.547055905 83.524777821 83.459781655 83.346264446 83.179223675 
82.955639934 82.675482309 82.134678089 82.154194166 82.186477925 82.231364578 82.288202525 82.356452682 82.435286995 
82.523786468 82.620738755 82.724534377 82.833561891 82.945801637 83.058817686 83.169747346 83.275588225 83.372581782 
83.456794823 83.523893077 83.56901613 83.587046485 83.572875701 83.521078886 83.426795261 83.285534336 83.094019708 
82.850386821 82.555153327 82.211570331 82.341421777 82.363573769 82.400370563 82.451227277 82.515564664 82.592608774 
82.681090589 82.779944956 82.887209735 83.001224361 83.119327966 83.23905703 83.356942338 83.469405036 83.572251722 
83.660868125 83.73031103 83.774998169 83.789395713 83.767703215 83.704236493 83.593809822 83.432121854 83.21585132 
82.943563676 82.615753873 82.235820373 81.810083737 82.50855662 82.534276831 82.576711427 82.635461763 82.709829757 
82.798617851 82.900729082 83.014567079 83.137936155 83.268641435 83.403689007 83.539586213 83.672441955 83.797667098 
83.909974845 84.003580972 84.072203758 84.108963298 84.106879591 84.058869323 83.958140689 83.798485533 83.575270159 
83.285125166 82.927336511 82.503942259 82.020537983 81.486394154 78.252166047 78.399353841 78.24859144 78.398032597 
78.242938081 78.39559599 78.235773487 78.392466191 78.227969839 78.389573189 78.220531253 78.387776522 78.214773114 
78.388553446 78.212575986 78.393427405 78.216062828 78.404777292 78.227863037 78.424955721 78.251298178 78.457408068 
78.290546558 78.506002722 78.350475611 78.575561456 78.43728908 78.671990452 78.558681723 78.802517831 78.724191398 
78.975618484 78.945437157 79.20212702 79.23672275 79.494711255 79.615661891 79.868574155 80.103559184 80.341833308 
80.725236657 80.934986279 81.509136348 81.671142353 82.486268982 82.573791169 83.686367109 83.665153693 85.132914306 
84.960249044 86.832847691 86.459836096 88.76107637 88.13794609 90.839189346 89.927400142 91.700595371 78.551660697 
78.707325089 78.551291126 78.708035359 78.551021686 78.709759831 78.551640189 78.713031335 78.553941913 78.718702782 
78.559355995 78.727838919 78.569438653 78.742150599 78.586098864 78.763474144 78.612001764 78.794104274 78.650287312 
78.837098588 78.704390536 78.895888406 78.779161582 78.974696342 78.879786966 79.078747609 79.013103201 79.213874963 
79.186711672 79.387419164 79.410365961 79.607904729 79.695026662 79.88508653 80.053854932 80.230440195 80.502104879 
80.656964302 81.056946705 81.178744232 81.736835375 81.810829402 82.560644895 82.567828951 83.545107351 83.46196572 
84.701088273 84.500096387 86.027821678 85.678275492 87.503630334 86.976066087 89.074605595 88.346581007 90.641299592 
89.707949806 90.934914053 78.86781907 79.029817561 78.870411888 79.032357153 78.875195477 79.037842572 78.882756492 
79.046807708 78.894400555 79.060105353 78.911266866 79.078906687 78.935217838 79.105012175 78.968562707 79.140354216 
79.013756731 79.187406106 79.074213138 79.249185402 79.153809689 79.329257522 79.257293851 79.431839471 79.389983725 
79.562090469 79.558454825 79.72569834 79.770309936 79.92954391 80.034024032 80.181142618 80.359733969 80.489142695 
80.758263061 80.863061678 81.241736043 81.312743105 81.822155434 81.848279013 82.511546203 82.478896613 83.31918582 
83.211527184 84.249907226 84.048782689 85.299852499 84.985805293 86.451560717 86.006511902 87.667182546 87.077948825 
88.880940163 88.145647812 89.993328239 89.128457599 89.917513359 79.196291355 79.362410601 79.201500268 79.36656767 
79.210570234 79.375293966 79.224386968 79.389114461 79.243954046 79.408869621 79.270695585 79.435916771 79.306461999 
79.471732539 79.353432017 79.518515871 79.414315202 79.578589091 79.492455034 79.654797006 79.591625647 79.75080131 
79.716321272 79.870473999 79.871839448 80.018569196 80.064043116 80.200297646 80.299807274 80.421765637 80.586421633 
80.689288819 80.932151177 81.009970059 81.345423525 81.39091012 81.834532852 81.839052223 82.407193708 82.360319499 
83.068805246 82.959067081 83.821102825 83.6357741 84.65979392 84.386144036 85.571183196 85.197655382 86.528396646 
86.047122815 87.486834386 86.897267949 88.381149272 87.694022914 89.122975176 88.365569287 88.824882619 79.532592812 
79.700743686 79.540049781 79.706311848 79.552825795 79.717754495 79.571794535 79.735584257 79.598041907 79.760621576 
79.632864846 79.794295066 79.677976416 79.837841136 79.735702359 79.893304837 79.808480495 79.962935798 79.89945627 
80.04938328 80.01216829 80.155983581 80.150731352 80.286140114 80.319901372 80.444095889 80.524825561 80.634382474 
80.7712678 80.861955375 81.065094979 81.131995262 81.412623179 81.449571566 81.819604462 81.819857085 82.29112442 
82.246887535 82.830551765 82.733136545 83.438543419 83.278853489 84.111005512 83.880274962 84.837585753 84.528068626 
85.599197061 85.205926085 86.365168612 85.888004514 87.091142952 86.537392889 87.71835788 87.105733932 88.17442713 
87.533659094 87.755701223 79.872501378 80.040633101 79.881743218 80.047406648 79.897648842 80.061051101 79.92087299 
80.082061538 79.952371036 80.111429589 79.993401389 80.150045155 80.045723562 80.19939258 80.111193795 80.261049019 
80.192060159 80.337078053 80.291251442 80.429919384 80.411958837 80.542172981 80.557508863 80.676975377 80.732123225 
80.837760348 80.939958238 81.028110699 81.185520377 81.251981907 81.473254283 81.513204594 81.807584077 81.815353505 
82.191815321 82.161172357 82.628280165 82.552561946 83.117112107 82.98952069 83.655101063 83.4691287 84.234766236 
83.984718641 84.842291972 84.524854538 85.456567759 85.071531481 86.04717546 85.599341301 86.573938966 86.075069316 
86.987422215 86.457796277 87.232006359 86.701254542 86.758507622 80.211867026 80.378260879 80.222743446 80.385844467 
80.241022923 80.401298623 80.267635543 80.424996129 80.303200187 80.457594821 80.348926019 80.500038661 80.406308226 
80.553350968 80.476822776 80.619133547 80.562618401 80.69885542 80.666001065 80.794543633 80.789613036 80.90846369 
80.936302751 81.042990804 81.109279467 81.200675454 81.311752433 81.384487651 81.54714654 81.596948113 81.818292224 
81.840633858 82.127887118 82.117759161 82.477410546 82.429324019 82.866825355 82.775432392 83.293891287 83.154089867 
83.753327711 83.560649145 84.235409981 83.986980088 84.725525803 84.42067081 85.202538019 84.844448883 85.638971459 
85.235187302 86.000470649 85.564515168 86.247929282 85.799586903 86.340124364 85.905995124 85.851510046 80.547003556 
80.709663246 80.558983944 80.71797893 80.579418366 80.734884683 80.608606205 80.760728567 80.647325453 80.795832086 
80.696429817 80.841087203 80.757044432 80.897253141 80.830660361 80.965452215 80.918722957 81.046958366 81.023017804 
81.143088272 81.145646487 81.255578325 81.288697481 81.386062775 81.454600908 81.536533739 81.645470114 81.708594705 
81.863526466 81.904095812 82.110398031 82.124250781 82.387198685 82.36993499 82.693974744 82.641058178 83.029033021 
82.936118506 83.388738826 83.25193252 83.766320828 83.583059071 84.151766332 83.920836851 84.530579933 84.253430948 
84.883735682 84.564979832 85.187492315 84.835955366 85.41426781 85.043018545 85.533985497 85.161261824 85.517859134 
85.165873331 85.036074104 80.873872037 81.030912979 80.886954876 81.040003224 80.909072629 81.058245343 80.940393551 
81.085862431 80.981650337 81.123235279 81.033238824 81.170704965 81.09621277 81.229064748 81.171377223 81.29875765 
81.259876337 81.38076528 81.362882669 81.475899119 81.481770556 81.585081637 81.61809133 81.709421945 81.773131509 
81.849885486 81.948161776 82.007451183 82.144270474 82.182656534 82.361977397 82.375830025 82.601234847 82.586704812 
82.860801273 82.814118471 83.13800418 83.05579557 83.428190069 83.307719231 83.724668306 83.564096628 84.017290875 
83.816846403 84.293252798 84.055096615 84.536210349 84.265375341 84.726651976 84.431702079 84.843241323 84.536143439 
84.864110376 84.560411696 84.770006374 84.487461217 84.304929461 81.18875412 81.338287201 81.202872956 81.348019849 
81.226562393 81.367634882 81.259958235 81.397127605 81.303448498 81.436742157 81.357371161 81.486566205 81.422108702 
81.546929856 81.498182996 81.618099494 81.586244284 81.700371232 81.686960706 81.794060155 81.80099632 81.899586474 
81.928888245 82.017055722 82.071213181 82.146832725 82.22834361 82.288907681 82.40039383 82.442853729 82.586752763 
82.608170404 82.786498196 82.783520241 82.997406667 82.966949245 83.216240416 83.155596634 83.438036085 83.345099837 
83.656193836 83.529793196 83.861782355 83.702324581 84.043500829 83.853392295 84.188199169 83.972057002 84.280754053 
84.045907527 84.305398378 84.061827159 84.24710189 84.007085193 84.093725176 83.871100128 83.647519031 81.487621251 
81.62753435 81.502948227 81.638105262 81.528364095 81.659283665 81.564072718 81.691040558 81.610018286 81.733282676 
81.666482612 81.785949204 81.733282225 81.849109324 81.810759463 81.922459485 81.898680054 82.005816025 81.997418562 
82.099108923 82.106643944 82.201869841 82.22640136 82.313717503 82.356185022 82.433938618 82.49570501 82.561662576 
82.643846306 82.695828995 82.799314561 82.83484986 82.960277102 82.97655759 83.123789055 83.118352813 83.286312304 
83.256833537 83.442830579 83.387429075 83.587169106 83.504924255 83.711629414 83.602797607 83.807060155 83.67337968 
83.863095456 83.708156598 83.868892858 83.698145613 83.81331527 83.634278275 83.686898478 83.50862547 83.483327701 
83.315496276 83.053201441 81.766295595 81.894234078 81.782946255 81.905867491 81.81061405 81.929058278 81.849174553 
81.963756235 81.898530428 82.009633321 81.958412745 82.066382964 82.028475082 82.133621519 82.108490634 82.21088131 
82.197947203 82.297408543 82.296238983 82.39245831 82.402554891 82.494986505 82.516165211 82.6039402 82.635802931 
82.717744412 82.759939805 82.834785738 82.887057873 82.952890882 83.014610289 83.069700836 83.140180898 83.182337117 
83.2601304 83.28736632 83.370639374 83.380851671 83.466648933 83.45820824 83.54259891 83.514347513 83.592081318 
83.543435544 83.607721287 83.539558342 83.582104716 83.496122348 83.507579457 83.407103184 83.377372364 83.266973606 
83.18653296 83.071830532 82.933135098 82.819852022 82.513152047 82.020211854 82.133454131 82.03864343 82.146502786 
82.069162567 82.172414652 82.111617608 82.211018551 82.165575944 82.261857087 82.230521662 82.324486218 82.305854546 
82.39797382 82.390786895 82.481698244 82.484339995 82.574446162 82.585338918 82.674909206 82.692405675 82.781379871 
82.803750267 82.892045917 82.917558816 83.004683056 83.031378917 83.116745568 83.14260087 83.225254392 83.248034249 
83.326782007 83.344081598 83.417534959 83.426902294 83.49332947 83.491877779 83.549566182 83.534070256 83.581301579 
83.548179836 83.583410788 83.528712649 83.55056092 83.469962831 83.477684089 83.366725265 83.360070658 83.214262899 
83.193793532 83.009345881 82.976279106 82.750785849 82.706745773 82.440269948 82.387222404 82.022529643 82.24396692 
82.339679578 82.264680545 82.354523496 82.299121321 82.384017787 82.34681605 82.427875307 82.407201663 82.485515224 
82.479524622 82.556162474 82.562939791 82.639047442 82.656108981 82.732705386 82.75769906 82.835775153 82.866079142 
82.946498164 82.979016934 83.062616655 83.094174075 83.181671223 83.208799941 83.300498108 83.319523811 83.415725254 
83.422845215 83.523567627 83.514621767 83.61952099 83.590254281 83.698654117 83.644967954 83.755899224 83.673593858 
83.785639567 83.670641185 83.782095093 83.630877218 83.739606448 83.549001636 83.652914535 83.420533239 83.516948502 
83.241714274 83.328113119 83.010139026 83.083792607 82.725231434 82.783678821 82.389074307 82.429731656 82.006505409 
82.026583549 81.582564604 82.431691707 82.506306818 82.455525545 82.523431839 82.495022468 82.557582898 82.549693085 
82.608162042 82.618751943 82.674772313 82.701417563 82.756317777 82.796311674 82.85190346 82.90215891 82.959835385 
83.016985925 83.078520495 83.138620573 83.205566698 83.264390275 83.338582804 83.391220477 83.474078537 83.515632313 
83.608564497 83.633239671 83.737752136 83.739545848 83.856653595 83.829338659 83.95978141 83.896785086 84.041047878 
83.936024221 84.09396388 83.940558936 84.111536856 83.904246062 84.086567678 83.820785733 84.012445688 83.684710743 
83.882342669 83.491478332 83.691104709 83.237968143 83.43444415 82.923291188 83.110432328 82.548717023 82.719797164 
82.118824745 82.266228305 81.641484413 81.757097677 81.203778787 82.576422213 82.604225672 82.650132649 82.713644968 
82.794065217 82.890296759 83.00104376 83.124511176 83.258704784 83.400931151 83.54819754 83.696611839 83.841982331 
83.979217438 84.102525257 84.205413012 84.280886169 84.32114739 84.318394948 84.264421256 84.151410368 83.972335928 
83.72155887 83.395225998 82.992369855 82.515210951 81.970064461 81.367550988 80.293343973 80.840091795 81.389514204 
81.946440003 82.523073344 83.136030408 83.805597305 84.556043639 85.415001792 86.412537676 87.578803043 88.93819631 
90.496484802 92.217419949 93.982986463 79.672430352 80.325593665 80.935415471 81.518247225 82.094517351 82.687622235 
83.323777867 84.033296536 84.852465779 85.824192803 86.998948374 88.432829457 90.180518302 92.276074148 94.692054593 
79.077956799 79.827107783 80.485683568 81.080889289 81.640726425 82.193247328 82.767793171 83.397851554 84.123238304 
84.993822765 86.073388747 87.443216794 89.203138713 91.464595128 94.32421771 78.536520017 79.368175978 80.064462798 
80.662288915 81.19557241 81.694966921 82.190604811 82.714707127 83.305752361 84.012639028 84.901125407 86.062759318 
87.624325193 89.758018107 92.683159788 78.073484129 78.972104738 79.696765376 80.29251257 80.797359271 81.242872194 
81.657646954 82.070174831 82.512893181 83.026664555 83.668209089 84.520297631 85.709065753 87.427163733 89.9709871 
77.710590647 78.659085853 79.405394752 80.000081449 80.483461749 80.887089604 81.237335222 81.557923334 81.873721752 
82.214840772 82.622475081 83.159608343 83.927884954 85.09930705 86.977000431 77.463712465 78.444694826 79.208140928 
79.807478768 80.284106557 80.669276647 80.987375509 81.25904768 81.50405342 81.744482119 82.010143574 82.346738086 
82.832054486 83.607465357 84.947252433 77.341410242 78.337029502 79.114656743 79.727485147 80.21673861 80.613332398 
80.941780041 81.222338669 81.474451608 81.72028865 81.98940288 82.327238153 82.811307396 83.583041763 84.916817477 
77.343539735 78.336559594 79.125562206 79.760903941 80.282294115 80.720893338 81.102404106 81.450000871 81.788214763 
82.146671511 82.566311538 83.109655744 83.878441521 85.044927547 86.913631273 77.461744527 78.435202262 79.231896806 
79.896385221 80.465567783 80.970445448 81.438587669 81.898051341 82.380448445 82.926474959 83.592695626 84.462173733 
85.661860445 87.386499703 89.936325504 77.680234836 78.61833201 79.417033685 80.112656046 80.737940586 81.322540798 
81.895367314 82.488193065 83.138879444 83.896359746 84.826942104 86.023249871 87.614259385 89.77583984 92.733309898 
77.977122977 78.86571376 79.658849492 80.382400554 81.063343768 81.728265681 82.405525554 83.127976594 83.935186855 
84.877552472 86.019776064 87.445220688 89.25681381 91.570284926 94.488482616 78.327367178 79.154793941 79.932813791 
80.676226988 81.404187024 82.138373212 82.903992645 83.730937328 84.655396428 85.721101484 86.980055053 88.49076734 
90.311061285 92.479292943 94.972800403 78.704366167 79.462091025 80.215378734 80.966890342 81.726965152 82.510636254 
83.33732461 84.230639324 85.218276701 86.331557843 87.602215196 89.056941191 90.704538513 92.512221658 94.364737166 
80.60677915 80.022367833 81.097125935 80.56767853 81.611230039 81.116259085 82.148463653 81.668766466 82.716383281 
82.234345371 83.32776166 82.827605482 83.999263769 83.467063595 84.750613856 84.174962362 85.603908152 84.9774974 
86.581565849 85.903452081 87.702752095 86.983648787 88.976182109 88.246079787 90.386863764 89.707307605 91.873166081 
91.354853061 93.291250294 93.116338052 94.802011226 79.984912799 79.32333331 80.584997866 80.004795203 81.164976155 
80.635696116 81.735488334 81.230347022 82.312640038 81.80790808 82.916541566 82.390430784 83.570578745 83.00249402 
84.302268585 83.672396023 85.143504403 84.433392696 86.130929804 85.325002758 87.305203193 86.393949097 88.70651964 
87.694118312 90.364808743 89.281961076 92.278755325 91.204710737 94.373933107 93.470504997 95.991239493 79.376407401 
78.655161359 80.077741471 79.46330523 80.71226536 80.165420057 81.301638385 80.789662772 81.870105779 81.364506585 
82.443514215 81.917950378 83.049689933 82.478541455 83.720740471 83.077415473 84.494782018 83.750934022 85.418591851 
84.543789663 86.549519166 85.512528016 87.956729324 86.729367474 89.717514569 88.285336505 91.904873858 90.287910943 
94.551850776 92.844362118 96.018385117 78.807665386 78.048045991 79.598221817 78.967899251 80.275780162 79.729086729 
80.872403956 80.372596831 81.418998468 80.935054276 81.945016238 81.448322956 82.480285496 81.942612025 83.057742514 
82.448895378 83.716772333 83.00212833 84.50704601 83.645340711 85.493764677 84.435411273 86.763788274 85.450058696 
88.431259602 86.797437896 90.638821827 88.627026921 93.541712557 91.134110684 94.550912396 78.304697865 77.530739487 
79.169922082 78.542534357 79.880315807 79.350369598 80.476888114 80.006453277 80.99549635 80.553228491 81.467333263 
81.025152396 81.921833221 81.452100454 82.389446686 81.862384929 82.905564695 82.285849449 83.515343842 82.758593461 
84.280418864 83.32861415 85.288269167 84.064213754 86.666122558 85.067686286 88.598179863 86.495917213 91.338852057 
88.587586205 91.701918144 77.891244123 77.127509636 78.814768123 78.207613388 79.549986292 79.050707775 80.144622914 
79.716539809 80.637765545 80.25175954 81.061160235 80.692083015 81.44201842 81.065948598 81.806589562 81.398228728 
82.183328622 81.712720456 82.60756114 82.03641664 83.128374519 82.40395413 83.818419687 82.86588665 84.791751644 
83.501980223 86.231763834 84.444298168 88.434848352 85.920542998 88.333888382 77.585927535 76.856285823 78.550654058 
77.978691619 79.305184974 78.846083972 79.901292707 79.522750759 80.380033572 80.056881024 80.772721601 80.48449865 
81.104489232 80.833327711 81.39764234 81.125324073 81.674047763 81.380349359 81.95930266 81.618783233 82.288632628 
81.865811995 82.715299491 82.157684064 83.327848206 82.553309229 84.282054042 83.157156688 85.86279533 84.1651282 
85.96909847 77.401193258 76.726306815 78.389431209 77.863712735 79.15956265 78.745673104 79.764712121 79.436153553 
80.246175942 79.98333346 80.635183899 80.423121935 80.955917819 80.782787426 81.228525832 81.084316466 81.472504511 
81.34744948 81.709195912 81.5921655 81.967659501 81.843602185 82.292126288 82.137860697 82.75844721 82.533580657 
83.505397165 83.13514904 84.803131971 84.138347127 85.93571053 77.341276951 76.737387993 78.335523348 77.863079948 
79.118472288 78.749810847 79.741630209 79.457352405 80.245711522 80.032014013 80.661576423 80.508922013 81.014210018 
80.915960169 81.325163519 81.277502213 81.616211385 81.616800057 81.91283847 81.960377638 82.249647343 82.342613658 
82.679861646 82.81379361 83.2918293 83.453308929 84.241311932 84.393689363 85.813985233 85.863200468 88.268019535 
77.401849082 76.880219386 78.385032687 77.968641242 79.177678858 78.850161676 79.826873324 79.576623222 80.371243715 
80.189923106 80.841760878 80.723869594 81.264927112 81.20738726 81.666357088 81.66785607 82.074043066 82.134680646 
82.522986819 82.643460814 83.061899992 83.241978326 83.763578115 83.998718026 84.742309174 85.016569051 86.182747859 
86.453493316 88.384184531 88.551569104 91.675902781 77.57075591 77.136794364 78.526590479 78.165391128 79.324260321 
79.031186205 80.003950273 79.774946452 80.600778299 80.432355126 81.14479796 81.03433105 81.664572462 81.610002955 
82.189860623 82.189308454 82.755619017 82.806722341 83.406691915 83.505220941 84.205006239 84.34166433 85.238790954 
85.39474866 86.636899097 86.77426458 88.586299709 88.632468384 91.346551211 91.169659932 94.625502142 77.829140423 
77.482459509 78.742702004 78.432919095 79.538693148 79.272253958 80.248333181 80.028049617 80.901435592 80.727834905 
81.526121349 81.398108349 82.151361582 82.066378484 82.809369809 82.762909659 83.539131871 83.523620087 84.39056805 
84.393269805 85.429684704 85.429154777 86.745039244 86.705179982 88.45322909 88.314736818 90.701269297 90.368986844 
93.650383358 92.980658879 96.220333625 78.15359924 77.888568359 79.011743616 78.747599181 79.797539958 79.550055136 
80.531427746 80.309304505 81.236211242 81.04312938 81.936351202 81.772036737 82.658584251 82.519621819 83.43449577 
83.313105113 84.302185176 84.18542765 85.308918795 85.176666375 86.513545905 86.33467209 87.987157607 87.715212436 
89.810504094 89.377732703 92.060822558 91.373075115 94.776537274 93.713947207 96.316967854 78.517927761 78.324824843 
79.310635827 79.085013272 80.076690477 79.841560316 80.824647688 80.593365323 81.56930467 81.348103606 82.329230489 
82.118563585 83.126577933 82.922120244 83.988433464 83.780089788 84.946779971 84.718311499 86.039361924 85.766575664 
87.308109552 86.956718866 88.795786986 88.318887578 90.535566482 89.872367006 92.529611425 91.607939874 94.707557598 
93.456258817 95.23001005 78.896103179 79.617133538 80.353780832 81.103259028 81.871093972 82.668524056 83.510899436 
84.41762757 85.411094614 86.514461411 87.748794415 89.125037509 90.630907226 92.207546731 93.713317889 79.42276694 
80.036124007 80.7165671 81.445575554 82.215251376 83.024788261 83.87722456 84.778235368 85.733006932 86.742320218 
87.797369373 88.870220604 89.901785448 90.783261786 91.334288688 79.727061361 80.273693364 80.911485997 81.613323495 
82.363401362 83.152832014 83.976621407 84.831373573 85.711555567 86.605498551 87.489691366 88.320747734 89.025685778 
89.489135943 89.541660401 79.982546885 80.469951566 81.064207547 81.73169484 82.449528909 83.201779098 83.976403533 
84.761751935 85.543647461 86.301063268 87.001038411 87.592305987 87.998782038 88.112271023 87.788073466 80.180903796 
80.619576262 81.172562947 81.801533397 82.478263023 83.180964258 83.89153545 84.592193648 85.262614105 85.875563704 
86.393668029 86.764364809 86.916030758 86.755208419 86.167972079 80.317889874 80.720567445 81.237512545 81.827175367 
82.45740249 83.102555991 83.740103044 84.347941273 84.901926 85.372387245 85.721218091 85.89923994 85.844013949 
85.480656595 84.724842754 80.392822464 80.7741307 81.262400528 81.814750185 82.396948834 82.980695461 83.540753942 
84.053123991 84.492072052 84.828111148 85.025500121 85.04148279 84.825107535 84.319844173 83.468287646 80.4085744 
80.783801089 81.252689674 81.772197445 82.307398364 82.829061738 83.311144817 83.729301153 84.058480059 84.271385776 
84.336904543 84.219990864 83.881740358 83.282686287 82.387256141 80.370677555 80.755606909 81.215256999 81.708091971 
82.199480922 82.660828126 83.066797128 83.394373906 83.620929318 83.722879981 83.675138811 83.450731738 83.022435645 
82.365009325 81.46026201 80.286932478 80.69695453 81.158443943 81.631444319 82.08341694 82.487374042 82.820403818 
83.06207928 83.193578329 83.196228317 83.051286423 82.740087892 82.245626967 81.554683966 80.661477816 80.16721849 
80.617132234 81.091144506 81.551665367 81.968854064 82.31890547 82.582139595 82.742531016 82.785771265 82.698879966 
82.469669158 82.087502631 81.543795005 80.834936061 79.964246269 80.022603485 80.526616847 81.023103712 81.477855965 
81.864552439 82.163444168 82.359670151 82.442173318 82.402383141 82.233265642 81.929446673 81.487238325 80.905484608 
80.18761522 79.343314533 79.865951788 80.436783529 80.965028195 81.419419083 81.778499164 82.027657616 82.15791686 
82.16430232 82.044521377 81.798128936 81.425901161 80.930667281 80.317211894 79.594282962 78.775655205 79.711029825 
80.360510839 80.927990822 81.385865173 81.718228402 81.916903995 81.979940619 81.909609171 81.710550773 81.38877084 
80.951494887 80.406878319 79.764589068 79.037168194 78.240766019 79.573110807 80.311880494 80.924226546 81.386813982 
81.690238797 81.834678585 81.826433518 81.676031728 81.395736056 80.998328865 80.496665209 79.903845589 79.233138682 
78.499627132 77.720690301 79.46917905 80.306669166 80.966914152 81.431876297 81.700593566 81.783151114 81.696020134 
81.459116094 81.093025587 80.617311289 80.050198247 79.408530608 78.708413911 77.966271577 77.199480412 79.418235705 
80.362630613 81.070638032 81.531114669 81.754205551 81.76229808 81.584614551 81.251737891 80.79298983 80.234703922 
79.599585275 78.907593054 78.176600034 77.42312093 76.663920328 79.442809109 80.500566751 81.251627186 81.694579107 
81.854391627 81.769911519 81.485419959 81.043771888 80.483512118 79.837039372 79.131115901 78.387446264 77.624241086 
76.857599077 76.10233081 79.569573547 80.744781116 81.527654533 81.931501467 82.002133581 81.799809059 81.387321791 
80.821316686 80.149453466 79.4095064 78.630588494 77.834681531 77.039321104 76.258739304 75.505612587 79.832186258 
81.12500688 81.918892883 82.25005045 82.194270997 81.840748653 81.274153499 80.566367254 79.772986851 78.935360254 
78.082815469 77.236234698 76.410606961 75.61748201 74.866676281 80.273960286 81.677803396 82.446784529 82.654324036 
82.420925883 81.873564514 81.123150975 80.255702073 79.332981002 78.396439435 77.473112752 76.580263488 75.728953289 
74.927016796 74.180643508 80.953516776 82.449177546 83.132855349 83.141127483 82.66092033 81.868425179 80.902710667 
79.860988357 78.805748384 77.774256254 76.787592854 75.856751375 74.987575608 74.183117495 73.445617691 81.953051518 
83.497224892 83.994492222 83.691954025 82.87496427 81.780279662 80.571629431 79.34885862 78.166663062 77.051730509 
76.014959711 75.058980272 74.182905576 73.384714773 72.662598323 83.394123512 84.891787547 85.033639026 84.258887213 
82.996361695 81.54564256 80.079635317 78.683750173 77.392709156 76.215178047 75.148289747 74.184498835 73.315544999 
72.534481513 71.835553369 85.45918236 86.719334228 86.210939791 84.741903652 82.919618984 81.08191181 79.371544473 
77.833140509 76.467189147 75.2582937 74.187358154 73.236470184 72.390786159 71.638702564 70.971698575 88.459602327 
89.01421739 87.387262104 84.950006577 82.496957505 80.297377209 78.399753009 76.777241243 75.386352253 74.185490038 
73.140550322 72.225094467 71.419016632 70.707828591 70.081175708 92.867156038 91.816075013 88.1796503 84.572818458 
81.560523692 79.119806037 77.144250251 75.52106258 74.165339652 73.015008301 72.025950755 71.16687115 70.415248562 
69.755582607 69.176516354 100.20188646 93.813426694 87.832435995 83.281136688 80.004849509 77.546950783 75.637410124 
74.104525776 72.841610315 71.778935574 70.870285604 70.084086635 69.398291658 68.797696977 68.271555332 109.24832856 
92.956407794 85.53401214 80.974823591 77.922327363 75.690993072 73.974151513 72.600566005 71.469796202 70.518382573 
69.70476665 69.000737988 68.38692984 67.849632068 67.379480171 79.255745086 79.155155013 79.904504399 79.723649205 
80.604666163 80.373569198 81.342756131 81.079636485 82.115416748 81.829689391 82.925498324 82.619503803 83.78056298 
83.45041575 84.690765154 84.327071494 85.667047655 85.255221598 86.717617306 86.238127837 87.842706989 87.272630058 
89.026254563 88.341010776 90.221749583 89.401344921 91.332727517 90.370947524 92.183767666 91.107114874 91.382397463 
79.578485649 79.506158967 80.158508678 79.99203593 80.817867131 80.587948502 81.533828725 81.259982047 82.294418496 
81.987331222 83.094769891 82.758057607 83.934006239 83.565394106 84.813098522 84.405529683 85.731900829 85.274117055 
86.684934849 86.163229025 87.655651773 87.055785183 88.608409806 87.91897657 89.476483888 88.695671549 90.14733684 
89.292415919 90.445231988 89.567568987 89.320633738 79.858673401 79.800429338 80.37571249 80.216275258 80.991835007 
80.76134555 81.67689612 81.395064514 82.411484946 82.089715464 83.183072273 82.826452458 83.983118935 83.591232105 
84.804102284 84.372719056 85.63605014 85.158336405 86.462522272 85.93074088 87.255009042 86.663518744 87.966111501 
87.315078172 88.520798087 87.822232444 88.806684187 88.093223634 88.666476254 88.00153591 87.384968468 80.085787409 
80.027932043 80.5486858 80.38947451 81.122435005 80.889915418 81.770862056 81.48424371 82.468619507 82.139532085 
83.196638211 82.831364139 83.939927493 83.539926703 84.683522842 84.247583965 85.410294291 84.935585369 86.095740546 
85.580364648 86.704742022 86.150163379 87.185129472 86.600221558 87.462584261 86.868748341 87.436176464 86.873163136 
86.976240306 86.509230999 85.655395605 80.253505527 80.183638699 80.673992805 80.508429658 81.208918167 80.97296201 
81.8183651 81.529852836 82.472238653 82.142804952 83.146493717 82.782959371 83.820965491 83.426569109 84.475689369 
84.05157899 85.088089471 84.635165911 85.629813281 85.150586328 86.062887628 85.564288772 86.336352788 85.832809937 
86.382858099 85.900198554 86.118170789 85.697739564 85.442986558 85.145133445 84.15762234 80.359489635 80.26641581 
80.751170514 80.573346754 81.253643753 81.012947508 81.824728492 81.536970991 82.431226752 82.107400676 83.045876894 
82.693023081 83.644941315 83.267374542 84.205232029 83.80606844 84.701746099 84.284382092 85.104692602 84.674943382 
85.377367192 84.945309152 85.473221722 85.056258447 85.335820668 84.960707861 84.899163053 84.604698494 84.092612499 
83.930600779 82.884450618 80.404665365 80.279218145 80.782623947 80.587290366 81.261065595 81.014165618 81.796911127 
81.512088072 82.355835676 82.042677447 82.908583343 82.573884073 83.429811518 83.078195709 83.895179175 83.530733451 
84.279099755 83.906873896 84.553178903 84.180633253 84.684007572 84.322870006 84.632518746 84.300478793 84.353789589 
84.07637481 83.799679293 83.610842413 82.924022331 82.865891498 81.811424462 80.393417416 80.227986647 80.773168143 
80.55595639 81.237194698 80.983060677 81.74327611 81.462962351 82.256652119 81.958164166 82.748228058 82.43721552 
83.192270532 82.87324612 83.565146377 83.242222438 83.842762067 83.521526597 83.999876073 83.688037875 84.008033113 
83.717514871 83.836454917 83.583799907 83.452022942 83.259678683 82.822254079 82.718690081 81.920675248 81.938347589 
80.906576798 80.332292339 80.121047931 80.729499752 80.487060546 81.189920933 80.927394029 81.672654602 81.398143626 
82.144398709 81.863640166 82.576989066 82.294071307 82.946520727 82.664600335 83.231040591 82.953868513 83.409849224 
83.142226779 83.461817326 83.211087852 83.364823615 83.141607067 83.096249581 82.915114246 82.633887667 82.513540692 
81.958587328 81.921524339 81.058541219 81.129120494 80.136616278 80.230305547 79.968815657 80.659986645 80.389937323 
81.12758457 80.856330484 81.594180836 81.32684412 82.028734439 81.768386586 82.405781966 82.154119986 82.703859147 
82.462527962 82.904824405 82.675828263 82.991914702 82.778941533 82.949437101 82.758294285 82.761907488 82.601270981 
82.41456911 82.296337726 81.894752557 81.833873075 81.193962624 81.207468671 80.311333988 80.416688304 79.470112124 
80.097849102 79.783392085 80.574576357 80.275443252 81.059566308 80.77994284 81.517173886 81.258537809 81.919025586 
81.681476171 82.243528727 82.025939819 82.473251345 82.274801863 82.594649117 82.41522482 82.596154912 82.437233813 
82.467819951 82.33334801 82.200920608 82.097380935 81.788158436 81.724516909 81.224893775 81.212294781 80.510977076 
80.561745745 79.653064713 79.779115938 78.878568816 79.946899022 79.577869496 80.484001338 80.155560494 80.996299019 
80.709216352 81.45074273 81.203066363 81.823650785 81.611689837 82.097773543 81.916942416 82.260977893 82.107448833 
82.305352079 82.176143656 82.225400354 82.119524344 82.01741151 81.936390382 81.679107939 81.626866031 81.209885202 
81.192804017 80.611880794 80.637705625 79.891197095 79.968336322 79.059510809 79.195818229 78.337249392 79.790720834 
79.36643099 80.400687151 80.043797675 80.948373111 80.656251406 81.404597484 81.171046531 81.750326908 81.56743133 
81.974329383 81.833412888 82.071018991 81.96442068 82.038998069 81.960453403 81.879439292 81.825282633 81.595151919 
81.564187504 81.190187615 81.183889289 80.669963082 80.692070059 80.041861308 80.097517131 79.316426318 79.411220476 
78.508870027 78.647401329 77.824732188 79.64397323 79.16485053 80.337854344 79.95488645 80.927640571 80.634257796 
81.388060621 81.173268747 81.706030884 81.55683888 81.877732806 81.780543952 81.905251129 81.847870565 81.794833988 
81.76753326 81.555138793 81.550921595 81.195410064 81.210806473 80.725787682 80.76010614 80.156792411 80.2115436 
79.500184623 79.578267147 78.769564665 78.874580119 77.981899183 78.1164325 77.322747777 79.522610522 78.989891532 
80.310613892 79.905171261 80.946906758 80.657836995 81.410761322 81.221376766 81.697118431 81.587883154 81.81079043 
81.762264776 81.763244126 81.758224136 81.569648075 81.594297008 81.246485957 81.29096535 80.80975656 80.868242425 
80.275316033 80.345081788 79.657880174 79.738964417 78.972332329 79.066484395 78.23449885 78.343686485 77.461652591 
77.587335651 76.815826162 79.44478418 78.860504046 80.335553729 79.913590079 81.019805308 80.743345989 81.482717463 
81.32763416 81.728923051 81.66784587 81.774520756 81.781054408 81.642346812 81.693431118 81.357607125 81.435214638 
80.945177157 81.036756027 80.428157917 80.525775402 79.826857756 79.926932949 79.159983746 79.261577711 78.444287068 
78.54831356 77.69643715 77.80436846 76.933537975 77.046300237 76.290882249 79.431044945 78.798518867 80.432014845 
80.001843057 81.161755936 80.909443589 81.613791666 81.505262539 81.805642853 81.803484112 81.767886422 81.837254446 
81.536979452 81.648453628 81.149907588 81.281410272 80.640527747 80.777069972 80.038091717 80.17085218 79.367459626 
79.492297433 78.649596779 78.765503639 77.902362429 78.010240798 77.142262001 77.243715752 76.38505278 76.481203797 
75.737557158 79.506246965 78.829837655 80.622553826 80.196143263 81.389899562 81.177704542 81.813730272 81.768055391 
81.929400248 81.999972327 81.786499418 81.928054069 81.438298047 81.61478367 80.934711703 81.120401078 80.318733578 
80.497335476 79.625563343 79.788179894 78.883054426 79.026220433 78.113159898 78.236721462 77.333829479 77.439492831 
76.560122469 76.650029567 75.806036868 75.881906572 75.147325849 79.700260243 78.986917532 80.934187751 80.528738849 
81.722998336 81.573200722 82.091068017 82.129864066 82.099109287 82.259250943 81.82174906 82.045904657 81.33269151 
81.578253023 80.695966149 80.93479932 79.963474263 80.179448218 79.174725904 79.36044375 78.358861553 78.512873511 
77.537554982 77.661476058 76.726948633 76.823983473 75.940009988 76.013424508 75.18803246 75.240415432 74.514102882 
80.051788556 79.31163299 81.40002645 81.040797348 82.181913212 82.125637972 82.45190628 82.603576748 82.308091623 
82.577937327 81.858416848 82.175728406 81.200439773 81.517271041 80.413170394 80.701153101 79.555169178 79.801063562 
78.66805574 78.867948446 77.780092004 77.935807983 76.910192158 77.026239645 76.07160929 76.153153429 75.274041176 
75.325732297 74.525377311 74.55081315 73.834300968 80.611556474 79.860951836 82.061151432 81.786411282 82.787825175 
82.869227791 82.896565451 83.197533811 82.540818024 82.942896653 81.871870071 82.2909377 81.014553851 81.400441731 
80.060300276 80.389082156 79.071372597 79.335855224 78.087349187 78.289642581 77.13220133 77.278960764 76.220221569 
76.319327277 75.359820084 75.418665598 74.556620488 74.581534917 73.814609369 73.810198003 73.106947716 81.450228475 
80.716762653 82.969234505 82.838169479 83.559742861 83.84145384 83.413892667 83.909466247 82.766962285 83.323124518 
81.824765091 82.347923415 80.738400844 81.183985514 79.606596975 79.961278065 78.487975408 78.754991933 77.414619264 
77.604668472 76.402781471 76.528095549 75.459239238 75.531566287 74.586453212 74.615696443 73.785057133 73.778587898 
73.055272439 73.018498531 72.333782751 82.669534476 82.000117699 84.188246598 84.297306035 84.507074264 85.077489041 
83.970417019 84.71255381 82.933311949 83.65799151 81.662703096 82.279999079 80.326535383 80.81047538 79.017553536 
79.374516081 77.780937342 78.029326249 76.634596136 76.79498952 75.5826312 75.673361474 74.622553892 74.658735699 
73.749942123 73.74311178 72.960274404 72.918595112 72.249772733 72.179033115 71.519558355 84.420539651 83.915526989 
85.789799047 86.298304095 85.607090936 86.58952833 84.49173356 85.528707317 82.954682521 83.84058425 81.313015612 
81.991635886 79.726036228 80.211212297 78.259145267 78.585885732 76.930547848 77.135082603 75.737173102 75.849599434 
74.66814195 74.711656091 73.710683902 73.702482157 72.853263646 72.805492935 72.086701455 72.007622665 71.403749071 
71.29873076 70.671677898 86.958170384 86.778315157 87.846301609 89.045902739 86.775222682 88.313318528 84.832721287 
86.174980311 82.704534118 83.698010235 80.688863729 81.364083344 78.885552479 79.318075379 77.30503524 77.563018326 
75.926450559 76.061243693 74.721419691 74.769520324 73.663479889 73.649880998 72.730231636 72.672057799 71.904438122 
71.813076326 71.172869267 71.055842423 70.526050486 70.387845182 69.800355212 90.592560755 91.386043267 90.270197013 
92.578106781 87.749105482 90.007771909 84.756107918 86.302227987 82.025958068 82.993764277 79.707953557 80.282470912 
77.770927897 78.088479626 76.147816153 76.300307508 74.774290451 74.819001736 73.598681442 73.57178563 72.58185321 
72.506255382 71.694631135 71.585199556 70.91599447 70.782007303 70.230713493 70.077834248 69.62800768 69.459409867 
68.917556049 96.540118521 99.388859777 92.794219139 96.997012609 87.949323307 90.564808833 83.932751373 85.391550112 
80.781238991 81.526327903 78.33143119 78.701103952 76.38764605 76.541708671 74.8095317 74.836006807 73.50037119 
73.448061911 72.394209023 72.2918217 71.445795555 71.31063285 70.623406305 70.466349057 69.905013184 69.73238614 
69.27518272 69.090680174 68.722778108 68.528338427 68.036565906 101.90547902 111.00285403 93.654956107 100.04553616 
86.715535099 88.683722696 82.141236698 83.02153242 78.958444598 79.3223238 76.61287694 76.730884048 74.799370234 
74.784091455 73.347036601 73.254418022 72.150952721 72.011977115 71.144643913 70.977079289 70.284172739 70.098684708 
69.539544537 69.342720138 68.890206659 68.685846747 68.321560437 68.111588179 67.823765413 67.60886547 67.169545634 
105.62249844 90.44096147 83.612055236 79.534526989 76.746357939 74.69235435 73.10095883 71.821874109 70.765501018 
69.874745525 69.112070726 68.451657342 67.875788945 67.371899993 66.931171598 66.614931965 67.414740516 68.230886145 
69.053064069 69.869408515 70.668866108 71.441396011 72.178718766 72.874524493 73.524806537 74.127568509 74.683560571 
75.195400138 75.668028588 76.109102845 76.528384822 76.939095144 77.35784409 77.806026761 78.310559723 78.905795894 
79.63482308 80.550839813 81.717470387 83.206692551 85.091362425 87.428995289 90.231365814 66.313572283 67.076375854 
67.856706387 68.644612981 69.428864688 70.198710096 70.943942618 71.655723838 72.326872993 72.95193834 73.52717773 
74.051225019 74.524256644 74.948755751 75.329207508 75.67238717 75.988046084 76.28943207 76.594372572 76.927216039 
77.320441779 77.818278004 78.480300789 79.38487237 80.633256939 82.348315132 84.666235896 87.708719643 66.063922536 
66.795749279 67.545888069 68.304647515 69.061130879 69.8046167 70.524656819 71.211928359 71.858418731 72.45721371 
73.003106451 73.492433062 73.923230373 74.2947601 74.608418871 74.867002709 75.075564788 75.242071299 75.378156792 
75.500924396 75.635414143 75.818508093 76.104349841 76.572084736 77.335487197 78.553612749 80.436824179 83.240623967 
65.864878986 66.571688987 67.297520456 68.032575908 68.766092225 69.487329271 70.185629226 70.851101122 71.474910039 
72.04913196 72.566848835 73.022762889 73.412140353 73.731848027 73.979515304 74.153690837 74.254147443 74.282014085 
74.240508768 74.135827764 73.979671453 73.792162541 73.607695201 73.484312712 73.517707011 73.862966446 74.760816992 
76.570843755 65.715758487 66.403870089 67.11127893 67.828256218 68.544188089 69.247973755 69.928904884 70.576876267 
71.18190943 71.735391821 72.229262891 72.656171986 73.00989797 73.284392419 73.474104569 73.5736264 73.577337301 
73.479390282 73.273678846 72.953877234 72.514533806 71.95210651 71.268994888 70.479835718 69.624090009 68.789721414 
68.152853253 68.053132897 65.616451339 66.292019698 66.986992571 67.691835529 68.395714654 69.087637998 69.756663355 
70.392073753 70.983899257 71.522436824 71.998737321 72.404633838 72.732098047 72.973151593 73.119804519 73.163470032 
73.094182642 72.900247153 72.567520568 72.078490491 71.411057423 70.538495898 69.427725091 68.04057698 66.336373747 
64.281801986 61.875546478 59.218340582 65.566862955 66.236027597 66.924818258 67.62358032 68.321351424 69.007297301 
69.670107765 70.299153505 70.884022193 71.414688526 71.881947153 72.276662832 72.590116353 72.813411575 72.937247762 
72.950967299 72.842315554 72.596456903 72.194317566 71.611605049 70.816528228 69.766951781 68.406613549 66.659742701 
64.423980787 61.560560258 57.882825171 53.15475053 65.566862955 66.236027597 66.924818258 67.62358032 68.321351424 
69.007297301 69.670107765 70.299153505 70.884022193 71.414688526 71.881947153 72.276662832 72.590116353 72.813411575 
72.937247762 72.950967299 72.842315554 72.596456903 72.194317566 71.611605049 70.816528228 69.766951781 68.406613549 
66.659742701 64.423980787 61.560560258 57.882825171 53.15475053 65.616451339 66.292019698 66.986992571 67.691835529 
68.395714654 69.087637998 69.756663355 70.392073753 70.983899257 71.522436824 71.998737321 72.404633838 72.732098047 
72.973151593 73.119804519 73.163470032 73.094182642 72.900247153 72.567520568 72.078490491 71.411057423 70.538495898 
69.427725091 68.04057698 66.336373747 64.281801986 61.875546478 59.218340582 65.715758487 66.403870089 67.11127893 
67.828256218 68.544188089 69.247973755 69.928904884 70.576876267 71.18190943 71.735391821 72.229262891 72.656171986 
73.00989797 73.284392419 73.474104569 73.5736264 73.577337301 73.479390282 73.273678846 72.953877234 72.514533806 
71.95210651 71.268994888 70.479835718 69.624090009 68.789721414 68.152853253 68.053132897 65.864878986 66.571688987 
67.297520456 68.032575908 68.766092225 69.487329271 70.185629226 70.851101122 71.474910039 72.04913196 72.566848835 
73.022762889 73.412140353 73.731848027 73.979515304 74.153690837 74.254147443 74.282014085 74.240508768 74.135827764 
73.979671453 73.792162541 73.607695201 73.484312712 73.517707011 73.862966446 74.760816992 76.570843755 66.063922536 
66.795749279 67.545888069 68.304647515 69.061130879 69.8046167 70.524656819 71.211928359 71.858418731 72.45721371 
73.003106451 73.492433062 73.923230373 74.2947601 74.608418871 74.867002709 75.075564788 75.242071299 75.378156792 
75.500924396 75.635414143 75.818508093 76.104349841 76.572084736 77.335487197 78.553612749 80.436824179 83.240623967 
66.313572283 67.076375854 67.856706387 68.644612981 69.428864688 70.198710096 70.943942618 71.655723838 72.326872993 
72.95193834 73.52717773 74.051225019 74.524256644 74.948755751 75.329207508 75.67238717 75.988046084 76.28943207 
76.594372572 76.927216039 77.320441779 77.818278004 78.480300789 79.38487237 80.633256939 82.348315132 84.666235896 
87.708719643 66.614931965 67.414740516 68.230886145 69.053064069 69.869408515 70.668866108 71.441396011 72.178718766 
72.874524493 73.524806537 74.127568509 74.683560571 75.195400138 75.668028588 76.109102845 76.528384822 76.939095144 
77.35784409 77.806026761 78.310559723 78.905795894 79.63482308 80.550839813 81.717470387 83.206692551 85.091362425 
87.428995289 90.231365814 66.787683318 66.215245615 67.608553641 67.013551274 68.445217788 67.821968301 69.286601633 
68.641468504 70.120801828 69.461190565 70.936212981 70.269562615 71.723009328 71.055929307 72.473101788 71.81130524 
73.180516234 72.528256487 73.842133697 73.201578395 74.456945899 73.828330216 75.02644633 74.407888212 75.554632541 
74.941821019 76.047704668 75.433965487 76.5143044 75.890605561 76.965602184 76.32037433 77.415645531 76.734864611 
77.88224495 77.148875498 78.387188787 77.581270098 78.957433346 78.056325503 79.625948561 78.604646124 80.432879744 
79.264730528 81.425375553 80.0848688 82.656683402 81.123480794 84.182502047 82.448795383 86.051401333 84.133685838 
88.288110492 86.244575943 90.867662706 88.817923574 91.820418902 66.459879079 65.933473357 67.240701753 66.693913963 
68.03851708 67.465891864 68.84324983 68.250300517 69.643477018 69.036723949 70.428013876 69.814228504 71.187021013 
70.572186854 71.911825322 71.301107147 72.595555897 71.99299 73.233668598 72.641472654 73.823127101 73.241859492 
74.363690029 73.791786144 74.85667285 74.290361478 75.305980712 74.739171877 75.717441746 75.141439785 76.099797109 
75.502960151 76.464297953 75.831899354 76.826299125 76.139705302 77.205549284 76.441992679 77.627996408 76.759463407 
78.127565823 77.120662093 78.74854933 77.56372457 79.54804501 78.140404548 80.597921119 78.919517635 81.98547905 
79.990911498 83.808905925 81.466924915 86.164114623 83.478563461 89.115616203 86.155105397 89.593411404 66.184614252 
65.700218278 66.931305164 66.428955223 67.696138014 67.170296863 68.469151257 67.925023799 69.239286034 68.683014346 
69.995818016 69.433386218 70.728367335 70.165508368 71.427933896 70.869663391 72.086806867 71.536980875 72.698840369 
72.160020618 73.259634314 72.732647461 73.766408789 73.250571943 74.218486347 73.71074633 74.616749194 74.112075075 
74.963942797 74.454624093 75.265048355 74.740566287 75.527606282 74.973773477 75.76232032 75.160823656 75.984162666 
75.311323623 76.214076849 75.439580517 76.481566884 75.566338477 76.827800642 75.722520665 77.310680432 75.953292461 
78.010676752 76.324653827 79.036936313 76.932821021 80.532335619 77.913613231 82.671696302 79.452512744 85.641091247 
81.780558538 85.16770966 65.960286109 65.514417953 66.679165123 66.217494958 67.41662633 66.93423048 68.163216539 
67.664891232 68.907865139 68.399540588 69.639950385 69.127305779 70.348871998 69.837444174 71.025160285 70.519903163 
71.660167795 71.164947581 72.246505955 71.764352668 72.77819501 72.310740757 73.250673171 72.797870962 73.660436143 
73.22079808 74.005704719 73.575483503 74.285758575 73.8593176 74.501575955 74.070130295 74.65538229 74.207351654 
74.751875537 74.271274879 74.798458088 74.263978523 74.807197987 74.190082842 74.796743609 74.058339928 74.796278057 
73.884307488 74.851357337 73.69483193 75.032171917 73.535469756 75.446596229 73.481900237 76.255194612 73.657703572 
77.688931306 74.259569962 80.053168643 75.58163501 78.053896031 65.786303403 65.375288168 66.48327192 66.059175899 
67.199361698 66.757202561 67.924909286 67.469687496 68.649247459 68.186490172 69.361506837 68.89675992 70.050828254 
69.589614319 70.707220527 70.254461206 71.321382691 70.881384365 71.884832224 71.461209398 72.39024072 71.985238771 
72.831094221 72.445993848 73.20196089 72.836700708 73.498190272 73.151009839 73.715587875 73.383427754 73.850962717 
73.528198428 73.901059053 73.579860934 73.863653811 73.532817314 73.73708682 73.38091104 73.521430333 73.117890933 
73.219607139 72.737652448 72.84036467 72.235578971 72.40253639 71.610628206 71.943830156 70.87062782 71.534417798 
70.04098976 71.30011083 69.182747917 71.458892087 68.42409403 72.362007008 68.01051117 68.400603559 65.662123504 
65.282667813 66.34336211 65.953627687 67.044068732 66.639215648 67.754558009 67.339437355 68.464047087 68.044148613 
69.161544335 68.742464497 69.836130443 69.423297123 70.477351642 70.076007718 71.075443782 70.690072541 71.620884788 
71.25575447 72.105388097 71.763625248 72.520972548 72.205235704 72.860531994 72.572198277 73.1169603 72.856795486 
73.283367514 73.051016858 73.352597894 73.146561517 73.316702107 73.13404203 73.166853 73.002717557 72.892490562 
72.73966036 72.481368543 72.329035433 71.919248902 71.751052184 71.190366447 70.981061938 70.278692094 69.989020742 
69.171776709 68.738893152 67.868643355 67.190290029 66.397312665 65.304202527 64.851537799 63.058559982 63.455878435 
60.489819991 57.794341939 65.58765569 65.236387382 66.259469815 65.900834501 66.950853878 66.580204204 67.652172283 
67.274199003 68.352628272 67.972866516 69.041049606 68.665094592 69.706519785 69.339885968 70.338328151 69.986365589 
70.926180428 70.593733546 71.460210463 71.152006517 71.931182452 71.651394534 72.330546869 72.082850505 72.64966183 
72.43734675 72.880203833 72.706219094 73.013312027 72.88009312 73.039060691 72.94929195 72.946336659 72.902269176 
72.721333219 72.725456594 72.347053779 72.401989685 71.802017026 71.910156327 71.058289963 71.221971707 70.079973209 
70.300514281 68.82016483 69.096653592 67.218543154 67.544237288 65.197979329 65.554123654 62.663654833 63.005475809 
59.508787096 59.734255022 55.639984337 55.524919504 50.113077673 65.562870887 65.236387382 66.231495374 65.900834501 
66.919739887 66.580204204 67.617998233 67.274199003 68.315371806 67.972866516 69.000789362 68.665094592 69.66325514 
69.339885968 70.291838553 69.986365589 70.876121976 70.593733546 71.406176966 71.152006517 71.872639793 71.651394534 
72.266341922 72.082850505 72.578435384 72.43734675 72.79993876 72.706219094 72.921382597 72.88009312 72.932064278 
72.94929195 72.819377154 72.902269176 72.56794541 72.725456594 72.158352257 72.401989685 71.565577311 71.910156327 
70.756652611 71.221971707 69.687418658 70.300514281 68.298997752 69.096653592 66.510763378 67.544237288 64.211915484 
65.554123654 61.24854218 63.005475809 57.405725042 59.734255022 52.381829793 55.524919504 50.113077673 65.58765569 
65.282667813 66.259469815 65.953627687 66.950853878 66.639215648 67.652172283 67.339437355 68.352628272 68.044148613 
69.041049606 68.742464497 69.706519785 69.423297123 70.338328151 70.076007718 70.926180428 70.690072541 71.460210463 
71.25575447 71.931182452 71.763625248 72.330546869 72.205235704 72.64966183 72.572198277 72.880203833 72.856795486 
73.013312027 73.051016858 73.039060691 73.146561517 72.946336659 73.13404203 72.721333219 73.002717557 72.347053779 
72.73966036 71.802017026 72.329035433 71.058289963 71.751052184 70.079973209 70.981061938 68.82016483 69.989020742 
67.218543154 68.738893152 65.197979329 67.190290029 62.663654833 65.304202527 59.508787096 63.058559982 55.639984337 
60.489819991 57.794341939 65.662123504 65.375288168 66.34336211 66.059175899 67.044068732 66.757202561 67.754558009 
67.469687496 68.464047087 68.186490172 69.161544335 68.89675992 69.836130443 69.589614319 70.477351642 70.254461206 
71.075443782 70.881384365 71.620884788 71.461209398 72.105388097 71.985238771 72.520972548 72.445993848 72.860531994 
72.836700708 73.1169603 73.151009839 73.283367514 73.383427754 73.352597894 73.528198428 73.316702107 73.579860934 
73.166853 73.532817314 72.892490562 73.38091104 72.481368543 73.117890933 71.919248902 72.737652448 71.190366447 
72.235578971 70.278692094 71.610628206 69.171776709 70.87062782 67.868643355 70.04098976 66.397312665 69.182747917 
64.851537799 68.42409403 63.455878435 68.01051117 68.400603559 65.786303403 65.514417953 66.48327192 66.217494958 
67.199361698 66.93423048 67.924909286 67.664891232 68.649247459 68.399540588 69.361506837 69.127305779 70.050828254 
69.837444174 70.707220527 70.519903163 71.321382691 71.164947581 71.884832224 71.764352668 72.39024072 72.310740757 
72.831094221 72.797870962 73.20196089 73.22079808 73.498190272 73.575483503 73.715587875 73.8593176 73.850962717 
74.070130295 73.901059053 74.207351654 73.863653811 74.271274879 73.73708682 74.263978523 73.521430333 74.190082842 
73.219607139 74.058339928 72.84036467 73.884307488 72.40253639 73.69483193 71.943830156 73.535469756 71.534417798 
73.481900237 71.30011083 73.657703572 71.458892087 74.259569962 72.362007008 75.58163501 78.053896031 65.960286109 
65.700218278 66.679165123 66.428955223 67.41662633 67.170296863 68.163216539 67.925023799 68.907865139 68.683014346 
69.639950385 69.433386218 70.348871998 70.165508368 71.025160285 70.869663391 71.660167795 71.536980875 72.246505955 
72.160020618 72.77819501 72.732647461 73.250673171 73.250571943 73.660436143 73.71074633 74.005704719 74.112075075 
74.285758575 74.454624093 74.501575955 74.740566287 74.65538229 74.973773477 74.751875537 75.160823656 74.798458088 
75.311323623 74.807197987 75.439580517 74.796743609 75.566338477 74.796278057 75.722520665 74.851357337 75.953292461 
75.032171917 76.324653827 75.446596229 76.932821021 76.255194612 77.913613231 77.688931306 79.452512744 80.053168643 
81.780558538 85.16770966 66.184614252 65.933473357 66.931305164 66.693913963 67.696138014 67.465891864 68.469151257 
68.250300517 69.239286034 69.036723949 69.995818016 69.814228504 70.728367335 70.572186854 71.427933896 71.301107147 
72.086806867 71.99299 72.698840369 72.641472654 73.259634314 73.241859492 73.766408789 73.791786144 74.218486347 
74.290361478 74.616749194 74.739171877 74.963942797 75.141439785 75.265048355 75.502960151 75.527606282 75.831899354 
75.76232032 76.139705302 75.984162666 76.441992679 76.214076849 76.759463407 76.481566884 77.120662093 76.827800642 
77.56372457 77.310680432 78.140404548 78.010676752 78.919517635 79.036936313 79.990911498 80.532335619 81.466924915 
82.671696302 83.478563461 85.641091247 86.155105397 89.593411404 66.459879079 66.215245615 67.240701753 67.013551274 
68.03851708 67.821968301 68.84324983 68.641468504 69.643477018 69.461190565 70.428013876 70.269562615 71.187021013 
71.055929307 71.911825322 71.81130524 72.595555897 72.528256487 73.233668598 73.201578395 73.823127101 73.828330216 
74.363690029 74.407888212 74.85667285 74.941821019 75.305980712 75.433965487 75.717441746 75.890605561 76.099797109 
76.32037433 76.464297953 76.734864611 76.826299125 77.148875498 77.205549284 77.581270098 77.627996408 78.056325503 
78.127565823 78.604646124 78.74854933 79.264730528 79.54804501 80.0848688 80.597921119 81.123480794 81.98547905 
82.448795383 83.808905925 84.133685838 86.164114623 86.244575943 89.115616203 88.817923574 91.820418902 66.787683318 
67.608553641 68.445217788 69.286601633 70.120801828 70.936212981 71.723009328 72.473101788 73.180516234 73.842133697 
74.456945899 75.02644633 75.554632541 76.047704668 76.5143044 76.965602184 77.415645531 77.88224495 78.387188787 
78.957433346 79.625948561 80.432879744 81.425375553 82.656683402 84.182502047 86.051401333 88.288110492 90.867662706 

METADATA
COMPONENT_NAMES
S_Mises

S_Principal 3 12618 double
0.0935765 0.21214993725 81.532350063 0.0405487 0.20465820809 80.376441792 0.0405487 0.20465820809 80.376441792 
0.0935765 0.21214993725 81.532350063 -7.8625992866 -0.0104283 89.498469287 -8.2648244468 -0.0109021 88.728804447 
-8.2648244468 -0.0109021 88.728804447 -7.8625992866 -0.0104283 89.498469287 24.3807 49.199159693 207.72904031 
-0.0610855 -0.0015659869595 78.431402877 -0.0329489 0.0013353791253 80.533004661 -0.0031672404371 0.00797599 82.62 
0.000729364 1.35881 78.7799 0.000729364 1.35881 78.7799 -0.0031672404371 0.00797599 82.62 
-0.0329489 0.0013353791253 80.533004661 -0.0610855 -0.0015659869595 78.431402877 24.3807 49.199159693 207.72904031 
0.0770195 22.006491747 74.357808253 0.0770195 22.006491747 74.357808253 -9.1287815036 0.00210045 90.768471504 
-10.514723465 0.00494267 92.124323465 -11.953321948 0.00859632 93.539921948 -13.403131282 0.0137629 94.975931282 
-14.78850532 0.0204837 96.35680532 -16.001668165 0.0290737 97.576068165 -16.894899608 0.0397819 98.486799608 
-17.277102222 0.0528414 98.898602222 -16.915130501 0.0684316 98.578730501 -15.547367835 0.0866621 97.266067835 
-12.928384984 0.107552 94.714814984 -8.9382902732 0.131094 90.804516273 -3.9234334862 0.154518 85.871333486 
0.155491 0.54446145132 81.408738549 -8.4600417393 -0.0172376 90.053601739 -9.7954466202 -0.018062 91.34671662 
-11.209532735 -0.0185471 92.721632735 -12.655874753 -0.0178214 94.137174753 -14.078005151 -0.0159611 95.536605151 
-15.384289837 -0.0125873 96.829589837 -16.447731764 -0.00738938 97.890031764 -17.098976032 -3.71823e-05 98.549776032 
-17.125128768 0.0097711 98.596828768 -16.276411464 0.0222903 97.782411464 -14.291961855 0.0377065 95.845741855 
-10.972305053 0.056122 92.587565053 -6.3674799131 0.0775496 88.056999913 -1.3353814149 0.0974626 83.094581415 
0.0457745 1.2629932128 80.324606787 -9.4847512809 0.00175868 90.007261281 -10.82705239 0.00481356 91.37545239 
-12.225433912 0.00869623 92.804433912 -13.638475596 0.0140506 94.252675596 -14.990566995 0.0209272 95.642966995 
-16.174457606 0.029631 96.867457606 -17.042915534 0.0403844 97.778415534 -17.405381828 0.0533624 98.184681828 
-17.029282654 0.0686215 97.852882654 -15.653738662 0.0860095 96.520938662 -13.03304651 0.105003 93.94097651 
-9.0443158997 0.124513 89.9878229 -4.0246192018 0.139918 84.986479202 0.12592 0.47336751185 80.410232488 
-8.8407396631 -0.0180957 89.287099663 -10.130759469 -0.0186656 90.590919469 -11.502557578 -0.0188902 91.978957578 
-12.910177983 -0.0179403 93.407477983 -14.297111573 -0.0158738 94.817911573 -15.57210579 -0.0123093 96.11840579 
-16.608235881 -0.00694214 97.182035881 -17.23686281 0.000531883 97.83956281 -17.245642865 0.0103475 97.878542865 
-16.385451483 0.0226018 97.049151483 -14.395754341 0.0371285 95.089684341 -11.075540779 0.0532951 91.797460779 
-6.469185099 0.0696775 87.214235099 -1.4201914609 0.0793735 82.164291461 0.0102241 1.2296835169 79.257416483 
-9.4847512809 0.00175868 90.007261281 -10.82705239 0.00481356 91.37545239 -12.225433912 0.00869623 92.804433912 
-13.638475596 0.0140506 94.252675596 -14.990566995 0.0209272 95.642966995 -16.174457606 0.029631 96.867457606 
-17.042915534 0.0403844 97.778415534 -17.405381828 0.0533624 98.184681828 -17.029282654 0.0686215 97.852882654 
-15.653738662 0.0860095 96.520938662 -13.03304651 0.105003 93.94097651 -9.0443158997 0.124513 89.9878229 
-4.0246192018 0.139918 84.986479202 0.12592 0.47336751185 80.410232488 -8.8407396631 -0.0180957 89.287099663 
-10.130759469 -0.0186656 90.590919469 -11.502557578 -0.0188902 91.978957578 -12.910177983 -0.0179403 93.407477983 
-14.297111573 -0.0158738 94.817911573 -15.57210579 -0.0123093 96.11840579 -16.608235881 -0.00694214 97.182035881 
-17.23686281 0.000531882 97.83956281 -17.245642865 0.0103475 97.878542865 -16.385451483 0.0226018 97.049151483 
-14.395754341 0.0371285 95.089684341 -11.075540779 0.0532951 91.797460779 -6.469185099 0.0696775 87.214235099 
-1.4201914609 0.0793735 82.164291461 0.0102241 1.2296835169 79.257416483 -9.1287815036 0.00210045 90.768471504 
-10.514723465 0.00494267 92.124323465 -11.953321948 0.00859632 93.539921948 -13.403131282 0.0137629 94.975931282 
-14.78850532 0.0204837 96.35680532 -16.001668165 0.0290737 97.576068165 -16.894899608 0.0397819 98.486799608 
-17.277102222 0.0528414 98.898602222 -16.915130501 0.0684316 98.578730501 -15.547367835 0.0866621 97.266067835 
-12.928384984 0.107552 94.714814984 -8.9382902732 0.131094 90.804516273 -3.9234334862 0.154518 85.871333486 
0.155491 0.54446145132 81.408738549 -8.4600417393 -0.0172376 90.053601739 -9.7954466202 -0.018062 91.34671662 
-11.209532735 -0.0185471 92.721632735 -12.655874753 -0.0178214 94.137174753 -14.078005151 -0.0159611 95.536605151 
-15.384289837 -0.0125873 96.829589837 -16.447731764 -0.00738938 97.890031764 -17.098976032 -3.71819e-05 98.549776032 
-17.125128768 0.0097711 98.596828768 -16.276411464 0.0222903 97.782411464 -14.291961855 0.0377065 95.845741855 
-10.972305053 0.056122 92.587565053 -6.3674799131 0.0775496 88.056999913 -1.3353814149 0.0974626 83.094581415 
0.0457745 1.2629932128 80.324606787 0.23257151266 2.20774 117.07222849 0.47086091478 4.31128 151.10123909 
0.56078492346 6.1739 182.01361508 0.61620023265 7.75807 208.48399977 0.63225377184 8.99423 229.35024623 
0.63219901477 9.83854 243.71024099 0.62762951862 10.2604 250.94487048 0.62678063664 10.2465 250.74980936 
0.62967449567 9.79836 243.1409055 0.62815333225 8.93194 228.45554667 0.61038899942 7.68021 207.337711 
0.55354528938 6.08873 180.71075471 0.4626990021 4.22791 149.746601 0.22465656154 2.13542 115.76954344 
0.31676274556 1.18069 99.393037254 0.39247477818 3.28528 134.36142522 0.45528678954 5.23129 166.94611321 
0.43021661277 6.92276 195.74978339 0.37956151357 8.30648 219.51553849 0.32705389374 9.33139 237.21184611 
0.29119952229 9.95837 248.06717048 0.27867099999 10.1614 251.608 0.29080441979 9.93203 247.68295558 
0.32597765229 9.28145 236.47592235 0.37753623511 8.23812 218.49026376 0.42656317877 6.84312 194.52003682 
0.44976647577 5.14876 165.61183352 0.38573349171 3.20886 133.02746651 0.30893477385 1.11872 98.158565226 
-2.04216 0.16930265138 45.085597349 -4.1329 -0.11424925197 11.287919252 -19.435968833 -5.98057 -0.20557116698 
-45.723856275 -7.55194 -0.29249372493 -66.483842133 -8.7804 -0.3318778668 -80.831956929 -9.62411 -0.34882307064 
-88.159799694 -10.053 -0.35388530588 -88.159799694 -10.053 -0.35388530588 -80.831956929 -9.62411 -0.34882307064 
-66.483842133 -8.7804 -0.3318778668 -45.723856275 -7.55194 -0.29249372493 -19.435968833 -5.98057 -0.20557116698 
-4.1329 -0.11424925197 11.287919252 -2.04216 0.16930265138 45.085597349 -1.15099 -0.19178580119 62.518385801 
-3.2495 -0.31312912304 27.754369123 -5.17998 -4.6064918887 -0.40560811125 -33.203165642 -6.85468 -0.4061243584 
-56.816901784 -8.22266 -0.37073821628 -74.44422871 -9.23701 -0.32615128964 -85.332505385 -9.86177 -0.29338461472 
-89.0149 -10.0729 -0.281658 -85.332505385 -9.86177 -0.29338461472 -74.44422871 -9.23701 -0.32615128964 
-56.816901784 -8.22266 -0.37073821628 -33.203165642 -6.85468 -0.4061243584 -5.17998 -4.6064918887 -0.40560811125 
-3.2495 -0.31312912304 27.754369123 -1.15099 -0.19178580119 62.518385801 0.22465656154 2.13542 115.76954344 
0.4626990021 4.22791 149.746601 0.55354528938 6.08873 180.71075471 0.61038899942 7.68021 207.337711 
0.62815333225 8.93194 228.45554667 0.62967449567 9.79836 243.1409055 0.62678063664 10.2465 250.74980936 
0.62762951862 10.2604 250.94487048 0.63219901477 9.83854 243.71024099 0.63225377184 8.99423 229.35024623 
0.61620023265 7.75807 208.48399977 0.56078492346 6.1739 182.01361508 0.47086091478 4.31128 151.10123909 
0.23257151266 2.20774 117.07222849 0.30893477385 1.11872 98.158565226 0.38573349171 3.20886 133.02746651 
0.44976647577 5.14876 165.61183352 0.42656317877 6.84312 194.52003682 0.37753623511 8.23812 218.49026376 
0.32597765229 9.28145 236.47592235 0.29080441979 9.93203 247.68295558 0.27867099999 10.1614 251.608 
0.29119952229 9.95837 248.06717048 0.32705389374 9.33139 237.21184611 0.37956151357 8.30648 219.51553849 
0.43021661277 6.92276 195.74978339 0.45528678954 5.23129 166.94611321 0.39247477818 3.28528 134.36142522 
0.31676274556 1.18069 99.393037254 -2.01368 0.17585954963 46.02344045 -4.13392 -0.11026504892 11.956195049 
-19.054532753 -6.01153 -0.20416724658 -45.617203226 -7.61076 -0.29316677418 -66.611918638 -8.86248 -0.33379136234 
-81.130548105 -9.72286 -0.35151189497 -88.548181122 -10.1604 -0.35690887772 -88.548181122 -10.1604 -0.35690887772 
-81.130548105 -9.72286 -0.35151189497 -66.611918638 -8.86248 -0.33379136234 -45.617203226 -7.61076 -0.29316677418 
-19.054532753 -6.01153 -0.20416724658 -4.13392 -0.11026504892 11.956195049 -2.01368 0.17585954963 46.02344045 
-1.11206 -0.18764683677 63.567646837 -3.23853 -0.31257278851 28.556082789 -5.19847 -4.0849858126 -0.40733418742 
-32.964511229 -6.90169 -0.40938877073 -56.834812071 -8.29471 -0.37435792904 -74.666141691 -9.32859 -0.32967830932 
-85.685483555 -9.96573 -0.296706445 -89.4131 -10.1811 -0.284885 -85.685483555 -9.96573 -0.296706445 
-74.666141691 -9.32859 -0.32967830932 -56.834812071 -8.29471 -0.37435792904 -32.964511229 -6.90169 -0.40938877073 
-5.19847 -4.0849858126 -0.40733418742 -3.23853 -0.31257278851 28.556082789 -1.11206 -0.18764683677 63.567646837 
-7.729808 0.0193205 91.896298 -6.504843417 0.0292537 94.243713417 -3.68524443 0.0345747 96.18631443 
0.0237633 0.9723915735 97.262348427 -0.00589473 7.1413037096 97.13690629 -0.0450082 13.49845008 95.98774992 
-0.0731017 17.706252191 94.810847809 -0.0728533 17.615412366 94.817587634 -0.0444507 13.26776871 95.97003129 
-0.00540744 6.8485059258 97.026264074 0.0239329 0.66979906186 97.014670938 -3.9827686248 0.0344284 95.789608625 
-6.8091799667 0.028954 93.705899967 -8.0670873006 0.0189829 91.233747301 -7.9545369891 -0.0221251 90.633366989 
-7.3344407123 -0.0220718 92.969830712 -5.3102488145 -0.0130081 95.114828815 -1.5023299317 0.0011288 96.663589932 
0.0160491 4.0729008512 97.224789149 0.0258748 10.587202582 96.678997418 0.0289559 16.147777003 95.547822997 
0.0290431 18.340059842 94.954040158 0.0289443 15.981949187 95.544650813 0.0258427 10.321414774 96.615385226 
0.0160357 3.774214874 97.044525126 -1.8007528243 0.00122002 96.340262824 -5.607833607 -0.0127362 94.647033607 
-7.6509092747 -0.0215755 92.369899275 -8.3190553792 -0.021395 89.918115379 -9.7660377816 -0.0376713 87.548797782 
-10.898367823 -0.0418548 84.983247823 -11.225327475 -0.0331088 80.472927475 -10.150843882 0.00274312 73.650313882 
-7.1835200322 0.0665376 64.675710032 -2.5162128158 0.140611 54.849208816 0.191482 1.8043377564 47.501582244 
0.191482 1.8043377564 47.501582244 -2.5162128158 0.140611 54.849208816 -7.1835200322 0.0665376 64.675710032 
-10.150843882 0.00274312 73.650313882 -11.225327475 -0.0331088 80.472927475 -10.898367823 -0.0418548 84.983247823 
-9.7660377816 -0.0376713 87.548797782 -8.9018272987 0.0360639 88.376627299 -10.176866105 0.035486 86.539306105 
-10.920284712 0.025859 82.975294712 -10.62416591 0.010343 77.19967591 -8.7557206099 -0.00599597 69.08805061 
-5.0903606196 -0.0166122 59.36077062 -0.52102588296 -0.0197179 50.275994883 -0.0196694 1.8755 46.1959 
-0.52102588296 -0.0197179 50.275994883 -5.0903606196 -0.0166122 59.36077062 -8.7557206099 -0.00599597 69.08805061 
-10.62416591 0.010343 77.19967591 -10.920284712 0.025859 82.975294712 -10.176866105 0.035486 86.539306105 
-8.9018272987 0.0360639 88.376627299 -8.0670873006 0.0189829 91.233747301 -6.8091799667 0.028954 93.705899967 
-3.9827686248 0.0344284 95.789608625 0.0239329 0.66979906186 97.014670938 -0.00540744 6.8485059258 97.026264074 
-0.0444507 13.26776871 95.97003129 -0.0728533 17.615412366 94.817587634 -0.0731017 17.706252191 94.810847809 
-0.0450082 13.49845008 95.98774992 -0.00589473 7.1413037096 97.13690629 0.0237633 0.9723915735 97.262348427 
-3.68524443 0.0345747 96.18631443 -6.504843417 0.0292537 94.243713417 -7.729808 0.0193205 91.896298 
-8.3190553792 -0.021395 89.918115379 -7.6509092747 -0.0215755 92.369899275 -5.607833607 -0.0127362 94.647033607 
-1.8007528243 0.00122002 96.340262824 0.0160357 3.774214874 97.044525126 0.0258427 10.321414774 96.615385226 
0.0289443 15.981949187 95.544650813 0.0290431 18.340059842 94.954040158 0.0289559 16.147777003 95.547822997 
0.0258748 10.587202582 96.678997418 0.0160491 4.0729008512 97.224789149 -1.5023299317 0.0011288 96.663589932 
-5.3102488145 -0.0130081 95.114828815 -7.3344407123 -0.0220718 92.969830712 -7.9545369891 -0.0221251 90.633366989 
-9.3545609204 -0.0371238 88.40374092 -10.480480034 -0.041445 85.907310034 -10.796599918 -0.0328241 81.441659918 
-9.6968374727 0.00310643 74.628607473 -6.6790929004 0.0672947 65.6200329 -1.9326245585 0.141988 55.718000559 
0.193348 2.4691292644 48.288000736 0.193348 2.4691292644 48.288000736 -1.9326245585 0.141988 55.718000559 
-6.6790929004 0.0672947 65.6200329 -9.6968374727 0.00310643 74.628607473 -10.796599918 -0.0328241 81.441659918 
-10.480480034 -0.041445 85.907310034 -9.3545609204 -0.0371238 88.40374092 -8.495451623 0.0362405 89.190351623 
-9.7625957922 0.0357956 87.431105792 -10.497307738 0.0261775 83.924597738 -10.183237708 0.0106343 78.176257708 
-8.2776477307 -0.00578447 70.051567731 -4.5481787891 -0.0164755 60.266898789 -0.01961 0.10493976461 51.096110235 
-0.0195625 2.55006 46.9652 -0.01961 0.10493976461 51.096110235 -4.5481787891 -0.0164755 60.266898789 
-8.2776477307 -0.00578447 70.051567731 -10.183237708 0.0106343 78.176257708 -10.497307738 0.0261775 83.924597738 
-9.7625957922 0.0357956 87.431105792 -8.495451623 0.0362405 89.190351623 -5.9165387162 -2.64403 115.81736872 
-1.87748 0.261443374 92.268223626 -1.46415 -1.3608188296 87.28395883 -0.797099 -0.32375895956 83.83364196 
-0.629598 -0.30167368559 81.522072686 -0.483115 -0.18055548206 80.034650482 -0.394385 -0.13582123885 79.059332239 
-0.326564 -0.10049337843 78.449422378 -0.274521 -0.077777435243 78.100416035 -0.232235 -0.060884057605 77.944611958 
-0.196893 -0.048087882485 77.933009182 -0.16656 -0.037878020308 78.02920722 -0.140022 -0.029440269786 78.20440577 
-0.116479 -0.022227849107 78.435104649 -0.0954149 -0.015894643081 78.701103743 -0.0765199 -0.010219178648 78.984402979 
-0.0596394 -0.0050707804648 79.26830231 -0.0447438 -0.00038817978031 79.537401714 -0.0319064 0.0038329892546 79.776901181 
-0.0212849 0.0075480816932 79.973000718 -0.0131031 0.010669953545 80.112700346 -0.00762899 0.013076004658 80.184700095 
-0.00514682 0.014617999907 80.1795 -0.00592268 0.015134807525 80.090400092 -0.0101622 0.014471710503 79.914100389 
-0.0179631 0.012501619672 79.65150088 -0.0292638 0.0091536250178 79.308401515 -0.0437946 0.0044414606946 78.896102199 
6.95631 16.29910414 155.35769586 -6.9385644906 -4.27317 98.376964491 -1.03703 -0.026986771115 90.941737371 
-0.898175 -0.61744922251 85.843799223 -0.629107 -0.23881219733 82.763643197 -0.50196 -0.18918801069 80.832131011 
-0.406409 -0.12727717324 79.576017173 -0.338081 -0.096301657567 78.774511158 -0.284797 -0.073652435464 78.289107535 
-0.24186 -0.057914486254 78.033305386 -0.206044 -0.045991504276 77.947304004 -0.175415 -0.036652075902 77.987903076 
-0.148697 -0.029018919994 78.12230242 -0.125054 -0.022571234169 78.324301934 -0.103935 -0.016966756247 78.571901556 
-0.0849965 -0.011987447792 78.845901248 -0.0680475 -0.0074987546624 79.128900985 -0.0530201 -0.003428232494 79.404900752 
-0.0399457 0.00024708773151 79.658800544 -0.0289374 0.003508620851 79.876200359 -0.0201736 0.0063019081707 80.043700202 
-0.013879 0.0085420582073 80.149300082 -0.0103013 0.010120488042 80.182500012 -0.0096825 0.010914293757 80.135300006 
-0.0122239 0.010798924201 80.002600076 -0.0180452 0.0096642459119 79.783300224 -0.02714 0.0074355183652 79.480700442 
-0.0393376 0.0040886175105 79.103400702 -0.0542328 -0.00028524308427 78.665500959 -0.081251 -0.0088670553277 77.912803355 
-0.102525 -0.016964870123 77.39190337 -0.123376 -0.025188035728 76.904202936 -0.142268 -0.032880935262 76.485702135 
-0.15767 -0.039369184237 76.170701184 -0.168227 -0.044038380011 75.98870038 -0.172924 -0.046420006373 75.961200006 
-0.17121 -0.046259430095 76.09970023 -0.163067 -0.043553635079 76.404501035 -0.149016 -0.038551125321 76.864302225 
-0.130037 -0.031713395464 77.458003495 -0.107448 -0.023647235961 78.156404536 -0.0827419 -0.015017127533 78.925505128 
-0.0574126 -0.006470228008 79.729505188 -0.0717181 -0.0057464704694 78.17460113 -0.0909475 -0.012024914842 77.655401215 
-0.110342 -0.018574849448 77.151901149 -0.12858 -0.024954728502 76.699500929 -0.144259 -0.030625405218 76.333400605 
-0.156072 -0.035074074937 76.085400275 -0.162946 -0.037869548365 75.980900048 -0.164172 -0.038724212495 76.036500012 
-0.159495 -0.037535396913 76.258100197 -0.149138 -0.034400461138 76.640100561 -0.133779 -0.029601309311 77.166301009 
-0.114454 -0.023562925071 77.811801425 -0.0924357 -0.0167905107 78.544801711 -0.0690873 -0.0098158527263 79.330601813 
-0.0456863 -0.0030673400904 80.13380174 -0.0112787 0.007887969881 81.27110387 0.00793697 0.013220342643 81.958203057 
0.017273362981 0.024282 82.577202237 0.020051292635 0.0375388 83.116301507 0.021641076953 0.0477018 83.568900923 
0.022188799909 0.0549313 83.9328005 0.02187207358 0.0595033 84.209900226 0.020878925877 0.0617645 84.405300074 
0.01939089018 0.0620933 84.52590001 0.017572598131 0.0608694 84.580300002 0.015564875679 0.058452 84.577600024 
0.013482441718 0.0551654 84.527300058 0.011414008425 0.0512924 84.438600092 0.0094249924727 0.0470706 84.320300118 
0.0075601665257 0.0426947 84.180300133 0.0058474906484 0.0383189 84.025700139 0.0043016734388 0.0340623 83.863100137 
0.0029274028545 0.0300138 83.697800127 0.0017222267469 0.0262373 83.534600113 0.00067891016243 0.0227768 83.377500097 
-0.00021265351484 0.019661 83.22970008 -0.00096399352675 0.0169066 83.094100063 -0.0015869367728 0.0145224 82.972700047 
-0.0020927828628 0.0125109 82.867400033 -0.0024917911851 0.0108714 82.779600021 -0.002792681967 0.00960133 82.710300012 
-0.0030024953308 0.00869721 82.660300005 -0.0031263113341 0.00815612 82.630100001 -0.023878 0.0029020924332 80.903901578 
-0.0044801 0.0078263354071 81.615801285 0.011797235747 0.0125456 82.268500964 0.014729332756 0.0268397 82.847300667 
0.016661278968 0.038283 83.342900421 0.017682462962 0.0469254 83.751000237 0.01792008624 0.0529494 84.071600114 
0.017519158252 0.0566272 84.308000042 0.01662719186 0.0582826 84.466100008 0.015383299981 0.0582591 84.5538 
0.013910693612 0.0568956 84.579900006 0.012313481 0.054509 84.553600019 0.010675267628 0.0513837 84.484400032 
0.0090599966331 0.0477661 84.381100043 0.0075141894034 0.0438635 84.252200051 0.0060693361628 0.039845 84.105100054 
0.0047447964592 0.0358454 83.946600054 0.0035503995242 0.0319686 83.78280005 0.0024889445113 0.0282929 83.618700045 
0.0015582006353 0.024875 83.458700039 0.00075265823943 0.0217545 83.306300033 6.4869214705e-05 0.0189577 83.164700026 
-0.00051350800697 0.0165008 83.03630002 -0.00099091447518 0.0143928 82.923000014 -0.0013753197473 0.0126375 82.82650001 
-0.0016737959138 0.0112357 82.748000006 -0.0018922830208 0.0101866 82.688400003 -0.0020353510878 0.00948841 82.648300001 
-0.0021061001209 0.00913976 82.6281 -0.00110703 0.0070076799176 82.5029 -0.0015789 0.036180999973 82.3512 
-0.00138309 0.081829399964 82.1683 -0.00118772 0.14109299996 81.9591 -0.00102104 0.21202799996 81.728 
-0.0008762 0.29300599996 81.4794 -0.000745163 0.38261799997 81.2168 -0.000619787 0.47959299997 80.9439 
-0.000492844 0.58271199998 80.6638 -0.000358301 0.69073799998 80.3799 -0.000211677 0.80235799999 80.0953 
-5.02931e-05 0.91613299999 79.8133 0.000126566 1.03048 79.5373 0.000317592 1.14365 79.2707 
0.000519459 1.25375 79.0171 0.00173238 0.0032252799882 82.5696 -6.15323e-06 0.023582299929 82.4355 
-8.17158e-05 0.060987299964 82.2674 -8.96433e-05 0.11313099997 82.0705 -9.38199e-05 0.17794999997 81.8496 
-0.000101122 0.25365599998 81.6091 -0.000109685 0.33872299998 81.3528 -0.000118236 0.43180399998 81.0845 
-0.000125421 0.53164499998 80.8074 -0.000130083 0.63701199998 80.5249 -0.000131288 0.74662599998 80.2401 
-0.000128384 0.85910599998 79.9562 -0.000121038 0.97293999998 79.6766 -0.000109263 1.08646 79.4046 
-9.34147e-05 1.19786 79.1438 -7.43317e-05 1.30519 78.8978 0.000939489 1.45711 78.562 
0.00113977 1.54614 78.3676 0.00132345 1.62393 78.2001 0.00148236 1.68863 78.0622 
0.001609 1.73866 77.9566 0.00169717 1.77274 77.885 0.00174241 1.79001 77.8489 
0.00174241 1.79001 77.8489 0.00169717 1.77274 77.885 0.001609 1.73866 77.9566 
0.00148236 1.68863 78.0622 0.00132345 1.62393 78.2001 0.00113977 1.54614 78.3676 
0.000939489 1.45711 78.562 -5.43586e-05 1.40661 78.6696 -3.19141e-05 1.50005 78.4628 
-9.57642e-06 1.58324 78.2812 1.11908e-05 1.65429 78.1281 2.90144e-05 1.7115 78.0059 
4.2698e-05 1.75344 77.9169 5.13061e-05 1.77904 77.8629 5.42435e-05 1.78765 77.8448 
5.13061e-05 1.77904 77.8629 4.2698e-05 1.75344 77.9169 2.90144e-05 1.7115 78.0059 
1.11908e-05 1.65429 78.1281 -9.57642e-06 1.58324 78.2812 -3.19141e-05 1.50005 78.4628 
-5.43586e-05 1.40661 78.6696 0.000519459 1.25375 79.0171 0.000317592 1.14365 79.2707 
0.000126566 1.03048 79.5373 -5.02931e-05 0.91613299999 79.8133 -0.000211677 0.80235799999 80.0953 
-0.000358301 0.69073799998 80.3799 -0.000492844 0.58271199998 80.6638 -0.000619787 0.47959299997 80.9439 
-0.000745163 0.38261799997 81.2168 -0.0008762 0.29300599996 81.4794 -0.00102104 0.21202799996 81.728 
-0.00118772 0.14109299996 81.9591 -0.00138309 0.081829399964 82.1683 -0.0015789 0.036180999973 82.3512 
-0.00110703 0.0070076799176 82.5029 -7.43317e-05 1.30519 78.8978 -9.34147e-05 1.19786 79.1438 
-0.000109263 1.08646 79.4046 -0.000121038 0.97293999998 79.6766 -0.000128384 0.85910599998 79.9562 
-0.000131288 0.74662599998 80.2401 -0.000130083 0.63701199998 80.5249 -0.000125421 0.53164499998 80.8074 
-0.000118236 0.43180399998 81.0845 -0.000109685 0.33872299998 81.3528 -0.000101122 0.25365599998 81.6091 
-9.38199e-05 0.17794999997 81.8496 -8.96433e-05 0.11313099997 82.0705 -8.17158e-05 0.060987299964 82.2674 
-6.15323e-06 0.023582299929 82.4355 0.00173238 0.0032252799882 82.5696 -0.0031263113341 0.00815612 82.630100001 
-0.0030024953308 0.00869721 82.660300005 -0.002792681967 0.00960133 82.710300012 -0.0024917911851 0.0108714 82.779600021 
-0.0020927828628 0.0125109 82.867400033 -0.0015869367728 0.0145224 82.972700047 -0.00096399352675 0.0169066 83.094100063 
-0.00021265351484 0.019661 83.22970008 0.00067891016243 0.0227768 83.377500097 0.0017222267469 0.0262373 83.534600113 
0.0029274028545 0.0300138 83.697800127 0.0043016734388 0.0340623 83.863100137 0.0058474906484 0.0383189 84.025700139 
0.0075601665257 0.0426947 84.180300133 0.0094249924727 0.0470706 84.320300118 0.011414008425 0.0512924 84.438600092 
0.013482441718 0.0551654 84.527300058 0.015564875679 0.058452 84.577600024 0.017572598131 0.0608694 84.580300002 
0.01939089018 0.0620933 84.52590001 0.020878925877 0.0617645 84.405300074 0.02187207358 0.0595033 84.209900226 
0.022188799909 0.0549313 83.9328005 0.021641076953 0.0477018 83.568900923 0.020051292635 0.0375388 83.116301507 
0.017273362981 0.024282 82.577202237 0.00793697 0.013220342643 81.958203057 -0.0112787 0.007887969881 81.27110387 
-0.0021061001209 0.00913976 82.6281 -0.0020353510878 0.00948841 82.648300001 -0.0018922830208 0.0101866 82.688400003 
-0.0016737959138 0.0112357 82.748000006 -0.0013753197473 0.0126375 82.82650001 -0.00099091447518 0.0143928 82.923000014 
-0.00051350800697 0.0165008 83.03630002 6.4869214705e-05 0.0189577 83.164700026 0.00075265823943 0.0217545 83.306300033 
0.0015582006353 0.024875 83.458700039 0.0024889445113 0.0282929 83.618700045 0.0035503995242 0.0319686 83.78280005 
0.0047447964592 0.0358454 83.946600054 0.0060693361628 0.039845 84.105100054 0.0075141894034 0.0438635 84.252200051 
0.0090599966331 0.0477661 84.381100043 0.010675267628 0.0513837 84.484400032 0.012313481 0.054509 84.553600019 
0.013910693612 0.0568956 84.579900006 0.015383299981 0.0582591 84.5538 0.01662719186 0.0582826 84.466100008 
0.017519158252 0.0566272 84.308000042 0.01792008624 0.0529494 84.071600114 0.017682462962 0.0469254 83.751000237 
0.016661278968 0.038283 83.342900421 0.014729332756 0.0268397 82.847300667 0.011797235747 0.0125456 82.268500964 
-0.0044801 0.0078263354071 81.615801285 -0.023878 0.0029020924332 80.903901578 -0.0574126 -0.006470228008 79.729505188 
-0.0827419 -0.015017127533 78.925505128 -0.107448 -0.023647235961 78.156404536 -0.130037 -0.031713395464 77.458003495 
-0.149016 -0.038551125321 76.864302225 -0.163067 -0.043553635079 76.404501035 -0.17121 -0.046259430095 76.09970023 
-0.172924 -0.046420006373 75.961200006 -0.168227 -0.044038380011 75.98870038 -0.15767 -0.039369184237 76.170701184 
-0.142268 -0.032880935262 76.485702135 -0.123376 -0.025188035728 76.904202936 -0.102525 -0.016964870123 77.39190337 
-0.081251 -0.0088670553277 77.912803355 -0.0456863 -0.0030673400904 80.13380174 -0.0690873 -0.0098158527263 79.330601813 
-0.0924357 -0.0167905107 78.544801711 -0.114454 -0.023562925071 77.811801425 -0.133779 -0.029601309311 77.166301009 
-0.149138 -0.034400461138 76.640100561 -0.159495 -0.037535396913 76.258100197 -0.164172 -0.038724212495 76.036500012 
-0.162946 -0.037869548365 75.980900048 -0.156072 -0.035074074937 76.085400275 -0.144259 -0.030625405218 76.333400605 
-0.12858 -0.024954728502 76.699500929 -0.110342 -0.018574849448 77.151901149 -0.0909475 -0.012024914842 77.655401215 
-0.0717181 -0.0057464704694 78.17460113 -0.0437946 0.0044414606946 78.896102199 -0.0292638 0.0091536250178 79.308401515 
-0.0179631 0.012501619672 79.65150088 -0.0101622 0.014471710503 79.914100389 -0.00592268 0.015134807525 80.090400092 
-0.00514682 0.014617999907 80.1795 -0.00762899 0.013076004658 80.184700095 -0.0131031 0.010669953545 80.112700346 
-0.0212849 0.0075480816932 79.973000718 -0.0319064 0.0038329892546 79.776901181 -0.0447438 -0.00038817978031 79.537401714 
-0.0596394 -0.0050707804648 79.26830231 -0.0765199 -0.010219178648 78.984402979 -0.0954149 -0.015894643081 78.701103743 
-0.116479 -0.022227849107 78.435104649 -0.140022 -0.029440269786 78.20440577 -0.16656 -0.037878020308 78.02920722 
-0.196893 -0.048087882485 77.933009182 -0.232235 -0.060884057605 77.944611958 -0.274521 -0.077777435243 78.100416035 
-0.326564 -0.10049337843 78.449422378 -0.394385 -0.13582123885 79.059332239 -0.483115 -0.18055548206 80.034650482 
-0.629598 -0.30167368559 81.522072686 -0.797099 -0.32375895956 83.83364196 -1.46415 -1.3608188296 87.28395883 
-1.87748 0.261443374 92.268223626 -5.9165387162 -2.64403 115.81736872 -0.0542328 -0.00028524308427 78.665500959 
-0.0393376 0.0040886175105 79.103400702 -0.02714 0.0074355183652 79.480700442 -0.0180452 0.0096642459119 79.783300224 
-0.0122239 0.010798924201 80.002600076 -0.0096825 0.010914293757 80.135300006 -0.0103013 0.010120488042 80.182500012 
-0.013879 0.0085420582073 80.149300082 -0.0201736 0.0063019081707 80.043700202 -0.0289374 0.003508620851 79.876200359 
-0.0399457 0.00024708773151 79.658800544 -0.0530201 -0.003428232494 79.404900752 -0.0680475 -0.0074987546624 79.128900985 
-0.0849965 -0.011987447792 78.845901248 -0.103935 -0.016966756247 78.571901556 -0.125054 -0.022571234169 78.324301934 
-0.148697 -0.029018919994 78.12230242 -0.175415 -0.036652075902 77.987903076 -0.206044 -0.045991504276 77.947304004 
-0.24186 -0.057914486254 78.033305386 -0.284797 -0.073652435464 78.289107535 -0.338081 -0.096301657567 78.774511158 
-0.406409 -0.12727717324 79.576017173 -0.50196 -0.18918801069 80.832131011 -0.629107 -0.23881219733 82.763643197 
-0.898175 -0.61744922251 85.843799223 -1.03703 -0.026986771115 90.941737371 -6.9385644906 -4.27317 98.376964491 
6.95631 16.29910414 155.35769586 0.31056 23.50449503 107.19420497 0.897055 22.930549143 98.222150857 
0.168524 21.66205185 90.45004815 0.238718 21.601804387 86.813195613 0.18649 21.574653246 84.129246754 
0.168459 21.632865291 82.189134709 0.149943 21.706215494 80.675084506 0.136268 21.782329119 79.456770881 
0.124725 21.850551004 78.446848996 0.115006 21.907364312 77.592235688 0.10659 21.951210368 76.857489632 
0.0992109 21.982315302 76.218484698 0.0926703 22.001733903 75.658866097 0.0868411 22.011009731 75.167090269 
0.0816402 22.011982004 74.735217996 7.93514 31.701296267 145.64290373 -0.285255 22.319455515 99.795444485 
0.457822 22.17147243 93.72892757 0.20385 21.602641068 88.384658932 0.207631 21.574868152 85.343531848 
0.174541 21.598355605 83.083544395 0.157089 21.667874386 81.384125614 0.14172 21.744539887 80.033660113 
0.129504 21.817678361 78.929221639 0.119137 21.880700326 78.003099674 0.110241 21.931114763 77.212485237 
0.102459 21.968608998 76.528391002 0.095577 21.993722241 75.930977759 0.0894433 22.007965777 75.406534223 
0.0839606 22.012861237 74.945638763 0.0790681 22.010283154 74.541616846 0.0729387 21.996417138 74.030082862 
0.0694092 21.983703014 73.751196986 0.0664366 21.970033635 73.519766365 0.0640325 21.957193394 73.335006606 
0.0622117 21.946281899 73.196518101 0.0609884 21.938419677 73.104280323 0.0603738 21.934252307 73.058147693 
0.0603738 21.934252307 73.058147693 0.0609884 21.938419677 73.104280323 0.0622117 21.946281899 73.196518101 
0.0640325 21.957193394 73.335006606 0.0664366 21.970033635 73.519766365 0.0694092 21.983703014 73.751196986 
0.0729387 21.996417138 74.030082862 0.0747239 22.002295356 74.189404644 0.07092 21.990671429 73.886328571 
0.0676657 21.97728886 73.63131114 0.0649715 21.963880664 73.423319336 0.0628526 21.951786675 73.261713325 
0.0613248 21.942365543 73.146334457 0.0604021 21.936300425 73.076999575 0.0600934 21.9342 73.054 
0.0604021 21.936300425 73.076999575 0.0613248 21.942365543 73.146334457 0.0628526 21.951786675 73.261713325 
0.0649715 21.963880664 73.423319336 0.0676657 21.97728886 73.63131114 0.07092 21.990671429 73.886328571 
0.0747239 22.002295356 74.189404644 0.0816402 22.011982004 74.735217996 0.0868411 22.011009731 75.167090269 
0.0926703 22.001733903 75.658866097 0.0992109 21.982315302 76.218484698 0.10659 21.951210368 76.857489632 
0.115006 21.907364312 77.592235688 0.124725 21.850551004 78.446848996 0.136268 21.782329119 79.456770881 
0.149943 21.706215494 80.675084506 0.168459 21.632865291 82.189134709 0.18649 21.574653246 84.129246754 
0.238718 21.601804387 86.813195613 0.168524 21.66205185 90.45004815 0.897055 22.930549143 98.222150857 
0.31056 23.50449503 107.19420497 0.0790681 22.010283154 74.541616846 0.0839606 22.012861237 74.945638763 
0.0894433 22.007965777 75.406534223 0.095577 21.993722241 75.930977759 0.102459 21.968608998 76.528391002 
0.110241 21.931114763 77.212485237 0.119137 21.880700326 78.003099674 0.129504 21.817678361 78.929221639 
0.14172 21.744539887 80.033660113 0.157089 21.667874386 81.384125614 0.174541 21.598355605 83.083544395 
0.207631 21.574868152 85.343531848 0.20385 21.602641068 88.384658932 0.457822 22.17147243 93.72892757 
-0.285255 22.319455515 99.795444485 7.93514 31.701296267 145.64290373 -6.3742832311 0.00453331 89.655603231 
-5.0080060621 0.0162005 89.249896062 -3.8449064196 0.0204963 88.53398642 -2.8985299322 0.0202092 87.675919932 
-2.1520363256 0.0178169 86.773066326 -1.5772177295 0.0147284 85.876667729 -1.1429655132 0.0116571 85.009385513 
-0.81977325856 0.00892313 84.177897259 -0.58171106869 0.00663448 83.380694069 -0.40707247604 0.00480127 82.612595476 
-0.27835530206 0.00339865 81.867823302 -0.18205085376 0.00240089 81.141675854 -0.10849991282 0.00179601 80.432049413 
-0.052190362224 0.00139014 79.740732562 -0.01527515553 -0.00285217 79.073257556 -7.0623893336 0.0139897 89.687759334 
-5.6630201141 0.01291 89.508730114 -4.4175475036 0.0118143 88.911727504 -3.3735331938 0.00983508 88.104863194 
-2.5315351803 0.00786386 87.21539518 -1.8720484573 0.00609345 86.312888457 -1.3670851888 0.00461951 85.431415189 
-0.98728900327 0.00343893 84.583909003 -0.70543282087 0.00251547 83.771894821 -0.49794501388 0.001803 82.991436014 
-0.3453381763 0.00125811 82.236901176 -0.23216691345 0.000844945 81.502692913 -0.14688913969 0.000536153 80.78544814 
-0.08188725402 0.000282931 80.084689154 -0.033751604541 -0.000422853 79.404789305 -0.0112244 -0.0023629619348 78.755072822 
-6.7620291446 0.00409879 88.982029145 -5.3738049413 0.0159526 88.680694941 -4.1821041374 0.0204284 88.076934137 
-3.2017495742 0.0203151 87.339779574 -2.4177543877 0.0180802 86.568214388 -1.8038448909 0.0151273 85.814674891 
-1.3307572726 0.0121666 85.103517273 -0.97053661154 0.00951453 84.442508612 -0.69851350129 0.00727506 83.830572501 
-0.49384157236 0.00545428 83.262502572 -0.33950155267 0.00402364 82.731870553 -0.22212328975 0.002955 82.23277929 
-0.13194384036 0.00224016 81.76141084 -0.063218761055 0.00178809 81.317622561 -0.016853436821 -0.000604051 80.905999037 
-7.4575269696 0.0135484 88.96435697 -6.0399203455 0.0125778 88.885650346 -4.769419365 0.011524 88.396599365 
-3.6942871343 0.00959494 87.706127134 -2.8167160181 0.00766746 86.942446018 -2.1190600482 0.00593738 86.176780048 
-1.5752231988 0.00450025 85.444653199 -1.1575353176 0.00335302 84.760295318 -0.84019115288 0.00245908 84.126095153 
-0.60066603828 0.00177173 83.538419038 -0.42013866695 0.00124687 82.991094667 -0.28346466495 0.000848065 82.477794665 
-0.17910700587 0.000548037 81.993538006 -0.099299686856 0.000311406 81.536103487 -0.040646486538 -0.000138498 81.107847187 
-0.00622694 -0.0046623154788 80.717266135 -7.8064116207 -0.0358361 86.530761621 -6.9793042686 -0.0385971 84.652574269 
-6.0146130432 -0.0363846 83.094953043 -5.0392686158 -0.0316437 81.844388616 -4.1226826618 -0.026166 80.865182662 
-3.2970783462 -0.0209598 80.115108346 -2.5722334766 -0.0164277 79.552333477 -1.9457787259 -0.0126796 79.139388726 
-1.4094947056 -0.00967264 78.843944706 -0.95297136968 -0.00730551 78.63961637 -0.5655936879 -0.00546331 78.504952688 
-0.23748226557 -0.00403897 78.423157266 -0.00294108 0.040117962861 78.380795637 -0.00209534 0.27476850183 78.367606498 
-0.00144312 0.47290561494 78.375458385 -0.000938985 0.6399760168 78.398175983 -0.000548128 0.78057100923 78.430744991 
-0.000244096 0.89857103499 78.469508965 -6.86104e-06 0.99725724033 78.51146276 0.000178706 1.0793955212 78.554344479 
0.000324023 1.1473427946 78.596227205 0.000437704 1.2030673519 78.635812648 0.000526242 1.2482547774 78.671925223 
0.000594516 1.2842826501 78.70370735 0.000646168 1.3122743405 78.730515659 0.000683878 1.3331318087 78.751918191 
0.000709553 1.3475578457 78.767392154 0.000724471 1.3560176701 78.77672233 -8.0933417806 -0.0238077 87.602061781 
-7.3963717414 -0.0201804 85.596661741 -6.4784500741 -0.0174192 83.887130074 -5.4982878709 -0.0140739 82.486667871 
-4.5497518088 -0.0110264 81.371851809 -3.6800671859 -0.00842148 80.505737186 -2.9080415927 -0.00630988 79.847311593 
-2.2361395301 -0.00464979 79.35752953 -1.6584304094 -0.00337079 79.001590409 -1.1653179777 -0.00239843 78.750247978 
-0.74618285586 -0.0016657 78.579556856 -0.39079370593 -0.00111681 78.470377706 -0.089879602617 -0.000707315 78.407438803 
-0.000402749 0.16465746279 78.379088537 -0.000176805 0.37975452024 78.37588148 -9.6206e-06 0.56129769463 78.390816305 
0.000113711 0.7142598767 78.418049123 0.000204346 0.84284124794 78.453496752 0.000270621 0.95059091052 78.493630089 
0.000318772 1.0405131134 78.535866887 0.000353467 1.115146165 78.578063835 0.000378209 1.1766405985 78.618709402 
0.000395629 1.2268226809 78.656417319 0.000407699 1.267198522 78.690321478 0.000415897 1.2990281562 78.719571844 
0.000421318 1.3233089218 78.743631078 0.000424754 1.340848 78.761972 0.000426758 1.3522242245 78.774375775 
0.000427675 1.357819476 78.780630524 -7.8064116207 -0.0358361 86.530761621 -6.9793042686 -0.0385971 84.652574269 
-6.0146130432 -0.0363846 83.094953043 -5.0392686158 -0.0316437 81.844388616 -4.1226826618 -0.026166 80.865182662 
-3.2970783462 -0.0209598 80.115108346 -2.5722334766 -0.0164277 79.552333477 -1.9457787259 -0.0126796 79.139388726 
-1.4094947056 -0.00967264 78.843944706 -0.95297136968 -0.00730551 78.63961637 -0.5655936879 -0.00546331 78.504952688 
-0.23748226557 -0.00403897 78.423157266 -0.00294108 0.040117962861 78.380795637 -0.00209534 0.27476850183 78.367606498 
-0.00144312 0.47290561494 78.375458385 -0.000938985 0.6399760168 78.398175983 -0.000548128 0.78057100923 78.430744991 
-0.000244096 0.89857103499 78.469508965 -6.86104e-06 0.99725724033 78.51146276 0.000178706 1.0793955212 78.554344479 
0.000324023 1.1473427946 78.596227205 0.000437704 1.2030673519 78.635812648 0.000526242 1.2482547774 78.671925223 
0.000594516 1.2842826501 78.70370735 0.000646168 1.3122743405 78.730515659 0.000683878 1.3331318087 78.751918191 
0.000709553 1.3475578457 78.767392154 0.000724471 1.3560176701 78.77672233 -8.0933417806 -0.0238077 87.602061781 
-7.3963717414 -0.0201804 85.596661741 -6.4784500741 -0.0174192 83.887130074 -5.4982878709 -0.0140739 82.486667871 
-4.5497518088 -0.0110264 81.371851809 -3.6800671859 -0.00842148 80.505737186 -2.9080415927 -0.00630988 79.847311593 
-2.2361395301 -0.00464979 79.35752953 -1.6584304094 -0.00337079 79.001590409 -1.1653179777 -0.00239843 78.750247978 
-0.74618285586 -0.0016657 78.579556856 -0.39079370593 -0.00111681 78.470377706 -0.089879602617 -0.000707315 78.407438803 
-0.000402749 0.16465746279 78.379088537 -0.000176805 0.37975452024 78.37588148 -9.6206e-06 0.56129769463 78.390816305 
0.000113711 0.7142598767 78.418049123 0.000204346 0.84284124794 78.453496752 0.000270621 0.95059091052 78.493630089 
0.000318772 1.0405131134 78.535866887 0.000353467 1.115146165 78.578063835 0.000378209 1.1766405985 78.618709402 
0.000395629 1.2268226809 78.656417319 0.000407699 1.267198522 78.690321478 0.000415897 1.2990281562 78.719571844 
0.000421318 1.3233089218 78.743631078 0.000424754 1.340848 78.761972 0.000426758 1.3522242245 78.774375775 
0.000427675 1.357819476 78.780630524 -6.7620291446 0.00409879 88.982029145 -5.3738049413 0.0159526 88.680694941 
-4.1821041374 0.0204284 88.076934137 -3.2017495742 0.0203151 87.339779574 -2.4177543877 0.0180802 86.568214388 
-1.8038448909 0.0151273 85.814674891 -1.3307572726 0.0121666 85.103517273 -0.97053661154 0.00951453 84.442508612 
-0.69851350129 0.00727506 83.830572501 -0.49384157236 0.00545428 83.262502572 -0.33950155267 0.00402364 82.731870553 
-0.22212328975 0.002955 82.23277929 -0.13194384036 0.00224016 81.76141084 -0.063218761055 0.00178809 81.317622561 
-0.016853436821 -0.000604051 80.905999037 -7.4575269696 0.0135484 88.96435697 -6.0399203455 0.0125778 88.885650346 
-4.769419365 0.011524 88.396599365 -3.6942871343 0.00959494 87.706127134 -2.8167160181 0.00766746 86.942446018 
-2.1190600482 0.00593738 86.176780048 -1.5752231988 0.00450025 85.444653199 -1.1575353176 0.00335302 84.760295318 
-0.84019115288 0.00245908 84.126095153 -0.60066603828 0.00177173 83.538419038 -0.42013866695 0.00124687 82.991094667 
-0.28346466495 0.000848065 82.477794665 -0.17910700587 0.000548037 81.993538006 -0.099299686856 0.000311406 81.536103487 
-0.040646486538 -0.000138498 81.107847187 -0.00622694 -0.0046623154788 80.717266135 -6.3742832311 0.00453331 89.655603231 
-5.0080060621 0.0162005 89.249896062 -3.8449064196 0.0204963 88.53398642 -2.8985299322 0.0202092 87.675919932 
-2.1520363256 0.0178169 86.773066326 -1.5772177295 0.0147284 85.876667729 -1.1429655132 0.0116571 85.009385513 
-0.81977325856 0.00892313 84.177897259 -0.58171106869 0.00663448 83.380694069 -0.40707247604 0.00480127 82.612595476 
-0.27835530206 0.00339865 81.867823302 -0.18205085376 0.00240089 81.141675854 -0.10849991282 0.00179601 80.432049413 
-0.052190362224 0.00139014 79.740732562 -0.01527515553 -0.00285217 79.073257556 -7.0623893336 0.0139897 89.687759334 
-5.6630201141 0.01291 89.508730114 -4.4175475036 0.0118143 88.911727504 -3.3735331938 0.00983508 88.104863194 
-2.5315351803 0.00786386 87.21539518 -1.8720484573 0.00609345 86.312888457 -1.3670851888 0.00461951 85.431415189 
-0.98728900327 0.00343893 84.583909003 -0.70543282087 0.00251547 83.771894821 -0.49794501388 0.001803 82.991436014 
-0.3453381763 0.00125811 82.236901176 -0.23216691345 0.000844945 81.502692913 -0.14688913969 0.000536153 80.78544814 
-0.08188725402 0.000282931 80.084689154 -0.033751604541 -0.000422853 79.404789305 -0.0112244 -0.0023629619348 78.755072822 
-7.3122650446 -0.0353982 87.387155045 -6.3638876452 -0.0381569 85.583117645 -5.2489561982 -0.0358751 84.088836198 
-4.0944347579 -0.0310215 82.892104758 -2.9690261894 -0.0253961 81.957986189 -1.9034728164 -0.0200133 81.244372816 
-0.90541009954 -0.0152777 80.7089211 -0.0112991 0.030207996485 80.312878004 -0.00803358 0.91472928004 80.02263072 
-0.00537916 1.7620185491 79.809881451 -0.00322092 2.5863923077 79.650997692 -0.00145349 3.4015420237 79.526477976 
1.03443e-05 4.2200675168 79.420382483 0.00123735 5.0532914276 79.319458572 0.0022744 5.9111606634 79.212489337 
0.00315011 6.8022153832 79.090094617 0.00387683 7.7335155794 78.944394421 0.00445299 8.710552326 78.768647674 
0.00486594 9.7370351052 78.557374895 0.00509576 10.814726721 78.306673279 0.00512026 11.943358965 78.013441035 
0.00492111 13.119979057 77.676720943 0.00449083 14.339414157 77.296585843 0.00383917 15.593918405 76.875581595 
0.0029985 16.873373732 76.417626268 0.00204055 18.165527044 75.928372956 0.00135443 19.457098999 75.415301001 
0.00623947 20.736397938 74.889902062 -7.648860557 -0.024005 88.414410557 -6.8452798106 -0.0203906 86.489329811 
-5.7917126598 -0.0176447 84.84822266 -4.6470895841 -0.0142997 83.506009584 -3.504917335 -0.0112441 82.440447335 
-2.4113086893 -0.00862404 81.614778689 -1.3832364951 -0.00649073 80.988036495 -0.420760612 -0.0048018 80.520025612 
-0.00348586 0.48497943753 80.174854562 -0.00246733 1.346887217 79.921522783 -0.00167808 2.1791445779 79.734135422 
-0.00106145 2.9957637774 79.591156223 -0.000572513 3.8098730382 79.474706962 -0.000176916 4.6333923762 79.370237624 
0.00015066 5.4769155565 79.265414443 0.000427963 6.3496676166 79.149942383 0.000666392 7.2594733252 79.015346675 
0.000871997 8.2126064022 78.854123598 0.00104637 9.2137196088 78.660370391 0.00118757 10.26559536 78.42930464 
0.0012912 11.369019219 78.157480781 0.00135185 12.522374277 77.842825723 0.00136468 13.721801849 77.484998151 
0.00132734 14.960593405 77.085306595 0.00124153 16.229825608 76.646774392 0.00111681 17.518226777 76.174373223 
0.00100929 18.812892765 75.674307235 0.0016893 20.099803086 75.153996914 0.0155472 21.367322346 74.618277654 
-7.3122650446 -0.0353982 87.387155045 -6.3638876452 -0.0381569 85.583117645 -5.2489561982 -0.0358751 84.088836198 
-4.0944347579 -0.0310215 82.892104758 -2.9690261894 -0.0253961 81.957986189 -1.9034728164 -0.0200133 81.244372816 
-0.90541009954 -0.0152777 80.7089211 -0.0112991 0.030207996485 80.312878004 -0.00803358 0.91472928004 80.02263072 
-0.00537916 1.7620185491 79.809881451 -0.00322092 2.5863923077 79.650997692 -0.00145349 3.4015420237 79.526477976 
1.03443e-05 4.2200675168 79.420382483 0.00123735 5.0532914276 79.319458572 0.0022744 5.9111606634 79.212489337 
0.00315011 6.8022153832 79.090094617 0.00387683 7.7335155794 78.944394421 0.00445299 8.710552326 78.768647674 
0.00486594 9.7370351052 78.557374895 0.00509576 10.814726721 78.306673279 0.00512026 11.943358965 78.013441035 
0.00492111 13.119979057 77.676720943 0.00449083 14.339414157 77.296585843 0.00383917 15.593918405 76.875581595 
0.0029985 16.873373732 76.417626268 0.00204055 18.165527044 75.928372956 0.00135443 19.457098999 75.415301001 
0.00623947 20.736397938 74.889902062 -7.648860557 -0.024005 88.414410557 -6.8452798106 -0.0203906 86.489329811 
-5.7917126598 -0.0176447 84.84822266 -4.6470895841 -0.0142997 83.506009584 -3.504917335 -0.0112441 82.440447335 
-2.4113086893 -0.00862404 81.614778689 -1.3832364951 -0.00649073 80.988036495 -0.420760612 -0.0048018 80.520025612 
-0.00348586 0.48497943753 80.174854562 -0.00246733 1.346887217 79.921522783 -0.00167808 2.1791445779 79.734135422 
-0.00106145 2.9957637774 79.591156223 -0.000572513 3.8098730382 79.474706962 -0.000176916 4.6333923762 79.370237624 
0.00015066 5.4769155565 79.265414443 0.000427963 6.3496676166 79.149942383 0.000666392 7.2594733252 79.015346675 
0.000871997 8.2126064022 78.854123598 0.00104637 9.2137196088 78.660370391 0.00118757 10.26559536 78.42930464 
0.0012912 11.369019219 78.157480781 0.00135185 12.522374277 77.842825723 0.00136468 13.721801849 77.484998151 
0.00132734 14.960593405 77.085306595 0.00124153 16.229825608 76.646774392 0.00111681 17.518226777 76.174373223 
0.00100929 18.812892765 75.674307235 0.0016893 20.099803086 75.153996914 0.0155472 21.367322346 74.618277654 
1.28642 3.5580711025 109.2404289 2.64332 5.727142085 138.03155792 4.00164 7.1558274082 165.65167259 
5.26603 8.023900867 190.36239913 6.33369 8.4992948503 210.53090515 7.10666 8.723580774 224.76641923 
7.5086 8.8031762873 232.05949371 7.4984 8.7951741971 231.8824358 7.07754 8.6997073345 224.25409267 
6.28977 8.459932724 209.73246728 5.21325 7.9704096907 189.35329031 3.94665 7.0904573719 164.51984263 
2.59245 5.6543258662 136.86847413 1.24473 3.4831090735 108.12739093 0.584542 2.0102493054 106.06165069 
1.39116 6.9539681533 128.68533185 2.30348 10.584167197 151.8325328 3.23699 13.033899316 173.67930068 
4.08698 14.548345049 192.26745495 4.73706 15.380386949 205.78451305 5.08728 15.732635473 212.83926453 
5.08026 15.716913013 212.68248699 4.71736 15.333803065 205.33429694 4.05824 14.472828009 191.57197199 
3.20408 12.933248395 172.80995161 2.27124 10.465341056 150.86845894 1.36344 6.8273340752 127.69846592 
0.563574 1.8893347531 105.10866525 -1.5781563261 0.197293 105.56613633 0.646814 5.5366715095 122.80192849 
1.22377 11.417033185 141.35526682 1.87446 15.770575376 159.82552462 2.51392 18.673335822 176.27666418 
3.03056 20.375651067 188.65034893 3.31873 21.136872722 195.24482728 3.31407 21.113261496 195.1093385 
3.01774 20.305948112 188.26075189 2.49592 18.561620938 175.67987906 1.85498 15.62521428 159.08558572 
1.20603 11.251799069 140.53650093 0.632869 5.3709043164 121.95689568 -1.7225993725 0.187789 104.72762937 
-5.4158900051 0.00718104 105.92071001 0.235015 2.8076204143 119.04648959 0.577044 10.436475923 133.51212408 
1.0068 16.656382012 148.51891799 1.46492 21.124686408 162.48481359 1.85682 23.892853109 173.37374689 
2.08328 25.177761954 179.31253805 2.08031 25.145628762 179.19807124 1.84883 23.798946757 173.04405324 
1.4542 20.976900845 161.98339916 0.99599 16.469856911 147.89634309 0.568088 10.234313018 132.81708698 
0.228791 2.6173762223 118.31004378 -5.5695652304 0.00356382 105.16177323 -8.6259395782 -0.0686024 106.17758958 
-0.22133047364 0.0310031 116.37532047 0.219987 8.4216944327 127.55780557 0.490754 16.164527192 139.37887281 
0.807263 22.175385581 150.75771442 1.09541 26.115524745 159.93407525 1.26824 28.010418183 165.06168182 
1.26641 27.969254786 164.96664521 1.09063 25.996502599 159.6621974 0.801226 21.992426822 150.34207318 
0.485209 15.942234349 138.85826565 0.215996 8.1924379804 126.96046202 -0.42534940157 0.0287757 115.7190694 
-8.7835405546 -0.0694778 105.47185055 -10.93017619 -0.0862084 105.97106619 -2.9721620884 -0.0573864 114.12956209 
0.036698 5.9870078253 122.83014217 0.199283 14.742460914 131.95363909 0.41223 22.084907034 140.86219297 
0.620332 27.192562145 148.23253786 0.750329 29.742192082 152.44060792 0.749253 29.691631751 152.36486825 
0.617628 27.048456504 148.0153435 0.409093 21.869535527 140.52456447 0.19681 14.491258884 131.51694112 
0.0353696 5.7397971511 122.30676285 -3.1838732387 -0.0576912 113.52983324 -11.09169397 -0.0859414 105.30242397 
-12.332253364 -0.0769507 105.23655336 -5.1737459201 -0.0851303 111.96568592 -0.0478976 3.5659166641 118.84573334 
0.0434816 12.801960482 125.81593952 0.18341 21.136404263 132.53319574 0.332295 27.295366235 138.13193377 
0.429659 30.493826277 141.37377372 0.429069 30.433830112 141.31646989 0.3309 27.127238238 137.96386176 
0.18202 20.893031728 132.26206827 0.0427281 12.529253296 125.4460467 -0.0478855 3.3073311492 118.37867885 
-5.3907711772 -0.0846085 111.40493118 -12.500341012 -0.0763061 104.59334101 -12.957760002 -0.0575805 104.04506 
-6.7529302252 -0.0835453 109.74397023 -0.0795046 1.4132301729 115.30184983 -0.0344177 10.671306873 120.61809313 
0.0545344 19.608142988 125.49975701 0.160107 26.611998713 129.47030129 0.232942 30.400570093 131.75902991 
0.232663 30.331567253 131.71843275 0.159527 26.422146711 129.34525329 0.0541713 19.342170592 125.28252941 
-0.0342515 10.38369028 120.29840972 -0.0788811 1.1474187088 114.87433129 -6.9752889419 -0.0827481 109.20981894 
-13.136068155 -0.0568984 103.41706816 -12.970902738 -0.036489 102.51340274 -7.7449239131 -0.0693799 107.43884391 
-0.35298643381 -0.0841003 112.02915743 -0.0691954 8.5800009693 116.10175903 -0.0163556 17.744596819 119.51470318 
0.0569435 25.333654333 122.07484567 0.110973 29.607045635 123.48135437 0.110891 29.529883925 123.45581608 
0.0568656 25.125474516 121.98642548 -0.0161326 17.461811425 119.33968857 -0.0685754 8.282743602 115.8191664 
-0.62381965748 -0.0832592 111.62716766 -7.9738836313 -0.0685742 106.92120363 -13.163110509 -0.0359085 101.89271051 
-12.534666385 -0.0175819 100.76646639 -8.2361571205 -0.0512717 105.08226712 -1.7057563169 -0.0758384 108.94797632 
-0.0806595 6.6663991187 112.09659088 -0.0540759 15.739680013 114.37561999 -0.00571258 23.639333604 115.7769664 
0.0332874 28.259551392 116.41484861 0.0333303 28.175531187 116.40086881 -0.00548988 23.417124606 115.71797539 
-0.0535406 15.44565427 114.23194573 -0.0798596 6.3633851589 111.83793484 -1.980702707 -0.0749919 108.56209271 
-8.4734851975 -0.0505829 104.5718052 -12.744211894 -0.0171525 100.14571189 -11.792311757 -0.00243016 98.913411757 
-8.3299371792 -0.0335191 102.72461718 -2.6714306612 -0.0622469 106.03159066 -0.0797106 4.9983732215 108.49607678 
-0.072558 13.73262163 109.92567837 -0.0440938 21.685065823 110.42243418 -0.0175988 26.498504512 110.42969549 
-0.0174816 26.409507231 110.42509277 -0.043705 21.453306995 110.38349301 -0.0718873 13.432044689 109.80295531 
-0.0788966 4.6923997168 108.25136028 -2.9503280169 -0.0615118 105.65280802 -8.5775327329 -0.0330046 102.21547273 
-12.02246934 -0.0021656 98.28836934 -10.861010052 0.00884062 97.044510052 -8.1271248081 -0.0180299 100.41994481 
-3.3030429199 -0.0474214 103.28175292 -0.0725091 3.5950461491 105.23531385 -0.0795486 11.813371465 106.04702853 
-0.0670427 19.598148143 105.87125186 -0.0511345 24.453541006 105.39575899 -0.0509792 24.36138702 105.39791298 
-0.0665835 19.361127323 105.84637268 -0.0788628 11.510318655 105.93578134 -0.0717859 3.2881066776 104.99777332 
-3.5861045026 -0.0468629 102.9023945 -8.386798147 -0.0177157 99.906298147 -11.114444381 0.00893715 96.411244381 
-9.8327760932 0.015636 95.224536093 -7.7193779255 -0.00670831 98.211927926 -3.6648417284 -0.0342963 100.70660173 
-0.0625378 2.4455681349 102.27844187 -0.0790238 10.034672809 102.65282719 -0.0793086 17.477038715 102.00666128 
-0.0727429 22.238134452 101.18866555 -0.0725752 22.144635774 101.19376423 -0.0788476 17.238767928 101.98873207 
-0.0784092 9.7324501274 102.54674987 -0.0619776 2.1391315791 102.04060842 -3.952348383 -0.033955 100.32328838 
-7.9926834197 -0.00660816 97.69103342 -10.112104611 0.0155546 94.580604611 -8.7697098573 0.0204364 93.500249857 
-7.1695696085 0.00534842 96.141499609 -3.8005289293 -0.0163205 98.328398929 -0.0440098 1.5440516547 99.611638345 
-0.0681119 8.4370818488 99.684158151 -0.0811171 15.400428688 98.729471312 -0.0843685 19.947761274 97.689438726 
-0.0841948 19.854726677 97.696373323 -0.0806719 15.164430019 98.713169981 -0.0675937 8.1385589235 99.576921076 
-0.0436386 1.2393445807 99.369425419 -4.0926769603 -0.0162122 97.93859696 -7.4577553842 0.00523536 95.611275384 
-9.0770578252 0.0201957 92.845637825 1.50008 2.2963445992 112.0732554 0.585532 2.0669878943 94.872112106 
3.07919 3.0818952366 143.49170476 1.76926 4.5415060538 123.27509395 3.6247087223 4.62744 172.82759128 
2.96893 6.1461678117 151.31833219 3.9734787517 6.03308 198.49952125 4.12691 7.1221834924 177.30051651 
4.1733517975 7.19269 219.1007482 5.15582 7.6485113673 199.55978863 4.2701801272 8.01558 233.46284987 
5.97033 7.8912133476 216.61478665 4.3044893895 8.43744 240.76201061 6.4921 7.9789773422 227.28517266 
4.3007769427 8.42594 240.57713306 6.6666 7.9943641546 230.81101585 4.259135892 7.98258 232.92409411 
6.4748 7.965389577 226.94254042 4.1553909387 7.1425 218.25720906 5.93817 7.8639339439 215.96356606 
3.9493090778 5.97208 197.42699092 5.11316 7.6075466405 198.66025336 3.595846594 4.56308 171.61845341 
4.07925 7.068656613 176.23524339 3.01888 3.0501088711 142.24299113 2.92197 6.082584829 150.17551517 
1.45019 2.26348252 110.87661748 1.7281 4.4721992286 122.14060077 0.554101 1.997667835 93.819532165 
0.746844 2.9670739731 106.88862603 -0.72904610873 0.308247 95.457346109 1.71828 6.3302058792 132.47769412 
0.936528 4.668003597 117.1258964 2.79034 8.7104900534 157.85170995 1.6414 8.7059746811 139.94172532 
3.86825 10.293804548 181.17699545 2.38129 11.469556876 162.29614312 4.83025 11.263422697 200.6185773 
3.08835 13.188911477 182.32928852 5.55348 11.790891281 214.55150872 3.68052 14.14736221 198.20163779 
5.93842 12.011323418 221.75607658 4.07531 14.599917341 208.35708266 5.93024 12.00000226 221.59069774 
4.21079 14.720836107 211.76006389 5.53038 11.757326885 214.07147311 4.06444 14.571904498 208.0562955 
4.79624 11.209037489 199.87526251 3.66071 14.09167545 197.63122455 3.82883 10.221310048 180.24288995 
3.06287 13.107146709 181.54905329 2.75118 8.6243561859 156.81064381 2.35398 11.365674675 161.38082533 
1.68407 6.2369606201 131.41113938 1.61577 8.5877029605 138.96649704 0.720673 2.8746275792 105.86607242 
0.91527 4.5466138897 116.15548611 -0.83922001235 0.292905 94.539920012 0.26330193879 0.277205 105.37529806 
-5.0135610015 0.164283 97.780591002 0.810811 6.1992966683 125.10080333 0.483877 2.3420862076 114.04221379 
1.48631 10.851332436 145.85736756 0.879097 8.6863402692 131.90345973 2.24375 14.184040415 166.00775959 
1.32221 13.544986667 150.32191333 2.978 16.360183748 183.55841625 1.7718 16.874274453 167.63452555 
3.56353 17.619748163 196.54155184 2.16702 18.903575794 181.87742421 3.88695 18.177800975 203.38989903 
2.43987 19.94574637 191.22665363 3.8815 18.158617886 203.24488211 2.53558 20.247756455 194.40514355 
3.54845 17.56344563 196.12355437 2.43339 19.901959364 190.96524064 2.95665 16.269726378 182.91577362 
2.15541 18.817607798 181.3856922 2.22039 14.065446973 165.20815303 1.75731 16.750732791 166.96756721 
1.46477 10.714487344 144.97231266 1.30726 13.393378622 149.54262138 0.793621 6.0579302647 124.19166974 
0.865711 8.5221094346 131.07039057 0.13429743956 0.265348 104.48760256 0.473361 2.1859229991 113.198877 
-5.1407453327 0.157082 96.953415333 -3.5118368546 0.0461814 105.52535685 -8.9860378396 0.0854336 100.00354784 
0.305149 4.0882056488 120.49619435 -0.8922995569 0.248431 112.42633956 0.694138 10.771578335 136.85632166 
0.465735 7.0162527019 126.2147473 1.18949 16.002090511 153.52940949 0.717047 13.777856489 140.89734351 
1.71557 19.65169787 168.72920213 0.981519 18.857613604 155.2820864 2.16234 21.87138557 180.37571443 
1.22192 22.192674671 167.57702533 2.41873 22.890439553 186.65706045 1.39243 24.006509555 175.87439044 
2.41527 22.863192646 186.53220735 1.45328 24.555047147 178.74025285 2.15299 21.791353862 180.01754614 
1.38876 23.945774246 175.65152575 1.70296 19.525024272 168.18327573 1.21543 22.075286954 167.15951305 
1.17666 15.840009994 152.85309001 0.973609 18.693169886 154.71773011 0.683403 10.591892893 136.10430711 
0.709138 13.583902337 140.23519766 0.29756 3.9139118479 119.71118815 0.458925 6.8181205916 125.49627941 
-3.6581029921 0.0416735 104.73172299 -1.0676259498 0.24335 111.67598595 -9.1181024639 0.0821395 99.236112464 
-7.0271326726 -0.0429737 105.95374267 -11.991708651 0.0386073 101.46587865 0.0585431 1.2153150141 117.44581499 
-4.0649351048 0.125747 111.2630951 0.258728 9.2890488694 130.10905113 0.248521 4.5492969417 121.97457306 
0.56049 16.225477856 143.42162214 0.386984 12.695304231 133.45009577 0.917856 21.432640062 156.05045994 
0.531144 19.388209102 144.9864909 1.24364 24.768156052 166.07674395 0.661936 24.110391464 155.17120854 
1.43852 26.350970675 171.61372932 0.755305 26.814593625 162.23650637 1.43643 26.314869765 171.50963024 
0.788839 27.659510408 164.71538959 1.23815 24.663423641 165.77707636 0.753328 26.736236771 162.05156323 
0.910901 21.26985883 155.59444117 0.658465 23.961352891 154.82504711 0.554079 16.02407446 142.85392554 
0.526949 19.185949899 144.5144501 0.254082 9.0763995804 129.46690042 0.382857 12.46742443 132.88737557 
0.0558651 1.020902923 116.75336708 0.245065 4.32888066 121.34403934 -7.1806458349 -0.0441444 105.22434583 
-4.2497493074 0.123305 110.57889931 -12.126305906 0.0371411 100.73910591 -9.7553876906 -0.0609573 106.04209769 
-13.919098916 0.00820611 102.05129892 -1.6493690303 -0.0429877 115.09605123 -6.6902456938 0.0598825 110.04414569 
0.0410159 7.0852797961 124.8915902 0.136323 1.9279792242 118.52352078 0.209718 15.292024803 135.2488752 
0.215435 10.84001578 127.43948422 0.440966 21.940529394 145.32367061 0.290152 18.80407976 136.42152024 
0.670588 26.446764384 153.56983562 0.351961 24.837345384 144.50245462 0.814592 28.660633362 158.23216664 
0.393476 28.474422713 150.23467729 0.813395 28.615422158 158.14697784 0.407934 29.644949181 152.27655082 
0.667583 26.316713914 153.32658609 0.392446 28.377866582 150.08683342 0.437496 21.743546715 144.94885328 
0.350129 24.657806111 144.22179389 0.207006 15.057669092 134.77293091 0.287903 18.568997395 136.03000261 
0.0395634 6.8494380891 124.33524191 0.213211 10.587000172 126.95499983 -1.8551916548 -0.0433956 114.47061965 
0.1345 1.6940188794 117.95901112 -9.9134123577 -0.0608324 105.35727236 -6.8805578186 0.0586934 109.40696782 
-14.058833394 0.0076029 101.35243339 -11.576602642 -0.0473304 105.60310264 -14.881722105 -0.0127805 101.8630221 
-4.0904850369 -0.0694954 112.95887504 -8.604046067 0.0213493 108.58028607 -0.0526032 4.6868986826 120.62918132 
-0.45897585867 0.0760736 115.45686556 0.0294153 13.635623825 128.56357617 0.127783 8.6592048564 122.41598514 
0.171318 21.446750185 136.29394982 0.168203 17.455818476 129.25458152 0.328803 27.063982093 142.73471791 
0.192722 24.591909895 135.3797901 0.433279 29.929818681 146.44478132 0.204024 29.122358269 139.76714173 
0.432654 29.875077981 146.37902202 0.206879 30.623966939 141.34473306 0.327342 26.909022063 142.54257794 
0.203474 29.008143086 139.65205691 0.169903 21.219021531 135.99067847 0.191702 24.384685386 135.15661461 
0.0287074 13.37546734 128.16163266 0.166898 17.194351133 128.93004887 -0.0525329 4.4358161474 120.13588385 
0.126475 8.3888991412 121.99384086 -4.3033630726 -0.0690177 112.38041307 -0.70116387309 0.0750448 114.94019187 
-11.740494545 -0.0468639 104.94829454 -8.7995337554 0.0207822 107.97594376 -15.03084175 -0.0129402 101.18264175 
-12.564267484 -0.0232874 104.65346748 -15.067741473 -0.0272935 101.07494147 -5.9458371157 -0.0614837 110.80712712 
-9.814357276 -0.00351756 106.84868728 -0.0807388 2.4338317832 116.93137822 -2.4212143415 0.0401967 112.56136434 
-0.0529596 11.62767005 122.97412995 0.0808617 6.4706062996 118.0592137 0.027681 20.232907907 128.68739209 
0.108017 15.660233642 123.18136636 0.132755 26.798927827 133.41697217 0.116779 23.606719231 127.59718077 
0.207532 30.285034028 136.16016597 0.113962 28.915027991 130.70867201 0.207263 30.220946401 136.1115536 
0.111068 30.726867507 131.82493249 0.132223 26.620887848 133.27211215 0.113625 28.784303845 130.62429615 
0.0274223 19.979571019 128.44452898 0.11612 23.375722763 127.42347724 -0.0526641 11.34895811 122.63024189 
0.107145 15.378928276 122.90877172 -0.0800518 2.1729755319 116.48491447 0.0800023 6.1891044266 117.68113557 
-6.1645651969 -0.0607918 110.2613152 -2.669051447 0.03959 112.07687145 -12.737075233 -0.0228767 104.01737523 
-10.016606884 -0.00373207 106.26531688 -15.230932267 -0.0271879 100.40493227 -12.86571763 0.000951712 103.29481763 
-14.674424231 -0.0366801 99.866724231 -7.2016888245 -0.0405159 108.56719882 -10.410915336 -0.0204809 104.90441534 
-0.077286 0.50799439243 113.56846661 -3.9002457405 0.0159535 109.74881574 -0.0824103 9.5464604586 118.17720954 
0.0522796 4.4688865358 114.15940346 -0.0433051 18.561832413 122.24346759 0.0766767 13.670909672 117.95379033 
0.0238856 25.84175821 125.44974179 0.0822415 22.104770511 120.95162949 0.0764285 29.866059965 127.26864003 
0.0757165 28.017470528 122.92592947 0.0763757 29.793211333 127.23598867 0.0710766 30.094154611 123.61014539 
0.0238957 25.643413237 125.34388676 0.075457 27.872378105 122.8675219 -0.04295 18.288510754 122.04928925 
0.0817289 21.855007936 120.81799206 -0.0816778 9.2551138237 117.87747618 0.0760123 13.375922683 117.72167732 
-0.0764481 0.24060398391 113.15447402 0.0516752 4.1804267894 113.81327321 -7.4268371896 -0.0399091 108.04237719 
-4.1529658652 0.0156169 109.28592587 -13.051001636 0.00116615 102.66990164 -10.622293984 -0.0204555 104.33349398 
-14.856062003 -0.036386 99.200462003 -12.644333549 0.0210372 101.65373355 -13.879597656 -0.0418619 98.397497656 
-7.9210185642 -0.0172939 106.24935856 -10.513446173 -0.0318783 102.83104617 -1.0216358033 -0.0606505 110.4210558 
-4.9150359397 -0.00178571 107.00222594 -0.0850431 7.5736148785 113.96287512 0.0319125 2.7520745086 110.59948549 
-0.0742117 16.652794185 116.73680582 0.0574116 11.669933067 113.38856693 -0.0348726 24.377960085 118.65903991 
0.0657107 20.281489259 115.26191074 0.00065135 28.818062261 119.64913774 0.06117 26.592372058 116.27742794 
0.000726342 28.737736169 119.63036383 0.0571341 28.869431265 116.58136874 -0.0345606 24.163356192 118.58584381 
0.060934 26.435914677 116.23978532 -0.0735653 16.365129082 116.57797092 0.065263 20.018304903 115.1572951 
-0.0841862 7.2742610645 113.69314894 0.0568741 11.36644407 113.18385593 -1.293962667 -0.05989 110.02785267 
0.031494 2.4594201877 110.27448981 -8.1540371596 -0.0168923 105.73585716 -5.1729380236 -0.00191238 106.55204802 
-12.8456149 0.0210191 101.0325149 -10.736607547 -0.0316615 102.26480755 -14.083626915 -0.0414097 97.729426915 
-12.051930151 0.0356438 99.849230151 -12.830797141 -0.0437123 96.796197141 -8.1988943239 0.00333786 103.89701432 
-10.244031435 -0.0388537 100.71193144 -2.1567131922 -0.0402767 107.44181319 -5.5242785711 -0.0148889 104.34079857 
-0.0751691 5.810010235 110.19447976 0.0158977 1.3514564045 107.3186536 -0.0836666 14.671559367 111.98684063 
0.0428759 9.773440585 109.35825941 -0.0653169 22.575295843 112.88160416 0.0556822 18.294600097 110.3723999 
-0.043258 27.284478274 113.17322173 0.0554931 24.791293782 110.62580622 -0.043112 27.198133617 113.16346638 
0.0531721 27.192799177 110.61660082 -0.0648542 22.348676322 112.83322368 0.0552669 24.626654781 110.60464522 
-0.0829221 14.374822315 111.85417769 0.0552815 18.022975025 110.28982497 -0.0743597 5.5060315836 109.94268842 
0.042448 9.465625862 109.17170414 -2.4334056186 -0.0397017 107.05920562 0.0156441 1.0562772405 107.00428276 
-8.4415563537 0.00349179 103.38775635 -5.7881797437 -0.0148309 103.89488974 -12.27238843 0.0353889 99.22558843 
-10.48167061 -0.0384649 100.14407061 -13.060866409 -0.0431039 96.121566409 -11.217219348 0.0448526 97.983419348 
-11.643555124 -0.0430963 95.160455124 -8.1367744996 0.0194958 101.5680545 -9.7134599361 -0.0424007 98.617629936 
-2.937558102 -0.0207728 104.6220281 -5.8023507436 -0.0241315 101.79247074 -0.0603643 4.2976582435 106.78825176 
0.00312398 0.25709676512 104.29071223 -0.0818632 12.731456849 107.85784315 0.0305413 8.0460658994 105.7743441 
-0.0795297 20.574860795 107.9709392 0.0473856 16.262480605 106.1600194 -0.0683692 25.400211073 107.70788893 
0.0518954 22.747578552 105.84142145 -0.0681903 25.309673278 107.70672672 0.0516072 25.195458335 105.59084166 
-0.079015 20.340656031 107.93964397 0.0516831 22.578070804 105.8298292 -0.08114 12.430008832 107.74189117 
0.0470392 15.987064026 106.09113597 -0.0596984 3.9914862645 106.54751374 0.0302268 7.7372455048 105.5977945 
-3.2185841795 -0.020434 104.24218418 -0.039580992536 0.00302979 103.97974499 -8.3909106987 0.0193873 101.0553607 
-6.0732212196 -0.0238991 101.34572122 -11.460085705 0.044355 97.353185705 -9.9677462688 -0.0418396 98.044056269 
-11.902642319 -0.0423095 94.476042319 -10.242188588 0.0495986 96.134988588 -10.403908649 -0.0410708 93.559008649 
-7.8277272728 0.031148 99.311737273 -9.0127318255 -0.0427471 96.604611825 -3.4212300633 -0.00408646 101.96764006 
-5.823252328 -0.0295355 99.389802328 -0.0446589 3.0398980876 103.69863191 -0.56265772172 -0.00661135 101.50384872 
-0.0744157 10.902103592 104.25009641 0.0195126 6.5151198292 102.58095017 -0.0840823 18.488805344 103.79909466 
0.0390693 14.267570495 102.52382951 -0.0817191 23.286785552 103.12691445 0.0479766 20.57333205 101.80406795 
-0.0815341 23.19399135 103.13060865 0.0498019 22.995907054 101.38309295 -0.0835833 18.251298767 103.77780123 
0.0477852 20.402396959 101.79990304 -0.0737904 10.599744434 104.14145557 0.0387892 13.992182883 102.46131712 
-0.0441915 2.7332907624 103.46032924 0.0193212 6.2078829936 102.40649701 -3.7068028836 -0.00400967 101.58603288 
-0.86014123724 -0.00654455 101.19235224 -8.0950121745 0.0307636 98.793532174 -6.1019636317 -0.0291273 98.937193632 
-10.510037304 0.0488349 95.494937304 -9.2856360732 -0.0419953 96.022376073 -10.695031377 -0.0400462 92.863231377 
-9.204559349 0.0506573 94.359739349 -9.1650546841 -0.0364929 92.037234684 -7.3565752739 0.0367887 97.168965274 
-8.2188609211 -0.0427095 94.708320921 -3.6739959813 0.00689489 99.491645981 -5.6635181083 -0.0357242 97.148738108 
-0.0312997 2.0161230866 100.89432691 -1.1606430386 -0.0186324 98.950129039 -0.0643446 9.2223925009 101.0869175 
0.00552703 5.174331263 99.730128737 -0.0820584 16.403140652 100.25735935 0.0282996 12.358679185 99.380720815 
-0.0867333 21.048818639 99.308281361 0.0425919 18.358449823 98.407850177 -0.0865623 20.955596535 99.314603465 
0.0470017 20.697242392 97.879257608 -0.0816263 16.165977232 100.24012277 0.0424106 18.188812807 98.405087193 
-0.0638748 8.9221027076 100.98044729 0.0280716 12.086764401 99.319035599 -0.0310688 1.7104604811 100.65415952 
0.00545006 4.8708203593 99.554069641 -3.9643304218 0.00669279 99.104550422 -1.4583033155 -0.0184018 98.633073316 
-7.6384306402 0.0361102 96.64202064 -5.9506903134 -0.0351244 96.688620313 -9.499771272 0.0495722 93.708681272 
-8.511912934 -0.0417232 94.116562934 -9.4905771564 -0.0351863 91.330467156 -8.1633712879 0.0469874 92.691691288 
-6.7715034341 0.0433543 95.176093434 -3.7173002878 0.0245589 97.218250288 -0.00645458 1.2422614892 98.373148511 
-0.0426993 7.7427971739 98.323972826 -0.0729411 14.391555652 97.255344348 -0.0891621 18.770026104 96.137573896 
-0.0889863 18.6781436 96.1442564 -0.0725409 14.15833714 97.23786286 -0.042369 7.4473887523 98.214121248 
-0.00647279 0.9387076787 98.127052321 -4.0125526132 0.0240563 96.823372613 -7.069050729 0.0423538 94.640120729 
-8.4880754121 0.045576 92.030645412 -2.5904807857 -0.98726 52.803680786 -6.8020294529 -2.33641 26.214584453 
-16.802383948 -3.6838 7.3343939477 -35.479494645 -4.93711 0.57644274492 -53.8213786 -5.99636 -1.6376213999 
-67.335926906 -6.76628 -2.5784330943 -74.424854211 -7.17186 -2.9524957889 -74.424854211 -7.17186 -2.9524957889 
-67.335926906 -6.76628 -2.5784330943 -53.8213786 -5.99636 -1.6376213999 -35.479494643 -4.93711 0.57644284344 
-16.802383948 -3.6838 7.3343939477 -6.8020294529 -2.33641 26.214584453 -2.5904807857 -0.98726 52.803680786 
-8.5417941588 -0.274246 63.523994159 -13.675283094 -1.06959 41.241283094 -20.476322361 -1.96789 21.430122361 
-30.801382941 -2.88791 7.6052529411 -43.617697905 -3.72709 0.41399190501 -54.697460842 -4.37144 -2.8390091584 
-60.912081342 -4.72234 -4.1095686585 -60.912081342 -4.72234 -4.1095686585 -54.697460842 -4.37144 -2.8390091584 
-43.617697905 -3.72709 0.41399190501 -30.801382941 -2.88791 7.6052529411 -20.476322361 -1.96789 21.430122361 
-13.675283094 -1.06959 41.241283094 -8.5417941588 -0.274246 63.523994159 -13.790668874 0.0745186 72.730218874 
-18.611811979 -0.357981 53.347001979 -23.633060957 -0.916423 34.096760957 -29.595272523 -1.54976 17.383372523 
-36.968720842 -2.1749 5.5062408422 -44.382711163 -2.68254 -1.1272788365 -49.038050529 -3.8932894708 -2.96848 
-49.038050529 -3.8932894708 -2.96848 -44.382711163 -2.68254 -1.1272788365 -36.968720842 -2.1749 5.5062408422 
-29.595272523 -1.54976 17.383372523 -23.633060957 -0.916423 34.096760957 -18.611811979 -0.357981 53.347001979 
-13.790668874 0.0745186 72.730218874 -17.561998858 0.222067 79.844228858 -21.832973527 0.0153526 62.900573527 
-25.633212273 -0.304554 44.758812273 -29.174918945 -0.713612 27.219218945 -32.762160734 -1.15441 12.478720734 
-36.322793647 -1.53467 2.4195136475 -38.783501837 -2.3981881629 -1.75665 -38.783501837 -2.3981881629 -1.75665 
-36.322793647 -1.53467 2.4195136475 -32.762160734 -1.15441 12.478720734 -29.174918945 -0.713612 27.219218945 
-25.633212273 -0.304554 44.758812273 -21.832973527 0.0153526 62.900573527 -17.561998858 0.222067 79.844228858 
-19.858936843 0.25822 84.963736843 -23.603175504 0.18265 70.224475504 -26.525239487 0.0188944 53.462739487 
-28.558654837 -0.227949 36.071754837 -29.725877108 -0.52413 19.957677108 -30.143123636 -0.798052 7.300983636 
-30.118686665 -0.964445 0.21000866526 -30.118686665 -0.964445 0.21000866526 -30.143123636 -0.798052 7.300983636 
-29.725877108 -0.52413 19.957677108 -28.558654837 -0.227949 36.071754837 -26.525239487 0.0188944 53.462739487 
-23.603175504 0.18265 70.224475504 -19.858936843 0.25822 84.963736843 -20.907674083 0.239981 88.403574083 
-24.201706878 0.236867 75.683506878 -26.477679909 0.170395 60.428679909 -27.496426598 0.0346831 43.700526598 
-27.081261035 -0.154906 27.140661035 -25.24586316 -0.346141 12.87553316 -22.920963878 -0.467862 3.7565438784 
-22.920963878 -0.467862 3.7565438784 -25.24586316 -0.346141 12.87553316 -27.081261035 -0.154906 27.140661035 
-27.496426598 0.0346831 43.700526598 -26.477679909 0.170395 60.428679909 -24.201706878 0.236867 75.683506878 
-20.907674083 0.239981 88.403574083 -20.976902801 0.199115 90.502102801 -23.893932554 0.233422 79.616432554 
-25.686109097 0.225228 65.901309097 -25.991941443 0.163082 50.124241443 -24.501846066 0.0492889 33.686646066 
-21.124390379 -0.0801719 18.603390379 -17.003701008 -0.167531 8.0134510076 -17.003701008 -0.167531 8.0134510076 
-21.124390379 -0.0801719 18.603390379 -24.501846066 0.0492889 33.686646066 -25.991941443 0.163082 50.124241443 
-25.686109097 0.225228 65.901309097 -23.893932554 0.233422 79.616432554 -20.976902801 0.199115 90.502102801 
-20.324496393 0.15251 91.573796393 -22.921223224 0.203943 82.331623224 -24.343445575 0.229355 70.125145575 
-24.13814421 0.215057 55.45794421 -21.90321233 0.154505 39.50441233 -17.490734101 0.0706344 24.170434101 
-12.163409514 0.00935367 12.742309514 -12.163413568 0.00935367 12.742313568 -17.490734101 0.0706344 24.170434101 
-21.90321233 0.154505 39.50441233 -24.13814421 0.215057 55.45794421 -24.343445575 0.229355 70.125145575 
-22.921223224 0.203943 82.331623224 -20.324496393 0.15251 91.573796393 -19.17629188 0.108467 91.89099188 
-21.492966178 0.165343 84.099566178 -22.626984079 0.208999 73.328584079 -22.054963333 0.225553 59.848963333 
-19.310071478 0.20269 44.619571478 -14.232907014 0.152924 29.445687014 -8.2345092596 0.111746 17.74820926 
-8.2345092596 0.111746 17.74820926 -14.232907014 0.152924 29.445687014 -19.310071478 0.20269 44.619571478 
-22.054963333 0.225553 59.848963333 -22.626984079 0.208999 73.328584079 -21.492966178 0.165343 84.099566178 
-19.17629188 0.108467 91.89099188 -17.718670753 0.0706253 91.678470753 -19.784305368 0.126264 85.151005368 
-20.689545297 0.178485 75.716745297 -19.860656497 0.21458 63.448656497 -16.787135522 0.218781 49.106255522 
-11.333850139 0.195223 34.401500139 -5.100547951 0.170058 22.893927951 -5.100547951 0.170058 22.893927951 
-11.333850139 0.195223 34.401500139 -16.787135522 0.218781 49.106255522 -19.860656497 0.21458 63.448656497 
-20.689545297 0.178485 75.716745297 -19.784305368 0.126264 85.151005368 -17.718670753 0.0706253 91.678470753 
-16.09814688 0.0402084 91.11504688 -17.934738314 0.0908882 85.676438314 -18.65668314 0.145413 77.46738314 
-17.657998312 0.193205 66.398798312 -14.40418935 0.216869 53.05224935 -8.8103637187 0.213861 39.054203719 
-2.6712162046 0.201828 28.078136205 -2.6712162046 0.201828 28.078136205 -8.8103637187 0.213861 39.054203719 
-14.40418935 0.216869 53.05224935 -17.657998312 0.193205 66.398798312 -18.65668314 0.145413 77.46738314 
-17.934738314 0.0908882 85.676438314 -16.09814688 0.0402084 91.11504688 -14.425173046 0.0167872 90.337273046 
-16.051094762 0.060808 85.828394762 -16.625447794 0.113804 78.728847794 -15.527839429 0.167702 68.823439429 
-12.217712879 0.204903 56.541032879 -6.6767272008 0.217897 43.427867201 -0.8584643145 0.216716 33.212438915 
-0.8584643145 0.216716 33.212438915 -6.6767272008 0.217897 43.427867201 -12.217712879 0.204903 56.541032879 
-15.527839429 0.167702 68.823439429 -16.625447794 0.113804 78.728847794 -16.051094762 0.060808 85.828394762 
-14.425173046 0.0167872 90.337273046 -12.775314364 0.00105852 89.449214364 -14.207102583 0.0381886 85.729402583 
-14.664063602 0.0868957 79.624563602 -13.527767569 0.141711 70.827327569 -10.265481841 0.186797 59.641571841 
-4.9299937623 0.211851 47.536593762 0.219845 0.43072778355 38.213312216 0.219845 0.43072778355 38.213312216 
-4.9299937623 0.211851 47.536593762 -10.265481841 0.186797 59.641571841 -13.527767569 0.141711 70.827327569 
-14.664063602 0.0868957 79.624563602 -14.207102583 0.0381886 85.729402583 -12.775314364 0.00105852 89.449214364 
-11.204315445 -0.0118062 88.515115445 -12.46443657 0.0150237 85.45303657 -12.83422578 0.0547439 80.22542578 
-11.706619908 0.106622 72.468009908 -8.5684465493 0.158187 62.388046549 -3.5444737835 0.195978 51.374969784 
0.214188 1.2944018793 43.007468121 0.214188 1.2944018793 43.007468121 -3.5444737835 0.195978 51.374969784 
-8.5684465493 0.158187 62.388046549 -11.706619908 0.106622 72.468009908 -12.83422578 0.0547439 80.22542578 
-12.46443657 0.0150237 85.45303657 -11.204315445 -0.0118062 88.515115445 -1.42004 -0.11422181778 48.024521818 
-1.1223452342 -0.607205 66.049845234 -2.96798 -2.4394481919 18.390298192 -4.4637995467 -1.79939 38.612059547 
-15.851572822 -4.48696 2.1582328223 -10.375605786 -2.99825 15.013905786 -39.407922839 -5.86757 -0.11456716139 
-25.197586463 -4.15174 3.0148864634 -59.350858024 -7.00957 -0.85467197602 -44.329550379 -5.17401 -0.53069962135 
-73.432719902 -7.82436 -1.2115100976 -60.265099787 -5.98314 -1.8465302127 -80.700018367 -8.24827 -1.3635716332 
-70.507999464 -6.50393 -2.3999805357 -80.700018367 -8.24827 -1.3635716332 -74.0275 -6.68389 -2.5564 
-73.432719902 -7.82436 -1.2115100976 -70.507999464 -6.50393 -2.3999805357 -59.350858024 -7.00957 -0.85467197602 
-60.265099787 -5.98314 -1.8465302127 -39.407922839 -5.86757 -0.11456716139 -44.329550379 -5.17401 -0.53069962135 
-15.851572822 -4.48696 2.1582328223 -25.197586463 -4.15174 3.0148864634 -2.96798 -2.4394481919 18.390298192 
-10.375605786 -2.99825 15.013905786 -1.42004 -0.11422181778 48.024521818 -4.4637995467 -1.79939 38.612059547 
-1.1223452342 -0.607205 66.049845234 -5.2397368887 -0.552803 58.049616889 -6.3577895351 -0.327813 73.516349535 
-10.085570483 -1.49479 34.167170483 -11.125244706 -0.972752 51.265594706 -18.185491386 -2.53852 14.733391386 
-16.719686379 -1.68824 30.088486379 -32.115566446 -3.59153 3.9426664458 -24.943141248 -2.43445 13.284641248 
-47.890859004 -4.53504 -0.57200599628 -36.716246774 -3.14378 3.3795367741 -60.368992241 -5.2483 -2.523887759 
-48.893764986 -3.73643 -1.2460350144 -67.097060171 -5.63262 -3.2967698285 -57.577780647 -4.13248 -3.2144793533 
-67.097060171 -5.63262 -3.2967698285 -60.6785 -4.27197 -3.76448 -60.368992241 -5.2483 -2.523887759 
-57.577780647 -4.13248 -3.2144793533 -47.890859004 -4.53504 -0.57200599628 -48.893764986 -3.73643 -1.2460350144 
-32.115566446 -3.59153 3.9426664458 -36.716246774 -3.14378 3.3795367741 -18.185491386 -2.53852 14.733391386 
-24.943141248 -2.43445 13.284641248 -10.085570483 -1.49479 34.167170483 -16.719686379 -1.68824 30.088486379 
-5.2397368887 -0.552803 58.049616889 -11.125244706 -0.972752 51.265594706 -6.3577895351 -0.327813 73.516349535 
-11.117116053 -0.113601 68.045795053 -11.52646453 -0.164433 80.73027453 -16.060511888 -0.614437 47.539901888 
-16.409519464 -0.504708 62.002019464 -21.848344723 -1.25817 28.134744723 -21.185524506 -0.917153 42.610324506 
-29.663157815 -1.98703 12.658357815 -26.440937352 -1.37412 24.637937352 -39.596990059 -2.69886 2.9983900593 
-32.940281584 -1.83315 10.537371584 -48.940623636 -3.27051 -1.8561063635 -40.40017818 -2.23422 1.7332881803 
-54.459001012 -3.8049289879 -3.5898 -46.545817856 -2.5632521437 -2.51097 -54.459001012 -3.8049289879 -3.5898 
-48.9061 -3.80478 -2.61009 -48.940623636 -3.27051 -1.8561063635 -46.545817856 -2.5632521437 -2.51097 
-39.596990059 -2.69886 2.9983900593 -40.40017818 -2.23422 1.7332881803 -29.663157815 -1.98703 12.658357815 
-32.940281584 -1.83315 10.537371584 -21.848344723 -1.25817 28.134744723 -26.440937352 -1.37412 24.637937352 
-16.060511888 -0.614437 47.539901888 -21.185524506 -0.917153 42.610324506 -11.117116053 -0.113601 68.045795053 
-16.409519464 -0.504708 62.002019464 -11.52646453 -0.164433 80.73027453 -15.74363213 0.0785227 76.16908213 
-15.379611071 -0.0684519 86.408501071 -20.208967539 -0.146703 58.253567539 -19.959755433 -0.252391 70.449955433 
-24.515908196 -0.50215 39.719608196 -23.976024662 -0.4897 52.772424662 -29.100517997 -0.966565 22.587017997 
-27.537042241 -0.759235 34.906142241 -34.378899429 -1.46755 9.1523694294 -30.932510895 -1.03806 18.850610895 
-39.815709489 -1.89768 0.77742748901 -34.386988284 -1.28844 6.6654782841 -43.432380241 -2.9546597594 -2.14744 
-37.413915103 -1.46512 -0.47618189745 -43.432380241 -2.9546597594 -2.14744 -38.6816 -2.73854 -1.5292 
-39.815709489 -1.89768 0.77742748901 -37.413915103 -1.46512 -0.47618189745 -34.378899429 -1.46755 9.1523694294 
-34.386988284 -1.28844 6.6654782841 -29.100517997 -0.966565 22.587017997 -30.932510895 -1.03806 18.850610895 
-24.515908196 -0.50215 39.719608196 -27.537042241 -0.759235 34.906142241 -20.208967539 -0.146703 58.253567539 
-23.976024662 -0.4897 52.772424662 -15.74363213 0.0785227 76.16908213 -19.959755433 -0.252391 70.449955433 
-15.379611071 -0.0684519 86.408501071 -18.824024159 0.132247 82.219324159 -17.788889221 -0.00857307 90.420789221 
-22.750865101 0.0645045 66.576465101 -21.970077461 -0.115086 76.836877461 -26.018023329 -0.100925 49.290723329 
-25.364135298 -0.258458 60.882135298 -28.696129815 -0.369761 31.898229815 -27.827746774 -0.417419 43.712046774 
-30.931006404 -0.699658 16.433806404 -29.338932932 -0.579188 26.983732932 -32.804932873 -1.00646 5.0066528734 
-29.987485667 -0.723098 12.697435667 -34.027239377 -1.1927 -0.92951062323 -30.023877676 -0.824592 2.9005776758 
-34.027239377 -1.1927 -0.92951062323 -29.9248 -0.86148 -0.634115 -32.804932873 -1.00646 5.0066528734 
-30.023877676 -0.824592 2.9005776758 -30.931006404 -0.699658 16.433806404 -29.987485667 -0.723098 12.697435667 
-28.696129815 -0.369761 31.898229815 -29.338932932 -0.579188 26.983732932 -26.018023329 -0.100925 49.290723329 
-27.827746774 -0.417419 43.712046774 -22.750865101 0.0645045 66.576465101 -25.364135298 -0.258458 60.882135298 
-18.824024159 0.132247 82.219324159 -21.970077461 -0.115086 76.836877461 -17.788889221 -0.00857307 90.420789221 
-20.515587655 0.119268 86.446787655 -18.944235939 0.0313981 92.963535939 -23.96667315 0.13419 72.87697315 
-22.730475563 -0.0372126 81.472975563 -26.481685453 0.0855617 57.026385453 -25.627190407 -0.133504 67.228390407 
-27.921053021 -0.0484633 40.069653021 -27.332460672 -0.233926 51.071060672 -28.197278995 -0.249894 23.756978995 
-27.624780803 -0.328252 34.384180803 -27.379872858 -0.4582 10.252082858 -26.410387071 -0.405496 19.011687071 
-26.158702608 -0.591765 2.1250426077 -24.065054027 -0.456786 7.2261040272 -26.158702608 -0.591765 2.1250426077 
-22.5454 -0.474885 2.38676 -27.379872858 -0.4582 10.252082858 -24.065054027 -0.456786 7.2261040272 
-28.197278995 -0.249894 23.756978995 -26.410387071 -0.405496 19.011687071 -27.921053021 -0.0484633 40.069653021 
-27.624780803 -0.328252 34.384180803 -26.481685453 0.0855617 57.026385453 -27.332460672 -0.233926 51.071060672 
-23.96667315 0.13419 72.87697315 -25.627190407 -0.133504 67.228390407 -20.515587655 0.119268 86.446787655 
-22.730475563 -0.0372126 81.472975563 -18.944235939 0.0313981 92.963535939 -21.077054137 0.0795411 89.180154137 
-19.115703042 0.0588968 94.318303042 -24.130582059 0.132757 77.503282059 -22.534218561 0.0106374 84.677518561 
-26.091947753 0.15103 63.161247753 -25.027843676 -0.0623557 72.090243676 -26.679851878 0.104912 47.020751878 
-26.186807402 -0.135139 57.117507402 -25.649867399 -0.00506286 30.579267399 -25.652460641 -0.196157 40.896460641 
-22.958505015 -0.139003 15.898005015 -23.196937775 -0.23769 25.120237775 -19.667481455 -0.231397 6.0082714552 
-19.163906958 -0.260074 12.091766958 -19.667481455 -0.231397 6.0082714552 -16.4358 -0.266913 6.17967 
-22.958505015 -0.139003 15.898005015 -19.163906958 -0.260074 12.091766958 -25.649867399 -0.00506286 30.579267399 
-23.196937775 -0.23769 25.120237775 -26.679851878 0.104912 47.020751878 -25.652460641 -0.196157 40.896460641 
-26.091947753 0.15103 63.161247753 -26.186807402 -0.135139 57.117507402 -24.130582059 0.132757 77.503282059 
-25.027843676 -0.0623557 72.090243676 -21.077054137 0.0795411 89.180154137 -22.534218561 0.0106374 84.677518561 
-19.115703042 0.0588968 94.318303042 -20.778672993 0.0342984 90.746172993 -18.568418325 0.0772613 94.766718325 
-23.498881388 0.100912 80.778181388 -21.646457609 0.0422102 86.746057609 -25.045287105 0.154229 67.941987105 
-23.804358823 -0.0177154 75.727358823 -25.030830376 0.162818 52.830430376 -24.557237563 -0.0784738 62.021137563 
-23.10313396 0.115719 36.70743396 -23.448548325 -0.126407 46.532148325 -19.141171812 0.0361387 21.518471812 
-20.162825166 -0.153105 30.811025166 -14.350308127 -0.0251172 10.481848127 -15.027668797 -0.162314 17.170068797 
-14.350308127 -0.0251172 10.481848127 -11.4755 -0.163725 10.5873 -19.141171812 0.0361387 21.518471812 
-15.027668797 -0.162314 17.170068797 -23.10313396 0.115719 36.70743396 -20.162825166 -0.153105 30.811025166 
-25.030830376 0.162818 52.830430376 -23.448548325 -0.126407 46.532148325 -25.045287105 0.154229 67.941987105 
-24.557237563 -0.0784738 62.021137563 -23.498881388 0.100912 80.778181388 -23.804358823 -0.0177154 75.727358823 
-20.778672993 0.0342984 90.746172993 -21.646457609 0.0422102 86.746057609 -18.568418325 0.0772613 94.766718325 
-19.86617988 -0.00646401 91.43557988 -17.533303683 0.0882363 94.559003683 -22.299462022 0.0602498 82.988562022 
-20.29366278 0.0634659 87.93996278 -23.528638207 0.129177 71.604438207 -22.163702897 0.0130973 78.375502897 
-23.084287688 0.1703 57.633787688 -22.60819189 -0.0418374 65.95729189 -20.537312597 0.16567 42.120212597 
-21.101062079 -0.0865565 51.371462079 -15.736769999 0.125472 26.901319999 -17.275769556 -0.110403 36.029259556 
-10.017796942 0.0876236 15.325766942 -11.495901156 -0.116489 22.270091156 -10.017796942 0.0876236 15.325766942 
-7.53554 -0.116401 15.4477 -15.736769999 0.125472 26.901319999 -11.495901156 -0.116489 22.270091156 
-20.537312597 0.16567 42.120212597 -17.275769556 -0.110403 36.029259556 -23.084287688 0.1703 57.633787688 
-21.101062079 -0.0865565 51.371462079 -23.528638207 0.129177 71.604438207 -22.60819189 -0.0418374 65.95729189 
-22.299462022 0.0602498 82.988562022 -22.163702897 0.0130973 78.375502897 -19.86617988 -0.00646401 91.43557988 
-20.29366278 0.0634659 87.93996278 -17.533303683 0.0882363 94.559003683 -18.548511612 -0.0388024 91.493811612 
-16.198111275 0.093151 93.903711275 -20.726724225 0.0213404 84.382124225 -18.660606203 0.0770226 88.482106203 
-21.708610017 0.0943269 74.364510017 -20.278167478 0.0353068 80.242167478 -20.961263665 0.153544 61.582063665 
-20.486158455 -0.0152006 69.092458455 -18.002107776 0.177358 46.873057776 -18.712887598 -0.0600763 55.517987598 
-12.689035362 0.165944 31.976675362 -14.570214463 -0.0865111 40.794994463 -6.5297536005 0.145963 20.3762936 
-8.5042271157 -0.0948265 27.303587116 -6.5297536005 0.145963 20.3762936 -4.48352 -0.09549 20.6016 
-12.689035362 0.165944 31.976675362 -8.5042271157 -0.0948265 27.303587116 -18.002107776 0.177358 46.873057776 
-14.570214463 -0.0865111 40.794994463 -20.961263665 0.153544 61.582063665 -18.712887598 -0.0600763 55.517987598 
-21.708610017 0.0943269 74.364510017 -20.486158455 -0.0152006 69.092458455 -20.726724225 0.0213404 84.382124225 
-20.278167478 0.0353068 80.242167478 -18.548511612 -0.0388024 91.493811612 -18.660606203 0.0770226 88.482106203 
-16.198111275 0.093151 93.903711275 -16.994174797 -0.0619166 91.119874797 -14.707689805 0.0932582 92.966689805 
-18.94004718 -0.0112549 85.16674718 -16.890971888 0.0843439 88.555971888 -19.725734789 0.0590534 76.411734789 
-18.284769439 0.0509721 81.505269439 -18.773793368 0.126909 64.821793368 -18.312624985 0.00534268 71.576724985 
-15.567201719 0.169464 51.049641719 -16.378780196 -0.0397032 59.077170196 -10.002790658 0.179349 36.744730658 
-12.098241388 -0.0700817 45.154941388 -3.7858299798 0.17332 25.51785998 -6.028069364 -0.0826792 32.230839364 
-3.7858299798 0.17332 25.51785998 -2.18779 -0.0850956 25.8988 -10.002790658 0.179349 36.744730658 
-6.028069364 -0.0826792 32.230839364 -15.567201719 0.169464 51.049641719 -12.098241388 -0.0700817 45.154941388 
-18.773793368 0.126909 64.821793368 -16.378780196 -0.0397032 59.077170196 -19.725734789 0.0590534 76.411734789 
-18.312624985 0.00534268 71.576724985 -18.94004718 -0.0112549 85.16674718 -18.284769439 0.0509721 81.505269439 
-16.994174797 -0.0619166 91.119874797 -16.890971888 0.0843439 88.555971888 -14.707689805 0.0932582 92.966689805 
-15.332339807 -0.0764386 90.469039807 -13.168231988 0.0898858 91.874331988 -17.063891704 -0.0360194 85.511491704 
-15.091111772 0.0868267 88.309011772 -17.692785221 0.0277988 77.907185221 -16.28684433 0.0611634 82.31324433 
-16.615064974 0.0979542 67.485464974 -16.181428317 0.0210453 73.539828317 -13.297284397 0.152222 54.736574397 
-14.173790045 -0.0229051 62.144650045 -7.6962756497 0.177802 41.22868565 -9.9029486766 -0.0564354 49.157548677 
-1.6985046702 0.182776 30.65780767 -4.0430712449 -0.0733972 37.022291245 -1.6985046702 0.182776 30.65780767 
-0.521536 -0.0777841 31.2038 -7.6962756497 0.177802 41.22868565 -4.0430712449 -0.0733972 37.022291245 
-13.297284397 0.152222 54.736574397 -9.9029486766 -0.0564354 49.157548677 -16.615064974 0.0979542 67.485464974 
-14.173790045 -0.0229051 62.144650045 -17.692785221 0.0277988 77.907185221 -16.181428317 0.0210453 73.539828317 
-17.063891704 -0.0360194 85.511491704 -16.28684433 0.0611634 82.31324433 -15.332339807 -0.0764386 90.469039807 
-15.091111772 0.0868267 88.309011772 -13.168231988 0.0898858 91.874331988 -13.65803039 -0.0839865 89.65763039 
-11.653519019 0.0841852 90.719519019 -15.190980239 -0.0534826 85.548380239 -13.337295008 0.0847901 87.852895008 
-15.694195386 0.00216057 78.982495386 -14.358650979 0.0659424 82.783650979 -14.554618644 0.0705779 69.685428644 
-14.158785231 0.0321645 75.088585231 -11.23955517 0.131268 58.01048517 -12.148490699 -0.00868564 64.801030699 
-5.7754590639 0.167965 45.448979064 -8.0062183369 -0.0436932 52.841528337 -0.17706266133 0.18149 35.710958661 
-2.50831378 -0.0644607 41.64279978 -0.17706266133 0.18149 35.710958661 -0.0708072 0.634048 36.3993 
-5.7754590639 0.167965 45.448979064 -2.50831378 -0.0644607 41.64279978 -11.23955517 0.131268 58.01048517 
-8.0062183369 -0.0436932 52.841528337 -14.554618644 0.0705779 69.685428644 -12.148490699 -0.00868564 64.801030699 
-15.694195386 0.00216057 78.982495386 -14.158785231 0.0321645 75.088585231 -15.190980239 -0.0534826 85.548380239 
-14.358650979 0.0659424 82.783650979 -13.65803039 -0.0839865 89.65763039 -13.337295008 0.0847901 87.852895008 
-11.653519019 0.0841852 90.719519019 -12.03519258 -0.0853713 88.77239258 -10.20963463 0.0764112 89.56146463 
-13.383800016 -0.0618985 85.386000016 -11.673772245 0.0829776 87.279472245 -13.787780709 -0.0146193 79.750580709 
-12.540329603 0.0721736 83.021929603 -12.639954399 0.0482566 71.517734399 -12.278018686 0.0461101 76.324678686 
-9.4207574461 0.109546 60.932057446 -10.325148453 0.00853978 67.123438453 -4.2261633773 0.152556 49.412073377 
-6.4069724929 -0.0292255 56.238452493 0.172362 0.87352889835 40.596371102 -1.3679042846 -0.0555178 46.050669285 
0.172362 0.87352889835 40.596371102 -0.0645987 1.38518 41.3863 -4.2261633773 0.152556 49.412073377 
-1.3679042846 -0.0555178 46.050669285 -9.4207574461 0.109546 60.932057446 -6.4069724929 -0.0292255 56.238452493 
-12.639954399 0.0482566 71.517734399 -10.325148453 0.00853978 67.123438453 -13.787780709 -0.0146193 79.750580709 
-12.278018686 0.0461101 76.324678686 -13.383800016 -0.0618985 85.386000016 -12.540329603 0.0721736 83.021929603 
-12.03519258 -0.0853713 88.77239258 -11.673772245 0.0829776 87.279472245 -10.20963463 0.0764112 89.56146463 
-10.505379972 -0.0809073 87.873479972 -11.696683412 -0.0710973 85.076783412 -12.029712344 -0.0389538 80.246312344 
-10.915279462 0.0128722 72.996239462 -7.8569022757 0.0749028 63.499212276 -3.0169759176 0.129721 53.095138918 
0.161263 1.5472783537 45.249121646 0.161263 1.5472783537 45.249121646 -3.0169759176 0.129721 53.095138918 
-7.8569022757 0.0749028 63.499212276 -10.915279462 0.0128722 72.996239462 -12.029712344 -0.0389538 80.246312344 
-11.696683412 -0.0710973 85.076783412 -10.505379972 -0.0809073 87.873479972 1.24473 3.4831090735 108.12739093 
2.59245 5.6543258662 136.86847413 3.94665 7.0904573719 164.51984263 5.21325 7.9704096907 189.35329031 
6.28977 8.459932724 209.73246728 7.07754 8.6997073345 224.25409267 7.4984 8.7951741971 231.8824358 
7.5086 8.8031762873 232.05949371 7.10666 8.723580774 224.76641923 6.33369 8.4992948503 210.53090515 
5.26603 8.023900867 190.36239913 4.00164 7.1558274082 165.65167259 2.64332 5.727142085 138.03155792 
1.28642 3.5580711025 109.2404289 0.563574 1.8893347531 105.10866525 1.36344 6.8273340752 127.69846592 
2.27124 10.465341056 150.86845894 3.20408 12.933248395 172.80995161 4.05824 14.472828009 191.57197199 
4.71736 15.333803065 205.33429694 5.08026 15.716913013 212.68248699 5.08728 15.732635473 212.83926453 
4.73706 15.380386949 205.78451305 4.08698 14.548345049 192.26745495 3.23699 13.033899316 173.67930068 
2.30348 10.584167197 151.8325328 1.39116 6.9539681533 128.68533185 0.584542 2.0102493054 106.06165069 
-1.7225993725 0.187789 104.72762937 0.632869 5.3709043164 121.95689568 1.20603 11.251799069 140.53650093 
1.85498 15.62521428 159.08558572 2.49592 18.561620938 175.67987906 3.01774 20.305948112 188.26075189 
3.31407 21.113261496 195.1093385 3.31873 21.136872722 195.24482728 3.03055 20.375651067 188.65034893 
2.51392 18.673335822 176.27666418 1.87446 15.770575376 159.82552462 1.22377 11.417033185 141.35526682 
0.646814 5.5366715095 122.80192849 -1.5781563261 0.197293 105.56613633 -5.5695652304 0.00356382 105.16177323 
0.228791 2.6173762223 118.31004378 0.568088 10.234313018 132.81708698 0.99599 16.469856911 147.89634309 
1.4542 20.976900845 161.98339916 1.84883 23.798946757 173.04405324 2.08031 25.145628762 179.19807124 
2.08328 25.177761954 179.31253805 1.85682 23.892853109 173.37374689 1.46492 21.124686408 162.48481359 
1.0068 16.656382012 148.51891799 0.577044 10.436475923 133.51212408 0.235015 2.8076204143 119.04648959 
-5.4158909598 0.00718104 105.92070996 -8.7835405546 -0.0694778 105.47185055 -0.42534940157 0.0287757 115.7190694 
0.215996 8.1924379804 126.96046202 0.485209 15.942234349 138.85826565 0.801226 21.992426822 150.34207318 
1.09063 25.996502599 159.6621974 1.26641 27.969254786 164.96664521 1.26824 28.010418183 165.06168182 
1.09541 26.115524745 159.93407525 0.807263 22.175385581 150.75771442 0.490754 16.164527192 139.37887281 
0.219987 8.4216944327 127.55780557 -0.22133047364 0.0310031 116.37532047 -8.6259395782 -0.0686024 106.17758958 
-11.09169397 -0.0859414 105.30242397 -3.1838732387 -0.0576912 113.52983324 0.0353696 5.7397971511 122.30676285 
0.19681 14.491258884 131.51694112 0.409093 21.869535527 140.52456447 0.617628 27.048456504 148.0153435 
0.749253 29.691631751 152.36486825 0.750329 29.742192082 152.44060792 0.620332 27.192562145 148.23253786 
0.41223 22.084907034 140.86219297 0.199283 14.742460914 131.95363909 0.036698 5.9870078253 122.83014217 
-2.9721620884 -0.0573864 114.12956209 -10.93017619 -0.0862084 105.97106619 -12.500341012 -0.0763061 104.59334101 
-5.3907711772 -0.0846085 111.40493118 -0.0478855 3.3073311492 118.37867885 0.0427281 12.529253296 125.4460467 
0.18202 20.893031728 132.26206827 0.3309 27.127238238 137.96386176 0.429069 30.433830112 141.31646989 
0.429659 30.493826277 141.37377372 0.332295 27.295366235 138.13193377 0.18341 21.136404263 132.53319574 
0.0434816 12.801960482 125.81593952 -0.0478976 3.5659166641 118.84573334 -5.1737459201 -0.0851303 111.96568592 
-12.332253364 -0.0769507 105.23655336 -13.136068155 -0.0568984 103.41706816 -6.9752880533 -0.0827481 109.20981805 
-0.0788811 1.1474187088 114.87433129 -0.0342515 10.38369028 120.29840972 0.0541713 19.342170592 125.28252941 
0.159527 26.422146711 129.34525329 0.232663 30.331567253 131.71843275 0.232942 30.400570093 131.75902991 
0.160107 26.611998713 129.47030129 0.0545344 19.608142988 125.49975701 -0.0344177 10.671306873 120.61809313 
-0.0795046 1.4132301729 115.30184983 -6.7529302252 -0.0835453 109.74397023 -12.957760002 -0.0575805 104.04506 
-13.163110509 -0.0359085 101.89271051 -7.9738836313 -0.0685742 106.92120363 -0.62381965748 -0.0832592 111.62716766 
-0.0685755 8.282743602 115.8191664 -0.0161326 17.461811425 119.33968857 0.0568656 25.125474516 121.98642548 
0.110891 29.529883925 123.45581608 0.110973 29.607045635 123.48135437 0.0569435 25.333654333 122.07484567 
-0.0163556 17.744596819 119.51470318 -0.0691954 8.5800009693 116.10175903 -0.35298643381 -0.0841003 112.02915743 
-7.7449239131 -0.0693799 107.43884391 -12.970902738 -0.036489 102.51340274 -12.744211894 -0.0171525 100.14571189 
-8.4734851975 -0.0505829 104.5718052 -1.980702707 -0.0749919 108.56209271 -0.0798596 6.3633851589 111.83793484 
-0.0535406 15.44565427 114.23194573 -0.00548988 23.417124606 115.71797539 0.0333303 28.175531187 116.40086881 
0.0332874 28.259551123 116.41484888 -0.00571258 23.639333604 115.7769664 -0.0540759 15.739680013 114.37561999 
-0.0806595 6.6663991187 112.09659088 -1.7057563169 -0.0758384 108.94797632 -8.2361571205 -0.0512717 105.08226712 
-12.534666385 -0.0175819 100.76646639 -12.02246934 -0.0021656 98.28836934 -8.5775327329 -0.0330046 102.21547273 
-2.9503280169 -0.0615118 105.65280802 -0.0788966 4.6923997168 108.25136028 -0.0718873 13.432044689 109.80295531 
-0.043705 21.453306995 110.38349301 -0.0174816 26.409507231 110.42509277 -0.0175988 26.498504512 110.42969549 
-0.0440938 21.685065823 110.42243418 -0.072558 13.73262163 109.92567837 -0.0797106 4.9983732215 108.49607678 
-2.6714306612 -0.0622469 106.03159066 -8.3299371792 -0.0335191 102.72461718 -11.792311757 -0.00243016 98.913411757 
-11.114444381 0.00893715 96.411244381 -8.386798147 -0.0177157 99.906298147 -3.5861045026 -0.0468629 102.9023945 
-0.0717859 3.2881066776 104.99777332 -0.0788628 11.510318655 105.93578134 -0.0665835 19.361127323 105.84637268 
-0.0509792 24.36138702 105.39791298 -0.0511345 24.453541006 105.39575899 -0.0670427 19.598148143 105.87125186 
-0.0795486 11.813371465 106.04702853 -0.0725091 3.5950461491 105.23531385 -3.3030429199 -0.0474214 103.28175292 
-8.1271248081 -0.0180299 100.41994481 -10.861010052 0.00884062 97.044510052 -10.112104611 0.0155546 94.580604611 
-7.9926834197 -0.00660816 97.69103342 -3.952348383 -0.033955 100.32328838 -0.0619776 2.1391315791 102.04060842 
-0.0784092 9.7324501274 102.54674987 -0.0788476 17.238767928 101.98873207 -0.0725752 22.144635774 101.19376423 
-0.0727429 22.238134452 101.18866555 -0.0793086 17.477038715 102.00666128 -0.0790238 10.034672809 102.65282719 
-0.0625377 2.4455681349 102.27844187 -3.6648417284 -0.0342963 100.70660173 -7.7193779255 -0.00670831 98.211927926 
-9.8327760932 0.015636 95.224536093 -9.0770578252 0.0201957 92.845637825 -7.4577553842 0.00523536 95.611275384 
-4.0926769603 -0.0162122 97.93859696 -0.0436386 1.2393445807 99.369425419 -0.0675937 8.1385589235 99.576921076 
-0.0806719 15.164430019 98.713169981 -0.0841948 19.854726677 97.696373323 -0.0843685 19.947761274 97.689438726 
-0.0811171 15.400428688 98.729471312 -0.0681119 8.4370818488 99.684158151 -0.0440098 1.5440516547 99.611638345 
-3.8005289293 -0.0163205 98.328398929 -7.1695696085 0.00534842 96.141499609 -8.7697098573 0.0204364 93.500249857 
1.45019 2.26348252 110.87661748 0.554101 1.997667835 93.819532165 3.01888 3.0501088711 142.24299113 
1.7281 4.4721992286 122.14060077 3.595846594 4.56308 171.61845341 2.92197 6.082584829 150.17551517 
3.9493090778 5.97208 197.42699092 4.07925 7.068656613 176.23524339 4.1553909387 7.1425 218.25720906 
5.11316 7.6075466405 198.66025336 4.259135892 7.98258 232.92409411 5.93817 7.8639339439 215.96356606 
4.3007769427 8.42594 240.57713306 6.4748 7.965389577 226.94254042 4.3044893895 8.43744 240.76201061 
6.6666 7.9943641542 230.81101585 4.2701801272 8.01558 233.46284987 6.4921 7.9789773422 227.28517266 
4.1733517975 7.19269 219.1007482 5.97033 7.8912133476 216.61478665 3.9734787517 6.03308 198.49952125 
5.15582 7.6485113673 199.55978863 3.6247087223 4.62744 172.82759128 4.12691 7.1221834924 177.30051651 
3.07919 3.0818952366 143.49170476 2.96893 6.1461678117 151.31833219 1.50008 2.2963445992 112.0732554 
1.76926 4.5415060538 123.27509395 0.585532 2.0669878943 94.872112106 0.720673 2.8746275792 105.86607242 
-0.83922001235 0.292905 94.539920012 1.68407 6.2369606201 131.41113938 0.91527 4.5466138897 116.15548611 
2.75118 8.6243561859 156.81064381 1.61577 8.5877029605 138.96649704 3.82883 10.221310048 180.24288995 
2.35398 11.365674675 161.38082533 4.79624 11.209037489 199.87526251 3.06287 13.107146709 181.54905329 
5.53038 11.757326885 214.07147311 3.66071 14.09167545 197.63122455 5.93024 12.00000226 221.59069774 
4.06444 14.571904498 208.0562955 5.93842 12.011323418 221.75607658 4.21079 14.720836107 211.76006389 
5.55348 11.790891281 214.55150872 4.07531 14.599917341 208.35708266 4.83025 11.263422697 200.6185773 
3.68052 14.14736221 198.20163779 3.86825 10.293804548 181.17699545 3.08835 13.188911477 182.32928852 
2.79034 8.7104900534 157.85170995 2.38129 11.469556876 162.29614312 1.71828 6.3302058792 132.47769412 
1.6414 8.7059746811 139.94172532 0.746844 2.9670739731 106.88862603 0.936528 4.668003597 117.1258964 
-0.72904610873 0.308247 95.457346109 0.13429743956 0.265348 104.48760256 -5.1407453327 0.157082 96.953415333 
0.793621 6.0579302647 124.19166974 0.473361 2.1859229991 113.198877 1.46477 10.714487344 144.97231266 
0.865711 8.5221094346 131.07039057 2.22039 14.065446973 165.20815303 1.30726 13.393378622 149.54262138 
2.95665 16.269726378 182.91577362 1.75731 16.750732791 166.96756721 3.54845 17.56344563 196.12355437 
2.15541 18.817607798 181.3856922 3.8815 18.158617886 203.24488211 2.43339 19.901959364 190.96524064 
3.88695 18.177800975 203.38989903 2.53558 20.247756455 194.40514355 3.56353 17.619748163 196.54155184 
2.43987 19.94574637 191.22665363 2.978 16.360183748 183.55841625 2.16702 18.903575794 181.87742421 
2.24375 14.184040415 166.00775959 1.7718 16.874274453 167.63452555 1.48631 10.851332436 145.85736756 
1.32221 13.544986667 150.32191333 0.810811 6.1992966683 125.10080333 0.879097 8.6863402692 131.90345973 
0.26330193879 0.277205 105.37529806 0.483877 2.3420862076 114.04221379 -5.0135610015 0.164283 97.780591002 
-3.6581029921 0.0416735 104.73172299 -9.1181024639 0.0821395 99.236112464 0.29756 3.9139118479 119.71118815 
-1.0676259498 0.24335 111.67598595 0.683403 10.591892893 136.10430711 0.458925 6.8181205916 125.49627941 
1.17666 15.840009994 152.85309001 0.709138 13.583902337 140.23519766 1.70296 19.525024272 168.18327573 
0.973609 18.693169886 154.71773011 2.15299 21.791353862 180.01754614 1.21543 22.075286954 167.15951305 
2.41527 22.863192646 186.53220735 1.38876 23.945774246 175.65152575 2.41873 22.890439553 186.65706045 
1.45328 24.555047147 178.74025285 2.16233 21.87138557 180.37571443 1.39243 24.006509555 175.87439044 
1.71557 19.65169787 168.72920213 1.22192 22.192674671 167.57702533 1.18949 16.002090511 153.52940949 
0.981519 18.857613604 155.2820864 0.694138 10.771578335 136.85632166 0.717047 13.777821137 140.89737886 
0.305149 4.0882056488 120.49619435 0.465735 7.0162527019 126.2147473 -3.5118368546 0.0461814 105.52535685 
-0.8922995569 0.248431 112.42633956 -8.9860378396 0.0854336 100.00354784 -7.1806458349 -0.0441444 105.22434583 
-12.126305906 0.0371411 100.73910591 0.0558651 1.020902923 116.75336708 -4.2497493074 0.123305 110.57889931 
0.254082 9.0763995804 129.46690042 0.245065 4.32888066 121.34403934 0.554079 16.02407446 142.85392554 
0.382857 12.46742443 132.88737557 0.910901 21.26985883 155.59444117 0.526949 19.185949899 144.5144501 
1.23815 24.663423641 165.77707636 0.658465 23.961352891 154.82504711 1.43643 26.314869765 171.50963024 
0.753328 26.736236771 162.05156323 1.43852 26.350970675 171.61372932 0.788839 27.659510408 164.71538959 
1.24364 24.768156052 166.07674395 0.755305 26.814593625 162.23650637 0.917856 21.432640062 156.05045994 
0.661936 24.110391464 155.17120854 0.56049 16.225477856 143.42162214 0.531144 19.388209102 144.9864909 
0.258728 9.2890488694 130.10905113 0.386984 12.695304231 133.45009577 0.0585431 1.2153150141 117.44581499 
0.248521 4.5492969417 121.97457306 -7.0271326726 -0.0429737 105.95374267 -4.0649351048 0.125747 111.2630951 
-11.991708651 0.0386073 101.46587865 -9.9134123577 -0.0608324 105.35727236 -14.058833394 0.0076029 101.35243339 
-1.8551916548 -0.0433956 114.47061965 -6.8805578186 0.0586934 109.40696782 0.0395634 6.8494380891 124.33524191 
0.1345 1.6940188794 117.95901112 0.207006 15.057669092 134.77293091 0.213211 10.587000172 126.95499983 
0.437496 21.743546715 144.94885328 0.287903 18.568997395 136.03000261 0.667583 26.316713914 153.32658609 
0.350129 24.657806111 144.22179389 0.813395 28.615422158 158.14697784 0.392446 28.377866582 150.08683342 
0.814592 28.660633362 158.23216664 0.407934 29.644949181 152.27655082 0.670588 26.446764384 153.56983562 
0.393476 28.474422713 150.23467729 0.440966 21.940527897 145.3236721 0.351961 24.837345384 144.50245462 
0.209718 15.292024803 135.2488752 0.290152 18.80407976 136.42152024 0.0410159 7.0852797961 124.8915902 
0.215435 10.84001578 127.43948422 -1.6493690303 -0.0429877 115.09605123 0.136323 1.9279792242 118.52352078 
-9.7553876906 -0.0609573 106.04209769 -6.6902456938 0.0598825 110.04414569 -13.919098916 0.00820611 102.05129892 
-11.740494545 -0.0468639 104.94829454 -15.03084175 -0.0129402 101.18264175 -4.3033630726 -0.0690177 112.38041307 
-8.7995337554 0.0207822 107.97594376 -0.0525329 4.4358161474 120.13588385 -0.70116387309 0.0750448 114.94019187 
0.0287074 13.37546734 128.16163266 0.126475 8.3888991412 121.99384086 0.169903 21.219021531 135.99067847 
0.166898 17.194351133 128.93004887 0.327342 26.909022063 142.54257794 0.191702 24.384685386 135.15661461 
0.432654 29.875077981 146.37902202 0.203474 29.008143086 139.65205691 0.433279 29.929818681 146.44478132 
0.206879 30.623966939 141.34473306 0.328803 27.063982093 142.73471791 0.204024 29.122358269 139.76714173 
0.171318 21.446750185 136.29394982 0.192722 24.591909895 135.3797901 0.0294153 13.635623825 128.56357617 
0.168203 17.455818476 129.25458152 -0.0526032 4.6868986826 120.62918132 0.127783 8.6592048564 122.41598514 
-4.0904850369 -0.0694954 112.95887504 -0.45897585867 0.0760735 115.45686556 -11.576602642 -0.0473304 105.60310264 
-8.604046067 0.0213493 108.58028607 -14.881722105 -0.0127805 101.8630221 -12.737075233 -0.0228767 104.01737523 
-15.230932267 -0.0271879 100.40493227 -6.1645651969 -0.0607918 110.2613152 -10.016606884 -0.00373207 106.26531688 
-0.0800518 2.1729755319 116.48491447 -2.669051447 0.03959 112.07687145 -0.0526641 11.34895811 122.63024189 
0.0800023 6.1891044266 117.68113557 0.0274223 19.979571019 128.44452898 0.107145 15.378928276 122.90877172 
0.132223 26.620887848 133.27211215 0.11612 23.375722763 127.42347724 0.207263 30.220946401 136.1115536 
0.113625 28.784303845 130.62429615 0.207532 30.285034028 136.16016597 0.111068 30.726867507 131.82493249 
0.132755 26.798927827 133.41697217 0.113962 28.915027991 130.70867201 0.027681 20.232907907 128.68739209 
0.116779 23.606719231 127.59718077 -0.0529596 11.62767005 122.97412995 0.108017 15.660233642 123.18136636 
-0.0807388 2.4338317832 116.93137822 0.0808617 6.4706062996 118.0592137 -5.9458371157 -0.0614837 110.80712712 
-2.4212143415 0.0401967 112.56136434 -12.564267484 -0.0232874 104.65346748 -9.814357276 -0.00351756 106.84868728 
-15.067741473 -0.0272935 101.07494147 -13.051001636 0.00116615 102.66990164 -14.856062003 -0.036386 99.200462003 
-7.4268371896 -0.0399091 108.04237719 -10.622293984 -0.0204555 104.33349398 -0.0764481 0.24060398391 113.15447402 
-4.1529658652 0.0156169 109.28592587 -0.0816778 9.2551138237 117.87747618 0.0516752 4.1804267894 113.81327321 
-0.04295 18.288510754 122.04928925 0.0760123 13.375922683 117.72167732 0.0238957 25.643413237 125.34388676 
0.0817289 21.855007936 120.81799206 0.0763757 29.793211333 127.23598867 0.075457 27.872378105 122.8675219 
0.0764285 29.866059965 127.26864003 0.0710766 30.094154611 123.61014539 0.0238856 25.84175821 125.44974179 
0.0757165 28.017470528 122.92592947 -0.0433051 18.561832413 122.24346759 0.0822415 22.104770511 120.95162949 
-0.0824103 9.5464604586 118.17720954 0.0766767 13.670909672 117.95379033 -0.077286 0.50799439243 113.56846661 
0.0522796 4.4688865358 114.15940346 -7.2016888245 -0.0405159 108.56719882 -3.9002457405 0.0159535 109.74881574 
-12.86571763 0.000951712 103.29481763 -10.410915336 -0.0204809 104.90441534 -14.674424231 -0.0366801 99.866724231 
-12.8456149 0.0210191 101.0325149 -14.083626915 -0.0414097 97.729426915 -8.1540371596 -0.0168923 105.73585716 
-10.736607547 -0.0316615 102.26480755 -1.293962667 -0.05989 110.02785267 -5.1729380234 -0.00191238 106.55204802 
-0.0841862 7.2742610645 113.69314894 0.031494 2.4594201877 110.27448981 -0.0735653 16.365129082 116.57797092 
0.0568741 11.36644407 113.18385593 -0.0345606 24.163356192 118.58584381 0.065263 20.018304903 115.1572951 
0.000726341 28.737736169 119.63036383 0.060934 26.435914677 116.23978532 0.00065135 28.818062261 119.64913774 
0.0571341 28.869431265 116.58136874 -0.0348726 24.377960085 118.65903991 0.06117 26.592372058 116.27742794 
-0.0742117 16.652794185 116.73680582 0.0657107 20.281489259 115.26191074 -0.0850431 7.5736148785 113.96287512 
0.0574116 11.669933067 113.38856693 -1.0216358033 -0.0606505 110.4210558 0.0319125 2.7520745086 110.59948549 
-7.9210185642 -0.0172939 106.24935856 -4.9150359397 -0.00178571 107.00222594 -12.644333549 0.0210372 101.65373355 
-10.513446173 -0.0318783 102.83104617 -13.879597656 -0.0418619 98.397497656 -12.27238843 0.0353889 99.22558843 
-13.060866409 -0.0431039 96.121566409 -8.4415563537 0.00349179 103.38775635 -10.48167061 -0.0384649 100.14407061 
-2.4334056186 -0.0397017 107.05920562 -5.7881797437 -0.0148309 103.89488974 -0.0743597 5.5060315836 109.94268842 
0.0156441 1.0562772405 107.00428276 -0.0829221 14.374822315 111.85417769 0.042448 9.465625862 109.17170414 
-0.0648542 22.348676322 112.83322368 0.0552815 18.022975025 110.28982497 -0.043112 27.198133617 113.16346638 
0.0552669 24.626654781 110.60464522 -0.043258 27.284478274 113.17322173 0.0531721 27.192799177 110.61660082 
-0.0653169 22.575295843 112.88160416 0.0554931 24.791293782 110.62580622 -0.0836666 14.671559367 111.98684063 
0.0556822 18.294600097 110.3723999 -0.0751691 5.810010235 110.19447976 0.0428759 9.773440585 109.35825941 
-2.1567131922 -0.0402767 107.44181319 0.0158977 1.3514564045 107.3186536 -8.1988943239 0.00333786 103.89701432 
-5.5242785711 -0.0148889 104.34079857 -12.051930151 0.0356438 99.849230151 -10.244031435 -0.0388537 100.71193144 
-12.830797141 -0.0437123 96.796197141 -11.460085705 0.044355 97.353185705 -11.902642319 -0.0423095 94.476042319 
-8.3909106987 0.0193873 101.0553607 -9.9677462688 -0.0418396 98.044056269 -3.2185841795 -0.020434 104.24218418 
-6.0732212196 -0.0238991 101.34572122 -0.0596984 3.9914862645 106.54751374 -0.039580992536 0.00302979 103.97974499 
-0.08114 12.430008832 107.74189117 0.0302268 7.7372455048 105.5977945 -0.079015 20.340656031 107.93964397 
0.0470392 15.987064026 106.09113597 -0.0681903 25.309673278 107.70672672 0.0516831 22.578070804 105.8298292 
-0.0683692 25.400211073 107.70788893 0.0516072 25.195458335 105.59084166 -0.0795297 20.574860795 107.9709392 
0.0518954 22.747578552 105.84142145 -0.0818632 12.731456849 107.85784315 0.0473856 16.262480605 106.1600194 
-0.0603643 4.2976582435 106.78825176 0.0305413 8.0460658994 105.7743441 -2.937558102 -0.0207728 104.6220281 
0.00312397 0.25709676512 104.29071223 -8.1367744996 0.0194958 101.5680545 -5.8023507436 -0.0241315 101.79247074 
-11.217219348 0.0448526 97.983419348 -9.7134599361 -0.0424007 98.617629936 -11.643555124 -0.0430963 95.160455124 
-10.510037304 0.0488349 95.494937304 -10.695031377 -0.0400462 92.863231377 -8.0950121745 0.0307636 98.793532174 
-9.2856360732 -0.0419953 96.022376073 -3.7068028836 -0.00400967 101.58603288 -6.1019636317 -0.0291273 98.937193632 
-0.0441915 2.7332907624 103.46032924 -0.86014123724 -0.00654454 101.19235224 -0.0737904 10.599744434 104.14145557 
0.0193212 6.2078829936 102.40649701 -0.0835833 18.251298767 103.77780123 0.0387892 13.992182883 102.46131712 
-0.0815341 23.19399135 103.13060865 0.0477852 20.402396959 101.79990304 -0.0817191 23.286785552 103.12691445 
0.0498019 22.995907054 101.38309295 -0.0840823 18.488805344 103.79909466 0.0479766 20.57333205 101.80406795 
-0.0744157 10.902103592 104.25009641 0.0390693 14.267570495 102.52382951 -0.0446589 3.0398980876 103.69863191 
0.0195126 6.5151198292 102.58095017 -3.4212300633 -0.00408646 101.96764006 -0.56265772172 -0.00661135 101.50384872 
-7.8277272728 0.031148 99.311737273 -5.823252328 -0.0295355 99.389802328 -10.242188588 0.0495986 96.134988588 
-9.0127318255 -0.0427471 96.604611825 -10.403908649 -0.0410708 93.559008649 -9.499771272 0.0495722 93.708681272 
-9.4905771564 -0.0351863 91.330467156 -7.6384306402 0.0361102 96.64202064 -8.511912934 -0.0417232 94.116562934 
-3.9643304218 0.00669279 99.104550422 -5.9506903134 -0.0351244 96.688620313 -0.0310688 1.7104604811 100.65415952 
-1.4583033155 -0.0184018 98.633073316 -0.0638748 8.9221027076 100.98044729 0.00545006 4.8708203593 99.554069641 
-0.0816263 16.165977232 100.24012277 0.0280716 12.086764401 99.319035599 -0.0865623 20.955596535 99.314603465 
0.0424106 18.188812807 98.405087193 -0.0867333 21.048818639 99.308281361 0.0470017 20.697242392 97.879257608 
-0.0820584 16.403140652 100.25735935 0.0425919 18.358449823 98.407850177 -0.0643446 9.2223925009 101.0869175 
0.0282996 12.358679185 99.380720815 -0.0312997 2.0161230866 100.89432691 0.00552703 5.174331263 99.730128737 
-3.6739959813 0.00689489 99.491645981 -1.160644037 -0.0186324 98.950129037 -7.3565752739 0.0367887 97.168965274 
-5.6635181083 -0.0357242 97.148738108 -9.204559349 0.0506573 94.359739349 -8.2188609211 -0.0427095 94.708320921 
-9.1650546841 -0.0364929 92.037234684 -8.4880754121 0.045576 92.030645412 -7.069050729 0.0423538 94.640120729 
-4.0125526132 0.0240563 96.823372613 -0.00647279 0.9387076787 98.127052321 -0.042369 7.4473887523 98.214121248 
-0.0725409 14.15833714 97.23786286 -0.0889863 18.6781436 96.1442564 -0.0891621 18.770026104 96.137573896 
-0.0729411 14.391555652 97.255344348 -0.0426993 7.7427971739 98.323972826 -0.00645458 1.2422614892 98.373148511 
-3.7173002878 0.0245589 97.218250288 -6.7715034341 0.0433543 95.176093434 -8.1633712879 0.0469874 92.691691288 
-2.5309183136 -0.968943 53.653118314 -6.7240897598 -2.33464 26.82865676 -16.614658963 -3.70111 7.5928189626 
-35.343486751 -4.97407 0.63985175068 -53.853915651 -6.05111 -1.6238943489 -67.513426827 -6.83456 -2.5826631732 
-74.682535179 -7.24746 -2.9635848206 -74.682535179 -7.24746 -2.9635848206 -67.513426827 -6.83456 -2.5826631732 
-53.853915651 -6.05111 -1.6238943489 -35.343486751 -4.97407 0.63985175068 -16.614658963 -3.70111 7.5928189626 
-6.7240897598 -2.33464 26.82865676 -2.5309183136 -0.968943 53.653118314 -8.46960469 -0.263126 64.32882469 
-13.6209991 -1.06644 41.8982691 -20.41558447 -1.97561 21.87908447 -30.731985428 -2.90828 7.831795428 
-43.603490317 -3.76003 0.49891131739 -54.771684576 -4.41458 -2.8170854242 -61.045091607 -4.77121 -4.1111183931 
-61.045091607 -4.77121 -4.1111183931 -54.771684576 -4.41458 -2.8170854242 -43.603490333 -3.76003 0.49891133272 
-30.731985428 -2.90828 7.831795428 -20.41558447 -1.97561 21.87908447 -13.6209991 -1.06644 41.8982691 
-8.46960469 -0.263126 64.32882469 -13.726894781 0.080943 73.519104781 -18.582911871 -0.354819 54.047631871 
-23.623033381 -0.918883 34.654133381 -29.584351902 -1.55983 17.757851902 -36.953558548 -2.19335 5.7016985483 
-44.38603258 -2.70829 -1.0517974196 -49.065720458 -3.8702195424 -2.99851 -49.065720458 -3.8702195424 -2.99851 
-44.38603258 -2.70829 -1.0517974196 -36.953558548 -2.19335 5.7016985483 -29.584351902 -1.55983 17.757851902 
-23.623033381 -0.918883 34.654133381 -18.582911871 -0.354819 54.047631871 -13.726894781 0.080943 73.519104781 
-17.505783253 0.22558 80.625713253 -21.817671903 0.017994 63.634871903 -25.643975145 -0.304387 45.391475145 
-29.189439836 -0.717595 27.703539836 -32.755337171 -1.16361 12.789017171 -36.282973456 -1.54881 2.5719634558 
-38.723451497 -2.3363085032 -1.77382 -38.723451497 -2.3363085032 -1.77382 -36.282973456 -1.54881 2.5719634558 
-32.755337171 -1.16361 12.789017171 -29.189439836 -0.717595 27.703539836 -25.643975145 -0.304387 45.391475145 
-21.817671903 0.017994 63.634871903 -17.505783253 0.22558 80.625713253 -19.802750832 0.259968 85.740250832 
-23.58924687 0.184594 70.98324687 -26.538282698 0.0201026 54.150582698 -28.575688504 -0.228693 36.638788504 
-29.716172737 -0.527857 20.366672737 -30.074808227 -0.804924 7.5404182271 -29.987381407 -0.973363 0.32277560726 
-29.987381406 -0.973363 0.32277570612 -30.074808227 -0.804924 7.5404182271 -29.716172737 -0.527857 20.366672737 
-28.575688504 -0.228693 36.638788504 -26.538282698 0.0201026 54.150582698 -23.58924687 0.184594 70.98324687 
-19.802750832 0.259968 85.740250832 -20.84271116 0.240662 89.17631116 -24.178092188 0.238128 76.460092188 
-26.479909996 0.171797 61.158509996 -27.500633095 0.0354474 44.332133095 -27.055274469 -0.155631 27.630974469 
-25.149922394 -0.348719 13.198972394 -22.731162049 -0.471743 3.9293120487 -22.731162049 -0.471743 3.9293120487 
-25.149922394 -0.348719 13.198972394 -27.055274469 -0.155631 27.630974469 -27.500633095 0.0354474 44.332133095 
-26.479909996 0.171797 61.158509996 -24.178092188 0.238128 76.460092188 -20.84271116 0.240662 89.17631116 
-20.895321981 0.199163 91.272721981 -23.851643781 0.234109 80.407043781 -25.667373299 0.226434 66.664373299 
-25.972540276 0.164381 50.808140276 -24.448804883 0.050049 34.244704883 -20.995458326 -0.0803732 19.002358326 
-16.763374148 -0.168498 8.2511941484 -16.763377908 -0.168498 8.251197908 -20.995458326 -0.0803732 19.002358326 
-24.448804883 0.050049 34.244704883 -25.972540276 0.164381 50.808140276 -25.667373299 0.226434 66.664373299 
-23.851643781 0.234109 80.407043781 -20.895321981 0.199163 91.272721981 -20.219447673 0.15221 92.345147673 
-22.852375426 0.2042 83.134475426 -24.295753762 0.230237 70.915853762 -24.087086489 0.216398 56.185986489 
-21.815038072 0.155883 40.120738072 -17.322639299 0.0716465 24.636739299 -11.876128977 0.00997779 13.046428977 
-11.876128977 0.00997779 13.046428977 -17.322639299 0.0716465 24.636739299 -21.815038072 0.155883 40.120738072 
-24.087086489 0.216398 56.185986489 -24.295753762 0.230237 70.915853762 -22.852375426 0.2042 83.134475426 
-20.219447673 0.15221 92.345147673 -19.041899597 0.108014 92.666199597 -21.391314208 0.165315 84.914814208 
-22.543486762 0.209565 74.143986762 -21.965403802 0.226728 60.615803802 -19.180339827 0.204228 45.287739827 
-14.020295856 0.154483 29.973145856 -7.9011395641 0.113179 18.118719564 -7.9011395641 0.113179 18.118719564 
-14.020295856 0.154483 29.973145856 -19.180339827 0.204228 45.287739827 -21.965403802 0.226728 60.615803802 
-22.543486762 0.209565 74.143986762 -21.391314208 0.165315 84.914814208 -19.041899597 0.108014 92.666199597 
-17.549777454 0.0701599 92.460977454 -19.643995037 0.126086 85.979695037 -20.564269896 0.178806 76.555669896 
-19.726771662 0.215531 64.251371662 -16.610590959 0.220263 49.822320959 -11.072471725 0.19697 34.986571725 
-4.7209165655 0.171856 23.330996566 -4.7209165655 0.171856 23.330996566 -11.072471725 0.19697 34.986571725 
-16.610590959 0.220263 49.822320959 -19.726771662 0.215531 64.251371662 -20.564269896 0.178806 76.555669896 
-19.643995037 0.126086 85.979695037 -17.549777454 0.0701599 92.460977454 -15.890021574 0.0398331 91.908321574 
-17.750506183 0.0906762 86.520506183 -18.483911024 0.14558 78.329911024 -17.474057119 0.193953 67.235957119 
-14.175569512 0.218212 53.814059512 -8.4962383809 0.215612 39.695128381 -2.2442000627 0.203749 28.582380063 
-2.2442000627 0.203749 28.582380063 -8.4962383809 0.215612 39.695128381 -14.175569512 0.218212 53.814059512 
-17.474057119 0.193953 67.235957119 -18.483911024 0.14558 78.329911024 -17.750506183 0.0906762 86.520506183 
-15.890021574 0.0398331 91.908321574 -14.173223073 0.0165782 91.144223073 -15.817347045 0.0606583 86.690147045 
-16.39917162 0.11391 79.61597162 -15.287811834 0.168304 69.694831834 -11.931567894 0.206096 57.347827894 
-6.3055065276 0.219569 44.124356528 -0.38155141804 0.218632 33.785228418 -0.38155141804 0.218631 33.785228418 
-6.3055065276 0.219569 44.124356528 -11.931567894 0.206096 57.347827894 -15.287811834 0.168304 69.694831834 
-16.39917162 0.11391 79.61597162 -15.817347045 0.0606583 86.690147045 -14.173223073 0.0165782 91.144223073 
-12.474898725 0.00108915 90.271998725 -13.91827576 0.0381878 86.61067576 -14.377958881 0.087034 80.537558881 
-13.224815589 0.142236 71.733525589 -9.915202745 0.187861 60.493542745 -4.4961968628 0.213411 48.289436863 
0.221689 0.9620796043 38.855970396 0.221689 0.9620796043 38.855970396 -4.4961968628 0.213411 48.289436863 
-9.915202745 0.187861 60.493542745 -13.224815589 0.142236 71.733525589 -14.377958881 0.087034 80.537558881 
-13.91827576 0.0381878 86.61067576 -12.474898725 0.00108915 90.271998725 -10.850693202 -0.0115235 89.354393202 
-12.114380278 0.0152001 86.355180278 -12.480908541 0.0549291 81.165608541 -11.332800957 0.107069 73.409650957 
-8.1460745861 0.159101 63.285694586 -3.0407531944 0.197395 52.185018194 0.215925 1.8872950296 43.72122497 
0.215925 1.8872950296 43.72122497 -3.0407531944 0.197395 52.185018194 -8.1460745861 0.159101 63.285694586 
-11.332800957 0.107069 73.409650957 -12.480908541 0.0549291 81.165608541 -12.114380278 0.0152001 86.355180278 
-10.850693202 -0.0115235 89.354393202 -1.40021 -0.083178084276 48.909478084 -1.0618041327 -0.587355 66.970804133 
-2.96817 -2.3737070774 19.004257077 -4.4055453472 -1.79346 39.344195347 -15.535828131 -4.50964 2.2600181305 
-10.252211028 -3.00878 15.451201028 -39.267700704 -5.91273 -0.095609295925 -25.004068428 -4.17994 3.1386384278 
-59.421435056 -7.0746 -0.8502949436 -44.272410534 -5.21909 -0.49961946595 -73.663743769 -7.9042 -1.213226231 
-60.368778888 -6.04226 -1.8420011124 -81.016787381 -8.33602 -1.3678726192 -70.724263888 -6.57237 -2.4055361117 
-81.016787381 -8.33602 -1.3678726192 -74.2836 -6.75559 -2.56473 -73.663743769 -7.9042 -1.213226231 
-70.724263888 -6.57237 -2.4055361117 -59.421435056 -7.0746 -0.8502949436 -60.368778888 -6.04226 -1.8420011124 
-39.267700704 -5.91273 -0.095609295925 -44.272410534 -5.21909 -0.49961946595 -15.535828131 -4.50964 2.2600181305 
-25.004068428 -4.17994 3.1386384278 -2.96817 -2.3737070774 19.004257077 -10.252211028 -3.00878 15.451201028 
-1.40021 -0.083178084276 48.909478084 -4.4055453472 -1.79346 39.344195347 -1.0618041327 -0.587355 66.970804133 
-5.1710181747 -0.540714 58.865408175 -6.2740625577 -0.318186 74.359512558 -10.01524398 -1.4928 34.79659398 
-11.066301203 -0.969714 51.991344203 -18.073440702 -2.54981 15.102340702 -16.666076042 -1.6941 30.634876042 
-32.004729321 -3.61784 4.0858493213 -24.872277002 -2.45084 13.607177002 -47.889684659 -4.57591 -0.52530034067 
-36.663551024 -3.17104 3.5176710237 -60.487581096 -5.30078 -2.5140089045 -48.919894499 -3.77325 -1.1997855014 
-67.286456579 -5.69153 -3.3005934209 -57.680761365 -4.1759 -3.2053686348 -67.286456579 -5.69153 -3.3005934209 
-60.8115 -4.31775 -3.76538 -60.487581096 -5.30078 -2.5140089045 -57.680761365 -4.1759 -3.2053686348 
-47.889684659 -4.57591 -0.52530034067 -48.919894499 -3.77325 -1.1997855014 -32.004729321 -3.61784 4.0858493213 
-36.663551024 -3.17104 3.5176710237 -18.073440702 -2.54981 15.102340702 -24.872277002 -2.45084 13.607177002 
-10.01524398 -1.4928 34.79659398 -16.666076042 -1.6941 30.634876042 -5.1710181747 -0.540714 58.865408175 
-11.066301203 -0.969714 51.991344203 -6.2740625577 -0.318186 74.359512558 -11.049741825 -0.107183 68.835048825 
-11.442260974 -0.159811 81.533410974 -16.019001696 -0.612236 48.215521696 -16.3652779 -0.50309 62.7428479 
-21.815262665 -1.26288 28.641062665 -21.168834839 -0.920208 43.232934839 -29.623988597 -2.00083 12.964088597 
-26.432107464 -1.38321 25.095207464 -39.575961395 -2.72248 3.1380713946 -32.923892272 -1.84892 10.809912272 
-48.972668665 -3.30254 -1.8074413355 -40.38887221 -2.25617 1.8568122101 -54.53410821 -3.79238179 -3.6267 
-46.558890742 -2.53733 -2.5203392579 -54.53410821 -3.79238179 -3.6267 -48.9329 -3.78548 -2.63805 
-48.972668665 -3.30254 -1.8074413355 -46.558890742 -2.53733 -2.5203392579 -39.575961395 -2.72248 3.1380713946 
-40.38887221 -2.25617 1.8568122101 -29.623988597 -2.00083 12.964088597 -32.923892272 -1.84892 10.809912272 
-21.815262665 -1.26288 28.641062665 -26.432107464 -1.38321 25.095207464 -16.019001696 -0.612236 48.215521696 
-21.168834839 -0.920208 43.232934839 -11.049741825 -0.107183 68.835048825 -16.3652779 -0.50309 62.7428479 
-11.442260974 -0.159811 81.533410974 -15.685333105 0.0815291 76.948723105 -15.298393303 -0.0660844 87.188553303 
-20.187911627 -0.14494 58.968111627 -19.924789254 -0.251379 71.206389254 -24.517117972 -0.503436 40.315117972 
-23.975671042 -0.491141 53.451171042 -29.103194268 -0.97281 23.019994268 -27.55227721 -0.764078 35.45747721 
-34.365915672 -1.47992 9.407905672 -30.938183813 -1.04686 19.239083813 -39.792124129 -1.91577 0.89185112901 
-34.36217209 -1.30103 6.8856820902 -43.411527489 -2.9106125114 -2.16901 -37.360097787 -1.48049 -0.38091021345 
-43.411527489 -2.9106125114 -2.16901 -38.6177 -2.68767 -1.5456 -39.792124129 -1.91577 0.89185112901 
-37.360097787 -1.48049 -0.38091021345 -34.365915672 -1.47992 9.407905672 -34.36217209 -1.30103 6.8856820902 
-29.103194268 -0.97281 23.019994268 -30.938183813 -1.04686 19.239083813 -24.517117972 -0.503436 40.315117972 
-27.55227721 -0.764078 35.45747721 -20.187911627 -0.14494 58.968111627 -23.975659855 -0.491141 53.451259855 
-15.685333105 0.0815291 76.948723105 -19.924789254 -0.251379 71.206389254 -15.298393303 -0.0660844 87.188553303 
-18.769539092 0.133307 82.993839092 -17.705929436 -0.00715942 91.185529436 -22.737527121 0.0656163 67.320127121 
-21.934721845 -0.114271 77.605321845 -26.030548612 -0.10074 49.950348612 -25.364892256 -0.258968 61.602992256 
-28.712178129 -0.371885 32.425478129 -27.845347405 -0.419865 44.333847405 -30.922328622 -0.705256 16.796228622 
-29.346016852 -0.583941 27.464216852 -32.747765383 -1.01568 5.2040853834 -29.951202301 -0.730094 13.012842301 
-33.927771777 -1.20427 -0.84095822336 -29.920919202 -0.83324 3.0627292016 -33.927771777 -1.20427 -0.84095822336 
-29.7837 -0.87074 -0.541544 -32.747765383 -1.01568 5.2040853834 -29.920919202 -0.83324 3.0627292016 
-30.922328622 -0.705256 16.796228622 -29.951202301 -0.730094 13.012842301 -28.712178129 -0.371885 32.425478129 
-29.346016852 -0.583941 27.464216852 -26.030548612 -0.10074 49.950348612 -27.845347405 -0.419865 44.333847405 
-22.737527121 0.0656163 67.320127121 -25.364892256 -0.258968 61.602992256 -18.769539092 0.133307 82.993839092 
-21.934721845 -0.114271 77.605321845 -17.705929436 -0.00715942 91.185529436 -20.456270817 0.119258 87.217670817 
-18.852769332 0.0324143 93.717469332 -23.949048901 0.134665 73.641748901 -22.685479315 -0.0364297 82.250379315 
-26.489892069 0.0861544 57.733892069 -25.617043505 -0.133472 67.981143505 -27.931864196 -0.0486024 40.669364196 
-27.337833097 -0.235053 51.747833097 -28.179259296 -0.251726 24.208559296 -27.617630616 -0.33076 34.938630616 
-27.296372315 -0.462139 10.535522315 -26.354212754 -0.409317 19.411012754 -25.995220655 -0.597181 2.268890655 
-23.922274347 -0.461551 7.461494347 -25.995220655 -0.597181 2.268890655 -22.3384 -0.479994 2.52959 
-27.296372315 -0.462139 10.535522315 -23.922274347 -0.461551 7.461494347 -28.179259296 -0.251726 24.208559296 
-26.354212754 -0.409317 19.411012754 -27.931864196 -0.0486024 40.669364196 -27.617630616 -0.33076 34.938630616 
-26.489892069 0.0861544 57.733892069 -27.337833097 -0.235053 51.747833097 -23.949048901 0.134665 73.641748901 
-25.617043505 -0.133472 67.981143505 -20.456270817 0.119258 87.217670817 -22.685479315 -0.0364297 82.250379315 
-18.852769332 0.0324143 93.717469332 -21.004714896 0.0789767 89.948914896 -19.008910259 0.0597147 95.065610259 
-24.098594972 0.132714 78.284194972 -22.471160936 0.0114221 85.462160936 -26.084319782 0.151526 63.906019782 
-24.997395498 -0.0620092 72.868395498 -26.67258702 0.105533 47.67818702 -26.169477361 -0.13554 57.838877361 
-25.610098475 -0.00501058 31.104398475 -25.619882995 -0.197454 41.512282995 -22.845373998 -0.140004 16.260873998 
-23.111480171 -0.239798 25.592080171 -19.450437434 -0.233245 6.2145774336 -18.982331972 -0.262728 12.399311972 
-19.450437434 -0.233245 6.2145774336 -16.172 -0.269757 6.37971 -22.845373998 -0.140004 16.260873998 
-18.982331972 -0.262728 12.399311972 -25.610098475 -0.00501058 31.104398475 -23.111480171 -0.239798 25.592080171 
-26.67258702 0.105533 47.67818702 -25.619882995 -0.197454 41.512282995 -26.084319782 0.151526 63.906019782 
-26.169477361 -0.13554 57.838877361 -24.098594972 0.132714 78.284194972 -24.997395498 -0.0620092 72.868395498 
-21.004714896 0.0789767 89.948914896 -22.471160936 0.0114221 85.462160936 -19.008910259 0.0597147 95.065610259 
-20.685935982 0.0334882 91.514835982 -18.44027259 0.0779363 95.51157259 -23.444132487 0.100502 81.572532487 
-21.558343118 0.042975 87.537943118 -25.012720701 0.154451 68.717020701 -23.745904059 -0.0171956 76.526904059 
-24.995945657 0.163571 53.535545657 -24.509178922 -0.0784699 62.779978922 -23.032381753 0.116566 37.294881753 
-23.382166444 -0.127051 47.200566444 -18.9922161 0.0366258 21.9521161 -20.040183124 -0.154318 31.346283124 
-14.085361415 -0.0250369 10.753691415 -14.804313842 -0.163882 17.545613842 -14.085361415 -0.0250369 10.753691415 
-11.1615 -0.165408 10.85 -18.9922161 0.0366258 21.9521161 -14.804313842 -0.163882 17.545613842 
-23.032381753 0.116566 37.294881753 -20.040183124 -0.154318 31.346283124 -24.995945657 0.163571 53.535545657 
-23.382166444 -0.127051 47.200566444 -25.012720701 0.154451 68.717020701 -24.509178922 -0.0784699 62.779978922 
-23.444132487 0.100502 81.572532487 -23.745904059 -0.0171956 76.526904059 -20.685935982 0.0334882 91.514835982 
-21.558343118 0.042975 87.537943118 -18.44027259 0.0779363 95.51157259 -19.746795222 -0.00733149 92.206895222 
-17.378422596 0.0887789 95.305522596 -22.214851429 0.0596239 83.795451429 -20.174698457 0.0641768 88.740298457 
-23.463614666 0.129118 72.405714666 -22.070734689 0.013696 79.194434689 -23.014343708 0.170913 58.380143708 
-22.5225958 -0.0416031 66.7492958 -20.42840305 0.166734 42.76220305 -20.99441343 -0.0868345 52.08651343 
-15.546162705 0.126612 27.398672705 -17.109861448 -0.111145 36.622061448 -9.7067548218 0.0886536 15.663654822 
-11.22724716 -0.117513 22.70984716 -9.7067548218 0.0886536 15.663654822 -7.17581 -0.117512 15.7771 
-15.546162705 0.126612 27.398672705 -11.22724716 -0.117513 22.70984716 -20.42840305 0.166734 42.76220305 
-17.109861448 -0.111145 36.622061448 -23.014343708 0.170912 58.380143708 -20.99441343 -0.0868345 52.08651343 
-23.463614666 0.129118 72.405714666 -22.5225958 -0.0416031 66.7492958 -22.214851429 0.0596239 83.795451429 
-22.070734689 0.013696 79.194434689 -19.746795222 -0.00733149 92.206895222 -20.174698457 0.0641768 88.740298457 
-17.378422596 0.0887789 95.305522596 -18.397072082 -0.0396103 92.271272082 -16.011737186 0.0935659 94.656037186 
-20.606195787 0.0206252 85.202295787 -18.505276944 0.0776532 89.292776944 -21.604657692 0.0940523 75.189957692 
-20.144994344 0.0359199 81.080194344 -20.849894537 0.153937 62.365594537 -20.357289969 -0.0148377 69.915289969 
-17.84906635 0.178367 47.56450635 -18.560299175 -0.0601346 56.276199175 -12.451950158 0.167288 32.533020158 
-14.356158073 -0.0869852 41.441398073 -6.1728575929 0.147393 20.780197593 -8.1871901953 -0.0955662 27.805310195 
-6.1728575929 0.147393 20.780197593 -4.0801 -0.0963139 21.0007 -12.451950158 0.167288 32.533020158 
-8.1871901953 -0.0955662 27.805310195 -17.84906635 0.178367 47.56450635 -14.356158073 -0.0869852 41.441398073 
-20.849894537 0.153937 62.365594537 -18.560299175 -0.0601346 56.276199175 -21.604657692 0.0940523 75.189957692 
-20.357289969 -0.0148377 69.915289969 -20.606195787 0.0206252 85.202295787 -20.144994344 0.0359199 81.080194344 
-18.397072082 -0.0396103 92.271272082 -18.505276944 0.0776532 89.292776944 -16.011737186 0.0935659 94.656037186 
-16.805569428 -0.0625936 91.906569428 -14.485565907 0.0935556 93.728365907 -18.778038438 -0.01196 86.001638438 
-16.694280324 0.0848821 89.379480324 -19.577161768 0.0586504 77.260861768 -18.106055126 0.0515575 82.363055126 
-18.615341829 0.127096 65.640441829 -18.134926421 0.00576943 72.429426421 -15.364796909 0.170313 51.787706909 
-16.174837307 -0.0396216 59.876657307 -9.7150536073 0.180677 37.357383607 -11.831296414 -0.0703834 45.853136414 
-3.3823979551 0.174857 25.988407955 -5.6597321284 -0.0832479 32.793992128 -3.3823979551 0.174857 25.988407955 
-1.74045 -0.0857539 26.3696 -9.7150536073 0.180677 37.357383607 -5.6597321284 -0.0832479 32.793992128 
-15.364796909 0.170313 51.787706909 -11.831296414 -0.0703834 45.853136414 -18.615341829 0.127096 65.640441829 
-16.174837307 -0.0396216 59.876657307 -19.577161768 0.0586504 77.260861768 -18.134926421 0.00576943 72.429426421 
-18.778038438 -0.01196 86.001638438 -18.106055126 0.0515575 82.363055126 -16.805569428 -0.0625936 91.906569428 
-16.694280324 0.0848821 89.379480324 -14.485565907 0.0935556 93.728365907 -15.10220989 -0.0769437 91.26820989 
-12.906259068 0.090084 92.648259068 -16.855018527 -0.0366425 86.363018527 -14.848285456 0.0872754 89.147485456 
-17.493685029 0.0273507 78.780585029 -16.056979395 0.0616978 83.192079395 -16.403493031 0.0979886 68.338393031 
-15.94899765 0.021493 74.42229765 -13.040284338 0.152896 55.519954338 -13.912772901 -0.0227329 62.984512901 
-7.3537931889 0.179016 41.896843189 -9.5780587478 -0.0566117 49.906838748 -1.2467225516 0.184271 31.196056552 
-3.6199376934 -0.0738403 37.647487693 -1.2467225516 0.184271 31.196056552 -0.0783225 -0.0277253 31.7477 
-7.3537931889 0.179016 41.896843189 -3.6199376934 -0.0738403 37.647487693 -13.040284338 0.152896 55.519954338 
-9.5780587478 -0.0566117 49.906838748 -16.403493031 0.0979886 68.338393031 -13.912772901 -0.0227329 62.984512901 
-17.493685029 0.0273507 78.780585029 -15.94899765 0.021493 74.42229765 -16.855018527 -0.0366425 86.363018527 
-16.056979395 0.0616978 83.192079395 -15.10220989 -0.0769437 91.26820989 -14.848285456 0.0872754 89.147485456 
-12.906259068 0.090084 92.648259068 -13.381727575 -0.0843007 90.471627575 -11.347511067 0.0843033 91.507311067 
-14.929898633 -0.0539787 86.418598633 -13.043049665 0.0851622 88.708449665 -15.438371969 0.00173363 79.881171969 
-14.071511481 0.0664137 83.684911481 -14.283590346 0.0705208 70.572830346 -13.865021536 0.0326037 76.001521536 
-10.921801683 0.131787 58.838871683 -11.823706365 -0.00845504 65.681436365 -5.3733218001 0.169034 46.1727718 
-7.6173920079 -0.0437685 53.642112008 0.182874 0.32658437322 36.318255627 -2.0255415466 -0.0647958 42.331296147 
0.182874 0.32658437322 36.318255627 -0.0712413 1.17934 37.0174 -5.3733218001 0.169034 46.1727718 
-2.0255415466 -0.0647958 42.331296147 -10.921801683 0.131787 58.838871683 -7.6173920079 -0.0437685 53.642112008 
-14.283590346 0.0705208 70.572830346 -11.823706365 -0.00845504 65.681436365 -15.438371969 0.00173363 79.881171969 
-13.865021536 0.0326037 76.001521536 -14.929898633 -0.0539787 86.418598633 -14.071511481 0.0664137 83.684911481 
-13.381727575 -0.0843007 90.471627575 -13.043049665 0.0851622 88.708449665 -11.347511067 0.0843033 91.507311067 
-11.708050386 -0.0854793 89.602550386 -9.8554603944 0.0765112 90.363250394 -13.064436549 -0.0622272 86.276536549 
-11.322483707 0.0833127 88.153183707 -13.468394141 -0.014957 80.675894141 -12.189085102 0.0726116 83.946885102 
-12.302051806 0.0481792 72.440431806 -11.91510596 0.0465658 77.26923596 -9.0350367924 0.109952 61.805936792 
-9.9285802785 0.00884636 68.045100278 -3.7579827824 0.153474 50.192572782 -5.9464540454 -0.0291948 57.091204045 
0.1736 1.4348538173 41.274016183 -0.81856128354 -0.0557534 46.803897284 0.1736 1.4348538173 41.274016183 
-0.0649432 1.98957 42.0792 -3.7579827824 0.153474 50.192572782 -0.81856128354 -0.0557534 46.803897284 
-9.0350367924 0.109952 61.805936792 -5.9464540454 -0.0291948 57.091204045 -12.302051806 0.0481792 72.440431806 
-9.9285802785 0.00884636 68.045100278 -13.468394141 -0.014957 80.675894141 -11.91510596 0.0465658 77.26923596 
-13.064436549 -0.0622272 86.276536549 -12.189085102 0.0726116 83.946885102 -11.708050386 -0.0854793 89.602550386 
-11.322483707 0.0833127 88.153183707 -9.8554603944 0.0765112 90.363250394 -10.122655013 -0.0808667 88.719575013 
-11.312785771 -0.0713261 85.988485771 -11.638901021 -0.0392735 81.199181021 -10.501821418 0.0126843 73.954791418 
-7.3942107866 0.0751025 64.418930787 -2.4742634767 0.130426 53.933321177 0.162328 2.1748421326 45.998117867 
0.162328 2.1748421326 45.998117867 -2.4742634767 0.130426 53.933321177 -7.3942107866 0.0751025 64.418930787 
-10.501821418 0.0126843 73.954791418 -11.638901021 -0.0392735 81.199181021 -11.312785771 -0.0713261 85.988485771 
-10.122655013 -0.0808667 88.719575013 2.50637 12.070481075 116.22231892 0.17122 14.209560942 99.348339058 
0.131315 16.455111019 92.650888981 0.0507158 17.470329145 88.317670855 0.02763 18.209652539 85.433447461 
0.0199273 18.751095641 83.317804359 0.0151927 19.17331845 81.68378155 0.0128206 19.511652854 80.371647146 
0.0111665 19.787047084 79.286552916 0.00999613 20.013289025 78.369110975 0.00907678 20.1997993 77.5804007 
0.00832455 20.353611317 76.894188683 0.00768684 20.480095481 76.292604519 0.00713622 20.583804025 75.763195975 
0.00665639 20.668225085 75.297574915 -0.527615 1.1509978887 100.50303211 0.0931157 7.5844068722 97.427593128 
0.211344 11.31376817 93.06713183 0.0821993 13.348422493 89.200177507 0.0465447 14.797432066 86.400367934 
0.0254734 15.82967666 84.25712334 0.0153635 16.612900356 82.573199644 0.00988597 17.225021489 81.206778511 
0.00671278 17.715842994 80.070057006 0.00478956 18.116771446 79.104928554 0.00355913 18.448386226 78.272613774 
0.00274431 18.725216645 77.546683355 0.00218898 18.957764531 76.908735469 0.00180441 19.153537582 76.346162418 
0.00153666 19.31854083 75.85025917 -0.263136 0.87506223518 93.167887765 0.0897687 4.22130919 93.90187081 
0.095129 7.3743541432 91.688765857 0.0779137 9.8488064217 89.111793578 0.0558029 11.687487634 86.807712366 
0.0352246 13.071973362 84.863726638 0.0232315 14.144786187 83.252713813 0.0155719 14.993420623 81.903279377 
0.010805 15.67877471 80.75832529 0.00773011 16.24139376 79.77330624 0.00570232 16.709416858 78.915883142 
0.00433661 17.102819639 78.162880361 0.0034041 17.435998949 77.497501051 0.00276441 17.719201249 76.908298751 
0.00232815 17.960468914 76.387031086 -0.199874 0.3453987319 88.531104268 -0.0555694 2.421851784 90.171498216 
0.0266659 4.9066242722 89.751655728 0.0523957 7.2002768048 88.350503195 0.0459575 9.0991107355 86.696089265 
0.0353626 10.639976114 85.108123886 0.0260272 11.885886069 83.680013931 0.0188827 12.900475083 82.422124917 
0.013831 13.735698302 81.318601698 0.0102831 14.430796713 80.347303287 0.00780229 15.0153115 79.4880885 
0.00606062 15.510886922 78.724413078 0.00483698 15.93394968 78.04345032 0.00398121 16.296371022 77.435928978 
0.00339052 16.607330388 76.895469612 -0.139652 0.2139007648 85.495758235 -0.0558791 1.56244081 87.46128919 
-0.00356299 3.3935089313 87.855701069 0.0220932 5.3014583384 87.280251662 0.0298512 7.0636976032 86.242342397 
0.0285226 8.5979640826 85.054805917 0.0238396 9.9022141991 83.872185801 0.0189713 11.00332085 82.76077915 
0.0148252 11.933497648 81.741502352 0.0115645 12.722714014 80.815985986 0.00909638 13.396112894 79.978487106 
0.00726467 13.973880516 79.221319484 0.0059263 14.471733937 78.537366063 0.00496481 14.901970805 77.920929195 
0.00428999 15.273798248 77.367901752 -0.0998811 0.13418960607 83.411031394 -0.0509813 1.0645334406 85.393066559 
-0.0195753 2.4211897616 86.208170238 0.00348047 3.9665546791 86.173975321 0.0156032 5.5063719575 85.621018043 
0.019421 6.9342451808 84.802294819 0.0189291 8.2094009834 83.879039017 0.0166888 9.3270312881 82.941398712 
0.0140317 10.298738958 82.034861042 0.0115616 11.141752041 81.179847959 0.00948254 11.873803017 80.384196983 
0.00782589 12.510841118 79.649358882 0.00655506 13.066269316 78.974330684 0.00561274 13.55082883 78.35787117 
0.00494006 13.973079991 77.798720009 -0.0749857 0.092370994604 81.961616005 -0.0415693 0.76110493593 83.854099064 
-0.0227842 1.782413354 84.859756646 -0.00621589 3.0166313115 85.156208688 0.00517163 4.3218728117 84.954127188 
0.0111768 5.597938855 84.441591145 0.0133115 6.7889478173 83.758802183 0.0132052 7.8710223037 82.998627696 
0.0120508 8.8395529674 82.217727033 0.0105501 9.6997755805 81.448624419 0.00906672 10.461324049 80.709275951 
0.00776628 11.134493494 80.009006506 0.00670705 11.729255239 79.352944761 0.00589387 12.254127657 78.744072343 
0.00530623 12.715913895 78.184586105 -0.0576736 0.06540159449 80.957310606 -0.033167 0.56121989944 82.711597101 
-0.0220203 1.3412995183 83.784110482 -0.01067 2.325843187 84.274086813 -0.00132037 3.415329929 84.314950071 
0.0048748 4.5272269116 84.040743088 0.00819748 5.6055420819 83.564227918 0.00947084 6.6181336262 82.969446374 
0.00950491 7.5501758789 82.314544121 0.00890336 8.3977732795 81.63753672 0.00805662 9.1631310642 80.962768936 
0.00719208 9.8512891285 80.305410872 0.00642958 10.468239927 79.675560073 0.00582284 11.019543644 79.080056356 
0.00538629 11.510009804 78.524390196 -0.0453992 0.047203782465 80.274822518 -0.0263051 0.42213830559 81.874796694 
-0.019578 1.0247903814 82.944429619 -0.0120365 1.8105915147 83.538528485 -0.0049495 2.711689281 83.740710719 
0.000511393 3.6643920258 83.644507974 0.00408648 4.6193328893 83.336337111 0.00605224 5.5431660075 82.886923992 
0.00686613 6.4161677727 82.350082227 0.00696286 7.2285513334 81.764338667 0.0066784 7.9770290851 81.156860915 
0.00624378 8.6620056728 80.546624327 0.00580447 9.2857209865 79.947069013 0.00544361 9.8508924202 79.36846758 
0.00520097 10.359986922 78.819213078 -0.0362138 0.03404448626 79.831078414 -0.020831 0.32048875917 81.274297241 
-0.0167672 0.78869107484 82.301884925 -0.0118578 1.4154581706 82.942561829 -0.00671069 2.1554100603 83.24728994 
-0.0022724 2.9613004542 83.280009546 0.00103361 3.7926120989 83.104617901 0.00319615 4.6187418773 82.778118123 
0.00442129 5.418854647 82.346695353 0.00498031 6.1802200307 81.846589969 0.00512576 6.8959530478 81.304976952 
0.00505847 7.5630482515 80.742441748 0.00492271 8.1806194371 80.174630563 0.00481301 8.7487516841 79.614148316 
0.00478357 9.267632257 79.071877743 -0.0290832 0.024074913913 79.567056086 -0.0164654 0.24296544244 80.857718558 
-0.0140448 0.60623305538 81.821978945 -0.0109306 1.1038815647 82.472288435 -0.0073203 1.7063851636 82.838234836 
-0.00390603 2.3798383615 82.961721639 -0.00110426 3.0926079067 82.888962093 0.000948248 3.8186348598 82.66345514 
0.00230427 4.5383884778 82.323471522 0.00311051 5.2383693591 81.900710641 0.00353896 5.9099001473 81.420759853 
0.00374819 6.5477327884 80.903827212 0.00386645 7.1487449964 80.366735004 0.0039872 7.71083615 79.82351385 
0.00417018 8.2321506069 79.286789393 -0.0233381 0.016182742692 79.439224057 -0.0129326 0.18151044818 80.584679552 
-0.0115707 0.46041287464 81.475020125 -0.00969034 0.85126308511 82.111962915 -0.0072559 1.3358137768 82.510406223 
-0.00475004 1.8906538418 82.696386158 -0.00252309 2.4921784301 82.70160157 -0.000747735 3.1194619242 82.558068076 
0.000548463 3.7556062065 82.295863794 0.00142996 4.387895685 81.941274315 0.00200515 5.0072559598 81.51693404 
0.00239236 5.6073546161 81.041885384 0.00269937 6.1836688061 80.532641194 0.00301262 6.7325421698 80.00409783 
0.00339204 7.2504606708 79.470019329 -0.0185595 0.009686534555 79.413795455 -0.0100187 0.13103305147 80.423044949 
-0.00937192 0.34013798665 81.235456013 -0.0083548 0.64082274401 81.845410256 -0.00681172 1.0229898952 82.257430105 
-0.00507098 1.4714446454 82.485485355 -0.00340658 1.9694606983 82.549749302 -0.00198462 2.5012329343 82.472437066 
-0.000867066 3.053110313 82.275809687 -3.74274e-05 3.6141388791 81.980681121 0.000569136 4.1759292018 81.605660798 
0.00103969 4.7320597342 81.167700266 0.00146408 5.2774375054 80.682412495 0.00192134 5.807507123 80.164412877 
0.00247035 6.3175650552 79.628614945 -0.0144731 0.0041430768979 79.464012403 -0.00756231 0.088212347889 80.346951352 
-0.00742627 0.23799062503 81.081917375 -0.00702849 0.46095968361 81.657833316 -0.00616337 0.75303983278 82.071386167 
-0.00505214 1.1054330903 82.32768691 -0.00390185 1.5072490053 82.437210995 -0.00285593 1.9473887284 82.413871272 
-0.00198516 2.4157010657 82.272848934 -0.00129704 2.9036061313 82.029203869 -0.000752679 3.4041304747 81.697559525 
-0.000285159 3.9116213701 81.29189863 0.000183891 4.4211806058 80.825919394 0.000729968 4.9280499921 80.313800008 
0.00141343 5.4268805042 79.770509496 -0.0108994 -0.00074277024618 79.567289235 -0.0054466 0.050841866707 80.334563333 
-0.00569666 0.14895507667 80.995744923 -0.00575578 0.30362195109 81.535306049 -0.00541082 0.51528213821 81.943929862 
-0.00481241 0.78016821618 82.219532784 -0.0041158 1.0922488331 82.364991167 -0.00343932 1.4446374256 82.387002574 
-0.00285041 1.8306523537 82.294147646 -0.00236575 2.2444121913 82.095977809 -0.00195911 2.6809220573 81.802607943 
-0.00157316 3.135969636 81.424830364 -0.00113275 3.6056131307 80.973786869 -0.00055912 4.0855963438 80.462343656 
0.000215587 4.5705267147 79.905213285 -0.00772314 -0.0051688630266 79.704583793 -0.00358891 0.017459855802 80.367444244 
-0.004146 0.069661079933 80.96072312 -0.00455055 0.16328726556 81.465103734 -0.00460759 0.3022222787 81.866603721 
-0.0044242 0.48665606387 82.156915936 -0.00411937 0.71453436792 82.332785632 -0.00379048 0.98269097511 82.394604025 
-0.00349779 1.2877334919 82.345016508 -0.00325945 1.6265591925 82.188180807 -0.00305309 1.9966114511 81.929748549 
-0.00282227 2.3956848383 81.576475162 -0.00248654 2.8214835003 81.1365865 -0.00195495 3.2709938277 80.620846172 
-0.00114283 3.7395535129 80.042876487 -0.0092631715519 -0.00487494 79.858882642 -0.012859561688 -0.00193346 80.429386462 
-0.00274316 -0.0020563469558 80.962628439 -0.00341217 0.036345188389 81.435878312 -0.00377903 0.10885901987 81.83098098 
-0.00392738 0.21875384464 82.134844155 -0.003954 0.36718791243 82.338905088 -0.00394232 0.55415829213 82.437988708 
-0.00394674 0.77927055706 82.429379443 -0.00398448 1.0422678707 82.312252129 -0.0040325 1.3432164751 82.087133525 
-0.00402913 1.682438066 81.756691934 -0.00388067 2.0599925282 81.325377472 -0.00347378 2.4749122957 80.801057704 
-0.00269424 2.9241952773 80.195614723 -0.013098423714 -0.00232081 80.014893324 -0.040627246233 -0.000446118 80.506072646 
-0.067419656182 -0.00146539 80.988641056 -0.079281649438 -0.00233448 81.437020649 -0.067734936085 -0.0029342 81.829198636 
-0.027194374192 -0.00333982 82.148174474 -0.00363804 0.045997724186 82.380838776 -0.00390655 0.15442532437 82.517318676 
-0.00419841 0.30033474124 82.550029259 -0.00453174 0.48616483593 82.472984164 -0.00488236 0.71480081758 82.282035182 
-0.00518052 0.9894699365 81.974830064 -0.00531301 1.3132740725 81.551405927 -0.00513321 1.6882484385 81.015761561 
-0.00448125 2.1140678182 80.376892182 -0.016699225787 -5.5311e-05 80.158839926 -0.066006880111 0.000889206 80.58455258 
-0.12686054583 -0.000299228 81.027490546 -0.18436582105 -0.0013111 81.458672821 -0.22867085645 -0.00207375 81.853246856 
-0.25257950953 -0.00266537 82.19099851 -0.25063938946 -0.00317285 82.454955389 -0.21829798661 -0.00367655 82.631334987 
-0.15113135313 -0.00423498 82.707990353 -0.044250909786 -0.00487254 82.67431121 -0.00556779 0.10803828263 82.520845717 
-0.00624431 0.31221120946 82.240022791 -0.00676625 0.57504388515 81.826377115 -0.00694363 0.90258633519 81.278919665 
-0.00655163 1.298538364 80.602251636 -0.020044282358 0.00190299 80.277859582 -0.088852064383 0.00207297 80.653526564 
-0.18010955339 0.000759086 81.068617553 -0.2785062185 -0.000339069 81.491666219 -0.37339207658 -0.00119589 81.895490077 
-0.4566477242 -0.00190066 82.257159724 -0.52175455646 -0.00254875 82.557031556 -0.56288037232 -0.00323135 82.777609372 
-0.57401035551 -0.00402066 82.903098356 -0.54821667866 -0.00495601 82.918311679 -0.47716495165 -0.00602746 82.808687952 
-0.35097970645 -0.00715912 82.560482706 -0.15862549222 -0.0081951 82.162113492 -0.00889519 0.11102516947 81.605682831 
-0.00894866 0.46727859487 80.889588405 -0.023066692161 0.00351536 80.360898592 -0.10873119895 0.00309191 80.702729199 
-0.22625848031 0.00170334 81.10273948 -0.3602304571 0.000578386 81.527668457 -0.49978270735 -0.0003014 81.948300707 
-0.63657997832 -0.00104152 82.340184978 -0.76380900072 -0.00175182 82.681395001 -0.87513550761 -0.00254138 82.952111508 
-0.96368744584 -0.00350508 83.133198446 -1.0211254437 -0.00470871 83.205335444 -1.0368757049 -0.00616807 83.148855705 
-0.99777621452 -0.00782294 82.943528215 -0.8881307047 -0.00950923 82.570128705 -0.69071169 -0.0109378 82.01208069 
-0.38881173998 -0.0116934 81.25935474 -0.025653307135 0.00472693 80.398106907 -0.12494898143 0.00392095 80.723209981 
-0.26381663838 0.00251732 81.121712638 -0.42708536538 0.00142939 81.558527365 -0.60428272696 0.000601497 82.003890727 
-0.78758939715 -8.98081e-05 82.432414397 -0.97071405207 -0.000771917 82.821167052 -1.1476995614 -0.00157674 83.148779561 
-1.3117262252 -0.00263021 83.393656225 -1.4539079588 -0.00403813 83.533057959 -1.5622084971 -0.00586169 83.542098497 
-1.620614171 -0.00808165 83.394064171 -1.6087828275 -0.0105519 83.060652828 -1.5025788759 -0.0129517 82.514928876 
-1.2760585709 -0.0147535 81.734608571 -0.027645235433 0.00547181 80.381730635 -0.13658468135 0.00452553 80.708008681 
-0.29080552643 0.00317517 81.118186526 -0.47578780445 0.0021914 81.576904804 -0.68207629877 0.00149247 82.054530299 
-0.90311227994 0.000939123 82.52591528 -1.133967564 0.000387302 82.968187564 -1.3700358596 -0.000319048 83.35957586 
-1.6056246936 -0.00134266 83.677164694 -1.8324733625 -0.00284258 83.895653363 -2.0382594512 -0.00494936 83.985659451 
-2.2051446971 -0.00772102 83.913754697 -2.308725262 -0.0110757 83.641865262 -2.3177725631 -0.0147055 83.130012563 
-2.1954783906 -0.0179906 82.340248391 -0.028843216272 0.00567983 80.306302616 -0.14254592332 0.00486478 80.651625923 
-0.304888258 0.00364251 81.086450258 -0.50244354781 0.00282993 81.576198548 -0.72739941317 0.00233485 82.092448413 
-0.97516296085 0.00200877 82.611669961 -1.2430153973 0.00169672 83.112505397 -1.5286839551 0.00122274 83.573803955 
-1.8288394311 0.000387115 83.972919431 -2.1373219294 -0.00103137 84.283161929 -2.4431685532 -0.00325658 84.471958553 
-2.7284886235 -0.00646926 84.499408624 -2.9663556103 -0.0107216 84.31730561 -3.1192411409 -0.0158045 83.870871141 
-3.1388459057 -0.0210785 83.101845906 -0.029017525287 0.00528539 80.169032225 -0.14166427865 0.00489614 80.551092279 
-0.30357914369 0.00387896 81.022276144 -0.50290140157 0.00329876 81.550557402 -0.73402147211 0.00307291 82.110318472 
-0.99493291691 0.00305471 82.680534917 -1.2858622445 0.00308957 83.242722244 -1.6078510022 0.00299311 83.778261002 
-1.9612005077 0.00253778 84.266320508 -2.3435389625 0.0014415 84.680498962 -2.7474516899 -0.000628658 84.98687169 
-3.1575869008 -0.00402228 85.140566901 -3.5473071905 -0.00901528 85.08383719 -3.8752767638 -0.0156354 84.745336764 
-4.0828467484 -0.0233905 84.043106748 -0.027928662689 0.00423772 79.970696563 -0.13282333219 0.00458083 80.405742332 
-0.28454520823 0.00384199 80.923471208 -0.47323927649 0.00354214 81.495803276 -0.69595181911 0.00363167 82.101142819 
-0.95370830914 0.0039805 82.722781309 -1.2502193646 0.0044509 83.346489365 -1.590635819 0.00486973 83.957605819 
-1.9800424663 0.0050033 84.538852466 -2.4216438323 0.00452754 85.066923832 -2.9141033988 0.00300596 85.508803399 
-3.448053522 -0.000109321 85.817313522 -4.0014941878 -0.0054102 85.927254188 -4.5340750054 -0.0133548 85.751535005 
-4.9810442644 -0.0238689 85.180584264 -0.025357244467 0.00251432 79.715636244 -0.11514087246 0.00389227 80.218002872 
-0.24598431406 0.00349387 80.789952314 -0.41040923388 0.00350111 81.409082234 -0.60838434891 0.00392237 82.059463349 
-0.84413548395 0.00466072 82.729845484 -1.1250798096 0.0056151 83.41117981 -1.4608653817 0.00665021 84.094745382 
-1.8622655009 0.00756128 84.768905501 -2.3395498034 0.00802484 85.415869803 -2.9000720955 0.00754184 86.007182095 
-3.5444784113 0.00538135 86.497678411 -4.2611154379 0.000587935 86.818885438 -5.0182315492 -0.00792623 86.870801549 
-5.7535070226 -0.0208663 86.516737023 -0.021142751875 0.00013145 79.412259152 -0.088183464375 0.00282319 79.993405064 
-0.1870835047 0.00280937 80.624262505 -0.31300862193 0.00312105 81.290171622 -0.46884140007 0.00384974 81.9817364 
-0.66182897511 0.00494663 82.694338975 -0.90283921563 0.00636634 83.425292216 -1.2058978887 0.0080402 84.172787889 
-1.5876283996 0.009837 84.9329484 -2.066289545 0.0115001 85.696259545 -2.6599570894 0.0125557 86.443157089 
-3.3832025951 0.0121868 87.136052595 -4.2413377011 0.0091234 87.710287701 -5.2212829272 0.00147395 88.060612927 
-6.2770084869 -0.012579 88.028228487 0.142459 14.369508073 112.15739193 -0.165663 5.7771690929 113.68923091 
0.338712 19.194085433 98.721014567 -0.106815 10.759282207 104.92821779 0.135766 19.329529515 91.675770485 
0.0702264 15.318350616 95.389349384 0.0659651 19.639755031 87.559944969 -0.00261142 16.822937429 90.142962571 
0.0512678 19.95067495 84.78742505 0.0147324 17.813304684 86.724295316 0.0399056 20.220725477 82.749174523 
0.00951975 18.465776866 84.285323134 0.0339748 20.454350043 81.173749957 0.00992795 18.956531092 82.445068908 
0.0295595 20.652544775 79.906855225 0.00927202 19.34031107 80.99058893 0.0263743 20.819287844 78.858912156 
0.00885995 19.648938704 79.803361296 0.0238735 20.957763545 77.972736455 0.0083902 19.900753641 78.809246359 
0.0218556 21.071237848 77.211162152 0.00792834 20.10756703 77.96083297 0.0201762 21.162931736 76.548868264 
0.00746854 20.277860727 77.226539273 0.0187514 21.235728744 75.968671256 0.00702008 20.418027784 76.584872216 
0.0175264 21.292342511 75.458557489 0.00658773 20.533039432 76.020760568 0.0164657 21.33549099 75.01030901 
0.00617643 20.626846237 75.524253763 0.00579061 20.702990604 75.088209396 -0.741635 4.6193628539 103.73852715 
0.00604588 1.6396646627 100.20164534 0.126947 10.62542301 98.58877699 0.184132 5.5435002045 99.749719796 
0.0176814 13.526475078 92.694824922 0.0633357 9.4907899742 94.973110026 0.0336188 15.373716171 88.763483829 
0.0105081 12.148373884 90.821526116 0.0179539 16.488208499 85.912491501 0.0104306 14.014592623 87.631707377 
0.0112479 17.291174148 83.788325852 0.00332702 15.276975483 85.221724517 0.00770829 17.896762951 82.129637049 
0.00221907 16.203793523 83.347706477 0.0055424 18.372308796 80.790491204 0.00116216 16.909300398 81.844699602 
0.00423627 18.755037024 79.679462976 0.000775117 17.465179377 80.606920623 0.00337646 19.068123908 78.738076092 
0.000536513 17.913461786 79.564738214 0.00279977 19.326843689 77.927556311 0.000401269 18.281168079 78.671831921 
0.00240058 19.542038928 77.221461072 0.000305169 18.586141225 77.896658775 0.00212058 19.721457504 76.601742496 
0.0002287 18.841245673 77.217254327 0.00192287 19.871333144 76.055766856 0.000161002 19.055609895 76.618790105 
0.00178371 19.996171912 75.575128088 9.81066e-05 19.235971258 76.090728742 3.86525e-05 19.38767511 75.62612489 
-0.170588 0.9780470271 96.938722973 -0.117941 0.52276181581 91.586769184 -0.016021 5.5137720237 95.419437976 
-0.0296347 2.6790295207 93.873080479 0.023671 9.0501567561 92.138143244 0.0432657 5.8087213225 92.795168677 
0.0243851 11.451755325 89.085344675 0.0308559 8.5816216728 90.290178327 0.0145763 13.15634812 86.56095188 
0.0164203 10.720363082 87.842836918 0.0104125 14.407339864 84.541660136 0.00929592 12.342211223 85.744588777 
0.00693503 15.354104968 82.902995032 0.00565816 13.5852901 83.9933099 0.00483708 16.095051173 81.550248827 
0.00345257 14.554451381 82.531448619 0.00347436 16.688867553 80.412132447 0.00222444 15.326983807 81.297116193 
0.00258585 17.174085391 79.438714609 0.00145693 15.954333922 80.240866078 0.00199757 17.576056126 78.594943874 
0.000973561 16.471721825 79.325678175 0.00160476 17.91265098 77.85604902 0.000649745 16.903715218 78.524684782 
0.00134368 18.196486199 77.204813801 0.00042415 17.267695419 77.818404581 0.00117343 18.436820859 76.629279141 
0.000259982 17.576324795 77.193075205 0.00106692 18.64061626 76.12088374 0.000136353 17.838890134 76.639109866 
4.06388e-05 18.062021138 76.149978862 -0.158513 0.62043293105 90.821009069 -0.129172 0.30253080404 86.864189196 
-0.0619531 3.1206310211 91.757448979 0.0117517 1.6218665181 89.851793482 -0.00250307 5.947128131 90.570011869 
0.0254018 3.7751163323 90.153853668 0.00909678 8.3646840153 88.633535985 0.0226603 6.0698179691 89.061942031 
0.0105349 10.285722146 86.689977854 0.0168437 8.12669503 87.47458497 0.00882947 11.786267612 84.950232388 
0.0117728 9.8438672552 85.845132745 0.00658985 12.969385296 83.444414704 0.00795747 11.241693485 84.344006515 
0.00492315 13.9165634 82.1494366 0.00543202 12.377449563 83.010850437 0.00367886 14.68667156 81.03032844 
0.00376989 13.307049446 81.839050554 0.0028061 15.321940133 80.055459867 0.00265629 14.075548136 80.808651864 
0.00219615 15.852446406 79.199353594 0.00190103 14.717641262 79.898658738 0.00177508 16.300003712 78.442396288 
0.00137505 15.259233209 79.090966791 0.00148869 16.680154784 77.770245216 0.00100103 15.719540848 78.371359152 
0.0012993 17.004610734 77.172589266 0.000729392 16.112879055 77.729120945 0.00118003 17.28181109 76.64218891 
0.000528882 16.449877767 77.156422233 0.000379043 16.738552351 76.648047649 -0.0964514 0.31963127066 87.069013729 
-0.0910902 0.18988059878 83.964569401 -0.0363515 1.947261573 88.784958427 -0.00291409 1.0265119757 86.805498024 
-0.0154017 4.038846409 88.715883591 0.00972558 2.5583898934 87.845450107 -0.00111868 6.1330636832 87.732196317 
0.0142356 4.3788189912 87.641671009 0.00458715 7.9835838441 86.409446156 0.0138145 6.184827591 86.769402409 
0.00563106 9.5442583925 85.039841608 0.011085 7.8193937661 85.627546234 0.00519404 10.839349897 83.747850103 
0.00844733 9.23553001 84.43416999 0.00433269 11.912223493 82.572376507 0.00630002 10.439618605 83.287681395 
0.00349031 12.805699718 81.517200282 0.00467225 11.457768134 82.225931866 0.00280014 13.555565857 80.573034143 
0.00347824 12.319923114 81.257576886 0.00227047 14.190023817 79.727676183 0.0026076 13.053173846 80.379726154 
0.00188175 14.730740927 78.969259073 0.00197087 13.680199441 79.585400559 0.00160654 15.194099633 78.288300367 
0.00150222 14.219043793 78.867056207 0.00142017 15.592628141 77.677371859 0.00115488 14.683788997 78.218511003 
0.00130185 15.935537118 77.131262882 0.000896233 15.085257861 77.634842139 0.000703251 15.43141313 77.11278687 
-0.072714 0.20832346096 84.487993539 -0.0762977 0.12978157818 82.026665422 -0.0324098 1.3016571269 86.416642873 
-0.00401075 0.70287349329 84.644514507 -0.0175877 2.850428126 86.987471874 0.00516901 1.8139658019 85.972634198 
-0.0066702 4.5576640195 86.674715981 0.00876238 3.233548137 86.287661863 -0.000430743 6.2087333067 85.884366693 
0.00969798 4.7510188234 85.937521177 0.00235549 7.6997789643 84.890371036 0.00905613 6.2200793938 85.218560606 
0.00324081 9.0020033602 83.84685664 0.00769376 7.565024743 84.331365257 0.00323625 10.122934711 82.829965289 
0.00622458 8.7595116359 83.394568364 0.0029097 11.08334578 81.87285422 0.00492307 9.8044662644 82.471133736 
0.00251072 11.906956517 80.986943483 0.00385706 10.712974529 81.591325471 0.00214454 12.615482824 80.173617176 
0.00301575 11.501741973 80.767658027 0.00184696 13.227182925 79.429917075 0.00236394 12.187409936 80.004090064 
0.00162363 13.757185609 78.752114391 0.00186354 12.784386557 79.300613443 0.00146842 14.217062526 78.136937474 
0.00148169 13.305068922 78.655931078 0.00137079 14.615956275 77.581743725 0.00119198 13.758879326 78.068920674 
0.000973808 14.153304729 77.538695271 -0.0548075 0.13942493668 82.711672063 -0.0628536 0.093698540378 80.73207126 
-0.0239808 0.91732711827 84.630972882 -0.00414943 0.50190636556 83.085888634 -0.0159781 2.0757550769 85.517544923 
0.00217643 1.3275904357 84.498479564 -0.00882384 3.4451256431 85.635274357 0.00496881 2.4368493166 85.103940683 
-0.00351715 4.8596848769 85.254385123 0.00653568 3.6893544594 85.110005541 -0.000305614 6.2129097438 84.591540256 
0.00685559 4.9672430664 84.722846934 0.0013001 7.4518343134 83.793535687 0.00639393 6.1931135021 84.106746498 
0.00194698 8.559029278 82.949770722 0.00558109 7.3259059998 83.375314 0.00209118 9.5362746271 82.110625373 
0.00469103 8.34986032 82.59995968 0.0020067 10.394204253 81.302395747 0.00386016 9.2641661409 81.823193859 
0.00184304 11.146182979 80.537917021 0.00314281 10.075458117 81.068641883 0.00167433 11.805463903 79.822636097 
0.00254942 10.793402438 80.349197562 0.00153414 12.383837767 79.158862233 0.00207152 11.427927318 79.671672682 
0.00143462 12.891141325 78.547558675 0.00169406 11.988192735 79.039607265 0.0013767 13.335127364 77.989272636 
0.00140095 12.481776318 78.455723682 0.00117724 12.914726891 77.921973109 -0.0430963 0.098951715891 81.478063284 
-0.0530958 0.070168407128 79.869416793 -0.0188006 0.66974909205 83.292565908 -0.00380551 0.37000010404 81.968867896 
-0.0138626 1.5509857878 84.317314212 0.000849467 0.99557009615 83.362959904 -0.00914813 2.6440495813 84.699690419 
0.00286967 1.8669499534 84.116780047 -0.00505709 3.8316792704 84.61355073 0.00428282 2.8921711462 84.353408854 
-0.00211944 5.0224530525 84.219146947 0.00495853 3.9827392765 84.212650723 -0.0002884 6.1584306387 83.641109361 
0.00502409 5.0706718021 83.819988198 0.000720722 7.209511852 82.966538148 0.00469599 6.111738134 83.273131866 
0.00120441 8.1644441715 82.251765829 0.00417528 7.0817421112 82.641687889 0.00138875 9.0230494194 81.531570581 
0.00359942 7.9705581974 81.972101803 0.00142178 9.7906764143 80.827023586 0.00304646 8.7767550435 81.294414956 
0.00139259 10.4750661 80.1503339 0.00255399 9.5035922402 80.62755776 0.00135124 11.08391316 79.50898684 
0.00213576 10.156331735 79.983468265 0.00132341 11.62433321 78.90806679 0.00179275 10.740589665 79.370610335 
0.00131985 12.102360903 78.351539097 0.00151966 11.261559562 78.794740438 0.00130835 11.723368376 78.261031624 
-0.0345615 0.071613478313 80.630030022 -0.0451255 0.053792949835 79.31592045 -0.0145919 0.50102563356 82.303153366 
-0.00332792 0.2780947259 81.177814274 -0.0115636 1.1799517741 83.365588226 0.000195306 0.75839021751 82.502305782 
-0.00856669 2.0529771484 83.899542852 0.0016071 1.446222885 83.318017115 -0.00560993 3.0392591997 84.0155108 
0.00275853 2.2819106764 83.696679324 -0.00317981 4.066715868 83.827734132 0.0034967 3.2012942165 83.731445784 
-0.00143537 5.0820801815 83.435169819 0.00380881 4.1490665286 83.514623471 -0.000303329 6.0514811427 82.914158857 
0.00378234 5.0841870631 83.125112937 0.000372432 6.956553237 82.320016763 0.00353962 5.9799026074 82.624767393 
0.000746451 7.7896571692 81.690662831 0.00318608 6.8210513508 82.058738649 0.000940172 8.5497254822 81.051404518 
0.00279703 7.6006775302 81.45928247 0.00103853 9.2392062965 80.419293703 0.00241951 8.3170264249 80.848653575 
0.00109635 9.8620363203 79.80595368 0.00207961 8.9712052084 80.242624792 0.00114639 10.422302474 79.220097526 
0.00178959 9.5655233235 79.652656676 0.00120589 10.923721784 78.668478216 0.00155304 10.102470335 79.087829665 
0.00136818 10.584232885 78.556067115 -0.0281414 0.052427301863 80.063901098 -0.0385486 0.041766595351 78.988495905 
-0.0114625 0.37996977709 81.583574223 -0.00286329 0.21101854678 80.632603453 -0.0095384 0.90739636573 82.627005634 
-0.000110051 0.58218937908 81.862681621 -0.00765155 1.6049584953 83.238731505 0.000876941 1.126032018 82.687537982 
-0.00557761 2.4180490898 83.48756091 0.00175785 1.8043900476 83.147509952 -0.00368695 3.2923465852 83.452963415 
0.00242331 2.5719307365 83.302899264 -0.00217798 4.1830415043 83.209938496 0.00281577 3.385735103 83.219904897 
-0.0010818 5.0576324931 82.822017507 0.00295164 4.2107005339 82.959549466 -0.000338535 5.8952106112 82.338599389 
0.00289243 5.0211554327 82.573604567 0.000142116 6.6839003813 81.796839619 0.00270807 5.800118548 82.102881452 
0.000447191 7.4181511199 81.22365888 0.00245901 6.5375573152 81.578632685 0.000646957 8.0963422902 80.63845771 
0.00219021 7.2282897862 81.024170214 0.000792506 8.7189391363 80.055870864 0.00193185 7.8701480871 80.457231913 
0.000917902 9.2872556487 79.487284351 0.00170232 8.4626285834 79.891601417 0.00104328 9.8025506558 78.942189344 
0.00151132 9.0057649848 79.338875015 0.0013621 9.4994802145 78.809119785 -0.0230991 0.038172580702 79.707779319 
-0.0329463 0.032517921294 78.829603079 -0.00902724 0.2892654282 81.073894572 -0.00243395 0.15994533652 80.274775663 
-0.00779342 0.69982805523 82.066717945 -0.000240099 0.44640537719 81.399865623 -0.00664198 1.2558764178 82.708403582 
0.000449234 0.87490665312 82.202226347 -0.00523415 1.9212882126 83.040181787 0.00110323 1.4218921141 82.702237886 
-0.00382685 2.6564845391 83.115635461 0.00165513 2.0561538595 82.93763614 -0.00260158 3.4257462901 82.99005371 
0.00204153 2.7456529857 82.954037014 -0.00163006 4.2006356498 82.71336435 0.00224652 3.4619580877 82.797151912 
-0.000907791 4.9606040704 82.32779593 0.00229402 4.1824538677 82.508266132 -0.000391228 5.6921331452 81.866966855 
0.00222505 4.890563955 82.122186045 -2.46831e-05 6.3870916111 81.356918389 0.00208288 5.575083815 81.667286185 
0.000244516 7.0410307729 80.818069227 0.00190507 6.2288887105 81.166041289 0.000459366 7.6517395807 80.266390419 
0.00172067 6.8476340634 80.636885937 0.000651348 8.2180877737 79.715192226 0.0015503 7.4286001176 80.094759882 
0.000840623 8.7391621019 79.176227898 0.0014071 7.9697352858 79.553044714 0.00129779 8.4689634055 79.023796595 
-0.0190008 0.027136316755 79.510304683 -0.0280834 0.025108531664 78.797017968 -0.00710828 0.2185614602 80.72804354 
-0.00204813 0.1195375345 80.060518466 -0.00632357 0.5363132799 81.65353772 -0.000280053 0.3381321542 81.077838846 
-0.00566238 0.97626965655 82.294614343 0.000202243 0.67212573282 81.839349267 -0.00474456 1.5153997877 82.674150212 
0.000678078 1.1080389034 82.352221097 -0.00374014 2.1258178963 82.826742104 0.00111373 1.6252915902 82.63836841 
-0.00279527 2.7803228958 82.791387104 0.00145428 2.2008733096 82.72739669 -0.00198873 3.4554726974 82.606047303 
0.00167257 2.8128884078 82.652221592 -0.00134283 4.1329124271 82.304677573 0.00177171 3.4426039005 82.4442761 
-0.000843552 4.7992772005 81.916192799 0.00177263 4.0752288366 82.131701163 -0.000458967 5.4454336195 81.464426381 
0.00170393 4.6998361937 81.738873806 -0.000152247 6.0653372689 80.968932731 0.00159465 5.3086156691 81.286404331 
0.000110587 6.6549646903 80.44631531 0.00147038 5.8960324585 80.791787541 0.000356701 7.2112893426 79.910830657 
0.00135156 6.4578895028 80.270690497 0.000604593 7.7315392802 79.37587072 0.00125297 6.9905303892 79.737199611 
0.00118355 7.4901985859 79.205041414 -0.0155685 0.018238733696 79.432374666 -0.0237953 0.018952529278 78.858073971 
-0.00555616 0.16141547931 80.509814521 -0.00170158 0.086408160671 79.955906939 -0.00508313 0.40331283824 81.360100162 
-0.000272089 0.24897705802 80.867409942 -0.00475799 0.74613205979 81.98188794 6.43314e-05 0.50370418111 81.578348819 
-0.00420215 1.1762507895 82.38527921 0.000404507 0.84426516335 82.086910837 -0.00352393 1.6749446218 82.590675378 
0.000736876 1.2580978774 82.403222123 -0.00283406 2.2224230941 82.623996906 0.0010179 1.7295844883 82.545015512 
-0.00220372 2.8004468426 82.512723157 0.0012191 2.2427372754 82.534052725 -0.00166485 3.39370894 82.28292106 
0.00133347 2.7829941965 82.393105804 -0.00121959 3.9902519331 81.957928067 0.00136944 3.3381376956 82.143662304 
-0.000851669 4.5811503052 81.558349695 0.0013448 3.8984551908 81.805544809 -0.000536197 5.1598213277 81.102168672 
0.00128118 4.4564905824 81.396499418 -0.000246882 5.7212813546 80.605138645 0.00120025 5.0064063189 80.932423681 
3.92132e-05 6.2612707165 80.082109283 0.00112138 5.5432966238 80.428393376 0.000338501 6.775572403 79.547317597 
0.00106011 6.0624610614 79.899028939 0.00102694 6.5588150441 79.359124956 -0.0126212 0.01079667235 79.443869328 
-0.0199743 0.013671394778 78.986734705 -0.00427096 0.11365911371 80.390182886 -0.001389 0.058345256674 79.933632643 
-0.00402931 0.29183099706 81.163301003 -0.000238048 0.17334607913 80.744250921 -0.00394248 0.55168238472 81.755166615 
-5.36118e-06 0.36005832887 81.400804671 -0.00365747 0.88648490036 82.1667011 0.000233269 0.6173812126 81.894939787 
-0.00324112 1.2846576771 82.407622323 0.000479837 0.93887411617 82.227902884 -0.0027745 1.7327106153 82.493479385 
0.000700909 1.3149252443 82.408114756 -0.00231634 2.2173288876 82.442401112 0.00087065 1.734763943 82.448296057 
-0.00189898 2.7266673098 82.27306269 0.00097789 2.1878805684 82.363329432 -0.00153168 3.2508829369 82.003497063 
0.00102394 2.6649872863 82.168332714 -0.00120699 3.7821571724 81.650062828 0.00101933 3.1583056502 81.87820435 
-0.00090757 4.314301031 81.228418969 0.000980132 3.6614902876 81.507159712 -0.000612262 4.8421550659 80.752864934 
0.000924854 4.1692073891 81.069102611 -0.000300954 5.3609153758 80.237894624 0.000871908 4.676547978 80.577682022 
4.14169e-05 5.8654301637 79.698399836 0.000837591 5.1783930595 80.047276941 0.000833976 5.6687788212 79.493641179 
-0.0100401 0.0043563838611 79.519767686 -0.0165506 0.0090171511919 79.161080709 -0.00318142 0.072529922381 80.345261378 
-0.00110535 0.033877242978 79.971266657 -0.00312385 0.19578964365 81.043056356 -0.000189036 0.10746374609 80.687841254 
-0.00321341 0.38333643899 81.600134561 -3.0409e-05 0.23457648699 81.290287513 -0.00313556 0.63358952915 82.010484471 
0.000133466 0.41803894128 81.765122059 -0.00293033 0.94057754743 82.275533453 0.000311933 0.65614559065 82.106800409 
-0.00265623 1.2960869417 82.402223058 0.000479132 0.94415336336 82.316106637 -0.00235948 1.6912797902 82.40092021 
0.000612751 1.2757585375 82.398261463 -0.00206863 2.1178085904 82.28361141 0.000700399 1.6442873629 82.360992637 
-0.00179451 2.5684077091 82.062402291 0.000739531 2.0435167063 82.213663294 -0.00153343 3.037001399 81.749908601 
0.000736137 2.4680181576 81.966211842 -0.00127155 3.5185264797 81.35816352 0.000702588 2.9131473291 81.628802671 
-0.000989782 4.0084359685 80.899684032 0.000655353 3.3747745185 81.212315481 -0.000668525 4.5020377218 80.387942278 
0.000612692 3.848725166 80.728814834 -0.000292304 4.9938272861 79.837582714 0.00059234 4.3301050338 80.191744966 
0.000608707 4.8126398814 79.616990119 -0.00774819 -0.0013860435873 79.639405923 -0.0134826 0.0048292899 79.36210275 
-0.00223832 0.036183204723 80.354819895 -0.000846857 0.012029686816 80.049388313 -0.0023363 0.11106477912 80.981945221 
-0.000130739 0.048796329244 80.680573071 -0.00256249 0.2344449615 81.503743039 -2.43234e-05 0.12274817744 81.232338823 
-0.00264708 0.40865940047 81.9082606 8.6136e-05 0.23971840186 81.687069598 -0.00261381 0.63215436109 82.190657639 
0.000213072 0.4016961488 82.033628851 -0.00250519 0.90108650892 82.350803491 0.000335574 0.60785811069 82.266828889 
-0.00235697 1.210579848 82.392200152 0.000434327 0.85570622986 82.38517677 -0.00219263 1.555665032 82.320714968 
0.000496769 1.1420475993 82.390582401 -0.00202169 1.9318568242 82.143053176 0.000518203 1.4636845333 82.286445467 
-0.00184071 2.3353139674 81.867146033 0.000501773 1.8177840308 82.077775969 -0.00163596 2.7626954273 81.501564573 
0.000457552 2.201931585 81.770738415 -0.00138727 3.2107689123 81.056191088 0.000401127 2.6138031531 81.372636847 
-0.00107259 3.6756976175 80.542492382 0.000351704 3.0506623711 80.892777629 -0.00067329 4.1523274172 79.974742583 
0.000329695 3.508601043 80.343158957 0.000353307 3.9816915265 79.739338473 -0.0066314298447 -0.00569823 79.784556 
-0.010751 0.0010102042071 79.572998446 -0.0014083 0.0034124046109 80.401689095 -0.0078146220814 -0.000611217 80.151347332 
-0.00164347 0.034923345421 80.965006855 -0.0042812283837 -6.60334e-05 80.707042638 -0.0019799 0.10052391218 81.453821088 
5.21889e-06 0.021630391615 81.213882008 -0.00219471 0.20555161427 81.851807386 7.98952e-05 0.078095120952 81.650749379 
-0.00230292 0.35192472484 82.148566275 0.000170682 0.16996548169 82.001878518 -0.00233669 0.53936544041 82.33819256 
0.000259296 0.29953639183 82.256937608 -0.0023241 0.76642692341 82.418348077 0.000328299 0.46747536541 82.409049635 
-0.00228402 1.0312903101 82.38904969 0.000364909 0.67365287002 82.45446313 -0.0022235 1.3323169753 82.252013025 
0.000362817 0.91777484896 82.391607151 -0.00213728 1.6681855714 82.010324429 0.000323059 1.1997411743 82.220288826 
-0.00200911 2.0378578395 81.66854216 0.000254167 1.5197018279 81.942118172 -0.00181464 2.4400780553 81.233051945 
0.000171683 1.8777495701 81.56027043 -0.0015259 2.8726485653 80.712921435 9.68719e-05 2.2733412119 81.080818788 
-0.00111733 3.3315383715 80.121011628 5.44155e-05 2.7043743687 80.513395631 6.85006e-05 3.1661304336 79.872349566 
-0.011502875472 -0.00386547 79.939214575 -0.00835423 -0.0024885989932 79.777970509 -0.026511176616 -0.000670124 80.470407577 
-0.025996377022 -0.000397651 80.262243177 -0.0343105071 -0.00102886 80.978624207 -0.052686674181 3.51948e-06 80.753588374 
-0.021227303353 -0.00145655 81.439399003 -0.07046498341 5.38308e-05 81.223309283 -0.00177695 0.020364291422 81.832942209 
-0.069356557145 0.000108036 81.646829757 -0.00200192 0.095051694903 82.144255405 -0.042344193621 0.000177274 82.004848094 
-0.00215798 0.20540099207 82.362403008 0.000243981 0.015265249708 82.28255545 -0.00226858 0.35283716687 82.480061833 
0.000291293 0.10667001624 82.468653984 -0.00234949 0.53837791208 82.492081088 0.000305532 0.23434505761 82.554309942 
-0.00240541 0.76314590821 82.395102092 0.000278465 0.40066193556 82.533088064 -0.00242838 1.0285911879 82.187308812 
0.000208876 0.60826432268 82.399928677 -0.00239778 1.3363870377 81.868602962 0.000103723 0.86014422538 82.151246775 
-0.00228229 1.6879476065 81.441422394 -2.12684e-05 1.1593551714 81.785754829 -0.00204402 2.0835902064 80.911549794 
-0.000141969 1.5083184986 81.305241501 -0.00164551 2.5213879254 80.289182075 -0.000227703 1.907754231 80.715765769 
-0.000245424 2.3552100694 80.029669931 -0.016059345264 -0.00224318 80.088696945 -0.0063055 -0.0056743031999 79.962825753 
-0.053929818249 -1.2199e-05 80.547591818 -0.042625196748 -0.00020687 80.368512897 -0.097454661735 -0.000481823 81.010554562 
-0.096744132781 7.67829e-05 80.807953333 -0.13220740891 -0.000985119 81.450498409 -0.15416582863 0.000118765 81.249710829 
-0.14888920581 -0.00139037 81.843786206 -0.20359759936 0.000166456 81.666480599 -0.14095407421 -0.00171042 82.172108074 
-0.23649493987 0.00022843 82.03573094 -0.1036941428 -0.00197016 82.420372143 -0.24646085675 0.000286391 82.339163857 
-0.03339849339 -0.00219151 82.576849693 -0.22841422806 0.00032279 82.561545228 -0.00238921 0.073376103795 82.631622296 
-0.17780654286 0.000322043 82.690055543 -0.00256686 0.22035162847 82.576486372 -0.089954484717 0.000273063 82.713416685 
-0.00271408 0.41180754302 82.404683457 0.000171408 0.040413778275 82.621556222 -0.00280502 0.65250737392 82.111040626 
2.14851e-05 0.21930242467 82.405780575 -0.00279899 0.94721038737 81.692932613 -0.000161511 0.45319501843 82.059447982 
-0.00264393 1.2997035523 81.151606448 -0.000350516 0.74831326274 81.578861737 -0.00228409 1.7113355288 80.493764471 
-0.000507392 1.1093195659 80.965350434 -0.000586784 1.5374294929 80.227370507 -0.020301746752 -0.000839512 80.219733147 
-0.0085173337768 -0.00462976 80.114474314 -0.078850194793 0.000569143 80.620816795 -0.057604928811 -4.10283e-05 80.458222129 
-0.1545824381 3.09209e-06 81.050184438 -0.13625135387 0.000152435 80.859258354 -0.23258742346 -0.000560545 81.477359423 
-0.22915077288 0.000197729 81.283424773 -0.30246370828 -0.00103099 81.876571708 -0.3241633861 0.000252043 81.701202386 
-0.35639663391 -0.00142522 82.226297634 -0.41184846151 0.00032104 82.087533462 -0.38823800955 -0.00176981 82.50817801 
-0.48479920209 0.000384721 82.421325202 -0.39263691792 -0.0020882 82.706771918 -0.53675197692 0.000423825 82.684399977 
-0.36423913081 -0.00239679 82.808005131 -0.56171028137 0.000419759 82.860156281 -0.29704619862 -0.00270024 82.799172199 
-0.55316645218 0.000357223 82.933302452 -0.18401955188 -0.00298733 82.668255552 -0.50350664341 0.000226804 82.888822643 
-0.017049260195 -0.0032275 82.40442986 -0.40371409515 2.82716e-05 82.712534095 -0.00336922 0.21259307932 81.999150921 
-0.24350388378 -0.000225782 82.391406884 -0.00334197 0.51319510268 81.447656897 -0.01205159777 -0.000506664 81.915244598 
-0.0030639 0.89083741373 80.751489586 -0.00076825 0.30054619296 81.278589807 -0.000949292 0.70094787107 80.484310129 
-0.024175414927 0.000324971 80.320364315 -0.010954578294 -0.00336082 80.220828678 -0.10097387775 0.00107087 80.679499878 
-0.070650380959 9.63624e-05 80.520656081 -0.20509013569 0.000426712 81.087394136 -0.17052461131 0.000228506 80.897777611 
-0.32141242761 -0.000180325 81.511384428 -0.29422668945 0.000287941 81.315593689 -0.4390053356 -0.000695335 81.923671336 
-0.42926816954 0.000361293 81.74286617 -0.54947787381 -0.00114165 82.300313874 -0.56594997739 0.000451601 82.153006977 
-0.6459826714 -0.00155033 82.620876671 -0.69659225797 0.000536774 82.523019258 -0.72225420133 -0.00194922 82.866601201 
-0.81451260877 0.000595209 82.832270609 -0.77167839455 -0.0023594 83.020169395 -0.91301268699 0.000604373 83.061574687 
-0.78648386489 -0.00278989 83.064420865 -0.98442609197 0.000543225 83.191749092 -0.7571446079 -0.0032318 82.982078608 
-1.01929915 0.000395008 83.20340515 -0.67214848105 -0.00365221 82.756332481 -1.0058414022 0.000151542 83.076414402 
-0.51829115245 -0.00398915 82.371547152 -0.92981440981 -0.000181112 82.79078841 -0.28171781951 -0.00415017 81.81530082 
-0.77508896735 -0.000576225 82.328137967 -0.00401834 0.050058986337 81.081548014 -0.52513570784 -0.000981299 81.674031708 
-0.1657423513 -0.00131652 80.822922051 -0.027570676573 0.00121973 80.380238077 -0.012892902692 -0.00253778 80.271502303 
-0.11971739861 0.00148431 80.713983399 -0.081303366018 0.00020059 80.546708066 -0.2477602716 0.000785742 81.113422272 
-0.19844652352 0.000302021 80.914910524 -0.39669351024 0.000155288 81.54428451 -0.34741282507 0.000385332 81.338017825 
-0.55564790419 -0.00038129 81.977231904 -0.51590407053 0.000489048 81.783751071 -0.71637025478 -0.000855048 82.387295255 
-0.69463674187 0.000614519 82.224677742 -0.87210769438 -0.00130357 82.752146694 -0.87642637281 0.000737865 82.636878373 
-1.0165030751 -0.00176168 83.051393075 -1.0550107225 0.00083515 82.998640722 -1.1424983387 -0.00225849 83.264568339 
-1.2238795685 0.000879482 83.288669569 -1.2412685049 -0.00281163 83.370988505 -1.3750672604 0.000842782 83.48508726 
-1.3013751725 -0.00341961 83.348115172 -1.4980989411 0.000698279 83.564178941 -1.3081409412 -0.00405235 83.172750941 
-1.578969565 0.000425401 83.500109565 -1.2436293876 -0.00464097 82.820989388 -1.5997122936 1.74777e-05 83.265112294 
-1.0874926207 -0.00507014 82.270667621 -1.5384661704 -0.00050778 82.83074617 -0.81897739689 -0.005179 81.505565397 
-1.3707817899 -0.00109719 82.17146179 -1.072487865 -0.00165282 81.269097865 -0.030324042937 0.00180723 80.390402143 
-0.014214336844 -0.00220066 80.258207637 -0.13424680847 0.00179636 80.716312808 -0.088956072752 0.00026601 80.528964673 
-0.28082236125 0.00107332 81.120824361 -0.21852538966 0.000368736 80.90364739 -0.45552103412 0.000443135 81.568419034 
-0.38605251545 0.000483888 81.343499515 -0.64815649522 -8.90334e-05 82.029800495 -0.58000838077 0.000627364 81.816170381 
-0.85135211049 -0.00056226 82.47935211 -0.79221758629 0.00080042 82.294462586 -1.0592844462 -0.00102177 82.894624446 
-1.0167857839 0.000978512 82.754805784 -1.2664408202 -0.0015113 83.25405082 -1.2487638781 0.00113628 83.175263878 
-1.4662894255 -0.00207127 83.535379426 -1.4828555952 0.001243 83.533775595 -1.6499716206 -0.00273299 83.714791621 
-1.711923777 0.00126312 83.806613777 -1.8050661779 -0.00350961 83.765346178 -1.9255522835 0.0011576 83.966722283 
-1.914420503 -0.00438273 83.656950503 -2.1086667024 0.000888441 83.982746702 -1.9556366275 -0.00528522 83.356416628 
-2.2402787719 0.000427737 83.818618772 -1.9012160718 -0.00608342 82.829956072 -2.2929680393 -0.00022745 83.434798039 
-1.7204232354 -0.0065666 82.047243235 -2.2334750366 -0.00103566 82.791075037 -2.0252082649 -0.00188835 81.852378265 
-0.032223156077 0.00204676 80.344395956 -0.0147837166 -0.00238501 80.175053617 -0.14351575474 0.00199088 80.680309755 
-0.092889443932 0.000286493 80.462087744 -0.30207127958 0.00127973 81.10282328 -0.22900184826 0.000423056 80.858428848 
-0.49424163836 0.000677091 81.576823638 -0.40699693099 0.000575234 81.325877931 -0.71115855959 0.000178076 82.07343456 
-0.61672703457 0.000764637 81.833083035 -0.94705749401 -0.000263412 82.568168494 -0.8517988123 0.000994652 82.354262812 
-1.19790348 -0.000700089 83.03921348 -1.1083836307 0.00124208 82.867463631 -1.4599942445 -0.00118547 83.465164245 
-1.3837853915 0.00148218 83.351865391 -1.7285183452 -0.00177382 83.823398345 -1.6750066644 0.0016824 83.786046664 
-1.9958895599 -0.0025154 84.08797956 -1.97705975 0.00180095 84.14570975 -2.250074373 -0.00344705 84.228434373 
-2.2811908558 0.00178592 84.401740856 -2.472827351 -0.00457534 84.207787351 -2.5728190189 0.00157766 84.518229019 
-2.6381735692 -0.00585105 83.983353569 -2.8295863846 0.00111728 84.450976385 -2.7117457948 -0.00713642 83.507405795 
-3.0195829913 0.000364576 84.148212991 -2.6514745344 -0.0081743 82.731624534 -3.1007201639 -0.0006732 83.552100164 
-3.0221380102 -0.00189849 82.60494801 -0.033017060006 0.00189932 80.23794096 -0.014461402968 -0.00311567 80.019142903 
-0.14634782585 0.0020506 80.601741826 -0.092334479516 0.000256002 80.34339528 -0.30903193295 0.00139343 81.054653933 
-0.22799834769 0.000458127 80.775903348 -0.50874133084 0.000848219 81.563228331 -0.40688841717 0.000648537 81.280359417 
-0.73853473754 0.000412683 82.100694738 -0.62083065645 0.000885173 81.827794656 -0.99494183549 3.61646e-05 82.644575835 
-0.86582472448 0.00117625 82.395636724 -1.2765127554 -0.000339796 83.175252755 -1.1407937449 0.00150277 82.964423745 
-1.5823968159 -0.000777607 83.672996816 -1.446168292 0.00184385 83.516088292 -1.9107315167 -0.00134626 84.115981517 
-1.7823590678 0.00216899 84.031429068 -2.2568185132 -0.00211925 84.478078513 -2.1480500795 0.00243416 84.487290079 
-2.6109186785 -0.0031668 84.726208679 -2.5379945627 0.00257727 84.854354563 -2.9557961469 -0.00453782 84.818346147 
-2.9405038162 0.00251623 85.093713816 -3.2640325023 -0.00622648 84.701642502 -3.3343827523 0.00215274 85.154562752 
-3.4957714088 -0.00812152 84.313241409 -3.6857620604 0.00138973 84.97227206 -3.5976630766 -0.00994109 83.582673077 
-3.9454102099 0.000165845 84.46910021 -4.0478130245 -0.00147086 83.559043025 -0.032435506329 0.00133358 80.070231106 
-0.013119456872 -0.00439959 79.791669457 -0.14155175427 0.00195943 80.478793754 -0.086559217604 0.000169664 80.173045318 
-0.29921695759 0.00140238 80.973109958 -0.21374914373 0.00046648 80.654491144 -0.49486489101 0.000945301 81.522774891 
-0.38255557799 0.000691093 81.203455578 -0.72400961173 0.000603011 82.104528612 -0.58731422718 0.000969672 81.794962227 
-0.98602669837 0.000324285 82.699401698 -0.82688526775 0.00131807 82.410563268 -1.2827267596 4.85262e-05 83.29123676 
-1.1034565846 0.00172482 83.034886585 -1.6170076316 -0.000292356 83.863297632 -1.4212545208 0.00217719 83.654174521 
-1.9912316404 -0.000780131 84.39689164 -1.7851115399 0.00265259 84.25303154 -2.405347934 -0.00151274 84.867137934 
-2.1988302369 0.00311211 84.811720237 -2.8543211002 -0.00260167 85.2411011 -2.6628770544 0.00349154 85.303057054 
-3.324917943 -0.0041569 85.473147943 -3.171352167 0.00369242 85.687942167 -3.7917378928 -0.00625132 85.502127893 
-3.7080250795 0.0035764 85.91116508 -4.2128854467 -0.00884951 85.249475447 -4.2414071818 0.00297357 85.897287182 
-4.526032687 -0.0117032 84.619462687 -4.7192913955 0.0017154 85.547721396 -5.0641824627 -0.000283711 84.742622463 
-0.030219058335 0.00033354 79.843726258 -0.010663885615 -0.00621929 79.497717286 -0.12807791598 0.00170594 80.312447916 
-0.074986167693 2.41968e-05 79.954528568 -0.27047079639 0.00129631 80.856905796 -0.18488389877 0.000440329 80.495566899 
-0.44898647682 0.000956189 81.451951477 -0.33153884198 0.00068916 81.094047842 -0.66197471053 0.000733137 82.078865711 
-0.51219581661 0.000996231 81.730526817 -0.9119914921 0.000580732 82.723612492 -0.72882088779 0.00138772 82.391924888 
-1.2045175799 0.000441606 83.37459758 -0.98708371882 0.00186287 83.068394719 -1.5468278968 0.000247846 84.020227897 
-1.2953252103 0.00242171 83.75159521 -1.946621325 -8.91615e-05 84.646101325 -1.6635070333 0.00305674 84.431677033 
-2.4102095015 -0.000687615 85.231889502 -2.1017437707 0.00374495 85.094933771 -2.9398984809 -0.00170196 85.747098481 
-2.6183109596 0.00443455 85.71921096 -3.5302584142 -0.0033181 86.146278414 -3.2164106537 0.00502869 86.269010654 
-4.1629210169 -0.00572709 86.363231017 -3.8895661811 0.00536147 86.689406181 -4.7999518976 -0.00904322 86.305211898 
-4.6150390811 0.00519302 86.897799081 -5.3760029545 -0.0131651 85.850172954 -5.3453663708 0.00419472 86.777086371 
-5.9983927391 0.00209826 86.171192739 -0.026163535588 -0.00109837 79.564851736 -0.00852682 -0.0070604684554 79.147361358 
-0.10522673798 0.001283 80.106483738 -0.057334255795 -0.000181514 79.694875956 -0.2213999546 0.00106689 80.707470955 
-0.1407764616 0.000372901 80.303274462 -0.36873039002 0.000868288 81.34926939 -0.25270755467 0.000629367 80.953300555 
-0.54855682955 0.000783784 82.01915683 -0.39348194588 0.000942929 81.632706946 -0.76662408759 0.000777935 82.709189088 
-0.56810827615 0.00135102 82.334653276 -1.032107353 0.000803273 83.413587353 -0.78553640114 0.00186599 83.055794401 
-1.3568457492 0.000800382 84.126925749 -1.0580742399 0.00250417 83.79428424 -1.7544582537 0.00068428 84.841538254 
-1.4008394786 0.00328009 84.547769479 -2.2389559828 0.000328331 85.543925983 -1.830914731 0.00419888 85.310124731 
-2.8224783771 -0.000455106 86.210108377 -2.3658993659 0.00524144 86.068139366 -3.5115282328 -0.0019281 86.799538233 
-3.0211503531 0.00634195 86.794690353 -4.3011266111 -0.00443448 87.246296611 -3.8051915168 0.00734612 87.441431517 
-5.1660107446 -0.00830502 87.449450745 -4.7121536818 0.00798263 87.926363682 -6.0487943967 -0.0137474 87.262824397 
-5.7106762773 0.00777224 88.120966277 -6.7275704988 0.00629438 87.835490499 -0.020161181903 -0.00291201 79.244207082 
-0.072859278854 0.000710442 79.868404579 -0.15185261973 0.000722137 80.52899262 -0.25377713769 0.00067814 81.215908138 
-0.38283093956 0.000737088 81.92369794 -0.54757082929 0.000880364 82.650792829 -0.76034219809 0.00107669 83.398335198 
-1.0370885163 0.00128393 84.168088516 -1.3971478686 0.00143386 84.960627869 -1.8626434732 0.00141023 85.771973473 
-2.4571440124 0.0010169 86.588844012 -3.2027049735 -6.40951e-05 87.381654974 -4.1143544931 -0.00232035 88.093104493 
-5.1904740337 -0.00636963 88.623894034 -6.3974905902 -0.0131234 88.81250059 -0.0074086619123 -0.00647254 78.697425562 
-0.005985953332 -0.000434439 79.458880683 -0.0078041918551 0.000397356 80.211675002 -0.013424521087 0.00123491 80.960794541 
-0.030467488509 0.00239001 81.712921459 -0.07003030775 0.00393915 82.477565808 -0.14689054607 0.00598274 83.266765546 
-0.28031912412 0.00865025 84.094433124 -0.49519035466 0.0120844 84.975591355 -0.82323875825 0.0164013 85.925076758 
-1.3041839393 0.0215903 86.953393939 -1.9861025416 0.0273288 88.060482542 -2.9240815155 0.032543 89.222621515 
-4.174928581 0.0347889 90.370288581 -5.7826379377 0.0300265 91.354067938 -0.0104766 0.0016672788531 78.322961811 
-0.00255837 0.04632577689 79.176666323 -0.00133984 0.10607083597 79.985125164 -0.000376003 0.17802463395 80.764903366 
0.000761484 0.25337613544 81.530961865 0.00220387 0.32104799092 82.299535009 0.00410761 0.3670509316 83.088976068 
0.00668506 0.37312368168 83.920240318 0.010216 0.31485711932 84.817521881 0.0150517 0.15927043666 85.808171563 
-0.13819602959 0.0215779 86.92163593 -0.63701586551 0.0301171 88.185431866 -1.414809414 0.0404745 89.615099414 
-2.5680153408 0.0516229 91.193265341 -4.210102335 0.0575903 92.824602335 -0.0145106 0.011425104948 77.975576995 
-0.00476428 0.10109711136 78.913826889 -0.00321858 0.2250961285 79.769542871 -0.00223051 0.37873719606 80.569976804 
-0.00126576 0.55304567908 81.337812321 -0.000160567 0.73850478706 82.094934213 0.00126144 0.92414646343 82.864353537 
0.00324212 1.0959391561 83.672180844 0.00612486 1.2345351723 84.548774828 0.0104051 1.3122151692 85.531374831 
0.0167806 1.288543222 86.665386778 0.0262106 1.1045002079 88.005589792 0.039642 0.67449501008 89.61218899 
-0.12126518639 0.0585391 91.538789486 -1.4537886778 0.0776782 93.791118678 -0.018262 0.020968862806 77.681580837 
-0.00686862 0.15363545318 78.691592547 -0.00506852 0.33911663389 79.583498366 -0.00414119 0.5715151494 80.394791851 
-0.00346735 0.84258320679 81.154173793 -0.0028774 1.1456204059 81.887829594 -0.00221776 1.4745185731 82.621531427 
-0.00128638 1.8223468074 83.383603193 0.00021227 2.1792899096 84.20721009 0.00274176 2.5299140398 85.13413596 
0.00704636 2.8487948495 86.219155151 0.0143451 3.0939743334 87.536055667 0.0263829 3.1964480307 89.182651969 
0.0466888 3.047166158 91.285153842 0.0727191 2.4639845356 93.978535464 -0.0214059 0.029285641861 77.465671958 
-0.00867281 0.19878327266 78.530051727 -0.00669242 0.43703486445 79.446136136 -0.00587341 0.73745326029 80.25958174 
-0.00553708 1.0930503586 81.003699641 -0.00552955 1.5004895156 81.707420484 -0.00575299 1.9594224761 82.397637524 
-0.00610227 2.4714269158 83.102603084 -0.00643177 3.0389571846 83.854482815 -0.00649534 3.6638015841 84.694188416 
-0.00583737 4.3445386307 85.677101369 -0.00359035 5.0720666024 86.881953398 0.00181427 5.8214291798 88.42509082 
0.0140741 6.539460178 90.480349822 0.0334015 7.1085521069 93.298337893 -0.0236483 0.035382473656 77.349389926 
-0.00999205 0.23165063478 78.447109365 -0.00789873 0.50834883217 79.374524168 -0.00718767 0.85856929985 80.1830707 
-0.00714568 1.2765845056 80.909315494 -0.00764317 1.7620930255 81.583566974 -0.00864611 2.3198077211 82.232912279 
-0.0101619 2.9591216572 82.883878343 -0.0122308 3.694078658 83.566131342 -0.0149082 4.5436947811 84.316145219 
-0.0182195 5.5322669447 85.183293055 -0.022075 6.6894374808 86.239842519 -0.0259984 8.0488349046 87.597845095 
-0.0282683 9.6448320379 89.439617962 -0.0277635 11.492015379 92.071284621 -0.0247658 0.038471164959 77.348243535 
-0.010683 0.24841891269 78.455576087 -0.00853452 0.5448594113 79.381367589 -0.00788651 0.92076298716 80.179867013 
-0.00801301 1.3711603202 80.88941968 -0.00880183 1.8975101197 81.54077988 -0.0102608 2.5074895529 82.161020447 
-0.0124719 3.2150982197 82.77554178 -0.0156027 4.0414557795 83.411584221 -0.0199241 5.0163999339 84.102050066 
-0.0258284 6.1811136121 84.890646388 -0.0338677 7.5919605973 85.840969403 -0.0446152 9.325892735 87.053367265 
-0.0584929 11.487867325 88.697432675 -0.0749068 14.212483894 91.079316106 -0.0246366 0.038129404141 77.470439796 
-0.0106668 0.24703202498 78.562559975 -0.00851445 0.54214593031 79.47352107 -0.00785794 0.9163948183 80.257733182 
-0.00797767 1.3647631384 80.953696862 -0.00876157 1.888634257 81.592475743 -0.0102171 2.4955951179 82.200984882 
-0.0124257 3.1995600443 82.804989956 -0.0155539 4.0215233957 83.432016604 -0.019871 4.9912067009 84.114873299 
-0.0257669 6.1496018492 84.897498151 -0.0337892 7.5528640344 85.843745966 -0.0445038 9.2776071082 87.054242892 
-0.0583133 11.42826004 88.69853996 -0.0746112 14.139023712 91.082876288 -0.0232589 0.034393494735 77.716141905 
-0.00994263 0.2275963085 78.767643692 -0.00783766 0.50040532477 79.650458675 -0.0071013 0.84576993841 80.416006062 
-0.00703934 1.2578419082 81.101408092 -0.00752265 1.7361051816 81.737284818 -0.00851624 2.2850664291 82.351323571 
-0.0100258 2.9138311446 82.970508855 -0.0120892 3.6362261903 83.62480381 -0.014758 4.4709592217 84.351110778 
-0.0180516 5.4420418232 85.199048177 -0.0218703 6.5786811662 86.241318834 -0.025723 7.9140613128 87.589908687 
-0.0278527 9.4820701526 89.426949847 -0.0271233 11.297082961 92.057317039 -0.0207503 0.027753280795 78.076974319 
-0.0085872 0.1923617398 79.06380026 -0.00658771 0.42441504168 79.904804958 -0.00572713 0.71708341221 80.645750588 
-0.00535858 1.0631997598 81.32098024 -0.00532916 1.459175207 81.959894793 -0.00553972 1.9043169599 82.59028304 
-0.00588293 2.3999452113 83.240754789 -0.00621001 2.9482884778 83.944251522 -0.0062705 3.5509621819 84.741837818 
-0.00560286 4.2064307656 85.689069234 -0.00333137 4.9056357907 86.864464209 0.00212207 5.623867293 88.383672707 
0.0144687 6.3087535783 90.418676422 0.0339067 6.8444566596 93.21663334 -0.0173298 0.019049601684 78.537373598 
-0.00674165 0.14529537461 79.437343625 -0.00491543 0.32263562305 80.222820377 -0.00393096 0.54481968078 80.931333319 
-0.00321403 0.80341243746 81.592666563 -0.00259663 1.0914169916 82.233883008 -0.00192377 1.4024642268 82.881875773 
-0.000991103 1.7293962622 83.565333738 0.00049983 2.0623849487 84.318055051 0.00301597 2.3861176342 85.181852366 
0.00730493 2.6756036652 86.211126335 0.0145878 2.8896341124 87.478845888 0.0266076 2.9605248567 89.081045143 
0.0468761 2.7814000218 91.140909978 0.0728092 2.1735081727 93.788461827 -0.0132865 0.0093075143034 79.075964886 
-0.00458814 0.091367026662 79.870453973 -0.00300982 0.20569285519 80.586822145 -0.00194986 0.34711478871 81.252908211 
-0.000932671 0.50647434522 81.892314655 0.000203229 0.67399961928 82.528277381 0.00163559 0.83853428542 83.184704715 
0.00360846 0.98602272574 83.888327274 0.00646765 1.0973619868 84.669848013 0.0107107 1.1453749811 85.566185019 
0.017036 1.0905495004 86.6221605 0.0263998 0.87532263478 87.890987365 0.0397398 0.41618074172 89.430503258 
-0.40378131954 0.058492 91.29107432 -1.7517802169 0.0773911 93.473720217 -0.00893993 -0.00045016506946 79.667734965 
-0.00232216 0.035736517861 80.342294082 -0.00106506 0.084659405186 80.977178595 -1.53443e-05 0.14277482727 81.589533173 
0.00118243 0.20109732972 82.19547467 0.00265659 0.24835349566 82.812853504 0.00456503 0.27048858307 83.460986417 
0.00712235 0.24942018401 84.161305816 0.0106106 0.16124546818 84.938293532 -0.02612305039 0.0153826 85.81881505 
-0.35591026697 0.0218241 86.831290267 -0.885763887 0.0302532 88.001515887 -1.6909437126 0.0404678 89.342813713 
-2.8650218304 0.0514222 90.83470183 -4.5182632649 0.0571202 92.378543265 -0.0093356788167 -0.00459606 80.286377999 
-0.016967799623 -0.000123718 80.83154472 -0.030470096511 0.000752305 81.374650817 -0.051323122915 0.00168899 81.921610076 
-0.087330102488 0.00291083 82.480826702 -0.14972654686 0.00449078 83.063305247 -0.25324059664 0.00653109 83.681940597 
-0.41678930272 0.00916395 84.351426303 -0.66452446623 0.012535 85.086994466 -1.0270556376 0.0167624 85.902662638 
-1.5425677398 0.0218369 86.80795774 -2.2572217841 0.0274346 87.801291784 -3.2238564701 0.0324808 88.85684647 
-4.4968712542 0.0345282 89.902711254 -6.118053452 0.0295217 90.787803452 -0.012100285664 -0.00513334 78.887486136 
-0.0143744 0.0035716657009 78.319421934 -0.030609520738 -4.63142e-05 79.601801221 -0.0035136053891 -0.000759155 79.082876855 
-0.061097400923 0.000224838 80.323327001 -0.0064325269568 0.000113592 79.838400647 -0.10281214374 0.000334561 81.051971044 
-0.010805659012 0.000341067 80.588132449 -0.1624237513 0.000518529 81.790019751 -0.022917872576 0.000607549 81.336945893 
-0.25051744427 0.000779143 82.543368444 -0.052263750351 0.000973966 82.09290575 -0.38154991343 0.0011059 83.320019913 
-0.11181244256 0.00148033 82.866896143 -0.5743102525 0.00148114 84.129740253 -0.21862114209 0.00218029 83.671651142 
-0.85257777215 0.00186705 84.982533772 -0.39477180686 0.00314618 84.521797807 -1.245695117 0.00218252 85.885955117 
-0.66850590763 0.00447088 85.432577908 -1.7886727069 0.00226601 86.841882707 -1.0752844424 0.00626495 86.417164442 
-2.5211361084 0.00180573 87.838586108 -1.6583397682 0.00864345 87.482239768 -3.4837667301 0.000263304 88.83891673 
-2.4677048097 0.0116679 88.61869481 -4.7100424852 -0.003198 89.760782485 -3.5560185223 0.0153276 89.785368522 
-6.2132828265 -0.0106081 90.447292826 -4.969358143 0.0189337 90.881148143 -6.7215758538 0.0223327 91.701125854 
-0.00760961 -0.0020708415531 78.513087389 -0.017714 0.01014358492 77.884779415 -0.000902353 0.020376460358 79.32037074 
-0.00117775 0.030707156785 78.762359043 -0.000340872 0.048230137715 80.100624062 -0.000146327 0.0789410752 79.589423025 
-6.38755e-05 0.079839114716 80.864505685 1.45689e-05 0.14357029304 80.381000707 0.00025326 0.10680526307 81.622781737 
0.000175285 0.2160791138 81.151040886 0.000636445 0.11776585229 82.388369148 0.000403951 0.2862820526 81.915004947 
0.0010993 0.097932477977 83.176051522 0.000745892 0.34154803199 82.690240968 0.00165415 0.027965434662 84.003240165 
0.00126178 0.36563373022 83.49595527 -0.11754763569 0.00230419 84.889094836 0.00203968 0.33706365599 84.354479344 
-0.37197756944 0.0030247 85.854272569 0.00320605 0.22700273677 85.291550263 -0.77869000858 0.00372777 86.917999009 
-0.0033937053907 0.00493934 86.335444605 -1.3928024504 0.00417764 88.09323245 -0.40599021956 0.00748156 87.51522722 
-2.2815715441 0.00387663 89.375081544 -1.0484303479 0.0111306 88.854372348 -3.5212608644 0.00174951 90.719540864 
-2.0154769179 0.0162252 90.356506918 -5.1865166228 -0.00407671 92.005856623 -3.4046325162 0.0228013 91.976012516 
-5.3155623827 0.0311432 93.563392383 -0.010155 0.0090888246808 78.153064375 -0.0209664 0.016957301233 77.480447999 
-0.00180239 0.075945712437 79.048786588 -0.00160591 0.066530037779 78.465358962 -0.000955105 0.16722033824 79.880539662 
-0.000433242 0.16819345018 79.35599955 -0.000527206 0.27934373113 80.670471269 -0.000363285 0.30527984589 80.180070154 
-0.000104956 0.40319069784 81.437003302 -0.000343882 0.46784084312 80.960565157 0.000360001 0.52818190917 82.199347091 
-0.000306995 0.64629287548 81.719175125 0.000903075 0.64142233004 82.97788567 -0.000211823 0.83024591372 82.478244086 
0.00156413 0.72615331066 83.795994689 -6.33402e-06 1.0070257328 83.261824267 0.00238771 0.75959700119 84.680626999 
0.000389671 1.1597198167 84.097640183 0.00341476 0.71006661346 85.663464387 0.00110152 1.2645149864 85.018985014 
0.00466211 0.53314578338 86.781239217 0.00232718 1.2869304576 86.066539542 0.00604712 0.16687137815 88.073506622 
0.00437401 1.1768256995 87.2898343 -0.47356068188 0.00732301 89.576419682 0.0077221 0.86179970271 88.746400297 
-1.5011150216 0.00733834 91.304665022 0.0130298 0.23910956931 90.494844431 -3.0544989191 0.00557787 93.215018919 
-0.82871006936 0.0213289 92.574054069 -2.5281952575 0.0331831 94.947255257 -0.0126 0.020478765974 77.833074534 
-0.0238947 0.023442186619 77.136557213 -0.00269123 0.13171376125 78.807127239 -0.00200767 0.10089166978 78.21478233 
-0.00157742 0.28651791812 79.680772082 -0.000719768 0.25370655601 79.157372444 -0.00102156 0.47997382286 80.486728177 
-0.000753329 0.46048149309 80.003810507 -0.000526229 0.70322884757 81.250491152 -0.000894437 0.7106236365 80.784859364 
-2.44745e-05 0.94795307582 81.995951924 -0.00108138 0.99624850632 81.527311494 0.000534712 1.2053180465 82.747661954 
-0.00128777 1.3107744549 82.256835545 0.00120989 1.4643400949 83.532449905 -0.00148657 1.6475082785 82.999911722 
0.00207561 1.7097208384 84.381939162 -0.00163275 1.9978136387 83.786706361 0.00322734 1.9186283004 85.3351917 
-0.00164777 2.3487433212 84.653956679 0.00478365 2.0560975403 86.44165246 -0.00139043 2.6793662463 85.648693754 
0.00684912 2.0682926688 87.764237331 -0.000611232 2.9551675678 86.833652432 0.00952516 1.8730481621 89.379791838 
0.00115373 3.1197524883 88.292677512 0.0120446 1.3461851604 91.37302484 0.00460128 3.0817549456 90.135575054 
0.0158205 0.31250323323 93.814192767 0.0115958 2.7019726486 92.496667351 0.0219171 1.7514227387 95.500317261 
-0.0147446 0.030994535999 77.578870764 -0.0262658 0.028979600462 76.8815614 -0.00348978 0.18254779331 78.615954207 
-0.0023466 0.13042656402 78.032596436 -0.00214791 0.39519133133 79.520035669 -0.000973935 0.32715222726 79.012738773 
-0.00149264 0.66321940459 80.332742595 -0.00110776 0.59398501115 79.871392989 -0.000955393 0.97879839683 81.085233603 
-0.00140432 0.92030129728 80.645398703 -0.000456311 1.3368301138 81.804719886 -0.00181235 1.3004769858 81.365323014 
6.30417e-05 1.7339885906 82.517791409 -0.00232597 1.732482993 82.058567007 0.000667417 2.1674599009 83.252500099 
-0.00295362 2.2167654843 82.752134516 0.00144204 2.6332820875 84.041587913 -0.00370516 2.7551668864 83.475653114 
0.00250791 3.1240433345 84.926146665 -0.00458593 3.3495102304 84.26485977 0.0040442 3.625117255 85.961172745 
-0.00558182 3.9995452612 85.166664739 0.00630629 4.1085486684 87.222151332 -0.00663495 4.6992207742 86.246089226 
0.00970773 4.5231511542 88.815108846 -0.00754978 5.4303257794 87.597424221 0.0141878 4.7771953292 90.885904671 
-0.00806627 6.1504533907 89.360016609 0.0230642 4.7215589884 93.628191012 -0.00638648 6.7778121427 91.742157857 
-0.00494078 7.1355020982 95.032387902 -0.016401 0.039476496555 77.413371703 -0.0278747 0.032988106159 76.739926594 
-0.00412325 0.22319676861 78.494322231 -0.00258897 0.15194236405 77.937641636 -0.00260721 0.48208895199 79.416307048 
-0.00116432 0.38064834194 78.938858658 -0.00188206 0.81008660355 80.227878396 -0.00137777 0.69137361824 79.800085382 
-0.00132614 1.2006671991 80.964172801 -0.00179784 1.0737570047 80.562572995 -0.000852385 1.6520867857 81.654703214 
-0.00238398 1.5242643968 81.259005603 -0.000401756 2.1666986789 82.326401321 -0.0031502 2.0449651321 81.917424868 
8.6297e-05 2.7502718229 83.006798177 -0.00413973 2.642752468 82.564477532 0.000689977 3.4114753035 83.726954697 
-0.00541854 3.3292178106 83.227592189 0.00152489 4.1611698073 84.525670193 -0.00708321 4.1207336126 83.939206387 
0.00277618 5.0113013873 85.455608613 -0.0092688 5.0386664664 84.741183534 0.00476219 5.972404714 86.592575286 
-0.0121673 6.1094784436 85.692581556 0.008054 7.0485245206 88.050965479 -0.0159949 7.363857375 86.882152625 
0.0133701 8.2258924666 90.008407533 -0.0212235 8.8328940846 88.450455915 0.0248262 9.4590146435 92.747665356 
-0.0270844 10.541644552 90.631255448 -0.0389962 12.465601355 93.814498645 -0.0174122 0.044899716639 77.355001883 
-0.028568 0.035015162702 76.729510637 -0.0045277 0.24909762418 78.457500376 -0.00270878 0.16294721247 77.943699788 
-0.00290316 0.53752774378 79.384400256 -0.00126569 0.40804638767 78.948265612 -0.00213606 0.90400014049 80.18870086 
-0.00152344 0.74135898829 79.803466012 -0.00157387 1.3430499795 80.908000021 -0.00201194 1.1527430978 80.552446902 
-0.00112649 1.8554487369 81.572711263 -0.00269764 1.6399328682 81.229157132 -0.000737281 2.4478031739 82.209986826 
-0.00360678 2.2073406457 81.861959354 -0.00035339 3.1324611504 82.84594885 -0.00480401 2.8656810113 82.476638989 
8.99171e-05 3.9280022652 83.509337735 -0.00639074 3.6324456723 83.099414328 0.000688677 4.8604049441 84.235195056 
-0.00852283 4.5329973453 83.759552655 0.00160322 5.9646880752 85.070511925 -0.0114357 5.6027195487 84.494700451 
0.00314386 7.2873348572 86.084095143 -0.0154975 6.8900675589 85.357142441 0.00589753 8.8889454767 87.383224523 
-0.0212329 8.461014293 86.425915707 0.0111525 10.845872824 89.145627176 -0.0296815 10.404281821 87.829918179 
0.0227243 13.251267618 91.682832382 -0.0411323 12.837767633 89.794132367 -0.0630961 15.890281161 92.731418839 
-0.017674 0.046567357678 77.415619942 -0.0282624 0.034816260677 76.859543339 -0.00466017 0.25716921905 78.515357781 
-0.0026918 0.16209858263 78.058264417 -0.00300004 0.55496146315 79.434068537 -0.00126397 0.40603066768 79.047678332 
-0.00221676 0.93370432308 80.226337677 -0.00152227 0.73783212918 79.888327871 -0.00165139 1.3883124841 80.930477516 
-0.00201075 1.1473684785 80.623371521 -0.00121333 1.9204454071 81.577624593 -0.00269663 1.63229723 81.28684277 
-0.000847287 2.5382228266 82.194737173 -0.00360611 2.1969489385 81.907531062 -0.000503983 3.256407628 82.807492372 
-0.00480368 2.8519742775 82.511175722 -0.000125081 4.0973070347 83.443782965 -0.0063905 3.6147202472 83.124069753 
0.0003754 5.092655727 84.136614273 -0.00852206 4.5104652195 83.77587478 0.00114302 6.2866291919 84.930600808 
-0.0114331 5.5744161172 84.504253883 0.00247368 7.7404067041 85.890263296 -0.0154909 6.854847371 85.361632629 
0.00493884 9.5388141405 87.117425859 -0.0212179 8.4174491876 86.427310812 0.0100267 11.799186802 88.783513198 
-0.0296503 10.350455494 87.830244506 0.0212379 14.682652282 91.199147718 -0.0410709 12.771421632 89.795678368 
-0.0629605 15.808540733 92.735959267 -0.0171489 0.04425335892 77.599461541 -0.0269552 0.032399595246 77.130214705 
-0.00450524 0.24638537772 78.671293622 -0.00253782 0.14946086835 78.280964132 -0.00288486 0.53219219448 79.568484806 
-0.00115915 0.37474474535 79.236830255 -0.00211018 0.89539331814 80.344153682 -0.0013743 0.68104003468 80.054181965 
-0.00154116 1.3304363391 81.036203661 -0.00179439 1.0579772779 80.774602722 -0.00108841 1.8379708264 81.675459174 
-0.00238121 1.5018828164 81.431317184 -0.000695216 2.4244034597 82.28914654 -0.00314865 2.0145738324 82.052826168 
-0.000308534 3.1019275316 82.904102468 -0.00413951 2.6027232383 82.666206762 0.000136644 3.888925364 83.549114636 
-0.00541913 3.2776666714 83.299363329 0.000736726 4.8111489809 84.259301019 -0.00708309 4.0554961657 83.985143834 
0.00165256 5.9033530819 85.082256918 -0.00926487 4.9573049596 84.76564504 0.00319496 7.2116498474 86.086810153 
-0.0121539 6.0091713429 85.700158657 0.00595226 8.7961332603 87.38043674 -0.0159618 7.2413650109 86.877814989 
0.0112087 10.732491247 89.140908753 -0.0211528 8.684494718 88.438735282 0.0227939 13.113413647 91.679186353 
-0.0269444 10.363340549 90.616259451 -0.0387032 12.253578953 93.797521047 -0.0158712 0.038252453426 77.902420647 
-0.024724 0.028024647073 77.532376353 -0.00407741 0.21797412285 78.921481877 -0.00226065 0.12649474608 78.604572254 
-0.00256976 0.47179490146 79.783538099 -0.000965202 0.3177707457 79.508292254 -0.00182947 0.79346288151 80.537480118 
-0.00110206 0.57753206557 80.293098934 -0.00126001 1.1763021628 81.218837837 -0.00139894 0.89516810197 80.996370898 
-0.000775728 1.6183441203 81.85781588 -0.00180854 1.2648317214 81.649238279 -0.000317453 2.1216438206 82.481946179 
-0.00232481 1.6841988373 82.279941163 0.00017567 2.6917183735 83.119321627 -0.00295564 2.1534176038 82.916312396 
0.00078228 3.3369546655 83.801395335 -0.00371003 2.67407345 83.58834655 0.00161851 4.0679843132 84.567265687 
-0.00459211 3.2477852481 84.332244752 0.00287011 4.8965142012 85.469965799 -0.00558597 3.8741505509 85.195129449 
0.00485572 5.8328470401 86.58517296 -0.00663106 4.5471106376 86.241899362 0.00814679 6.8808605821 88.027099418 
-0.00752747 5.2485800827 87.566339917 0.0134555 8.0268706533 89.972219347 -0.00800916 5.9366977566 89.306912243 
0.0249007 9.2261385633 92.700631437 -0.00626703 6.5309775138 91.668852486 -0.00471897 6.8574245102 94.93550549 
-0.0139422 0.029319865651 78.312377734 -0.0217162 0.022154237733 78.048255762 -0.00341861 0.17518955065 79.255656449 
-0.00188584 0.09577864285 79.014800357 -0.00208952 0.38062637994 80.06889662 -0.000707267 0.24145114463 79.849182855 
-0.00141161 0.63964108027 80.79408792 -0.000745475 0.43890985963 80.59077714 -0.000854312 0.9442207827 81.463044217 
-0.000887566 0.67760835073 81.271281649 -0.000339897 1.2889792894 82.104000711 -0.00107748 0.94942367857 81.918336321 
0.000190201 1.6702936941 82.744306306 -0.00128874 1.2474727173 82.558567283 0.000801094 2.0851057152 83.412624285 
-0.00149366 1.5648271731 83.219402827 0.00157847 2.5293078899 84.14210211 -0.00164642 1.8927400363 83.931459964 
0.00264378 2.9954684074 84.974171593 -0.00166739 2.2183002217 84.731559778 0.00417641 3.4690989093 85.963621091 
-0.00141398 2.5208296639 85.666860336 0.0064313 3.9226502618 87.185349738 -0.000635077 2.7664380455 86.799351955 
0.00981977 4.3057112507 88.743998749 0.00113524 2.8997547271 88.211575273 0.0142745 4.5281221423 90.783097858 
0.00459413 2.8312193793 90.011120621 0.0230955 4.4434580578 93.491871942 0.0116104 2.424475588 92.328194412 
0.0219177 1.4549089219 95.281181078 -0.0115152 0.018520937858 78.811163962 -0.0181307 0.015373828574 78.653777571 
-0.00259169 0.12270399225 79.658204008 -0.00144659 0.060549735672 79.492838664 -0.00149525 0.26856009861 80.408971901 
-0.000416575 0.15376028316 80.241980717 -0.000909331 0.45076981001 81.09638819 -0.000353199 0.27972262206 80.928983378 
-0.000387664 0.66029990635 81.746944094 -0.000335863 0.42856545661 81.577773543 0.000133796 0.88854590642 82.385744094 
-0.000303954 0.59049228941 82.211446711 0.000706187 1.1264355275 83.038094473 -0.000216635 0.75488151631 82.853281484 
0.00138845 1.3628953439 83.731514656 -2.13223e-05 0.9089431328 83.528146867 0.00225558 1.5826995045 84.498060495 
0.000362893 1.0358772762 84.264252724 0.00340334 1.7633723688 85.376687631 0.0010621 1.1122239861 85.094956014 
0.00495014 1.8706463298 86.41629367 0.00227497 1.1042935987 86.060486401 0.00699954 1.8517881998 87.6784718 
0.00430914 0.96310189397 87.209098106 0.00964924 1.6263938489 89.238196151 0.0076444 0.61804126305 88.596596737 
0.0121271 1.0729202483 91.176689752 -0.031109324197 0.0129342 90.278815324 0.0158245 0.019872172637 93.559560827 
-1.1183834833 0.0212133 92.290531483 -2.8261099636 0.0329596 94.589879964 -0.0087743 0.0070344195784 79.37553628 
-0.014194 0.008299761421 79.320383799 -0.0016701 0.06580713424 80.109788666 -0.000978718 0.024175214742 80.016390485 
-0.000845101 0.14679364241 80.785138358 -0.000124889 0.063014245234 80.667122255 -0.000379753 0.24586945652 81.424103543 
2.71696e-05 0.11509634695 81.287847653 7.48676e-05 0.35373579385 82.046438206 0.000184307 0.17200139276 81.893865607 
0.000563464 0.45958830643 82.672631694 0.000405432 0.22337251682 82.502093483 0.00112159 0.55040775951 83.32409224 
0.000735807 0.25643297627 83.130783024 0.00178957 0.60951470267 84.024738297 0.00123661 0.25498549761 83.800218502 
0.00261241 0.61450700076 84.801679999 0.00199653 0.19789432076 84.533167679 0.00363141 0.53442489362 85.686383106 
0.0031425 0.057019165966 85.355070834 0.00486321 0.3260067221 86.714507278 -0.20536965055 0.00485321 86.293499051 
-0.071048711029 0.0062244 87.924291711 -0.63955047726 0.0073701 87.376238477 -0.73927959577 0.00746524 89.349276596 
-1.3110630366 0.0109899 88.624583037 -1.7887104802 0.00743281 91.00107048 -2.3020177885 0.0160442 90.039627789 
-3.3544503777 0.00560459 92.832640378 -3.7068247041 0.0225777 91.572564704 -5.6221046349 0.0307685 93.070654635 
-0.00591525 -0.0040366584726 79.979936828 -0.0101358 0.001493954003 80.018046276 -0.000731608 0.009599223184 80.589431177 
-0.010324443043 -0.000517675 80.562257023 -0.000197756 0.026162955727 81.177955544 -0.023286129396 0.000140913 81.104683939 
0.000124017 0.043231855637 81.757157744 -0.041370366806 0.000356859 81.648251717 0.000479298 0.052237011392 82.338985989 
-0.070782041883 0.000617878 82.199240042 0.000889614 0.041652094601 82.937804905 -0.1211620523 0.000973667 82.767443752 
-0.0033189676083 0.00136881 83.569603568 -0.20553543949 0.00146415 83.364835439 -0.10174400556 0.00192981 84.252313676 
-0.340768172 0.00214351 84.005126172 -0.2784179405 0.00257653 85.005235941 -0.54841103423 0.00308469 84.703492034 
-0.56569515261 0.00328488 85.848315153 -0.85578378517 0.00438104 85.474520785 -1.0054925251 0.00396726 86.800063525 
-1.2970257944 0.00614326 86.330885794 -1.6510386484 0.00438816 87.871608648 -1.9136210869 0.00848585 87.277811087 
-2.5672743982 0.00404915 89.055754398 -2.753525194 0.0114696 88.304315194 -3.8278022966 0.00187698 90.306172297 
-3.8670511539 0.0150777 89.366981154 -5.504505719 -0.00399061 91.499385719 -5.2978971464 0.0186378 90.362807146 
-7.0582966976 0.0218848 91.085306698 -0.013815367217 -0.00310327 80.598319297 -0.041629541234 0.000171514 81.076388841 
-0.084197772369 0.000409223 81.569302872 -0.14182774045 0.000571244 82.07774284 -0.22139063581 0.000798973 82.605863636 
-0.33358963901 0.00108976 83.161007639 -0.49278273117 0.00143349 83.752498731 -0.71734342056 0.00181345 84.390560421 
-1.030251979 0.00219291 85.085208979 -1.4596677799 0.00249197 85.84371778 -2.0390488632 0.00255023 86.666678863 
-2.806125778 0.00205748 87.540905778 -3.7995090501 0.000476758 88.42741905 -5.0505877985 -0.0030239 89.242307798 
-6.5708232954 -0.010448 89.827453295 -0.022262813025 0.0027719 81.476645813 -0.099080917624 0.00332582 81.762158118 
-0.21114945451 0.00335948 82.107465455 -0.3552865439 0.00379068 82.499149544 -0.53469939251 0.00459278 82.930212393 
-0.75673894251 0.00571296 83.397619943 -1.0320768136 0.00710931 83.900474814 -1.374169484 0.00871822 84.437449484 
-1.7986897131 0.0104143 85.004679713 -2.3226151324 0.011947 85.592275132 -2.9624583483 0.0128489 86.179528348 
-3.7310990035 0.0123107 86.727899003 -4.6321792594 0.00907089 87.171269259 -5.6512268653 0.00125639 87.403256865 
-6.7413707925 -0.0129426 87.264920792 -0.02594901293 0.00559157 82.010354713 -0.12590490658 0.00452713 82.175053907 
-0.27092102927 0.00417797 82.421438029 -0.45565586101 0.00431455 82.729012861 -0.68053721279 0.00481025 83.084466213 
-0.94992429662 0.00556439 83.478550297 -1.2709948288 0.00648078 83.904044829 -1.6527693515 0.00743102 84.352689351 
-2.1049891083 0.00821828 84.812989108 -2.6365972154 0.00852767 85.266667215 -3.2533936337 0.00786921 85.684473634 
-3.9544213242 0.00552212 86.019991324 -4.7265071219 0.000542258 86.203507122 -5.5366946033 -0.00814278 86.134174603 
-6.3219564941 -0.0212201 85.675036494 -0.027952861871 0.00780409 82.493862062 -0.14363046372 0.00537721 82.546526464 
-0.31099324607 0.00468822 82.696783246 -0.52288570539 0.00452589 82.918789705 -0.77699086653 0.00468809 83.194038867 
-1.0745034419 0.00504144 83.508383442 -1.4188590847 0.00545493 83.848999085 -1.8144816888 0.00576461 84.202091689 
-2.265350866 0.00574713 84.550370866 -2.7732378412 0.00508952 84.870127841 -3.3351807483 0.0033667 85.127160748 
-3.9401833762 4.26685e-05 85.273253376 -4.5646573767 -0.00546203 85.241647377 -5.1669986273 -0.0135927 84.944108627 
-5.6815760991 -0.0242621 84.270556099 -0.028478361535 0.00940144 82.917791562 -0.15288410864 0.00588892 82.869952109 
-0.3325971956 0.00492039 82.929667196 -0.55909212061 0.00448361 83.067531121 -0.82758923189 0.00432478 83.261527232 
-1.1362840665 0.00429475 83.493384067 -1.4850587244 0.00424799 83.746218724 -1.8741051448 0.00401203 84.002295145 
-2.3024275517 0.0033725 84.240407552 -2.7660388046 0.00206096 84.433698805 -3.2557433575 -0.000241971 84.546703357 
-3.7543133574 -0.00387275 84.533223357 -4.2333408992 -0.00909485 84.333600899 -4.6498925402 -0.0159249 83.87499254 
-4.9440412946 -0.0238618 83.073941295 -0.027786429615 0.0104159 83.27643333 -0.15474755583 0.00609519 83.141408556 
-0.33797659386 0.00491791 83.118475594 -0.56807172849 0.00425142 83.176399728 -0.83823918886 0.00381246 83.291001189 
-1.1440919063 0.0034514 83.441311906 -1.4824193426 0.00302537 83.607679343 -1.8498940615 0.00237369 83.769744062 
-2.2416231603 0.00131308 83.90439316 -2.6495098868 -0.000361203 83.983679887 -3.0604687544 -0.0028574 83.973458754 
-3.4543873251 -0.00634204 83.831617325 -3.802146404 -0.010855 83.507776404 -4.0641443506 -0.0161775 82.944594351 
-4.1902328951 -0.0216639 82.081942895 -0.026158862243 0.0109094 83.567639262 -0.15054650929 0.00604224 83.359759509 
-0.32993654789 0.00473001 83.263688548 -0.55454196005 0.00389045 83.24805196 -0.81609395377 0.00322961 83.287613954 
-1.1081613015 0.00260918 83.360201301 -1.425113264 0.00190118 83.444543264 -1.7609354663 0.000969069 83.519145466 
-2.107956064 -0.000329552 83.560296064 -2.4555391779 -0.00213404 83.540679178 -2.7887255537 -0.00455708 83.428835554 
-3.0869487195 -0.00764139 83.188258719 -3.3230762126 -0.0112928 82.778056213 -3.4632044869 -0.0151949 82.154764487 
-3.4680850798 -0.0187229 81.27756508 -0.023867770078 0.0109607 83.79202657 -0.14167871124 0.00578158 83.525763711 
-0.31146624882 0.00440493 83.367100249 -0.523515966 0.00345298 83.285777966 -0.76863725927 0.00263557 83.256782259 
-1.0389623899 0.00183341 83.25770239 -1.3271456032 0.000940439 83.266885603 -1.6253055555 -0.00015034 83.262595556 
-1.9240783913 -0.00153971 83.221868391 -2.2115783234 -0.00331006 83.119138323 -2.4725180382 -0.00550224 82.926578038 
-2.6874793665 -0.00808053 82.613369366 -2.8327423002 -0.0108866 82.1474023 -2.8809190139 -0.0135918 81.497509014 
-2.8029453954 -0.0156647 80.637455395 -0.02115574592 0.0106555 83.952886046 -0.12947836862 0.00536504 83.642098369 
-0.28546200573 0.00398648 83.431762006 -0.47984350504 0.00298045 83.293571505 -0.70303140062 0.00207067 83.203792401 
-0.94631763853 0.0011607 83.140532639 -1.2012756873 0.000169122 83.082795687 -1.4589889214 -0.000981284 83.009518921 
-1.7092577993 -0.00235433 82.899087799 -1.9399707412 -0.00398803 82.728700741 -2.1365237058 -0.00587512 82.474043706 
-2.2815912887 -0.00793784 82.110121289 -2.3554155407 -0.01 81.612595541 -2.33687627 -0.0117656 80.95982627 
-2.2056262533 -0.0128168 80.136596253 -0.018227032615 0.010079 84.054791733 -0.1151427856 0.00484082 83.712487786 
-0.25454047306 0.00351195 83.461233473 -0.42789840081 0.00250327 83.275606401 -0.62568170792 0.00155865 83.133503708 
-0.83886404965 0.000605213 83.01450705 -1.058545809 -0.000414343 82.898725809 -1.2753860076 -0.00155035 82.766716008 
-1.4791048658 -0.0028367 82.598664866 -1.6580318335 -0.00427988 82.374521833 -1.7988801777 -0.00584422 82.073950178 
-1.8868212671 -0.00743549 81.677071267 -1.9060544613 -0.00888643 81.165994461 -1.8409594959 -0.00995145 80.526459496 
-1.6781588117 -0.0103191 79.751398812 -0.015243931904 0.00930979 84.103909832 -0.09968556346 0.00425116 83.741630163 
-0.22093386936 0.00301144 83.459829869 -0.37141888556 0.00204212 83.235903886 -0.54202323385 0.00111039 83.050233234 
-0.72383978575 0.000165448 82.884133786 -0.90797943615 -0.00082843 82.719485436 -1.0852149556 -0.00189914 82.538734956 
-1.2456530418 -0.00305808 82.324363042 -1.3785328602 -0.00429132 82.05900286 -1.4722165088 -0.00554927 81.725996509 
-1.5144303394 -0.00673719 81.309980339 -1.4929531029 -0.00770957 80.798313103 -1.3967375298 -0.00827361 80.18228753 
-1.2176978649 -0.00820661 79.460227865 -0.012328682723 0.00841709 84.107005583 -0.083921254459 0.00363125 83.734818854 
-0.18645522437 0.00250815 83.431759224 -0.31343358044 0.00160987 83.17838358 -0.45643456645 0.000727785 82.957615566 
-0.60700740763 -0.000169614 82.752974408 -0.75664850697 -0.00110005 82.548389507 -0.8966065116 -0.00207384 82.328291512 
-1.0177317681 -0.0030866 82.077571768 -1.110442501 -0.00411257 81.781702501 -1.1648226492 -0.00509791 81.427312649 
-1.1709940398 -0.00595607 81.00272404 -1.1198148634 -0.00656744 80.499364863 -1.0038773899 -0.00678664 79.91280939 
-0.81892899605 -0.00645997 79.244813996 -0.0095680367962 0.0074587 84.071147797 -0.068471837626 0.00300902 83.697556738 
-0.15249938646 0.00201908 83.381447386 -0.25628257302 0.00121345 83.106796573 -0.37227651473 0.000407088 82.858938515 
-0.49273337148 -0.000415722 82.623774371 -0.60979881282 -0.00125852 82.387473813 -0.71545749488 -0.00211867 82.136658495 
-0.80150760465 -0.00298149 81.858460605 -0.85963446322 -0.00381549 81.541152463 -0.88161543075 -0.00456846 81.173948431 
-0.85971556282 -0.00516582 80.748585563 -0.78731968318 -0.00551309 80.259509683 -0.65979942324 -0.00550418 79.705196423 
-0.47560450022 -0.00503656 79.0895685 -0.0070187154777 0.00648091 84.003311255 -0.053785081414 0.0024055 83.635164181 
-0.12008283105 0.00155603 83.313251831 -0.20166961198 0.000855717 83.024342612 -0.29198517236 0.000141532 82.756759172 
-0.3841408208 -0.000589956 82.498471821 -0.47110378239 -0.00133181 82.237889782 -0.5457454967 -0.0020724 81.963940497 
-0.60091344686 -0.00279094 81.666031447 -0.6295729859 -0.00345434 81.334491986 -0.62506010505 -0.00401504 80.961400105 
-0.58147496792 -0.00441129 80.540703968 -0.4942314814 -0.00457063 80.069454481 -0.36076150439 -0.0044178 79.547981504 
-0.18133270609 -0.00388695 78.981545706 -0.0047130144751 0.00551917 83.910377454 -0.04015947571 0.00183561 83.553081876 
-0.089895334646 0.00112657 83.231166535 -0.1507532215 0.000536758 82.934375221 -0.21720490945 -7.68017e-05 82.653305909 
-0.28330135151 -0.000708584 82.378492352 -0.34292814136 -0.00134441 82.100288141 -0.38991628834 -0.00196689 81.809744288 
-0.41818302762 -0.00255222 81.498276028 -0.42191778329 -0.00306815 81.158617783 -0.39584843769 -0.0034731 80.784671438 
-0.33560616964 -0.00371729 80.37245617 -0.23819160686 -0.00374645 79.920876607 -0.10252453583 -0.00350859 79.431528636 
-0.00296341 0.069961598991 78.910459401 -0.0026644848938 0.00459925 83.798634245 -0.027771124548 0.0013091 83.456170225 
-0.062352118694 0.000734954 83.138920819 -0.10423970305 0.000255024 82.839398703 -0.14892659396 -0.000255797 82.550471594 
-0.19143432406 -0.000785885 82.264736324 -0.22659352872 -0.00131652 81.974598529 -0.24921252525 -0.00182705 81.672950525 
-0.25424737819 -0.00229277 81.353343378 -0.23701759953 -0.00268367 81.0100536 -0.19346248038 -0.00296431 80.63904848 
-0.12046515388 -0.00309534 80.237855854 -0.016243678731 -0.00303687 79.806455579 -0.00275394 0.11923586229 79.347696138 
-0.00222359 0.28383531192 78.867557688 -0.00087273603335 0.00373874 83.673874862 -0.016700209944 0.000831519 83.34900661 
-0.037656298899 0.000382991 83.040174499 -0.062475664854 8.05198e-06 82.742160665 -0.087630462865 -0.000402619 82.449902463 
-0.10909200161 -0.000833665 82.157863002 -0.12262494295 -0.00126395 81.860508943 -0.12398367614 -0.00167144 81.552489676 
-0.10910302677 -0.00203187 81.228814627 -0.074314546256 -0.00231816 80.885529446 -0.016593085055 -0.00250061 80.519993155 
-0.00254849 0.066161920838 80.131163779 -0.00243293 0.17481715677 79.719998843 -0.00213118 0.3086904451 79.289679555 
-0.00163168 0.46526220017 78.8461658 0.00067245658362 0.0029486 83.541396718 -0.0069550517833 0.000405163 83.235781842 
-0.015848415034 7.06623e-05 82.937911615 -0.025539315464 -0.000207032 82.644642615 -0.033410287282 -0.000523412 82.352685487 
-0.036332516401 -0.000861228 82.058374916 -0.030960774386 -0.00119854 81.757647474 -0.013937033587 -0.00151322 81.446722904 
-0.00178235 0.017909479206 81.122285821 -0.00198192 0.067352025103 80.781769475 -0.00208731 0.13654316122 80.423640839 
-0.0020747 0.22677225025 80.04779575 -0.00192349 0.33822217196 79.655965828 -0.00161941 0.46973641149 79.251640589 
-0.00115821 0.61862655376 78.840614446 0.0019877620076 0.0022346 83.405800188 2.9907e-05 0.0015070932788 83.120096457 
-0.000203298 0.0031472062093 82.835033794 -0.000393197 0.0066869254554 82.548950565 -0.00062322 0.013917316866 82.260136383 
-0.00087559 0.027136776118 81.966403724 -0.0011287 0.048868184712 81.665367315 -0.00136125 0.081655644602 81.354527655 
-0.00155209 0.12786817913 81.031756821 -0.00168023 0.18950237163 80.695786628 -0.00172536 0.2679787618 80.346101238 
-0.00166911 0.36394733576 79.983335664 -0.00149689 0.47708409665 79.609784903 -0.00120026 0.60592942933 79.229025571 
-0.000779429 0.74776520494 78.846549795 0.00159861 0.0030936532997 83.270987557 -0.000296074 0.0087629112543 83.005457409 
-0.000440976 0.019484606889 82.734054393 -0.000553326 0.034451937623 82.456706662 -0.000706059 0.054721468164 82.173089232 
-0.000881827 0.081842469297 81.882298731 -0.00106013 0.11759491552 81.583135084 -0.00122102 0.16379250063 81.274487499 
-0.00134537 0.22209750969 80.95522349 -0.00141495 0.2938382377 80.625080762 -0.00141304 0.37983492397 80.284263076 
-0.00132547 0.48022388116 79.934342119 -0.00114199 0.59431707714 79.577565923 -0.000858028 0.72046874828 79.217877252 
-0.000476372 0.85601276359 78.860438236 0.00103979 0.0040123330936 83.140462177 -0.00057571 0.014909136615 82.894375363 
-0.000644942 0.033365110335 82.63709359 -0.000690109 0.058084898369 82.369342302 -0.000775046 0.089483721175 82.092288179 
-0.000883451 0.12844914188 81.806017858 -0.000996388 0.17610173917 81.510422261 -0.00109558 0.23361293341 81.205385067 
-0.00116392 0.30203164011 80.89077436 -0.00118568 0.38212000887 80.567136991 -0.00114707 0.47419928856 80.235496711 
-0.0010371 0.57800932258 79.897556677 -0.000848618 0.69258951806 79.556207482 -0.000579553 0.8161960672 79.215140933 
-0.00023403 0.94625626255 78.879268737 0.000555439 0.0047662078517 83.017227822 -0.000812556 0.020051862604 82.789562637 
-0.000817987 0.045013447192 82.545874653 -0.000805996 0.077954920163 82.28829288 -0.00083256 0.11874178428 82.018481216 
-0.000882772 0.16768578023 81.73762122 -0.000939489 0.22533664354 81.446599356 -0.000986212 0.29230819378 81.146097806 
-0.00100779 0.36912289849 80.836888102 -0.000990662 0.45606859831 80.520027402 -0.00092342 0.55305838567 80.197157614 
-0.000797461 0.65952189446 79.870508106 -0.000607809 0.77430370172 79.542902298 -0.000353952 0.89560811226 79.218167888 
-4.05793e-05 1.0209797058 78.900850294 0.000141797 0.0053768292395 82.903488271 -0.00101043 0.024298487247 82.692731713 
-0.000962936 0.054659564688 82.462121235 -0.000903175 0.094440913106 82.214394087 -0.000880389 0.14304424302 81.952115757 
-0.000881212 0.20029337577 81.677266624 -0.000890344 0.26624593571 81.391332064 -0.000893041 0.34104268617 81.095895314 
-0.000875951 0.42476412827 80.792232872 -0.000827384 0.51730217821 80.482111822 -0.000737821 0.61824125809 80.167489742 
-0.000600459 0.72676508444 79.850916916 -0.000411818 0.84158060681 79.535541393 -0.000172317 0.96087457589 79.224916424 
0.000113256 1.0823103667 78.923409633 -0.000205409 0.0058640738336 82.801447016 -0.00117312 0.027751790096 82.60589431 
-0.0010825 0.062525193601 82.387155606 -0.000983563 0.10790961217 82.148679388 -0.000919864 0.16292222266 81.893735777 
-0.000879565 0.22697919044 81.62480681 -0.000849133 0.29972799819 81.344179002 -0.000815464 0.38091277582 81.053738224 
-0.000766805 0.47024669428 80.755566306 -0.000693035 0.56729769933 80.451839301 -0.000586135 0.67138744091 80.144727559 
-0.000440641 0.78150846428 79.837197536 -0.000254092 0.8962686761 79.532215324 -2.74287e-05 1.0138581757 79.233551824 
0.000234723 1.1320511319 78.945288868 -0.000490519 0.0062456587296 82.712707121 -0.0013042 0.03050568963 82.53016081 
-0.00117916 0.06881398741 82.321997613 -0.00104882 0.11869746504 82.091978535 -0.00095197 0.17886285493 81.843780145 
-0.000878209 0.2483941845 81.580387816 -0.000815594 0.32660137409 81.304690626 -0.000752485 0.41290627105 81.019177729 
-0.000678498 0.50672291748 80.726036083 -0.000584804 0.60735966724 80.427949333 -0.000464557 0.71392910002 80.1275979 
-0.000313276 0.82527972406 79.827660276 -0.00012919 0.93994557523 79.531615425 8.65001e-05 1.0561338772 79.242946123 
0.000329451 1.1717071756 78.965642824 -0.00071761 0.0065368540219 82.638371146 -0.00140685 0.032642814128 82.466839986 
-0.00125512 0.073705404245 82.267564096 -0.00110032 0.12710218249 82.044716818 -0.000977428 0.19129626412 81.802381736 
-0.000877255 0.2651076389 81.544048361 -0.000789236 0.34758212937 81.272808871 -0.000702962 0.4378821614 80.991555839 
-0.000609182 0.53518828393 80.702880716 -0.000500095 0.6386047582 80.409773242 -0.000369754 0.74708255498 80.114921445 
-0.000214391 0.8593614751 79.821412525 -3.26899e-05 0.97392667767 79.532634322 0.000174038 1.0889926696 79.25197733 
0.000401763 1.2025230525 78.983336947 -0.00089027 0.006750215353 82.579641135 -0.00148378 0.034232088424 82.416738912 
-0.00131223 0.077350215817 82.224468684 -0.00113921 0.13337327971 82.00751472 -0.000996758 0.20058384187 81.769967158 
-0.000876674 0.27760040557 81.515819594 -0.000769491 0.3632677195 81.24826728 -0.00066578 0.45655519088 80.970505809 
-0.000557175 0.55646567132 80.685530329 -0.000436658 0.66195084888 80.396235151 -0.000298942 0.77184218736 80.105813813 
-0.000140765 0.88479846201 79.817359538 3.8897e-05 0.99927394468 79.534166055 0.000238706 1.1134913445 79.259728655 
0.000454919 1.2254946079 78.997745392 -0.00101143 0.0068955985484 82.537218631 -0.00153715 0.035327928974 82.380462971 
-0.00135196 0.079867483144 82.193421817 -0.00116637 0.13771005185 81.980687948 -0.00101033 0.20701122599 81.746756774 
-0.000876368 0.28625070764 81.495525292 -0.000755822 0.37413171634 81.230791284 -0.00063997 0.46948927558 80.955652724 
-0.000521079 0.57120156204 80.673307438 -0.000392678 0.67811407569 80.387052924 -0.000249936 0.78897759535 80.099886405 
-8.99236e-05 0.90239699381 79.815005006 8.82032e-05 1.0168038796 79.53580612 0.000283114 1.130432157 79.265687843 
0.000491292 1.2413704829 79.008349517 -0.00108324 0.006980010213 82.51150471 -0.00156854 0.035969673827 82.358615926 
-0.00137536 0.081343287524 82.174630812 -0.00118241 0.14025447238 81.964447528 -0.00101837 0.21078410535 81.732764895 
-0.000876236 0.29133086022 81.48338214 -0.000747804 0.3805133103 81.22029869 -0.000624794 0.47708697066 80.946814029 
-0.000499849 0.57985738761 80.666227612 -0.000366827 0.68760818079 80.381638819 -0.000221163 0.79904003046 80.09644697 
-6.01141e-05 0.91272763552 79.813651364 0.000117065 1.027088621 79.536851379 0.000309059 1.1403734328 79.269446567 
0.000512494 1.2506832086 79.014836791 -0.021503493374 -0.000526429 81.192761793 -0.0095722457025 -0.00275765 81.361385826 
-0.083873201008 0.000986396 81.541088101 -0.064216537534 0.000146643 81.609430438 -0.17568141288 0.000960261 81.935026413 
-0.1586204137 0.000401698 81.927280414 -0.29499292335 0.000976898 82.365745923 -0.2865466287 0.000636299 82.296939629 
-0.4462795999 0.00108522 82.8297006 -0.44846899176 0.000937254 82.708455992 -0.63820151509 0.00126091 83.327215515 
-0.64958001328 0.00132695 83.157298013 -0.88293589658 0.0014734 83.860718897 -0.89879462423 0.00181759 83.641619624 
-1.1959067317 0.00168196 84.432636732 -1.2080449377 0.00242623 84.160714938 -1.5955295233 0.00182009 85.043509523 
-1.5917123615 0.00316828 84.712432361 -2.1026930194 0.00177344 85.688903019 -2.0657534565 0.00404968 85.290663457 
-2.7393935599 0.00134807 86.35457356 -2.646337732 0.00505208 85.881137732 -3.5259322976 0.000228568 87.009522298 
-3.3472303226 0.00611023 86.456030323 -4.4755794097 -0.00206882 87.59518941 -4.1752860514 0.00707064 86.965236051 
-5.5851205722 -0.0061581 88.010830572 -5.1230792968 0.00766247 87.325859297 -6.8199257135 -0.0129361 88.094485714 
-6.1581958937 0.00740963 87.408495894 -7.2070583141 0.00589589 87.023578314 -0.027053416319 0.00166466 81.744399516 
-0.013411430384 0.000371708 81.96354373 -0.11616053694 0.00162336 81.969251537 -0.081874593342 0.000402517 82.078057793 
-0.24601817843 0.00136283 82.264616178 -0.20332135685 0.00047554 82.287462357 -0.41255636621 0.0012316 82.613414366 
-0.36753977712 0.000698625 82.566750777 -0.61749984132 0.00120086 83.005623841 -0.5720730151 0.000989978 82.899511015 
-0.86671348935 0.00122879 83.434989489 -0.81914346286 0.00135896 83.274989463 -1.1691567858 0.00126901 83.897436786 
-1.1143856182 0.00180475 83.685265618 -1.5360787713 0.00126404 84.388058771 -1.4657072516 0.00232836 84.122897252 
-1.9801160055 0.00113127 84.899366005 -1.8822498985 0.00292353 84.578739899 -2.513981114 0.000746736 85.417281114 
-2.3729753833 0.00356846 85.038665383 -3.1482809497 -7.42082e-05 85.91701095 -2.9447077799 0.00421256 85.47967778 
-3.8878778599 -0.00159027 86.35671786 -3.5990849081 0.00476015 85.865654908 -4.726240032 -0.0041407 86.669400032 
-4.3280933026 0.00504673 86.139923303 -5.6368481348 -0.00805193 86.752958135 -5.1076346292 0.00483405 86.219194629 
-6.5615683782 -0.013523 86.460878378 -5.8893243857 0.00379625 85.985514386 -6.5907010921 0.00166715 85.282761092 
-0.030617364318 0.0035085 82.252668564 -0.016140832335 0.00307355 82.508675632 -0.13903538065 0.00212413 82.361185381 
-0.093582801917 0.000602557 82.502186602 -0.29633819987 0.00166235 82.5590052 -0.23323493213 0.000509271 82.608620932 
-0.49653158561 0.00139612 82.823143586 -0.42179284025 0.000703566 82.79799484 -0.73850829108 0.00123059 83.137529291 
-0.6541250763 0.000962766 83.048861076 -1.0249755744 0.00111231 83.490453574 -0.92944421154 0.00128392 83.345359212 
-1.3611770188 0.000985517 83.872087019 -1.2498989531 0.00165563 83.674308953 -1.7536990296 0.000784877 84.27124903 
-1.6192237993 0.00206657 84.023043799 -2.209204767 0.000424883 84.673854767 -2.0413492166 0.00249575 84.376499217 
-2.7326347331 -0.000209223 85.058984733 -2.5188204323 0.00290594 84.714780432 -3.3247432015 -0.00126816 85.395163201 
-3.0505810874 0.00323458 85.009861087 -3.9784762325 -0.00293384 85.635706233 -3.6291402177 0.00338485 85.221430218 
-4.6739907599 -0.00539293 85.71318076 -4.2366511285 0.00322008 85.293031129 -5.3721128081 -0.00875494 85.533962808 
-4.8402275224 0.00257228 85.147977522 -6.0067478992 -0.0129143 84.975127899 -5.3866217999 0.00127526 84.6864618 
-5.7977341271 -0.000754309 83.788354127 -0.032342190403 0.00496126 82.70610039 -0.017813482781 0.00530817 82.986114783 
-0.15282525981 0.00247063 82.70839226 -0.099740517941 0.000748911 82.873749718 -0.32720266998 0.00185249 82.81311467 
-0.24929206009 0.000509925 82.88546606 -0.54793257124 0.00147533 82.992385571 -0.45100397325 0.000664801 82.988173973 
-0.81125748494 0.00119332 83.226286485 -0.69750335463 0.000877672 83.157076355 -1.1167519166 0.000947636 83.498351917 
-0.98524494035 0.00113594 83.37248794 -1.4659275619 0.000679883 83.793977562 -1.3130905532 0.0014209 83.617230553 
-1.8609029808 0.000325349 84.097452981 -1.6808848073 0.00171354 83.874534807 -2.3028646521 -0.000193794 84.389744652 
-2.087996392 0.00198545 84.125256392 -2.7902676178 -0.000971243 84.645547618 -2.5316469782 0.00219475 84.346126978 
-3.3164017574 -0.00211411 84.830521757 -3.0049238905 0.00228142 84.506433891 -3.8662713429 -0.00372793 84.897861343 
-3.4943277534 0.0021653 84.565987753 -4.4128728222 -0.00588128 84.784892822 -3.9768486908 0.00174998 84.472218691 
-4.9128886278 -0.00853468 84.411588628 -4.41695802 0.000940125 84.15884802 -5.3029326459 -0.0114367 83.681122646 
-4.7639899127 -0.000323921 83.546689913 -4.9513253811 -0.00199275 82.548285381 -0.032477109126 0.00602665 83.097200409 
-0.018543142464 0.00706733 83.389485142 -0.15842795343 0.00267293 83.005797953 -0.10105097892 0.000845605 83.187818679 
-0.34043353615 0.00194432 83.024020536 -0.25318874884 0.000485493 83.115072749 -0.56986245831 0.00148437 83.121446458 
-0.45823420085 0.000596051 83.136959201 -0.84069855042 0.00111053 83.27517655 -0.7071197807 0.000756345 83.226674781 
-1.149689258 0.000764027 83.465539258 -0.99399090902 0.000946881 83.362146909 -1.4949895941 0.000389407 83.674469594 
-1.3148911461 0.00114509 83.523611146 -1.8748083369 -7.13929e-05 83.882978337 -1.6663709134 0.00132867 83.691350913 
-2.2858916783 -0.000682447 84.068921678 -2.0441407738 0.00146774 83.843910774 -2.721780821 -0.00151212 84.205270821 
-2.4414849698 0.00152316 83.95628497 -3.1708170469 -0.00262558 84.257447047 -2.8476287368 0.00144545 83.997848737 
-3.6137439172 -0.00406691 84.181413917 -3.2458629015 0.00117716 83.930652901 -4.0211678937 -0.00582596 83.922687894 
-3.6116015338 0.000661253 83.708511534 -4.3514481414 -0.00778789 83.416038141 -3.9108602606 -0.000140905 83.277090261 
-4.549660209 -0.00966845 82.589560209 -4.0995872894 -0.00122096 82.576287289 -4.1251993714 -0.00248076 81.546329371 
-0.031326524537 0.00672769 83.422138225 -0.018478937877 0.00836813 83.716500238 -0.15709997602 0.00274566 83.250820976 
-0.098378508648 0.000898398 83.442694009 -0.3386442205 0.00195106 83.191202221 -0.24703914489 0.00044361 83.296960145 
-0.566719702 0.001438 83.212031702 -0.44729392427 0.000509921 83.245669924 -0.83356563546 0.00100026 83.288753635 
-0.68896417214 0.00061766 83.261415172 -1.1336091154 0.000583202 83.399799115 -0.96444941511 0.000743118 83.321038415 
-1.4622313161 0.000138179 83.524811316 -1.2675818915 0.000862837 83.402961891 -1.8145417438 -0.000382766 83.642921744 
-1.5923834616 0.000954644 83.486243462 -2.1839803518 -0.00102779 83.730880352 -1.9318668442 0.000991152 83.548566844 
-2.5608400226 -0.00184101 83.761320023 -2.2767538624 0.000939992 83.564653862 -2.930728515 -0.00285343 83.701398515 
-2.6141771214 0.000764949 83.505357121 -3.2729508058 -0.00406635 83.512100806 -2.9263590281 0.000430384 83.336749028 
-3.5591001624 -0.00542611 83.147800162 -3.1896169428 -8.98021e-05 83.019866943 -3.7524366881 -0.00679158 82.558196688 
-3.3738609008 -0.000797279 82.511920901 -3.8087570028 -0.0079035 81.692047003 -3.4432531473 -0.00164993 81.769473147 
-3.358860612 -0.00253914 80.754340612 -0.029206634318 0.0071037 83.680047334 -0.017783573434 0.00924679 83.968064273 
-0.15025590089 0.00270882 83.443069901 -0.09263505631 0.000914316 83.638811156 -0.32481184289 0.00188829 83.315742843 
-0.23309506232 0.000391293 83.432405062 -0.54348740089 0.00135058 83.267157401 -0.42223546124 0.000417049 83.317001461 
-0.79733965207 0.000876735 83.272292652 -0.64933624633 0.000476694 83.265757246 -1.0790602761 0.000418998 83.308860276 
-0.90563737529 0.000544553 83.255404375 -1.3819833994 -6.24015e-05 83.355553399 -1.1834150797 0.000598486 83.26410508 
-1.6989532797 -0.000604084 83.39081328 -1.4749477204 0.00061868 83.27040772 -2.0212295216 -0.0012389 83.391309522 
-1.771514879 0.000582382 83.252304879 -2.3373066689 -0.00199075 83.331006669 -2.0624370283 0.000465324 83.185477028 
-2.6318189032 -0.00286606 83.180058903 -2.3340907249 0.000243934 83.043580725 -2.8846046457 -0.00384063 82.905034646 
-2.5692221871 -9.98915e-05 82.796912187 -3.0701849096 -0.00484268 82.46933491 -2.7464523523 -0.000571122 82.413852352 
-3.1581502363 -0.00573519 81.835360236 -2.8406492234 -0.00115109 81.861989223 -3.1149468934 -0.00630545 80.969266893 
-2.8241614492 -0.0017864 81.111481449 -2.6698756823 -0.00237944 80.140265682 -0.026416000909 0.00720297 83.872731101 
-0.016617529545 0.00975185 84.14797443 -0.13931229705 0.00258434 83.584460297 -0.084695980449 0.000900633 83.77885528 
-0.30194454131 0.00177182 83.400060541 -0.21353018135 0.000334286 83.524074181 -0.50518580029 0.00123468 83.2903088 
-0.38697752652 0.000325474 83.354180527 -0.73945798387 0.000750088 83.230985984 -0.59427459107 0.000344156 83.244046591 
-0.99633786827 0.00027847 83.199844868 -0.82606807646 0.000364379 83.171253076 -1.2677749084 -0.000210404 83.175664908 
-1.0737104579 0.000366726 83.114350458 -1.5452106685 -0.00074219 83.137200669 -1.3284447183 0.000334913 83.052704718 
-1.818695727 -0.0013366 83.062215727 -1.5806647655 0.000251532 82.964924765 -2.0760650608 -0.00200236 82.926475061 
-1.81920447 0.00010005 82.82895447 -2.3022379125 -0.00273021 82.704147913 -2.0307063298 -0.000132725 82.62119633 
-2.4788033653 -0.00348362 82.367153365 -2.1993293525 -0.000452453 82.316919353 -2.5841143046 -0.00418881 81.887374305 
-2.3067483819 -0.000851578 81.890998382 -2.5942235323 -0.00472713 81.237893532 -2.3328631174 -0.00130281 81.319753117 
-2.4850249774 -0.00493577 80.397914977 -2.2573816962 -0.00175389 80.583921696 -2.0626323366 -0.00212576 79.673132337 
-0.023217104117 0.00707733 84.004371704 -0.015128219968 0.00993834 84.26182352 -0.12557813297 0.00239418 83.677941133 
-0.075346381392 0.000864337 83.866979081 -0.27284806167 0.00161656 83.447457062 -0.19030791016 0.000276947 83.57546291 
-0.45648712689 0.00110076 83.285714127 -0.34505489716 0.000240666 83.361127897 -0.66677621401 0.000626784 83.169849214 
-0.52919732152 0.000226696 83.200904322 -0.89473701439 0.000163475 83.078911014 -0.73328309748 0.000209959 83.073876097 
-1.1315788321 -0.000310255 82.992408832 -0.94829076926 0.000174451 82.959934769 -1.368051008 -0.000810421 82.890241008 
-1.1650609319 0.000107775 82.839610932 -1.5938030613 -0.00134638 82.751693061 -1.3737470543 -2.33841e-06 82.693377054 
-1.7968234636 -0.00191645 82.555283464 -1.5633971875 -0.000165916 82.501107188 -1.9631337766 -0.00250275 82.278723777 
-1.7215607703 -0.000388488 82.24277077 -2.0766835613 -0.0030653 81.899753561 -1.834322866 -0.000667835 81.897832866 
-2.119874533 -0.00353705 81.396824533 -1.8865521006 -0.000990232 81.447242101 -2.0746330836 -0.00382227 80.751943084 
-1.8627931203 -0.00132695 80.87421312 -1.9246123449 -0.00380233 79.953682345 -1.7488769542 -0.0016327 80.167566954 
-1.5342938856 -0.00184749 79.324493886 -0.019828070851 0.00677777 84.080039371 -0.013443368269 0.00986304 84.316602368 
-0.110190631 0.0021587 83.728022631 -0.065251672888 0.000811741 83.908319473 -0.2399813214 0.00143579 83.461767321 
-0.16510167508 0.000222298 83.591031675 -0.40148405867 0.000957151 83.257217059 -0.29948426695 0.000165822 83.341815267 
-0.58525084215 0.000510449 83.093515842 -0.4587068059 0.000127593 83.140402806 -0.78223360196 7.24699e-05 82.951265602 
-0.63361547764 8.40818e-05 82.967738478 -0.98344262134 -0.000369808 82.811462621 -0.81527757719 2.28586e-05 82.805617577 
-1.1795080616 -0.000824505 82.655508062 -0.99461409554 -6.47642e-05 82.636203096 -1.3602628433 -0.00129336 82.464982843 
-1.1620616203 -0.000186623 82.44181162 -1.5144508757 -0.00176827 82.221070876 -1.3073273146 -0.000347736 82.205257315 
-1.6296117641 -0.00222773 81.905211764 -1.4192605266 -0.000548475 81.909240527 -1.6922752839 -0.00263354 81.499865284 
-1.4860201708 -0.000782274 81.537670171 -1.688609734 -0.00292907 80.989489734 -1.4955270834 -0.00103341 81.076017083 
-1.6055665465 -0.00304085 80.362576547 -1.4363213519 -0.00127554 80.513431352 -1.4328107843 -0.00288576 79.614440784 
-1.2990766418 -0.00147211 79.843986642 -1.078467704 -0.00157974 79.070175704 -0.01642032633 0.00635149 84.106500126 
-0.01166844115 0.00958096 84.320101641 -0.094092019354 0.0018958 83.739500219 -0.05494767193 0.000748291 83.908910672 
-0.20538663462 0.0012408 83.447301635 -0.13926459555 0.000172211 83.575334596 -0.34357491586 0.00081021 83.208935916 
-0.25271410944 0.000102342 83.300309109 -0.49979730211 0.000402718 83.006009302 -0.3865200977 4.75927e-05 83.066221098 
-0.66531962413 2.04361e-06 82.820941624 -0.53213121008 -1.36946e-05 82.85643921 -0.83138110732 -0.000398139 82.636788107 
-0.6810594485 -9.05772e-05 82.654736449 -0.98893504172 -0.000799864 82.436836042 -0.82467368306 -0.000188511 82.445293683 
-1.1284173573 -0.00119966 82.204867357 -0.95403662892 -0.000311782 82.212675629 -1.239657169 -0.00158594 81.924977169 
-1.0598113785 -0.000461833 81.942171378 -1.3119097473 -0.00193681 81.582139747 -1.1323226058 -0.000635891 81.619492606 
-1.3341887737 -0.00221847 81.162718774 -1.1617694773 -0.00082549 81.232129477 -1.2959817622 -0.00238542 80.655841762 
-1.1387521851 -0.00101535 80.769572185 -1.1883089853 -0.00238333 80.055078985 -1.0551547195 -0.00118314 80.22493572 
-1.0053047845 -0.00215602 79.360118785 -0.90527767863 -0.00130079 79.596737679 -0.68740073913 -0.00133807 78.890125739 
-0.013121807662 0.00584007 84.090321408 -0.0098859720715 0.00914292 84.280513032 -0.07801776858 0.00162045 83.717672169 
-0.044844114679 0.000678497 83.874693015 -0.17068160039 0.00104075 83.4083766 -0.11384189277 0.000127658 83.533338893 
-0.28544938846 0.000664684 83.144605388 -0.2066297064 5.03239e-05 83.240599706 -0.41427822689 0.000303968 82.910590227 
-0.31549057044 -1.42742e-05 82.98197957 -0.54903670429 -5.19171e-05 82.691042704 -0.43268682691 -8.58492e-05 82.743044827 
-0.68150718006 -0.000404059 82.47106218 -0.55042162931 -0.000170495 82.509830629 -0.80327573326 -0.00075007 82.236122733 
-0.66076916422 -0.000271035 82.268734164 -0.90565588659 -0.00108318 81.972231887 -0.75564318814 -0.000389089 82.006586188 
-0.9797070891 -0.00139039 81.666255089 -0.82682441722 -0.000523717 81.711095417 -1.0164138559 -0.00165121 81.306104856 
-0.86610301771 -0.000670478 81.370764018 -1.007071088 -0.00183721 80.881800088 -0.86558019939 -0.000820548 80.975978199 
-0.94394375105 -0.00191311 80.386017751 -0.81817567151 -0.000960324 80.519488672 -0.82120876865 -0.00183999 79.815777769 
-0.71836934783 -0.00107183 79.997612348 -0.63619254928 -0.00158121 79.173924549 -0.56315879261 -0.00113429 79.411393793 
-0.35318647601 -0.00112737 78.767691476 -0.010021398938 0.00527861 84.038675439 -0.0081578915353 0.00859411 84.205629872 
-0.062515074161 0.00134453 83.668050574 -0.035236262803 0.000605963 83.812017763 -0.1370732468 0.000842837 83.349334247 
-0.089588951927 8.89435e-05 83.469835652 -0.22912024549 0.000523992 83.067801245 -0.16260575843 9.01391e-06 83.166616758 
-0.33157069354 0.000213892 82.810381694 -0.24769285389 -5.99982e-05 82.890456854 -0.43709296161 -9.34553e-05 82.564061962 
-0.33805428282 -0.000135942 82.629702283 -0.5382258132 -0.000395272 82.316080813 -0.42674432722 -0.000222446 82.372443327 
-0.62738655183 -0.000686163 82.054110552 -0.50669915588 -0.000320316 82.107300156 -0.69690305582 -0.000957507 81.766617056 
-0.57080772291 -0.000429273 81.823293723 -0.73912763945 -0.0011962 81.442695639 -0.61201471321 -0.000546926 81.510297713 
-0.74667276806 -0.00138403 81.072985768 -0.62352370578 -0.000668154 81.159372706 -0.71281195045 -0.00149789 80.65047295 
-0.59911636968 -0.000784655 80.76348837 -0.63206843531 -0.00151117 80.170500435 -0.53361898829 -0.000884964 80.317848988 
-0.50099298023 -0.00139677 79.63271998 -0.42352652206 -0.000955139 79.820946522 -0.31910295115 -0.00113177 79.041530951 
-0.26773985348 -0.000980275 79.275669853 -0.06837822592 -0.0009472 78.689507026 -0.0071757239487 0.00469565 83.958540744 
-0.0065274597291 0.00797342 84.1032473 -0.047964289249 0.00107706 83.596066589 -0.026321167927 0.000533466 83.726648768 
-0.10541305692 0.000652413 83.274351057 -0.067018503151 5.59272e-05 83.389343703 -0.17600908336 0.000390518 82.981751083 
-0.12157654497 -2.28219e-05 83.081734545 -0.25369275696 0.000131884 82.707777757 -0.1845286309 -9.20538e-05 82.794593631 
-0.33204814882 -0.000126104 82.441583149 -0.25008262919 -0.000167917 82.518437629 -0.40449970959 -0.000378001 82.17264771 
-0.31222723205 -0.000252087 82.243711232 -0.46440353912 -0.000616546 81.890758539 -0.36484665658 -0.000343904 81.961068657 
-0.50515752087 -0.000832291 81.586473521 -0.40184298675 -0.000441824 81.661645987 -0.5203735144 -0.0010128 81.251270514 
-0.41730830544 -0.000542673 81.337422305 -0.50413974927 -0.00114242 80.878184749 -0.40574380924 -0.000641272 80.981569809 
-0.45139964985 -0.00120281 80.46204565 -0.36238228829 -0.000730262 80.589104288 -0.35845961668 -0.00117434 80.000728617 
-0.28358976425 -0.000800335 80.157238764 -0.22360670138 -0.00103866 79.495348701 -0.16737204743 -0.000840988 79.686073047 
-0.047800564164 -0.000782222 78.951316594 -0.013937298243 -0.000841825 79.179321298 -0.000794704 0.17374803665 78.645012963 
-0.0046153764458 0.00411348 83.856402306 -0.0050225825689 0.00731337 83.980362153 -0.034605685786 0.000824476 83.506671386 
-0.018215293622 0.000463067 83.624361994 -0.076249798257 0.000473257 83.187339598 -0.046438793941 2.81947e-05 83.296308794 
-0.12703103283 0.000265843 82.889435033 -0.084107394123 -4.66239e-05 82.989269994 -0.18193362525 5.72698e-05 82.604740625 
-0.126845013 -0.000113021 82.696388013 -0.23550828224 -0.000152695 82.324771282 -0.16986953858 -0.000185639 82.410546539 
-0.28212053589 -0.000356937 82.041055536 -0.20813214678 -0.000264674 82.123948147 -0.31610619369 -0.000547204 81.745313194 
-0.23647759431 -0.000348473 81.829493594 -0.33192466283 -0.000713919 81.430124663 -0.24982006831 -0.000434714 81.520057068 
-0.32436665981 -0.000845709 81.08889266 -0.24333038909 -0.000519894 81.189555389 -0.28881620662 -0.000929422 80.716698207 
-0.21267419771 -0.00059913 80.833113198 -0.22159950343 -0.000950727 80.310263503 -0.1543037092 -0.000666144 80.447230709 
-0.12039953325 -0.000895416 79.868829433 -0.065807919735 -0.000713581 80.03076252 -0.000751414 0.015257902709 79.394671197 
-0.000733715 0.053692396595 79.584920203 -0.000511427 0.18351669544 78.893859305 -0.000719501 0.20313051375 79.114111486 
-0.000666239 0.37911841369 78.625825586 -0.0023510102787 0.00354885 83.7383509 -0.0036588009803 0.00664047 83.843472691 
-0.022567824979 0.00059099 83.404734425 -0.010972098008 0.000396229 83.510343798 -0.04988554394 0.00030783 83.091945344 
-0.027998133891 5.18839e-06 83.194799934 -0.082699685416 0.00015093 82.793480285 -0.050477464237 -6.38501e-05 82.892276664 
-0.11700741322 -1.05668e-05 82.503091413 -0.075056920775 -0.00012534 82.598186321 -0.14832399657 -0.000175333 82.214557997 
-0.097928612073 -0.000192617 82.307080912 -0.17196719676 -0.000335372 81.921165197 -0.11498776014 -0.000264808 82.01352676 
-0.18323625232 -0.000482083 81.616582252 -0.12202052486 -0.000339645 81.711883525 -0.17760545908 -0.000606214 81.295237459 
-0.1149015819 -0.000414383 81.396882582 -0.15093495514 -0.000697612 80.952189955 -0.089792764714 -0.000485489 81.064103465 
-0.099727015962 -0.000745373 80.584100716 -0.043379953337 -0.000548547 80.710150453 -0.021428733287 -0.000738429 80.189212063 
-0.000598336 0.026869345894 80.333033354 -0.000666645 0.085226455915 79.767943544 -0.000629157 0.12241147212 79.932659528 
-0.000522364 0.21985742513 79.323312575 -0.000635447 0.2433214128 79.511045587 -0.000302311 0.38009028699 78.861194713 
-0.000612584 0.38798883081 79.072757169 -0.000558164 0.55288967683 78.625175323 -0.00037864929772 0.00301377 83.609882006 
-0.0024422008969 0.0059757 83.698378271 -0.011893365337 0.000379037 83.294740265 -0.0045972235546 0.000333936 83.389088724 
-0.026435216607 0.000157527 82.991541017 -0.011724003556 -1.37009e-05 83.088304604 -0.04321311012 4.62745e-05 82.69615251 
-0.020746801231 -7.58594e-05 82.793337001 -0.059177171358 -7.21373e-05 82.404298071 -0.029247112525 -0.00013118 82.501472213 
-0.070772902011 -0.000195465 82.111325802 -0.034330672636 -0.000191872 82.209134773 -0.074232694523 -0.000315423 81.812586395 
-0.032786955973 -0.000256335 81.912361756 -0.065778424551 -0.000423516 81.503413125 -0.021291216364 -0.000321971 81.607282716 
-0.041820420805 -0.000511084 81.179501821 -0.000385869 0.003393879722 81.29020142 -0.000569213 0.0008287115241 80.837890088 
-0.000444642 0.044213806953 80.958178093 -0.000588933 0.064717972903 80.476140527 -0.000494402 0.10360518883 80.609013811 
-0.00056175 0.15149936087 80.093929639 -0.000530877 0.1832660923 80.241940908 -0.000480527 0.26165377785 79.692353222 
-0.000549716 0.28391216176 79.857621838 -0.000340633 0.39422197362 79.274950026 -0.000546989 0.4050453276 79.458764672 
-0.000141291 0.54657311979 78.84735088 -0.00051979 0.54474304729 79.049857953 -0.000467202 0.69951063739 78.637721363 
0.0013158260282 0.00251632 83.475994604 -0.0013719218428 0.00533529 83.550179022 -0.0025622154688 0.000189649 83.180484905 
0.00027679 0.00093700158501 83.264997168 -0.0058742975804 2.29135e-05 82.889120068 -2.90746e-05 0.0024426203406 82.98022368 
-0.0085390742796 -4.7983e-05 82.599646344 -8.38497e-05 0.0051816771256 82.694954463 -0.008380413179 -0.000127845 82.309463063 
-0.000132375 0.010735756042 82.407856044 -0.0027113306006 -0.000213995 82.015593031 -0.000185895 0.02116472393 82.117131276 
-0.000298282 0.011377680929 81.714961019 -0.000242347 0.038853973511 81.820295126 -0.000372621 0.036812204543 81.404276195 
-0.000299017 0.066311581614 81.514756418 -0.000429087 0.076334137239 81.080916063 -0.000352998 0.10596950218 81.198402498 
-0.000459937 0.13229767601 80.742812324 -0.000401146 0.15998662721 80.869286373 -0.000457819 0.2064571805 80.38893982 
-0.000440094 0.23005130949 80.526516691 -0.00041623 0.29974475307 80.019715247 -0.000466382 0.31718053112 80.170052469 
-0.000330195 0.41206101318 79.636901987 -0.000476722 0.42152050614 79.801308494 -0.00019711 0.54207033235 79.244236668 
-0.000468389 0.54217571145 79.423268289 -1.76711e-05 0.68705337894 78.847265621 -0.000439663 0.67705821521 79.040512785 
-0.000390557 0.82280978665 78.659260213 0.00206149 0.0027530288885 83.340990061 -0.00044234007071 0.00473141 83.403075566 
2.28162e-05 0.0054888015082 83.065372328 0.000225113 0.0056808496688 83.14157342 -9.60672e-05 0.011918544532 82.787290455 
-4.14915e-05 0.014619117903 82.873366982 -0.000131964 0.021516338205 82.505676562 -8.88338e-05 0.02751070485 82.599046395 
-0.000178002 0.035674349541 82.21961215 -0.000130421 0.045202127785 82.318765472 -0.00023141 0.056289772155 81.927601028 
-0.000176667 0.069006774238 82.031811726 -0.00028446 0.085488472552 81.627649827 -0.000225253 0.10056637122 81.737084629 
-0.000329657 0.12542432444 81.318052676 -0.000273494 0.14165327834 81.433479722 -0.000359873 0.17808522231 80.997178778 
-0.000318595 0.19398482028 81.11967618 -0.000368426 0.24510852989 80.66426247 -0.0003577 0.25903571976 80.79502728 
-0.000349298 0.32758412289 80.319097877 -0.00038792 0.33786192341 80.459454077 -0.000297498 0.42588032182 79.962738678 
-0.000406468 0.43092811578 80.113843884 -0.00020959 0.53946403443 79.597507966 -0.000410873 0.53794710888 79.759855891 
-8.42841e-05 0.66676895674 79.227117043 -0.000399283 0.65774848817 79.400833512 7.69212e-05 0.80509400348 78.856895997 
-0.000370779 0.78818060173 79.041227398 -0.000325927 0.92607336867 78.686622631 0.00165193 0.0039571405724 83.208371209 
0.00035522373039 0.00417293 83.260968795 -0.000122204 0.012350227306 82.952611473 0.000179017 0.0096978505377 83.021923949 
-0.000199913 0.027126824861 82.688369275 -5.14492e-05 0.024957999285 82.770149501 -0.000205979 0.047250686522 82.415970413 
-9.16406e-05 0.046507731922 82.507538168 -0.000222853 0.073424585201 82.135685015 -0.000126496 0.074558861653 82.235137938 
-0.0002479 0.10684091493 81.847304085 -0.000165715 0.10977009518 81.953426905 -0.000273987 0.14892555352 81.550122446 
-0.000206869 0.15312414175 81.662594858 -0.000294308 0.20114494039 81.24332606 -0.000247397 0.20574612252 81.362429877 
-0.000302527 0.26483260441 80.926482396 -0.000284683 0.26872650296 81.052608497 -0.000292909 0.3410074545 80.599733546 
-0.000316162 0.34295344796 80.733388552 -0.000260513 0.43021739441 80.263493606 -0.000339372 0.4289535555 80.405505444 
-0.000201491 0.5323793908 79.919550609 -0.000352066 0.52674667762 80.070372322 -0.00011348 0.64665116142 79.570474839 
-0.000352391 0.63571364806 79.730085352 3.97871e-06 0.77132893443 79.219935066 -0.000339115 0.75450272218 79.388134278 
0.000149017 0.90379026735 78.873020733 -0.000311845 0.88095733467 79.048619665 -0.000271453 1.0121180005 78.717072 
0.00128852 0.0049537905987 83.081641589 0.0010311037005 0.00366602 83.126859706 -0.000246631 0.018127193796 82.844713906 
0.000138469 0.013057606783 82.908756193 -0.000289415 0.039968670426 82.59427843 -5.9378e-05 0.033628837609 82.672888562 
-0.000270465 0.069020310994 82.331761589 -9.29296e-05 0.062472323929 82.421958776 -0.0002626 0.10538887874 82.058328121 
-0.000121501 0.099260149995 82.15801485 -0.000263458 0.14965043495 81.774961565 -0.000154178 0.14408732918 81.882630671 
-0.000266588 0.20261578934 81.481750211 -0.000188523 0.19736389455 81.596591105 -0.000265905 0.26515436373 81.179076636 
-0.000222154 0.25965390588 81.300781094 -0.000255829 0.33802951625 80.867210484 -0.000252662 0.33150906891 80.995777931 
-0.000231448 0.42174523325 80.547003767 -0.000277767 0.41331880933 80.682546191 -0.000188688 0.51639937139 80.219789629 
-0.000295367 0.50517058093 80.362435419 -0.000124557 0.62155898426 79.887485016 -0.000303645 0.60672699113 80.037181009 
-3.74327e-05 0.73615416254 79.552897837 -0.000301208 0.71711926791 79.709408732 7.26458e-05 0.8584098779 79.219839122 
-0.000287257 0.83487279333 79.382543207 0.000203699 0.98581212808 78.893138872 -0.000261733 0.95786513625 79.060519864 
-0.000225652 1.083330925 78.748499075 0.000970955 0.0057684007011 82.963204959 0.0015962414916 0.00321484 83.003449289 
-0.000351955 0.022930165526 82.743992034 0.000103345 0.015830849463 82.804277651 -0.000365533 0.050675644758 82.506841455 
-6.5641e-05 0.040804810818 82.583301789 -0.000325935 0.087204803731 82.254285796 -9.32137e-05 0.075711628198 82.343637572 
-0.000297416 0.13211765613 81.988289344 -0.000116108 0.11977245404 82.088237546 -0.000277958 0.18546132887 81.710532671 
-0.000142883 0.17260342065 81.819375579 -0.000261811 0.24751562765 81.422101372 -0.000171154 0.23412980671 81.538835193 
-0.000243597 0.31863703276 81.124177967 -0.000198747 0.3044338196 81.24790118 -0.000218433 0.39910760456 80.817836395 
-0.000223465 0.38361028753 80.948053712 -0.00018211 0.48899806719 80.504338933 -0.000243288 0.47163326938 80.640964731 
-0.000131249 0.58804039414 80.185635606 -0.000256417 0.56823045921 80.328196541 -6.34962e-05 0.69552912366 79.863966876 
-0.000261371 0.67277815557 80.012102844 2.22658e-05 0.81022878179 79.542369218 -0.000257095 0.78421767979 79.69553232 
0.000125718 0.93033387712 79.224584123 -0.000243084 0.90099498973 79.38173501 0.000244923 1.0534509654 78.914969035 
-0.000219485 1.0210394558 79.074870544 -0.000187358 1.1417821889 78.779317811 0.000698152 0.0064250548056 82.855464915 
0.002061426057 0.00282197 82.892738454 -0.000439772 0.026867551708 82.652257948 7.34659e-05 0.018085049883 82.71049535 
-0.000429297 0.059477040869 82.427481359 -7.05388e-05 0.046652715548 82.502805784 -0.000372939 0.10218131331 82.184477687 
-9.2883e-05 0.086522261253 82.273702139 -0.000327463 0.15415649909 81.925914501 -0.000110803 0.1365454021 82.026544598 
-0.000291214 0.21500326891 81.654072731 -0.000132407 0.19594008189 81.764209918 -0.000259123 0.28455487115 81.370838129 
-0.000155403 0.26422314148 81.489082859 -0.00022647 0.36273184832 81.077895152 -0.000177824 0.34107801001 81.20314999 
-0.000188992 0.44941504886 80.777022951 -0.000197679 0.4262186691 80.908595331 -0.000143075 0.54431670731 80.470093293 
-0.000213177 0.51927606506 80.607197935 -8.58932e-05 0.64687654773 80.159270452 -0.000222766 0.61968500151 80.301330998 
-1.55651e-05 0.75617368211 79.847113318 -0.000225225 0.72659632381 79.993562676 6.86855e-05 0.87085544417 79.536879556 
-0.000219743 0.8388070375 79.686658962 0.000166398 0.9891120075 79.232131992 -0.000206015 0.95471509686 79.384187903 
0.000275757 1.1086639916 78.937146008 -0.000184303 1.0723046253 79.089925375 -0.000155658 1.1891788379 78.808261162 
0.000468594 0.006945657535 82.760024712 0.0024366917913 0.00248887 82.796527998 -0.000511667 0.030040532835 82.570922667 
4.86285e-05 0.019882018492 82.628715482 -0.000481735 0.066588627285 82.357519173 -7.43151e-05 0.051325611009 82.432815289 
-0.000412023 0.11430412084 82.123268879 -9.22282e-05 0.095177329028 82.213077071 -0.000352887 0.1720169806 81.871645019 
-0.000105927 0.14999179564 81.973370204 -0.000303022 0.23895983674 81.605631163 -0.000123143 0.21466284515 81.717076155 
-0.000257979 0.31459400244 81.327414998 -0.000141688 0.28837752927 81.447182471 -0.000213628 0.39848198547 81.039484015 
-0.000159793 0.3704884836 81.166178516 -0.000166242 0.4901743342 80.743922666 -0.00017565 0.46040251081 80.876452489 
-0.000112702 0.58909299598 80.442911004 -0.000187664 0.55747125917 80.580389741 -5.06162e-05 0.69444332398 80.139224676 
-0.000194482 0.66089672291 80.280672277 2.15461e-05 0.80513839396 79.835436606 -0.00019508 0.76965456298 79.979979437 
0.000104335 0.91974320593 79.534819794 -0.000188821 0.88243330324 79.681389697 0.000197233 1.0364583869 79.241051613 
-0.000175532 0.99760631951 79.38838368 0.000298575 1.1531013632 78.958118637 -0.000155536 1.1132023364 79.104547664 
-0.000129844 1.2269825101 78.83417749 0.000280596 0.0073494834878 82.678587127 0.00221627 0.0027309657573 82.716118584 
-0.000569114 0.032540077727 82.501495722 2.86312e-05 0.021275833775 82.560343266 -0.000523809 0.072204286625 82.297673213 
-7.71637e-05 0.054958283346 82.374242817 -0.000443705 0.12389214763 82.071286852 -9.14615e-05 0.10191776428 82.162483236 
-0.000373828 0.18616125519 81.826016745 -0.000101714 0.16047562699 81.929243373 -0.000313185 0.25794370729 81.565250293 
-0.000115345 0.22927391939 81.678410081 -0.000257868 0.33840388713 81.291778113 -0.00013027 0.30723458517 81.413074415 
-0.000204251 0.42681491237 81.008291088 -0.000144891 0.39345109159 81.136328908 -0.000149057 0.522462466 80.717478534 
-0.000157559 0.48708534603 80.850965654 -8.95662e-05 0.62453769491 80.421827305 -0.000166838 0.58727071636 80.559575284 
-2.37246e-05 0.73206409571 80.124121904 -0.000171531 0.6930283352 80.265046665 4.97413e-05 0.84382648783 79.827445512 
-0.000170759 0.80319967631 79.970267324 0.000131234 0.95833209203 79.534981908 -0.000164011 0.9163923623 79.678524638 
0.000220224 1.0737918947 79.250218105 -0.000151194 1.030962387 79.393107613 0.000315203 1.1881326746 78.977047325 
-0.000132661 1.1449909894 79.117809011 -0.000109372 1.2563523845 78.856327615 0.000132504 0.0076528085886 82.612054441 
0.00200439 0.0029517999833 82.65261074 -0.000613416 0.034443994616 82.444785005 1.32892e-05 0.02231209826 82.506182902 
-0.000556374 0.076490742796 82.248958657 -7.92342e-05 0.057663925612 82.327898474 -0.000468448 0.13122355729 82.029054443 
-9.07337e-05 0.10694543314 82.122537567 -0.00039041 0.19698565309 81.789159347 -9.83174e-05 0.1683054019 81.894587598 
-0.000321529 0.27248201646 81.532864984 -0.00010917 0.24019339829 81.648140602 -0.00025834 0.35664188556 81.263465114 
-0.000121298 0.32133287733 81.386691123 -0.000197627 0.44851811331 80.983953887 -0.000133243 0.41062132124 81.113534679 
-0.000136476 0.54718726889 80.697124731 -0.000143483 0.50703431765 80.831666682 -7.24767e-05 0.65166717911 80.405869821 
-0.000150704 0.60954312148 80.543981879 -3.8312e-06 0.76084081678 80.113280183 -0.000153828 0.71703282937 80.253674171 
7.05495e-05 0.87339868145 79.822246319 -0.000152078 0.82824409496 79.963636905 0.000150972 0.98780771709 79.536159283 
-0.000145028 0.94173150877 79.677163491 0.00023692 1.1022977661 79.258512234 -0.000132639 1.0558416703 79.39774833 
0.000327024 1.2148579106 78.993002089 -0.000115271 1.1686919907 79.128788009 -9.38345e-05 1.2782475717 78.874182428 
2.28449e-05 0.0078687791119 82.561528431 0.0018532 0.0031051969936 82.606704863 -0.000645661 0.035815596345 82.401596704 
2.44784e-06 0.023026428205 82.467037572 -0.000580147 0.079584499445 82.211887501 -8.06375e-05 0.059531915096 82.294389985 
-0.000486646 0.13652130906 81.996989691 -9.01484e-05 0.11042097934 82.093753021 -0.000402744 0.20481473757 81.761296262 
-9.58355e-05 0.17372213138 81.869620869 -0.000327912 0.28300336438 81.508602636 -0.000104712 0.2477531929 81.626489807 
-0.000259024 0.36984658247 81.242405418 -0.000114855 0.33109671953 81.36785728 -0.000193176 0.46423050107 80.965901499 
-0.000124908 0.42251379903 81.097321201 -0.000127722 0.56508551609 80.682287484 -0.000133441 0.52085150981 80.81807949 
-6.04841e-05 0.67129955209 80.394559448 -0.000139228 0.62496518004 80.53332982 1.01545e-05 0.78165502319 80.105712977 
-0.000141273 0.73364944936 80.245969551 8.51548e-05 0.89477753483 79.818943465 -0.000138868 0.84557517521 79.959395825 
0.000164764 1.009103303 79.537646697 -0.000131642 0.95925912654 79.676705873 0.000248486 1.1228804424 79.265319558 
-0.000119586 1.0730425995 79.401397401 0.000335061 1.2341591607 79.005560839 -0.00010306 1.1850709068 79.137069093 
-8.29352e-05 1.2933789092 78.887221091 -4.95673e-05 0.0080072594266 82.527410391 0.00176257 0.0031954809276 82.578901229 
-0.000666684 0.036703136373 82.372535364 -4.00903e-06 0.023444598948 82.443409501 -0.00059568 0.081588925005 82.186968575 
-8.14499e-05 0.06062673942 82.274222761 -0.000498602 0.13995608717 81.975505913 -8.97726e-05 0.11245929879 82.076338701 
-0.000410916 0.20989624012 81.74264476 -9.43261e-05 0.17690216309 81.854555837 -0.000332226 0.28983559966 81.4923834 
-0.000102022 0.25219178852 81.613373211 -0.000259639 0.37842143789 81.228420562 -0.000110979 0.33683183543 81.356590165 
-0.000190455 0.47443591045 80.95405509 -0.000119904 0.42949983831 81.087706162 -0.000122212 0.57670924071 80.672585759 
-0.000127425 0.52896832328 80.810120677 -5.28801e-05 0.68404682513 80.387211175 -0.000132366 0.63402486895 80.526933131 
1.90373e-05 0.79516621576 80.100929784 -0.000133779 0.74340813093 80.241542869 9.44219e-05 0.90865100747 79.817039993 
-0.000130998 0.85575180121 79.956949199 0.000173486 1.0229196422 79.538940358 -0.00012368 0.96954855125 79.676551449 
0.000255753 1.1362301488 79.270129851 -0.000111833 1.0831309245 79.403749076 0.000340038 1.2466718775 79.014108122 
-9.58156e-05 1.1946882213 79.142141779 -7.6473e-05 1.3022603811 78.895129619 -8.5561e-05 0.0080748569125 82.510301163 
-0.000677052 0.037138840307 82.35790396 -0.000603351 0.082573621142 82.174407679 -0.000504527 0.14164514212 81.964711858 
-0.000414986 0.21239479892 81.733316201 -0.000334401 0.29319548641 81.484320514 -0.000259993 0.38264034889 81.221424651 
-0.000189169 0.47945751574 80.948228484 -0.000119554 0.58242812369 80.667831876 -4.91951e-05 0.69031832709 80.383534673 
2.33472e-05 0.80181229619 80.098636704 9.89159e-05 0.91547420441 79.816237796 0.000177708 1.0297222076 79.539737792 
0.000259256 1.1428034156 79.272636584 0.000342414 1.2528258616 79.018434138 0.000937051 1.45465614 78.55780386 
0.000929593 1.4472115834 78.545518417 0.000916664 1.4345271685 78.525152831 0.000897467 1.4161968381 78.496823162 
0.000870775 1.3916163553 78.460653645 0.00083481 1.3600014645 78.417078536 0.00078706 1.3203651727 78.366344827 
0.000724016 1.2715241369 78.309015863 0.0006408 1.2120137186 78.245776281 0.000530639 1.1400914651 78.177338535 
0.000384132 1.0536886274 78.105051373 0.000188229 0.95029285808 78.030311142 -7.51923e-05 0.82691948966 77.95517651 
-0.000431279 0.67993230514 77.882385695 -0.000914884 0.50490149653 77.815578503 -0.00157418 0.29637669808 77.759723302 
-0.00247547 0.047623249568 77.72133975 -0.24971450489 -0.00370934 77.709422505 -0.60598813064 -0.00539814 77.736240131 
-1.0339214116 -0.00770422 77.818189412 -1.5488833734 -0.0108368 77.976963373 -2.1688108219 -0.0150518 78.241840822 
-2.9133746562 -0.0206363 78.650794656 -3.801539476 -0.0278409 79.252279476 -4.8461991388 -0.0367745 80.106389139 
-6.0435351231 -0.0469597 81.284175123 -7.3549872623 -0.0573007 82.862407262 -8.6770850316 -0.0642284 84.914135032 
0.00114 1.5440573039 78.362582696 0.00114065 1.5377164453 78.347533555 0.00114164 1.526928888 78.322361112 
0.00114274 1.5113395905 78.28718041 0.0011436 1.4904757764 78.242014224 0.00114359 1.463694952 78.186895048 
0.00114173 1.4301821362 78.121767864 0.00113643 1.3889759817 78.046794018 0.00112521 1.3388932929 77.962056707 
0.00110429 1.2785116692 77.867868331 0.00106788 1.2061391535 77.764580847 0.00100734 1.1197203543 77.652599646 
0.000909733 1.0167470582 77.532902942 0.000755905 0.89414333112 77.406667669 0.000517603 0.74804428554 77.275805714 
0.000153308 0.57355741865 77.143110581 -0.000397779 0.36439618484 77.012819815 -0.00122439 0.11240294339 76.891191057 
-0.19308929134 -0.00245549 76.787196091 -0.56606637257 -0.0042773 76.714107373 -1.0248119941 -0.00695616 76.690856994 
-1.5929590286 -0.0108661 76.744679029 -2.3003160562 -0.0165199 76.914176056 -3.1828387189 -0.0245722 77.252618719 
-4.2802931653 -0.0358317 77.832623165 -5.6285007129 -0.0508241 78.750080713 -7.2431657768 -0.0704343 80.124325777 
-9.0778557167 -0.0892971 82.100365717 0.00132635 1.622199463 78.194160537 0.00133515 1.6169655733 78.176544427 
0.0013501 1.6080712989 78.147058701 0.00137167 1.5952442135 78.105615787 0.00140044 1.5781153967 78.052034603 
0.00143711 1.5561877127 77.986042287 0.00148245 1.528873291 77.907476709 0.00153715 1.4954399204 77.81589008 
0.0016017 1.4550060199 77.71085398 0.00167612 1.4065434248 77.591966575 0.00175952 1.3488073435 77.458662657 
0.00184953 1.2803117241 77.310428276 0.00194125 1.1992094076 77.146620592 0.00202582 1.1032311388 76.966898861 
0.00208805 0.98944530905 76.770864691 0.00210284 0.85405467712 76.558824323 0.00202963 0.69200391 76.33147709 
0.00180373 0.49645047087 76.090937529 0.00132294 0.25799921945 75.841316781 -0.036379651958 0.000426618 75.589461652 
-0.40487907368 -0.00113646 75.347578074 -0.87291252107 -0.00375679 75.134910521 -1.4757841154 -0.00803787 74.982204115 
-2.2617388138 -0.0148863 74.936988814 -3.2946607507 -0.0256863 75.070970751 -4.6534354071 -0.0420732 75.489845407 
-6.4253327814 -0.0676019 76.340442781 -8.6667002183 -0.0977054 77.832510218 0.00148772 1.6872306393 78.055639361 
0.00150403 1.6830209421 78.035759058 0.00153191 1.6758559196 78.00246408 0.00157247 1.6655667323 77.955563268 
0.00162725 1.6518898767 77.894570123 0.00169828 1.634465871 77.819204129 0.00178811 1.6129073378 77.728692662 
0.00189985 1.5867262951 77.622473705 0.00203712 1.5553601137 77.499399886 0.00220411 1.518145822 77.358344178 
0.00240545 1.4743518608 77.198008139 0.00264607 1.4230860939 77.016733906 0.00293087 1.3632680029 76.812421997 
0.0032641 1.2935526392 76.582957361 0.00364825 1.2122211267 76.325748873 0.0040822 1.1169320492 76.037787951 
0.0045579 1.0044906094 75.716239391 0.00505477 0.87032593824 75.357880062 0.00553008 0.70782258276 74.960311417 
0.0059025 0.50723270664 74.521892293 0.00602371 0.25401541285 74.043652587 -0.073696189686 0.00562979 73.53077719 
-0.50892963197 0.00425724 72.996573632 -1.1015417389 0.00110605 72.467896739 -1.926234999 -0.00523013 71.994204999 
-3.0921777572 -0.0168731 71.661647757 -4.753371887 -0.0388569 71.609131887 -7.0936405066 -0.0687428 72.068490507 
0.00161642 1.7375387939 77.949321206 0.001639 1.7341642515 77.927685748 0.0016777 1.7284535113 77.891396489 
0.00173418 1.7202815011 77.840058499 0.00181083 1.7094804345 77.773279566 0.00191088 1.6958290538 77.690270946 
0.00203849 1.6791014583 77.590148542 0.00219893 1.6590154302 77.47193457 0.00239876 1.6352999852 77.334160015 
0.00264608 1.6076617983 77.175068202 0.0029508 1.5757800058 76.992519994 0.00332502 1.5393483643 76.783801636 
0.00378347 1.4980236941 76.545736306 0.00434396 1.4513981842 76.274401816 0.00502792 1.3989522215 75.964957778 
0.00586088 1.3399619757 75.611788024 0.00687274 1.2732830846 75.207866915 0.00809743 1.197141143 74.744968857 
0.00957127 1.1085788008 74.213541199 0.0113285 1.0027408766 73.602399123 0.0133906 0.87157543204 72.899116568 
0.0157439 0.70168445794 72.090469542 0.0182933 0.47072710989 71.16429489 0.020763 0.1412655921 70.112325408 
-0.34965362858 0.0225077 68.937333629 -1.1078838725 0.0222016 67.665463872 -2.3103773381 0.0161761 66.366767338 
-4.2344710867 0.00548502 65.206751087 0.00170606 1.7718220822 77.877407918 0.00173315 1.7690579698 77.85443203 
0.00177964 1.7643865514 77.816073449 0.00184759 1.7577258521 77.761634148 0.00194005 1.7489928402 77.69071716 
0.00206111 1.7380531121 77.602326888 0.00221617 1.7248004359 77.495569564 0.00241217 1.7091260616 77.368953938 
0.00265791 1.6909677374 77.220792263 0.00296452 1.6702782174 77.048801783 0.00334609 1.6471031351 76.850406865 
0.00382046 1.6215677031 76.622042297 0.00441029 1.593911778 76.359658222 0.00514463 1.564482242 76.057927758 
0.00606085 1.5337610717 75.710558928 0.0072075 1.5023763986 75.309213601 0.00864808 1.4710116994 74.844138301 
0.0104664 1.4403750312 74.302614969 0.012774 1.4110429822 73.668947018 0.0157199 1.3831021814 72.923507819 
0.0195044 1.3555741687 72.041505831 0.0243963 1.325373539 70.991666461 0.030755 1.2851792292 69.734840771 
0.0390382 1.2196090952 68.222570905 0.0498438 1.0975835078 66.396216492 0.063691 0.85697528039 64.18888472 
0.0809611 0.37437023683 61.533959763 -0.59592420821 0.103672 58.399600208 0.00175208 1.789199104 77.841000896 
0.00178152 1.7867463746 77.817503625 0.00183208 1.7826116836 77.778008316 0.00190604 1.7767548029 77.722015197 
0.00200678 1.7690953822 77.648924618 0.00213888 1.7595729119 77.557837088 0.00230839 1.7481466691 77.447553331 
0.00252315 1.7347856381 77.316674362 0.00279318 1.7195283913 77.163001609 0.00313129 1.7025029162 76.984437084 
0.00355385 1.6839263588 76.777683641 0.00408188 1.6641646278 76.539145372 0.00474252 1.6437717985 76.264028201 
0.00557114 1.623519195 75.946440805 0.00661426 1.6044839112 75.578896089 0.00793372 1.5880164919 75.152113508 
0.00961284 1.5759070399 74.65422296 0.0117653 1.570358799 74.070371201 0.0145482 1.5740670367 73.381232963 
0.0181826 1.590269433 72.562030567 0.0229835 1.6226503467 71.580469653 0.0294069 1.675223544 70.394006456 
0.0381264 1.751850105 68.945779895 0.0501342 1.8550481248 67.158981875 0.0669877 1.9834011152 64.928838885 
0.0907894 2.1249929518 62.109437048 0.125612 2.2439508779 58.497539122 0.175413 2.2394799507 53.810730049 
0.00175208 1.789199104 77.841000896 0.00178152 1.7867463746 77.817503625 0.00183208 1.7826116836 77.778008316 
0.00190604 1.7767548029 77.722015197 0.00200678 1.7690953822 77.648924618 0.00213888 1.7595729119 77.557837088 
0.00230839 1.7481466691 77.447553331 0.00252315 1.7347856381 77.316674362 0.00279318 1.7195283913 77.163001609 
0.00313129 1.7025029162 76.984437084 0.00355385 1.6839263588 76.777683641 0.00408188 1.6641646278 76.539145372 
0.00474252 1.6437717985 76.264028201 0.00557114 1.623519195 75.946440805 0.00661426 1.6044839112 75.578896089 
0.00793372 1.5880164919 75.152113508 0.00961284 1.5759070399 74.65422296 0.0117653 1.570358799 74.070371201 
0.0145482 1.5740670367 73.381232963 0.0181826 1.590269433 72.562030567 0.0229835 1.6226503467 71.580469653 
0.0294069 1.675223544 70.394006456 0.0381264 1.751850105 68.945779895 0.0501342 1.8550481248 67.158981875 
0.0669877 1.9834011152 64.928838885 0.0907894 2.1249929518 62.109437048 0.125612 2.2439508779 58.497539122 
0.175413 2.2394799507 53.810730049 0.00170606 1.7718220822 77.877407918 0.00173315 1.7690579698 77.85443203 
0.00177964 1.7643865514 77.816073449 0.00184759 1.7577258521 77.761634148 0.00194005 1.7489928402 77.69071716 
0.00206111 1.7380531121 77.602326888 0.00221617 1.7248004359 77.495569564 0.00241217 1.7091260616 77.368953938 
0.00265791 1.6909677374 77.220792263 0.00296452 1.6702782174 77.048801783 0.00334609 1.6471031351 76.850406865 
0.00382046 1.6215677031 76.622042297 0.00441029 1.593911778 76.359658222 0.00514463 1.564482242 76.057927758 
0.00606085 1.5337610717 75.710558928 0.0072075 1.5023763986 75.309213601 0.00864808 1.4710116994 74.844138301 
0.0104664 1.4403750312 74.302614969 0.012774 1.4110429822 73.668947018 0.0157199 1.3831021814 72.923507819 
0.0195044 1.3555741687 72.041505831 0.0243963 1.325373539 70.991666461 0.030755 1.2851792292 69.734840771 
0.0390382 1.2196090952 68.222570905 0.0498438 1.0975835078 66.396216492 0.063691 0.85697528039 64.18888472 
0.0809611 0.37437023683 61.533959763 -0.59592420821 0.103672 58.399600208 0.00161642 1.7375387939 77.949321206 
0.001639 1.7341642515 77.927685748 0.0016777 1.7284535113 77.891396489 0.00173418 1.7202815011 77.840058499 
0.00181083 1.7094804345 77.773279566 0.00191088 1.6958290538 77.690270946 0.00203849 1.6791014583 77.590148542 
0.00219893 1.6590154302 77.47193457 0.00239876 1.6352999852 77.334160015 0.00264608 1.6076617983 77.175068202 
0.0029508 1.5757800058 76.992519994 0.00332502 1.5393483643 76.783801636 0.00378347 1.4980236941 76.545736306 
0.00434396 1.4513981842 76.274401816 0.00502792 1.3989522215 75.964957778 0.00586088 1.3399619757 75.611788024 
0.00687274 1.2732830846 75.207866915 0.00809743 1.197141143 74.744968857 0.00957127 1.1085788008 74.213541199 
0.0113285 1.0027408766 73.602399123 0.0133906 0.87157543204 72.899116568 0.0157439 0.70168445794 72.090469542 
0.0182933 0.47072710989 71.16429489 0.020763 0.1412655921 70.112325408 -0.34965362858 0.0225077 68.937333629 
-1.1078838725 0.0222016 67.665463872 -2.3103773381 0.0161761 66.366767338 -4.2344710867 0.00548502 65.206751087 
0.00148772 1.6872306393 78.055639361 0.00150403 1.6830209421 78.035759058 0.00153191 1.6758559196 78.00246408 
0.00157247 1.6655667323 77.955563268 0.00162725 1.6518898767 77.894570123 0.00169828 1.634465871 77.819204129 
0.00178811 1.6129073378 77.728692662 0.00189985 1.5867262951 77.622473705 0.00203712 1.5553601137 77.499399886 
0.00220411 1.518145822 77.358344178 0.00240545 1.4743518608 77.198008139 0.00264607 1.4230860939 77.016733906 
0.00293087 1.3632680029 76.812421997 0.0032641 1.2935526392 76.582957361 0.00364825 1.2122211267 76.325748873 
0.0040822 1.1169320492 76.037787951 0.0045579 1.0044906094 75.716239391 0.00505477 0.87032593824 75.357880062 
0.00553008 0.70782258276 74.960311417 0.0059025 0.50723270664 74.521892293 0.00602371 0.25401541285 74.043652587 
-0.073696189686 0.00562979 73.53077719 -0.50892963197 0.00425724 72.996573632 -1.1015417389 0.00110605 72.467896739 
-1.926234999 -0.00523013 71.994204999 -3.0921777572 -0.0168731 71.661647757 -4.753371887 -0.0388569 71.609131887 
-7.0936405066 -0.0687428 72.068490507 0.00132635 1.622199463 78.194160537 0.00133515 1.6169655733 78.176544427 
0.0013501 1.6080712989 78.147058701 0.00137167 1.5952442135 78.105615787 0.00140044 1.5781153967 78.052034603 
0.00143711 1.5561877127 77.986042287 0.00148245 1.528873291 77.907476709 0.00153715 1.4954399204 77.81589008 
0.0016017 1.4550060199 77.71085398 0.00167612 1.4065434248 77.591966575 0.00175952 1.3488073435 77.458662657 
0.00184953 1.2803117241 77.310428276 0.00194125 1.1992094076 77.146620592 0.00202582 1.1032311388 76.966898861 
0.00208805 0.98944530905 76.770864691 0.00210284 0.85405467712 76.558824323 0.00202963 0.69200391 76.33147709 
0.00180373 0.49645047087 76.090937529 0.00132294 0.25799921945 75.841316781 -0.036379651958 0.000426618 75.589461652 
-0.40487907368 -0.00113646 75.347578074 -0.87291252107 -0.00375679 75.134910521 -1.4757841154 -0.00803787 74.982204115 
-2.2617388138 -0.0148863 74.936988814 -3.2946607507 -0.0256863 75.070970751 -4.6534354071 -0.0420732 75.489845407 
-6.4253327814 -0.0676019 76.340442781 -8.6667002183 -0.0977054 77.832510218 0.00114 1.5440573039 78.362582696 
0.00114065 1.5377164453 78.347533555 0.00114164 1.526928888 78.322361112 0.00114274 1.5113395905 78.28718041 
0.0011436 1.4904757764 78.242014224 0.00114359 1.463694952 78.186895048 0.00114173 1.4301821362 78.121767864 
0.00113643 1.3889759817 78.046794018 0.00112521 1.3388932929 77.962056707 0.00110429 1.2785116692 77.867868331 
0.00106788 1.2061391535 77.764580847 0.00100734 1.1197203543 77.652599646 0.000909733 1.0167470582 77.532902942 
0.000755905 0.89414333112 77.406667669 0.000517603 0.74804428554 77.275805714 0.000153308 0.57355741865 77.143110581 
-0.000397779 0.36439618484 77.012819815 -0.00122439 0.11240294339 76.891191057 -0.19308929134 -0.00245549 76.787196091 
-0.56606637257 -0.0042773 76.714107373 -1.0248119941 -0.00695616 76.690856994 -1.5929590286 -0.0108661 76.744679029 
-2.3003160562 -0.0165199 76.914176056 -3.1828387189 -0.0245722 77.252618719 -4.2802931653 -0.0358317 77.832623165 
-5.6285007129 -0.0508241 78.750080713 -7.2431657768 -0.0704343 80.124325777 -9.0778557167 -0.0892971 82.100365717 
0.000937051 1.45465614 78.55780386 0.000929593 1.4472115834 78.545518417 0.000916664 1.4345271685 78.525152831 
0.000897467 1.4161968381 78.496823162 0.000870775 1.3916163553 78.460653645 0.00083481 1.3600014645 78.417078536 
0.00078706 1.3203651727 78.366344827 0.000724016 1.2715241369 78.309015863 0.0006408 1.2120137186 78.245776281 
0.000530639 1.1400914651 78.177338535 0.000384132 1.0536886274 78.105051373 0.000188229 0.95029285808 78.030311142 
-7.51923e-05 0.82691948966 77.95517651 -0.000431279 0.67993230514 77.882385695 -0.000914884 0.50490149653 77.815578503 
-0.00157418 0.29637669808 77.759723302 -0.00247547 0.047623249568 77.72133975 -0.24971450489 -0.00370934 77.709422505 
-0.60598813064 -0.00539814 77.736240131 -1.0339214116 -0.00770422 77.818189412 -1.5488833734 -0.0108368 77.976963373 
-2.1688108219 -0.0150518 78.241840822 -2.9133746562 -0.0206363 78.650794656 -3.801539476 -0.0278409 79.252279476 
-4.8461991388 -0.0367745 80.106389139 -6.0435351231 -0.0469597 81.284175123 -7.3549872623 -0.0573007 82.862407262 
-8.6770850316 -0.0642284 84.914135032 -5.61616e-05 1.4039969284 78.665913072 0.000511284 1.4560640889 78.562125911 
-6.16012e-05 1.3960447883 78.655055212 0.000512081 1.4511456881 78.553934312 -7.0771e-05 1.3824945793 78.637135421 
0.000513582 1.4411328771 78.537657123 -8.38354e-05 1.3629005461 78.612269454 0.000515587 1.4257131417 78.513306858 
-0.000101043 1.3366190403 78.58088096 0.000517777 1.4043665309 78.481103469 -0.000122746 1.3028167167 78.543203283 
0.000519674 1.3764140451 78.441275955 -0.000149431 1.2604281168 78.499781883 0.0005206 1.3409754269 78.394164573 
-0.000181759 1.2081724007 78.451477599 0.000519599 1.2969559964 78.340224004 -0.000220621 1.1444989409 78.398971059 
0.000515341 1.2430524528 78.279927547 -0.000267209 1.0675417463 78.343568254 0.000505969 1.1776672134 78.214272787 
-0.000323119 0.97510955698 78.286807443 0.000488896 1.0989008692 78.143989131 -0.000390467 0.8645697329 78.230469267 
0.000460506 1.0044825158 78.070647484 -0.000472052 0.7328082705 78.17728573 0.000415735 0.8917070299 77.99597297 
-0.000571533 0.57609485693 78.130455143 0.000347483 0.75727763328 77.922261367 -0.000693638 0.38995397593 78.094455024 
0.000245771 0.59721039297 77.852797607 -0.000844358 0.16898888985 78.07485611 9.65756e-05 0.40662754572 77.791781454 
-0.093315304851 -0.00103105 78.079330705 -0.000119819 0.17951449925 77.745151501 -0.40481335319 -0.00126235 78.117847353 
-0.091572060068 -0.000431083 77.72080809 -0.77491588615 -0.00154747 78.203239886 -0.41586037736 -0.000875925 77.729127377 
-1.214720218 -0.00189454 78.352820218 -0.8047367562 -0.00150818 77.784737756 -1.7369264852 -0.00230666 78.588696485 
-1.2720904239 -0.00240191 77.906640424 -2.3553200796 -0.00277422 78.93914008 -1.8344377304 -0.00365749 78.12058773 
-3.0833081204 -0.00325913 79.44022812 -2.5105597457 -0.0054068 78.460149746 -3.930932802 -0.00367144 80.135512802 
-3.3200014044 -0.00781606 78.968721404 -4.8990192982 -0.00381019 81.076479298 -4.2794657661 -0.0110765 79.700255766 
-5.9692297885 -0.00334867 82.319149789 -5.3954178598 -0.0153623 80.71972786 -7.0876957966 -0.00164528 83.917715797 
-6.6503816715 -0.0208219 82.099431671 -8.1411342586 0.0024484 85.913784259 -7.9798300408 -0.0269262 83.911570041 
-9.2371148426 -0.0349607 86.208824843 -3.33341e-05 1.4977768689 78.458193131 0.00058865 1.5450593719 78.367220628 
-3.7613e-05 1.4908745841 78.444475416 0.000591309 1.5408733134 78.357186687 -4.48105e-05 1.4791342483 78.421755752 
0.00059662 1.5323455958 78.337124404 -5.50341e-05 1.4621602261 78.389949774 0.000604561 1.5192145376 78.306945462 
-6.8453e-05 1.4394088704 78.34918113 0.00061509 1.5010714057 78.266768594 -8.53185e-05 1.4101866072 78.299683393 
0.000628118 1.477348828 78.216621172 -0.000105995 1.3735971884 78.241702812 0.000643484 1.4473284558 78.156541544 
-0.000131003 1.3285578906 78.175502109 0.000660909 1.4101276179 78.086582382 -0.000161081 1.2737342835 78.101465717 
0.000679919 1.3646648093 78.006815191 -0.000197272 1.2075732302 78.02010677 0.000699745 1.3096632553 77.917436745 
-0.000241036 1.1281833098 77.93237669 0.000719159 1.243572166 77.818677834 -0.000294414 1.0333028001 77.8390772 
0.00073624 1.1645148796 77.71111512 -0.000360242 0.92018217049 77.74187883 0.000748018 1.0702526931 77.595487307 
-0.00044244 0.78549373158 77.642741268 0.000749951 0.95802511864 77.472618881 -0.000546385 0.62511461575 77.544543384 
0.000735142 0.82439390253 77.344248097 -0.000679396 0.43391360943 77.451218391 0.000693181 0.66505019754 77.212670802 
-0.000851314 0.20543996197 77.368498038 0.000608413 0.4744915498 77.08159145 -0.068474847435 -0.00107515 77.304160447 
0.000457364 0.24562079847 76.956095202 -0.39820564171 -0.00136765 77.269170642 -0.030804178144 0.00020493 76.844028378 
-0.79690338279 -0.00174945 77.278798383 -0.36688073923 -0.000201273 76.756391739 -1.281085596 -0.00224396 77.354365596 
-0.77844369701 -0.000839109 76.709615697 -1.871054566 -0.00287362 77.524834566 -1.286075002 -0.00182384 76.726865002 
-2.5908491848 -0.00364837 77.829809185 -1.9160778129 -0.00332397 76.841257813 -3.4668615941 -0.0045472 78.321801594 
-2.7009694326 -0.00558372 77.098979433 -4.5238380099 -0.00544626 79.06912801 -3.6784978033 -0.00894219 77.563507803 
-5.7760434997 -0.00611613 80.1566435 -4.8872915026 -0.0138577 78.318931503 -7.2091068837 -0.00570075 81.683976884 
-6.3554652627 -0.020898 79.472865263 -8.7500331886 -0.00415918 83.755223189 -8.0757275939 -0.0304764 81.151797594 
-9.9610484101 -0.0445495 83.49875841 -1.05919e-05 1.581328684 78.275771316 0.000658627 1.6228149013 78.199115099 
-1.36431e-05 1.5755322045 78.259387795 0.000663137 1.6193432614 78.187436739 -1.87461e-05 1.5656627489 78.231957251 
0.000672243 1.6123053709 78.163884629 -2.59347e-05 1.5514165454 78.193593455 0.000686113 1.6014815976 78.128368402 
-3.52715e-05 1.5323726626 78.144017337 0.000704999 1.5865464161 78.080903584 -4.68654e-05 1.5079611812 78.083358819 
0.000729237 1.5670770334 78.021112967 -6.08984e-05 1.4774805137 78.011259486 0.000759236 1.5425312809 77.948828719 
-7.76641e-05 1.4400836299 77.92777637 0.000795473 1.5122345865 77.863795414 -9.76237e-05 1.3947327942 77.832587206 
0.000838465 1.4754057454 77.765474255 -0.000121485 1.3402021919 77.725797808 0.000888725 1.4310708375 77.653549163 
-0.000150318 1.2750276429 77.607152357 0.000946691 1.3781147886 77.527435211 -0.000185714 1.1974423053 77.476647695 
0.0010126 1.3151792265 77.386690773 -0.000230015 1.1052766139 77.334553386 0.00108629 1.2406053776 77.230634622 
-0.00028664 0.99584973823 77.181340262 0.00116686 1.152369131 77.058870869 -0.00036054 0.86579246062 77.017618539 
0.00125215 1.0478962781 76.871123722 -0.000458844 0.71077450061 76.845194499 0.00133789 0.92388394121 76.667088059 
-0.000591752 0.5251606265 76.666743373 0.00141635 0.77598043515 76.447503565 -0.000773768 0.30150614943 76.486412851 
0.00147419 0.59835721375 76.213757786 -0.00102533 0.029870988679 76.311157011 0.00148899 0.38307134581 75.969034654 
-0.30310534247 -0.00137484 76.151599342 0.00142371 0.11916846294 75.718722537 -0.71541685441 -0.00186087 76.023916854 
-0.20858723569 0.00121779 75.472690736 -1.2311778367 -0.00253392 75.952676837 -0.62145820992 0.000772792 75.24663721 
-1.882257206 -0.00345398 75.974007206 -1.1490519351 -6.99214e-05 75.065862935 -2.7095803649 -0.0046857 76.140790365 
-1.8321486968 -0.00156689 74.970008697 -3.7629112684 -0.00623653 76.528601268 -2.7255984006 -0.00412005 75.019348401 
-5.0966417385 -0.00812534 77.241951739 -3.8998494907 -0.0083839 75.302919491 -6.7553373092 -0.0094086 78.421327309 
-5.4373164239 -0.0152713 75.949496424 -8.7458555438 -0.0120014 80.238025544 -7.4161829385 -0.0264132 77.130942938 
-9.8627865477 -0.0436504 79.084936548 1.05695e-05 1.6527205209 78.121749479 0.000718504 1.6874901839 78.060909816 
8.71669e-06 1.6479801411 78.102999859 0.000724716 1.6846910538 78.047588946 5.66427e-06 1.6399128583 78.071457142 
0.000737311 1.6790095224 78.021050478 1.46118e-06 1.628298068 78.027131932 0.000756642 1.6702987459 77.980901254 
-3.83374e-06 1.6128195665 77.969640434 0.000783251 1.6583276726 77.926952327 -1.01634e-05 1.5930540858 77.898705914 
0.000817885 1.6427899702 77.85882003 -1.74905e-05 1.5685090324 77.813860968 0.000861525 1.6233224707 77.775827529 
-2.58241e-05 1.538559302 77.714450698 0.000915407 1.5994628646 77.677507135 -3.52607e-05 1.5024927917 77.599937208 
0.000981059 1.5706963494 77.562803651 -4.60428e-05 1.4594638402 77.46940616 0.00106033 1.536420907 77.430679093 
-5.86474e-05 1.4084640679 77.321875932 0.00115544 1.4959204094 77.279919591 -7.3915e-05 1.3482990209 77.156310979 
0.00126899 1.4483946166 77.109045383 -9.32401e-05 1.2775187584 76.971441242 0.00140398 1.3928546734 76.916225327 
-0.000118854 1.1943000075 76.765689993 0.00156376 1.3281113651 76.699198635 -0.000154246 1.0963150553 76.537914945 
0.00175194 1.2526437987 76.455806201 -0.000204785 0.98048926843 76.286670732 0.00197213 1.1644496158 76.183040384 
-0.000278666 0.84271013201 76.010795868 0.00222738 1.0608245976 75.878115402 -0.000388315 0.67727051661 75.710050483 
0.00251923 0.93796195589 75.537982044 -0.000552506 0.47619689178 75.385311108 0.00284582 0.7904052549 75.159896745 
-0.000799504 0.22814971141 75.039567289 0.00319855 0.61018901823 74.741788982 -0.083136533284 -0.00117164 74.679839233 
0.00355599 0.38551046254 74.283371537 -0.48110581352 -0.0017318 74.319363814 0.00387301 0.098714918962 73.787973081 
-0.9995430695 -0.00257087 73.981750069 -0.27677985515 0.00406148 73.264886855 -1.6867533358 -0.00381947 73.706573336 
-0.78107218908 0.00395403 72.734443189 -2.6104348025 -0.00562043 73.558564803 -1.4743754444 0.00324863 72.235268444 
-3.8618275897 -0.00825549 73.63937759 -2.4458289027 0.00136398 71.835928903 -5.5530137061 -0.0110699 74.104173706 
-3.822644635 -0.00257566 71.651974635 -7.8040227731 -0.018032 75.168122773 -5.7753569075 -0.011047 71.862376907 
-8.4886929353 -0.0240646 72.759792935 2.87435e-05 1.7102303507 77.998929649 0.000765841 1.7375047119 77.954805288 
2.79573e-05 1.7064101512 77.978119849 0.000773467 1.7352520627 77.940347937 2.67344e-05 1.6999255286 77.943174471 
0.000788968 1.7307048906 77.911435109 2.52045e-05 1.690619619 77.893800381 0.000812854 1.7237592698 77.86757073 
2.35466e-05 1.678281913 77.829608087 0.000845917 1.7142588398 77.80846116 2.19845e-05 1.662627248 77.750112752 
0.00088927 1.7020141817 77.733515818 2.07799e-05 1.6433342303 77.65433577 0.00094439 1.6867918629 77.641948137 
2.02209e-05 1.6200131244 77.541606876 0.00101319 1.6683430449 77.532776955 2.06034e-05 1.5922425548 77.410467445 
0.00109812 1.6463814567 77.404728543 2.2201e-05 1.5595349611 77.259575039 0.00120223 1.6206104182 77.256239582 
2.52186e-05 1.5213598633 77.087110137 0.0013294 1.5907285268 77.085261473 2.97197e-05 1.477103955 76.890886045 
0.00148446 1.5564132962 76.889466704 3.5513e-05 1.4260364336 76.668263566 0.00167343 1.5173316271 76.665958373 
4.19759e-05 1.3672770146 76.416072985 0.00190388 1.4731154248 76.410984575 4.77768e-05 1.2996728559 76.130547144 
0.00218522 1.423279805 76.120360195 5.04373e-05 1.2216765643 75.807473436 0.00252926 1.367229027 75.788800973 
4.56337e-05 1.1310878629 75.441672137 0.00295067 1.3040237341 75.409776266 2.60732e-05 1.0246979177 75.027422082 
0.0034677 1.2322447903 74.97589521 -2.03306e-05 0.89767591015 74.55865809 0.00410275 1.1495679944 74.478142006 
-0.000113436 0.74267859842 74.028890402 0.00488286 1.0522249039 73.906105096 -0.000285785 0.54834579677 73.432521203 
0.0058395 0.93392736957 73.24805263 -0.000590577 0.29698371697 72.765880283 0.00700687 0.7843334766 72.490978523 
-0.039158897105 -0.00111477 72.029979897 0.00841642 0.58621304765 71.622105952 -0.50376843211 -0.00199995 71.235853432 
0.010083 0.31084087082 70.631401129 -1.1655226053 -0.00346116 70.412354605 -0.089891517606 0.011978 69.515871518 
-2.1313828519 -0.0059138 69.621232852 -0.69678577486 0.0139291 68.289795075 -3.5623611971 -0.00921579 68.979781197 
-1.6443620114 0.0157019 67.002725011 -5.6917336127 -0.0183549 68.682453613 -3.1547048911 0.0152194 65.764904891 
-5.5556394773 0.0165173 64.819129477 4.27031e-05 1.7524062101 77.90951379 0.000798614 1.7715780256 77.883001974 
4.27573e-05 1.7493042281 77.887155772 0.000807254 1.7697320973 77.867717903 4.29784e-05 1.7440521594 77.849527841 
0.000824838 1.7659995128 77.837050487 4.35642e-05 1.7365566415 77.796433359 0.000851994 1.7603087455 77.790601254 
4.47951e-05 1.7266725155 77.727277484 0.000889699 1.7525873198 77.72797268 4.70373e-05 1.7142322977 77.641167702 
0.000939335 1.7427015547 77.648268445 5.07465e-05 1.699065413 77.537214587 0.00100275 1.7305362007 77.550693799 
5.64714e-05 1.6809570673 77.414032933 0.00108237 1.7159838482 77.433856152 6.48571e-05 1.6597365577 77.270243442 
0.00118133 1.6989441325 77.296365868 7.66459e-05 1.6352249055 77.103675094 0.00130362 1.6793524952 77.136237505 
9.2675e-05 1.6072812154 76.911868785 0.00145437 1.657208429 76.950891571 0.000113867 1.575787399 76.691782601 
0.00164016 1.6325727952 76.737257205 0.000141206 1.5406701418 76.439699858 0.00186942 1.6056137891 76.491676211 
0.000175695 1.5018685413 76.150741459 0.00215306 1.5766208479 76.209409152 0.000218266 1.4593551924 75.819384808 
0.00250525 1.5459750485 75.884444951 0.000269624 1.4130061639 75.438493836 0.00294458 1.5142041316 75.509615868 
0.000329954 1.3625630712 74.999366929 0.0034956 1.4819482771 75.075821723 0.000398396 1.3074144707 74.491415529 
0.00419107 1.4498805795 74.571769421 0.000472087 1.2462769651 73.901693035 0.00507509 1.4186109647 73.983239035 
0.00054442 1.1766442825 73.214115717 0.00620768 1.3884329457 73.292497054 0.000601778 1.0938670533 72.409642947 
0.00767126 1.3589261387 72.477093861 0.000617743 0.98943696177 71.465353038 0.00958017 1.3281075973 71.509122403 
0.00054095 0.84821730015 70.3546547 0.012094 1.2909516864 70.352978314 0.000277662 0.64323041124 69.048133589 
0.0154375 1.2365766904 68.96462331 -0.000360722 0.32646425873 67.517300741 0.0199277 1.1428080782 67.289971922 
-0.18785204753 -0.00171179 65.742011048 0.0259841 0.96547188511 65.265328115 -1.0529746442 -0.00417713 63.729564644 
0.0343783 0.61750422026 62.82276578 -2.542280386 -0.0115382 61.541893386 -0.076772018473 0.0446465 59.904250018 
-1.4474362548 0.0660804 56.525777255 5.14876e-05 1.7781664569 77.855103543 0.000815378 1.7888497766 77.846700223 
5.20795e-05 1.7755156656 77.831814334 0.000824546 1.7872079738 77.831102026 5.32254e-05 1.7710471248 77.792632875 
0.000843218 1.7838942844 77.799505716 5.51685e-05 1.7646999438 77.737160056 0.000872082 1.7788685321 77.751711468 
5.82572e-05 1.7563727535 77.664797246 0.000912215 1.7720704308 77.687219569 6.29534e-05 1.7459935657 77.574646434 
0.00096514 1.7634195552 77.605030445 6.98441e-05 1.7334495629 77.465510437 0.00103291 1.7528552965 77.504344704 
7.96563e-05 1.7186767917 77.335893208 0.00111822 1.7403467957 77.383663204 9.32756e-05 1.7016596998 77.1841003 
0.00122456 1.7258928467 77.241287153 0.000111771 1.6824204725 77.007639528 0.00135645 1.7095417526 77.075018247 
0.000136427 1.6610680586 76.803621941 0.00151971 1.6914711144 76.882258886 0.000168779 1.6378366333 76.568363367 
0.00172185 1.6719575104 76.65941249 0.000210669 1.613103369 76.297386631 0.00197264 1.6514260168 76.402283983 
0.0002643 1.58738491 75.98492509 0.00228486 1.6305394628 76.105580537 0.000332316 1.5614118249 75.623928175 
0.00267535 1.6101672534 75.762512747 0.000417884 1.5361398276 75.205470172 0.00316654 1.5914935452 75.364796455 
0.00052478 1.5127254502 74.71836455 0.00378867 1.5760442046 74.901855795 0.000657439 1.4925520206 74.148387979 
0.00458293 1.5657318351 74.360128165 0.000820913 1.4771191391 73.477620861 0.00560628 1.5629373189 73.722472681 
0.00102056 1.4679413548 72.682918645 0.00693858 1.5705250143 72.966784986 0.00126102 1.4662004299 71.73463957 
0.00869355 1.5917963626 72.064523637 0.00154404 1.4721080418 70.594081958 0.0110361 1.6304407583 70.977859242 
0.00186101 1.4836309463 69.210739054 0.0142088 1.690171359 69.656968641 0.00218574 1.4939715307 67.518208469 
0.0185774 1.7739462978 68.034723702 0.00241021 1.4863558114 65.428374189 0.024701 1.8821530794 66.019686921 
0.00238941 1.4234072023 62.825892798 0.0334369 2.0084024543 63.485687546 0.00134107 1.2232106514 59.561469349 
0.0463264 2.1302040188 60.256765981 -0.00194254 0.70830645654 55.451263543 0.0644328 2.1834388993 56.086261101 
0.100819 2.0204196354 50.647180365 5.44857e-05 1.78683 77.8369 0.000815378 1.7888497766 77.846700223 
5.52626e-05 1.78433 77.8133 0.000824546 1.7872079738 77.831102026 5.67269e-05 1.78014 77.7735 
0.000843218 1.7838942844 77.799505716 5.91377e-05 1.77418 77.7173 0.000872082 1.7788685321 77.751711468 
6.28673e-05 1.76639 77.6438 0.000912215 1.7720704308 77.687219569 6.84113e-05 1.75671 77.5523 
0.00096514 1.7634195552 77.605030445 7.64032e-05 1.74507 77.4414 0.00103291 1.7528552965 77.504344704 
8.76332e-05 1.73145 77.3096 0.00111822 1.7403467957 77.383663204 0.000103073 1.71588 77.1551 
0.00122456 1.7258928467 77.241287153 0.000123909 1.69845 76.9752 0.00135645 1.7095417526 77.075018247 
0.000151585 1.67938 76.767 0.00151971 1.6914711144 76.882258886 0.000187861 1.65901 76.5266 
0.00172185 1.6719575104 76.65941249 0.000234891 1.63788 76.2491 0.00197264 1.6514260168 76.402283983 
0.000295322 1.61671 75.9286 0.00228486 1.6305394628 76.105580537 0.000372433 1.59653 75.5573 
0.00267535 1.6101672534 75.762512747 0.000470317 1.57866 75.1258 0.00316654 1.5914935452 75.364796455 
0.000594114 1.56479 74.622 0.00378867 1.5760442046 74.901855795 0.000750307 1.55704 74.0303 
0.00458293 1.5657318351 74.360128165 0.000947053 1.55799 73.331 0.00560628 1.5629373189 73.722472681 
0.00119451 1.5707 72.4982 0.00693858 1.5705250143 72.966784986 0.00150482 1.5987 71.4983 
0.00869355 1.5917963626 72.064523637 0.00189169 1.64576 70.2866 0.0110361 1.6304407583 70.977859242 
0.00236545 1.71553 68.803 0.0142088 1.690171359 69.656968641 0.00293126 1.81043 66.9654 
0.0185774 1.7739462978 68.034723702 0.00352386 1.92928 64.66 0.024701 1.8821530794 66.019686921 
0.00409864 2.06213 61.7257 0.0334369 2.0084024543 63.485687546 0.00374285 2.17694 57.9302 
0.0463264 2.1302040188 60.256765981 0.0025969 2.19269 52.9336 0.0644328 2.1834388993 56.086261101 
0.100819 2.0204196354 50.647180365 5.14876e-05 1.7781664569 77.855103543 0.000798614 1.7715780256 77.883001974 
5.20795e-05 1.7755156656 77.831814334 0.000807254 1.7697320973 77.867717903 5.32254e-05 1.7710471248 77.792632875 
0.000824838 1.7659995128 77.837050487 5.51685e-05 1.7646999438 77.737160056 0.000851994 1.7603087455 77.790601254 
5.82572e-05 1.7563727535 77.664797246 0.000889699 1.7525873198 77.72797268 6.29534e-05 1.7459935657 77.574646434 
0.000939335 1.7427015547 77.648268445 6.98441e-05 1.7334495629 77.465510437 0.00100275 1.7305362007 77.550693799 
7.96563e-05 1.7186767917 77.335893208 0.00108237 1.7159838482 77.433856152 9.32756e-05 1.7016596998 77.1841003 
0.00118133 1.6989441325 77.296365868 0.000111771 1.6824204725 77.007639528 0.00130362 1.6793524952 77.136237505 
0.000136427 1.6610680586 76.803621941 0.00145437 1.657208429 76.950891571 0.000168779 1.6378366333 76.568363367 
0.00164016 1.6325727952 76.737257205 0.000210669 1.613103369 76.297386631 0.00186942 1.6056137891 76.491676211 
0.0002643 1.58738491 75.98492509 0.00215306 1.5766208479 76.209409152 0.000332316 1.5614118249 75.623928175 
0.00250525 1.5459750485 75.884444951 0.000417884 1.5361398276 75.205470172 0.00294458 1.5142041316 75.509615868 
0.00052478 1.5127254502 74.71836455 0.0034956 1.4819482771 75.075821723 0.000657439 1.4925520206 74.148387979 
0.00419107 1.4498805795 74.571769421 0.000820913 1.4771191391 73.477620861 0.00507509 1.4186109647 73.983239035 
0.00102056 1.4679413548 72.682918645 0.00620768 1.3884329457 73.292497054 0.00126102 1.4662004299 71.73463957 
0.00767126 1.3589261387 72.477093861 0.00154404 1.4721080418 70.594081958 0.00958017 1.3281075973 71.509122403 
0.00186101 1.4836309463 69.210739054 0.012094 1.2909516864 70.352978314 0.00218574 1.4939715307 67.518208469 
0.0154375 1.2365766904 68.96462331 0.00241021 1.4863558114 65.428374189 0.0199277 1.1428080782 67.289971922 
0.00238941 1.4234072023 62.825892798 0.0259841 0.96547188511 65.265328115 0.00134107 1.2232106514 59.561469349 
0.0343783 0.61750422026 62.82276578 -0.00194254 0.70830645654 55.451263543 -0.076772018473 0.0446465 59.904250018 
-1.4474362548 0.0660804 56.525777255 4.27031e-05 1.7524062101 77.90951379 0.000765841 1.7375047119 77.954805288 
4.27573e-05 1.7493042281 77.887155772 0.000773467 1.7352520627 77.940347937 4.29784e-05 1.7440521594 77.849527841 
0.000788968 1.7307048906 77.911435109 4.35642e-05 1.7365566415 77.796433359 0.000812854 1.7237592698 77.86757073 
4.47951e-05 1.7266725155 77.727277484 0.000845917 1.7142588398 77.80846116 4.70373e-05 1.7142322977 77.641167702 
0.00088927 1.7020141817 77.733515818 5.07465e-05 1.699065413 77.537214587 0.00094439 1.6867918629 77.641948137 
5.64714e-05 1.6809570673 77.414032933 0.00101319 1.6683430449 77.532776955 6.48571e-05 1.6597365577 77.270243442 
0.00109812 1.6463814567 77.404728543 7.66459e-05 1.6352249055 77.103675094 0.00120223 1.6206104182 77.256239582 
9.2675e-05 1.6072812154 76.911868785 0.0013294 1.5907285268 77.085261473 0.000113867 1.575787399 76.691782601 
0.00148446 1.5564132962 76.889466704 0.000141206 1.5406701418 76.439699858 0.00167343 1.5173316271 76.665958373 
0.000175695 1.5018685413 76.150741459 0.00190388 1.4731154248 76.410984575 0.000218266 1.4593551924 75.819384808 
0.00218522 1.423279805 76.120360195 0.000269624 1.4130061639 75.438493836 0.00252926 1.367229027 75.788800973 
0.000329954 1.3625630712 74.999366929 0.00295067 1.3040237341 75.409776266 0.000398396 1.3074144707 74.491415529 
0.0034677 1.2322447903 74.97589521 0.000472087 1.2462769651 73.901693035 0.00410275 1.1495679944 74.478142006 
0.00054442 1.1766442825 73.214115717 0.00488286 1.0522249039 73.906105096 0.000601778 1.0938670533 72.409642947 
0.0058395 0.93392736957 73.24805263 0.000617743 0.98943696177 71.465353038 0.00700687 0.7843334766 72.490978523 
0.00054095 0.84821730015 70.3546547 0.00841642 0.58621304765 71.622105952 0.000277662 0.64323041124 69.048133589 
0.010083 0.31084087082 70.631401129 -0.000360722 0.32646425873 67.517300741 -0.089891517606 0.011978 69.515871518 
-0.18785204753 -0.00171179 65.742011048 -0.69678577486 0.0139291 68.289795075 -1.0529746442 -0.00417713 63.729564644 
-1.6443620114 0.0157019 67.002725011 -2.542280386 -0.0115382 61.541893386 -3.1547048911 0.0152194 65.764904891 
-5.5556394773 0.0165173 64.819129477 2.87435e-05 1.7102303507 77.998929649 0.000718504 1.6874901839 78.060909816 
2.79573e-05 1.7064101512 77.978119849 0.000724716 1.6846910538 78.047588946 2.67344e-05 1.6999255286 77.943174471 
0.000737311 1.6790095224 78.021050478 2.52045e-05 1.690619619 77.893800381 0.000756642 1.6702987459 77.980901254 
2.35466e-05 1.678281913 77.829608087 0.000783251 1.6583276726 77.926952327 2.19845e-05 1.662627248 77.750112752 
0.000817885 1.6427899702 77.85882003 2.07799e-05 1.6433342303 77.65433577 0.000861525 1.6233224707 77.775827529 
2.02209e-05 1.6200131244 77.541606876 0.000915407 1.5994628646 77.677507135 2.06034e-05 1.5922425548 77.410467445 
0.000981059 1.5706963494 77.562803651 2.2201e-05 1.5595349611 77.259575039 0.00106033 1.536420907 77.430679093 
2.52186e-05 1.5213598633 77.087110137 0.00115544 1.4959204094 77.279919591 2.97197e-05 1.477103955 76.890886045 
0.00126899 1.4483946166 77.109045383 3.5513e-05 1.4260364336 76.668263566 0.00140398 1.3928546734 76.916225327 
4.19759e-05 1.3672770146 76.416072985 0.00156376 1.3281113651 76.699198635 4.77768e-05 1.2996728559 76.130547144 
0.00175194 1.2526437987 76.455806201 5.04373e-05 1.2216765643 75.807473436 0.00197213 1.1644496158 76.183040384 
4.56337e-05 1.1310878629 75.441672137 0.00222738 1.0608245976 75.878115402 2.60732e-05 1.0246979177 75.027422082 
0.00251923 0.93796195589 75.537982044 -2.03306e-05 0.89767591015 74.55865809 0.00284582 0.7904052549 75.159896745 
-0.000113436 0.74267859842 74.028890402 0.00319855 0.61018901823 74.741788982 -0.000285785 0.54834579677 73.432521203 
0.00355599 0.38551046254 74.283371537 -0.000590577 0.29698371697 72.765880283 0.00387301 0.098714918962 73.787973081 
-0.039158897105 -0.00111477 72.029979897 -0.27677985515 0.00406148 73.264886855 -0.50376843211 -0.00199995 71.235853432 
-0.78107218908 0.00395403 72.734443189 -1.1655226053 -0.00346116 70.412354605 -1.4743754444 0.00324863 72.235268444 
-2.1313828519 -0.0059138 69.621232852 -2.4458289027 0.00136398 71.835928903 -3.5623611971 -0.00921579 68.979781197 
-3.822644635 -0.00257566 71.651974635 -5.6917336127 -0.0183549 68.682453613 -5.7753569075 -0.011047 71.862376907 
-8.4886929353 -0.0240646 72.759792935 1.05695e-05 1.6527205209 78.121749479 0.000658627 1.6228149013 78.199115099 
8.71669e-06 1.6479801411 78.102999859 0.000663137 1.6193432614 78.187436739 5.66427e-06 1.6399128583 78.071457142 
0.000672243 1.6123053709 78.163884629 1.46118e-06 1.628298068 78.027131932 0.000686113 1.6014815976 78.128368402 
-3.83374e-06 1.6128195665 77.969640434 0.000704999 1.5865464161 78.080903584 -1.01634e-05 1.5930540858 77.898705914 
0.000729237 1.5670770334 78.021112967 -1.74905e-05 1.5685090324 77.813860968 0.000759236 1.5425312809 77.948828719 
-2.58241e-05 1.538559302 77.714450698 0.000795473 1.5122345865 77.863795414 -3.52607e-05 1.5024927917 77.599937208 
0.000838465 1.4754057454 77.765474255 -4.60428e-05 1.4594638402 77.46940616 0.000888725 1.4310708375 77.653549163 
-5.86474e-05 1.4084640679 77.321875932 0.000946691 1.3781147886 77.527435211 -7.3915e-05 1.3482990209 77.156310979 
0.0010126 1.3151792265 77.386690773 -9.32401e-05 1.2775187584 76.971441242 0.00108629 1.2406053776 77.230634622 
-0.000118854 1.1943000075 76.765689993 0.00116686 1.152369131 77.058870869 -0.000154246 1.0963150553 76.537914945 
0.00125215 1.0478962781 76.871123722 -0.000204785 0.98048926843 76.286670732 0.00133789 0.92388394121 76.667088059 
-0.000278666 0.84271013201 76.010795868 0.00141635 0.77598043515 76.447503565 -0.000388315 0.67727051661 75.710050483 
0.00147419 0.59835721375 76.213757786 -0.000552506 0.47619689178 75.385311108 0.00148899 0.38307134581 75.969034654 
-0.000799504 0.22814971141 75.039567289 0.00142371 0.11916846294 75.718722537 -0.083136533284 -0.00117164 74.679839233 
-0.20858723569 0.00121779 75.472690736 -0.48110581352 -0.0017318 74.319363814 -0.62145820992 0.000772792 75.24663721 
-0.9995430695 -0.00257087 73.981750069 -1.1490519351 -6.99214e-05 75.065862935 -1.6867533358 -0.00381947 73.706573336 
-1.8321486968 -0.00156689 74.970008697 -2.6104348025 -0.00562043 73.558564803 -2.7255984006 -0.00412005 75.019348401 
-3.8618275897 -0.00825549 73.63937759 -3.8998494907 -0.0083839 75.302919491 -5.5530137061 -0.0110699 74.104173706 
-5.4373164239 -0.0152713 75.949496424 -7.8040227731 -0.018032 75.168122773 -7.4161829385 -0.0264132 77.130942938 
-9.8627865477 -0.0436504 79.084936548 -1.05919e-05 1.581328684 78.275771316 0.00058865 1.5450593719 78.367220628 
-1.36431e-05 1.5755322045 78.259387795 0.000591309 1.5408733134 78.357186687 -1.87461e-05 1.5656627489 78.231957251 
0.00059662 1.5323455958 78.337124404 -2.59347e-05 1.5514165454 78.193593455 0.000604561 1.5192145376 78.306945462 
-3.52715e-05 1.5323726626 78.144017337 0.00061509 1.5010714057 78.266768594 -4.68654e-05 1.5079611812 78.083358819 
0.000628118 1.477348828 78.216621172 -6.08984e-05 1.4774805137 78.011259486 0.000643484 1.4473284558 78.156541544 
-7.76641e-05 1.4400836299 77.92777637 0.000660909 1.4101276179 78.086582382 -9.76237e-05 1.3947327942 77.832587206 
0.000679919 1.3646648093 78.006815191 -0.000121485 1.3402021919 77.725797808 0.000699745 1.3096632553 77.917436745 
-0.000150318 1.2750276429 77.607152357 0.000719159 1.243572166 77.818677834 -0.000185714 1.1974423053 77.476647695 
0.00073624 1.1645148796 77.71111512 -0.000230015 1.1052766139 77.334553386 0.000748018 1.0702526931 77.595487307 
-0.00028664 0.99584973823 77.181340262 0.000749951 0.95802511864 77.472618881 -0.00036054 0.86579246062 77.017618539 
0.000735142 0.82439390253 77.344248097 -0.000458844 0.71077450061 76.845194499 0.000693181 0.66505019754 77.212670802 
-0.000591752 0.5251606265 76.666743373 0.000608413 0.4744915498 77.08159145 -0.000773768 0.30150614943 76.486412851 
0.000457364 0.24562079847 76.956095202 -0.00102533 0.029870988679 76.311157011 -0.030804178144 0.00020493 76.844028378 
-0.30310534247 -0.00137484 76.151599342 -0.36688073923 -0.000201273 76.756391739 -0.71541685441 -0.00186087 76.023916854 
-0.77844369701 -0.000839109 76.709615697 -1.2311778367 -0.00253392 75.952676837 -1.286075002 -0.00182384 76.726865002 
-1.882257206 -0.00345398 75.974007206 -1.9160778129 -0.00332397 76.841257813 -2.7095803649 -0.0046857 76.140790365 
-2.7009694326 -0.00558372 77.098979433 -3.7629112684 -0.00623653 76.528601268 -3.6784978033 -0.00894219 77.563507803 
-5.0966417385 -0.00812534 77.241951739 -4.8872915026 -0.0138577 78.318931503 -6.7553373092 -0.0094086 78.421327309 
-6.3554652627 -0.020898 79.472865263 -8.7458555438 -0.0120014 80.238025544 -8.0757275939 -0.0304764 81.151797594 
-9.9610484101 -0.0445495 83.49875841 -3.33341e-05 1.4977768689 78.458193131 0.000511284 1.4560640889 78.562125911 
-3.7613e-05 1.4908745841 78.444475416 0.000512081 1.4511456881 78.553934312 -4.48105e-05 1.4791342483 78.421755752 
0.000513582 1.4411328771 78.537657123 -5.50341e-05 1.4621602261 78.389949774 0.000515587 1.4257131417 78.513306858 
-6.8453e-05 1.4394088704 78.34918113 0.000517777 1.4043665309 78.481103469 -8.53185e-05 1.4101866072 78.299683393 
0.000519674 1.3764140451 78.441275955 -0.000105995 1.3735971884 78.241702812 0.0005206 1.3409754269 78.394164573 
-0.000131003 1.3285578906 78.175502109 0.000519599 1.2969559964 78.340224004 -0.000161081 1.2737342835 78.101465717 
0.000515341 1.2430524528 78.279927547 -0.000197272 1.2075732302 78.02010677 0.000505969 1.1776672134 78.214272787 
-0.000241036 1.1281833098 77.93237669 0.000488896 1.0989008692 78.143989131 -0.000294414 1.0333028001 77.8390772 
0.000460506 1.0044825158 78.070647484 -0.000360242 0.92018217049 77.74187883 0.000415735 0.8917070299 77.99597297 
-0.00044244 0.78549373158 77.642741268 0.000347483 0.75727763328 77.922261367 -0.000546385 0.62511461575 77.544543384 
0.000245771 0.59721039297 77.852797607 -0.000679396 0.43391360943 77.451218391 9.65756e-05 0.40662754572 77.791781454 
-0.000851314 0.20543996197 77.368498038 -0.000119819 0.17951449925 77.745151501 -0.068474847435 -0.00107515 77.304160447 
-0.091572060068 -0.000431083 77.72080809 -0.39820564171 -0.00136765 77.269170642 -0.41586037736 -0.000875925 77.729127377 
-0.79690338279 -0.00174945 77.278798383 -0.8047367562 -0.00150818 77.784737756 -1.281085596 -0.00224396 77.354365596 
-1.2720904239 -0.00240191 77.906640424 -1.871054566 -0.00287362 77.524834566 -1.8344377304 -0.00365749 78.12058773 
-2.5908491848 -0.00364837 77.829809185 -2.5105597457 -0.0054068 78.460149746 -3.4668615941 -0.0045472 78.321801594 
-3.3200014044 -0.00781606 78.968721404 -4.5238380099 -0.00544626 79.06912801 -4.2794657661 -0.0110765 79.700255766 
-5.7760434997 -0.00611613 80.1566435 -5.3954178598 -0.0153623 80.71972786 -7.2091068837 -0.00570075 81.683976884 
-6.6503816715 -0.0208219 82.099431671 -8.7500331886 -0.00415918 83.755223189 -7.9798300408 -0.0269262 83.911570041 
-9.2371148426 -0.0349607 86.208824843 -5.61616e-05 1.4039969284 78.665913072 -6.16012e-05 1.3960447883 78.655055212 
-7.0771e-05 1.3824945793 78.637135421 -8.38354e-05 1.3629005461 78.612269454 -0.000101043 1.3366190403 78.58088096 
-0.000122746 1.3028167167 78.543203283 -0.000149431 1.2604281168 78.499781883 -0.000181759 1.2081724007 78.451477599 
-0.000220621 1.1444989409 78.398971059 -0.000267209 1.0675417463 78.343568254 -0.000323119 0.97510955698 78.286807443 
-0.000390467 0.8645697329 78.230469267 -0.000472052 0.7328082705 78.17728573 -0.000571533 0.57609485693 78.130455143 
-0.000693638 0.38995397593 78.094455024 -0.000844358 0.16898888985 78.07485611 -0.093315304851 -0.00103105 78.079330705 
-0.40481335319 -0.00126235 78.117847353 -0.77491588615 -0.00154747 78.203239886 -1.214720218 -0.00189454 78.352820218 
-1.7369264852 -0.00230666 78.588696485 -2.3553200796 -0.00277422 78.93914008 -3.0833081204 -0.00325913 79.44022812 
-3.930932802 -0.00367144 80.135512802 -4.8990192982 -0.00381019 81.076479298 -5.9692297885 -0.00334867 82.319149789 
-7.0876957966 -0.00164528 83.917715797 -8.1411342586 0.0024484 85.913784259 0.000512494 1.2506832086 79.014836791 
0.000491292 1.2413704829 79.008349517 0.000454919 1.2254946079 78.997745392 0.000401763 1.2025230525 78.983336947 
0.000329451 1.1717071756 78.965642824 0.000234723 1.1320511319 78.945288868 0.000113256 1.0823103667 78.923409633 
-4.05793e-05 1.0209797058 78.900850294 -0.00023403 0.94625626255 78.879268737 -0.000476372 0.85601276359 78.860438236 
-0.000779429 0.74776520494 78.846549795 -0.00115821 0.61862655376 78.840614446 -0.00163168 0.46526220017 78.8461658 
-0.00222359 0.28383531192 78.867557688 -0.00296341 0.069961598991 78.910459401 -0.18133270609 -0.00388695 78.981545706 
-0.47560450022 -0.00503656 79.0895685 -0.81892899605 -0.00645997 79.244813996 -1.2176978649 -0.00820661 79.460227865 
-1.6781588117 -0.0103191 79.751398812 -2.2056262533 -0.0128168 80.136596253 -2.8029453954 -0.0156647 80.637455395 
-3.4680850798 -0.0187229 81.27756508 -4.1902328951 -0.0216639 82.081942895 -4.9440412946 -0.0238618 83.073941295 
-5.6815760991 -0.0242621 84.270556099 -6.3219564941 -0.0212201 85.675036494 -6.7413707925 -0.0129426 87.264920792 
0.000309059 1.1403734328 79.269446567 0.000283114 1.130432157 79.265687843 0.000238706 1.1134913445 79.259728655 
0.000174038 1.0889926696 79.25197733 8.65001e-05 1.0561338772 79.242946123 -2.74287e-05 1.0138581757 79.233551824 
-0.000172317 0.96087457589 79.224916424 -0.000353952 0.89560811226 79.218167888 -0.000579553 0.8161960672 79.215140933 
-0.000858028 0.72046874828 79.217877252 -0.00120026 0.60592942933 79.229025571 -0.00161941 0.46973641149 79.251640589 
-0.00213118 0.3086904451 79.289679555 -0.00275394 0.11923586229 79.347696138 -0.10252453583 -0.00350859 79.431528636 
-0.36076150439 -0.0044178 79.547981504 -0.65979942324 -0.00550418 79.705196423 -1.0038773899 -0.00678664 79.91280939 
-1.3967375298 -0.00827361 80.18228753 -1.8409594959 -0.00995145 80.526459496 -2.33687627 -0.0117656 80.95982627 
-2.8809190139 -0.0135918 81.497509014 -3.4632044869 -0.0151949 82.154764487 -4.0641443506 -0.0161775 82.944594351 
-4.6498925402 -0.0159249 83.87499254 -5.1669986273 -0.0135927 84.944108627 -5.5366946033 -0.00814278 86.134174603 
-5.6512268653 0.00125639 87.403256865 0.000117065 1.027088621 79.536851379 8.82032e-05 1.0168038796 79.53580612 
3.8897e-05 0.99927394468 79.534166055 -3.26899e-05 0.97392667767 79.532634322 -0.00012919 0.93994557523 79.531615425 
-0.000254092 0.8962686761 79.532215324 -0.000411818 0.84158060681 79.535541393 -0.000607809 0.77430370172 79.542902298 
-0.000848618 0.69258951806 79.556207482 -0.00114199 0.59431707714 79.577565923 -0.00149689 0.47708409665 79.609784903 
-0.00192349 0.33822217196 79.655965828 -0.00243293 0.17481715677 79.719998843 -0.016243678731 -0.00303687 79.806455579 
-0.23819160686 -0.00374645 79.920876607 -0.4942314814 -0.00457063 80.069454481 -0.78731968318 -0.00551309 80.259509683 
-1.1198148634 -0.00656744 80.499364863 -1.4929531029 -0.00770957 80.798313103 -1.9060544613 -0.00888643 81.165994461 
-2.3554155407 -0.01 81.612595541 -2.8327423002 -0.0108866 82.1474023 -3.3230762126 -0.0112928 82.778056213 
-3.802146404 -0.010855 83.507776404 -4.2333408992 -0.00909485 84.333600899 -4.5646573767 -0.00546203 85.241647377 
-4.7265071219 0.000542258 86.203507122 -4.6321792594 0.00907089 87.171269259 -6.01141e-05 0.91272763552 79.813651364 
-8.99236e-05 0.90239699381 79.815005006 -0.000140765 0.88479846201 79.817359538 -0.000214391 0.8593614751 79.821412525 
-0.000313276 0.82527972406 79.827660276 -0.000440641 0.78150846428 79.837197536 -0.000600459 0.72676508444 79.850916916 
-0.000797461 0.65952189446 79.870508106 -0.0010371 0.57800932258 79.897556677 -0.00132547 0.48022388116 79.934342119 
-0.00166911 0.36394733576 79.983335664 -0.0020747 0.22677225025 80.04779575 -0.00254849 0.066161920838 80.131163779 
-0.12046515388 -0.00309534 80.237855854 -0.33560616964 -0.00371729 80.37245617 -0.58147496792 -0.00441129 80.540703968 
-0.85971556282 -0.00516582 80.748585563 -1.1709940398 -0.00595607 81.00272404 -1.5144303394 -0.00673719 81.309980339 
-1.8868212671 -0.00743549 81.677071267 -2.2815912887 -0.00793784 82.110121289 -2.6874793665 -0.00808053 82.613369366 
-3.0869487195 -0.00764139 83.188258719 -3.4543873251 -0.00634204 83.831617325 -3.7543133574 -0.00387275 84.533223357 
-3.9401833762 4.26685e-05 85.273253376 -3.9544213242 0.00552212 86.019991324 -3.7310990035 0.0123107 86.727899003 
-0.000221163 0.79904003046 80.09644697 -0.000249936 0.78897759535 80.099886405 -0.000298942 0.77184218736 80.105813813 
-0.000369754 0.74708255498 80.114921445 -0.000464557 0.71392910002 80.1275979 -0.000586135 0.67138744091 80.144727559 
-0.000737821 0.61824125809 80.167489742 -0.00092342 0.55305838567 80.197157614 -0.00114707 0.47419928856 80.235496711 
-0.00141304 0.37983492397 80.284263076 -0.00172536 0.2679787618 80.346101238 -0.00208731 0.13654316122 80.423640839 
-0.016593085055 -0.00250061 80.519993155 -0.19346248038 -0.00296431 80.63904848 -0.39584843769 -0.0034731 80.784671438 
-0.62506010505 -0.00401504 80.961400105 -0.88161543075 -0.00456846 81.173948431 -1.1648226492 -0.00509791 81.427312649 
-1.4722165088 -0.00554927 81.725996509 -1.7988801777 -0.00584422 82.073950178 -2.1365237058 -0.00587512 82.474043706 
-2.4725180382 -0.00550224 82.926578038 -2.7887255537 -0.00455708 83.428835554 -3.0604687544 -0.0028574 83.973458754 
-3.2557433575 -0.000241971 84.546703357 -3.3351807483 0.0033667 85.127160748 -3.2533936337 0.00786921 85.684473634 
-2.9624583483 0.0128489 86.179528348 -0.000366827 0.68760818079 80.381638819 -0.000392678 0.67811407569 80.387052924 
-0.000436658 0.66195084888 80.396235151 -0.000500095 0.6386047582 80.409773242 -0.000584804 0.60735966724 80.427949333 
-0.000693035 0.56729769933 80.451839301 -0.000827384 0.51730217821 80.482111822 -0.000990662 0.45606859831 80.520027402 
-0.00118568 0.38212000887 80.567136991 -0.00141495 0.2938382377 80.625080762 -0.00168023 0.18950237163 80.695786628 
-0.00198192 0.067352025103 80.781769475 -0.074314546256 -0.00231816 80.885529446 -0.23701759953 -0.00268367 81.0100536 
-0.42191778329 -0.00306815 81.158617783 -0.6295729859 -0.00345434 81.334491986 -0.85963446322 -0.00381549 81.541152463 
-1.110442501 -0.00411257 81.781702501 -1.3785328602 -0.00429132 82.05900286 -1.6580318335 -0.00427988 82.374521833 
-1.9399707412 -0.00398803 82.728700741 -2.2115783234 -0.00331006 83.119138323 -2.4555391779 -0.00213404 83.540679178 
-2.6495098868 -0.000361203 83.983679887 -2.7660388046 0.00206096 84.433698805 -2.7732378412 0.00508952 84.870127841 
-2.6365972154 0.00852767 85.266667215 -2.3226151324 0.011947 85.592275132 -0.000499849 0.57985738761 80.666227612 
-0.000521079 0.57120156204 80.673307438 -0.000557175 0.55646567132 80.685530329 -0.000609182 0.53518828393 80.702880716 
-0.000678498 0.50672291748 80.726036083 -0.000766805 0.47024669428 80.755566306 -0.000875951 0.42476412827 80.792232872 
-0.00100779 0.36912289849 80.836888102 -0.00116392 0.30203164011 80.89077436 -0.00134537 0.22209750969 80.95522349 
-0.00155209 0.12786817913 81.031756821 -0.00178235 0.017909479206 81.122285821 -0.10910302677 -0.00203187 81.228814627 
-0.25424737819 -0.00229277 81.353343378 -0.41818302762 -0.00255222 81.498276028 -0.60091344686 -0.00279094 81.666031447 
-0.80150760465 -0.00298149 81.858460605 -1.0177317681 -0.0030866 82.077571768 -1.2456530418 -0.00305808 82.324363042 
-1.4791048658 -0.0028367 82.598664866 -1.7092577993 -0.00235433 82.899087799 -1.9240783913 -0.00153971 83.221868391 
-2.107956064 -0.000329552 83.560296064 -2.2416231603 0.00131308 83.90439316 -2.3024275517 0.0033725 84.240407552 
-2.265350866 0.00574713 84.550370866 -2.1049891083 0.00821828 84.812989108 -1.7986897131 0.0104143 85.004679713 
-0.000624794 0.47708697066 80.946814029 -0.00063997 0.46948927558 80.955652724 -0.00066578 0.45655519088 80.970505809 
-0.000702962 0.4378821614 80.991555839 -0.000752485 0.41290627105 81.019177729 -0.000815464 0.38091277582 81.053738224 
-0.000893041 0.34104268617 81.095895314 -0.000986212 0.29230819378 81.146097806 -0.00109558 0.23361293341 81.205385067 
-0.00122102 0.16379250063 81.274487499 -0.00136125 0.081655644602 81.354527655 -0.013937033587 -0.00151322 81.446722904 
-0.12398367614 -0.00167144 81.552489676 -0.24921252525 -0.00182705 81.672950525 -0.38991628834 -0.00196689 81.809744288 
-0.5457454967 -0.0020724 81.963940497 -0.71545749488 -0.00211867 82.136658495 -0.8966065116 -0.00207384 82.328291512 
-1.0852149556 -0.00189914 82.538734956 -1.2753860076 -0.00155035 82.766716008 -1.4589889214 -0.000981284 83.009518921 
-1.6253055555 -0.00015034 83.262595556 -1.7609354663 0.000969069 83.519145466 -1.8498940615 0.00237369 83.769744062 
-1.8741051448 0.00401203 84.002295145 -1.8144816888 0.00576461 84.202091689 -1.6527693515 0.00743102 84.352689351 
-1.374169484 0.00871822 84.437449484 -0.000747804 0.3805133103 81.22029869 -0.000755822 0.37413171634 81.230791284 
-0.000769491 0.3632677195 81.24826728 -0.000789236 0.34758212937 81.272808871 -0.000815594 0.32660137409 81.304690626 
-0.000849133 0.29972799819 81.344179002 -0.000890344 0.26624593571 81.391332064 -0.000939489 0.22533664354 81.446599356 
-0.000996388 0.17610173917 81.510422261 -0.00106013 0.11759491552 81.583135084 -0.0011287 0.048868184712 81.665367315 
-0.030960774386 -0.00119854 81.757647474 -0.12262494295 -0.00126395 81.860508943 -0.22659352872 -0.00131652 81.974598529 
-0.34292814136 -0.00134441 82.100288141 -0.47110378239 -0.00133181 82.237889782 -0.60979881282 -0.00125852 82.387473813 
-0.75664850697 -0.00110005 82.548389507 -0.90797943615 -0.00082843 82.719485436 -1.058545809 -0.000414343 82.898725809 
-1.2012756873 0.000169122 83.082795687 -1.3271456032 0.000940439 83.266885603 -1.425113264 0.00190118 83.444543264 
-1.4824193426 0.00302537 83.607679343 -1.4850587244 0.00424799 83.746218724 -1.4188590847 0.00545493 83.848999085 
-1.2709948288 0.00648078 83.904044829 -1.0320768136 0.00710931 83.900474814 -0.000876236 0.29133086022 81.48338214 
-0.000876368 0.28625070764 81.495525292 -0.000876674 0.27760040557 81.515819594 -0.000877255 0.2651076389 81.544048361 
-0.000878209 0.2483941845 81.580387816 -0.000879565 0.22697919044 81.62480681 -0.000881212 0.20029337577 81.677266624 
-0.000882772 0.16768578023 81.73762122 -0.000883451 0.12844914188 81.806017858 -0.000881827 0.081842469297 81.882298731 
-0.00087559 0.027136776118 81.966403724 -0.036332516401 -0.000861228 82.058374916 -0.10909200161 -0.000833665 82.157863002 
-0.19143432406 -0.000785885 82.264736324 -0.28330135151 -0.000708584 82.378492352 -0.3841408208 -0.000589956 82.498471821 
-0.49273337148 -0.000415722 82.623774371 -0.60700740763 -0.000169614 82.752974408 -0.72383978575 0.000165448 82.884133786 
-0.83886404965 0.000605213 83.01450705 -0.94631763853 0.0011607 83.140532639 -1.0389623899 0.00183341 83.25770239 
-1.1081613015 0.00260918 83.360201301 -1.1440919063 0.0034514 83.441311906 -1.1362840665 0.00429475 83.493384067 
-1.0745034419 0.00504144 83.508383442 -0.94992429662 0.00556439 83.478550297 -0.75673894251 0.00571296 83.397619943 
-0.00101837 0.21078410535 81.732764895 -0.00101033 0.20701122599 81.746756774 -0.000996758 0.20058384187 81.769967158 
-0.000977428 0.19129626412 81.802381736 -0.00095197 0.17886285493 81.843780145 -0.000919864 0.16292222266 81.893735777 
-0.000880389 0.14304424302 81.952115757 -0.00083256 0.11874178428 82.018481216 -0.000775046 0.089483721175 82.092288179 
-0.000706059 0.054721468164 82.173089232 -0.00062322 0.013917316866 82.260136383 -0.033410287282 -0.000523412 82.352685487 
-0.087630462865 -0.000402619 82.449902463 -0.14892659396 -0.000255797 82.550471594 -0.21720490945 -7.68017e-05 82.653305909 
-0.29198517236 0.000141532 82.756759172 -0.37227651473 0.000407088 82.858938515 -0.45643456645 0.000727785 82.957615566 
-0.54202323385 0.00111039 83.050233234 -0.62568170792 0.00155865 83.133503708 -0.70303140062 0.00207067 83.203792401 
-0.76863725927 0.00263557 83.256782259 -0.81609395377 0.00322961 83.287613954 -0.83823918886 0.00381246 83.291001189 
-0.82758923189 0.00432478 83.261527232 -0.77699086653 0.00468809 83.194038867 -0.68053721279 0.00481025 83.084466213 
-0.53469939251 0.00459278 82.930212393 -0.00118241 0.14025447238 81.964447528 -0.00116637 0.13771005185 81.980687948 
-0.00113921 0.13337327971 82.00751472 -0.00110032 0.12710218249 82.044716818 -0.00104882 0.11869746504 82.091978535 
-0.000983563 0.10790961217 82.148679388 -0.000903175 0.094440913106 82.214394087 -0.000805996 0.077954920163 82.28829288 
-0.000690109 0.058084898369 82.369342302 -0.000553326 0.034451937623 82.456706662 -0.000393197 0.0066869254554 82.548950565 
-0.025539315464 -0.000207032 82.644642615 -0.062475664854 8.05197e-06 82.742160665 -0.10423970305 0.000255024 82.839398703 
-0.1507532215 0.000536758 82.934375221 -0.20166961198 0.000855717 83.024342612 -0.25628257302 0.00121345 83.106796573 
-0.31343358044 0.00160987 83.17838358 -0.37141888556 0.00204212 83.235903886 -0.42789840081 0.00250327 83.275606401 
-0.47984350504 0.00298045 83.293571505 -0.523515966 0.00345298 83.285777966 -0.55454196005 0.00389045 83.24805196 
-0.56807172849 0.00425142 83.176399728 -0.55909212061 0.00448361 83.067531121 -0.52288570539 0.00452589 82.918789705 
-0.45565586101 0.00431455 82.729012861 -0.3552865439 0.00379068 82.499149544 -0.00137536 0.081343287524 82.174630812 
-0.00135196 0.079867483144 82.193421817 -0.00131223 0.077350215817 82.224468684 -0.00125512 0.073705404245 82.267564096 
-0.00117916 0.06881398741 82.321997613 -0.0010825 0.062525193601 82.387155606 -0.000962936 0.054659564688 82.462121235 
-0.000817987 0.045013447192 82.545874653 -0.000644942 0.033365110335 82.63709359 -0.000440976 0.019484606889 82.734054393 
-0.000203298 0.0031472062093 82.835033794 -0.015848415034 7.06623e-05 82.937911615 -0.037656298899 0.000382991 83.040174499 
-0.062352118694 0.000734954 83.138920819 -0.089895334646 0.00112657 83.231166535 -0.12008283105 0.00155603 83.313251831 
-0.15249938646 0.00201908 83.381447386 -0.18645522437 0.00250815 83.431759224 -0.22093386936 0.00301144 83.459829869 
-0.25454047306 0.00351195 83.461233473 -0.28546200573 0.00398648 83.431762006 -0.31146624882 0.00440493 83.367100249 
-0.32993654789 0.00473001 83.263688548 -0.33797659386 0.00491791 83.118475594 -0.3325971956 0.00492039 82.929667196 
-0.31099324607 0.00468822 82.696783246 -0.27092102927 0.00417797 82.421438029 -0.21114945451 0.00335948 82.107465455 
-0.00156854 0.035969673827 82.358615926 -0.00153715 0.035327928974 82.380462971 -0.00148378 0.034232088424 82.416738912 
-0.00140685 0.032642814128 82.466839986 -0.0013042 0.03050568963 82.53016081 -0.00117312 0.027751790096 82.60589431 
-0.00101043 0.024298487247 82.692731713 -0.000812556 0.020051862604 82.789562637 -0.00057571 0.014909136615 82.894375363 
-0.000296074 0.0087629112543 83.005457409 2.9907e-05 0.0015070932788 83.120096457 -0.0069550517833 0.000405163 83.235781842 
-0.016700209944 0.000831519 83.34900661 -0.027771124548 0.0013091 83.456170225 -0.04015947571 0.00183561 83.553081876 
-0.053785081414 0.0024055 83.635164181 -0.068471837626 0.00300902 83.697556738 -0.083921254459 0.00363125 83.734818854 
-0.09968556346 0.00425116 83.741630163 -0.1151427856 0.00484082 83.712487786 -0.12947836862 0.00536504 83.642098369 
-0.14167871124 0.00578158 83.525763711 -0.15054650929 0.00604224 83.359759509 -0.15474755583 0.00609519 83.141408556 
-0.15288410864 0.00588892 82.869952109 -0.14363046372 0.00537721 82.546526464 -0.12590490658 0.00452713 82.175053907 
-0.099080917624 0.00332582 81.762158118 -0.00108324 0.006980010213 82.51150471 -0.00101143 0.0068955985484 82.537218631 
-0.00089027 0.006750215353 82.579641135 -0.00071761 0.0065368540219 82.638371146 -0.000490519 0.0062456587296 82.712707121 
-0.000205409 0.0058640738336 82.801447016 0.000141797 0.0053768292395 82.903488271 0.000555439 0.0047662078517 83.017227822 
0.00103979 0.0040123330936 83.140462177 0.00159861 0.0030936532997 83.270987557 0.0019877620076 0.0022346 83.405800188 
0.00067245658362 0.0029486 83.541396718 -0.00087273603335 0.00373874 83.673874862 -0.0026644848938 0.00459925 83.798634245 
-0.0047130144751 0.00551917 83.910377454 -0.0070187154777 0.00648091 84.003311255 -0.0095680367962 0.0074587 84.071147797 
-0.012328682723 0.00841709 84.107005583 -0.015243931904 0.00930979 84.103909832 -0.018227032615 0.010079 84.054791733 
-0.02115574592 0.0106555 83.952886046 -0.023867770078 0.0109607 83.79202657 -0.026158862243 0.0109094 83.567639262 
-0.027786429615 0.0104159 83.27643333 -0.028478361535 0.00940144 82.917791562 -0.027952861871 0.00780409 82.493862062 
-0.02594901293 0.00559157 82.010354713 -0.022262813025 0.0027719 81.476645813 -7.6473e-05 1.3022603811 78.895129619 
0.000342414 1.2528258616 79.018434138 -8.29352e-05 1.2933789092 78.887221091 0.000340038 1.2466718775 79.014108122 
-9.38345e-05 1.2782475717 78.874182428 0.000335061 1.2341591607 79.005560839 -0.000109372 1.2563523845 78.856327615 
0.000327024 1.2148579106 78.993002089 -0.000129844 1.2269825101 78.83417749 0.000315203 1.1881326746 78.977047325 
-0.000155658 1.1891788379 78.808261162 0.000298575 1.1531013632 78.958118637 -0.000187358 1.1417821889 78.779317811 
0.000275757 1.1086639916 78.937146008 -0.000225652 1.083330925 78.748499075 0.000244923 1.0534509654 78.914969035 
-0.000271453 1.0121180005 78.717072 0.000203699 0.98581212808 78.893138872 -0.000325927 0.92607336867 78.686622631 
0.000149017 0.90379026735 78.873020733 -0.000390557 0.82280978665 78.659260213 7.69212e-05 0.80509400348 78.856895997 
-0.000467202 0.69951063739 78.637721363 -1.76711e-05 0.68705337894 78.847265621 -0.000558164 0.55288967683 78.625175323 
-0.000141291 0.54657311979 78.84735088 -0.000666239 0.37911841369 78.625825586 -0.000302311 0.38009028699 78.861194713 
-0.000794704 0.17374803665 78.645012963 -0.000511427 0.18351669544 78.893859305 -0.06837822592 -0.0009472 78.689507026 
-0.047800564164 -0.000782222 78.951316594 -0.35318647601 -0.00112737 78.767691476 -0.31910295115 -0.00113177 79.041530951 
-0.68740073913 -0.00133807 78.890125739 -0.63619254928 -0.00158121 79.173924549 -1.078467704 -0.00157974 79.070175704 
-1.0053047845 -0.00215602 79.360118785 -1.5342938856 -0.00184749 79.324493886 -1.4328107843 -0.00288576 79.614440784 
-2.0626323366 -0.00212576 79.673132337 -1.9246123449 -0.00380233 79.953682345 -2.6698756823 -0.00237944 80.140265682 
-2.4850249774 -0.00493577 80.397914977 -3.358860612 -0.00253914 80.754340612 -3.1149468934 -0.00630545 80.969266893 
-4.1251993714 -0.00248076 81.546329371 -3.8087570028 -0.0079035 81.692047003 -4.9513253811 -0.00199275 82.548285381 
-4.549660209 -0.00966845 82.589560209 -5.7977341271 -0.000754309 83.788354127 -5.3029326459 -0.0114367 83.681122646 
-6.5907010921 0.00166715 85.282761092 -6.0067478992 -0.0129143 84.975127899 -7.2070583141 0.00589589 87.023578314 
-6.5615683782 -0.013523 86.460878378 -6.8199257135 -0.0129361 88.094485714 -9.58156e-05 1.1946882213 79.142141779 
0.000259256 1.1428034156 79.272636584 -0.00010306 1.1850709068 79.137069093 0.000255753 1.1362301488 79.270129851 
-0.000115271 1.1686919907 79.128788009 0.000248486 1.1228804424 79.265319558 -0.000132661 1.1449909894 79.117809011 
0.00023692 1.1022977661 79.258512234 -0.000155536 1.1132023364 79.104547664 0.000220224 1.0737918947 79.250218105 
-0.000184303 1.0723046253 79.089925375 0.000197233 1.0364583869 79.241051613 -0.000219485 1.0210394558 79.074870544 
0.000166398 0.9891120075 79.232131992 -0.000261733 0.95786513625 79.060519864 0.000125718 0.93033387712 79.224584123 
-0.000311845 0.88095733467 79.048619665 7.26458e-05 0.8584098779 79.219839122 -0.000370779 0.78818060173 79.041227398 
3.97871e-06 0.77132893443 79.219935066 -0.000439663 0.67705821521 79.040512785 -8.42841e-05 0.66676895674 79.227117043 
-0.00051979 0.54474304729 79.049857953 -0.00019711 0.54207033235 79.244236668 -0.000612584 0.38798883081 79.072757169 
-0.000340633 0.39422197362 79.274950026 -0.000719501 0.20313051375 79.114111486 -0.000522364 0.21985742513 79.323312575 
-0.013937298243 -0.000841825 79.179321298 -0.000751414 0.015257902709 79.394671197 -0.26773985348 -0.000980275 79.275669853 
-0.22360670138 -0.00103866 79.495348701 -0.56315879261 -0.00113429 79.411393793 -0.50099298023 -0.00139677 79.63271998 
-0.90527767863 -0.00130079 79.596737679 -0.82120876865 -0.00183999 79.815777769 -1.2990766418 -0.00147211 79.843986642 
-1.1883089853 -0.00238333 80.055078985 -1.7488769542 -0.0016327 80.167566954 -1.6055665465 -0.00304085 80.362576547 
-2.2573816962 -0.00175389 80.583921696 -2.0746330836 -0.00382227 80.751943084 -2.8241614492 -0.0017864 81.111481449 
-2.5942235323 -0.00472713 81.237893532 -3.4432531473 -0.00164993 81.769473147 -3.1581502363 -0.00573519 81.835360236 
-4.0995872894 -0.00122096 82.576287289 -3.7524366881 -0.00679158 82.558196688 -4.7639899127 -0.000323921 83.546689913 
-4.3514481414 -0.00778789 83.416038141 -5.3866217999 0.00127526 84.6864618 -4.9128886278 -0.00853468 84.411588628 
-5.8893243857 0.00379625 85.985514386 -5.3721128081 -0.00875494 85.533962808 -6.1581958937 0.00740963 87.408495894 
-5.6368481348 -0.00805193 86.752958135 -5.5851205722 -0.0061581 88.010830572 -0.000111833 1.0831309245 79.403749076 
0.000177708 1.0297222076 79.539737792 -0.000119586 1.0730425995 79.401397401 0.000173486 1.0229196422 79.538940358 
-0.000132639 1.0558416703 79.39774833 0.000164764 1.009103303 79.537646697 -0.000151194 1.030962387 79.393107613 
0.000150972 0.98780771709 79.536159283 -0.000175532 0.99760631951 79.38838368 0.000131234 0.95833209203 79.534981908 
-0.000206015 0.95471509686 79.384187903 0.000104335 0.91974320593 79.534819794 -0.000243084 0.90099498973 79.38173501 
6.86855e-05 0.87085544417 79.536879556 -0.000287257 0.83487279333 79.382543207 2.22658e-05 0.81022878179 79.542369218 
-0.000339115 0.75450272218 79.388134278 -3.74327e-05 0.73615416254 79.552897837 -0.000399283 0.65774848817 79.400833512 
-0.00011348 0.64665116142 79.570474839 -0.000468389 0.54217571145 79.423268289 -0.00020959 0.53946403443 79.597507966 
-0.000546989 0.4050453276 79.458764672 -0.000330195 0.41206101318 79.636901987 -0.000635447 0.2433214128 79.511045587 
-0.000480527 0.26165377785 79.692353222 -0.000733715 0.053692396595 79.584920203 -0.000666645 0.085226455915 79.767943544 
-0.16737204743 -0.000840988 79.686073047 -0.12039953325 -0.000895416 79.868829433 -0.42352652206 -0.000955139 79.820946522 
-0.35845961668 -0.00117434 80.000728617 -0.71836934783 -0.00107183 79.997612348 -0.63206843531 -0.00151117 80.170500435 
-1.0551547195 -0.00118314 80.22493572 -0.94394375105 -0.00191311 80.386017751 -1.4363213519 -0.00127554 80.513431352 
-1.2959817622 -0.00238542 80.655841762 -1.8627931203 -0.00132695 80.87421312 -1.688609734 -0.00292907 80.989489734 
-2.3328631174 -0.00130281 81.319753117 -2.119874533 -0.00353705 81.396824533 -2.8406492234 -0.00115109 81.861989223 
-2.5841143046 -0.00418881 81.887374305 -3.3738609008 -0.000797279 82.511920901 -3.0701849096 -0.00484268 82.46933491 
-3.9108602606 -0.000140905 83.277090261 -3.5591001624 -0.00542611 83.147800162 -4.41695802 0.000940125 84.15884802 
-4.0211678937 -0.00582596 83.922687894 -4.8402275224 0.00257228 85.147977522 -4.4128728222 -0.00588128 84.784892822 
-5.1076346292 0.00483405 86.219194629 -4.6739907599 -0.00539293 85.71318076 -5.1230792968 0.00766247 87.325859297 
-4.726240032 -0.0041407 86.669400032 -4.4755794097 -0.00206882 87.59518941 -0.00012368 0.96954855125 79.676551449 
9.89159e-05 0.91547420441 79.816237796 -0.000131642 0.95925912654 79.676705873 9.44219e-05 0.90865100747 79.817039993 
-0.000145028 0.94173150877 79.677163491 8.51548e-05 0.89477753483 79.818943465 -0.000164011 0.9163923623 79.678524638 
7.05495e-05 0.87339868145 79.822246319 -0.000188821 0.88243330324 79.681389697 4.97413e-05 0.84382648783 79.827445512 
-0.000219743 0.8388070375 79.686658962 2.15461e-05 0.80513839396 79.835436606 -0.000257095 0.78421767979 79.69553232 
-1.55651e-05 0.75617368211 79.847113318 -0.000301208 0.71711926791 79.709408732 -6.34962e-05 0.69552912366 79.863966876 
-0.000352391 0.63571364806 79.730085352 -0.000124557 0.62155898426 79.887485016 -0.000410873 0.53794710888 79.759855891 
-0.000201491 0.5323793908 79.919550609 -0.000476722 0.42152050614 79.801308494 -0.000297498 0.42588032182 79.962738678 
-0.000549716 0.28391216176 79.857621838 -0.00041623 0.29974475307 80.019715247 -0.000629157 0.12241147212 79.932659528 
-0.00056175 0.15149936087 80.093929639 -0.065807919735 -0.000713581 80.03076252 -0.021428733287 -0.000738429 80.189212063 
-0.28358976425 -0.000800335 80.157238764 -0.22159950343 -0.000950727 80.310263503 -0.53361898829 -0.000884964 80.317848988 
-0.45139964985 -0.00120281 80.46204565 -0.81817567151 -0.000960324 80.519488672 -0.71281195045 -0.00149789 80.65047295 
-1.1387521851 -0.00101535 80.769572185 -1.007071088 -0.00183721 80.881800088 -1.4955270834 -0.00103341 81.076017083 
-1.3341887737 -0.00221847 81.162718774 -1.8865521006 -0.000990232 81.447242101 -1.6922752839 -0.00263354 81.499865284 
-2.3067483819 -0.000851578 81.890998382 -2.0766835613 -0.0030653 81.899753561 -2.7464523523 -0.000571122 82.413852352 
-2.4788033653 -0.00348362 82.367153365 -3.1896169428 -8.98021e-05 83.019866943 -2.8846046457 -0.00384063 82.905034646 
-3.6116015338 0.000661253 83.708511534 -3.2729508058 -0.00406635 83.512100806 -3.9768486908 0.00174998 84.472218691 
-3.6137439172 -0.00406691 84.181413917 -4.2366511285 0.00322008 85.293031129 -3.8662713429 -0.00372793 84.897861343 
-4.3280933026 0.00504673 86.139923303 -3.9784762325 -0.00293384 85.635706233 -4.1752860514 0.00707064 86.965236051 
-3.8878778599 -0.00159027 86.35671786 -3.5259322976 0.000228568 87.009522298 -0.000130998 0.85575180121 79.956949199 
2.33472e-05 0.80181229619 80.098636704 -0.000138868 0.84557517521 79.959395825 1.90373e-05 0.79516621576 80.100929784 
-0.000152078 0.82824409496 79.963636905 1.01545e-05 0.78165502319 80.105712977 -0.000170759 0.80319967631 79.970267324 
-3.8312e-06 0.76084081678 80.113280183 -0.00019508 0.76965456298 79.979979437 -2.37246e-05 0.73206409571 80.124121904 
-0.000225225 0.72659632381 79.993562676 -5.06162e-05 0.69444332398 80.139224676 -0.000261371 0.67277815557 80.012102844 
-8.58932e-05 0.64687654773 80.159270452 -0.000303645 0.60672699113 80.037181009 -0.000131249 0.58804039414 80.185635606 
-0.000352066 0.52674667762 80.070372322 -0.000188688 0.51639937139 80.219789629 -0.000406468 0.43092811578 80.113843884 
-0.000260513 0.43021739441 80.263493606 -0.000466382 0.31718053112 80.170052469 -0.000349298 0.32758412289 80.319097877 
-0.000530877 0.1832660923 80.241940908 -0.000457819 0.2064571805 80.38893982 -0.000598336 0.026869345894 80.333033354 
-0.000588933 0.064717972903 80.476140527 -0.1543037092 -0.000666144 80.447230709 -0.099727015962 -0.000745373 80.584100716 
-0.36238228829 -0.000730262 80.589104288 -0.28881620662 -0.000929422 80.716698207 -0.59911636968 -0.000784655 80.76348837 
-0.50413974927 -0.00114242 80.878184749 -0.86558019939 -0.000820548 80.975978199 -0.74667276806 -0.00138403 81.072985768 
-1.1617694773 -0.00082549 81.232129477 -1.0164138559 -0.00165121 81.306104856 -1.4860201708 -0.000782274 81.537670171 
-1.3119097473 -0.00193681 81.582139747 -1.834322866 -0.000667835 81.897832866 -1.6296117641 -0.00222773 81.905211764 
-2.1993293525 -0.000452453 82.316919353 -1.9631337766 -0.00250275 82.278723777 -2.5692221871 -9.98915e-05 82.796912187 
-2.3022379125 -0.00273021 82.704147913 -2.9263590281 0.000430384 83.336749028 -2.6318189032 -0.00286606 83.180058903 
-3.2458629015 0.00117716 83.930652901 -2.930728515 -0.00285343 83.701398515 -3.4943277534 0.0021653 84.565987753 
-3.1708170469 -0.00262558 84.257447047 -3.6291402177 0.00338485 85.221430218 -3.3164017574 -0.00211411 84.830521757 
-3.5990849081 0.00476015 85.865654908 -3.3247432015 -0.00126816 85.395163201 -3.3472303226 0.00611023 86.456030323 
-3.1482809497 -7.42082e-05 85.91701095 -2.7393935599 0.00134807 86.35457356 -0.000133779 0.74340813093 80.241542869 
-4.91951e-05 0.69031832709 80.383534673 -0.000141273 0.73364944936 80.245969551 -5.28801e-05 0.68404682513 80.387211175 
-0.000153828 0.71703282937 80.253674171 -6.04841e-05 0.67129955209 80.394559448 -0.000171531 0.6930283352 80.265046665 
-7.24767e-05 0.65166717911 80.405869821 -0.000194482 0.66089672291 80.280672277 -8.95662e-05 0.62453769491 80.421827305 
-0.000222766 0.61968500151 80.301330998 -0.000112702 0.58909299598 80.442911004 -0.000256417 0.56823045921 80.328196541 
-0.000143075 0.54431670731 80.470093293 -0.000295367 0.50517058093 80.362435419 -0.00018211 0.48899806719 80.504338933 
-0.000339372 0.4289535555 80.405505444 -0.000231448 0.42174523325 80.547003767 -0.00038792 0.33786192341 80.459454077 
-0.000292909 0.3410074545 80.599733546 -0.000440094 0.23005130949 80.526516691 -0.000368426 0.24510852989 80.66426247 
-0.000494402 0.10360518883 80.609013811 -0.000459937 0.13229767601 80.742812324 -0.043379953337 -0.000548547 80.710150453 
-0.000569213 0.0008287115241 80.837890088 -0.21267419771 -0.00059913 80.833113198 -0.15093495514 -0.000697612 80.952189955 
-0.40574380924 -0.000641272 80.981569809 -0.32436665981 -0.000845709 81.08889266 -0.62352370578 -0.000668154 81.159372706 
-0.5203735144 -0.0010128 81.251270514 -0.86610301771 -0.000670478 81.370764018 -0.73912763945 -0.0011962 81.442695639 
-1.1323226058 -0.000635891 81.619492606 -0.9797070891 -0.00139039 81.666255089 -1.4192605266 -0.000548475 81.909240527 
-1.239657169 -0.00158594 81.924977169 -1.7215607703 -0.000388488 82.24277077 -1.5144508757 -0.00176827 82.221070876 
-2.0307063298 -0.000132725 82.62119633 -1.7968234636 -0.00191645 82.555283464 -2.3340907249 0.000243934 83.043580725 
-2.0760650608 -0.00200236 82.926475061 -2.6141771214 0.000764949 83.505357121 -2.3373066689 -0.00199075 83.331006669 
-2.8476287368 0.00144545 83.997848737 -2.5608400226 -0.00184101 83.761320023 -3.0049238905 0.00228142 84.506433891 
-2.721780821 -0.00151212 84.205270821 -3.0505810874 0.00323458 85.009861087 -2.7902676178 -0.000971243 84.645547618 
-2.9447077799 0.00421256 85.47967778 -2.7326347331 -0.000209223 85.058984733 -2.646337732 0.00505208 85.881137732 
-2.513981114 0.000746736 85.417281114 -2.1026930194 0.00177344 85.688903019 -0.000132366 0.63402486895 80.526933131 
-0.000119554 0.58242812369 80.667831876 -0.000139228 0.62496518004 80.53332982 -0.000122212 0.57670924071 80.672585759 
-0.000150704 0.60954312148 80.543981879 -0.000127722 0.56508551609 80.682287484 -0.000166838 0.58727071636 80.559575284 
-0.000136476 0.54718726889 80.697124731 -0.000187664 0.55747125917 80.580389741 -0.000149057 0.522462466 80.717478534 
-0.000213177 0.51927606506 80.607197935 -0.000166242 0.4901743342 80.743922666 -0.000243288 0.47163326938 80.640964731 
-0.000188992 0.44941504886 80.777022951 -0.000277767 0.41331880933 80.682546191 -0.000218433 0.39910760456 80.817836395 
-0.000316162 0.34295344796 80.733388552 -0.000255829 0.33802951625 80.867210484 -0.0003577 0.25903571976 80.79502728 
-0.000302527 0.26483260441 80.926482396 -0.000401146 0.15998662721 80.869286373 -0.000359873 0.17808522231 80.997178778 
-0.000444642 0.044213806953 80.958178093 -0.000429087 0.076334137239 81.080916063 -0.089792764714 -0.000485489 81.064103465 
-0.041820420805 -0.000511084 81.179501821 -0.24333038909 -0.000519894 81.189555389 -0.17760545908 -0.000606214 81.295237459 
-0.41730830544 -0.000542673 81.337422305 -0.33192466283 -0.000713919 81.430124663 -0.61201471321 -0.000546926 81.510297713 
-0.50515752087 -0.000832291 81.586473521 -0.82682441722 -0.000523717 81.711095417 -0.69690305582 -0.000957507 81.766617056 
-1.0598113785 -0.000461833 81.942171378 -0.90565588659 -0.00108318 81.972231887 -1.3073273146 -0.000347736 82.205257315 
-1.1284173573 -0.00119966 82.204867357 -1.5633971875 -0.000165916 82.501107188 -1.3602628433 -0.00129336 82.464982843 
-1.81920447 0.00010005 82.82895447 -1.5938030613 -0.00134638 82.751693061 -2.0624370283 0.000465324 83.185477028 
-1.818695727 -0.0013366 83.062215727 -2.2767538624 0.000939992 83.564653862 -2.0212295216 -0.0012389 83.391309522 
-2.4414849698 0.00152316 83.95628497 -2.1839803518 -0.00102779 83.730880352 -2.5316469782 0.00219475 84.346126978 
-2.2858916783 -0.000682447 84.068921678 -2.5188204323 0.00290594 84.714780432 -2.3028646521 -0.000193794 84.389744652 
-2.3729753833 0.00356846 85.038665383 -2.209204767 0.000424883 84.673854767 -2.0657534565 0.00404968 85.290663457 
-1.9801160055 0.00113127 84.899366005 -1.5955295233 0.00182009 85.043509523 -0.000127425 0.52896832328 80.810120677 
-0.000189169 0.47945751574 80.948228484 -0.000133441 0.52085150981 80.81807949 -0.000190455 0.47443591045 80.95405509 
-0.000143483 0.50703431765 80.831666682 -0.000193176 0.46423050107 80.965901499 -0.000157559 0.48708534603 80.850965654 
-0.000197627 0.44851811331 80.983953887 -0.00017565 0.46040251081 80.876452489 -0.000204251 0.42681491237 81.008291088 
-0.000197679 0.4262186691 80.908595331 -0.000213628 0.39848198547 81.039484015 -0.000223465 0.38361028753 80.948053712 
-0.00022647 0.36273184832 81.077895152 -0.000252662 0.33150906891 80.995777931 -0.000243597 0.31863703276 81.124177967 
-0.000284683 0.26872650296 81.052608497 -0.000265905 0.26515436373 81.179076636 -0.000318595 0.19398482028 81.11967618 
-0.000294308 0.20114494039 81.24332606 -0.000352998 0.10596950218 81.198402498 -0.000329657 0.12542432444 81.318052676 
-0.000385869 0.003393879722 81.29020142 -0.000372621 0.036812204543 81.404276195 -0.1149015819 -0.000414383 81.396882582 
-0.065778424551 -0.000423516 81.503413125 -0.24982006831 -0.000434714 81.520057068 -0.18323625232 -0.000482083 81.616582252 
-0.40184298675 -0.000441824 81.661645987 -0.31610619369 -0.000547204 81.745313194 -0.57080772291 -0.000429273 81.823293723 
-0.46440353912 -0.000616546 81.890758539 -0.75564318814 -0.000389089 82.006586188 -0.62738655183 -0.000686163 82.054110552 
-0.95403662892 -0.000311782 82.212675629 -0.80327573326 -0.00075007 82.236122733 -1.1620616203 -0.000186623 82.44181162 
-0.98893504172 -0.000799864 82.436836042 -1.3737470543 -2.33841e-06 82.693377054 -1.1795080616 -0.000824505 82.655508062 
-1.5806647655 0.000251532 82.964924765 -1.368051008 -0.000810421 82.890241008 -1.771514879 0.000582382 83.252304879 
-1.5452106685 -0.00074219 83.137200669 -1.9318668442 0.000991152 83.548566844 -1.6989532797 -0.000604084 83.39081328 
-2.0441407738 0.00146774 83.843910774 -1.8145417438 -0.000382766 83.642921744 -2.087996392 0.00198545 84.125256392 
-1.8748083369 -7.13929e-05 83.882978337 -2.0413492166 0.00249575 84.376499217 -1.8609029808 0.000325349 84.097452981 
-1.8822498985 0.00292353 84.578739899 -1.7536990296 0.000784877 84.27124903 -1.5917123615 0.00316828 84.712432361 
-1.5360787713 0.00126404 84.388058771 -1.1959067317 0.00168196 84.432636732 -0.000119904 0.42949983831 81.087706162 
-0.000259993 0.38264034889 81.221424651 -0.000124908 0.42251379903 81.097321201 -0.000259639 0.37842143789 81.228420562 
-0.000133243 0.41062132124 81.113534679 -0.000259024 0.36984658247 81.242405418 -0.000144891 0.39345109159 81.136328908 
-0.00025834 0.35664188556 81.263465114 -0.000159793 0.3704884836 81.166178516 -0.000257868 0.33840388713 81.291778113 
-0.000177824 0.34107801001 81.20314999 -0.000257979 0.31459400244 81.327414998 -0.000198747 0.3044338196 81.24790118 
-0.000259123 0.28455487115 81.370838129 -0.000222154 0.25965390588 81.300781094 -0.000261811 0.24751562765 81.422101372 
-0.000247397 0.20574612252 81.362429877 -0.000266588 0.20261578934 81.481750211 -0.000273494 0.14165327834 81.433479722 
-0.000273987 0.14892555352 81.550122446 -0.000299017 0.066311581614 81.514756418 -0.00028446 0.085488472552 81.627649827 
-0.021291216364 -0.000321971 81.607282716 -0.000298282 0.011377680929 81.714961019 -0.12202052486 -0.000339645 81.711883525 
-0.074232694523 -0.000315423 81.812586395 -0.23647759431 -0.000348473 81.829493594 -0.17196719676 -0.000335372 81.921165197 
-0.36484665658 -0.000343904 81.961068657 -0.28212053589 -0.000356937 82.041055536 -0.50669915588 -0.000320316 82.107300156 
-0.40449970959 -0.000378001 82.17264771 -0.66076916422 -0.000271035 82.268734164 -0.5382258132 -0.000395272 82.316080813 
-0.82467368306 -0.000188511 82.445293683 -0.68150718006 -0.000404059 82.47106218 -0.99461409554 -6.47642e-05 82.636203096 
-0.83138110732 -0.000398139 82.636788107 -1.1650609319 0.000107775 82.839610932 -0.98344262134 -0.000369808 82.811462621 
-1.3284447183 0.000334913 83.052704718 -1.1315788321 -0.000310255 82.992408832 -1.4749477204 0.00061868 83.27040772 
-1.2677749084 -0.000210404 83.175664908 -1.5923834616 0.000954644 83.486243462 -1.3819833994 -6.24015e-05 83.355553399 
-1.6663709134 0.00132867 83.691350913 -1.4622313161 0.000138179 83.524811316 -1.6808848073 0.00171354 83.874534807 
-1.4949895941 0.000389407 83.674469594 -1.6192237993 0.00206657 84.023043799 -1.4659275619 0.000679883 83.793977562 
-1.4657072516 0.00232836 84.122897252 -1.3611770188 0.000985517 83.872087019 -1.2080449377 0.00242623 84.160714938 
-1.1691567858 0.00126901 83.897436786 -0.88293589658 0.0014734 83.860718897 -0.000110979 0.33683183543 81.356590165 
-0.000334401 0.29319548641 81.484320514 -0.000114855 0.33109671953 81.36785728 -0.000332226 0.28983559966 81.4923834 
-0.000121298 0.32133287733 81.386691123 -0.000327912 0.28300336438 81.508602636 -0.00013027 0.30723458517 81.413074415 
-0.000321529 0.27248201646 81.532864984 -0.000141688 0.28837752927 81.447182471 -0.000313185 0.25794370729 81.565250293 
-0.000155403 0.26422314148 81.489082859 -0.000303022 0.23895983674 81.605631163 -0.000171154 0.23412980671 81.538835193 
-0.000291214 0.21500326891 81.654072731 -0.000188523 0.19736389455 81.596591105 -0.000277958 0.18546132887 81.710532671 
-0.000206869 0.15312414175 81.662594858 -0.000263458 0.14965043495 81.774961565 -0.000225253 0.10056637122 81.737084629 
-0.0002479 0.10684091493 81.847304085 -0.000242347 0.038853973511 81.820295126 -0.00023141 0.056289772155 81.927601028 
-0.032786955973 -0.000256335 81.912361756 -0.0027113306006 -0.000213995 82.015593031 -0.11498776014 -0.000264808 82.01352676 
-0.070772902011 -0.000195465 82.111325802 -0.20813214678 -0.000264674 82.123948147 -0.14832399657 -0.000175333 82.214557997 
-0.31222723205 -0.000252087 82.243711232 -0.23550828224 -0.000152695 82.324771282 -0.42674432722 -0.000222446 82.372443327 
-0.33204814882 -0.000126104 82.441583149 -0.55042162931 -0.000170495 82.509830629 -0.43709296161 -9.34553e-05 82.564061962 
-0.6810594485 -9.05772e-05 82.654736449 -0.54903670429 -5.19171e-05 82.691042704 -0.81527757719 2.28586e-05 82.805617577 
-0.66531962413 2.04361e-06 82.820941624 -0.94829076926 0.000174451 82.959934769 -0.78223360196 7.24699e-05 82.951265602 
-1.0737104579 0.000366726 83.114350458 -0.89473701439 0.000163475 83.078911014 -1.1834150797 0.000598486 83.26410508 
-0.99633786827 0.00027847 83.199844868 -1.2675818915 0.000862837 83.402961891 -1.0790602761 0.000418998 83.308860276 
-1.3148911461 0.00114509 83.523611146 -1.1336091154 0.000583202 83.399799115 -1.3130905532 0.0014209 83.617230553 
-1.149689258 0.000764027 83.465539258 -1.2498989531 0.00165563 83.674308953 -1.1167519166 0.000947636 83.498351917 
-1.1143856182 0.00180475 83.685265618 -1.0249755744 0.00111231 83.490453574 -0.89879462423 0.00181759 83.641619624 
-0.86671348935 0.00122879 83.434989489 -0.63820151509 0.00126091 83.327215515 -0.000102022 0.25219178852 81.613373211 
-0.000414986 0.21239479892 81.733316201 -0.000104712 0.2477531929 81.626489807 -0.000410916 0.20989624012 81.74264476 
-0.00010917 0.24019339829 81.648140602 -0.000402744 0.20481473757 81.761296262 -0.000115345 0.22927391939 81.678410081 
-0.00039041 0.19698565309 81.789159347 -0.000123143 0.21466284515 81.717076155 -0.000373828 0.18616125519 81.826016745 
-0.000132407 0.19594008189 81.764209918 -0.000352887 0.1720169806 81.871645019 -0.000142883 0.17260342065 81.819375579 
-0.000327463 0.15415649909 81.925914501 -0.000154178 0.14408732918 81.882630671 -0.000297416 0.13211765613 81.988289344 
-0.000165715 0.10977009518 81.953426905 -0.0002626 0.10538887874 82.058328121 -0.000176667 0.069006774238 82.031811726 
-0.000222853 0.073424585201 82.135685015 -0.000185895 0.02116472393 82.117131276 -0.000178002 0.035674349541 82.21961215 
-0.034330672636 -0.000191872 82.209134773 -0.008380413179 -0.000127845 82.309463063 -0.097928612073 -0.000192617 82.307080912 
-0.059177171358 -7.21373e-05 82.404298071 -0.16986953858 -0.000185639 82.410546539 -0.11700741322 -1.05668e-05 82.503091413 
-0.25008262919 -0.000167917 82.518437629 -0.18193362525 5.72698e-05 82.604740625 -0.33805428282 -0.000135942 82.629702283 
-0.25369275696 0.000131884 82.707777757 -0.43268682691 -8.58492e-05 82.743044827 -0.33157069354 0.000213892 82.810381694 
-0.53213121008 -1.36946e-05 82.85643921 -0.41427822689 0.000303968 82.910590227 -0.63361547764 8.40818e-05 82.967738478 
-0.49979730211 0.000402718 83.006009302 -0.73328309748 0.000209959 83.073876097 -0.58525084215 0.000510449 83.093515842 
-0.82606807646 0.000364379 83.171253076 -0.66677621401 0.000626784 83.169849214 -0.90563737529 0.000544553 83.255404375 
-0.73945798387 0.000750088 83.230985984 -0.96444941511 0.000743118 83.321038415 -0.79733965207 0.000876735 83.272292652 
-0.99399090902 0.000946881 83.362146909 -0.83356563546 0.00100026 83.288753635 -0.98524494035 0.00113594 83.37248794 
-0.84069855042 0.00111053 83.27517655 -0.92944421154 0.00128392 83.345359212 -0.81125748494 0.00119332 83.226286485 
-0.81914346286 0.00135896 83.274989463 -0.73850829108 0.00123059 83.137529291 -0.64958001328 0.00132695 83.157298013 
-0.61749984132 0.00120086 83.005623841 -0.4462795999 0.00108522 82.8297006 -9.43261e-05 0.17690216309 81.854555837 
-0.000504527 0.14164514212 81.964711858 -9.58355e-05 0.17372213138 81.869620869 -0.000498602 0.13995608717 81.975505913 
-9.83174e-05 0.1683054019 81.894587598 -0.000486646 0.13652130906 81.996989691 -0.000101714 0.16047562699 81.929243373 
-0.000468448 0.13122355729 82.029054443 -0.000105927 0.14999179564 81.973370204 -0.000443705 0.12389214763 82.071286852 
-0.000110803 0.1365454021 82.026544598 -0.000412023 0.11430412084 82.123268879 -0.000116108 0.11977245404 82.088237546 
-0.000372939 0.10218131331 82.184477687 -0.000121501 0.099260149995 82.15801485 -0.000325935 0.087204803731 82.254285796 
-0.000126496 0.074558861653 82.235137938 -0.000270465 0.069020310994 82.331761589 -0.000130421 0.045202127785 82.318765472 
-0.000205979 0.047250686522 82.415970413 -0.000132375 0.010735756042 82.407856044 -0.000131964 0.021516338205 82.505676562 
-0.029247112525 -0.00013118 82.501472213 -0.0085390742796 -4.7983e-05 82.599646344 -0.075056920775 -0.00012534 82.598186321 
-0.04321311012 4.62745e-05 82.69615251 -0.126845013 -0.000113021 82.696388013 -0.082699685416 0.00015093 82.793480285 
-0.1845286309 -9.20538e-05 82.794593631 -0.12703103283 0.000265843 82.889435033 -0.24769285389 -5.99982e-05 82.890456854 
-0.17600908336 0.000390518 82.981751083 -0.31549057044 -1.42742e-05 82.98197957 -0.22912024549 0.000523992 83.067801245 
-0.3865200977 4.75927e-05 83.066221098 -0.28544938846 0.000664684 83.144605388 -0.4587068059 0.000127593 83.140402806 
-0.34357491586 0.00081021 83.208935916 -0.52919732152 0.000226696 83.200904322 -0.40148405867 0.000957151 83.257217059 
-0.59427459107 0.000344156 83.244046591 -0.45648712689 0.00110076 83.285714127 -0.64933624633 0.000476694 83.265757246 
-0.50518580029 0.00123468 83.2903088 -0.68896417214 0.00061766 83.261415172 -0.54348740089 0.00135058 83.267157401 
-0.7071197807 0.000756345 83.226674781 -0.566719702 0.001438 83.212031702 -0.69750335463 0.000877672 83.157076355 
-0.56986245831 0.00148437 83.121446458 -0.6541250763 0.000962766 83.048861076 -0.54793257124 0.00147533 82.992385571 
-0.5720730151 0.000989978 82.899511015 -0.49653158561 0.00139612 82.823143586 -0.44846899176 0.000937254 82.708455992 
-0.41255636621 0.0012316 82.613414366 -0.29499292335 0.000976898 82.365745923 -8.97726e-05 0.11245929879 82.076338701 
-0.000603351 0.082573621142 82.174407679 -9.01484e-05 0.11042097934 82.093753021 -0.00059568 0.081588925005 82.186968575 
-9.07337e-05 0.10694543314 82.122537567 -0.000580147 0.079584499445 82.211887501 -9.14615e-05 0.10191776428 82.162483236 
-0.000556374 0.076490742796 82.248958657 -9.22282e-05 0.095177329028 82.213077071 -0.000523809 0.072204286625 82.297673213 
-9.2883e-05 0.086522261253 82.273702139 -0.000481735 0.066588627285 82.357519173 -9.32137e-05 0.075711628198 82.343637572 
-0.000429297 0.059477040869 82.427481359 -9.29296e-05 0.062472323929 82.421958776 -0.000365533 0.050675644758 82.506841455 
-9.16406e-05 0.046507731922 82.507538168 -0.000289415 0.039968670426 82.59427843 -8.88338e-05 0.02751070485 82.599046395 
-0.000199913 0.027126824861 82.688369275 -8.38497e-05 0.0051816771256 82.694954463 -9.60673e-05 0.011918544532 82.787290455 
-0.020746801231 -7.58594e-05 82.793337001 -0.0058742975804 2.29135e-05 82.889120068 -0.050477464237 -6.38501e-05 82.892276664 
-0.026435216607 0.000157527 82.991541017 -0.084107394123 -4.66239e-05 82.989269994 -0.04988554394 0.00030783 83.091945344 
-0.12157654497 -2.28219e-05 83.081734545 -0.076249798257 0.000473257 83.187339598 -0.16260575843 9.01391e-06 83.166616758 
-0.10541305692 0.000652413 83.274351057 -0.2066297064 5.03239e-05 83.240599706 -0.1370732468 0.000842837 83.349334247 
-0.25271410944 0.000102342 83.300309109 -0.17068160039 0.00104075 83.4083766 -0.29948426695 0.000165822 83.341815267 
-0.20538663462 0.0012408 83.447301635 -0.34505489716 0.000240666 83.361127897 -0.2399813214 0.00143579 83.461767321 
-0.38697752652 0.000325474 83.354180527 -0.27284806167 0.00161656 83.447457062 -0.42223546124 0.000417049 83.317001461 
-0.30194454131 0.00177182 83.400060541 -0.44729392427 0.000509921 83.245669924 -0.32481184289 0.00188829 83.315742843 
-0.45823420085 0.000596051 83.136959201 -0.3386442205 0.00195106 83.191202221 -0.45100397325 0.000664801 82.988173973 
-0.34043353615 0.00194432 83.024020536 -0.42179284025 0.000703566 82.79799484 -0.32720266998 0.00185249 82.81311467 
-0.36753977712 0.000698625 82.566750777 -0.29633819987 0.00166235 82.5590052 -0.2865466287 0.000636299 82.296939629 
-0.24601817843 0.00136283 82.264616178 -0.17568141288 0.000960261 81.935026413 -8.14499e-05 0.06062673942 82.274222761 
-0.000677052 0.037138840307 82.35790396 -8.06375e-05 0.059531915096 82.294389985 -0.000666684 0.036703136373 82.372535364 
-7.92342e-05 0.057663925612 82.327898474 -0.000645661 0.035815596345 82.401596704 -7.71637e-05 0.054958283346 82.374242817 
-0.000613416 0.034443994616 82.444785005 -7.43151e-05 0.051325611009 82.432815289 -0.000569114 0.032540077727 82.501495722 
-7.05388e-05 0.046652715548 82.502805784 -0.000511667 0.030040532835 82.570922667 -6.5641e-05 0.040804810818 82.583301789 
-0.000439772 0.026867551708 82.652257948 -5.9378e-05 0.033628837609 82.672888562 -0.000351955 0.022930165526 82.743992034 
-5.14492e-05 0.024957999285 82.770149501 -0.000246631 0.018127193796 82.844713906 -4.14915e-05 0.014619117903 82.873366982 
-0.000122204 0.012350227306 82.952611473 -2.90746e-05 0.0024426203406 82.98022368 2.28162e-05 0.0054888015082 83.065372328 
-0.011724003556 -1.37009e-05 83.088304604 -0.0025622154688 0.000189649 83.180484905 -0.027998133891 5.18839e-06 83.194799934 
-0.011893365337 0.000379037 83.294740265 -0.046438793941 2.81947e-05 83.296308794 -0.022567824979 0.00059099 83.404734425 
-0.067018503151 5.59272e-05 83.389343703 -0.034605685786 0.000824476 83.506671386 -0.089588951927 8.89435e-05 83.469835652 
-0.047964289249 0.00107706 83.596066589 -0.11384189277 0.000127658 83.533338893 -0.062515074161 0.00134453 83.668050574 
-0.13926459555 0.000172211 83.575334596 -0.07801776858 0.00162045 83.717672169 -0.16510167508 0.000222298 83.591031675 
-0.094092019354 0.0018958 83.739500219 -0.19030791016 0.000276947 83.57546291 -0.110190631 0.0021587 83.728022631 
-0.21353018135 0.000334286 83.524074181 -0.12557813297 0.00239418 83.677941133 -0.23309506232 0.000391293 83.432405062 
-0.13931229705 0.00258434 83.584460297 -0.24703914489 0.00044361 83.296960145 -0.15025590089 0.00270882 83.443069901 
-0.25318874884 0.000485493 83.115072749 -0.15709997602 0.00274566 83.250820976 -0.24929206009 0.000509925 82.88546606 
-0.15842795343 0.00267293 83.005797953 -0.23323493213 0.000509271 82.608620932 -0.15282525981 0.00247063 82.70839226 
-0.20332135685 0.00047554 82.287462357 -0.13903538065 0.00212413 82.361185381 -0.1586204137 0.000401698 81.927280414 
-0.11616053694 0.00162336 81.969251537 -0.083873201008 0.000986396 81.541088101 -4.00903e-06 0.023444598948 82.443409501 
-8.5561e-05 0.0080748569125 82.510301163 2.44784e-06 0.023026428205 82.467037572 -4.95673e-05 0.0080072594266 82.527410391 
1.32892e-05 0.02231209826 82.506182902 2.28449e-05 0.0078687791119 82.561528431 2.86312e-05 0.021275833775 82.560343266 
0.000132504 0.0076528085886 82.612054441 4.86285e-05 0.019882018492 82.628715482 0.000280596 0.0073494834878 82.678587127 
7.34659e-05 0.018085049883 82.71049535 0.000468594 0.006945657535 82.760024712 0.000103345 0.015830849463 82.804277651 
0.000698152 0.0064250548056 82.855464915 0.000138469 0.013057606783 82.908756193 0.000970955 0.0057684007011 82.963204959 
0.000179017 0.0096978505377 83.021923949 0.00128852 0.0049537905987 83.081641589 0.000225113 0.0056808496688 83.14157342 
0.00165193 0.0039571405724 83.208371209 0.00027679 0.00093700158501 83.264997168 0.00206149 0.0027530288885 83.340990061 
-0.0045972235546 0.000333936 83.389088724 0.0013158260282 0.00251632 83.475994604 -0.010972098008 0.000396229 83.510343798 
-0.00037864929772 0.00301377 83.609882006 -0.018215293622 0.000463067 83.624361994 -0.0023510102787 0.00354885 83.7383509 
-0.026321167927 0.000533466 83.726648768 -0.0046153764458 0.00411348 83.856402306 -0.035236262803 0.000605963 83.812017763 
-0.0071757239487 0.00469565 83.958540744 -0.044844114679 0.000678497 83.874693015 -0.010021398938 0.00527861 84.038675439 
-0.05494767193 0.000748291 83.908910672 -0.013121807662 0.00584007 84.090321408 -0.065251672888 0.000811741 83.908319473 
-0.01642032633 0.00635149 84.106500126 -0.075346381392 0.000864337 83.866979081 -0.019828070851 0.00677777 84.080039371 
-0.084695980449 0.000900633 83.77885528 -0.023217104117 0.00707733 84.004371704 -0.09263505631 0.000914316 83.638811156 
-0.026416000909 0.00720297 83.872731101 -0.098378508648 0.000898398 83.442694009 -0.029206634318 0.0071037 83.680047334 
-0.10105097892 0.000845605 83.187818679 -0.031326524537 0.00672769 83.422138225 -0.099740517941 0.000748911 82.873749718 
-0.032477109126 0.00602665 83.097200409 -0.093582801917 0.000602557 82.502186602 -0.032342190403 0.00496126 82.70610039 
-0.081874593342 0.000402517 82.078057793 -0.030617364318 0.0035085 82.252668564 -0.064216537534 0.000146643 81.609430438 
-0.027053416319 0.00166466 81.744399516 -0.021503493374 -0.000526429 81.192761793 0.00176257 0.0031954809276 82.578901229 
0.0018532 0.0031051969936 82.606704863 0.00200439 0.0029517999833 82.65261074 0.00221627 0.0027309657573 82.716118584 
0.0024366917913 0.00248887 82.796527998 0.002061426057 0.00282197 82.892738454 0.0015962414916 0.00321484 83.003449289 
0.0010311037005 0.00366602 83.126859706 0.00035522373039 0.00417293 83.260968795 -0.00044234007071 0.00473141 83.403075566 
-0.0013719218428 0.00533529 83.550179022 -0.0024422008969 0.0059757 83.698378271 -0.0036588009803 0.00664047 83.843472691 
-0.0050225825689 0.00731337 83.980362153 -0.0065274597291 0.00797342 84.1032473 -0.0081578915353 0.00859411 84.205629872 
-0.0098859720715 0.00914292 84.280513032 -0.01166844115 0.00958096 84.320101641 -0.013443368269 0.00986304 84.316602368 
-0.015128219968 0.00993834 84.26182352 -0.016617529545 0.00975185 84.14797443 -0.017783573434 0.00924679 83.968064273 
-0.018478937877 0.00836813 83.716500238 -0.018543142464 0.00706733 83.389485142 -0.017813482781 0.00530817 82.986114783 
-0.016140832335 0.00307355 82.508675632 -0.013411430384 0.000371708 81.96354373 -0.0095722457025 -0.00275765 81.361385826 
-0.0093356788167 -0.00459606 80.286377999 -0.016967799623 -0.000123718 80.83154472 -0.030470096511 0.000752305 81.374650817 
-0.051323122915 0.00168899 81.921610076 -0.087330102488 0.00291083 82.480826702 -0.14972654686 0.00449078 83.063305247 
-0.25324059664 0.00653109 83.681940597 -0.41678930272 0.00916395 84.351426303 -0.66452446623 0.012535 85.086994466 
-1.0270556376 0.0167624 85.902662638 -1.5425677398 0.0218369 86.80795774 -2.2572217841 0.0274346 87.801291784 
-3.2238564701 0.0324808 88.85684647 -4.4968712542 0.0345282 89.902711254 -6.118053452 0.0295217 90.787803452 
-0.00893993 -0.00045016506946 79.667734965 -0.00232216 0.035736517861 80.342294082 -0.00106506 0.084659405186 80.977178595 
-1.53443e-05 0.14277482727 81.589533173 0.00118243 0.20109732972 82.19547467 0.00265659 0.24835349566 82.812853504 
0.00456503 0.27048858307 83.460986417 0.00712235 0.24942018401 84.161305816 0.0106106 0.16124546818 84.938293532 
-0.02612305039 0.0153826 85.81881505 -0.35591026697 0.0218241 86.831290267 -0.885763887 0.0302532 88.001515887 
-1.6909437126 0.0404678 89.342813713 -2.8650218304 0.0514222 90.83470183 -4.5182632649 0.0571202 92.378543265 
-0.0132865 0.0093075143034 79.075964886 -0.00458814 0.091367026662 79.870453973 -0.00300982 0.20569285519 80.586822145 
-0.00194986 0.34711478871 81.252908211 -0.000932671 0.50647434522 81.892314655 0.000203229 0.67399961928 82.528277381 
0.00163559 0.83853428542 83.184704715 0.00360846 0.98602272574 83.888327274 0.00646765 1.0973619868 84.669848013 
0.0107107 1.1453749811 85.566185019 0.017036 1.0905495004 86.6221605 0.0263998 0.87532263478 87.890987365 
0.0397398 0.41618074172 89.430503258 -0.40378131954 0.058492 91.29107432 -1.7517802169 0.0773911 93.473720217 
-0.0173298 0.019049601684 78.537373598 -0.00674165 0.14529537461 79.437343625 -0.00491543 0.32263562305 80.222820377 
-0.00393096 0.54481968078 80.931333319 -0.00321403 0.80341243746 81.592666563 -0.00259663 1.0914169916 82.233883008 
-0.00192377 1.4024642268 82.881875773 -0.000991103 1.7293962622 83.565333738 0.00049983 2.0623849487 84.318055051 
0.00301597 2.3861176342 85.181852366 0.00730493 2.6756036652 86.211126335 0.0145878 2.8896341124 87.478845888 
0.0266076 2.9605248567 89.081045143 0.0468761 2.7814000218 91.140909978 0.0728092 2.1735081727 93.788461827 
-0.0207503 0.027753280795 78.076974319 -0.0085872 0.1923617398 79.06380026 -0.00658771 0.42441504168 79.904804958 
-0.00572713 0.71708341221 80.645750588 -0.00535858 1.0631997598 81.32098024 -0.00532916 1.459175207 81.959894793 
-0.00553972 1.9043169599 82.59028304 -0.00588293 2.3999452113 83.240754789 -0.00621001 2.9482884778 83.944251522 
-0.0062705 3.5509621819 84.741837818 -0.00560286 4.2064307656 85.689069234 -0.00333137 4.9056357907 86.864464209 
0.00212207 5.623867293 88.383672707 0.0144687 6.3087535783 90.418676422 0.0339067 6.8444566596 93.21663334 
-0.0232589 0.034393494735 77.716141905 -0.00994263 0.2275963085 78.767643692 -0.00783766 0.50040532477 79.650458675 
-0.0071013 0.84576993841 80.416006062 -0.00703934 1.2578419082 81.101408092 -0.00752265 1.7361051816 81.737284818 
-0.00851624 2.2850664291 82.351323571 -0.0100258 2.9138311446 82.970508855 -0.0120892 3.6362261903 83.62480381 
-0.014758 4.4709592217 84.351110778 -0.0180516 5.4420418232 85.199048177 -0.0218703 6.5786811662 86.241318834 
-0.025723 7.9140613128 87.589908687 -0.0278527 9.4820701526 89.426949847 -0.0271233 11.297082961 92.057317039 
-0.0246366 0.038129404141 77.470439796 -0.0106668 0.24703202498 78.562559975 -0.00851445 0.54214593031 79.47352107 
-0.00785794 0.9163948183 80.257733182 -0.00797767 1.3647631384 80.953696862 -0.00876157 1.888634257 81.592475743 
-0.0102171 2.4955951179 82.200984882 -0.0124257 3.1995600443 82.804989956 -0.0155539 4.0215233957 83.432016604 
-0.019871 4.9912067009 84.114873299 -0.0257669 6.1496018492 84.897498151 -0.0337892 7.5528640344 85.843745966 
-0.0445038 9.2776071082 87.054242892 -0.0583133 11.42826004 88.69853996 -0.0746112 14.139023712 91.082876288 
-0.0247658 0.038471164959 77.348243535 -0.010683 0.24841891269 78.455576087 -0.00853452 0.5448594113 79.381367589 
-0.00788651 0.92076298716 80.179867013 -0.00801301 1.3711603202 80.88941968 -0.00880183 1.8975101197 81.54077988 
-0.0102608 2.5074895529 82.161020447 -0.0124719 3.2150982197 82.77554178 -0.0156027 4.0414557795 83.411584221 
-0.0199241 5.0163999339 84.102050066 -0.0258284 6.1811136121 84.890646388 -0.0338677 7.5919605973 85.840969403 
-0.0446152 9.325892735 87.053367265 -0.0584929 11.487867325 88.697432675 -0.0749068 14.212483894 91.079316106 
-0.0236483 0.035382473656 77.349389926 -0.00999205 0.23165063478 78.447109365 -0.00789873 0.50834883217 79.374524168 
-0.00718767 0.85856929985 80.1830707 -0.00714568 1.2765845056 80.909315494 -0.00764317 1.7620930255 81.583566974 
-0.00864611 2.3198077211 82.232912279 -0.0101619 2.9591216572 82.883878343 -0.0122308 3.694078658 83.566131342 
-0.0149082 4.5436947811 84.316145219 -0.0182195 5.5322669447 85.183293055 -0.022075 6.6894374808 86.239842519 
-0.0259984 8.0488349046 87.597845095 -0.0282683 9.6448320379 89.439617962 -0.0277635 11.492015379 92.071284621 
-0.0214059 0.029285641861 77.465671958 -0.00867281 0.19878327266 78.530051727 -0.00669242 0.43703486445 79.446136136 
-0.00587341 0.73745326029 80.25958174 -0.00553708 1.0930503586 81.003699641 -0.00552955 1.5004895156 81.707420484 
-0.00575299 1.9594224761 82.397637524 -0.00610227 2.4714269158 83.102603084 -0.00643177 3.0389571846 83.854482815 
-0.00649534 3.6638015841 84.694188416 -0.00583737 4.3445386307 85.677101369 -0.00359035 5.0720666024 86.881953398 
0.00181427 5.8214291798 88.42509082 0.0140741 6.539460178 90.480349822 0.0334015 7.1085521069 93.298337893 
-0.018262 0.020968862806 77.681580837 -0.00686862 0.15363545318 78.691592547 -0.00506852 0.33911663389 79.583498366 
-0.00414119 0.5715151494 80.394791851 -0.00346735 0.84258320679 81.154173793 -0.0028774 1.1456204059 81.887829594 
-0.00221776 1.4745185731 82.621531427 -0.00128638 1.8223468074 83.383603193 0.00021227 2.1792899096 84.20721009 
0.00274176 2.5299140398 85.13413596 0.00704636 2.8487948495 86.219155151 0.0143451 3.0939743334 87.536055667 
0.0263829 3.1964480307 89.182651969 0.0466888 3.047166158 91.285153842 0.0727191 2.4639845356 93.978535464 
-0.0145106 0.011425104948 77.975576995 -0.00476428 0.10109711136 78.913826889 -0.00321858 0.2250961285 79.769542871 
-0.00223051 0.37873719606 80.569976804 -0.00126576 0.55304567908 81.337812321 -0.000160567 0.73850478706 82.094934213 
0.00126144 0.92414646343 82.864353537 0.00324212 1.0959391561 83.672180844 0.00612486 1.2345351723 84.548774828 
0.0104051 1.3122151692 85.531374831 0.0167806 1.288543222 86.665386778 0.0262106 1.1045002079 88.005589792 
0.039642 0.67449501008 89.61218899 -0.12126518639 0.0585391 91.538789486 -1.4537886778 0.0776782 93.791118678 
-0.0104766 0.0016672788531 78.322961811 -0.00255837 0.04632577689 79.176666323 -0.00133984 0.10607083597 79.985125164 
-0.000376003 0.17802463395 80.764903366 0.000761484 0.25337613544 81.530961865 0.00220387 0.32104799092 82.299535009 
0.00410761 0.3670509316 83.088976068 0.00668506 0.37312368168 83.920240318 0.010216 0.31485711932 84.817521881 
0.0150517 0.15927043666 85.808171563 -0.13819602959 0.0215779 86.92163593 -0.63701586551 0.0301171 88.185431866 
-1.414809414 0.0404745 89.615099414 -2.5680153408 0.0516229 91.193265341 -4.210102335 0.0575903 92.824602335 
-0.0074086619123 -0.00647254 78.697425562 -0.005985953332 -0.000434439 79.458880683 -0.0078041918551 0.000397356 80.211675002 
-0.013424521087 0.00123491 80.960794541 -0.030467488509 0.00239001 81.712921459 -0.07003030775 0.00393915 82.477565808 
-0.14689054607 0.00598274 83.266765546 -0.28031912412 0.00865025 84.094433124 -0.49519035466 0.0120844 84.975591355 
-0.82323875825 0.0164013 85.925076758 -1.3041839393 0.0215903 86.953393939 -1.9861025416 0.0273288 88.060482542 
-2.9240815155 0.032543 89.222621515 -4.174928581 0.0347889 90.370288581 -5.7826379377 0.0300265 91.354067938 
-0.013815367217 -0.00310327 80.598319297 -0.0101358 0.001493954003 80.018046276 -0.041629541234 0.000171514 81.076388841 
-0.010324443043 -0.000517675 80.562257023 -0.084197772369 0.000409223 81.569302872 -0.023286129396 0.000140913 81.104683939 
-0.14182774045 0.000571244 82.07774284 -0.041370366806 0.000356859 81.648251717 -0.22139063581 0.000798973 82.605863636 
-0.070782041883 0.000617878 82.199240042 -0.33358963901 0.00108976 83.161007639 -0.1211620523 0.000973667 82.767443752 
-0.49278273117 0.00143349 83.752498731 -0.20553543949 0.00146415 83.364835439 -0.71734342056 0.00181345 84.390560421 
-0.340768172 0.00214351 84.005126172 -1.030251979 0.00219291 85.085208979 -0.54841103423 0.00308469 84.703492034 
-1.4596677799 0.00249197 85.84371778 -0.85578378517 0.00438104 85.474520785 -2.0390488632 0.00255023 86.666678863 
-1.2970257944 0.00614326 86.330885794 -2.806125778 0.00205748 87.540905778 -1.9136210869 0.00848585 87.277811087 
-3.7995090501 0.000476758 88.42741905 -2.753525194 0.0114696 88.304315194 -5.0505877985 -0.0030239 89.242307798 
-3.8670511539 0.0150777 89.366981154 -6.5708232954 -0.010448 89.827453295 -5.2978971464 0.0186378 90.362807146 
-7.0582966976 0.0218848 91.085306698 -0.00591525 -0.0040366584726 79.979936828 -0.014194 0.008299761421 79.320383799 
-0.000731608 0.009599223184 80.589431177 -0.000978718 0.024175214742 80.016390485 -0.000197756 0.026162955727 81.177955544 
-0.000124889 0.063014245234 80.667122255 0.000124017 0.043231855637 81.757157744 2.71696e-05 0.11509634695 81.287847653 
0.000479298 0.052237011392 82.338985989 0.000184307 0.17200139276 81.893865607 0.000889614 0.041652094601 82.937804905 
0.000405432 0.22337251682 82.502093483 -0.0033189676083 0.00136881 83.569603568 0.000735807 0.25643297627 83.130783024 
-0.10174400556 0.00192981 84.252313676 0.00123661 0.25498549761 83.800218502 -0.2784179405 0.00257653 85.005235941 
0.00199653 0.19789432076 84.533167679 -0.56569515261 0.00328488 85.848315153 0.0031425 0.057019165966 85.355070834 
-1.0054925251 0.00396726 86.800063525 -0.20536965055 0.00485321 86.293499051 -1.6510386484 0.00438816 87.871608648 
-0.63955047726 0.0073701 87.376238477 -2.5672743982 0.00404915 89.055754398 -1.3110630366 0.0109899 88.624583037 
-3.8278022966 0.00187698 90.306172297 -2.3020177885 0.0160442 90.039627789 -5.504505719 -0.00399061 91.499385719 
-3.7068247041 0.0225777 91.572564704 -5.6221046349 0.0307685 93.070654635 -0.0087743 0.0070344195784 79.37553628 
-0.0181307 0.015373828574 78.653777571 -0.0016701 0.06580713424 80.109788666 -0.00144659 0.060549735672 79.492838664 
-0.000845101 0.14679364241 80.785138358 -0.000416575 0.15376028316 80.241980717 -0.000379753 0.24586945652 81.424103543 
-0.000353199 0.27972262206 80.928983378 7.48676e-05 0.35373579385 82.046438206 -0.000335863 0.42856545661 81.577773543 
0.000563464 0.45958830643 82.672631694 -0.000303954 0.59049228941 82.211446711 0.00112159 0.55040775951 83.32409224 
-0.000216635 0.75488151631 82.853281484 0.00178957 0.60951470267 84.024738297 -2.13223e-05 0.9089431328 83.528146867 
0.00261241 0.61450700076 84.801679999 0.000362893 1.0358772762 84.264252724 0.00363141 0.53442489362 85.686383106 
0.0010621 1.1122239861 85.094956014 0.00486321 0.3260067221 86.714507278 0.00227497 1.1042935987 86.060486401 
-0.071048711029 0.0062244 87.924291711 0.00430914 0.96310189397 87.209098106 -0.73927959577 0.00746524 89.349276596 
0.0076444 0.61804126305 88.596596737 -1.7887104802 0.00743281 91.00107048 -0.031109324197 0.0129342 90.278815324 
-3.3544503777 0.00560459 92.832640378 -1.1183834833 0.0212133 92.290531483 -2.8261099636 0.0329596 94.589879964 
-0.0115152 0.018520937858 78.811163962 -0.0217162 0.022154237733 78.048255762 -0.00259169 0.12270399225 79.658204008 
-0.00188584 0.09577864285 79.014800357 -0.00149525 0.26856009861 80.408971901 -0.000707267 0.24145114463 79.849182855 
-0.000909331 0.45076981001 81.09638819 -0.000745475 0.43890985963 80.59077714 -0.000387664 0.66029990635 81.746944094 
-0.000887566 0.67760835073 81.271281649 0.000133796 0.88854590642 82.385744094 -0.00107748 0.94942367857 81.918336321 
0.000706187 1.1264355275 83.038094473 -0.00128874 1.2474727173 82.558567283 0.00138845 1.3628953439 83.731514656 
-0.00149366 1.5648271731 83.219402827 0.00225558 1.5826995045 84.498060495 -0.00164642 1.8927400363 83.931459964 
0.00340334 1.7633723688 85.376687631 -0.00166739 2.2183002217 84.731559778 0.00495014 1.8706463298 86.41629367 
-0.00141398 2.5208296639 85.666860336 0.00699954 1.8517881998 87.6784718 -0.000635077 2.7664380455 86.799351955 
0.00964924 1.6263938489 89.238196151 0.00113524 2.8997547271 88.211575273 0.0121271 1.0729202483 91.176689752 
0.00459413 2.8312193793 90.011120621 0.0158245 0.019872172637 93.559560827 0.0116104 2.424475588 92.328194412 
0.0219177 1.4549089219 95.281181078 -0.0139422 0.029319865651 78.312377734 -0.024724 0.028024647073 77.532376353 
-0.00341861 0.17518955065 79.255656449 -0.00226065 0.12649474608 78.604572254 -0.00208952 0.38062637994 80.06889662 
-0.000965202 0.3177707457 79.508292254 -0.00141161 0.63964108027 80.79408792 -0.00110206 0.57753206557 80.293098934 
-0.000854312 0.9442207827 81.463044217 -0.00139894 0.89516810197 80.996370898 -0.000339897 1.2889792894 82.104000711 
-0.00180854 1.2648317214 81.649238279 0.000190201 1.6702936941 82.744306306 -0.00232481 1.6841988373 82.279941163 
0.000801094 2.0851057152 83.412624285 -0.00295564 2.1534176038 82.916312396 0.00157847 2.5293078899 84.14210211 
-0.00371003 2.67407345 83.58834655 0.00264378 2.9954684074 84.974171593 -0.00459211 3.2477852481 84.332244752 
0.00417641 3.4690989093 85.963621091 -0.00558597 3.8741505509 85.195129449 0.0064313 3.9226502618 87.185349738 
-0.00663106 4.5471106376 86.241899362 0.00981977 4.3057112507 88.743998749 -0.00752747 5.2485800827 87.566339917 
0.0142745 4.5281221423 90.783097858 -0.00800916 5.9366977566 89.306912243 0.0230955 4.4434580578 93.491871942 
-0.00626703 6.5309775138 91.668852486 -0.00471897 6.8574245102 94.93550549 -0.0158712 0.038252453426 77.902420647 
-0.0269552 0.032399595246 77.130214705 -0.00407741 0.21797412285 78.921481877 -0.00253782 0.14946086835 78.280964132 
-0.00256976 0.47179490146 79.783538099 -0.00115915 0.37474474535 79.236830255 -0.00182947 0.79346288151 80.537480118 
-0.0013743 0.68104003468 80.054181965 -0.00126001 1.1763021628 81.218837837 -0.00179439 1.0579772779 80.774602722 
-0.000775728 1.6183441203 81.85781588 -0.00238121 1.5018828164 81.431317184 -0.000317453 2.1216438206 82.481946179 
-0.00314865 2.0145738324 82.052826168 0.00017567 2.6917183735 83.119321627 -0.00413951 2.6027232383 82.666206762 
0.00078228 3.3369546655 83.801395335 -0.00541913 3.2776666714 83.299363329 0.00161851 4.0679843132 84.567265687 
-0.00708309 4.0554961657 83.985143834 0.00287011 4.8965142012 85.469965799 -0.00926487 4.9573049596 84.76564504 
0.00485572 5.8328470401 86.58517296 -0.0121539 6.0091713429 85.700158657 0.00814679 6.8808605821 88.027099418 
-0.0159618 7.2413650109 86.877814989 0.0134555 8.0268706533 89.972219347 -0.0211528 8.684494718 88.438735282 
0.0249007 9.2261385633 92.700631437 -0.0269444 10.363340549 90.616259451 -0.0387032 12.253578953 93.797521047 
-0.0171489 0.04425335892 77.599461541 -0.0282624 0.034816260677 76.859543339 -0.00450524 0.24638537772 78.671293622 
-0.0026918 0.16209858263 78.058264417 -0.00288486 0.53219219448 79.568484806 -0.00126397 0.40603066768 79.047678332 
-0.00211018 0.89539331814 80.344153682 -0.00152227 0.73783212918 79.888327871 -0.00154116 1.3304363391 81.036203661 
-0.00201075 1.1473684785 80.623371521 -0.00108841 1.8379708264 81.675459174 -0.00269663 1.63229723 81.28684277 
-0.000695216 2.4244034597 82.28914654 -0.00360611 2.1969489385 81.907531062 -0.000308534 3.1019275316 82.904102468 
-0.00480368 2.8519742775 82.511175722 0.000136644 3.888925364 83.549114636 -0.0063905 3.6147202472 83.124069753 
0.000736726 4.8111489809 84.259301019 -0.00852206 4.5104652195 83.77587478 0.00165256 5.9033530819 85.082256918 
-0.0114331 5.5744161172 84.504253883 0.00319496 7.2116498474 86.086810153 -0.0154909 6.854847371 85.361632629 
0.00595226 8.7961332603 87.38043674 -0.0212179 8.4174491876 86.427310812 0.0112087 10.732491247 89.140908753 
-0.0296503 10.350455494 87.830244506 0.0227939 13.113413647 91.679186353 -0.0410709 12.771421632 89.795678368 
-0.0629605 15.808540733 92.735959267 -0.017674 0.046567357678 77.415619942 -0.028568 0.035015162702 76.729510637 
-0.00466017 0.25716921905 78.515357781 -0.00270878 0.16294721247 77.943699788 -0.00300004 0.55496146315 79.434068537 
-0.00126569 0.40804638767 78.948265612 -0.00221676 0.93370432308 80.226337677 -0.00152344 0.74135898829 79.803466012 
-0.00165139 1.3883124841 80.930477516 -0.00201194 1.1527430978 80.552446902 -0.00121333 1.9204454071 81.577624593 
-0.00269764 1.6399328682 81.229157132 -0.000847287 2.5382228266 82.194737173 -0.00360678 2.2073406457 81.861959354 
-0.000503983 3.256407628 82.807492372 -0.00480401 2.8656810113 82.476638989 -0.000125081 4.0973070347 83.443782965 
-0.00639074 3.6324456723 83.099414328 0.0003754 5.092655727 84.136614273 -0.00852283 4.5329973453 83.759552655 
0.00114302 6.2866291919 84.930600808 -0.0114357 5.6027195487 84.494700451 0.00247368 7.7404067041 85.890263296 
-0.0154975 6.8900675589 85.357142441 0.00493884 9.5388141405 87.117425859 -0.0212329 8.461014293 86.425915707 
0.0100267 11.799186802 88.783513198 -0.0296815 10.404281821 87.829918179 0.0212379 14.682652282 91.199147718 
-0.0411323 12.837767633 89.794132367 -0.0630961 15.890281161 92.731418839 -0.0174122 0.044899716639 77.355001883 
-0.0278747 0.032988106159 76.739926594 -0.0045277 0.24909762418 78.457500376 -0.00258897 0.15194236405 77.937641636 
-0.00290316 0.53752774378 79.384400256 -0.00116432 0.38064834194 78.938858658 -0.00213606 0.90400014049 80.18870086 
-0.00137777 0.69137361824 79.800085382 -0.00157387 1.3430499795 80.908000021 -0.00179784 1.0737570047 80.562572995 
-0.00112649 1.8554487369 81.572711263 -0.00238398 1.5242643968 81.259005603 -0.000737281 2.4478031739 82.209986826 
-0.0031502 2.0449651321 81.917424868 -0.00035339 3.1324611504 82.84594885 -0.00413973 2.642752468 82.564477532 
8.99171e-05 3.9280022652 83.509337735 -0.00541854 3.3292178106 83.227592189 0.000688677 4.8604049441 84.235195056 
-0.00708321 4.1207336126 83.939206387 0.00160322 5.9646880752 85.070511925 -0.0092688 5.0386664664 84.741183534 
0.00314386 7.2873348572 86.084095143 -0.0121673 6.1094784436 85.692581556 0.00589753 8.8889454767 87.383224523 
-0.0159949 7.363857375 86.882152625 0.0111525 10.845872824 89.145627176 -0.0212235 8.8328940846 88.450455915 
0.0227243 13.251267618 91.682832382 -0.0270844 10.541644552 90.631255448 -0.0389962 12.465601355 93.814498645 
-0.016401 0.039476496555 77.413371703 -0.0262658 0.028979600462 76.8815614 -0.00412325 0.22319676861 78.494322231 
-0.0023466 0.13042656402 78.032596436 -0.00260721 0.48208895199 79.416307048 -0.000973935 0.32715222726 79.012738773 
-0.00188206 0.81008660355 80.227878396 -0.00110776 0.59398501115 79.871392989 -0.00132614 1.2006671991 80.964172801 
-0.00140432 0.92030129728 80.645398703 -0.000852385 1.6520867857 81.654703214 -0.00181235 1.3004769858 81.365323014 
-0.000401756 2.1666986789 82.326401321 -0.00232597 1.732482993 82.058567007 8.6297e-05 2.7502718229 83.006798177 
-0.00295362 2.2167654843 82.752134516 0.000689977 3.4114753035 83.726954697 -0.00370516 2.7551668864 83.475653114 
0.00152489 4.1611698073 84.525670193 -0.00458593 3.3495102304 84.26485977 0.00277618 5.0113013873 85.455608613 
-0.00558182 3.9995452612 85.166664739 0.00476219 5.972404714 86.592575286 -0.00663495 4.6992207742 86.246089226 
0.008054 7.0485245206 88.050965479 -0.00754978 5.4303257794 87.597424221 0.0133701 8.2258924666 90.008407533 
-0.00806627 6.1504533907 89.360016609 0.0248262 9.4590146435 92.747665356 -0.00638648 6.7778121427 91.742157857 
-0.00494078 7.1355020982 95.032387902 -0.0147446 0.030994535999 77.578870764 -0.0238947 0.023442186619 77.136557213 
-0.00348978 0.18254779331 78.615954207 -0.00200767 0.10089166978 78.21478233 -0.00214791 0.39519133133 79.520035669 
-0.000719768 0.25370655601 79.157372444 -0.00149264 0.66321940459 80.332742595 -0.000753329 0.46048149309 80.003810507 
-0.000955393 0.97879839683 81.085233603 -0.000894437 0.7106236365 80.784859364 -0.000456311 1.3368301138 81.804719886 
-0.00108138 0.99624850632 81.527311494 6.30417e-05 1.7339885906 82.517791409 -0.00128777 1.3107744549 82.256835545 
0.000667417 2.1674599009 83.252500099 -0.00148657 1.6475082785 82.999911722 0.00144204 2.6332820875 84.041587913 
-0.00163275 1.9978136387 83.786706361 0.00250791 3.1240433345 84.926146665 -0.00164777 2.3487433212 84.653956679 
0.0040442 3.625117255 85.961172745 -0.00139043 2.6793662463 85.648693754 0.00630629 4.1085486684 87.222151332 
-0.000611232 2.9551675678 86.833652432 0.00970773 4.5231511542 88.815108846 0.00115373 3.1197524883 88.292677512 
0.0141878 4.7771953292 90.885904671 0.00460128 3.0817549456 90.135575054 0.0230642 4.7215589884 93.628191012 
0.0115958 2.7019726486 92.496667351 0.0219171 1.7514227387 95.500317261 -0.0126 0.020478765974 77.833074534 
-0.0209664 0.016957301233 77.480447999 -0.00269123 0.13171376125 78.807127239 -0.00160591 0.066530037779 78.465358962 
-0.00157742 0.28651791812 79.680772082 -0.000433242 0.16819345018 79.35599955 -0.00102156 0.47997382286 80.486728177 
-0.000363285 0.30527984589 80.180070154 -0.000526229 0.70322884757 81.250491152 -0.000343882 0.46784084312 80.960565157 
-2.44745e-05 0.94795307582 81.995951924 -0.000306995 0.64629287548 81.719175125 0.000534712 1.2053180465 82.747661954 
-0.000211823 0.83024591372 82.478244086 0.00120989 1.4643400949 83.532449905 -6.33402e-06 1.0070257328 83.261824267 
0.00207561 1.7097208384 84.381939162 0.000389671 1.1597198167 84.097640183 0.00322734 1.9186283004 85.3351917 
0.00110152 1.2645149864 85.018985014 0.00478365 2.0560975403 86.44165246 0.00232718 1.2869304576 86.066539542 
0.00684912 2.0682926688 87.764237331 0.00437401 1.1768256995 87.2898343 0.00952516 1.8730481621 89.379791838 
0.0077221 0.86179970271 88.746400297 0.0120446 1.3461851604 91.37302484 0.0130298 0.23910956931 90.494844431 
0.0158205 0.31250323323 93.814192767 -0.82871006936 0.0213289 92.574054069 -2.5281952575 0.0331831 94.947255257 
-0.010155 0.0090888246808 78.153064375 -0.017714 0.01014358492 77.884779415 -0.00180239 0.075945712437 79.048786588 
-0.00117775 0.030707156785 78.762359043 -0.000955105 0.16722033824 79.880539662 -0.000146327 0.0789410752 79.589423025 
-0.000527206 0.27934373113 80.670471269 1.45689e-05 0.14357029304 80.381000707 -0.000104956 0.40319069784 81.437003302 
0.000175285 0.2160791138 81.151040886 0.000360001 0.52818190917 82.199347091 0.000403951 0.2862820526 81.915004947 
0.000903075 0.64142233004 82.97788567 0.000745892 0.34154803199 82.690240968 0.00156413 0.72615331066 83.795994689 
0.00126178 0.36563373022 83.49595527 0.00238771 0.75959700119 84.680626999 0.00203968 0.33706365599 84.354479344 
0.00341476 0.71006661346 85.663464387 0.00320605 0.22700273677 85.291550263 0.00466211 0.53314578338 86.781239217 
-0.0033937053907 0.00493934 86.335444605 0.00604712 0.16687137815 88.073506622 -0.40599021956 0.00748156 87.51522722 
-0.47356068188 0.00732301 89.576419682 -1.0484303479 0.0111306 88.854372348 -1.5011150216 0.00733834 91.304665022 
-2.0154769179 0.0162252 90.356506918 -3.0544989191 0.00557787 93.215018919 -3.4046325162 0.0228013 91.976012516 
-5.3155623827 0.0311432 93.563392383 -0.00760961 -0.0020708415531 78.513087389 -0.0143744 0.0035716657009 78.319421934 
-0.000902353 0.020376460358 79.32037074 -0.0035136053891 -0.000759155 79.082876855 -0.000340872 0.048230137715 80.100624062 
-0.0064325269568 0.000113592 79.838400647 -6.38755e-05 0.079839114716 80.864505685 -0.010805659012 0.000341067 80.588132449 
0.00025326 0.10680526307 81.622781737 -0.022917872576 0.000607549 81.336945893 0.000636445 0.11776585229 82.388369148 
-0.052263750351 0.000973966 82.09290575 0.0010993 0.097932477977 83.176051522 -0.11181244256 0.00148033 82.866896143 
0.00165415 0.027965434662 84.003240165 -0.21862114209 0.00218029 83.671651142 -0.11754763569 0.00230419 84.889094836 
-0.39477180686 0.00314618 84.521797807 -0.37197756944 0.0030247 85.854272569 -0.66850590763 0.00447088 85.432577908 
-0.77869000858 0.00372777 86.917999009 -1.0752844424 0.00626495 86.417164442 -1.3928024504 0.00417764 88.09323245 
-1.6583397682 0.00864345 87.482239768 -2.2815715441 0.00387663 89.375081544 -2.4677048097 0.0116679 88.61869481 
-3.5212608644 0.00174951 90.719540864 -3.5560185223 0.0153276 89.785368522 -5.1865166228 -0.00407671 92.005856623 
-4.969358143 0.0189337 90.881148143 -6.7215758538 0.0223327 91.701125854 -0.012100285664 -0.00513334 78.887486136 
-0.030609520738 -4.63142e-05 79.601801221 -0.061097400923 0.000224838 80.323327001 -0.10281214374 0.000334561 81.051971044 
-0.1624237513 0.000518529 81.790019751 -0.25051744427 0.000779143 82.543368444 -0.38154991343 0.0011059 83.320019913 
-0.5743102525 0.00148114 84.129740253 -0.85257777215 0.00186705 84.982533772 -1.245695117 0.00218252 85.885955117 
-1.7886727069 0.00226601 86.841882707 -2.5211361084 0.00180573 87.838586108 -3.4837667301 0.000263304 88.83891673 
-4.7100424852 -0.003198 89.760782485 -6.2132828265 -0.0106081 90.447292826 -0.021142751875 0.00013145 79.412259152 
-0.088183464375 0.00282319 79.993405064 -0.1870835047 0.00280937 80.624262505 -0.31300862193 0.00312105 81.290171622 
-0.46884140007 0.00384974 81.9817364 -0.66182897511 0.00494663 82.694338975 -0.90283921563 0.00636634 83.425292216 
-1.2058978887 0.0080402 84.172787889 -1.5876283996 0.009837 84.9329484 -2.066289545 0.0115001 85.696259545 
-2.6599570894 0.0125557 86.443157089 -3.3832025951 0.0121868 87.136052595 -4.2413377011 0.0091234 87.710287701 
-5.2212829272 0.00147395 88.060612927 -6.2770084869 -0.012579 88.028228487 -0.025357244467 0.00251432 79.715636244 
-0.11514087246 0.00389227 80.218002872 -0.24598431406 0.00349387 80.789952314 -0.41040923388 0.00350111 81.409082234 
-0.60838434891 0.00392237 82.059463349 -0.84413548395 0.00466072 82.729845484 -1.1250798096 0.0056151 83.41117981 
-1.4608653817 0.00665021 84.094745382 -1.8622655009 0.00756128 84.768905501 -2.3395498034 0.00802484 85.415869803 
-2.9000720955 0.00754184 86.007182095 -3.5444784113 0.00538135 86.497678411 -4.2611154379 0.000587935 86.818885438 
-5.0182315492 -0.00792623 86.870801549 -5.7535070226 -0.0208663 86.516737023 -0.027928662689 0.00423772 79.970696563 
-0.13282333219 0.00458083 80.405742332 -0.28454520823 0.00384199 80.923471208 -0.47323927649 0.00354214 81.495803276 
-0.69595181911 0.00363167 82.101142819 -0.95370830914 0.0039805 82.722781309 -1.2502193646 0.0044509 83.346489365 
-1.590635819 0.00486973 83.957605819 -1.9800424663 0.0050033 84.538852466 -2.4216438323 0.00452754 85.066923832 
-2.9141033988 0.00300596 85.508803399 -3.448053522 -0.000109321 85.817313522 -4.0014941878 -0.0054102 85.927254188 
-4.5340750054 -0.0133548 85.751535005 -4.9810442644 -0.0238689 85.180584264 -0.029017525287 0.00528539 80.169032225 
-0.14166427865 0.00489614 80.551092279 -0.30357914369 0.00387896 81.022276144 -0.50290140157 0.00329876 81.550557402 
-0.73402147211 0.00307291 82.110318472 -0.99493291691 0.00305471 82.680534917 -1.2858622445 0.00308957 83.242722244 
-1.6078510022 0.00299311 83.778261002 -1.9612005077 0.00253778 84.266320508 -2.3435389625 0.0014415 84.680498962 
-2.7474516899 -0.000628658 84.98687169 -3.1575869008 -0.00402228 85.140566901 -3.5473071905 -0.00901528 85.08383719 
-3.8752767638 -0.0156354 84.745336764 -4.0828467484 -0.0233905 84.043106748 -0.028843216272 0.00567983 80.306302616 
-0.14254592332 0.00486478 80.651625923 -0.304888258 0.00364251 81.086450258 -0.50244354781 0.00282993 81.576198548 
-0.72739941317 0.00233485 82.092448413 -0.97516296085 0.00200877 82.611669961 -1.2430153973 0.00169672 83.112505397 
-1.5286839551 0.00122274 83.573803955 -1.8288394311 0.000387115 83.972919431 -2.1373219294 -0.00103137 84.283161929 
-2.4431685532 -0.00325658 84.471958553 -2.7284886235 -0.00646926 84.499408624 -2.9663556103 -0.0107216 84.31730561 
-3.1192411409 -0.0158045 83.870871141 -3.1388459057 -0.0210785 83.101845906 -0.027645235433 0.00547181 80.381730635 
-0.13658468135 0.00452553 80.708008681 -0.29080552643 0.00317517 81.118186526 -0.47578780445 0.0021914 81.576904804 
-0.68207629877 0.00149247 82.054530299 -0.90311227994 0.000939123 82.52591528 -1.133967564 0.000387302 82.968187564 
-1.3700358596 -0.000319048 83.35957586 -1.6056246936 -0.00134266 83.677164694 -1.8324733625 -0.00284258 83.895653363 
-2.0382594512 -0.00494936 83.985659451 -2.2051446971 -0.00772102 83.913754697 -2.308725262 -0.0110757 83.641865262 
-2.3177725631 -0.0147055 83.130012563 -2.1954783906 -0.0179906 82.340248391 -0.025653307135 0.00472693 80.398106907 
-0.12494898143 0.00392095 80.723209981 -0.26381663838 0.00251732 81.121712638 -0.42708536538 0.00142939 81.558527365 
-0.60428272696 0.000601497 82.003890727 -0.78758939715 -8.98081e-05 82.432414397 -0.97071405207 -0.000771917 82.821167052 
-1.1476995614 -0.00157674 83.148779561 -1.3117262252 -0.00263021 83.393656225 -1.4539079588 -0.00403813 83.533057959 
-1.5622084971 -0.00586169 83.542098497 -1.620614171 -0.00808165 83.394064171 -1.6087828275 -0.0105519 83.060652828 
-1.5025788759 -0.0129517 82.514928876 -1.2760585709 -0.0147535 81.734608571 -0.023066692161 0.00351536 80.360898592 
-0.10873119895 0.00309191 80.702729199 -0.22625848031 0.00170334 81.10273948 -0.3602304571 0.000578386 81.527668457 
-0.49978270735 -0.0003014 81.948300707 -0.63657997832 -0.00104152 82.340184978 -0.76380900072 -0.00175182 82.681395001 
-0.87513550761 -0.00254138 82.952111508 -0.96368744584 -0.00350508 83.133198446 -1.0211254437 -0.00470871 83.205335444 
-1.0368757049 -0.00616807 83.148855705 -0.99777621452 -0.00782294 82.943528215 -0.8881307047 -0.00950923 82.570128705 
-0.69071169 -0.0109378 82.01208069 -0.38881173998 -0.0116934 81.25935474 -0.020044282358 0.00190299 80.277859582 
-0.088852064383 0.00207297 80.653526564 -0.18010955339 0.000759086 81.068617553 -0.2785062185 -0.000339069 81.491666219 
-0.37339207658 -0.00119589 81.895490077 -0.4566477242 -0.00190066 82.257159724 -0.52175455646 -0.00254875 82.557031556 
-0.56288037232 -0.00323135 82.777609372 -0.57401035551 -0.00402066 82.903098356 -0.54821667866 -0.00495601 82.918311679 
-0.47716495165 -0.00602746 82.808687952 -0.35097970645 -0.00715912 82.560482706 -0.15862549222 -0.0081951 82.162113492 
-0.00889519 0.11102516947 81.605682831 -0.00894866 0.46727859487 80.889588405 -0.016699225787 -5.5311e-05 80.158839926 
-0.066006880111 0.000889206 80.58455258 -0.12686054583 -0.000299228 81.027490546 -0.18436582105 -0.0013111 81.458672821 
-0.22867085645 -0.00207375 81.853246856 -0.25257950953 -0.00266537 82.19099851 -0.25063938946 -0.00317285 82.454955389 
-0.21829798661 -0.00367655 82.631334987 -0.15113135313 -0.00423498 82.707990353 -0.044250909786 -0.00487254 82.67431121 
-0.00556779 0.10803828263 82.520845717 -0.00624431 0.31221120946 82.240022791 -0.00676625 0.57504388515 81.826377115 
-0.00694363 0.90258633519 81.278919665 -0.00655163 1.298538364 80.602251636 -0.013098423714 -0.00232081 80.014893324 
-0.040627246233 -0.000446118 80.506072646 -0.067419656182 -0.00146539 80.988641056 -0.079281649438 -0.00233448 81.437020649 
-0.067734936085 -0.0029342 81.829198636 -0.027194374192 -0.00333982 82.148174474 -0.00363804 0.045997724186 82.380838776 
-0.00390655 0.15442532437 82.517318676 -0.00419841 0.30033474124 82.550029259 -0.00453174 0.48616483593 82.472984164 
-0.00488236 0.71480081758 82.282035182 -0.00518052 0.9894699365 81.974830064 -0.00531301 1.3132740725 81.551405927 
-0.00513321 1.6882484385 81.015761561 -0.00448125 2.1140678182 80.376892182 -0.0092631715519 -0.00487494 79.858882642 
-0.012859561688 -0.00193346 80.429386462 -0.00274316 -0.0020563469558 80.962628439 -0.00341217 0.036345188389 81.435878312 
-0.00377903 0.10885901987 81.83098098 -0.00392738 0.21875384464 82.134844155 -0.003954 0.36718791243 82.338905088 
-0.00394232 0.55415829213 82.437988708 -0.00394674 0.77927055706 82.429379443 -0.00398448 1.0422678707 82.312252129 
-0.0040325 1.3432164751 82.087133525 -0.00402913 1.682438066 81.756691934 -0.00388067 2.0599925282 81.325377472 
-0.00347378 2.4749122957 80.801057704 -0.00269424 2.9241952773 80.195614723 -0.00772314 -0.0051688630266 79.704583793 
-0.00358891 0.017459855802 80.367444244 -0.004146 0.069661079933 80.96072312 -0.00455055 0.16328726556 81.465103734 
-0.00460759 0.3022222787 81.866603721 -0.0044242 0.48665606387 82.156915936 -0.00411937 0.71453436792 82.332785632 
-0.00379048 0.98269097511 82.394604025 -0.00349779 1.2877334919 82.345016508 -0.00325945 1.6265591925 82.188180807 
-0.00305309 1.9966114511 81.929748549 -0.00282227 2.3956848383 81.576475162 -0.00248654 2.8214835003 81.1365865 
-0.00195495 3.2709938277 80.620846172 -0.00114283 3.7395535129 80.042876487 -0.0108994 -0.00074277024618 79.567289235 
-0.0054466 0.050841866707 80.334563333 -0.00569666 0.14895507667 80.995744923 -0.00575578 0.30362195109 81.535306049 
-0.00541082 0.51528213821 81.943929862 -0.00481241 0.78016821618 82.219532784 -0.0041158 1.0922488331 82.364991167 
-0.00343932 1.4446374256 82.387002574 -0.00285041 1.8306523537 82.294147646 -0.00236575 2.2444121913 82.095977809 
-0.00195911 2.6809220573 81.802607943 -0.00157316 3.135969636 81.424830364 -0.00113275 3.6056131307 80.973786869 
-0.00055912 4.0855963438 80.462343656 0.000215587 4.5705267147 79.905213285 -0.0144731 0.0041430768979 79.464012403 
-0.00756231 0.088212347889 80.346951352 -0.00742627 0.23799062503 81.081917375 -0.00702849 0.46095968361 81.657833316 
-0.00616337 0.75303983278 82.071386167 -0.00505214 1.1054330903 82.32768691 -0.00390185 1.5072490053 82.437210995 
-0.00285593 1.9473887284 82.413871272 -0.00198516 2.4157010657 82.272848934 -0.00129704 2.9036061313 82.029203869 
-0.000752679 3.4041304747 81.697559525 -0.000285159 3.9116213701 81.29189863 0.000183891 4.4211806058 80.825919394 
0.000729968 4.9280499921 80.313800008 0.00141343 5.4268805042 79.770509496 -0.0185595 0.009686534555 79.413795455 
-0.0100187 0.13103305147 80.423044949 -0.00937192 0.34013798665 81.235456013 -0.0083548 0.64082274401 81.845410256 
-0.00681172 1.0229898952 82.257430105 -0.00507098 1.4714446454 82.485485355 -0.00340658 1.9694606983 82.549749302 
-0.00198462 2.5012329343 82.472437066 -0.000867066 3.053110313 82.275809687 -3.74274e-05 3.6141388791 81.980681121 
0.000569136 4.1759292018 81.605660798 0.00103969 4.7320597342 81.167700266 0.00146408 5.2774375054 80.682412495 
0.00192134 5.807507123 80.164412877 0.00247035 6.3175650552 79.628614945 -0.0233381 0.016182742692 79.439224057 
-0.0129326 0.18151044818 80.584679552 -0.0115707 0.46041287464 81.475020125 -0.00969034 0.85126308511 82.111962915 
-0.0072559 1.3358137768 82.510406223 -0.00475004 1.8906538418 82.696386158 -0.00252309 2.4921784301 82.70160157 
-0.000747735 3.1194619242 82.558068076 0.000548463 3.7556062065 82.295863794 0.00142996 4.387895685 81.941274315 
0.00200515 5.0072559598 81.51693404 0.00239236 5.6073546161 81.041885384 0.00269937 6.1836688061 80.532641194 
0.00301262 6.7325421698 80.00409783 0.00339204 7.2504606708 79.470019329 -0.0290832 0.024074913913 79.567056086 
-0.0164654 0.24296544244 80.857718558 -0.0140448 0.60623305538 81.821978945 -0.0109306 1.1038815647 82.472288435 
-0.0073203 1.7063851636 82.838234836 -0.00390603 2.3798383615 82.961721639 -0.00110426 3.0926079067 82.888962093 
0.000948248 3.8186348598 82.66345514 0.00230427 4.5383884778 82.323471522 0.00311051 5.2383693591 81.900710641 
0.00353896 5.9099001473 81.420759853 0.00374819 6.5477327884 80.903827212 0.00386645 7.1487449964 80.366735004 
0.0039872 7.71083615 79.82351385 0.00417018 8.2321506069 79.286789393 -0.0362138 0.03404448626 79.831078414 
-0.020831 0.32048875917 81.274297241 -0.0167672 0.78869107484 82.301884925 -0.0118578 1.4154581706 82.942561829 
-0.00671069 2.1554100603 83.24728994 -0.0022724 2.9613004542 83.280009546 0.00103361 3.7926120989 83.104617901 
0.00319615 4.6187418773 82.778118123 0.00442129 5.418854647 82.346695353 0.00498031 6.1802200307 81.846589969 
0.00512576 6.8959530478 81.304976952 0.00505847 7.5630482515 80.742441748 0.00492271 8.1806194371 80.174630563 
0.00481301 8.7487516841 79.614148316 0.00478357 9.267632257 79.071877743 -0.0453992 0.047203782465 80.274822518 
-0.0263051 0.42213830559 81.874796694 -0.019578 1.0247903814 82.944429619 -0.0120365 1.8105915147 83.538528485 
-0.0049495 2.711689281 83.740710719 0.000511393 3.6643920258 83.644507974 0.00408648 4.6193328893 83.336337111 
0.00605224 5.5431660075 82.886923992 0.00686613 6.4161677727 82.350082227 0.00696286 7.2285513334 81.764338667 
0.0066784 7.9770290851 81.156860915 0.00624378 8.6620056728 80.546624327 0.00580447 9.2857209865 79.947069013 
0.00544361 9.8508924202 79.36846758 0.00520097 10.359986922 78.819213078 -0.0576736 0.06540159449 80.957310606 
-0.033167 0.56121989944 82.711597101 -0.0220203 1.3412995183 83.784110482 -0.01067 2.325843187 84.274086813 
-0.00132037 3.415329929 84.314950071 0.0048748 4.5272269116 84.040743088 0.00819748 5.6055420819 83.564227918 
0.00947084 6.6181336262 82.969446374 0.00950491 7.5501758789 82.314544121 0.00890336 8.3977732795 81.63753672 
0.00805662 9.1631310642 80.962768936 0.00719208 9.8512891285 80.305410872 0.00642958 10.468239927 79.675560073 
0.00582284 11.019543644 79.080056356 0.00538629 11.510009804 78.524390196 -0.0749857 0.092370994604 81.961616005 
-0.0415693 0.76110493593 83.854099064 -0.0227842 1.782413354 84.859756646 -0.00621589 3.0166313115 85.156208688 
0.00517163 4.3218728117 84.954127188 0.0111768 5.597938855 84.441591145 0.0133115 6.7889478173 83.758802183 
0.0132052 7.8710223037 82.998627696 0.0120508 8.8395529674 82.217727033 0.0105501 9.6997755805 81.448624419 
0.00906672 10.461324049 80.709275951 0.00776628 11.134493494 80.009006506 0.00670705 11.729255239 79.352944761 
0.00589387 12.254127657 78.744072343 0.00530623 12.715913895 78.184586105 -0.0998811 0.13418960607 83.411031394 
-0.0509813 1.0645334406 85.393066559 -0.0195753 2.4211897616 86.208170238 0.00348047 3.9665546791 86.173975321 
0.0156032 5.5063719575 85.621018043 0.019421 6.9342451808 84.802294819 0.0189291 8.2094009834 83.879039017 
0.0166888 9.3270312881 82.941398712 0.0140317 10.298738958 82.034861042 0.0115616 11.141752041 81.179847959 
0.00948254 11.873803017 80.384196983 0.00782589 12.510841118 79.649358882 0.00655506 13.066269316 78.974330684 
0.00561274 13.55082883 78.35787117 0.00494006 13.973079991 77.798720009 -0.139652 0.2139007648 85.495758235 
-0.0558791 1.56244081 87.46128919 -0.00356299 3.3935089313 87.855701069 0.0220932 5.3014583384 87.280251662 
0.0298512 7.0636976032 86.242342397 0.0285226 8.5979640826 85.054805917 0.0238396 9.9022141991 83.872185801 
0.0189713 11.00332085 82.76077915 0.0148252 11.933497648 81.741502352 0.0115645 12.722714014 80.815985986 
0.00909638 13.396112894 79.978487106 0.00726467 13.973880516 79.221319484 0.0059263 14.471733937 78.537366063 
0.00496481 14.901970805 77.920929195 0.00428999 15.273798248 77.367901752 -0.199874 0.3453987319 88.531104268 
-0.0555694 2.421851784 90.171498216 0.0266659 4.9066242722 89.751655728 0.0523957 7.2002768048 88.350503195 
0.0459575 9.0991107355 86.696089265 0.0353626 10.639976114 85.108123886 0.0260272 11.885886069 83.680013931 
0.0188827 12.900475083 82.422124917 0.013831 13.735698302 81.318601698 0.0102831 14.430796713 80.347303287 
0.00780229 15.0153115 79.4880885 0.00606062 15.510886922 78.724413078 0.00483698 15.93394968 78.04345032 
0.00398121 16.296371022 77.435928978 0.00339052 16.607330388 76.895469612 -0.263136 0.87506223518 93.167887765 
0.0897687 4.22130919 93.90187081 0.095129 7.3743541432 91.688765857 0.0779137 9.8488064217 89.111793578 
0.0558029 11.687487634 86.807712366 0.0352246 13.071973362 84.863726638 0.0232315 14.144786187 83.252713813 
0.0155719 14.993420623 81.903279377 0.010805 15.67877471 80.75832529 0.00773011 16.24139376 79.77330624 
0.00570232 16.709416858 78.915883142 0.00433661 17.102819639 78.162880361 0.0034041 17.435998949 77.497501051 
0.00276441 17.719201249 76.908298751 0.00232815 17.960468914 76.387031086 -0.527615 1.1509978887 100.50303211 
0.0931157 7.5844068722 97.427593128 0.211344 11.31376817 93.06713183 0.0821993 13.348422493 89.200177507 
0.0465447 14.797432066 86.400367934 0.0254734 15.82967666 84.25712334 0.0153635 16.612900356 82.573199644 
0.00988597 17.225021489 81.206778511 0.00671278 17.715842994 80.070057006 0.00478956 18.116771446 79.104928554 
0.00355913 18.448386226 78.272613774 0.00274431 18.725216645 77.546683355 0.00218898 18.957764531 76.908735469 
0.00180441 19.153537582 76.346162418 0.00153666 19.31854083 75.85025917 2.50637 12.070481075 116.22231892 
0.17122 14.209560942 99.348339058 0.131315 16.455111019 92.650888981 0.0507158 17.470329145 88.317670855 
0.02763 18.209652539 85.433447461 0.0199273 18.751095641 83.317804359 0.0151927 19.17331845 81.68378155 
0.0128206 19.511652854 80.371647146 0.0111665 19.787047084 79.286552916 0.00999613 20.013289025 78.369110975 
0.00907678 20.1997993 77.5804007 0.00832455 20.353611317 76.894188683 0.00768684 20.480095481 76.292604519 
0.00713622 20.583804025 75.763195975 0.00665639 20.668225085 75.297574915 -0.020161181903 -0.00291201 79.244207082 
-0.00852682 -0.0070604684554 79.147361358 -0.072859278854 0.000710442 79.868404579 -0.057334255795 -0.000181514 79.694875956 
-0.15185261973 0.000722137 80.52899262 -0.1407764616 0.000372901 80.303274462 -0.25377713769 0.00067814 81.215908138 
-0.25270755467 0.000629367 80.953300555 -0.38283093956 0.000737088 81.92369794 -0.39348194588 0.000942929 81.632706946 
-0.54757082929 0.000880364 82.650792829 -0.56810827615 0.00135102 82.334653276 -0.76034219809 0.00107669 83.398335198 
-0.78553640114 0.00186599 83.055794401 -1.0370885163 0.00128393 84.168088516 -1.0580742399 0.00250417 83.79428424 
-1.3971478686 0.00143386 84.960627869 -1.4008394786 0.00328009 84.547769479 -1.8626434732 0.00141023 85.771973473 
-1.830914731 0.00419888 85.310124731 -2.4571440124 0.0010169 86.588844012 -2.3658993659 0.00524144 86.068139366 
-3.2027049735 -6.40951e-05 87.381654974 -3.0211503531 0.00634195 86.794690353 -4.1143544931 -0.00232035 88.093104493 
-3.8051915168 0.00734612 87.441431517 -5.1904740337 -0.00636963 88.623894034 -4.7121536818 0.00798263 87.926363682 
-6.3974905902 -0.0131234 88.81250059 -5.7106762773 0.00777224 88.120966277 -6.7275704988 0.00629438 87.835490499 
-0.026163535588 -0.00109837 79.564851736 -0.010663885615 -0.00621929 79.497717286 -0.10522673798 0.001283 80.106483738 
-0.074986167693 2.41968e-05 79.954528568 -0.2213999546 0.00106689 80.707470955 -0.18488389877 0.000440329 80.495566899 
-0.36873039002 0.000868288 81.34926939 -0.33153884198 0.00068916 81.094047842 -0.54855682955 0.000783784 82.01915683 
-0.51219581661 0.000996231 81.730526817 -0.76662408759 0.000777935 82.709189088 -0.72882088779 0.00138772 82.391924888 
-1.032107353 0.000803273 83.413587353 -0.98708371882 0.00186287 83.068394719 -1.3568457492 0.000800382 84.126925749 
-1.2953252103 0.00242171 83.75159521 -1.7544582537 0.00068428 84.841538254 -1.6635070333 0.00305674 84.431677033 
-2.2389559828 0.000328331 85.543925983 -2.1017437707 0.00374495 85.094933771 -2.8224783771 -0.000455106 86.210108377 
-2.6183109596 0.00443455 85.71921096 -3.5115282328 -0.0019281 86.799538233 -3.2164106537 0.00502869 86.269010654 
-4.3011266111 -0.00443448 87.246296611 -3.8895661811 0.00536147 86.689406181 -5.1660107446 -0.00830502 87.449450745 
-4.6150390811 0.00519302 86.897799081 -6.0487943967 -0.0137474 87.262824397 -5.3453663708 0.00419472 86.777086371 
-5.9983927391 0.00209826 86.171192739 -0.030219058335 0.00033354 79.843726258 -0.013119456872 -0.00439959 79.791669457 
-0.12807791598 0.00170594 80.312447916 -0.086559217604 0.000169664 80.173045318 -0.27047079639 0.00129631 80.856905796 
-0.21374914373 0.00046648 80.654491144 -0.44898647682 0.000956189 81.451951477 -0.38255557799 0.000691093 81.203455578 
-0.66197471053 0.000733137 82.078865711 -0.58731422718 0.000969672 81.794962227 -0.9119914921 0.000580732 82.723612492 
-0.82688526775 0.00131807 82.410563268 -1.2045175799 0.000441606 83.37459758 -1.1034565846 0.00172482 83.034886585 
-1.5468278968 0.000247846 84.020227897 -1.4212545208 0.00217719 83.654174521 -1.946621325 -8.91615e-05 84.646101325 
-1.7851115399 0.00265259 84.25303154 -2.4102095015 -0.000687615 85.231889502 -2.1988302369 0.00311211 84.811720237 
-2.9398984809 -0.00170196 85.747098481 -2.6628770544 0.00349154 85.303057054 -3.5302584142 -0.0033181 86.146278414 
-3.171352167 0.00369242 85.687942167 -4.1629210169 -0.00572709 86.363231017 -3.7080250795 0.0035764 85.91116508 
-4.7999518976 -0.00904322 86.305211898 -4.2414071818 0.00297357 85.897287182 -5.3760029545 -0.0131651 85.850172954 
-4.7192913955 0.0017154 85.547721396 -5.0641824627 -0.000283711 84.742622463 -0.032435506329 0.00133358 80.070231106 
-0.014461402968 -0.00311567 80.019142903 -0.14155175427 0.00195943 80.478793754 -0.092334479516 0.000256002 80.34339528 
-0.29921695759 0.00140238 80.973109958 -0.22799834769 0.000458128 80.775903348 -0.49486489101 0.000945301 81.522774891 
-0.40688841717 0.000648537 81.280359417 -0.72400961173 0.000603011 82.104528612 -0.62083065645 0.000885173 81.827794656 
-0.98602669837 0.000324285 82.699401698 -0.86582472448 0.00117625 82.395636724 -1.2827267596 4.85262e-05 83.29123676 
-1.1407937449 0.00150277 82.964423745 -1.6170076316 -0.000292356 83.863297632 -1.446168292 0.00184385 83.516088292 
-1.9912316404 -0.000780131 84.39689164 -1.7823590678 0.00216899 84.031429068 -2.405347934 -0.00151274 84.867137934 
-2.1480500795 0.00243416 84.487290079 -2.8543211002 -0.00260167 85.2411011 -2.5379945627 0.00257727 84.854354563 
-3.324917943 -0.0041569 85.473147943 -2.9405038162 0.00251623 85.093713816 -3.7917378928 -0.00625132 85.502127893 
-3.3343827523 0.00215274 85.154562752 -4.2128854467 -0.00884951 85.249475447 -3.6857620604 0.00138973 84.97227206 
-4.526032687 -0.0117032 84.619462687 -3.9454102099 0.000165845 84.46910021 -4.0478130245 -0.00147086 83.559043025 
-0.033017060006 0.00189932 80.23794096 -0.0147837166 -0.00238501 80.175053617 -0.14634782585 0.0020506 80.601741826 
-0.092889443932 0.000286493 80.462087744 -0.30903193295 0.00139343 81.054653933 -0.22900184826 0.000423056 80.858428848 
-0.50874133084 0.000848219 81.563228331 -0.40699693099 0.000575234 81.325877931 -0.73853473754 0.000412683 82.100694738 
-0.61672703457 0.000764637 81.833083035 -0.99494183549 3.61646e-05 82.644575835 -0.8517988123 0.000994652 82.354262812 
-1.2765127554 -0.000339796 83.175252755 -1.1083836307 0.00124208 82.867463631 -1.5823968159 -0.000777607 83.672996816 
-1.3837853915 0.00148218 83.351865391 -1.9107315167 -0.00134626 84.115981517 -1.6750066644 0.0016824 83.786046664 
-2.2568185132 -0.00211925 84.478078513 -1.97705975 0.00180095 84.14570975 -2.6109186785 -0.0031668 84.726208679 
-2.2811908558 0.00178592 84.401740856 -2.9557961469 -0.00453782 84.818346147 -2.5728190189 0.00157766 84.518229019 
-3.2640325023 -0.00622648 84.701642502 -2.8295863846 0.00111728 84.450976385 -3.4957714088 -0.00812152 84.313241409 
-3.0195829913 0.000364576 84.148212991 -3.5976630766 -0.00994109 83.582673077 -3.1007201639 -0.0006732 83.552100164 
-3.0221380102 -0.00189849 82.60494801 -0.032223156077 0.00204676 80.344395956 -0.014214336844 -0.00220066 80.258207637 
-0.14351575474 0.00199088 80.680309755 -0.088956072752 0.00026601 80.528964673 -0.30207127958 0.00127973 81.10282328 
-0.21852538966 0.000368736 80.90364739 -0.49424163836 0.000677091 81.576823638 -0.38605251545 0.000483888 81.343499515 
-0.71115855959 0.000178076 82.07343456 -0.58000838077 0.000627364 81.816170381 -0.94705749401 -0.000263412 82.568168494 
-0.79221758629 0.00080042 82.294462586 -1.19790348 -0.000700089 83.03921348 -1.0167857839 0.000978512 82.754805784 
-1.4599942445 -0.00118547 83.465164245 -1.2487638781 0.00113628 83.175263878 -1.7285183452 -0.00177382 83.823398345 
-1.4828555952 0.001243 83.533775595 -1.9958895599 -0.0025154 84.08797956 -1.711923777 0.00126312 83.806613777 
-2.250074373 -0.00344705 84.228434373 -1.9255522835 0.0011576 83.966722283 -2.472827351 -0.00457534 84.207787351 
-2.1086667024 0.000888441 83.982746702 -2.6381735692 -0.00585105 83.983353569 -2.2402787719 0.000427737 83.818618772 
-2.7117457948 -0.00713642 83.507405795 -2.2929680393 -0.00022745 83.434798039 -2.6514745344 -0.0081743 82.731624534 
-2.2334750366 -0.00103566 82.791075037 -2.0252082649 -0.00188835 81.852378265 -0.030324042937 0.00180723 80.390402143 
-0.012892902692 -0.00253778 80.271502303 -0.13424680847 0.00179636 80.716312808 -0.081303366018 0.00020059 80.546708066 
-0.28082236125 0.00107332 81.120824361 -0.19844652352 0.000302021 80.914910524 -0.45552103412 0.000443135 81.568419034 
-0.34741282507 0.000385332 81.338017825 -0.64815649522 -8.90334e-05 82.029800495 -0.51590407053 0.000489048 81.783751071 
-0.85135211049 -0.00056226 82.47935211 -0.69463674187 0.000614519 82.224677742 -1.0592844462 -0.00102177 82.894624446 
-0.87642637281 0.000737865 82.636878373 -1.2664408202 -0.0015113 83.25405082 -1.0550107225 0.00083515 82.998640722 
-1.4662894255 -0.00207127 83.535379426 -1.2238795685 0.000879482 83.288669569 -1.6499716206 -0.00273299 83.714791621 
-1.3750672604 0.000842782 83.48508726 -1.8050661779 -0.00350961 83.765346178 -1.4980989411 0.000698279 83.564178941 
-1.914420503 -0.00438273 83.656950503 -1.578969565 0.000425401 83.500109565 -1.9556366275 -0.00528522 83.356416628 
-1.5997122936 1.74777e-05 83.265112294 -1.9012160718 -0.00608342 82.829956072 -1.5384661704 -0.00050778 82.83074617 
-1.7204232354 -0.0065666 82.047243235 -1.3707817899 -0.00109719 82.17146179 -1.072487865 -0.00165282 81.269097865 
-0.027570676573 0.00121973 80.380238077 -0.010954578294 -0.00336082 80.220828678 -0.11971739861 0.00148431 80.713983399 
-0.070650380959 9.63624e-05 80.520656081 -0.2477602716 0.000785742 81.113422272 -0.17052461131 0.000228506 80.897777611 
-0.39669351024 0.000155288 81.54428451 -0.29422668945 0.000287941 81.315593689 -0.55564790419 -0.00038129 81.977231904 
-0.42926816954 0.000361293 81.74286617 -0.71637025478 -0.000855048 82.387295255 -0.56594997739 0.000451601 82.153006977 
-0.87210769438 -0.00130357 82.752146694 -0.69659225797 0.000536774 82.523019258 -1.0165030751 -0.00176168 83.051393075 
-0.81451260877 0.000595209 82.832270609 -1.1424983387 -0.00225849 83.264568339 -0.91301268699 0.000604373 83.061574687 
-1.2412685049 -0.00281163 83.370988505 -0.98442609197 0.000543225 83.191749092 -1.3013751725 -0.00341961 83.348115172 
-1.01929915 0.000395008 83.20340515 -1.3081409412 -0.00405235 83.172750941 -1.0058414022 0.000151542 83.076414402 
-1.2436293876 -0.00464097 82.820989388 -0.92981440981 -0.000181112 82.79078841 -1.0874926207 -0.00507014 82.270667621 
-0.77508896735 -0.000576225 82.328137967 -0.81897739689 -0.005179 81.505565397 -0.52513570784 -0.000981299 81.674031708 
-0.1657423513 -0.00131652 80.822922051 -0.024175414927 0.000324971 80.320364315 -0.0085173337768 -0.00462976 80.114474314 
-0.10097387775 0.00107087 80.679499878 -0.057604928811 -4.10283e-05 80.458222129 -0.20509013569 0.000426712 81.087394136 
-0.13625135387 0.000152435 80.859258354 -0.32141242761 -0.000180325 81.511384428 -0.22915077288 0.000197729 81.283424773 
-0.4390053356 -0.000695335 81.923671336 -0.3241633861 0.000252043 81.701202386 -0.54947787381 -0.00114165 82.300313874 
-0.41184846151 0.00032104 82.087533462 -0.6459826714 -0.00155033 82.620876671 -0.48479920209 0.000384721 82.421325202 
-0.72225420133 -0.00194922 82.866601201 -0.53675197692 0.000423825 82.684399977 -0.77167839455 -0.0023594 83.020169395 
-0.56171028137 0.000419759 82.860156281 -0.78648386489 -0.00278989 83.064420865 -0.55316645218 0.000357223 82.933302452 
-0.7571446079 -0.0032318 82.982078608 -0.50350664341 0.000226804 82.888822643 -0.67214848105 -0.00365221 82.756332481 
-0.40371409515 2.82716e-05 82.712534095 -0.51829115245 -0.00398915 82.371547152 -0.24350388378 -0.000225782 82.391406884 
-0.28171781951 -0.00415017 81.81530082 -0.01205159777 -0.000506664 81.915244598 -0.00401834 0.050058986337 81.081548014 
-0.00076825 0.30054619296 81.278589807 -0.000949292 0.70094787107 80.484310129 -0.020301746752 -0.000839512 80.219733147 
-0.0063055 -0.0056743031999 79.962825753 -0.078850194793 0.000569143 80.620816795 -0.042625196748 -0.00020687 80.368512897 
-0.1545824381 3.09209e-06 81.050184438 -0.096744132781 7.67829e-05 80.807953333 -0.23258742346 -0.000560545 81.477359423 
-0.15416582863 0.000118765 81.249710829 -0.30246370828 -0.00103099 81.876571708 -0.20359759936 0.000166456 81.666480599 
-0.35639663391 -0.00142522 82.226297634 -0.23649493987 0.00022843 82.03573094 -0.38823800955 -0.00176981 82.50817801 
-0.24646085675 0.000286391 82.339163857 -0.39263691792 -0.0020882 82.706771918 -0.22841422806 0.00032279 82.561545228 
-0.36423913081 -0.00239679 82.808005131 -0.17780654286 0.000322043 82.690055543 -0.29704619862 -0.00270024 82.799172199 
-0.089954484717 0.000273063 82.713416685 -0.18401955188 -0.00298733 82.668255552 0.000171408 0.040413778275 82.621556222 
-0.017049260195 -0.0032275 82.40442986 2.14851e-05 0.21930242467 82.405780575 -0.00336922 0.21259307932 81.999150921 
-0.000161511 0.45319501843 82.059447982 -0.00334197 0.51319510268 81.447656897 -0.000350516 0.74831326274 81.578861737 
-0.0030639 0.89083741373 80.751489586 -0.000507392 1.1093195659 80.965350434 -0.000586784 1.5374294929 80.227370507 
-0.016059345264 -0.00224318 80.088696945 -0.00835423 -0.0024885989932 79.777970509 -0.053929818249 -1.2199e-05 80.547591818 
-0.025996377022 -0.000397651 80.262243177 -0.097454661735 -0.000481823 81.010554562 -0.052686674181 3.51948e-06 80.753588374 
-0.13220740891 -0.000985119 81.450498409 -0.07046498341 5.38308e-05 81.223309283 -0.14888920581 -0.00139037 81.843786206 
-0.069356557145 0.000108036 81.646829757 -0.14095407421 -0.00171042 82.172108074 -0.042344193621 0.000177274 82.004848094 
-0.1036941428 -0.00197016 82.420372143 0.000243981 0.015265249708 82.28255545 -0.03339849339 -0.00219151 82.576849693 
0.000291293 0.10667001624 82.468653984 -0.00238921 0.073376103795 82.631622296 0.000305532 0.23434505761 82.554309942 
-0.00256686 0.22035162847 82.576486372 0.000278465 0.40066193556 82.533088064 -0.00271408 0.41180754302 82.404683457 
0.000208876 0.60826432268 82.399928677 -0.00280502 0.65250737392 82.111040626 0.000103723 0.86014422538 82.151246775 
-0.00279899 0.94721038737 81.692932613 -2.12684e-05 1.1593551714 81.785754829 -0.00264393 1.2997035523 81.151606448 
-0.000141969 1.5083184986 81.305241501 -0.00228409 1.7113355288 80.493764471 -0.000227703 1.907754231 80.715765769 
-0.000245424 2.3552100694 80.029669931 -0.011502875472 -0.00386547 79.939214575 -0.010751 0.0010102042071 79.572998446 
-0.026511176616 -0.000670124 80.470407577 -0.0078146220814 -0.000611217 80.151347332 -0.0343105071 -0.00102886 80.978624207 
-0.0042812283837 -6.60334e-05 80.707042638 -0.021227303353 -0.00145655 81.439399003 5.21889e-06 0.021630391615 81.213882008 
-0.00177695 0.020364291422 81.832942209 7.98952e-05 0.078095120952 81.650749379 -0.00200192 0.095051694903 82.144255405 
0.000170682 0.16996548169 82.001878518 -0.00215798 0.20540099207 82.362403008 0.000259296 0.29953639183 82.256937608 
-0.00226858 0.35283716687 82.480061833 0.000328299 0.46747536541 82.409049635 -0.00234949 0.53837791208 82.492081088 
0.000364909 0.67365287002 82.45446313 -0.00240541 0.76314590821 82.395102092 0.000362817 0.91777484896 82.391607151 
-0.00242838 1.0285911879 82.187308812 0.000323059 1.1997411743 82.220288826 -0.00239778 1.3363870377 81.868602962 
0.000254167 1.5197018279 81.942118172 -0.00228229 1.6879476065 81.441422394 0.000171683 1.8777495701 81.56027043 
-0.00204402 2.0835902064 80.911549794 9.68719e-05 2.2733412119 81.080818788 -0.00164551 2.5213879254 80.289182075 
5.44155e-05 2.7043743687 80.513395631 6.85006e-05 3.1661304336 79.872349566 -0.0066314298447 -0.00569823 79.784556 
-0.0134826 0.0048292899 79.36210275 -0.0014083 0.0034124046109 80.401689095 -0.000846857 0.012029686816 80.049388313 
-0.00164347 0.034923345421 80.965006855 -0.000130739 0.048796329244 80.680573071 -0.0019799 0.10052391218 81.453821088 
-2.43234e-05 0.12274817744 81.232338823 -0.00219471 0.20555161427 81.851807386 8.6136e-05 0.23971840186 81.687069598 
-0.00230292 0.35192472484 82.148566275 0.000213072 0.4016961488 82.033628851 -0.00233669 0.53936544041 82.33819256 
0.000335574 0.60785811069 82.266828889 -0.0023241 0.76642692341 82.418348077 0.000434327 0.85570622986 82.38517677 
-0.00228402 1.0312903101 82.38904969 0.000496769 1.1420475993 82.390582401 -0.0022235 1.3323169753 82.252013025 
0.000518203 1.4636845333 82.286445467 -0.00213728 1.6681855714 82.010324429 0.000501773 1.8177840308 82.077775969 
-0.00200911 2.0378578395 81.66854216 0.000457552 2.201931585 81.770738415 -0.00181464 2.4400780553 81.233051945 
0.000401127 2.6138031531 81.372636847 -0.0015259 2.8726485653 80.712921435 0.000351704 3.0506623711 80.892777629 
-0.00111733 3.3315383715 80.121011628 0.000329695 3.508601043 80.343158957 0.000353307 3.9816915265 79.739338473 
-0.00774819 -0.0013860435873 79.639405923 -0.0165506 0.0090171511919 79.161080709 -0.00223832 0.036183204723 80.354819895 
-0.00110535 0.033877242978 79.971266657 -0.0023363 0.11106477912 80.981945221 -0.000189036 0.10746374609 80.687841254 
-0.00256249 0.2344449615 81.503743039 -3.0409e-05 0.23457648699 81.290287513 -0.00264708 0.40865940047 81.9082606 
0.000133466 0.41803894128 81.765122059 -0.00261381 0.63215436109 82.190657639 0.000311933 0.65614559065 82.106800409 
-0.00250519 0.90108650892 82.350803491 0.000479132 0.94415336336 82.316106637 -0.00235697 1.210579848 82.392200152 
0.000612751 1.2757585375 82.398261463 -0.00219263 1.555665032 82.320714968 0.000700399 1.6442873629 82.360992637 
-0.00202169 1.9318568242 82.143053176 0.000739531 2.0435167063 82.213663294 -0.00184071 2.3353139674 81.867146033 
0.000736137 2.4680181576 81.966211842 -0.00163596 2.7626954273 81.501564573 0.000702588 2.9131473291 81.628802671 
-0.00138727 3.2107689123 81.056191088 0.000655353 3.3747745185 81.212315481 -0.00107259 3.6756976175 80.542492382 
0.000612692 3.848725166 80.728814834 -0.00067329 4.1523274172 79.974742583 0.00059234 4.3301050338 80.191744966 
0.000608707 4.8126398814 79.616990119 -0.0100401 0.0043563838611 79.519767686 -0.0199743 0.013671394778 78.986734705 
-0.00318142 0.072529922381 80.345261378 -0.001389 0.058345256674 79.933632643 -0.00312385 0.19578964365 81.043056356 
-0.000238048 0.17334607913 80.744250921 -0.00321341 0.38333643899 81.600134561 -5.36118e-06 0.36005832887 81.400804671 
-0.00313556 0.63358952915 82.010484471 0.000233269 0.6173812126 81.894939787 -0.00293033 0.94057754743 82.275533453 
0.000479837 0.93887411617 82.227902884 -0.00265623 1.2960869417 82.402223058 0.000700909 1.3149252443 82.408114756 
-0.00235948 1.6912797902 82.40092021 0.00087065 1.734763943 82.448296057 -0.00206863 2.1178085904 82.28361141 
0.00097789 2.1878805684 82.363329432 -0.00179451 2.5684077091 82.062402291 0.00102394 2.6649872863 82.168332714 
-0.00153343 3.037001399 81.749908601 0.00101933 3.1583056502 81.87820435 -0.00127155 3.5185264797 81.35816352 
0.000980132 3.6614902876 81.507159712 -0.000989782 4.0084359685 80.899684032 0.000924854 4.1692073891 81.069102611 
-0.000668525 4.5020377218 80.387942278 0.000871908 4.676547978 80.577682022 -0.000292304 4.9938272861 79.837582714 
0.000837591 5.1783930595 80.047276941 0.000833976 5.6687788212 79.493641179 -0.0126212 0.01079667235 79.443869328 
-0.0237953 0.018952529278 78.858073971 -0.00427096 0.11365911371 80.390182886 -0.00170158 0.086408160671 79.955906939 
-0.00402931 0.29183099706 81.163301003 -0.000272089 0.24897705802 80.867409942 -0.00394248 0.55168238472 81.755166615 
6.43314e-05 0.50370418111 81.578348819 -0.00365747 0.88648490036 82.1667011 0.000404507 0.84426516335 82.086910837 
-0.00324112 1.2846576771 82.407622323 0.000736876 1.2580978774 82.403222123 -0.0027745 1.7327106153 82.493479385 
0.0010179 1.7295844883 82.545015512 -0.00231634 2.2173288876 82.442401112 0.0012191 2.2427372754 82.534052725 
-0.00189898 2.7266673098 82.27306269 0.00133347 2.7829941965 82.393105804 -0.00153168 3.2508829369 82.003497063 
0.00136944 3.3381376956 82.143662304 -0.00120699 3.7821571724 81.650062828 0.0013448 3.8984551908 81.805544809 
-0.00090757 4.314301031 81.228418969 0.00128118 4.4564905824 81.396499418 -0.000612262 4.8421550659 80.752864934 
0.00120025 5.0064063189 80.932423681 -0.000300954 5.3609153758 80.237894624 0.00112138 5.5432966238 80.428393376 
4.14169e-05 5.8654301637 79.698399836 0.00106011 6.0624610614 79.899028939 0.00102694 6.5588150441 79.359124956 
-0.0155685 0.018238733696 79.432374666 -0.0280834 0.025108531664 78.797017968 -0.00555616 0.16141547931 80.509814521 
-0.00204813 0.1195375345 80.060518466 -0.00508313 0.40331283824 81.360100162 -0.000280053 0.3381321542 81.077838846 
-0.00475799 0.74613205979 81.98188794 0.000202243 0.67212573282 81.839349267 -0.00420215 1.1762507895 82.38527921 
0.000678078 1.1080389034 82.352221097 -0.00352393 1.6749446218 82.590675378 0.00111373 1.6252915902 82.63836841 
-0.00283406 2.2224230941 82.623996906 0.00145428 2.2008733096 82.72739669 -0.00220372 2.8004468426 82.512723157 
0.00167257 2.8128884078 82.652221592 -0.00166485 3.39370894 82.28292106 0.00177171 3.4426039005 82.4442761 
-0.00121959 3.9902519331 81.957928067 0.00177263 4.0752288366 82.131701163 -0.000851669 4.5811503052 81.558349695 
0.00170393 4.6998361937 81.738873806 -0.000536197 5.1598213277 81.102168672 0.00159465 5.3086156691 81.286404331 
-0.000246882 5.7212813546 80.605138645 0.00147038 5.8960324585 80.791787541 3.92132e-05 6.2612707165 80.082109283 
0.00135156 6.4578895028 80.270690497 0.000338501 6.775572403 79.547317597 0.00125297 6.9905303892 79.737199611 
0.00118355 7.4901985859 79.205041414 -0.0190008 0.027136316755 79.510304683 -0.0329463 0.032517921294 78.829603079 
-0.00710828 0.2185614602 80.72804354 -0.00243395 0.15994533652 80.274775663 -0.00632357 0.5363132799 81.65353772 
-0.000240099 0.44640537719 81.399865623 -0.00566238 0.97626965655 82.294614343 0.000449234 0.87490665312 82.202226347 
-0.00474456 1.5153997877 82.674150212 0.00110323 1.4218921141 82.702237886 -0.00374014 2.1258178963 82.826742104 
0.00165513 2.0561538595 82.93763614 -0.00279527 2.7803228958 82.791387104 0.00204153 2.7456529857 82.954037014 
-0.00198873 3.4554726974 82.606047303 0.00224652 3.4619580877 82.797151912 -0.00134283 4.1329124271 82.304677573 
0.00229402 4.1824538677 82.508266132 -0.000843552 4.7992772005 81.916192799 0.00222505 4.890563955 82.122186045 
-0.000458967 5.4454336195 81.464426381 0.00208288 5.575083815 81.667286185 -0.000152247 6.0653372689 80.968932731 
0.00190507 6.2288887105 81.166041289 0.000110587 6.6549646903 80.44631531 0.00172067 6.8476340634 80.636885937 
0.000356701 7.2112893426 79.910830657 0.0015503 7.4286001176 80.094759882 0.000604593 7.7315392802 79.37587072 
0.0014071 7.9697352858 79.553044714 0.00129779 8.4689634055 79.023796595 -0.0230991 0.038172580702 79.707779319 
-0.0385486 0.041766595351 78.988495905 -0.00902724 0.2892654282 81.073894572 -0.00286329 0.21101854678 80.632603453 
-0.00779342 0.69982805523 82.066717945 -0.000110051 0.58218937908 81.862681621 -0.00664198 1.2558764178 82.708403582 
0.000876941 1.126032018 82.687537982 -0.00523415 1.9212882126 83.040181787 0.00175785 1.8043900476 83.147509952 
-0.00382685 2.6564845391 83.115635461 0.00242331 2.5719307365 83.302899264 -0.00260158 3.4257462901 82.99005371 
0.00281577 3.385735103 83.219904897 -0.00163006 4.2006356498 82.71336435 0.00295164 4.2107005339 82.959549466 
-0.000907791 4.9606040704 82.32779593 0.00289243 5.0211554327 82.573604567 -0.000391228 5.6921331452 81.866966855 
0.00270807 5.800118548 82.102881452 -2.46831e-05 6.3870916111 81.356918389 0.00245901 6.5375573152 81.578632685 
0.000244516 7.0410307729 80.818069227 0.00219021 7.2282897862 81.024170214 0.000459366 7.6517395807 80.266390419 
0.00193185 7.8701480871 80.457231913 0.000651348 8.2180877737 79.715192226 0.00170232 8.4626285834 79.891601417 
0.000840623 8.7391621019 79.176227898 0.00151132 9.0057649848 79.338875015 0.0013621 9.4994802145 78.809119785 
-0.0281414 0.052427301863 80.063901098 -0.0451255 0.053792949835 79.31592045 -0.0114625 0.37996977709 81.583574223 
-0.00332792 0.2780947259 81.177814274 -0.0095384 0.90739636573 82.627005634 0.000195306 0.75839021751 82.502305782 
-0.00765155 1.6049584953 83.238731505 0.0016071 1.446222885 83.318017115 -0.00557761 2.4180490898 83.48756091 
0.00275853 2.2819106764 83.696679324 -0.00368695 3.2923465852 83.452963415 0.0034967 3.2012942165 83.731445784 
-0.00217798 4.1830415043 83.209938496 0.00380881 4.1490665286 83.514623471 -0.0010818 5.0576324931 82.822017507 
0.00378234 5.0841870631 83.125112937 -0.000338535 5.8952106112 82.338599389 0.00353962 5.9799026074 82.624767393 
0.000142116 6.6839003813 81.796839619 0.00318608 6.8210513508 82.058738649 0.000447191 7.4181511199 81.22365888 
0.00279703 7.6006775302 81.45928247 0.000646957 8.0963422902 80.63845771 0.00241951 8.3170264249 80.848653575 
0.000792506 8.7189391363 80.055870864 0.00207961 8.9712052084 80.242624792 0.000917902 9.2872556487 79.487284351 
0.00178959 9.5655233235 79.652656676 0.00104328 9.8025506558 78.942189344 0.00155304 10.102470335 79.087829665 
0.00136818 10.584232885 78.556067115 -0.0345615 0.071613478313 80.630030022 -0.0530958 0.070168407128 79.869416793 
-0.0145919 0.50102563356 82.303153366 -0.00380551 0.37000010404 81.968867896 -0.0115636 1.1799517741 83.365588226 
0.000849467 0.99557009615 83.362959904 -0.00856669 2.0529771484 83.899542852 0.00286967 1.8669499534 84.116780047 
-0.00560993 3.0392591997 84.0155108 0.00428282 2.8921711462 84.353408854 -0.00317981 4.066715868 83.827734132 
0.00495853 3.9827392765 84.212650723 -0.00143537 5.0820801815 83.435169819 0.00502409 5.0706718021 83.819988198 
-0.000303329 6.0514811427 82.914158857 0.00469599 6.111738134 83.273131866 0.000372432 6.956553237 82.320016763 
0.00417528 7.0817421112 82.641687889 0.000746451 7.7896571692 81.690662831 0.00359942 7.9705581974 81.972101803 
0.000940172 8.5497254822 81.051404518 0.00304646 8.7767550435 81.294414956 0.00103853 9.2392062965 80.419293703 
0.00255399 9.5035922402 80.62755776 0.00109635 9.8620363203 79.80595368 0.00213576 10.156331735 79.983468265 
0.00114639 10.422302474 79.220097526 0.00179275 10.740589665 79.370610335 0.00120589 10.923721784 78.668478216 
0.00151966 11.261559562 78.794740438 0.00130835 11.723368376 78.261031624 -0.0430963 0.098951715891 81.478063284 
-0.0628536 0.093698540378 80.73207126 -0.0188006 0.66974909205 83.292565908 -0.00414943 0.50190636556 83.085888634 
-0.0138626 1.5509857878 84.317314212 0.00217643 1.3275904357 84.498479564 -0.00914813 2.6440495813 84.699690419 
0.00496881 2.4368493166 85.103940683 -0.00505709 3.8316792704 84.61355073 0.00653568 3.6893544594 85.110005541 
-0.00211944 5.0224530525 84.219146947 0.00685559 4.9672430664 84.722846934 -0.0002884 6.1584306387 83.641109361 
0.00639393 6.1931135021 84.106746498 0.000720722 7.209511852 82.966538148 0.00558109 7.3259059998 83.375314 
0.00120441 8.1644441715 82.251765829 0.00469103 8.34986032 82.59995968 0.00138875 9.0230494194 81.531570581 
0.00386016 9.2641661409 81.823193859 0.00142178 9.7906764143 80.827023586 0.00314281 10.075458117 81.068641883 
0.00139259 10.4750661 80.1503339 0.00254942 10.793402438 80.349197562 0.00135124 11.08391316 79.50898684 
0.00207152 11.427927318 79.671672682 0.00132341 11.62433321 78.90806679 0.00169406 11.988192735 79.039607265 
0.00131985 12.102360903 78.351539097 0.00140095 12.481776318 78.455723682 0.00117724 12.914726891 77.921973109 
-0.0548075 0.13942493668 82.711672063 -0.0762977 0.12978157818 82.026665422 -0.0239808 0.91732711827 84.630972882 
-0.00401075 0.70287349329 84.644514507 -0.0159781 2.0757550769 85.517544923 0.00516901 1.8139658019 85.972634198 
-0.00882384 3.4451256431 85.635274357 0.00876238 3.233548137 86.287661863 -0.00351715 4.8596848769 85.254385123 
0.00969798 4.7510188234 85.937521177 -0.000305614 6.2129097438 84.591540256 0.00905613 6.2200793938 85.218560606 
0.0013001 7.4518343134 83.793535687 0.00769376 7.565024743 84.331365257 0.00194698 8.559029278 82.949770722 
0.00622458 8.7595116359 83.394568364 0.00209118 9.5362746271 82.110625373 0.00492307 9.8044662644 82.471133736 
0.0020067 10.394204253 81.302395747 0.00385706 10.712974529 81.591325471 0.00184304 11.146182979 80.537917021 
0.00301575 11.501741973 80.767658027 0.00167433 11.805463903 79.822636097 0.00236394 12.187409936 80.004090064 
0.00153414 12.383837767 79.158862233 0.00186354 12.784386557 79.300613443 0.00143462 12.891141325 78.547558675 
0.00148169 13.305068922 78.655931078 0.0013767 13.335127364 77.989272636 0.00119198 13.758879326 78.068920674 
0.000973808 14.153304729 77.538695271 -0.072714 0.20832346096 84.487993539 -0.0910902 0.18988059878 83.964569401 
-0.0324098 1.3016571269 86.416642873 -0.00291409 1.0265119757 86.805498024 -0.0175877 2.850428126 86.987471874 
0.00972558 2.5583898934 87.845450107 -0.0066702 4.5576640195 86.674715981 0.0142356 4.3788189912 87.641671009 
-0.000430743 6.2087333067 85.884366693 0.0138145 6.184827591 86.769402409 0.00235549 7.6997789643 84.890371036 
0.011085 7.8193937661 85.627546234 0.00324081 9.0020033602 83.84685664 0.00844733 9.23553001 84.43416999 
0.00323625 10.122934711 82.829965289 0.00630002 10.439618605 83.287681395 0.0029097 11.08334578 81.87285422 
0.00467225 11.457768134 82.225931866 0.00251072 11.906956517 80.986943483 0.00347824 12.319923114 81.257576886 
0.00214454 12.615482824 80.173617176 0.0026076 13.053173846 80.379726154 0.00184696 13.227182925 79.429917075 
0.00197087 13.680199441 79.585400559 0.00162363 13.757185609 78.752114391 0.00150222 14.219043793 78.867056207 
0.00146842 14.217062526 78.136937474 0.00115488 14.683788997 78.218511003 0.00137079 14.615956275 77.581743725 
0.000896233 15.085257861 77.634842139 0.000703251 15.43141313 77.11278687 -0.0964514 0.31963127066 87.069013729 
-0.129172 0.30253080404 86.864189196 -0.0363515 1.947261573 88.784958427 0.0117517 1.6218665181 89.851793482 
-0.0154017 4.038846409 88.715883591 0.0254018 3.7751163323 90.153853668 -0.00111869 6.1330636832 87.732196317 
0.0226603 6.0698179691 89.061942031 0.00458715 7.9835838441 86.409446156 0.0168437 8.12669503 87.47458497 
0.00563106 9.5442583925 85.039841608 0.0117728 9.8438672552 85.845132745 0.00519404 10.839349897 83.747850103 
0.00795747 11.241693485 84.344006515 0.00433269 11.912223493 82.572376507 0.00543202 12.377449563 83.010850437 
0.00349031 12.805699718 81.517200282 0.00376989 13.307049446 81.839050554 0.00280014 13.555565857 80.573034143 
0.00265629 14.075548136 80.808651864 0.00227047 14.190023817 79.727676183 0.00190103 14.717641262 79.898658738 
0.00188175 14.730740927 78.969259073 0.00137505 15.259233209 79.090966791 0.00160654 15.194099633 78.288300367 
0.00100103 15.719540848 78.371359152 0.00142017 15.592628141 77.677371859 0.000729392 16.112879055 77.729120945 
0.00130185 15.935537118 77.131262882 0.000528882 16.449877767 77.156422233 0.000379043 16.738552351 76.648047649 
-0.158513 0.62043293105 90.821009069 -0.117941 0.52276181581 91.586769184 -0.0619531 3.1206310211 91.757448979 
-0.0296347 2.6790295207 93.873080479 -0.00250307 5.947128131 90.570011869 0.0432657 5.8087213225 92.795168677 
0.00909678 8.3646840153 88.633535985 0.0308559 8.5816216728 90.290178327 0.0105349 10.285722146 86.689977854 
0.0164203 10.720363082 87.842836918 0.00882947 11.786267612 84.950232388 0.00929592 12.342211223 85.744588777 
0.00658985 12.969385296 83.444414704 0.00565816 13.5852901 83.9933099 0.00492315 13.9165634 82.1494366 
0.00345257 14.554451381 82.531448619 0.00367886 14.68667156 81.03032844 0.00222444 15.326983807 81.297116193 
0.0028061 15.321940133 80.055459867 0.00145693 15.954333922 80.240866078 0.00219615 15.852446406 79.199353594 
0.000973561 16.471721825 79.325678175 0.00177508 16.300003712 78.442396288 0.000649745 16.903715218 78.524684782 
0.00148869 16.680154784 77.770245216 0.00042415 17.267695419 77.818404581 0.0012993 17.004610734 77.172589266 
0.000259982 17.576324795 77.193075205 0.00118003 17.28181109 76.64218891 0.000136353 17.838890134 76.639109866 
4.06388e-05 18.062021138 76.149978862 -0.170588 0.9780470271 96.938722973 0.00604588 1.6396646627 100.20164534 
-0.016021 5.5137720237 95.419437976 0.184132 5.5435002045 99.749719796 0.023671 9.0501567561 92.138143244 
0.0633357 9.4907899742 94.973110026 0.0243851 11.451755325 89.085344675 0.0105081 12.148373884 90.821526116 
0.0145763 13.15634812 86.56095188 0.0104306 14.014592623 87.631707377 0.0104125 14.407339864 84.541660136 
0.00332702 15.276975483 85.221724517 0.00693503 15.354104968 82.902995032 0.00221907 16.203793523 83.347706477 
0.00483708 16.095051173 81.550248827 0.00116216 16.909300398 81.844699602 0.00347436 16.688867553 80.412132447 
0.000775117 17.465179377 80.606920623 0.00258585 17.174085391 79.438714609 0.000536513 17.913461786 79.564738214 
0.00199757 17.576056126 78.594943874 0.00040127 18.281168079 78.671831921 0.00160476 17.91265098 77.85604902 
0.000305169 18.586141225 77.896658775 0.00134368 18.196486199 77.204813801 0.0002287 18.841245673 77.217254327 
0.00117343 18.436820859 76.629279141 0.000161002 19.055609895 76.618790105 0.00106692 18.64061626 76.12088374 
9.81066e-05 19.235971258 76.090728742 3.86525e-05 19.38767511 75.62612489 -0.741635 4.6193628539 103.73852715 
-0.165663 5.7771690929 113.68923091 0.126947 10.62542301 98.58877699 -0.106815 10.759282207 104.92821779 
0.0176814 13.526475078 92.694824922 0.0702264 15.318350616 95.389349384 0.0336188 15.373716171 88.763483829 
-0.00261142 16.822937429 90.142962571 0.0179539 16.488208499 85.912491501 0.0147324 17.813304684 86.724295316 
0.0112479 17.291174148 83.788325852 0.00951975 18.465776866 84.285323134 0.00770829 17.896762951 82.129637049 
0.00992795 18.956531092 82.445068908 0.0055424 18.372308796 80.790491204 0.00927202 19.34031107 80.99058893 
0.00423627 18.755037024 79.679462976 0.00885995 19.648938704 79.803361296 0.00337646 19.068123908 78.738076092 
0.0083902 19.900753641 78.809246359 0.00279977 19.326843689 77.927556311 0.00792834 20.10756703 77.96083297 
0.00240058 19.542038928 77.221461072 0.00746854 20.277860727 77.226539273 0.00212058 19.721457504 76.601742496 
0.00702008 20.418027784 76.584872216 0.00192287 19.871333144 76.055766856 0.00658773 20.533039432 76.020760568 
0.00178371 19.996171912 75.575128088 0.00617643 20.626846237 75.524253763 0.00579061 20.702990604 75.088209396 
0.142459 14.369508073 112.15739193 0.338712 19.194085433 98.721014567 0.135766 19.329529515 91.675770485 
0.0659651 19.639755031 87.559944969 0.0512678 19.95067495 84.78742505 0.0399056 20.220725477 82.749174523 
0.0339748 20.454350043 81.173749957 0.0295595 20.652544775 79.906855225 0.0263743 20.819287844 78.858912156 
0.0238735 20.957763545 77.972736455 0.0218556 21.071237848 77.211162152 0.0201762 21.162931736 76.548868264 
0.0187514 21.235728744 75.968671256 0.0175264 21.292342511 75.458557489 0.0164657 21.33549099 75.01030901 
0.00587734 20.791023653 74.535276347 0.00123145 19.572996411 75.036303589 0.00185583 18.339127512 75.527572488 
0.00274654 17.100148865 75.998351135 0.00355054 15.868484506 76.441215494 0.00420904 14.65556888 76.85033112 
0.00469427 13.471261994 77.221038006 0.00499436 12.323260689 77.550139311 0.00511028 11.217564722 77.836035278 
0.00505186 10.157508334 78.078491666 0.004833 9.1447627294 78.278547271 0.00446686 8.178628759 78.438851241 
0.00396134 7.2566481673 78.562921833 0.00331509 6.3745349141 78.655515086 0.00251354 5.5262426077 78.722997392 
0.00152487 4.7040053327 78.772714667 0.000295219 3.8981976739 78.814252326 -0.00125711 3.0972323568 78.859277643 
-0.00324867 2.2872720358 78.922747964 -0.00583847 1.4520049846 79.023465015 -0.00923437 0.57248502782 79.185812972 
-0.372711941 -0.0136924 79.441013941 -1.4065219237 -0.0195003 79.828871924 -2.5508055706 -0.0269095 80.399375571 
-3.8208882051 -0.0360276 81.213648205 -5.21467151 -0.0463722 82.34304151 -6.69439613 -0.0568326 83.86420613 
-8.1563109539 -0.0638176 85.848720954 0.00556722 20.834107298 74.232992702 0.00114871 19.668434022 74.712665978 
0.0017401 18.483695587 75.184704413 0.00258982 17.290077492 75.638422508 0.0033741 16.099626147 76.066573853 
0.00404517 14.923226379 76.463073621 0.00458082 13.770473376 76.822626624 0.00497023 12.64943779 77.14126221 
0.00521222 11.566311764 77.416288236 0.00531294 10.5254267 77.6461733 0.00528263 9.5292178615 77.830352138 
0.0051321 8.5781963862 77.969753614 0.00486899 7.6711628142 78.065947186 0.00449399 6.805117386 78.121802614 
0.00399676 5.9753395107 78.141160489 0.00335107 5.1752382079 78.129011792 0.00250852 4.396232284 78.092087716 
0.00138991 3.6273651688 78.039154831 -0.000126857 2.854858414 77.981821586 -0.00222359 2.0613647502 77.93602525 
-0.00516434 1.2251278061 77.923082194 -0.00932277 0.31900857927 77.972601421 -0.69023275389 -0.0152128 78.125400754 
-1.8417650129 -0.0234916 78.436625013 -3.1782394074 -0.0349706 78.980689407 -4.737710265 -0.0501754 79.854250265 
-6.5372525791 -0.0699839 81.177162579 -8.5304251858 -0.0889945 83.093815186 0.00530927 20.867411849 73.981788151 
0.00109711 19.745306336 74.443293664 0.00167564 18.601417767 74.898682233 0.00250401 17.445807874 75.337392126 
0.00328192 16.289855039 75.752044961 0.00397079 15.144494037 76.136305963 0.00455394 14.019263848 76.484336152 
0.00502322 12.922342491 76.791457509 0.00537804 11.860475121 77.054124879 0.00562419 10.838383615 77.269316385 
0.00577187 9.8596806107 77.435339389 0.00583325 8.9258480911 77.551151909 0.00581975 8.0369604497 77.61669955 
0.00573906 7.1914338884 77.632266112 0.0055917 6.3860508495 77.59933915 0.00536665 5.615886397 77.519793603 
0.00503539 4.8740591385 77.396600861 0.00454307 4.1513599083 77.234270092 0.00379499 3.4355996651 77.039240335 
0.00263586 2.7106465346 76.821133465 0.000817608 1.954975117 76.594374883 -0.00204934 1.1396693987 76.380870601 
-0.00656995 0.22588359163 76.213740408 -0.83816593793 -0.0136549 76.142844938 -2.1197485367 -0.024696 76.241978537 
-3.7007991832 -0.0413374 76.618589183 -5.6709374566 -0.06715 77.421247457 -8.0876312168 -0.0975437 78.859931217 
0.00510281 20.892325313 73.780974687 0.00106693 19.805278707 74.227621293 0.00164456 18.694109777 74.669390223 
0.00246429 17.568795961 75.095504039 0.00324425 16.440765935 75.498534065 0.00395319 15.320824778 75.871875222 
0.00457948 14.218375983 76.209224017 0.00511821 13.14194274 76.50525726 0.00557083 12.098481137 76.755518863 
0.00594479 11.093685238 76.956214762 0.0062525 10.131581569 77.104018431 0.00651001 9.2148433284 77.196686672 
0.00673537 8.344743778 77.231886222 0.00694683 7.5210775863 77.208132414 0.00716076 6.7422873803 77.12394262 
0.00738901 6.0053597215 76.977910278 0.00763513 5.3056707915 76.768909208 0.00788848 4.6366624974 76.496047503 
0.00811445 3.9892569405 76.15909306 0.0082379 3.3508202097 75.75881979 0.00811474 2.7036947893 75.298735211 
0.00748313 2.0226166198 74.78657338 0.00587906 1.2709931059 74.237976894 0.00249862 0.39526213841 73.682405862 
-0.68310816285 -0.0040741 73.171763923 -2.0770980647 -0.0159762 72.794858065 -3.9443575472 -0.0382804 72.692927547 
-6.4716229055 -0.0685482 73.099702905 0.00494776 20.910069254 73.630230746 0.00105075 19.849285768 74.065714232 
0.00163311 18.76270597 74.49699403 0.00245135 17.660365857 74.913334143 0.00323728 16.553378044 75.307221956 
0.00396519 15.452642893 75.671557107 0.00462757 14.367859367 75.999940633 0.0052226 13.307434454 76.286665546 
0.00575423 12.27888917 76.52621083 0.00623232 11.288260365 76.714139635 0.00667252 10.340296841 76.846203159 
0.00709573 9.4386100693 76.918449931 0.00752763 8.5853781278 76.927441872 0.00799819 7.7817417652 76.869378235 
0.00854132 7.0276898412 76.740330159 0.00919465 6.3221588367 76.535891163 0.00999933 5.6629273831 76.250752617 
0.0109993 5.0464994567 75.878620543 0.0122395 4.4677385245 75.412001475 0.0137612 3.9191832251 74.841906775 
0.0155917 3.3898695195 74.158360481 0.017721 2.8632163354 73.350363665 0.020056 2.3134788037 72.408081196 
0.0223205 1.6995757692 71.325814231 0.0238641 0.95466300915 70.108686991 -0.031339873042 0.0233494 68.785709873 
-1.4400240744 0.01707 67.429693074 -3.5535918063 0.00606785 66.209511806 0.00484424 20.92140816 73.52969184 
0.00104303 19.87833146 73.95766854 0.00163113 18.808143716 74.381756284 0.0024508 17.720986186 74.791413814 
0.00324291 16.628291849 75.178908151 0.0039855 15.540489239 75.537010761 0.00467399 14.467606194 75.859093806 
0.00530894 13.418272938 76.138827062 0.0058964 12.400124148 76.370675852 0.00644851 11.419599207 76.549200793 
0.00698384 10.482040673 76.669459327 0.00752763 9.5914004233 76.726809577 0.00811216 8.7508631997 76.7164168 
0.0087774 7.9624867148 76.632963285 0.0095723 7.2275069986 76.470663001 0.0105569 6.5464263267 76.222683673 
0.0118058 5.9190890089 75.880380991 0.0134128 5.3447067605 75.43295324 0.0154984 4.8218778699 74.86673213 
0.0182198 4.3483024081 74.164137592 0.021784 3.9203181892 73.302251811 0.0264658 3.5318848753 72.252315125 
0.0326298 3.1725823328 70.977057667 0.0407388 2.8237083326 69.430101667 0.0513949 2.4506655486 67.554854451 
0.0651212 1.9875065379 65.286553462 0.0822968 1.30637111 62.56079889 0.104948 0.1560946561 59.348845344 
0.00479243 20.926950644 73.479449356 0.0010401 19.892686193 73.903513807 0.00163184 18.830753841 74.324046159 
0.00245295 17.751247076 74.730352924 0.00324884 16.665658454 75.114541546 0.00399942 15.584480072 75.469519928 
0.00470163 14.517603908 75.788196092 0.00535733 13.473922199 76.064377801 0.00597376 12.461127633 76.292072367 
0.00656439 11.485913363 76.465586637 0.00714952 10.553672831 76.579727169 0.00775692 9.6689393051 76.629100695 
0.00842266 8.8352051175 76.608314883 0.00919248 8.0550804882 76.511379512 0.010124 7.3304717518 76.331508248 
0.0112903 6.6627786616 76.060221338 0.0127856 6.053020118 75.687149882 0.0147336 5.5020472538 75.199142746 
0.017301 5.0106817214 74.578678279 0.020717 4.5799052786 73.802984721 0.0253043 4.2108527644 72.841777236 
0.0315263 3.9047927171 71.654427283 0.0400643 3.6626617668 70.185998233 0.0519196 3.4840377833 68.361422217 
0.0686622 3.3644849717 66.077295028 0.0924124 3.2890819134 63.189028087 0.127282 3.2188316117 59.493928388 
0.177269 3.0495051584 54.709904842 0.00479243 20.926950644 73.479449356 0.0010401 19.892686193 73.903513807 
0.00163184 18.830753841 74.324046159 0.00245295 17.751247076 74.730352924 0.00324884 16.665658454 75.114541546 
0.00399942 15.584480072 75.469519928 0.00470163 14.517603908 75.788196092 0.00535733 13.473922199 76.064377801 
0.00597376 12.461127633 76.292072367 0.00656439 11.485913363 76.465586637 0.00714952 10.553672831 76.579727169 
0.00775692 9.6689393051 76.629100695 0.00842266 8.8352051175 76.608314883 0.00919248 8.0550804882 76.511379512 
0.010124 7.3304717518 76.331508248 0.0112903 6.6627786616 76.060221338 0.0127856 6.053020118 75.687149882 
0.0147336 5.5020472538 75.199142746 0.017301 5.0106817214 74.578678279 0.020717 4.5799052786 73.802984721 
0.0253043 4.2108527644 72.841777236 0.0315263 3.9047927171 71.654427283 0.0400643 3.6626617668 70.185998233 
0.0519196 3.4840377833 68.361422217 0.0686622 3.3644849717 66.077295028 0.0924124 3.2890819134 63.189028087 
0.127282 3.2188316117 59.493928388 0.177269 3.0495051584 54.709904842 0.00484424 20.92140816 73.52969184 
0.00104303 19.87833146 73.95766854 0.00163113 18.808143716 74.381756284 0.0024508 17.720986186 74.791413814 
0.00324291 16.628291849 75.178908151 0.0039855 15.540489239 75.537010761 0.00467399 14.467606194 75.859093806 
0.00530894 13.418272938 76.138827062 0.0058964 12.400124148 76.370675852 0.00644851 11.419599207 76.549200793 
0.00698384 10.482040673 76.669459327 0.00752763 9.5914004233 76.726809577 0.00811216 8.7508631997 76.7164168 
0.0087774 7.9624867148 76.632963285 0.0095723 7.2275069986 76.470663001 0.0105569 6.5464263267 76.222683673 
0.0118058 5.9190890089 75.880380991 0.0134128 5.3447067605 75.43295324 0.0154984 4.8218778699 74.86673213 
0.0182198 4.3483024081 74.164137592 0.021784 3.9203181892 73.302251811 0.0264658 3.5318848753 72.252315125 
0.0326298 3.1725823328 70.977057667 0.0407388 2.8237083326 69.430101667 0.0513949 2.4506655486 67.554854451 
0.0651212 1.9875065379 65.286553462 0.0822968 1.30637111 62.56079889 0.104948 0.1560946561 59.348845344 
0.00494776 20.910069254 73.630230746 0.00105075 19.849285768 74.065714232 0.00163311 18.76270597 74.49699403 
0.00245135 17.660365857 74.913334143 0.00323728 16.553378044 75.307221956 0.00396519 15.452642893 75.671557107 
0.00462757 14.367859367 75.999940633 0.0052226 13.307434454 76.286665546 0.00575423 12.27888917 76.52621083 
0.00623232 11.288260365 76.714139635 0.00667252 10.340296841 76.846203159 0.00709573 9.4386100693 76.918449931 
0.00752763 8.5853781278 76.927441872 0.00799819 7.7817417652 76.869378235 0.00854132 7.0276898412 76.740330159 
0.00919465 6.3221588367 76.535891163 0.00999933 5.6629273831 76.250752617 0.0109993 5.0464994567 75.878620543 
0.0122395 4.4677385245 75.412001475 0.0137612 3.9191832251 74.841906775 0.0155917 3.3898695195 74.158360481 
0.017721 2.8632163354 73.350363665 0.020056 2.3134788037 72.408081196 0.0223205 1.6995757692 71.325814231 
0.0238641 0.95466300915 70.108686991 -0.031339873042 0.0233494 68.785709873 -1.4400240744 0.01707 67.429693074 
-3.5535918063 0.00606785 66.209511806 0.00510281 20.892325313 73.780974687 0.00106693 19.805278707 74.227621293 
0.00164456 18.694109777 74.669390223 0.00246429 17.568795961 75.095504039 0.00324425 16.440765935 75.498534065 
0.00395319 15.320824778 75.871875222 0.00457948 14.218375983 76.209224017 0.00511821 13.14194274 76.50525726 
0.00557083 12.098481137 76.755518863 0.00594479 11.093685238 76.956214762 0.0062525 10.131581569 77.104018431 
0.00651001 9.2148433284 77.196686672 0.00673537 8.344743778 77.231886222 0.00694683 7.5210775863 77.208132414 
0.00716076 6.7422873803 77.12394262 0.00738901 6.0053597215 76.977910278 0.00763513 5.3056707915 76.768909208 
0.00788848 4.6366624974 76.496047503 0.00811445 3.9892569405 76.15909306 0.0082379 3.3508202097 75.75881979 
0.00811474 2.7036947893 75.298735211 0.00748313 2.0226166198 74.78657338 0.00587906 1.2709931059 74.237976894 
0.00249862 0.39526213841 73.682405862 -0.68310816285 -0.0040741 73.171763923 -2.0770980647 -0.0159762 72.794858065 
-3.9443575472 -0.0382804 72.692927547 -6.4716229055 -0.0685482 73.099702905 0.00530927 20.867411849 73.981788151 
0.00109711 19.745306336 74.443293664 0.00167564 18.601417767 74.898682233 0.00250401 17.445807874 75.337392126 
0.00328192 16.289855039 75.752044961 0.00397079 15.144494037 76.136305963 0.00455394 14.019263848 76.484336152 
0.00502322 12.922342491 76.791457509 0.00537804 11.860475121 77.054124879 0.00562419 10.838383615 77.269316385 
0.00577187 9.8596806107 77.435339389 0.00583325 8.9258480911 77.551151909 0.00581975 8.0369604497 77.61669955 
0.00573906 7.1914338884 77.632266112 0.0055917 6.3860508495 77.59933915 0.00536665 5.615886397 77.519793603 
0.00503539 4.8740591385 77.396600861 0.00454307 4.1513599083 77.234270092 0.00379499 3.4355996651 77.039240335 
0.00263586 2.7106465346 76.821133465 0.000817608 1.954975117 76.594374883 -0.00204934 1.1396693987 76.380870601 
-0.00656995 0.22588359163 76.213740408 -0.83816593793 -0.0136549 76.142844938 -2.1197485367 -0.024696 76.241978537 
-3.7007991832 -0.0413374 76.618589183 -5.6709374566 -0.06715 77.421247457 -8.0876312168 -0.0975437 78.859931217 
0.00556722 20.834107298 74.232992702 0.00114871 19.668434022 74.712665978 0.0017401 18.483695587 75.184704413 
0.00258982 17.290077492 75.638422508 0.0033741 16.099626147 76.066573853 0.00404517 14.923226379 76.463073621 
0.00458082 13.770473376 76.822626624 0.00497023 12.64943779 77.14126221 0.00521222 11.566311764 77.416288236 
0.00531294 10.5254267 77.6461733 0.00528263 9.5292178615 77.830352138 0.0051321 8.5781963862 77.969753614 
0.00486899 7.6711628142 78.065947186 0.00449399 6.805117386 78.121802614 0.00399676 5.9753395107 78.141160489 
0.00335107 5.1752382079 78.129011792 0.00250852 4.396232284 78.092087716 0.00138991 3.6273651688 78.039154831 
-0.000126857 2.854858414 77.981821586 -0.00222359 2.0613647502 77.93602525 -0.00516434 1.2251278061 77.923082194 
-0.00932277 0.31900857927 77.972601421 -0.69023275389 -0.0152128 78.125400754 -1.8417650129 -0.0234916 78.436625013 
-3.1782394074 -0.0349706 78.980689407 -4.737710265 -0.0501754 79.854250265 -6.5372525791 -0.0699839 81.177162579 
-8.5304251858 -0.0889945 83.093815186 0.00587734 20.791023653 74.535276347 0.00123145 19.572996411 75.036303589 
0.00185583 18.339127512 75.527572488 0.00274654 17.100148865 75.998351135 0.00355054 15.868484506 76.441215494 
0.00420904 14.65556888 76.85033112 0.00469427 13.471261994 77.221038006 0.00499436 12.323260689 77.550139311 
0.00511028 11.217564722 77.836035278 0.00505186 10.157508334 78.078491666 0.004833 9.1447627294 78.278547271 
0.00446686 8.178628759 78.438851241 0.00396134 7.2566481673 78.562921833 0.00331509 6.3745349141 78.655515086 
0.00251354 5.5262426077 78.722997392 0.00152487 4.7040053327 78.772714667 0.000295219 3.8981976739 78.814252326 
-0.00125711 3.0972323568 78.859277643 -0.00324867 2.2872720358 78.922747964 -0.00583847 1.4520049846 79.023465015 
-0.00923437 0.57248502782 79.185812972 -0.372711941 -0.0136924 79.441013941 -1.4065219237 -0.0195003 79.828871924 
-2.5508055706 -0.0269095 80.399375571 -3.8208882051 -0.0360276 81.213648205 -5.21467151 -0.0463722 82.34304151 
-6.69439613 -0.0568326 83.86420613 -8.1563109539 -0.0638176 85.848720954 0.00543306 20.76424801 74.70745199 
0.0147528 21.390325399 74.277474601 -1.94515e-05 19.514832974 75.219567026 0.00162573 20.185373497 74.787226503 
-3.81653e-05 18.251312852 75.720787148 0.000982988 18.958114166 75.284485834 0.000261857 16.985011915 76.199888085 
0.00108935 17.719143417 75.764556583 0.00055418 15.728797659 76.649802341 0.00121841 16.481383704 76.220416296 
0.000805116 14.494628895 77.064571105 0.00131896 15.256901602 76.645498398 0.00100326 13.292310565 77.439989435 
0.00138262 14.056536533 77.034563467 0.00114314 12.129824145 77.773375855 0.00140715 12.889013579 77.383886421 
0.00122373 11.012713557 78.063486443 0.00139338 11.761226742 77.690973258 0.0012474 9.943959414 78.310980586 
0.00134419 10.677895732 77.954904268 0.00121853 8.9245987264 78.517731274 0.0012633 9.6414516072 78.176128393 
0.00114226 7.9534012189 78.686968781 0.00115397 8.6523461571 78.356483843 0.00102335 7.0272616768 78.823348323 
0.00101775 7.7090124531 78.498947547 0.000865268 6.1412846735 78.932625327 0.000853429 6.8080306837 78.607699316 
0.000669617 5.2889506466 79.021929353 0.000655832 5.9442371347 78.688292865 0.00043571 4.462121605 79.099828395 
0.000414594 5.1107431153 78.747526885 0.000160437 3.6510852367 79.176674763 0.000112556 4.2989008233 78.794009177 
-0.000161551 2.8444651787 79.265424821 -0.000276375 3.4981712004 78.8383088 -0.000537064 2.029207616 79.381812384 
-0.000790146 2.6959365315 78.893683468 -0.000972494 1.1905036683 79.545456332 -0.00148248 1.8772700662 78.977259934 
-0.00146973 0.31200406003 79.78075294 -0.00242786 1.024673847 79.110736153 -0.62353440393 -0.00201833 80.118302404 
-0.00372743 0.11808358993 79.32183841 -1.6327177485 -0.00257946 80.595487748 -0.86465358468 -0.00551415 79.646328585 
-2.7283659923 -0.00306235 81.257265992 -1.9461902217 -0.00795539 80.129040222 -3.913585636 -0.0032647 82.155935636 
-3.1459129324 -0.0112436 80.825512932 -5.1716189969 -0.00285795 83.347658997 -4.4723593032 -0.015553 81.801149303 
-6.4493862553 -0.00119693 84.886036255 -5.9093592142 -0.0210322 83.128489214 -7.6334554941 0.0028649 86.811395494 
-7.3926992097 -0.0271455 84.87864921 -8.7748827343 -0.0351633 87.102912734 0.00511092 20.81293809 74.37926191 
0.014077 21.406078271 73.987321729 -7.08055e-05 19.620304536 74.868495464 0.00158258 20.254885435 74.474414565 
-9.77779e-05 18.41027566 75.34912434 0.000974108 19.078440327 74.951359673 0.00017734 17.193372264 75.810527736 
0.00108109 17.886933383 75.413366617 0.000448295 15.981641429 76.245458571 0.00121465 16.692574967 75.853325033 
0.000686025 14.786453753 76.647746247 0.00132788 15.507076011 76.264823989 0.000881153 13.617500033 77.012699967 
0.00141389 14.340719317 76.642080683 0.0010286 12.482673858 77.336626142 0.00147075 13.202436343 76.980563657 
0.00112652 11.38812771 77.61727229 0.00149887 12.099255852 77.276944148 0.00117561 10.337596784 77.853903216 
0.00150047 11.036641037 77.529158963 0.00117825 9.3331942654 78.046605735 0.00147871 10.017792961 77.736007039 
0.00113756 8.3747977964 78.197222204 0.00143681 9.0441746628 77.897865337 0.00105646 7.4605484557 78.308201544 
0.00137709 8.1155325761 78.015727424 0.00093678 6.586826725 78.383563275 0.00129996 7.2297140855 78.092055915 
0.000778503 5.7482314789 78.428168521 0.00120288 6.3828522278 78.129947772 0.000579048 4.9376261147 78.448693885 
0.00107899 5.5693210745 78.134008925 0.00033257 4.1459447954 78.453105205 0.000915352 4.7815713762 78.110038624 
2.93064e-05 3.3620046593 78.452125341 0.000690433 4.0099592129 78.065820787 -0.000344953 2.5721217195 78.459288281 
0.000370325 3.242244687 78.011725313 -0.000808933 1.7596675195 78.49245248 -9.68007e-05 2.4630675055 77.961302495 
-0.00138466 0.90459085146 78.575229149 -0.000788817 1.6531903832 77.933559617 -0.01691099607 -0.00209358 78.739045996 
-0.00182151 0.7884973585 77.954042642 -1.0322029386 -0.00294485 79.025476939 -0.16077095837 -0.00336441 78.058217958 
-2.1707496685 -0.00391668 79.488739669 -1.2304696381 -0.00566325 78.294322638 -3.4599187008 -0.00488397 80.198458701 
-2.461408696 -0.00905914 78.727478696 -4.9159619522 -0.00561473 81.240161952 -3.8947962081 -0.0140125 79.443166208 
-6.5255801492 -0.00524889 82.713470149 -5.560596854 -0.021094 80.549756854 -8.2156448668 -0.00373175 84.721704867 
-7.4522503805 -0.0307135 82.173550381 -9.4819743205 -0.0448303 84.456464321 0.00482841 20.850903601 74.102696399 
0.0135156 21.416602765 73.746397235 -0.000116397 19.70634585 74.57205415 0.00155578 20.310317093 74.214282907 
-0.000144308 18.541327621 75.034772379 0.000978636 19.176059877 74.673740123 0.000115049 17.366080526 75.480119474 
0.0010884 18.02395703 75.11994297 0.000372113 16.192227067 75.900772933 0.00122747 16.866025562 75.545774438 
0.000601526 15.030738078 76.290561922 0.00135254 15.713319133 75.944380867 0.000795751 13.891290577 76.643909423 
0.00145821 14.576271179 76.309728821 0.000950466 12.782018247 76.956581753 0.00154327 13.463738052 76.636761948 
0.00106369 11.709145286 77.225254714 0.00160847 12.383130938 76.921169062 0.00113538 10.677502002 77.447797998 
0.00165615 11.340334022 77.159765978 0.00116694 9.6899188001 77.6230812 0.00168986 10.339406724 77.350093276 
0.00116044 8.7474505138 77.750799486 0.00171371 9.3828699792 77.490930021 0.00111793 7.8495060246 77.831913975 
0.00173175 8.4715667322 77.581523268 0.00104061 6.9937830188 77.868006981 0.00174727 7.6046985547 77.622231445 
0.000928069 6.1763099629 77.861550037 0.00176196 6.7798679105 77.61368209 0.000777355 5.3913342373 77.816185763 
0.00177492 5.9930143267 77.557645673 0.000581961 4.6311326308 77.736927369 0.00178119 5.2382897867 77.456530213 
0.000330515 3.8857015748 77.630578425 0.00176955 4.5077341949 77.314205805 5.13688e-06 3.1421100941 77.506479906 
0.0017191 3.79081348 77.13606652 -0.000420581 2.3837785635 77.377781436 0.00159372 3.0735988984 76.930251102 
-0.000983724 1.5892838598 77.26331614 0.00133324 2.3376243351 76.708725665 -0.00173376 0.7310247247 77.189825275 
0.000838991 1.5582013123 76.490028688 -0.22636988773 -0.00273 77.195887888 -4.84943e-05 0.70219105299 76.301928947 
-1.3272006569 -0.00403667 77.336641657 -0.27473237647 -0.00158739 76.186127376 -2.6243289839 -0.00566057 77.689398984 
-1.4308902882 -0.00418233 76.205362288 -4.1748019619 -0.00761951 78.360221962 -2.8399473526 -0.00849193 76.450797353 
-6.0249680688 -0.00896413 79.490398069 -4.5870411997 -0.0154356 77.0525712 -8.1822633664 -0.0116049 81.251333366 
-6.7521404941 -0.0266486 78.183490494 -9.3618426477 -0.0439977 80.081642648 0.00458995 20.879769767 73.876630233 
0.0130667 21.423135846 73.553964154 -0.000155387 19.774537032 74.329662968 0.00154015 20.352995835 74.006104165 
-0.000180202 18.646367513 74.777132487 0.000989941 19.252561411 74.451338589 6.96774e-05 17.505238695 75.208661305 
0.00110348 18.132146999 74.884453001 0.000318197 16.362662088 75.616637912 0.00124827 17.003305042 75.298194958 
0.00054293 15.229417283 75.994682717 0.00138394 15.877250155 75.685549845 0.000737915 14.115084593 76.336715407 
0.00150644 14.764284313 76.040115687 0.000899699 13.027873316 76.637826684 0.00161544 13.67322026 76.35627974 
0.00102656 11.974839753 76.893860247 0.00171235 12.612097182 76.628902818 0.00111836 10.961096636 77.101403364 
0.00180017 11.586890929 76.853909071 0.00117614 9.9903859199 77.25799408 0.00188334 10.602713283 77.027886717 
0.00120173 9.06488062 77.36193938 0.00196745 9.6628416236 77.147898376 0.00119712 8.1851632035 77.411846797 
0.00205891 8.7691777853 77.211702215 0.00116384 7.3503410475 77.407268953 0.00216465 7.9222556716 77.217284328 
0.00110224 6.5580067315 77.347963268 0.00229172 7.1211957969 77.163304203 0.00101068 5.804188577 77.234471423 
0.00244687 6.3637125991 77.048057401 0.000884339 5.0831132511 77.067526749 0.00263591 5.6460166235 76.870563377 
0.000713797 4.3868947734 76.849105227 0.00286262 4.9625790286 76.629690971 0.000482815 3.7049345793 76.582335421 
0.00312692 4.3056759397 76.32484406 0.000165183 3.0228835503 76.27290645 0.00342145 3.6646684888 75.956341511 
-0.000279865 2.3212276117 75.930192388 0.00372558 3.0247295021 75.526340498 -0.000914128 1.5730941928 75.569945807 
0.00399441 2.3649480643 75.040481936 -0.0018279 0.74112134182 75.218238658 0.00413945 1.6552411606 74.510648839 
-0.22663560541 -0.00315178 74.917028605 0.00399218 0.85188027026 73.95973973 -1.4014480141 -0.00502873 74.733665014 
-0.10910592397 0.00324814 73.428906924 -2.8779863016 -0.00774181 74.771806302 -1.320680076 0.00132153 72.989126076 
-4.771268099 -0.0106317 75.188508099 -2.9137580692 -0.00267184 72.758548069 -7.2033085199 -0.0176782 76.20043852 
-5.062231076 -0.0112207 72.918221076 -7.9529552681 -0.0243862 73.762625268 0.00439964 20.90098763 73.70091237 
0.0127295 21.426937803 73.409562197 -0.000186801 19.826425518 74.140874482 0.00153179 20.383998502 73.849901498 
-0.000206852 18.726920771 74.576279229 0.0010029 19.309128551 74.284171449 3.7749e-05 17.612437711 74.996462289 
0.00112021 18.212382401 74.707217599 0.000281411 16.494304977 75.393995023 0.00127014 17.105583566 75.111516434 
0.00050394 15.383333345 75.762066655 0.00141457 15.99973757 75.48986243 0.00070065 14.289133188 76.094166812 
0.00155054 14.905143307 75.835556693 0.000868909 13.220127062 76.384772938 0.00167856 13.830903265 76.142396735 
0.00100744 12.183660369 76.629039631 0.00180077 12.785131355 76.404968645 0.00111629 11.185503776 76.822596224 
0.00192101 11.774356976 76.618343024 0.00119665 10.230148833 76.961851167 0.00204479 10.804123809 76.777876191 
0.00125054 9.3204754558 77.043404544 0.00217934 9.8786434952 76.879716505 0.00128046 8.4583708418 77.064469158 
0.00233355 9.0006429806 76.920117019 0.00128893 7.6442284264 77.022301574 0.00251807 8.1718248021 76.895255198 
0.00127794 6.8772539757 76.913946024 0.00274547 7.392738291 76.801561709 0.00124835 6.155343247 76.736696753 
0.0030305 6.6627978867 76.634562113 0.00119898 5.4750612359 76.486988764 0.00339056 5.9803516041 76.389438396 
0.00112541 4.8313249318 76.161335068 0.00384622 5.3425574398 76.06052256 0.00101808 4.2169754813 75.755634519 
0.00442185 4.7451258725 75.640744127 0.000859249 3.6219127283 75.265907272 0.00514607 4.1818536609 75.121866339 
0.000618065 3.0317566724 74.688723328 0.00605155 3.6437096205 74.49428038 0.000242549 2.425521475 74.022958525 
0.00717331 3.1172571869 73.747562813 -0.00035356 1.771954016 73.272065984 0.00854322 2.5819994982 72.871210502 
-0.00131185 1.0236814555 72.449538545 0.0101761 2.0056783335 71.857481667 -0.00284797 0.10814050848 71.586999492 
0.0120426 1.3364269777 70.705833022 -1.0856723067 -0.00538031 70.748446307 0.0139682 0.48938876277 69.433201237 
-2.7228617514 -0.00876441 70.054411751 -0.6743161846 0.0157136 68.092183185 -5.0406317217 -0.0180194 69.701831722 
-2.3815256197 0.0151912 66.79566362 -4.9648623232 0.0164007 65.790202323 0.00426099 20.915350662 73.575249338 
0.0125043 21.429000294 73.313299706 -0.000209839 19.862829887 74.005770113 0.0015278 20.404359337 73.745640663 
-0.000225241 18.783823008 74.432376992 0.00101368 19.346431223 74.172568777 1.66999e-05 17.688425338 74.844374662 
0.00113397 18.265563522 74.588736478 0.000257864 16.587917511 75.234082489 0.00128777 17.173493007 74.986506993 
0.000479636 15.49307203 75.59442797 0.00143846 16.081250123 75.358549877 0.00067827 14.413560523 75.918739477 
0.00158389 14.999062761 75.697837239 0.000851798 13.358159316 76.201040684 0.00172518 13.936359824 75.998140176 
0.00099939 12.334253304 76.435946696 0.00186513 12.901173751 76.253326249 0.0011214 11.348136604 76.618163396 
0.00200824 11.900641743 76.458058257 0.00121931 10.404810142 76.743289858 0.002161 10.940505135 76.606994865 
0.00129559 9.5081352489 76.806824751 0.00233198 10.025506729 76.695493271 0.00135346 8.6606428472 76.804577153 
0.00253214 9.1591957262 76.718514274 0.00139662 7.8639471945 76.731882806 0.0027752 8.3441096544 76.671230346 
0.00142898 7.1186220071 76.583727993 0.00307823 7.5818623231 76.548037677 0.00145431 6.4243252199 76.35428478 
0.00346268 6.8732658686 76.342574131 0.00147576 5.7798051847 76.036364815 0.00395576 6.2184433148 76.046946685 
0.00149526 5.1828564114 75.621303589 0.00459263 5.6168754315 75.651474568 0.00151248 4.6301019628 75.097998037 
0.00541952 5.0674203596 75.14385964 0.001523 4.116534409 74.452735591 0.00649827 4.5681750954 74.508404905 
0.00151505 3.6346821509 73.668487849 0.00791284 4.1161499376 73.724820062 0.00146367 3.1730177426 72.724602257 
0.00977899 3.7065498435 72.766990157 0.00131853 2.7130921926 71.596647807 0.0122576 3.3313062401 71.60175376 
0.000986343 2.2244581429 70.257691857 0.0155748 2.9763121181 70.186997882 0.000278247 1.6553632779 68.681326722 
0.0200494 2.6159979874 68.470692013 -0.00114558 0.9159469616 66.849963038 0.0261028 2.2025214148 66.391308585 
-0.15165840605 -0.00368716 64.773738406 0.0345096 1.6447375379 63.882762462 -1.8262075021 -0.011157 62.517724502 
0.0448075 0.76208389265 60.890076107 -0.78166969283 0.066311 57.431996693 0.00417667 20.923694416 73.499805584 
0.0123916 21.429849956 73.265150044 -0.000223904 19.884436966 73.924663034 0.00152628 20.414367251 73.693432749 
-0.000236022 18.817807926 74.345892074 0.00101971 19.364919312 74.116680688 4.76562e-06 17.733881186 74.752818814 
0.00114163 18.292000291 74.529299709 0.000244825 16.643927019 75.137672981 0.00129751 17.207303201 74.923796799 
0.000466483 15.558913689 75.493186311 0.00145148 16.121920319 75.292579681 0.000666573 14.488409171 75.812590829 
0.00160179 15.046043655 75.628656345 0.000843556 13.441282456 76.089617544 0.00174992 13.989165305 75.925534695 
0.000996921 12.425204437 76.318395563 0.00189901 12.959477726 76.176822274 0.00112728 11.446748024 76.493351976 
0.00205398 11.964173867 76.376926133 0.00123639 10.511187417 76.609212583 0.00222184 11.009347062 76.520252938 
0.0013271 9.6229063612 76.661103639 0.00241195 10.099890737 76.601609263 0.00140322 8.7850651987 76.643554801 
0.00263643 9.2398277959 76.615502204 0.00146943 7.9999963563 76.551003644 0.00291071 8.432119672 76.556340328 
0.00153112 7.2692276008 76.376902399 0.00325444 7.6790048785 76.417435122 0.00159438 6.5936418284 76.113228172 
0.00369285 6.9820568217 76.191403178 0.00166583 5.9736011471 75.750398853 0.00425879 6.3424104234 75.868669577 
0.00175266 5.4090411976 75.275798802 0.00499593 5.7609066734 75.437373327 0.00186246 4.8995581269 74.673321873 
0.0059634 5.2382836753 74.882176325 0.00200284 4.4443346086 73.922045391 0.00724304 4.7753111326 74.182778867 
0.00218043 4.0419171806 72.994162819 0.00895034 4.3728828944 73.312547106 0.00239868 3.6896923818 71.853227618 
0.0112519 4.0320262905 72.23586371 0.00265038 3.3826189182 70.450521082 0.0143924 3.7535951915 70.904724809 
0.00291044 3.1107787872 68.721481213 0.0187397 3.5376163025 69.253633697 0.00307143 2.8541638902 66.57982611 
0.0248565 3.3814744093 67.192805591 0.00298869 2.5719515209 63.911618479 0.0336058 3.2757571112 64.597562889 
0.00187666 2.1784572467 60.569092753 0.0465382 3.1949103175 61.292719682 -0.00147452 1.4915795263 56.370010474 
0.0647306 3.0715664303 57.03197357 0.101332 2.7543559603 51.48822404 0.00414837 20.9265 73.4747 
0.0123916 21.429849956 73.265150044 -0.000228633 19.8916 73.8976 0.00152628 20.414367251 73.693432749 
-0.000239574 18.8291 74.317 0.00101971 19.364919312 74.116680688 9.02767e-07 17.7489 74.7222 
0.00114163 18.292000291 74.529299709 0.00024066 16.6626 75.1054 0.00129751 17.207303201 74.923796799 
0.000462339 15.5808 75.4593 0.00145148 16.121920319 75.292579681 0.00066296700001 14.5133 75.7771 
0.00160179 15.046043655 75.628656345 0.000841154 13.469 76.0523 0.00174992 13.989165305 75.925534695 
0.000996505 12.4556 76.2789 0.00189901 12.959477726 76.176822274 0.00112973 11.4798 76.4513 
0.00205398 11.964173867 76.376926133 0.0012427 10.5469 76.5641 0.00222184 11.009347062 76.520252938 
0.00133839 9.66154 76.6119 0.00241195 10.099890737 76.601609263 0.00142087 8.82706 76.5891 
0.00263643 9.2398277959 76.615502204 0.00149515 8.04607 76.4896 0.00291071 8.432119672 76.556340328 
0.00156723 7.32044 76.3064 0.00325444 7.6790048785 76.417435122 0.00164404 6.65148 76.0309 
0.00369285 6.9820568217 76.191403178 0.00173354 6.04014 75.6523 0.00425879 6.3424104234 75.868669577 
0.00184496 5.48717 75.1568 0.00499593 5.7609066734 75.437373327 0.00198898 4.99328 74.5264 
0.0059634 5.2382836753 74.882176325 0.00217806 4.55927 73.7374 0.00724304 4.7753111326 74.182778867 
0.00242638 4.18612 72.7581 0.00895034 4.3728828944 73.312547106 0.00274945 3.87487 71.5455 
0.0112519 4.0320262905 72.23586371 0.00315915 3.62627 70.0416 0.0143924 3.7535951915 70.904724809 
0.00366209 3.43982 68.1659 0.0187397 3.5376163025 69.253633697 0.00419399 3.31139 65.8058 
0.0248565 3.3814744093 67.192805591 0.00471211 3.2281 62.8013 0.0336058 3.2757571112 64.597562889 
0.00429906 3.15502 58.9205 0.0465382 3.1949103175 61.292719682 0.00311026 3.00821 53.8228 
0.0647306 3.0715664303 57.03197357 0.101332 2.7543559603 51.48822404 0.00417667 20.923694416 73.499805584 
0.0125043 21.429000294 73.313299706 -0.000223904 19.884436966 73.924663034 0.0015278 20.404359337 73.745640663 
-0.000236022 18.817807926 74.345892074 0.00101368 19.346431223 74.172568777 4.76562e-06 17.733881186 74.752818814 
0.00113397 18.265563522 74.588736478 0.000244825 16.643927019 75.137672981 0.00128777 17.173493007 74.986506993 
0.000466483 15.558913689 75.493186311 0.00143846 16.081250123 75.358549877 0.000666573 14.488409171 75.812590829 
0.00158389 14.999062761 75.697837239 0.000843556 13.441282456 76.089617544 0.00172518 13.936359824 75.998140176 
0.000996921 12.425204437 76.318395563 0.00186513 12.901173751 76.253326249 0.00112728 11.446748024 76.493351976 
0.00200824 11.900641743 76.458058257 0.00123639 10.511187417 76.609212583 0.002161 10.940505135 76.606994865 
0.0013271 9.6229063612 76.661103639 0.00233198 10.025506729 76.695493271 0.00140322 8.7850651987 76.643554801 
0.00253214 9.1591957262 76.718514274 0.00146943 7.9999963563 76.551003644 0.0027752 8.3441096544 76.671230346 
0.00153112 7.2692276008 76.376902399 0.00307823 7.5818623231 76.548037677 0.00159438 6.5936418284 76.113228172 
0.00346268 6.8732658686 76.342574131 0.00166583 5.9736011471 75.750398853 0.00395576 6.2184433148 76.046946685 
0.00175266 5.4090411976 75.275798802 0.00459263 5.6168754315 75.651474568 0.00186246 4.8995581269 74.673321873 
0.00541952 5.0674203596 75.14385964 0.00200284 4.4443346086 73.922045391 0.00649827 4.5681750954 74.508404905 
0.00218043 4.0419171806 72.994162819 0.00791284 4.1161499376 73.724820062 0.00239868 3.6896923818 71.853227618 
0.00977899 3.7065498435 72.766990157 0.00265038 3.3826189182 70.450521082 0.0122576 3.3313062401 71.60175376 
0.00291044 3.1107787872 68.721481213 0.0155748 2.9763121181 70.186997882 0.00307143 2.8541638902 66.57982611 
0.0200494 2.6159979874 68.470692013 0.00298869 2.5719515209 63.911618479 0.0261028 2.2025214148 66.391308585 
0.00187666 2.1784572467 60.569092753 0.0345096 1.6447375379 63.882762462 -0.00147452 1.4915795263 56.370010474 
0.0448075 0.76208389265 60.890076107 -0.78166969283 0.066311 57.431996693 0.00426099 20.915350662 73.575249338 
0.0127295 21.426937803 73.409562197 -0.000209839 19.862829887 74.005770113 0.00153179 20.383998502 73.849901498 
-0.000225241 18.783823008 74.432376992 0.0010029 19.309128551 74.284171449 1.66999e-05 17.688425338 74.844374662 
0.00112021 18.212382401 74.707217599 0.000257864 16.587917511 75.234082489 0.00127014 17.105583566 75.111516434 
0.000479636 15.49307203 75.59442797 0.00141457 15.99973757 75.48986243 0.00067827 14.413560523 75.918739477 
0.00155054 14.905143307 75.835556693 0.000851798 13.358159316 76.201040684 0.00167856 13.830903265 76.142396735 
0.00099939 12.334253304 76.435946696 0.00180077 12.785131355 76.404968645 0.0011214 11.348136604 76.618163396 
0.00192101 11.774356976 76.618343024 0.00121931 10.404810142 76.743289858 0.00204479 10.804123809 76.777876191 
0.00129559 9.5081352489 76.806824751 0.00217934 9.8786434952 76.879716505 0.00135346 8.6606428472 76.804577153 
0.00233355 9.0006429806 76.920117019 0.00139662 7.8639471945 76.731882806 0.00251807 8.1718248021 76.895255198 
0.00142898 7.1186220071 76.583727993 0.00274547 7.392738291 76.801561709 0.00145431 6.4243252199 76.35428478 
0.0030305 6.6627978867 76.634562113 0.00147576 5.7798051847 76.036364815 0.00339056 5.9803516041 76.389438396 
0.00149526 5.1828564114 75.621303589 0.00384622 5.3425574398 76.06052256 0.00151248 4.6301019628 75.097998037 
0.00442185 4.7451258725 75.640744127 0.001523 4.116534409 74.452735591 0.00514607 4.1818536609 75.121866339 
0.00151505 3.6346821509 73.668487849 0.00605155 3.6437096205 74.49428038 0.00146367 3.1730177426 72.724602257 
0.00717331 3.1172571869 73.747562813 0.00131853 2.7130921926 71.596647807 0.00854322 2.5819994982 72.871210502 
0.000986343 2.2244581429 70.257691857 0.0101761 2.0056783335 71.857481667 0.000278247 1.6553632779 68.681326722 
0.0120426 1.3364269777 70.705833022 -0.00114558 0.9159469616 66.849963038 0.0139682 0.48938876277 69.433201237 
-0.15165840605 -0.00368716 64.773738406 -0.6743161846 0.0157136 68.092183185 -1.8262075021 -0.011157 62.517724502 
-2.3815256197 0.0151912 66.79566362 -4.9648623232 0.0164007 65.790202323 0.00439964 20.90098763 73.70091237 
0.0130667 21.423135846 73.553964154 -0.000186801 19.826425518 74.140874482 0.00154015 20.352995835 74.006104165 
-0.000206852 18.726920771 74.576279229 0.000989941 19.252561411 74.451338589 3.7749e-05 17.612437711 74.996462289 
0.00110348 18.132146999 74.884453001 0.000281411 16.494304977 75.393995023 0.00124827 17.003305042 75.298194958 
0.00050394 15.383333345 75.762066655 0.00138394 15.877250155 75.685549845 0.00070065 14.289133188 76.094166812 
0.00150644 14.764284313 76.040115687 0.000868909 13.220127062 76.384772938 0.00161544 13.67322026 76.35627974 
0.00100744 12.183660369 76.629039631 0.00171235 12.612097182 76.628902818 0.00111629 11.185503776 76.822596224 
0.00180017 11.586890929 76.853909071 0.00119665 10.230148833 76.961851167 0.00188334 10.602713283 77.027886717 
0.00125054 9.3204754558 77.043404544 0.00196745 9.6628416236 77.147898376 0.00128046 8.4583708418 77.064469158 
0.00205891 8.7691777853 77.211702215 0.00128893 7.6442284264 77.022301574 0.00216465 7.9222556716 77.217284328 
0.00127794 6.8772539757 76.913946024 0.00229172 7.1211957969 77.163304203 0.00124835 6.155343247 76.736696753 
0.00244687 6.3637125991 77.048057401 0.00119898 5.4750612359 76.486988764 0.00263591 5.6460166235 76.870563377 
0.00112541 4.8313249318 76.161335068 0.00286262 4.9625790286 76.629690971 0.00101808 4.2169754813 75.755634519 
0.00312692 4.3056759397 76.32484406 0.000859249 3.6219127283 75.265907272 0.00342145 3.6646684888 75.956341511 
0.000618065 3.0317566724 74.688723328 0.00372558 3.0247295021 75.526340498 0.000242549 2.425521475 74.022958525 
0.00399441 2.3649480643 75.040481936 -0.00035356 1.771954016 73.272065984 0.00413945 1.6552411606 74.510648839 
-0.00131185 1.0236814555 72.449538545 0.00399218 0.85188027026 73.95973973 -0.00284797 0.10814050848 71.586999492 
-0.10910592397 0.00324814 73.428906924 -1.0856723067 -0.00538031 70.748446307 -1.320680076 0.00132153 72.989126076 
-2.7228617514 -0.00876441 70.054411751 -2.9137580692 -0.00267184 72.758548069 -5.0406317217 -0.0180194 69.701831722 
-5.062231076 -0.0112207 72.918221076 -7.9529552681 -0.0243862 73.762625268 0.00458995 20.879769767 73.876630233 
0.0135156 21.416602765 73.746397235 -0.000155387 19.774537032 74.329662968 0.00155578 20.310317093 74.214282907 
-0.000180202 18.646367513 74.777132487 0.000978636 19.176059877 74.673740123 6.96774e-05 17.505238695 75.208661305 
0.0010884 18.02395703 75.11994297 0.000318197 16.362662088 75.616637912 0.00122747 16.866025562 75.545774438 
0.00054293 15.229417283 75.994682717 0.00135254 15.713319133 75.944380867 0.000737915 14.115084593 76.336715407 
0.00145821 14.576271179 76.309728821 0.000899699 13.027873316 76.637826684 0.00154327 13.463738052 76.636761948 
0.00102656 11.974839753 76.893860247 0.00160847 12.383130938 76.921169062 0.00111836 10.961096636 77.101403364 
0.00165615 11.340334022 77.159765978 0.00117614 9.9903859199 77.25799408 0.00168986 10.339406724 77.350093276 
0.00120173 9.06488062 77.36193938 0.00171371 9.3828699792 77.490930021 0.00119712 8.1851632035 77.411846797 
0.00173175 8.4715667322 77.581523268 0.00116384 7.3503410475 77.407268953 0.00174727 7.6046985547 77.622231445 
0.00110224 6.5580067315 77.347963268 0.00176196 6.7798679105 77.61368209 0.00101068 5.804188577 77.234471423 
0.00177492 5.9930143267 77.557645673 0.000884339 5.0831132511 77.067526749 0.00178119 5.2382897867 77.456530213 
0.000713797 4.3868947734 76.849105227 0.00176955 4.5077341949 77.314205805 0.000482815 3.7049345793 76.582335421 
0.0017191 3.79081348 77.13606652 0.000165183 3.0228835503 76.27290645 0.00159372 3.0735988984 76.930251102 
-0.000279865 2.3212276117 75.930192388 0.00133324 2.3376243351 76.708725665 -0.000914128 1.5730941928 75.569945807 
0.000838991 1.5582013123 76.490028688 -0.0018279 0.74112134182 75.218238658 -4.84943e-05 0.70219105299 76.301928947 
-0.22663560541 -0.00315178 74.917028605 -0.27473237647 -0.00158739 76.186127376 -1.4014480141 -0.00502873 74.733665014 
-1.4308902882 -0.00418233 76.205362288 -2.8779863016 -0.00774181 74.771806302 -2.8399473526 -0.00849193 76.450797353 
-4.771268099 -0.0106317 75.188508099 -4.5870411997 -0.0154356 77.0525712 -7.2033085199 -0.0176782 76.20043852 
-6.7521404941 -0.0266486 78.183490494 -9.3618426477 -0.0439977 80.081642648 0.00482841 20.850903601 74.102696399 
0.014077 21.406078271 73.987321729 -0.000116397 19.70634585 74.57205415 0.00158258 20.254885435 74.474414565 
-0.000144308 18.541327621 75.034772379 0.000974108 19.078440327 74.951359673 0.000115049 17.366080526 75.480119474 
0.00108109 17.886933383 75.413366617 0.000372113 16.192227067 75.900772933 0.00121465 16.692574967 75.853325033 
0.000601526 15.030738078 76.290561922 0.00132788 15.507076011 76.264823989 0.000795751 13.891290577 76.643909423 
0.00141389 14.340719317 76.642080683 0.000950466 12.782018247 76.956581753 0.00147075 13.202436343 76.980563657 
0.00106369 11.709145286 77.225254714 0.00149887 12.099255852 77.276944148 0.00113538 10.677502002 77.447797998 
0.00150047 11.036641037 77.529158963 0.00116694 9.6899188001 77.6230812 0.00147871 10.017792961 77.736007039 
0.00116044 8.7474505138 77.750799486 0.00143681 9.0441746628 77.897865337 0.00111793 7.8495060246 77.831913975 
0.00137709 8.1155325761 78.015727424 0.00104061 6.9937830188 77.868006981 0.00129996 7.2297140855 78.092055915 
0.000928069 6.1763099629 77.861550037 0.00120288 6.3828522278 78.129947772 0.000777355 5.3913342373 77.816185763 
0.00107899 5.5693210745 78.134008925 0.000581961 4.6311326308 77.736927369 0.000915352 4.7815713762 78.110038624 
0.000330515 3.8857015748 77.630578425 0.000690433 4.0099592129 78.065820787 5.13687e-06 3.1421100941 77.506479906 
0.000370325 3.242244687 78.011725313 -0.000420581 2.3837785635 77.377781436 -9.68007e-05 2.4630675055 77.961302495 
-0.000983724 1.5892838598 77.26331614 -0.000788817 1.6531903832 77.933559617 -0.00173376 0.7310247247 77.189825275 
-0.00182151 0.7884973585 77.954042642 -0.22636988773 -0.00273 77.195887888 -0.16077095837 -0.00336441 78.058217958 
-1.3272006569 -0.00403667 77.336641657 -1.2304696381 -0.00566325 78.294322638 -2.6243289839 -0.00566057 77.689398984 
-2.461408696 -0.00905914 78.727478696 -4.1748019619 -0.00761951 78.360221962 -3.8947962081 -0.0140125 79.443166208 
-6.0249680688 -0.00896413 79.490398069 -5.560596854 -0.021094 80.549756854 -8.1822633664 -0.0116049 81.251333366 
-7.4522503805 -0.0307135 82.173550381 -9.4819743205 -0.0448303 84.456464321 0.00511092 20.81293809 74.37926191 
0.0147528 21.390325399 74.277474601 -7.08055e-05 19.620304536 74.868495464 0.00162573 20.185373497 74.787226503 
-9.77779e-05 18.41027566 75.34912434 0.000982988 18.958114166 75.284485834 0.00017734 17.193372264 75.810527736 
0.00108935 17.719143417 75.764556583 0.000448295 15.981641429 76.245458571 0.00121841 16.481383704 76.220416296 
0.000686025 14.786453753 76.647746247 0.00131896 15.256901602 76.645498398 0.000881153 13.617500033 77.012699967 
0.00138262 14.056536533 77.034563467 0.0010286 12.482673858 77.336626142 0.00140715 12.889013579 77.383886421 
0.00112652 11.38812771 77.61727229 0.00139338 11.761226742 77.690973258 0.00117561 10.337596784 77.853903216 
0.00134419 10.677895732 77.954904268 0.00117825 9.3331942654 78.046605735 0.0012633 9.6414516072 78.176128393 
0.00113756 8.3747977964 78.197222204 0.00115397 8.6523461571 78.356483843 0.00105646 7.4605484557 78.308201544 
0.00101775 7.7090124531 78.498947547 0.00093678 6.586826725 78.383563275 0.000853429 6.8080306837 78.607699316 
0.000778503 5.7482314789 78.428168521 0.000655832 5.9442371347 78.688292865 0.000579048 4.9376261147 78.448693885 
0.000414594 5.1107431153 78.747526885 0.00033257 4.1459447954 78.453105205 0.000112556 4.2989008233 78.794009177 
2.93064e-05 3.3620046593 78.452125341 -0.000276375 3.4981712004 78.8383088 -0.000344953 2.5721217195 78.459288281 
-0.000790146 2.6959365315 78.893683468 -0.000808933 1.7596675195 78.49245248 -0.00148248 1.8772700662 78.977259934 
-0.00138466 0.90459085146 78.575229149 -0.00242786 1.024673847 79.110736153 -0.01691099607 -0.00209358 78.739045996 
-0.00372743 0.11808358993 79.32183841 -1.0322029386 -0.00294485 79.025476939 -0.86465358468 -0.00551415 79.646328585 
-2.1707496685 -0.00391668 79.488739669 -1.9461902217 -0.00795539 80.129040222 -3.4599187008 -0.00488397 80.198458701 
-3.1459129324 -0.0112436 80.825512932 -4.9159619522 -0.00561473 81.240161952 -4.4723593032 -0.015553 81.801149303 
-6.5255801492 -0.00524889 82.713470149 -5.9093592142 -0.0210322 83.128489214 -8.2156448668 -0.00373175 84.721704867 
-7.3926992097 -0.0271455 84.87864921 -8.7748827343 -0.0351633 87.102912734 0.00543306 20.76424801 74.70745199 
-1.94515e-05 19.514832974 75.219567026 -3.81653e-05 18.251312852 75.720787148 0.000261857 16.985011915 76.199888085 
0.00055418 15.728797659 76.649802341 0.000805116 14.494628895 77.064571105 0.00100326 13.292310565 77.439989435 
0.00114314 12.129824145 77.773375855 0.00122373 11.012713557 78.063486443 0.0012474 9.943959414 78.310980586 
0.00121853 8.9245987264 78.517731274 0.00114226 7.9534012189 78.686968781 0.00102335 7.0272616768 78.823348323 
0.000865268 6.1412846735 78.932625327 0.000669617 5.2889506466 79.021929353 0.00043571 4.462121605 79.099828395 
0.000160437 3.6510852367 79.176674763 -0.000161551 2.8444651787 79.265424821 -0.000537064 2.029207616 79.381812384 
-0.000972494 1.1905036683 79.545456332 -0.00146973 0.31200406003 79.78075294 -0.62353440393 -0.00201833 80.118302404 
-1.6327177485 -0.00257946 80.595487748 -2.7283659923 -0.00306235 81.257265992 -3.913585636 -0.0032647 82.155935636 
-5.1716189969 -0.00285795 83.347658997 -6.4493862553 -0.00119693 84.886036255 -7.6334554941 0.0028649 86.811395494 

METADATA
COMPONENT_NAMES
Min
Mid
Max

ERROR 1 12618 double
4.92495 5.14331 5.14331 4.92495 0.313068 0.324522 0.324522 0.313068 6.38029 
0.107461 0.106473 0.0113508 0.022494 0.022494 0.0113508 0.106473 0.107461 6.38029 
0.0925897 0.0925897 0.346035 0.376497 0.405767 0.432154 0.455292 0.47978 0.584222 
0.770165 1.01677 1.3318 1.73929 2.26258 2.92251 4.92495 0.329552 0.361266 
0.391132 0.418961 0.443723 0.467536 0.532001 0.677193 0.893465 1.17428 1.53555 
2.00093 2.59254 3.92373 4.92495 0.357668 0.387964 0.416806 0.442568 0.46493 
0.488193 0.592867 0.780176 1.0281 1.34483 1.75481 2.28235 2.95048 5.14331 
0.341095 0.372816 0.402385 0.429687 0.453749 0.476561 0.54053 0.686522 0.904137 
1.18647 1.54982 2.01858 2.61641 4.0469 5.14331 0.357668 0.387964 0.416806 
0.442568 0.46493 0.488193 0.592867 0.780176 1.0281 1.34483 1.75481 2.28235 
2.95048 5.14331 0.341095 0.372816 0.402385 0.429687 0.453749 0.476561 0.54053 
0.686522 0.904137 1.18647 1.54982 2.01858 2.61641 4.0469 5.14331 0.346035 
0.376497 0.405767 0.432154 0.455292 0.47978 0.584222 0.770165 1.01677 1.3318 
1.73929 2.26258 2.92251 4.92495 0.329552 0.361266 0.391132 0.418961 0.443723 
0.467536 0.532001 0.677193 0.893465 1.17428 1.53555 2.00093 2.59254 3.92373 
4.92495 2.41702 2.15085 1.86486 1.57863 1.30339 1.04389 0.802282 0.812397 
1.05346 1.31236 1.58696 1.87262 2.15821 2.42899 3.67098 2.28394 2.00786 
1.72175 1.44101 1.17364 0.923084 0.80734 0.932927 1.18291 1.44966 1.72979 
2.01542 2.2936 3.78615 21.7712 39.4927 39.4927 16.0851 6.70149 2.61692 
1.83278 1.83278 2.61692 6.70149 16.0851 39.4927 39.4927 21.7712 13.4572 
30.632 39.4927 27.7889 11.3933 4.65921 2.22485 1.83278 2.22485 4.65921 
11.3933 27.7889 39.4927 30.632 13.4572 2.42899 2.15821 1.87262 1.58696 
1.31236 1.05346 0.812397 0.802282 1.04389 1.30339 1.57863 1.86486 2.15085 
2.41702 3.78615 2.2936 2.01542 1.72979 1.44966 1.18291 0.932927 0.80734 
0.923084 1.17364 1.44101 1.72175 2.00786 2.28394 3.67098 21.3162 39.4631 
39.4631 16.2949 6.85339 2.63364 1.84342 1.84342 2.63364 6.85339 16.2949 
39.4631 39.4631 21.3162 13.1206 30.3897 39.4631 27.879 11.5741 4.74351 
2.23853 1.84342 2.23853 4.74351 11.5741 27.879 39.4631 30.3897 13.1206 
0.325901 0.325901 0.30952 0.304875 0.385741 0.385741 0.376803 0.375148 0.378812 
0.378812 0.293052 0.322014 0.338073 0.338073 0.319485 0.325901 0.317711 0.307198 
0.345308 0.385741 0.381272 0.375976 0.37698 0.378812 0.335932 0.307533 0.330044 
0.338073 0.331297 0.457961 0.619872 0.7792 1.18883 1.58723 1.66192 1.66192 
1.66192 1.66192 1.58723 1.18883 0.7792 0.619872 0.457961 0.391241 0.538916 
0.699536 0.984015 1.38803 1.62458 1.66192 1.66192 1.66192 1.62458 1.38803 
0.984015 0.699536 0.538916 0.391241 0.338073 0.338073 0.322014 0.293052 0.378812 
0.378812 0.375148 0.376803 0.385741 0.385741 0.304875 0.30952 0.325901 0.325901 
0.331297 0.338073 0.330044 0.307533 0.335932 0.378812 0.37698 0.375976 0.381272 
0.385741 0.345308 0.307198 0.317711 0.325901 0.319485 0.441807 0.604133 0.77246 
1.18146 1.57992 1.65723 1.65723 1.65723 1.65723 1.57992 1.18146 0.77246 
0.604133 0.441807 0.377437 0.52297 0.688296 0.976959 1.38069 1.61857 1.65723 
1.65723 1.65723 1.61857 1.38069 0.976959 0.688296 0.52297 0.377437 6.38029 
1.62446 0.961699 0.765091 0.601012 0.483876 0.392974 0.3218 0.264309 0.217033 
0.177551 0.149207 0.128838 0.116114 0.104271 0.0922618 0.0802321 0.0683336 0.0567373 
0.0456441 0.035291 0.0259549 0.0269078 0.0360571 0.0475007 0.0608041 0.0753797 0.0904849 
6.38029 4.00237 1.29308 0.863395 0.683052 0.542444 0.438425 0.357387 0.293054 
0.240671 0.197292 0.163379 0.139023 0.122476 0.110193 0.0982665 0.086247 0.0742828 
0.0625354 0.0511907 0.0404675 0.0306229 0.0264314 0.0314824 0.0417789 0.0541524 0.0680919 
0.0829323 0.0989728 0.121456 0.132684 0.140059 0.142707 0.142707 0.140087 0.143776 
0.1532 0.157528 0.157528 0.156444 0.150095 0.139037 0.124144 0.114458 0.12707 
0.136371 0.141383 0.142707 0.141397 0.141932 0.148488 0.155364 0.157528 0.156986 
0.15327 0.144566 0.131591 0.115308 0.0847913 0.0660129 0.0549892 0.0573475 0.0576712 
0.0576712 0.0563411 0.0537321 0.0501937 0.046038 0.0438829 0.0454577 0.0459038 0.0459038 
0.0454164 0.0441768 0.0423491 0.0400786 0.037492 0.0346981 0.0317889 0.0288416 0.0259203 
0.023078 0.0203584 0.0177978 0.0154263 0.0132698 0.0956322 0.0754021 0.0605011 0.0561684 
0.0575094 0.0576712 0.0570061 0.0550366 0.0519629 0.0481158 0.0449604 0.0446703 0.0456807 
0.0459038 0.0456601 0.0447966 0.0432629 0.0412138 0.0387853 0.036095 0.0332435 0.0303152 
0.0273809 0.0244992 0.0217182 0.0190781 0.016612 0.014348 0.0123103 0.0143537 0.0170847 
0.0193979 0.0213295 0.0229172 0.0241891 0.0251633 0.0258483 0.0262444 0.0263451 0.0263451 
0.0261394 0.0256456 0.0249059 0.0238701 0.0128522 0.0157192 0.0182413 0.0203637 0.0221233 
0.0235532 0.0246762 0.0255058 0.0260464 0.0262948 0.0263451 0.0262423 0.0258925 0.0252757 
0.024388 0.0231821 0.0208505 0.0187745 0.0163712 0.0136667 0.0106989 0.00751608 0.00417643 
0.00417643 0.00751608 0.0106989 0.0136667 0.0163712 0.0187745 0.0208505 0.0216723 0.0198125 
0.0175728 0.015019 0.0121828 0.00910747 0.00584626 0.00417643 0.00584626 0.00910747 0.0121828 
0.015019 0.0175728 0.0198125 0.0216723 0.0238701 0.0249059 0.0256456 0.0261394 0.0263451 
0.0263451 0.0262444 0.0258483 0.0251633 0.0241891 0.0229172 0.0213295 0.0193979 0.0170847 
0.0143537 0.0231821 0.024388 0.0252757 0.0258925 0.0262423 0.0263451 0.0262948 0.0260464 
0.0255058 0.0246762 0.0235532 0.0221233 0.0203637 0.0182413 0.0157192 0.0128522 0.0132698 
0.0154263 0.0177978 0.0203584 0.023078 0.0259203 0.0288416 0.0317889 0.0346981 0.037492 
0.0400786 0.0423491 0.0441768 0.0454164 0.0459038 0.0459038 0.0454577 0.0438829 0.046038 
0.0501937 0.0537321 0.0563411 0.0576712 0.0576712 0.0573475 0.0549892 0.0660129 0.0847913 
0.0123103 0.014348 0.016612 0.0190781 0.0217182 0.0244992 0.0273809 0.0303152 0.0332435 
0.036095 0.0387853 0.0412138 0.0432629 0.0447966 0.0456601 0.0459038 0.0456807 0.0446703 
0.0449604 0.0481158 0.0519629 0.0550366 0.0570061 0.0576712 0.0575094 0.0561684 0.0605011 
0.0754021 0.0956322 0.124144 0.139037 0.150095 0.156444 0.157528 0.157528 0.1532 
0.143776 0.140087 0.142707 0.142707 0.140059 0.132684 0.121456 0.115308 0.131591 
0.144566 0.15327 0.156986 0.157528 0.155364 0.148488 0.141932 0.141397 0.142707 
0.141383 0.136371 0.12707 0.114458 0.0904849 0.0753797 0.0608041 0.0475007 0.0360571 
0.0269078 0.0259549 0.035291 0.0456441 0.0567373 0.0683336 0.0802321 0.0922618 0.104271 
0.116114 0.128838 0.149207 0.177551 0.217033 0.264309 0.3218 0.392974 0.483876 
0.601012 0.765091 0.961699 1.62446 6.38029 0.0989728 0.0829323 0.0680919 0.0541524 
0.0417789 0.0314824 0.0264314 0.0306229 0.0404675 0.0511907 0.0625354 0.0742828 0.086247 
0.0982665 0.110193 0.122476 0.139023 0.163379 0.197292 0.240671 0.293054 0.357387 
0.438425 0.542444 0.683052 0.863395 1.29308 4.00237 6.38029 6.38029 1.36794 
0.5734 0.466413 0.343437 0.279935 0.233901 0.201629 0.177286 0.158329 0.142989 
0.130179 0.119161 0.109437 0.10066 6.38029 3.87411 0.97067 0.519906 0.404925 
0.311686 0.256918 0.217765 0.189458 0.167808 0.150659 0.136584 0.12467 0.114299 
0.105048 0.0966247 0.0851806 0.0780456 0.071285 0.0648645 0.0587739 0.0530195 0.0476168 
0.0476168 0.0530195 0.0587739 0.0648645 0.071285 0.0780456 0.0851806 0.0888852 0.0816131 
0.0746653 0.0680747 0.0618192 0.0558967 0.0503181 0.0476168 0.0503181 0.0558967 0.0618192 
0.0680747 0.0746653 0.0816131 0.0888852 0.10066 0.109437 0.119161 0.130179 0.142989 
0.158329 0.177286 0.201629 0.233901 0.279935 0.343437 0.466413 0.5734 1.36794 
6.38029 0.0966247 0.105048 0.114299 0.12467 0.136584 0.150659 0.167808 0.189458 
0.217765 0.256918 0.311686 0.404925 0.519906 0.97067 3.87411 6.38029 0.18327 
0.16645 0.14693 0.125613 0.106265 0.0904645 0.0803779 0.0798256 0.0798313 0.0802396 
0.081603 0.084385 0.0890085 0.0960616 0.107461 0.248169 0.17486 0.15669 0.136271 
0.115939 0.0983646 0.0854212 0.0801017 0.0798284 0.0800354 0.0809213 0.082994 0.0866967 
0.092535 0.101761 0.107461 0.199924 0.167751 0.14683 0.12365 0.102005 0.0833697 
0.0694149 0.0663492 0.0673782 0.0690817 0.0720484 0.0767582 0.0836124 0.0931208 0.106473 
0.262223 0.183837 0.15729 0.13524 0.112827 0.0926872 0.0763923 0.0678821 0.0668637 
0.06823 0.0705651 0.0744033 0.0801853 0.0883666 0.0997969 0.106473 0.313798 0.313798 
0.295795 0.268101 0.236419 0.204523 0.174631 0.147856 0.124586 0.104777 0.0895097 
0.0771701 0.0666642 0.0580137 0.052775 0.0486168 0.0448221 0.0413826 0.038279 0.0354866 
0.0329797 0.0307333 0.0289877 0.0274995 0.0261739 0.0250093 0.024006 0.023166 0.31916 
0.313798 0.304796 0.281948 0.25226 0.220471 0.189577 0.161243 0.136221 0.114681 
0.0971433 0.0833399 0.0719172 0.062339 0.0553943 0.0506959 0.0467194 0.0431023 0.0398308 
0.0368828 0.0342332 0.0318565 0.0298605 0.0282436 0.0268367 0.0255916 0.0245076 0.023586 
0.02283 0.313798 0.313798 0.295795 0.268101 0.236419 0.204523 0.174631 0.147856 
0.124586 0.104777 0.0895097 0.0771701 0.0666642 0.0580137 0.052775 0.0486168 0.0448221 
0.0413826 0.038279 0.0354866 0.0329797 0.0307333 0.0289877 0.0274995 0.0261739 0.0250093 
0.024006 0.023166 0.31916 0.313798 0.304796 0.281948 0.25226 0.220471 0.189577 
0.161243 0.136221 0.114681 0.0971433 0.0833399 0.0719172 0.062339 0.0553943 0.0506959 
0.0467194 0.0431023 0.0398308 0.0368828 0.0342332 0.0318565 0.0298605 0.0282436 0.0268367 
0.0255916 0.0245076 0.023586 0.02283 0.199924 0.167751 0.14683 0.12365 0.102005 
0.0833697 0.0694149 0.0663492 0.0673782 0.0690817 0.0720484 0.0767582 0.0836124 0.0931208 
0.106473 0.262223 0.183837 0.15729 0.13524 0.112827 0.0926872 0.0763923 0.0678821 
0.0668637 0.06823 0.0705651 0.0744033 0.0801853 0.0883666 0.0997969 0.106473 0.18327 
0.16645 0.14693 0.125613 0.106265 0.0904645 0.0803779 0.0798256 0.0798313 0.0802396 
0.081603 0.084385 0.0890085 0.0960616 0.107461 0.248169 0.17486 0.15669 0.136271 
0.115939 0.0983646 0.0854212 0.0801017 0.0798284 0.0800354 0.0809213 0.082994 0.0866967 
0.092535 0.101761 0.107461 0.298331 0.298331 0.281424 0.254927 0.22456 0.194126 
0.165885 0.140999 0.119902 0.102596 0.0888427 0.0788317 0.0719887 0.0672693 0.0644748 
0.0638063 0.0654855 0.0681917 0.0716697 0.0756462 0.0798314 0.0839255 0.0876317 0.0906744 
0.0928212 0.0939026 0.0939026 0.0938296 0.305699 0.298331 0.289877 0.268175 0.239744 
0.209343 0.180005 0.153442 0.130451 0.111249 0.0957192 0.0838372 0.0754102 0.069629 
0.0658721 0.0641405 0.0646459 0.0668386 0.0699307 0.0736579 0.0777388 0.0818784 0.0857786 
0.0891531 0.0917478 0.0933619 0.0939026 0.0938661 0.0932097 0.298331 0.298331 0.281424 
0.254927 0.22456 0.194126 0.165885 0.140999 0.119902 0.102596 0.0888427 0.0788317 
0.0719887 0.0672693 0.0644748 0.0638063 0.0654855 0.0681917 0.0716697 0.0756462 0.0798314 
0.0839255 0.0876317 0.0906744 0.0928212 0.0939026 0.0939026 0.0938296 0.305699 0.298331 
0.289877 0.268175 0.239744 0.209343 0.180005 0.153442 0.130451 0.111249 0.0957192 
0.0838372 0.0754102 0.069629 0.0658721 0.0641405 0.0646459 0.0668386 0.0699307 0.0736579 
0.0777388 0.0818784 0.0857786 0.0891531 0.0917478 0.0933619 0.0939026 0.0938661 0.0932097 
2.41702 2.15085 1.86486 1.57863 1.31856 1.08436 0.846022 0.855587 1.09312 
1.32637 1.58696 1.87262 2.15821 2.42899 1.9383 1.77476 1.69971 1.53262 
1.31856 1.08436 0.846022 0.855587 1.09312 1.32637 1.53932 1.7051 1.77849 
1.9505 1.44805 1.44495 1.44495 1.40117 1.2646 1.07015 0.845425 0.854303 
1.07798 1.27117 1.40629 1.44849 1.44849 1.46305 1.11638 1.18817 1.23586 
1.23586 1.17708 1.03221 0.83076 0.838856 1.03904 1.18247 1.23982 1.23982 
1.19097 1.12847 0.848062 0.963245 1.0563 1.0604 1.0604 0.968812 0.800115 
0.807268 0.974578 1.06482 1.06482 1.05974 0.966315 0.858532 0.673285 0.789126 
0.886833 0.928062 0.928062 0.883958 0.753799 0.759897 0.888753 0.931928 0.931928 
0.890456 0.793138 0.67795 0.586923 0.663141 0.741216 0.793385 0.793385 0.783705 
0.69321 0.698204 0.787754 0.797212 0.797212 0.745571 0.66838 0.592969 0.5326 
0.57467 0.623789 0.667252 0.675799 0.675799 0.621258 0.625186 0.67943 0.67943 
0.671509 0.629196 0.581193 0.539907 0.495346 0.511987 0.532238 0.556009 0.567885 
0.567885 0.54202 0.545016 0.571463 0.571463 0.561046 0.538834 0.519746 0.503789 
0.465993 0.465993 0.465524 0.461781 0.466146 0.466146 0.460154 0.462424 0.47 
0.47 0.469221 0.474431 0.475457 0.475457 0.439315 0.439315 0.428469 0.405864 
0.383834 0.380155 0.389052 0.389052 0.381949 0.390929 0.414816 0.438421 0.449685 
0.449685 0.412649 0.412649 0.396406 0.360955 0.320047 0.345269 0.34715 0.34715 
0.343646 0.328208 0.370964 0.407279 0.423789 0.423789 0.384884 0.384884 0.366799 
0.323397 0.283189 0.325601 0.325601 0.323338 0.323338 0.279817 0.334328 0.378439 
0.396623 0.396623 0.356286 0.356286 0.338439 0.290672 0.278756 0.31024 0.31024 
0.308282 0.308282 0.272479 0.302353 0.350645 0.368393 0.368393 2.41702 3.67098 
2.15085 2.28394 1.86486 2.00786 1.57863 1.72175 1.31097 1.44859 1.06412 
1.20146 0.824152 0.965189 0.833992 0.850805 1.07329 0.974356 1.31936 1.20975 
1.58696 1.45667 1.87262 1.72979 2.15821 2.01542 2.42899 2.2936 3.78615 
2.17766 2.4304 1.96281 1.85653 1.78229 1.73724 1.55562 1.61617 1.31856 
1.42559 1.08436 1.20146 0.846022 0.965189 0.855587 0.850805 1.09312 0.974356 
1.32637 1.20975 1.56314 1.43285 1.78886 1.62221 1.96835 1.74179 2.18974 
1.86449 2.45049 1.69317 1.85531 1.60985 1.4465 1.57233 1.44495 1.4669 
1.42306 1.29158 1.33288 1.07725 1.16737 0.845723 0.957785 0.854945 0.849864 
1.08555 0.966141 1.29877 1.17457 1.47281 1.33873 1.5768 1.42739 1.61349 
1.44849 1.70677 1.45577 1.8727 1.28221 1.42784 1.31656 1.15228 1.34041 
1.21202 1.31852 1.23586 1.22084 1.20647 1.05118 1.10465 0.838092 0.931486 
0.846579 0.834808 1.05851 0.938947 1.22682 1.11075 1.32305 1.21114 1.34416 
1.23982 1.31973 1.21539 1.29576 1.15972 1.44164 0.982222 1.08993 1.07571 
0.905654 1.14608 1.00977 1.14813 1.05835 1.11874 1.0604 1.00051 1.01461 
0.815437 0.884463 0.823062 0.803691 1.00681 0.890923 1.12364 1.0197 1.15232 
1.06482 1.14978 1.06228 1.07864 1.01303 0.993503 0.912423 1.10168 0.760674 
0.845025 0.876186 0.731206 0.971568 0.83798 0.994232 0.907448 0.994232 0.928062 
0.926385 0.90601 0.776957 0.818879 0.783583 0.756848 0.931665 0.824325 0.998372 
0.91034 0.998372 0.931928 0.975097 0.911192 0.879726 0.841797 0.768241 0.735544 
0.853023 0.630104 0.678544 0.726134 0.625032 0.814025 0.702178 0.860723 0.7673 
0.860723 0.793385 0.833832 0.788545 0.723504 0.738458 0.72905 0.695707 0.838253 
0.742979 0.86457 0.792483 0.86457 0.797212 0.818013 0.771391 0.730759 0.706975 
0.635459 0.630675 0.686573 0.559761 0.558411 0.618905 0.553635 0.682502 0.599229 
0.730318 0.64552 0.734592 0.671525 0.729752 0.675799 0.657234 0.648528 0.661695 
0.623222 0.733592 0.652308 0.738321 0.67943 0.73436 0.67547 0.687383 0.650353 
0.624787 0.605195 0.566438 0.56055 0.566387 0.513973 0.487563 0.543328 0.503666 
0.578014 0.522113 0.61163 0.544124 0.621842 0.561947 0.621842 0.567885 0.581639 
0.554953 0.585101 0.543518 0.625447 0.558239 0.625447 0.571463 0.616277 0.566254 
0.584015 0.54994 0.55047 0.52929 0.521848 0.511768 0.495991 0.480669 0.460642 
0.48899 0.465993 0.498881 0.465758 0.508895 0.463652 0.517016 0.463964 0.517016 
0.466146 0.501087 0.46315 0.50372 0.461289 0.520732 0.466212 0.520732 0.47 
0.515133 0.46961 0.506633 0.471826 0.497602 0.474944 0.489623 0.475457 0.470194 
0.452654 0.435734 0.452654 0.439315 0.446996 0.433892 0.433822 0.417166 0.42499 
0.394849 0.423151 0.381995 0.424603 0.384604 0.425738 0.389052 0.425975 0.385501 
0.430465 0.386439 0.442018 0.402873 0.456426 0.426619 0.462571 0.444053 0.462571 
0.449685 0.446126 0.425982 0.409208 0.425982 0.412649 0.412437 0.404527 0.383409 
0.37868 0.351941 0.340501 0.362712 0.332658 0.368101 0.34621 0.368101 0.34715 
0.362798 0.345398 0.359569 0.335927 0.39289 0.349586 0.42285 0.389121 0.436737 
0.415534 0.436737 0.423789 0.420298 0.398767 0.380691 0.398767 0.384884 0.381602 
0.375842 0.342176 0.345098 0.301618 0.303293 0.335435 0.304395 0.336376 0.325601 
0.335244 0.32447 0.333492 0.323338 0.304012 0.301577 0.352646 0.307072 0.392859 
0.356383 0.410206 0.387531 0.410206 0.396623 0.392293 0.370585 0.351161 0.370585 
0.356286 0.352619 0.347362 0.307035 0.314556 0.280972 0.284714 0.317921 0.294498 
0.317921 0.31024 0.31581 0.309261 0.31581 0.308282 0.276148 0.290381 0.31834 
0.287416 0.364542 0.326499 0.382508 0.359519 0.382508 0.368393 0.363031 0.341094 
0.341094 0.323979 0.297774 0.332248 0.34799 0.343522 0.341715 0.343547 0.325646 
0.297702 0.33633 0.353233 0.353233 21.7712 39.4927 39.4927 16.0851 6.70149 
2.7382 2.02009 2.02009 2.7382 6.70149 16.0851 39.4927 39.4927 21.7712 
11.7107 24.1282 24.1282 21.6547 4.94829 2.7382 2.07234 2.07234 2.7382 
4.94829 21.6547 24.1282 24.1282 11.7107 4.5195 12.3524 21.6547 21.6547 
2.54018 2.52135 2.07234 2.07234 2.52135 2.54018 21.6547 21.6547 12.3524 
4.5195 2.54595 5.6847 13.0124 15.1208 15.1208 2.02243 1.98165 1.98165 
2.02243 15.1208 15.1208 13.0124 5.6847 2.54595 1.98216 2.78931 7.21295 
15.1208 15.1208 1.88082 1.92297 1.92297 1.88082 15.1208 15.1208 7.21295 
2.78931 1.98216 1.56659 2.24604 3.17432 9.70526 13.3997 13.3997 2.57261 
2.57261 13.3997 13.3997 9.70526 3.17432 2.24604 1.56659 1.24737 1.83881 
2.58628 5.7289 13.3997 16.4083 16.4083 16.4083 16.4083 13.3997 5.7289 
2.58628 1.83881 1.24737 0.996091 1.52134 2.18214 3.03216 9.09612 16.4083 
16.4083 16.4083 16.4083 9.09612 3.03216 2.18214 1.52134 0.996091 0.795352 
1.26708 1.86112 2.61331 5.76829 11.272 11.272 11.272 11.272 5.76829 
2.61331 1.86112 1.26708 0.795352 0.634748 1.05967 1.59905 2.27423 3.10495 
7.21477 7.21477 7.21477 7.21477 3.10495 2.27423 1.59905 1.05967 0.634748 
0.534001 0.888279 1.38037 1.99141 2.70855 3.88884 3.88884 3.88884 3.88884 
2.70855 1.99141 1.38037 0.888279 0.534001 0.460378 0.74528 1.19458 1.74929 
2.37297 2.7445 2.7445 2.7445 2.7445 2.37297 1.74929 1.19458 0.74528 
0.460378 0.396568 0.625312 1.03454 1.53762 2.07885 2.32419 2.32419 2.32419 
2.32419 2.07885 1.53762 1.03454 0.625312 0.396568 0.339251 0.534102 0.893969 
1.34913 1.81697 1.96613 1.96613 1.96613 1.96613 1.81697 1.34913 0.893969 
0.534102 0.339251 21.7712 13.4572 39.4927 30.632 39.4927 39.4927 16.0851 
27.7889 6.70149 11.3933 2.67756 4.71985 1.92644 2.37915 1.92644 2.02009 
2.67756 2.37915 6.70149 4.71985 16.0851 11.3933 39.4927 27.7889 39.4927 
39.4927 21.7712 30.632 13.4572 16.7409 7.33059 31.8105 17.9195 31.8105 
24.1282 18.8699 22.8915 5.82489 13.3015 2.7382 3.84325 2.04622 2.40527 
2.04622 2.07234 2.7382 2.40527 5.82489 3.84325 18.8699 13.3015 31.8105 
22.8915 31.8105 24.1282 16.7409 17.9195 7.33059 8.1151 3.40092 18.2403 
8.43596 22.8915 17.0036 21.6547 21.6547 3.74424 12.0974 2.62977 2.53076 
2.07234 2.29684 2.07234 2.07234 2.62977 2.29684 3.74424 2.53076 21.6547 
12.0974 22.8915 21.6547 18.2403 17.0036 8.1151 8.43596 3.40092 3.53272 
2.15038 9.01856 4.11533 17.3335 9.34853 18.3878 14.0666 8.83049 15.1208 
2.27189 8.57161 2.02699 2.00204 2.02699 1.98165 2.27189 2.00204 8.83049 
8.57161 18.3878 15.1208 17.3335 14.0666 9.01856 9.34853 3.53272 4.11533 
2.15038 2.26406 1.6635 4.23701 2.38574 10.1127 5.00113 15.1208 11.1669 
15.1208 15.1208 1.95163 8.50081 1.95231 1.90189 1.95231 1.92297 1.95163 
1.90189 15.1208 8.50081 15.1208 15.1208 10.1127 11.1669 4.23701 5.00113 
2.26406 2.38574 1.6635 1.77438 1.29735 2.51768 1.90632 5.19364 2.71018 
12.413 6.43979 14.2603 11.5525 7.64028 13.3997 2.24779 7.98617 2.24779 
2.57261 7.64028 7.98617 14.2603 13.3997 12.413 11.5525 5.19364 6.43979 
2.51768 2.71018 1.77438 1.90632 1.29735 1.40698 1.01378 2.04242 1.54309 
2.8803 2.21254 7.71708 4.15759 13.3997 9.56432 14.904 14.904 9.49048 
16.4083 9.49048 16.4083 14.904 16.4083 13.3997 14.904 7.71708 9.56432 
2.8803 4.15759 2.04242 2.21254 1.40698 1.54309 1.01378 1.12173 0.794479 
1.68007 1.25871 2.38421 1.85174 4.38053 2.60715 11.2479 6.06414 16.4083 
12.7522 16.4083 16.4083 16.4083 16.4083 16.4083 16.4083 11.2479 12.7522 
4.38053 6.06414 2.38421 2.60715 1.68007 1.85174 1.12173 1.25871 0.794479 
0.895722 0.641772 1.39421 1.03122 2.02163 1.5641 2.82273 2.23721 7.4322 
4.1908 13.8402 8.52015 13.8402 11.272 13.8402 11.272 13.8402 11.272 
7.4322 8.52015 2.82273 4.1908 2.02163 2.23721 1.39421 1.5641 0.895722 
1.03122 0.641772 0.71505 0.549839 1.16338 0.84721 1.73009 1.32936 2.44377 
1.93664 4.43662 2.68959 9.24339 5.15986 9.24339 7.21477 9.24339 7.21477 
9.24339 7.21477 4.43662 5.15986 2.44377 2.68959 1.73009 1.93664 1.16338 
1.32936 0.71505 0.84721 0.549839 0.584375 0.488285 0.973975 0.71114 1.48971 
1.13432 2.13282 1.68589 2.90675 2.34998 5.55181 3.2987 5.55181 3.88884 
5.55181 3.88884 5.55181 3.88884 2.90675 3.2987 2.13282 2.34998 1.48971 
1.68589 0.973975 1.13432 0.584375 0.71114 0.488285 0.49719 0.438592 0.816779 
0.602829 1.28747 0.969929 1.87035 1.47193 2.54076 2.06113 3.31667 2.55873 
3.31667 2.7445 3.31667 2.7445 3.31667 2.7445 2.54076 2.55873 1.87035 
2.06113 1.28747 1.47193 0.816779 0.969929 0.49719 0.602829 0.438592 0.428473 
0.392266 0.685296 0.51094 1.11456 0.829926 1.64345 1.28608 2.22591 1.80824 
2.53434 2.20152 2.53434 2.32419 2.53434 2.32419 2.53434 2.32419 2.22591 
2.20152 1.64345 1.80824 1.11456 1.28608 0.685296 0.829926 0.428473 0.51094 
0.392266 0.367909 0.34846 0.579707 0.436676 0.964255 0.714036 1.44337 1.12155 
1.94791 1.58305 2.14516 1.89155 2.14516 1.96613 2.14516 1.96613 2.14516 
1.96613 1.94791 1.89155 1.44337 1.58305 0.964255 1.12155 0.579707 0.714036 
0.367909 0.436676 0.34846 0.398606 0.576987 0.836585 1.26898 1.7021 1.81402 
1.81402 1.81402 1.81402 1.7021 1.26898 0.836585 0.576987 0.398606 2.42899 
2.15821 1.87262 1.58696 1.32637 1.09312 0.855587 0.846022 1.08436 1.31856 
1.57863 1.86486 2.15085 2.41702 1.9505 1.77849 1.7051 1.53932 1.32637 
1.09312 0.855587 0.846022 1.08436 1.31856 1.53262 1.69971 1.77476 1.9383 
1.46305 1.44849 1.44849 1.40629 1.27117 1.07798 0.854303 0.845425 1.07015 
1.2646 1.40117 1.44495 1.44495 1.44805 1.12847 1.19097 1.23982 1.23982 
1.18247 1.03904 0.838856 0.83076 1.03221 1.17708 1.23586 1.23586 1.18817 
1.11638 0.858532 0.966315 1.05974 1.06482 1.06482 0.974578 0.807268 0.800115 
0.968812 1.0604 1.0604 1.0563 0.963245 0.848062 0.67795 0.793138 0.890456 
0.931928 0.931928 0.888753 0.759897 0.753799 0.883958 0.928062 0.928062 0.886833 
0.789126 0.673285 0.592969 0.66838 0.745571 0.797212 0.797212 0.787754 0.698204 
0.69321 0.783705 0.793385 0.793385 0.741216 0.663141 0.586923 0.539907 0.581193 
0.629196 0.671509 0.67943 0.67943 0.625186 0.621258 0.675799 0.675799 0.667252 
0.623789 0.57467 0.5326 0.503789 0.519746 0.538834 0.561046 0.571463 0.571463 
0.545016 0.54202 0.567885 0.567885 0.556009 0.532238 0.511987 0.495346 0.475457 
0.475457 0.474431 0.469221 0.47 0.47 0.462424 0.460154 0.466146 0.466146 
0.461781 0.465524 0.465993 0.465993 0.449685 0.449685 0.438421 0.414816 0.390929 
0.381949 0.389052 0.389052 0.380155 0.383834 0.405864 0.428469 0.439315 0.439315 
0.423789 0.423789 0.407279 0.370964 0.328208 0.343646 0.34715 0.34715 0.345269 
0.320047 0.360955 0.396406 0.412649 0.412649 0.396623 0.396623 0.378439 0.334328 
0.279817 0.323338 0.323338 0.325601 0.325601 0.283189 0.323397 0.366799 0.384884 
0.384884 0.368393 0.368393 0.350645 0.302353 0.272479 0.308282 0.308282 0.31024 
0.31024 0.278756 0.290672 0.338439 0.356286 0.356286 2.42899 3.78615 2.15821 
2.2936 1.87262 2.01542 1.58696 1.72979 1.31936 1.45667 1.07329 1.20975 
0.833992 0.974356 0.824152 0.850805 1.06412 0.965189 1.31097 1.20146 1.57863 
1.44859 1.86486 1.72175 2.15085 2.00786 2.41702 2.28394 3.67098 2.18974 
2.45049 1.96835 1.86449 1.78886 1.74179 1.56314 1.62221 1.32637 1.43285 
1.09312 1.20975 0.855587 0.974356 0.846022 0.850805 1.08436 0.965189 1.31856 
1.20146 1.55562 1.42559 1.78229 1.61617 1.96281 1.73724 2.17766 1.85653 
2.4304 1.70677 1.8727 1.61349 1.45577 1.5768 1.44849 1.47281 1.42739 
1.29877 1.33873 1.08555 1.17457 0.854945 0.966141 0.845723 0.849864 1.07725 
0.957785 1.29158 1.16737 1.4669 1.33288 1.57233 1.42306 1.60985 1.44495 
1.69317 1.4465 1.85531 1.29576 1.44164 1.31973 1.15972 1.34416 1.21539 
1.32305 1.23982 1.22682 1.21114 1.05851 1.11075 0.846579 0.938947 0.838092 
0.834808 1.05118 0.931486 1.22084 1.10465 1.31852 1.20647 1.34041 1.23586 
1.31656 1.21202 1.28221 1.15228 1.42784 0.993503 1.10168 1.07864 0.912423 
1.14978 1.01303 1.15232 1.06228 1.12364 1.06482 1.00681 1.0197 0.823062 
0.890923 0.815437 0.803691 1.00051 0.884463 1.11874 1.01461 1.14813 1.0604 
1.14608 1.05835 1.07571 1.00977 0.982222 0.905654 1.08993 0.768241 0.853023 
0.879726 0.735544 0.975097 0.841797 0.998372 0.911192 0.998372 0.931928 0.931665 
0.91034 0.783583 0.824325 0.776957 0.756848 0.926385 0.818879 0.994232 0.90601 
0.994232 0.928062 0.971568 0.907448 0.876186 0.83798 0.760674 0.731206 0.845025 
0.635459 0.686573 0.730759 0.630675 0.818013 0.706975 0.86457 0.771391 0.86457 
0.797212 0.838253 0.792483 0.72905 0.742979 0.723504 0.695707 0.833832 0.738458 
0.860723 0.788545 0.860723 0.793385 0.814025 0.7673 0.726134 0.702178 0.630104 
0.625032 0.678544 0.566438 0.566387 0.624787 0.56055 0.687383 0.605195 0.73436 
0.650353 0.738321 0.67547 0.733592 0.67943 0.661695 0.652308 0.657234 0.623222 
0.729752 0.648528 0.734592 0.675799 0.730318 0.671525 0.682502 0.64552 0.618905 
0.599229 0.559761 0.553635 0.558411 0.521848 0.495991 0.55047 0.511768 0.584015 
0.52929 0.616277 0.54994 0.625447 0.566254 0.625447 0.571463 0.585101 0.558239 
0.581639 0.543518 0.621842 0.554953 0.621842 0.567885 0.61163 0.561947 0.578014 
0.544124 0.543328 0.522113 0.513973 0.503666 0.487563 0.489623 0.470194 0.497602 
0.475457 0.506633 0.474944 0.515133 0.471826 0.520732 0.46961 0.520732 0.47 
0.50372 0.466212 0.501087 0.461289 0.517016 0.46315 0.517016 0.466146 0.508895 
0.463964 0.498881 0.463652 0.48899 0.465758 0.480669 0.465993 0.460642 0.462571 
0.446126 0.462571 0.449685 0.456426 0.444053 0.442018 0.426619 0.430465 0.402873 
0.425975 0.386439 0.425738 0.385501 0.424603 0.389052 0.423151 0.384604 0.42499 
0.381995 0.433822 0.394849 0.446996 0.417166 0.452654 0.433892 0.452654 0.439315 
0.435734 0.436737 0.420298 0.436737 0.423789 0.42285 0.415534 0.39289 0.389121 
0.359569 0.349586 0.362798 0.335927 0.368101 0.345398 0.368101 0.34715 0.362712 
0.34621 0.351941 0.332658 0.383409 0.340501 0.412437 0.37868 0.425982 0.404527 
0.425982 0.412649 0.409208 0.410206 0.392293 0.410206 0.396623 0.392859 0.387531 
0.352646 0.356383 0.304012 0.307072 0.333492 0.301577 0.335244 0.323338 0.336376 
0.32447 0.335435 0.325601 0.301618 0.304395 0.342176 0.303293 0.381602 0.345098 
0.398767 0.375842 0.398767 0.384884 0.380691 0.382508 0.363031 0.382508 0.368393 
0.364542 0.359519 0.31834 0.326499 0.276148 0.287416 0.31581 0.290381 0.31581 
0.308282 0.317921 0.309261 0.317921 0.31024 0.280972 0.294498 0.307035 0.284714 
0.352619 0.314556 0.370585 0.347362 0.370585 0.356286 0.351161 0.353233 0.353233 
0.33633 0.297702 0.325646 0.343547 0.341715 0.343522 0.34799 0.332248 0.297774 
0.323979 0.341094 0.341094 21.3162 39.4631 39.4631 16.2949 6.85339 2.75429 
2.03233 2.03233 2.75429 6.85339 16.2949 39.4631 39.4631 21.3162 11.5001 
23.9222 23.9222 21.493 5.03548 2.75429 2.08478 2.08478 2.75429 5.03548 
21.493 23.9222 23.9222 11.5001 4.38852 12.1992 21.493 21.493 2.54142 
2.53177 2.08478 2.08478 2.53177 2.54142 21.493 21.493 12.1992 4.38852 
2.52845 5.56853 12.8717 14.964 14.964 2.02474 1.99183 1.99183 2.02474 
14.964 14.964 12.8717 5.56853 2.52845 1.96772 2.77255 7.09652 14.964 
14.964 1.91814 1.95161 1.95161 1.91814 14.964 14.964 7.09652 2.77255 
1.96772 1.55412 2.23177 3.09569 9.57471 13.2398 13.2398 2.62984 2.62984 
13.2398 13.2398 9.57471 3.09569 2.23177 1.55412 1.23635 1.82631 2.57132 
5.61911 13.2398 16.2325 16.2325 16.2325 16.2325 13.2398 5.61911 2.57132 
1.82631 1.23635 0.986237 1.51022 2.16903 3.0155 8.96604 16.2325 16.2325 
16.2325 16.2325 8.96604 3.0155 2.16903 1.51022 0.986237 0.786505 1.25709 
1.84947 2.59885 5.6606 11.1452 11.1452 11.1452 11.1452 5.6606 2.59885 
1.84947 1.25709 0.786505 0.626163 1.05065 1.58859 2.26153 3.08471 7.11981 
7.11981 7.11981 7.11981 3.08471 2.26153 1.58859 1.05065 0.626163 0.525713 
0.880096 1.37092 1.98015 2.69496 3.81631 3.81631 3.81631 3.81631 2.69496 
1.98015 1.37092 0.880096 0.525713 0.451625 0.737824 1.186 1.73924 2.36139 
2.73454 2.73454 2.73454 2.73454 2.36139 1.73924 1.186 0.737824 0.451625 
0.387833 0.618457 1.02671 1.52861 2.06895 2.31644 2.31644 2.31644 2.31644 
2.06895 1.52861 1.02671 0.618457 0.387833 0.330505 0.525845 0.88677 1.34102 
1.80847 1.96009 1.96009 1.96009 1.96009 1.80847 1.34102 0.88677 0.525845 
0.330505 21.3162 13.1206 39.4631 30.3897 39.4631 39.4631 16.2949 27.879 
6.85339 11.5741 2.69396 4.80384 1.93787 2.39331 1.93787 2.03233 2.69396 
2.39331 6.85339 4.80384 16.2949 11.5741 39.4631 27.879 39.4631 39.4631 
21.3162 30.3897 13.1206 16.4082 7.21132 31.6927 17.7112 31.6927 23.9222 
18.8939 22.7076 5.94443 13.2643 2.75429 3.89489 2.05855 2.41954 2.05855 
2.08478 2.75429 2.41954 5.94443 3.89489 18.8939 13.2643 31.6927 22.7076 
31.6927 23.9222 16.4082 17.7112 7.21132 7.94433 3.32555 18.0607 8.29388 
22.7076 16.8461 21.493 21.493 3.78845 12.0172 2.64303 2.5366 2.08478 
2.30827 2.08478 2.08478 2.64303 2.30827 3.78845 2.5366 21.493 12.0172 
22.7076 21.493 18.0607 16.8461 7.94433 8.29388 3.32555 3.45848 2.13387 
8.88389 4.04849 17.1824 9.22012 18.2285 13.9178 8.7527 14.964 2.27825 
8.49436 2.03831 2.00829 2.03831 1.99183 2.27825 2.00829 8.7527 8.49436 
18.2285 14.964 17.1824 13.9178 8.88389 9.22012 3.45848 4.04849 2.13387 
2.24809 1.64976 4.17054 2.37014 9.98411 4.93453 14.964 11.0302 14.964 
14.964 1.97144 8.44106 1.97172 1.93488 1.97172 1.95161 1.97144 1.93488 
14.964 8.44106 14.964 14.964 9.98411 11.0302 4.17054 4.93453 2.24809 
2.37014 1.64976 1.76092 1.28544 2.50216 1.89295 5.09611 2.66373 12.2693 
6.3352 14.1019 11.4073 7.57897 13.2398 2.29072 7.93481 2.29072 2.62984 
7.57897 7.93481 14.1019 13.2398 12.2693 11.4073 5.09611 6.3352 2.50216 
2.66373 1.76092 1.89295 1.28544 1.39523 1.00326 2.02904 1.53133 2.83351 
2.19882 7.59691 4.09522 13.2398 9.42945 14.7361 14.7361 9.43115 16.2325 
9.43115 16.2325 14.7361 16.2325 13.2398 14.7361 7.59691 9.42945 2.83351 
4.09522 2.02904 2.19882 1.39523 1.53133 1.00326 1.11129 0.785229 1.66826 
1.24823 2.37018 1.83962 4.3173 2.59226 11.1029 5.99077 16.2325 12.5993 
16.2325 16.2325 16.2325 16.2325 16.2325 16.2325 11.1029 12.5993 4.3173 
5.99077 2.37018 2.59226 1.66826 1.83962 1.11129 1.24823 0.785229 0.886371 
0.633143 1.38365 1.0218 2.00925 1.55328 2.80717 2.22416 7.31332 4.12972 
13.6888 8.40291 13.6888 11.1452 13.6888 11.1452 13.6888 11.1452 7.31332 
8.40291 2.80717 4.12972 2.00925 2.22416 1.38365 1.55328 0.886371 1.0218 
0.633143 0.706334 0.540727 1.15387 0.838405 1.71903 1.31962 2.43019 1.92506 
4.37265 2.67312 9.13251 5.10226 9.13251 7.11981 9.13251 7.11981 9.13251 
7.11981 4.37265 5.10226 2.43019 2.67312 1.71903 1.92506 1.15387 1.31962 
0.706334 0.838405 0.540727 0.575938 0.478933 0.965372 0.702904 1.47976 1.12551 
2.12084 1.67554 2.88984 2.33756 5.46806 3.25564 5.46806 3.81631 5.46806 
3.81631 5.46806 3.81631 2.88984 3.25564 2.12084 2.33756 1.47976 1.67554 
0.965372 1.12551 0.575938 0.702904 0.478933 0.488669 0.428696 0.80896 0.594725 
1.27846 0.961912 1.8597 1.46262 2.52818 2.05031 3.27543 2.54797 3.27543 
2.73454 3.27543 2.73454 3.27543 2.73454 2.52818 2.54797 1.8597 2.05031 
1.27846 1.46262 0.80896 0.961912 0.488669 0.594725 0.428696 0.419729 0.382165 
0.678141 0.503145 1.10636 0.822585 1.63393 1.27766 2.21517 1.79878 2.52549 
2.19269 2.52549 2.31644 2.52549 2.31644 2.52549 2.31644 2.21517 2.19269 
1.63393 1.79878 1.10636 1.27766 0.678141 0.822585 0.419729 0.503145 0.382165 
0.359169 0.33827 0.572151 0.428175 0.956741 0.706307 1.43482 1.1139 1.93871 
1.57475 2.13826 1.88428 2.13826 1.96009 2.13826 1.96009 2.13826 1.96009 
1.93871 1.88428 1.43482 1.57475 0.956741 1.1139 0.572151 0.706307 0.359169 
0.428175 0.33827 0.386156 0.564989 0.829615 1.26124 1.69419 1.80866 1.80866 
1.80866 1.80866 1.69419 1.26124 0.829615 0.564989 0.386156 6.38029 1.36794 
0.5734 0.466413 0.343437 0.279935 0.233901 0.201629 0.177286 0.158329 0.142989 
0.130367 0.119776 0.110351 0.101776 1.62446 0.612949 0.55708 0.372686 0.306003 
0.260958 0.224047 0.196308 0.17446 0.156972 0.14256 0.130367 0.119776 0.110351 
0.101776 0.961699 0.612949 0.422376 0.286437 0.224987 0.215251 0.197805 0.180426 
0.164581 0.150727 0.13862 0.127944 0.118378 0.109651 0.101547 0.765091 0.416815 
0.299738 0.257702 0.193465 0.160735 0.160735 0.156321 0.148635 0.13999 0.131314 
0.122948 0.114965 0.10733 0.0999734 0.601012 0.382377 0.218639 0.19864 0.170086 
0.136266 0.127899 0.128667 0.128667 0.125857 0.121238 0.115716 0.109741 0.103525 
0.0971574 0.483876 0.344005 0.203709 0.140129 0.137523 0.120465 0.101978 0.107202 
0.109891 0.109891 0.109368 0.106872 0.10312 0.0985219 0.0933132 0.392974 0.299758 
0.201143 0.117871 0.103585 0.100022 0.0892085 0.0863815 0.0936067 0.0967583 0.0971502 
0.0971502 0.0956225 0.092705 0.088733 0.3218 0.257774 0.187584 0.117871 0.0786311 
0.0786311 0.0756768 0.0685633 0.0782043 0.0843454 0.0872667 0.0877966 0.0877966 0.0864983 
0.0837543 0.264309 0.219735 0.169351 0.11626 0.0699401 0.0613261 0.0613261 0.0591453 
0.0644675 0.072841 0.0778265 0.0801447 0.0803189 0.0803189 0.0787263 0.217033 0.186044 
0.149839 0.109511 0.0699401 0.0474296 0.0490353 0.0490353 0.0527998 0.0627087 0.0692846 
0.0730854 0.0745426 0.0745426 0.0739848 0.177551 0.156456 0.130667 0.100176 0.0686392 
0.0399768 0.0389733 0.0402074 0.0441184 0.0541923 0.0619429 0.0669382 0.0694863 0.069835 
0.069835 0.149207 0.13061 0.112657 0.0898083 0.0648419 0.0399768 0.029379 0.0326128 
0.03732 0.0473653 0.0559697 0.0619257 0.0654026 0.066545 0.066545 0.128838 0.108152 
0.0962166 0.0793581 0.0597288 0.0391622 0.0204386 0.0250997 0.0313184 0.0421798 0.0514262 
0.0581855 0.0624829 0.0643443 0.0643443 0.116114 0.0913845 0.0815501 0.069424 0.0541133 
0.0371432 0.0197751 0.0177823 0.0265671 0.0385068 0.048292 0.055784 0.0608639 0.0639552 
0.0644748 0.104271 0.0799854 0.0687632 0.0603951 0.0485652 0.0345583 0.0194925 0.0122681 
0.0240418 0.0361631 0.0464844 0.0549717 0.0618359 0.066062 0.0672693 0.0922618 0.0730105 
0.0596533 0.0525341 0.0434935 0.0318926 0.0187221 0.00937159 0.0225456 0.0349277 0.0462663 
0.0564171 0.0644661 0.0698481 0.0719887 0.0802321 0.0661211 0.0539503 0.0460259 0.0391994 
0.029521 0.0219233 0.0159116 0.0217618 0.0347328 0.0474428 0.0589066 0.0684641 0.0753731 
0.0788317 0.0683336 0.0590094 0.0507265 0.042792 0.0373619 0.0323451 0.0273682 0.0223351 
0.0213638 0.0351573 0.0491058 0.0622096 0.0736949 0.0826366 0.0879695 0.0567373 0.0519173 
0.0473034 0.0423988 0.0392327 0.0361187 0.0326306 0.0287182 0.0242078 0.0354428 0.0508872 
0.0660004 0.0799212 0.0915462 0.0995167 0.0456441 0.0450748 0.043918 0.0418991 0.0410069 
0.0397353 0.0377623 0.0350846 0.0315528 0.0354428 0.0523273 0.0698322 0.0867648 0.101869 
0.11348 0.0387092 0.0407765 0.0414424 0.0427634 0.0432253 0.0432253 0.0427517 0.0413926 
0.0390247 0.0355959 0.0528593 0.0731057 0.0936574 0.113166 0.129681 0.0330484 0.0380584 
0.0414037 0.0445283 0.0465585 0.0475197 0.0475255 0.0475255 0.0464883 0.0441029 0.0528593 
0.0750414 0.0997849 0.124701 0.147636 0.0369977 0.0427175 0.0446404 0.0463731 0.0496477 
0.05192 0.0532869 0.0537125 0.0537125 0.0529063 0.0518013 0.0750414 0.104032 0.135341 
0.166403 0.044331 0.048923 0.0503146 0.0503146 0.0523581 0.0557474 0.0584035 0.0603645 
0.0613857 0.0613857 0.0608842 0.0746602 0.104943 0.143445 0.184382 0.0532334 0.0562707 
0.056889 0.056889 0.0554054 0.0587569 0.0625415 0.0660182 0.0690307 0.0710509 0.0710683 
0.0710683 0.104943 0.146775 0.199103 0.0632742 0.0643517 0.0643517 0.0639782 0.062309 
0.0606954 0.0653385 0.0701802 0.0752044 0.0800181 0.0837013 0.0845866 0.100717 0.146775 
0.207042 0.0753797 0.0739198 0.0726765 0.0711194 0.0692054 0.0667974 0.0664632 0.0723531 
0.0791997 0.0868407 0.0945934 0.100958 0.10322 0.142487 0.207042 0.0904849 0.0845429 
0.0806896 0.0777876 0.0755605 0.073743 0.0719364 0.0724576 0.0803187 0.0904645 0.102275 
0.114685 0.125333 0.129962 0.203491 6.38029 6.38029 1.36794 3.87411 0.5734 
0.97067 0.466413 0.519906 0.343437 0.404925 0.279935 0.311686 0.233901 0.256918 
0.201629 0.217765 0.177286 0.189458 0.158329 0.167808 0.142989 0.150659 0.130273 
0.136678 0.119469 0.125072 0.109894 0.115064 0.101218 0.106063 0.0978029 4.00237 
1.62446 0.990445 1.1187 0.56524 0.585014 0.419549 0.464883 0.32472 0.339345 
0.270447 0.283481 0.228974 0.242502 0.198968 0.210177 0.175873 0.185384 0.15765 
0.165716 0.142775 0.149766 0.130367 0.136463 0.119776 0.125072 0.110351 0.115064 
0.101776 0.106063 0.0978394 1.29308 0.961699 0.612949 0.787324 0.489728 0.517662 
0.329561 0.354407 0.265495 0.255712 0.238104 0.220119 0.210926 0.206528 0.188367 
0.189115 0.16952 0.172503 0.153849 0.157654 0.14059 0.144673 0.129156 0.133282 
0.119077 0.123161 0.110001 0.114014 0.101662 0.105599 0.097725 0.863395 0.765091 
0.514882 0.590953 0.361057 0.358276 0.27207 0.27872 0.209226 0.225584 0.187993 
0.1771 0.17927 0.160735 0.168373 0.158528 0.156608 0.152478 0.145359 0.144312 
0.134967 0.135652 0.125446 0.127131 0.116671 0.118956 0.108491 0.111148 0.10076 
0.103652 0.0963973 0.683052 0.601012 0.399596 0.491695 0.259188 0.300508 0.228171 
0.208639 0.181775 0.184363 0.1485 0.153176 0.144317 0.132083 0.142494 0.128283 
0.138651 0.128667 0.132924 0.127262 0.126276 0.123548 0.119332 0.118477 0.112353 
0.112729 0.105428 0.106633 0.0985654 0.100341 0.0939159 0.542444 0.483876 0.363191 
0.41394 0.211174 0.273857 0.169384 0.171919 0.153804 0.138826 0.128365 0.128994 
0.114939 0.111222 0.117935 0.10459 0.119279 0.108546 0.117874 0.109891 0.115303 
0.10963 0.111294 0.10812 0.10643 0.104996 0.101023 0.100821 0.0952353 0.0959176 
0.0904725 0.438425 0.392974 0.321882 0.346366 0.202426 0.25045 0.129 0.159507 
0.120554 0.110728 0.110244 0.101804 0.0955933 0.0946153 0.0967918 0.087795 0.101749 
0.0899941 0.103325 0.0951825 0.103259 0.0969542 0.102011 0.0971502 0.0993711 0.0963864 
0.0956135 0.0941638 0.0910231 0.090719 0.0863293 0.357387 0.3218 0.278766 0.289787 
0.194363 0.222679 0.117871 0.152728 0.0911081 0.0982513 0.0893266 0.0786311 0.0824427 
0.077154 0.0774724 0.07212 0.0859055 0.0733838 0.0905519 0.0812748 0.0922084 0.085806 
0.0924734 0.0875316 0.0917095 0.0877966 0.0896017 0.0871475 0.0862436 0.0851263 0.0817928 
0.293054 0.264309 0.238754 0.242022 0.178467 0.194543 0.117066 0.142805 0.0742856 
0.0931001 0.0699786 0.0656331 0.0685014 0.0613261 0.0638543 0.0602357 0.0713359 0.0618064 
0.0785932 0.0686543 0.0825466 0.0753338 0.0839706 0.0789856 0.0840577 0.0802318 0.0834086 
0.0803189 0.0812403 0.0795226 0.0771862 0.240671 0.217033 0.202889 0.201539 0.159595 
0.167942 0.112885 0.129675 0.0699401 0.0897253 0.0543778 0.0586848 0.0551807 0.0482325 
0.0540903 0.0490353 0.0586336 0.0509175 0.0677749 0.0577542 0.0735555 0.0659966 0.076615 
0.071185 0.0774307 0.073814 0.0774307 0.0745426 0.0763555 0.0742637 0.0728272 0.197292 
0.177551 0.17125 0.167003 0.140253 0.143561 0.104843 0.115422 0.0692896 0.0844076 
0.0437032 0.054308 0.0440043 0.0394751 0.0446213 0.0395903 0.0484591 0.0421629 0.0584505 
0.0491554 0.0656137 0.0580676 0.0700118 0.0644405 0.0720144 0.0682122 0.0721888 0.0696607 
0.0719099 0.069835 0.0690134 0.163379 0.149207 0.143533 0.139909 0.121662 0.121634 
0.0949921 0.101233 0.0667405 0.0773251 0.0399768 0.0524093 0.0341761 0.0346779 0.0364101 
0.0309959 0.0407192 0.0349664 0.0507788 0.0423426 0.0589563 0.0516675 0.064432 0.0589477 
0.0674445 0.0636642 0.06819 0.0659738 0.06819 0.066545 0.0660153 0.139023 0.128838 
0.119381 0.118495 0.104437 0.102184 0.0845832 0.0877873 0.0622853 0.0695435 0.0395695 
0.0494455 0.0249088 0.0298004 0.0288563 0.0227692 0.0343192 0.0282091 0.0447726 0.0367491 
0.0536979 0.046803 0.0600556 0.0548059 0.0639428 0.0603342 0.0654447 0.0634136 0.0654447 
0.0643443 0.0640753 0.122476 0.116114 0.0997683 0.103749 0.0888833 0.0864673 0.0743911 
0.0754871 0.0569211 0.0617687 0.0381527 0.0456282 0.0201069 0.0284591 0.021441 0.0187787 
0.0289428 0.0221747 0.0403433 0.0325369 0.0498591 0.0433994 0.0569847 0.052038 0.0616734 
0.0583239 0.0641498 0.0624095 0.0644095 0.064215 0.0644748 0.110193 0.104271 0.0856849 
0.0921283 0.0751567 0.0743743 0.0649096 0.0645791 0.0513393 0.0544801 0.0358508 0.0415618 
0.0196338 0.0270254 0.0150252 0.0158803 0.0253045 0.018155 0.0373349 0.0301025 0.0473882 
0.0413237 0.0553778 0.050728 0.0613499 0.0584038 0.0650086 0.063949 0.0658721 0.0666657 
0.0672693 0.0982665 0.0922618 0.0764979 0.0826361 0.0642082 0.0663319 0.0564646 0.0560937 
0.0460294 0.0480138 0.0332254 0.0376931 0.0191073 0.0253073 0.0108198 0.0140468 0.0232937 
0.0159586 0.0355454 0.0287367 0.0463753 0.040597 0.0556944 0.0513417 0.063151 0.0604416 
0.0679551 0.0671571 0.069629 0.0709184 0.0719887 0.086247 0.0802321 0.0695658 0.0731766 
0.0568018 0.0600357 0.04928 0.0499881 0.0413465 0.0426126 0.0307068 0.0343602 0.0203227 
0.0257221 0.0126416 0.0189174 0.0221537 0.0188367 0.0348303 0.0282473 0.0468546 0.0410878 
0.0576619 0.0531747 0.0664651 0.0636854 0.0726106 0.0719186 0.0754102 0.0771024 0.0788317 
0.0742828 0.0683336 0.0625652 0.0636715 0.0523384 0.0548679 0.0444089 0.0467592 0.0382806 
0.0400769 0.030933 0.0348535 0.0246457 0.0298567 0.0191233 0.0248516 0.0215628 0.0218494 
0.0349451 0.0282606 0.0482743 0.0421316 0.0605581 0.0556577 0.0710795 0.0679522 0.0790049 
0.0781658 0.0834006 0.0853031 0.0884061 0.0625354 0.0567373 0.0554633 0.0543273 0.049015 
0.0496103 0.0425954 0.0448511 0.0382973 0.0408157 0.0342319 0.0376757 0.0299994 0.0343747 
0.0255266 0.0306744 0.0227858 0.026463 0.0353001 0.0298253 0.0499965 0.043165 0.064105 
0.0584438 0.0768081 0.0729608 0.0870914 0.0857337 0.0937431 0.0955315 0.101056 0.0511907 
0.0456441 0.048496 0.0453595 0.0456107 0.0444964 0.0421489 0.0429086 0.0401198 0.041453 
0.037927 0.0403711 0.0351964 0.0387488 0.0319014 0.0364234 0.0278803 0.0333187 0.0354428 
0.0334978 0.0516073 0.0438851 0.0679163 0.0610797 0.083343 0.0782985 0.0967078 0.0943171 
0.106499 0.107675 0.116691 0.0421766 0.0370001 0.0429256 0.0397428 0.0426802 0.0411094 
0.0423313 0.0421029 0.0421161 0.0429943 0.0414803 0.0432253 0.040257 0.0429885 0.0382386 
0.0420722 0.0352888 0.0402087 0.0355194 0.0373103 0.0525933 0.0442276 0.0714689 0.0629825 
0.0902111 0.0833816 0.107518 0.103412 0.121581 0.121424 0.13534 0.0358788 0.0295016 
0.0394174 0.0355534 0.0414231 0.0397311 0.0436459 0.042966 0.0448919 0.0455434 0.0453725 
0.0470391 0.0451386 0.0475226 0.044459 0.0475255 0.0427565 0.0470069 0.0398494 0.0452956 
0.0528593 0.0484811 0.0740735 0.0639504 0.0967212 0.0874132 0.118934 0.112243 0.138659 
0.136169 0.156761 0.035023 0.0319527 0.040388 0.0398576 0.0430221 0.043679 0.0454507 
0.0455067 0.0481031 0.0480104 0.0497199 0.0507839 0.0504062 0.0526035 0.050619 0.0534997 
0.0501004 0.0537125 0.0485046 0.0533094 0.0523303 0.0523538 0.0750414 0.0634213 0.101909 
0.0895368 0.130021 0.119687 0.15702 0.150872 0.180264 0.0406644 0.0401941 0.0458203 
0.046627 0.0474775 0.0496188 0.0483438 0.0503146 0.0510029 0.0513364 0.0538337 0.0540528 
0.0558452 0.0570755 0.0570385 0.059384 0.0575491 0.0608751 0.057146 0.0613857 0.0563427 
0.0611349 0.0748508 0.0677722 0.104488 0.0898015 0.139393 0.124194 0.175393 0.163913 
0.204471 0.0487822 0.050367 0.0525969 0.054752 0.0536018 0.0565799 0.0536018 0.056889 
0.0538818 0.0561472 0.0572522 0.0570812 0.0604725 0.0606492 0.0631914 0.0642798 0.0652082 
0.0675244 0.0662183 0.0700408 0.0659762 0.0710596 0.0728642 0.0710683 0.104943 0.0880056 
0.14511 0.125859 0.191743 0.172939 0.227015 0.0582538 0.0620391 0.0603112 0.0638129 
0.0606204 0.0643517 0.0604336 0.0641649 0.0588572 0.0631436 0.0597261 0.0615022 0.06394 
0.0630169 0.0680992 0.0677593 0.0721175 0.0726923 0.0755345 0.0776113 0.0773848 0.0818597 
0.0778274 0.0841439 0.10283 0.0926516 0.146775 0.123746 0.203073 0.176909 0.244233 
0.069327 0.0753797 0.0691358 0.0746498 0.0685141 0.0732981 0.0675488 0.0718979 0.0657572 
0.0701624 0.0637464 0.0680014 0.0659009 0.0666303 0.0712666 0.0694082 0.077202 0.0757764 
0.0834294 0.0830202 0.0891473 0.0907171 0.0927724 0.0977758 0.101969 0.102089 0.144631 
0.122854 0.207042 0.174764 0.252686 0.0829323 0.0904849 0.0792314 0.0875139 0.076683 
0.0826163 0.0744535 0.0792386 0.0723829 0.076674 0.0702702 0.0746517 0.0691998 0.0728397 
0.0724053 0.072197 0.0797592 0.0763882 0.0886526 0.0853916 0.0984342 0.0963697 0.107821 
0.10848 0.114277 0.120009 0.136225 0.127648 0.205267 0.166727 0.250911 0.0989728 
0.0903023 0.084849 0.0810863 0.0785817 0.0769913 0.0758838 0.0761416 0.0803483 0.0904645 
0.10427 0.120149 0.136131 0.148206 0.193381 0.121456 0.104868 0.094859 0.0886418 
0.0853435 0.0854273 0.0879064 0.0913121 0.0948126 0.0970251 0.106265 0.125917 0.156108 
0.190294 0.222883 0.132684 0.111232 0.0984397 0.0906333 0.086662 0.0878711 0.0923353 
0.0990237 0.107564 0.117209 0.126407 0.13205 0.156108 0.19982 0.255974 0.140059 
0.114504 0.0993326 0.0906333 0.086662 0.0878711 0.0923353 0.100887 0.11317 0.129 
0.148073 0.168985 0.187987 0.205373 0.265316 0.142707 0.114504 0.0993326 0.0900427 
0.0852418 0.0865125 0.0920548 0.100887 0.11317 0.129 0.154464 0.187325 0.227293 
0.270283 0.304875 0.142707 0.114256 0.097351 0.0868217 0.0810977 0.0812433 0.0866883 
0.0959954 0.10977 0.128902 0.154464 0.187325 0.23078 0.299333 0.385741 0.140087 
0.110337 0.0925746 0.0812208 0.0746219 0.0726718 0.076872 0.0848657 0.0974405 0.115919 
0.142308 0.179406 0.23078 0.299333 0.385741 0.143776 0.113846 0.0946299 0.0807412 
0.0707395 0.0638281 0.0643457 0.0697368 0.0789626 0.0932575 0.114701 0.146677 0.194643 
0.26691 0.376803 0.1532 0.121135 0.100745 0.0864943 0.0767841 0.0707644 0.0683944 
0.0722204 0.0801545 0.093441 0.114162 0.14569 0.193436 0.26557 0.375148 0.157528 
0.125241 0.104817 0.0909324 0.0819748 0.0771132 0.0784644 0.0850155 0.0963833 0.113871 
0.139445 0.17583 0.226458 0.294001 0.378812 0.157528 0.125739 0.106304 0.0933508 
0.0853729 0.0816566 0.0855105 0.0934399 0.106021 0.124098 0.148671 0.180501 0.226458 
0.294001 0.378812 0.156444 0.125739 0.106304 0.0933508 0.0862629 0.0838542 0.0878887 
0.0954034 0.106517 0.124098 0.148671 0.180501 0.21925 0.260637 0.293052 0.150095 
0.12249 0.104874 0.0932356 0.0862629 0.0838542 0.0878887 0.0954034 0.106517 0.121262 
0.139257 0.158999 0.176627 0.20372 0.271268 0.139037 0.115653 0.100453 0.0903493 
0.0842789 0.0820054 0.0850695 0.0905423 0.0980002 0.106634 0.11482 0.125196 0.157296 
0.20372 0.260856 0.124144 0.105653 0.0932296 0.0847505 0.0794302 0.0767625 0.077518 
0.0798769 0.082473 0.0844401 0.102005 0.125196 0.157296 0.192931 0.226445 0.114458 
0.121456 0.100465 0.113162 0.0919337 0.0998637 0.0865134 0.0917504 0.0834733 0.0869927 
0.0828334 0.0853854 0.0838688 0.0866668 0.0855688 0.0896092 0.0875952 0.0930623 0.0937448 
0.0959188 0.106265 0.101645 0.125765 0.116091 0.151519 0.141013 0.178372 0.173201 
0.203077 0.206589 0.274392 0.12707 0.132684 0.10805 0.121958 0.0966494 0.104836 
0.0896376 0.0945365 0.0860028 0.0886477 0.0866492 0.0872666 0.0901208 0.0901032 0.0951679 
0.0956795 0.101188 0.103294 0.107117 0.112386 0.116336 0.121808 0.128984 0.129229 
0.156108 0.144079 0.195057 0.177964 0.239429 0.227897 0.290938 0.136371 0.140059 
0.112868 0.127282 0.0988861 0.106918 0.0906333 0.094983 0.086662 0.0886477 0.0878711 
0.0872666 0.0923353 0.0901032 0.0999552 0.096611 0.110367 0.107029 0.123104 0.121085 
0.13724 0.138536 0.150518 0.158529 0.172048 0.178486 0.202596 0.19668 0.260645 
0.235344 0.287418 0.141383 0.142707 0.114504 0.128606 0.0993326 0.106918 0.090338 
0.0946876 0.0859519 0.0876422 0.0871918 0.0858771 0.092195 0.0892837 0.100887 0.0964708 
0.11317 0.107029 0.129 0.121085 0.151268 0.141732 0.178155 0.170894 0.20764 
0.207309 0.237828 0.248788 0.285096 0.287579 0.304875 0.142707 0.142707 0.11438 
0.128482 0.0983418 0.105804 0.0884322 0.0920864 0.0831698 0.0839597 0.0838779 0.0811705 
0.0893716 0.0839658 0.0984411 0.0913418 0.11147 0.102883 0.128951 0.119336 0.154464 
0.141683 0.187325 0.170894 0.229036 0.209052 0.284808 0.265056 0.345308 0.342537 
0.385741 0.141397 0.140087 0.112297 0.125212 0.0949628 0.101456 0.0840213 0.0868977 
0.0778598 0.0779214 0.0769575 0.0736469 0.0817801 0.0747719 0.0904306 0.0808689 0.103605 
0.0911531 0.12241 0.10668 0.148386 0.129114 0.183366 0.160857 0.23078 0.205093 
0.299333 0.265056 0.385741 0.342537 0.385741 0.141932 0.143776 0.112091 0.128811 
0.0936022 0.104238 0.080981 0.0876855 0.0726807 0.0757403 0.06825 0.0672838 0.0706088 
0.0640869 0.0773013 0.0670413 0.0882015 0.0743497 0.104588 0.08611 0.128504 0.103979 
0.163042 0.130689 0.212711 0.17066 0.283121 0.230776 0.381272 0.321857 0.376803 
0.148488 0.1532 0.11749 0.137168 0.0976876 0.11094 0.0836177 0.0936198 0.0737618 
0.0816392 0.0672963 0.0737742 0.06637 0.0695794 0.0709786 0.0703074 0.0795585 0.0761875 
0.0933492 0.0867978 0.114431 0.103802 0.146184 0.129926 0.194039 0.169563 0.26624 
0.229503 0.375976 0.320359 0.375148 0.155364 0.157528 0.123188 0.141385 0.102781 
0.115029 0.0887133 0.0978746 0.0793794 0.0864536 0.0739388 0.079544 0.0734294 0.0777888 
0.078618 0.08174 0.0882689 0.0906994 0.103656 0.105127 0.126804 0.126658 0.16076 
0.157638 0.209947 0.201144 0.279786 0.260229 0.37698 0.336407 0.378812 0.157528 
0.157528 0.12549 0.141634 0.10556 0.116022 0.0921416 0.0998274 0.0836738 0.0893618 
0.0793849 0.0835147 0.0819874 0.0835836 0.0892277 0.0894752 0.101202 0.0997306 0.118985 
0.11506 0.144058 0.136384 0.178166 0.164586 0.226458 0.20348 0.294001 0.260229 
0.378812 0.336407 0.378812 0.156986 0.156444 0.125739 0.141092 0.106304 0.116022 
0.0933508 0.0998274 0.0858179 0.0898068 0.0827554 0.0850585 0.0866996 0.0858714 0.0944216 
0.0916461 0.106269 0.10096 0.124098 0.115307 0.148671 0.136384 0.180501 0.164586 
0.222854 0.199876 0.277319 0.239944 0.335932 0.276844 0.293052 0.15327 0.150095 
0.124115 0.136293 0.105589 0.113682 0.0932932 0.0990548 0.0862629 0.0897492 0.0838542 
0.0850585 0.0878887 0.0858714 0.0954034 0.0916461 0.106517 0.10096 0.12268 0.113889 
0.143964 0.130259 0.16975 0.149128 0.197939 0.167813 0.232178 0.190174 0.28216 
0.237494 0.296641 0.144566 0.139037 0.119072 0.127345 0.102664 0.108053 0.0917925 
0.0954013 0.0852709 0.0873141 0.0829298 0.0831421 0.0864791 0.0835375 0.0929728 0.0878059 
0.102258 0.0942712 0.113948 0.102317 0.127038 0.110727 0.142097 0.120008 0.166961 
0.141246 0.20372 0.180508 0.266062 0.232288 0.299465 0.131591 0.124144 0.110653 
0.114898 0.0968415 0.0994413 0.0875499 0.0889901 0.0818545 0.0820904 0.079384 0.0780964 
0.0812938 0.0771403 0.0852096 0.0786974 0.0902366 0.0811749 0.0955369 0.0834565 0.108412 
0.0932224 0.125196 0.1136 0.157296 0.141246 0.198325 0.175113 0.24365 0.209688 
0.282259 0.115308 0.0993868 0.088421 0.0807544 0.0757393 0.0729221 0.0724481 0.0731131 
0.075944 0.0839049 0.102005 0.124423 0.152063 0.180341 0.213184 0.0847913 0.0769476 
0.0707407 0.0658027 0.0619164 0.0588198 0.0560829 0.0574587 0.068863 0.0820658 0.0965379 
0.11119 0.123642 0.143801 0.219505 0.0660129 0.0625164 0.0588595 0.0553267 0.051911 
0.0484578 0.0466872 0.0561145 0.0665166 0.0773021 0.0877654 0.0963938 0.106416 0.158628 
0.222255 0.0549892 0.0478559 0.0464693 0.0442114 0.041245 0.0375191 0.0437293 0.0526998 
0.0614232 0.0694774 0.0759275 0.0807832 0.117565 0.162279 0.222255 0.0573475 0.0366297 
0.0340784 0.0329488 0.0304307 0.0310757 0.0396469 0.0474652 0.0543308 0.0596926 0.0625344 
0.0889846 0.121311 0.162279 0.213373 0.0576712 0.0375397 0.0232451 0.0219627 0.0198981 
0.0266824 0.0344256 0.0409564 0.0459906 0.0489306 0.0686307 0.0925485 0.121311 0.158132 
0.19756 0.0576712 0.03803 0.0231869 0.0121885 0.0134776 0.0216987 0.0284783 0.0337129 
0.0386594 0.053987 0.0719745 0.0925485 0.119708 0.149018 0.178317 0.0563411 0.03803 
0.0243201 0.0129719 0.0101294 0.0164262 0.0226002 0.0320081 0.0435445 0.0571582 0.0726562 
0.0923756 0.114527 0.137141 0.158077 0.0537321 0.037538 0.0248301 0.0158953 0.0166338 
0.021304 0.0279181 0.0363875 0.0466048 0.0583887 0.0726562 0.0896008 0.107187 0.124101 
0.138396 0.0501937 0.0362648 0.0248301 0.0198239 0.0220042 0.0260982 0.0319409 0.0393732 
0.0482053 0.0583887 0.0714181 0.0851538 0.0987521 0.110982 0.120167 0.046038 0.0344024 
0.0271157 0.0247273 0.0263011 0.0298 0.0348383 0.0412116 0.0486784 0.0581717 0.0688801 
0.0797548 0.0899822 0.0984678 0.103827 0.0438829 0.0356244 0.0309677 0.0286068 0.029611 
0.0325324 0.0367821 0.042131 0.0486784 0.0569265 0.0655348 0.073936 0.0813857 0.0869471 
0.0895097 0.0454577 0.0379927 0.0337294 0.0314835 0.032036 0.0344237 0.0379352 0.0423334 
0.0483117 0.0549936 0.0617572 0.0680715 0.07328 0.0766031 0.0771701 0.0459038 0.0393136 
0.03552 0.03346 0.0336843 0.0355999 0.0384464 0.0423334 0.0473442 0.0526395 0.0578214 
0.0624106 0.0658434 0.0674849 0.0674849 0.0459038 0.0397402 0.0364654 0.0346468 0.0346651 
0.0361796 0.0384473 0.0419915 0.0459684 0.050066 0.0539196 0.0571081 0.0591575 0.0595589 
0.0595589 0.0454164 0.0397402 0.036692 0.0351564 0.0350836 0.0362719 0.0384473 0.0412493 
0.0443357 0.0474208 0.0501798 0.0522499 0.0532393 0.0532393 0.0527451 0.0441768 0.0394209 
0.036692 0.0351564 0.0350836 0.0362719 0.0380521 0.0402243 0.0425618 0.0448088 0.0466819 
0.0478742 0.0480657 0.0480657 0.0469413 0.0423491 0.0384955 0.0363219 0.0350985 0.0350389 
0.0359746 0.037358 0.0390114 0.0407337 0.0423012 0.0434709 0.0439868 0.0439868 0.0435905 
0.0420379 0.0400786 0.0370918 0.0354696 0.034577 0.0346217 0.0353745 0.0364473 0.0376858 
0.0389154 0.0399443 0.0405672 0.0405733 0.0405733 0.039756 0.038955 0.037492 0.0353251 
0.0342402 0.0336883 0.033914 0.0345473 0.0353885 0.0363066 0.0371532 0.0377661 0.0379748 
0.0379748 0.0376074 0.0365005 0.0366223 0.0346981 0.033297 0.0327283 0.0326199 0.032989 
0.0335585 0.0342385 0.0349201 0.0354794 0.0357817 0.0357817 0.035687 0.0350569 0.033763 
0.0344571 0.0317889 0.0310961 0.0311487 0.0314549 0.0319106 0.0324642 0.0330442 0.0335621 
0.0339164 0.0339971 0.0339971 0.0336907 0.0328871 0.0316026 0.0324636 0.0288416 0.0291812 
0.029644 0.0301662 0.0307345 0.0313119 0.0318438 0.0322599 0.0324788 0.0324788 0.0324122 
0.0319696 0.0310639 0.0302184 0.0306414 0.0264689 0.0272824 0.0280652 0.0288081 0.0295082 
0.0301416 0.0306681 0.031034 0.0311757 0.0311757 0.0310232 0.0305056 0.029555 0.0289342 
0.0289877 0.0241624 0.0253753 0.0264633 0.0274269 0.0282722 0.0289862 0.0295419 0.0298998 
0.0300116 0.0300116 0.0298235 0.0292805 0.0283305 0.0277611 0.0277611 0.021925 0.0235056 
0.0248816 0.0260619 0.0270599 0.0278726 0.0284843 0.0288679 0.0289882 0.0289882 0.028805 
0.0282765 0.0273631 0.0269109 0.0267086 0.0197953 0.0217119 0.0233567 0.0247457 0.0258989 
0.0268222 0.0275096 0.027945 0.0281043 0.0281043 0.0279585 0.0274765 0.0267009 0.0262284 
0.0257847 0.017806 0.0200267 0.0219187 0.0235048 0.0248111 0.0258511 0.0266279 0.0271345 
0.0273564 0.0273564 0.0272738 0.0268641 0.0261989 0.0256572 0.0249978 0.0159843 0.0184769 
0.0205925 0.0223607 0.0238132 0.0249711 0.0258451 0.0264366 0.026739 0.02674 0.02674 
0.0264236 0.0258456 0.0252117 0.0243563 0.0956322 0.0847913 0.0850342 0.0808695 0.0771766 
0.0738441 0.0712805 0.0682717 0.0669824 0.0638596 0.0639507 0.0603681 0.0617305 0.0574513 
0.061904 0.0567708 0.069139 0.0631609 0.0827177 0.0754644 0.0992713 0.0893019 0.11742 
0.103864 0.135236 0.117416 0.155776 0.133721 0.209714 0.181653 0.266651 0.0754021 
0.0660129 0.069732 0.0642647 0.0648001 0.0606879 0.0605647 0.0570931 0.0569137 0.0536189 
0.0536388 0.0501844 0.051385 0.0475725 0.0567866 0.0514009 0.0676898 0.0613156 0.079684 
0.0719094 0.0921517 0.0825338 0.103792 0.0920796 0.115029 0.101405 0.151215 0.132522 
0.22088 0.190442 0.268027 0.0605011 0.0549892 0.0551861 0.0514225 0.0526644 0.0471626 
0.0497691 0.0453404 0.046578 0.0427282 0.0429884 0.039382 0.0452082 0.0406242 0.0544072 
0.0482146 0.0639699 0.0570615 0.0733897 0.0654503 0.0818465 0.0727025 0.0885885 0.0783554 
0.11199 0.099174 0.160454 0.139922 0.222255 0.192267 0.259025 0.0561684 0.0573475 
0.0422428 0.0469886 0.0402738 0.035354 0.0385801 0.0335136 0.0358379 0.0316897 0.0342974 
0.0307532 0.0416881 0.0353613 0.0500825 0.043556 0.057877 0.050898 0.064585 0.0570117 
0.069231 0.0611135 0.0848839 0.0757595 0.119438 0.105148 0.162279 0.141795 0.217814 
0.187826 0.240737 0.0575094 0.0576712 0.0370847 0.0476055 0.0286617 0.0303924 0.0274557 
0.0226039 0.0251644 0.0209304 0.028879 0.0232903 0.0370362 0.030554 0.0442108 0.037691 
0.0501607 0.0434735 0.0543116 0.0474606 0.0655825 0.0587807 0.0907666 0.0805896 0.121311 
0.10693 0.160206 0.139722 0.205466 0.177846 0.21699 0.0576712 0.0576712 0.0377849 
0.0478506 0.023216 0.0306085 0.0170756 0.0176877 0.0166879 0.012833 0.0241906 0.0175882 
0.031452 0.0250885 0.0373346 0.0310956 0.042325 0.0361861 0.0514588 0.0463232 0.0703026 
0.0629807 0.0925485 0.0822615 0.120509 0.106128 0.153575 0.134363 0.187938 0.163667 
0.19142 0.0570061 0.0563411 0.03803 0.0471856 0.0237535 0.0311751 0.0125802 0.018646 
0.0118035 0.0115506 0.0190625 0.0132778 0.0255393 0.0195132 0.0328605 0.0273042 0.0411019 
0.0377763 0.0555726 0.0503513 0.0723153 0.0649072 0.0924621 0.0825159 0.117117 0.103451 
0.14308 0.125834 0.168197 0.147609 0.166354 0.0550366 0.0537321 0.037784 0.045635 
0.0245751 0.031184 0.0144336 0.0203627 0.0133816 0.0162646 0.0188651 0.0189689 0.0252591 
0.024611 0.0341978 0.0321528 0.0450746 0.0414962 0.0577734 0.0524967 0.0726562 0.0655224 
0.0909882 0.0811285 0.110857 0.0983937 0.130621 0.115644 0.148236 0.131248 0.143126 
0.0519629 0.0501937 0.0369014 0.0432292 0.0248301 0.0305474 0.0178596 0.022327 0.019319 
0.020914 0.0237011 0.0240512 0.0299295 0.0290196 0.0378804 0.035657 0.047405 0.0437892 
0.0583887 0.053297 0.0720371 0.0649034 0.0873773 0.0782859 0.102969 0.0919529 0.117541 
0.104867 0.129281 0.115574 0.122377 0.0481158 0.046038 0.0353336 0.0402202 0.0259729 
0.030759 0.0222756 0.0259215 0.0241527 0.0255142 0.0279491 0.0280505 0.0333896 0.0323192 
0.0402924 0.0380249 0.0484418 0.044945 0.0582802 0.0534251 0.0701491 0.0635259 0.0824543 
0.0743175 0.0943672 0.0848685 0.104725 0.094225 0.111997 0.101147 0.104302 0.0449604 
0.0438829 0.0350134 0.0397536 0.0290417 0.033296 0.0266671 0.0297872 0.0279561 0.0291089 
0.0311662 0.0310717 0.0358102 0.0346572 0.0416713 0.0394565 0.0486784 0.0454047 0.0575491 
0.0528025 0.0672074 0.0612306 0.0768454 0.0697354 0.085684 0.0776608 0.0927075 0.0841664 
0.0966684 0.0882284 0.0895097 0.0446703 0.0454577 0.0368086 0.0417252 0.0323485 0.0358611 
0.0300452 0.0326065 0.0308235 0.0317598 0.0334781 0.0332298 0.0373587 0.0361795 0.0422322 
0.0401343 0.048495 0.0453225 0.05596 0.0516526 0.063646 0.0583754 0.0710037 0.0649143 
0.0773328 0.0706757 0.0817751 0.0749416 0.0833399 0.0768866 0.0771701 0.0456807 0.0459038 
0.0386532 0.0426087 0.0346247 0.0374168 0.0324718 0.03449 0.0328601 0.0335722 0.0350118 
0.0346421 0.0381908 0.0370232 0.0423334 0.0403899 0.0478279 0.0448388 0.0538165 0.0499918 
0.0597893 0.0552304 0.065241 0.060116 0.0695617 0.064127 0.072044 0.0666642 0.0723275 
0.0674849 0.0670746 0.0459038 0.0459038 0.0395269 0.042822 0.0359927 0.0381028 0.0340534 
0.0355561 0.0341747 0.034656 0.0358898 0.0354224 0.0384469 0.0373135 0.0421625 0.0402194 
0.0466563 0.04398 0.0513527 0.0480172 0.0558705 0.0519928 0.0597593 0.0555139 0.0625005 
0.0581328 0.0635219 0.0593582 0.0635219 0.0595589 0.0587863 0.0456601 0.0454164 0.0397402 
0.0425783 0.0365787 0.0382161 0.0349016 0.0359242 0.0348744 0.03512 0.0362258 0.0356778 
0.0384473 0.0373596 0.0416204 0.0398483 0.0451521 0.0427925 0.0487434 0.0458783 0.0520497 
0.0488003 0.054679 0.0512149 0.0561984 0.0527446 0.0563991 0.0532393 0.056152 0.0529922 
0.05276 0.0447966 0.0441768 0.0395806 0.0417989 0.036692 0.0380565 0.0351564 0.0359242 
0.0350836 0.03512 0.0362719 0.0356778 0.0382497 0.037162 0.0407368 0.0391382 0.0434487 
0.0413931 0.0461148 0.0436853 0.0484309 0.0457454 0.0500621 0.0472781 0.0506525 0.0479699 
0.0506525 0.0480657 0.0498432 0.0475035 0.0477791 0.0432629 0.0423491 0.0389582 0.0404223 
0.0365069 0.0374087 0.0351274 0.0357102 0.0350613 0.0350687 0.0361233 0.0355067 0.037705 
0.0366663 0.0396179 0.0381847 0.0416477 0.0398725 0.043555 0.0415174 0.0450764 0.042886 
0.0459305 0.0437288 0.0460262 0.0439868 0.0458281 0.0437887 0.0444896 0.0428142 0.04343 
0.0412138 0.0400786 0.0377936 0.0385852 0.0358957 0.0362807 0.0348377 0.0350233 0.0348303 
0.0345993 0.0356745 0.0349981 0.0369026 0.0359109 0.0383486 0.0370665 0.0398246 0.0383006 
0.0411227 0.0394299 0.0420191 0.0402557 0.04228 0.0405702 0.04228 0.0405733 0.0416733 
0.0401647 0.0404964 0.0393555 0.0401688 0.0387853 0.037492 0.0362085 0.0364086 0.0348549 
0.0347827 0.0341327 0.0339643 0.0342678 0.0338012 0.0349609 0.0342307 0.0359179 0.0349679 
0.0369962 0.0358475 0.0380343 0.0367299 0.0388552 0.0374596 0.039271 0.0378704 0.039274 
0.0379748 0.0390904 0.0377911 0.0381283 0.0370539 0.0377886 0.0365614 0.0374506 0.036095 
0.0346981 0.0343111 0.0339976 0.0334843 0.0330127 0.0331541 0.0326741 0.0334515 0.0328045 
0.0340529 0.0332737 0.0348135 0.0338985 0.0356134 0.0345793 0.0363163 0.0351998 0.0367739 
0.0356305 0.0368782 0.0357817 0.0368309 0.0357343 0.0363321 0.0353719 0.0351317 0.0344099 
0.0355397 0.0341101 0.0349719 0.0332435 0.0317889 0.0321966 0.0314425 0.0319385 0.0311224 
0.0320374 0.0313018 0.0324498 0.0316828 0.0330113 0.0321874 0.0336413 0.0327542 0.0342411 
0.0333031 0.0346979 0.0337392 0.0348894 0.0339567 0.0348894 0.0339971 0.0346888 0.0338439 
0.033972 0.0332889 0.0326828 0.0322449 0.0334604 0.0320331 0.0327217 0.0303152 0.0288416 
0.0301387 0.0290114 0.0303964 0.0294126 0.0308106 0.0299051 0.0313226 0.0304504 0.0318881 
0.0310232 0.032444 0.0315778 0.032911 0.0320518 0.0331976 0.0323693 0.0332379 0.0324788 
0.0332046 0.0324455 0.0328301 0.0321909 0.0319755 0.0315168 0.0309105 0.0306412 0.0315525 
0.0304299 0.0306873 0.0276552 0.0261946 0.0282318 0.0268757 0.0288546 0.0276738 0.0294872 
0.0284367 0.0301214 0.0291582 0.0307268 0.0298249 0.0312559 0.0304049 0.0316469 0.0308511 
0.0318272 0.0311048 0.0318272 0.0311757 0.0317177 0.0310994 0.0312376 0.0307644 0.0303095 
0.0300303 0.0295763 0.0292446 0.0298145 0.0289609 0.0289877 0.0253156 0.0236202 0.0263289 
0.0247688 0.0272642 0.0259193 0.0281175 0.0269451 0.0288902 0.0278495 0.0295639 0.0286292 
0.030105 0.029264 0.0304669 0.0297209 0.0305936 0.0299557 0.0305936 0.0300116 0.0304234 
0.0299176 0.029893 0.029552 0.0289428 0.0288055 0.0283476 0.0280458 0.0283744 0.0277611 
0.0276303 0.0230437 0.0211417 0.0244404 0.0227153 0.0256724 0.0241936 0.0267444 0.0254718 
0.027666 0.0265609 0.0284294 0.0274662 0.0290131 0.0281784 0.0293839 0.0286761 0.0294999 
0.028928 0.0294999 0.0289882 0.0293143 0.0288966 0.0287785 0.0285408 0.0278468 0.0278198 
0.027336 0.027137 0.0272348 0.0268097 0.0264412 0.0208601 0.0187966 0.0226088 0.0207536 
0.0241191 0.0225343 0.0254038 0.0240512 0.0264794 0.0253223 0.0273474 0.0263605 0.0279969 
0.0271659 0.0284064 0.0277273 0.0285462 0.0280246 0.0285462 0.0281043 0.0283818 0.0280314 
0.0278765 0.0277175 0.027032 0.0270887 0.0265696 0.0264646 0.0262466 0.0260065 0.025397 
0.0188006 0.0166161 0.0208693 0.0189163 0.0226377 0.0209727 0.0241253 0.0227118 0.025355 
0.024158 0.0263367 0.0253311 0.0270687 0.0262395 0.0275397 0.0268812 0.0277303 0.0272454 
0.0277303 0.0273564 0.0276161 0.0273151 0.0271703 0.027069 0.0264499 0.0265315 0.0259428 
0.0259281 0.0253912 0.0253275 0.0245019 0.0168951 0.014627 0.0192518 0.0172306 0.0212556 
0.0195347 0.0229328 0.0214766 0.0243121 0.023087 0.0254111 0.0243922 0.0262365 0.0254081 
0.0267855 0.0261408 0.0270477 0.0265878 0.0270482 0.0267395 0.0270069 0.02674 0.0266439 
0.0265818 0.0260223 0.0261346 0.0254345 0.0255287 0.024677 0.024784 0.0237611 0.015169 
0.0177808 0.0199952 0.0218451 0.0233652 0.0245801 0.0255042 0.0261424 0.0264917 0.0265426 
0.0265426 0.0262815 0.0257456 0.0250588 0.0241132 0.0217083 0.0227427 0.023955 0.0253499 
0.0269359 0.0287251 0.0307333 0.0329797 0.0357357 0.0390782 0.0428708 0.0471796 0.0520769 
0.0576382 0.0639365 0.0710314 0.0789516 0.089255 0.104777 0.124586 0.148283 0.181463 
0.221102 0.267145 0.318406 0.371762 0.421577 0.457961 0.0198088 0.0210215 0.0224193 
0.0240142 0.0258228 0.0278675 0.0301766 0.0327852 0.0357357 0.0390782 0.0432669 0.0482818 
0.0540999 0.0608703 0.0687642 0.0779735 0.0887034 0.101157 0.115502 0.131814 0.153287 
0.183617 0.221102 0.280012 0.35217 0.436491 0.529109 0.619872 0.0175651 0.0189312 
0.0204821 0.0222356 0.0242158 0.0264538 0.0289892 0.031871 0.0351596 0.0389285 0.0432669 
0.0482818 0.0542123 0.061827 0.0708898 0.0817261 0.0947322 0.110384 0.129239 0.151922 
0.179083 0.211273 0.248713 0.30005 0.371799 0.465193 0.608059 0.772849 0.0149952 
0.0164816 0.018143 0.0200021 0.0220886 0.0244401 0.0271042 0.0301405 0.0336228 0.0376431 
0.0423152 0.0477801 0.0542123 0.061827 0.0708898 0.0817261 0.0954733 0.113086 0.134976 
0.162353 0.196776 0.240212 0.295041 0.363892 0.449136 0.551422 0.703656 0.898714 
0.0121298 0.013696 0.0154177 0.0173206 0.0194376 0.0218096 0.0244882 0.0275381 0.0310402 
0.0350961 0.0398336 0.0454141 0.0520421 0.0599781 0.0695553 0.0812024 0.0954733 0.113086 
0.134976 0.162353 0.196776 0.24507 0.310523 0.398885 0.519472 0.684829 0.910754 
1.2109 0.00901167 0.0106121 0.0123392 0.0142194 0.0162856 0.0185787 0.0211493 0.0240609 
0.0273931 0.0312462 0.0357477 0.0410601 0.0473921 0.0550145 0.0642807 0.075658 0.08977 
0.10746 0.129881 0.158634 0.195965 0.24507 0.310523 0.398885 0.519472 0.684829 
0.965891 1.4254 0.00569521 0.00728197 0.00895808 0.0107486 0.0126836 0.0147997 0.0171415 
0.0197649 0.0227393 0.0261523 0.0301149 0.0347691 0.0402977 0.0469392 0.0550074 0.0649207 
0.077245 0.0927581 0.112548 0.138167 0.17188 0.217078 0.278971 0.365816 0.491147 
0.67782 0.965891 1.4254 0.00569521 0.00728197 0.00895808 0.0107486 0.0126836 0.0147997 
0.0171415 0.0197649 0.0227393 0.0261523 0.0301149 0.0347691 0.0402977 0.0469392 0.0550074 
0.0649207 0.077245 0.0927581 0.112548 0.138167 0.17188 0.217078 0.278971 0.365816 
0.491147 0.67782 0.965891 1.4254 0.00901167 0.0106121 0.0123392 0.0142194 0.0162856 
0.0185787 0.0211493 0.0240609 0.0273931 0.0312462 0.0357477 0.0410601 0.0473921 0.0550145 
0.0642807 0.075658 0.08977 0.10746 0.129881 0.158634 0.195965 0.24507 0.310523 
0.398885 0.519472 0.684829 0.965891 1.4254 0.0121298 0.013696 0.0154177 0.0173206 
0.0194376 0.0218096 0.0244882 0.0275381 0.0310402 0.0350961 0.0398336 0.0454141 0.0520421 
0.0599781 0.0695553 0.0812024 0.0954733 0.113086 0.134976 0.162353 0.196776 0.24507 
0.310523 0.398885 0.519472 0.684829 0.910754 1.2109 0.0149952 0.0164816 0.018143 
0.0200021 0.0220886 0.0244401 0.0271042 0.0301405 0.0336228 0.0376431 0.0423152 0.0477801 
0.0542123 0.061827 0.0708898 0.0817261 0.0954733 0.113086 0.134976 0.162353 0.196776 
0.240212 0.295041 0.363892 0.449136 0.551422 0.703656 0.898714 0.0175651 0.0189312 
0.0204821 0.0222356 0.0242158 0.0264538 0.0289892 0.031871 0.0351596 0.0389285 0.0432669 
0.0482818 0.0542123 0.061827 0.0708898 0.0817261 0.0947322 0.110384 0.129239 0.151922 
0.179083 0.211273 0.248713 0.30005 0.371799 0.465193 0.608059 0.772849 0.0198088 
0.0210215 0.0224193 0.0240142 0.0258228 0.0278675 0.0301766 0.0327852 0.0357357 0.0390782 
0.0432669 0.0482818 0.0540999 0.0608703 0.0687642 0.0779735 0.0887034 0.101157 0.115502 
0.131814 0.153287 0.183617 0.221102 0.280012 0.35217 0.436491 0.529109 0.619872 
0.0217083 0.0227427 0.023955 0.0253499 0.0269359 0.0287251 0.0307333 0.0329797 0.0357357 
0.0390782 0.0428708 0.0471796 0.0520769 0.0576382 0.0639365 0.0710314 0.0789516 0.089255 
0.104777 0.124586 0.148283 0.181463 0.221102 0.267145 0.318406 0.371762 0.421577 
0.457961 0.0224371 0.0212794 0.0233744 0.0222255 0.0244822 0.0233489 0.0257619 0.0246524 
0.0272177 0.0261429 0.0288564 0.0278305 0.0307333 0.0297292 0.0329797 0.0318565 0.0356112 
0.0343577 0.0386786 0.0374069 0.0421267 0.0409745 0.0460008 0.0450252 0.0503469 0.0496282 
0.0552066 0.0548575 0.0609751 0.0607873 0.0688478 0.067484 0.0780609 0.0749915 0.0893824 
0.0841033 0.104777 0.0970159 0.124586 0.114681 0.14807 0.136435 0.178047 0.164873 
0.212813 0.201283 0.251782 0.244124 0.293253 0.292776 0.333779 0.345084 0.367687 
0.39667 0.38588 0.439769 0.457961 0.0207586 0.0192917 0.0218821 0.0204151 0.0231872 
0.0217204 0.024682 0.0232168 0.0263793 0.0249185 0.0282963 0.0268451 0.030455 0.029022 
0.0328825 0.0314809 0.0357357 0.0342605 0.0390782 0.0374069 0.0430689 0.0411725 0.0477307 
0.0457743 0.0530884 0.0511908 0.0592543 0.0574851 0.0663504 0.0648173 0.0745025 0.0733689 
0.0838275 0.0833384 0.0952059 0.0949301 0.110139 0.108329 0.1282 0.123658 0.150785 
0.142551 0.18254 0.168452 0.221102 0.20236 0.273578 0.250557 0.335288 0.316091 
0.404127 0.394331 0.475343 0.4828 0.538916 0.57449 0.619872 0.0186869 0.0169681 
0.0199763 0.0182481 0.0214507 0.0197067 0.0231249 0.0213588 0.0250193 0.0232257 0.0271607 
0.0253348 0.0295829 0.0277215 0.0323281 0.0304301 0.0354476 0.0335153 0.0390033 0.037044 
0.0432669 0.0410977 0.0482818 0.0457743 0.0541561 0.051247 0.0613487 0.0580196 0.069827 
0.0663584 0.0798498 0.0763079 0.0917178 0.0882291 0.10577 0.102558 0.12237 0.119811 
0.141868 0.140581 0.166185 0.165503 0.197445 0.195178 0.234908 0.229993 0.290031 
0.274381 0.361985 0.335924 0.450842 0.418496 0.568584 0.536626 0.69636 0.690454 
0.776025 0.0162801 0.014331 0.0177064 0.0157384 0.0193126 0.0173123 0.0211188 0.0190726 
0.0231522 0.0210453 0.025447 0.0232643 0.0280467 0.0257722 0.0310058 0.0286224 0.0343912 
0.0318816 0.0382858 0.0356329 0.0427911 0.0399791 0.0480309 0.0450477 0.0542123 0.0509962 
0.061827 0.0580196 0.0708898 0.0663584 0.0817261 0.0763079 0.0951028 0.0885997 0.111735 
0.10428 0.132107 0.124031 0.157137 0.148664 0.187929 0.179564 0.225742 0.218494 
0.271877 0.267627 0.331971 0.329467 0.410468 0.406514 0.508308 0.500279 0.655857 
0.627539 0.835781 0.801185 1.04377 0.0135625 0.0114143 0.0150888 0.0129129 0.0167803 
0.0145568 0.0186614 0.0163692 0.0207631 0.0183791 0.0231248 0.0206236 0.0257962 0.0231489 
0.0288393 0.0260132 0.0323315 0.0292892 0.0363696 0.0330682 0.0410744 0.0374648 0.0465971 
0.0426238 0.0531272 0.0487281 0.0609025 0.0560101 0.0702225 0.0647667 0.0814643 0.0753789 
0.0954733 0.0883379 0.113086 0.10428 0.134976 0.124031 0.162353 0.148664 0.196776 
0.179564 0.242641 0.220923 0.302782 0.277797 0.381388 0.354704 0.484304 0.459179 
0.618126 0.602151 0.807205 0.797792 1.05481 1.06083 1.39907 0.0105707 0.00826388 
0.0121541 0.00981191 0.0138784 0.0114757 0.01577 0.0132793 0.0178616 0.0152525 0.0201942 
0.0174322 0.0228188 0.019864 0.0257995 0.0226051 0.0292166 0.025727 0.0331711 0.0293196 
0.0377906 0.0334969 0.0432371 0.0384039 0.0497171 0.0442261 0.0574963 0.0512033 0.066918 
0.0596476 0.0784302 0.0699694 0.0926217 0.082714 0.110273 0.0986149 0.132428 0.11867 
0.160493 0.144257 0.196371 0.1773 0.24507 0.220518 0.310523 0.277797 0.398885 
0.354704 0.519472 0.459179 0.684829 0.602151 0.938323 0.82536 1.31815 1.19565 
1.54366 0.00735344 0.00493582 0.00894706 0.00648859 0.0106486 0.00812003 0.012484 0.00985335 
0.0144846 0.0117161 0.0166892 0.0137417 0.0191454 0.0159706 0.0219129 0.0184532 0.0250662 
0.0212521 0.0286993 0.0244458 0.0329313 0.0281336 0.0379146 0.032442 0.0438449 0.0375334 
0.0509769 0.0436185 0.0596441 0.0509733 0.0702894 0.059964 0.0835075 0.0710828 0.100109 
0.0850015 0.121214 0.102653 0.1484 0.125357 0.183923 0.155023 0.231074 0.194479 
0.294747 0.248024 0.38235 0.322393 0.505309 0.428481 0.681325 0.584483 0.965891 
0.821856 1.4254 1.19565 1.54366 0.00569521 0.00493582 0.00728197 0.00648859 0.00895808 
0.00812003 0.0107486 0.00985335 0.0126836 0.0117161 0.0147997 0.0137417 0.0171415 0.0159706 
0.0197649 0.0184532 0.0227393 0.0212521 0.0261523 0.0244458 0.0301149 0.0281336 0.0347691 
0.032442 0.0402977 0.0375334 0.0469392 0.0436185 0.0550074 0.0509733 0.0649207 0.059964 
0.077245 0.0710828 0.0927581 0.0850015 0.112548 0.102653 0.138167 0.125357 0.17188 
0.155023 0.217078 0.194479 0.278971 0.248024 0.365816 0.322393 0.491147 0.428481 
0.67782 0.584483 0.965891 0.821856 1.4254 1.19565 1.54366 0.00735344 0.00826388 
0.00894706 0.00981191 0.0106486 0.0114757 0.012484 0.0132793 0.0144846 0.0152525 0.0166892 
0.0174322 0.0191454 0.019864 0.0219129 0.0226051 0.0250662 0.025727 0.0286993 0.0293196 
0.0329313 0.0334969 0.0379146 0.0384039 0.0438449 0.0442261 0.0509769 0.0512033 0.0596441 
0.0596476 0.0702894 0.0699694 0.0835075 0.082714 0.100109 0.0986149 0.121214 0.11867 
0.1484 0.144257 0.183923 0.1773 0.231074 0.220518 0.294747 0.277797 0.38235 
0.354704 0.505309 0.459179 0.681325 0.602151 0.965891 0.82536 1.4254 1.19565 
1.54366 0.0105707 0.0114143 0.0121541 0.0129129 0.0138784 0.0145568 0.01577 0.0163692 
0.0178616 0.0183791 0.0201942 0.0206236 0.0228188 0.0231489 0.0257995 0.0260132 0.0292166 
0.0292892 0.0331711 0.0330682 0.0377906 0.0374648 0.0432371 0.0426238 0.0497171 0.0487281 
0.0574963 0.0560101 0.066918 0.0647667 0.0784302 0.0753789 0.0926217 0.0883379 0.110273 
0.10428 0.132428 0.124031 0.160493 0.148664 0.196371 0.179564 0.24507 0.220923 
0.310523 0.277797 0.398885 0.354704 0.519472 0.459179 0.684829 0.602151 0.938323 
0.797792 1.31815 1.06083 1.39907 0.0135625 0.014331 0.0150888 0.0157384 0.0167803 
0.0173123 0.0186614 0.0190726 0.0207631 0.0210453 0.0231248 0.0232643 0.0257962 0.0257722 
0.0288393 0.0286224 0.0323315 0.0318816 0.0363696 0.0356329 0.0410744 0.0399791 0.0465971 
0.0450477 0.0531272 0.0509962 0.0609025 0.0580196 0.0702225 0.0663584 0.0814643 0.0763079 
0.0954733 0.0885997 0.113086 0.10428 0.134976 0.124031 0.162353 0.148664 0.196776 
0.179564 0.242641 0.218494 0.302782 0.267627 0.381388 0.329467 0.484304 0.406514 
0.618126 0.500279 0.807205 0.627539 1.05481 0.801185 1.04377 0.0162801 0.0169681 
0.0177064 0.0182481 0.0193126 0.0197067 0.0211188 0.0213588 0.0231522 0.0232257 0.025447 
0.0253348 0.0280467 0.0277215 0.0310058 0.0304301 0.0343912 0.0335153 0.0382858 0.037044 
0.0427911 0.0410977 0.0480309 0.0457743 0.0542123 0.051247 0.061827 0.0580196 0.0708898 
0.0663584 0.0817261 0.0763079 0.0951028 0.0882291 0.111735 0.102558 0.132107 0.119811 
0.157137 0.140581 0.187929 0.165503 0.225742 0.195178 0.271877 0.229993 0.331971 
0.274381 0.410468 0.335924 0.508308 0.418496 0.655857 0.536626 0.835781 0.690454 
0.776025 0.0186869 0.0192917 0.0199763 0.0204151 0.0214507 0.0217204 0.0231249 0.0232168 
0.0250193 0.0249185 0.0271607 0.0268451 0.0295829 0.029022 0.0323281 0.0314809 0.0354476 
0.0342605 0.0390033 0.0374069 0.0432669 0.0411725 0.0482818 0.0457743 0.0541561 0.0511908 
0.0613487 0.0574851 0.069827 0.0648173 0.0798498 0.0733689 0.0917178 0.0833384 0.10577 
0.0949301 0.12237 0.108329 0.141868 0.123658 0.166185 0.142551 0.197445 0.168452 
0.234908 0.20236 0.290031 0.250557 0.361985 0.316091 0.450842 0.394331 0.568584 
0.4828 0.69636 0.57449 0.619872 0.0207586 0.0212794 0.0218821 0.0222255 0.0231872 
0.0233489 0.024682 0.0246524 0.0263793 0.0261429 0.0282963 0.0278305 0.030455 0.0297292 
0.0328825 0.0318565 0.0357357 0.0343577 0.0390782 0.0374069 0.0430689 0.0409745 0.0477307 
0.0450252 0.0530884 0.0496282 0.0592543 0.0548575 0.0663504 0.0607873 0.0745025 0.067484 
0.0838275 0.0749915 0.0952059 0.0841033 0.110139 0.0970159 0.1282 0.114681 0.150785 
0.136435 0.18254 0.164873 0.221102 0.201283 0.273578 0.244124 0.335288 0.292776 
0.404127 0.345084 0.475343 0.39667 0.538916 0.439769 0.457961 0.0224371 0.0233744 
0.0244822 0.0257619 0.0272177 0.0288564 0.0307333 0.0329797 0.0356112 0.0386786 0.0421267 
0.0460008 0.0503469 0.0552066 0.0609751 0.0688478 0.0780609 0.0893824 0.104777 0.124586 
0.14807 0.178047 0.212813 0.251782 0.293253 0.333779 0.367687 0.38588 0.0243563 
0.0249978 0.0257847 0.0267086 0.0277611 0.0289877 0.0306414 0.0324636 0.0344571 0.0366223 
0.038955 0.0420379 0.0469413 0.0527451 0.0595589 0.0674849 0.0771701 0.0895097 0.103827 
0.120167 0.138396 0.158077 0.178317 0.19756 0.213373 0.222255 0.222255 0.219505 
0.0252117 0.0256572 0.0262284 0.0269109 0.0277611 0.0289342 0.0302184 0.0316026 0.033763 
0.0365005 0.039756 0.0435905 0.0480657 0.0532393 0.0595589 0.0674849 0.0766031 0.0869471 
0.0984678 0.110982 0.124101 0.137141 0.149018 0.158132 0.162279 0.162279 0.158628 
0.143801 0.0258456 0.0261989 0.0267009 0.0273631 0.0283305 0.029555 0.0310639 0.0328871 
0.0350569 0.0376074 0.0405733 0.0439868 0.0480657 0.0532393 0.0591575 0.0658434 0.07328 
0.0813857 0.0899822 0.0987521 0.107187 0.114527 0.119708 0.121311 0.121311 0.117565 
0.106416 0.123642 0.0264236 0.0268641 0.0274765 0.0282765 0.0292805 0.0305056 0.0319696 
0.0336907 0.035687 0.0379748 0.0405733 0.0439868 0.0478742 0.0522499 0.0571081 0.0624106 
0.0680715 0.073936 0.0797548 0.0851538 0.0896008 0.0923756 0.0925485 0.0925485 0.0889846 
0.0807832 0.0963938 0.11119 0.02674 0.0272738 0.0279585 0.028805 0.0298235 0.0310232 
0.0324122 0.0339971 0.0357817 0.0379748 0.0405672 0.0434709 0.0466819 0.0501798 0.0539196 
0.0578214 0.0617572 0.0655348 0.0688801 0.0714181 0.0726562 0.0726562 0.0719745 0.0686307 
0.0625344 0.0759275 0.0877654 0.0965379 0.02674 0.0273564 0.0281043 0.0289882 0.0300116 
0.0311757 0.0324788 0.0339971 0.0357817 0.0377661 0.0399443 0.0423012 0.0448088 0.0474208 
0.050066 0.0526395 0.0549936 0.0569265 0.0581717 0.0583887 0.0583887 0.0571582 0.053987 
0.0489306 0.0596926 0.0694774 0.0773021 0.0820658 0.026739 0.0273564 0.0281043 0.0289882 
0.0300116 0.0311757 0.0324788 0.0339164 0.0354794 0.0371532 0.0389154 0.0407337 0.0425618 
0.0443357 0.0459684 0.0473442 0.0483117 0.0486784 0.0486784 0.0482053 0.0466048 0.0435445 
0.0386594 0.0459906 0.0543308 0.0614232 0.0665166 0.068863 0.0264366 0.0271345 0.027945 
0.0288679 0.0298998 0.031034 0.0322599 0.0335621 0.0349201 0.0363066 0.0376858 0.0390114 
0.0402243 0.0412493 0.0419915 0.0423334 0.0423334 0.042131 0.0412116 0.0393732 0.0363875 
0.0320081 0.0337129 0.0409564 0.0474652 0.0526998 0.0561145 0.0574587 0.0258451 0.0266279 
0.0275096 0.0284843 0.0295419 0.0306681 0.0318438 0.0330442 0.0342385 0.0353885 0.0364473 
0.037358 0.0380521 0.0384473 0.0384473 0.0384464 0.0379352 0.0367821 0.0348383 0.0319409 
0.0279181 0.0226002 0.0284783 0.0344256 0.0396469 0.0437293 0.0466872 0.0560829 0.0249711 
0.0258511 0.0268222 0.0278726 0.0289862 0.0301416 0.0313119 0.0324642 0.0335585 0.0345473 
0.0353745 0.0359746 0.0362719 0.0362719 0.0361796 0.0355999 0.0344237 0.0325324 0.0298 
0.0260982 0.021304 0.0164262 0.0216987 0.0266824 0.0310757 0.0375191 0.0484578 0.0588198 
0.0238132 0.0248111 0.0258989 0.0270599 0.0282722 0.0295082 0.0307345 0.0319106 0.032989 
0.033914 0.0346217 0.0350389 0.0350836 0.0350836 0.0346651 0.0336843 0.032036 0.029611 
0.0263011 0.0220042 0.0166338 0.0101294 0.0134776 0.0198981 0.0304307 0.041245 0.051911 
0.0619164 0.0223607 0.0235048 0.0247457 0.0260619 0.0274269 0.0288081 0.0301662 0.0314549 
0.0326199 0.0336883 0.034577 0.0350985 0.0351564 0.0351564 0.0346468 0.03346 0.0314835 
0.0286068 0.0247273 0.0198239 0.0158953 0.0129719 0.0121885 0.0219627 0.0329488 0.0442114 
0.0553267 0.0658027 0.0205925 0.0219187 0.0233567 0.0248816 0.0264633 0.0280652 0.029644 
0.0311487 0.0327283 0.0342402 0.0354696 0.0363219 0.036692 0.036692 0.0364654 0.03552 
0.0337294 0.0309677 0.0271157 0.0248301 0.0248301 0.0243201 0.0231869 0.0232451 0.0340784 
0.0464693 0.0588595 0.0707407 0.0184769 0.0200267 0.0217119 0.0235056 0.0253753 0.0272824 
0.0291812 0.0310961 0.033297 0.0353251 0.0370918 0.0384955 0.0394209 0.0397402 0.0397402 
0.0393136 0.0379927 0.0356244 0.0344024 0.0362648 0.037538 0.03803 0.03803 0.0375397 
0.0366297 0.0478559 0.0625164 0.0769476 0.0159843 0.017806 0.0197953 0.021925 0.0241624 
0.0264689 0.0288416 0.0317889 0.0346981 0.037492 0.0400786 0.0423491 0.0441768 0.0454164 
0.0459038 0.0459038 0.0454577 0.0438829 0.046038 0.0501937 0.0537321 0.0563411 0.0576712 
0.0576712 0.0573475 0.0549892 0.0660129 0.0847913 0.0237611 0.0241132 0.0245019 0.024677 
0.025397 0.0253912 0.0264412 0.0262466 0.0276303 0.0272348 0.0289877 0.0283744 0.0306873 
0.0298145 0.0327217 0.0315525 0.0349719 0.0334604 0.0374506 0.0355397 0.0401688 0.0377886 
0.04343 0.0404964 0.0477791 0.0444896 0.05276 0.0498432 0.0587863 0.056152 0.0670746 
0.0635219 0.0771701 0.0723275 0.0895097 0.0833399 0.104302 0.0966684 0.122377 0.111997 
0.143126 0.129281 0.166354 0.148236 0.19142 0.168197 0.21699 0.187938 0.240737 
0.205466 0.259025 0.217814 0.268027 0.222255 0.266651 0.22088 0.209714 0.024784 
0.0250588 0.0253275 0.0254345 0.0260065 0.0259428 0.0268097 0.0265696 0.0277611 0.027336 
0.0289609 0.0283476 0.0304299 0.0295763 0.0320331 0.0309105 0.0341101 0.0326828 0.0365614 
0.0351317 0.0393555 0.0381283 0.0428142 0.0416733 0.0475035 0.0458281 0.0529922 0.0506525 
0.0595589 0.0563991 0.0674849 0.0635219 0.0768866 0.072044 0.0882284 0.0817751 0.101147 
0.0927075 0.115574 0.104725 0.131248 0.117541 0.147609 0.130621 0.163667 0.14308 
0.177846 0.153575 0.187826 0.160206 0.192267 0.162279 0.190442 0.160454 0.181653 
0.151215 0.155776 0.0255287 0.0257456 0.0259281 0.0260223 0.0264646 0.0264499 0.027137 
0.027032 0.0280458 0.0278468 0.0292446 0.0289428 0.0306412 0.0303095 0.0322449 0.0319755 
0.0344099 0.033972 0.0370539 0.0363321 0.0401647 0.0390904 0.0437887 0.04228 0.0480657 
0.0460262 0.0532393 0.0506525 0.0593582 0.0561984 0.0666642 0.0625005 0.0749416 0.0695617 
0.0841664 0.0773328 0.094225 0.085684 0.104867 0.0943672 0.115644 0.102969 0.125834 
0.110857 0.134363 0.117117 0.139722 0.120509 0.141795 0.121311 0.139922 0.119438 
0.132522 0.11199 0.133721 0.115029 0.135236 0.0261346 0.0262815 0.0265315 0.0266439 
0.0270887 0.0271703 0.0278198 0.0278765 0.0288055 0.0287785 0.0300303 0.029893 0.0315168 
0.0312376 0.0332889 0.0328301 0.0353719 0.0346888 0.0377911 0.0368309 0.0405733 0.039274 
0.0439868 0.04228 0.0479699 0.0459305 0.0527446 0.0500621 0.0581328 0.054679 0.064127 
0.0597593 0.0706757 0.065241 0.0776608 0.0710037 0.0848685 0.0768454 0.0919529 0.0824543 
0.0983937 0.0873773 0.103451 0.0909882 0.106128 0.0924621 0.10693 0.0925485 0.105148 
0.0907666 0.099174 0.0848839 0.101405 0.0885885 0.117416 0.103792 0.11742 0.0265818 
0.0265426 0.027069 0.0270069 0.0277175 0.0276161 0.0285408 0.0283818 0.029552 0.0293143 
0.0307644 0.0304234 0.0321909 0.0317177 0.0338439 0.0332046 0.0357343 0.0348894 0.0379748 
0.0368782 0.0405702 0.039271 0.0437288 0.0420191 0.0472781 0.0450764 0.0512149 0.0484309 
0.0555139 0.0520497 0.060116 0.0558705 0.0649143 0.0597893 0.0697354 0.063646 0.0743175 
0.0672074 0.0782859 0.0701491 0.0811285 0.0720371 0.0825159 0.0726562 0.0822615 0.0723153 
0.0805896 0.0703026 0.0757595 0.0655825 0.0783554 0.069231 0.0920796 0.0818465 0.103864 
0.0921517 0.0992713 0.02674 0.0265426 0.0273151 0.0270482 0.0280314 0.0277303 0.0288966 
0.0285462 0.0299176 0.0294999 0.0310994 0.0305936 0.0324455 0.0318272 0.0339971 0.0332379 
0.0357817 0.0348894 0.0378704 0.0367739 0.0402557 0.0388552 0.042886 0.0411227 0.0457454 
0.043555 0.0488003 0.0461148 0.0519928 0.0487434 0.0552304 0.0513527 0.0583754 0.0538165 
0.0612306 0.05596 0.0635259 0.0575491 0.0649034 0.0582802 0.0655224 0.0583887 0.0649072 
0.0577734 0.0629807 0.0555726 0.0587807 0.0514588 0.0611135 0.0543116 0.0727025 0.064585 
0.0825338 0.0733897 0.0893019 0.079684 0.0827177 0.0267395 0.0264917 0.0273564 0.0270477 
0.0281043 0.0277303 0.0289882 0.0285462 0.0300116 0.0294999 0.0311757 0.0305936 0.0324788 
0.0318272 0.0339567 0.0331976 0.0356305 0.0346979 0.0374596 0.0363163 0.0394299 0.0380343 
0.0415174 0.0398246 0.0436853 0.0416477 0.0458783 0.0434487 0.0480172 0.0451521 0.0499918 
0.0466563 0.0516526 0.0478279 0.0528025 0.048495 0.0534251 0.0486784 0.053297 0.0484418 
0.0524967 0.047405 0.0503513 0.0450746 0.0463232 0.0411019 0.0474606 0.042325 0.0570117 
0.0501607 0.0654503 0.057877 0.0719094 0.0639699 0.0754644 0.0676898 0.069139 0.0265878 
0.0261424 0.0272454 0.0267855 0.0280246 0.0275397 0.028928 0.0284064 0.0299557 0.0293839 
0.0311048 0.0304669 0.0323693 0.0316469 0.0337392 0.032911 0.0351998 0.0342411 0.0367299 
0.0356134 0.0383006 0.0369962 0.0398725 0.0383486 0.0413931 0.0396179 0.0427925 0.0407368 
0.04398 0.0416204 0.0448388 0.0421625 0.0453225 0.0423334 0.0454047 0.0422322 0.044945 
0.0416713 0.0437892 0.0402924 0.0414962 0.0378804 0.0377763 0.0341978 0.0361861 0.0328605 
0.0434735 0.0373346 0.050898 0.0442108 0.0570615 0.0500825 0.0613156 0.0544072 0.0631609 
0.0567866 0.061904 0.0261408 0.0255042 0.0268812 0.0262365 0.0277273 0.0270687 0.0286761 
0.0279969 0.0297209 0.0290131 0.0308511 0.030105 0.0320518 0.0312559 0.0333031 0.032444 
0.0345793 0.0336413 0.0358475 0.0348135 0.0370665 0.0359179 0.0381847 0.0369026 0.0391382 
0.037705 0.0398483 0.0382497 0.0402194 0.0384473 0.0403899 0.0384469 0.0401343 0.0381908 
0.0394565 0.0373587 0.0380249 0.0358102 0.035657 0.0333896 0.0321528 0.0299295 0.0273042 
0.0252591 0.0310956 0.0255393 0.037691 0.031452 0.043556 0.0370362 0.0482146 0.0416881 
0.0514009 0.0452082 0.0567708 0.051385 0.0617305 0.0254081 0.0245801 0.0262395 0.0254111 
0.0271659 0.0263367 0.0281784 0.0273474 0.029264 0.0284294 0.0304049 0.0295639 0.0315778 
0.0307268 0.0327542 0.0318881 0.0338985 0.0330113 0.0349679 0.0340529 0.0359109 0.0349609 
0.0366663 0.0356745 0.037162 0.0361233 0.0373596 0.0362719 0.0373135 0.0362258 0.0370232 
0.0358898 0.0361795 0.0350118 0.0346572 0.0334781 0.0323192 0.0311662 0.0290196 0.0279491 
0.024611 0.0237011 0.0195132 0.0188651 0.0250885 0.0190625 0.030554 0.0241906 0.0353613 
0.028879 0.0406242 0.0342974 0.0475725 0.0429884 0.0574513 0.0536388 0.0639507 0.0243922 
0.0233652 0.0253311 0.0243121 0.0263605 0.025355 0.0274662 0.0264794 0.0286292 0.027666 
0.0298249 0.0288902 0.0310232 0.0301214 0.0321874 0.0313226 0.0332737 0.0324498 0.0342307 
0.0334515 0.0349981 0.0342678 0.0355067 0.0348303 0.0356778 0.0350613 0.0356778 0.0350836 
0.0354224 0.0348744 0.0346421 0.0341747 0.0332298 0.0328601 0.0310717 0.0308235 0.0280505 
0.0279561 0.0240512 0.0241527 0.0189689 0.019319 0.0132778 0.0133816 0.0175882 0.0118035 
0.0232903 0.0166879 0.0307532 0.0251644 0.039382 0.0358379 0.0501844 0.046578 0.0603681 
0.0569137 0.0669824 0.023087 0.0218451 0.024158 0.0229328 0.0253223 0.0241253 0.0265609 
0.0254038 0.0278495 0.0267444 0.0291582 0.0281175 0.0304504 0.0294872 0.0316828 0.0308106 
0.0328045 0.0320374 0.0338012 0.0331541 0.0345993 0.0341327 0.0350687 0.0348377 0.03512 
0.0351274 0.03512 0.0351564 0.034656 0.0349016 0.0335722 0.0340534 0.0317598 0.0324718 
0.0291089 0.0300452 0.0255142 0.0266671 0.020914 0.0222756 0.0162646 0.0178596 0.0115506 
0.0144336 0.012833 0.0125802 0.0209304 0.0170756 0.0316897 0.0274557 0.0427282 0.0385801 
0.0536189 0.0497691 0.0638596 0.0605647 0.0712805 0.0214766 0.0199952 0.0227118 0.0212556 
0.0240512 0.0226377 0.0254718 0.0241191 0.0269451 0.0256724 0.0284367 0.0272642 0.0299051 
0.0288546 0.0313018 0.0303964 0.0326741 0.0319385 0.0339643 0.0334843 0.0350233 0.0348549 
0.0357102 0.0358957 0.0359242 0.0365069 0.0359242 0.036692 0.0355561 0.0365787 0.03449 
0.0359927 0.0326065 0.0346247 0.0297872 0.0323485 0.0259215 0.0290417 0.022327 0.0259729 
0.0203627 0.0248301 0.018646 0.0245751 0.0176877 0.0237535 0.0226039 0.023216 0.0335136 
0.0286617 0.0453404 0.0402738 0.0570931 0.0526644 0.0682717 0.0648001 0.0771766 0.0195347 
0.0177808 0.0209727 0.0192518 0.0225343 0.0208693 0.0241936 0.0226088 0.0259193 0.0244404 
0.0276738 0.0263289 0.0294126 0.0282318 0.0311224 0.0301387 0.0330127 0.0321966 0.0347827 
0.0343111 0.0362807 0.0362085 0.0374087 0.0377936 0.0380565 0.0389582 0.0382161 0.0395806 
0.0381028 0.0397402 0.0374168 0.0395269 0.0358611 0.0386532 0.033296 0.0368086 0.030759 
0.0350134 0.0305474 0.0353336 0.031184 0.0369014 0.0311751 0.037784 0.0306085 0.03803 
0.0303924 0.0377849 0.035354 0.0370847 0.0471626 0.0422428 0.0606879 0.0551861 0.0738441 
0.069732 0.0850342 0.0172306 0.015169 0.0189163 0.0168951 0.0207536 0.0188006 0.0227153 
0.0208601 0.0247688 0.0230437 0.0268757 0.0253156 0.0290114 0.0276552 0.0314425 0.0303152 
0.0339976 0.0332435 0.0364086 0.036095 0.0385852 0.0387853 0.0404223 0.0412138 0.0417989 
0.0432629 0.0425783 0.0447966 0.042822 0.0456601 0.0426087 0.0459038 0.0417252 0.0456807 
0.0397536 0.0446703 0.0402202 0.0449604 0.0432292 0.0481158 0.045635 0.0519629 0.0471856 
0.0550366 0.0478506 0.0570061 0.0476055 0.0576712 0.0469886 0.0575094 0.0514225 0.0561684 
0.0642647 0.0605011 0.0808695 0.0754021 0.0956322 0.014627 0.0166161 0.0187966 0.0211417 
0.0236202 0.0261946 0.0288416 0.0317889 0.0346981 0.037492 0.0400786 0.0423491 0.0441768 
0.0454164 0.0459038 0.0459038 0.0454577 0.0438829 0.046038 0.0501937 0.0537321 0.0563411 
0.0576712 0.0576712 0.0573475 0.0549892 0.0660129 0.0847913 0.124144 0.105653 0.0932296 
0.0847505 0.0794302 0.0767625 0.077518 0.0798769 0.082473 0.0844401 0.102005 0.125196 
0.157296 0.192931 0.226445 0.139037 0.115653 0.100453 0.0903493 0.0842789 0.0820054 
0.0850695 0.0905423 0.0980002 0.106634 0.11482 0.125196 0.157296 0.20372 0.260856 
0.150095 0.12249 0.104874 0.0932356 0.0862629 0.0838542 0.0878887 0.0954034 0.106517 
0.121262 0.139257 0.158999 0.176627 0.20372 0.271268 0.156444 0.125739 0.106304 
0.0933508 0.0862629 0.0838542 0.0878887 0.0954034 0.106517 0.124098 0.148671 0.180501 
0.21925 0.260637 0.293052 0.157528 0.125739 0.106304 0.0933508 0.0853729 0.0816566 
0.0855105 0.0934399 0.106021 0.124098 0.148671 0.180501 0.226458 0.294001 0.378812 
0.157528 0.125241 0.104817 0.0909324 0.0819748 0.0771132 0.0784644 0.0850155 0.0963833 
0.113871 0.139445 0.17583 0.226458 0.294001 0.378812 0.1532 0.121135 0.100745 
0.0864943 0.0767841 0.0707644 0.0683944 0.0722204 0.0801545 0.093441 0.114162 0.14569 
0.193436 0.26557 0.375148 0.143776 0.113846 0.0946299 0.0807412 0.0707395 0.0638281 
0.0643457 0.0697368 0.0789626 0.0932575 0.114701 0.146677 0.194643 0.26691 0.376803 
0.140087 0.110337 0.0925746 0.0812208 0.0746219 0.0726718 0.076872 0.0848657 0.0974405 
0.115919 0.142308 0.179406 0.23078 0.299333 0.385741 0.142707 0.114256 0.097351 
0.0868217 0.0810977 0.0812433 0.0866883 0.0959954 0.10977 0.128902 0.154464 0.187325 
0.23078 0.299333 0.385741 0.142707 0.114504 0.0993326 0.0900427 0.0852418 0.0865125 
0.0920548 0.100887 0.11317 0.129 0.154464 0.187325 0.227293 0.270283 0.304875 
0.140059 0.114504 0.0993326 0.0906333 0.086662 0.0878711 0.0923353 0.100887 0.11317 
0.129 0.148073 0.168985 0.187987 0.205373 0.265316 0.132684 0.111232 0.0984397 
0.0906333 0.086662 0.0878711 0.0923353 0.0990237 0.107564 0.117209 0.126407 0.13205 
0.156108 0.19982 0.255974 0.121456 0.104868 0.094859 0.0886418 0.0853435 0.0854273 
0.0879064 0.0913121 0.0948126 0.0970251 0.106265 0.125917 0.156108 0.190294 0.222883 
0.115308 0.124144 0.0993868 0.114898 0.088421 0.0994413 0.0807544 0.0889901 0.0757393 
0.0820904 0.0729221 0.0780964 0.0724481 0.0771403 0.0731131 0.0786974 0.075944 0.0811749 
0.0839049 0.0834565 0.102005 0.0932224 0.124423 0.1136 0.152063 0.141246 0.180341 
0.175113 0.213184 0.209688 0.282259 0.131591 0.139037 0.110653 0.127345 0.0968415 
0.108053 0.0875499 0.0954013 0.0818545 0.0873141 0.079384 0.0831421 0.0812938 0.0835375 
0.0852096 0.0878059 0.0902366 0.0942712 0.0955369 0.102317 0.108412 0.110727 0.125196 
0.120008 0.157296 0.141246 0.198325 0.180508 0.24365 0.232288 0.299465 0.144566 
0.150095 0.119072 0.136293 0.102664 0.113682 0.0917925 0.0990548 0.0852709 0.0897492 
0.0829298 0.0850585 0.0864791 0.0858714 0.0929728 0.0916461 0.102258 0.10096 0.113948 
0.113889 0.127038 0.130259 0.142097 0.149128 0.166961 0.167813 0.20372 0.190174 
0.266062 0.237494 0.296641 0.15327 0.156444 0.124115 0.141092 0.105589 0.116022 
0.0932932 0.0998274 0.0862629 0.0898068 0.0838542 0.0850585 0.0878887 0.0858714 0.0954034 
0.0916461 0.106517 0.10096 0.12268 0.115307 0.143964 0.136384 0.16975 0.164586 
0.197939 0.199876 0.232178 0.239944 0.28216 0.276844 0.293052 0.156986 0.157528 
0.125739 0.141634 0.106304 0.116022 0.0933508 0.0998274 0.0858179 0.0893618 0.0827554 
0.0835147 0.0866996 0.0835836 0.0944216 0.0894752 0.106269 0.0997306 0.124098 0.11506 
0.148671 0.136384 0.180501 0.164586 0.222854 0.20348 0.277319 0.260229 0.335932 
0.336407 0.378812 0.157528 0.157528 0.12549 0.141385 0.10556 0.115029 0.0921416 
0.0978746 0.0836738 0.0864536 0.0793849 0.079544 0.0819874 0.0777888 0.0892277 0.08174 
0.101202 0.0906994 0.118985 0.105127 0.144058 0.126658 0.178166 0.157638 0.226458 
0.201144 0.294001 0.260229 0.378812 0.336407 0.378812 0.155364 0.1532 0.123188 
0.137168 0.102781 0.11094 0.0887133 0.0936198 0.0793794 0.0816392 0.0739388 0.0737742 
0.0734294 0.0695794 0.078618 0.0703074 0.0882689 0.0761875 0.103656 0.0867978 0.126804 
0.103802 0.16076 0.129926 0.209947 0.169563 0.279786 0.229503 0.37698 0.320359 
0.375148 0.148488 0.143776 0.11749 0.128811 0.0976876 0.104238 0.0836177 0.0876855 
0.0737618 0.0757403 0.0672963 0.0672838 0.06637 0.0640869 0.0709786 0.0670413 0.0795585 
0.0743497 0.0933492 0.08611 0.114431 0.103979 0.146184 0.130689 0.194039 0.17066 
0.26624 0.230776 0.375976 0.321857 0.376803 0.141932 0.140087 0.112091 0.125212 
0.0936022 0.101456 0.080981 0.0868977 0.0726807 0.0779214 0.06825 0.0736469 0.0706088 
0.0747719 0.0773013 0.0808689 0.0882015 0.0911531 0.104588 0.10668 0.128504 0.129114 
0.163042 0.160857 0.212711 0.205093 0.283121 0.265056 0.381272 0.342537 0.385741 
0.141397 0.142707 0.112297 0.128482 0.0949628 0.105804 0.0840213 0.0920864 0.0778598 
0.0839597 0.0769575 0.0811705 0.0817801 0.0839658 0.0904306 0.0913418 0.103605 0.102883 
0.12241 0.119336 0.148386 0.141683 0.183366 0.170894 0.23078 0.209052 0.299333 
0.265056 0.385741 0.342537 0.385741 0.142707 0.142707 0.11438 0.128606 0.0983418 
0.106918 0.0884322 0.0946876 0.0831698 0.0876422 0.0838779 0.0858771 0.0893716 0.0892837 
0.0984411 0.0964708 0.11147 0.107029 0.128951 0.121085 0.154464 0.141732 0.187325 
0.170894 0.229036 0.207309 0.284808 0.248788 0.345308 0.287579 0.304875 0.141383 
0.140059 0.114504 0.127282 0.0993326 0.106918 0.090338 0.094983 0.0859519 0.0886477 
0.0871918 0.0872666 0.092195 0.0901032 0.100887 0.096611 0.11317 0.107029 0.129 
0.121085 0.151268 0.138536 0.178155 0.158529 0.20764 0.178486 0.237828 0.19668 
0.285096 0.235344 0.287418 0.136371 0.132684 0.112868 0.121958 0.0988861 0.104836 
0.0906333 0.0945365 0.086662 0.0886477 0.0878711 0.0872666 0.0923353 0.0901032 0.0999552 
0.0956795 0.110367 0.103294 0.123104 0.112386 0.13724 0.121808 0.150518 0.129229 
0.172048 0.144079 0.202596 0.177964 0.260645 0.227897 0.290938 0.12707 0.121456 
0.10805 0.113162 0.0966494 0.0998637 0.0896376 0.0917504 0.0860028 0.0869927 0.0866492 
0.0853854 0.0901208 0.0866668 0.0951679 0.0896092 0.101188 0.0930623 0.107117 0.0959188 
0.116336 0.101645 0.128984 0.116091 0.156108 0.141013 0.195057 0.173201 0.239429 
0.206589 0.274392 0.114458 0.100465 0.0919337 0.0865134 0.0834733 0.0828334 0.0838688 
0.0855688 0.0875952 0.0937448 0.106265 0.125765 0.151519 0.178372 0.203077 0.0904849 
0.0845429 0.0806896 0.0777876 0.0755605 0.073743 0.0719364 0.0724576 0.0803187 0.0904645 
0.102275 0.114685 0.125333 0.129962 0.203491 0.0753797 0.0739198 0.0726765 0.0711194 
0.0692054 0.0667974 0.0664632 0.0723531 0.0791997 0.0868407 0.0945934 0.100958 0.10322 
0.142487 0.207042 0.0632742 0.0643517 0.0643517 0.0639782 0.062309 0.0606954 0.0653385 
0.0701802 0.0752044 0.0800181 0.0837013 0.0845866 0.100717 0.146775 0.207042 0.0532334 
0.0562707 0.056889 0.056889 0.0554054 0.0587569 0.0625415 0.0660182 0.0690307 0.0710509 
0.0710683 0.0710683 0.104943 0.146775 0.199103 0.044331 0.048923 0.0503146 0.0503146 
0.0523581 0.0557474 0.0584035 0.0603645 0.0613857 0.0613857 0.0608842 0.0746602 0.104943 
0.143445 0.184382 0.0369977 0.0427175 0.0446404 0.0463731 0.0496477 0.05192 0.0532869 
0.0537125 0.0537125 0.0529063 0.0518013 0.0750414 0.104032 0.135341 0.166403 0.0330484 
0.0380584 0.0414037 0.0445283 0.0465585 0.0475197 0.0475255 0.0475255 0.0464883 0.0441029 
0.0528593 0.0750414 0.0997849 0.124701 0.147636 0.0387092 0.0407765 0.0414424 0.0427634 
0.0432253 0.0432253 0.0427517 0.0413926 0.0390247 0.0355959 0.0528593 0.0731057 0.0936574 
0.113166 0.129681 0.0456441 0.0450748 0.043918 0.0418991 0.0410069 0.0397353 0.0377623 
0.0350846 0.0315528 0.0354428 0.0523273 0.0698322 0.0867648 0.101869 0.11348 0.0567373 
0.0519173 0.0473034 0.0423988 0.0392327 0.0361187 0.0326306 0.0287182 0.0242078 0.0354428 
0.0508872 0.0660004 0.0799212 0.0915462 0.0995167 0.0683336 0.0590094 0.0507265 0.042792 
0.0373619 0.0323451 0.0273682 0.0223351 0.0213638 0.0351573 0.0491058 0.0622096 0.0736949 
0.0826366 0.0879695 0.0802321 0.0661211 0.0539503 0.0460259 0.0391994 0.029521 0.0219233 
0.0159116 0.0217618 0.0347328 0.0474428 0.0589066 0.0684641 0.0753731 0.0788317 0.0922618 
0.0730105 0.0596533 0.0525341 0.0434935 0.0318926 0.0187221 0.00937159 0.0225456 0.0349277 
0.0462663 0.0564171 0.0644661 0.0698481 0.0719887 0.104271 0.0799854 0.0687632 0.0603951 
0.0485652 0.0345583 0.0194925 0.0122681 0.0240418 0.0361631 0.0464844 0.0549717 0.0618359 
0.066062 0.0672693 0.116114 0.0913845 0.0815501 0.069424 0.0541133 0.0371432 0.0197751 
0.0177823 0.0265671 0.0385068 0.048292 0.055784 0.0608639 0.0639552 0.0644748 0.128838 
0.108152 0.0962166 0.0793581 0.0597288 0.0391622 0.0204386 0.0250997 0.0313184 0.0421798 
0.0514262 0.0581855 0.0624829 0.0643443 0.0643443 0.149207 0.13061 0.112657 0.0898083 
0.0648419 0.0399768 0.029379 0.0326128 0.03732 0.0473653 0.0559697 0.0619257 0.0654026 
0.066545 0.066545 0.177551 0.156456 0.130667 0.100176 0.0686392 0.0399768 0.0389733 
0.0402074 0.0441184 0.0541923 0.0619429 0.0669382 0.0694863 0.069835 0.069835 0.217033 
0.186044 0.149839 0.109511 0.0699401 0.0474296 0.0490353 0.0490353 0.0527998 0.0627087 
0.0692846 0.0730854 0.0745426 0.0745426 0.0739848 0.264309 0.219735 0.169351 0.11626 
0.0699401 0.0613261 0.0613261 0.0591453 0.0644675 0.072841 0.0778265 0.0801447 0.0803189 
0.0803189 0.0787263 0.3218 0.257774 0.187584 0.117871 0.0786311 0.0786311 0.0756768 
0.0685633 0.0782043 0.0843454 0.0872667 0.0877966 0.0877966 0.0864983 0.0837543 0.392974 
0.299758 0.201143 0.117871 0.103585 0.100022 0.0892085 0.0863815 0.0936067 0.0967583 
0.0971502 0.0971502 0.0956225 0.092705 0.088733 0.483876 0.344005 0.203709 0.140129 
0.137523 0.120465 0.101978 0.107202 0.109891 0.109891 0.109368 0.106872 0.10312 
0.0985219 0.0933132 0.601012 0.382377 0.218639 0.19864 0.170086 0.136266 0.127899 
0.128667 0.128667 0.125857 0.121238 0.115716 0.109741 0.103525 0.0971574 0.765091 
0.416815 0.299738 0.257702 0.193465 0.160735 0.160735 0.156321 0.148635 0.13999 
0.131314 0.122948 0.114965 0.10733 0.0999734 0.961699 0.612949 0.422376 0.286437 
0.224987 0.215251 0.197805 0.180426 0.164581 0.150727 0.13862 0.127944 0.118378 
0.109651 0.101547 1.62446 0.612949 0.55708 0.372686 0.306003 0.260958 0.224047 
0.196308 0.17446 0.156972 0.14256 0.130367 0.119776 0.110351 0.101776 6.38029 
1.36794 0.5734 0.466413 0.343437 0.279935 0.233901 0.201629 0.177286 0.158329 
0.142989 0.130367 0.119776 0.110351 0.101776 0.0989728 0.0904849 0.0903023 0.0875139 
0.084849 0.0826163 0.0810863 0.0792386 0.0785817 0.076674 0.0769913 0.0746517 0.0758838 
0.0728397 0.0761416 0.072197 0.0803483 0.0763882 0.0904645 0.0853916 0.10427 0.0963697 
0.120149 0.10848 0.136131 0.120009 0.148206 0.127648 0.193381 0.166727 0.250911 
0.0829323 0.0753797 0.0792314 0.0746498 0.076683 0.0732981 0.0744535 0.0718979 0.0723829 
0.0701624 0.0702702 0.0680014 0.0691998 0.0666303 0.0724053 0.0694082 0.0797592 0.0757764 
0.0886526 0.0830202 0.0984342 0.0907171 0.107821 0.0977758 0.114277 0.102089 0.136225 
0.122854 0.205267 0.174764 0.252686 0.069327 0.0620391 0.0691358 0.0638129 0.0685141 
0.0643517 0.0675488 0.0641649 0.0657572 0.0631436 0.0637464 0.0615022 0.0659009 0.0630169 
0.0712666 0.0677593 0.077202 0.0726923 0.0834294 0.0776113 0.0891473 0.0818597 0.0927724 
0.0841439 0.101969 0.0926516 0.144631 0.123746 0.207042 0.176909 0.244233 0.0582538 
0.050367 0.0603112 0.054752 0.0606204 0.0565799 0.0604336 0.056889 0.0588572 0.0561472 
0.0597261 0.0570812 0.06394 0.0606492 0.0680992 0.0642798 0.0721175 0.0675244 0.0755345 
0.0700408 0.0773848 0.0710596 0.0778274 0.0710683 0.10283 0.0880056 0.146775 0.125859 
0.203073 0.172939 0.227015 0.0487822 0.0401941 0.0525969 0.046627 0.0536018 0.0496188 
0.0536018 0.0503146 0.0538818 0.0513364 0.0572522 0.0540528 0.0604725 0.0570755 0.0631914 
0.059384 0.0652082 0.0608751 0.0662183 0.0613857 0.0659762 0.0611349 0.0728642 0.0677722 
0.104943 0.0898015 0.14511 0.124194 0.191743 0.163913 0.204471 0.0406644 0.0319527 
0.0458203 0.0398576 0.0474775 0.043679 0.0483438 0.0455067 0.0510029 0.0480104 0.0538337 
0.0507839 0.0558452 0.0526035 0.0570385 0.0534997 0.0575491 0.0537125 0.057146 0.0533094 
0.0563427 0.0523538 0.0748508 0.0634213 0.104488 0.0895368 0.139393 0.119687 0.175393 
0.150872 0.180264 0.035023 0.0295016 0.040388 0.0355534 0.0430221 0.0397311 0.0454507 
0.042966 0.0481031 0.0455434 0.0497199 0.0470391 0.0504062 0.0475226 0.050619 0.0475255 
0.0501004 0.0470069 0.0485046 0.0452956 0.0523303 0.0484811 0.0750414 0.0639504 0.101909 
0.0874132 0.130021 0.112243 0.15702 0.136169 0.156761 0.0358788 0.0370001 0.0394174 
0.0397428 0.0414231 0.0411094 0.0436459 0.0421029 0.0448919 0.0429943 0.0453725 0.0432253 
0.0451386 0.0429885 0.044459 0.0420722 0.0427565 0.0402087 0.0398494 0.0373103 0.0528593 
0.0442276 0.0740735 0.0629825 0.0967212 0.0833816 0.118934 0.103412 0.138659 0.121424 
0.13534 0.0421766 0.0456441 0.0429256 0.0453595 0.0426802 0.0444964 0.0423313 0.0429086 
0.0421161 0.041453 0.0414803 0.0403711 0.040257 0.0387488 0.0382386 0.0364234 0.0352888 
0.0333187 0.0355194 0.0334978 0.0525933 0.0438851 0.0714689 0.0610797 0.0902111 0.0782985 
0.107518 0.0943171 0.121581 0.107675 0.116691 0.0511907 0.0567373 0.048496 0.0543273 
0.0456107 0.0496103 0.0421489 0.0448511 0.0401198 0.0408157 0.037927 0.0376757 0.0351964 
0.0343747 0.0319014 0.0306744 0.0278803 0.026463 0.0354428 0.0298253 0.0516073 0.043165 
0.0679163 0.0584438 0.083343 0.0729608 0.0967078 0.0857337 0.106499 0.0955315 0.101056 
0.0625354 0.0683336 0.0554633 0.0636715 0.049015 0.0548679 0.0425954 0.0467592 0.0382973 
0.0400769 0.0342319 0.0348535 0.0299994 0.0298567 0.0255266 0.0248516 0.0227858 0.0218494 
0.0353001 0.0282606 0.0499965 0.0421316 0.064105 0.0556577 0.0768081 0.0679522 0.0870914 
0.0781658 0.0937431 0.0853031 0.0884061 0.0742828 0.0802321 0.0625652 0.0731766 0.0523384 
0.0600357 0.0444089 0.0499881 0.0382806 0.0426126 0.030933 0.0343602 0.0246457 0.0257221 
0.0191233 0.0189174 0.0215628 0.0188367 0.0349451 0.0282473 0.0482743 0.0410878 0.0605581 
0.0531747 0.0710795 0.0636854 0.0790049 0.0719186 0.0834006 0.0771024 0.0788317 0.086247 
0.0922618 0.0695658 0.0826361 0.0568018 0.0663319 0.04928 0.0560937 0.0413465 0.0480138 
0.0307068 0.0376931 0.0203227 0.0253073 0.0126416 0.0140468 0.0221537 0.0159586 0.0348303 
0.0287367 0.0468546 0.040597 0.0576619 0.0513417 0.0664651 0.0604416 0.0726106 0.0671571 
0.0754102 0.0709184 0.0719887 0.0982665 0.104271 0.0764979 0.0921283 0.0642082 0.0743743 
0.0564646 0.0645791 0.0460294 0.0544801 0.0332254 0.0415618 0.0191073 0.0270254 0.0108198 
0.0158803 0.0232937 0.018155 0.0355454 0.0301025 0.0463753 0.0413237 0.0556944 0.050728 
0.063151 0.0584038 0.0679551 0.063949 0.069629 0.0666657 0.0672693 0.110193 0.116114 
0.0856849 0.103749 0.0751567 0.0864673 0.0649096 0.0754871 0.0513393 0.0617687 0.0358508 
0.0456282 0.0196338 0.0284591 0.0150252 0.0187787 0.0253045 0.0221747 0.0373349 0.0325369 
0.0473882 0.0433994 0.0553778 0.052038 0.0613499 0.0583239 0.0650086 0.0624095 0.0658721 
0.064215 0.0644748 0.122476 0.128838 0.0997683 0.118495 0.0888833 0.102184 0.0743911 
0.0877873 0.0569211 0.0695435 0.0381527 0.0494455 0.0201069 0.0298004 0.021441 0.0227692 
0.0289428 0.0282091 0.0403433 0.0367491 0.0498591 0.046803 0.0569847 0.0548059 0.0616734 
0.0603342 0.0641498 0.0634136 0.0644095 0.0643443 0.0640753 0.139023 0.149207 0.119381 
0.139909 0.104437 0.121634 0.0845832 0.101233 0.0622853 0.0773251 0.0395695 0.0524093 
0.0249088 0.0346779 0.0288563 0.0309959 0.0343192 0.0349664 0.0447726 0.0423426 0.0536979 
0.0516675 0.0600556 0.0589477 0.0639428 0.0636642 0.0654447 0.0659738 0.0654447 0.066545 
0.0660153 0.163379 0.177551 0.143533 0.167003 0.121662 0.143561 0.0949921 0.115422 
0.0667405 0.0844076 0.0399768 0.054308 0.0341761 0.0394751 0.0364101 0.0395903 0.0407192 
0.0421629 0.0507788 0.0491554 0.0589563 0.0580676 0.064432 0.0644405 0.0674445 0.0682122 
0.06819 0.0696607 0.06819 0.069835 0.0690134 0.197292 0.217033 0.17125 0.201539 
0.140253 0.167942 0.104843 0.129675 0.0692896 0.0897253 0.0437032 0.0586848 0.0440043 
0.0482325 0.0446213 0.0490353 0.0484591 0.0509175 0.0584505 0.0577542 0.0656137 0.0659966 
0.0700118 0.071185 0.0720144 0.073814 0.0721888 0.0745426 0.0719099 0.0742637 0.0728272 
0.240671 0.264309 0.202889 0.242022 0.159595 0.194543 0.112885 0.142805 0.0699401 
0.0931001 0.0543778 0.0656331 0.0551807 0.0613261 0.0540903 0.0602357 0.0586336 0.0618064 
0.0677749 0.0686543 0.0735555 0.0753338 0.076615 0.0789856 0.0774307 0.0802318 0.0774307 
0.0803189 0.0763555 0.0795226 0.0771862 0.293054 0.3218 0.238754 0.289787 0.178467 
0.222679 0.117066 0.152728 0.0742856 0.0982513 0.0699786 0.0786311 0.0685014 0.077154 
0.0638543 0.07212 0.0713359 0.0733838 0.0785932 0.0812748 0.0825466 0.085806 0.0839706 
0.0875316 0.0840577 0.0877966 0.0834086 0.0871475 0.0812403 0.0851263 0.0817928 0.357387 
0.392974 0.278766 0.346366 0.194363 0.25045 0.117871 0.159507 0.0911081 0.110728 
0.0893266 0.101804 0.0824427 0.0946153 0.0774724 0.087795 0.0859055 0.0899941 0.0905519 
0.0951825 0.0922084 0.0969542 0.0924734 0.0971502 0.0917095 0.0963864 0.0896017 0.0941638 
0.0862436 0.090719 0.0863293 0.438425 0.483876 0.321882 0.41394 0.202426 0.273857 
0.129 0.171919 0.120554 0.138826 0.110244 0.128994 0.0955933 0.111222 0.0967918 
0.10459 0.101749 0.108546 0.103325 0.109891 0.103259 0.10963 0.102011 0.10812 
0.0993711 0.104996 0.0956135 0.100821 0.0910231 0.0959176 0.0904725 0.542444 0.601012 
0.363191 0.491695 0.211174 0.300508 0.169384 0.208639 0.153804 0.184363 0.128365 
0.153176 0.114939 0.132083 0.117935 0.128283 0.119279 0.128667 0.117874 0.127262 
0.115303 0.123548 0.111294 0.118477 0.10643 0.112729 0.101023 0.106633 0.0952353 
0.100341 0.0939159 0.683052 0.765091 0.399596 0.590953 0.259188 0.358276 0.228171 
0.27872 0.181775 0.225584 0.1485 0.1771 0.144317 0.160735 0.142494 0.158528 
0.138651 0.152478 0.132924 0.144312 0.126276 0.135652 0.119332 0.127131 0.112353 
0.118956 0.105428 0.111148 0.0985654 0.103652 0.0963973 0.863395 0.961699 0.514882 
0.787324 0.361057 0.517662 0.27207 0.354407 0.209226 0.255712 0.187993 0.220119 
0.17927 0.206528 0.168373 0.189115 0.156608 0.172503 0.145359 0.157654 0.134967 
0.144673 0.125446 0.133282 0.116671 0.123161 0.108491 0.114014 0.10076 0.105599 
0.097725 1.29308 1.62446 0.612949 1.1187 0.489728 0.585014 0.329561 0.464883 
0.265495 0.339345 0.238104 0.283481 0.210926 0.242502 0.188367 0.210177 0.16952 
0.185384 0.153849 0.165716 0.14059 0.149766 0.129156 0.136463 0.119077 0.125072 
0.110001 0.115064 0.101662 0.106063 0.0978394 4.00237 6.38029 0.990445 3.87411 
0.56524 0.97067 0.419549 0.519906 0.32472 0.404925 0.270447 0.311686 0.228974 
0.256918 0.198968 0.217765 0.175873 0.189458 0.15765 0.167808 0.142775 0.150659 
0.130367 0.136678 0.119776 0.125072 0.110351 0.115064 0.101776 0.106063 0.0978029 
6.38029 1.36794 0.5734 0.466413 0.343437 0.279935 0.233901 0.201629 0.177286 
0.158329 0.142989 0.130273 0.119469 0.109894 0.101218 0.0864821 0.0867318 0.0867318 
0.0859556 0.0842375 0.0817191 0.0785923 0.0750877 0.0714606 0.0679789 0.0649141 0.0625365 
0.0611154 0.0622363 0.065354 0.0705936 0.0783003 0.0888427 0.102596 0.119902 0.143021 
0.174206 0.21207 0.256507 0.306284 0.358235 0.406703 0.441807 0.0793317 0.0796401 
0.0796401 0.0790088 0.0775199 0.0752964 0.0725007 0.0693279 0.0659978 0.0627471 0.0598239 
0.0574857 0.0560006 0.0567542 0.0600532 0.0694226 0.0813456 0.0948698 0.110174 0.127341 
0.149212 0.17888 0.213869 0.270551 0.341106 0.423861 0.514913 0.604133 0.0724911 
0.072765 0.072765 0.0721545 0.0707398 0.0686298 0.0659632 0.0629053 0.0596435 0.0563827 
0.0533421 0.0507549 0.0488717 0.0509025 0.059434 0.0719026 0.0863936 0.103385 0.123439 
0.147182 0.175263 0.208235 0.246319 0.294763 0.365845 0.453679 0.594802 0.757793 
0.0659283 0.0660881 0.0660881 0.065398 0.0639352 0.061796 0.0590983 0.0559806 0.0525987 
0.0491237 0.0457395 0.0426439 0.0401184 0.0485903 0.059434 0.0719026 0.0863936 0.10552 
0.128842 0.157481 0.192991 0.237331 0.292869 0.362213 0.447713 0.549998 0.696496 
0.890199 0.0596362 0.0596362 0.0596137 0.0587637 0.0571583 0.0548815 0.052032 0.0487225 
0.0450781 0.0412336 0.0373323 0.0335256 0.0349098 0.0450574 0.0567066 0.0702747 0.086308 
0.10552 0.128842 0.157481 0.192991 0.242617 0.30889 0.397805 0.518626 0.683813 
0.909041 1.20783 0.0536251 0.0536251 0.0533628 0.0522901 0.0504721 0.0479805 0.0448959 
0.0413069 0.0373079 0.0329969 0.0284731 0.0238348 0.0285479 0.0386557 0.0502752 0.0638532 
0.0799983 0.0995425 0.123631 0.153857 0.192458 0.242617 0.30889 0.397805 0.518626 
0.683813 0.965518 1.42341 0.0479159 0.0479159 0.0473665 0.046024 0.0439452 0.0411901 
0.0378226 0.0339091 0.0295157 0.024705 0.0195318 0.01404 0.020011 0.0294102 0.0401091 
0.0524985 0.0671235 0.0847458 0.106442 0.133754 0.168938 0.215373 0.27825 0.365798 
0.491498 0.678112 0.965518 1.42341 0.0479159 0.0479159 0.0473665 0.046024 0.0439452 
0.0411901 0.0378226 0.0339091 0.0295157 0.024705 0.0195318 0.01404 0.020011 0.0294102 
0.0401091 0.0524985 0.0671235 0.0847458 0.106442 0.133754 0.168938 0.215373 0.27825 
0.365798 0.491498 0.678112 0.965518 1.42341 0.0536251 0.0536251 0.0533628 0.0522901 
0.0504721 0.0479805 0.0448959 0.0413069 0.0373079 0.0329969 0.0284731 0.0238348 0.0285479 
0.0386557 0.0502752 0.0638532 0.0799983 0.0995425 0.123631 0.153857 0.192458 0.242617 
0.30889 0.397805 0.518626 0.683813 0.965518 1.42341 0.0596362 0.0596362 0.0596137 
0.0587637 0.0571583 0.0548815 0.052032 0.0487225 0.0450781 0.0412336 0.0373323 0.0335256 
0.0349098 0.0450574 0.0567066 0.0702747 0.086308 0.10552 0.128842 0.157481 0.192991 
0.242617 0.30889 0.397805 0.518626 0.683813 0.909041 1.20783 0.0659283 0.0660881 
0.0660881 0.065398 0.0639352 0.061796 0.0590983 0.0559806 0.0525987 0.0491237 0.0457395 
0.0426439 0.0401184 0.0485903 0.059434 0.0719026 0.0863936 0.10552 0.128842 0.157481 
0.192991 0.237331 0.292869 0.362213 0.447713 0.549998 0.696496 0.890199 0.0724911 
0.072765 0.072765 0.0721545 0.0707398 0.0686298 0.0659632 0.0629053 0.0596435 0.0563827 
0.0533421 0.0507549 0.0488717 0.0509025 0.059434 0.0719026 0.0863936 0.103385 0.123439 
0.147182 0.175263 0.208235 0.246319 0.294763 0.365845 0.453679 0.594802 0.757793 
0.0793317 0.0796401 0.0796401 0.0790088 0.0775199 0.0752964 0.0725007 0.0693279 0.0659978 
0.0627471 0.0598239 0.0574857 0.0560006 0.0567542 0.0600532 0.0694226 0.0813456 0.0948698 
0.110174 0.127341 0.149212 0.17888 0.213869 0.270551 0.341106 0.423861 0.514913 
0.604133 0.0864821 0.0867318 0.0867318 0.0859556 0.0842375 0.0817191 0.0785923 0.0750877 
0.0714606 0.0679789 0.0649141 0.0625365 0.0611154 0.0622363 0.065354 0.0705936 0.0783003 
0.0888427 0.102596 0.119902 0.143021 0.174206 0.21207 0.256507 0.306284 0.358235 
0.406703 0.441807 0.0901559 0.0858314 0.0903172 0.0866069 0.0903172 0.0867318 0.0893884 
0.0863437 0.087456 0.0850966 0.0846754 0.0829783 0.0812589 0.0801557 0.0774595 0.07684 
0.0735534 0.0732741 0.0698243 0.0697198 0.0665529 0.0664465 0.064011 0.0637253 0.0624608 
0.061826 0.0633555 0.0616758 0.0663116 0.0637951 0.0712911 0.0679738 0.078566 0.074447 
0.0888427 0.0835715 0.102596 0.0957192 0.119902 0.111249 0.14201 0.131462 0.170045 
0.158614 0.203098 0.193138 0.240534 0.234289 0.280605 0.281395 0.31983 0.332259 
0.352517 0.382469 0.370069 0.424255 0.441807 0.0829069 0.0786887 0.083186 0.0794859 
0.083186 0.0796401 0.0824822 0.0793245 0.0808787 0.0782643 0.0785077 0.0764081 0.0755465 
0.0738986 0.0722078 0.0709143 0.0687292 0.0676628 0.065363 0.0643724 0.062369 0.0612855 
0.0600111 0.0586548 0.058558 0.0567432 0.0594953 0.0563774 0.0627036 0.0584037 0.0700081 
0.0647379 0.079823 0.0753841 0.0918562 0.0881077 0.106385 0.102522 0.123622 0.118757 
0.146117 0.138276 0.176543 0.164046 0.21297 0.196375 0.263529 0.24221 0.323695 
0.305828 0.391048 0.382483 0.460808 0.469387 0.52297 0.559523 0.604133 0.0759114 
0.071888 0.0762026 0.072628 0.0762026 0.072765 0.0755816 0.0724597 0.0741298 0.0714471 
0.0719631 0.0696848 0.0692319 0.0672965 0.0661166 0.0644342 0.0628206 0.0612744 0.0595649 
0.0580131 0.056583 0.0548624 0.0541203 0.0520485 0.0524361 0.0498133 0.0538284 0.0498871 
0.0597436 0.0551683 0.0706626 0.0656683 0.0838696 0.0791481 0.0991276 0.0948894 0.116806 
0.113412 0.137261 0.13531 0.162237 0.161222 0.193558 0.191749 0.230094 0.227277 
0.282657 0.270541 0.353475 0.330304 0.43877 0.409762 0.554858 0.52424 0.680963 
0.676297 0.765126 0.0692097 0.0653964 0.0694265 0.0660082 0.0694265 0.0660881 0.0687762 
0.065743 0.0673375 0.0646666 0.0652129 0.0628656 0.0625308 0.0604472 0.0594429 0.0575395 
0.0561211 0.0542896 0.0527532 0.0508612 0.0495408 0.0474316 0.0466994 0.0441917 0.044495 
0.0413811 0.0497464 0.0443543 0.059434 0.0540122 0.0719026 0.0656683 0.0863936 0.0791481 
0.104453 0.0959569 0.12614 0.117181 0.152331 0.143161 0.184127 0.175236 0.222783 
0.215161 0.269594 0.2651 0.328488 0.327541 0.406779 0.404963 0.501838 0.498855 
0.645649 0.623247 0.823996 0.793348 1.03583 0.0627822 0.0592051 0.0628621 0.0596362 
0.0628509 0.0596249 0.0620809 0.0591887 0.0605468 0.057961 0.0583387 0.0560199 0.0555652 
0.0534567 0.0523516 0.0503773 0.0488384 0.0469003 0.0451787 0.0431559 0.0415359 0.039283 
0.0380847 0.0354289 0.0375141 0.0342177 0.0468238 0.0399836 0.0580703 0.050882 0.0710886 
0.0634907 0.0863508 0.0782913 0.10552 0.0959141 0.128842 0.117181 0.157481 0.143161 
0.192991 0.175236 0.239974 0.217804 0.30088 0.275754 0.380009 0.353348 0.483169 
0.458215 0.616906 0.60122 0.802769 0.796427 1.04901 1.05843 1.39387 0.0566306 
0.0533223 0.0566306 0.0536251 0.0564882 0.0534939 0.0555269 0.0528265 0.0538152 0.0513811 
0.051431 0.0492263 0.0484639 0.0464382 0.0450147 0.0431014 0.041193 0.0393074 0.0371153 
0.0351524 0.0329027 0.030735 0.0286802 0.0261539 0.0317289 0.0261913 0.0418566 0.0336018 
0.0534909 0.0444655 0.0670639 0.0570642 0.0831531 0.0719257 0.102531 0.0897704 0.126236 
0.111587 0.155669 0.138744 0.192725 0.173158 0.242617 0.217538 0.30889 0.275754 
0.397805 0.353348 0.518626 0.458215 0.683813 0.60122 0.93728 0.824666 1.31562 
1.19447 1.54032 0.0507705 0.0477663 0.0507705 0.0479159 0.0503647 0.0476412 0.0491571 
0.0466953 0.0472087 0.0449846 0.0445853 0.0425676 0.0413592 0.0395063 0.037608 0.0358658 
0.0334118 0.0317124 0.028851 0.0271103 0.0240025 0.0221184 0.0189374 0.0167859 0.0242794 
0.0170255 0.034033 0.0247106 0.0451921 0.0347596 0.0581758 0.0463038 0.0735609 0.059811 
0.0921441 0.0759346 0.115036 0.0955937 0.143805 0.120098 0.180698 0.151346 0.228995 
0.192155 0.29357 0.246811 0.381802 0.322024 0.505062 0.428648 0.680963 0.584805 
0.965518 0.821815 1.42341 1.19447 1.54032 0.0479159 0.0477663 0.0479159 0.0479159 
0.0473665 0.0476412 0.046024 0.0466953 0.0439452 0.0449846 0.0411901 0.0425676 0.0378226 
0.0395063 0.0339091 0.0358658 0.0295157 0.0317124 0.024705 0.0271103 0.0195318 0.0221184 
0.01404 0.0167859 0.020011 0.0170255 0.0294102 0.0247106 0.0401091 0.0347596 0.0524985 
0.0463038 0.0671235 0.059811 0.0847458 0.0759346 0.106442 0.0955937 0.133754 0.120098 
0.168938 0.151346 0.215373 0.192155 0.27825 0.246811 0.365798 0.322024 0.491498 
0.428648 0.678112 0.584805 0.965518 0.821815 1.42341 1.19447 1.54032 0.0507705 
0.0533223 0.0507705 0.0536251 0.0503647 0.0534939 0.0491571 0.0528265 0.0472087 0.0513811 
0.0445853 0.0492263 0.0413592 0.0464382 0.037608 0.0431014 0.0334118 0.0393074 0.028851 
0.0351524 0.0240025 0.030735 0.0189374 0.0261539 0.0242794 0.0261913 0.034033 0.0336018 
0.0451921 0.0444655 0.0581758 0.0570642 0.0735609 0.0719257 0.0921441 0.0897704 0.115036 
0.111587 0.143805 0.138744 0.180698 0.173158 0.228995 0.217538 0.29357 0.275754 
0.381802 0.353348 0.505062 0.458215 0.680963 0.60122 0.965518 0.824666 1.42341 
1.19447 1.54032 0.0566306 0.0592051 0.0566306 0.0596362 0.0564882 0.0596249 0.0555269 
0.0591887 0.0538152 0.057961 0.051431 0.0560199 0.0484639 0.0534567 0.0450147 0.0503773 
0.041193 0.0469003 0.0371153 0.0431559 0.0329027 0.039283 0.0286802 0.0354289 0.0317289 
0.0342177 0.0418566 0.0399836 0.0534909 0.050882 0.0670639 0.0634907 0.0831531 0.0782913 
0.102531 0.0959141 0.126236 0.117181 0.155669 0.143161 0.192725 0.175236 0.242617 
0.217804 0.30889 0.275754 0.397805 0.353348 0.518626 0.458215 0.683813 0.60122 
0.93728 0.796427 1.31562 1.05843 1.39387 0.0627822 0.0653964 0.0628621 0.0660082 
0.0628509 0.0660881 0.0620809 0.065743 0.0605468 0.0646666 0.0583387 0.0628656 0.0555652 
0.0604472 0.0523516 0.0575395 0.0488384 0.0542896 0.0451787 0.0508612 0.0415359 0.0474316 
0.0380847 0.0441917 0.0375141 0.0413811 0.0468238 0.0443543 0.0580703 0.0540122 0.0710886 
0.0656683 0.0863508 0.0791481 0.10552 0.0959569 0.128842 0.117181 0.157481 0.143161 
0.192991 0.175236 0.239974 0.215161 0.30088 0.2651 0.380009 0.327541 0.483169 
0.404963 0.616906 0.498855 0.802769 0.623247 1.04901 0.793348 1.03583 0.0692097 
0.071888 0.0694265 0.072628 0.0694265 0.072765 0.0687762 0.0724597 0.0673375 0.0714471 
0.0652129 0.0696848 0.0625308 0.0672965 0.0594429 0.0644342 0.0561211 0.0612744 0.0527532 
0.0580131 0.0495408 0.0548624 0.0466994 0.0520485 0.044495 0.0498133 0.0497464 0.0498871 
0.059434 0.0551683 0.0719026 0.0656683 0.0863936 0.0791481 0.104453 0.0948894 0.12614 
0.113412 0.152331 0.13531 0.184127 0.161222 0.222783 0.191749 0.269594 0.227277 
0.328488 0.270541 0.406779 0.330304 0.501838 0.409762 0.645649 0.52424 0.823996 
0.676297 0.765126 0.0759114 0.0786887 0.0762026 0.0794859 0.0762026 0.0796401 0.0755816 
0.0793245 0.0741298 0.0782643 0.0719631 0.0764081 0.0692319 0.0738986 0.0661166 0.0709143 
0.0628206 0.0676628 0.0595649 0.0643724 0.056583 0.0612855 0.0541203 0.0586548 0.0524361 
0.0567432 0.0538284 0.0563774 0.0597436 0.0584037 0.0706626 0.0647379 0.0838696 0.0753841 
0.0991276 0.0881077 0.116806 0.102522 0.137261 0.118757 0.162237 0.138276 0.193558 
0.164046 0.230094 0.196375 0.282657 0.24221 0.353475 0.305828 0.43877 0.382483 
0.554858 0.469387 0.680963 0.559523 0.604133 0.0829069 0.0858314 0.083186 0.0866069 
0.083186 0.0867318 0.0824822 0.0863437 0.0808787 0.0850966 0.0785077 0.0829783 0.0755465 
0.0801557 0.0722078 0.07684 0.0687292 0.0732741 0.065363 0.0697198 0.062369 0.0664465 
0.0600111 0.0637253 0.058558 0.061826 0.0594953 0.0616758 0.0627036 0.0637951 0.0700081 
0.0679738 0.079823 0.074447 0.0918562 0.0835715 0.106385 0.0957192 0.123622 0.111249 
0.146117 0.131462 0.176543 0.158614 0.21297 0.193138 0.263529 0.234289 0.323695 
0.281395 0.391048 0.332259 0.460808 0.382469 0.52297 0.424255 0.441807 0.0901559 
0.0903172 0.0903172 0.0893884 0.087456 0.0846754 0.0812589 0.0774595 0.0735534 0.0698243 
0.0665529 0.064011 0.0624608 0.0633555 0.0663116 0.0712911 0.078566 0.0888427 0.102596 
0.119902 0.14201 0.170045 0.203098 0.240534 0.280605 0.31983 0.352517 0.370069 

METADATA
COMPONENT_NAMES
STR

