    1C
    1U curvedbeam.inp                                                   
    1UUSER                                                              
    1UDATE              04.december.2021                                
    1UTIME              09:11:26                                        
    1UHOST                                                              
    1UPGM               CalculiX                                        
    1UVERSION           Version 2.16                             
    1UCOMPILETIME       Mon, Jan 20, 2020 12:54:24 AM                    
    1UDIR                                                               
    1UDBN                                                               
    1UMAT    1STEEL                                                     
    2C                         12517                                     1
 -1         1 0.00000E+00-5.08000E+01-9.52500E+00
 -1         2 0.00000E+00-1.52400E+02-9.52500E+00
 -1         3 9.33150E-15 1.52400E+02-9.52500E+00
 -1         4 3.11050E-15 5.08000E+01-9.52500E+00
 -1         5 0.00000E+00-5.08000E+01 9.52500E+00
 -1         6 0.00000E+00-1.52400E+02 9.52500E+00
 -1         7 9.33150E-15 1.52400E+02 9.52500E+00
 -1         8 3.11050E-15 5.08000E+01 9.52500E+00
 -1         9 0.00000E+00-5.64444E+01-9.52500E+00
 -1        10 0.00000E+00-6.20889E+01-9.52500E+00
 -1        11 0.00000E+00-6.77333E+01-9.52500E+00
 -1        12 0.00000E+00-7.33778E+01-9.52500E+00
 -1        13 0.00000E+00-7.90222E+01-9.52500E+00
 -1        14 0.00000E+00-8.46667E+01-9.52500E+00
 -1        15 0.00000E+00-9.03111E+01-9.52500E+00
 -1        16 0.00000E+00-9.59556E+01-9.52500E+00
 -1        17 0.00000E+00-1.01600E+02-9.52500E+00
 -1        18 0.00000E+00-1.07244E+02-9.52500E+00
 -1        19 0.00000E+00-1.12889E+02-9.52500E+00
 -1        20 0.00000E+00-1.18533E+02-9.52500E+00
 -1        21 0.00000E+00-1.24178E+02-9.52500E+00
 -1        22 0.00000E+00-1.29822E+02-9.52500E+00
 -1        23 0.00000E+00-1.35467E+02-9.52500E+00
 -1        24 0.00000E+00-1.41111E+02-9.52500E+00
 -1        25 0.00000E+00-1.46756E+02-9.52500E+00
 -1        26 0.00000E+00-5.36222E+01-9.52500E+00
 -1        27 0.00000E+00-5.92667E+01-9.52500E+00
 -1        28 0.00000E+00-6.49111E+01-9.52500E+00
 -1        29 0.00000E+00-7.05556E+01-9.52500E+00
 -1        30 0.00000E+00-7.62000E+01-9.52500E+00
 -1        31 0.00000E+00-8.18444E+01-9.52500E+00
 -1        32 0.00000E+00-8.74889E+01-9.52500E+00
 -1        33 0.00000E+00-9.31333E+01-9.52500E+00
 -1        34 0.00000E+00-9.87778E+01-9.52500E+00
 -1        35 0.00000E+00-1.04422E+02-9.52500E+00
 -1        36 0.00000E+00-1.10067E+02-9.52500E+00
 -1        37 0.00000E+00-1.15711E+02-9.52500E+00
 -1        38 0.00000E+00-1.21356E+02-9.52500E+00
 -1        39 0.00000E+00-1.27000E+02-9.52500E+00
 -1        40 0.00000E+00-1.32644E+02-9.52500E+00
 -1        41 0.00000E+00-1.38289E+02-9.52500E+00
 -1        42 0.00000E+00-1.43933E+02-9.52500E+00
 -1        43 0.00000E+00-1.49578E+02-9.52500E+00
 -1        44 1.98922E+01-1.51096E+02-9.52500E+00
 -1        45 3.94440E+01-1.47207E+02-9.52500E+00
 -1        46 5.83210E+01-1.40799E+02-9.52500E+00
 -1        47 7.62000E+01-1.31982E+02-9.52500E+00
 -1        48 9.27752E+01-1.20907E+02-9.52500E+00
 -1        49 1.07763E+02-1.07763E+02-9.52500E+00
 -1        50 1.20907E+02-9.27752E+01-9.52500E+00
 -1        51 1.31982E+02-7.62000E+01-9.52500E+00
 -1        52 1.40799E+02-5.83210E+01-9.52500E+00
 -1        53 1.47207E+02-3.94440E+01-9.52500E+00
 -1        54 1.51096E+02-1.98922E+01-9.52500E+00
 -1        55 1.52400E+02 7.00097E-07-9.52500E+00
 -1        56 1.51096E+02 1.98922E+01-9.52500E+00
 -1        57 1.47207E+02 3.94440E+01-9.52500E+00
 -1        58 1.40799E+02 5.83210E+01-9.52500E+00
 -1        59 1.31982E+02 7.62000E+01-9.52500E+00
 -1        60 1.20907E+02 9.27752E+01-9.52500E+00
 -1        61 1.07763E+02 1.07763E+02-9.52500E+00
 -1        62 9.27752E+01 1.20907E+02-9.52500E+00
 -1        63 7.62000E+01 1.31982E+02-9.52500E+00
 -1        64 5.83210E+01 1.40799E+02-9.52500E+00
 -1        65 3.94440E+01 1.47207E+02-9.52500E+00
 -1        66 1.98922E+01 1.51096E+02-9.52500E+00
 -1        67 9.96744E+00-1.52074E+02-9.52500E+00
 -1        68 2.97318E+01-1.49472E+02-9.52500E+00
 -1        69 4.89874E+01-1.44312E+02-9.52500E+00
 -1        70 6.74048E+01-1.36683E+02-9.52500E+00
 -1        71 8.46689E+01-1.26716E+02-9.52500E+00
 -1        72 1.00484E+02-1.14580E+02-9.52500E+00
 -1        73 1.14580E+02-1.00484E+02-9.52500E+00
 -1        74 1.26716E+02-8.46689E+01-9.52500E+00
 -1        75 1.36683E+02-6.74048E+01-9.52500E+00
 -1        76 1.44312E+02-4.89874E+01-9.52500E+00
 -1        77 1.49472E+02-2.97318E+01-9.52500E+00
 -1        78 1.52074E+02-9.96744E+00-9.52500E+00
 -1        79 1.52074E+02 9.96744E+00-9.52500E+00
 -1        80 1.49472E+02 2.97318E+01-9.52500E+00
 -1        81 1.44312E+02 4.89874E+01-9.52500E+00
 -1        82 1.36683E+02 6.74048E+01-9.52500E+00
 -1        83 1.26716E+02 8.46689E+01-9.52500E+00
 -1        84 1.14580E+02 1.00484E+02-9.52500E+00
 -1        85 1.00484E+02 1.14580E+02-9.52500E+00
 -1        86 8.46689E+01 1.26716E+02-9.52500E+00
 -1        87 6.74048E+01 1.36683E+02-9.52500E+00
 -1        88 4.89874E+01 1.44312E+02-9.52500E+00
 -1        89 2.97318E+01 1.49472E+02-9.52500E+00
 -1        90 9.96744E+00 1.52074E+02-9.52500E+00
 -1        91 8.98589E-15 1.46756E+02-9.52500E+00
 -1        92 8.64028E-15 1.41111E+02-9.52500E+00
 -1        93 8.29467E-15 1.35467E+02-9.52500E+00
 -1        94 7.94906E-15 1.29822E+02-9.52500E+00
 -1        95 7.60344E-15 1.24178E+02-9.52500E+00
 -1        96 7.25783E-15 1.18533E+02-9.52500E+00
 -1        97 6.91222E-15 1.12889E+02-9.52500E+00
 -1        98 6.56661E-15 1.07244E+02-9.52500E+00
 -1        99 6.22100E-15 1.01600E+02-9.52500E+00
 -1       100 5.87539E-15 9.59556E+01-9.52500E+00
 -1       101 5.52978E-15 9.03111E+01-9.52500E+00
 -1       102 5.18417E-15 8.46667E+01-9.52500E+00
 -1       103 4.83856E-15 7.90222E+01-9.52500E+00
 -1       104 4.49294E-15 7.33778E+01-9.52500E+00
 -1       105 4.14733E-15 6.77333E+01-9.52500E+00
 -1       106 3.80172E-15 6.20889E+01-9.52500E+00
 -1       107 3.45611E-15 5.64444E+01-9.52500E+00
 -1       108 9.15869E-15 1.49578E+02-9.52500E+00
 -1       109 8.81308E-15 1.43933E+02-9.52500E+00
 -1       110 8.46747E-15 1.38289E+02-9.52500E+00
 -1       111 8.12186E-15 1.32644E+02-9.52500E+00
 -1       112 7.77625E-15 1.27000E+02-9.52500E+00
 -1       113 7.43064E-15 1.21356E+02-9.52500E+00
 -1       114 7.08503E-15 1.15711E+02-9.52500E+00
 -1       115 6.73942E-15 1.10067E+02-9.52500E+00
 -1       116 6.39381E-15 1.04422E+02-9.52500E+00
 -1       117 6.04819E-15 9.87778E+01-9.52500E+00
 -1       118 5.70258E-15 9.31333E+01-9.52500E+00
 -1       119 5.35697E-15 8.74889E+01-9.52500E+00
 -1       120 5.01136E-15 8.18444E+01-9.52500E+00
 -1       121 4.66575E-15 7.62000E+01-9.52500E+00
 -1       122 4.32014E-15 7.05556E+01-9.52500E+00
 -1       123 3.97453E-15 6.49111E+01-9.52500E+00
 -1       124 3.62892E-15 5.92667E+01-9.52500E+00
 -1       125 3.28331E-15 5.36222E+01-9.52500E+00
 -1       126 6.63073E+00-5.03654E+01-9.52500E+00
 -1       127 1.31480E+01-4.90690E+01-9.52500E+00
 -1       128 1.94403E+01-4.69331E+01-9.52500E+00
 -1       129 2.54000E+01-4.39941E+01-9.52500E+00
 -1       130 3.09251E+01-4.03023E+01-9.52500E+00
 -1       131 3.59210E+01-3.59210E+01-9.52500E+00
 -1       132 4.03023E+01-3.09251E+01-9.52500E+00
 -1       133 4.39941E+01-2.54000E+01-9.52500E+00
 -1       134 4.69331E+01-1.94403E+01-9.52500E+00
 -1       135 4.90690E+01-1.31480E+01-9.52500E+00
 -1       136 5.03654E+01-6.63073E+00-9.52500E+00
 -1       137 5.08000E+01 2.39583E-07-9.52500E+00
 -1       138 5.03654E+01 6.63073E+00-9.52500E+00
 -1       139 4.90690E+01 1.31480E+01-9.52500E+00
 -1       140 4.69331E+01 1.94403E+01-9.52500E+00
 -1       141 4.39941E+01 2.54000E+01-9.52500E+00
 -1       142 4.03023E+01 3.09251E+01-9.52500E+00
 -1       143 3.59210E+01 3.59210E+01-9.52500E+00
 -1       144 3.09251E+01 4.03023E+01-9.52500E+00
 -1       145 2.54000E+01 4.39941E+01-9.52500E+00
 -1       146 1.94403E+01 4.69331E+01-9.52500E+00
 -1       147 1.31480E+01 4.90690E+01-9.52500E+00
 -1       148 6.63073E+00 5.03654E+01-9.52500E+00
 -1       149 3.32248E+00-5.06912E+01-9.52500E+00
 -1       150 9.91059E+00-4.98239E+01-9.52500E+00
 -1       151 1.63291E+01-4.81040E+01-9.52500E+00
 -1       152 2.24683E+01-4.55611E+01-9.52500E+00
 -1       153 2.82230E+01-4.22387E+01-9.52500E+00
 -1       154 3.34948E+01-3.81935E+01-9.52500E+00
 -1       155 3.81935E+01-3.34948E+01-9.52500E+00
 -1       156 4.22387E+01-2.82230E+01-9.52500E+00
 -1       157 4.55611E+01-2.24683E+01-9.52500E+00
 -1       158 4.81040E+01-1.63291E+01-9.52500E+00
 -1       159 4.98239E+01-9.91059E+00-9.52500E+00
 -1       160 5.06912E+01-3.32248E+00-9.52500E+00
 -1       161 5.06912E+01 3.32248E+00-9.52500E+00
 -1       162 4.98239E+01 9.91059E+00-9.52500E+00
 -1       163 4.81040E+01 1.63291E+01-9.52500E+00
 -1       164 4.55611E+01 2.24683E+01-9.52500E+00
 -1       165 4.22387E+01 2.82230E+01-9.52500E+00
 -1       166 3.81935E+01 3.34948E+01-9.52500E+00
 -1       167 3.34948E+01 3.81935E+01-9.52500E+00
 -1       168 2.82230E+01 4.22387E+01-9.52500E+00
 -1       169 2.24683E+01 4.55611E+01-9.52500E+00
 -1       170 1.63291E+01 4.81040E+01-9.52500E+00
 -1       171 9.91059E+00 4.98239E+01-9.52500E+00
 -1       172 3.32248E+00 5.06912E+01-9.52500E+00
 -1       173 0.00000E+00-5.64444E+01 9.52500E+00
 -1       174 0.00000E+00-6.20889E+01 9.52500E+00
 -1       175 0.00000E+00-6.77333E+01 9.52500E+00
 -1       176 0.00000E+00-7.33778E+01 9.52500E+00
 -1       177 0.00000E+00-7.90222E+01 9.52500E+00
 -1       178 0.00000E+00-8.46667E+01 9.52500E+00
 -1       179 0.00000E+00-9.03111E+01 9.52500E+00
 -1       180 0.00000E+00-9.59556E+01 9.52500E+00
 -1       181 0.00000E+00-1.01600E+02 9.52500E+00
 -1       182 0.00000E+00-1.07244E+02 9.52500E+00
 -1       183 0.00000E+00-1.12889E+02 9.52500E+00
 -1       184 0.00000E+00-1.18533E+02 9.52500E+00
 -1       185 0.00000E+00-1.24178E+02 9.52500E+00
 -1       186 0.00000E+00-1.29822E+02 9.52500E+00
 -1       187 0.00000E+00-1.35467E+02 9.52500E+00
 -1       188 0.00000E+00-1.41111E+02 9.52500E+00
 -1       189 0.00000E+00-1.46756E+02 9.52500E+00
 -1       190 0.00000E+00-5.36222E+01 9.52500E+00
 -1       191 0.00000E+00-5.92667E+01 9.52500E+00
 -1       192 0.00000E+00-6.49111E+01 9.52500E+00
 -1       193 0.00000E+00-7.05556E+01 9.52500E+00
 -1       194 0.00000E+00-7.62000E+01 9.52500E+00
 -1       195 0.00000E+00-8.18444E+01 9.52500E+00
 -1       196 0.00000E+00-8.74889E+01 9.52500E+00
 -1       197 0.00000E+00-9.31333E+01 9.52500E+00
 -1       198 0.00000E+00-9.87778E+01 9.52500E+00
 -1       199 0.00000E+00-1.04422E+02 9.52500E+00
 -1       200 0.00000E+00-1.10067E+02 9.52500E+00
 -1       201 0.00000E+00-1.15711E+02 9.52500E+00
 -1       202 0.00000E+00-1.21356E+02 9.52500E+00
 -1       203 0.00000E+00-1.27000E+02 9.52500E+00
 -1       204 0.00000E+00-1.32644E+02 9.52500E+00
 -1       205 0.00000E+00-1.38289E+02 9.52500E+00
 -1       206 0.00000E+00-1.43933E+02 9.52500E+00
 -1       207 0.00000E+00-1.49578E+02 9.52500E+00
 -1       208 1.98922E+01-1.51096E+02 9.52500E+00
 -1       209 3.94440E+01-1.47207E+02 9.52500E+00
 -1       210 5.83210E+01-1.40799E+02 9.52500E+00
 -1       211 7.62000E+01-1.31982E+02 9.52500E+00
 -1       212 9.27752E+01-1.20907E+02 9.52500E+00
 -1       213 1.07763E+02-1.07763E+02 9.52500E+00
 -1       214 1.20907E+02-9.27752E+01 9.52500E+00
 -1       215 1.31982E+02-7.62000E+01 9.52500E+00
 -1       216 1.40799E+02-5.83210E+01 9.52500E+00
 -1       217 1.47207E+02-3.94440E+01 9.52500E+00
 -1       218 1.51096E+02-1.98922E+01 9.52500E+00
 -1       219 1.52400E+02 7.00097E-07 9.52500E+00
 -1       220 1.51096E+02 1.98922E+01 9.52500E+00
 -1       221 1.47207E+02 3.94440E+01 9.52500E+00
 -1       222 1.40799E+02 5.83210E+01 9.52500E+00
 -1       223 1.31982E+02 7.62000E+01 9.52500E+00
 -1       224 1.20907E+02 9.27752E+01 9.52500E+00
 -1       225 1.07763E+02 1.07763E+02 9.52500E+00
 -1       226 9.27752E+01 1.20907E+02 9.52500E+00
 -1       227 7.62000E+01 1.31982E+02 9.52500E+00
 -1       228 5.83210E+01 1.40799E+02 9.52500E+00
 -1       229 3.94440E+01 1.47207E+02 9.52500E+00
 -1       230 1.98922E+01 1.51096E+02 9.52500E+00
 -1       231 9.96744E+00-1.52074E+02 9.52500E+00
 -1       232 2.97318E+01-1.49472E+02 9.52500E+00
 -1       233 4.89874E+01-1.44312E+02 9.52500E+00
 -1       234 6.74048E+01-1.36683E+02 9.52500E+00
 -1       235 8.46689E+01-1.26716E+02 9.52500E+00
 -1       236 1.00484E+02-1.14580E+02 9.52500E+00
 -1       237 1.14580E+02-1.00484E+02 9.52500E+00
 -1       238 1.26716E+02-8.46689E+01 9.52500E+00
 -1       239 1.36683E+02-6.74048E+01 9.52500E+00
 -1       240 1.44312E+02-4.89874E+01 9.52500E+00
 -1       241 1.49472E+02-2.97318E+01 9.52500E+00
 -1       242 1.52074E+02-9.96744E+00 9.52500E+00
 -1       243 1.52074E+02 9.96744E+00 9.52500E+00
 -1       244 1.49472E+02 2.97318E+01 9.52500E+00
 -1       245 1.44312E+02 4.89874E+01 9.52500E+00
 -1       246 1.36683E+02 6.74048E+01 9.52500E+00
 -1       247 1.26716E+02 8.46689E+01 9.52500E+00
 -1       248 1.14580E+02 1.00484E+02 9.52500E+00
 -1       249 1.00484E+02 1.14580E+02 9.52500E+00
 -1       250 8.46689E+01 1.26716E+02 9.52500E+00
 -1       251 6.74048E+01 1.36683E+02 9.52500E+00
 -1       252 4.89874E+01 1.44312E+02 9.52500E+00
 -1       253 2.97318E+01 1.49472E+02 9.52500E+00
 -1       254 9.96744E+00 1.52074E+02 9.52500E+00
 -1       255 8.98589E-15 1.46756E+02 9.52500E+00
 -1       256 8.64028E-15 1.41111E+02 9.52500E+00
 -1       257 8.29467E-15 1.35467E+02 9.52500E+00
 -1       258 7.94906E-15 1.29822E+02 9.52500E+00
 -1       259 7.60344E-15 1.24178E+02 9.52500E+00
 -1       260 7.25783E-15 1.18533E+02 9.52500E+00
 -1       261 6.91222E-15 1.12889E+02 9.52500E+00
 -1       262 6.56661E-15 1.07244E+02 9.52500E+00
 -1       263 6.22100E-15 1.01600E+02 9.52500E+00
 -1       264 5.87539E-15 9.59556E+01 9.52500E+00
 -1       265 5.52978E-15 9.03111E+01 9.52500E+00
 -1       266 5.18417E-15 8.46667E+01 9.52500E+00
 -1       267 4.83856E-15 7.90222E+01 9.52500E+00
 -1       268 4.49294E-15 7.33778E+01 9.52500E+00
 -1       269 4.14733E-15 6.77333E+01 9.52500E+00
 -1       270 3.80172E-15 6.20889E+01 9.52500E+00
 -1       271 3.45611E-15 5.64444E+01 9.52500E+00
 -1       272 9.15869E-15 1.49578E+02 9.52500E+00
 -1       273 8.81308E-15 1.43933E+02 9.52500E+00
 -1       274 8.46747E-15 1.38289E+02 9.52500E+00
 -1       275 8.12186E-15 1.32644E+02 9.52500E+00
 -1       276 7.77625E-15 1.27000E+02 9.52500E+00
 -1       277 7.43064E-15 1.21356E+02 9.52500E+00
 -1       278 7.08503E-15 1.15711E+02 9.52500E+00
 -1       279 6.73942E-15 1.10067E+02 9.52500E+00
 -1       280 6.39381E-15 1.04422E+02 9.52500E+00
 -1       281 6.04819E-15 9.87778E+01 9.52500E+00
 -1       282 5.70258E-15 9.31333E+01 9.52500E+00
 -1       283 5.35697E-15 8.74889E+01 9.52500E+00
 -1       284 5.01136E-15 8.18444E+01 9.52500E+00
 -1       285 4.66575E-15 7.62000E+01 9.52500E+00
 -1       286 4.32014E-15 7.05556E+01 9.52500E+00
 -1       287 3.97453E-15 6.49111E+01 9.52500E+00
 -1       288 3.62892E-15 5.92667E+01 9.52500E+00
 -1       289 3.28331E-15 5.36222E+01 9.52500E+00
 -1       290 6.63073E+00 5.03654E+01 9.52500E+00
 -1       291 1.31480E+01 4.90690E+01 9.52500E+00
 -1       292 1.94403E+01 4.69331E+01 9.52500E+00
 -1       293 2.54000E+01 4.39941E+01 9.52500E+00
 -1       294 3.09251E+01 4.03023E+01 9.52500E+00
 -1       295 3.59210E+01 3.59210E+01 9.52500E+00
 -1       296 4.03023E+01 3.09251E+01 9.52500E+00
 -1       297 4.39941E+01 2.54000E+01 9.52500E+00
 -1       298 4.69331E+01 1.94403E+01 9.52500E+00
 -1       299 4.90690E+01 1.31480E+01 9.52500E+00
 -1       300 5.03654E+01 6.63073E+00 9.52500E+00
 -1       301 5.08000E+01 2.39583E-07 9.52500E+00
 -1       302 5.03654E+01-6.63073E+00 9.52500E+00
 -1       303 4.90690E+01-1.31480E+01 9.52500E+00
 -1       304 4.69331E+01-1.94403E+01 9.52500E+00
 -1       305 4.39941E+01-2.54000E+01 9.52500E+00
 -1       306 4.03023E+01-3.09251E+01 9.52500E+00
 -1       307 3.59210E+01-3.59210E+01 9.52500E+00
 -1       308 3.09251E+01-4.03023E+01 9.52500E+00
 -1       309 2.54000E+01-4.39941E+01 9.52500E+00
 -1       310 1.94403E+01-4.69331E+01 9.52500E+00
 -1       311 1.31480E+01-4.90690E+01 9.52500E+00
 -1       312 6.63073E+00-5.03654E+01 9.52500E+00
 -1       313 3.32248E+00 5.06912E+01 9.52500E+00
 -1       314 9.91059E+00 4.98239E+01 9.52500E+00
 -1       315 1.63291E+01 4.81040E+01 9.52500E+00
 -1       316 2.24683E+01 4.55611E+01 9.52500E+00
 -1       317 2.82230E+01 4.22387E+01 9.52500E+00
 -1       318 3.34948E+01 3.81935E+01 9.52500E+00
 -1       319 3.81935E+01 3.34948E+01 9.52500E+00
 -1       320 4.22387E+01 2.82230E+01 9.52500E+00
 -1       321 4.55611E+01 2.24683E+01 9.52500E+00
 -1       322 4.81040E+01 1.63291E+01 9.52500E+00
 -1       323 4.98239E+01 9.91059E+00 9.52500E+00
 -1       324 5.06912E+01 3.32248E+00 9.52500E+00
 -1       325 5.06912E+01-3.32248E+00 9.52500E+00
 -1       326 4.98239E+01-9.91059E+00 9.52500E+00
 -1       327 4.81040E+01-1.63291E+01 9.52500E+00
 -1       328 4.55611E+01-2.24683E+01 9.52500E+00
 -1       329 4.22387E+01-2.82230E+01 9.52500E+00
 -1       330 3.81935E+01-3.34948E+01 9.52500E+00
 -1       331 3.34948E+01-3.81935E+01 9.52500E+00
 -1       332 2.82230E+01-4.22387E+01 9.52500E+00
 -1       333 2.24683E+01-4.55611E+01 9.52500E+00
 -1       334 1.63291E+01-4.81040E+01 9.52500E+00
 -1       335 9.91059E+00-4.98239E+01 9.52500E+00
 -1       336 3.32248E+00-5.06912E+01 9.52500E+00
 -1       337 0.00000E+00-5.08000E+01-6.35000E+00
 -1       338 0.00000E+00-5.08000E+01-3.17500E+00
 -1       339 0.00000E+00-5.08000E+01 0.00000E+00
 -1       340 0.00000E+00-5.08000E+01 3.17500E+00
 -1       341 0.00000E+00-5.08000E+01 6.35000E+00
 -1       342 0.00000E+00-5.08000E+01-7.93750E+00
 -1       343 0.00000E+00-5.08000E+01-4.76250E+00
 -1       344 0.00000E+00-5.08000E+01-1.58750E+00
 -1       345 0.00000E+00-5.08000E+01 1.58750E+00
 -1       346 0.00000E+00-5.08000E+01 4.76250E+00
 -1       347 0.00000E+00-5.08000E+01 7.93750E+00
 -1       348 0.00000E+00-1.52400E+02-6.35000E+00
 -1       349 0.00000E+00-1.52400E+02-3.17500E+00
 -1       350 0.00000E+00-1.52400E+02 0.00000E+00
 -1       351 0.00000E+00-1.52400E+02 3.17500E+00
 -1       352 0.00000E+00-1.52400E+02 6.35000E+00
 -1       353 0.00000E+00-1.52400E+02-7.93750E+00
 -1       354 0.00000E+00-1.52400E+02-4.76250E+00
 -1       355 0.00000E+00-1.52400E+02-1.58750E+00
 -1       356 0.00000E+00-1.52400E+02 1.58750E+00
 -1       357 0.00000E+00-1.52400E+02 4.76250E+00
 -1       358 0.00000E+00-1.52400E+02 7.93750E+00
 -1       359 9.33150E-15 1.52400E+02-6.35000E+00
 -1       360 9.33150E-15 1.52400E+02-3.17500E+00
 -1       361 9.33150E-15 1.52400E+02 0.00000E+00
 -1       362 9.33150E-15 1.52400E+02 3.17500E+00
 -1       363 9.33150E-15 1.52400E+02 6.35000E+00
 -1       364 9.33150E-15 1.52400E+02-7.93750E+00
 -1       365 9.33150E-15 1.52400E+02-4.76250E+00
 -1       366 9.33150E-15 1.52400E+02-1.58750E+00
 -1       367 9.33150E-15 1.52400E+02 1.58750E+00
 -1       368 9.33150E-15 1.52400E+02 4.76250E+00
 -1       369 9.33150E-15 1.52400E+02 7.93750E+00
 -1       370 3.11050E-15 5.08000E+01-6.35000E+00
 -1       371 3.11050E-15 5.08000E+01-3.17500E+00
 -1       372 3.11050E-15 5.08000E+01 0.00000E+00
 -1       373 3.11050E-15 5.08000E+01 3.17500E+00
 -1       374 3.11050E-15 5.08000E+01 6.35000E+00
 -1       375 3.11050E-15 5.08000E+01-7.93750E+00
 -1       376 3.11050E-15 5.08000E+01-4.76250E+00
 -1       377 3.11050E-15 5.08000E+01-1.58750E+00
 -1       378 3.11050E-15 5.08000E+01 1.58750E+00
 -1       379 3.11050E-15 5.08000E+01 4.76250E+00
 -1       380 3.11050E-15 5.08000E+01 7.93750E+00
 -1       381 7.36748E+00-5.59616E+01-9.52500E+00
 -1       382 1.46089E+01-5.45211E+01-9.52500E+00
 -1       383 2.16004E+01-5.21479E+01-9.52500E+00
 -1       384 2.82222E+01-4.88823E+01-9.52500E+00
 -1       385 3.43612E+01-4.47804E+01-9.52500E+00
 -1       386 3.99123E+01-3.99123E+01-9.52500E+00
 -1       387 4.47804E+01-3.43612E+01-9.52500E+00
 -1       388 4.88823E+01-2.82222E+01-9.52500E+00
 -1       389 5.21479E+01-2.16004E+01-9.52500E+00
 -1       390 5.45211E+01-1.46089E+01-9.52500E+00
 -1       391 5.59616E+01-7.36748E+00-9.52500E+00
 -1       392 5.64444E+01 2.65182E-07-9.52500E+00
 -1       393 5.59616E+01 7.36748E+00-9.52500E+00
 -1       394 5.45211E+01 1.46089E+01-9.52500E+00
 -1       395 5.21479E+01 2.16004E+01-9.52500E+00
 -1       396 4.88823E+01 2.82222E+01-9.52500E+00
 -1       397 4.47804E+01 3.43612E+01-9.52500E+00
 -1       398 3.99123E+01 3.99123E+01-9.52500E+00
 -1       399 3.43612E+01 4.47804E+01-9.52500E+00
 -1       400 2.82222E+01 4.88823E+01-9.52500E+00
 -1       401 2.16004E+01 5.21479E+01-9.52500E+00
 -1       402 1.46089E+01 5.45211E+01-9.52500E+00
 -1       403 7.36748E+00 5.59616E+01-9.52500E+00
 -1       404 8.10423E+00-6.15577E+01-9.52500E+00
 -1       405 1.60698E+01-5.99733E+01-9.52500E+00
 -1       406 2.37604E+01-5.73627E+01-9.52500E+00
 -1       407 3.10444E+01-5.37706E+01-9.52500E+00
 -1       408 3.77973E+01-4.92584E+01-9.52500E+00
 -1       409 4.39035E+01-4.39035E+01-9.52500E+00
 -1       410 4.92584E+01-3.77973E+01-9.52500E+00
 -1       411 5.37706E+01-3.10444E+01-9.52500E+00
 -1       412 5.73627E+01-2.37604E+01-9.52500E+00
 -1       413 5.99733E+01-1.60698E+01-9.52500E+00
 -1       414 6.15577E+01-8.10423E+00-9.52500E+00
 -1       415 6.20889E+01 2.90777E-07-9.52500E+00
 -1       416 6.15577E+01 8.10423E+00-9.52500E+00
 -1       417 5.99733E+01 1.60698E+01-9.52500E+00
 -1       418 5.73627E+01 2.37604E+01-9.52500E+00
 -1       419 5.37706E+01 3.10444E+01-9.52500E+00
 -1       420 4.92584E+01 3.77973E+01-9.52500E+00
 -1       421 4.39035E+01 4.39035E+01-9.52500E+00
 -1       422 3.77973E+01 4.92584E+01-9.52500E+00
 -1       423 3.10444E+01 5.37706E+01-9.52500E+00
 -1       424 2.37604E+01 5.73627E+01-9.52500E+00
 -1       425 1.60698E+01 5.99733E+01-9.52500E+00
 -1       426 8.10423E+00 6.15577E+01-9.52500E+00
 -1       427 8.84097E+00-6.71539E+01-9.52500E+00
 -1       428 1.75307E+01-6.54254E+01-9.52500E+00
 -1       429 2.59204E+01-6.25774E+01-9.52500E+00
 -1       430 3.38667E+01-5.86588E+01-9.52500E+00
 -1       431 4.12334E+01-5.37365E+01-9.52500E+00
 -1       432 4.78947E+01-4.78947E+01-9.52500E+00
 -1       433 5.37365E+01-4.12334E+01-9.52500E+00
 -1       434 5.86588E+01-3.38667E+01-9.52500E+00
 -1       435 6.25774E+01-2.59204E+01-9.52500E+00
 -1       436 6.54254E+01-1.75307E+01-9.52500E+00
 -1       437 6.71539E+01-8.84097E+00-9.52500E+00
 -1       438 6.77333E+01 3.16378E-07-9.52500E+00
 -1       439 6.71539E+01 8.84097E+00-9.52500E+00
 -1       440 6.54254E+01 1.75307E+01-9.52500E+00
 -1       441 6.25774E+01 2.59204E+01-9.52500E+00
 -1       442 5.86588E+01 3.38667E+01-9.52500E+00
 -1       443 5.37365E+01 4.12334E+01-9.52500E+00
 -1       444 4.78947E+01 4.78947E+01-9.52500E+00
 -1       445 4.12334E+01 5.37365E+01-9.52500E+00
 -1       446 3.38667E+01 5.86588E+01-9.52500E+00
 -1       447 2.59204E+01 6.25774E+01-9.52500E+00
 -1       448 1.75307E+01 6.54254E+01-9.52500E+00
 -1       449 8.84097E+00 6.71539E+01-9.52500E+00
 -1       450 9.57772E+00-7.27500E+01-9.52500E+00
 -1       451 1.89916E+01-7.08775E+01-9.52500E+00
 -1       452 2.80805E+01-6.77922E+01-9.52500E+00
 -1       453 3.66889E+01-6.35470E+01-9.52500E+00
 -1       454 4.46696E+01-5.82145E+01-9.52500E+00
 -1       455 5.18859E+01-5.18859E+01-9.52500E+00
 -1       456 5.82145E+01-4.46696E+01-9.52500E+00
 -1       457 6.35470E+01-3.66889E+01-9.52500E+00
 -1       458 6.77922E+01-2.80805E+01-9.52500E+00
 -1       459 7.08775E+01-1.89916E+01-9.52500E+00
 -1       460 7.27500E+01-9.57772E+00-9.52500E+00
 -1       461 7.33778E+01 3.41980E-07-9.52500E+00
 -1       462 7.27500E+01 9.57772E+00-9.52500E+00
 -1       463 7.08775E+01 1.89916E+01-9.52500E+00
 -1       464 6.77922E+01 2.80805E+01-9.52500E+00
 -1       465 6.35470E+01 3.66889E+01-9.52500E+00
 -1       466 5.82145E+01 4.46696E+01-9.52500E+00
 -1       467 5.18859E+01 5.18859E+01-9.52500E+00
 -1       468 4.46696E+01 5.82145E+01-9.52500E+00
 -1       469 3.66889E+01 6.35470E+01-9.52500E+00
 -1       470 2.80805E+01 6.77922E+01-9.52500E+00
 -1       471 1.89916E+01 7.08775E+01-9.52500E+00
 -1       472 9.57772E+00 7.27500E+01-9.52500E+00
 -1       473 1.03145E+01-7.83462E+01-9.52500E+00
 -1       474 2.04525E+01-7.63296E+01-9.52500E+00
 -1       475 3.02405E+01-7.30070E+01-9.52500E+00
 -1       476 3.95111E+01-6.84352E+01-9.52500E+00
 -1       477 4.81057E+01-6.26925E+01-9.52500E+00
 -1       478 5.58771E+01-5.58771E+01-9.52500E+00
 -1       479 6.26925E+01-4.81057E+01-9.52500E+00
 -1       480 6.84352E+01-3.95111E+01-9.52500E+00
 -1       481 7.30070E+01-3.02405E+01-9.52500E+00
 -1       482 7.63296E+01-2.04525E+01-9.52500E+00
 -1       483 7.83462E+01-1.03145E+01-9.52500E+00
 -1       484 7.90222E+01 3.67580E-07-9.52500E+00
 -1       485 7.83462E+01 1.03145E+01-9.52500E+00
 -1       486 7.63296E+01 2.04525E+01-9.52500E+00
 -1       487 7.30070E+01 3.02405E+01-9.52500E+00
 -1       488 6.84352E+01 3.95111E+01-9.52500E+00
 -1       489 6.26925E+01 4.81057E+01-9.52500E+00
 -1       490 5.58771E+01 5.58771E+01-9.52500E+00
 -1       491 4.81057E+01 6.26925E+01-9.52500E+00
 -1       492 3.95111E+01 6.84352E+01-9.52500E+00
 -1       493 3.02405E+01 7.30070E+01-9.52500E+00
 -1       494 2.04525E+01 7.63296E+01-9.52500E+00
 -1       495 1.03145E+01 7.83462E+01-9.52500E+00
 -1       496 1.10512E+01-8.39423E+01-9.52500E+00
 -1       497 2.19133E+01-8.17817E+01-9.52500E+00
 -1       498 3.24005E+01-7.82218E+01-9.52500E+00
 -1       499 4.23333E+01-7.33235E+01-9.52500E+00
 -1       500 5.15418E+01-6.71706E+01-9.52500E+00
 -1       501 5.98684E+01-5.98684E+01-9.52500E+00
 -1       502 6.71706E+01-5.15418E+01-9.52500E+00
 -1       503 7.33235E+01-4.23333E+01-9.52500E+00
 -1       504 7.82218E+01-3.24005E+01-9.52500E+00
 -1       505 8.17817E+01-2.19133E+01-9.52500E+00
 -1       506 8.39423E+01-1.10512E+01-9.52500E+00
 -1       507 8.46667E+01 3.93179E-07-9.52500E+00
 -1       508 8.39423E+01 1.10512E+01-9.52500E+00
 -1       509 8.17817E+01 2.19133E+01-9.52500E+00
 -1       510 7.82218E+01 3.24005E+01-9.52500E+00
 -1       511 7.33235E+01 4.23333E+01-9.52500E+00
 -1       512 6.71706E+01 5.15418E+01-9.52500E+00
 -1       513 5.98684E+01 5.98684E+01-9.52500E+00
 -1       514 5.15418E+01 6.71706E+01-9.52500E+00
 -1       515 4.23333E+01 7.33235E+01-9.52500E+00
 -1       516 3.24005E+01 7.82218E+01-9.52500E+00
 -1       517 2.19133E+01 8.17817E+01-9.52500E+00
 -1       518 1.10512E+01 8.39423E+01-9.52500E+00
 -1       519 1.17880E+01-8.95385E+01-9.52500E+00
 -1       520 2.33742E+01-8.72338E+01-9.52500E+00
 -1       521 3.45606E+01-8.34366E+01-9.52500E+00
 -1       522 4.51556E+01-7.82117E+01-9.52500E+00
 -1       523 5.49779E+01-7.16486E+01-9.52500E+00
 -1       524 6.38596E+01-6.38596E+01-9.52500E+00
 -1       525 7.16486E+01-5.49779E+01-9.52500E+00
 -1       526 7.82117E+01-4.51556E+01-9.52500E+00
 -1       527 8.34366E+01-3.45606E+01-9.52500E+00
 -1       528 8.72338E+01-2.33742E+01-9.52500E+00
 -1       529 8.95385E+01-1.17880E+01-9.52500E+00
 -1       530 9.03111E+01 4.18782E-07-9.52500E+00
 -1       531 8.95385E+01 1.17880E+01-9.52500E+00
 -1       532 8.72338E+01 2.33742E+01-9.52500E+00
 -1       533 8.34366E+01 3.45606E+01-9.52500E+00
 -1       534 7.82117E+01 4.51556E+01-9.52500E+00
 -1       535 7.16486E+01 5.49779E+01-9.52500E+00
 -1       536 6.38596E+01 6.38596E+01-9.52500E+00
 -1       537 5.49779E+01 7.16486E+01-9.52500E+00
 -1       538 4.51556E+01 7.82117E+01-9.52500E+00
 -1       539 3.45606E+01 8.34366E+01-9.52500E+00
 -1       540 2.33742E+01 8.72338E+01-9.52500E+00
 -1       541 1.17880E+01 8.95385E+01-9.52500E+00
 -1       542 1.25247E+01-9.51346E+01-9.52500E+00
 -1       543 2.48351E+01-9.26860E+01-9.52500E+00
 -1       544 3.67206E+01-8.86514E+01-9.52500E+00
 -1       545 4.79778E+01-8.30999E+01-9.52500E+00
 -1       546 5.84140E+01-7.61267E+01-9.52500E+00
 -1       547 6.78508E+01-6.78508E+01-9.52500E+00
 -1       548 7.61267E+01-5.84140E+01-9.52500E+00
 -1       549 8.31000E+01-4.79778E+01-9.52500E+00
 -1       550 8.86514E+01-3.67206E+01-9.52500E+00
 -1       551 9.26860E+01-2.48351E+01-9.52500E+00
 -1       552 9.51346E+01-1.25247E+01-9.52500E+00
 -1       553 9.59556E+01 4.44381E-07-9.52500E+00
 -1       554 9.51346E+01 1.25247E+01-9.52500E+00
 -1       555 9.26860E+01 2.48351E+01-9.52500E+00
 -1       556 8.86514E+01 3.67206E+01-9.52500E+00
 -1       557 8.30999E+01 4.79778E+01-9.52500E+00
 -1       558 7.61267E+01 5.84140E+01-9.52500E+00
 -1       559 6.78508E+01 6.78508E+01-9.52500E+00
 -1       560 5.84140E+01 7.61267E+01-9.52500E+00
 -1       561 4.79778E+01 8.30999E+01-9.52500E+00
 -1       562 3.67206E+01 8.86514E+01-9.52500E+00
 -1       563 2.48351E+01 9.26860E+01-9.52500E+00
 -1       564 1.25247E+01 9.51346E+01-9.52500E+00
 -1       565 1.32615E+01-1.00731E+02-9.52500E+00
 -1       566 2.62960E+01-9.81381E+01-9.52500E+00
 -1       567 3.88806E+01-9.38662E+01-9.52500E+00
 -1       568 5.08000E+01-8.79882E+01-9.52500E+00
 -1       569 6.18502E+01-8.06047E+01-9.52500E+00
 -1       570 7.18420E+01-7.18420E+01-9.52500E+00
 -1       571 8.06047E+01-6.18502E+01-9.52500E+00
 -1       572 8.79882E+01-5.08000E+01-9.52500E+00
 -1       573 9.38662E+01-3.88806E+01-9.52500E+00
 -1       574 9.81381E+01-2.62960E+01-9.52500E+00
 -1       575 1.00731E+02-1.32615E+01-9.52500E+00
 -1       576 1.01600E+02 4.69979E-07-9.52500E+00
 -1       577 1.00731E+02 1.32615E+01-9.52500E+00
 -1       578 9.81381E+01 2.62960E+01-9.52500E+00
 -1       579 9.38662E+01 3.88806E+01-9.52500E+00
 -1       580 8.79882E+01 5.08000E+01-9.52500E+00
 -1       581 8.06047E+01 6.18502E+01-9.52500E+00
 -1       582 7.18420E+01 7.18420E+01-9.52500E+00
 -1       583 6.18502E+01 8.06047E+01-9.52500E+00
 -1       584 5.08000E+01 8.79882E+01-9.52500E+00
 -1       585 3.88806E+01 9.38662E+01-9.52500E+00
 -1       586 2.62960E+01 9.81381E+01-9.52500E+00
 -1       587 1.32615E+01 1.00731E+02-9.52500E+00
 -1       588 1.39982E+01-1.06327E+02-9.52500E+00
 -1       589 2.77569E+01-1.03590E+02-9.52500E+00
 -1       590 4.10407E+01-9.90809E+01-9.52500E+00
 -1       591 5.36222E+01-9.28764E+01-9.52500E+00
 -1       592 6.52863E+01-8.50827E+01-9.52500E+00
 -1       593 7.58333E+01-7.58333E+01-9.52500E+00
 -1       594 8.50827E+01-6.52863E+01-9.52500E+00
 -1       595 9.28764E+01-5.36222E+01-9.52500E+00
 -1       596 9.90809E+01-4.10407E+01-9.52500E+00
 -1       597 1.03590E+02-2.77569E+01-9.52500E+00
 -1       598 1.06327E+02-1.39982E+01-9.52500E+00
 -1       599 1.07244E+02 4.95548E-07-9.52500E+00
 -1       600 1.06327E+02 1.39982E+01-9.52500E+00
 -1       601 1.03590E+02 2.77569E+01-9.52500E+00
 -1       602 9.90809E+01 4.10407E+01-9.52500E+00
 -1       603 9.28764E+01 5.36222E+01-9.52500E+00
 -1       604 8.50827E+01 6.52863E+01-9.52500E+00
 -1       605 7.58333E+01 7.58333E+01-9.52500E+00
 -1       606 6.52863E+01 8.50827E+01-9.52500E+00
 -1       607 5.36222E+01 9.28764E+01-9.52500E+00
 -1       608 4.10407E+01 9.90809E+01-9.52500E+00
 -1       609 2.77569E+01 1.03590E+02-9.52500E+00
 -1       610 1.39982E+01 1.06327E+02-9.52500E+00
 -1       611 1.47350E+01-1.11923E+02-9.52500E+00
 -1       612 2.92178E+01-1.09042E+02-9.52500E+00
 -1       613 4.32007E+01-1.04296E+02-9.52500E+00
 -1       614 5.64444E+01-9.77646E+01-9.52500E+00
 -1       615 6.87224E+01-8.95608E+01-9.52500E+00
 -1       616 7.98245E+01-7.98245E+01-9.52500E+00
 -1       617 8.95608E+01-6.87224E+01-9.52500E+00
 -1       618 9.77646E+01-5.64444E+01-9.52500E+00
 -1       619 1.04296E+02-4.32007E+01-9.52500E+00
 -1       620 1.09042E+02-2.92178E+01-9.52500E+00
 -1       621 1.11923E+02-1.47350E+01-9.52500E+00
 -1       622 1.12889E+02 5.21115E-07-9.52500E+00
 -1       623 1.11923E+02 1.47350E+01-9.52500E+00
 -1       624 1.09042E+02 2.92178E+01-9.52500E+00
 -1       625 1.04296E+02 4.32007E+01-9.52500E+00
 -1       626 9.77646E+01 5.64444E+01-9.52500E+00
 -1       627 8.95608E+01 6.87224E+01-9.52500E+00
 -1       628 7.98245E+01 7.98245E+01-9.52500E+00
 -1       629 6.87224E+01 8.95608E+01-9.52500E+00
 -1       630 5.64444E+01 9.77646E+01-9.52500E+00
 -1       631 4.32007E+01 1.04296E+02-9.52500E+00
 -1       632 2.92178E+01 1.09042E+02-9.52500E+00
 -1       633 1.47350E+01 1.11923E+02-9.52500E+00
 -1       634 1.54717E+01-1.17519E+02-9.52500E+00
 -1       635 3.06787E+01-1.14494E+02-9.52500E+00
 -1       636 4.53607E+01-1.09511E+02-9.52500E+00
 -1       637 5.92667E+01-1.02653E+02-9.52500E+00
 -1       638 7.21585E+01-9.40388E+01-9.52500E+00
 -1       639 8.38157E+01-8.38157E+01-9.52500E+00
 -1       640 9.40388E+01-7.21585E+01-9.52500E+00
 -1       641 1.02653E+02-5.92667E+01-9.52500E+00
 -1       642 1.09511E+02-4.53607E+01-9.52500E+00
 -1       643 1.14494E+02-3.06787E+01-9.52500E+00
 -1       644 1.17519E+02-1.54717E+01-9.52500E+00
 -1       645 1.18533E+02 5.46687E-07-9.52500E+00
 -1       646 1.17519E+02 1.54717E+01-9.52500E+00
 -1       647 1.14494E+02 3.06787E+01-9.52500E+00
 -1       648 1.09511E+02 4.53607E+01-9.52500E+00
 -1       649 1.02653E+02 5.92667E+01-9.52500E+00
 -1       650 9.40388E+01 7.21585E+01-9.52500E+00
 -1       651 8.38157E+01 8.38157E+01-9.52500E+00
 -1       652 7.21585E+01 9.40388E+01-9.52500E+00
 -1       653 5.92667E+01 1.02653E+02-9.52500E+00
 -1       654 4.53607E+01 1.09511E+02-9.52500E+00
 -1       655 3.06787E+01 1.14494E+02-9.52500E+00
 -1       656 1.54717E+01 1.17519E+02-9.52500E+00
 -1       657 1.62085E+01-1.23115E+02-9.52500E+00
 -1       658 3.21396E+01-1.19947E+02-9.52500E+00
 -1       659 4.75208E+01-1.14725E+02-9.52500E+00
 -1       660 6.20889E+01-1.07541E+02-9.52500E+00
 -1       661 7.55946E+01-9.85169E+01-9.52500E+00
 -1       662 8.78069E+01-8.78069E+01-9.52500E+00
 -1       663 9.85169E+01-7.55946E+01-9.52500E+00
 -1       664 1.07541E+02-6.20889E+01-9.52500E+00
 -1       665 1.14725E+02-4.75208E+01-9.52500E+00
 -1       666 1.19947E+02-3.21396E+01-9.52500E+00
 -1       667 1.23115E+02-1.62085E+01-9.52500E+00
 -1       668 1.24178E+02 5.72253E-07-9.52500E+00
 -1       669 1.23115E+02 1.62085E+01-9.52500E+00
 -1       670 1.19947E+02 3.21396E+01-9.52500E+00
 -1       671 1.14725E+02 4.75208E+01-9.52500E+00
 -1       672 1.07541E+02 6.20889E+01-9.52500E+00
 -1       673 9.85169E+01 7.55946E+01-9.52500E+00
 -1       674 8.78069E+01 8.78069E+01-9.52500E+00
 -1       675 7.55946E+01 9.85169E+01-9.52500E+00
 -1       676 6.20889E+01 1.07541E+02-9.52500E+00
 -1       677 4.75208E+01 1.14725E+02-9.52500E+00
 -1       678 3.21396E+01 1.19947E+02-9.52500E+00
 -1       679 1.62085E+01 1.23115E+02-9.52500E+00
 -1       680 1.69452E+01-1.28712E+02-9.52500E+00
 -1       681 3.36005E+01-1.25399E+02-9.52500E+00
 -1       682 4.96808E+01-1.19940E+02-9.52500E+00
 -1       683 6.49111E+01-1.12429E+02-9.52500E+00
 -1       684 7.90308E+01-1.02995E+02-9.52500E+00
 -1       685 9.17982E+01-9.17982E+01-9.52500E+00
 -1       686 1.02995E+02-7.90308E+01-9.52500E+00
 -1       687 1.12429E+02-6.49111E+01-9.52500E+00
 -1       688 1.19940E+02-4.96808E+01-9.52500E+00
 -1       689 1.25399E+02-3.36005E+01-9.52500E+00
 -1       690 1.28712E+02-1.69452E+01-9.52500E+00
 -1       691 1.29822E+02 5.97826E-07-9.52500E+00
 -1       692 1.28712E+02 1.69452E+01-9.52500E+00
 -1       693 1.25399E+02 3.36005E+01-9.52500E+00
 -1       694 1.19940E+02 4.96808E+01-9.52500E+00
 -1       695 1.12429E+02 6.49111E+01-9.52500E+00
 -1       696 1.02995E+02 7.90308E+01-9.52500E+00
 -1       697 9.17982E+01 9.17982E+01-9.52500E+00
 -1       698 7.90308E+01 1.02995E+02-9.52500E+00
 -1       699 6.49111E+01 1.12429E+02-9.52500E+00
 -1       700 4.96808E+01 1.19940E+02-9.52500E+00
 -1       701 3.36005E+01 1.25399E+02-9.52500E+00
 -1       702 1.69452E+01 1.28712E+02-9.52500E+00
 -1       703 1.76819E+01-1.34308E+02-9.52500E+00
 -1       704 3.50614E+01-1.30851E+02-9.52500E+00
 -1       705 5.18409E+01-1.25155E+02-9.52500E+00
 -1       706 6.77333E+01-1.17318E+02-9.52500E+00
 -1       707 8.24669E+01-1.07473E+02-9.52500E+00
 -1       708 9.57894E+01-9.57894E+01-9.52500E+00
 -1       709 1.07473E+02-8.24669E+01-9.52500E+00
 -1       710 1.17318E+02-6.77333E+01-9.52500E+00
 -1       711 1.25155E+02-5.18408E+01-9.52500E+00
 -1       712 1.30851E+02-3.50614E+01-9.52500E+00
 -1       713 1.34308E+02-1.76819E+01-9.52500E+00
 -1       714 1.35467E+02 6.23397E-07-9.52500E+00
 -1       715 1.34308E+02 1.76819E+01-9.52500E+00
 -1       716 1.30851E+02 3.50614E+01-9.52500E+00
 -1       717 1.25155E+02 5.18409E+01-9.52500E+00
 -1       718 1.17318E+02 6.77333E+01-9.52500E+00
 -1       719 1.07473E+02 8.24669E+01-9.52500E+00
 -1       720 9.57894E+01 9.57894E+01-9.52500E+00
 -1       721 8.24669E+01 1.07473E+02-9.52500E+00
 -1       722 6.77333E+01 1.17318E+02-9.52500E+00
 -1       723 5.18408E+01 1.25155E+02-9.52500E+00
 -1       724 3.50614E+01 1.30851E+02-9.52500E+00
 -1       725 1.76819E+01 1.34308E+02-9.52500E+00
 -1       726 1.84187E+01-1.39904E+02-9.52500E+00
 -1       727 3.65222E+01-1.36303E+02-9.52500E+00
 -1       728 5.40009E+01-1.30370E+02-9.52500E+00
 -1       729 7.05556E+01-1.22206E+02-9.52500E+00
 -1       730 8.59030E+01-1.11951E+02-9.52500E+00
 -1       731 9.97806E+01-9.97806E+01-9.52500E+00
 -1       732 1.11951E+02-8.59030E+01-9.52500E+00
 -1       733 1.22206E+02-7.05556E+01-9.52500E+00
 -1       734 1.30370E+02-5.40009E+01-9.52500E+00
 -1       735 1.36303E+02-3.65222E+01-9.52500E+00
 -1       736 1.39904E+02-1.84187E+01-9.52500E+00
 -1       737 1.41111E+02 6.48959E-07-9.52500E+00
 -1       738 1.39904E+02 1.84187E+01-9.52500E+00
 -1       739 1.36303E+02 3.65222E+01-9.52500E+00
 -1       740 1.30370E+02 5.40009E+01-9.52500E+00
 -1       741 1.22206E+02 7.05556E+01-9.52500E+00
 -1       742 1.11951E+02 8.59030E+01-9.52500E+00
 -1       743 9.97806E+01 9.97806E+01-9.52500E+00
 -1       744 8.59030E+01 1.11951E+02-9.52500E+00
 -1       745 7.05556E+01 1.22206E+02-9.52500E+00
 -1       746 5.40009E+01 1.30370E+02-9.52500E+00
 -1       747 3.65222E+01 1.36303E+02-9.52500E+00
 -1       748 1.84187E+01 1.39904E+02-9.52500E+00
 -1       749 1.91554E+01-1.45500E+02-9.52500E+00
 -1       750 3.79831E+01-1.41755E+02-9.52500E+00
 -1       751 5.61609E+01-1.35584E+02-9.52500E+00
 -1       752 7.33778E+01-1.27094E+02-9.52500E+00
 -1       753 8.93391E+01-1.16429E+02-9.52500E+00
 -1       754 1.03772E+02-1.03772E+02-9.52500E+00
 -1       755 1.16429E+02-8.93391E+01-9.52500E+00
 -1       756 1.27094E+02-7.33778E+01-9.52500E+00
 -1       757 1.35584E+02-5.61609E+01-9.52500E+00
 -1       758 1.41755E+02-3.79831E+01-9.52500E+00
 -1       759 1.45500E+02-1.91554E+01-9.52500E+00
 -1       760 1.46756E+02 6.74529E-07-9.52500E+00
 -1       761 1.45500E+02 1.91554E+01-9.52500E+00
 -1       762 1.41755E+02 3.79831E+01-9.52500E+00
 -1       763 1.35584E+02 5.61609E+01-9.52500E+00
 -1       764 1.27094E+02 7.33778E+01-9.52500E+00
 -1       765 1.16429E+02 8.93391E+01-9.52500E+00
 -1       766 1.03772E+02 1.03772E+02-9.52500E+00
 -1       767 8.93391E+01 1.16429E+02-9.52500E+00
 -1       768 7.33778E+01 1.27094E+02-9.52500E+00
 -1       769 5.61609E+01 1.35584E+02-9.52500E+00
 -1       770 3.79831E+01 1.41755E+02-9.52500E+00
 -1       771 1.91554E+01 1.45500E+02-9.52500E+00
 -1       772 3.68374E+00-5.62030E+01-9.52500E+00
 -1       773 6.99910E+00-5.31635E+01-9.52500E+00
 -1       774 1.09882E+01-5.52414E+01-9.52500E+00
 -1       775 1.38785E+01-5.17951E+01-9.52500E+00
 -1       776 1.81046E+01-5.33345E+01-9.52500E+00
 -1       777 2.05203E+01-4.95405E+01-9.52500E+00
 -1       778 2.49113E+01-5.05151E+01-9.52500E+00
 -1       779 2.68111E+01-4.64382E+01-9.52500E+00
 -1       780 3.12917E+01-4.68314E+01-9.52500E+00
 -1       781 3.26431E+01-4.25414E+01-9.52500E+00
 -1       782 3.71367E+01-4.23463E+01-9.52500E+00
 -1       783 3.79166E+01-3.79166E+01-9.52500E+00
 -1       784 4.23463E+01-3.71367E+01-9.52500E+00
 -1       785 4.25414E+01-3.26431E+01-9.52500E+00
 -1       786 4.68314E+01-3.12917E+01-9.52500E+00
 -1       787 4.64382E+01-2.68111E+01-9.52500E+00
 -1       788 5.05151E+01-2.49113E+01-9.52500E+00
 -1       789 4.95405E+01-2.05203E+01-9.52500E+00
 -1       790 5.33345E+01-1.81046E+01-9.52500E+00
 -1       791 5.17951E+01-1.38785E+01-9.52500E+00
 -1       792 5.52414E+01-1.09882E+01-9.52500E+00
 -1       793 5.31635E+01-6.99910E+00-9.52500E+00
 -1       794 5.62030E+01-3.68374E+00-9.52500E+00
 -1       795 5.36222E+01 2.52383E-07-9.52500E+00
 -1       796 5.62030E+01 3.68374E+00-9.52500E+00
 -1       797 5.31635E+01 6.99910E+00-9.52500E+00
 -1       798 5.52414E+01 1.09882E+01-9.52500E+00
 -1       799 5.17951E+01 1.38785E+01-9.52500E+00
 -1       800 5.33345E+01 1.81046E+01-9.52500E+00
 -1       801 4.95405E+01 2.05203E+01-9.52500E+00
 -1       802 5.05151E+01 2.49113E+01-9.52500E+00
 -1       803 4.64382E+01 2.68111E+01-9.52500E+00
 -1       804 4.68314E+01 3.12917E+01-9.52500E+00
 -1       805 4.25414E+01 3.26431E+01-9.52500E+00
 -1       806 4.23463E+01 3.71367E+01-9.52500E+00
 -1       807 3.79166E+01 3.79166E+01-9.52500E+00
 -1       808 3.71367E+01 4.23463E+01-9.52500E+00
 -1       809 3.26431E+01 4.25414E+01-9.52500E+00
 -1       810 3.12917E+01 4.68314E+01-9.52500E+00
 -1       811 2.68111E+01 4.64382E+01-9.52500E+00
 -1       812 2.49113E+01 5.05151E+01-9.52500E+00
 -1       813 2.05203E+01 4.95405E+01-9.52500E+00
 -1       814 1.81046E+01 5.33345E+01-9.52500E+00
 -1       815 1.38785E+01 5.17951E+01-9.52500E+00
 -1       816 1.09882E+01 5.52414E+01-9.52500E+00
 -1       817 6.99910E+00 5.31635E+01-9.52500E+00
 -1       818 3.68374E+00 5.62030E+01-9.52500E+00
 -1       819 4.05211E+00-6.18233E+01-9.52500E+00
 -1       820 7.73585E+00-5.87596E+01-9.52500E+00
 -1       821 1.20870E+01-6.07655E+01-9.52500E+00
 -1       822 1.53393E+01-5.72472E+01-9.52500E+00
 -1       823 1.99151E+01-5.86680E+01-9.52500E+00
 -1       824 2.26804E+01-5.47553E+01-9.52500E+00
 -1       825 2.74024E+01-5.55666E+01-9.52500E+00
 -1       826 2.96333E+01-5.13264E+01-9.52500E+00
 -1       827 3.44209E+01-5.15145E+01-9.52500E+00
 -1       828 3.60793E+01-4.70194E+01-9.52500E+00
 -1       829 4.08504E+01-4.65810E+01-9.52500E+00
 -1       830 4.19079E+01-4.19079E+01-9.52500E+00
 -1       831 4.65810E+01-4.08504E+01-9.52500E+00
 -1       832 4.70194E+01-3.60793E+01-9.52500E+00
 -1       833 5.15145E+01-3.44209E+01-9.52500E+00
 -1       834 5.13264E+01-2.96333E+01-9.52500E+00
 -1       835 5.55666E+01-2.74024E+01-9.52500E+00
 -1       836 5.47553E+01-2.26804E+01-9.52500E+00
 -1       837 5.86680E+01-1.99151E+01-9.52500E+00
 -1       838 5.72472E+01-1.53393E+01-9.52500E+00
 -1       839 6.07655E+01-1.20870E+01-9.52500E+00
 -1       840 5.87596E+01-7.73585E+00-9.52500E+00
 -1       841 6.18233E+01-4.05211E+00-9.52500E+00
 -1       842 5.92667E+01 2.77979E-07-9.52500E+00
 -1       843 6.18233E+01 4.05211E+00-9.52500E+00
 -1       844 5.87596E+01 7.73585E+00-9.52500E+00
 -1       845 6.07655E+01 1.20870E+01-9.52500E+00
 -1       846 5.72472E+01 1.53393E+01-9.52500E+00
 -1       847 5.86680E+01 1.99151E+01-9.52500E+00
 -1       848 5.47553E+01 2.26804E+01-9.52500E+00
 -1       849 5.55666E+01 2.74024E+01-9.52500E+00
 -1       850 5.13264E+01 2.96333E+01-9.52500E+00
 -1       851 5.15145E+01 3.44209E+01-9.52500E+00
 -1       852 4.70194E+01 3.60793E+01-9.52500E+00
 -1       853 4.65810E+01 4.08504E+01-9.52500E+00
 -1       854 4.19079E+01 4.19079E+01-9.52500E+00
 -1       855 4.08504E+01 4.65810E+01-9.52500E+00
 -1       856 3.60793E+01 4.70194E+01-9.52500E+00
 -1       857 3.44209E+01 5.15145E+01-9.52500E+00
 -1       858 2.96333E+01 5.13264E+01-9.52500E+00
 -1       859 2.74024E+01 5.55666E+01-9.52500E+00
 -1       860 2.26804E+01 5.47553E+01-9.52500E+00
 -1       861 1.99151E+01 5.86680E+01-9.52500E+00
 -1       862 1.53393E+01 5.72472E+01-9.52500E+00
 -1       863 1.20870E+01 6.07655E+01-9.52500E+00
 -1       864 7.73585E+00 5.87596E+01-9.52500E+00
 -1       865 4.05211E+00 6.18233E+01-9.52500E+00
 -1       866 4.42049E+00-6.74436E+01-9.52500E+00
 -1       867 8.47260E+00-6.43558E+01-9.52500E+00
 -1       868 1.31858E+01-6.62896E+01-9.52500E+00
 -1       869 1.68002E+01-6.26993E+01-9.52500E+00
 -1       870 2.17255E+01-6.40014E+01-9.52500E+00
 -1       871 2.48404E+01-5.99700E+01-9.52500E+00
 -1       872 2.98935E+01-6.06181E+01-9.52500E+00
 -1       873 3.24556E+01-5.62147E+01-9.52500E+00
 -1       874 3.75501E+01-5.61976E+01-9.52500E+00
 -1       875 3.95154E+01-5.14974E+01-9.52500E+00
 -1       876 4.45641E+01-5.08156E+01-9.52500E+00
 -1       877 4.58991E+01-4.58991E+01-9.52500E+00
 -1       878 5.08156E+01-4.45641E+01-9.52500E+00
 -1       879 5.14974E+01-3.95154E+01-9.52500E+00
 -1       880 5.61976E+01-3.75501E+01-9.52500E+00
 -1       881 5.62147E+01-3.24556E+01-9.52500E+00
 -1       882 6.06181E+01-2.98935E+01-9.52500E+00
 -1       883 5.99700E+01-2.48404E+01-9.52500E+00
 -1       884 6.40014E+01-2.17255E+01-9.52500E+00
 -1       885 6.26993E+01-1.68002E+01-9.52500E+00
 -1       886 6.62896E+01-1.31858E+01-9.52500E+00
 -1       887 6.43558E+01-8.47260E+00-9.52500E+00
 -1       888 6.74436E+01-4.42049E+00-9.52500E+00
 -1       889 6.49111E+01 3.03578E-07-9.52500E+00
 -1       890 6.74436E+01 4.42049E+00-9.52500E+00
 -1       891 6.43558E+01 8.47260E+00-9.52500E+00
 -1       892 6.62896E+01 1.31858E+01-9.52500E+00
 -1       893 6.26993E+01 1.68002E+01-9.52500E+00
 -1       894 6.40014E+01 2.17256E+01-9.52500E+00
 -1       895 5.99700E+01 2.48404E+01-9.52500E+00
 -1       896 6.06181E+01 2.98935E+01-9.52500E+00
 -1       897 5.62147E+01 3.24556E+01-9.52500E+00
 -1       898 5.61976E+01 3.75501E+01-9.52500E+00
 -1       899 5.14974E+01 3.95154E+01-9.52500E+00
 -1       900 5.08156E+01 4.45641E+01-9.52500E+00
 -1       901 4.58991E+01 4.58991E+01-9.52500E+00
 -1       902 4.45641E+01 5.08156E+01-9.52500E+00
 -1       903 3.95154E+01 5.14974E+01-9.52500E+00
 -1       904 3.75501E+01 5.61976E+01-9.52500E+00
 -1       905 3.24556E+01 5.62147E+01-9.52500E+00
 -1       906 2.98935E+01 6.06181E+01-9.52500E+00
 -1       907 2.48404E+01 5.99700E+01-9.52500E+00
 -1       908 2.17255E+01 6.40014E+01-9.52500E+00
 -1       909 1.68002E+01 6.26993E+01-9.52500E+00
 -1       910 1.31858E+01 6.62896E+01-9.52500E+00
 -1       911 8.47260E+00 6.43558E+01-9.52500E+00
 -1       912 4.42049E+00 6.74436E+01-9.52500E+00
 -1       913 4.78886E+00-7.30639E+01-9.52500E+00
 -1       914 9.20935E+00-6.99519E+01-9.52500E+00
 -1       915 1.42846E+01-7.18138E+01-9.52500E+00
 -1       916 1.82611E+01-6.81514E+01-9.52500E+00
 -1       917 2.35360E+01-6.93349E+01-9.52500E+00
 -1       918 2.70004E+01-6.51848E+01-9.52500E+00
 -1       919 3.23847E+01-6.56696E+01-9.52500E+00
 -1       920 3.52778E+01-6.11029E+01-9.52500E+00
 -1       921 4.06792E+01-6.08808E+01-9.52500E+00
 -1       922 4.29515E+01-5.59755E+01-9.52500E+00
 -1       923 4.82777E+01-5.50502E+01-9.52500E+00
 -1       924 4.98903E+01-4.98903E+01-9.52500E+00
 -1       925 5.50502E+01-4.82777E+01-9.52500E+00
 -1       926 5.59755E+01-4.29515E+01-9.52500E+00
 -1       927 6.08808E+01-4.06792E+01-9.52500E+00
 -1       928 6.11029E+01-3.52778E+01-9.52500E+00
 -1       929 6.56696E+01-3.23847E+01-9.52500E+00
 -1       930 6.51848E+01-2.70004E+01-9.52500E+00
 -1       931 6.93349E+01-2.35360E+01-9.52500E+00
 -1       932 6.81514E+01-1.82611E+01-9.52500E+00
 -1       933 7.18138E+01-1.42846E+01-9.52500E+00
 -1       934 6.99519E+01-9.20935E+00-9.52500E+00
 -1       935 7.30639E+01-4.78886E+00-9.52500E+00
 -1       936 7.05556E+01 3.29179E-07-9.52500E+00
 -1       937 7.30639E+01 4.78886E+00-9.52500E+00
 -1       938 6.99519E+01 9.20935E+00-9.52500E+00
 -1       939 7.18138E+01 1.42846E+01-9.52500E+00
 -1       940 6.81514E+01 1.82611E+01-9.52500E+00
 -1       941 6.93349E+01 2.35360E+01-9.52500E+00
 -1       942 6.51848E+01 2.70004E+01-9.52500E+00
 -1       943 6.56696E+01 3.23847E+01-9.52500E+00
 -1       944 6.11029E+01 3.52778E+01-9.52500E+00
 -1       945 6.08808E+01 4.06792E+01-9.52500E+00
 -1       946 5.59755E+01 4.29515E+01-9.52500E+00
 -1       947 5.50502E+01 4.82777E+01-9.52500E+00
 -1       948 4.98903E+01 4.98903E+01-9.52500E+00
 -1       949 4.82777E+01 5.50502E+01-9.52500E+00
 -1       950 4.29515E+01 5.59755E+01-9.52500E+00
 -1       951 4.06792E+01 6.08808E+01-9.52500E+00
 -1       952 3.52778E+01 6.11029E+01-9.52500E+00
 -1       953 3.23847E+01 6.56696E+01-9.52500E+00
 -1       954 2.70004E+01 6.51848E+01-9.52500E+00
 -1       955 2.35360E+01 6.93349E+01-9.52500E+00
 -1       956 1.82611E+01 6.81514E+01-9.52500E+00
 -1       957 1.42846E+01 7.18138E+01-9.52500E+00
 -1       958 9.20935E+00 6.99519E+01-9.52500E+00
 -1       959 4.78886E+00 7.30639E+01-9.52500E+00
 -1       960 5.15723E+00-7.86842E+01-9.52500E+00
 -1       961 9.94610E+00-7.55481E+01-9.52500E+00
 -1       962 1.53835E+01-7.73379E+01-9.52500E+00
 -1       963 1.97220E+01-7.36035E+01-9.52500E+00
 -1       964 2.53465E+01-7.46683E+01-9.52500E+00
 -1       965 2.91605E+01-7.03996E+01-9.52500E+00
 -1       966 3.48758E+01-7.07211E+01-9.52500E+00
 -1       967 3.81000E+01-6.59911E+01-9.52500E+00
 -1       968 4.38084E+01-6.55639E+01-9.52500E+00
 -1       969 4.63876E+01-6.04535E+01-9.52500E+00
 -1       970 5.19914E+01-5.92848E+01-9.52500E+00
 -1       971 5.38815E+01-5.38815E+01-9.52500E+00
 -1       972 5.92848E+01-5.19914E+01-9.52500E+00
 -1       973 6.04535E+01-4.63876E+01-9.52500E+00
 -1       974 6.55639E+01-4.38084E+01-9.52500E+00
 -1       975 6.59911E+01-3.81000E+01-9.52500E+00
 -1       976 7.07211E+01-3.48758E+01-9.52500E+00
 -1       977 7.03996E+01-2.91605E+01-9.52500E+00
 -1       978 7.46683E+01-2.53465E+01-9.52500E+00
 -1       979 7.36035E+01-1.97220E+01-9.52500E+00
 -1       980 7.73379E+01-1.53835E+01-9.52500E+00
 -1       981 7.55481E+01-9.94610E+00-9.52500E+00
 -1       982 7.86842E+01-5.15723E+00-9.52500E+00
 -1       983 7.62000E+01 3.54780E-07-9.52500E+00
 -1       984 7.86842E+01 5.15724E+00-9.52500E+00
 -1       985 7.55481E+01 9.94610E+00-9.52500E+00
 -1       986 7.73379E+01 1.53835E+01-9.52500E+00
 -1       987 7.36035E+01 1.97220E+01-9.52500E+00
 -1       988 7.46683E+01 2.53465E+01-9.52500E+00
 -1       989 7.03996E+01 2.91605E+01-9.52500E+00
 -1       990 7.07211E+01 3.48758E+01-9.52500E+00
 -1       991 6.59911E+01 3.81000E+01-9.52500E+00
 -1       992 6.55639E+01 4.38084E+01-9.52500E+00
 -1       993 6.04535E+01 4.63876E+01-9.52500E+00
 -1       994 5.92848E+01 5.19914E+01-9.52500E+00
 -1       995 5.38815E+01 5.38815E+01-9.52500E+00
 -1       996 5.19914E+01 5.92848E+01-9.52500E+00
 -1       997 4.63876E+01 6.04535E+01-9.52500E+00
 -1       998 4.38084E+01 6.55639E+01-9.52500E+00
 -1       999 3.81000E+01 6.59911E+01-9.52500E+00
 -1      1000 3.48758E+01 7.07211E+01-9.52500E+00
 -1      1001 2.91605E+01 7.03996E+01-9.52500E+00
 -1      1002 2.53465E+01 7.46683E+01-9.52500E+00
 -1      1003 1.97220E+01 7.36035E+01-9.52500E+00
 -1      1004 1.53835E+01 7.73379E+01-9.52500E+00
 -1      1005 9.94610E+00 7.55481E+01-9.52500E+00
 -1      1006 5.15723E+00 7.86842E+01-9.52500E+00
 -1      1007 5.52561E+00-8.43045E+01-9.52500E+00
 -1      1008 1.06828E+01-8.11443E+01-9.52500E+00
 -1      1009 1.64823E+01-8.28620E+01-9.52500E+00
 -1      1010 2.11829E+01-7.90557E+01-9.52500E+00
 -1      1011 2.71569E+01-8.00018E+01-9.52500E+00
 -1      1012 3.13205E+01-7.56144E+01-9.52500E+00
 -1      1013 3.73669E+01-7.57726E+01-9.52500E+00
 -1      1014 4.09222E+01-7.08794E+01-9.52500E+00
 -1      1015 4.69376E+01-7.02470E+01-9.52500E+00
 -1      1016 4.98237E+01-6.49316E+01-9.52500E+00
 -1      1017 5.57051E+01-6.35195E+01-9.52500E+00
 -1      1018 5.78728E+01-5.78728E+01-9.52500E+00
 -1      1019 6.35195E+01-5.57051E+01-9.52500E+00
 -1      1020 6.49316E+01-4.98237E+01-9.52500E+00
 -1      1021 7.02470E+01-4.69376E+01-9.52500E+00
 -1      1022 7.08794E+01-4.09222E+01-9.52500E+00
 -1      1023 7.57726E+01-3.73669E+01-9.52500E+00
 -1      1024 7.56144E+01-3.13205E+01-9.52500E+00
 -1      1025 8.00018E+01-2.71569E+01-9.52500E+00
 -1      1026 7.90557E+01-2.11829E+01-9.52500E+00
 -1      1027 8.28620E+01-1.64823E+01-9.52500E+00
 -1      1028 8.11443E+01-1.06828E+01-9.52500E+00
 -1      1029 8.43045E+01-5.52561E+00-9.52500E+00
 -1      1030 8.18444E+01 3.80379E-07-9.52500E+00
 -1      1031 8.43045E+01 5.52561E+00-9.52500E+00
 -1      1032 8.11443E+01 1.06828E+01-9.52500E+00
 -1      1033 8.28620E+01 1.64823E+01-9.52500E+00
 -1      1034 7.90557E+01 2.11829E+01-9.52500E+00
 -1      1035 8.00018E+01 2.71569E+01-9.52500E+00
 -1      1036 7.56144E+01 3.13205E+01-9.52500E+00
 -1      1037 7.57726E+01 3.73669E+01-9.52500E+00
 -1      1038 7.08794E+01 4.09222E+01-9.52500E+00
 -1      1039 7.02470E+01 4.69376E+01-9.52500E+00
 -1      1040 6.49316E+01 4.98237E+01-9.52500E+00
 -1      1041 6.35195E+01 5.57051E+01-9.52500E+00
 -1      1042 5.78728E+01 5.78728E+01-9.52500E+00
 -1      1043 5.57051E+01 6.35195E+01-9.52500E+00
 -1      1044 4.98237E+01 6.49316E+01-9.52500E+00
 -1      1045 4.69376E+01 7.02470E+01-9.52500E+00
 -1      1046 4.09222E+01 7.08794E+01-9.52500E+00
 -1      1047 3.73669E+01 7.57726E+01-9.52500E+00
 -1      1048 3.13205E+01 7.56144E+01-9.52500E+00
 -1      1049 2.71569E+01 8.00018E+01-9.52500E+00
 -1      1050 2.11829E+01 7.90557E+01-9.52500E+00
 -1      1051 1.64823E+01 8.28620E+01-9.52500E+00
 -1      1052 1.06828E+01 8.11443E+01-9.52500E+00
 -1      1053 5.52561E+00 8.43045E+01-9.52500E+00
 -1      1054 5.89398E+00-8.99248E+01-9.52500E+00
 -1      1055 1.14196E+01-8.67404E+01-9.52500E+00
 -1      1056 1.75811E+01-8.83862E+01-9.52500E+00
 -1      1057 2.26438E+01-8.45078E+01-9.52500E+00
 -1      1058 2.89674E+01-8.53352E+01-9.52500E+00
 -1      1059 3.34805E+01-8.08292E+01-9.52500E+00
 -1      1060 3.98581E+01-8.08242E+01-9.52500E+00
 -1      1061 4.37444E+01-7.57676E+01-9.52500E+00
 -1      1062 5.00667E+01-7.49302E+01-9.52500E+00
 -1      1063 5.32599E+01-6.94096E+01-9.52500E+00
 -1      1064 5.94188E+01-6.77541E+01-9.52500E+00
 -1      1065 6.18640E+01-6.18640E+01-9.52500E+00
 -1      1066 6.77541E+01-5.94188E+01-9.52500E+00
 -1      1067 6.94096E+01-5.32599E+01-9.52500E+00
 -1      1068 7.49302E+01-5.00667E+01-9.52500E+00
 -1      1069 7.57676E+01-4.37444E+01-9.52500E+00
 -1      1070 8.08242E+01-3.98581E+01-9.52500E+00
 -1      1071 8.08292E+01-3.34805E+01-9.52500E+00
 -1      1072 8.53352E+01-2.89674E+01-9.52500E+00
 -1      1073 8.45078E+01-2.26438E+01-9.52500E+00
 -1      1074 8.83862E+01-1.75811E+01-9.52500E+00
 -1      1075 8.67404E+01-1.14196E+01-9.52500E+00
 -1      1076 8.99248E+01-5.89398E+00-9.52500E+00
 -1      1077 8.74889E+01 4.05980E-07-9.52500E+00
 -1      1078 8.99248E+01 5.89398E+00-9.52500E+00
 -1      1079 8.67404E+01 1.14196E+01-9.52500E+00
 -1      1080 8.83862E+01 1.75811E+01-9.52500E+00
 -1      1081 8.45078E+01 2.26438E+01-9.52500E+00
 -1      1082 8.53352E+01 2.89674E+01-9.52500E+00
 -1      1083 8.08292E+01 3.34805E+01-9.52500E+00
 -1      1084 8.08242E+01 3.98581E+01-9.52500E+00
 -1      1085 7.57676E+01 4.37444E+01-9.52500E+00
 -1      1086 7.49302E+01 5.00667E+01-9.52500E+00
 -1      1087 6.94096E+01 5.32599E+01-9.52500E+00
 -1      1088 6.77541E+01 5.94188E+01-9.52500E+00
 -1      1089 6.18640E+01 6.18640E+01-9.52500E+00
 -1      1090 5.94188E+01 6.77541E+01-9.52500E+00
 -1      1091 5.32599E+01 6.94096E+01-9.52500E+00
 -1      1092 5.00667E+01 7.49302E+01-9.52500E+00
 -1      1093 4.37444E+01 7.57676E+01-9.52500E+00
 -1      1094 3.98581E+01 8.08242E+01-9.52500E+00
 -1      1095 3.34805E+01 8.08292E+01-9.52500E+00
 -1      1096 2.89674E+01 8.53352E+01-9.52500E+00
 -1      1097 2.26438E+01 8.45078E+01-9.52500E+00
 -1      1098 1.75811E+01 8.83862E+01-9.52500E+00
 -1      1099 1.14196E+01 8.67404E+01-9.52500E+00
 -1      1100 5.89398E+00 8.99248E+01-9.52500E+00
 -1      1101 6.26236E+00-9.55451E+01-9.52500E+00
 -1      1102 1.21563E+01-9.23366E+01-9.52500E+00
 -1      1103 1.86799E+01-9.39103E+01-9.52500E+00
 -1      1104 2.41047E+01-8.99599E+01-9.52500E+00
 -1      1105 3.07779E+01-9.06687E+01-9.52500E+00
 -1      1106 3.56406E+01-8.60440E+01-9.52500E+00
 -1      1107 4.23492E+01-8.58757E+01-9.52500E+00
 -1      1108 4.65667E+01-8.06558E+01-9.52500E+00
 -1      1109 5.31959E+01-7.96133E+01-9.52500E+00
 -1      1110 5.66960E+01-7.38876E+01-9.52500E+00
 -1      1111 6.31324E+01-7.19887E+01-9.52500E+00
 -1      1112 6.58552E+01-6.58552E+01-9.52500E+00
 -1      1113 7.19887E+01-6.31324E+01-9.52500E+00
 -1      1114 7.38876E+01-5.66960E+01-9.52500E+00
 -1      1115 7.96133E+01-5.31959E+01-9.52500E+00
 -1      1116 8.06558E+01-4.65667E+01-9.52500E+00
 -1      1117 8.58757E+01-4.23492E+01-9.52500E+00
 -1      1118 8.60440E+01-3.56406E+01-9.52500E+00
 -1      1119 9.06687E+01-3.07779E+01-9.52500E+00
 -1      1120 8.99599E+01-2.41047E+01-9.52500E+00
 -1      1121 9.39103E+01-1.86799E+01-9.52500E+00
 -1      1122 9.23366E+01-1.21563E+01-9.52500E+00
 -1      1123 9.55451E+01-6.26236E+00-9.52500E+00
 -1      1124 9.31333E+01 4.31581E-07-9.52500E+00
 -1      1125 9.55451E+01 6.26236E+00-9.52500E+00
 -1      1126 9.23366E+01 1.21563E+01-9.52500E+00
 -1      1127 9.39103E+01 1.86799E+01-9.52500E+00
 -1      1128 8.99599E+01 2.41047E+01-9.52500E+00
 -1      1129 9.06687E+01 3.07779E+01-9.52500E+00
 -1      1130 8.60440E+01 3.56406E+01-9.52500E+00
 -1      1131 8.58757E+01 4.23492E+01-9.52500E+00
 -1      1132 8.06558E+01 4.65667E+01-9.52500E+00
 -1      1133 7.96133E+01 5.31959E+01-9.52500E+00
 -1      1134 7.38876E+01 5.66960E+01-9.52500E+00
 -1      1135 7.19887E+01 6.31324E+01-9.52500E+00
 -1      1136 6.58552E+01 6.58552E+01-9.52500E+00
 -1      1137 6.31324E+01 7.19887E+01-9.52500E+00
 -1      1138 5.66960E+01 7.38876E+01-9.52500E+00
 -1      1139 5.31959E+01 7.96133E+01-9.52500E+00
 -1      1140 4.65667E+01 8.06558E+01-9.52500E+00
 -1      1141 4.23492E+01 8.58757E+01-9.52500E+00
 -1      1142 3.56406E+01 8.60440E+01-9.52500E+00
 -1      1143 3.07779E+01 9.06687E+01-9.52500E+00
 -1      1144 2.41047E+01 8.99599E+01-9.52500E+00
 -1      1145 1.86799E+01 9.39103E+01-9.52500E+00
 -1      1146 1.21563E+01 9.23366E+01-9.52500E+00
 -1      1147 6.26236E+00 9.55451E+01-9.52500E+00
 -1      1148 6.63073E+00-1.01165E+02-9.52500E+00
 -1      1149 1.28931E+01-9.79327E+01-9.52500E+00
 -1      1150 1.97787E+01-9.94344E+01-9.52500E+00
 -1      1151 2.55656E+01-9.54120E+01-9.52500E+00
 -1      1152 3.25883E+01-9.60021E+01-9.52500E+00
 -1      1153 3.78006E+01-9.12588E+01-9.52500E+00
 -1      1154 4.48403E+01-9.09272E+01-9.52500E+00
 -1      1155 4.93889E+01-8.55441E+01-9.52500E+00
 -1      1156 5.63251E+01-8.42964E+01-9.52500E+00
 -1      1157 6.01321E+01-7.83657E+01-9.52500E+00
 -1      1158 6.68461E+01-7.62234E+01-9.52500E+00
 -1      1159 6.98464E+01-6.98464E+01-9.52500E+00
 -1      1160 7.62234E+01-6.68461E+01-9.52500E+00
 -1      1161 7.83657E+01-6.01321E+01-9.52500E+00
 -1      1162 8.42964E+01-5.63251E+01-9.52500E+00
 -1      1163 8.55441E+01-4.93889E+01-9.52500E+00
 -1      1164 9.09272E+01-4.48403E+01-9.52500E+00
 -1      1165 9.12588E+01-3.78006E+01-9.52500E+00
 -1      1166 9.60021E+01-3.25883E+01-9.52500E+00
 -1      1167 9.54120E+01-2.55656E+01-9.52500E+00
 -1      1168 9.94344E+01-1.97787E+01-9.52500E+00
 -1      1169 9.79327E+01-1.28931E+01-9.52500E+00
 -1      1170 1.01165E+02-6.63073E+00-9.52500E+00
 -1      1171 9.87778E+01 4.57180E-07-9.52500E+00
 -1      1172 1.01165E+02 6.63073E+00-9.52500E+00
 -1      1173 9.79327E+01 1.28931E+01-9.52500E+00
 -1      1174 9.94344E+01 1.97787E+01-9.52500E+00
 -1      1175 9.54120E+01 2.55656E+01-9.52500E+00
 -1      1176 9.60021E+01 3.25883E+01-9.52500E+00
 -1      1177 9.12588E+01 3.78006E+01-9.52500E+00
 -1      1178 9.09272E+01 4.48403E+01-9.52500E+00
 -1      1179 8.55441E+01 4.93889E+01-9.52500E+00
 -1      1180 8.42964E+01 5.63251E+01-9.52500E+00
 -1      1181 7.83657E+01 6.01321E+01-9.52500E+00
 -1      1182 7.62234E+01 6.68461E+01-9.52500E+00
 -1      1183 6.98464E+01 6.98464E+01-9.52500E+00
 -1      1184 6.68461E+01 7.62234E+01-9.52500E+00
 -1      1185 6.01321E+01 7.83657E+01-9.52500E+00
 -1      1186 5.63251E+01 8.42964E+01-9.52500E+00
 -1      1187 4.93889E+01 8.55441E+01-9.52500E+00
 -1      1188 4.48403E+01 9.09272E+01-9.52500E+00
 -1      1189 3.78006E+01 9.12588E+01-9.52500E+00
 -1      1190 3.25883E+01 9.60021E+01-9.52500E+00
 -1      1191 2.55656E+01 9.54120E+01-9.52500E+00
 -1      1192 1.97787E+01 9.94344E+01-9.52500E+00
 -1      1193 1.28931E+01 9.79327E+01-9.52500E+00
 -1      1194 6.63073E+00 1.01165E+02-9.52500E+00
 -1      1195 6.99910E+00-1.06786E+02-9.52500E+00
 -1      1196 1.36298E+01-1.03529E+02-9.52500E+00
 -1      1197 2.08776E+01-1.04959E+02-9.52500E+00
 -1      1198 2.70265E+01-1.00864E+02-9.52500E+00
 -1      1199 3.43988E+01-1.01336E+02-9.52500E+00
 -1      1200 3.99607E+01-9.64736E+01-9.52500E+00
 -1      1201 4.73314E+01-9.59787E+01-9.52500E+00
 -1      1202 5.22111E+01-9.04323E+01-9.52500E+00
 -1      1203 5.94543E+01-8.89796E+01-9.52500E+00
 -1      1204 6.35682E+01-8.28437E+01-9.52500E+00
 -1      1205 7.05598E+01-8.04580E+01-9.52500E+00
 -1      1206 7.38377E+01-7.38377E+01-9.52500E+00
 -1      1207 8.04580E+01-7.05598E+01-9.52500E+00
 -1      1208 8.28437E+01-6.35682E+01-9.52500E+00
 -1      1209 8.89796E+01-5.94543E+01-9.52500E+00
 -1      1210 9.04323E+01-5.22111E+01-9.52500E+00
 -1      1211 9.59787E+01-4.73314E+01-9.52500E+00
 -1      1212 9.64736E+01-3.99607E+01-9.52500E+00
 -1      1213 1.01336E+02-3.43988E+01-9.52500E+00
 -1      1214 1.00864E+02-2.70265E+01-9.52500E+00
 -1      1215 1.04959E+02-2.08776E+01-9.52500E+00
 -1      1216 1.03529E+02-1.36298E+01-9.52500E+00
 -1      1217 1.06786E+02-6.99910E+00-9.52500E+00
 -1      1218 1.04422E+02 4.82764E-07-9.52500E+00
 -1      1219 1.06786E+02 6.99910E+00-9.52500E+00
 -1      1220 1.03529E+02 1.36298E+01-9.52500E+00
 -1      1221 1.04959E+02 2.08776E+01-9.52500E+00
 -1      1222 1.00864E+02 2.70265E+01-9.52500E+00
 -1      1223 1.01336E+02 3.43988E+01-9.52500E+00
 -1      1224 9.64736E+01 3.99607E+01-9.52500E+00
 -1      1225 9.59787E+01 4.73314E+01-9.52500E+00
 -1      1226 9.04323E+01 5.22111E+01-9.52500E+00
 -1      1227 8.89796E+01 5.94543E+01-9.52500E+00
 -1      1228 8.28437E+01 6.35682E+01-9.52500E+00
 -1      1229 8.04580E+01 7.05598E+01-9.52500E+00
 -1      1230 7.38377E+01 7.38377E+01-9.52500E+00
 -1      1231 7.05598E+01 8.04580E+01-9.52500E+00
 -1      1232 6.35682E+01 8.28437E+01-9.52500E+00
 -1      1233 5.94543E+01 8.89796E+01-9.52500E+00
 -1      1234 5.22111E+01 9.04323E+01-9.52500E+00
 -1      1235 4.73314E+01 9.59787E+01-9.52500E+00
 -1      1236 3.99607E+01 9.64736E+01-9.52500E+00
 -1      1237 3.43988E+01 1.01336E+02-9.52500E+00
 -1      1238 2.70265E+01 1.00864E+02-9.52500E+00
 -1      1239 2.08776E+01 1.04959E+02-9.52500E+00
 -1      1240 1.36298E+01 1.03529E+02-9.52500E+00
 -1      1241 6.99910E+00 1.06786E+02-9.52500E+00
 -1      1242 7.36748E+00-1.12406E+02-9.52500E+00
 -1      1243 1.43666E+01-1.09125E+02-9.52500E+00
 -1      1244 2.19764E+01-1.10483E+02-9.52500E+00
 -1      1245 2.84874E+01-1.06316E+02-9.52500E+00
 -1      1246 3.62093E+01-1.06669E+02-9.52500E+00
 -1      1247 4.21207E+01-1.01688E+02-9.52500E+00
 -1      1248 4.98226E+01-1.01030E+02-9.52500E+00
 -1      1249 5.50333E+01-9.53205E+01-9.52500E+00
 -1      1250 6.25834E+01-9.36627E+01-9.52500E+00
 -1      1251 6.70043E+01-8.73218E+01-9.52500E+00
 -1      1252 7.42735E+01-8.46926E+01-9.52500E+00
 -1      1253 7.78289E+01-7.78289E+01-9.52500E+00
 -1      1254 8.46926E+01-7.42735E+01-9.52500E+00
 -1      1255 8.73218E+01-6.70043E+01-9.52500E+00
 -1      1256 9.36627E+01-6.25834E+01-9.52500E+00
 -1      1257 9.53205E+01-5.50333E+01-9.52500E+00
 -1      1258 1.01030E+02-4.98226E+01-9.52500E+00
 -1      1259 1.01688E+02-4.21207E+01-9.52500E+00
 -1      1260 1.06669E+02-3.62093E+01-9.52500E+00
 -1      1261 1.06316E+02-2.84873E+01-9.52500E+00
 -1      1262 1.10483E+02-2.19764E+01-9.52500E+00
 -1      1263 1.09125E+02-1.43666E+01-9.52500E+00
 -1      1264 1.12406E+02-7.36748E+00-9.52500E+00
 -1      1265 1.10067E+02 5.08331E-07-9.52500E+00
 -1      1266 1.12406E+02 7.36748E+00-9.52500E+00
 -1      1267 1.09125E+02 1.43666E+01-9.52500E+00
 -1      1268 1.10483E+02 2.19764E+01-9.52500E+00
 -1      1269 1.06316E+02 2.84874E+01-9.52500E+00
 -1      1270 1.06669E+02 3.62093E+01-9.52500E+00
 -1      1271 1.01688E+02 4.21207E+01-9.52500E+00
 -1      1272 1.01030E+02 4.98226E+01-9.52500E+00
 -1      1273 9.53205E+01 5.50333E+01-9.52500E+00
 -1      1274 9.36627E+01 6.25834E+01-9.52500E+00
 -1      1275 8.73218E+01 6.70043E+01-9.52500E+00
 -1      1276 8.46926E+01 7.42735E+01-9.52500E+00
 -1      1277 7.78289E+01 7.78289E+01-9.52500E+00
 -1      1278 7.42735E+01 8.46926E+01-9.52500E+00
 -1      1279 6.70043E+01 8.73218E+01-9.52500E+00
 -1      1280 6.25834E+01 9.36627E+01-9.52500E+00
 -1      1281 5.50333E+01 9.53205E+01-9.52500E+00
 -1      1282 4.98226E+01 1.01030E+02-9.52500E+00
 -1      1283 4.21207E+01 1.01688E+02-9.52500E+00
 -1      1284 3.62093E+01 1.06669E+02-9.52500E+00
 -1      1285 2.84873E+01 1.06316E+02-9.52500E+00
 -1      1286 2.19764E+01 1.10483E+02-9.52500E+00
 -1      1287 1.43666E+01 1.09125E+02-9.52500E+00
 -1      1288 7.36748E+00 1.12406E+02-9.52500E+00
 -1      1289 7.73585E+00-1.18026E+02-9.52500E+00
 -1      1290 1.51033E+01-1.14721E+02-9.52500E+00
 -1      1291 2.30752E+01-1.16007E+02-9.52500E+00
 -1      1292 2.99482E+01-1.11768E+02-9.52500E+00
 -1      1293 3.80197E+01-1.12002E+02-9.52500E+00
 -1      1294 4.42807E+01-1.06903E+02-9.52500E+00
 -1      1295 5.23137E+01-1.06082E+02-9.52500E+00
 -1      1296 5.78556E+01-1.00209E+02-9.52500E+00
 -1      1297 6.57126E+01-9.83458E+01-9.52500E+00
 -1      1298 7.04405E+01-9.17998E+01-9.52500E+00
 -1      1299 7.79871E+01-8.89273E+01-9.52500E+00
 -1      1300 8.18201E+01-8.18201E+01-9.52500E+00
 -1      1301 8.89273E+01-7.79871E+01-9.52500E+00
 -1      1302 9.17998E+01-7.04405E+01-9.52500E+00
 -1      1303 9.83458E+01-6.57126E+01-9.52500E+00
 -1      1304 1.00209E+02-5.78556E+01-9.52500E+00
 -1      1305 1.06082E+02-5.23137E+01-9.52500E+00
 -1      1306 1.06903E+02-4.42807E+01-9.52500E+00
 -1      1307 1.12002E+02-3.80197E+01-9.52500E+00
 -1      1308 1.11768E+02-2.99482E+01-9.52500E+00
 -1      1309 1.16007E+02-2.30752E+01-9.52500E+00
 -1      1310 1.14721E+02-1.51033E+01-9.52500E+00
 -1      1311 1.18026E+02-7.73585E+00-9.52500E+00
 -1      1312 1.15711E+02 5.33901E-07-9.52500E+00
 -1      1313 1.18026E+02 7.73585E+00-9.52500E+00
 -1      1314 1.14721E+02 1.51033E+01-9.52500E+00
 -1      1315 1.16007E+02 2.30752E+01-9.52500E+00
 -1      1316 1.11768E+02 2.99482E+01-9.52500E+00
 -1      1317 1.12002E+02 3.80197E+01-9.52500E+00
 -1      1318 1.06903E+02 4.42807E+01-9.52500E+00
 -1      1319 1.06082E+02 5.23137E+01-9.52500E+00
 -1      1320 1.00209E+02 5.78556E+01-9.52500E+00
 -1      1321 9.83458E+01 6.57126E+01-9.52500E+00
 -1      1322 9.17998E+01 7.04405E+01-9.52500E+00
 -1      1323 8.89273E+01 7.79871E+01-9.52500E+00
 -1      1324 8.18201E+01 8.18201E+01-9.52500E+00
 -1      1325 7.79871E+01 8.89273E+01-9.52500E+00
 -1      1326 7.04405E+01 9.17998E+01-9.52500E+00
 -1      1327 6.57126E+01 9.83458E+01-9.52500E+00
 -1      1328 5.78556E+01 1.00209E+02-9.52500E+00
 -1      1329 5.23137E+01 1.06082E+02-9.52500E+00
 -1      1330 4.42807E+01 1.06903E+02-9.52500E+00
 -1      1331 3.80197E+01 1.12002E+02-9.52500E+00
 -1      1332 2.99482E+01 1.11768E+02-9.52500E+00
 -1      1333 2.30752E+01 1.16007E+02-9.52500E+00
 -1      1334 1.51033E+01 1.14721E+02-9.52500E+00
 -1      1335 7.73585E+00 1.18026E+02-9.52500E+00
 -1      1336 8.10423E+00-1.23647E+02-9.52500E+00
 -1      1337 1.58401E+01-1.20317E+02-9.52500E+00
 -1      1338 2.41740E+01-1.21531E+02-9.52500E+00
 -1      1339 3.14091E+01-1.17220E+02-9.52500E+00
 -1      1340 3.98302E+01-1.17336E+02-9.52500E+00
 -1      1341 4.64408E+01-1.12118E+02-9.52500E+00
 -1      1342 5.48048E+01-1.11133E+02-9.52500E+00
 -1      1343 6.06778E+01-1.05097E+02-9.52500E+00
 -1      1344 6.88418E+01-1.03029E+02-9.52500E+00
 -1      1345 7.38766E+01-9.62778E+01-9.52500E+00
 -1      1346 8.17008E+01-9.31619E+01-9.52500E+00
 -1      1347 8.58113E+01-8.58113E+01-9.52500E+00
 -1      1348 9.31619E+01-8.17008E+01-9.52500E+00
 -1      1349 9.62778E+01-7.38766E+01-9.52500E+00
 -1      1350 1.03029E+02-6.88418E+01-9.52500E+00
 -1      1351 1.05097E+02-6.06778E+01-9.52500E+00
 -1      1352 1.11133E+02-5.48048E+01-9.52500E+00
 -1      1353 1.12118E+02-4.64408E+01-9.52500E+00
 -1      1354 1.17336E+02-3.98302E+01-9.52500E+00
 -1      1355 1.17220E+02-3.14091E+01-9.52500E+00
 -1      1356 1.21531E+02-2.41740E+01-9.52500E+00
 -1      1357 1.20317E+02-1.58401E+01-9.52500E+00
 -1      1358 1.23647E+02-8.10423E+00-9.52500E+00
 -1      1359 1.21356E+02 5.59470E-07-9.52500E+00
 -1      1360 1.23647E+02 8.10423E+00-9.52500E+00
 -1      1361 1.20317E+02 1.58401E+01-9.52500E+00
 -1      1362 1.21531E+02 2.41740E+01-9.52500E+00
 -1      1363 1.17220E+02 3.14091E+01-9.52500E+00
 -1      1364 1.17336E+02 3.98302E+01-9.52500E+00
 -1      1365 1.12118E+02 4.64408E+01-9.52500E+00
 -1      1366 1.11133E+02 5.48048E+01-9.52500E+00
 -1      1367 1.05097E+02 6.06778E+01-9.52500E+00
 -1      1368 1.03029E+02 6.88418E+01-9.52500E+00
 -1      1369 9.62778E+01 7.38766E+01-9.52500E+00
 -1      1370 9.31619E+01 8.17008E+01-9.52500E+00
 -1      1371 8.58113E+01 8.58113E+01-9.52500E+00
 -1      1372 8.17008E+01 9.31619E+01-9.52500E+00
 -1      1373 7.38766E+01 9.62778E+01-9.52500E+00
 -1      1374 6.88418E+01 1.03029E+02-9.52500E+00
 -1      1375 6.06778E+01 1.05097E+02-9.52500E+00
 -1      1376 5.48048E+01 1.11133E+02-9.52500E+00
 -1      1377 4.64408E+01 1.12118E+02-9.52500E+00
 -1      1378 3.98302E+01 1.17336E+02-9.52500E+00
 -1      1379 3.14091E+01 1.17220E+02-9.52500E+00
 -1      1380 2.41740E+01 1.21531E+02-9.52500E+00
 -1      1381 1.58401E+01 1.20317E+02-9.52500E+00
 -1      1382 8.10423E+00 1.23647E+02-9.52500E+00
 -1      1383 8.47260E+00-1.29267E+02-9.52500E+00
 -1      1384 1.65768E+01-1.25913E+02-9.52500E+00
 -1      1385 2.52728E+01-1.27055E+02-9.52500E+00
 -1      1386 3.28700E+01-1.22673E+02-9.52500E+00
 -1      1387 4.16406E+01-1.22669E+02-9.52500E+00
 -1      1388 4.86008E+01-1.17333E+02-9.52500E+00
 -1      1389 5.72960E+01-1.16185E+02-9.52500E+00
 -1      1390 6.35000E+01-1.09985E+02-9.52500E+00
 -1      1391 7.19709E+01-1.07712E+02-9.52500E+00
 -1      1392 7.73127E+01-1.00756E+02-9.52500E+00
 -1      1393 8.54145E+01-9.73965E+01-9.52500E+00
 -1      1394 8.98026E+01-8.98026E+01-9.52500E+00
 -1      1395 9.73965E+01-8.54145E+01-9.52500E+00
 -1      1396 1.00756E+02-7.73127E+01-9.52500E+00
 -1      1397 1.07712E+02-7.19709E+01-9.52500E+00
 -1      1398 1.09985E+02-6.35000E+01-9.52500E+00
 -1      1399 1.16185E+02-5.72960E+01-9.52500E+00
 -1      1400 1.17333E+02-4.86008E+01-9.52500E+00
 -1      1401 1.22669E+02-4.16406E+01-9.52500E+00
 -1      1402 1.22673E+02-3.28700E+01-9.52500E+00
 -1      1403 1.27055E+02-2.52728E+01-9.52500E+00
 -1      1404 1.25913E+02-1.65768E+01-9.52500E+00
 -1      1405 1.29267E+02-8.47260E+00-9.52500E+00
 -1      1406 1.27000E+02 5.85039E-07-9.52500E+00
 -1      1407 1.29267E+02 8.47260E+00-9.52500E+00
 -1      1408 1.25913E+02 1.65768E+01-9.52500E+00
 -1      1409 1.27055E+02 2.52728E+01-9.52500E+00
 -1      1410 1.22673E+02 3.28700E+01-9.52500E+00
 -1      1411 1.22669E+02 4.16406E+01-9.52500E+00
 -1      1412 1.17333E+02 4.86008E+01-9.52500E+00
 -1      1413 1.16185E+02 5.72960E+01-9.52500E+00
 -1      1414 1.09985E+02 6.35000E+01-9.52500E+00
 -1      1415 1.07712E+02 7.19709E+01-9.52500E+00
 -1      1416 1.00756E+02 7.73127E+01-9.52500E+00
 -1      1417 9.73965E+01 8.54145E+01-9.52500E+00
 -1      1418 8.98026E+01 8.98026E+01-9.52500E+00
 -1      1419 8.54145E+01 9.73965E+01-9.52500E+00
 -1      1420 7.73127E+01 1.00756E+02-9.52500E+00
 -1      1421 7.19709E+01 1.07712E+02-9.52500E+00
 -1      1422 6.35000E+01 1.09985E+02-9.52500E+00
 -1      1423 5.72960E+01 1.16185E+02-9.52500E+00
 -1      1424 4.86008E+01 1.17333E+02-9.52500E+00
 -1      1425 4.16406E+01 1.22669E+02-9.52500E+00
 -1      1426 3.28700E+01 1.22673E+02-9.52500E+00
 -1      1427 2.52728E+01 1.27055E+02-9.52500E+00
 -1      1428 1.65768E+01 1.25913E+02-9.52500E+00
 -1      1429 8.47260E+00 1.29267E+02-9.52500E+00
 -1      1430 8.84097E+00-1.34887E+02-9.52500E+00
 -1      1431 1.73136E+01-1.31510E+02-9.52500E+00
 -1      1432 2.63717E+01-1.32579E+02-9.52500E+00
 -1      1433 3.43309E+01-1.28125E+02-9.52500E+00
 -1      1434 4.34511E+01-1.28003E+02-9.52500E+00
 -1      1435 5.07608E+01-1.22547E+02-9.52500E+00
 -1      1436 5.97871E+01-1.21236E+02-9.52500E+00
 -1      1437 6.63222E+01-1.14873E+02-9.52500E+00
 -1      1438 7.51001E+01-1.12395E+02-9.52500E+00
 -1      1439 8.07488E+01-1.05234E+02-9.52500E+00
 -1      1440 8.91281E+01-1.01631E+02-9.52500E+00
 -1      1441 9.37938E+01-9.37938E+01-9.52500E+00
 -1      1442 1.01631E+02-8.91281E+01-9.52500E+00
 -1      1443 1.05234E+02-8.07488E+01-9.52500E+00
 -1      1444 1.12395E+02-7.51001E+01-9.52500E+00
 -1      1445 1.14873E+02-6.63222E+01-9.52500E+00
 -1      1446 1.21236E+02-5.97871E+01-9.52500E+00
 -1      1447 1.22547E+02-5.07608E+01-9.52500E+00
 -1      1448 1.28003E+02-4.34511E+01-9.52500E+00
 -1      1449 1.28125E+02-3.43309E+01-9.52500E+00
 -1      1450 1.32579E+02-2.63717E+01-9.52500E+00
 -1      1451 1.31510E+02-1.73136E+01-9.52500E+00
 -1      1452 1.34887E+02-8.84097E+00-9.52500E+00
 -1      1453 1.32644E+02 6.10612E-07-9.52500E+00
 -1      1454 1.34887E+02 8.84097E+00-9.52500E+00
 -1      1455 1.31510E+02 1.73136E+01-9.52500E+00
 -1      1456 1.32579E+02 2.63717E+01-9.52500E+00
 -1      1457 1.28125E+02 3.43309E+01-9.52500E+00
 -1      1458 1.28003E+02 4.34511E+01-9.52500E+00
 -1      1459 1.22547E+02 5.07608E+01-9.52500E+00
 -1      1460 1.21236E+02 5.97871E+01-9.52500E+00
 -1      1461 1.14873E+02 6.63222E+01-9.52500E+00
 -1      1462 1.12395E+02 7.51001E+01-9.52500E+00
 -1      1463 1.05234E+02 8.07488E+01-9.52500E+00
 -1      1464 1.01631E+02 8.91281E+01-9.52500E+00
 -1      1465 9.37938E+01 9.37938E+01-9.52500E+00
 -1      1466 8.91281E+01 1.01631E+02-9.52500E+00
 -1      1467 8.07488E+01 1.05234E+02-9.52500E+00
 -1      1468 7.51001E+01 1.12395E+02-9.52500E+00
 -1      1469 6.63222E+01 1.14873E+02-9.52500E+00
 -1      1470 5.97871E+01 1.21236E+02-9.52500E+00
 -1      1471 5.07608E+01 1.22547E+02-9.52500E+00
 -1      1472 4.34511E+01 1.28003E+02-9.52500E+00
 -1      1473 3.43309E+01 1.28125E+02-9.52500E+00
 -1      1474 2.63717E+01 1.32579E+02-9.52500E+00
 -1      1475 1.73136E+01 1.31510E+02-9.52500E+00
 -1      1476 8.84097E+00 1.34887E+02-9.52500E+00
 -1      1477 9.20935E+00-1.40507E+02-9.52500E+00
 -1      1478 1.80503E+01-1.37106E+02-9.52500E+00
 -1      1479 2.74705E+01-1.38103E+02-9.52500E+00
 -1      1480 3.57918E+01-1.33577E+02-9.52500E+00
 -1      1481 4.52616E+01-1.33336E+02-9.52500E+00
 -1      1482 5.29209E+01-1.27762E+02-9.52500E+00
 -1      1483 6.22782E+01-1.26288E+02-9.52500E+00
 -1      1484 6.91444E+01-1.19762E+02-9.52500E+00
 -1      1485 7.82293E+01-1.17078E+02-9.52500E+00
 -1      1486 8.41849E+01-1.09712E+02-9.52500E+00
 -1      1487 9.28418E+01-1.05866E+02-9.52500E+00
 -1      1488 9.77850E+01-9.77850E+01-9.52500E+00
 -1      1489 1.05866E+02-9.28418E+01-9.52500E+00
 -1      1490 1.09712E+02-8.41849E+01-9.52500E+00
 -1      1491 1.17078E+02-7.82293E+01-9.52500E+00
 -1      1492 1.19762E+02-6.91444E+01-9.52500E+00
 -1      1493 1.26288E+02-6.22782E+01-9.52500E+00
 -1      1494 1.27762E+02-5.29209E+01-9.52500E+00
 -1      1495 1.33336E+02-4.52616E+01-9.52500E+00
 -1      1496 1.33577E+02-3.57918E+01-9.52500E+00
 -1      1497 1.38103E+02-2.74705E+01-9.52500E+00
 -1      1498 1.37106E+02-1.80503E+01-9.52500E+00
 -1      1499 1.40507E+02-9.20935E+00-9.52500E+00
 -1      1500 1.38289E+02 6.36178E-07-9.52500E+00
 -1      1501 1.40507E+02 9.20935E+00-9.52500E+00
 -1      1502 1.37106E+02 1.80503E+01-9.52500E+00
 -1      1503 1.38103E+02 2.74705E+01-9.52500E+00
 -1      1504 1.33577E+02 3.57918E+01-9.52500E+00
 -1      1505 1.33336E+02 4.52616E+01-9.52500E+00
 -1      1506 1.27762E+02 5.29209E+01-9.52500E+00
 -1      1507 1.26288E+02 6.22782E+01-9.52500E+00
 -1      1508 1.19762E+02 6.91444E+01-9.52500E+00
 -1      1509 1.17078E+02 7.82293E+01-9.52500E+00
 -1      1510 1.09712E+02 8.41849E+01-9.52500E+00
 -1      1511 1.05866E+02 9.28418E+01-9.52500E+00
 -1      1512 9.77850E+01 9.77850E+01-9.52500E+00
 -1      1513 9.28418E+01 1.05866E+02-9.52500E+00
 -1      1514 8.41849E+01 1.09712E+02-9.52500E+00
 -1      1515 7.82293E+01 1.17078E+02-9.52500E+00
 -1      1516 6.91444E+01 1.19762E+02-9.52500E+00
 -1      1517 6.22782E+01 1.26288E+02-9.52500E+00
 -1      1518 5.29209E+01 1.27762E+02-9.52500E+00
 -1      1519 4.52616E+01 1.33336E+02-9.52500E+00
 -1      1520 3.57918E+01 1.33577E+02-9.52500E+00
 -1      1521 2.74705E+01 1.38103E+02-9.52500E+00
 -1      1522 1.80503E+01 1.37106E+02-9.52500E+00
 -1      1523 9.20935E+00 1.40507E+02-9.52500E+00
 -1      1524 9.57772E+00-1.46128E+02-9.52500E+00
 -1      1525 1.87871E+01-1.42702E+02-9.52500E+00
 -1      1526 2.85693E+01-1.43628E+02-9.52500E+00
 -1      1527 3.72527E+01-1.39029E+02-9.52500E+00
 -1      1528 4.70720E+01-1.38670E+02-9.52500E+00
 -1      1529 5.50809E+01-1.32977E+02-9.52500E+00
 -1      1530 6.47693E+01-1.31339E+02-9.52500E+00
 -1      1531 7.19667E+01-1.24650E+02-9.52500E+00
 -1      1532 8.13585E+01-1.21762E+02-9.52500E+00
 -1      1533 8.76211E+01-1.14190E+02-9.52500E+00
 -1      1534 9.65555E+01-1.10100E+02-9.52500E+00
 -1      1535 1.01776E+02-1.01776E+02-9.52500E+00
 -1      1536 1.10100E+02-9.65555E+01-9.52500E+00
 -1      1537 1.14190E+02-8.76211E+01-9.52500E+00
 -1      1538 1.21762E+02-8.13585E+01-9.52500E+00
 -1      1539 1.24650E+02-7.19667E+01-9.52500E+00
 -1      1540 1.31339E+02-6.47693E+01-9.52500E+00
 -1      1541 1.32977E+02-5.50809E+01-9.52500E+00
 -1      1542 1.38670E+02-4.70720E+01-9.52500E+00
 -1      1543 1.39029E+02-3.72527E+01-9.52500E+00
 -1      1544 1.43628E+02-2.85693E+01-9.52500E+00
 -1      1545 1.42702E+02-1.87871E+01-9.52500E+00
 -1      1546 1.46128E+02-9.57772E+00-9.52500E+00
 -1      1547 1.43933E+02 6.61744E-07-9.52500E+00
 -1      1548 1.46128E+02 9.57772E+00-9.52500E+00
 -1      1549 1.42702E+02 1.87871E+01-9.52500E+00
 -1      1550 1.43628E+02 2.85693E+01-9.52500E+00
 -1      1551 1.39029E+02 3.72527E+01-9.52500E+00
 -1      1552 1.38670E+02 4.70720E+01-9.52500E+00
 -1      1553 1.32977E+02 5.50809E+01-9.52500E+00
 -1      1554 1.31339E+02 6.47693E+01-9.52500E+00
 -1      1555 1.24650E+02 7.19667E+01-9.52500E+00
 -1      1556 1.21762E+02 8.13585E+01-9.52500E+00
 -1      1557 1.14190E+02 8.76211E+01-9.52500E+00
 -1      1558 1.10100E+02 9.65555E+01-9.52500E+00
 -1      1559 1.01776E+02 1.01776E+02-9.52500E+00
 -1      1560 9.65555E+01 1.10100E+02-9.52500E+00
 -1      1561 8.76211E+01 1.14190E+02-9.52500E+00
 -1      1562 8.13585E+01 1.21762E+02-9.52500E+00
 -1      1563 7.19667E+01 1.24650E+02-9.52500E+00
 -1      1564 6.47693E+01 1.31339E+02-9.52500E+00
 -1      1565 5.50809E+01 1.32977E+02-9.52500E+00
 -1      1566 4.70720E+01 1.38670E+02-9.52500E+00
 -1      1567 3.72527E+01 1.39029E+02-9.52500E+00
 -1      1568 2.85693E+01 1.43628E+02-9.52500E+00
 -1      1569 1.87871E+01 1.42702E+02-9.52500E+00
 -1      1570 9.57772E+00 1.46128E+02-9.52500E+00
 -1      1571 1.95238E+01-1.48298E+02-9.52500E+00
 -1      1572 3.87136E+01-1.44481E+02-9.52500E+00
 -1      1573 5.72409E+01-1.38192E+02-9.52500E+00
 -1      1574 7.47889E+01-1.29538E+02-9.52500E+00
 -1      1575 9.10572E+01-1.18668E+02-9.52500E+00
 -1      1576 1.05767E+02-1.05767E+02-9.52500E+00
 -1      1577 1.18668E+02-9.10572E+01-9.52500E+00
 -1      1578 1.29538E+02-7.47889E+01-9.52500E+00
 -1      1579 1.38192E+02-5.72409E+01-9.52500E+00
 -1      1580 1.44481E+02-3.87136E+01-9.52500E+00
 -1      1581 1.48298E+02-1.95238E+01-9.52500E+00
 -1      1582 1.49578E+02 6.87313E-07-9.52500E+00
 -1      1583 1.48298E+02 1.95238E+01-9.52500E+00
 -1      1584 1.44481E+02 3.87136E+01-9.52500E+00
 -1      1585 1.38192E+02 5.72409E+01-9.52500E+00
 -1      1586 1.29538E+02 7.47889E+01-9.52500E+00
 -1      1587 1.18668E+02 9.10572E+01-9.52500E+00
 -1      1588 1.05767E+02 1.05767E+02-9.52500E+00
 -1      1589 9.10572E+01 1.18668E+02-9.52500E+00
 -1      1590 7.47889E+01 1.29538E+02-9.52500E+00
 -1      1591 5.72409E+01 1.38192E+02-9.52500E+00
 -1      1592 3.87136E+01 1.44481E+02-9.52500E+00
 -1      1593 1.95238E+01 1.48298E+02-9.52500E+00
 -1      1594 0.00000E+00-5.64444E+01-6.35000E+00
 -1      1595 0.00000E+00-5.64444E+01-3.17500E+00
 -1      1596 0.00000E+00-5.64444E+01 0.00000E+00
 -1      1597 0.00000E+00-5.64444E+01 3.17500E+00
 -1      1598 0.00000E+00-5.64444E+01 6.35000E+00
 -1      1599 0.00000E+00-6.20889E+01-6.35000E+00
 -1      1600 0.00000E+00-6.20889E+01-3.17500E+00
 -1      1601 0.00000E+00-6.20889E+01 0.00000E+00
 -1      1602 0.00000E+00-6.20889E+01 3.17500E+00
 -1      1603 0.00000E+00-6.20889E+01 6.35000E+00
 -1      1604 0.00000E+00-6.77333E+01-6.35000E+00
 -1      1605 0.00000E+00-6.77333E+01-3.17500E+00
 -1      1606 0.00000E+00-6.77333E+01 0.00000E+00
 -1      1607 0.00000E+00-6.77333E+01 3.17500E+00
 -1      1608 0.00000E+00-6.77333E+01 6.35000E+00
 -1      1609 0.00000E+00-7.33778E+01-6.35000E+00
 -1      1610 0.00000E+00-7.33778E+01-3.17500E+00
 -1      1611 0.00000E+00-7.33778E+01 0.00000E+00
 -1      1612 0.00000E+00-7.33778E+01 3.17500E+00
 -1      1613 0.00000E+00-7.33778E+01 6.35000E+00
 -1      1614 0.00000E+00-7.90222E+01-6.35000E+00
 -1      1615 0.00000E+00-7.90222E+01-3.17500E+00
 -1      1616 0.00000E+00-7.90222E+01 0.00000E+00
 -1      1617 0.00000E+00-7.90222E+01 3.17500E+00
 -1      1618 0.00000E+00-7.90222E+01 6.35000E+00
 -1      1619 0.00000E+00-8.46667E+01-6.35000E+00
 -1      1620 0.00000E+00-8.46667E+01-3.17500E+00
 -1      1621 0.00000E+00-8.46667E+01 0.00000E+00
 -1      1622 0.00000E+00-8.46667E+01 3.17500E+00
 -1      1623 0.00000E+00-8.46667E+01 6.35000E+00
 -1      1624 0.00000E+00-9.03111E+01-6.35000E+00
 -1      1625 0.00000E+00-9.03111E+01-3.17500E+00
 -1      1626 0.00000E+00-9.03111E+01 0.00000E+00
 -1      1627 0.00000E+00-9.03111E+01 3.17500E+00
 -1      1628 0.00000E+00-9.03111E+01 6.35000E+00
 -1      1629 0.00000E+00-9.59556E+01-6.35000E+00
 -1      1630 0.00000E+00-9.59556E+01-3.17500E+00
 -1      1631 0.00000E+00-9.59556E+01 0.00000E+00
 -1      1632 0.00000E+00-9.59556E+01 3.17500E+00
 -1      1633 0.00000E+00-9.59556E+01 6.35000E+00
 -1      1634 0.00000E+00-1.01600E+02-6.35000E+00
 -1      1635 0.00000E+00-1.01600E+02-3.17500E+00
 -1      1636 0.00000E+00-1.01600E+02 0.00000E+00
 -1      1637 0.00000E+00-1.01600E+02 3.17500E+00
 -1      1638 0.00000E+00-1.01600E+02 6.35000E+00
 -1      1639 0.00000E+00-1.07244E+02-6.35000E+00
 -1      1640 0.00000E+00-1.07244E+02-3.17500E+00
 -1      1641 0.00000E+00-1.07244E+02 0.00000E+00
 -1      1642 0.00000E+00-1.07244E+02 3.17500E+00
 -1      1643 0.00000E+00-1.07244E+02 6.35000E+00
 -1      1644 0.00000E+00-1.12889E+02-6.35000E+00
 -1      1645 0.00000E+00-1.12889E+02-3.17500E+00
 -1      1646 0.00000E+00-1.12889E+02 0.00000E+00
 -1      1647 0.00000E+00-1.12889E+02 3.17500E+00
 -1      1648 0.00000E+00-1.12889E+02 6.35000E+00
 -1      1649 0.00000E+00-1.18533E+02-6.35000E+00
 -1      1650 0.00000E+00-1.18533E+02-3.17500E+00
 -1      1651 0.00000E+00-1.18533E+02 0.00000E+00
 -1      1652 0.00000E+00-1.18533E+02 3.17500E+00
 -1      1653 0.00000E+00-1.18533E+02 6.35000E+00
 -1      1654 0.00000E+00-1.24178E+02-6.35000E+00
 -1      1655 0.00000E+00-1.24178E+02-3.17500E+00
 -1      1656 0.00000E+00-1.24178E+02 0.00000E+00
 -1      1657 0.00000E+00-1.24178E+02 3.17500E+00
 -1      1658 0.00000E+00-1.24178E+02 6.35000E+00
 -1      1659 0.00000E+00-1.29822E+02-6.35000E+00
 -1      1660 0.00000E+00-1.29822E+02-3.17500E+00
 -1      1661 0.00000E+00-1.29822E+02 0.00000E+00
 -1      1662 0.00000E+00-1.29822E+02 3.17500E+00
 -1      1663 0.00000E+00-1.29822E+02 6.35000E+00
 -1      1664 0.00000E+00-1.35467E+02-6.35000E+00
 -1      1665 0.00000E+00-1.35467E+02-3.17500E+00
 -1      1666 0.00000E+00-1.35467E+02 0.00000E+00
 -1      1667 0.00000E+00-1.35467E+02 3.17500E+00
 -1      1668 0.00000E+00-1.35467E+02 6.35000E+00
 -1      1669 0.00000E+00-1.41111E+02-6.35000E+00
 -1      1670 0.00000E+00-1.41111E+02-3.17500E+00
 -1      1671 0.00000E+00-1.41111E+02 0.00000E+00
 -1      1672 0.00000E+00-1.41111E+02 3.17500E+00
 -1      1673 0.00000E+00-1.41111E+02 6.35000E+00
 -1      1674 0.00000E+00-1.46756E+02-6.35000E+00
 -1      1675 0.00000E+00-1.46756E+02-3.17500E+00
 -1      1676 0.00000E+00-1.46756E+02 0.00000E+00
 -1      1677 0.00000E+00-1.46756E+02 3.17500E+00
 -1      1678 0.00000E+00-1.46756E+02 6.35000E+00
 -1      1679 0.00000E+00-5.64444E+01-7.93750E+00
 -1      1680 0.00000E+00-5.36222E+01-6.35000E+00
 -1      1681 0.00000E+00-5.64444E+01-4.76250E+00
 -1      1682 0.00000E+00-5.36222E+01-3.17500E+00
 -1      1683 0.00000E+00-5.64444E+01-1.58750E+00
 -1      1684 0.00000E+00-5.36222E+01 0.00000E+00
 -1      1685 0.00000E+00-5.64444E+01 1.58750E+00
 -1      1686 0.00000E+00-5.36222E+01 3.17500E+00
 -1      1687 0.00000E+00-5.64444E+01 4.76250E+00
 -1      1688 0.00000E+00-5.36222E+01 6.35000E+00
 -1      1689 0.00000E+00-5.64444E+01 7.93750E+00
 -1      1690 0.00000E+00-6.20889E+01-7.93750E+00
 -1      1691 0.00000E+00-5.92667E+01-6.35000E+00
 -1      1692 0.00000E+00-6.20889E+01-4.76250E+00
 -1      1693 0.00000E+00-5.92667E+01-3.17500E+00
 -1      1694 0.00000E+00-6.20889E+01-1.58750E+00
 -1      1695 0.00000E+00-5.92667E+01 0.00000E+00
 -1      1696 0.00000E+00-6.20889E+01 1.58750E+00
 -1      1697 0.00000E+00-5.92667E+01 3.17500E+00
 -1      1698 0.00000E+00-6.20889E+01 4.76250E+00
 -1      1699 0.00000E+00-5.92667E+01 6.35000E+00
 -1      1700 0.00000E+00-6.20889E+01 7.93750E+00
 -1      1701 0.00000E+00-6.77333E+01-7.93750E+00
 -1      1702 0.00000E+00-6.49111E+01-6.35000E+00
 -1      1703 0.00000E+00-6.77333E+01-4.76250E+00
 -1      1704 0.00000E+00-6.49111E+01-3.17500E+00
 -1      1705 0.00000E+00-6.77333E+01-1.58750E+00
 -1      1706 0.00000E+00-6.49111E+01 0.00000E+00
 -1      1707 0.00000E+00-6.77333E+01 1.58750E+00
 -1      1708 0.00000E+00-6.49111E+01 3.17500E+00
 -1      1709 0.00000E+00-6.77333E+01 4.76250E+00
 -1      1710 0.00000E+00-6.49111E+01 6.35000E+00
 -1      1711 0.00000E+00-6.77333E+01 7.93750E+00
 -1      1712 0.00000E+00-7.33778E+01-7.93750E+00
 -1      1713 0.00000E+00-7.05556E+01-6.35000E+00
 -1      1714 0.00000E+00-7.33778E+01-4.76250E+00
 -1      1715 0.00000E+00-7.05556E+01-3.17500E+00
 -1      1716 0.00000E+00-7.33778E+01-1.58750E+00
 -1      1717 0.00000E+00-7.05556E+01 0.00000E+00
 -1      1718 0.00000E+00-7.33778E+01 1.58750E+00
 -1      1719 0.00000E+00-7.05556E+01 3.17500E+00
 -1      1720 0.00000E+00-7.33778E+01 4.76250E+00
 -1      1721 0.00000E+00-7.05556E+01 6.35000E+00
 -1      1722 0.00000E+00-7.33778E+01 7.93750E+00
 -1      1723 0.00000E+00-7.90222E+01-7.93750E+00
 -1      1724 0.00000E+00-7.62000E+01-6.35000E+00
 -1      1725 0.00000E+00-7.90222E+01-4.76250E+00
 -1      1726 0.00000E+00-7.62000E+01-3.17500E+00
 -1      1727 0.00000E+00-7.90222E+01-1.58750E+00
 -1      1728 0.00000E+00-7.62000E+01 0.00000E+00
 -1      1729 0.00000E+00-7.90222E+01 1.58750E+00
 -1      1730 0.00000E+00-7.62000E+01 3.17500E+00
 -1      1731 0.00000E+00-7.90222E+01 4.76250E+00
 -1      1732 0.00000E+00-7.62000E+01 6.35000E+00
 -1      1733 0.00000E+00-7.90222E+01 7.93750E+00
 -1      1734 0.00000E+00-8.46667E+01-7.93750E+00
 -1      1735 0.00000E+00-8.18444E+01-6.35000E+00
 -1      1736 0.00000E+00-8.46667E+01-4.76250E+00
 -1      1737 0.00000E+00-8.18444E+01-3.17500E+00
 -1      1738 0.00000E+00-8.46667E+01-1.58750E+00
 -1      1739 0.00000E+00-8.18444E+01 0.00000E+00
 -1      1740 0.00000E+00-8.46667E+01 1.58750E+00
 -1      1741 0.00000E+00-8.18444E+01 3.17500E+00
 -1      1742 0.00000E+00-8.46667E+01 4.76250E+00
 -1      1743 0.00000E+00-8.18444E+01 6.35000E+00
 -1      1744 0.00000E+00-8.46667E+01 7.93750E+00
 -1      1745 0.00000E+00-9.03111E+01-7.93750E+00
 -1      1746 0.00000E+00-8.74889E+01-6.35000E+00
 -1      1747 0.00000E+00-9.03111E+01-4.76250E+00
 -1      1748 0.00000E+00-8.74889E+01-3.17500E+00
 -1      1749 0.00000E+00-9.03111E+01-1.58750E+00
 -1      1750 0.00000E+00-8.74889E+01 0.00000E+00
 -1      1751 0.00000E+00-9.03111E+01 1.58750E+00
 -1      1752 0.00000E+00-8.74889E+01 3.17500E+00
 -1      1753 0.00000E+00-9.03111E+01 4.76250E+00
 -1      1754 0.00000E+00-8.74889E+01 6.35000E+00
 -1      1755 0.00000E+00-9.03111E+01 7.93750E+00
 -1      1756 0.00000E+00-9.59556E+01-7.93750E+00
 -1      1757 0.00000E+00-9.31333E+01-6.35000E+00
 -1      1758 0.00000E+00-9.59556E+01-4.76250E+00
 -1      1759 0.00000E+00-9.31333E+01-3.17500E+00
 -1      1760 0.00000E+00-9.59556E+01-1.58750E+00
 -1      1761 0.00000E+00-9.31333E+01 0.00000E+00
 -1      1762 0.00000E+00-9.59556E+01 1.58750E+00
 -1      1763 0.00000E+00-9.31333E+01 3.17500E+00
 -1      1764 0.00000E+00-9.59556E+01 4.76250E+00
 -1      1765 0.00000E+00-9.31333E+01 6.35000E+00
 -1      1766 0.00000E+00-9.59556E+01 7.93750E+00
 -1      1767 0.00000E+00-1.01600E+02-7.93750E+00
 -1      1768 0.00000E+00-9.87778E+01-6.35000E+00
 -1      1769 0.00000E+00-1.01600E+02-4.76250E+00
 -1      1770 0.00000E+00-9.87778E+01-3.17500E+00
 -1      1771 0.00000E+00-1.01600E+02-1.58750E+00
 -1      1772 0.00000E+00-9.87778E+01 0.00000E+00
 -1      1773 0.00000E+00-1.01600E+02 1.58750E+00
 -1      1774 0.00000E+00-9.87778E+01 3.17500E+00
 -1      1775 0.00000E+00-1.01600E+02 4.76250E+00
 -1      1776 0.00000E+00-9.87778E+01 6.35000E+00
 -1      1777 0.00000E+00-1.01600E+02 7.93750E+00
 -1      1778 0.00000E+00-1.07244E+02-7.93750E+00
 -1      1779 0.00000E+00-1.04422E+02-6.35000E+00
 -1      1780 0.00000E+00-1.07244E+02-4.76250E+00
 -1      1781 0.00000E+00-1.04422E+02-3.17500E+00
 -1      1782 0.00000E+00-1.07244E+02-1.58750E+00
 -1      1783 0.00000E+00-1.04422E+02 0.00000E+00
 -1      1784 0.00000E+00-1.07244E+02 1.58750E+00
 -1      1785 0.00000E+00-1.04422E+02 3.17500E+00
 -1      1786 0.00000E+00-1.07244E+02 4.76250E+00
 -1      1787 0.00000E+00-1.04422E+02 6.35000E+00
 -1      1788 0.00000E+00-1.07244E+02 7.93750E+00
 -1      1789 0.00000E+00-1.12889E+02-7.93750E+00
 -1      1790 0.00000E+00-1.10067E+02-6.35000E+00
 -1      1791 0.00000E+00-1.12889E+02-4.76250E+00
 -1      1792 0.00000E+00-1.10067E+02-3.17500E+00
 -1      1793 0.00000E+00-1.12889E+02-1.58750E+00
 -1      1794 0.00000E+00-1.10067E+02 0.00000E+00
 -1      1795 0.00000E+00-1.12889E+02 1.58750E+00
 -1      1796 0.00000E+00-1.10067E+02 3.17500E+00
 -1      1797 0.00000E+00-1.12889E+02 4.76250E+00
 -1      1798 0.00000E+00-1.10067E+02 6.35000E+00
 -1      1799 0.00000E+00-1.12889E+02 7.93750E+00
 -1      1800 0.00000E+00-1.18533E+02-7.93750E+00
 -1      1801 0.00000E+00-1.15711E+02-6.35000E+00
 -1      1802 0.00000E+00-1.18533E+02-4.76250E+00
 -1      1803 0.00000E+00-1.15711E+02-3.17500E+00
 -1      1804 0.00000E+00-1.18533E+02-1.58750E+00
 -1      1805 0.00000E+00-1.15711E+02 0.00000E+00
 -1      1806 0.00000E+00-1.18533E+02 1.58750E+00
 -1      1807 0.00000E+00-1.15711E+02 3.17500E+00
 -1      1808 0.00000E+00-1.18533E+02 4.76250E+00
 -1      1809 0.00000E+00-1.15711E+02 6.35000E+00
 -1      1810 0.00000E+00-1.18533E+02 7.93750E+00
 -1      1811 0.00000E+00-1.24178E+02-7.93750E+00
 -1      1812 0.00000E+00-1.21356E+02-6.35000E+00
 -1      1813 0.00000E+00-1.24178E+02-4.76250E+00
 -1      1814 0.00000E+00-1.21356E+02-3.17500E+00
 -1      1815 0.00000E+00-1.24178E+02-1.58750E+00
 -1      1816 0.00000E+00-1.21356E+02 0.00000E+00
 -1      1817 0.00000E+00-1.24178E+02 1.58750E+00
 -1      1818 0.00000E+00-1.21356E+02 3.17500E+00
 -1      1819 0.00000E+00-1.24178E+02 4.76250E+00
 -1      1820 0.00000E+00-1.21356E+02 6.35000E+00
 -1      1821 0.00000E+00-1.24178E+02 7.93750E+00
 -1      1822 0.00000E+00-1.29822E+02-7.93750E+00
 -1      1823 0.00000E+00-1.27000E+02-6.35000E+00
 -1      1824 0.00000E+00-1.29822E+02-4.76250E+00
 -1      1825 0.00000E+00-1.27000E+02-3.17500E+00
 -1      1826 0.00000E+00-1.29822E+02-1.58750E+00
 -1      1827 0.00000E+00-1.27000E+02 0.00000E+00
 -1      1828 0.00000E+00-1.29822E+02 1.58750E+00
 -1      1829 0.00000E+00-1.27000E+02 3.17500E+00
 -1      1830 0.00000E+00-1.29822E+02 4.76250E+00
 -1      1831 0.00000E+00-1.27000E+02 6.35000E+00
 -1      1832 0.00000E+00-1.29822E+02 7.93750E+00
 -1      1833 0.00000E+00-1.35467E+02-7.93750E+00
 -1      1834 0.00000E+00-1.32644E+02-6.35000E+00
 -1      1835 0.00000E+00-1.35467E+02-4.76250E+00
 -1      1836 0.00000E+00-1.32644E+02-3.17500E+00
 -1      1837 0.00000E+00-1.35467E+02-1.58750E+00
 -1      1838 0.00000E+00-1.32644E+02 0.00000E+00
 -1      1839 0.00000E+00-1.35467E+02 1.58750E+00
 -1      1840 0.00000E+00-1.32644E+02 3.17500E+00
 -1      1841 0.00000E+00-1.35467E+02 4.76250E+00
 -1      1842 0.00000E+00-1.32644E+02 6.35000E+00
 -1      1843 0.00000E+00-1.35467E+02 7.93750E+00
 -1      1844 0.00000E+00-1.41111E+02-7.93750E+00
 -1      1845 0.00000E+00-1.38289E+02-6.35000E+00
 -1      1846 0.00000E+00-1.41111E+02-4.76250E+00
 -1      1847 0.00000E+00-1.38289E+02-3.17500E+00
 -1      1848 0.00000E+00-1.41111E+02-1.58750E+00
 -1      1849 0.00000E+00-1.38289E+02 0.00000E+00
 -1      1850 0.00000E+00-1.41111E+02 1.58750E+00
 -1      1851 0.00000E+00-1.38289E+02 3.17500E+00
 -1      1852 0.00000E+00-1.41111E+02 4.76250E+00
 -1      1853 0.00000E+00-1.38289E+02 6.35000E+00
 -1      1854 0.00000E+00-1.41111E+02 7.93750E+00
 -1      1855 0.00000E+00-1.46756E+02-7.93750E+00
 -1      1856 0.00000E+00-1.43933E+02-6.35000E+00
 -1      1857 0.00000E+00-1.46756E+02-4.76250E+00
 -1      1858 0.00000E+00-1.43933E+02-3.17500E+00
 -1      1859 0.00000E+00-1.46756E+02-1.58750E+00
 -1      1860 0.00000E+00-1.43933E+02 0.00000E+00
 -1      1861 0.00000E+00-1.46756E+02 1.58750E+00
 -1      1862 0.00000E+00-1.43933E+02 3.17500E+00
 -1      1863 0.00000E+00-1.46756E+02 4.76250E+00
 -1      1864 0.00000E+00-1.43933E+02 6.35000E+00
 -1      1865 0.00000E+00-1.46756E+02 7.93750E+00
 -1      1866 0.00000E+00-1.49578E+02-6.35000E+00
 -1      1867 0.00000E+00-1.49578E+02-3.17500E+00
 -1      1868 0.00000E+00-1.49578E+02 0.00000E+00
 -1      1869 0.00000E+00-1.49578E+02 3.17500E+00
 -1      1870 0.00000E+00-1.49578E+02 6.35000E+00
 -1      1871 1.98922E+01-1.51096E+02-6.35000E+00
 -1      1872 1.98922E+01-1.51096E+02-3.17500E+00
 -1      1873 1.98922E+01-1.51096E+02 0.00000E+00
 -1      1874 1.98922E+01-1.51096E+02 3.17500E+00
 -1      1875 1.98922E+01-1.51096E+02 6.35000E+00
 -1      1876 3.94440E+01-1.47207E+02-6.35000E+00
 -1      1877 3.94440E+01-1.47207E+02-3.17500E+00
 -1      1878 3.94440E+01-1.47207E+02 0.00000E+00
 -1      1879 3.94440E+01-1.47207E+02 3.17500E+00
 -1      1880 3.94440E+01-1.47207E+02 6.35000E+00
 -1      1881 5.83210E+01-1.40799E+02-6.35000E+00
 -1      1882 5.83210E+01-1.40799E+02-3.17500E+00
 -1      1883 5.83210E+01-1.40799E+02 0.00000E+00
 -1      1884 5.83210E+01-1.40799E+02 3.17500E+00
 -1      1885 5.83210E+01-1.40799E+02 6.35000E+00
 -1      1886 7.62000E+01-1.31982E+02-6.35000E+00
 -1      1887 7.62000E+01-1.31982E+02-3.17500E+00
 -1      1888 7.62000E+01-1.31982E+02 0.00000E+00
 -1      1889 7.62000E+01-1.31982E+02 3.17500E+00
 -1      1890 7.62000E+01-1.31982E+02 6.35000E+00
 -1      1891 9.27752E+01-1.20907E+02-6.35000E+00
 -1      1892 9.27752E+01-1.20907E+02-3.17500E+00
 -1      1893 9.27752E+01-1.20907E+02 0.00000E+00
 -1      1894 9.27752E+01-1.20907E+02 3.17500E+00
 -1      1895 9.27752E+01-1.20907E+02 6.35000E+00
 -1      1896 1.07763E+02-1.07763E+02-6.35000E+00
 -1      1897 1.07763E+02-1.07763E+02-3.17500E+00
 -1      1898 1.07763E+02-1.07763E+02 0.00000E+00
 -1      1899 1.07763E+02-1.07763E+02 3.17500E+00
 -1      1900 1.07763E+02-1.07763E+02 6.35000E+00
 -1      1901 1.20907E+02-9.27752E+01-6.35000E+00
 -1      1902 1.20907E+02-9.27752E+01-3.17500E+00
 -1      1903 1.20907E+02-9.27752E+01 0.00000E+00
 -1      1904 1.20907E+02-9.27752E+01 3.17500E+00
 -1      1905 1.20907E+02-9.27752E+01 6.35000E+00
 -1      1906 1.31982E+02-7.62000E+01-6.35000E+00
 -1      1907 1.31982E+02-7.62000E+01-3.17500E+00
 -1      1908 1.31982E+02-7.62000E+01 0.00000E+00
 -1      1909 1.31982E+02-7.62000E+01 3.17500E+00
 -1      1910 1.31982E+02-7.62000E+01 6.35000E+00
 -1      1911 1.40799E+02-5.83210E+01-6.35000E+00
 -1      1912 1.40799E+02-5.83210E+01-3.17500E+00
 -1      1913 1.40799E+02-5.83210E+01 0.00000E+00
 -1      1914 1.40799E+02-5.83210E+01 3.17500E+00
 -1      1915 1.40799E+02-5.83210E+01 6.35000E+00
 -1      1916 1.47207E+02-3.94440E+01-6.35000E+00
 -1      1917 1.47207E+02-3.94440E+01-3.17500E+00
 -1      1918 1.47207E+02-3.94440E+01 0.00000E+00
 -1      1919 1.47207E+02-3.94440E+01 3.17500E+00
 -1      1920 1.47207E+02-3.94440E+01 6.35000E+00
 -1      1921 1.51096E+02-1.98922E+01-6.35000E+00
 -1      1922 1.51096E+02-1.98922E+01-3.17500E+00
 -1      1923 1.51096E+02-1.98922E+01 0.00000E+00
 -1      1924 1.51096E+02-1.98922E+01 3.17500E+00
 -1      1925 1.51096E+02-1.98922E+01 6.35000E+00
 -1      1926 1.52400E+02 7.00097E-07-6.35000E+00
 -1      1927 1.52400E+02 7.00097E-07-3.17500E+00
 -1      1928 1.52400E+02 7.00097E-07 0.00000E+00
 -1      1929 1.52400E+02 7.00097E-07 3.17500E+00
 -1      1930 1.52400E+02 7.00097E-07 6.35000E+00
 -1      1931 1.51096E+02 1.98922E+01-6.35000E+00
 -1      1932 1.51096E+02 1.98922E+01-3.17500E+00
 -1      1933 1.51096E+02 1.98922E+01 0.00000E+00
 -1      1934 1.51096E+02 1.98922E+01 3.17500E+00
 -1      1935 1.51096E+02 1.98922E+01 6.35000E+00
 -1      1936 1.47207E+02 3.94440E+01-6.35000E+00
 -1      1937 1.47207E+02 3.94440E+01-3.17500E+00
 -1      1938 1.47207E+02 3.94440E+01 0.00000E+00
 -1      1939 1.47207E+02 3.94440E+01 3.17500E+00
 -1      1940 1.47207E+02 3.94440E+01 6.35000E+00
 -1      1941 1.40799E+02 5.83210E+01-6.35000E+00
 -1      1942 1.40799E+02 5.83210E+01-3.17500E+00
 -1      1943 1.40799E+02 5.83210E+01 0.00000E+00
 -1      1944 1.40799E+02 5.83210E+01 3.17500E+00
 -1      1945 1.40799E+02 5.83210E+01 6.35000E+00
 -1      1946 1.31982E+02 7.62000E+01-6.35000E+00
 -1      1947 1.31982E+02 7.62000E+01-3.17500E+00
 -1      1948 1.31982E+02 7.62000E+01 0.00000E+00
 -1      1949 1.31982E+02 7.62000E+01 3.17500E+00
 -1      1950 1.31982E+02 7.62000E+01 6.35000E+00
 -1      1951 1.20907E+02 9.27752E+01-6.35000E+00
 -1      1952 1.20907E+02 9.27752E+01-3.17500E+00
 -1      1953 1.20907E+02 9.27752E+01 0.00000E+00
 -1      1954 1.20907E+02 9.27752E+01 3.17500E+00
 -1      1955 1.20907E+02 9.27752E+01 6.35000E+00
 -1      1956 1.07763E+02 1.07763E+02-6.35000E+00
 -1      1957 1.07763E+02 1.07763E+02-3.17500E+00
 -1      1958 1.07763E+02 1.07763E+02 0.00000E+00
 -1      1959 1.07763E+02 1.07763E+02 3.17500E+00
 -1      1960 1.07763E+02 1.07763E+02 6.35000E+00
 -1      1961 9.27752E+01 1.20907E+02-6.35000E+00
 -1      1962 9.27752E+01 1.20907E+02-3.17500E+00
 -1      1963 9.27752E+01 1.20907E+02 0.00000E+00
 -1      1964 9.27752E+01 1.20907E+02 3.17500E+00
 -1      1965 9.27752E+01 1.20907E+02 6.35000E+00
 -1      1966 7.62000E+01 1.31982E+02-6.35000E+00
 -1      1967 7.62000E+01 1.31982E+02-3.17500E+00
 -1      1968 7.62000E+01 1.31982E+02 0.00000E+00
 -1      1969 7.62000E+01 1.31982E+02 3.17500E+00
 -1      1970 7.62000E+01 1.31982E+02 6.35000E+00
 -1      1971 5.83210E+01 1.40799E+02-6.35000E+00
 -1      1972 5.83210E+01 1.40799E+02-3.17500E+00
 -1      1973 5.83210E+01 1.40799E+02 0.00000E+00
 -1      1974 5.83210E+01 1.40799E+02 3.17500E+00
 -1      1975 5.83210E+01 1.40799E+02 6.35000E+00
 -1      1976 3.94440E+01 1.47207E+02-6.35000E+00
 -1      1977 3.94440E+01 1.47207E+02-3.17500E+00
 -1      1978 3.94440E+01 1.47207E+02 0.00000E+00
 -1      1979 3.94440E+01 1.47207E+02 3.17500E+00
 -1      1980 3.94440E+01 1.47207E+02 6.35000E+00
 -1      1981 1.98922E+01 1.51096E+02-6.35000E+00
 -1      1982 1.98922E+01 1.51096E+02-3.17500E+00
 -1      1983 1.98922E+01 1.51096E+02 0.00000E+00
 -1      1984 1.98922E+01 1.51096E+02 3.17500E+00
 -1      1985 1.98922E+01 1.51096E+02 6.35000E+00
 -1      1986 1.98922E+01-1.51096E+02-7.93750E+00
 -1      1987 9.96744E+00-1.52074E+02-6.35000E+00
 -1      1988 1.98922E+01-1.51096E+02-4.76250E+00
 -1      1989 9.96744E+00-1.52074E+02-3.17500E+00
 -1      1990 1.98922E+01-1.51096E+02-1.58750E+00
 -1      1991 9.96744E+00-1.52074E+02 0.00000E+00
 -1      1992 1.98922E+01-1.51096E+02 1.58750E+00
 -1      1993 9.96744E+00-1.52074E+02 3.17500E+00
 -1      1994 1.98922E+01-1.51096E+02 4.76250E+00
 -1      1995 9.96744E+00-1.52074E+02 6.35000E+00
 -1      1996 1.98922E+01-1.51096E+02 7.93750E+00
 -1      1997 3.94440E+01-1.47207E+02-7.93750E+00
 -1      1998 2.97318E+01-1.49472E+02-6.35000E+00
 -1      1999 3.94440E+01-1.47207E+02-4.76250E+00
 -1      2000 2.97318E+01-1.49472E+02-3.17500E+00
 -1      2001 3.94440E+01-1.47207E+02-1.58750E+00
 -1      2002 2.97318E+01-1.49472E+02 0.00000E+00
 -1      2003 3.94440E+01-1.47207E+02 1.58750E+00
 -1      2004 2.97318E+01-1.49472E+02 3.17500E+00
 -1      2005 3.94440E+01-1.47207E+02 4.76250E+00
 -1      2006 2.97318E+01-1.49472E+02 6.35000E+00
 -1      2007 3.94440E+01-1.47207E+02 7.93750E+00
 -1      2008 5.83210E+01-1.40799E+02-7.93750E+00
 -1      2009 4.89874E+01-1.44312E+02-6.35000E+00
 -1      2010 5.83210E+01-1.40799E+02-4.76250E+00
 -1      2011 4.89874E+01-1.44312E+02-3.17500E+00
 -1      2012 5.83210E+01-1.40799E+02-1.58750E+00
 -1      2013 4.89874E+01-1.44312E+02 0.00000E+00
 -1      2014 5.83210E+01-1.40799E+02 1.58750E+00
 -1      2015 4.89874E+01-1.44312E+02 3.17500E+00
 -1      2016 5.83210E+01-1.40799E+02 4.76250E+00
 -1      2017 4.89874E+01-1.44312E+02 6.35000E+00
 -1      2018 5.83210E+01-1.40799E+02 7.93750E+00
 -1      2019 7.62000E+01-1.31982E+02-7.93750E+00
 -1      2020 6.74048E+01-1.36683E+02-6.35000E+00
 -1      2021 7.62000E+01-1.31982E+02-4.76250E+00
 -1      2022 6.74048E+01-1.36683E+02-3.17500E+00
 -1      2023 7.62000E+01-1.31982E+02-1.58750E+00
 -1      2024 6.74048E+01-1.36683E+02 0.00000E+00
 -1      2025 7.62000E+01-1.31982E+02 1.58750E+00
 -1      2026 6.74048E+01-1.36683E+02 3.17500E+00
 -1      2027 7.62000E+01-1.31982E+02 4.76250E+00
 -1      2028 6.74048E+01-1.36683E+02 6.35000E+00
 -1      2029 7.62000E+01-1.31982E+02 7.93750E+00
 -1      2030 9.27752E+01-1.20907E+02-7.93750E+00
 -1      2031 8.46689E+01-1.26716E+02-6.35000E+00
 -1      2032 9.27752E+01-1.20907E+02-4.76250E+00
 -1      2033 8.46689E+01-1.26716E+02-3.17500E+00
 -1      2034 9.27752E+01-1.20907E+02-1.58750E+00
 -1      2035 8.46689E+01-1.26716E+02 0.00000E+00
 -1      2036 9.27752E+01-1.20907E+02 1.58750E+00
 -1      2037 8.46689E+01-1.26716E+02 3.17500E+00
 -1      2038 9.27752E+01-1.20907E+02 4.76250E+00
 -1      2039 8.46689E+01-1.26716E+02 6.35000E+00
 -1      2040 9.27752E+01-1.20907E+02 7.93750E+00
 -1      2041 1.07763E+02-1.07763E+02-7.93750E+00
 -1      2042 1.00484E+02-1.14580E+02-6.35000E+00
 -1      2043 1.07763E+02-1.07763E+02-4.76250E+00
 -1      2044 1.00484E+02-1.14580E+02-3.17500E+00
 -1      2045 1.07763E+02-1.07763E+02-1.58750E+00
 -1      2046 1.00484E+02-1.14580E+02 0.00000E+00
 -1      2047 1.07763E+02-1.07763E+02 1.58750E+00
 -1      2048 1.00484E+02-1.14580E+02 3.17500E+00
 -1      2049 1.07763E+02-1.07763E+02 4.76250E+00
 -1      2050 1.00484E+02-1.14580E+02 6.35000E+00
 -1      2051 1.07763E+02-1.07763E+02 7.93750E+00
 -1      2052 1.20907E+02-9.27752E+01-7.93750E+00
 -1      2053 1.14580E+02-1.00484E+02-6.35000E+00
 -1      2054 1.20907E+02-9.27752E+01-4.76250E+00
 -1      2055 1.14580E+02-1.00484E+02-3.17500E+00
 -1      2056 1.20907E+02-9.27752E+01-1.58750E+00
 -1      2057 1.14580E+02-1.00484E+02 0.00000E+00
 -1      2058 1.20907E+02-9.27752E+01 1.58750E+00
 -1      2059 1.14580E+02-1.00484E+02 3.17500E+00
 -1      2060 1.20907E+02-9.27752E+01 4.76250E+00
 -1      2061 1.14580E+02-1.00484E+02 6.35000E+00
 -1      2062 1.20907E+02-9.27752E+01 7.93750E+00
 -1      2063 1.31982E+02-7.62000E+01-7.93750E+00
 -1      2064 1.26716E+02-8.46689E+01-6.35000E+00
 -1      2065 1.31982E+02-7.62000E+01-4.76250E+00
 -1      2066 1.26716E+02-8.46689E+01-3.17500E+00
 -1      2067 1.31982E+02-7.62000E+01-1.58750E+00
 -1      2068 1.26716E+02-8.46689E+01 0.00000E+00
 -1      2069 1.31982E+02-7.62000E+01 1.58750E+00
 -1      2070 1.26716E+02-8.46689E+01 3.17500E+00
 -1      2071 1.31982E+02-7.62000E+01 4.76250E+00
 -1      2072 1.26716E+02-8.46689E+01 6.35000E+00
 -1      2073 1.31982E+02-7.62000E+01 7.93750E+00
 -1      2074 1.40799E+02-5.83210E+01-7.93750E+00
 -1      2075 1.36683E+02-6.74048E+01-6.35000E+00
 -1      2076 1.40799E+02-5.83210E+01-4.76250E+00
 -1      2077 1.36683E+02-6.74048E+01-3.17500E+00
 -1      2078 1.40799E+02-5.83210E+01-1.58750E+00
 -1      2079 1.36683E+02-6.74048E+01 0.00000E+00
 -1      2080 1.40799E+02-5.83210E+01 1.58750E+00
 -1      2081 1.36683E+02-6.74048E+01 3.17500E+00
 -1      2082 1.40799E+02-5.83210E+01 4.76250E+00
 -1      2083 1.36683E+02-6.74048E+01 6.35000E+00
 -1      2084 1.40799E+02-5.83210E+01 7.93750E+00
 -1      2085 1.47207E+02-3.94440E+01-7.93750E+00
 -1      2086 1.44312E+02-4.89874E+01-6.35000E+00
 -1      2087 1.47207E+02-3.94440E+01-4.76250E+00
 -1      2088 1.44312E+02-4.89874E+01-3.17500E+00
 -1      2089 1.47207E+02-3.94440E+01-1.58750E+00
 -1      2090 1.44312E+02-4.89874E+01 0.00000E+00
 -1      2091 1.47207E+02-3.94440E+01 1.58750E+00
 -1      2092 1.44312E+02-4.89874E+01 3.17500E+00
 -1      2093 1.47207E+02-3.94440E+01 4.76250E+00
 -1      2094 1.44312E+02-4.89874E+01 6.35000E+00
 -1      2095 1.47207E+02-3.94440E+01 7.93750E+00
 -1      2096 1.51096E+02-1.98922E+01-7.93750E+00
 -1      2097 1.49472E+02-2.97318E+01-6.35000E+00
 -1      2098 1.51096E+02-1.98922E+01-4.76250E+00
 -1      2099 1.49472E+02-2.97318E+01-3.17500E+00
 -1      2100 1.51096E+02-1.98922E+01-1.58750E+00
 -1      2101 1.49472E+02-2.97318E+01 0.00000E+00
 -1      2102 1.51096E+02-1.98922E+01 1.58750E+00
 -1      2103 1.49472E+02-2.97318E+01 3.17500E+00
 -1      2104 1.51096E+02-1.98922E+01 4.76250E+00
 -1      2105 1.49472E+02-2.97318E+01 6.35000E+00
 -1      2106 1.51096E+02-1.98922E+01 7.93750E+00
 -1      2107 1.52400E+02 7.00097E-07-7.93750E+00
 -1      2108 1.52074E+02-9.96744E+00-6.35000E+00
 -1      2109 1.52400E+02 7.00097E-07-4.76250E+00
 -1      2110 1.52074E+02-9.96744E+00-3.17500E+00
 -1      2111 1.52400E+02 3.50049E-07-1.58750E+00
 -1      2112 1.52074E+02-9.96744E+00 0.00000E+00
 -1      2113 1.52400E+02 3.50049E-07 1.58750E+00
 -1      2114 1.52074E+02-9.96744E+00 3.17500E+00
 -1      2115 1.52400E+02 7.00097E-07 4.76250E+00
 -1      2116 1.52074E+02-9.96744E+00 6.35000E+00
 -1      2117 1.52400E+02 7.00097E-07 7.93750E+00
 -1      2118 1.51096E+02 1.98922E+01-7.93750E+00
 -1      2119 1.52074E+02 9.96744E+00-6.35000E+00
 -1      2120 1.51096E+02 1.98922E+01-4.76250E+00
 -1      2121 1.52074E+02 9.96744E+00-3.17500E+00
 -1      2122 1.51096E+02 1.98922E+01-1.58750E+00
 -1      2123 1.52074E+02 9.96744E+00 0.00000E+00
 -1      2124 1.51096E+02 1.98922E+01 1.58750E+00
 -1      2125 1.52074E+02 9.96744E+00 3.17500E+00
 -1      2126 1.51096E+02 1.98922E+01 4.76250E+00
 -1      2127 1.52074E+02 9.96744E+00 6.35000E+00
 -1      2128 1.51096E+02 1.98922E+01 7.93750E+00
 -1      2129 1.47207E+02 3.94440E+01-7.93750E+00
 -1      2130 1.49472E+02 2.97318E+01-6.35000E+00
 -1      2131 1.47207E+02 3.94440E+01-4.76250E+00
 -1      2132 1.49472E+02 2.97318E+01-3.17500E+00
 -1      2133 1.47207E+02 3.94440E+01-1.58750E+00
 -1      2134 1.49472E+02 2.97318E+01 0.00000E+00
 -1      2135 1.47207E+02 3.94440E+01 1.58750E+00
 -1      2136 1.49472E+02 2.97318E+01 3.17500E+00
 -1      2137 1.47207E+02 3.94440E+01 4.76250E+00
 -1      2138 1.49472E+02 2.97318E+01 6.35000E+00
 -1      2139 1.47207E+02 3.94440E+01 7.93750E+00
 -1      2140 1.40799E+02 5.83210E+01-7.93750E+00
 -1      2141 1.44312E+02 4.89874E+01-6.35000E+00
 -1      2142 1.40799E+02 5.83210E+01-4.76250E+00
 -1      2143 1.44312E+02 4.89874E+01-3.17500E+00
 -1      2144 1.40799E+02 5.83210E+01-1.58750E+00
 -1      2145 1.44312E+02 4.89874E+01 0.00000E+00
 -1      2146 1.40799E+02 5.83210E+01 1.58750E+00
 -1      2147 1.44312E+02 4.89874E+01 3.17500E+00
 -1      2148 1.40799E+02 5.83210E+01 4.76250E+00
 -1      2149 1.44312E+02 4.89874E+01 6.35000E+00
 -1      2150 1.40799E+02 5.83210E+01 7.93750E+00
 -1      2151 1.31982E+02 7.62000E+01-7.93750E+00
 -1      2152 1.36683E+02 6.74048E+01-6.35000E+00
 -1      2153 1.31982E+02 7.62000E+01-4.76250E+00
 -1      2154 1.36683E+02 6.74048E+01-3.17500E+00
 -1      2155 1.31982E+02 7.62000E+01-1.58750E+00
 -1      2156 1.36683E+02 6.74048E+01 0.00000E+00
 -1      2157 1.31982E+02 7.62000E+01 1.58750E+00
 -1      2158 1.36683E+02 6.74048E+01 3.17500E+00
 -1      2159 1.31982E+02 7.62000E+01 4.76250E+00
 -1      2160 1.36683E+02 6.74048E+01 6.35000E+00
 -1      2161 1.31982E+02 7.62000E+01 7.93750E+00
 -1      2162 1.20907E+02 9.27752E+01-7.93750E+00
 -1      2163 1.26716E+02 8.46689E+01-6.35000E+00
 -1      2164 1.20907E+02 9.27752E+01-4.76250E+00
 -1      2165 1.26716E+02 8.46689E+01-3.17500E+00
 -1      2166 1.20907E+02 9.27752E+01-1.58750E+00
 -1      2167 1.26716E+02 8.46689E+01 0.00000E+00
 -1      2168 1.20907E+02 9.27752E+01 1.58750E+00
 -1      2169 1.26716E+02 8.46689E+01 3.17500E+00
 -1      2170 1.20907E+02 9.27752E+01 4.76250E+00
 -1      2171 1.26716E+02 8.46689E+01 6.35000E+00
 -1      2172 1.20907E+02 9.27752E+01 7.93750E+00
 -1      2173 1.07763E+02 1.07763E+02-7.93750E+00
 -1      2174 1.14580E+02 1.00484E+02-6.35000E+00
 -1      2175 1.07763E+02 1.07763E+02-4.76250E+00
 -1      2176 1.14580E+02 1.00484E+02-3.17500E+00
 -1      2177 1.07763E+02 1.07763E+02-1.58750E+00
 -1      2178 1.14580E+02 1.00484E+02 0.00000E+00
 -1      2179 1.07763E+02 1.07763E+02 1.58750E+00
 -1      2180 1.14580E+02 1.00484E+02 3.17500E+00
 -1      2181 1.07763E+02 1.07763E+02 4.76250E+00
 -1      2182 1.14580E+02 1.00484E+02 6.35000E+00
 -1      2183 1.07763E+02 1.07763E+02 7.93750E+00
 -1      2184 9.27752E+01 1.20907E+02-7.93750E+00
 -1      2185 1.00484E+02 1.14580E+02-6.35000E+00
 -1      2186 9.27752E+01 1.20907E+02-4.76250E+00
 -1      2187 1.00484E+02 1.14580E+02-3.17500E+00
 -1      2188 9.27752E+01 1.20907E+02-1.58750E+00
 -1      2189 1.00484E+02 1.14580E+02 0.00000E+00
 -1      2190 9.27752E+01 1.20907E+02 1.58750E+00
 -1      2191 1.00484E+02 1.14580E+02 3.17500E+00
 -1      2192 9.27752E+01 1.20907E+02 4.76250E+00
 -1      2193 1.00484E+02 1.14580E+02 6.35000E+00
 -1      2194 9.27752E+01 1.20907E+02 7.93750E+00
 -1      2195 7.62000E+01 1.31982E+02-7.93750E+00
 -1      2196 8.46689E+01 1.26716E+02-6.35000E+00
 -1      2197 7.62000E+01 1.31982E+02-4.76250E+00
 -1      2198 8.46689E+01 1.26716E+02-3.17500E+00
 -1      2199 7.62000E+01 1.31982E+02-1.58750E+00
 -1      2200 8.46689E+01 1.26716E+02 0.00000E+00
 -1      2201 7.62000E+01 1.31982E+02 1.58750E+00
 -1      2202 8.46689E+01 1.26716E+02 3.17500E+00
 -1      2203 7.62000E+01 1.31982E+02 4.76250E+00
 -1      2204 8.46689E+01 1.26716E+02 6.35000E+00
 -1      2205 7.62000E+01 1.31982E+02 7.93750E+00
 -1      2206 5.83210E+01 1.40799E+02-7.93750E+00
 -1      2207 6.74048E+01 1.36683E+02-6.35000E+00
 -1      2208 5.83210E+01 1.40799E+02-4.76250E+00
 -1      2209 6.74048E+01 1.36683E+02-3.17500E+00
 -1      2210 5.83210E+01 1.40799E+02-1.58750E+00
 -1      2211 6.74048E+01 1.36683E+02 0.00000E+00
 -1      2212 5.83210E+01 1.40799E+02 1.58750E+00
 -1      2213 6.74048E+01 1.36683E+02 3.17500E+00
 -1      2214 5.83210E+01 1.40799E+02 4.76250E+00
 -1      2215 6.74048E+01 1.36683E+02 6.35000E+00
 -1      2216 5.83210E+01 1.40799E+02 7.93750E+00
 -1      2217 3.94440E+01 1.47207E+02-7.93750E+00
 -1      2218 4.89874E+01 1.44312E+02-6.35000E+00
 -1      2219 3.94440E+01 1.47207E+02-4.76250E+00
 -1      2220 4.89874E+01 1.44312E+02-3.17500E+00
 -1      2221 3.94440E+01 1.47207E+02-1.58750E+00
 -1      2222 4.89874E+01 1.44312E+02 0.00000E+00
 -1      2223 3.94440E+01 1.47207E+02 1.58750E+00
 -1      2224 4.89874E+01 1.44312E+02 3.17500E+00
 -1      2225 3.94440E+01 1.47207E+02 4.76250E+00
 -1      2226 4.89874E+01 1.44312E+02 6.35000E+00
 -1      2227 3.94440E+01 1.47207E+02 7.93750E+00
 -1      2228 1.98922E+01 1.51096E+02-7.93750E+00
 -1      2229 2.97318E+01 1.49472E+02-6.35000E+00
 -1      2230 1.98922E+01 1.51096E+02-4.76250E+00
 -1      2231 2.97318E+01 1.49472E+02-3.17500E+00
 -1      2232 1.98922E+01 1.51096E+02-1.58750E+00
 -1      2233 2.97318E+01 1.49472E+02 0.00000E+00
 -1      2234 1.98922E+01 1.51096E+02 1.58750E+00
 -1      2235 2.97318E+01 1.49472E+02 3.17500E+00
 -1      2236 1.98922E+01 1.51096E+02 4.76250E+00
 -1      2237 2.97318E+01 1.49472E+02 6.35000E+00
 -1      2238 1.98922E+01 1.51096E+02 7.93750E+00
 -1      2239 9.96744E+00 1.52074E+02-6.35000E+00
 -1      2240 9.96744E+00 1.52074E+02-3.17500E+00
 -1      2241 9.96744E+00 1.52074E+02 0.00000E+00
 -1      2242 9.96744E+00 1.52074E+02 3.17500E+00
 -1      2243 9.96744E+00 1.52074E+02 6.35000E+00
 -1      2244 8.98589E-15 1.46756E+02-6.35000E+00
 -1      2245 8.98589E-15 1.46756E+02-3.17500E+00
 -1      2246 8.98589E-15 1.46756E+02 0.00000E+00
 -1      2247 8.98589E-15 1.46756E+02 3.17500E+00
 -1      2248 8.98589E-15 1.46756E+02 6.35000E+00
 -1      2249 8.64028E-15 1.41111E+02-6.35000E+00
 -1      2250 8.64028E-15 1.41111E+02-3.17500E+00
 -1      2251 8.64028E-15 1.41111E+02 0.00000E+00
 -1      2252 8.64028E-15 1.41111E+02 3.17500E+00
 -1      2253 8.64028E-15 1.41111E+02 6.35000E+00
 -1      2254 8.29467E-15 1.35467E+02-6.35000E+00
 -1      2255 8.29467E-15 1.35467E+02-3.17500E+00
 -1      2256 8.29467E-15 1.35467E+02 0.00000E+00
 -1      2257 8.29467E-15 1.35467E+02 3.17500E+00
 -1      2258 8.29467E-15 1.35467E+02 6.35000E+00
 -1      2259 7.94906E-15 1.29822E+02-6.35000E+00
 -1      2260 7.94906E-15 1.29822E+02-3.17500E+00
 -1      2261 7.94906E-15 1.29822E+02 0.00000E+00
 -1      2262 7.94906E-15 1.29822E+02 3.17500E+00
 -1      2263 7.94906E-15 1.29822E+02 6.35000E+00
 -1      2264 7.60344E-15 1.24178E+02-6.35000E+00
 -1      2265 7.60344E-15 1.24178E+02-3.17500E+00
 -1      2266 7.60344E-15 1.24178E+02 0.00000E+00
 -1      2267 7.60344E-15 1.24178E+02 3.17500E+00
 -1      2268 7.60344E-15 1.24178E+02 6.35000E+00
 -1      2269 7.25783E-15 1.18533E+02-6.35000E+00
 -1      2270 7.25783E-15 1.18533E+02-3.17500E+00
 -1      2271 7.25783E-15 1.18533E+02 0.00000E+00
 -1      2272 7.25783E-15 1.18533E+02 3.17500E+00
 -1      2273 7.25783E-15 1.18533E+02 6.35000E+00
 -1      2274 6.91222E-15 1.12889E+02-6.35000E+00
 -1      2275 6.91222E-15 1.12889E+02-3.17500E+00
 -1      2276 6.91222E-15 1.12889E+02 0.00000E+00
 -1      2277 6.91222E-15 1.12889E+02 3.17500E+00
 -1      2278 6.91222E-15 1.12889E+02 6.35000E+00
 -1      2279 6.56661E-15 1.07244E+02-6.35000E+00
 -1      2280 6.56661E-15 1.07244E+02-3.17500E+00
 -1      2281 6.56661E-15 1.07244E+02 0.00000E+00
 -1      2282 6.56661E-15 1.07244E+02 3.17500E+00
 -1      2283 6.56661E-15 1.07244E+02 6.35000E+00
 -1      2284 6.22100E-15 1.01600E+02-6.35000E+00
 -1      2285 6.22100E-15 1.01600E+02-3.17500E+00
 -1      2286 6.22100E-15 1.01600E+02 0.00000E+00
 -1      2287 6.22100E-15 1.01600E+02 3.17500E+00
 -1      2288 6.22100E-15 1.01600E+02 6.35000E+00
 -1      2289 5.87539E-15 9.59556E+01-6.35000E+00
 -1      2290 5.87539E-15 9.59556E+01-3.17500E+00
 -1      2291 5.87539E-15 9.59556E+01 0.00000E+00
 -1      2292 5.87539E-15 9.59556E+01 3.17500E+00
 -1      2293 5.87539E-15 9.59556E+01 6.35000E+00
 -1      2294 5.52978E-15 9.03111E+01-6.35000E+00
 -1      2295 5.52978E-15 9.03111E+01-3.17500E+00
 -1      2296 5.52978E-15 9.03111E+01 0.00000E+00
 -1      2297 5.52978E-15 9.03111E+01 3.17500E+00
 -1      2298 5.52978E-15 9.03111E+01 6.35000E+00
 -1      2299 5.18417E-15 8.46667E+01-6.35000E+00
 -1      2300 5.18417E-15 8.46667E+01-3.17500E+00
 -1      2301 5.18417E-15 8.46667E+01 0.00000E+00
 -1      2302 5.18417E-15 8.46667E+01 3.17500E+00
 -1      2303 5.18417E-15 8.46667E+01 6.35000E+00
 -1      2304 4.83856E-15 7.90222E+01-6.35000E+00
 -1      2305 4.83856E-15 7.90222E+01-3.17500E+00
 -1      2306 4.83856E-15 7.90222E+01 0.00000E+00
 -1      2307 4.83856E-15 7.90222E+01 3.17500E+00
 -1      2308 4.83856E-15 7.90222E+01 6.35000E+00
 -1      2309 4.49294E-15 7.33778E+01-6.35000E+00
 -1      2310 4.49294E-15 7.33778E+01-3.17500E+00
 -1      2311 4.49294E-15 7.33778E+01 0.00000E+00
 -1      2312 4.49294E-15 7.33778E+01 3.17500E+00
 -1      2313 4.49294E-15 7.33778E+01 6.35000E+00
 -1      2314 4.14733E-15 6.77333E+01-6.35000E+00
 -1      2315 4.14733E-15 6.77333E+01-3.17500E+00
 -1      2316 4.14733E-15 6.77333E+01 0.00000E+00
 -1      2317 4.14733E-15 6.77333E+01 3.17500E+00
 -1      2318 4.14733E-15 6.77333E+01 6.35000E+00
 -1      2319 3.80172E-15 6.20889E+01-6.35000E+00
 -1      2320 3.80172E-15 6.20889E+01-3.17500E+00
 -1      2321 3.80172E-15 6.20889E+01 0.00000E+00
 -1      2322 3.80172E-15 6.20889E+01 3.17500E+00
 -1      2323 3.80172E-15 6.20889E+01 6.35000E+00
 -1      2324 3.45611E-15 5.64444E+01-6.35000E+00
 -1      2325 3.45611E-15 5.64444E+01-3.17500E+00
 -1      2326 3.45611E-15 5.64444E+01 0.00000E+00
 -1      2327 3.45611E-15 5.64444E+01 3.17500E+00
 -1      2328 3.45611E-15 5.64444E+01 6.35000E+00
 -1      2329 8.98589E-15 1.46756E+02-7.93750E+00
 -1      2330 9.15869E-15 1.49578E+02-6.35000E+00
 -1      2331 8.98589E-15 1.46756E+02-4.76250E+00
 -1      2332 9.15869E-15 1.49578E+02-3.17500E+00
 -1      2333 8.98589E-15 1.46756E+02-1.58750E+00
 -1      2334 9.15869E-15 1.49578E+02 0.00000E+00
 -1      2335 8.98589E-15 1.46756E+02 1.58750E+00
 -1      2336 9.15869E-15 1.49578E+02 3.17500E+00
 -1      2337 8.98589E-15 1.46756E+02 4.76250E+00
 -1      2338 9.15869E-15 1.49578E+02 6.35000E+00
 -1      2339 8.98589E-15 1.46756E+02 7.93750E+00
 -1      2340 8.64028E-15 1.41111E+02-7.93750E+00
 -1      2341 8.81308E-15 1.43933E+02-6.35000E+00
 -1      2342 8.64028E-15 1.41111E+02-4.76250E+00
 -1      2343 8.81308E-15 1.43933E+02-3.17500E+00
 -1      2344 8.64028E-15 1.41111E+02-1.58750E+00
 -1      2345 8.81308E-15 1.43933E+02 0.00000E+00
 -1      2346 8.64028E-15 1.41111E+02 1.58750E+00
 -1      2347 8.81308E-15 1.43933E+02 3.17500E+00
 -1      2348 8.64028E-15 1.41111E+02 4.76250E+00
 -1      2349 8.81308E-15 1.43933E+02 6.35000E+00
 -1      2350 8.64028E-15 1.41111E+02 7.93750E+00
 -1      2351 8.29467E-15 1.35467E+02-7.93750E+00
 -1      2352 8.46747E-15 1.38289E+02-6.35000E+00
 -1      2353 8.29467E-15 1.35467E+02-4.76250E+00
 -1      2354 8.46747E-15 1.38289E+02-3.17500E+00
 -1      2355 8.29467E-15 1.35467E+02-1.58750E+00
 -1      2356 8.46747E-15 1.38289E+02 0.00000E+00
 -1      2357 8.29467E-15 1.35467E+02 1.58750E+00
 -1      2358 8.46747E-15 1.38289E+02 3.17500E+00
 -1      2359 8.29467E-15 1.35467E+02 4.76250E+00
 -1      2360 8.46747E-15 1.38289E+02 6.35000E+00
 -1      2361 8.29467E-15 1.35467E+02 7.93750E+00
 -1      2362 7.94906E-15 1.29822E+02-7.93750E+00
 -1      2363 8.12186E-15 1.32644E+02-6.35000E+00
 -1      2364 7.94906E-15 1.29822E+02-4.76250E+00
 -1      2365 8.12186E-15 1.32644E+02-3.17500E+00
 -1      2366 7.94906E-15 1.29822E+02-1.58750E+00
 -1      2367 8.12186E-15 1.32644E+02 0.00000E+00
 -1      2368 7.94906E-15 1.29822E+02 1.58750E+00
 -1      2369 8.12186E-15 1.32644E+02 3.17500E+00
 -1      2370 7.94906E-15 1.29822E+02 4.76250E+00
 -1      2371 8.12186E-15 1.32644E+02 6.35000E+00
 -1      2372 7.94906E-15 1.29822E+02 7.93750E+00
 -1      2373 7.60344E-15 1.24178E+02-7.93750E+00
 -1      2374 7.77625E-15 1.27000E+02-6.35000E+00
 -1      2375 7.60344E-15 1.24178E+02-4.76250E+00
 -1      2376 7.77625E-15 1.27000E+02-3.17500E+00
 -1      2377 7.60344E-15 1.24178E+02-1.58750E+00
 -1      2378 7.77625E-15 1.27000E+02 0.00000E+00
 -1      2379 7.60344E-15 1.24178E+02 1.58750E+00
 -1      2380 7.77625E-15 1.27000E+02 3.17500E+00
 -1      2381 7.60344E-15 1.24178E+02 4.76250E+00
 -1      2382 7.77625E-15 1.27000E+02 6.35000E+00
 -1      2383 7.60344E-15 1.24178E+02 7.93750E+00
 -1      2384 7.25783E-15 1.18533E+02-7.93750E+00
 -1      2385 7.43064E-15 1.21356E+02-6.35000E+00
 -1      2386 7.25783E-15 1.18533E+02-4.76250E+00
 -1      2387 7.43064E-15 1.21356E+02-3.17500E+00
 -1      2388 7.25783E-15 1.18533E+02-1.58750E+00
 -1      2389 7.43064E-15 1.21356E+02 0.00000E+00
 -1      2390 7.25783E-15 1.18533E+02 1.58750E+00
 -1      2391 7.43064E-15 1.21356E+02 3.17500E+00
 -1      2392 7.25783E-15 1.18533E+02 4.76250E+00
 -1      2393 7.43064E-15 1.21356E+02 6.35000E+00
 -1      2394 7.25783E-15 1.18533E+02 7.93750E+00
 -1      2395 6.91222E-15 1.12889E+02-7.93750E+00
 -1      2396 7.08503E-15 1.15711E+02-6.35000E+00
 -1      2397 6.91222E-15 1.12889E+02-4.76250E+00
 -1      2398 7.08503E-15 1.15711E+02-3.17500E+00
 -1      2399 6.91222E-15 1.12889E+02-1.58750E+00
 -1      2400 7.08503E-15 1.15711E+02 0.00000E+00
 -1      2401 6.91222E-15 1.12889E+02 1.58750E+00
 -1      2402 7.08503E-15 1.15711E+02 3.17500E+00
 -1      2403 6.91222E-15 1.12889E+02 4.76250E+00
 -1      2404 7.08503E-15 1.15711E+02 6.35000E+00
 -1      2405 6.91222E-15 1.12889E+02 7.93750E+00
 -1      2406 6.56661E-15 1.07244E+02-7.93750E+00
 -1      2407 6.73942E-15 1.10067E+02-6.35000E+00
 -1      2408 6.56661E-15 1.07244E+02-4.76250E+00
 -1      2409 6.73942E-15 1.10067E+02-3.17500E+00
 -1      2410 6.56661E-15 1.07244E+02-1.58750E+00
 -1      2411 6.73942E-15 1.10067E+02 0.00000E+00
 -1      2412 6.56661E-15 1.07244E+02 1.58750E+00
 -1      2413 6.73942E-15 1.10067E+02 3.17500E+00
 -1      2414 6.56661E-15 1.07244E+02 4.76250E+00
 -1      2415 6.73942E-15 1.10067E+02 6.35000E+00
 -1      2416 6.56661E-15 1.07244E+02 7.93750E+00
 -1      2417 6.22100E-15 1.01600E+02-7.93750E+00
 -1      2418 6.39381E-15 1.04422E+02-6.35000E+00
 -1      2419 6.22100E-15 1.01600E+02-4.76250E+00
 -1      2420 6.39381E-15 1.04422E+02-3.17500E+00
 -1      2421 6.22100E-15 1.01600E+02-1.58750E+00
 -1      2422 6.39381E-15 1.04422E+02 0.00000E+00
 -1      2423 6.22100E-15 1.01600E+02 1.58750E+00
 -1      2424 6.39381E-15 1.04422E+02 3.17500E+00
 -1      2425 6.22100E-15 1.01600E+02 4.76250E+00
 -1      2426 6.39381E-15 1.04422E+02 6.35000E+00
 -1      2427 6.22100E-15 1.01600E+02 7.93750E+00
 -1      2428 5.87539E-15 9.59556E+01-7.93750E+00
 -1      2429 6.04819E-15 9.87778E+01-6.35000E+00
 -1      2430 5.87539E-15 9.59556E+01-4.76250E+00
 -1      2431 6.04819E-15 9.87778E+01-3.17500E+00
 -1      2432 5.87539E-15 9.59556E+01-1.58750E+00
 -1      2433 6.04819E-15 9.87778E+01 0.00000E+00
 -1      2434 5.87539E-15 9.59556E+01 1.58750E+00
 -1      2435 6.04819E-15 9.87778E+01 3.17500E+00
 -1      2436 5.87539E-15 9.59556E+01 4.76250E+00
 -1      2437 6.04819E-15 9.87778E+01 6.35000E+00
 -1      2438 5.87539E-15 9.59556E+01 7.93750E+00
 -1      2439 5.52978E-15 9.03111E+01-7.93750E+00
 -1      2440 5.70258E-15 9.31333E+01-6.35000E+00
 -1      2441 5.52978E-15 9.03111E+01-4.76250E+00
 -1      2442 5.70258E-15 9.31333E+01-3.17500E+00
 -1      2443 5.52978E-15 9.03111E+01-1.58750E+00
 -1      2444 5.70258E-15 9.31333E+01 0.00000E+00
 -1      2445 5.52978E-15 9.03111E+01 1.58750E+00
 -1      2446 5.70258E-15 9.31333E+01 3.17500E+00
 -1      2447 5.52978E-15 9.03111E+01 4.76250E+00
 -1      2448 5.70258E-15 9.31333E+01 6.35000E+00
 -1      2449 5.52978E-15 9.03111E+01 7.93750E+00
 -1      2450 5.18417E-15 8.46667E+01-7.93750E+00
 -1      2451 5.35697E-15 8.74889E+01-6.35000E+00
 -1      2452 5.18417E-15 8.46667E+01-4.76250E+00
 -1      2453 5.35697E-15 8.74889E+01-3.17500E+00
 -1      2454 5.18417E-15 8.46667E+01-1.58750E+00
 -1      2455 5.35697E-15 8.74889E+01 0.00000E+00
 -1      2456 5.18417E-15 8.46667E+01 1.58750E+00
 -1      2457 5.35697E-15 8.74889E+01 3.17500E+00
 -1      2458 5.18417E-15 8.46667E+01 4.76250E+00
 -1      2459 5.35697E-15 8.74889E+01 6.35000E+00
 -1      2460 5.18417E-15 8.46667E+01 7.93750E+00
 -1      2461 4.83856E-15 7.90222E+01-7.93750E+00
 -1      2462 5.01136E-15 8.18444E+01-6.35000E+00
 -1      2463 4.83856E-15 7.90222E+01-4.76250E+00
 -1      2464 5.01136E-15 8.18444E+01-3.17500E+00
 -1      2465 4.83856E-15 7.90222E+01-1.58750E+00
 -1      2466 5.01136E-15 8.18444E+01 0.00000E+00
 -1      2467 4.83856E-15 7.90222E+01 1.58750E+00
 -1      2468 5.01136E-15 8.18444E+01 3.17500E+00
 -1      2469 4.83856E-15 7.90222E+01 4.76250E+00
 -1      2470 5.01136E-15 8.18444E+01 6.35000E+00
 -1      2471 4.83856E-15 7.90222E+01 7.93750E+00
 -1      2472 4.49294E-15 7.33778E+01-7.93750E+00
 -1      2473 4.66575E-15 7.62000E+01-6.35000E+00
 -1      2474 4.49294E-15 7.33778E+01-4.76250E+00
 -1      2475 4.66575E-15 7.62000E+01-3.17500E+00
 -1      2476 4.49294E-15 7.33778E+01-1.58750E+00
 -1      2477 4.66575E-15 7.62000E+01 0.00000E+00
 -1      2478 4.49294E-15 7.33778E+01 1.58750E+00
 -1      2479 4.66575E-15 7.62000E+01 3.17500E+00
 -1      2480 4.49294E-15 7.33778E+01 4.76250E+00
 -1      2481 4.66575E-15 7.62000E+01 6.35000E+00
 -1      2482 4.49294E-15 7.33778E+01 7.93750E+00
 -1      2483 4.14733E-15 6.77333E+01-7.93750E+00
 -1      2484 4.32014E-15 7.05556E+01-6.35000E+00
 -1      2485 4.14733E-15 6.77333E+01-4.76250E+00
 -1      2486 4.32014E-15 7.05556E+01-3.17500E+00
 -1      2487 4.14733E-15 6.77333E+01-1.58750E+00
 -1      2488 4.32014E-15 7.05556E+01 0.00000E+00
 -1      2489 4.14733E-15 6.77333E+01 1.58750E+00
 -1      2490 4.32014E-15 7.05556E+01 3.17500E+00
 -1      2491 4.14733E-15 6.77333E+01 4.76250E+00
 -1      2492 4.32014E-15 7.05556E+01 6.35000E+00
 -1      2493 4.14733E-15 6.77333E+01 7.93750E+00
 -1      2494 3.80172E-15 6.20889E+01-7.93750E+00
 -1      2495 3.97453E-15 6.49111E+01-6.35000E+00
 -1      2496 3.80172E-15 6.20889E+01-4.76250E+00
 -1      2497 3.97453E-15 6.49111E+01-3.17500E+00
 -1      2498 3.80172E-15 6.20889E+01-1.58750E+00
 -1      2499 3.97453E-15 6.49111E+01 0.00000E+00
 -1      2500 3.80172E-15 6.20889E+01 1.58750E+00
 -1      2501 3.97453E-15 6.49111E+01 3.17500E+00
 -1      2502 3.80172E-15 6.20889E+01 4.76250E+00
 -1      2503 3.97453E-15 6.49111E+01 6.35000E+00
 -1      2504 3.80172E-15 6.20889E+01 7.93750E+00
 -1      2505 3.45611E-15 5.64444E+01-7.93750E+00
 -1      2506 3.62892E-15 5.92667E+01-6.35000E+00
 -1      2507 3.45611E-15 5.64444E+01-4.76250E+00
 -1      2508 3.62892E-15 5.92667E+01-3.17500E+00
 -1      2509 3.45611E-15 5.64444E+01-1.58750E+00
 -1      2510 3.62892E-15 5.92667E+01 0.00000E+00
 -1      2511 3.45611E-15 5.64444E+01 1.58750E+00
 -1      2512 3.62892E-15 5.92667E+01 3.17500E+00
 -1      2513 3.45611E-15 5.64444E+01 4.76250E+00
 -1      2514 3.62892E-15 5.92667E+01 6.35000E+00
 -1      2515 3.45611E-15 5.64444E+01 7.93750E+00
 -1      2516 3.28331E-15 5.36222E+01-6.35000E+00
 -1      2517 3.28331E-15 5.36222E+01-3.17500E+00
 -1      2518 3.28331E-15 5.36222E+01 0.00000E+00
 -1      2519 3.28331E-15 5.36222E+01 3.17500E+00
 -1      2520 3.28331E-15 5.36222E+01 6.35000E+00
 -1      2521 6.63073E+00-5.03654E+01-6.35000E+00
 -1      2522 6.63073E+00-5.03654E+01-3.17500E+00
 -1      2523 6.63073E+00-5.03654E+01 0.00000E+00
 -1      2524 6.63073E+00-5.03654E+01 3.17500E+00
 -1      2525 6.63073E+00-5.03654E+01 6.35000E+00
 -1      2526 1.31480E+01-4.90690E+01-6.35000E+00
 -1      2527 1.31480E+01-4.90690E+01-3.17500E+00
 -1      2528 1.31480E+01-4.90690E+01 0.00000E+00
 -1      2529 1.31480E+01-4.90690E+01 3.17500E+00
 -1      2530 1.31480E+01-4.90690E+01 6.35000E+00
 -1      2531 1.94403E+01-4.69331E+01-6.35000E+00
 -1      2532 1.94403E+01-4.69331E+01-3.17500E+00
 -1      2533 1.94403E+01-4.69331E+01 0.00000E+00
 -1      2534 1.94403E+01-4.69331E+01 3.17500E+00
 -1      2535 1.94403E+01-4.69331E+01 6.35000E+00
 -1      2536 2.54000E+01-4.39941E+01-6.35000E+00
 -1      2537 2.54000E+01-4.39941E+01-3.17500E+00
 -1      2538 2.54000E+01-4.39941E+01 0.00000E+00
 -1      2539 2.54000E+01-4.39941E+01 3.17500E+00
 -1      2540 2.54000E+01-4.39941E+01 6.35000E+00
 -1      2541 3.09251E+01-4.03023E+01-6.35000E+00
 -1      2542 3.09251E+01-4.03023E+01-3.17500E+00
 -1      2543 3.09251E+01-4.03023E+01 0.00000E+00
 -1      2544 3.09251E+01-4.03023E+01 3.17500E+00
 -1      2545 3.09251E+01-4.03023E+01 6.35000E+00
 -1      2546 3.59210E+01-3.59210E+01-6.35000E+00
 -1      2547 3.59210E+01-3.59210E+01-3.17500E+00
 -1      2548 3.59210E+01-3.59210E+01 0.00000E+00
 -1      2549 3.59210E+01-3.59210E+01 3.17500E+00
 -1      2550 3.59210E+01-3.59210E+01 6.35000E+00
 -1      2551 4.03023E+01-3.09251E+01-6.35000E+00
 -1      2552 4.03023E+01-3.09251E+01-3.17500E+00
 -1      2553 4.03023E+01-3.09251E+01 0.00000E+00
 -1      2554 4.03023E+01-3.09251E+01 3.17500E+00
 -1      2555 4.03023E+01-3.09251E+01 6.35000E+00
 -1      2556 4.39941E+01-2.54000E+01-6.35000E+00
 -1      2557 4.39941E+01-2.54000E+01-3.17500E+00
 -1      2558 4.39941E+01-2.54000E+01 0.00000E+00
 -1      2559 4.39941E+01-2.54000E+01 3.17500E+00
 -1      2560 4.39941E+01-2.54000E+01 6.35000E+00
 -1      2561 4.69331E+01-1.94403E+01-6.35000E+00
 -1      2562 4.69331E+01-1.94403E+01-3.17500E+00
 -1      2563 4.69331E+01-1.94403E+01 0.00000E+00
 -1      2564 4.69331E+01-1.94403E+01 3.17500E+00
 -1      2565 4.69331E+01-1.94403E+01 6.35000E+00
 -1      2566 4.90690E+01-1.31480E+01-6.35000E+00
 -1      2567 4.90690E+01-1.31480E+01-3.17500E+00
 -1      2568 4.90690E+01-1.31480E+01 0.00000E+00
 -1      2569 4.90690E+01-1.31480E+01 3.17500E+00
 -1      2570 4.90690E+01-1.31480E+01 6.35000E+00
 -1      2571 5.03654E+01-6.63073E+00-6.35000E+00
 -1      2572 5.03654E+01-6.63073E+00-3.17500E+00
 -1      2573 5.03654E+01-6.63073E+00 0.00000E+00
 -1      2574 5.03654E+01-6.63073E+00 3.17500E+00
 -1      2575 5.03654E+01-6.63073E+00 6.35000E+00
 -1      2576 5.08000E+01 2.39583E-07-6.35000E+00
 -1      2577 5.08000E+01 2.39583E-07-3.17500E+00
 -1      2578 5.08000E+01 2.39583E-07 0.00000E+00
 -1      2579 5.08000E+01 2.39583E-07 3.17500E+00
 -1      2580 5.08000E+01 2.39583E-07 6.35000E+00
 -1      2581 5.03654E+01 6.63073E+00-6.35000E+00
 -1      2582 5.03654E+01 6.63073E+00-3.17500E+00
 -1      2583 5.03654E+01 6.63073E+00 0.00000E+00
 -1      2584 5.03654E+01 6.63073E+00 3.17500E+00
 -1      2585 5.03654E+01 6.63073E+00 6.35000E+00
 -1      2586 4.90690E+01 1.31480E+01-6.35000E+00
 -1      2587 4.90690E+01 1.31480E+01-3.17500E+00
 -1      2588 4.90690E+01 1.31480E+01 0.00000E+00
 -1      2589 4.90690E+01 1.31480E+01 3.17500E+00
 -1      2590 4.90690E+01 1.31480E+01 6.35000E+00
 -1      2591 4.69331E+01 1.94403E+01-6.35000E+00
 -1      2592 4.69331E+01 1.94403E+01-3.17500E+00
 -1      2593 4.69331E+01 1.94403E+01 0.00000E+00
 -1      2594 4.69331E+01 1.94403E+01 3.17500E+00
 -1      2595 4.69331E+01 1.94403E+01 6.35000E+00
 -1      2596 4.39941E+01 2.54000E+01-6.35000E+00
 -1      2597 4.39941E+01 2.54000E+01-3.17500E+00
 -1      2598 4.39941E+01 2.54000E+01 0.00000E+00
 -1      2599 4.39941E+01 2.54000E+01 3.17500E+00
 -1      2600 4.39941E+01 2.54000E+01 6.35000E+00
 -1      2601 4.03023E+01 3.09251E+01-6.35000E+00
 -1      2602 4.03023E+01 3.09251E+01-3.17500E+00
 -1      2603 4.03023E+01 3.09251E+01 0.00000E+00
 -1      2604 4.03023E+01 3.09251E+01 3.17500E+00
 -1      2605 4.03023E+01 3.09251E+01 6.35000E+00
 -1      2606 3.59210E+01 3.59210E+01-6.35000E+00
 -1      2607 3.59210E+01 3.59210E+01-3.17500E+00
 -1      2608 3.59210E+01 3.59210E+01 0.00000E+00
 -1      2609 3.59210E+01 3.59210E+01 3.17500E+00
 -1      2610 3.59210E+01 3.59210E+01 6.35000E+00
 -1      2611 3.09251E+01 4.03023E+01-6.35000E+00
 -1      2612 3.09251E+01 4.03023E+01-3.17500E+00
 -1      2613 3.09251E+01 4.03023E+01 0.00000E+00
 -1      2614 3.09251E+01 4.03023E+01 3.17500E+00
 -1      2615 3.09251E+01 4.03023E+01 6.35000E+00
 -1      2616 2.54000E+01 4.39941E+01-6.35000E+00
 -1      2617 2.54000E+01 4.39941E+01-3.17500E+00
 -1      2618 2.54000E+01 4.39941E+01 0.00000E+00
 -1      2619 2.54000E+01 4.39941E+01 3.17500E+00
 -1      2620 2.54000E+01 4.39941E+01 6.35000E+00
 -1      2621 1.94403E+01 4.69331E+01-6.35000E+00
 -1      2622 1.94403E+01 4.69331E+01-3.17500E+00
 -1      2623 1.94403E+01 4.69331E+01 0.00000E+00
 -1      2624 1.94403E+01 4.69331E+01 3.17500E+00
 -1      2625 1.94403E+01 4.69331E+01 6.35000E+00
 -1      2626 1.31480E+01 4.90690E+01-6.35000E+00
 -1      2627 1.31480E+01 4.90690E+01-3.17500E+00
 -1      2628 1.31480E+01 4.90690E+01 0.00000E+00
 -1      2629 1.31480E+01 4.90690E+01 3.17500E+00
 -1      2630 1.31480E+01 4.90690E+01 6.35000E+00
 -1      2631 6.63073E+00 5.03654E+01-6.35000E+00
 -1      2632 6.63073E+00 5.03654E+01-3.17500E+00
 -1      2633 6.63073E+00 5.03654E+01 0.00000E+00
 -1      2634 6.63073E+00 5.03654E+01 3.17500E+00
 -1      2635 6.63073E+00 5.03654E+01 6.35000E+00
 -1      2636 3.32248E+00-5.06912E+01-6.35000E+00
 -1      2637 6.63073E+00-5.03654E+01-7.93750E+00
 -1      2638 3.32248E+00-5.06912E+01-3.17500E+00
 -1      2639 6.63073E+00-5.03654E+01-4.76250E+00
 -1      2640 3.32248E+00-5.06912E+01 0.00000E+00
 -1      2641 6.63073E+00-5.03654E+01-1.58750E+00
 -1      2642 3.32248E+00-5.06912E+01 3.17500E+00
 -1      2643 6.63073E+00-5.03654E+01 1.58750E+00
 -1      2644 3.32248E+00-5.06912E+01 6.35000E+00
 -1      2645 6.63073E+00-5.03654E+01 4.76250E+00
 -1      2646 6.63073E+00-5.03654E+01 7.93750E+00
 -1      2647 9.91059E+00-4.98239E+01-6.35000E+00
 -1      2648 1.31480E+01-4.90690E+01-7.93750E+00
 -1      2649 9.91059E+00-4.98239E+01-3.17500E+00
 -1      2650 1.31480E+01-4.90690E+01-4.76250E+00
 -1      2651 9.91059E+00-4.98239E+01 0.00000E+00
 -1      2652 1.31480E+01-4.90690E+01-1.58750E+00
 -1      2653 9.91059E+00-4.98239E+01 3.17500E+00
 -1      2654 1.31480E+01-4.90690E+01 1.58750E+00
 -1      2655 9.91059E+00-4.98239E+01 6.35000E+00
 -1      2656 1.31480E+01-4.90690E+01 4.76250E+00
 -1      2657 1.31480E+01-4.90690E+01 7.93750E+00
 -1      2658 1.63291E+01-4.81040E+01-6.35000E+00
 -1      2659 1.94403E+01-4.69331E+01-7.93750E+00
 -1      2660 1.63291E+01-4.81040E+01-3.17500E+00
 -1      2661 1.94403E+01-4.69331E+01-4.76250E+00
 -1      2662 1.63291E+01-4.81040E+01 0.00000E+00
 -1      2663 1.94403E+01-4.69331E+01-1.58750E+00
 -1      2664 1.63291E+01-4.81040E+01 3.17500E+00
 -1      2665 1.94403E+01-4.69331E+01 1.58750E+00
 -1      2666 1.63291E+01-4.81040E+01 6.35000E+00
 -1      2667 1.94403E+01-4.69331E+01 4.76250E+00
 -1      2668 1.94403E+01-4.69331E+01 7.93750E+00
 -1      2669 2.24683E+01-4.55611E+01-6.35000E+00
 -1      2670 2.54000E+01-4.39941E+01-7.93750E+00
 -1      2671 2.24683E+01-4.55611E+01-3.17500E+00
 -1      2672 2.54000E+01-4.39941E+01-4.76250E+00
 -1      2673 2.24683E+01-4.55611E+01 0.00000E+00
 -1      2674 2.54000E+01-4.39941E+01-1.58750E+00
 -1      2675 2.24683E+01-4.55611E+01 3.17500E+00
 -1      2676 2.54000E+01-4.39941E+01 1.58750E+00
 -1      2677 2.24683E+01-4.55611E+01 6.35000E+00
 -1      2678 2.54000E+01-4.39941E+01 4.76250E+00
 -1      2679 2.54000E+01-4.39941E+01 7.93750E+00
 -1      2680 2.82230E+01-4.22387E+01-6.35000E+00
 -1      2681 3.09251E+01-4.03023E+01-7.93750E+00
 -1      2682 2.82230E+01-4.22387E+01-3.17500E+00
 -1      2683 3.09251E+01-4.03023E+01-4.76250E+00
 -1      2684 2.82230E+01-4.22387E+01 0.00000E+00
 -1      2685 3.09251E+01-4.03023E+01-1.58750E+00
 -1      2686 2.82230E+01-4.22387E+01 3.17500E+00
 -1      2687 3.09251E+01-4.03023E+01 1.58750E+00
 -1      2688 2.82230E+01-4.22387E+01 6.35000E+00
 -1      2689 3.09251E+01-4.03023E+01 4.76250E+00
 -1      2690 3.09251E+01-4.03023E+01 7.93750E+00
 -1      2691 3.34948E+01-3.81935E+01-6.35000E+00
 -1      2692 3.59210E+01-3.59210E+01-7.93750E+00
 -1      2693 3.34948E+01-3.81935E+01-3.17500E+00
 -1      2694 3.59210E+01-3.59210E+01-4.76250E+00
 -1      2695 3.34948E+01-3.81935E+01 0.00000E+00
 -1      2696 3.59210E+01-3.59210E+01-1.58750E+00
 -1      2697 3.34948E+01-3.81935E+01 3.17500E+00
 -1      2698 3.59210E+01-3.59210E+01 1.58750E+00
 -1      2699 3.34948E+01-3.81935E+01 6.35000E+00
 -1      2700 3.59210E+01-3.59210E+01 4.76250E+00
 -1      2701 3.59210E+01-3.59210E+01 7.93750E+00
 -1      2702 3.81935E+01-3.34948E+01-6.35000E+00
 -1      2703 4.03023E+01-3.09251E+01-7.93750E+00
 -1      2704 3.81935E+01-3.34948E+01-3.17500E+00
 -1      2705 4.03023E+01-3.09251E+01-4.76250E+00
 -1      2706 3.81935E+01-3.34948E+01 0.00000E+00
 -1      2707 4.03023E+01-3.09251E+01-1.58750E+00
 -1      2708 3.81935E+01-3.34948E+01 3.17500E+00
 -1      2709 4.03023E+01-3.09251E+01 1.58750E+00
 -1      2710 3.81935E+01-3.34948E+01 6.35000E+00
 -1      2711 4.03023E+01-3.09251E+01 4.76250E+00
 -1      2712 4.03023E+01-3.09251E+01 7.93750E+00
 -1      2713 4.22387E+01-2.82230E+01-6.35000E+00
 -1      2714 4.39941E+01-2.54000E+01-7.93750E+00
 -1      2715 4.22387E+01-2.82230E+01-3.17500E+00
 -1      2716 4.39941E+01-2.54000E+01-4.76250E+00
 -1      2717 4.22387E+01-2.82230E+01 0.00000E+00
 -1      2718 4.39941E+01-2.54000E+01-1.58750E+00
 -1      2719 4.22387E+01-2.82230E+01 3.17500E+00
 -1      2720 4.39941E+01-2.54000E+01 1.58750E+00
 -1      2721 4.22387E+01-2.82230E+01 6.35000E+00
 -1      2722 4.39941E+01-2.54000E+01 4.76250E+00
 -1      2723 4.39941E+01-2.54000E+01 7.93750E+00
 -1      2724 4.55611E+01-2.24683E+01-6.35000E+00
 -1      2725 4.69331E+01-1.94403E+01-7.93750E+00
 -1      2726 4.55611E+01-2.24683E+01-3.17500E+00
 -1      2727 4.69331E+01-1.94403E+01-4.76250E+00
 -1      2728 4.55611E+01-2.24683E+01 0.00000E+00
 -1      2729 4.69331E+01-1.94403E+01-1.58750E+00
 -1      2730 4.55611E+01-2.24683E+01 3.17500E+00
 -1      2731 4.69331E+01-1.94403E+01 1.58750E+00
 -1      2732 4.55611E+01-2.24683E+01 6.35000E+00
 -1      2733 4.69331E+01-1.94403E+01 4.76250E+00
 -1      2734 4.69331E+01-1.94403E+01 7.93750E+00
 -1      2735 4.81040E+01-1.63291E+01-6.35000E+00
 -1      2736 4.90690E+01-1.31480E+01-7.93750E+00
 -1      2737 4.81040E+01-1.63291E+01-3.17500E+00
 -1      2738 4.90690E+01-1.31480E+01-4.76250E+00
 -1      2739 4.81040E+01-1.63291E+01 0.00000E+00
 -1      2740 4.90690E+01-1.31480E+01-1.58750E+00
 -1      2741 4.81040E+01-1.63291E+01 3.17500E+00
 -1      2742 4.90690E+01-1.31480E+01 1.58750E+00
 -1      2743 4.81040E+01-1.63291E+01 6.35000E+00
 -1      2744 4.90690E+01-1.31480E+01 4.76250E+00
 -1      2745 4.90690E+01-1.31480E+01 7.93750E+00
 -1      2746 4.98239E+01-9.91059E+00-6.35000E+00
 -1      2747 5.03654E+01-6.63073E+00-7.93750E+00
 -1      2748 4.98239E+01-9.91059E+00-3.17500E+00
 -1      2749 5.03654E+01-6.63073E+00-4.76250E+00
 -1      2750 4.98239E+01-9.91059E+00 0.00000E+00
 -1      2751 5.03654E+01-6.63073E+00-1.58750E+00
 -1      2752 4.98239E+01-9.91059E+00 3.17500E+00
 -1      2753 5.03654E+01-6.63073E+00 1.58750E+00
 -1      2754 4.98239E+01-9.91059E+00 6.35000E+00
 -1      2755 5.03654E+01-6.63073E+00 4.76250E+00
 -1      2756 5.03654E+01-6.63073E+00 7.93750E+00
 -1      2757 5.06912E+01-3.32248E+00-6.35000E+00
 -1      2758 5.08000E+01 2.39583E-07-7.93750E+00
 -1      2759 5.06912E+01-3.32248E+00-3.17500E+00
 -1      2760 5.08000E+01 2.39583E-07-4.76250E+00
 -1      2761 5.06912E+01-3.32248E+00 0.00000E+00
 -1      2762 5.08000E+01 1.19792E-07-1.58750E+00
 -1      2763 5.06912E+01-3.32248E+00 3.17500E+00
 -1      2764 5.08000E+01 1.19792E-07 1.58750E+00
 -1      2765 5.06912E+01-3.32248E+00 6.35000E+00
 -1      2766 5.08000E+01 2.39583E-07 4.76250E+00
 -1      2767 5.08000E+01 2.39583E-07 7.93750E+00
 -1      2768 5.06912E+01 3.32248E+00-6.35000E+00
 -1      2769 5.03654E+01 6.63073E+00-7.93750E+00
 -1      2770 5.06912E+01 3.32248E+00-3.17500E+00
 -1      2771 5.03654E+01 6.63073E+00-4.76250E+00
 -1      2772 5.06912E+01 3.32248E+00 0.00000E+00
 -1      2773 5.03654E+01 6.63073E+00-1.58750E+00
 -1      2774 5.06912E+01 3.32248E+00 3.17500E+00
 -1      2775 5.03654E+01 6.63073E+00 1.58750E+00
 -1      2776 5.06912E+01 3.32248E+00 6.35000E+00
 -1      2777 5.03654E+01 6.63073E+00 4.76250E+00
 -1      2778 5.03654E+01 6.63073E+00 7.93750E+00
 -1      2779 4.98239E+01 9.91059E+00-6.35000E+00
 -1      2780 4.90690E+01 1.31480E+01-7.93750E+00
 -1      2781 4.98239E+01 9.91059E+00-3.17500E+00
 -1      2782 4.90690E+01 1.31480E+01-4.76250E+00
 -1      2783 4.98239E+01 9.91059E+00 0.00000E+00
 -1      2784 4.90690E+01 1.31480E+01-1.58750E+00
 -1      2785 4.98239E+01 9.91059E+00 3.17500E+00
 -1      2786 4.90690E+01 1.31480E+01 1.58750E+00
 -1      2787 4.98239E+01 9.91059E+00 6.35000E+00
 -1      2788 4.90690E+01 1.31480E+01 4.76250E+00
 -1      2789 4.90690E+01 1.31480E+01 7.93750E+00
 -1      2790 4.81040E+01 1.63291E+01-6.35000E+00
 -1      2791 4.69331E+01 1.94403E+01-7.93750E+00
 -1      2792 4.81040E+01 1.63291E+01-3.17500E+00
 -1      2793 4.69331E+01 1.94403E+01-4.76250E+00
 -1      2794 4.81040E+01 1.63291E+01 0.00000E+00
 -1      2795 4.69331E+01 1.94403E+01-1.58750E+00
 -1      2796 4.81040E+01 1.63291E+01 3.17500E+00
 -1      2797 4.69331E+01 1.94403E+01 1.58750E+00
 -1      2798 4.81040E+01 1.63291E+01 6.35000E+00
 -1      2799 4.69331E+01 1.94403E+01 4.76250E+00
 -1      2800 4.69331E+01 1.94403E+01 7.93750E+00
 -1      2801 4.55611E+01 2.24683E+01-6.35000E+00
 -1      2802 4.39941E+01 2.54000E+01-7.93750E+00
 -1      2803 4.55611E+01 2.24683E+01-3.17500E+00
 -1      2804 4.39941E+01 2.54000E+01-4.76250E+00
 -1      2805 4.55611E+01 2.24683E+01 0.00000E+00
 -1      2806 4.39941E+01 2.54000E+01-1.58750E+00
 -1      2807 4.55611E+01 2.24683E+01 3.17500E+00
 -1      2808 4.39941E+01 2.54000E+01 1.58750E+00
 -1      2809 4.55611E+01 2.24683E+01 6.35000E+00
 -1      2810 4.39941E+01 2.54000E+01 4.76250E+00
 -1      2811 4.39941E+01 2.54000E+01 7.93750E+00
 -1      2812 4.22387E+01 2.82230E+01-6.35000E+00
 -1      2813 4.03023E+01 3.09251E+01-7.93750E+00
 -1      2814 4.22387E+01 2.82230E+01-3.17500E+00
 -1      2815 4.03023E+01 3.09251E+01-4.76250E+00
 -1      2816 4.22387E+01 2.82230E+01 0.00000E+00
 -1      2817 4.03023E+01 3.09251E+01-1.58750E+00
 -1      2818 4.22387E+01 2.82230E+01 3.17500E+00
 -1      2819 4.03023E+01 3.09251E+01 1.58750E+00
 -1      2820 4.22387E+01 2.82230E+01 6.35000E+00
 -1      2821 4.03023E+01 3.09251E+01 4.76250E+00
 -1      2822 4.03023E+01 3.09251E+01 7.93750E+00
 -1      2823 3.81935E+01 3.34948E+01-6.35000E+00
 -1      2824 3.59210E+01 3.59210E+01-7.93750E+00
 -1      2825 3.81935E+01 3.34948E+01-3.17500E+00
 -1      2826 3.59210E+01 3.59210E+01-4.76250E+00
 -1      2827 3.81935E+01 3.34948E+01 0.00000E+00
 -1      2828 3.59210E+01 3.59210E+01-1.58750E+00
 -1      2829 3.81935E+01 3.34948E+01 3.17500E+00
 -1      2830 3.59210E+01 3.59210E+01 1.58750E+00
 -1      2831 3.81935E+01 3.34948E+01 6.35000E+00
 -1      2832 3.59210E+01 3.59210E+01 4.76250E+00
 -1      2833 3.59210E+01 3.59210E+01 7.93750E+00
 -1      2834 3.34948E+01 3.81935E+01-6.35000E+00
 -1      2835 3.09251E+01 4.03023E+01-7.93750E+00
 -1      2836 3.34948E+01 3.81935E+01-3.17500E+00
 -1      2837 3.09251E+01 4.03023E+01-4.76250E+00
 -1      2838 3.34948E+01 3.81935E+01 0.00000E+00
 -1      2839 3.09251E+01 4.03023E+01-1.58750E+00
 -1      2840 3.34948E+01 3.81935E+01 3.17500E+00
 -1      2841 3.09251E+01 4.03023E+01 1.58750E+00
 -1      2842 3.34948E+01 3.81935E+01 6.35000E+00
 -1      2843 3.09251E+01 4.03023E+01 4.76250E+00
 -1      2844 3.09251E+01 4.03023E+01 7.93750E+00
 -1      2845 2.82230E+01 4.22387E+01-6.35000E+00
 -1      2846 2.54000E+01 4.39941E+01-7.93750E+00
 -1      2847 2.82230E+01 4.22387E+01-3.17500E+00
 -1      2848 2.54000E+01 4.39941E+01-4.76250E+00
 -1      2849 2.82230E+01 4.22387E+01 0.00000E+00
 -1      2850 2.54000E+01 4.39941E+01-1.58750E+00
 -1      2851 2.82230E+01 4.22387E+01 3.17500E+00
 -1      2852 2.54000E+01 4.39941E+01 1.58750E+00
 -1      2853 2.82230E+01 4.22387E+01 6.35000E+00
 -1      2854 2.54000E+01 4.39941E+01 4.76250E+00
 -1      2855 2.54000E+01 4.39941E+01 7.93750E+00
 -1      2856 2.24683E+01 4.55611E+01-6.35000E+00
 -1      2857 1.94403E+01 4.69331E+01-7.93750E+00
 -1      2858 2.24683E+01 4.55611E+01-3.17500E+00
 -1      2859 1.94403E+01 4.69331E+01-4.76250E+00
 -1      2860 2.24683E+01 4.55611E+01 0.00000E+00
 -1      2861 1.94403E+01 4.69331E+01-1.58750E+00
 -1      2862 2.24683E+01 4.55611E+01 3.17500E+00
 -1      2863 1.94403E+01 4.69331E+01 1.58750E+00
 -1      2864 2.24683E+01 4.55611E+01 6.35000E+00
 -1      2865 1.94403E+01 4.69331E+01 4.76250E+00
 -1      2866 1.94403E+01 4.69331E+01 7.93750E+00
 -1      2867 1.63291E+01 4.81040E+01-6.35000E+00
 -1      2868 1.31480E+01 4.90690E+01-7.93750E+00
 -1      2869 1.63291E+01 4.81040E+01-3.17500E+00
 -1      2870 1.31480E+01 4.90690E+01-4.76250E+00
 -1      2871 1.63291E+01 4.81040E+01 0.00000E+00
 -1      2872 1.31480E+01 4.90690E+01-1.58750E+00
 -1      2873 1.63291E+01 4.81040E+01 3.17500E+00
 -1      2874 1.31480E+01 4.90690E+01 1.58750E+00
 -1      2875 1.63291E+01 4.81040E+01 6.35000E+00
 -1      2876 1.31480E+01 4.90690E+01 4.76250E+00
 -1      2877 1.31480E+01 4.90690E+01 7.93750E+00
 -1      2878 9.91059E+00 4.98239E+01-6.35000E+00
 -1      2879 6.63073E+00 5.03654E+01-7.93750E+00
 -1      2880 9.91059E+00 4.98239E+01-3.17500E+00
 -1      2881 6.63073E+00 5.03654E+01-4.76250E+00
 -1      2882 9.91059E+00 4.98239E+01 0.00000E+00
 -1      2883 6.63073E+00 5.03654E+01-1.58750E+00
 -1      2884 9.91059E+00 4.98239E+01 3.17500E+00
 -1      2885 6.63073E+00 5.03654E+01 1.58750E+00
 -1      2886 9.91059E+00 4.98239E+01 6.35000E+00
 -1      2887 6.63073E+00 5.03654E+01 4.76250E+00
 -1      2888 6.63073E+00 5.03654E+01 7.93750E+00
 -1      2889 3.32248E+00 5.06912E+01-6.35000E+00
 -1      2890 3.32248E+00 5.06912E+01-3.17500E+00
 -1      2891 3.32248E+00 5.06912E+01 0.00000E+00
 -1      2892 3.32248E+00 5.06912E+01 3.17500E+00
 -1      2893 3.32248E+00 5.06912E+01 6.35000E+00
 -1      2894 7.36748E+00-5.59616E+01 9.52500E+00
 -1      2895 1.46089E+01-5.45211E+01 9.52500E+00
 -1      2896 2.16004E+01-5.21479E+01 9.52500E+00
 -1      2897 2.82222E+01-4.88823E+01 9.52500E+00
 -1      2898 3.43612E+01-4.47804E+01 9.52500E+00
 -1      2899 3.99123E+01-3.99123E+01 9.52500E+00
 -1      2900 4.47804E+01-3.43612E+01 9.52500E+00
 -1      2901 4.88823E+01-2.82222E+01 9.52500E+00
 -1      2902 5.21479E+01-2.16004E+01 9.52500E+00
 -1      2903 5.45211E+01-1.46089E+01 9.52500E+00
 -1      2904 5.59616E+01-7.36748E+00 9.52500E+00
 -1      2905 5.64444E+01 2.65182E-07 9.52500E+00
 -1      2906 5.59616E+01 7.36748E+00 9.52500E+00
 -1      2907 5.45211E+01 1.46089E+01 9.52500E+00
 -1      2908 5.21479E+01 2.16004E+01 9.52500E+00
 -1      2909 4.88823E+01 2.82222E+01 9.52500E+00
 -1      2910 4.47804E+01 3.43612E+01 9.52500E+00
 -1      2911 3.99123E+01 3.99123E+01 9.52500E+00
 -1      2912 3.43612E+01 4.47804E+01 9.52500E+00
 -1      2913 2.82222E+01 4.88823E+01 9.52500E+00
 -1      2914 2.16004E+01 5.21479E+01 9.52500E+00
 -1      2915 1.46089E+01 5.45211E+01 9.52500E+00
 -1      2916 7.36748E+00 5.59616E+01 9.52500E+00
 -1      2917 8.10423E+00-6.15577E+01 9.52500E+00
 -1      2918 1.60698E+01-5.99733E+01 9.52500E+00
 -1      2919 2.37604E+01-5.73627E+01 9.52500E+00
 -1      2920 3.10444E+01-5.37706E+01 9.52500E+00
 -1      2921 3.77973E+01-4.92584E+01 9.52500E+00
 -1      2922 4.39035E+01-4.39035E+01 9.52500E+00
 -1      2923 4.92584E+01-3.77973E+01 9.52500E+00
 -1      2924 5.37706E+01-3.10444E+01 9.52500E+00
 -1      2925 5.73627E+01-2.37604E+01 9.52500E+00
 -1      2926 5.99733E+01-1.60698E+01 9.52500E+00
 -1      2927 6.15577E+01-8.10423E+00 9.52500E+00
 -1      2928 6.20889E+01 2.90777E-07 9.52500E+00
 -1      2929 6.15577E+01 8.10423E+00 9.52500E+00
 -1      2930 5.99733E+01 1.60698E+01 9.52500E+00
 -1      2931 5.73627E+01 2.37604E+01 9.52500E+00
 -1      2932 5.37706E+01 3.10444E+01 9.52500E+00
 -1      2933 4.92584E+01 3.77973E+01 9.52500E+00
 -1      2934 4.39035E+01 4.39035E+01 9.52500E+00
 -1      2935 3.77973E+01 4.92584E+01 9.52500E+00
 -1      2936 3.10444E+01 5.37706E+01 9.52500E+00
 -1      2937 2.37604E+01 5.73627E+01 9.52500E+00
 -1      2938 1.60698E+01 5.99733E+01 9.52500E+00
 -1      2939 8.10423E+00 6.15577E+01 9.52500E+00
 -1      2940 8.84097E+00-6.71539E+01 9.52500E+00
 -1      2941 1.75307E+01-6.54254E+01 9.52500E+00
 -1      2942 2.59204E+01-6.25774E+01 9.52500E+00
 -1      2943 3.38667E+01-5.86588E+01 9.52500E+00
 -1      2944 4.12334E+01-5.37365E+01 9.52500E+00
 -1      2945 4.78947E+01-4.78947E+01 9.52500E+00
 -1      2946 5.37365E+01-4.12334E+01 9.52500E+00
 -1      2947 5.86588E+01-3.38667E+01 9.52500E+00
 -1      2948 6.25774E+01-2.59204E+01 9.52500E+00
 -1      2949 6.54254E+01-1.75307E+01 9.52500E+00
 -1      2950 6.71539E+01-8.84097E+00 9.52500E+00
 -1      2951 6.77333E+01 3.16378E-07 9.52500E+00
 -1      2952 6.71539E+01 8.84097E+00 9.52500E+00
 -1      2953 6.54254E+01 1.75307E+01 9.52500E+00
 -1      2954 6.25774E+01 2.59204E+01 9.52500E+00
 -1      2955 5.86588E+01 3.38667E+01 9.52500E+00
 -1      2956 5.37365E+01 4.12334E+01 9.52500E+00
 -1      2957 4.78947E+01 4.78947E+01 9.52500E+00
 -1      2958 4.12334E+01 5.37365E+01 9.52500E+00
 -1      2959 3.38667E+01 5.86588E+01 9.52500E+00
 -1      2960 2.59204E+01 6.25774E+01 9.52500E+00
 -1      2961 1.75307E+01 6.54254E+01 9.52500E+00
 -1      2962 8.84097E+00 6.71539E+01 9.52500E+00
 -1      2963 9.57772E+00-7.27500E+01 9.52500E+00
 -1      2964 1.89916E+01-7.08775E+01 9.52500E+00
 -1      2965 2.80805E+01-6.77922E+01 9.52500E+00
 -1      2966 3.66889E+01-6.35470E+01 9.52500E+00
 -1      2967 4.46696E+01-5.82145E+01 9.52500E+00
 -1      2968 5.18859E+01-5.18859E+01 9.52500E+00
 -1      2969 5.82145E+01-4.46696E+01 9.52500E+00
 -1      2970 6.35470E+01-3.66889E+01 9.52500E+00
 -1      2971 6.77922E+01-2.80805E+01 9.52500E+00
 -1      2972 7.08775E+01-1.89916E+01 9.52500E+00
 -1      2973 7.27500E+01-9.57772E+00 9.52500E+00
 -1      2974 7.33778E+01 3.41980E-07 9.52500E+00
 -1      2975 7.27500E+01 9.57772E+00 9.52500E+00
 -1      2976 7.08775E+01 1.89916E+01 9.52500E+00
 -1      2977 6.77922E+01 2.80805E+01 9.52500E+00
 -1      2978 6.35470E+01 3.66889E+01 9.52500E+00
 -1      2979 5.82145E+01 4.46696E+01 9.52500E+00
 -1      2980 5.18859E+01 5.18859E+01 9.52500E+00
 -1      2981 4.46696E+01 5.82145E+01 9.52500E+00
 -1      2982 3.66889E+01 6.35470E+01 9.52500E+00
 -1      2983 2.80805E+01 6.77922E+01 9.52500E+00
 -1      2984 1.89916E+01 7.08775E+01 9.52500E+00
 -1      2985 9.57772E+00 7.27500E+01 9.52500E+00
 -1      2986 1.03145E+01-7.83462E+01 9.52500E+00
 -1      2987 2.04525E+01-7.63296E+01 9.52500E+00
 -1      2988 3.02405E+01-7.30070E+01 9.52500E+00
 -1      2989 3.95111E+01-6.84352E+01 9.52500E+00
 -1      2990 4.81057E+01-6.26925E+01 9.52500E+00
 -1      2991 5.58771E+01-5.58771E+01 9.52500E+00
 -1      2992 6.26925E+01-4.81057E+01 9.52500E+00
 -1      2993 6.84352E+01-3.95111E+01 9.52500E+00
 -1      2994 7.30070E+01-3.02405E+01 9.52500E+00
 -1      2995 7.63296E+01-2.04525E+01 9.52500E+00
 -1      2996 7.83462E+01-1.03145E+01 9.52500E+00
 -1      2997 7.90222E+01 3.67580E-07 9.52500E+00
 -1      2998 7.83462E+01 1.03145E+01 9.52500E+00
 -1      2999 7.63296E+01 2.04525E+01 9.52500E+00
 -1      3000 7.30070E+01 3.02405E+01 9.52500E+00
 -1      3001 6.84352E+01 3.95111E+01 9.52500E+00
 -1      3002 6.26925E+01 4.81057E+01 9.52500E+00
 -1      3003 5.58771E+01 5.58771E+01 9.52500E+00
 -1      3004 4.81057E+01 6.26925E+01 9.52500E+00
 -1      3005 3.95111E+01 6.84352E+01 9.52500E+00
 -1      3006 3.02405E+01 7.30070E+01 9.52500E+00
 -1      3007 2.04525E+01 7.63296E+01 9.52500E+00
 -1      3008 1.03145E+01 7.83462E+01 9.52500E+00
 -1      3009 1.10512E+01-8.39423E+01 9.52500E+00
 -1      3010 2.19133E+01-8.17817E+01 9.52500E+00
 -1      3011 3.24005E+01-7.82218E+01 9.52500E+00
 -1      3012 4.23333E+01-7.33235E+01 9.52500E+00
 -1      3013 5.15418E+01-6.71706E+01 9.52500E+00
 -1      3014 5.98684E+01-5.98684E+01 9.52500E+00
 -1      3015 6.71706E+01-5.15418E+01 9.52500E+00
 -1      3016 7.33235E+01-4.23333E+01 9.52500E+00
 -1      3017 7.82218E+01-3.24005E+01 9.52500E+00
 -1      3018 8.17817E+01-2.19133E+01 9.52500E+00
 -1      3019 8.39423E+01-1.10512E+01 9.52500E+00
 -1      3020 8.46667E+01 3.93179E-07 9.52500E+00
 -1      3021 8.39423E+01 1.10512E+01 9.52500E+00
 -1      3022 8.17817E+01 2.19133E+01 9.52500E+00
 -1      3023 7.82218E+01 3.24005E+01 9.52500E+00
 -1      3024 7.33235E+01 4.23333E+01 9.52500E+00
 -1      3025 6.71706E+01 5.15418E+01 9.52500E+00
 -1      3026 5.98684E+01 5.98684E+01 9.52500E+00
 -1      3027 5.15418E+01 6.71706E+01 9.52500E+00
 -1      3028 4.23333E+01 7.33235E+01 9.52500E+00
 -1      3029 3.24005E+01 7.82218E+01 9.52500E+00
 -1      3030 2.19133E+01 8.17817E+01 9.52500E+00
 -1      3031 1.10512E+01 8.39423E+01 9.52500E+00
 -1      3032 1.17880E+01-8.95385E+01 9.52500E+00
 -1      3033 2.33742E+01-8.72338E+01 9.52500E+00
 -1      3034 3.45606E+01-8.34366E+01 9.52500E+00
 -1      3035 4.51556E+01-7.82117E+01 9.52500E+00
 -1      3036 5.49779E+01-7.16486E+01 9.52500E+00
 -1      3037 6.38596E+01-6.38596E+01 9.52500E+00
 -1      3038 7.16486E+01-5.49779E+01 9.52500E+00
 -1      3039 7.82117E+01-4.51556E+01 9.52500E+00
 -1      3040 8.34366E+01-3.45606E+01 9.52500E+00
 -1      3041 8.72338E+01-2.33742E+01 9.52500E+00
 -1      3042 8.95385E+01-1.17880E+01 9.52500E+00
 -1      3043 9.03111E+01 4.18782E-07 9.52500E+00
 -1      3044 8.95385E+01 1.17880E+01 9.52500E+00
 -1      3045 8.72338E+01 2.33742E+01 9.52500E+00
 -1      3046 8.34366E+01 3.45606E+01 9.52500E+00
 -1      3047 7.82117E+01 4.51556E+01 9.52500E+00
 -1      3048 7.16486E+01 5.49779E+01 9.52500E+00
 -1      3049 6.38596E+01 6.38596E+01 9.52500E+00
 -1      3050 5.49779E+01 7.16486E+01 9.52500E+00
 -1      3051 4.51556E+01 7.82117E+01 9.52500E+00
 -1      3052 3.45606E+01 8.34366E+01 9.52500E+00
 -1      3053 2.33742E+01 8.72338E+01 9.52500E+00
 -1      3054 1.17880E+01 8.95385E+01 9.52500E+00
 -1      3055 1.25247E+01-9.51346E+01 9.52500E+00
 -1      3056 2.48351E+01-9.26860E+01 9.52500E+00
 -1      3057 3.67206E+01-8.86514E+01 9.52500E+00
 -1      3058 4.79778E+01-8.30999E+01 9.52500E+00
 -1      3059 5.84140E+01-7.61267E+01 9.52500E+00
 -1      3060 6.78508E+01-6.78508E+01 9.52500E+00
 -1      3061 7.61267E+01-5.84140E+01 9.52500E+00
 -1      3062 8.31000E+01-4.79778E+01 9.52500E+00
 -1      3063 8.86514E+01-3.67206E+01 9.52500E+00
 -1      3064 9.26860E+01-2.48351E+01 9.52500E+00
 -1      3065 9.51346E+01-1.25247E+01 9.52500E+00
 -1      3066 9.59556E+01 4.44381E-07 9.52500E+00
 -1      3067 9.51346E+01 1.25247E+01 9.52500E+00
 -1      3068 9.26860E+01 2.48351E+01 9.52500E+00
 -1      3069 8.86514E+01 3.67206E+01 9.52500E+00
 -1      3070 8.30999E+01 4.79778E+01 9.52500E+00
 -1      3071 7.61267E+01 5.84140E+01 9.52500E+00
 -1      3072 6.78508E+01 6.78508E+01 9.52500E+00
 -1      3073 5.84140E+01 7.61267E+01 9.52500E+00
 -1      3074 4.79778E+01 8.30999E+01 9.52500E+00
 -1      3075 3.67206E+01 8.86514E+01 9.52500E+00
 -1      3076 2.48351E+01 9.26860E+01 9.52500E+00
 -1      3077 1.25247E+01 9.51346E+01 9.52500E+00
 -1      3078 1.32615E+01-1.00731E+02 9.52500E+00
 -1      3079 2.62960E+01-9.81381E+01 9.52500E+00
 -1      3080 3.88806E+01-9.38662E+01 9.52500E+00
 -1      3081 5.08000E+01-8.79882E+01 9.52500E+00
 -1      3082 6.18502E+01-8.06047E+01 9.52500E+00
 -1      3083 7.18420E+01-7.18420E+01 9.52500E+00
 -1      3084 8.06047E+01-6.18502E+01 9.52500E+00
 -1      3085 8.79882E+01-5.08000E+01 9.52500E+00
 -1      3086 9.38662E+01-3.88806E+01 9.52500E+00
 -1      3087 9.81381E+01-2.62960E+01 9.52500E+00
 -1      3088 1.00731E+02-1.32615E+01 9.52500E+00
 -1      3089 1.01600E+02 4.69979E-07 9.52500E+00
 -1      3090 1.00731E+02 1.32615E+01 9.52500E+00
 -1      3091 9.81381E+01 2.62960E+01 9.52500E+00
 -1      3092 9.38662E+01 3.88806E+01 9.52500E+00
 -1      3093 8.79882E+01 5.08000E+01 9.52500E+00
 -1      3094 8.06047E+01 6.18502E+01 9.52500E+00
 -1      3095 7.18420E+01 7.18420E+01 9.52500E+00
 -1      3096 6.18502E+01 8.06047E+01 9.52500E+00
 -1      3097 5.08000E+01 8.79882E+01 9.52500E+00
 -1      3098 3.88806E+01 9.38662E+01 9.52500E+00
 -1      3099 2.62960E+01 9.81381E+01 9.52500E+00
 -1      3100 1.32615E+01 1.00731E+02 9.52500E+00
 -1      3101 1.39982E+01-1.06327E+02 9.52500E+00
 -1      3102 2.77569E+01-1.03590E+02 9.52500E+00
 -1      3103 4.10407E+01-9.90809E+01 9.52500E+00
 -1      3104 5.36222E+01-9.28764E+01 9.52500E+00
 -1      3105 6.52863E+01-8.50827E+01 9.52500E+00
 -1      3106 7.58333E+01-7.58333E+01 9.52500E+00
 -1      3107 8.50827E+01-6.52863E+01 9.52500E+00
 -1      3108 9.28764E+01-5.36222E+01 9.52500E+00
 -1      3109 9.90809E+01-4.10407E+01 9.52500E+00
 -1      3110 1.03590E+02-2.77569E+01 9.52500E+00
 -1      3111 1.06327E+02-1.39982E+01 9.52500E+00
 -1      3112 1.07244E+02 4.95548E-07 9.52500E+00
 -1      3113 1.06327E+02 1.39982E+01 9.52500E+00
 -1      3114 1.03590E+02 2.77569E+01 9.52500E+00
 -1      3115 9.90809E+01 4.10407E+01 9.52500E+00
 -1      3116 9.28764E+01 5.36222E+01 9.52500E+00
 -1      3117 8.50827E+01 6.52863E+01 9.52500E+00
 -1      3118 7.58333E+01 7.58333E+01 9.52500E+00
 -1      3119 6.52863E+01 8.50827E+01 9.52500E+00
 -1      3120 5.36222E+01 9.28764E+01 9.52500E+00
 -1      3121 4.10407E+01 9.90809E+01 9.52500E+00
 -1      3122 2.77569E+01 1.03590E+02 9.52500E+00
 -1      3123 1.39982E+01 1.06327E+02 9.52500E+00
 -1      3124 1.47350E+01-1.11923E+02 9.52500E+00
 -1      3125 2.92178E+01-1.09042E+02 9.52500E+00
 -1      3126 4.32007E+01-1.04296E+02 9.52500E+00
 -1      3127 5.64444E+01-9.77646E+01 9.52500E+00
 -1      3128 6.87224E+01-8.95608E+01 9.52500E+00
 -1      3129 7.98245E+01-7.98245E+01 9.52500E+00
 -1      3130 8.95608E+01-6.87224E+01 9.52500E+00
 -1      3131 9.77646E+01-5.64444E+01 9.52500E+00
 -1      3132 1.04296E+02-4.32007E+01 9.52500E+00
 -1      3133 1.09042E+02-2.92178E+01 9.52500E+00
 -1      3134 1.11923E+02-1.47350E+01 9.52500E+00
 -1      3135 1.12889E+02 5.21115E-07 9.52500E+00
 -1      3136 1.11923E+02 1.47350E+01 9.52500E+00
 -1      3137 1.09042E+02 2.92178E+01 9.52500E+00
 -1      3138 1.04296E+02 4.32007E+01 9.52500E+00
 -1      3139 9.77646E+01 5.64444E+01 9.52500E+00
 -1      3140 8.95608E+01 6.87224E+01 9.52500E+00
 -1      3141 7.98245E+01 7.98245E+01 9.52500E+00
 -1      3142 6.87224E+01 8.95608E+01 9.52500E+00
 -1      3143 5.64444E+01 9.77646E+01 9.52500E+00
 -1      3144 4.32007E+01 1.04296E+02 9.52500E+00
 -1      3145 2.92178E+01 1.09042E+02 9.52500E+00
 -1      3146 1.47350E+01 1.11923E+02 9.52500E+00
 -1      3147 1.54717E+01-1.17519E+02 9.52500E+00
 -1      3148 3.06787E+01-1.14494E+02 9.52500E+00
 -1      3149 4.53607E+01-1.09511E+02 9.52500E+00
 -1      3150 5.92667E+01-1.02653E+02 9.52500E+00
 -1      3151 7.21585E+01-9.40388E+01 9.52500E+00
 -1      3152 8.38157E+01-8.38157E+01 9.52500E+00
 -1      3153 9.40388E+01-7.21585E+01 9.52500E+00
 -1      3154 1.02653E+02-5.92667E+01 9.52500E+00
 -1      3155 1.09511E+02-4.53607E+01 9.52500E+00
 -1      3156 1.14494E+02-3.06787E+01 9.52500E+00
 -1      3157 1.17519E+02-1.54717E+01 9.52500E+00
 -1      3158 1.18533E+02 5.46687E-07 9.52500E+00
 -1      3159 1.17519E+02 1.54717E+01 9.52500E+00
 -1      3160 1.14494E+02 3.06787E+01 9.52500E+00
 -1      3161 1.09511E+02 4.53607E+01 9.52500E+00
 -1      3162 1.02653E+02 5.92667E+01 9.52500E+00
 -1      3163 9.40388E+01 7.21585E+01 9.52500E+00
 -1      3164 8.38157E+01 8.38157E+01 9.52500E+00
 -1      3165 7.21585E+01 9.40388E+01 9.52500E+00
 -1      3166 5.92667E+01 1.02653E+02 9.52500E+00
 -1      3167 4.53607E+01 1.09511E+02 9.52500E+00
 -1      3168 3.06787E+01 1.14494E+02 9.52500E+00
 -1      3169 1.54717E+01 1.17519E+02 9.52500E+00
 -1      3170 1.62085E+01-1.23115E+02 9.52500E+00
 -1      3171 3.21396E+01-1.19947E+02 9.52500E+00
 -1      3172 4.75208E+01-1.14725E+02 9.52500E+00
 -1      3173 6.20889E+01-1.07541E+02 9.52500E+00
 -1      3174 7.55946E+01-9.85169E+01 9.52500E+00
 -1      3175 8.78069E+01-8.78069E+01 9.52500E+00
 -1      3176 9.85169E+01-7.55946E+01 9.52500E+00
 -1      3177 1.07541E+02-6.20889E+01 9.52500E+00
 -1      3178 1.14725E+02-4.75208E+01 9.52500E+00
 -1      3179 1.19947E+02-3.21396E+01 9.52500E+00
 -1      3180 1.23115E+02-1.62085E+01 9.52500E+00
 -1      3181 1.24178E+02 5.72253E-07 9.52500E+00
 -1      3182 1.23115E+02 1.62085E+01 9.52500E+00
 -1      3183 1.19947E+02 3.21396E+01 9.52500E+00
 -1      3184 1.14725E+02 4.75208E+01 9.52500E+00
 -1      3185 1.07541E+02 6.20889E+01 9.52500E+00
 -1      3186 9.85169E+01 7.55946E+01 9.52500E+00
 -1      3187 8.78069E+01 8.78069E+01 9.52500E+00
 -1      3188 7.55946E+01 9.85169E+01 9.52500E+00
 -1      3189 6.20889E+01 1.07541E+02 9.52500E+00
 -1      3190 4.75208E+01 1.14725E+02 9.52500E+00
 -1      3191 3.21396E+01 1.19947E+02 9.52500E+00
 -1      3192 1.62085E+01 1.23115E+02 9.52500E+00
 -1      3193 1.69452E+01-1.28712E+02 9.52500E+00
 -1      3194 3.36005E+01-1.25399E+02 9.52500E+00
 -1      3195 4.96808E+01-1.19940E+02 9.52500E+00
 -1      3196 6.49111E+01-1.12429E+02 9.52500E+00
 -1      3197 7.90308E+01-1.02995E+02 9.52500E+00
 -1      3198 9.17982E+01-9.17982E+01 9.52500E+00
 -1      3199 1.02995E+02-7.90308E+01 9.52500E+00
 -1      3200 1.12429E+02-6.49111E+01 9.52500E+00
 -1      3201 1.19940E+02-4.96808E+01 9.52500E+00
 -1      3202 1.25399E+02-3.36005E+01 9.52500E+00
 -1      3203 1.28712E+02-1.69452E+01 9.52500E+00
 -1      3204 1.29822E+02 5.97826E-07 9.52500E+00
 -1      3205 1.28712E+02 1.69452E+01 9.52500E+00
 -1      3206 1.25399E+02 3.36005E+01 9.52500E+00
 -1      3207 1.19940E+02 4.96808E+01 9.52500E+00
 -1      3208 1.12429E+02 6.49111E+01 9.52500E+00
 -1      3209 1.02995E+02 7.90308E+01 9.52500E+00
 -1      3210 9.17982E+01 9.17982E+01 9.52500E+00
 -1      3211 7.90308E+01 1.02995E+02 9.52500E+00
 -1      3212 6.49111E+01 1.12429E+02 9.52500E+00
 -1      3213 4.96808E+01 1.19940E+02 9.52500E+00
 -1      3214 3.36005E+01 1.25399E+02 9.52500E+00
 -1      3215 1.69452E+01 1.28712E+02 9.52500E+00
 -1      3216 1.76819E+01-1.34308E+02 9.52500E+00
 -1      3217 3.50614E+01-1.30851E+02 9.52500E+00
 -1      3218 5.18409E+01-1.25155E+02 9.52500E+00
 -1      3219 6.77333E+01-1.17318E+02 9.52500E+00
 -1      3220 8.24669E+01-1.07473E+02 9.52500E+00
 -1      3221 9.57894E+01-9.57894E+01 9.52500E+00
 -1      3222 1.07473E+02-8.24669E+01 9.52500E+00
 -1      3223 1.17318E+02-6.77333E+01 9.52500E+00
 -1      3224 1.25155E+02-5.18408E+01 9.52500E+00
 -1      3225 1.30851E+02-3.50614E+01 9.52500E+00
 -1      3226 1.34308E+02-1.76819E+01 9.52500E+00
 -1      3227 1.35467E+02 6.23397E-07 9.52500E+00
 -1      3228 1.34308E+02 1.76819E+01 9.52500E+00
 -1      3229 1.30851E+02 3.50614E+01 9.52500E+00
 -1      3230 1.25155E+02 5.18409E+01 9.52500E+00
 -1      3231 1.17318E+02 6.77333E+01 9.52500E+00
 -1      3232 1.07473E+02 8.24669E+01 9.52500E+00
 -1      3233 9.57894E+01 9.57894E+01 9.52500E+00
 -1      3234 8.24669E+01 1.07473E+02 9.52500E+00
 -1      3235 6.77333E+01 1.17318E+02 9.52500E+00
 -1      3236 5.18408E+01 1.25155E+02 9.52500E+00
 -1      3237 3.50614E+01 1.30851E+02 9.52500E+00
 -1      3238 1.76819E+01 1.34308E+02 9.52500E+00
 -1      3239 1.84187E+01-1.39904E+02 9.52500E+00
 -1      3240 3.65222E+01-1.36303E+02 9.52500E+00
 -1      3241 5.40009E+01-1.30370E+02 9.52500E+00
 -1      3242 7.05556E+01-1.22206E+02 9.52500E+00
 -1      3243 8.59030E+01-1.11951E+02 9.52500E+00
 -1      3244 9.97806E+01-9.97806E+01 9.52500E+00
 -1      3245 1.11951E+02-8.59030E+01 9.52500E+00
 -1      3246 1.22206E+02-7.05556E+01 9.52500E+00
 -1      3247 1.30370E+02-5.40009E+01 9.52500E+00
 -1      3248 1.36303E+02-3.65222E+01 9.52500E+00
 -1      3249 1.39904E+02-1.84187E+01 9.52500E+00
 -1      3250 1.41111E+02 6.48959E-07 9.52500E+00
 -1      3251 1.39904E+02 1.84187E+01 9.52500E+00
 -1      3252 1.36303E+02 3.65222E+01 9.52500E+00
 -1      3253 1.30370E+02 5.40009E+01 9.52500E+00
 -1      3254 1.22206E+02 7.05556E+01 9.52500E+00
 -1      3255 1.11951E+02 8.59030E+01 9.52500E+00
 -1      3256 9.97806E+01 9.97806E+01 9.52500E+00
 -1      3257 8.59030E+01 1.11951E+02 9.52500E+00
 -1      3258 7.05556E+01 1.22206E+02 9.52500E+00
 -1      3259 5.40009E+01 1.30370E+02 9.52500E+00
 -1      3260 3.65222E+01 1.36303E+02 9.52500E+00
 -1      3261 1.84187E+01 1.39904E+02 9.52500E+00
 -1      3262 1.91554E+01-1.45500E+02 9.52500E+00
 -1      3263 3.79831E+01-1.41755E+02 9.52500E+00
 -1      3264 5.61609E+01-1.35584E+02 9.52500E+00
 -1      3265 7.33778E+01-1.27094E+02 9.52500E+00
 -1      3266 8.93391E+01-1.16429E+02 9.52500E+00
 -1      3267 1.03772E+02-1.03772E+02 9.52500E+00
 -1      3268 1.16429E+02-8.93391E+01 9.52500E+00
 -1      3269 1.27094E+02-7.33778E+01 9.52500E+00
 -1      3270 1.35584E+02-5.61609E+01 9.52500E+00
 -1      3271 1.41755E+02-3.79831E+01 9.52500E+00
 -1      3272 1.45500E+02-1.91554E+01 9.52500E+00
 -1      3273 1.46756E+02 6.74529E-07 9.52500E+00
 -1      3274 1.45500E+02 1.91554E+01 9.52500E+00
 -1      3275 1.41755E+02 3.79831E+01 9.52500E+00
 -1      3276 1.35584E+02 5.61609E+01 9.52500E+00
 -1      3277 1.27094E+02 7.33778E+01 9.52500E+00
 -1      3278 1.16429E+02 8.93391E+01 9.52500E+00
 -1      3279 1.03772E+02 1.03772E+02 9.52500E+00
 -1      3280 8.93391E+01 1.16429E+02 9.52500E+00
 -1      3281 7.33778E+01 1.27094E+02 9.52500E+00
 -1      3282 5.61609E+01 1.35584E+02 9.52500E+00
 -1      3283 3.79831E+01 1.41755E+02 9.52500E+00
 -1      3284 1.91554E+01 1.45500E+02 9.52500E+00
 -1      3285 3.68374E+00-5.62030E+01 9.52500E+00
 -1      3286 6.99910E+00-5.31635E+01 9.52500E+00
 -1      3287 1.09882E+01-5.52414E+01 9.52500E+00
 -1      3288 1.38785E+01-5.17951E+01 9.52500E+00
 -1      3289 1.81046E+01-5.33345E+01 9.52500E+00
 -1      3290 2.05203E+01-4.95405E+01 9.52500E+00
 -1      3291 2.49113E+01-5.05151E+01 9.52500E+00
 -1      3292 2.68111E+01-4.64382E+01 9.52500E+00
 -1      3293 3.12917E+01-4.68314E+01 9.52500E+00
 -1      3294 3.26431E+01-4.25414E+01 9.52500E+00
 -1      3295 3.71367E+01-4.23463E+01 9.52500E+00
 -1      3296 3.79166E+01-3.79166E+01 9.52500E+00
 -1      3297 4.23463E+01-3.71367E+01 9.52500E+00
 -1      3298 4.25414E+01-3.26431E+01 9.52500E+00
 -1      3299 4.68314E+01-3.12917E+01 9.52500E+00
 -1      3300 4.64382E+01-2.68111E+01 9.52500E+00
 -1      3301 5.05151E+01-2.49113E+01 9.52500E+00
 -1      3302 4.95405E+01-2.05203E+01 9.52500E+00
 -1      3303 5.33345E+01-1.81046E+01 9.52500E+00
 -1      3304 5.17951E+01-1.38785E+01 9.52500E+00
 -1      3305 5.52414E+01-1.09882E+01 9.52500E+00
 -1      3306 5.31635E+01-6.99910E+00 9.52500E+00
 -1      3307 5.62030E+01-3.68374E+00 9.52500E+00
 -1      3308 5.36222E+01 2.52383E-07 9.52500E+00
 -1      3309 5.62030E+01 3.68374E+00 9.52500E+00
 -1      3310 5.31635E+01 6.99910E+00 9.52500E+00
 -1      3311 5.52414E+01 1.09882E+01 9.52500E+00
 -1      3312 5.17951E+01 1.38785E+01 9.52500E+00
 -1      3313 5.33345E+01 1.81046E+01 9.52500E+00
 -1      3314 4.95405E+01 2.05203E+01 9.52500E+00
 -1      3315 5.05151E+01 2.49113E+01 9.52500E+00
 -1      3316 4.64382E+01 2.68111E+01 9.52500E+00
 -1      3317 4.68314E+01 3.12917E+01 9.52500E+00
 -1      3318 4.25414E+01 3.26431E+01 9.52500E+00
 -1      3319 4.23463E+01 3.71367E+01 9.52500E+00
 -1      3320 3.79166E+01 3.79166E+01 9.52500E+00
 -1      3321 3.71367E+01 4.23463E+01 9.52500E+00
 -1      3322 3.26431E+01 4.25414E+01 9.52500E+00
 -1      3323 3.12917E+01 4.68314E+01 9.52500E+00
 -1      3324 2.68111E+01 4.64382E+01 9.52500E+00
 -1      3325 2.49113E+01 5.05151E+01 9.52500E+00
 -1      3326 2.05203E+01 4.95405E+01 9.52500E+00
 -1      3327 1.81046E+01 5.33345E+01 9.52500E+00
 -1      3328 1.38785E+01 5.17951E+01 9.52500E+00
 -1      3329 1.09882E+01 5.52414E+01 9.52500E+00
 -1      3330 6.99910E+00 5.31635E+01 9.52500E+00
 -1      3331 3.68374E+00 5.62030E+01 9.52500E+00
 -1      3332 4.05211E+00-6.18233E+01 9.52500E+00
 -1      3333 7.73585E+00-5.87596E+01 9.52500E+00
 -1      3334 1.20870E+01-6.07655E+01 9.52500E+00
 -1      3335 1.53393E+01-5.72472E+01 9.52500E+00
 -1      3336 1.99151E+01-5.86680E+01 9.52500E+00
 -1      3337 2.26804E+01-5.47553E+01 9.52500E+00
 -1      3338 2.74024E+01-5.55666E+01 9.52500E+00
 -1      3339 2.96333E+01-5.13264E+01 9.52500E+00
 -1      3340 3.44209E+01-5.15145E+01 9.52500E+00
 -1      3341 3.60793E+01-4.70194E+01 9.52500E+00
 -1      3342 4.08504E+01-4.65810E+01 9.52500E+00
 -1      3343 4.19079E+01-4.19079E+01 9.52500E+00
 -1      3344 4.65810E+01-4.08504E+01 9.52500E+00
 -1      3345 4.70194E+01-3.60793E+01 9.52500E+00
 -1      3346 5.15145E+01-3.44209E+01 9.52500E+00
 -1      3347 5.13264E+01-2.96333E+01 9.52500E+00
 -1      3348 5.55666E+01-2.74024E+01 9.52500E+00
 -1      3349 5.47553E+01-2.26804E+01 9.52500E+00
 -1      3350 5.86680E+01-1.99151E+01 9.52500E+00
 -1      3351 5.72472E+01-1.53393E+01 9.52500E+00
 -1      3352 6.07655E+01-1.20870E+01 9.52500E+00
 -1      3353 5.87596E+01-7.73585E+00 9.52500E+00
 -1      3354 6.18233E+01-4.05211E+00 9.52500E+00
 -1      3355 5.92667E+01 2.77979E-07 9.52500E+00
 -1      3356 6.18233E+01 4.05211E+00 9.52500E+00
 -1      3357 5.87596E+01 7.73585E+00 9.52500E+00
 -1      3358 6.07655E+01 1.20870E+01 9.52500E+00
 -1      3359 5.72472E+01 1.53393E+01 9.52500E+00
 -1      3360 5.86680E+01 1.99151E+01 9.52500E+00
 -1      3361 5.47553E+01 2.26804E+01 9.52500E+00
 -1      3362 5.55666E+01 2.74024E+01 9.52500E+00
 -1      3363 5.13264E+01 2.96333E+01 9.52500E+00
 -1      3364 5.15145E+01 3.44209E+01 9.52500E+00
 -1      3365 4.70194E+01 3.60793E+01 9.52500E+00
 -1      3366 4.65810E+01 4.08504E+01 9.52500E+00
 -1      3367 4.19079E+01 4.19079E+01 9.52500E+00
 -1      3368 4.08504E+01 4.65810E+01 9.52500E+00
 -1      3369 3.60793E+01 4.70194E+01 9.52500E+00
 -1      3370 3.44209E+01 5.15145E+01 9.52500E+00
 -1      3371 2.96333E+01 5.13264E+01 9.52500E+00
 -1      3372 2.74024E+01 5.55666E+01 9.52500E+00
 -1      3373 2.26804E+01 5.47553E+01 9.52500E+00
 -1      3374 1.99151E+01 5.86680E+01 9.52500E+00
 -1      3375 1.53393E+01 5.72472E+01 9.52500E+00
 -1      3376 1.20870E+01 6.07655E+01 9.52500E+00
 -1      3377 7.73585E+00 5.87596E+01 9.52500E+00
 -1      3378 4.05211E+00 6.18233E+01 9.52500E+00
 -1      3379 4.42049E+00-6.74436E+01 9.52500E+00
 -1      3380 8.47260E+00-6.43558E+01 9.52500E+00
 -1      3381 1.31858E+01-6.62896E+01 9.52500E+00
 -1      3382 1.68002E+01-6.26993E+01 9.52500E+00
 -1      3383 2.17255E+01-6.40014E+01 9.52500E+00
 -1      3384 2.48404E+01-5.99700E+01 9.52500E+00
 -1      3385 2.98935E+01-6.06181E+01 9.52500E+00
 -1      3386 3.24556E+01-5.62147E+01 9.52500E+00
 -1      3387 3.75501E+01-5.61976E+01 9.52500E+00
 -1      3388 3.95154E+01-5.14974E+01 9.52500E+00
 -1      3389 4.45641E+01-5.08156E+01 9.52500E+00
 -1      3390 4.58991E+01-4.58991E+01 9.52500E+00
 -1      3391 5.08156E+01-4.45641E+01 9.52500E+00
 -1      3392 5.14974E+01-3.95154E+01 9.52500E+00
 -1      3393 5.61976E+01-3.75501E+01 9.52500E+00
 -1      3394 5.62147E+01-3.24556E+01 9.52500E+00
 -1      3395 6.06181E+01-2.98935E+01 9.52500E+00
 -1      3396 5.99700E+01-2.48404E+01 9.52500E+00
 -1      3397 6.40014E+01-2.17255E+01 9.52500E+00
 -1      3398 6.26993E+01-1.68002E+01 9.52500E+00
 -1      3399 6.62896E+01-1.31858E+01 9.52500E+00
 -1      3400 6.43558E+01-8.47260E+00 9.52500E+00
 -1      3401 6.74436E+01-4.42049E+00 9.52500E+00
 -1      3402 6.49111E+01 3.03578E-07 9.52500E+00
 -1      3403 6.74436E+01 4.42049E+00 9.52500E+00
 -1      3404 6.43558E+01 8.47260E+00 9.52500E+00
 -1      3405 6.62896E+01 1.31858E+01 9.52500E+00
 -1      3406 6.26993E+01 1.68002E+01 9.52500E+00
 -1      3407 6.40014E+01 2.17256E+01 9.52500E+00
 -1      3408 5.99700E+01 2.48404E+01 9.52500E+00
 -1      3409 6.06181E+01 2.98935E+01 9.52500E+00
 -1      3410 5.62147E+01 3.24556E+01 9.52500E+00
 -1      3411 5.61976E+01 3.75501E+01 9.52500E+00
 -1      3412 5.14974E+01 3.95154E+01 9.52500E+00
 -1      3413 5.08156E+01 4.45641E+01 9.52500E+00
 -1      3414 4.58991E+01 4.58991E+01 9.52500E+00
 -1      3415 4.45641E+01 5.08156E+01 9.52500E+00
 -1      3416 3.95154E+01 5.14974E+01 9.52500E+00
 -1      3417 3.75501E+01 5.61976E+01 9.52500E+00
 -1      3418 3.24556E+01 5.62147E+01 9.52500E+00
 -1      3419 2.98935E+01 6.06181E+01 9.52500E+00
 -1      3420 2.48404E+01 5.99700E+01 9.52500E+00
 -1      3421 2.17255E+01 6.40014E+01 9.52500E+00
 -1      3422 1.68002E+01 6.26993E+01 9.52500E+00
 -1      3423 1.31858E+01 6.62896E+01 9.52500E+00
 -1      3424 8.47260E+00 6.43558E+01 9.52500E+00
 -1      3425 4.42049E+00 6.74436E+01 9.52500E+00
 -1      3426 4.78886E+00-7.30639E+01 9.52500E+00
 -1      3427 9.20935E+00-6.99519E+01 9.52500E+00
 -1      3428 1.42846E+01-7.18138E+01 9.52500E+00
 -1      3429 1.82611E+01-6.81514E+01 9.52500E+00
 -1      3430 2.35360E+01-6.93349E+01 9.52500E+00
 -1      3431 2.70004E+01-6.51848E+01 9.52500E+00
 -1      3432 3.23847E+01-6.56696E+01 9.52500E+00
 -1      3433 3.52778E+01-6.11029E+01 9.52500E+00
 -1      3434 4.06792E+01-6.08808E+01 9.52500E+00
 -1      3435 4.29515E+01-5.59755E+01 9.52500E+00
 -1      3436 4.82777E+01-5.50502E+01 9.52500E+00
 -1      3437 4.98903E+01-4.98903E+01 9.52500E+00
 -1      3438 5.50502E+01-4.82777E+01 9.52500E+00
 -1      3439 5.59755E+01-4.29515E+01 9.52500E+00
 -1      3440 6.08808E+01-4.06792E+01 9.52500E+00
 -1      3441 6.11029E+01-3.52778E+01 9.52500E+00
 -1      3442 6.56696E+01-3.23847E+01 9.52500E+00
 -1      3443 6.51848E+01-2.70004E+01 9.52500E+00
 -1      3444 6.93349E+01-2.35360E+01 9.52500E+00
 -1      3445 6.81514E+01-1.82611E+01 9.52500E+00
 -1      3446 7.18138E+01-1.42846E+01 9.52500E+00
 -1      3447 6.99519E+01-9.20935E+00 9.52500E+00
 -1      3448 7.30639E+01-4.78886E+00 9.52500E+00
 -1      3449 7.05556E+01 3.29179E-07 9.52500E+00
 -1      3450 7.30639E+01 4.78886E+00 9.52500E+00
 -1      3451 6.99519E+01 9.20935E+00 9.52500E+00
 -1      3452 7.18138E+01 1.42846E+01 9.52500E+00
 -1      3453 6.81514E+01 1.82611E+01 9.52500E+00
 -1      3454 6.93349E+01 2.35360E+01 9.52500E+00
 -1      3455 6.51848E+01 2.70004E+01 9.52500E+00
 -1      3456 6.56696E+01 3.23847E+01 9.52500E+00
 -1      3457 6.11029E+01 3.52778E+01 9.52500E+00
 -1      3458 6.08808E+01 4.06792E+01 9.52500E+00
 -1      3459 5.59755E+01 4.29515E+01 9.52500E+00
 -1      3460 5.50502E+01 4.82777E+01 9.52500E+00
 -1      3461 4.98903E+01 4.98903E+01 9.52500E+00
 -1      3462 4.82777E+01 5.50502E+01 9.52500E+00
 -1      3463 4.29515E+01 5.59755E+01 9.52500E+00
 -1      3464 4.06792E+01 6.08808E+01 9.52500E+00
 -1      3465 3.52778E+01 6.11029E+01 9.52500E+00
 -1      3466 3.23847E+01 6.56696E+01 9.52500E+00
 -1      3467 2.70004E+01 6.51848E+01 9.52500E+00
 -1      3468 2.35360E+01 6.93349E+01 9.52500E+00
 -1      3469 1.82611E+01 6.81514E+01 9.52500E+00
 -1      3470 1.42846E+01 7.18138E+01 9.52500E+00
 -1      3471 9.20935E+00 6.99519E+01 9.52500E+00
 -1      3472 4.78886E+00 7.30639E+01 9.52500E+00
 -1      3473 5.15723E+00-7.86842E+01 9.52500E+00
 -1      3474 9.94610E+00-7.55481E+01 9.52500E+00
 -1      3475 1.53835E+01-7.73379E+01 9.52500E+00
 -1      3476 1.97220E+01-7.36035E+01 9.52500E+00
 -1      3477 2.53465E+01-7.46683E+01 9.52500E+00
 -1      3478 2.91605E+01-7.03996E+01 9.52500E+00
 -1      3479 3.48758E+01-7.07211E+01 9.52500E+00
 -1      3480 3.81000E+01-6.59911E+01 9.52500E+00
 -1      3481 4.38084E+01-6.55639E+01 9.52500E+00
 -1      3482 4.63876E+01-6.04535E+01 9.52500E+00
 -1      3483 5.19914E+01-5.92848E+01 9.52500E+00
 -1      3484 5.38815E+01-5.38815E+01 9.52500E+00
 -1      3485 5.92848E+01-5.19914E+01 9.52500E+00
 -1      3486 6.04535E+01-4.63876E+01 9.52500E+00
 -1      3487 6.55639E+01-4.38084E+01 9.52500E+00
 -1      3488 6.59911E+01-3.81000E+01 9.52500E+00
 -1      3489 7.07211E+01-3.48758E+01 9.52500E+00
 -1      3490 7.03996E+01-2.91605E+01 9.52500E+00
 -1      3491 7.46683E+01-2.53465E+01 9.52500E+00
 -1      3492 7.36035E+01-1.97220E+01 9.52500E+00
 -1      3493 7.73379E+01-1.53835E+01 9.52500E+00
 -1      3494 7.55481E+01-9.94610E+00 9.52500E+00
 -1      3495 7.86842E+01-5.15723E+00 9.52500E+00
 -1      3496 7.62000E+01 3.54780E-07 9.52500E+00
 -1      3497 7.86842E+01 5.15724E+00 9.52500E+00
 -1      3498 7.55481E+01 9.94610E+00 9.52500E+00
 -1      3499 7.73379E+01 1.53835E+01 9.52500E+00
 -1      3500 7.36035E+01 1.97220E+01 9.52500E+00
 -1      3501 7.46683E+01 2.53465E+01 9.52500E+00
 -1      3502 7.03996E+01 2.91605E+01 9.52500E+00
 -1      3503 7.07211E+01 3.48758E+01 9.52500E+00
 -1      3504 6.59911E+01 3.81000E+01 9.52500E+00
 -1      3505 6.55639E+01 4.38084E+01 9.52500E+00
 -1      3506 6.04535E+01 4.63876E+01 9.52500E+00
 -1      3507 5.92848E+01 5.19914E+01 9.52500E+00
 -1      3508 5.38815E+01 5.38815E+01 9.52500E+00
 -1      3509 5.19914E+01 5.92848E+01 9.52500E+00
 -1      3510 4.63876E+01 6.04535E+01 9.52500E+00
 -1      3511 4.38084E+01 6.55639E+01 9.52500E+00
 -1      3512 3.81000E+01 6.59911E+01 9.52500E+00
 -1      3513 3.48758E+01 7.07211E+01 9.52500E+00
 -1      3514 2.91605E+01 7.03996E+01 9.52500E+00
 -1      3515 2.53465E+01 7.46683E+01 9.52500E+00
 -1      3516 1.97220E+01 7.36035E+01 9.52500E+00
 -1      3517 1.53835E+01 7.73379E+01 9.52500E+00
 -1      3518 9.94610E+00 7.55481E+01 9.52500E+00
 -1      3519 5.15723E+00 7.86842E+01 9.52500E+00
 -1      3520 5.52561E+00-8.43045E+01 9.52500E+00
 -1      3521 1.06828E+01-8.11443E+01 9.52500E+00
 -1      3522 1.64823E+01-8.28620E+01 9.52500E+00
 -1      3523 2.11829E+01-7.90557E+01 9.52500E+00
 -1      3524 2.71569E+01-8.00018E+01 9.52500E+00
 -1      3525 3.13205E+01-7.56144E+01 9.52500E+00
 -1      3526 3.73669E+01-7.57726E+01 9.52500E+00
 -1      3527 4.09222E+01-7.08794E+01 9.52500E+00
 -1      3528 4.69376E+01-7.02470E+01 9.52500E+00
 -1      3529 4.98237E+01-6.49316E+01 9.52500E+00
 -1      3530 5.57051E+01-6.35195E+01 9.52500E+00
 -1      3531 5.78728E+01-5.78728E+01 9.52500E+00
 -1      3532 6.35195E+01-5.57051E+01 9.52500E+00
 -1      3533 6.49316E+01-4.98237E+01 9.52500E+00
 -1      3534 7.02470E+01-4.69376E+01 9.52500E+00
 -1      3535 7.08794E+01-4.09222E+01 9.52500E+00
 -1      3536 7.57726E+01-3.73669E+01 9.52500E+00
 -1      3537 7.56144E+01-3.13205E+01 9.52500E+00
 -1      3538 8.00018E+01-2.71569E+01 9.52500E+00
 -1      3539 7.90557E+01-2.11829E+01 9.52500E+00
 -1      3540 8.28620E+01-1.64823E+01 9.52500E+00
 -1      3541 8.11443E+01-1.06828E+01 9.52500E+00
 -1      3542 8.43045E+01-5.52561E+00 9.52500E+00
 -1      3543 8.18444E+01 3.80379E-07 9.52500E+00
 -1      3544 8.43045E+01 5.52561E+00 9.52500E+00
 -1      3545 8.11443E+01 1.06828E+01 9.52500E+00
 -1      3546 8.28620E+01 1.64823E+01 9.52500E+00
 -1      3547 7.90557E+01 2.11829E+01 9.52500E+00
 -1      3548 8.00018E+01 2.71569E+01 9.52500E+00
 -1      3549 7.56144E+01 3.13205E+01 9.52500E+00
 -1      3550 7.57726E+01 3.73669E+01 9.52500E+00
 -1      3551 7.08794E+01 4.09222E+01 9.52500E+00
 -1      3552 7.02470E+01 4.69376E+01 9.52500E+00
 -1      3553 6.49316E+01 4.98237E+01 9.52500E+00
 -1      3554 6.35195E+01 5.57051E+01 9.52500E+00
 -1      3555 5.78728E+01 5.78728E+01 9.52500E+00
 -1      3556 5.57051E+01 6.35195E+01 9.52500E+00
 -1      3557 4.98237E+01 6.49316E+01 9.52500E+00
 -1      3558 4.69376E+01 7.02470E+01 9.52500E+00
 -1      3559 4.09222E+01 7.08794E+01 9.52500E+00
 -1      3560 3.73669E+01 7.57726E+01 9.52500E+00
 -1      3561 3.13205E+01 7.56144E+01 9.52500E+00
 -1      3562 2.71569E+01 8.00018E+01 9.52500E+00
 -1      3563 2.11829E+01 7.90557E+01 9.52500E+00
 -1      3564 1.64823E+01 8.28620E+01 9.52500E+00
 -1      3565 1.06828E+01 8.11443E+01 9.52500E+00
 -1      3566 5.52561E+00 8.43045E+01 9.52500E+00
 -1      3567 5.89398E+00-8.99248E+01 9.52500E+00
 -1      3568 1.14196E+01-8.67404E+01 9.52500E+00
 -1      3569 1.75811E+01-8.83862E+01 9.52500E+00
 -1      3570 2.26438E+01-8.45078E+01 9.52500E+00
 -1      3571 2.89674E+01-8.53352E+01 9.52500E+00
 -1      3572 3.34805E+01-8.08292E+01 9.52500E+00
 -1      3573 3.98581E+01-8.08242E+01 9.52500E+00
 -1      3574 4.37444E+01-7.57676E+01 9.52500E+00
 -1      3575 5.00667E+01-7.49302E+01 9.52500E+00
 -1      3576 5.32599E+01-6.94096E+01 9.52500E+00
 -1      3577 5.94188E+01-6.77541E+01 9.52500E+00
 -1      3578 6.18640E+01-6.18640E+01 9.52500E+00
 -1      3579 6.77541E+01-5.94188E+01 9.52500E+00
 -1      3580 6.94096E+01-5.32599E+01 9.52500E+00
 -1      3581 7.49302E+01-5.00667E+01 9.52500E+00
 -1      3582 7.57676E+01-4.37444E+01 9.52500E+00
 -1      3583 8.08242E+01-3.98581E+01 9.52500E+00
 -1      3584 8.08292E+01-3.34805E+01 9.52500E+00
 -1      3585 8.53352E+01-2.89674E+01 9.52500E+00
 -1      3586 8.45078E+01-2.26438E+01 9.52500E+00
 -1      3587 8.83862E+01-1.75811E+01 9.52500E+00
 -1      3588 8.67404E+01-1.14196E+01 9.52500E+00
 -1      3589 8.99248E+01-5.89398E+00 9.52500E+00
 -1      3590 8.74889E+01 4.05980E-07 9.52500E+00
 -1      3591 8.99248E+01 5.89398E+00 9.52500E+00
 -1      3592 8.67404E+01 1.14196E+01 9.52500E+00
 -1      3593 8.83862E+01 1.75811E+01 9.52500E+00
 -1      3594 8.45078E+01 2.26438E+01 9.52500E+00
 -1      3595 8.53352E+01 2.89674E+01 9.52500E+00
 -1      3596 8.08292E+01 3.34805E+01 9.52500E+00
 -1      3597 8.08242E+01 3.98581E+01 9.52500E+00
 -1      3598 7.57676E+01 4.37444E+01 9.52500E+00
 -1      3599 7.49302E+01 5.00667E+01 9.52500E+00
 -1      3600 6.94096E+01 5.32599E+01 9.52500E+00
 -1      3601 6.77541E+01 5.94188E+01 9.52500E+00
 -1      3602 6.18640E+01 6.18640E+01 9.52500E+00
 -1      3603 5.94188E+01 6.77541E+01 9.52500E+00
 -1      3604 5.32599E+01 6.94096E+01 9.52500E+00
 -1      3605 5.00667E+01 7.49302E+01 9.52500E+00
 -1      3606 4.37444E+01 7.57676E+01 9.52500E+00
 -1      3607 3.98581E+01 8.08242E+01 9.52500E+00
 -1      3608 3.34805E+01 8.08292E+01 9.52500E+00
 -1      3609 2.89674E+01 8.53352E+01 9.52500E+00
 -1      3610 2.26438E+01 8.45078E+01 9.52500E+00
 -1      3611 1.75811E+01 8.83862E+01 9.52500E+00
 -1      3612 1.14196E+01 8.67404E+01 9.52500E+00
 -1      3613 5.89398E+00 8.99248E+01 9.52500E+00
 -1      3614 6.26236E+00-9.55451E+01 9.52500E+00
 -1      3615 1.21563E+01-9.23366E+01 9.52500E+00
 -1      3616 1.86799E+01-9.39103E+01 9.52500E+00
 -1      3617 2.41047E+01-8.99599E+01 9.52500E+00
 -1      3618 3.07779E+01-9.06687E+01 9.52500E+00
 -1      3619 3.56406E+01-8.60440E+01 9.52500E+00
 -1      3620 4.23492E+01-8.58757E+01 9.52500E+00
 -1      3621 4.65667E+01-8.06558E+01 9.52500E+00
 -1      3622 5.31959E+01-7.96133E+01 9.52500E+00
 -1      3623 5.66960E+01-7.38876E+01 9.52500E+00
 -1      3624 6.31324E+01-7.19887E+01 9.52500E+00
 -1      3625 6.58552E+01-6.58552E+01 9.52500E+00
 -1      3626 7.19887E+01-6.31324E+01 9.52500E+00
 -1      3627 7.38876E+01-5.66960E+01 9.52500E+00
 -1      3628 7.96133E+01-5.31959E+01 9.52500E+00
 -1      3629 8.06558E+01-4.65667E+01 9.52500E+00
 -1      3630 8.58757E+01-4.23492E+01 9.52500E+00
 -1      3631 8.60440E+01-3.56406E+01 9.52500E+00
 -1      3632 9.06687E+01-3.07779E+01 9.52500E+00
 -1      3633 8.99599E+01-2.41047E+01 9.52500E+00
 -1      3634 9.39103E+01-1.86799E+01 9.52500E+00
 -1      3635 9.23366E+01-1.21563E+01 9.52500E+00
 -1      3636 9.55451E+01-6.26236E+00 9.52500E+00
 -1      3637 9.31333E+01 4.31581E-07 9.52500E+00
 -1      3638 9.55451E+01 6.26236E+00 9.52500E+00
 -1      3639 9.23366E+01 1.21563E+01 9.52500E+00
 -1      3640 9.39103E+01 1.86799E+01 9.52500E+00
 -1      3641 8.99599E+01 2.41047E+01 9.52500E+00
 -1      3642 9.06687E+01 3.07779E+01 9.52500E+00
 -1      3643 8.60440E+01 3.56406E+01 9.52500E+00
 -1      3644 8.58757E+01 4.23492E+01 9.52500E+00
 -1      3645 8.06558E+01 4.65667E+01 9.52500E+00
 -1      3646 7.96133E+01 5.31959E+01 9.52500E+00
 -1      3647 7.38876E+01 5.66960E+01 9.52500E+00
 -1      3648 7.19887E+01 6.31324E+01 9.52500E+00
 -1      3649 6.58552E+01 6.58552E+01 9.52500E+00
 -1      3650 6.31324E+01 7.19887E+01 9.52500E+00
 -1      3651 5.66960E+01 7.38876E+01 9.52500E+00
 -1      3652 5.31959E+01 7.96133E+01 9.52500E+00
 -1      3653 4.65667E+01 8.06558E+01 9.52500E+00
 -1      3654 4.23492E+01 8.58757E+01 9.52500E+00
 -1      3655 3.56406E+01 8.60440E+01 9.52500E+00
 -1      3656 3.07779E+01 9.06687E+01 9.52500E+00
 -1      3657 2.41047E+01 8.99599E+01 9.52500E+00
 -1      3658 1.86799E+01 9.39103E+01 9.52500E+00
 -1      3659 1.21563E+01 9.23366E+01 9.52500E+00
 -1      3660 6.26236E+00 9.55451E+01 9.52500E+00
 -1      3661 6.63073E+00-1.01165E+02 9.52500E+00
 -1      3662 1.28931E+01-9.79327E+01 9.52500E+00
 -1      3663 1.97787E+01-9.94344E+01 9.52500E+00
 -1      3664 2.55656E+01-9.54120E+01 9.52500E+00
 -1      3665 3.25883E+01-9.60021E+01 9.52500E+00
 -1      3666 3.78006E+01-9.12588E+01 9.52500E+00
 -1      3667 4.48403E+01-9.09272E+01 9.52500E+00
 -1      3668 4.93889E+01-8.55441E+01 9.52500E+00
 -1      3669 5.63251E+01-8.42964E+01 9.52500E+00
 -1      3670 6.01321E+01-7.83657E+01 9.52500E+00
 -1      3671 6.68461E+01-7.62234E+01 9.52500E+00
 -1      3672 6.98464E+01-6.98464E+01 9.52500E+00
 -1      3673 7.62234E+01-6.68461E+01 9.52500E+00
 -1      3674 7.83657E+01-6.01321E+01 9.52500E+00
 -1      3675 8.42964E+01-5.63251E+01 9.52500E+00
 -1      3676 8.55441E+01-4.93889E+01 9.52500E+00
 -1      3677 9.09272E+01-4.48403E+01 9.52500E+00
 -1      3678 9.12588E+01-3.78006E+01 9.52500E+00
 -1      3679 9.60021E+01-3.25883E+01 9.52500E+00
 -1      3680 9.54120E+01-2.55656E+01 9.52500E+00
 -1      3681 9.94344E+01-1.97787E+01 9.52500E+00
 -1      3682 9.79327E+01-1.28931E+01 9.52500E+00
 -1      3683 1.01165E+02-6.63073E+00 9.52500E+00
 -1      3684 9.87778E+01 4.57180E-07 9.52500E+00
 -1      3685 1.01165E+02 6.63073E+00 9.52500E+00
 -1      3686 9.79327E+01 1.28931E+01 9.52500E+00
 -1      3687 9.94344E+01 1.97787E+01 9.52500E+00
 -1      3688 9.54120E+01 2.55656E+01 9.52500E+00
 -1      3689 9.60021E+01 3.25883E+01 9.52500E+00
 -1      3690 9.12588E+01 3.78006E+01 9.52500E+00
 -1      3691 9.09272E+01 4.48403E+01 9.52500E+00
 -1      3692 8.55441E+01 4.93889E+01 9.52500E+00
 -1      3693 8.42964E+01 5.63251E+01 9.52500E+00
 -1      3694 7.83657E+01 6.01321E+01 9.52500E+00
 -1      3695 7.62234E+01 6.68461E+01 9.52500E+00
 -1      3696 6.98464E+01 6.98464E+01 9.52500E+00
 -1      3697 6.68461E+01 7.62234E+01 9.52500E+00
 -1      3698 6.01321E+01 7.83657E+01 9.52500E+00
 -1      3699 5.63251E+01 8.42964E+01 9.52500E+00
 -1      3700 4.93889E+01 8.55441E+01 9.52500E+00
 -1      3701 4.48403E+01 9.09272E+01 9.52500E+00
 -1      3702 3.78006E+01 9.12588E+01 9.52500E+00
 -1      3703 3.25883E+01 9.60021E+01 9.52500E+00
 -1      3704 2.55656E+01 9.54120E+01 9.52500E+00
 -1      3705 1.97787E+01 9.94344E+01 9.52500E+00
 -1      3706 1.28931E+01 9.79327E+01 9.52500E+00
 -1      3707 6.63073E+00 1.01165E+02 9.52500E+00
 -1      3708 6.99910E+00-1.06786E+02 9.52500E+00
 -1      3709 1.36298E+01-1.03529E+02 9.52500E+00
 -1      3710 2.08776E+01-1.04959E+02 9.52500E+00
 -1      3711 2.70265E+01-1.00864E+02 9.52500E+00
 -1      3712 3.43988E+01-1.01336E+02 9.52500E+00
 -1      3713 3.99607E+01-9.64736E+01 9.52500E+00
 -1      3714 4.73314E+01-9.59787E+01 9.52500E+00
 -1      3715 5.22111E+01-9.04323E+01 9.52500E+00
 -1      3716 5.94543E+01-8.89796E+01 9.52500E+00
 -1      3717 6.35682E+01-8.28437E+01 9.52500E+00
 -1      3718 7.05598E+01-8.04580E+01 9.52500E+00
 -1      3719 7.38377E+01-7.38377E+01 9.52500E+00
 -1      3720 8.04580E+01-7.05598E+01 9.52500E+00
 -1      3721 8.28437E+01-6.35682E+01 9.52500E+00
 -1      3722 8.89796E+01-5.94543E+01 9.52500E+00
 -1      3723 9.04323E+01-5.22111E+01 9.52500E+00
 -1      3724 9.59787E+01-4.73314E+01 9.52500E+00
 -1      3725 9.64736E+01-3.99607E+01 9.52500E+00
 -1      3726 1.01336E+02-3.43988E+01 9.52500E+00
 -1      3727 1.00864E+02-2.70265E+01 9.52500E+00
 -1      3728 1.04959E+02-2.08776E+01 9.52500E+00
 -1      3729 1.03529E+02-1.36298E+01 9.52500E+00
 -1      3730 1.06786E+02-6.99910E+00 9.52500E+00
 -1      3731 1.04422E+02 4.82764E-07 9.52500E+00
 -1      3732 1.06786E+02 6.99910E+00 9.52500E+00
 -1      3733 1.03529E+02 1.36298E+01 9.52500E+00
 -1      3734 1.04959E+02 2.08776E+01 9.52500E+00
 -1      3735 1.00864E+02 2.70265E+01 9.52500E+00
 -1      3736 1.01336E+02 3.43988E+01 9.52500E+00
 -1      3737 9.64736E+01 3.99607E+01 9.52500E+00
 -1      3738 9.59787E+01 4.73314E+01 9.52500E+00
 -1      3739 9.04323E+01 5.22111E+01 9.52500E+00
 -1      3740 8.89796E+01 5.94543E+01 9.52500E+00
 -1      3741 8.28437E+01 6.35682E+01 9.52500E+00
 -1      3742 8.04580E+01 7.05598E+01 9.52500E+00
 -1      3743 7.38377E+01 7.38377E+01 9.52500E+00
 -1      3744 7.05598E+01 8.04580E+01 9.52500E+00
 -1      3745 6.35682E+01 8.28437E+01 9.52500E+00
 -1      3746 5.94543E+01 8.89796E+01 9.52500E+00
 -1      3747 5.22111E+01 9.04323E+01 9.52500E+00
 -1      3748 4.73314E+01 9.59787E+01 9.52500E+00
 -1      3749 3.99607E+01 9.64736E+01 9.52500E+00
 -1      3750 3.43988E+01 1.01336E+02 9.52500E+00
 -1      3751 2.70265E+01 1.00864E+02 9.52500E+00
 -1      3752 2.08776E+01 1.04959E+02 9.52500E+00
 -1      3753 1.36298E+01 1.03529E+02 9.52500E+00
 -1      3754 6.99910E+00 1.06786E+02 9.52500E+00
 -1      3755 7.36748E+00-1.12406E+02 9.52500E+00
 -1      3756 1.43666E+01-1.09125E+02 9.52500E+00
 -1      3757 2.19764E+01-1.10483E+02 9.52500E+00
 -1      3758 2.84874E+01-1.06316E+02 9.52500E+00
 -1      3759 3.62093E+01-1.06669E+02 9.52500E+00
 -1      3760 4.21207E+01-1.01688E+02 9.52500E+00
 -1      3761 4.98226E+01-1.01030E+02 9.52500E+00
 -1      3762 5.50333E+01-9.53205E+01 9.52500E+00
 -1      3763 6.25834E+01-9.36627E+01 9.52500E+00
 -1      3764 6.70043E+01-8.73218E+01 9.52500E+00
 -1      3765 7.42735E+01-8.46926E+01 9.52500E+00
 -1      3766 7.78289E+01-7.78289E+01 9.52500E+00
 -1      3767 8.46926E+01-7.42735E+01 9.52500E+00
 -1      3768 8.73218E+01-6.70043E+01 9.52500E+00
 -1      3769 9.36627E+01-6.25834E+01 9.52500E+00
 -1      3770 9.53205E+01-5.50333E+01 9.52500E+00
 -1      3771 1.01030E+02-4.98226E+01 9.52500E+00
 -1      3772 1.01688E+02-4.21207E+01 9.52500E+00
 -1      3773 1.06669E+02-3.62093E+01 9.52500E+00
 -1      3774 1.06316E+02-2.84873E+01 9.52500E+00
 -1      3775 1.10483E+02-2.19764E+01 9.52500E+00
 -1      3776 1.09125E+02-1.43666E+01 9.52500E+00
 -1      3777 1.12406E+02-7.36748E+00 9.52500E+00
 -1      3778 1.10067E+02 5.08331E-07 9.52500E+00
 -1      3779 1.12406E+02 7.36748E+00 9.52500E+00
 -1      3780 1.09125E+02 1.43666E+01 9.52500E+00
 -1      3781 1.10483E+02 2.19764E+01 9.52500E+00
 -1      3782 1.06316E+02 2.84874E+01 9.52500E+00
 -1      3783 1.06669E+02 3.62093E+01 9.52500E+00
 -1      3784 1.01688E+02 4.21207E+01 9.52500E+00
 -1      3785 1.01030E+02 4.98226E+01 9.52500E+00
 -1      3786 9.53205E+01 5.50333E+01 9.52500E+00
 -1      3787 9.36627E+01 6.25834E+01 9.52500E+00
 -1      3788 8.73218E+01 6.70043E+01 9.52500E+00
 -1      3789 8.46926E+01 7.42735E+01 9.52500E+00
 -1      3790 7.78289E+01 7.78289E+01 9.52500E+00
 -1      3791 7.42735E+01 8.46926E+01 9.52500E+00
 -1      3792 6.70043E+01 8.73218E+01 9.52500E+00
 -1      3793 6.25834E+01 9.36627E+01 9.52500E+00
 -1      3794 5.50333E+01 9.53205E+01 9.52500E+00
 -1      3795 4.98226E+01 1.01030E+02 9.52500E+00
 -1      3796 4.21207E+01 1.01688E+02 9.52500E+00
 -1      3797 3.62093E+01 1.06669E+02 9.52500E+00
 -1      3798 2.84873E+01 1.06316E+02 9.52500E+00
 -1      3799 2.19764E+01 1.10483E+02 9.52500E+00
 -1      3800 1.43666E+01 1.09125E+02 9.52500E+00
 -1      3801 7.36748E+00 1.12406E+02 9.52500E+00
 -1      3802 7.73585E+00-1.18026E+02 9.52500E+00
 -1      3803 1.51033E+01-1.14721E+02 9.52500E+00
 -1      3804 2.30752E+01-1.16007E+02 9.52500E+00
 -1      3805 2.99482E+01-1.11768E+02 9.52500E+00
 -1      3806 3.80197E+01-1.12002E+02 9.52500E+00
 -1      3807 4.42807E+01-1.06903E+02 9.52500E+00
 -1      3808 5.23137E+01-1.06082E+02 9.52500E+00
 -1      3809 5.78556E+01-1.00209E+02 9.52500E+00
 -1      3810 6.57126E+01-9.83458E+01 9.52500E+00
 -1      3811 7.04405E+01-9.17998E+01 9.52500E+00
 -1      3812 7.79871E+01-8.89273E+01 9.52500E+00
 -1      3813 8.18201E+01-8.18201E+01 9.52500E+00
 -1      3814 8.89273E+01-7.79871E+01 9.52500E+00
 -1      3815 9.17998E+01-7.04405E+01 9.52500E+00
 -1      3816 9.83458E+01-6.57126E+01 9.52500E+00
 -1      3817 1.00209E+02-5.78556E+01 9.52500E+00
 -1      3818 1.06082E+02-5.23137E+01 9.52500E+00
 -1      3819 1.06903E+02-4.42807E+01 9.52500E+00
 -1      3820 1.12002E+02-3.80197E+01 9.52500E+00
 -1      3821 1.11768E+02-2.99482E+01 9.52500E+00
 -1      3822 1.16007E+02-2.30752E+01 9.52500E+00
 -1      3823 1.14721E+02-1.51033E+01 9.52500E+00
 -1      3824 1.18026E+02-7.73585E+00 9.52500E+00
 -1      3825 1.15711E+02 5.33901E-07 9.52500E+00
 -1      3826 1.18026E+02 7.73585E+00 9.52500E+00
 -1      3827 1.14721E+02 1.51033E+01 9.52500E+00
 -1      3828 1.16007E+02 2.30752E+01 9.52500E+00
 -1      3829 1.11768E+02 2.99482E+01 9.52500E+00
 -1      3830 1.12002E+02 3.80197E+01 9.52500E+00
 -1      3831 1.06903E+02 4.42807E+01 9.52500E+00
 -1      3832 1.06082E+02 5.23137E+01 9.52500E+00
 -1      3833 1.00209E+02 5.78556E+01 9.52500E+00
 -1      3834 9.83458E+01 6.57126E+01 9.52500E+00
 -1      3835 9.17998E+01 7.04405E+01 9.52500E+00
 -1      3836 8.89273E+01 7.79871E+01 9.52500E+00
 -1      3837 8.18201E+01 8.18201E+01 9.52500E+00
 -1      3838 7.79871E+01 8.89273E+01 9.52500E+00
 -1      3839 7.04405E+01 9.17998E+01 9.52500E+00
 -1      3840 6.57126E+01 9.83458E+01 9.52500E+00
 -1      3841 5.78556E+01 1.00209E+02 9.52500E+00
 -1      3842 5.23137E+01 1.06082E+02 9.52500E+00
 -1      3843 4.42807E+01 1.06903E+02 9.52500E+00
 -1      3844 3.80197E+01 1.12002E+02 9.52500E+00
 -1      3845 2.99482E+01 1.11768E+02 9.52500E+00
 -1      3846 2.30752E+01 1.16007E+02 9.52500E+00
 -1      3847 1.51033E+01 1.14721E+02 9.52500E+00
 -1      3848 7.73585E+00 1.18026E+02 9.52500E+00
 -1      3849 8.10423E+00-1.23647E+02 9.52500E+00
 -1      3850 1.58401E+01-1.20317E+02 9.52500E+00
 -1      3851 2.41740E+01-1.21531E+02 9.52500E+00
 -1      3852 3.14091E+01-1.17220E+02 9.52500E+00
 -1      3853 3.98302E+01-1.17336E+02 9.52500E+00
 -1      3854 4.64408E+01-1.12118E+02 9.52500E+00
 -1      3855 5.48048E+01-1.11133E+02 9.52500E+00
 -1      3856 6.06778E+01-1.05097E+02 9.52500E+00
 -1      3857 6.88418E+01-1.03029E+02 9.52500E+00
 -1      3858 7.38766E+01-9.62778E+01 9.52500E+00
 -1      3859 8.17008E+01-9.31619E+01 9.52500E+00
 -1      3860 8.58113E+01-8.58113E+01 9.52500E+00
 -1      3861 9.31619E+01-8.17008E+01 9.52500E+00
 -1      3862 9.62778E+01-7.38766E+01 9.52500E+00
 -1      3863 1.03029E+02-6.88418E+01 9.52500E+00
 -1      3864 1.05097E+02-6.06778E+01 9.52500E+00
 -1      3865 1.11133E+02-5.48048E+01 9.52500E+00
 -1      3866 1.12118E+02-4.64408E+01 9.52500E+00
 -1      3867 1.17336E+02-3.98302E+01 9.52500E+00
 -1      3868 1.17220E+02-3.14091E+01 9.52500E+00
 -1      3869 1.21531E+02-2.41740E+01 9.52500E+00
 -1      3870 1.20317E+02-1.58401E+01 9.52500E+00
 -1      3871 1.23647E+02-8.10423E+00 9.52500E+00
 -1      3872 1.21356E+02 5.59470E-07 9.52500E+00
 -1      3873 1.23647E+02 8.10423E+00 9.52500E+00
 -1      3874 1.20317E+02 1.58401E+01 9.52500E+00
 -1      3875 1.21531E+02 2.41740E+01 9.52500E+00
 -1      3876 1.17220E+02 3.14091E+01 9.52500E+00
 -1      3877 1.17336E+02 3.98302E+01 9.52500E+00
 -1      3878 1.12118E+02 4.64408E+01 9.52500E+00
 -1      3879 1.11133E+02 5.48048E+01 9.52500E+00
 -1      3880 1.05097E+02 6.06778E+01 9.52500E+00
 -1      3881 1.03029E+02 6.88418E+01 9.52500E+00
 -1      3882 9.62778E+01 7.38766E+01 9.52500E+00
 -1      3883 9.31619E+01 8.17008E+01 9.52500E+00
 -1      3884 8.58113E+01 8.58113E+01 9.52500E+00
 -1      3885 8.17008E+01 9.31619E+01 9.52500E+00
 -1      3886 7.38766E+01 9.62778E+01 9.52500E+00
 -1      3887 6.88418E+01 1.03029E+02 9.52500E+00
 -1      3888 6.06778E+01 1.05097E+02 9.52500E+00
 -1      3889 5.48048E+01 1.11133E+02 9.52500E+00
 -1      3890 4.64408E+01 1.12118E+02 9.52500E+00
 -1      3891 3.98302E+01 1.17336E+02 9.52500E+00
 -1      3892 3.14091E+01 1.17220E+02 9.52500E+00
 -1      3893 2.41740E+01 1.21531E+02 9.52500E+00
 -1      3894 1.58401E+01 1.20317E+02 9.52500E+00
 -1      3895 8.10423E+00 1.23647E+02 9.52500E+00
 -1      3896 8.47260E+00-1.29267E+02 9.52500E+00
 -1      3897 1.65768E+01-1.25913E+02 9.52500E+00
 -1      3898 2.52728E+01-1.27055E+02 9.52500E+00
 -1      3899 3.28700E+01-1.22673E+02 9.52500E+00
 -1      3900 4.16406E+01-1.22669E+02 9.52500E+00
 -1      3901 4.86008E+01-1.17333E+02 9.52500E+00
 -1      3902 5.72960E+01-1.16185E+02 9.52500E+00
 -1      3903 6.35000E+01-1.09985E+02 9.52500E+00
 -1      3904 7.19709E+01-1.07712E+02 9.52500E+00
 -1      3905 7.73127E+01-1.00756E+02 9.52500E+00
 -1      3906 8.54145E+01-9.73965E+01 9.52500E+00
 -1      3907 8.98026E+01-8.98026E+01 9.52500E+00
 -1      3908 9.73965E+01-8.54145E+01 9.52500E+00
 -1      3909 1.00756E+02-7.73127E+01 9.52500E+00
 -1      3910 1.07712E+02-7.19709E+01 9.52500E+00
 -1      3911 1.09985E+02-6.35000E+01 9.52500E+00
 -1      3912 1.16185E+02-5.72960E+01 9.52500E+00
 -1      3913 1.17333E+02-4.86008E+01 9.52500E+00
 -1      3914 1.22669E+02-4.16406E+01 9.52500E+00
 -1      3915 1.22673E+02-3.28700E+01 9.52500E+00
 -1      3916 1.27055E+02-2.52728E+01 9.52500E+00
 -1      3917 1.25913E+02-1.65768E+01 9.52500E+00
 -1      3918 1.29267E+02-8.47260E+00 9.52500E+00
 -1      3919 1.27000E+02 5.85039E-07 9.52500E+00
 -1      3920 1.29267E+02 8.47260E+00 9.52500E+00
 -1      3921 1.25913E+02 1.65768E+01 9.52500E+00
 -1      3922 1.27055E+02 2.52728E+01 9.52500E+00
 -1      3923 1.22673E+02 3.28700E+01 9.52500E+00
 -1      3924 1.22669E+02 4.16406E+01 9.52500E+00
 -1      3925 1.17333E+02 4.86008E+01 9.52500E+00
 -1      3926 1.16185E+02 5.72960E+01 9.52500E+00
 -1      3927 1.09985E+02 6.35000E+01 9.52500E+00
 -1      3928 1.07712E+02 7.19709E+01 9.52500E+00
 -1      3929 1.00756E+02 7.73127E+01 9.52500E+00
 -1      3930 9.73965E+01 8.54145E+01 9.52500E+00
 -1      3931 8.98026E+01 8.98026E+01 9.52500E+00
 -1      3932 8.54145E+01 9.73965E+01 9.52500E+00
 -1      3933 7.73127E+01 1.00756E+02 9.52500E+00
 -1      3934 7.19709E+01 1.07712E+02 9.52500E+00
 -1      3935 6.35000E+01 1.09985E+02 9.52500E+00
 -1      3936 5.72960E+01 1.16185E+02 9.52500E+00
 -1      3937 4.86008E+01 1.17333E+02 9.52500E+00
 -1      3938 4.16406E+01 1.22669E+02 9.52500E+00
 -1      3939 3.28700E+01 1.22673E+02 9.52500E+00
 -1      3940 2.52728E+01 1.27055E+02 9.52500E+00
 -1      3941 1.65768E+01 1.25913E+02 9.52500E+00
 -1      3942 8.47260E+00 1.29267E+02 9.52500E+00
 -1      3943 8.84097E+00-1.34887E+02 9.52500E+00
 -1      3944 1.73136E+01-1.31510E+02 9.52500E+00
 -1      3945 2.63717E+01-1.32579E+02 9.52500E+00
 -1      3946 3.43309E+01-1.28125E+02 9.52500E+00
 -1      3947 4.34511E+01-1.28003E+02 9.52500E+00
 -1      3948 5.07608E+01-1.22547E+02 9.52500E+00
 -1      3949 5.97871E+01-1.21236E+02 9.52500E+00
 -1      3950 6.63222E+01-1.14873E+02 9.52500E+00
 -1      3951 7.51001E+01-1.12395E+02 9.52500E+00
 -1      3952 8.07488E+01-1.05234E+02 9.52500E+00
 -1      3953 8.91281E+01-1.01631E+02 9.52500E+00
 -1      3954 9.37938E+01-9.37938E+01 9.52500E+00
 -1      3955 1.01631E+02-8.91281E+01 9.52500E+00
 -1      3956 1.05234E+02-8.07488E+01 9.52500E+00
 -1      3957 1.12395E+02-7.51001E+01 9.52500E+00
 -1      3958 1.14873E+02-6.63222E+01 9.52500E+00
 -1      3959 1.21236E+02-5.97871E+01 9.52500E+00
 -1      3960 1.22547E+02-5.07608E+01 9.52500E+00
 -1      3961 1.28003E+02-4.34511E+01 9.52500E+00
 -1      3962 1.28125E+02-3.43309E+01 9.52500E+00
 -1      3963 1.32579E+02-2.63717E+01 9.52500E+00
 -1      3964 1.31510E+02-1.73136E+01 9.52500E+00
 -1      3965 1.34887E+02-8.84097E+00 9.52500E+00
 -1      3966 1.32644E+02 6.10612E-07 9.52500E+00
 -1      3967 1.34887E+02 8.84097E+00 9.52500E+00
 -1      3968 1.31510E+02 1.73136E+01 9.52500E+00
 -1      3969 1.32579E+02 2.63717E+01 9.52500E+00
 -1      3970 1.28125E+02 3.43309E+01 9.52500E+00
 -1      3971 1.28003E+02 4.34511E+01 9.52500E+00
 -1      3972 1.22547E+02 5.07608E+01 9.52500E+00
 -1      3973 1.21236E+02 5.97871E+01 9.52500E+00
 -1      3974 1.14873E+02 6.63222E+01 9.52500E+00
 -1      3975 1.12395E+02 7.51001E+01 9.52500E+00
 -1      3976 1.05234E+02 8.07488E+01 9.52500E+00
 -1      3977 1.01631E+02 8.91281E+01 9.52500E+00
 -1      3978 9.37938E+01 9.37938E+01 9.52500E+00
 -1      3979 8.91281E+01 1.01631E+02 9.52500E+00
 -1      3980 8.07488E+01 1.05234E+02 9.52500E+00
 -1      3981 7.51001E+01 1.12395E+02 9.52500E+00
 -1      3982 6.63222E+01 1.14873E+02 9.52500E+00
 -1      3983 5.97871E+01 1.21236E+02 9.52500E+00
 -1      3984 5.07608E+01 1.22547E+02 9.52500E+00
 -1      3985 4.34511E+01 1.28003E+02 9.52500E+00
 -1      3986 3.43309E+01 1.28125E+02 9.52500E+00
 -1      3987 2.63717E+01 1.32579E+02 9.52500E+00
 -1      3988 1.73136E+01 1.31510E+02 9.52500E+00
 -1      3989 8.84097E+00 1.34887E+02 9.52500E+00
 -1      3990 9.20935E+00-1.40507E+02 9.52500E+00
 -1      3991 1.80503E+01-1.37106E+02 9.52500E+00
 -1      3992 2.74705E+01-1.38103E+02 9.52500E+00
 -1      3993 3.57918E+01-1.33577E+02 9.52500E+00
 -1      3994 4.52616E+01-1.33336E+02 9.52500E+00
 -1      3995 5.29209E+01-1.27762E+02 9.52500E+00
 -1      3996 6.22782E+01-1.26288E+02 9.52500E+00
 -1      3997 6.91444E+01-1.19762E+02 9.52500E+00
 -1      3998 7.82293E+01-1.17078E+02 9.52500E+00
 -1      3999 8.41849E+01-1.09712E+02 9.52500E+00
 -1      4000 9.28418E+01-1.05866E+02 9.52500E+00
 -1      4001 9.77850E+01-9.77850E+01 9.52500E+00
 -1      4002 1.05866E+02-9.28418E+01 9.52500E+00
 -1      4003 1.09712E+02-8.41849E+01 9.52500E+00
 -1      4004 1.17078E+02-7.82293E+01 9.52500E+00
 -1      4005 1.19762E+02-6.91444E+01 9.52500E+00
 -1      4006 1.26288E+02-6.22782E+01 9.52500E+00
 -1      4007 1.27762E+02-5.29209E+01 9.52500E+00
 -1      4008 1.33336E+02-4.52616E+01 9.52500E+00
 -1      4009 1.33577E+02-3.57918E+01 9.52500E+00
 -1      4010 1.38103E+02-2.74705E+01 9.52500E+00
 -1      4011 1.37106E+02-1.80503E+01 9.52500E+00
 -1      4012 1.40507E+02-9.20935E+00 9.52500E+00
 -1      4013 1.38289E+02 6.36178E-07 9.52500E+00
 -1      4014 1.40507E+02 9.20935E+00 9.52500E+00
 -1      4015 1.37106E+02 1.80503E+01 9.52500E+00
 -1      4016 1.38103E+02 2.74705E+01 9.52500E+00
 -1      4017 1.33577E+02 3.57918E+01 9.52500E+00
 -1      4018 1.33336E+02 4.52616E+01 9.52500E+00
 -1      4019 1.27762E+02 5.29209E+01 9.52500E+00
 -1      4020 1.26288E+02 6.22782E+01 9.52500E+00
 -1      4021 1.19762E+02 6.91444E+01 9.52500E+00
 -1      4022 1.17078E+02 7.82293E+01 9.52500E+00
 -1      4023 1.09712E+02 8.41849E+01 9.52500E+00
 -1      4024 1.05866E+02 9.28418E+01 9.52500E+00
 -1      4025 9.77850E+01 9.77850E+01 9.52500E+00
 -1      4026 9.28418E+01 1.05866E+02 9.52500E+00
 -1      4027 8.41849E+01 1.09712E+02 9.52500E+00
 -1      4028 7.82293E+01 1.17078E+02 9.52500E+00
 -1      4029 6.91444E+01 1.19762E+02 9.52500E+00
 -1      4030 6.22782E+01 1.26288E+02 9.52500E+00
 -1      4031 5.29209E+01 1.27762E+02 9.52500E+00
 -1      4032 4.52616E+01 1.33336E+02 9.52500E+00
 -1      4033 3.57918E+01 1.33577E+02 9.52500E+00
 -1      4034 2.74705E+01 1.38103E+02 9.52500E+00
 -1      4035 1.80503E+01 1.37106E+02 9.52500E+00
 -1      4036 9.20935E+00 1.40507E+02 9.52500E+00
 -1      4037 9.57772E+00-1.46128E+02 9.52500E+00
 -1      4038 1.87871E+01-1.42702E+02 9.52500E+00
 -1      4039 2.85693E+01-1.43628E+02 9.52500E+00
 -1      4040 3.72527E+01-1.39029E+02 9.52500E+00
 -1      4041 4.70720E+01-1.38670E+02 9.52500E+00
 -1      4042 5.50809E+01-1.32977E+02 9.52500E+00
 -1      4043 6.47693E+01-1.31339E+02 9.52500E+00
 -1      4044 7.19667E+01-1.24650E+02 9.52500E+00
 -1      4045 8.13585E+01-1.21762E+02 9.52500E+00
 -1      4046 8.76211E+01-1.14190E+02 9.52500E+00
 -1      4047 9.65555E+01-1.10100E+02 9.52500E+00
 -1      4048 1.01776E+02-1.01776E+02 9.52500E+00
 -1      4049 1.10100E+02-9.65555E+01 9.52500E+00
 -1      4050 1.14190E+02-8.76211E+01 9.52500E+00
 -1      4051 1.21762E+02-8.13585E+01 9.52500E+00
 -1      4052 1.24650E+02-7.19667E+01 9.52500E+00
 -1      4053 1.31339E+02-6.47693E+01 9.52500E+00
 -1      4054 1.32977E+02-5.50809E+01 9.52500E+00
 -1      4055 1.38670E+02-4.70720E+01 9.52500E+00
 -1      4056 1.39029E+02-3.72527E+01 9.52500E+00
 -1      4057 1.43628E+02-2.85693E+01 9.52500E+00
 -1      4058 1.42702E+02-1.87871E+01 9.52500E+00
 -1      4059 1.46128E+02-9.57772E+00 9.52500E+00
 -1      4060 1.43933E+02 6.61744E-07 9.52500E+00
 -1      4061 1.46128E+02 9.57772E+00 9.52500E+00
 -1      4062 1.42702E+02 1.87871E+01 9.52500E+00
 -1      4063 1.43628E+02 2.85693E+01 9.52500E+00
 -1      4064 1.39029E+02 3.72527E+01 9.52500E+00
 -1      4065 1.38670E+02 4.70720E+01 9.52500E+00
 -1      4066 1.32977E+02 5.50809E+01 9.52500E+00
 -1      4067 1.31339E+02 6.47693E+01 9.52500E+00
 -1      4068 1.24650E+02 7.19667E+01 9.52500E+00
 -1      4069 1.21762E+02 8.13585E+01 9.52500E+00
 -1      4070 1.14190E+02 8.76211E+01 9.52500E+00
 -1      4071 1.10100E+02 9.65555E+01 9.52500E+00
 -1      4072 1.01776E+02 1.01776E+02 9.52500E+00
 -1      4073 9.65555E+01 1.10100E+02 9.52500E+00
 -1      4074 8.76211E+01 1.14190E+02 9.52500E+00
 -1      4075 8.13585E+01 1.21762E+02 9.52500E+00
 -1      4076 7.19667E+01 1.24650E+02 9.52500E+00
 -1      4077 6.47693E+01 1.31339E+02 9.52500E+00
 -1      4078 5.50809E+01 1.32977E+02 9.52500E+00
 -1      4079 4.70720E+01 1.38670E+02 9.52500E+00
 -1      4080 3.72527E+01 1.39029E+02 9.52500E+00
 -1      4081 2.85693E+01 1.43628E+02 9.52500E+00
 -1      4082 1.87871E+01 1.42702E+02 9.52500E+00
 -1      4083 9.57772E+00 1.46128E+02 9.52500E+00
 -1      4084 1.95238E+01-1.48298E+02 9.52500E+00
 -1      4085 3.87136E+01-1.44481E+02 9.52500E+00
 -1      4086 5.72409E+01-1.38192E+02 9.52500E+00
 -1      4087 7.47889E+01-1.29538E+02 9.52500E+00
 -1      4088 9.10572E+01-1.18668E+02 9.52500E+00
 -1      4089 1.05767E+02-1.05767E+02 9.52500E+00
 -1      4090 1.18668E+02-9.10572E+01 9.52500E+00
 -1      4091 1.29538E+02-7.47889E+01 9.52500E+00
 -1      4092 1.38192E+02-5.72409E+01 9.52500E+00
 -1      4093 1.44481E+02-3.87136E+01 9.52500E+00
 -1      4094 1.48298E+02-1.95238E+01 9.52500E+00
 -1      4095 1.49578E+02 6.87313E-07 9.52500E+00
 -1      4096 1.48298E+02 1.95238E+01 9.52500E+00
 -1      4097 1.44481E+02 3.87136E+01 9.52500E+00
 -1      4098 1.38192E+02 5.72409E+01 9.52500E+00
 -1      4099 1.29538E+02 7.47889E+01 9.52500E+00
 -1      4100 1.18668E+02 9.10572E+01 9.52500E+00
 -1      4101 1.05767E+02 1.05767E+02 9.52500E+00
 -1      4102 9.10572E+01 1.18668E+02 9.52500E+00
 -1      4103 7.47889E+01 1.29538E+02 9.52500E+00
 -1      4104 5.72409E+01 1.38192E+02 9.52500E+00
 -1      4105 3.87136E+01 1.44481E+02 9.52500E+00
 -1      4106 1.95238E+01 1.48298E+02 9.52500E+00
 -1      4107 7.36748E+00-5.59616E+01-6.35000E+00
 -1      4108 7.36748E+00-5.59616E+01-3.17500E+00
 -1      4109 7.36748E+00-5.59616E+01 0.00000E+00
 -1      4110 7.36748E+00-5.59616E+01 3.17500E+00
 -1      4111 7.36748E+00-5.59616E+01 6.35000E+00
 -1      4112 1.46089E+01-5.45211E+01-6.35000E+00
 -1      4113 1.46089E+01-5.45211E+01-3.17500E+00
 -1      4114 1.46089E+01-5.45211E+01 0.00000E+00
 -1      4115 1.46089E+01-5.45211E+01 3.17500E+00
 -1      4116 1.46089E+01-5.45211E+01 6.35000E+00
 -1      4117 2.16004E+01-5.21479E+01-6.35000E+00
 -1      4118 2.16004E+01-5.21479E+01-3.17500E+00
 -1      4119 2.16004E+01-5.21479E+01 0.00000E+00
 -1      4120 2.16004E+01-5.21479E+01 3.17500E+00
 -1      4121 2.16004E+01-5.21479E+01 6.35000E+00
 -1      4122 2.82222E+01-4.88823E+01-6.35000E+00
 -1      4123 2.82222E+01-4.88823E+01-3.17500E+00
 -1      4124 2.82222E+01-4.88823E+01 0.00000E+00
 -1      4125 2.82222E+01-4.88823E+01 3.17500E+00
 -1      4126 2.82222E+01-4.88823E+01 6.35000E+00
 -1      4127 3.43612E+01-4.47804E+01-6.35000E+00
 -1      4128 3.43612E+01-4.47804E+01-3.17500E+00
 -1      4129 3.43612E+01-4.47804E+01 0.00000E+00
 -1      4130 3.43612E+01-4.47804E+01 3.17500E+00
 -1      4131 3.43612E+01-4.47804E+01 6.35000E+00
 -1      4132 3.99123E+01-3.99123E+01-6.35000E+00
 -1      4133 3.99123E+01-3.99123E+01-3.17500E+00
 -1      4134 3.99123E+01-3.99123E+01 0.00000E+00
 -1      4135 3.99123E+01-3.99123E+01 3.17500E+00
 -1      4136 3.99123E+01-3.99123E+01 6.35000E+00
 -1      4137 4.47804E+01-3.43612E+01-6.35000E+00
 -1      4138 4.47804E+01-3.43612E+01-3.17500E+00
 -1      4139 4.47804E+01-3.43612E+01 0.00000E+00
 -1      4140 4.47804E+01-3.43612E+01 3.17500E+00
 -1      4141 4.47804E+01-3.43612E+01 6.35000E+00
 -1      4142 4.88823E+01-2.82222E+01-6.35000E+00
 -1      4143 4.88823E+01-2.82222E+01-3.17500E+00
 -1      4144 4.88823E+01-2.82222E+01 0.00000E+00
 -1      4145 4.88823E+01-2.82222E+01 3.17500E+00
 -1      4146 4.88823E+01-2.82222E+01 6.35000E+00
 -1      4147 5.21479E+01-2.16004E+01-6.35000E+00
 -1      4148 5.21479E+01-2.16004E+01-3.17500E+00
 -1      4149 5.21479E+01-2.16004E+01 0.00000E+00
 -1      4150 5.21479E+01-2.16004E+01 3.17500E+00
 -1      4151 5.21479E+01-2.16004E+01 6.35000E+00
 -1      4152 5.45211E+01-1.46089E+01-6.35000E+00
 -1      4153 5.45211E+01-1.46089E+01-3.17500E+00
 -1      4154 5.45211E+01-1.46089E+01 0.00000E+00
 -1      4155 5.45211E+01-1.46089E+01 3.17500E+00
 -1      4156 5.45211E+01-1.46089E+01 6.35000E+00
 -1      4157 5.59616E+01-7.36748E+00-6.35000E+00
 -1      4158 5.59616E+01-7.36748E+00-3.17500E+00
 -1      4159 5.59616E+01-7.36748E+00 0.00000E+00
 -1      4160 5.59616E+01-7.36748E+00 3.17500E+00
 -1      4161 5.59616E+01-7.36748E+00 6.35000E+00
 -1      4162 5.64444E+01 2.65182E-07-6.35000E+00
 -1      4163 5.64444E+01 2.65182E-07-3.17500E+00
 -1      4164 5.64444E+01 2.65182E-07 0.00000E+00
 -1      4165 5.64444E+01 2.65182E-07 3.17500E+00
 -1      4166 5.64444E+01 2.65182E-07 6.35000E+00
 -1      4167 5.59616E+01 7.36748E+00-6.35000E+00
 -1      4168 5.59616E+01 7.36748E+00-3.17500E+00
 -1      4169 5.59616E+01 7.36748E+00 0.00000E+00
 -1      4170 5.59616E+01 7.36748E+00 3.17500E+00
 -1      4171 5.59616E+01 7.36748E+00 6.35000E+00
 -1      4172 5.45211E+01 1.46089E+01-6.35000E+00
 -1      4173 5.45211E+01 1.46089E+01-3.17500E+00
 -1      4174 5.45211E+01 1.46089E+01 0.00000E+00
 -1      4175 5.45211E+01 1.46089E+01 3.17500E+00
 -1      4176 5.45211E+01 1.46089E+01 6.35000E+00
 -1      4177 5.21479E+01 2.16004E+01-6.35000E+00
 -1      4178 5.21479E+01 2.16004E+01-3.17500E+00
 -1      4179 5.21479E+01 2.16004E+01 0.00000E+00
 -1      4180 5.21479E+01 2.16004E+01 3.17500E+00
 -1      4181 5.21479E+01 2.16004E+01 6.35000E+00
 -1      4182 4.88823E+01 2.82222E+01-6.35000E+00
 -1      4183 4.88823E+01 2.82222E+01-3.17500E+00
 -1      4184 4.88823E+01 2.82222E+01 0.00000E+00
 -1      4185 4.88823E+01 2.82222E+01 3.17500E+00
 -1      4186 4.88823E+01 2.82222E+01 6.35000E+00
 -1      4187 4.47804E+01 3.43612E+01-6.35000E+00
 -1      4188 4.47804E+01 3.43612E+01-3.17500E+00
 -1      4189 4.47804E+01 3.43612E+01 0.00000E+00
 -1      4190 4.47804E+01 3.43612E+01 3.17500E+00
 -1      4191 4.47804E+01 3.43612E+01 6.35000E+00
 -1      4192 3.99123E+01 3.99123E+01-6.35000E+00
 -1      4193 3.99123E+01 3.99123E+01-3.17500E+00
 -1      4194 3.99123E+01 3.99123E+01 0.00000E+00
 -1      4195 3.99123E+01 3.99123E+01 3.17500E+00
 -1      4196 3.99123E+01 3.99123E+01 6.35000E+00
 -1      4197 3.43612E+01 4.47804E+01-6.35000E+00
 -1      4198 3.43612E+01 4.47804E+01-3.17500E+00
 -1      4199 3.43612E+01 4.47804E+01 0.00000E+00
 -1      4200 3.43612E+01 4.47804E+01 3.17500E+00
 -1      4201 3.43612E+01 4.47804E+01 6.35000E+00
 -1      4202 2.82222E+01 4.88823E+01-6.35000E+00
 -1      4203 2.82222E+01 4.88823E+01-3.17500E+00
 -1      4204 2.82222E+01 4.88823E+01 0.00000E+00
 -1      4205 2.82222E+01 4.88823E+01 3.17500E+00
 -1      4206 2.82222E+01 4.88823E+01 6.35000E+00
 -1      4207 2.16004E+01 5.21479E+01-6.35000E+00
 -1      4208 2.16004E+01 5.21479E+01-3.17500E+00
 -1      4209 2.16004E+01 5.21479E+01 0.00000E+00
 -1      4210 2.16004E+01 5.21479E+01 3.17500E+00
 -1      4211 2.16004E+01 5.21479E+01 6.35000E+00
 -1      4212 1.46089E+01 5.45211E+01-6.35000E+00
 -1      4213 1.46089E+01 5.45211E+01-3.17500E+00
 -1      4214 1.46089E+01 5.45211E+01 0.00000E+00
 -1      4215 1.46089E+01 5.45211E+01 3.17500E+00
 -1      4216 1.46089E+01 5.45211E+01 6.35000E+00
 -1      4217 7.36748E+00 5.59616E+01-6.35000E+00
 -1      4218 7.36748E+00 5.59616E+01-3.17500E+00
 -1      4219 7.36748E+00 5.59616E+01 0.00000E+00
 -1      4220 7.36748E+00 5.59616E+01 3.17500E+00
 -1      4221 7.36748E+00 5.59616E+01 6.35000E+00
 -1      4222 8.10423E+00-6.15577E+01-6.35000E+00
 -1      4223 8.10423E+00-6.15577E+01-3.17500E+00
 -1      4224 8.10423E+00-6.15577E+01 0.00000E+00
 -1      4225 8.10423E+00-6.15577E+01 3.17500E+00
 -1      4226 8.10423E+00-6.15577E+01 6.35000E+00
 -1      4227 1.60698E+01-5.99733E+01-6.35000E+00
 -1      4228 1.60698E+01-5.99733E+01-3.17500E+00
 -1      4229 1.60698E+01-5.99733E+01 0.00000E+00
 -1      4230 1.60698E+01-5.99733E+01 3.17500E+00
 -1      4231 1.60698E+01-5.99733E+01 6.35000E+00
 -1      4232 2.37604E+01-5.73627E+01-6.35000E+00
 -1      4233 2.37604E+01-5.73627E+01-3.17500E+00
 -1      4234 2.37604E+01-5.73627E+01 0.00000E+00
 -1      4235 2.37604E+01-5.73627E+01 3.17500E+00
 -1      4236 2.37604E+01-5.73627E+01 6.35000E+00
 -1      4237 3.10444E+01-5.37706E+01-6.35000E+00
 -1      4238 3.10444E+01-5.37706E+01-3.17500E+00
 -1      4239 3.10444E+01-5.37706E+01 0.00000E+00
 -1      4240 3.10444E+01-5.37706E+01 3.17500E+00
 -1      4241 3.10444E+01-5.37706E+01 6.35000E+00
 -1      4242 3.77973E+01-4.92584E+01-6.35000E+00
 -1      4243 3.77973E+01-4.92584E+01-3.17500E+00
 -1      4244 3.77973E+01-4.92584E+01 0.00000E+00
 -1      4245 3.77973E+01-4.92584E+01 3.17500E+00
 -1      4246 3.77973E+01-4.92584E+01 6.35000E+00
 -1      4247 4.39035E+01-4.39035E+01-6.35000E+00
 -1      4248 4.39035E+01-4.39035E+01-3.17500E+00
 -1      4249 4.39035E+01-4.39035E+01 0.00000E+00
 -1      4250 4.39035E+01-4.39035E+01 3.17500E+00
 -1      4251 4.39035E+01-4.39035E+01 6.35000E+00
 -1      4252 4.92584E+01-3.77973E+01-6.35000E+00
 -1      4253 4.92584E+01-3.77973E+01-3.17500E+00
 -1      4254 4.92584E+01-3.77973E+01 0.00000E+00
 -1      4255 4.92584E+01-3.77973E+01 3.17500E+00
 -1      4256 4.92584E+01-3.77973E+01 6.35000E+00
 -1      4257 5.37706E+01-3.10444E+01-6.35000E+00
 -1      4258 5.37706E+01-3.10444E+01-3.17500E+00
 -1      4259 5.37706E+01-3.10444E+01 0.00000E+00
 -1      4260 5.37706E+01-3.10444E+01 3.17500E+00
 -1      4261 5.37706E+01-3.10444E+01 6.35000E+00
 -1      4262 5.73627E+01-2.37604E+01-6.35000E+00
 -1      4263 5.73627E+01-2.37604E+01-3.17500E+00
 -1      4264 5.73627E+01-2.37604E+01 0.00000E+00
 -1      4265 5.73627E+01-2.37604E+01 3.17500E+00
 -1      4266 5.73627E+01-2.37604E+01 6.35000E+00
 -1      4267 5.99733E+01-1.60698E+01-6.35000E+00
 -1      4268 5.99733E+01-1.60698E+01-3.17500E+00
 -1      4269 5.99733E+01-1.60698E+01 0.00000E+00
 -1      4270 5.99733E+01-1.60698E+01 3.17500E+00
 -1      4271 5.99733E+01-1.60698E+01 6.35000E+00
 -1      4272 6.15577E+01-8.10423E+00-6.35000E+00
 -1      4273 6.15577E+01-8.10423E+00-3.17500E+00
 -1      4274 6.15577E+01-8.10423E+00 0.00000E+00
 -1      4275 6.15577E+01-8.10423E+00 3.17500E+00
 -1      4276 6.15577E+01-8.10423E+00 6.35000E+00
 -1      4277 6.20889E+01 2.90777E-07-6.35000E+00
 -1      4278 6.20889E+01 2.90777E-07-3.17500E+00
 -1      4279 6.20889E+01 2.90777E-07 0.00000E+00
 -1      4280 6.20889E+01 2.90777E-07 3.17500E+00
 -1      4281 6.20889E+01 2.90777E-07 6.35000E+00
 -1      4282 6.15577E+01 8.10423E+00-6.35000E+00
 -1      4283 6.15577E+01 8.10423E+00-3.17500E+00
 -1      4284 6.15577E+01 8.10423E+00 0.00000E+00
 -1      4285 6.15577E+01 8.10423E+00 3.17500E+00
 -1      4286 6.15577E+01 8.10423E+00 6.35000E+00
 -1      4287 5.99733E+01 1.60698E+01-6.35000E+00
 -1      4288 5.99733E+01 1.60698E+01-3.17500E+00
 -1      4289 5.99733E+01 1.60698E+01 0.00000E+00
 -1      4290 5.99733E+01 1.60698E+01 3.17500E+00
 -1      4291 5.99733E+01 1.60698E+01 6.35000E+00
 -1      4292 5.73627E+01 2.37604E+01-6.35000E+00
 -1      4293 5.73627E+01 2.37604E+01-3.17500E+00
 -1      4294 5.73627E+01 2.37604E+01 0.00000E+00
 -1      4295 5.73627E+01 2.37604E+01 3.17500E+00
 -1      4296 5.73627E+01 2.37604E+01 6.35000E+00
 -1      4297 5.37706E+01 3.10444E+01-6.35000E+00
 -1      4298 5.37706E+01 3.10444E+01-3.17500E+00
 -1      4299 5.37706E+01 3.10444E+01 0.00000E+00
 -1      4300 5.37706E+01 3.10444E+01 3.17500E+00
 -1      4301 5.37706E+01 3.10444E+01 6.35000E+00
 -1      4302 4.92584E+01 3.77973E+01-6.35000E+00
 -1      4303 4.92584E+01 3.77973E+01-3.17500E+00
 -1      4304 4.92584E+01 3.77973E+01 0.00000E+00
 -1      4305 4.92584E+01 3.77973E+01 3.17500E+00
 -1      4306 4.92584E+01 3.77973E+01 6.35000E+00
 -1      4307 4.39035E+01 4.39035E+01-6.35000E+00
 -1      4308 4.39035E+01 4.39035E+01-3.17500E+00
 -1      4309 4.39035E+01 4.39035E+01 0.00000E+00
 -1      4310 4.39035E+01 4.39035E+01 3.17500E+00
 -1      4311 4.39035E+01 4.39035E+01 6.35000E+00
 -1      4312 3.77973E+01 4.92584E+01-6.35000E+00
 -1      4313 3.77973E+01 4.92584E+01-3.17500E+00
 -1      4314 3.77973E+01 4.92584E+01 0.00000E+00
 -1      4315 3.77973E+01 4.92584E+01 3.17500E+00
 -1      4316 3.77973E+01 4.92584E+01 6.35000E+00
 -1      4317 3.10444E+01 5.37706E+01-6.35000E+00
 -1      4318 3.10444E+01 5.37706E+01-3.17500E+00
 -1      4319 3.10444E+01 5.37706E+01 0.00000E+00
 -1      4320 3.10444E+01 5.37706E+01 3.17500E+00
 -1      4321 3.10444E+01 5.37706E+01 6.35000E+00
 -1      4322 2.37604E+01 5.73627E+01-6.35000E+00
 -1      4323 2.37604E+01 5.73627E+01-3.17500E+00
 -1      4324 2.37604E+01 5.73627E+01 0.00000E+00
 -1      4325 2.37604E+01 5.73627E+01 3.17500E+00
 -1      4326 2.37604E+01 5.73627E+01 6.35000E+00
 -1      4327 1.60698E+01 5.99733E+01-6.35000E+00
 -1      4328 1.60698E+01 5.99733E+01-3.17500E+00
 -1      4329 1.60698E+01 5.99733E+01 0.00000E+00
 -1      4330 1.60698E+01 5.99733E+01 3.17500E+00
 -1      4331 1.60698E+01 5.99733E+01 6.35000E+00
 -1      4332 8.10423E+00 6.15577E+01-6.35000E+00
 -1      4333 8.10423E+00 6.15577E+01-3.17500E+00
 -1      4334 8.10423E+00 6.15577E+01 0.00000E+00
 -1      4335 8.10423E+00 6.15577E+01 3.17500E+00
 -1      4336 8.10423E+00 6.15577E+01 6.35000E+00
 -1      4337 8.84097E+00-6.71539E+01-6.35000E+00
 -1      4338 8.84097E+00-6.71539E+01-3.17500E+00
 -1      4339 8.84097E+00-6.71539E+01 0.00000E+00
 -1      4340 8.84097E+00-6.71539E+01 3.17500E+00
 -1      4341 8.84097E+00-6.71539E+01 6.35000E+00
 -1      4342 1.75307E+01-6.54254E+01-6.35000E+00
 -1      4343 1.75307E+01-6.54254E+01-3.17500E+00
 -1      4344 1.75307E+01-6.54254E+01 0.00000E+00
 -1      4345 1.75307E+01-6.54254E+01 3.17500E+00
 -1      4346 1.75307E+01-6.54254E+01 6.35000E+00
 -1      4347 2.59204E+01-6.25774E+01-6.35000E+00
 -1      4348 2.59204E+01-6.25774E+01-3.17500E+00
 -1      4349 2.59204E+01-6.25774E+01 0.00000E+00
 -1      4350 2.59204E+01-6.25774E+01 3.17500E+00
 -1      4351 2.59204E+01-6.25774E+01 6.35000E+00
 -1      4352 3.38667E+01-5.86588E+01-6.35000E+00
 -1      4353 3.38667E+01-5.86588E+01-3.17500E+00
 -1      4354 3.38667E+01-5.86588E+01 0.00000E+00
 -1      4355 3.38667E+01-5.86588E+01 3.17500E+00
 -1      4356 3.38667E+01-5.86588E+01 6.35000E+00
 -1      4357 4.12334E+01-5.37365E+01-6.35000E+00
 -1      4358 4.12334E+01-5.37365E+01-3.17500E+00
 -1      4359 4.12334E+01-5.37365E+01 0.00000E+00
 -1      4360 4.12334E+01-5.37365E+01 3.17500E+00
 -1      4361 4.12334E+01-5.37365E+01 6.35000E+00
 -1      4362 4.78947E+01-4.78947E+01-6.35000E+00
 -1      4363 4.78947E+01-4.78947E+01-3.17500E+00
 -1      4364 4.78947E+01-4.78947E+01 0.00000E+00
 -1      4365 4.78947E+01-4.78947E+01 3.17500E+00
 -1      4366 4.78947E+01-4.78947E+01 6.35000E+00
 -1      4367 5.37365E+01-4.12334E+01-6.35000E+00
 -1      4368 5.37365E+01-4.12334E+01-3.17500E+00
 -1      4369 5.37365E+01-4.12334E+01 0.00000E+00
 -1      4370 5.37365E+01-4.12334E+01 3.17500E+00
 -1      4371 5.37365E+01-4.12334E+01 6.35000E+00
 -1      4372 5.86588E+01-3.38667E+01-6.35000E+00
 -1      4373 5.86588E+01-3.38667E+01-3.17500E+00
 -1      4374 5.86588E+01-3.38667E+01 0.00000E+00
 -1      4375 5.86588E+01-3.38667E+01 3.17500E+00
 -1      4376 5.86588E+01-3.38667E+01 6.35000E+00
 -1      4377 6.25774E+01-2.59204E+01-6.35000E+00
 -1      4378 6.25774E+01-2.59204E+01-3.17500E+00
 -1      4379 6.25774E+01-2.59204E+01 0.00000E+00
 -1      4380 6.25774E+01-2.59204E+01 3.17500E+00
 -1      4381 6.25774E+01-2.59204E+01 6.35000E+00
 -1      4382 6.54254E+01-1.75307E+01-6.35000E+00
 -1      4383 6.54254E+01-1.75307E+01-3.17500E+00
 -1      4384 6.54254E+01-1.75307E+01 0.00000E+00
 -1      4385 6.54254E+01-1.75307E+01 3.17500E+00
 -1      4386 6.54254E+01-1.75307E+01 6.35000E+00
 -1      4387 6.71539E+01-8.84097E+00-6.35000E+00
 -1      4388 6.71539E+01-8.84097E+00-3.17500E+00
 -1      4389 6.71539E+01-8.84097E+00 0.00000E+00
 -1      4390 6.71539E+01-8.84097E+00 3.17500E+00
 -1      4391 6.71539E+01-8.84097E+00 6.35000E+00
 -1      4392 6.77333E+01 3.16378E-07-6.35000E+00
 -1      4393 6.77333E+01 3.16378E-07-3.17500E+00
 -1      4394 6.77333E+01 3.16378E-07 0.00000E+00
 -1      4395 6.77333E+01 3.16378E-07 3.17500E+00
 -1      4396 6.77333E+01 3.16378E-07 6.35000E+00
 -1      4397 6.71539E+01 8.84097E+00-6.35000E+00
 -1      4398 6.71539E+01 8.84097E+00-3.17500E+00
 -1      4399 6.71539E+01 8.84097E+00 0.00000E+00
 -1      4400 6.71539E+01 8.84097E+00 3.17500E+00
 -1      4401 6.71539E+01 8.84097E+00 6.35000E+00
 -1      4402 6.54254E+01 1.75307E+01-6.35000E+00
 -1      4403 6.54254E+01 1.75307E+01-3.17500E+00
 -1      4404 6.54254E+01 1.75307E+01 0.00000E+00
 -1      4405 6.54254E+01 1.75307E+01 3.17500E+00
 -1      4406 6.54254E+01 1.75307E+01 6.35000E+00
 -1      4407 6.25774E+01 2.59204E+01-6.35000E+00
 -1      4408 6.25774E+01 2.59204E+01-3.17500E+00
 -1      4409 6.25774E+01 2.59204E+01 0.00000E+00
 -1      4410 6.25774E+01 2.59204E+01 3.17500E+00
 -1      4411 6.25774E+01 2.59204E+01 6.35000E+00
 -1      4412 5.86588E+01 3.38667E+01-6.35000E+00
 -1      4413 5.86588E+01 3.38667E+01-3.17500E+00
 -1      4414 5.86588E+01 3.38667E+01 0.00000E+00
 -1      4415 5.86588E+01 3.38667E+01 3.17500E+00
 -1      4416 5.86588E+01 3.38667E+01 6.35000E+00
 -1      4417 5.37365E+01 4.12334E+01-6.35000E+00
 -1      4418 5.37365E+01 4.12334E+01-3.17500E+00
 -1      4419 5.37365E+01 4.12334E+01 0.00000E+00
 -1      4420 5.37365E+01 4.12334E+01 3.17500E+00
 -1      4421 5.37365E+01 4.12334E+01 6.35000E+00
 -1      4422 4.78947E+01 4.78947E+01-6.35000E+00
 -1      4423 4.78947E+01 4.78947E+01-3.17500E+00
 -1      4424 4.78947E+01 4.78947E+01 0.00000E+00
 -1      4425 4.78947E+01 4.78947E+01 3.17500E+00
 -1      4426 4.78947E+01 4.78947E+01 6.35000E+00
 -1      4427 4.12334E+01 5.37365E+01-6.35000E+00
 -1      4428 4.12334E+01 5.37365E+01-3.17500E+00
 -1      4429 4.12334E+01 5.37365E+01 0.00000E+00
 -1      4430 4.12334E+01 5.37365E+01 3.17500E+00
 -1      4431 4.12334E+01 5.37365E+01 6.35000E+00
 -1      4432 3.38667E+01 5.86588E+01-6.35000E+00
 -1      4433 3.38667E+01 5.86588E+01-3.17500E+00
 -1      4434 3.38667E+01 5.86588E+01 0.00000E+00
 -1      4435 3.38667E+01 5.86588E+01 3.17500E+00
 -1      4436 3.38667E+01 5.86588E+01 6.35000E+00
 -1      4437 2.59204E+01 6.25774E+01-6.35000E+00
 -1      4438 2.59204E+01 6.25774E+01-3.17500E+00
 -1      4439 2.59204E+01 6.25774E+01 0.00000E+00
 -1      4440 2.59204E+01 6.25774E+01 3.17500E+00
 -1      4441 2.59204E+01 6.25774E+01 6.35000E+00
 -1      4442 1.75307E+01 6.54254E+01-6.35000E+00
 -1      4443 1.75307E+01 6.54254E+01-3.17500E+00
 -1      4444 1.75307E+01 6.54254E+01 0.00000E+00
 -1      4445 1.75307E+01 6.54254E+01 3.17500E+00
 -1      4446 1.75307E+01 6.54254E+01 6.35000E+00
 -1      4447 8.84097E+00 6.71539E+01-6.35000E+00
 -1      4448 8.84097E+00 6.71539E+01-3.17500E+00
 -1      4449 8.84097E+00 6.71539E+01 0.00000E+00
 -1      4450 8.84097E+00 6.71539E+01 3.17500E+00
 -1      4451 8.84097E+00 6.71539E+01 6.35000E+00
 -1      4452 9.57772E+00-7.27500E+01-6.35000E+00
 -1      4453 9.57772E+00-7.27500E+01-3.17500E+00
 -1      4454 9.57772E+00-7.27500E+01 0.00000E+00
 -1      4455 9.57772E+00-7.27500E+01 3.17500E+00
 -1      4456 9.57772E+00-7.27500E+01 6.35000E+00
 -1      4457 1.89916E+01-7.08775E+01-6.35000E+00
 -1      4458 1.89916E+01-7.08775E+01-3.17500E+00
 -1      4459 1.89916E+01-7.08775E+01 0.00000E+00
 -1      4460 1.89916E+01-7.08775E+01 3.17500E+00
 -1      4461 1.89916E+01-7.08775E+01 6.35000E+00
 -1      4462 2.80805E+01-6.77922E+01-6.35000E+00
 -1      4463 2.80805E+01-6.77922E+01-3.17500E+00
 -1      4464 2.80805E+01-6.77922E+01 0.00000E+00
 -1      4465 2.80805E+01-6.77922E+01 3.17500E+00
 -1      4466 2.80805E+01-6.77922E+01 6.35000E+00
 -1      4467 3.66889E+01-6.35470E+01-6.35000E+00
 -1      4468 3.66889E+01-6.35470E+01-3.17500E+00
 -1      4469 3.66889E+01-6.35470E+01 0.00000E+00
 -1      4470 3.66889E+01-6.35470E+01 3.17500E+00
 -1      4471 3.66889E+01-6.35470E+01 6.35000E+00
 -1      4472 4.46696E+01-5.82145E+01-6.35000E+00
 -1      4473 4.46696E+01-5.82145E+01-3.17500E+00
 -1      4474 4.46696E+01-5.82145E+01 0.00000E+00
 -1      4475 4.46696E+01-5.82145E+01 3.17500E+00
 -1      4476 4.46696E+01-5.82145E+01 6.35000E+00
 -1      4477 5.18859E+01-5.18859E+01-6.35000E+00
 -1      4478 5.18859E+01-5.18859E+01-3.17500E+00
 -1      4479 5.18859E+01-5.18859E+01 0.00000E+00
 -1      4480 5.18859E+01-5.18859E+01 3.17500E+00
 -1      4481 5.18859E+01-5.18859E+01 6.35000E+00
 -1      4482 5.82145E+01-4.46696E+01-6.35000E+00
 -1      4483 5.82145E+01-4.46696E+01-3.17500E+00
 -1      4484 5.82145E+01-4.46696E+01 0.00000E+00
 -1      4485 5.82145E+01-4.46696E+01 3.17500E+00
 -1      4486 5.82145E+01-4.46696E+01 6.35000E+00
 -1      4487 6.35470E+01-3.66889E+01-6.35000E+00
 -1      4488 6.35470E+01-3.66889E+01-3.17500E+00
 -1      4489 6.35470E+01-3.66889E+01 0.00000E+00
 -1      4490 6.35470E+01-3.66889E+01 3.17500E+00
 -1      4491 6.35470E+01-3.66889E+01 6.35000E+00
 -1      4492 6.77922E+01-2.80805E+01-6.35000E+00
 -1      4493 6.77922E+01-2.80805E+01-3.17500E+00
 -1      4494 6.77922E+01-2.80805E+01 0.00000E+00
 -1      4495 6.77922E+01-2.80805E+01 3.17500E+00
 -1      4496 6.77922E+01-2.80805E+01 6.35000E+00
 -1      4497 7.08775E+01-1.89916E+01-6.35000E+00
 -1      4498 7.08775E+01-1.89916E+01-3.17500E+00
 -1      4499 7.08775E+01-1.89916E+01 0.00000E+00
 -1      4500 7.08775E+01-1.89916E+01 3.17500E+00
 -1      4501 7.08775E+01-1.89916E+01 6.35000E+00
 -1      4502 7.27500E+01-9.57772E+00-6.35000E+00
 -1      4503 7.27500E+01-9.57772E+00-3.17500E+00
 -1      4504 7.27500E+01-9.57772E+00 0.00000E+00
 -1      4505 7.27500E+01-9.57772E+00 3.17500E+00
 -1      4506 7.27500E+01-9.57772E+00 6.35000E+00
 -1      4507 7.33778E+01 3.41980E-07-6.35000E+00
 -1      4508 7.33778E+01 3.41980E-07-3.17500E+00
 -1      4509 7.33778E+01 3.41980E-07 0.00000E+00
 -1      4510 7.33778E+01 3.41980E-07 3.17500E+00
 -1      4511 7.33778E+01 3.41980E-07 6.35000E+00
 -1      4512 7.27500E+01 9.57772E+00-6.35000E+00
 -1      4513 7.27500E+01 9.57772E+00-3.17500E+00
 -1      4514 7.27500E+01 9.57772E+00 0.00000E+00
 -1      4515 7.27500E+01 9.57772E+00 3.17500E+00
 -1      4516 7.27500E+01 9.57772E+00 6.35000E+00
 -1      4517 7.08775E+01 1.89916E+01-6.35000E+00
 -1      4518 7.08775E+01 1.89916E+01-3.17500E+00
 -1      4519 7.08775E+01 1.89916E+01 0.00000E+00
 -1      4520 7.08775E+01 1.89916E+01 3.17500E+00
 -1      4521 7.08775E+01 1.89916E+01 6.35000E+00
 -1      4522 6.77922E+01 2.80805E+01-6.35000E+00
 -1      4523 6.77922E+01 2.80805E+01-3.17500E+00
 -1      4524 6.77922E+01 2.80805E+01 0.00000E+00
 -1      4525 6.77922E+01 2.80805E+01 3.17500E+00
 -1      4526 6.77922E+01 2.80805E+01 6.35000E+00
 -1      4527 6.35470E+01 3.66889E+01-6.35000E+00
 -1      4528 6.35470E+01 3.66889E+01-3.17500E+00
 -1      4529 6.35470E+01 3.66889E+01 0.00000E+00
 -1      4530 6.35470E+01 3.66889E+01 3.17500E+00
 -1      4531 6.35470E+01 3.66889E+01 6.35000E+00
 -1      4532 5.82145E+01 4.46696E+01-6.35000E+00
 -1      4533 5.82145E+01 4.46696E+01-3.17500E+00
 -1      4534 5.82145E+01 4.46696E+01 0.00000E+00
 -1      4535 5.82145E+01 4.46696E+01 3.17500E+00
 -1      4536 5.82145E+01 4.46696E+01 6.35000E+00
 -1      4537 5.18859E+01 5.18859E+01-6.35000E+00
 -1      4538 5.18859E+01 5.18859E+01-3.17500E+00
 -1      4539 5.18859E+01 5.18859E+01 0.00000E+00
 -1      4540 5.18859E+01 5.18859E+01 3.17500E+00
 -1      4541 5.18859E+01 5.18859E+01 6.35000E+00
 -1      4542 4.46696E+01 5.82145E+01-6.35000E+00
 -1      4543 4.46696E+01 5.82145E+01-3.17500E+00
 -1      4544 4.46696E+01 5.82145E+01 0.00000E+00
 -1      4545 4.46696E+01 5.82145E+01 3.17500E+00
 -1      4546 4.46696E+01 5.82145E+01 6.35000E+00
 -1      4547 3.66889E+01 6.35470E+01-6.35000E+00
 -1      4548 3.66889E+01 6.35470E+01-3.17500E+00
 -1      4549 3.66889E+01 6.35470E+01 0.00000E+00
 -1      4550 3.66889E+01 6.35470E+01 3.17500E+00
 -1      4551 3.66889E+01 6.35470E+01 6.35000E+00
 -1      4552 2.80805E+01 6.77922E+01-6.35000E+00
 -1      4553 2.80805E+01 6.77922E+01-3.17500E+00
 -1      4554 2.80805E+01 6.77922E+01 0.00000E+00
 -1      4555 2.80805E+01 6.77922E+01 3.17500E+00
 -1      4556 2.80805E+01 6.77922E+01 6.35000E+00
 -1      4557 1.89916E+01 7.08775E+01-6.35000E+00
 -1      4558 1.89916E+01 7.08775E+01-3.17500E+00
 -1      4559 1.89916E+01 7.08775E+01 0.00000E+00
 -1      4560 1.89916E+01 7.08775E+01 3.17500E+00
 -1      4561 1.89916E+01 7.08775E+01 6.35000E+00
 -1      4562 9.57772E+00 7.27500E+01-6.35000E+00
 -1      4563 9.57772E+00 7.27500E+01-3.17500E+00
 -1      4564 9.57772E+00 7.27500E+01 0.00000E+00
 -1      4565 9.57772E+00 7.27500E+01 3.17500E+00
 -1      4566 9.57772E+00 7.27500E+01 6.35000E+00
 -1      4567 1.03145E+01-7.83462E+01-6.35000E+00
 -1      4568 1.03145E+01-7.83462E+01-3.17500E+00
 -1      4569 1.03145E+01-7.83462E+01 0.00000E+00
 -1      4570 1.03145E+01-7.83462E+01 3.17500E+00
 -1      4571 1.03145E+01-7.83462E+01 6.35000E+00
 -1      4572 2.04525E+01-7.63296E+01-6.35000E+00
 -1      4573 2.04525E+01-7.63296E+01-3.17500E+00
 -1      4574 2.04525E+01-7.63296E+01 0.00000E+00
 -1      4575 2.04525E+01-7.63296E+01 3.17500E+00
 -1      4576 2.04525E+01-7.63296E+01 6.35000E+00
 -1      4577 3.02405E+01-7.30070E+01-6.35000E+00
 -1      4578 3.02405E+01-7.30070E+01-3.17500E+00
 -1      4579 3.02405E+01-7.30070E+01 0.00000E+00
 -1      4580 3.02405E+01-7.30070E+01 3.17500E+00
 -1      4581 3.02405E+01-7.30070E+01 6.35000E+00
 -1      4582 3.95111E+01-6.84352E+01-6.35000E+00
 -1      4583 3.95111E+01-6.84352E+01-3.17500E+00
 -1      4584 3.95111E+01-6.84352E+01 0.00000E+00
 -1      4585 3.95111E+01-6.84352E+01 3.17500E+00
 -1      4586 3.95111E+01-6.84352E+01 6.35000E+00
 -1      4587 4.81057E+01-6.26925E+01-6.35000E+00
 -1      4588 4.81057E+01-6.26925E+01-3.17500E+00
 -1      4589 4.81057E+01-6.26925E+01 0.00000E+00
 -1      4590 4.81057E+01-6.26925E+01 3.17500E+00
 -1      4591 4.81057E+01-6.26925E+01 6.35000E+00
 -1      4592 5.58771E+01-5.58771E+01-6.35000E+00
 -1      4593 5.58771E+01-5.58771E+01-3.17500E+00
 -1      4594 5.58771E+01-5.58771E+01 0.00000E+00
 -1      4595 5.58771E+01-5.58771E+01 3.17500E+00
 -1      4596 5.58771E+01-5.58771E+01 6.35000E+00
 -1      4597 6.26925E+01-4.81057E+01-6.35000E+00
 -1      4598 6.26925E+01-4.81057E+01-3.17500E+00
 -1      4599 6.26925E+01-4.81057E+01 0.00000E+00
 -1      4600 6.26925E+01-4.81057E+01 3.17500E+00
 -1      4601 6.26925E+01-4.81057E+01 6.35000E+00
 -1      4602 6.84352E+01-3.95111E+01-6.35000E+00
 -1      4603 6.84352E+01-3.95111E+01-3.17500E+00
 -1      4604 6.84352E+01-3.95111E+01 0.00000E+00
 -1      4605 6.84352E+01-3.95111E+01 3.17500E+00
 -1      4606 6.84352E+01-3.95111E+01 6.35000E+00
 -1      4607 7.30070E+01-3.02405E+01-6.35000E+00
 -1      4608 7.30070E+01-3.02405E+01-3.17500E+00
 -1      4609 7.30070E+01-3.02405E+01 0.00000E+00
 -1      4610 7.30070E+01-3.02405E+01 3.17500E+00
 -1      4611 7.30070E+01-3.02405E+01 6.35000E+00
 -1      4612 7.63296E+01-2.04525E+01-6.35000E+00
 -1      4613 7.63296E+01-2.04525E+01-3.17500E+00
 -1      4614 7.63296E+01-2.04525E+01 0.00000E+00
 -1      4615 7.63296E+01-2.04525E+01 3.17500E+00
 -1      4616 7.63296E+01-2.04525E+01 6.35000E+00
 -1      4617 7.83462E+01-1.03145E+01-6.35000E+00
 -1      4618 7.83462E+01-1.03145E+01-3.17500E+00
 -1      4619 7.83462E+01-1.03145E+01 0.00000E+00
 -1      4620 7.83462E+01-1.03145E+01 3.17500E+00
 -1      4621 7.83462E+01-1.03145E+01 6.35000E+00
 -1      4622 7.90222E+01 3.67580E-07-6.35000E+00
 -1      4623 7.90222E+01 3.67580E-07-3.17500E+00
 -1      4624 7.90222E+01 3.67580E-07 0.00000E+00
 -1      4625 7.90222E+01 3.67580E-07 3.17500E+00
 -1      4626 7.90222E+01 3.67580E-07 6.35000E+00
 -1      4627 7.83462E+01 1.03145E+01-6.35000E+00
 -1      4628 7.83462E+01 1.03145E+01-3.17500E+00
 -1      4629 7.83462E+01 1.03145E+01 0.00000E+00
 -1      4630 7.83462E+01 1.03145E+01 3.17500E+00
 -1      4631 7.83462E+01 1.03145E+01 6.35000E+00
 -1      4632 7.63296E+01 2.04525E+01-6.35000E+00
 -1      4633 7.63296E+01 2.04525E+01-3.17500E+00
 -1      4634 7.63296E+01 2.04525E+01 0.00000E+00
 -1      4635 7.63296E+01 2.04525E+01 3.17500E+00
 -1      4636 7.63296E+01 2.04525E+01 6.35000E+00
 -1      4637 7.30070E+01 3.02405E+01-6.35000E+00
 -1      4638 7.30070E+01 3.02405E+01-3.17500E+00
 -1      4639 7.30070E+01 3.02405E+01 0.00000E+00
 -1      4640 7.30070E+01 3.02405E+01 3.17500E+00
 -1      4641 7.30070E+01 3.02405E+01 6.35000E+00
 -1      4642 6.84352E+01 3.95111E+01-6.35000E+00
 -1      4643 6.84352E+01 3.95111E+01-3.17500E+00
 -1      4644 6.84352E+01 3.95111E+01 0.00000E+00
 -1      4645 6.84352E+01 3.95111E+01 3.17500E+00
 -1      4646 6.84352E+01 3.95111E+01 6.35000E+00
 -1      4647 6.26925E+01 4.81057E+01-6.35000E+00
 -1      4648 6.26925E+01 4.81057E+01-3.17500E+00
 -1      4649 6.26925E+01 4.81057E+01 0.00000E+00
 -1      4650 6.26925E+01 4.81057E+01 3.17500E+00
 -1      4651 6.26925E+01 4.81057E+01 6.35000E+00
 -1      4652 5.58771E+01 5.58771E+01-6.35000E+00
 -1      4653 5.58771E+01 5.58771E+01-3.17500E+00
 -1      4654 5.58771E+01 5.58771E+01 0.00000E+00
 -1      4655 5.58771E+01 5.58771E+01 3.17500E+00
 -1      4656 5.58771E+01 5.58771E+01 6.35000E+00
 -1      4657 4.81057E+01 6.26925E+01-6.35000E+00
 -1      4658 4.81057E+01 6.26925E+01-3.17500E+00
 -1      4659 4.81057E+01 6.26925E+01 0.00000E+00
 -1      4660 4.81057E+01 6.26925E+01 3.17500E+00
 -1      4661 4.81057E+01 6.26925E+01 6.35000E+00
 -1      4662 3.95111E+01 6.84352E+01-6.35000E+00
 -1      4663 3.95111E+01 6.84352E+01-3.17500E+00
 -1      4664 3.95111E+01 6.84352E+01 0.00000E+00
 -1      4665 3.95111E+01 6.84352E+01 3.17500E+00
 -1      4666 3.95111E+01 6.84352E+01 6.35000E+00
 -1      4667 3.02405E+01 7.30070E+01-6.35000E+00
 -1      4668 3.02405E+01 7.30070E+01-3.17500E+00
 -1      4669 3.02405E+01 7.30070E+01 0.00000E+00
 -1      4670 3.02405E+01 7.30070E+01 3.17500E+00
 -1      4671 3.02405E+01 7.30070E+01 6.35000E+00
 -1      4672 2.04525E+01 7.63296E+01-6.35000E+00
 -1      4673 2.04525E+01 7.63296E+01-3.17500E+00
 -1      4674 2.04525E+01 7.63296E+01 0.00000E+00
 -1      4675 2.04525E+01 7.63296E+01 3.17500E+00
 -1      4676 2.04525E+01 7.63296E+01 6.35000E+00
 -1      4677 1.03145E+01 7.83462E+01-6.35000E+00
 -1      4678 1.03145E+01 7.83462E+01-3.17500E+00
 -1      4679 1.03145E+01 7.83462E+01 0.00000E+00
 -1      4680 1.03145E+01 7.83462E+01 3.17500E+00
 -1      4681 1.03145E+01 7.83462E+01 6.35000E+00
 -1      4682 1.10512E+01-8.39423E+01-6.35000E+00
 -1      4683 1.10512E+01-8.39423E+01-3.17500E+00
 -1      4684 1.10512E+01-8.39423E+01 0.00000E+00
 -1      4685 1.10512E+01-8.39423E+01 3.17500E+00
 -1      4686 1.10512E+01-8.39423E+01 6.35000E+00
 -1      4687 2.19133E+01-8.17817E+01-6.35000E+00
 -1      4688 2.19133E+01-8.17817E+01-3.17500E+00
 -1      4689 2.19133E+01-8.17817E+01 0.00000E+00
 -1      4690 2.19133E+01-8.17817E+01 3.17500E+00
 -1      4691 2.19133E+01-8.17817E+01 6.35000E+00
 -1      4692 3.24005E+01-7.82218E+01-6.35000E+00
 -1      4693 3.24005E+01-7.82218E+01-3.17500E+00
 -1      4694 3.24005E+01-7.82218E+01 0.00000E+00
 -1      4695 3.24005E+01-7.82218E+01 3.17500E+00
 -1      4696 3.24005E+01-7.82218E+01 6.35000E+00
 -1      4697 4.23333E+01-7.33235E+01-6.35000E+00
 -1      4698 4.23333E+01-7.33235E+01-3.17500E+00
 -1      4699 4.23333E+01-7.33235E+01 0.00000E+00
 -1      4700 4.23333E+01-7.33235E+01 3.17500E+00
 -1      4701 4.23333E+01-7.33235E+01 6.35000E+00
 -1      4702 5.15418E+01-6.71706E+01-6.35000E+00
 -1      4703 5.15418E+01-6.71706E+01-3.17500E+00
 -1      4704 5.15418E+01-6.71706E+01 0.00000E+00
 -1      4705 5.15418E+01-6.71706E+01 3.17500E+00
 -1      4706 5.15418E+01-6.71706E+01 6.35000E+00
 -1      4707 5.98684E+01-5.98684E+01-6.35000E+00
 -1      4708 5.98684E+01-5.98684E+01-3.17500E+00
 -1      4709 5.98684E+01-5.98684E+01 0.00000E+00
 -1      4710 5.98684E+01-5.98684E+01 3.17500E+00
 -1      4711 5.98684E+01-5.98684E+01 6.35000E+00
 -1      4712 6.71706E+01-5.15418E+01-6.35000E+00
 -1      4713 6.71706E+01-5.15418E+01-3.17500E+00
 -1      4714 6.71706E+01-5.15418E+01 0.00000E+00
 -1      4715 6.71706E+01-5.15418E+01 3.17500E+00
 -1      4716 6.71706E+01-5.15418E+01 6.35000E+00
 -1      4717 7.33235E+01-4.23333E+01-6.35000E+00
 -1      4718 7.33235E+01-4.23333E+01-3.17500E+00
 -1      4719 7.33235E+01-4.23333E+01 0.00000E+00
 -1      4720 7.33235E+01-4.23333E+01 3.17500E+00
 -1      4721 7.33235E+01-4.23333E+01 6.35000E+00
 -1      4722 7.82218E+01-3.24005E+01-6.35000E+00
 -1      4723 7.82218E+01-3.24005E+01-3.17500E+00
 -1      4724 7.82218E+01-3.24005E+01 0.00000E+00
 -1      4725 7.82218E+01-3.24005E+01 3.17500E+00
 -1      4726 7.82218E+01-3.24005E+01 6.35000E+00
 -1      4727 8.17817E+01-2.19133E+01-6.35000E+00
 -1      4728 8.17817E+01-2.19133E+01-3.17500E+00
 -1      4729 8.17817E+01-2.19133E+01 0.00000E+00
 -1      4730 8.17817E+01-2.19133E+01 3.17500E+00
 -1      4731 8.17817E+01-2.19133E+01 6.35000E+00
 -1      4732 8.39423E+01-1.10512E+01-6.35000E+00
 -1      4733 8.39423E+01-1.10512E+01-3.17500E+00
 -1      4734 8.39423E+01-1.10512E+01 0.00000E+00
 -1      4735 8.39423E+01-1.10512E+01 3.17500E+00
 -1      4736 8.39423E+01-1.10512E+01 6.35000E+00
 -1      4737 8.46667E+01 3.93179E-07-6.35000E+00
 -1      4738 8.46667E+01 3.93179E-07-3.17500E+00
 -1      4739 8.46667E+01 3.93179E-07 0.00000E+00
 -1      4740 8.46667E+01 3.93179E-07 3.17500E+00
 -1      4741 8.46667E+01 3.93179E-07 6.35000E+00
 -1      4742 8.39423E+01 1.10512E+01-6.35000E+00
 -1      4743 8.39423E+01 1.10512E+01-3.17500E+00
 -1      4744 8.39423E+01 1.10512E+01 0.00000E+00
 -1      4745 8.39423E+01 1.10512E+01 3.17500E+00
 -1      4746 8.39423E+01 1.10512E+01 6.35000E+00
 -1      4747 8.17817E+01 2.19133E+01-6.35000E+00
 -1      4748 8.17817E+01 2.19133E+01-3.17500E+00
 -1      4749 8.17817E+01 2.19133E+01 0.00000E+00
 -1      4750 8.17817E+01 2.19133E+01 3.17500E+00
 -1      4751 8.17817E+01 2.19133E+01 6.35000E+00
 -1      4752 7.82218E+01 3.24005E+01-6.35000E+00
 -1      4753 7.82218E+01 3.24005E+01-3.17500E+00
 -1      4754 7.82218E+01 3.24005E+01 0.00000E+00
 -1      4755 7.82218E+01 3.24005E+01 3.17500E+00
 -1      4756 7.82218E+01 3.24005E+01 6.35000E+00
 -1      4757 7.33235E+01 4.23333E+01-6.35000E+00
 -1      4758 7.33235E+01 4.23333E+01-3.17500E+00
 -1      4759 7.33235E+01 4.23333E+01 0.00000E+00
 -1      4760 7.33235E+01 4.23333E+01 3.17500E+00
 -1      4761 7.33235E+01 4.23333E+01 6.35000E+00
 -1      4762 6.71706E+01 5.15418E+01-6.35000E+00
 -1      4763 6.71706E+01 5.15418E+01-3.17500E+00
 -1      4764 6.71706E+01 5.15418E+01 0.00000E+00
 -1      4765 6.71706E+01 5.15418E+01 3.17500E+00
 -1      4766 6.71706E+01 5.15418E+01 6.35000E+00
 -1      4767 5.98684E+01 5.98684E+01-6.35000E+00
 -1      4768 5.98684E+01 5.98684E+01-3.17500E+00
 -1      4769 5.98684E+01 5.98684E+01 0.00000E+00
 -1      4770 5.98684E+01 5.98684E+01 3.17500E+00
 -1      4771 5.98684E+01 5.98684E+01 6.35000E+00
 -1      4772 5.15418E+01 6.71706E+01-6.35000E+00
 -1      4773 5.15418E+01 6.71706E+01-3.17500E+00
 -1      4774 5.15418E+01 6.71706E+01 0.00000E+00
 -1      4775 5.15418E+01 6.71706E+01 3.17500E+00
 -1      4776 5.15418E+01 6.71706E+01 6.35000E+00
 -1      4777 4.23333E+01 7.33235E+01-6.35000E+00
 -1      4778 4.23333E+01 7.33235E+01-3.17500E+00
 -1      4779 4.23333E+01 7.33235E+01 0.00000E+00
 -1      4780 4.23333E+01 7.33235E+01 3.17500E+00
 -1      4781 4.23333E+01 7.33235E+01 6.35000E+00
 -1      4782 3.24005E+01 7.82218E+01-6.35000E+00
 -1      4783 3.24005E+01 7.82218E+01-3.17500E+00
 -1      4784 3.24005E+01 7.82218E+01 0.00000E+00
 -1      4785 3.24005E+01 7.82218E+01 3.17500E+00
 -1      4786 3.24005E+01 7.82218E+01 6.35000E+00
 -1      4787 2.19133E+01 8.17817E+01-6.35000E+00
 -1      4788 2.19133E+01 8.17817E+01-3.17500E+00
 -1      4789 2.19133E+01 8.17817E+01 0.00000E+00
 -1      4790 2.19133E+01 8.17817E+01 3.17500E+00
 -1      4791 2.19133E+01 8.17817E+01 6.35000E+00
 -1      4792 1.10512E+01 8.39423E+01-6.35000E+00
 -1      4793 1.10512E+01 8.39423E+01-3.17500E+00
 -1      4794 1.10512E+01 8.39423E+01 0.00000E+00
 -1      4795 1.10512E+01 8.39423E+01 3.17500E+00
 -1      4796 1.10512E+01 8.39423E+01 6.35000E+00
 -1      4797 1.17880E+01-8.95385E+01-6.35000E+00
 -1      4798 1.17880E+01-8.95385E+01-3.17500E+00
 -1      4799 1.17880E+01-8.95385E+01 0.00000E+00
 -1      4800 1.17880E+01-8.95385E+01 3.17500E+00
 -1      4801 1.17880E+01-8.95385E+01 6.35000E+00
 -1      4802 2.33742E+01-8.72338E+01-6.35000E+00
 -1      4803 2.33742E+01-8.72338E+01-3.17500E+00
 -1      4804 2.33742E+01-8.72338E+01 0.00000E+00
 -1      4805 2.33742E+01-8.72338E+01 3.17500E+00
 -1      4806 2.33742E+01-8.72338E+01 6.35000E+00
 -1      4807 3.45606E+01-8.34366E+01-6.35000E+00
 -1      4808 3.45606E+01-8.34366E+01-3.17500E+00
 -1      4809 3.45606E+01-8.34366E+01 0.00000E+00
 -1      4810 3.45606E+01-8.34366E+01 3.17500E+00
 -1      4811 3.45606E+01-8.34366E+01 6.35000E+00
 -1      4812 4.51556E+01-7.82117E+01-6.35000E+00
 -1      4813 4.51556E+01-7.82117E+01-3.17500E+00
 -1      4814 4.51556E+01-7.82117E+01 0.00000E+00
 -1      4815 4.51556E+01-7.82117E+01 3.17500E+00
 -1      4816 4.51556E+01-7.82117E+01 6.35000E+00
 -1      4817 5.49779E+01-7.16486E+01-6.35000E+00
 -1      4818 5.49779E+01-7.16486E+01-3.17500E+00
 -1      4819 5.49779E+01-7.16486E+01 0.00000E+00
 -1      4820 5.49779E+01-7.16486E+01 3.17500E+00
 -1      4821 5.49779E+01-7.16486E+01 6.35000E+00
 -1      4822 6.38596E+01-6.38596E+01-6.35000E+00
 -1      4823 6.38596E+01-6.38596E+01-3.17500E+00
 -1      4824 6.38596E+01-6.38596E+01 0.00000E+00
 -1      4825 6.38596E+01-6.38596E+01 3.17500E+00
 -1      4826 6.38596E+01-6.38596E+01 6.35000E+00
 -1      4827 7.16486E+01-5.49779E+01-6.35000E+00
 -1      4828 7.16486E+01-5.49779E+01-3.17500E+00
 -1      4829 7.16486E+01-5.49779E+01 0.00000E+00
 -1      4830 7.16486E+01-5.49779E+01 3.17500E+00
 -1      4831 7.16486E+01-5.49779E+01 6.35000E+00
 -1      4832 7.82117E+01-4.51556E+01-6.35000E+00
 -1      4833 7.82117E+01-4.51556E+01-3.17500E+00
 -1      4834 7.82117E+01-4.51556E+01 0.00000E+00
 -1      4835 7.82117E+01-4.51556E+01 3.17500E+00
 -1      4836 7.82117E+01-4.51556E+01 6.35000E+00
 -1      4837 8.34366E+01-3.45606E+01-6.35000E+00
 -1      4838 8.34366E+01-3.45606E+01-3.17500E+00
 -1      4839 8.34366E+01-3.45606E+01 0.00000E+00
 -1      4840 8.34366E+01-3.45606E+01 3.17500E+00
 -1      4841 8.34366E+01-3.45606E+01 6.35000E+00
 -1      4842 8.72338E+01-2.33742E+01-6.35000E+00
 -1      4843 8.72338E+01-2.33742E+01-3.17500E+00
 -1      4844 8.72338E+01-2.33742E+01 0.00000E+00
 -1      4845 8.72338E+01-2.33742E+01 3.17500E+00
 -1      4846 8.72338E+01-2.33742E+01 6.35000E+00
 -1      4847 8.95385E+01-1.17880E+01-6.35000E+00
 -1      4848 8.95385E+01-1.17880E+01-3.17500E+00
 -1      4849 8.95385E+01-1.17880E+01 0.00000E+00
 -1      4850 8.95385E+01-1.17880E+01 3.17500E+00
 -1      4851 8.95385E+01-1.17880E+01 6.35000E+00
 -1      4852 9.03111E+01 4.18782E-07-6.35000E+00
 -1      4853 9.03111E+01 4.18782E-07-3.17500E+00
 -1      4854 9.03111E+01 4.18782E-07 0.00000E+00
 -1      4855 9.03111E+01 4.18782E-07 3.17500E+00
 -1      4856 9.03111E+01 4.18782E-07 6.35000E+00
 -1      4857 8.95385E+01 1.17880E+01-6.35000E+00
 -1      4858 8.95385E+01 1.17880E+01-3.17500E+00
 -1      4859 8.95385E+01 1.17880E+01 0.00000E+00
 -1      4860 8.95385E+01 1.17880E+01 3.17500E+00
 -1      4861 8.95385E+01 1.17880E+01 6.35000E+00
 -1      4862 8.72338E+01 2.33742E+01-6.35000E+00
 -1      4863 8.72338E+01 2.33742E+01-3.17500E+00
 -1      4864 8.72338E+01 2.33742E+01 0.00000E+00
 -1      4865 8.72338E+01 2.33742E+01 3.17500E+00
 -1      4866 8.72338E+01 2.33742E+01 6.35000E+00
 -1      4867 8.34366E+01 3.45606E+01-6.35000E+00
 -1      4868 8.34366E+01 3.45606E+01-3.17500E+00
 -1      4869 8.34366E+01 3.45606E+01 0.00000E+00
 -1      4870 8.34366E+01 3.45606E+01 3.17500E+00
 -1      4871 8.34366E+01 3.45606E+01 6.35000E+00
 -1      4872 7.82117E+01 4.51556E+01-6.35000E+00
 -1      4873 7.82117E+01 4.51556E+01-3.17500E+00
 -1      4874 7.82117E+01 4.51556E+01 0.00000E+00
 -1      4875 7.82117E+01 4.51556E+01 3.17500E+00
 -1      4876 7.82117E+01 4.51556E+01 6.35000E+00
 -1      4877 7.16486E+01 5.49779E+01-6.35000E+00
 -1      4878 7.16486E+01 5.49779E+01-3.17500E+00
 -1      4879 7.16486E+01 5.49779E+01 0.00000E+00
 -1      4880 7.16486E+01 5.49779E+01 3.17500E+00
 -1      4881 7.16486E+01 5.49779E+01 6.35000E+00
 -1      4882 6.38596E+01 6.38596E+01-6.35000E+00
 -1      4883 6.38596E+01 6.38596E+01-3.17500E+00
 -1      4884 6.38596E+01 6.38596E+01 0.00000E+00
 -1      4885 6.38596E+01 6.38596E+01 3.17500E+00
 -1      4886 6.38596E+01 6.38596E+01 6.35000E+00
 -1      4887 5.49779E+01 7.16486E+01-6.35000E+00
 -1      4888 5.49779E+01 7.16486E+01-3.17500E+00
 -1      4889 5.49779E+01 7.16486E+01 0.00000E+00
 -1      4890 5.49779E+01 7.16486E+01 3.17500E+00
 -1      4891 5.49779E+01 7.16486E+01 6.35000E+00
 -1      4892 4.51556E+01 7.82117E+01-6.35000E+00
 -1      4893 4.51556E+01 7.82117E+01-3.17500E+00
 -1      4894 4.51556E+01 7.82117E+01 0.00000E+00
 -1      4895 4.51556E+01 7.82117E+01 3.17500E+00
 -1      4896 4.51556E+01 7.82117E+01 6.35000E+00
 -1      4897 3.45606E+01 8.34366E+01-6.35000E+00
 -1      4898 3.45606E+01 8.34366E+01-3.17500E+00
 -1      4899 3.45606E+01 8.34366E+01 0.00000E+00
 -1      4900 3.45606E+01 8.34366E+01 3.17500E+00
 -1      4901 3.45606E+01 8.34366E+01 6.35000E+00
 -1      4902 2.33742E+01 8.72338E+01-6.35000E+00
 -1      4903 2.33742E+01 8.72338E+01-3.17500E+00
 -1      4904 2.33742E+01 8.72338E+01 0.00000E+00
 -1      4905 2.33742E+01 8.72338E+01 3.17500E+00
 -1      4906 2.33742E+01 8.72338E+01 6.35000E+00
 -1      4907 1.17880E+01 8.95385E+01-6.35000E+00
 -1      4908 1.17880E+01 8.95385E+01-3.17500E+00
 -1      4909 1.17880E+01 8.95385E+01 0.00000E+00
 -1      4910 1.17880E+01 8.95385E+01 3.17500E+00
 -1      4911 1.17880E+01 8.95385E+01 6.35000E+00
 -1      4912 1.25247E+01-9.51346E+01-6.35000E+00
 -1      4913 1.25247E+01-9.51346E+01-3.17500E+00
 -1      4914 1.25247E+01-9.51346E+01 0.00000E+00
 -1      4915 1.25247E+01-9.51346E+01 3.17500E+00
 -1      4916 1.25247E+01-9.51346E+01 6.35000E+00
 -1      4917 2.48351E+01-9.26860E+01-6.35000E+00
 -1      4918 2.48351E+01-9.26860E+01-3.17500E+00
 -1      4919 2.48351E+01-9.26860E+01 0.00000E+00
 -1      4920 2.48351E+01-9.26860E+01 3.17500E+00
 -1      4921 2.48351E+01-9.26860E+01 6.35000E+00
 -1      4922 3.67206E+01-8.86514E+01-6.35000E+00
 -1      4923 3.67206E+01-8.86514E+01-3.17500E+00
 -1      4924 3.67206E+01-8.86514E+01 0.00000E+00
 -1      4925 3.67206E+01-8.86514E+01 3.17500E+00
 -1      4926 3.67206E+01-8.86514E+01 6.35000E+00
 -1      4927 4.79778E+01-8.30999E+01-6.35000E+00
 -1      4928 4.79778E+01-8.30999E+01-3.17500E+00
 -1      4929 4.79778E+01-8.30999E+01 0.00000E+00
 -1      4930 4.79778E+01-8.30999E+01 3.17500E+00
 -1      4931 4.79778E+01-8.30999E+01 6.35000E+00
 -1      4932 5.84140E+01-7.61267E+01-6.35000E+00
 -1      4933 5.84140E+01-7.61267E+01-3.17500E+00
 -1      4934 5.84140E+01-7.61267E+01 0.00000E+00
 -1      4935 5.84140E+01-7.61267E+01 3.17500E+00
 -1      4936 5.84140E+01-7.61267E+01 6.35000E+00
 -1      4937 6.78508E+01-6.78508E+01-6.35000E+00
 -1      4938 6.78508E+01-6.78508E+01-3.17500E+00
 -1      4939 6.78508E+01-6.78508E+01 0.00000E+00
 -1      4940 6.78508E+01-6.78508E+01 3.17500E+00
 -1      4941 6.78508E+01-6.78508E+01 6.35000E+00
 -1      4942 7.61267E+01-5.84140E+01-6.35000E+00
 -1      4943 7.61267E+01-5.84140E+01-3.17500E+00
 -1      4944 7.61267E+01-5.84140E+01 0.00000E+00
 -1      4945 7.61267E+01-5.84140E+01 3.17500E+00
 -1      4946 7.61267E+01-5.84140E+01 6.35000E+00
 -1      4947 8.31000E+01-4.79778E+01-6.35000E+00
 -1      4948 8.31000E+01-4.79778E+01-3.17500E+00
 -1      4949 8.31000E+01-4.79778E+01 0.00000E+00
 -1      4950 8.31000E+01-4.79778E+01 3.17500E+00
 -1      4951 8.31000E+01-4.79778E+01 6.35000E+00
 -1      4952 8.86514E+01-3.67206E+01-6.35000E+00
 -1      4953 8.86514E+01-3.67206E+01-3.17500E+00
 -1      4954 8.86514E+01-3.67206E+01 0.00000E+00
 -1      4955 8.86514E+01-3.67206E+01 3.17500E+00
 -1      4956 8.86514E+01-3.67206E+01 6.35000E+00
 -1      4957 9.26860E+01-2.48351E+01-6.35000E+00
 -1      4958 9.26860E+01-2.48351E+01-3.17500E+00
 -1      4959 9.26860E+01-2.48351E+01 0.00000E+00
 -1      4960 9.26860E+01-2.48351E+01 3.17500E+00
 -1      4961 9.26860E+01-2.48351E+01 6.35000E+00
 -1      4962 9.51346E+01-1.25247E+01-6.35000E+00
 -1      4963 9.51346E+01-1.25247E+01-3.17500E+00
 -1      4964 9.51346E+01-1.25247E+01 0.00000E+00
 -1      4965 9.51346E+01-1.25247E+01 3.17500E+00
 -1      4966 9.51346E+01-1.25247E+01 6.35000E+00
 -1      4967 9.59556E+01 4.44381E-07-6.35000E+00
 -1      4968 9.59556E+01 4.44381E-07-3.17500E+00
 -1      4969 9.59556E+01 4.44381E-07 0.00000E+00
 -1      4970 9.59556E+01 4.44381E-07 3.17500E+00
 -1      4971 9.59556E+01 4.44381E-07 6.35000E+00
 -1      4972 9.51346E+01 1.25247E+01-6.35000E+00
 -1      4973 9.51346E+01 1.25247E+01-3.17500E+00
 -1      4974 9.51346E+01 1.25247E+01 0.00000E+00
 -1      4975 9.51346E+01 1.25247E+01 3.17500E+00
 -1      4976 9.51346E+01 1.25247E+01 6.35000E+00
 -1      4977 9.26860E+01 2.48351E+01-6.35000E+00
 -1      4978 9.26860E+01 2.48351E+01-3.17500E+00
 -1      4979 9.26860E+01 2.48351E+01 0.00000E+00
 -1      4980 9.26860E+01 2.48351E+01 3.17500E+00
 -1      4981 9.26860E+01 2.48351E+01 6.35000E+00
 -1      4982 8.86514E+01 3.67206E+01-6.35000E+00
 -1      4983 8.86514E+01 3.67206E+01-3.17500E+00
 -1      4984 8.86514E+01 3.67206E+01 0.00000E+00
 -1      4985 8.86514E+01 3.67206E+01 3.17500E+00
 -1      4986 8.86514E+01 3.67206E+01 6.35000E+00
 -1      4987 8.30999E+01 4.79778E+01-6.35000E+00
 -1      4988 8.30999E+01 4.79778E+01-3.17500E+00
 -1      4989 8.30999E+01 4.79778E+01 0.00000E+00
 -1      4990 8.30999E+01 4.79778E+01 3.17500E+00
 -1      4991 8.30999E+01 4.79778E+01 6.35000E+00
 -1      4992 7.61267E+01 5.84140E+01-6.35000E+00
 -1      4993 7.61267E+01 5.84140E+01-3.17500E+00
 -1      4994 7.61267E+01 5.84140E+01 0.00000E+00
 -1      4995 7.61267E+01 5.84140E+01 3.17500E+00
 -1      4996 7.61267E+01 5.84140E+01 6.35000E+00
 -1      4997 6.78508E+01 6.78508E+01-6.35000E+00
 -1      4998 6.78508E+01 6.78508E+01-3.17500E+00
 -1      4999 6.78508E+01 6.78508E+01 0.00000E+00
 -1      5000 6.78508E+01 6.78508E+01 3.17500E+00
 -1      5001 6.78508E+01 6.78508E+01 6.35000E+00
 -1      5002 5.84140E+01 7.61267E+01-6.35000E+00
 -1      5003 5.84140E+01 7.61267E+01-3.17500E+00
 -1      5004 5.84140E+01 7.61267E+01 0.00000E+00
 -1      5005 5.84140E+01 7.61267E+01 3.17500E+00
 -1      5006 5.84140E+01 7.61267E+01 6.35000E+00
 -1      5007 4.79778E+01 8.30999E+01-6.35000E+00
 -1      5008 4.79778E+01 8.30999E+01-3.17500E+00
 -1      5009 4.79778E+01 8.30999E+01 0.00000E+00
 -1      5010 4.79778E+01 8.30999E+01 3.17500E+00
 -1      5011 4.79778E+01 8.30999E+01 6.35000E+00
 -1      5012 3.67206E+01 8.86514E+01-6.35000E+00
 -1      5013 3.67206E+01 8.86514E+01-3.17500E+00
 -1      5014 3.67206E+01 8.86514E+01 0.00000E+00
 -1      5015 3.67206E+01 8.86514E+01 3.17500E+00
 -1      5016 3.67206E+01 8.86514E+01 6.35000E+00
 -1      5017 2.48351E+01 9.26860E+01-6.35000E+00
 -1      5018 2.48351E+01 9.26860E+01-3.17500E+00
 -1      5019 2.48351E+01 9.26860E+01 0.00000E+00
 -1      5020 2.48351E+01 9.26860E+01 3.17500E+00
 -1      5021 2.48351E+01 9.26860E+01 6.35000E+00
 -1      5022 1.25247E+01 9.51346E+01-6.35000E+00
 -1      5023 1.25247E+01 9.51346E+01-3.17500E+00
 -1      5024 1.25247E+01 9.51346E+01 0.00000E+00
 -1      5025 1.25247E+01 9.51346E+01 3.17500E+00
 -1      5026 1.25247E+01 9.51346E+01 6.35000E+00
 -1      5027 1.32615E+01-1.00731E+02-6.35000E+00
 -1      5028 1.32615E+01-1.00731E+02-3.17500E+00
 -1      5029 1.32615E+01-1.00731E+02 0.00000E+00
 -1      5030 1.32615E+01-1.00731E+02 3.17500E+00
 -1      5031 1.32615E+01-1.00731E+02 6.35000E+00
 -1      5032 2.62960E+01-9.81381E+01-6.35000E+00
 -1      5033 2.62960E+01-9.81381E+01-3.17500E+00
 -1      5034 2.62960E+01-9.81381E+01 0.00000E+00
 -1      5035 2.62960E+01-9.81381E+01 3.17500E+00
 -1      5036 2.62960E+01-9.81381E+01 6.35000E+00
 -1      5037 3.88806E+01-9.38662E+01-6.35000E+00
 -1      5038 3.88806E+01-9.38662E+01-3.17500E+00
 -1      5039 3.88806E+01-9.38662E+01 0.00000E+00
 -1      5040 3.88806E+01-9.38662E+01 3.17500E+00
 -1      5041 3.88806E+01-9.38662E+01 6.35000E+00
 -1      5042 5.08000E+01-8.79882E+01-6.35000E+00
 -1      5043 5.08000E+01-8.79882E+01-3.17500E+00
 -1      5044 5.08000E+01-8.79882E+01 0.00000E+00
 -1      5045 5.08000E+01-8.79882E+01 3.17500E+00
 -1      5046 5.08000E+01-8.79882E+01 6.35000E+00
 -1      5047 6.18502E+01-8.06047E+01-6.35000E+00
 -1      5048 6.18502E+01-8.06047E+01-3.17500E+00
 -1      5049 6.18502E+01-8.06047E+01 0.00000E+00
 -1      5050 6.18502E+01-8.06047E+01 3.17500E+00
 -1      5051 6.18502E+01-8.06047E+01 6.35000E+00
 -1      5052 7.18420E+01-7.18420E+01-6.35000E+00
 -1      5053 7.18420E+01-7.18420E+01-3.17500E+00
 -1      5054 7.18420E+01-7.18420E+01 0.00000E+00
 -1      5055 7.18420E+01-7.18420E+01 3.17500E+00
 -1      5056 7.18420E+01-7.18420E+01 6.35000E+00
 -1      5057 8.06047E+01-6.18502E+01-6.35000E+00
 -1      5058 8.06047E+01-6.18502E+01-3.17500E+00
 -1      5059 8.06047E+01-6.18502E+01 0.00000E+00
 -1      5060 8.06047E+01-6.18502E+01 3.17500E+00
 -1      5061 8.06047E+01-6.18502E+01 6.35000E+00
 -1      5062 8.79882E+01-5.08000E+01-6.35000E+00
 -1      5063 8.79882E+01-5.08000E+01-3.17500E+00
 -1      5064 8.79882E+01-5.08000E+01 0.00000E+00
 -1      5065 8.79882E+01-5.08000E+01 3.17500E+00
 -1      5066 8.79882E+01-5.08000E+01 6.35000E+00
 -1      5067 9.38662E+01-3.88806E+01-6.35000E+00
 -1      5068 9.38662E+01-3.88806E+01-3.17500E+00
 -1      5069 9.38662E+01-3.88806E+01 0.00000E+00
 -1      5070 9.38662E+01-3.88806E+01 3.17500E+00
 -1      5071 9.38662E+01-3.88806E+01 6.35000E+00
 -1      5072 9.81381E+01-2.62960E+01-6.35000E+00
 -1      5073 9.81381E+01-2.62960E+01-3.17500E+00
 -1      5074 9.81381E+01-2.62960E+01 0.00000E+00
 -1      5075 9.81381E+01-2.62960E+01 3.17500E+00
 -1      5076 9.81381E+01-2.62960E+01 6.35000E+00
 -1      5077 1.00731E+02-1.32615E+01-6.35000E+00
 -1      5078 1.00731E+02-1.32615E+01-3.17500E+00
 -1      5079 1.00731E+02-1.32615E+01 0.00000E+00
 -1      5080 1.00731E+02-1.32615E+01 3.17500E+00
 -1      5081 1.00731E+02-1.32615E+01 6.35000E+00
 -1      5082 1.01600E+02 4.69979E-07-6.35000E+00
 -1      5083 1.01600E+02 4.69979E-07-3.17500E+00
 -1      5084 1.01600E+02 4.69979E-07 0.00000E+00
 -1      5085 1.01600E+02 4.69979E-07 3.17500E+00
 -1      5086 1.01600E+02 4.69979E-07 6.35000E+00
 -1      5087 1.00731E+02 1.32615E+01-6.35000E+00
 -1      5088 1.00731E+02 1.32615E+01-3.17500E+00
 -1      5089 1.00731E+02 1.32615E+01 0.00000E+00
 -1      5090 1.00731E+02 1.32615E+01 3.17500E+00
 -1      5091 1.00731E+02 1.32615E+01 6.35000E+00
 -1      5092 9.81381E+01 2.62960E+01-6.35000E+00
 -1      5093 9.81381E+01 2.62960E+01-3.17500E+00
 -1      5094 9.81381E+01 2.62960E+01 0.00000E+00
 -1      5095 9.81381E+01 2.62960E+01 3.17500E+00
 -1      5096 9.81381E+01 2.62960E+01 6.35000E+00
 -1      5097 9.38662E+01 3.88806E+01-6.35000E+00
 -1      5098 9.38662E+01 3.88806E+01-3.17500E+00
 -1      5099 9.38662E+01 3.88806E+01 0.00000E+00
 -1      5100 9.38662E+01 3.88806E+01 3.17500E+00
 -1      5101 9.38662E+01 3.88806E+01 6.35000E+00
 -1      5102 8.79882E+01 5.08000E+01-6.35000E+00
 -1      5103 8.79882E+01 5.08000E+01-3.17500E+00
 -1      5104 8.79882E+01 5.08000E+01 0.00000E+00
 -1      5105 8.79882E+01 5.08000E+01 3.17500E+00
 -1      5106 8.79882E+01 5.08000E+01 6.35000E+00
 -1      5107 8.06047E+01 6.18502E+01-6.35000E+00
 -1      5108 8.06047E+01 6.18502E+01-3.17500E+00
 -1      5109 8.06047E+01 6.18502E+01 0.00000E+00
 -1      5110 8.06047E+01 6.18502E+01 3.17500E+00
 -1      5111 8.06047E+01 6.18502E+01 6.35000E+00
 -1      5112 7.18420E+01 7.18420E+01-6.35000E+00
 -1      5113 7.18420E+01 7.18420E+01-3.17500E+00
 -1      5114 7.18420E+01 7.18420E+01 0.00000E+00
 -1      5115 7.18420E+01 7.18420E+01 3.17500E+00
 -1      5116 7.18420E+01 7.18420E+01 6.35000E+00
 -1      5117 6.18502E+01 8.06047E+01-6.35000E+00
 -1      5118 6.18502E+01 8.06047E+01-3.17500E+00
 -1      5119 6.18502E+01 8.06047E+01 0.00000E+00
 -1      5120 6.18502E+01 8.06047E+01 3.17500E+00
 -1      5121 6.18502E+01 8.06047E+01 6.35000E+00
 -1      5122 5.08000E+01 8.79882E+01-6.35000E+00
 -1      5123 5.08000E+01 8.79882E+01-3.17500E+00
 -1      5124 5.08000E+01 8.79882E+01 0.00000E+00
 -1      5125 5.08000E+01 8.79882E+01 3.17500E+00
 -1      5126 5.08000E+01 8.79882E+01 6.35000E+00
 -1      5127 3.88806E+01 9.38662E+01-6.35000E+00
 -1      5128 3.88806E+01 9.38662E+01-3.17500E+00
 -1      5129 3.88806E+01 9.38662E+01 0.00000E+00
 -1      5130 3.88806E+01 9.38662E+01 3.17500E+00
 -1      5131 3.88806E+01 9.38662E+01 6.35000E+00
 -1      5132 2.62960E+01 9.81381E+01-6.35000E+00
 -1      5133 2.62960E+01 9.81381E+01-3.17500E+00
 -1      5134 2.62960E+01 9.81381E+01 0.00000E+00
 -1      5135 2.62960E+01 9.81381E+01 3.17500E+00
 -1      5136 2.62960E+01 9.81381E+01 6.35000E+00
 -1      5137 1.32615E+01 1.00731E+02-6.35000E+00
 -1      5138 1.32615E+01 1.00731E+02-3.17500E+00
 -1      5139 1.32615E+01 1.00731E+02 0.00000E+00
 -1      5140 1.32615E+01 1.00731E+02 3.17500E+00
 -1      5141 1.32615E+01 1.00731E+02 6.35000E+00
 -1      5142 1.39982E+01-1.06327E+02-6.35000E+00
 -1      5143 1.39982E+01-1.06327E+02-3.17500E+00
 -1      5144 1.39982E+01-1.06327E+02 0.00000E+00
 -1      5145 1.39982E+01-1.06327E+02 3.17500E+00
 -1      5146 1.39982E+01-1.06327E+02 6.35000E+00
 -1      5147 2.77569E+01-1.03590E+02-6.35000E+00
 -1      5148 2.77569E+01-1.03590E+02-3.17500E+00
 -1      5149 2.77569E+01-1.03590E+02 0.00000E+00
 -1      5150 2.77569E+01-1.03590E+02 3.17500E+00
 -1      5151 2.77569E+01-1.03590E+02 6.35000E+00
 -1      5152 4.10407E+01-9.90809E+01-6.35000E+00
 -1      5153 4.10407E+01-9.90809E+01-3.17500E+00
 -1      5154 4.10407E+01-9.90809E+01 0.00000E+00
 -1      5155 4.10407E+01-9.90809E+01 3.17500E+00
 -1      5156 4.10407E+01-9.90809E+01 6.35000E+00
 -1      5157 5.36222E+01-9.28764E+01-6.35000E+00
 -1      5158 5.36222E+01-9.28764E+01-3.17500E+00
 -1      5159 5.36222E+01-9.28764E+01 0.00000E+00
 -1      5160 5.36222E+01-9.28764E+01 3.17500E+00
 -1      5161 5.36222E+01-9.28764E+01 6.35000E+00
 -1      5162 6.52863E+01-8.50827E+01-6.35000E+00
 -1      5163 6.52863E+01-8.50827E+01-3.17500E+00
 -1      5164 6.52863E+01-8.50827E+01 0.00000E+00
 -1      5165 6.52863E+01-8.50827E+01 3.17500E+00
 -1      5166 6.52863E+01-8.50827E+01 6.35000E+00
 -1      5167 7.58333E+01-7.58333E+01-6.35000E+00
 -1      5168 7.58333E+01-7.58333E+01-3.17500E+00
 -1      5169 7.58333E+01-7.58333E+01 0.00000E+00
 -1      5170 7.58333E+01-7.58333E+01 3.17500E+00
 -1      5171 7.58333E+01-7.58333E+01 6.35000E+00
 -1      5172 8.50827E+01-6.52863E+01-6.35000E+00
 -1      5173 8.50827E+01-6.52863E+01-3.17500E+00
 -1      5174 8.50827E+01-6.52863E+01 0.00000E+00
 -1      5175 8.50827E+01-6.52863E+01 3.17500E+00
 -1      5176 8.50827E+01-6.52863E+01 6.35000E+00
 -1      5177 9.28764E+01-5.36222E+01-6.35000E+00
 -1      5178 9.28764E+01-5.36222E+01-3.17500E+00
 -1      5179 9.28764E+01-5.36222E+01 0.00000E+00
 -1      5180 9.28764E+01-5.36222E+01 3.17500E+00
 -1      5181 9.28764E+01-5.36222E+01 6.35000E+00
 -1      5182 9.90809E+01-4.10407E+01-6.35000E+00
 -1      5183 9.90809E+01-4.10407E+01-3.17500E+00
 -1      5184 9.90809E+01-4.10407E+01 0.00000E+00
 -1      5185 9.90809E+01-4.10407E+01 3.17500E+00
 -1      5186 9.90809E+01-4.10407E+01 6.35000E+00
 -1      5187 1.03590E+02-2.77569E+01-6.35000E+00
 -1      5188 1.03590E+02-2.77569E+01-3.17500E+00
 -1      5189 1.03590E+02-2.77569E+01 0.00000E+00
 -1      5190 1.03590E+02-2.77569E+01 3.17500E+00
 -1      5191 1.03590E+02-2.77569E+01 6.35000E+00
 -1      5192 1.06327E+02-1.39982E+01-6.35000E+00
 -1      5193 1.06327E+02-1.39982E+01-3.17500E+00
 -1      5194 1.06327E+02-1.39982E+01 0.00000E+00
 -1      5195 1.06327E+02-1.39982E+01 3.17500E+00
 -1      5196 1.06327E+02-1.39982E+01 6.35000E+00
 -1      5197 1.07244E+02 4.95548E-07-6.35000E+00
 -1      5198 1.07244E+02 4.95548E-07-3.17500E+00
 -1      5199 1.07244E+02 4.95548E-07 0.00000E+00
 -1      5200 1.07244E+02 4.95548E-07 3.17500E+00
 -1      5201 1.07244E+02 4.95548E-07 6.35000E+00
 -1      5202 1.06327E+02 1.39982E+01-6.35000E+00
 -1      5203 1.06327E+02 1.39982E+01-3.17500E+00
 -1      5204 1.06327E+02 1.39982E+01 0.00000E+00
 -1      5205 1.06327E+02 1.39982E+01 3.17500E+00
 -1      5206 1.06327E+02 1.39982E+01 6.35000E+00
 -1      5207 1.03590E+02 2.77569E+01-6.35000E+00
 -1      5208 1.03590E+02 2.77569E+01-3.17500E+00
 -1      5209 1.03590E+02 2.77569E+01 0.00000E+00
 -1      5210 1.03590E+02 2.77569E+01 3.17500E+00
 -1      5211 1.03590E+02 2.77569E+01 6.35000E+00
 -1      5212 9.90809E+01 4.10407E+01-6.35000E+00
 -1      5213 9.90809E+01 4.10407E+01-3.17500E+00
 -1      5214 9.90809E+01 4.10407E+01 0.00000E+00
 -1      5215 9.90809E+01 4.10407E+01 3.17500E+00
 -1      5216 9.90809E+01 4.10407E+01 6.35000E+00
 -1      5217 9.28764E+01 5.36222E+01-6.35000E+00
 -1      5218 9.28764E+01 5.36222E+01-3.17500E+00
 -1      5219 9.28764E+01 5.36222E+01 0.00000E+00
 -1      5220 9.28764E+01 5.36222E+01 3.17500E+00
 -1      5221 9.28764E+01 5.36222E+01 6.35000E+00
 -1      5222 8.50827E+01 6.52863E+01-6.35000E+00
 -1      5223 8.50827E+01 6.52863E+01-3.17500E+00
 -1      5224 8.50827E+01 6.52863E+01 0.00000E+00
 -1      5225 8.50827E+01 6.52863E+01 3.17500E+00
 -1      5226 8.50827E+01 6.52863E+01 6.35000E+00
 -1      5227 7.58333E+01 7.58333E+01-6.35000E+00
 -1      5228 7.58333E+01 7.58333E+01-3.17500E+00
 -1      5229 7.58333E+01 7.58333E+01 0.00000E+00
 -1      5230 7.58333E+01 7.58333E+01 3.17500E+00
 -1      5231 7.58333E+01 7.58333E+01 6.35000E+00
 -1      5232 6.52863E+01 8.50827E+01-6.35000E+00
 -1      5233 6.52863E+01 8.50827E+01-3.17500E+00
 -1      5234 6.52863E+01 8.50827E+01 0.00000E+00
 -1      5235 6.52863E+01 8.50827E+01 3.17500E+00
 -1      5236 6.52863E+01 8.50827E+01 6.35000E+00
 -1      5237 5.36222E+01 9.28764E+01-6.35000E+00
 -1      5238 5.36222E+01 9.28764E+01-3.17500E+00
 -1      5239 5.36222E+01 9.28764E+01 0.00000E+00
 -1      5240 5.36222E+01 9.28764E+01 3.17500E+00
 -1      5241 5.36222E+01 9.28764E+01 6.35000E+00
 -1      5242 4.10407E+01 9.90809E+01-6.35000E+00
 -1      5243 4.10407E+01 9.90809E+01-3.17500E+00
 -1      5244 4.10407E+01 9.90809E+01 0.00000E+00
 -1      5245 4.10407E+01 9.90809E+01 3.17500E+00
 -1      5246 4.10407E+01 9.90809E+01 6.35000E+00
 -1      5247 2.77569E+01 1.03590E+02-6.35000E+00
 -1      5248 2.77569E+01 1.03590E+02-3.17500E+00
 -1      5249 2.77569E+01 1.03590E+02 0.00000E+00
 -1      5250 2.77569E+01 1.03590E+02 3.17500E+00
 -1      5251 2.77569E+01 1.03590E+02 6.35000E+00
 -1      5252 1.39982E+01 1.06327E+02-6.35000E+00
 -1      5253 1.39982E+01 1.06327E+02-3.17500E+00
 -1      5254 1.39982E+01 1.06327E+02 0.00000E+00
 -1      5255 1.39982E+01 1.06327E+02 3.17500E+00
 -1      5256 1.39982E+01 1.06327E+02 6.35000E+00
 -1      5257 1.47350E+01-1.11923E+02-6.35000E+00
 -1      5258 1.47350E+01-1.11923E+02-3.17500E+00
 -1      5259 1.47350E+01-1.11923E+02 0.00000E+00
 -1      5260 1.47350E+01-1.11923E+02 3.17500E+00
 -1      5261 1.47350E+01-1.11923E+02 6.35000E+00
 -1      5262 2.92178E+01-1.09042E+02-6.35000E+00
 -1      5263 2.92178E+01-1.09042E+02-3.17500E+00
 -1      5264 2.92178E+01-1.09042E+02 0.00000E+00
 -1      5265 2.92178E+01-1.09042E+02 3.17500E+00
 -1      5266 2.92178E+01-1.09042E+02 6.35000E+00
 -1      5267 4.32007E+01-1.04296E+02-6.35000E+00
 -1      5268 4.32007E+01-1.04296E+02-3.17500E+00
 -1      5269 4.32007E+01-1.04296E+02 0.00000E+00
 -1      5270 4.32007E+01-1.04296E+02 3.17500E+00
 -1      5271 4.32007E+01-1.04296E+02 6.35000E+00
 -1      5272 5.64444E+01-9.77646E+01-6.35000E+00
 -1      5273 5.64444E+01-9.77646E+01-3.17500E+00
 -1      5274 5.64444E+01-9.77646E+01 0.00000E+00
 -1      5275 5.64444E+01-9.77646E+01 3.17500E+00
 -1      5276 5.64444E+01-9.77646E+01 6.35000E+00
 -1      5277 6.87224E+01-8.95608E+01-6.35000E+00
 -1      5278 6.87224E+01-8.95608E+01-3.17500E+00
 -1      5279 6.87224E+01-8.95608E+01 0.00000E+00
 -1      5280 6.87224E+01-8.95608E+01 3.17500E+00
 -1      5281 6.87224E+01-8.95608E+01 6.35000E+00
 -1      5282 7.98245E+01-7.98245E+01-6.35000E+00
 -1      5283 7.98245E+01-7.98245E+01-3.17500E+00
 -1      5284 7.98245E+01-7.98245E+01 0.00000E+00
 -1      5285 7.98245E+01-7.98245E+01 3.17500E+00
 -1      5286 7.98245E+01-7.98245E+01 6.35000E+00
 -1      5287 8.95608E+01-6.87224E+01-6.35000E+00
 -1      5288 8.95608E+01-6.87224E+01-3.17500E+00
 -1      5289 8.95608E+01-6.87224E+01 0.00000E+00
 -1      5290 8.95608E+01-6.87224E+01 3.17500E+00
 -1      5291 8.95608E+01-6.87224E+01 6.35000E+00
 -1      5292 9.77646E+01-5.64444E+01-6.35000E+00
 -1      5293 9.77646E+01-5.64444E+01-3.17500E+00
 -1      5294 9.77646E+01-5.64444E+01 0.00000E+00
 -1      5295 9.77646E+01-5.64444E+01 3.17500E+00
 -1      5296 9.77646E+01-5.64444E+01 6.35000E+00
 -1      5297 1.04296E+02-4.32007E+01-6.35000E+00
 -1      5298 1.04296E+02-4.32007E+01-3.17500E+00
 -1      5299 1.04296E+02-4.32007E+01 0.00000E+00
 -1      5300 1.04296E+02-4.32007E+01 3.17500E+00
 -1      5301 1.04296E+02-4.32007E+01 6.35000E+00
 -1      5302 1.09042E+02-2.92178E+01-6.35000E+00
 -1      5303 1.09042E+02-2.92178E+01-3.17500E+00
 -1      5304 1.09042E+02-2.92178E+01 0.00000E+00
 -1      5305 1.09042E+02-2.92178E+01 3.17500E+00
 -1      5306 1.09042E+02-2.92178E+01 6.35000E+00
 -1      5307 1.11923E+02-1.47350E+01-6.35000E+00
 -1      5308 1.11923E+02-1.47350E+01-3.17500E+00
 -1      5309 1.11923E+02-1.47350E+01 0.00000E+00
 -1      5310 1.11923E+02-1.47350E+01 3.17500E+00
 -1      5311 1.11923E+02-1.47350E+01 6.35000E+00
 -1      5312 1.12889E+02 5.21115E-07-6.35000E+00
 -1      5313 1.12889E+02 5.21115E-07-3.17500E+00
 -1      5314 1.12889E+02 5.21115E-07 0.00000E+00
 -1      5315 1.12889E+02 5.21115E-07 3.17500E+00
 -1      5316 1.12889E+02 5.21115E-07 6.35000E+00
 -1      5317 1.11923E+02 1.47350E+01-6.35000E+00
 -1      5318 1.11923E+02 1.47350E+01-3.17500E+00
 -1      5319 1.11923E+02 1.47350E+01 0.00000E+00
 -1      5320 1.11923E+02 1.47350E+01 3.17500E+00
 -1      5321 1.11923E+02 1.47350E+01 6.35000E+00
 -1      5322 1.09042E+02 2.92178E+01-6.35000E+00
 -1      5323 1.09042E+02 2.92178E+01-3.17500E+00
 -1      5324 1.09042E+02 2.92178E+01 0.00000E+00
 -1      5325 1.09042E+02 2.92178E+01 3.17500E+00
 -1      5326 1.09042E+02 2.92178E+01 6.35000E+00
 -1      5327 1.04296E+02 4.32007E+01-6.35000E+00
 -1      5328 1.04296E+02 4.32007E+01-3.17500E+00
 -1      5329 1.04296E+02 4.32007E+01 0.00000E+00
 -1      5330 1.04296E+02 4.32007E+01 3.17500E+00
 -1      5331 1.04296E+02 4.32007E+01 6.35000E+00
 -1      5332 9.77646E+01 5.64444E+01-6.35000E+00
 -1      5333 9.77646E+01 5.64444E+01-3.17500E+00
 -1      5334 9.77646E+01 5.64444E+01 0.00000E+00
 -1      5335 9.77646E+01 5.64444E+01 3.17500E+00
 -1      5336 9.77646E+01 5.64444E+01 6.35000E+00
 -1      5337 8.95608E+01 6.87224E+01-6.35000E+00
 -1      5338 8.95608E+01 6.87224E+01-3.17500E+00
 -1      5339 8.95608E+01 6.87224E+01 0.00000E+00
 -1      5340 8.95608E+01 6.87224E+01 3.17500E+00
 -1      5341 8.95608E+01 6.87224E+01 6.35000E+00
 -1      5342 7.98245E+01 7.98245E+01-6.35000E+00
 -1      5343 7.98245E+01 7.98245E+01-3.17500E+00
 -1      5344 7.98245E+01 7.98245E+01 0.00000E+00
 -1      5345 7.98245E+01 7.98245E+01 3.17500E+00
 -1      5346 7.98245E+01 7.98245E+01 6.35000E+00
 -1      5347 6.87224E+01 8.95608E+01-6.35000E+00
 -1      5348 6.87224E+01 8.95608E+01-3.17500E+00
 -1      5349 6.87224E+01 8.95608E+01 0.00000E+00
 -1      5350 6.87224E+01 8.95608E+01 3.17500E+00
 -1      5351 6.87224E+01 8.95608E+01 6.35000E+00
 -1      5352 5.64444E+01 9.77646E+01-6.35000E+00
 -1      5353 5.64444E+01 9.77646E+01-3.17500E+00
 -1      5354 5.64444E+01 9.77646E+01 0.00000E+00
 -1      5355 5.64444E+01 9.77646E+01 3.17500E+00
 -1      5356 5.64444E+01 9.77646E+01 6.35000E+00
 -1      5357 4.32007E+01 1.04296E+02-6.35000E+00
 -1      5358 4.32007E+01 1.04296E+02-3.17500E+00
 -1      5359 4.32007E+01 1.04296E+02 0.00000E+00
 -1      5360 4.32007E+01 1.04296E+02 3.17500E+00
 -1      5361 4.32007E+01 1.04296E+02 6.35000E+00
 -1      5362 2.92178E+01 1.09042E+02-6.35000E+00
 -1      5363 2.92178E+01 1.09042E+02-3.17500E+00
 -1      5364 2.92178E+01 1.09042E+02 0.00000E+00
 -1      5365 2.92178E+01 1.09042E+02 3.17500E+00
 -1      5366 2.92178E+01 1.09042E+02 6.35000E+00
 -1      5367 1.47350E+01 1.11923E+02-6.35000E+00
 -1      5368 1.47350E+01 1.11923E+02-3.17500E+00
 -1      5369 1.47350E+01 1.11923E+02 0.00000E+00
 -1      5370 1.47350E+01 1.11923E+02 3.17500E+00
 -1      5371 1.47350E+01 1.11923E+02 6.35000E+00
 -1      5372 1.54717E+01-1.17519E+02-6.35000E+00
 -1      5373 1.54717E+01-1.17519E+02-3.17500E+00
 -1      5374 1.54717E+01-1.17519E+02 0.00000E+00
 -1      5375 1.54717E+01-1.17519E+02 3.17500E+00
 -1      5376 1.54717E+01-1.17519E+02 6.35000E+00
 -1      5377 3.06787E+01-1.14494E+02-6.35000E+00
 -1      5378 3.06787E+01-1.14494E+02-3.17500E+00
 -1      5379 3.06787E+01-1.14494E+02 0.00000E+00
 -1      5380 3.06787E+01-1.14494E+02 3.17500E+00
 -1      5381 3.06787E+01-1.14494E+02 6.35000E+00
 -1      5382 4.53607E+01-1.09511E+02-6.35000E+00
 -1      5383 4.53607E+01-1.09511E+02-3.17500E+00
 -1      5384 4.53607E+01-1.09511E+02 0.00000E+00
 -1      5385 4.53607E+01-1.09511E+02 3.17500E+00
 -1      5386 4.53607E+01-1.09511E+02 6.35000E+00
 -1      5387 5.92667E+01-1.02653E+02-6.35000E+00
 -1      5388 5.92667E+01-1.02653E+02-3.17500E+00
 -1      5389 5.92667E+01-1.02653E+02 0.00000E+00
 -1      5390 5.92667E+01-1.02653E+02 3.17500E+00
 -1      5391 5.92667E+01-1.02653E+02 6.35000E+00
 -1      5392 7.21585E+01-9.40388E+01-6.35000E+00
 -1      5393 7.21585E+01-9.40388E+01-3.17500E+00
 -1      5394 7.21585E+01-9.40388E+01 0.00000E+00
 -1      5395 7.21585E+01-9.40388E+01 3.17500E+00
 -1      5396 7.21585E+01-9.40388E+01 6.35000E+00
 -1      5397 8.38157E+01-8.38157E+01-6.35000E+00
 -1      5398 8.38157E+01-8.38157E+01-3.17500E+00
 -1      5399 8.38157E+01-8.38157E+01 0.00000E+00
 -1      5400 8.38157E+01-8.38157E+01 3.17500E+00
 -1      5401 8.38157E+01-8.38157E+01 6.35000E+00
 -1      5402 9.40388E+01-7.21585E+01-6.35000E+00
 -1      5403 9.40388E+01-7.21585E+01-3.17500E+00
 -1      5404 9.40388E+01-7.21585E+01 0.00000E+00
 -1      5405 9.40388E+01-7.21585E+01 3.17500E+00
 -1      5406 9.40388E+01-7.21585E+01 6.35000E+00
 -1      5407 1.02653E+02-5.92667E+01-6.35000E+00
 -1      5408 1.02653E+02-5.92667E+01-3.17500E+00
 -1      5409 1.02653E+02-5.92667E+01 0.00000E+00
 -1      5410 1.02653E+02-5.92667E+01 3.17500E+00
 -1      5411 1.02653E+02-5.92667E+01 6.35000E+00
 -1      5412 1.09511E+02-4.53607E+01-6.35000E+00
 -1      5413 1.09511E+02-4.53607E+01-3.17500E+00
 -1      5414 1.09511E+02-4.53607E+01 0.00000E+00
 -1      5415 1.09511E+02-4.53607E+01 3.17500E+00
 -1      5416 1.09511E+02-4.53607E+01 6.35000E+00
 -1      5417 1.14494E+02-3.06787E+01-6.35000E+00
 -1      5418 1.14494E+02-3.06787E+01-3.17500E+00
 -1      5419 1.14494E+02-3.06787E+01 0.00000E+00
 -1      5420 1.14494E+02-3.06787E+01 3.17500E+00
 -1      5421 1.14494E+02-3.06787E+01 6.35000E+00
 -1      5422 1.17519E+02-1.54717E+01-6.35000E+00
 -1      5423 1.17519E+02-1.54717E+01-3.17500E+00
 -1      5424 1.17519E+02-1.54717E+01 0.00000E+00
 -1      5425 1.17519E+02-1.54717E+01 3.17500E+00
 -1      5426 1.17519E+02-1.54717E+01 6.35000E+00
 -1      5427 1.18533E+02 5.46687E-07-6.35000E+00
 -1      5428 1.18533E+02 5.46687E-07-3.17500E+00
 -1      5429 1.18533E+02 5.46687E-07 0.00000E+00
 -1      5430 1.18533E+02 5.46687E-07 3.17500E+00
 -1      5431 1.18533E+02 5.46687E-07 6.35000E+00
 -1      5432 1.17519E+02 1.54717E+01-6.35000E+00
 -1      5433 1.17519E+02 1.54717E+01-3.17500E+00
 -1      5434 1.17519E+02 1.54717E+01 0.00000E+00
 -1      5435 1.17519E+02 1.54717E+01 3.17500E+00
 -1      5436 1.17519E+02 1.54717E+01 6.35000E+00
 -1      5437 1.14494E+02 3.06787E+01-6.35000E+00
 -1      5438 1.14494E+02 3.06787E+01-3.17500E+00
 -1      5439 1.14494E+02 3.06787E+01 0.00000E+00
 -1      5440 1.14494E+02 3.06787E+01 3.17500E+00
 -1      5441 1.14494E+02 3.06787E+01 6.35000E+00
 -1      5442 1.09511E+02 4.53607E+01-6.35000E+00
 -1      5443 1.09511E+02 4.53607E+01-3.17500E+00
 -1      5444 1.09511E+02 4.53607E+01 0.00000E+00
 -1      5445 1.09511E+02 4.53607E+01 3.17500E+00
 -1      5446 1.09511E+02 4.53607E+01 6.35000E+00
 -1      5447 1.02653E+02 5.92667E+01-6.35000E+00
 -1      5448 1.02653E+02 5.92667E+01-3.17500E+00
 -1      5449 1.02653E+02 5.92667E+01 0.00000E+00
 -1      5450 1.02653E+02 5.92667E+01 3.17500E+00
 -1      5451 1.02653E+02 5.92667E+01 6.35000E+00
 -1      5452 9.40388E+01 7.21585E+01-6.35000E+00
 -1      5453 9.40388E+01 7.21585E+01-3.17500E+00
 -1      5454 9.40388E+01 7.21585E+01 0.00000E+00
 -1      5455 9.40388E+01 7.21585E+01 3.17500E+00
 -1      5456 9.40388E+01 7.21585E+01 6.35000E+00
 -1      5457 8.38157E+01 8.38157E+01-6.35000E+00
 -1      5458 8.38157E+01 8.38157E+01-3.17500E+00
 -1      5459 8.38157E+01 8.38157E+01 0.00000E+00
 -1      5460 8.38157E+01 8.38157E+01 3.17500E+00
 -1      5461 8.38157E+01 8.38157E+01 6.35000E+00
 -1      5462 7.21585E+01 9.40388E+01-6.35000E+00
 -1      5463 7.21585E+01 9.40388E+01-3.17500E+00
 -1      5464 7.21585E+01 9.40388E+01 0.00000E+00
 -1      5465 7.21585E+01 9.40388E+01 3.17500E+00
 -1      5466 7.21585E+01 9.40388E+01 6.35000E+00
 -1      5467 5.92667E+01 1.02653E+02-6.35000E+00
 -1      5468 5.92667E+01 1.02653E+02-3.17500E+00
 -1      5469 5.92667E+01 1.02653E+02 0.00000E+00
 -1      5470 5.92667E+01 1.02653E+02 3.17500E+00
 -1      5471 5.92667E+01 1.02653E+02 6.35000E+00
 -1      5472 4.53607E+01 1.09511E+02-6.35000E+00
 -1      5473 4.53607E+01 1.09511E+02-3.17500E+00
 -1      5474 4.53607E+01 1.09511E+02 0.00000E+00
 -1      5475 4.53607E+01 1.09511E+02 3.17500E+00
 -1      5476 4.53607E+01 1.09511E+02 6.35000E+00
 -1      5477 3.06787E+01 1.14494E+02-6.35000E+00
 -1      5478 3.06787E+01 1.14494E+02-3.17500E+00
 -1      5479 3.06787E+01 1.14494E+02 0.00000E+00
 -1      5480 3.06787E+01 1.14494E+02 3.17500E+00
 -1      5481 3.06787E+01 1.14494E+02 6.35000E+00
 -1      5482 1.54717E+01 1.17519E+02-6.35000E+00
 -1      5483 1.54717E+01 1.17519E+02-3.17500E+00
 -1      5484 1.54717E+01 1.17519E+02 0.00000E+00
 -1      5485 1.54717E+01 1.17519E+02 3.17500E+00
 -1      5486 1.54717E+01 1.17519E+02 6.35000E+00
 -1      5487 1.62085E+01-1.23115E+02-6.35000E+00
 -1      5488 1.62085E+01-1.23115E+02-3.17500E+00
 -1      5489 1.62085E+01-1.23115E+02 0.00000E+00
 -1      5490 1.62085E+01-1.23115E+02 3.17500E+00
 -1      5491 1.62085E+01-1.23115E+02 6.35000E+00
 -1      5492 3.21396E+01-1.19947E+02-6.35000E+00
 -1      5493 3.21396E+01-1.19947E+02-3.17500E+00
 -1      5494 3.21396E+01-1.19947E+02 0.00000E+00
 -1      5495 3.21396E+01-1.19947E+02 3.17500E+00
 -1      5496 3.21396E+01-1.19947E+02 6.35000E+00
 -1      5497 4.75208E+01-1.14725E+02-6.35000E+00
 -1      5498 4.75208E+01-1.14725E+02-3.17500E+00
 -1      5499 4.75208E+01-1.14725E+02 0.00000E+00
 -1      5500 4.75208E+01-1.14725E+02 3.17500E+00
 -1      5501 4.75208E+01-1.14725E+02 6.35000E+00
 -1      5502 6.20889E+01-1.07541E+02-6.35000E+00
 -1      5503 6.20889E+01-1.07541E+02-3.17500E+00
 -1      5504 6.20889E+01-1.07541E+02 0.00000E+00
 -1      5505 6.20889E+01-1.07541E+02 3.17500E+00
 -1      5506 6.20889E+01-1.07541E+02 6.35000E+00
 -1      5507 7.55946E+01-9.85169E+01-6.35000E+00
 -1      5508 7.55946E+01-9.85169E+01-3.17500E+00
 -1      5509 7.55946E+01-9.85169E+01 0.00000E+00
 -1      5510 7.55946E+01-9.85169E+01 3.17500E+00
 -1      5511 7.55946E+01-9.85169E+01 6.35000E+00
 -1      5512 8.78069E+01-8.78069E+01-6.35000E+00
 -1      5513 8.78069E+01-8.78069E+01-3.17500E+00
 -1      5514 8.78069E+01-8.78069E+01 0.00000E+00
 -1      5515 8.78069E+01-8.78069E+01 3.17500E+00
 -1      5516 8.78069E+01-8.78069E+01 6.35000E+00
 -1      5517 9.85169E+01-7.55946E+01-6.35000E+00
 -1      5518 9.85169E+01-7.55946E+01-3.17500E+00
 -1      5519 9.85169E+01-7.55946E+01 0.00000E+00
 -1      5520 9.85169E+01-7.55946E+01 3.17500E+00
 -1      5521 9.85169E+01-7.55946E+01 6.35000E+00
 -1      5522 1.07541E+02-6.20889E+01-6.35000E+00
 -1      5523 1.07541E+02-6.20889E+01-3.17500E+00
 -1      5524 1.07541E+02-6.20889E+01 0.00000E+00
 -1      5525 1.07541E+02-6.20889E+01 3.17500E+00
 -1      5526 1.07541E+02-6.20889E+01 6.35000E+00
 -1      5527 1.14725E+02-4.75208E+01-6.35000E+00
 -1      5528 1.14725E+02-4.75208E+01-3.17500E+00
 -1      5529 1.14725E+02-4.75208E+01 0.00000E+00
 -1      5530 1.14725E+02-4.75208E+01 3.17500E+00
 -1      5531 1.14725E+02-4.75208E+01 6.35000E+00
 -1      5532 1.19947E+02-3.21396E+01-6.35000E+00
 -1      5533 1.19947E+02-3.21396E+01-3.17500E+00
 -1      5534 1.19947E+02-3.21396E+01 0.00000E+00
 -1      5535 1.19947E+02-3.21396E+01 3.17500E+00
 -1      5536 1.19947E+02-3.21396E+01 6.35000E+00
 -1      5537 1.23115E+02-1.62085E+01-6.35000E+00
 -1      5538 1.23115E+02-1.62085E+01-3.17500E+00
 -1      5539 1.23115E+02-1.62085E+01 0.00000E+00
 -1      5540 1.23115E+02-1.62085E+01 3.17500E+00
 -1      5541 1.23115E+02-1.62085E+01 6.35000E+00
 -1      5542 1.24178E+02 5.72253E-07-6.35000E+00
 -1      5543 1.24178E+02 5.72253E-07-3.17500E+00
 -1      5544 1.24178E+02 5.72253E-07 0.00000E+00
 -1      5545 1.24178E+02 5.72253E-07 3.17500E+00
 -1      5546 1.24178E+02 5.72253E-07 6.35000E+00
 -1      5547 1.23115E+02 1.62085E+01-6.35000E+00
 -1      5548 1.23115E+02 1.62085E+01-3.17500E+00
 -1      5549 1.23115E+02 1.62085E+01 0.00000E+00
 -1      5550 1.23115E+02 1.62085E+01 3.17500E+00
 -1      5551 1.23115E+02 1.62085E+01 6.35000E+00
 -1      5552 1.19947E+02 3.21396E+01-6.35000E+00
 -1      5553 1.19947E+02 3.21396E+01-3.17500E+00
 -1      5554 1.19947E+02 3.21396E+01 0.00000E+00
 -1      5555 1.19947E+02 3.21396E+01 3.17500E+00
 -1      5556 1.19947E+02 3.21396E+01 6.35000E+00
 -1      5557 1.14725E+02 4.75208E+01-6.35000E+00
 -1      5558 1.14725E+02 4.75208E+01-3.17500E+00
 -1      5559 1.14725E+02 4.75208E+01 0.00000E+00
 -1      5560 1.14725E+02 4.75208E+01 3.17500E+00
 -1      5561 1.14725E+02 4.75208E+01 6.35000E+00
 -1      5562 1.07541E+02 6.20889E+01-6.35000E+00
 -1      5563 1.07541E+02 6.20889E+01-3.17500E+00
 -1      5564 1.07541E+02 6.20889E+01 0.00000E+00
 -1      5565 1.07541E+02 6.20889E+01 3.17500E+00
 -1      5566 1.07541E+02 6.20889E+01 6.35000E+00
 -1      5567 9.85169E+01 7.55946E+01-6.35000E+00
 -1      5568 9.85169E+01 7.55946E+01-3.17500E+00
 -1      5569 9.85169E+01 7.55946E+01 0.00000E+00
 -1      5570 9.85169E+01 7.55946E+01 3.17500E+00
 -1      5571 9.85169E+01 7.55946E+01 6.35000E+00
 -1      5572 8.78069E+01 8.78069E+01-6.35000E+00
 -1      5573 8.78069E+01 8.78069E+01-3.17500E+00
 -1      5574 8.78069E+01 8.78069E+01 0.00000E+00
 -1      5575 8.78069E+01 8.78069E+01 3.17500E+00
 -1      5576 8.78069E+01 8.78069E+01 6.35000E+00
 -1      5577 7.55946E+01 9.85169E+01-6.35000E+00
 -1      5578 7.55946E+01 9.85169E+01-3.17500E+00
 -1      5579 7.55946E+01 9.85169E+01 0.00000E+00
 -1      5580 7.55946E+01 9.85169E+01 3.17500E+00
 -1      5581 7.55946E+01 9.85169E+01 6.35000E+00
 -1      5582 6.20889E+01 1.07541E+02-6.35000E+00
 -1      5583 6.20889E+01 1.07541E+02-3.17500E+00
 -1      5584 6.20889E+01 1.07541E+02 0.00000E+00
 -1      5585 6.20889E+01 1.07541E+02 3.17500E+00
 -1      5586 6.20889E+01 1.07541E+02 6.35000E+00
 -1      5587 4.75208E+01 1.14725E+02-6.35000E+00
 -1      5588 4.75208E+01 1.14725E+02-3.17500E+00
 -1      5589 4.75208E+01 1.14725E+02 0.00000E+00
 -1      5590 4.75208E+01 1.14725E+02 3.17500E+00
 -1      5591 4.75208E+01 1.14725E+02 6.35000E+00
 -1      5592 3.21396E+01 1.19947E+02-6.35000E+00
 -1      5593 3.21396E+01 1.19947E+02-3.17500E+00
 -1      5594 3.21396E+01 1.19947E+02 0.00000E+00
 -1      5595 3.21396E+01 1.19947E+02 3.17500E+00
 -1      5596 3.21396E+01 1.19947E+02 6.35000E+00
 -1      5597 1.62085E+01 1.23115E+02-6.35000E+00
 -1      5598 1.62085E+01 1.23115E+02-3.17500E+00
 -1      5599 1.62085E+01 1.23115E+02 0.00000E+00
 -1      5600 1.62085E+01 1.23115E+02 3.17500E+00
 -1      5601 1.62085E+01 1.23115E+02 6.35000E+00
 -1      5602 1.69452E+01-1.28712E+02-6.35000E+00
 -1      5603 1.69452E+01-1.28712E+02-3.17500E+00
 -1      5604 1.69452E+01-1.28712E+02 0.00000E+00
 -1      5605 1.69452E+01-1.28712E+02 3.17500E+00
 -1      5606 1.69452E+01-1.28712E+02 6.35000E+00
 -1      5607 3.36005E+01-1.25399E+02-6.35000E+00
 -1      5608 3.36005E+01-1.25399E+02-3.17500E+00
 -1      5609 3.36005E+01-1.25399E+02 0.00000E+00
 -1      5610 3.36005E+01-1.25399E+02 3.17500E+00
 -1      5611 3.36005E+01-1.25399E+02 6.35000E+00
 -1      5612 4.96808E+01-1.19940E+02-6.35000E+00
 -1      5613 4.96808E+01-1.19940E+02-3.17500E+00
 -1      5614 4.96808E+01-1.19940E+02 0.00000E+00
 -1      5615 4.96808E+01-1.19940E+02 3.17500E+00
 -1      5616 4.96808E+01-1.19940E+02 6.35000E+00
 -1      5617 6.49111E+01-1.12429E+02-6.35000E+00
 -1      5618 6.49111E+01-1.12429E+02-3.17500E+00
 -1      5619 6.49111E+01-1.12429E+02 0.00000E+00
 -1      5620 6.49111E+01-1.12429E+02 3.17500E+00
 -1      5621 6.49111E+01-1.12429E+02 6.35000E+00
 -1      5622 7.90308E+01-1.02995E+02-6.35000E+00
 -1      5623 7.90308E+01-1.02995E+02-3.17500E+00
 -1      5624 7.90308E+01-1.02995E+02 0.00000E+00
 -1      5625 7.90308E+01-1.02995E+02 3.17500E+00
 -1      5626 7.90308E+01-1.02995E+02 6.35000E+00
 -1      5627 9.17982E+01-9.17982E+01-6.35000E+00
 -1      5628 9.17982E+01-9.17982E+01-3.17500E+00
 -1      5629 9.17982E+01-9.17982E+01 0.00000E+00
 -1      5630 9.17982E+01-9.17982E+01 3.17500E+00
 -1      5631 9.17982E+01-9.17982E+01 6.35000E+00
 -1      5632 1.02995E+02-7.90308E+01-6.35000E+00
 -1      5633 1.02995E+02-7.90308E+01-3.17500E+00
 -1      5634 1.02995E+02-7.90308E+01 0.00000E+00
 -1      5635 1.02995E+02-7.90308E+01 3.17500E+00
 -1      5636 1.02995E+02-7.90308E+01 6.35000E+00
 -1      5637 1.12429E+02-6.49111E+01-6.35000E+00
 -1      5638 1.12429E+02-6.49111E+01-3.17500E+00
 -1      5639 1.12429E+02-6.49111E+01 0.00000E+00
 -1      5640 1.12429E+02-6.49111E+01 3.17500E+00
 -1      5641 1.12429E+02-6.49111E+01 6.35000E+00
 -1      5642 1.19940E+02-4.96808E+01-6.35000E+00
 -1      5643 1.19940E+02-4.96808E+01-3.17500E+00
 -1      5644 1.19940E+02-4.96808E+01 0.00000E+00
 -1      5645 1.19940E+02-4.96808E+01 3.17500E+00
 -1      5646 1.19940E+02-4.96808E+01 6.35000E+00
 -1      5647 1.25399E+02-3.36005E+01-6.35000E+00
 -1      5648 1.25399E+02-3.36005E+01-3.17500E+00
 -1      5649 1.25399E+02-3.36005E+01 0.00000E+00
 -1      5650 1.25399E+02-3.36005E+01 3.17500E+00
 -1      5651 1.25399E+02-3.36005E+01 6.35000E+00
 -1      5652 1.28712E+02-1.69452E+01-6.35000E+00
 -1      5653 1.28712E+02-1.69452E+01-3.17500E+00
 -1      5654 1.28712E+02-1.69452E+01 0.00000E+00
 -1      5655 1.28712E+02-1.69452E+01 3.17500E+00
 -1      5656 1.28712E+02-1.69452E+01 6.35000E+00
 -1      5657 1.29822E+02 5.97826E-07-6.35000E+00
 -1      5658 1.29822E+02 5.97826E-07-3.17500E+00
 -1      5659 1.29822E+02 5.97826E-07 0.00000E+00
 -1      5660 1.29822E+02 5.97826E-07 3.17500E+00
 -1      5661 1.29822E+02 5.97826E-07 6.35000E+00
 -1      5662 1.28712E+02 1.69452E+01-6.35000E+00
 -1      5663 1.28712E+02 1.69452E+01-3.17500E+00
 -1      5664 1.28712E+02 1.69452E+01 0.00000E+00
 -1      5665 1.28712E+02 1.69452E+01 3.17500E+00
 -1      5666 1.28712E+02 1.69452E+01 6.35000E+00
 -1      5667 1.25399E+02 3.36005E+01-6.35000E+00
 -1      5668 1.25399E+02 3.36005E+01-3.17500E+00
 -1      5669 1.25399E+02 3.36005E+01 0.00000E+00
 -1      5670 1.25399E+02 3.36005E+01 3.17500E+00
 -1      5671 1.25399E+02 3.36005E+01 6.35000E+00
 -1      5672 1.19940E+02 4.96808E+01-6.35000E+00
 -1      5673 1.19940E+02 4.96808E+01-3.17500E+00
 -1      5674 1.19940E+02 4.96808E+01 0.00000E+00
 -1      5675 1.19940E+02 4.96808E+01 3.17500E+00
 -1      5676 1.19940E+02 4.96808E+01 6.35000E+00
 -1      5677 1.12429E+02 6.49111E+01-6.35000E+00
 -1      5678 1.12429E+02 6.49111E+01-3.17500E+00
 -1      5679 1.12429E+02 6.49111E+01 0.00000E+00
 -1      5680 1.12429E+02 6.49111E+01 3.17500E+00
 -1      5681 1.12429E+02 6.49111E+01 6.35000E+00
 -1      5682 1.02995E+02 7.90308E+01-6.35000E+00
 -1      5683 1.02995E+02 7.90308E+01-3.17500E+00
 -1      5684 1.02995E+02 7.90308E+01 0.00000E+00
 -1      5685 1.02995E+02 7.90308E+01 3.17500E+00
 -1      5686 1.02995E+02 7.90308E+01 6.35000E+00
 -1      5687 9.17982E+01 9.17982E+01-6.35000E+00
 -1      5688 9.17982E+01 9.17982E+01-3.17500E+00
 -1      5689 9.17982E+01 9.17982E+01 0.00000E+00
 -1      5690 9.17982E+01 9.17982E+01 3.17500E+00
 -1      5691 9.17982E+01 9.17982E+01 6.35000E+00
 -1      5692 7.90308E+01 1.02995E+02-6.35000E+00
 -1      5693 7.90308E+01 1.02995E+02-3.17500E+00
 -1      5694 7.90308E+01 1.02995E+02 0.00000E+00
 -1      5695 7.90308E+01 1.02995E+02 3.17500E+00
 -1      5696 7.90308E+01 1.02995E+02 6.35000E+00
 -1      5697 6.49111E+01 1.12429E+02-6.35000E+00
 -1      5698 6.49111E+01 1.12429E+02-3.17500E+00
 -1      5699 6.49111E+01 1.12429E+02 0.00000E+00
 -1      5700 6.49111E+01 1.12429E+02 3.17500E+00
 -1      5701 6.49111E+01 1.12429E+02 6.35000E+00
 -1      5702 4.96808E+01 1.19940E+02-6.35000E+00
 -1      5703 4.96808E+01 1.19940E+02-3.17500E+00
 -1      5704 4.96808E+01 1.19940E+02 0.00000E+00
 -1      5705 4.96808E+01 1.19940E+02 3.17500E+00
 -1      5706 4.96808E+01 1.19940E+02 6.35000E+00
 -1      5707 3.36005E+01 1.25399E+02-6.35000E+00
 -1      5708 3.36005E+01 1.25399E+02-3.17500E+00
 -1      5709 3.36005E+01 1.25399E+02 0.00000E+00
 -1      5710 3.36005E+01 1.25399E+02 3.17500E+00
 -1      5711 3.36005E+01 1.25399E+02 6.35000E+00
 -1      5712 1.69452E+01 1.28712E+02-6.35000E+00
 -1      5713 1.69452E+01 1.28712E+02-3.17500E+00
 -1      5714 1.69452E+01 1.28712E+02 0.00000E+00
 -1      5715 1.69452E+01 1.28712E+02 3.17500E+00
 -1      5716 1.69452E+01 1.28712E+02 6.35000E+00
 -1      5717 1.76819E+01-1.34308E+02-6.35000E+00
 -1      5718 1.76819E+01-1.34308E+02-3.17500E+00
 -1      5719 1.76819E+01-1.34308E+02 0.00000E+00
 -1      5720 1.76819E+01-1.34308E+02 3.17500E+00
 -1      5721 1.76819E+01-1.34308E+02 6.35000E+00
 -1      5722 3.50614E+01-1.30851E+02-6.35000E+00
 -1      5723 3.50614E+01-1.30851E+02-3.17500E+00
 -1      5724 3.50614E+01-1.30851E+02 0.00000E+00
 -1      5725 3.50614E+01-1.30851E+02 3.17500E+00
 -1      5726 3.50614E+01-1.30851E+02 6.35000E+00
 -1      5727 5.18409E+01-1.25155E+02-6.35000E+00
 -1      5728 5.18409E+01-1.25155E+02-3.17500E+00
 -1      5729 5.18409E+01-1.25155E+02 0.00000E+00
 -1      5730 5.18409E+01-1.25155E+02 3.17500E+00
 -1      5731 5.18409E+01-1.25155E+02 6.35000E+00
 -1      5732 6.77333E+01-1.17318E+02-6.35000E+00
 -1      5733 6.77333E+01-1.17318E+02-3.17500E+00
 -1      5734 6.77333E+01-1.17318E+02 0.00000E+00
 -1      5735 6.77333E+01-1.17318E+02 3.17500E+00
 -1      5736 6.77333E+01-1.17318E+02 6.35000E+00
 -1      5737 8.24669E+01-1.07473E+02-6.35000E+00
 -1      5738 8.24669E+01-1.07473E+02-3.17500E+00
 -1      5739 8.24669E+01-1.07473E+02 0.00000E+00
 -1      5740 8.24669E+01-1.07473E+02 3.17500E+00
 -1      5741 8.24669E+01-1.07473E+02 6.35000E+00
 -1      5742 9.57894E+01-9.57894E+01-6.35000E+00
 -1      5743 9.57894E+01-9.57894E+01-3.17500E+00
 -1      5744 9.57894E+01-9.57894E+01 0.00000E+00
 -1      5745 9.57894E+01-9.57894E+01 3.17500E+00
 -1      5746 9.57894E+01-9.57894E+01 6.35000E+00
 -1      5747 1.07473E+02-8.24669E+01-6.35000E+00
 -1      5748 1.07473E+02-8.24669E+01-3.17500E+00
 -1      5749 1.07473E+02-8.24669E+01 0.00000E+00
 -1      5750 1.07473E+02-8.24669E+01 3.17500E+00
 -1      5751 1.07473E+02-8.24669E+01 6.35000E+00
 -1      5752 1.17318E+02-6.77333E+01-6.35000E+00
 -1      5753 1.17318E+02-6.77333E+01-3.17500E+00
 -1      5754 1.17318E+02-6.77333E+01 0.00000E+00
 -1      5755 1.17318E+02-6.77333E+01 3.17500E+00
 -1      5756 1.17318E+02-6.77333E+01 6.35000E+00
 -1      5757 1.25155E+02-5.18408E+01-6.35000E+00
 -1      5758 1.25155E+02-5.18408E+01-3.17500E+00
 -1      5759 1.25155E+02-5.18408E+01 0.00000E+00
 -1      5760 1.25155E+02-5.18408E+01 3.17500E+00
 -1      5761 1.25155E+02-5.18408E+01 6.35000E+00
 -1      5762 1.30851E+02-3.50614E+01-6.35000E+00
 -1      5763 1.30851E+02-3.50614E+01-3.17500E+00
 -1      5764 1.30851E+02-3.50614E+01 0.00000E+00
 -1      5765 1.30851E+02-3.50614E+01 3.17500E+00
 -1      5766 1.30851E+02-3.50614E+01 6.35000E+00
 -1      5767 1.34308E+02-1.76819E+01-6.35000E+00
 -1      5768 1.34308E+02-1.76819E+01-3.17500E+00
 -1      5769 1.34308E+02-1.76819E+01 0.00000E+00
 -1      5770 1.34308E+02-1.76819E+01 3.17500E+00
 -1      5771 1.34308E+02-1.76819E+01 6.35000E+00
 -1      5772 1.35467E+02 6.23397E-07-6.35000E+00
 -1      5773 1.35467E+02 6.23397E-07-3.17500E+00
 -1      5774 1.35467E+02 6.23397E-07 0.00000E+00
 -1      5775 1.35467E+02 6.23397E-07 3.17500E+00
 -1      5776 1.35467E+02 6.23397E-07 6.35000E+00
 -1      5777 1.34308E+02 1.76819E+01-6.35000E+00
 -1      5778 1.34308E+02 1.76819E+01-3.17500E+00
 -1      5779 1.34308E+02 1.76819E+01 0.00000E+00
 -1      5780 1.34308E+02 1.76819E+01 3.17500E+00
 -1      5781 1.34308E+02 1.76819E+01 6.35000E+00
 -1      5782 1.30851E+02 3.50614E+01-6.35000E+00
 -1      5783 1.30851E+02 3.50614E+01-3.17500E+00
 -1      5784 1.30851E+02 3.50614E+01 0.00000E+00
 -1      5785 1.30851E+02 3.50614E+01 3.17500E+00
 -1      5786 1.30851E+02 3.50614E+01 6.35000E+00
 -1      5787 1.25155E+02 5.18409E+01-6.35000E+00
 -1      5788 1.25155E+02 5.18409E+01-3.17500E+00
 -1      5789 1.25155E+02 5.18409E+01 0.00000E+00
 -1      5790 1.25155E+02 5.18409E+01 3.17500E+00
 -1      5791 1.25155E+02 5.18409E+01 6.35000E+00
 -1      5792 1.17318E+02 6.77333E+01-6.35000E+00
 -1      5793 1.17318E+02 6.77333E+01-3.17500E+00
 -1      5794 1.17318E+02 6.77333E+01 0.00000E+00
 -1      5795 1.17318E+02 6.77333E+01 3.17500E+00
 -1      5796 1.17318E+02 6.77333E+01 6.35000E+00
 -1      5797 1.07473E+02 8.24669E+01-6.35000E+00
 -1      5798 1.07473E+02 8.24669E+01-3.17500E+00
 -1      5799 1.07473E+02 8.24669E+01 0.00000E+00
 -1      5800 1.07473E+02 8.24669E+01 3.17500E+00
 -1      5801 1.07473E+02 8.24669E+01 6.35000E+00
 -1      5802 9.57894E+01 9.57894E+01-6.35000E+00
 -1      5803 9.57894E+01 9.57894E+01-3.17500E+00
 -1      5804 9.57894E+01 9.57894E+01 0.00000E+00
 -1      5805 9.57894E+01 9.57894E+01 3.17500E+00
 -1      5806 9.57894E+01 9.57894E+01 6.35000E+00
 -1      5807 8.24669E+01 1.07473E+02-6.35000E+00
 -1      5808 8.24669E+01 1.07473E+02-3.17500E+00
 -1      5809 8.24669E+01 1.07473E+02 0.00000E+00
 -1      5810 8.24669E+01 1.07473E+02 3.17500E+00
 -1      5811 8.24669E+01 1.07473E+02 6.35000E+00
 -1      5812 6.77333E+01 1.17318E+02-6.35000E+00
 -1      5813 6.77333E+01 1.17318E+02-3.17500E+00
 -1      5814 6.77333E+01 1.17318E+02 0.00000E+00
 -1      5815 6.77333E+01 1.17318E+02 3.17500E+00
 -1      5816 6.77333E+01 1.17318E+02 6.35000E+00
 -1      5817 5.18408E+01 1.25155E+02-6.35000E+00
 -1      5818 5.18408E+01 1.25155E+02-3.17500E+00
 -1      5819 5.18408E+01 1.25155E+02 0.00000E+00
 -1      5820 5.18408E+01 1.25155E+02 3.17500E+00
 -1      5821 5.18408E+01 1.25155E+02 6.35000E+00
 -1      5822 3.50614E+01 1.30851E+02-6.35000E+00
 -1      5823 3.50614E+01 1.30851E+02-3.17500E+00
 -1      5824 3.50614E+01 1.30851E+02 0.00000E+00
 -1      5825 3.50614E+01 1.30851E+02 3.17500E+00
 -1      5826 3.50614E+01 1.30851E+02 6.35000E+00
 -1      5827 1.76819E+01 1.34308E+02-6.35000E+00
 -1      5828 1.76819E+01 1.34308E+02-3.17500E+00
 -1      5829 1.76819E+01 1.34308E+02 0.00000E+00
 -1      5830 1.76819E+01 1.34308E+02 3.17500E+00
 -1      5831 1.76819E+01 1.34308E+02 6.35000E+00
 -1      5832 1.84187E+01-1.39904E+02-6.35000E+00
 -1      5833 1.84187E+01-1.39904E+02-3.17500E+00
 -1      5834 1.84187E+01-1.39904E+02 0.00000E+00
 -1      5835 1.84187E+01-1.39904E+02 3.17500E+00
 -1      5836 1.84187E+01-1.39904E+02 6.35000E+00
 -1      5837 3.65222E+01-1.36303E+02-6.35000E+00
 -1      5838 3.65222E+01-1.36303E+02-3.17500E+00
 -1      5839 3.65222E+01-1.36303E+02 0.00000E+00
 -1      5840 3.65222E+01-1.36303E+02 3.17500E+00
 -1      5841 3.65222E+01-1.36303E+02 6.35000E+00
 -1      5842 5.40009E+01-1.30370E+02-6.35000E+00
 -1      5843 5.40009E+01-1.30370E+02-3.17500E+00
 -1      5844 5.40009E+01-1.30370E+02 0.00000E+00
 -1      5845 5.40009E+01-1.30370E+02 3.17500E+00
 -1      5846 5.40009E+01-1.30370E+02 6.35000E+00
 -1      5847 7.05556E+01-1.22206E+02-6.35000E+00
 -1      5848 7.05556E+01-1.22206E+02-3.17500E+00
 -1      5849 7.05556E+01-1.22206E+02 0.00000E+00
 -1      5850 7.05556E+01-1.22206E+02 3.17500E+00
 -1      5851 7.05556E+01-1.22206E+02 6.35000E+00
 -1      5852 8.59030E+01-1.11951E+02-6.35000E+00
 -1      5853 8.59030E+01-1.11951E+02-3.17500E+00
 -1      5854 8.59030E+01-1.11951E+02 0.00000E+00
 -1      5855 8.59030E+01-1.11951E+02 3.17500E+00
 -1      5856 8.59030E+01-1.11951E+02 6.35000E+00
 -1      5857 9.97806E+01-9.97806E+01-6.35000E+00
 -1      5858 9.97806E+01-9.97806E+01-3.17500E+00
 -1      5859 9.97806E+01-9.97806E+01 0.00000E+00
 -1      5860 9.97806E+01-9.97806E+01 3.17500E+00
 -1      5861 9.97806E+01-9.97806E+01 6.35000E+00
 -1      5862 1.11951E+02-8.59030E+01-6.35000E+00
 -1      5863 1.11951E+02-8.59030E+01-3.17500E+00
 -1      5864 1.11951E+02-8.59030E+01 0.00000E+00
 -1      5865 1.11951E+02-8.59030E+01 3.17500E+00
 -1      5866 1.11951E+02-8.59030E+01 6.35000E+00
 -1      5867 1.22206E+02-7.05556E+01-6.35000E+00
 -1      5868 1.22206E+02-7.05556E+01-3.17500E+00
 -1      5869 1.22206E+02-7.05556E+01 0.00000E+00
 -1      5870 1.22206E+02-7.05556E+01 3.17500E+00
 -1      5871 1.22206E+02-7.05556E+01 6.35000E+00
 -1      5872 1.30370E+02-5.40009E+01-6.35000E+00
 -1      5873 1.30370E+02-5.40009E+01-3.17500E+00
 -1      5874 1.30370E+02-5.40009E+01 0.00000E+00
 -1      5875 1.30370E+02-5.40009E+01 3.17500E+00
 -1      5876 1.30370E+02-5.40009E+01 6.35000E+00
 -1      5877 1.36303E+02-3.65222E+01-6.35000E+00
 -1      5878 1.36303E+02-3.65222E+01-3.17500E+00
 -1      5879 1.36303E+02-3.65222E+01 0.00000E+00
 -1      5880 1.36303E+02-3.65222E+01 3.17500E+00
 -1      5881 1.36303E+02-3.65222E+01 6.35000E+00
 -1      5882 1.39904E+02-1.84187E+01-6.35000E+00
 -1      5883 1.39904E+02-1.84187E+01-3.17500E+00
 -1      5884 1.39904E+02-1.84187E+01 0.00000E+00
 -1      5885 1.39904E+02-1.84187E+01 3.17500E+00
 -1      5886 1.39904E+02-1.84187E+01 6.35000E+00
 -1      5887 1.41111E+02 6.48959E-07-6.35000E+00
 -1      5888 1.41111E+02 6.48959E-07-3.17500E+00
 -1      5889 1.41111E+02 6.48959E-07 0.00000E+00
 -1      5890 1.41111E+02 6.48959E-07 3.17500E+00
 -1      5891 1.41111E+02 6.48959E-07 6.35000E+00
 -1      5892 1.39904E+02 1.84187E+01-6.35000E+00
 -1      5893 1.39904E+02 1.84187E+01-3.17500E+00
 -1      5894 1.39904E+02 1.84187E+01 0.00000E+00
 -1      5895 1.39904E+02 1.84187E+01 3.17500E+00
 -1      5896 1.39904E+02 1.84187E+01 6.35000E+00
 -1      5897 1.36303E+02 3.65222E+01-6.35000E+00
 -1      5898 1.36303E+02 3.65222E+01-3.17500E+00
 -1      5899 1.36303E+02 3.65222E+01 0.00000E+00
 -1      5900 1.36303E+02 3.65222E+01 3.17500E+00
 -1      5901 1.36303E+02 3.65222E+01 6.35000E+00
 -1      5902 1.30370E+02 5.40009E+01-6.35000E+00
 -1      5903 1.30370E+02 5.40009E+01-3.17500E+00
 -1      5904 1.30370E+02 5.40009E+01 0.00000E+00
 -1      5905 1.30370E+02 5.40009E+01 3.17500E+00
 -1      5906 1.30370E+02 5.40009E+01 6.35000E+00
 -1      5907 1.22206E+02 7.05556E+01-6.35000E+00
 -1      5908 1.22206E+02 7.05556E+01-3.17500E+00
 -1      5909 1.22206E+02 7.05556E+01 0.00000E+00
 -1      5910 1.22206E+02 7.05556E+01 3.17500E+00
 -1      5911 1.22206E+02 7.05556E+01 6.35000E+00
 -1      5912 1.11951E+02 8.59030E+01-6.35000E+00
 -1      5913 1.11951E+02 8.59030E+01-3.17500E+00
 -1      5914 1.11951E+02 8.59030E+01 0.00000E+00
 -1      5915 1.11951E+02 8.59030E+01 3.17500E+00
 -1      5916 1.11951E+02 8.59030E+01 6.35000E+00
 -1      5917 9.97806E+01 9.97806E+01-6.35000E+00
 -1      5918 9.97806E+01 9.97806E+01-3.17500E+00
 -1      5919 9.97806E+01 9.97806E+01 0.00000E+00
 -1      5920 9.97806E+01 9.97806E+01 3.17500E+00
 -1      5921 9.97806E+01 9.97806E+01 6.35000E+00
 -1      5922 8.59030E+01 1.11951E+02-6.35000E+00
 -1      5923 8.59030E+01 1.11951E+02-3.17500E+00
 -1      5924 8.59030E+01 1.11951E+02 0.00000E+00
 -1      5925 8.59030E+01 1.11951E+02 3.17500E+00
 -1      5926 8.59030E+01 1.11951E+02 6.35000E+00
 -1      5927 7.05556E+01 1.22206E+02-6.35000E+00
 -1      5928 7.05556E+01 1.22206E+02-3.17500E+00
 -1      5929 7.05556E+01 1.22206E+02 0.00000E+00
 -1      5930 7.05556E+01 1.22206E+02 3.17500E+00
 -1      5931 7.05556E+01 1.22206E+02 6.35000E+00
 -1      5932 5.40009E+01 1.30370E+02-6.35000E+00
 -1      5933 5.40009E+01 1.30370E+02-3.17500E+00
 -1      5934 5.40009E+01 1.30370E+02 0.00000E+00
 -1      5935 5.40009E+01 1.30370E+02 3.17500E+00
 -1      5936 5.40009E+01 1.30370E+02 6.35000E+00
 -1      5937 3.65222E+01 1.36303E+02-6.35000E+00
 -1      5938 3.65222E+01 1.36303E+02-3.17500E+00
 -1      5939 3.65222E+01 1.36303E+02 0.00000E+00
 -1      5940 3.65222E+01 1.36303E+02 3.17500E+00
 -1      5941 3.65222E+01 1.36303E+02 6.35000E+00
 -1      5942 1.84187E+01 1.39904E+02-6.35000E+00
 -1      5943 1.84187E+01 1.39904E+02-3.17500E+00
 -1      5944 1.84187E+01 1.39904E+02 0.00000E+00
 -1      5945 1.84187E+01 1.39904E+02 3.17500E+00
 -1      5946 1.84187E+01 1.39904E+02 6.35000E+00
 -1      5947 1.91554E+01-1.45500E+02-6.35000E+00
 -1      5948 1.91554E+01-1.45500E+02-3.17500E+00
 -1      5949 1.91554E+01-1.45500E+02 0.00000E+00
 -1      5950 1.91554E+01-1.45500E+02 3.17500E+00
 -1      5951 1.91554E+01-1.45500E+02 6.35000E+00
 -1      5952 3.79831E+01-1.41755E+02-6.35000E+00
 -1      5953 3.79831E+01-1.41755E+02-3.17500E+00
 -1      5954 3.79831E+01-1.41755E+02 0.00000E+00
 -1      5955 3.79831E+01-1.41755E+02 3.17500E+00
 -1      5956 3.79831E+01-1.41755E+02 6.35000E+00
 -1      5957 5.61609E+01-1.35584E+02-6.35000E+00
 -1      5958 5.61609E+01-1.35584E+02-3.17500E+00
 -1      5959 5.61609E+01-1.35584E+02 0.00000E+00
 -1      5960 5.61609E+01-1.35584E+02 3.17500E+00
 -1      5961 5.61609E+01-1.35584E+02 6.35000E+00
 -1      5962 7.33778E+01-1.27094E+02-6.35000E+00
 -1      5963 7.33778E+01-1.27094E+02-3.17500E+00
 -1      5964 7.33778E+01-1.27094E+02 0.00000E+00
 -1      5965 7.33778E+01-1.27094E+02 3.17500E+00
 -1      5966 7.33778E+01-1.27094E+02 6.35000E+00
 -1      5967 8.93391E+01-1.16429E+02-6.35000E+00
 -1      5968 8.93391E+01-1.16429E+02-3.17500E+00
 -1      5969 8.93391E+01-1.16429E+02 0.00000E+00
 -1      5970 8.93391E+01-1.16429E+02 3.17500E+00
 -1      5971 8.93391E+01-1.16429E+02 6.35000E+00
 -1      5972 1.03772E+02-1.03772E+02-6.35000E+00
 -1      5973 1.03772E+02-1.03772E+02-3.17500E+00
 -1      5974 1.03772E+02-1.03772E+02 0.00000E+00
 -1      5975 1.03772E+02-1.03772E+02 3.17500E+00
 -1      5976 1.03772E+02-1.03772E+02 6.35000E+00
 -1      5977 1.16429E+02-8.93391E+01-6.35000E+00
 -1      5978 1.16429E+02-8.93391E+01-3.17500E+00
 -1      5979 1.16429E+02-8.93391E+01 0.00000E+00
 -1      5980 1.16429E+02-8.93391E+01 3.17500E+00
 -1      5981 1.16429E+02-8.93391E+01 6.35000E+00
 -1      5982 1.27094E+02-7.33778E+01-6.35000E+00
 -1      5983 1.27094E+02-7.33778E+01-3.17500E+00
 -1      5984 1.27094E+02-7.33778E+01 0.00000E+00
 -1      5985 1.27094E+02-7.33778E+01 3.17500E+00
 -1      5986 1.27094E+02-7.33778E+01 6.35000E+00
 -1      5987 1.35584E+02-5.61609E+01-6.35000E+00
 -1      5988 1.35584E+02-5.61609E+01-3.17500E+00
 -1      5989 1.35584E+02-5.61609E+01 0.00000E+00
 -1      5990 1.35584E+02-5.61609E+01 3.17500E+00
 -1      5991 1.35584E+02-5.61609E+01 6.35000E+00
 -1      5992 1.41755E+02-3.79831E+01-6.35000E+00
 -1      5993 1.41755E+02-3.79831E+01-3.17500E+00
 -1      5994 1.41755E+02-3.79831E+01 0.00000E+00
 -1      5995 1.41755E+02-3.79831E+01 3.17500E+00
 -1      5996 1.41755E+02-3.79831E+01 6.35000E+00
 -1      5997 1.45500E+02-1.91554E+01-6.35000E+00
 -1      5998 1.45500E+02-1.91554E+01-3.17500E+00
 -1      5999 1.45500E+02-1.91554E+01 0.00000E+00
 -1      6000 1.45500E+02-1.91554E+01 3.17500E+00
 -1      6001 1.45500E+02-1.91554E+01 6.35000E+00
 -1      6002 1.46756E+02 6.74529E-07-6.35000E+00
 -1      6003 1.46756E+02 6.74529E-07-3.17500E+00
 -1      6004 1.46756E+02 6.74529E-07 0.00000E+00
 -1      6005 1.46756E+02 6.74529E-07 3.17500E+00
 -1      6006 1.46756E+02 6.74529E-07 6.35000E+00
 -1      6007 1.45500E+02 1.91554E+01-6.35000E+00
 -1      6008 1.45500E+02 1.91554E+01-3.17500E+00
 -1      6009 1.45500E+02 1.91554E+01 0.00000E+00
 -1      6010 1.45500E+02 1.91554E+01 3.17500E+00
 -1      6011 1.45500E+02 1.91554E+01 6.35000E+00
 -1      6012 1.41755E+02 3.79831E+01-6.35000E+00
 -1      6013 1.41755E+02 3.79831E+01-3.17500E+00
 -1      6014 1.41755E+02 3.79831E+01 0.00000E+00
 -1      6015 1.41755E+02 3.79831E+01 3.17500E+00
 -1      6016 1.41755E+02 3.79831E+01 6.35000E+00
 -1      6017 1.35584E+02 5.61609E+01-6.35000E+00
 -1      6018 1.35584E+02 5.61609E+01-3.17500E+00
 -1      6019 1.35584E+02 5.61609E+01 0.00000E+00
 -1      6020 1.35584E+02 5.61609E+01 3.17500E+00
 -1      6021 1.35584E+02 5.61609E+01 6.35000E+00
 -1      6022 1.27094E+02 7.33778E+01-6.35000E+00
 -1      6023 1.27094E+02 7.33778E+01-3.17500E+00
 -1      6024 1.27094E+02 7.33778E+01 0.00000E+00
 -1      6025 1.27094E+02 7.33778E+01 3.17500E+00
 -1      6026 1.27094E+02 7.33778E+01 6.35000E+00
 -1      6027 1.16429E+02 8.93391E+01-6.35000E+00
 -1      6028 1.16429E+02 8.93391E+01-3.17500E+00
 -1      6029 1.16429E+02 8.93391E+01 0.00000E+00
 -1      6030 1.16429E+02 8.93391E+01 3.17500E+00
 -1      6031 1.16429E+02 8.93391E+01 6.35000E+00
 -1      6032 1.03772E+02 1.03772E+02-6.35000E+00
 -1      6033 1.03772E+02 1.03772E+02-3.17500E+00
 -1      6034 1.03772E+02 1.03772E+02 0.00000E+00
 -1      6035 1.03772E+02 1.03772E+02 3.17500E+00
 -1      6036 1.03772E+02 1.03772E+02 6.35000E+00
 -1      6037 8.93391E+01 1.16429E+02-6.35000E+00
 -1      6038 8.93391E+01 1.16429E+02-3.17500E+00
 -1      6039 8.93391E+01 1.16429E+02 0.00000E+00
 -1      6040 8.93391E+01 1.16429E+02 3.17500E+00
 -1      6041 8.93391E+01 1.16429E+02 6.35000E+00
 -1      6042 7.33778E+01 1.27094E+02-6.35000E+00
 -1      6043 7.33778E+01 1.27094E+02-3.17500E+00
 -1      6044 7.33778E+01 1.27094E+02 0.00000E+00
 -1      6045 7.33778E+01 1.27094E+02 3.17500E+00
 -1      6046 7.33778E+01 1.27094E+02 6.35000E+00
 -1      6047 5.61609E+01 1.35584E+02-6.35000E+00
 -1      6048 5.61609E+01 1.35584E+02-3.17500E+00
 -1      6049 5.61609E+01 1.35584E+02 0.00000E+00
 -1      6050 5.61609E+01 1.35584E+02 3.17500E+00
 -1      6051 5.61609E+01 1.35584E+02 6.35000E+00
 -1      6052 3.79831E+01 1.41755E+02-6.35000E+00
 -1      6053 3.79831E+01 1.41755E+02-3.17500E+00
 -1      6054 3.79831E+01 1.41755E+02 0.00000E+00
 -1      6055 3.79831E+01 1.41755E+02 3.17500E+00
 -1      6056 3.79831E+01 1.41755E+02 6.35000E+00
 -1      6057 1.91554E+01 1.45500E+02-6.35000E+00
 -1      6058 1.91554E+01 1.45500E+02-3.17500E+00
 -1      6059 1.91554E+01 1.45500E+02 0.00000E+00
 -1      6060 1.91554E+01 1.45500E+02 3.17500E+00
 -1      6061 1.91554E+01 1.45500E+02 6.35000E+00
 -1      6062 7.36748E+00-5.59616E+01-7.93750E+00
 -1      6063 3.68374E+00-5.62030E+01-6.35000E+00
 -1      6064 6.99910E+00-5.31635E+01-6.35000E+00
 -1      6065 7.36748E+00-5.59616E+01-4.76250E+00
 -1      6066 3.68374E+00-5.62030E+01-3.17500E+00
 -1      6067 6.99910E+00-5.31635E+01-3.17500E+00
 -1      6068 7.36748E+00-5.59616E+01-1.58750E+00
 -1      6069 3.68374E+00-5.62030E+01 0.00000E+00
 -1      6070 6.99910E+00-5.31635E+01 0.00000E+00
 -1      6071 7.36748E+00-5.59616E+01 1.58750E+00
 -1      6072 3.68374E+00-5.62030E+01 3.17500E+00
 -1      6073 6.99910E+00-5.31635E+01 3.17500E+00
 -1      6074 7.36748E+00-5.59616E+01 4.76250E+00
 -1      6075 3.68374E+00-5.62030E+01 6.35000E+00
 -1      6076 6.99910E+00-5.31635E+01 6.35000E+00
 -1      6077 7.36748E+00-5.59616E+01 7.93750E+00
 -1      6078 1.46089E+01-5.45211E+01-7.93750E+00
 -1      6079 1.09882E+01-5.52414E+01-6.35000E+00
 -1      6080 1.38785E+01-5.17951E+01-6.35000E+00
 -1      6081 1.46089E+01-5.45211E+01-4.76250E+00
 -1      6082 1.09882E+01-5.52414E+01-3.17500E+00
 -1      6083 1.38785E+01-5.17951E+01-3.17500E+00
 -1      6084 1.46089E+01-5.45211E+01-1.58750E+00
 -1      6085 1.09882E+01-5.52414E+01 0.00000E+00
 -1      6086 1.38785E+01-5.17951E+01 0.00000E+00
 -1      6087 1.46089E+01-5.45211E+01 1.58750E+00
 -1      6088 1.09882E+01-5.52414E+01 3.17500E+00
 -1      6089 1.38785E+01-5.17951E+01 3.17500E+00
 -1      6090 1.46089E+01-5.45211E+01 4.76250E+00
 -1      6091 1.09882E+01-5.52414E+01 6.35000E+00
 -1      6092 1.38785E+01-5.17951E+01 6.35000E+00
 -1      6093 1.46089E+01-5.45211E+01 7.93750E+00
 -1      6094 2.16004E+01-5.21479E+01-7.93750E+00
 -1      6095 1.81046E+01-5.33345E+01-6.35000E+00
 -1      6096 2.05203E+01-4.95405E+01-6.35000E+00
 -1      6097 2.16004E+01-5.21479E+01-4.76250E+00
 -1      6098 1.81046E+01-5.33345E+01-3.17500E+00
 -1      6099 2.05203E+01-4.95405E+01-3.17500E+00
 -1      6100 2.16004E+01-5.21479E+01-1.58750E+00
 -1      6101 1.81046E+01-5.33345E+01 0.00000E+00
 -1      6102 2.05203E+01-4.95405E+01 0.00000E+00
 -1      6103 2.16004E+01-5.21479E+01 1.58750E+00
 -1      6104 1.81046E+01-5.33345E+01 3.17500E+00
 -1      6105 2.05203E+01-4.95405E+01 3.17500E+00
 -1      6106 2.16004E+01-5.21479E+01 4.76250E+00
 -1      6107 1.81046E+01-5.33345E+01 6.35000E+00
 -1      6108 2.05203E+01-4.95405E+01 6.35000E+00
 -1      6109 2.16004E+01-5.21479E+01 7.93750E+00
 -1      6110 2.82222E+01-4.88823E+01-7.93750E+00
 -1      6111 2.49113E+01-5.05151E+01-6.35000E+00
 -1      6112 2.68111E+01-4.64382E+01-6.35000E+00
 -1      6113 2.82222E+01-4.88823E+01-4.76250E+00
 -1      6114 2.49113E+01-5.05151E+01-3.17500E+00
 -1      6115 2.68111E+01-4.64382E+01-3.17500E+00
 -1      6116 2.82222E+01-4.88823E+01-1.58750E+00
 -1      6117 2.49113E+01-5.05151E+01 0.00000E+00
 -1      6118 2.68111E+01-4.64382E+01 0.00000E+00
 -1      6119 2.82222E+01-4.88823E+01 1.58750E+00
 -1      6120 2.49113E+01-5.05151E+01 3.17500E+00
 -1      6121 2.68111E+01-4.64382E+01 3.17500E+00
 -1      6122 2.82222E+01-4.88823E+01 4.76250E+00
 -1      6123 2.49113E+01-5.05151E+01 6.35000E+00
 -1      6124 2.68111E+01-4.64382E+01 6.35000E+00
 -1      6125 2.82222E+01-4.88823E+01 7.93750E+00
 -1      6126 3.43612E+01-4.47804E+01-7.93750E+00
 -1      6127 3.12917E+01-4.68314E+01-6.35000E+00
 -1      6128 3.26431E+01-4.25414E+01-6.35000E+00
 -1      6129 3.43612E+01-4.47804E+01-4.76250E+00
 -1      6130 3.12917E+01-4.68314E+01-3.17500E+00
 -1      6131 3.26431E+01-4.25414E+01-3.17500E+00
 -1      6132 3.43612E+01-4.47804E+01-1.58750E+00
 -1      6133 3.12917E+01-4.68314E+01 0.00000E+00
 -1      6134 3.26431E+01-4.25414E+01 0.00000E+00
 -1      6135 3.43612E+01-4.47804E+01 1.58750E+00
 -1      6136 3.12917E+01-4.68314E+01 3.17500E+00
 -1      6137 3.26431E+01-4.25414E+01 3.17500E+00
 -1      6138 3.43612E+01-4.47804E+01 4.76250E+00
 -1      6139 3.12917E+01-4.68314E+01 6.35000E+00
 -1      6140 3.26431E+01-4.25414E+01 6.35000E+00
 -1      6141 3.43612E+01-4.47804E+01 7.93750E+00
 -1      6142 3.99123E+01-3.99123E+01-7.93750E+00
 -1      6143 3.71367E+01-4.23463E+01-6.35000E+00
 -1      6144 3.79166E+01-3.79166E+01-6.35000E+00
 -1      6145 3.99123E+01-3.99123E+01-4.76250E+00
 -1      6146 3.71367E+01-4.23463E+01-3.17500E+00
 -1      6147 3.79166E+01-3.79166E+01-3.17500E+00
 -1      6148 3.99123E+01-3.99123E+01-1.58750E+00
 -1      6149 3.71367E+01-4.23463E+01 0.00000E+00
 -1      6150 3.79166E+01-3.79166E+01 0.00000E+00
 -1      6151 3.99123E+01-3.99123E+01 1.58750E+00
 -1      6152 3.71367E+01-4.23463E+01 3.17500E+00
 -1      6153 3.79166E+01-3.79166E+01 3.17500E+00
 -1      6154 3.99123E+01-3.99123E+01 4.76250E+00
 -1      6155 3.71367E+01-4.23463E+01 6.35000E+00
 -1      6156 3.79166E+01-3.79166E+01 6.35000E+00
 -1      6157 3.99123E+01-3.99123E+01 7.93750E+00
 -1      6158 4.47804E+01-3.43612E+01-7.93750E+00
 -1      6159 4.23463E+01-3.71367E+01-6.35000E+00
 -1      6160 4.25414E+01-3.26431E+01-6.35000E+00
 -1      6161 4.47804E+01-3.43612E+01-4.76250E+00
 -1      6162 4.23463E+01-3.71367E+01-3.17500E+00
 -1      6163 4.25414E+01-3.26431E+01-3.17500E+00
 -1      6164 4.47804E+01-3.43612E+01-1.58750E+00
 -1      6165 4.23463E+01-3.71367E+01 0.00000E+00
 -1      6166 4.25414E+01-3.26431E+01 0.00000E+00
 -1      6167 4.47804E+01-3.43612E+01 1.58750E+00
 -1      6168 4.23463E+01-3.71367E+01 3.17500E+00
 -1      6169 4.25414E+01-3.26431E+01 3.17500E+00
 -1      6170 4.47804E+01-3.43612E+01 4.76250E+00
 -1      6171 4.23463E+01-3.71367E+01 6.35000E+00
 -1      6172 4.25414E+01-3.26431E+01 6.35000E+00
 -1      6173 4.47804E+01-3.43612E+01 7.93750E+00
 -1      6174 4.88823E+01-2.82222E+01-7.93750E+00
 -1      6175 4.68314E+01-3.12917E+01-6.35000E+00
 -1      6176 4.64382E+01-2.68111E+01-6.35000E+00
 -1      6177 4.88823E+01-2.82222E+01-4.76250E+00
 -1      6178 4.68314E+01-3.12917E+01-3.17500E+00
 -1      6179 4.64382E+01-2.68111E+01-3.17500E+00
 -1      6180 4.88823E+01-2.82222E+01-1.58750E+00
 -1      6181 4.68314E+01-3.12917E+01 0.00000E+00
 -1      6182 4.64382E+01-2.68111E+01 0.00000E+00
 -1      6183 4.88823E+01-2.82222E+01 1.58750E+00
 -1      6184 4.68314E+01-3.12917E+01 3.17500E+00
 -1      6185 4.64382E+01-2.68111E+01 3.17500E+00
 -1      6186 4.88823E+01-2.82222E+01 4.76250E+00
 -1      6187 4.68314E+01-3.12917E+01 6.35000E+00
 -1      6188 4.64382E+01-2.68111E+01 6.35000E+00
 -1      6189 4.88823E+01-2.82222E+01 7.93750E+00
 -1      6190 5.21479E+01-2.16004E+01-7.93750E+00
 -1      6191 5.05151E+01-2.49113E+01-6.35000E+00
 -1      6192 4.95405E+01-2.05203E+01-6.35000E+00
 -1      6193 5.21479E+01-2.16004E+01-4.76250E+00
 -1      6194 5.05151E+01-2.49113E+01-3.17500E+00
 -1      6195 4.95405E+01-2.05203E+01-3.17500E+00
 -1      6196 5.21479E+01-2.16004E+01-1.58750E+00
 -1      6197 5.05151E+01-2.49113E+01 0.00000E+00
 -1      6198 4.95405E+01-2.05203E+01 0.00000E+00
 -1      6199 5.21479E+01-2.16004E+01 1.58750E+00
 -1      6200 5.05151E+01-2.49113E+01 3.17500E+00
 -1      6201 4.95405E+01-2.05203E+01 3.17500E+00
 -1      6202 5.21479E+01-2.16004E+01 4.76250E+00
 -1      6203 5.05151E+01-2.49113E+01 6.35000E+00
 -1      6204 4.95405E+01-2.05203E+01 6.35000E+00
 -1      6205 5.21479E+01-2.16004E+01 7.93750E+00
 -1      6206 5.45211E+01-1.46089E+01-7.93750E+00
 -1      6207 5.33345E+01-1.81046E+01-6.35000E+00
 -1      6208 5.17951E+01-1.38785E+01-6.35000E+00
 -1      6209 5.45211E+01-1.46089E+01-4.76250E+00
 -1      6210 5.33345E+01-1.81046E+01-3.17500E+00
 -1      6211 5.17951E+01-1.38785E+01-3.17500E+00
 -1      6212 5.45211E+01-1.46089E+01-1.58750E+00
 -1      6213 5.33345E+01-1.81046E+01 0.00000E+00
 -1      6214 5.17951E+01-1.38785E+01 0.00000E+00
 -1      6215 5.45211E+01-1.46089E+01 1.58750E+00
 -1      6216 5.33345E+01-1.81046E+01 3.17500E+00
 -1      6217 5.17951E+01-1.38785E+01 3.17500E+00
 -1      6218 5.45211E+01-1.46089E+01 4.76250E+00
 -1      6219 5.33345E+01-1.81046E+01 6.35000E+00
 -1      6220 5.17951E+01-1.38785E+01 6.35000E+00
 -1      6221 5.45211E+01-1.46089E+01 7.93750E+00
 -1      6222 5.59616E+01-7.36748E+00-7.93750E+00
 -1      6223 5.52414E+01-1.09882E+01-6.35000E+00
 -1      6224 5.31635E+01-6.99910E+00-6.35000E+00
 -1      6225 5.59616E+01-7.36748E+00-4.76250E+00
 -1      6226 5.52414E+01-1.09882E+01-3.17500E+00
 -1      6227 5.31635E+01-6.99910E+00-3.17500E+00
 -1      6228 5.59616E+01-7.36748E+00-1.58750E+00
 -1      6229 5.52414E+01-1.09882E+01 0.00000E+00
 -1      6230 5.31635E+01-6.99910E+00 0.00000E+00
 -1      6231 5.59616E+01-7.36748E+00 1.58750E+00
 -1      6232 5.52414E+01-1.09882E+01 3.17500E+00
 -1      6233 5.31635E+01-6.99910E+00 3.17500E+00
 -1      6234 5.59616E+01-7.36748E+00 4.76250E+00
 -1      6235 5.52414E+01-1.09882E+01 6.35000E+00
 -1      6236 5.31635E+01-6.99910E+00 6.35000E+00
 -1      6237 5.59616E+01-7.36748E+00 7.93750E+00
 -1      6238 5.64444E+01 2.65182E-07-7.93750E+00
 -1      6239 5.62030E+01-3.68374E+00-6.35000E+00
 -1      6240 5.36222E+01 2.52383E-07-6.35000E+00
 -1      6241 5.64444E+01 2.65182E-07-4.76250E+00
 -1      6242 5.62030E+01-3.68374E+00-3.17500E+00
 -1      6243 5.36222E+01 2.52383E-07-3.17500E+00
 -1      6244 5.64444E+01 2.65182E-07-1.58750E+00
 -1      6245 5.62030E+01-3.68374E+00 0.00000E+00
 -1      6246 5.36222E+01 2.52383E-07 0.00000E+00
 -1      6247 5.64444E+01 2.65182E-07 1.58750E+00
 -1      6248 5.62030E+01-3.68374E+00 3.17500E+00
 -1      6249 5.36222E+01 2.52383E-07 3.17500E+00
 -1      6250 5.64444E+01 2.65182E-07 4.76250E+00
 -1      6251 5.62030E+01-3.68374E+00 6.35000E+00
 -1      6252 5.36222E+01 2.52383E-07 6.35000E+00
 -1      6253 5.64444E+01 2.65182E-07 7.93750E+00
 -1      6254 5.59616E+01 7.36748E+00-7.93750E+00
 -1      6255 5.62030E+01 3.68374E+00-6.35000E+00
 -1      6256 5.31635E+01 6.99910E+00-6.35000E+00
 -1      6257 5.59616E+01 7.36748E+00-4.76250E+00
 -1      6258 5.62030E+01 3.68374E+00-3.17500E+00
 -1      6259 5.31635E+01 6.99910E+00-3.17500E+00
 -1      6260 5.59616E+01 7.36748E+00-1.58750E+00
 -1      6261 5.62030E+01 3.68374E+00 0.00000E+00
 -1      6262 5.31635E+01 6.99910E+00 0.00000E+00
 -1      6263 5.59616E+01 7.36748E+00 1.58750E+00
 -1      6264 5.62030E+01 3.68374E+00 3.17500E+00
 -1      6265 5.31635E+01 6.99910E+00 3.17500E+00
 -1      6266 5.59616E+01 7.36748E+00 4.76250E+00
 -1      6267 5.62030E+01 3.68374E+00 6.35000E+00
 -1      6268 5.31635E+01 6.99910E+00 6.35000E+00
 -1      6269 5.59616E+01 7.36748E+00 7.93750E+00
 -1      6270 5.45211E+01 1.46089E+01-7.93750E+00
 -1      6271 5.52414E+01 1.09882E+01-6.35000E+00
 -1      6272 5.17951E+01 1.38785E+01-6.35000E+00
 -1      6273 5.45211E+01 1.46089E+01-4.76250E+00
 -1      6274 5.52414E+01 1.09882E+01-3.17500E+00
 -1      6275 5.17951E+01 1.38785E+01-3.17500E+00
 -1      6276 5.45211E+01 1.46089E+01-1.58750E+00
 -1      6277 5.52414E+01 1.09882E+01 0.00000E+00
 -1      6278 5.17951E+01 1.38785E+01 0.00000E+00
 -1      6279 5.45211E+01 1.46089E+01 1.58750E+00
 -1      6280 5.52414E+01 1.09882E+01 3.17500E+00
 -1      6281 5.17951E+01 1.38785E+01 3.17500E+00
 -1      6282 5.45211E+01 1.46089E+01 4.76250E+00
 -1      6283 5.52414E+01 1.09882E+01 6.35000E+00
 -1      6284 5.17951E+01 1.38785E+01 6.35000E+00
 -1      6285 5.45211E+01 1.46089E+01 7.93750E+00
 -1      6286 5.21479E+01 2.16004E+01-7.93750E+00
 -1      6287 5.33345E+01 1.81046E+01-6.35000E+00
 -1      6288 4.95405E+01 2.05203E+01-6.35000E+00
 -1      6289 5.21479E+01 2.16004E+01-4.76250E+00
 -1      6290 5.33345E+01 1.81046E+01-3.17500E+00
 -1      6291 4.95405E+01 2.05203E+01-3.17500E+00
 -1      6292 5.21479E+01 2.16004E+01-1.58750E+00
 -1      6293 5.33345E+01 1.81046E+01 0.00000E+00
 -1      6294 4.95405E+01 2.05203E+01 0.00000E+00
 -1      6295 5.21479E+01 2.16004E+01 1.58750E+00
 -1      6296 5.33345E+01 1.81046E+01 3.17500E+00
 -1      6297 4.95405E+01 2.05203E+01 3.17500E+00
 -1      6298 5.21479E+01 2.16004E+01 4.76250E+00
 -1      6299 5.33345E+01 1.81046E+01 6.35000E+00
 -1      6300 4.95405E+01 2.05203E+01 6.35000E+00
 -1      6301 5.21479E+01 2.16004E+01 7.93750E+00
 -1      6302 4.88823E+01 2.82222E+01-7.93750E+00
 -1      6303 5.05151E+01 2.49113E+01-6.35000E+00
 -1      6304 4.64382E+01 2.68111E+01-6.35000E+00
 -1      6305 4.88823E+01 2.82222E+01-4.76250E+00
 -1      6306 5.05151E+01 2.49113E+01-3.17500E+00
 -1      6307 4.64382E+01 2.68111E+01-3.17500E+00
 -1      6308 4.88823E+01 2.82222E+01-1.58750E+00
 -1      6309 5.05151E+01 2.49113E+01 0.00000E+00
 -1      6310 4.64382E+01 2.68111E+01 0.00000E+00
 -1      6311 4.88823E+01 2.82222E+01 1.58750E+00
 -1      6312 5.05151E+01 2.49113E+01 3.17500E+00
 -1      6313 4.64382E+01 2.68111E+01 3.17500E+00
 -1      6314 4.88823E+01 2.82222E+01 4.76250E+00
 -1      6315 5.05151E+01 2.49113E+01 6.35000E+00
 -1      6316 4.64382E+01 2.68111E+01 6.35000E+00
 -1      6317 4.88823E+01 2.82222E+01 7.93750E+00
 -1      6318 4.47804E+01 3.43612E+01-7.93750E+00
 -1      6319 4.68314E+01 3.12917E+01-6.35000E+00
 -1      6320 4.25414E+01 3.26431E+01-6.35000E+00
 -1      6321 4.47804E+01 3.43612E+01-4.76250E+00
 -1      6322 4.68314E+01 3.12917E+01-3.17500E+00
 -1      6323 4.25414E+01 3.26431E+01-3.17500E+00
 -1      6324 4.47804E+01 3.43612E+01-1.58750E+00
 -1      6325 4.68314E+01 3.12917E+01 0.00000E+00
 -1      6326 4.25414E+01 3.26431E+01 0.00000E+00
 -1      6327 4.47804E+01 3.43612E+01 1.58750E+00
 -1      6328 4.68314E+01 3.12917E+01 3.17500E+00
 -1      6329 4.25414E+01 3.26431E+01 3.17500E+00
 -1      6330 4.47804E+01 3.43612E+01 4.76250E+00
 -1      6331 4.68314E+01 3.12917E+01 6.35000E+00
 -1      6332 4.25414E+01 3.26431E+01 6.35000E+00
 -1      6333 4.47804E+01 3.43612E+01 7.93750E+00
 -1      6334 3.99123E+01 3.99123E+01-7.93750E+00
 -1      6335 4.23463E+01 3.71367E+01-6.35000E+00
 -1      6336 3.79166E+01 3.79166E+01-6.35000E+00
 -1      6337 3.99123E+01 3.99123E+01-4.76250E+00
 -1      6338 4.23463E+01 3.71367E+01-3.17500E+00
 -1      6339 3.79166E+01 3.79166E+01-3.17500E+00
 -1      6340 3.99123E+01 3.99123E+01-1.58750E+00
 -1      6341 4.23463E+01 3.71367E+01 0.00000E+00
 -1      6342 3.79166E+01 3.79166E+01 0.00000E+00
 -1      6343 3.99123E+01 3.99123E+01 1.58750E+00
 -1      6344 4.23463E+01 3.71367E+01 3.17500E+00
 -1      6345 3.79166E+01 3.79166E+01 3.17500E+00
 -1      6346 3.99123E+01 3.99123E+01 4.76250E+00
 -1      6347 4.23463E+01 3.71367E+01 6.35000E+00
 -1      6348 3.79166E+01 3.79166E+01 6.35000E+00
 -1      6349 3.99123E+01 3.99123E+01 7.93750E+00
 -1      6350 3.43612E+01 4.47804E+01-7.93750E+00
 -1      6351 3.71367E+01 4.23463E+01-6.35000E+00
 -1      6352 3.26431E+01 4.25414E+01-6.35000E+00
 -1      6353 3.43612E+01 4.47804E+01-4.76250E+00
 -1      6354 3.71367E+01 4.23463E+01-3.17500E+00
 -1      6355 3.26431E+01 4.25414E+01-3.17500E+00
 -1      6356 3.43612E+01 4.47804E+01-1.58750E+00
 -1      6357 3.71367E+01 4.23463E+01 0.00000E+00
 -1      6358 3.26431E+01 4.25414E+01 0.00000E+00
 -1      6359 3.43612E+01 4.47804E+01 1.58750E+00
 -1      6360 3.71367E+01 4.23463E+01 3.17500E+00
 -1      6361 3.26431E+01 4.25414E+01 3.17500E+00
 -1      6362 3.43612E+01 4.47804E+01 4.76250E+00
 -1      6363 3.71367E+01 4.23463E+01 6.35000E+00
 -1      6364 3.26431E+01 4.25414E+01 6.35000E+00
 -1      6365 3.43612E+01 4.47804E+01 7.93750E+00
 -1      6366 2.82222E+01 4.88823E+01-7.93750E+00
 -1      6367 3.12917E+01 4.68314E+01-6.35000E+00
 -1      6368 2.68111E+01 4.64382E+01-6.35000E+00
 -1      6369 2.82222E+01 4.88823E+01-4.76250E+00
 -1      6370 3.12917E+01 4.68314E+01-3.17500E+00
 -1      6371 2.68111E+01 4.64382E+01-3.17500E+00
 -1      6372 2.82222E+01 4.88823E+01-1.58750E+00
 -1      6373 3.12917E+01 4.68314E+01 0.00000E+00
 -1      6374 2.68111E+01 4.64382E+01 0.00000E+00
 -1      6375 2.82222E+01 4.88823E+01 1.58750E+00
 -1      6376 3.12917E+01 4.68314E+01 3.17500E+00
 -1      6377 2.68111E+01 4.64382E+01 3.17500E+00
 -1      6378 2.82222E+01 4.88823E+01 4.76250E+00
 -1      6379 3.12917E+01 4.68314E+01 6.35000E+00
 -1      6380 2.68111E+01 4.64382E+01 6.35000E+00
 -1      6381 2.82222E+01 4.88823E+01 7.93750E+00
 -1      6382 2.16004E+01 5.21479E+01-7.93750E+00
 -1      6383 2.49113E+01 5.05151E+01-6.35000E+00
 -1      6384 2.05203E+01 4.95405E+01-6.35000E+00
 -1      6385 2.16004E+01 5.21479E+01-4.76250E+00
 -1      6386 2.49113E+01 5.05151E+01-3.17500E+00
 -1      6387 2.05203E+01 4.95405E+01-3.17500E+00
 -1      6388 2.16004E+01 5.21479E+01-1.58750E+00
 -1      6389 2.49113E+01 5.05151E+01 0.00000E+00
 -1      6390 2.05203E+01 4.95405E+01 0.00000E+00
 -1      6391 2.16004E+01 5.21479E+01 1.58750E+00
 -1      6392 2.49113E+01 5.05151E+01 3.17500E+00
 -1      6393 2.05203E+01 4.95405E+01 3.17500E+00
 -1      6394 2.16004E+01 5.21479E+01 4.76250E+00
 -1      6395 2.49113E+01 5.05151E+01 6.35000E+00
 -1      6396 2.05203E+01 4.95405E+01 6.35000E+00
 -1      6397 2.16004E+01 5.21479E+01 7.93750E+00
 -1      6398 1.46089E+01 5.45211E+01-7.93750E+00
 -1      6399 1.81046E+01 5.33345E+01-6.35000E+00
 -1      6400 1.38785E+01 5.17951E+01-6.35000E+00
 -1      6401 1.46089E+01 5.45211E+01-4.76250E+00
 -1      6402 1.81046E+01 5.33345E+01-3.17500E+00
 -1      6403 1.38785E+01 5.17951E+01-3.17500E+00
 -1      6404 1.46089E+01 5.45211E+01-1.58750E+00
 -1      6405 1.81046E+01 5.33345E+01 0.00000E+00
 -1      6406 1.38785E+01 5.17951E+01 0.00000E+00
 -1      6407 1.46089E+01 5.45211E+01 1.58750E+00
 -1      6408 1.81046E+01 5.33345E+01 3.17500E+00
 -1      6409 1.38785E+01 5.17951E+01 3.17500E+00
 -1      6410 1.46089E+01 5.45211E+01 4.76250E+00
 -1      6411 1.81046E+01 5.33345E+01 6.35000E+00
 -1      6412 1.38785E+01 5.17951E+01 6.35000E+00
 -1      6413 1.46089E+01 5.45211E+01 7.93750E+00
 -1      6414 7.36748E+00 5.59616E+01-7.93750E+00
 -1      6415 1.09882E+01 5.52414E+01-6.35000E+00
 -1      6416 6.99910E+00 5.31635E+01-6.35000E+00
 -1      6417 7.36748E+00 5.59616E+01-4.76250E+00
 -1      6418 1.09882E+01 5.52414E+01-3.17500E+00
 -1      6419 6.99910E+00 5.31635E+01-3.17500E+00
 -1      6420 7.36748E+00 5.59616E+01-1.58750E+00
 -1      6421 1.09882E+01 5.52414E+01 0.00000E+00
 -1      6422 6.99910E+00 5.31635E+01 0.00000E+00
 -1      6423 7.36748E+00 5.59616E+01 1.58750E+00
 -1      6424 1.09882E+01 5.52414E+01 3.17500E+00
 -1      6425 6.99910E+00 5.31635E+01 3.17500E+00
 -1      6426 7.36748E+00 5.59616E+01 4.76250E+00
 -1      6427 1.09882E+01 5.52414E+01 6.35000E+00
 -1      6428 6.99910E+00 5.31635E+01 6.35000E+00
 -1      6429 7.36748E+00 5.59616E+01 7.93750E+00
 -1      6430 3.68374E+00 5.62030E+01-6.35000E+00
 -1      6431 3.68374E+00 5.62030E+01-3.17500E+00
 -1      6432 3.68374E+00 5.62030E+01 0.00000E+00
 -1      6433 3.68374E+00 5.62030E+01 3.17500E+00
 -1      6434 3.68374E+00 5.62030E+01 6.35000E+00
 -1      6435 8.10423E+00-6.15577E+01-7.93750E+00
 -1      6436 4.05211E+00-6.18233E+01-6.35000E+00
 -1      6437 7.73585E+00-5.87596E+01-6.35000E+00
 -1      6438 8.10423E+00-6.15577E+01-4.76250E+00
 -1      6439 4.05211E+00-6.18233E+01-3.17500E+00
 -1      6440 7.73585E+00-5.87596E+01-3.17500E+00
 -1      6441 8.10423E+00-6.15577E+01-1.58750E+00
 -1      6442 4.05211E+00-6.18233E+01 0.00000E+00
 -1      6443 7.73585E+00-5.87596E+01 0.00000E+00
 -1      6444 8.10423E+00-6.15577E+01 1.58750E+00
 -1      6445 4.05211E+00-6.18233E+01 3.17500E+00
 -1      6446 7.73585E+00-5.87596E+01 3.17500E+00
 -1      6447 8.10423E+00-6.15577E+01 4.76250E+00
 -1      6448 4.05211E+00-6.18233E+01 6.35000E+00
 -1      6449 7.73585E+00-5.87596E+01 6.35000E+00
 -1      6450 8.10423E+00-6.15577E+01 7.93750E+00
 -1      6451 1.60698E+01-5.99733E+01-7.93750E+00
 -1      6452 1.20870E+01-6.07655E+01-6.35000E+00
 -1      6453 1.53393E+01-5.72472E+01-6.35000E+00
 -1      6454 1.60698E+01-5.99733E+01-4.76250E+00
 -1      6455 1.20870E+01-6.07655E+01-3.17500E+00
 -1      6456 1.53393E+01-5.72472E+01-3.17500E+00
 -1      6457 1.60698E+01-5.99733E+01-1.58750E+00
 -1      6458 1.20870E+01-6.07655E+01 0.00000E+00
 -1      6459 1.53393E+01-5.72472E+01 0.00000E+00
 -1      6460 1.60698E+01-5.99733E+01 1.58750E+00
 -1      6461 1.20870E+01-6.07655E+01 3.17500E+00
 -1      6462 1.53393E+01-5.72472E+01 3.17500E+00
 -1      6463 1.60698E+01-5.99733E+01 4.76250E+00
 -1      6464 1.20870E+01-6.07655E+01 6.35000E+00
 -1      6465 1.53393E+01-5.72472E+01 6.35000E+00
 -1      6466 1.60698E+01-5.99733E+01 7.93750E+00
 -1      6467 2.37604E+01-5.73627E+01-7.93750E+00
 -1      6468 1.99151E+01-5.86680E+01-6.35000E+00
 -1      6469 2.26804E+01-5.47553E+01-6.35000E+00
 -1      6470 2.37604E+01-5.73627E+01-4.76250E+00
 -1      6471 1.99151E+01-5.86680E+01-3.17500E+00
 -1      6472 2.26804E+01-5.47553E+01-3.17500E+00
 -1      6473 2.37604E+01-5.73627E+01-1.58750E+00
 -1      6474 1.99151E+01-5.86680E+01 0.00000E+00
 -1      6475 2.26804E+01-5.47553E+01 0.00000E+00
 -1      6476 2.37604E+01-5.73627E+01 1.58750E+00
 -1      6477 1.99151E+01-5.86680E+01 3.17500E+00
 -1      6478 2.26804E+01-5.47553E+01 3.17500E+00
 -1      6479 2.37604E+01-5.73627E+01 4.76250E+00
 -1      6480 1.99151E+01-5.86680E+01 6.35000E+00
 -1      6481 2.26804E+01-5.47553E+01 6.35000E+00
 -1      6482 2.37604E+01-5.73627E+01 7.93750E+00
 -1      6483 3.10444E+01-5.37706E+01-7.93750E+00
 -1      6484 2.74024E+01-5.55666E+01-6.35000E+00
 -1      6485 2.96333E+01-5.13264E+01-6.35000E+00
 -1      6486 3.10444E+01-5.37706E+01-4.76250E+00
 -1      6487 2.74024E+01-5.55666E+01-3.17500E+00
 -1      6488 2.96333E+01-5.13264E+01-3.17500E+00
 -1      6489 3.10444E+01-5.37706E+01-1.58750E+00
 -1      6490 2.74024E+01-5.55666E+01 0.00000E+00
 -1      6491 2.96333E+01-5.13264E+01 0.00000E+00
 -1      6492 3.10444E+01-5.37706E+01 1.58750E+00
 -1      6493 2.74024E+01-5.55666E+01 3.17500E+00
 -1      6494 2.96333E+01-5.13264E+01 3.17500E+00
 -1      6495 3.10444E+01-5.37706E+01 4.76250E+00
 -1      6496 2.74024E+01-5.55666E+01 6.35000E+00
 -1      6497 2.96333E+01-5.13264E+01 6.35000E+00
 -1      6498 3.10444E+01-5.37706E+01 7.93750E+00
 -1      6499 3.77973E+01-4.92584E+01-7.93750E+00
 -1      6500 3.44209E+01-5.15145E+01-6.35000E+00
 -1      6501 3.60793E+01-4.70194E+01-6.35000E+00
 -1      6502 3.77973E+01-4.92584E+01-4.76250E+00
 -1      6503 3.44209E+01-5.15145E+01-3.17500E+00
 -1      6504 3.60793E+01-4.70194E+01-3.17500E+00
 -1      6505 3.77973E+01-4.92584E+01-1.58750E+00
 -1      6506 3.44209E+01-5.15145E+01 0.00000E+00
 -1      6507 3.60793E+01-4.70194E+01 0.00000E+00
 -1      6508 3.77973E+01-4.92584E+01 1.58750E+00
 -1      6509 3.44209E+01-5.15145E+01 3.17500E+00
 -1      6510 3.60793E+01-4.70194E+01 3.17500E+00
 -1      6511 3.77973E+01-4.92584E+01 4.76250E+00
 -1      6512 3.44209E+01-5.15145E+01 6.35000E+00
 -1      6513 3.60793E+01-4.70194E+01 6.35000E+00
 -1      6514 3.77973E+01-4.92584E+01 7.93750E+00
 -1      6515 4.39035E+01-4.39035E+01-7.93750E+00
 -1      6516 4.08504E+01-4.65810E+01-6.35000E+00
 -1      6517 4.19079E+01-4.19079E+01-6.35000E+00
 -1      6518 4.39035E+01-4.39035E+01-4.76250E+00
 -1      6519 4.08504E+01-4.65810E+01-3.17500E+00
 -1      6520 4.19079E+01-4.19079E+01-3.17500E+00
 -1      6521 4.39035E+01-4.39035E+01-1.58750E+00
 -1      6522 4.08504E+01-4.65810E+01 0.00000E+00
 -1      6523 4.19079E+01-4.19079E+01 0.00000E+00
 -1      6524 4.39035E+01-4.39035E+01 1.58750E+00
 -1      6525 4.08504E+01-4.65810E+01 3.17500E+00
 -1      6526 4.19079E+01-4.19079E+01 3.17500E+00
 -1      6527 4.39035E+01-4.39035E+01 4.76250E+00
 -1      6528 4.08504E+01-4.65810E+01 6.35000E+00
 -1      6529 4.19079E+01-4.19079E+01 6.35000E+00
 -1      6530 4.39035E+01-4.39035E+01 7.93750E+00
 -1      6531 4.92584E+01-3.77973E+01-7.93750E+00
 -1      6532 4.65810E+01-4.08504E+01-6.35000E+00
 -1      6533 4.70194E+01-3.60793E+01-6.35000E+00
 -1      6534 4.92584E+01-3.77973E+01-4.76250E+00
 -1      6535 4.65810E+01-4.08504E+01-3.17500E+00
 -1      6536 4.70194E+01-3.60793E+01-3.17500E+00
 -1      6537 4.92584E+01-3.77973E+01-1.58750E+00
 -1      6538 4.65810E+01-4.08504E+01 0.00000E+00
 -1      6539 4.70194E+01-3.60793E+01 0.00000E+00
 -1      6540 4.92584E+01-3.77973E+01 1.58750E+00
 -1      6541 4.65810E+01-4.08504E+01 3.17500E+00
 -1      6542 4.70194E+01-3.60793E+01 3.17500E+00
 -1      6543 4.92584E+01-3.77973E+01 4.76250E+00
 -1      6544 4.65810E+01-4.08504E+01 6.35000E+00
 -1      6545 4.70194E+01-3.60793E+01 6.35000E+00
 -1      6546 4.92584E+01-3.77973E+01 7.93750E+00
 -1      6547 5.37706E+01-3.10444E+01-7.93750E+00
 -1      6548 5.15145E+01-3.44209E+01-6.35000E+00
 -1      6549 5.13264E+01-2.96333E+01-6.35000E+00
 -1      6550 5.37706E+01-3.10444E+01-4.76250E+00
 -1      6551 5.15145E+01-3.44209E+01-3.17500E+00
 -1      6552 5.13264E+01-2.96333E+01-3.17500E+00
 -1      6553 5.37706E+01-3.10444E+01-1.58750E+00
 -1      6554 5.15145E+01-3.44209E+01 0.00000E+00
 -1      6555 5.13264E+01-2.96333E+01 0.00000E+00
 -1      6556 5.37706E+01-3.10444E+01 1.58750E+00
 -1      6557 5.15145E+01-3.44209E+01 3.17500E+00
 -1      6558 5.13264E+01-2.96333E+01 3.17500E+00
 -1      6559 5.37706E+01-3.10444E+01 4.76250E+00
 -1      6560 5.15145E+01-3.44209E+01 6.35000E+00
 -1      6561 5.13264E+01-2.96333E+01 6.35000E+00
 -1      6562 5.37706E+01-3.10444E+01 7.93750E+00
 -1      6563 5.73627E+01-2.37604E+01-7.93750E+00
 -1      6564 5.55666E+01-2.74024E+01-6.35000E+00
 -1      6565 5.47553E+01-2.26804E+01-6.35000E+00
 -1      6566 5.73627E+01-2.37604E+01-4.76250E+00
 -1      6567 5.55666E+01-2.74024E+01-3.17500E+00
 -1      6568 5.47553E+01-2.26804E+01-3.17500E+00
 -1      6569 5.73627E+01-2.37604E+01-1.58750E+00
 -1      6570 5.55666E+01-2.74024E+01 0.00000E+00
 -1      6571 5.47553E+01-2.26804E+01 0.00000E+00
 -1      6572 5.73627E+01-2.37604E+01 1.58750E+00
 -1      6573 5.55666E+01-2.74024E+01 3.17500E+00
 -1      6574 5.47553E+01-2.26804E+01 3.17500E+00
 -1      6575 5.73627E+01-2.37604E+01 4.76250E+00
 -1      6576 5.55666E+01-2.74024E+01 6.35000E+00
 -1      6577 5.47553E+01-2.26804E+01 6.35000E+00
 -1      6578 5.73627E+01-2.37604E+01 7.93750E+00
 -1      6579 5.99733E+01-1.60698E+01-7.93750E+00
 -1      6580 5.86680E+01-1.99151E+01-6.35000E+00
 -1      6581 5.72472E+01-1.53393E+01-6.35000E+00
 -1      6582 5.99733E+01-1.60698E+01-4.76250E+00
 -1      6583 5.86680E+01-1.99151E+01-3.17500E+00
 -1      6584 5.72472E+01-1.53393E+01-3.17500E+00
 -1      6585 5.99733E+01-1.60698E+01-1.58750E+00
 -1      6586 5.86680E+01-1.99151E+01 0.00000E+00
 -1      6587 5.72472E+01-1.53393E+01 0.00000E+00
 -1      6588 5.99733E+01-1.60698E+01 1.58750E+00
 -1      6589 5.86680E+01-1.99151E+01 3.17500E+00
 -1      6590 5.72472E+01-1.53393E+01 3.17500E+00
 -1      6591 5.99733E+01-1.60698E+01 4.76250E+00
 -1      6592 5.86680E+01-1.99151E+01 6.35000E+00
 -1      6593 5.72472E+01-1.53393E+01 6.35000E+00
 -1      6594 5.99733E+01-1.60698E+01 7.93750E+00
 -1      6595 6.15577E+01-8.10423E+00-7.93750E+00
 -1      6596 6.07655E+01-1.20870E+01-6.35000E+00
 -1      6597 5.87596E+01-7.73585E+00-6.35000E+00
 -1      6598 6.15577E+01-8.10423E+00-4.76250E+00
 -1      6599 6.07655E+01-1.20870E+01-3.17500E+00
 -1      6600 5.87596E+01-7.73585E+00-3.17500E+00
 -1      6601 6.15577E+01-8.10423E+00-1.58750E+00
 -1      6602 6.07655E+01-1.20870E+01 0.00000E+00
 -1      6603 5.87596E+01-7.73585E+00 0.00000E+00
 -1      6604 6.15577E+01-8.10423E+00 1.58750E+00
 -1      6605 6.07655E+01-1.20870E+01 3.17500E+00
 -1      6606 5.87596E+01-7.73585E+00 3.17500E+00
 -1      6607 6.15577E+01-8.10423E+00 4.76250E+00
 -1      6608 6.07655E+01-1.20870E+01 6.35000E+00
 -1      6609 5.87596E+01-7.73585E+00 6.35000E+00
 -1      6610 6.15577E+01-8.10423E+00 7.93750E+00
 -1      6611 6.20889E+01 2.90777E-07-7.93750E+00
 -1      6612 6.18233E+01-4.05211E+00-6.35000E+00
 -1      6613 5.92667E+01 2.77979E-07-6.35000E+00
 -1      6614 6.20889E+01 2.90777E-07-4.76250E+00
 -1      6615 6.18233E+01-4.05211E+00-3.17500E+00
 -1      6616 5.92667E+01 2.77979E-07-3.17500E+00
 -1      6617 6.20889E+01 2.90777E-07-1.58750E+00
 -1      6618 6.18233E+01-4.05211E+00 0.00000E+00
 -1      6619 5.92667E+01 2.77979E-07 0.00000E+00
 -1      6620 6.20889E+01 2.90777E-07 1.58750E+00
 -1      6621 6.18233E+01-4.05211E+00 3.17500E+00
 -1      6622 5.92667E+01 2.77979E-07 3.17500E+00
 -1      6623 6.20889E+01 2.90777E-07 4.76250E+00
 -1      6624 6.18233E+01-4.05211E+00 6.35000E+00
 -1      6625 5.92667E+01 2.77979E-07 6.35000E+00
 -1      6626 6.20889E+01 2.90777E-07 7.93750E+00
 -1      6627 6.15577E+01 8.10423E+00-7.93750E+00
 -1      6628 6.18233E+01 4.05211E+00-6.35000E+00
 -1      6629 5.87596E+01 7.73585E+00-6.35000E+00
 -1      6630 6.15577E+01 8.10423E+00-4.76250E+00
 -1      6631 6.18233E+01 4.05211E+00-3.17500E+00
 -1      6632 5.87596E+01 7.73585E+00-3.17500E+00
 -1      6633 6.15577E+01 8.10423E+00-1.58750E+00
 -1      6634 6.18233E+01 4.05211E+00 0.00000E+00
 -1      6635 5.87596E+01 7.73585E+00 0.00000E+00
 -1      6636 6.15577E+01 8.10423E+00 1.58750E+00
 -1      6637 6.18233E+01 4.05211E+00 3.17500E+00
 -1      6638 5.87596E+01 7.73585E+00 3.17500E+00
 -1      6639 6.15577E+01 8.10423E+00 4.76250E+00
 -1      6640 6.18233E+01 4.05211E+00 6.35000E+00
 -1      6641 5.87596E+01 7.73585E+00 6.35000E+00
 -1      6642 6.15577E+01 8.10423E+00 7.93750E+00
 -1      6643 5.99733E+01 1.60698E+01-7.93750E+00
 -1      6644 6.07655E+01 1.20870E+01-6.35000E+00
 -1      6645 5.72472E+01 1.53393E+01-6.35000E+00
 -1      6646 5.99733E+01 1.60698E+01-4.76250E+00
 -1      6647 6.07655E+01 1.20870E+01-3.17500E+00
 -1      6648 5.72472E+01 1.53393E+01-3.17500E+00
 -1      6649 5.99733E+01 1.60698E+01-1.58750E+00
 -1      6650 6.07655E+01 1.20870E+01 0.00000E+00
 -1      6651 5.72472E+01 1.53393E+01 0.00000E+00
 -1      6652 5.99733E+01 1.60698E+01 1.58750E+00
 -1      6653 6.07655E+01 1.20870E+01 3.17500E+00
 -1      6654 5.72472E+01 1.53393E+01 3.17500E+00
 -1      6655 5.99733E+01 1.60698E+01 4.76250E+00
 -1      6656 6.07655E+01 1.20870E+01 6.35000E+00
 -1      6657 5.72472E+01 1.53393E+01 6.35000E+00
 -1      6658 5.99733E+01 1.60698E+01 7.93750E+00
 -1      6659 5.73627E+01 2.37604E+01-7.93750E+00
 -1      6660 5.86680E+01 1.99151E+01-6.35000E+00
 -1      6661 5.47553E+01 2.26804E+01-6.35000E+00
 -1      6662 5.73627E+01 2.37604E+01-4.76250E+00
 -1      6663 5.86680E+01 1.99151E+01-3.17500E+00
 -1      6664 5.47553E+01 2.26804E+01-3.17500E+00
 -1      6665 5.73627E+01 2.37604E+01-1.58750E+00
 -1      6666 5.86680E+01 1.99151E+01 0.00000E+00
 -1      6667 5.47553E+01 2.26804E+01 0.00000E+00
 -1      6668 5.73627E+01 2.37604E+01 1.58750E+00
 -1      6669 5.86680E+01 1.99151E+01 3.17500E+00
 -1      6670 5.47553E+01 2.26804E+01 3.17500E+00
 -1      6671 5.73627E+01 2.37604E+01 4.76250E+00
 -1      6672 5.86680E+01 1.99151E+01 6.35000E+00
 -1      6673 5.47553E+01 2.26804E+01 6.35000E+00
 -1      6674 5.73627E+01 2.37604E+01 7.93750E+00
 -1      6675 5.37706E+01 3.10444E+01-7.93750E+00
 -1      6676 5.55666E+01 2.74024E+01-6.35000E+00
 -1      6677 5.13264E+01 2.96333E+01-6.35000E+00
 -1      6678 5.37706E+01 3.10444E+01-4.76250E+00
 -1      6679 5.55666E+01 2.74024E+01-3.17500E+00
 -1      6680 5.13264E+01 2.96333E+01-3.17500E+00
 -1      6681 5.37706E+01 3.10444E+01-1.58750E+00
 -1      6682 5.55666E+01 2.74024E+01 0.00000E+00
 -1      6683 5.13264E+01 2.96333E+01 0.00000E+00
 -1      6684 5.37706E+01 3.10444E+01 1.58750E+00
 -1      6685 5.55666E+01 2.74024E+01 3.17500E+00
 -1      6686 5.13264E+01 2.96333E+01 3.17500E+00
 -1      6687 5.37706E+01 3.10444E+01 4.76250E+00
 -1      6688 5.55666E+01 2.74024E+01 6.35000E+00
 -1      6689 5.13264E+01 2.96333E+01 6.35000E+00
 -1      6690 5.37706E+01 3.10444E+01 7.93750E+00
 -1      6691 4.92584E+01 3.77973E+01-7.93750E+00
 -1      6692 5.15145E+01 3.44209E+01-6.35000E+00
 -1      6693 4.70194E+01 3.60793E+01-6.35000E+00
 -1      6694 4.92584E+01 3.77973E+01-4.76250E+00
 -1      6695 5.15145E+01 3.44209E+01-3.17500E+00
 -1      6696 4.70194E+01 3.60793E+01-3.17500E+00
 -1      6697 4.92584E+01 3.77973E+01-1.58750E+00
 -1      6698 5.15145E+01 3.44209E+01 0.00000E+00
 -1      6699 4.70194E+01 3.60793E+01 0.00000E+00
 -1      6700 4.92584E+01 3.77973E+01 1.58750E+00
 -1      6701 5.15145E+01 3.44209E+01 3.17500E+00
 -1      6702 4.70194E+01 3.60793E+01 3.17500E+00
 -1      6703 4.92584E+01 3.77973E+01 4.76250E+00
 -1      6704 5.15145E+01 3.44209E+01 6.35000E+00
 -1      6705 4.70194E+01 3.60793E+01 6.35000E+00
 -1      6706 4.92584E+01 3.77973E+01 7.93750E+00
 -1      6707 4.39035E+01 4.39035E+01-7.93750E+00
 -1      6708 4.65810E+01 4.08504E+01-6.35000E+00
 -1      6709 4.19079E+01 4.19079E+01-6.35000E+00
 -1      6710 4.39035E+01 4.39035E+01-4.76250E+00
 -1      6711 4.65810E+01 4.08504E+01-3.17500E+00
 -1      6712 4.19079E+01 4.19079E+01-3.17500E+00
 -1      6713 4.39035E+01 4.39035E+01-1.58750E+00
 -1      6714 4.65810E+01 4.08504E+01 0.00000E+00
 -1      6715 4.19079E+01 4.19079E+01 0.00000E+00
 -1      6716 4.39035E+01 4.39035E+01 1.58750E+00
 -1      6717 4.65810E+01 4.08504E+01 3.17500E+00
 -1      6718 4.19079E+01 4.19079E+01 3.17500E+00
 -1      6719 4.39035E+01 4.39035E+01 4.76250E+00
 -1      6720 4.65810E+01 4.08504E+01 6.35000E+00
 -1      6721 4.19079E+01 4.19079E+01 6.35000E+00
 -1      6722 4.39035E+01 4.39035E+01 7.93750E+00
 -1      6723 3.77973E+01 4.92584E+01-7.93750E+00
 -1      6724 4.08504E+01 4.65810E+01-6.35000E+00
 -1      6725 3.60793E+01 4.70194E+01-6.35000E+00
 -1      6726 3.77973E+01 4.92584E+01-4.76250E+00
 -1      6727 4.08504E+01 4.65810E+01-3.17500E+00
 -1      6728 3.60793E+01 4.70194E+01-3.17500E+00
 -1      6729 3.77973E+01 4.92584E+01-1.58750E+00
 -1      6730 4.08504E+01 4.65810E+01 0.00000E+00
 -1      6731 3.60793E+01 4.70194E+01 0.00000E+00
 -1      6732 3.77973E+01 4.92584E+01 1.58750E+00
 -1      6733 4.08504E+01 4.65810E+01 3.17500E+00
 -1      6734 3.60793E+01 4.70194E+01 3.17500E+00
 -1      6735 3.77973E+01 4.92584E+01 4.76250E+00
 -1      6736 4.08504E+01 4.65810E+01 6.35000E+00
 -1      6737 3.60793E+01 4.70194E+01 6.35000E+00
 -1      6738 3.77973E+01 4.92584E+01 7.93750E+00
 -1      6739 3.10444E+01 5.37706E+01-7.93750E+00
 -1      6740 3.44209E+01 5.15145E+01-6.35000E+00
 -1      6741 2.96333E+01 5.13264E+01-6.35000E+00
 -1      6742 3.10444E+01 5.37706E+01-4.76250E+00
 -1      6743 3.44209E+01 5.15145E+01-3.17500E+00
 -1      6744 2.96333E+01 5.13264E+01-3.17500E+00
 -1      6745 3.10444E+01 5.37706E+01-1.58750E+00
 -1      6746 3.44209E+01 5.15145E+01 0.00000E+00
 -1      6747 2.96333E+01 5.13264E+01 0.00000E+00
 -1      6748 3.10444E+01 5.37706E+01 1.58750E+00
 -1      6749 3.44209E+01 5.15145E+01 3.17500E+00
 -1      6750 2.96333E+01 5.13264E+01 3.17500E+00
 -1      6751 3.10444E+01 5.37706E+01 4.76250E+00
 -1      6752 3.44209E+01 5.15145E+01 6.35000E+00
 -1      6753 2.96333E+01 5.13264E+01 6.35000E+00
 -1      6754 3.10444E+01 5.37706E+01 7.93750E+00
 -1      6755 2.37604E+01 5.73627E+01-7.93750E+00
 -1      6756 2.74024E+01 5.55666E+01-6.35000E+00
 -1      6757 2.26804E+01 5.47553E+01-6.35000E+00
 -1      6758 2.37604E+01 5.73627E+01-4.76250E+00
 -1      6759 2.74024E+01 5.55666E+01-3.17500E+00
 -1      6760 2.26804E+01 5.47553E+01-3.17500E+00
 -1      6761 2.37604E+01 5.73627E+01-1.58750E+00
 -1      6762 2.74024E+01 5.55666E+01 0.00000E+00
 -1      6763 2.26804E+01 5.47553E+01 0.00000E+00
 -1      6764 2.37604E+01 5.73627E+01 1.58750E+00
 -1      6765 2.74024E+01 5.55666E+01 3.17500E+00
 -1      6766 2.26804E+01 5.47553E+01 3.17500E+00
 -1      6767 2.37604E+01 5.73627E+01 4.76250E+00
 -1      6768 2.74024E+01 5.55666E+01 6.35000E+00
 -1      6769 2.26804E+01 5.47553E+01 6.35000E+00
 -1      6770 2.37604E+01 5.73627E+01 7.93750E+00
 -1      6771 1.60698E+01 5.99733E+01-7.93750E+00
 -1      6772 1.99151E+01 5.86680E+01-6.35000E+00
 -1      6773 1.53393E+01 5.72472E+01-6.35000E+00
 -1      6774 1.60698E+01 5.99733E+01-4.76250E+00
 -1      6775 1.99151E+01 5.86680E+01-3.17500E+00
 -1      6776 1.53393E+01 5.72472E+01-3.17500E+00
 -1      6777 1.60698E+01 5.99733E+01-1.58750E+00
 -1      6778 1.99151E+01 5.86680E+01 0.00000E+00
 -1      6779 1.53393E+01 5.72472E+01 0.00000E+00
 -1      6780 1.60698E+01 5.99733E+01 1.58750E+00
 -1      6781 1.99151E+01 5.86680E+01 3.17500E+00
 -1      6782 1.53393E+01 5.72472E+01 3.17500E+00
 -1      6783 1.60698E+01 5.99733E+01 4.76250E+00
 -1      6784 1.99151E+01 5.86680E+01 6.35000E+00
 -1      6785 1.53393E+01 5.72472E+01 6.35000E+00
 -1      6786 1.60698E+01 5.99733E+01 7.93750E+00
 -1      6787 8.10423E+00 6.15577E+01-7.93750E+00
 -1      6788 1.20870E+01 6.07655E+01-6.35000E+00
 -1      6789 7.73585E+00 5.87596E+01-6.35000E+00
 -1      6790 8.10423E+00 6.15577E+01-4.76250E+00
 -1      6791 1.20870E+01 6.07655E+01-3.17500E+00
 -1      6792 7.73585E+00 5.87596E+01-3.17500E+00
 -1      6793 8.10423E+00 6.15577E+01-1.58750E+00
 -1      6794 1.20870E+01 6.07655E+01 0.00000E+00
 -1      6795 7.73585E+00 5.87596E+01 0.00000E+00
 -1      6796 8.10423E+00 6.15577E+01 1.58750E+00
 -1      6797 1.20870E+01 6.07655E+01 3.17500E+00
 -1      6798 7.73585E+00 5.87596E+01 3.17500E+00
 -1      6799 8.10423E+00 6.15577E+01 4.76250E+00
 -1      6800 1.20870E+01 6.07655E+01 6.35000E+00
 -1      6801 7.73585E+00 5.87596E+01 6.35000E+00
 -1      6802 8.10423E+00 6.15577E+01 7.93750E+00
 -1      6803 4.05211E+00 6.18233E+01-6.35000E+00
 -1      6804 4.05211E+00 6.18233E+01-3.17500E+00
 -1      6805 4.05211E+00 6.18233E+01 0.00000E+00
 -1      6806 4.05211E+00 6.18233E+01 3.17500E+00
 -1      6807 4.05211E+00 6.18233E+01 6.35000E+00
 -1      6808 8.84097E+00-6.71539E+01-7.93750E+00
 -1      6809 4.42049E+00-6.74436E+01-6.35000E+00
 -1      6810 8.47260E+00-6.43558E+01-6.35000E+00
 -1      6811 8.84097E+00-6.71539E+01-4.76250E+00
 -1      6812 4.42049E+00-6.74436E+01-3.17500E+00
 -1      6813 8.47260E+00-6.43558E+01-3.17500E+00
 -1      6814 8.84097E+00-6.71539E+01-1.58750E+00
 -1      6815 4.42049E+00-6.74436E+01 0.00000E+00
 -1      6816 8.47260E+00-6.43558E+01 0.00000E+00
 -1      6817 8.84097E+00-6.71539E+01 1.58750E+00
 -1      6818 4.42049E+00-6.74436E+01 3.17500E+00
 -1      6819 8.47260E+00-6.43558E+01 3.17500E+00
 -1      6820 8.84097E+00-6.71539E+01 4.76250E+00
 -1      6821 4.42049E+00-6.74436E+01 6.35000E+00
 -1      6822 8.47260E+00-6.43558E+01 6.35000E+00
 -1      6823 8.84097E+00-6.71539E+01 7.93750E+00
 -1      6824 1.75307E+01-6.54254E+01-7.93750E+00
 -1      6825 1.31858E+01-6.62896E+01-6.35000E+00
 -1      6826 1.68002E+01-6.26993E+01-6.35000E+00
 -1      6827 1.75307E+01-6.54254E+01-4.76250E+00
 -1      6828 1.31858E+01-6.62896E+01-3.17500E+00
 -1      6829 1.68002E+01-6.26993E+01-3.17500E+00
 -1      6830 1.75307E+01-6.54254E+01-1.58750E+00
 -1      6831 1.31858E+01-6.62896E+01 0.00000E+00
 -1      6832 1.68002E+01-6.26993E+01 0.00000E+00
 -1      6833 1.75307E+01-6.54254E+01 1.58750E+00
 -1      6834 1.31858E+01-6.62896E+01 3.17500E+00
 -1      6835 1.68002E+01-6.26993E+01 3.17500E+00
 -1      6836 1.75307E+01-6.54254E+01 4.76250E+00
 -1      6837 1.31858E+01-6.62896E+01 6.35000E+00
 -1      6838 1.68002E+01-6.26993E+01 6.35000E+00
 -1      6839 1.75307E+01-6.54254E+01 7.93750E+00
 -1      6840 2.59204E+01-6.25774E+01-7.93750E+00
 -1      6841 2.17255E+01-6.40014E+01-6.35000E+00
 -1      6842 2.48404E+01-5.99700E+01-6.35000E+00
 -1      6843 2.59204E+01-6.25774E+01-4.76250E+00
 -1      6844 2.17255E+01-6.40014E+01-3.17500E+00
 -1      6845 2.48404E+01-5.99700E+01-3.17500E+00
 -1      6846 2.59204E+01-6.25774E+01-1.58750E+00
 -1      6847 2.17255E+01-6.40014E+01 0.00000E+00
 -1      6848 2.48404E+01-5.99700E+01 0.00000E+00
 -1      6849 2.59204E+01-6.25774E+01 1.58750E+00
 -1      6850 2.17255E+01-6.40014E+01 3.17500E+00
 -1      6851 2.48404E+01-5.99700E+01 3.17500E+00
 -1      6852 2.59204E+01-6.25774E+01 4.76250E+00
 -1      6853 2.17255E+01-6.40014E+01 6.35000E+00
 -1      6854 2.48404E+01-5.99700E+01 6.35000E+00
 -1      6855 2.59204E+01-6.25774E+01 7.93750E+00
 -1      6856 3.38667E+01-5.86588E+01-7.93750E+00
 -1      6857 2.98935E+01-6.06181E+01-6.35000E+00
 -1      6858 3.24556E+01-5.62147E+01-6.35000E+00
 -1      6859 3.38667E+01-5.86588E+01-4.76250E+00
 -1      6860 2.98935E+01-6.06181E+01-3.17500E+00
 -1      6861 3.24556E+01-5.62147E+01-3.17500E+00
 -1      6862 3.38667E+01-5.86588E+01-1.58750E+00
 -1      6863 2.98935E+01-6.06181E+01 0.00000E+00
 -1      6864 3.24556E+01-5.62147E+01 0.00000E+00
 -1      6865 3.38667E+01-5.86588E+01 1.58750E+00
 -1      6866 2.98935E+01-6.06181E+01 3.17500E+00
 -1      6867 3.24556E+01-5.62147E+01 3.17500E+00
 -1      6868 3.38667E+01-5.86588E+01 4.76250E+00
 -1      6869 2.98935E+01-6.06181E+01 6.35000E+00
 -1      6870 3.24556E+01-5.62147E+01 6.35000E+00
 -1      6871 3.38667E+01-5.86588E+01 7.93750E+00
 -1      6872 4.12334E+01-5.37365E+01-7.93750E+00
 -1      6873 3.75501E+01-5.61976E+01-6.35000E+00
 -1      6874 3.95154E+01-5.14974E+01-6.35000E+00
 -1      6875 4.12334E+01-5.37365E+01-4.76250E+00
 -1      6876 3.75501E+01-5.61976E+01-3.17500E+00
 -1      6877 3.95154E+01-5.14974E+01-3.17500E+00
 -1      6878 4.12334E+01-5.37365E+01-1.58750E+00
 -1      6879 3.75501E+01-5.61976E+01 0.00000E+00
 -1      6880 3.95154E+01-5.14974E+01 0.00000E+00
 -1      6881 4.12334E+01-5.37365E+01 1.58750E+00
 -1      6882 3.75501E+01-5.61976E+01 3.17500E+00
 -1      6883 3.95154E+01-5.14974E+01 3.17500E+00
 -1      6884 4.12334E+01-5.37365E+01 4.76250E+00
 -1      6885 3.75501E+01-5.61976E+01 6.35000E+00
 -1      6886 3.95154E+01-5.14974E+01 6.35000E+00
 -1      6887 4.12334E+01-5.37365E+01 7.93750E+00
 -1      6888 4.78947E+01-4.78947E+01-7.93750E+00
 -1      6889 4.45641E+01-5.08156E+01-6.35000E+00
 -1      6890 4.58991E+01-4.58991E+01-6.35000E+00
 -1      6891 4.78947E+01-4.78947E+01-4.76250E+00
 -1      6892 4.45641E+01-5.08156E+01-3.17500E+00
 -1      6893 4.58991E+01-4.58991E+01-3.17500E+00
 -1      6894 4.78947E+01-4.78947E+01-1.58750E+00
 -1      6895 4.45641E+01-5.08156E+01 0.00000E+00
 -1      6896 4.58991E+01-4.58991E+01 0.00000E+00
 -1      6897 4.78947E+01-4.78947E+01 1.58750E+00
 -1      6898 4.45641E+01-5.08156E+01 3.17500E+00
 -1      6899 4.58991E+01-4.58991E+01 3.17500E+00
 -1      6900 4.78947E+01-4.78947E+01 4.76250E+00
 -1      6901 4.45641E+01-5.08156E+01 6.35000E+00
 -1      6902 4.58991E+01-4.58991E+01 6.35000E+00
 -1      6903 4.78947E+01-4.78947E+01 7.93750E+00
 -1      6904 5.37365E+01-4.12334E+01-7.93750E+00
 -1      6905 5.08156E+01-4.45641E+01-6.35000E+00
 -1      6906 5.14974E+01-3.95154E+01-6.35000E+00
 -1      6907 5.37365E+01-4.12334E+01-4.76250E+00
 -1      6908 5.08156E+01-4.45641E+01-3.17500E+00
 -1      6909 5.14974E+01-3.95154E+01-3.17500E+00
 -1      6910 5.37365E+01-4.12334E+01-1.58750E+00
 -1      6911 5.08156E+01-4.45641E+01 0.00000E+00
 -1      6912 5.14974E+01-3.95154E+01 0.00000E+00
 -1      6913 5.37365E+01-4.12334E+01 1.58750E+00
 -1      6914 5.08156E+01-4.45641E+01 3.17500E+00
 -1      6915 5.14974E+01-3.95154E+01 3.17500E+00
 -1      6916 5.37365E+01-4.12334E+01 4.76250E+00
 -1      6917 5.08156E+01-4.45641E+01 6.35000E+00
 -1      6918 5.14974E+01-3.95154E+01 6.35000E+00
 -1      6919 5.37365E+01-4.12334E+01 7.93750E+00
 -1      6920 5.86588E+01-3.38667E+01-7.93750E+00
 -1      6921 5.61976E+01-3.75501E+01-6.35000E+00
 -1      6922 5.62147E+01-3.24556E+01-6.35000E+00
 -1      6923 5.86588E+01-3.38667E+01-4.76250E+00
 -1      6924 5.61976E+01-3.75501E+01-3.17500E+00
 -1      6925 5.62147E+01-3.24556E+01-3.17500E+00
 -1      6926 5.86588E+01-3.38667E+01-1.58750E+00
 -1      6927 5.61976E+01-3.75501E+01 0.00000E+00
 -1      6928 5.62147E+01-3.24556E+01 0.00000E+00
 -1      6929 5.86588E+01-3.38667E+01 1.58750E+00
 -1      6930 5.61976E+01-3.75501E+01 3.17500E+00
 -1      6931 5.62147E+01-3.24556E+01 3.17500E+00
 -1      6932 5.86588E+01-3.38667E+01 4.76250E+00
 -1      6933 5.61976E+01-3.75501E+01 6.35000E+00
 -1      6934 5.62147E+01-3.24556E+01 6.35000E+00
 -1      6935 5.86588E+01-3.38667E+01 7.93750E+00
 -1      6936 6.25774E+01-2.59204E+01-7.93750E+00
 -1      6937 6.06181E+01-2.98935E+01-6.35000E+00
 -1      6938 5.99700E+01-2.48404E+01-6.35000E+00
 -1      6939 6.25774E+01-2.59204E+01-4.76250E+00
 -1      6940 6.06181E+01-2.98935E+01-3.17500E+00
 -1      6941 5.99700E+01-2.48404E+01-3.17500E+00
 -1      6942 6.25774E+01-2.59204E+01-1.58750E+00
 -1      6943 6.06181E+01-2.98935E+01 0.00000E+00
 -1      6944 5.99700E+01-2.48404E+01 0.00000E+00
 -1      6945 6.25774E+01-2.59204E+01 1.58750E+00
 -1      6946 6.06181E+01-2.98935E+01 3.17500E+00
 -1      6947 5.99700E+01-2.48404E+01 3.17500E+00
 -1      6948 6.25774E+01-2.59204E+01 4.76250E+00
 -1      6949 6.06181E+01-2.98935E+01 6.35000E+00
 -1      6950 5.99700E+01-2.48404E+01 6.35000E+00
 -1      6951 6.25774E+01-2.59204E+01 7.93750E+00
 -1      6952 6.54254E+01-1.75307E+01-7.93750E+00
 -1      6953 6.40014E+01-2.17255E+01-6.35000E+00
 -1      6954 6.26993E+01-1.68002E+01-6.35000E+00
 -1      6955 6.54254E+01-1.75307E+01-4.76250E+00
 -1      6956 6.40014E+01-2.17255E+01-3.17500E+00
 -1      6957 6.26993E+01-1.68002E+01-3.17500E+00
 -1      6958 6.54254E+01-1.75307E+01-1.58750E+00
 -1      6959 6.40014E+01-2.17255E+01 0.00000E+00
 -1      6960 6.26993E+01-1.68002E+01 0.00000E+00
 -1      6961 6.54254E+01-1.75307E+01 1.58750E+00
 -1      6962 6.40014E+01-2.17255E+01 3.17500E+00
 -1      6963 6.26993E+01-1.68002E+01 3.17500E+00
 -1      6964 6.54254E+01-1.75307E+01 4.76250E+00
 -1      6965 6.40014E+01-2.17255E+01 6.35000E+00
 -1      6966 6.26993E+01-1.68002E+01 6.35000E+00
 -1      6967 6.54254E+01-1.75307E+01 7.93750E+00
 -1      6968 6.71539E+01-8.84097E+00-7.93750E+00
 -1      6969 6.62896E+01-1.31858E+01-6.35000E+00
 -1      6970 6.43558E+01-8.47260E+00-6.35000E+00
 -1      6971 6.71539E+01-8.84097E+00-4.76250E+00
 -1      6972 6.62896E+01-1.31858E+01-3.17500E+00
 -1      6973 6.43558E+01-8.47260E+00-3.17500E+00
 -1      6974 6.71539E+01-8.84097E+00-1.58750E+00
 -1      6975 6.62896E+01-1.31858E+01 0.00000E+00
 -1      6976 6.43558E+01-8.47260E+00 0.00000E+00
 -1      6977 6.71539E+01-8.84097E+00 1.58750E+00
 -1      6978 6.62896E+01-1.31858E+01 3.17500E+00
 -1      6979 6.43558E+01-8.47260E+00 3.17500E+00
 -1      6980 6.71539E+01-8.84097E+00 4.76250E+00
 -1      6981 6.62896E+01-1.31858E+01 6.35000E+00
 -1      6982 6.43558E+01-8.47260E+00 6.35000E+00
 -1      6983 6.71539E+01-8.84097E+00 7.93750E+00
 -1      6984 6.77333E+01 3.16378E-07-7.93750E+00
 -1      6985 6.74436E+01-4.42049E+00-6.35000E+00
 -1      6986 6.49111E+01 3.03578E-07-6.35000E+00
 -1      6987 6.77333E+01 3.16378E-07-4.76250E+00
 -1      6988 6.74436E+01-4.42049E+00-3.17500E+00
 -1      6989 6.49111E+01 3.03578E-07-3.17500E+00
 -1      6990 6.77333E+01 3.16378E-07-1.58750E+00
 -1      6991 6.74436E+01-4.42049E+00 0.00000E+00
 -1      6992 6.49111E+01 3.03578E-07 0.00000E+00
 -1      6993 6.77333E+01 3.16378E-07 1.58750E+00
 -1      6994 6.74436E+01-4.42049E+00 3.17500E+00
 -1      6995 6.49111E+01 3.03578E-07 3.17500E+00
 -1      6996 6.77333E+01 3.16378E-07 4.76250E+00
 -1      6997 6.74436E+01-4.42049E+00 6.35000E+00
 -1      6998 6.49111E+01 3.03578E-07 6.35000E+00
 -1      6999 6.77333E+01 3.16378E-07 7.93750E+00
 -1      7000 6.71539E+01 8.84097E+00-7.93750E+00
 -1      7001 6.74436E+01 4.42049E+00-6.35000E+00
 -1      7002 6.43558E+01 8.47260E+00-6.35000E+00
 -1      7003 6.71539E+01 8.84097E+00-4.76250E+00
 -1      7004 6.74436E+01 4.42049E+00-3.17500E+00
 -1      7005 6.43558E+01 8.47260E+00-3.17500E+00
 -1      7006 6.71539E+01 8.84097E+00-1.58750E+00
 -1      7007 6.74436E+01 4.42049E+00 0.00000E+00
 -1      7008 6.43558E+01 8.47260E+00 0.00000E+00
 -1      7009 6.71539E+01 8.84097E+00 1.58750E+00
 -1      7010 6.74436E+01 4.42049E+00 3.17500E+00
 -1      7011 6.43558E+01 8.47260E+00 3.17500E+00
 -1      7012 6.71539E+01 8.84097E+00 4.76250E+00
 -1      7013 6.74436E+01 4.42049E+00 6.35000E+00
 -1      7014 6.43558E+01 8.47260E+00 6.35000E+00
 -1      7015 6.71539E+01 8.84097E+00 7.93750E+00
 -1      7016 6.54254E+01 1.75307E+01-7.93750E+00
 -1      7017 6.62896E+01 1.31858E+01-6.35000E+00
 -1      7018 6.26993E+01 1.68002E+01-6.35000E+00
 -1      7019 6.54254E+01 1.75307E+01-4.76250E+00
 -1      7020 6.62896E+01 1.31858E+01-3.17500E+00
 -1      7021 6.26993E+01 1.68002E+01-3.17500E+00
 -1      7022 6.54254E+01 1.75307E+01-1.58750E+00
 -1      7023 6.62896E+01 1.31858E+01 0.00000E+00
 -1      7024 6.26993E+01 1.68002E+01 0.00000E+00
 -1      7025 6.54254E+01 1.75307E+01 1.58750E+00
 -1      7026 6.62896E+01 1.31858E+01 3.17500E+00
 -1      7027 6.26993E+01 1.68002E+01 3.17500E+00
 -1      7028 6.54254E+01 1.75307E+01 4.76250E+00
 -1      7029 6.62896E+01 1.31858E+01 6.35000E+00
 -1      7030 6.26993E+01 1.68002E+01 6.35000E+00
 -1      7031 6.54254E+01 1.75307E+01 7.93750E+00
 -1      7032 6.25774E+01 2.59204E+01-7.93750E+00
 -1      7033 6.40014E+01 2.17256E+01-6.35000E+00
 -1      7034 5.99700E+01 2.48404E+01-6.35000E+00
 -1      7035 6.25774E+01 2.59204E+01-4.76250E+00
 -1      7036 6.40014E+01 2.17256E+01-3.17500E+00
 -1      7037 5.99700E+01 2.48404E+01-3.17500E+00
 -1      7038 6.25774E+01 2.59204E+01-1.58750E+00
 -1      7039 6.40014E+01 2.17256E+01 0.00000E+00
 -1      7040 5.99700E+01 2.48404E+01 0.00000E+00
 -1      7041 6.25774E+01 2.59204E+01 1.58750E+00
 -1      7042 6.40014E+01 2.17256E+01 3.17500E+00
 -1      7043 5.99700E+01 2.48404E+01 3.17500E+00
 -1      7044 6.25774E+01 2.59204E+01 4.76250E+00
 -1      7045 6.40014E+01 2.17256E+01 6.35000E+00
 -1      7046 5.99700E+01 2.48404E+01 6.35000E+00
 -1      7047 6.25774E+01 2.59204E+01 7.93750E+00
 -1      7048 5.86588E+01 3.38667E+01-7.93750E+00
 -1      7049 6.06181E+01 2.98935E+01-6.35000E+00
 -1      7050 5.62147E+01 3.24556E+01-6.35000E+00
 -1      7051 5.86588E+01 3.38667E+01-4.76250E+00
 -1      7052 6.06181E+01 2.98935E+01-3.17500E+00
 -1      7053 5.62147E+01 3.24556E+01-3.17500E+00
 -1      7054 5.86588E+01 3.38667E+01-1.58750E+00
 -1      7055 6.06181E+01 2.98935E+01 0.00000E+00
 -1      7056 5.62147E+01 3.24556E+01 0.00000E+00
 -1      7057 5.86588E+01 3.38667E+01 1.58750E+00
 -1      7058 6.06181E+01 2.98935E+01 3.17500E+00
 -1      7059 5.62147E+01 3.24556E+01 3.17500E+00
 -1      7060 5.86588E+01 3.38667E+01 4.76250E+00
 -1      7061 6.06181E+01 2.98935E+01 6.35000E+00
 -1      7062 5.62147E+01 3.24556E+01 6.35000E+00
 -1      7063 5.86588E+01 3.38667E+01 7.93750E+00
 -1      7064 5.37365E+01 4.12334E+01-7.93750E+00
 -1      7065 5.61976E+01 3.75501E+01-6.35000E+00
 -1      7066 5.14974E+01 3.95154E+01-6.35000E+00
 -1      7067 5.37365E+01 4.12334E+01-4.76250E+00
 -1      7068 5.61976E+01 3.75501E+01-3.17500E+00
 -1      7069 5.14974E+01 3.95154E+01-3.17500E+00
 -1      7070 5.37365E+01 4.12334E+01-1.58750E+00
 -1      7071 5.61976E+01 3.75501E+01 0.00000E+00
 -1      7072 5.14974E+01 3.95154E+01 0.00000E+00
 -1      7073 5.37365E+01 4.12334E+01 1.58750E+00
 -1      7074 5.61976E+01 3.75501E+01 3.17500E+00
 -1      7075 5.14974E+01 3.95154E+01 3.17500E+00
 -1      7076 5.37365E+01 4.12334E+01 4.76250E+00
 -1      7077 5.61976E+01 3.75501E+01 6.35000E+00
 -1      7078 5.14974E+01 3.95154E+01 6.35000E+00
 -1      7079 5.37365E+01 4.12334E+01 7.93750E+00
 -1      7080 4.78947E+01 4.78947E+01-7.93750E+00
 -1      7081 5.08156E+01 4.45641E+01-6.35000E+00
 -1      7082 4.58991E+01 4.58991E+01-6.35000E+00
 -1      7083 4.78947E+01 4.78947E+01-4.76250E+00
 -1      7084 5.08156E+01 4.45641E+01-3.17500E+00
 -1      7085 4.58991E+01 4.58991E+01-3.17500E+00
 -1      7086 4.78947E+01 4.78947E+01-1.58750E+00
 -1      7087 5.08156E+01 4.45641E+01 0.00000E+00
 -1      7088 4.58991E+01 4.58991E+01 0.00000E+00
 -1      7089 4.78947E+01 4.78947E+01 1.58750E+00
 -1      7090 5.08156E+01 4.45641E+01 3.17500E+00
 -1      7091 4.58991E+01 4.58991E+01 3.17500E+00
 -1      7092 4.78947E+01 4.78947E+01 4.76250E+00
 -1      7093 5.08156E+01 4.45641E+01 6.35000E+00
 -1      7094 4.58991E+01 4.58991E+01 6.35000E+00
 -1      7095 4.78947E+01 4.78947E+01 7.93750E+00
 -1      7096 4.12334E+01 5.37365E+01-7.93750E+00
 -1      7097 4.45641E+01 5.08156E+01-6.35000E+00
 -1      7098 3.95154E+01 5.14974E+01-6.35000E+00
 -1      7099 4.12334E+01 5.37365E+01-4.76250E+00
 -1      7100 4.45641E+01 5.08156E+01-3.17500E+00
 -1      7101 3.95154E+01 5.14974E+01-3.17500E+00
 -1      7102 4.12334E+01 5.37365E+01-1.58750E+00
 -1      7103 4.45641E+01 5.08156E+01 0.00000E+00
 -1      7104 3.95154E+01 5.14974E+01 0.00000E+00
 -1      7105 4.12334E+01 5.37365E+01 1.58750E+00
 -1      7106 4.45641E+01 5.08156E+01 3.17500E+00
 -1      7107 3.95154E+01 5.14974E+01 3.17500E+00
 -1      7108 4.12334E+01 5.37365E+01 4.76250E+00
 -1      7109 4.45641E+01 5.08156E+01 6.35000E+00
 -1      7110 3.95154E+01 5.14974E+01 6.35000E+00
 -1      7111 4.12334E+01 5.37365E+01 7.93750E+00
 -1      7112 3.38667E+01 5.86588E+01-7.93750E+00
 -1      7113 3.75501E+01 5.61976E+01-6.35000E+00
 -1      7114 3.24556E+01 5.62147E+01-6.35000E+00
 -1      7115 3.38667E+01 5.86588E+01-4.76250E+00
 -1      7116 3.75501E+01 5.61976E+01-3.17500E+00
 -1      7117 3.24556E+01 5.62147E+01-3.17500E+00
 -1      7118 3.38667E+01 5.86588E+01-1.58750E+00
 -1      7119 3.75501E+01 5.61976E+01 0.00000E+00
 -1      7120 3.24556E+01 5.62147E+01 0.00000E+00
 -1      7121 3.38667E+01 5.86588E+01 1.58750E+00
 -1      7122 3.75501E+01 5.61976E+01 3.17500E+00
 -1      7123 3.24556E+01 5.62147E+01 3.17500E+00
 -1      7124 3.38667E+01 5.86588E+01 4.76250E+00
 -1      7125 3.75501E+01 5.61976E+01 6.35000E+00
 -1      7126 3.24556E+01 5.62147E+01 6.35000E+00
 -1      7127 3.38667E+01 5.86588E+01 7.93750E+00
 -1      7128 2.59204E+01 6.25774E+01-7.93750E+00
 -1      7129 2.98935E+01 6.06181E+01-6.35000E+00
 -1      7130 2.48404E+01 5.99700E+01-6.35000E+00
 -1      7131 2.59204E+01 6.25774E+01-4.76250E+00
 -1      7132 2.98935E+01 6.06181E+01-3.17500E+00
 -1      7133 2.48404E+01 5.99700E+01-3.17500E+00
 -1      7134 2.59204E+01 6.25774E+01-1.58750E+00
 -1      7135 2.98935E+01 6.06181E+01 0.00000E+00
 -1      7136 2.48404E+01 5.99700E+01 0.00000E+00
 -1      7137 2.59204E+01 6.25774E+01 1.58750E+00
 -1      7138 2.98935E+01 6.06181E+01 3.17500E+00
 -1      7139 2.48404E+01 5.99700E+01 3.17500E+00
 -1      7140 2.59204E+01 6.25774E+01 4.76250E+00
 -1      7141 2.98935E+01 6.06181E+01 6.35000E+00
 -1      7142 2.48404E+01 5.99700E+01 6.35000E+00
 -1      7143 2.59204E+01 6.25774E+01 7.93750E+00
 -1      7144 1.75307E+01 6.54254E+01-7.93750E+00
 -1      7145 2.17255E+01 6.40014E+01-6.35000E+00
 -1      7146 1.68002E+01 6.26993E+01-6.35000E+00
 -1      7147 1.75307E+01 6.54254E+01-4.76250E+00
 -1      7148 2.17255E+01 6.40014E+01-3.17500E+00
 -1      7149 1.68002E+01 6.26993E+01-3.17500E+00
 -1      7150 1.75307E+01 6.54254E+01-1.58750E+00
 -1      7151 2.17255E+01 6.40014E+01 0.00000E+00
 -1      7152 1.68002E+01 6.26993E+01 0.00000E+00
 -1      7153 1.75307E+01 6.54254E+01 1.58750E+00
 -1      7154 2.17255E+01 6.40014E+01 3.17500E+00
 -1      7155 1.68002E+01 6.26993E+01 3.17500E+00
 -1      7156 1.75307E+01 6.54254E+01 4.76250E+00
 -1      7157 2.17255E+01 6.40014E+01 6.35000E+00
 -1      7158 1.68002E+01 6.26993E+01 6.35000E+00
 -1      7159 1.75307E+01 6.54254E+01 7.93750E+00
 -1      7160 8.84097E+00 6.71539E+01-7.93750E+00
 -1      7161 1.31858E+01 6.62896E+01-6.35000E+00
 -1      7162 8.47260E+00 6.43558E+01-6.35000E+00
 -1      7163 8.84097E+00 6.71539E+01-4.76250E+00
 -1      7164 1.31858E+01 6.62896E+01-3.17500E+00
 -1      7165 8.47260E+00 6.43558E+01-3.17500E+00
 -1      7166 8.84097E+00 6.71539E+01-1.58750E+00
 -1      7167 1.31858E+01 6.62896E+01 0.00000E+00
 -1      7168 8.47260E+00 6.43558E+01 0.00000E+00
 -1      7169 8.84097E+00 6.71539E+01 1.58750E+00
 -1      7170 1.31858E+01 6.62896E+01 3.17500E+00
 -1      7171 8.47260E+00 6.43558E+01 3.17500E+00
 -1      7172 8.84097E+00 6.71539E+01 4.76250E+00
 -1      7173 1.31858E+01 6.62896E+01 6.35000E+00
 -1      7174 8.47260E+00 6.43558E+01 6.35000E+00
 -1      7175 8.84097E+00 6.71539E+01 7.93750E+00
 -1      7176 4.42049E+00 6.74436E+01-6.35000E+00
 -1      7177 4.42049E+00 6.74436E+01-3.17500E+00
 -1      7178 4.42049E+00 6.74436E+01 0.00000E+00
 -1      7179 4.42049E+00 6.74436E+01 3.17500E+00
 -1      7180 4.42049E+00 6.74436E+01 6.35000E+00
 -1      7181 9.57772E+00-7.27500E+01-7.93750E+00
 -1      7182 4.78886E+00-7.30639E+01-6.35000E+00
 -1      7183 9.20935E+00-6.99519E+01-6.35000E+00
 -1      7184 9.57772E+00-7.27500E+01-4.76250E+00
 -1      7185 4.78886E+00-7.30639E+01-3.17500E+00
 -1      7186 9.20935E+00-6.99519E+01-3.17500E+00
 -1      7187 9.57772E+00-7.27500E+01-1.58750E+00
 -1      7188 4.78886E+00-7.30639E+01 0.00000E+00
 -1      7189 9.20935E+00-6.99519E+01 0.00000E+00
 -1      7190 9.57772E+00-7.27500E+01 1.58750E+00
 -1      7191 4.78886E+00-7.30639E+01 3.17500E+00
 -1      7192 9.20935E+00-6.99519E+01 3.17500E+00
 -1      7193 9.57772E+00-7.27500E+01 4.76250E+00
 -1      7194 4.78886E+00-7.30639E+01 6.35000E+00
 -1      7195 9.20935E+00-6.99519E+01 6.35000E+00
 -1      7196 9.57772E+00-7.27500E+01 7.93750E+00
 -1      7197 1.89916E+01-7.08775E+01-7.93750E+00
 -1      7198 1.42846E+01-7.18138E+01-6.35000E+00
 -1      7199 1.82611E+01-6.81514E+01-6.35000E+00
 -1      7200 1.89916E+01-7.08775E+01-4.76250E+00
 -1      7201 1.42846E+01-7.18138E+01-3.17500E+00
 -1      7202 1.82611E+01-6.81514E+01-3.17500E+00
 -1      7203 1.89916E+01-7.08775E+01-1.58750E+00
 -1      7204 1.42846E+01-7.18138E+01 0.00000E+00
 -1      7205 1.82611E+01-6.81514E+01 0.00000E+00
 -1      7206 1.89916E+01-7.08775E+01 1.58750E+00
 -1      7207 1.42846E+01-7.18138E+01 3.17500E+00
 -1      7208 1.82611E+01-6.81514E+01 3.17500E+00
 -1      7209 1.89916E+01-7.08775E+01 4.76250E+00
 -1      7210 1.42846E+01-7.18138E+01 6.35000E+00
 -1      7211 1.82611E+01-6.81514E+01 6.35000E+00
 -1      7212 1.89916E+01-7.08775E+01 7.93750E+00
 -1      7213 2.80805E+01-6.77922E+01-7.93750E+00
 -1      7214 2.35360E+01-6.93349E+01-6.35000E+00
 -1      7215 2.70004E+01-6.51848E+01-6.35000E+00
 -1      7216 2.80805E+01-6.77922E+01-4.76250E+00
 -1      7217 2.35360E+01-6.93349E+01-3.17500E+00
 -1      7218 2.70004E+01-6.51848E+01-3.17500E+00
 -1      7219 2.80805E+01-6.77922E+01-1.58750E+00
 -1      7220 2.35360E+01-6.93349E+01 0.00000E+00
 -1      7221 2.70004E+01-6.51848E+01 0.00000E+00
 -1      7222 2.80805E+01-6.77922E+01 1.58750E+00
 -1      7223 2.35360E+01-6.93349E+01 3.17500E+00
 -1      7224 2.70004E+01-6.51848E+01 3.17500E+00
 -1      7225 2.80805E+01-6.77922E+01 4.76250E+00
 -1      7226 2.35360E+01-6.93349E+01 6.35000E+00
 -1      7227 2.70004E+01-6.51848E+01 6.35000E+00
 -1      7228 2.80805E+01-6.77922E+01 7.93750E+00
 -1      7229 3.66889E+01-6.35470E+01-7.93750E+00
 -1      7230 3.23847E+01-6.56696E+01-6.35000E+00
 -1      7231 3.52778E+01-6.11029E+01-6.35000E+00
 -1      7232 3.66889E+01-6.35470E+01-4.76250E+00
 -1      7233 3.23847E+01-6.56696E+01-3.17500E+00
 -1      7234 3.52778E+01-6.11029E+01-3.17500E+00
 -1      7235 3.66889E+01-6.35470E+01-1.58750E+00
 -1      7236 3.23847E+01-6.56696E+01 0.00000E+00
 -1      7237 3.52778E+01-6.11029E+01 0.00000E+00
 -1      7238 3.66889E+01-6.35470E+01 1.58750E+00
 -1      7239 3.23847E+01-6.56696E+01 3.17500E+00
 -1      7240 3.52778E+01-6.11029E+01 3.17500E+00
 -1      7241 3.66889E+01-6.35470E+01 4.76250E+00
 -1      7242 3.23847E+01-6.56696E+01 6.35000E+00
 -1      7243 3.52778E+01-6.11029E+01 6.35000E+00
 -1      7244 3.66889E+01-6.35470E+01 7.93750E+00
 -1      7245 4.46696E+01-5.82145E+01-7.93750E+00
 -1      7246 4.06792E+01-6.08808E+01-6.35000E+00
 -1      7247 4.29515E+01-5.59755E+01-6.35000E+00
 -1      7248 4.46696E+01-5.82145E+01-4.76250E+00
 -1      7249 4.06792E+01-6.08808E+01-3.17500E+00
 -1      7250 4.29515E+01-5.59755E+01-3.17500E+00
 -1      7251 4.46696E+01-5.82145E+01-1.58750E+00
 -1      7252 4.06792E+01-6.08808E+01 0.00000E+00
 -1      7253 4.29515E+01-5.59755E+01 0.00000E+00
 -1      7254 4.46696E+01-5.82145E+01 1.58750E+00
 -1      7255 4.06792E+01-6.08808E+01 3.17500E+00
 -1      7256 4.29515E+01-5.59755E+01 3.17500E+00
 -1      7257 4.46696E+01-5.82145E+01 4.76250E+00
 -1      7258 4.06792E+01-6.08808E+01 6.35000E+00
 -1      7259 4.29515E+01-5.59755E+01 6.35000E+00
 -1      7260 4.46696E+01-5.82145E+01 7.93750E+00
 -1      7261 5.18859E+01-5.18859E+01-7.93750E+00
 -1      7262 4.82777E+01-5.50502E+01-6.35000E+00
 -1      7263 4.98903E+01-4.98903E+01-6.35000E+00
 -1      7264 5.18859E+01-5.18859E+01-4.76250E+00
 -1      7265 4.82777E+01-5.50502E+01-3.17500E+00
 -1      7266 4.98903E+01-4.98903E+01-3.17500E+00
 -1      7267 5.18859E+01-5.18859E+01-1.58750E+00
 -1      7268 4.82777E+01-5.50502E+01 0.00000E+00
 -1      7269 4.98903E+01-4.98903E+01 0.00000E+00
 -1      7270 5.18859E+01-5.18859E+01 1.58750E+00
 -1      7271 4.82777E+01-5.50502E+01 3.17500E+00
 -1      7272 4.98903E+01-4.98903E+01 3.17500E+00
 -1      7273 5.18859E+01-5.18859E+01 4.76250E+00
 -1      7274 4.82777E+01-5.50502E+01 6.35000E+00
 -1      7275 4.98903E+01-4.98903E+01 6.35000E+00
 -1      7276 5.18859E+01-5.18859E+01 7.93750E+00
 -1      7277 5.82145E+01-4.46696E+01-7.93750E+00
 -1      7278 5.50502E+01-4.82777E+01-6.35000E+00
 -1      7279 5.59755E+01-4.29515E+01-6.35000E+00
 -1      7280 5.82145E+01-4.46696E+01-4.76250E+00
 -1      7281 5.50502E+01-4.82777E+01-3.17500E+00
 -1      7282 5.59755E+01-4.29515E+01-3.17500E+00
 -1      7283 5.82145E+01-4.46696E+01-1.58750E+00
 -1      7284 5.50502E+01-4.82777E+01 0.00000E+00
 -1      7285 5.59755E+01-4.29515E+01 0.00000E+00
 -1      7286 5.82145E+01-4.46696E+01 1.58750E+00
 -1      7287 5.50502E+01-4.82777E+01 3.17500E+00
 -1      7288 5.59755E+01-4.29515E+01 3.17500E+00
 -1      7289 5.82145E+01-4.46696E+01 4.76250E+00
 -1      7290 5.50502E+01-4.82777E+01 6.35000E+00
 -1      7291 5.59755E+01-4.29515E+01 6.35000E+00
 -1      7292 5.82145E+01-4.46696E+01 7.93750E+00
 -1      7293 6.35470E+01-3.66889E+01-7.93750E+00
 -1      7294 6.08808E+01-4.06792E+01-6.35000E+00
 -1      7295 6.11029E+01-3.52778E+01-6.35000E+00
 -1      7296 6.35470E+01-3.66889E+01-4.76250E+00
 -1      7297 6.08808E+01-4.06792E+01-3.17500E+00
 -1      7298 6.11029E+01-3.52778E+01-3.17500E+00
 -1      7299 6.35470E+01-3.66889E+01-1.58750E+00
 -1      7300 6.08808E+01-4.06792E+01 0.00000E+00
 -1      7301 6.11029E+01-3.52778E+01 0.00000E+00
 -1      7302 6.35470E+01-3.66889E+01 1.58750E+00
 -1      7303 6.08808E+01-4.06792E+01 3.17500E+00
 -1      7304 6.11029E+01-3.52778E+01 3.17500E+00
 -1      7305 6.35470E+01-3.66889E+01 4.76250E+00
 -1      7306 6.08808E+01-4.06792E+01 6.35000E+00
 -1      7307 6.11029E+01-3.52778E+01 6.35000E+00
 -1      7308 6.35470E+01-3.66889E+01 7.93750E+00
 -1      7309 6.77922E+01-2.80805E+01-7.93750E+00
 -1      7310 6.56696E+01-3.23847E+01-6.35000E+00
 -1      7311 6.51848E+01-2.70004E+01-6.35000E+00
 -1      7312 6.77922E+01-2.80805E+01-4.76250E+00
 -1      7313 6.56696E+01-3.23847E+01-3.17500E+00
 -1      7314 6.51848E+01-2.70004E+01-3.17500E+00
 -1      7315 6.77922E+01-2.80805E+01-1.58750E+00
 -1      7316 6.56696E+01-3.23847E+01 0.00000E+00
 -1      7317 6.51848E+01-2.70004E+01 0.00000E+00
 -1      7318 6.77922E+01-2.80805E+01 1.58750E+00
 -1      7319 6.56696E+01-3.23847E+01 3.17500E+00
 -1      7320 6.51848E+01-2.70004E+01 3.17500E+00
 -1      7321 6.77922E+01-2.80805E+01 4.76250E+00
 -1      7322 6.56696E+01-3.23847E+01 6.35000E+00
 -1      7323 6.51848E+01-2.70004E+01 6.35000E+00
 -1      7324 6.77922E+01-2.80805E+01 7.93750E+00
 -1      7325 7.08775E+01-1.89916E+01-7.93750E+00
 -1      7326 6.93349E+01-2.35360E+01-6.35000E+00
 -1      7327 6.81514E+01-1.82611E+01-6.35000E+00
 -1      7328 7.08775E+01-1.89916E+01-4.76250E+00
 -1      7329 6.93349E+01-2.35360E+01-3.17500E+00
 -1      7330 6.81514E+01-1.82611E+01-3.17500E+00
 -1      7331 7.08775E+01-1.89916E+01-1.58750E+00
 -1      7332 6.93349E+01-2.35360E+01 0.00000E+00
 -1      7333 6.81514E+01-1.82611E+01 0.00000E+00
 -1      7334 7.08775E+01-1.89916E+01 1.58750E+00
 -1      7335 6.93349E+01-2.35360E+01 3.17500E+00
 -1      7336 6.81514E+01-1.82611E+01 3.17500E+00
 -1      7337 7.08775E+01-1.89916E+01 4.76250E+00
 -1      7338 6.93349E+01-2.35360E+01 6.35000E+00
 -1      7339 6.81514E+01-1.82611E+01 6.35000E+00
 -1      7340 7.08775E+01-1.89916E+01 7.93750E+00
 -1      7341 7.27500E+01-9.57772E+00-7.93750E+00
 -1      7342 7.18138E+01-1.42846E+01-6.35000E+00
 -1      7343 6.99519E+01-9.20935E+00-6.35000E+00
 -1      7344 7.27500E+01-9.57772E+00-4.76250E+00
 -1      7345 7.18138E+01-1.42846E+01-3.17500E+00
 -1      7346 6.99519E+01-9.20935E+00-3.17500E+00
 -1      7347 7.27500E+01-9.57772E+00-1.58750E+00
 -1      7348 7.18138E+01-1.42846E+01 0.00000E+00
 -1      7349 6.99519E+01-9.20935E+00 0.00000E+00
 -1      7350 7.27500E+01-9.57772E+00 1.58750E+00
 -1      7351 7.18138E+01-1.42846E+01 3.17500E+00
 -1      7352 6.99519E+01-9.20935E+00 3.17500E+00
 -1      7353 7.27500E+01-9.57772E+00 4.76250E+00
 -1      7354 7.18138E+01-1.42846E+01 6.35000E+00
 -1      7355 6.99519E+01-9.20935E+00 6.35000E+00
 -1      7356 7.27500E+01-9.57772E+00 7.93750E+00
 -1      7357 7.33778E+01 3.41980E-07-7.93750E+00
 -1      7358 7.30639E+01-4.78886E+00-6.35000E+00
 -1      7359 7.05556E+01 3.29179E-07-6.35000E+00
 -1      7360 7.33778E+01 3.41980E-07-4.76250E+00
 -1      7361 7.30639E+01-4.78886E+00-3.17500E+00
 -1      7362 7.05556E+01 3.29179E-07-3.17500E+00
 -1      7363 7.33778E+01 3.41980E-07-1.58750E+00
 -1      7364 7.30639E+01-4.78886E+00 0.00000E+00
 -1      7365 7.05556E+01 3.29179E-07 0.00000E+00
 -1      7366 7.33778E+01 3.41980E-07 1.58750E+00
 -1      7367 7.30639E+01-4.78886E+00 3.17500E+00
 -1      7368 7.05556E+01 3.29179E-07 3.17500E+00
 -1      7369 7.33778E+01 3.41980E-07 4.76250E+00
 -1      7370 7.30639E+01-4.78886E+00 6.35000E+00
 -1      7371 7.05556E+01 3.29179E-07 6.35000E+00
 -1      7372 7.33778E+01 3.41980E-07 7.93750E+00
 -1      7373 7.27500E+01 9.57772E+00-7.93750E+00
 -1      7374 7.30639E+01 4.78886E+00-6.35000E+00
 -1      7375 6.99519E+01 9.20935E+00-6.35000E+00
 -1      7376 7.27500E+01 9.57772E+00-4.76250E+00
 -1      7377 7.30639E+01 4.78886E+00-3.17500E+00
 -1      7378 6.99519E+01 9.20935E+00-3.17500E+00
 -1      7379 7.27500E+01 9.57772E+00-1.58750E+00
 -1      7380 7.30639E+01 4.78886E+00 0.00000E+00
 -1      7381 6.99519E+01 9.20935E+00 0.00000E+00
 -1      7382 7.27500E+01 9.57772E+00 1.58750E+00
 -1      7383 7.30639E+01 4.78886E+00 3.17500E+00
 -1      7384 6.99519E+01 9.20935E+00 3.17500E+00
 -1      7385 7.27500E+01 9.57772E+00 4.76250E+00
 -1      7386 7.30639E+01 4.78886E+00 6.35000E+00
 -1      7387 6.99519E+01 9.20935E+00 6.35000E+00
 -1      7388 7.27500E+01 9.57772E+00 7.93750E+00
 -1      7389 7.08775E+01 1.89916E+01-7.93750E+00
 -1      7390 7.18138E+01 1.42846E+01-6.35000E+00
 -1      7391 6.81514E+01 1.82611E+01-6.35000E+00
 -1      7392 7.08775E+01 1.89916E+01-4.76250E+00
 -1      7393 7.18138E+01 1.42846E+01-3.17500E+00
 -1      7394 6.81514E+01 1.82611E+01-3.17500E+00
 -1      7395 7.08775E+01 1.89916E+01-1.58750E+00
 -1      7396 7.18138E+01 1.42846E+01 0.00000E+00
 -1      7397 6.81514E+01 1.82611E+01 0.00000E+00
 -1      7398 7.08775E+01 1.89916E+01 1.58750E+00
 -1      7399 7.18138E+01 1.42846E+01 3.17500E+00
 -1      7400 6.81514E+01 1.82611E+01 3.17500E+00
 -1      7401 7.08775E+01 1.89916E+01 4.76250E+00
 -1      7402 7.18138E+01 1.42846E+01 6.35000E+00
 -1      7403 6.81514E+01 1.82611E+01 6.35000E+00
 -1      7404 7.08775E+01 1.89916E+01 7.93750E+00
 -1      7405 6.77922E+01 2.80805E+01-7.93750E+00
 -1      7406 6.93349E+01 2.35360E+01-6.35000E+00
 -1      7407 6.51848E+01 2.70004E+01-6.35000E+00
 -1      7408 6.77922E+01 2.80805E+01-4.76250E+00
 -1      7409 6.93349E+01 2.35360E+01-3.17500E+00
 -1      7410 6.51848E+01 2.70004E+01-3.17500E+00
 -1      7411 6.77922E+01 2.80805E+01-1.58750E+00
 -1      7412 6.93349E+01 2.35360E+01 0.00000E+00
 -1      7413 6.51848E+01 2.70004E+01 0.00000E+00
 -1      7414 6.77922E+01 2.80805E+01 1.58750E+00
 -1      7415 6.93349E+01 2.35360E+01 3.17500E+00
 -1      7416 6.51848E+01 2.70004E+01 3.17500E+00
 -1      7417 6.77922E+01 2.80805E+01 4.76250E+00
 -1      7418 6.93349E+01 2.35360E+01 6.35000E+00
 -1      7419 6.51848E+01 2.70004E+01 6.35000E+00
 -1      7420 6.77922E+01 2.80805E+01 7.93750E+00
 -1      7421 6.35470E+01 3.66889E+01-7.93750E+00
 -1      7422 6.56696E+01 3.23847E+01-6.35000E+00
 -1      7423 6.11029E+01 3.52778E+01-6.35000E+00
 -1      7424 6.35470E+01 3.66889E+01-4.76250E+00
 -1      7425 6.56696E+01 3.23847E+01-3.17500E+00
 -1      7426 6.11029E+01 3.52778E+01-3.17500E+00
 -1      7427 6.35470E+01 3.66889E+01-1.58750E+00
 -1      7428 6.56696E+01 3.23847E+01 0.00000E+00
 -1      7429 6.11029E+01 3.52778E+01 0.00000E+00
 -1      7430 6.35470E+01 3.66889E+01 1.58750E+00
 -1      7431 6.56696E+01 3.23847E+01 3.17500E+00
 -1      7432 6.11029E+01 3.52778E+01 3.17500E+00
 -1      7433 6.35470E+01 3.66889E+01 4.76250E+00
 -1      7434 6.56696E+01 3.23847E+01 6.35000E+00
 -1      7435 6.11029E+01 3.52778E+01 6.35000E+00
 -1      7436 6.35470E+01 3.66889E+01 7.93750E+00
 -1      7437 5.82145E+01 4.46696E+01-7.93750E+00
 -1      7438 6.08808E+01 4.06792E+01-6.35000E+00
 -1      7439 5.59755E+01 4.29515E+01-6.35000E+00
 -1      7440 5.82145E+01 4.46696E+01-4.76250E+00
 -1      7441 6.08808E+01 4.06792E+01-3.17500E+00
 -1      7442 5.59755E+01 4.29515E+01-3.17500E+00
 -1      7443 5.82145E+01 4.46696E+01-1.58750E+00
 -1      7444 6.08808E+01 4.06792E+01 0.00000E+00
 -1      7445 5.59755E+01 4.29515E+01 0.00000E+00
 -1      7446 5.82145E+01 4.46696E+01 1.58750E+00
 -1      7447 6.08808E+01 4.06792E+01 3.17500E+00
 -1      7448 5.59755E+01 4.29515E+01 3.17500E+00
 -1      7449 5.82145E+01 4.46696E+01 4.76250E+00
 -1      7450 6.08808E+01 4.06792E+01 6.35000E+00
 -1      7451 5.59755E+01 4.29515E+01 6.35000E+00
 -1      7452 5.82145E+01 4.46696E+01 7.93750E+00
 -1      7453 5.18859E+01 5.18859E+01-7.93750E+00
 -1      7454 5.50502E+01 4.82777E+01-6.35000E+00
 -1      7455 4.98903E+01 4.98903E+01-6.35000E+00
 -1      7456 5.18859E+01 5.18859E+01-4.76250E+00
 -1      7457 5.50502E+01 4.82777E+01-3.17500E+00
 -1      7458 4.98903E+01 4.98903E+01-3.17500E+00
 -1      7459 5.18859E+01 5.18859E+01-1.58750E+00
 -1      7460 5.50502E+01 4.82777E+01 0.00000E+00
 -1      7461 4.98903E+01 4.98903E+01 0.00000E+00
 -1      7462 5.18859E+01 5.18859E+01 1.58750E+00
 -1      7463 5.50502E+01 4.82777E+01 3.17500E+00
 -1      7464 4.98903E+01 4.98903E+01 3.17500E+00
 -1      7465 5.18859E+01 5.18859E+01 4.76250E+00
 -1      7466 5.50502E+01 4.82777E+01 6.35000E+00
 -1      7467 4.98903E+01 4.98903E+01 6.35000E+00
 -1      7468 5.18859E+01 5.18859E+01 7.93750E+00
 -1      7469 4.46696E+01 5.82145E+01-7.93750E+00
 -1      7470 4.82777E+01 5.50502E+01-6.35000E+00
 -1      7471 4.29515E+01 5.59755E+01-6.35000E+00
 -1      7472 4.46696E+01 5.82145E+01-4.76250E+00
 -1      7473 4.82777E+01 5.50502E+01-3.17500E+00
 -1      7474 4.29515E+01 5.59755E+01-3.17500E+00
 -1      7475 4.46696E+01 5.82145E+01-1.58750E+00
 -1      7476 4.82777E+01 5.50502E+01 0.00000E+00
 -1      7477 4.29515E+01 5.59755E+01 0.00000E+00
 -1      7478 4.46696E+01 5.82145E+01 1.58750E+00
 -1      7479 4.82777E+01 5.50502E+01 3.17500E+00
 -1      7480 4.29515E+01 5.59755E+01 3.17500E+00
 -1      7481 4.46696E+01 5.82145E+01 4.76250E+00
 -1      7482 4.82777E+01 5.50502E+01 6.35000E+00
 -1      7483 4.29515E+01 5.59755E+01 6.35000E+00
 -1      7484 4.46696E+01 5.82145E+01 7.93750E+00
 -1      7485 3.66889E+01 6.35470E+01-7.93750E+00
 -1      7486 4.06792E+01 6.08808E+01-6.35000E+00
 -1      7487 3.52778E+01 6.11029E+01-6.35000E+00
 -1      7488 3.66889E+01 6.35470E+01-4.76250E+00
 -1      7489 4.06792E+01 6.08808E+01-3.17500E+00
 -1      7490 3.52778E+01 6.11029E+01-3.17500E+00
 -1      7491 3.66889E+01 6.35470E+01-1.58750E+00
 -1      7492 4.06792E+01 6.08808E+01 0.00000E+00
 -1      7493 3.52778E+01 6.11029E+01 0.00000E+00
 -1      7494 3.66889E+01 6.35470E+01 1.58750E+00
 -1      7495 4.06792E+01 6.08808E+01 3.17500E+00
 -1      7496 3.52778E+01 6.11029E+01 3.17500E+00
 -1      7497 3.66889E+01 6.35470E+01 4.76250E+00
 -1      7498 4.06792E+01 6.08808E+01 6.35000E+00
 -1      7499 3.52778E+01 6.11029E+01 6.35000E+00
 -1      7500 3.66889E+01 6.35470E+01 7.93750E+00
 -1      7501 2.80805E+01 6.77922E+01-7.93750E+00
 -1      7502 3.23847E+01 6.56696E+01-6.35000E+00
 -1      7503 2.70004E+01 6.51848E+01-6.35000E+00
 -1      7504 2.80805E+01 6.77922E+01-4.76250E+00
 -1      7505 3.23847E+01 6.56696E+01-3.17500E+00
 -1      7506 2.70004E+01 6.51848E+01-3.17500E+00
 -1      7507 2.80805E+01 6.77922E+01-1.58750E+00
 -1      7508 3.23847E+01 6.56696E+01 0.00000E+00
 -1      7509 2.70004E+01 6.51848E+01 0.00000E+00
 -1      7510 2.80805E+01 6.77922E+01 1.58750E+00
 -1      7511 3.23847E+01 6.56696E+01 3.17500E+00
 -1      7512 2.70004E+01 6.51848E+01 3.17500E+00
 -1      7513 2.80805E+01 6.77922E+01 4.76250E+00
 -1      7514 3.23847E+01 6.56696E+01 6.35000E+00
 -1      7515 2.70004E+01 6.51848E+01 6.35000E+00
 -1      7516 2.80805E+01 6.77922E+01 7.93750E+00
 -1      7517 1.89916E+01 7.08775E+01-7.93750E+00
 -1      7518 2.35360E+01 6.93349E+01-6.35000E+00
 -1      7519 1.82611E+01 6.81514E+01-6.35000E+00
 -1      7520 1.89916E+01 7.08775E+01-4.76250E+00
 -1      7521 2.35360E+01 6.93349E+01-3.17500E+00
 -1      7522 1.82611E+01 6.81514E+01-3.17500E+00
 -1      7523 1.89916E+01 7.08775E+01-1.58750E+00
 -1      7524 2.35360E+01 6.93349E+01 0.00000E+00
 -1      7525 1.82611E+01 6.81514E+01 0.00000E+00
 -1      7526 1.89916E+01 7.08775E+01 1.58750E+00
 -1      7527 2.35360E+01 6.93349E+01 3.17500E+00
 -1      7528 1.82611E+01 6.81514E+01 3.17500E+00
 -1      7529 1.89916E+01 7.08775E+01 4.76250E+00
 -1      7530 2.35360E+01 6.93349E+01 6.35000E+00
 -1      7531 1.82611E+01 6.81514E+01 6.35000E+00
 -1      7532 1.89916E+01 7.08775E+01 7.93750E+00
 -1      7533 9.57772E+00 7.27500E+01-7.93750E+00
 -1      7534 1.42846E+01 7.18138E+01-6.35000E+00
 -1      7535 9.20935E+00 6.99519E+01-6.35000E+00
 -1      7536 9.57772E+00 7.27500E+01-4.76250E+00
 -1      7537 1.42846E+01 7.18138E+01-3.17500E+00
 -1      7538 9.20935E+00 6.99519E+01-3.17500E+00
 -1      7539 9.57772E+00 7.27500E+01-1.58750E+00
 -1      7540 1.42846E+01 7.18138E+01 0.00000E+00
 -1      7541 9.20935E+00 6.99519E+01 0.00000E+00
 -1      7542 9.57772E+00 7.27500E+01 1.58750E+00
 -1      7543 1.42846E+01 7.18138E+01 3.17500E+00
 -1      7544 9.20935E+00 6.99519E+01 3.17500E+00
 -1      7545 9.57772E+00 7.27500E+01 4.76250E+00
 -1      7546 1.42846E+01 7.18138E+01 6.35000E+00
 -1      7547 9.20935E+00 6.99519E+01 6.35000E+00
 -1      7548 9.57772E+00 7.27500E+01 7.93750E+00
 -1      7549 4.78886E+00 7.30639E+01-6.35000E+00
 -1      7550 4.78886E+00 7.30639E+01-3.17500E+00
 -1      7551 4.78886E+00 7.30639E+01 0.00000E+00
 -1      7552 4.78886E+00 7.30639E+01 3.17500E+00
 -1      7553 4.78886E+00 7.30639E+01 6.35000E+00
 -1      7554 1.03145E+01-7.83462E+01-7.93750E+00
 -1      7555 5.15723E+00-7.86842E+01-6.35000E+00
 -1      7556 9.94610E+00-7.55481E+01-6.35000E+00
 -1      7557 1.03145E+01-7.83462E+01-4.76250E+00
 -1      7558 5.15723E+00-7.86842E+01-3.17500E+00
 -1      7559 9.94610E+00-7.55481E+01-3.17500E+00
 -1      7560 1.03145E+01-7.83462E+01-1.58750E+00
 -1      7561 5.15723E+00-7.86842E+01 0.00000E+00
 -1      7562 9.94610E+00-7.55481E+01 0.00000E+00
 -1      7563 1.03145E+01-7.83462E+01 1.58750E+00
 -1      7564 5.15723E+00-7.86842E+01 3.17500E+00
 -1      7565 9.94610E+00-7.55481E+01 3.17500E+00
 -1      7566 1.03145E+01-7.83462E+01 4.76250E+00
 -1      7567 5.15723E+00-7.86842E+01 6.35000E+00
 -1      7568 9.94610E+00-7.55481E+01 6.35000E+00
 -1      7569 1.03145E+01-7.83462E+01 7.93750E+00
 -1      7570 2.04525E+01-7.63296E+01-7.93750E+00
 -1      7571 1.53835E+01-7.73379E+01-6.35000E+00
 -1      7572 1.97220E+01-7.36035E+01-6.35000E+00
 -1      7573 2.04525E+01-7.63296E+01-4.76250E+00
 -1      7574 1.53835E+01-7.73379E+01-3.17500E+00
 -1      7575 1.97220E+01-7.36035E+01-3.17500E+00
 -1      7576 2.04525E+01-7.63296E+01-1.58750E+00
 -1      7577 1.53835E+01-7.73379E+01 0.00000E+00
 -1      7578 1.97220E+01-7.36035E+01 0.00000E+00
 -1      7579 2.04525E+01-7.63296E+01 1.58750E+00
 -1      7580 1.53835E+01-7.73379E+01 3.17500E+00
 -1      7581 1.97220E+01-7.36035E+01 3.17500E+00
 -1      7582 2.04525E+01-7.63296E+01 4.76250E+00
 -1      7583 1.53835E+01-7.73379E+01 6.35000E+00
 -1      7584 1.97220E+01-7.36035E+01 6.35000E+00
 -1      7585 2.04525E+01-7.63296E+01 7.93750E+00
 -1      7586 3.02405E+01-7.30070E+01-7.93750E+00
 -1      7587 2.53465E+01-7.46683E+01-6.35000E+00
 -1      7588 2.91605E+01-7.03996E+01-6.35000E+00
 -1      7589 3.02405E+01-7.30070E+01-4.76250E+00
 -1      7590 2.53465E+01-7.46683E+01-3.17500E+00
 -1      7591 2.91605E+01-7.03996E+01-3.17500E+00
 -1      7592 3.02405E+01-7.30070E+01-1.58750E+00
 -1      7593 2.53465E+01-7.46683E+01 0.00000E+00
 -1      7594 2.91605E+01-7.03996E+01 0.00000E+00
 -1      7595 3.02405E+01-7.30070E+01 1.58750E+00
 -1      7596 2.53465E+01-7.46683E+01 3.17500E+00
 -1      7597 2.91605E+01-7.03996E+01 3.17500E+00
 -1      7598 3.02405E+01-7.30070E+01 4.76250E+00
 -1      7599 2.53465E+01-7.46683E+01 6.35000E+00
 -1      7600 2.91605E+01-7.03996E+01 6.35000E+00
 -1      7601 3.02405E+01-7.30070E+01 7.93750E+00
 -1      7602 3.95111E+01-6.84352E+01-7.93750E+00
 -1      7603 3.48758E+01-7.07211E+01-6.35000E+00
 -1      7604 3.81000E+01-6.59911E+01-6.35000E+00
 -1      7605 3.95111E+01-6.84352E+01-4.76250E+00
 -1      7606 3.48758E+01-7.07211E+01-3.17500E+00
 -1      7607 3.81000E+01-6.59911E+01-3.17500E+00
 -1      7608 3.95111E+01-6.84352E+01-1.58750E+00
 -1      7609 3.48758E+01-7.07211E+01 0.00000E+00
 -1      7610 3.81000E+01-6.59911E+01 0.00000E+00
 -1      7611 3.95111E+01-6.84352E+01 1.58750E+00
 -1      7612 3.48758E+01-7.07211E+01 3.17500E+00
 -1      7613 3.81000E+01-6.59911E+01 3.17500E+00
 -1      7614 3.95111E+01-6.84352E+01 4.76250E+00
 -1      7615 3.48758E+01-7.07211E+01 6.35000E+00
 -1      7616 3.81000E+01-6.59911E+01 6.35000E+00
 -1      7617 3.95111E+01-6.84352E+01 7.93750E+00
 -1      7618 4.81057E+01-6.26925E+01-7.93750E+00
 -1      7619 4.38084E+01-6.55639E+01-6.35000E+00
 -1      7620 4.63876E+01-6.04535E+01-6.35000E+00
 -1      7621 4.81057E+01-6.26925E+01-4.76250E+00
 -1      7622 4.38084E+01-6.55639E+01-3.17500E+00
 -1      7623 4.63876E+01-6.04535E+01-3.17500E+00
 -1      7624 4.81057E+01-6.26925E+01-1.58750E+00
 -1      7625 4.38084E+01-6.55639E+01 0.00000E+00
 -1      7626 4.63876E+01-6.04535E+01 0.00000E+00
 -1      7627 4.81057E+01-6.26925E+01 1.58750E+00
 -1      7628 4.38084E+01-6.55639E+01 3.17500E+00
 -1      7629 4.63876E+01-6.04535E+01 3.17500E+00
 -1      7630 4.81057E+01-6.26925E+01 4.76250E+00
 -1      7631 4.38084E+01-6.55639E+01 6.35000E+00
 -1      7632 4.63876E+01-6.04535E+01 6.35000E+00
 -1      7633 4.81057E+01-6.26925E+01 7.93750E+00
 -1      7634 5.58771E+01-5.58771E+01-7.93750E+00
 -1      7635 5.19914E+01-5.92848E+01-6.35000E+00
 -1      7636 5.38815E+01-5.38815E+01-6.35000E+00
 -1      7637 5.58771E+01-5.58771E+01-4.76250E+00
 -1      7638 5.19914E+01-5.92848E+01-3.17500E+00
 -1      7639 5.38815E+01-5.38815E+01-3.17500E+00
 -1      7640 5.58771E+01-5.58771E+01-1.58750E+00
 -1      7641 5.19914E+01-5.92848E+01 0.00000E+00
 -1      7642 5.38815E+01-5.38815E+01 0.00000E+00
 -1      7643 5.58771E+01-5.58771E+01 1.58750E+00
 -1      7644 5.19914E+01-5.92848E+01 3.17500E+00
 -1      7645 5.38815E+01-5.38815E+01 3.17500E+00
 -1      7646 5.58771E+01-5.58771E+01 4.76250E+00
 -1      7647 5.19914E+01-5.92848E+01 6.35000E+00
 -1      7648 5.38815E+01-5.38815E+01 6.35000E+00
 -1      7649 5.58771E+01-5.58771E+01 7.93750E+00
 -1      7650 6.26925E+01-4.81057E+01-7.93750E+00
 -1      7651 5.92848E+01-5.19914E+01-6.35000E+00
 -1      7652 6.04535E+01-4.63876E+01-6.35000E+00
 -1      7653 6.26925E+01-4.81057E+01-4.76250E+00
 -1      7654 5.92848E+01-5.19914E+01-3.17500E+00
 -1      7655 6.04535E+01-4.63876E+01-3.17500E+00
 -1      7656 6.26925E+01-4.81057E+01-1.58750E+00
 -1      7657 5.92848E+01-5.19914E+01 0.00000E+00
 -1      7658 6.04535E+01-4.63876E+01 0.00000E+00
 -1      7659 6.26925E+01-4.81057E+01 1.58750E+00
 -1      7660 5.92848E+01-5.19914E+01 3.17500E+00
 -1      7661 6.04535E+01-4.63876E+01 3.17500E+00
 -1      7662 6.26925E+01-4.81057E+01 4.76250E+00
 -1      7663 5.92848E+01-5.19914E+01 6.35000E+00
 -1      7664 6.04535E+01-4.63876E+01 6.35000E+00
 -1      7665 6.26925E+01-4.81057E+01 7.93750E+00
 -1      7666 6.84352E+01-3.95111E+01-7.93750E+00
 -1      7667 6.55639E+01-4.38084E+01-6.35000E+00
 -1      7668 6.59911E+01-3.81000E+01-6.35000E+00
 -1      7669 6.84352E+01-3.95111E+01-4.76250E+00
 -1      7670 6.55639E+01-4.38084E+01-3.17500E+00
 -1      7671 6.59911E+01-3.81000E+01-3.17500E+00
 -1      7672 6.84352E+01-3.95111E+01-1.58750E+00
 -1      7673 6.55639E+01-4.38084E+01 0.00000E+00
 -1      7674 6.59911E+01-3.81000E+01 0.00000E+00
 -1      7675 6.84352E+01-3.95111E+01 1.58750E+00
 -1      7676 6.55639E+01-4.38084E+01 3.17500E+00
 -1      7677 6.59911E+01-3.81000E+01 3.17500E+00
 -1      7678 6.84352E+01-3.95111E+01 4.76250E+00
 -1      7679 6.55639E+01-4.38084E+01 6.35000E+00
 -1      7680 6.59911E+01-3.81000E+01 6.35000E+00
 -1      7681 6.84352E+01-3.95111E+01 7.93750E+00
 -1      7682 7.30070E+01-3.02405E+01-7.93750E+00
 -1      7683 7.07211E+01-3.48758E+01-6.35000E+00
 -1      7684 7.03996E+01-2.91605E+01-6.35000E+00
 -1      7685 7.30070E+01-3.02405E+01-4.76250E+00
 -1      7686 7.07211E+01-3.48758E+01-3.17500E+00
 -1      7687 7.03996E+01-2.91605E+01-3.17500E+00
 -1      7688 7.30070E+01-3.02405E+01-1.58750E+00
 -1      7689 7.07211E+01-3.48758E+01 0.00000E+00
 -1      7690 7.03996E+01-2.91605E+01 0.00000E+00
 -1      7691 7.30070E+01-3.02405E+01 1.58750E+00
 -1      7692 7.07211E+01-3.48758E+01 3.17500E+00
 -1      7693 7.03996E+01-2.91605E+01 3.17500E+00
 -1      7694 7.30070E+01-3.02405E+01 4.76250E+00
 -1      7695 7.07211E+01-3.48758E+01 6.35000E+00
 -1      7696 7.03996E+01-2.91605E+01 6.35000E+00
 -1      7697 7.30070E+01-3.02405E+01 7.93750E+00
 -1      7698 7.63296E+01-2.04525E+01-7.93750E+00
 -1      7699 7.46683E+01-2.53465E+01-6.35000E+00
 -1      7700 7.36035E+01-1.97220E+01-6.35000E+00
 -1      7701 7.63296E+01-2.04525E+01-4.76250E+00
 -1      7702 7.46683E+01-2.53465E+01-3.17500E+00
 -1      7703 7.36035E+01-1.97220E+01-3.17500E+00
 -1      7704 7.63296E+01-2.04525E+01-1.58750E+00
 -1      7705 7.46683E+01-2.53465E+01 0.00000E+00
 -1      7706 7.36035E+01-1.97220E+01 0.00000E+00
 -1      7707 7.63296E+01-2.04525E+01 1.58750E+00
 -1      7708 7.46683E+01-2.53465E+01 3.17500E+00
 -1      7709 7.36035E+01-1.97220E+01 3.17500E+00
 -1      7710 7.63296E+01-2.04525E+01 4.76250E+00
 -1      7711 7.46683E+01-2.53465E+01 6.35000E+00
 -1      7712 7.36035E+01-1.97220E+01 6.35000E+00
 -1      7713 7.63296E+01-2.04525E+01 7.93750E+00
 -1      7714 7.83462E+01-1.03145E+01-7.93750E+00
 -1      7715 7.73379E+01-1.53835E+01-6.35000E+00
 -1      7716 7.55481E+01-9.94610E+00-6.35000E+00
 -1      7717 7.83462E+01-1.03145E+01-4.76250E+00
 -1      7718 7.73379E+01-1.53835E+01-3.17500E+00
 -1      7719 7.55481E+01-9.94610E+00-3.17500E+00
 -1      7720 7.83462E+01-1.03145E+01-1.58750E+00
 -1      7721 7.73379E+01-1.53835E+01 0.00000E+00
 -1      7722 7.55481E+01-9.94610E+00 0.00000E+00
 -1      7723 7.83462E+01-1.03145E+01 1.58750E+00
 -1      7724 7.73379E+01-1.53835E+01 3.17500E+00
 -1      7725 7.55481E+01-9.94610E+00 3.17500E+00
 -1      7726 7.83462E+01-1.03145E+01 4.76250E+00
 -1      7727 7.73379E+01-1.53835E+01 6.35000E+00
 -1      7728 7.55481E+01-9.94610E+00 6.35000E+00
 -1      7729 7.83462E+01-1.03145E+01 7.93750E+00
 -1      7730 7.90222E+01 3.67580E-07-7.93750E+00
 -1      7731 7.86842E+01-5.15723E+00-6.35000E+00
 -1      7732 7.62000E+01 3.54780E-07-6.35000E+00
 -1      7733 7.90222E+01 3.67580E-07-4.76250E+00
 -1      7734 7.86842E+01-5.15723E+00-3.17500E+00
 -1      7735 7.62000E+01 3.54780E-07-3.17500E+00
 -1      7736 7.90222E+01 3.67580E-07-1.58750E+00
 -1      7737 7.86842E+01-5.15723E+00 0.00000E+00
 -1      7738 7.62000E+01 3.54780E-07 0.00000E+00
 -1      7739 7.90222E+01 3.67580E-07 1.58750E+00
 -1      7740 7.86842E+01-5.15723E+00 3.17500E+00
 -1      7741 7.62000E+01 3.54780E-07 3.17500E+00
 -1      7742 7.90222E+01 3.67580E-07 4.76250E+00
 -1      7743 7.86842E+01-5.15723E+00 6.35000E+00
 -1      7744 7.62000E+01 3.54780E-07 6.35000E+00
 -1      7745 7.90222E+01 3.67580E-07 7.93750E+00
 -1      7746 7.83462E+01 1.03145E+01-7.93750E+00
 -1      7747 7.86842E+01 5.15724E+00-6.35000E+00
 -1      7748 7.55481E+01 9.94610E+00-6.35000E+00
 -1      7749 7.83462E+01 1.03145E+01-4.76250E+00
 -1      7750 7.86842E+01 5.15724E+00-3.17500E+00
 -1      7751 7.55481E+01 9.94610E+00-3.17500E+00
 -1      7752 7.83462E+01 1.03145E+01-1.58750E+00
 -1      7753 7.86842E+01 5.15724E+00 0.00000E+00
 -1      7754 7.55481E+01 9.94610E+00 0.00000E+00
 -1      7755 7.83462E+01 1.03145E+01 1.58750E+00
 -1      7756 7.86842E+01 5.15724E+00 3.17500E+00
 -1      7757 7.55481E+01 9.94610E+00 3.17500E+00
 -1      7758 7.83462E+01 1.03145E+01 4.76250E+00
 -1      7759 7.86842E+01 5.15724E+00 6.35000E+00
 -1      7760 7.55481E+01 9.94610E+00 6.35000E+00
 -1      7761 7.83462E+01 1.03145E+01 7.93750E+00
 -1      7762 7.63296E+01 2.04525E+01-7.93750E+00
 -1      7763 7.73379E+01 1.53835E+01-6.35000E+00
 -1      7764 7.36035E+01 1.97220E+01-6.35000E+00
 -1      7765 7.63296E+01 2.04525E+01-4.76250E+00
 -1      7766 7.73379E+01 1.53835E+01-3.17500E+00
 -1      7767 7.36035E+01 1.97220E+01-3.17500E+00
 -1      7768 7.63296E+01 2.04525E+01-1.58750E+00
 -1      7769 7.73379E+01 1.53835E+01 0.00000E+00
 -1      7770 7.36035E+01 1.97220E+01 0.00000E+00
 -1      7771 7.63296E+01 2.04525E+01 1.58750E+00
 -1      7772 7.73379E+01 1.53835E+01 3.17500E+00
 -1      7773 7.36035E+01 1.97220E+01 3.17500E+00
 -1      7774 7.63296E+01 2.04525E+01 4.76250E+00
 -1      7775 7.73379E+01 1.53835E+01 6.35000E+00
 -1      7776 7.36035E+01 1.97220E+01 6.35000E+00
 -1      7777 7.63296E+01 2.04525E+01 7.93750E+00
 -1      7778 7.30070E+01 3.02405E+01-7.93750E+00
 -1      7779 7.46683E+01 2.53465E+01-6.35000E+00
 -1      7780 7.03996E+01 2.91605E+01-6.35000E+00
 -1      7781 7.30070E+01 3.02405E+01-4.76250E+00
 -1      7782 7.46683E+01 2.53465E+01-3.17500E+00
 -1      7783 7.03996E+01 2.91605E+01-3.17500E+00
 -1      7784 7.30070E+01 3.02405E+01-1.58750E+00
 -1      7785 7.46683E+01 2.53465E+01 0.00000E+00
 -1      7786 7.03996E+01 2.91605E+01 0.00000E+00
 -1      7787 7.30070E+01 3.02405E+01 1.58750E+00
 -1      7788 7.46683E+01 2.53465E+01 3.17500E+00
 -1      7789 7.03996E+01 2.91605E+01 3.17500E+00
 -1      7790 7.30070E+01 3.02405E+01 4.76250E+00
 -1      7791 7.46683E+01 2.53465E+01 6.35000E+00
 -1      7792 7.03996E+01 2.91605E+01 6.35000E+00
 -1      7793 7.30070E+01 3.02405E+01 7.93750E+00
 -1      7794 6.84352E+01 3.95111E+01-7.93750E+00
 -1      7795 7.07211E+01 3.48758E+01-6.35000E+00
 -1      7796 6.59911E+01 3.81000E+01-6.35000E+00
 -1      7797 6.84352E+01 3.95111E+01-4.76250E+00
 -1      7798 7.07211E+01 3.48758E+01-3.17500E+00
 -1      7799 6.59911E+01 3.81000E+01-3.17500E+00
 -1      7800 6.84352E+01 3.95111E+01-1.58750E+00
 -1      7801 7.07211E+01 3.48758E+01 0.00000E+00
 -1      7802 6.59911E+01 3.81000E+01 0.00000E+00
 -1      7803 6.84352E+01 3.95111E+01 1.58750E+00
 -1      7804 7.07211E+01 3.48758E+01 3.17500E+00
 -1      7805 6.59911E+01 3.81000E+01 3.17500E+00
 -1      7806 6.84352E+01 3.95111E+01 4.76250E+00
 -1      7807 7.07211E+01 3.48758E+01 6.35000E+00
 -1      7808 6.59911E+01 3.81000E+01 6.35000E+00
 -1      7809 6.84352E+01 3.95111E+01 7.93750E+00
 -1      7810 6.26925E+01 4.81057E+01-7.93750E+00
 -1      7811 6.55639E+01 4.38084E+01-6.35000E+00
 -1      7812 6.04535E+01 4.63876E+01-6.35000E+00
 -1      7813 6.26925E+01 4.81057E+01-4.76250E+00
 -1      7814 6.55639E+01 4.38084E+01-3.17500E+00
 -1      7815 6.04535E+01 4.63876E+01-3.17500E+00
 -1      7816 6.26925E+01 4.81057E+01-1.58750E+00
 -1      7817 6.55639E+01 4.38084E+01 0.00000E+00
 -1      7818 6.04535E+01 4.63876E+01 0.00000E+00
 -1      7819 6.26925E+01 4.81057E+01 1.58750E+00
 -1      7820 6.55639E+01 4.38084E+01 3.17500E+00
 -1      7821 6.04535E+01 4.63876E+01 3.17500E+00
 -1      7822 6.26925E+01 4.81057E+01 4.76250E+00
 -1      7823 6.55639E+01 4.38084E+01 6.35000E+00
 -1      7824 6.04535E+01 4.63876E+01 6.35000E+00
 -1      7825 6.26925E+01 4.81057E+01 7.93750E+00
 -1      7826 5.58771E+01 5.58771E+01-7.93750E+00
 -1      7827 5.92848E+01 5.19914E+01-6.35000E+00
 -1      7828 5.38815E+01 5.38815E+01-6.35000E+00
 -1      7829 5.58771E+01 5.58771E+01-4.76250E+00
 -1      7830 5.92848E+01 5.19914E+01-3.17500E+00
 -1      7831 5.38815E+01 5.38815E+01-3.17500E+00
 -1      7832 5.58771E+01 5.58771E+01-1.58750E+00
 -1      7833 5.92848E+01 5.19914E+01 0.00000E+00
 -1      7834 5.38815E+01 5.38815E+01 0.00000E+00
 -1      7835 5.58771E+01 5.58771E+01 1.58750E+00
 -1      7836 5.92848E+01 5.19914E+01 3.17500E+00
 -1      7837 5.38815E+01 5.38815E+01 3.17500E+00
 -1      7838 5.58771E+01 5.58771E+01 4.76250E+00
 -1      7839 5.92848E+01 5.19914E+01 6.35000E+00
 -1      7840 5.38815E+01 5.38815E+01 6.35000E+00
 -1      7841 5.58771E+01 5.58771E+01 7.93750E+00
 -1      7842 4.81057E+01 6.26925E+01-7.93750E+00
 -1      7843 5.19914E+01 5.92848E+01-6.35000E+00
 -1      7844 4.63876E+01 6.04535E+01-6.35000E+00
 -1      7845 4.81057E+01 6.26925E+01-4.76250E+00
 -1      7846 5.19914E+01 5.92848E+01-3.17500E+00
 -1      7847 4.63876E+01 6.04535E+01-3.17500E+00
 -1      7848 4.81057E+01 6.26925E+01-1.58750E+00
 -1      7849 5.19914E+01 5.92848E+01 0.00000E+00
 -1      7850 4.63876E+01 6.04535E+01 0.00000E+00
 -1      7851 4.81057E+01 6.26925E+01 1.58750E+00
 -1      7852 5.19914E+01 5.92848E+01 3.17500E+00
 -1      7853 4.63876E+01 6.04535E+01 3.17500E+00
 -1      7854 4.81057E+01 6.26925E+01 4.76250E+00
 -1      7855 5.19914E+01 5.92848E+01 6.35000E+00
 -1      7856 4.63876E+01 6.04535E+01 6.35000E+00
 -1      7857 4.81057E+01 6.26925E+01 7.93750E+00
 -1      7858 3.95111E+01 6.84352E+01-7.93750E+00
 -1      7859 4.38084E+01 6.55639E+01-6.35000E+00
 -1      7860 3.81000E+01 6.59911E+01-6.35000E+00
 -1      7861 3.95111E+01 6.84352E+01-4.76250E+00
 -1      7862 4.38084E+01 6.55639E+01-3.17500E+00
 -1      7863 3.81000E+01 6.59911E+01-3.17500E+00
 -1      7864 3.95111E+01 6.84352E+01-1.58750E+00
 -1      7865 4.38084E+01 6.55639E+01 0.00000E+00
 -1      7866 3.81000E+01 6.59911E+01 0.00000E+00
 -1      7867 3.95111E+01 6.84352E+01 1.58750E+00
 -1      7868 4.38084E+01 6.55639E+01 3.17500E+00
 -1      7869 3.81000E+01 6.59911E+01 3.17500E+00
 -1      7870 3.95111E+01 6.84352E+01 4.76250E+00
 -1      7871 4.38084E+01 6.55639E+01 6.35000E+00
 -1      7872 3.81000E+01 6.59911E+01 6.35000E+00
 -1      7873 3.95111E+01 6.84352E+01 7.93750E+00
 -1      7874 3.02405E+01 7.30070E+01-7.93750E+00
 -1      7875 3.48758E+01 7.07211E+01-6.35000E+00
 -1      7876 2.91605E+01 7.03996E+01-6.35000E+00
 -1      7877 3.02405E+01 7.30070E+01-4.76250E+00
 -1      7878 3.48758E+01 7.07211E+01-3.17500E+00
 -1      7879 2.91605E+01 7.03996E+01-3.17500E+00
 -1      7880 3.02405E+01 7.30070E+01-1.58750E+00
 -1      7881 3.48758E+01 7.07211E+01 0.00000E+00
 -1      7882 2.91605E+01 7.03996E+01 0.00000E+00
 -1      7883 3.02405E+01 7.30070E+01 1.58750E+00
 -1      7884 3.48758E+01 7.07211E+01 3.17500E+00
 -1      7885 2.91605E+01 7.03996E+01 3.17500E+00
 -1      7886 3.02405E+01 7.30070E+01 4.76250E+00
 -1      7887 3.48758E+01 7.07211E+01 6.35000E+00
 -1      7888 2.91605E+01 7.03996E+01 6.35000E+00
 -1      7889 3.02405E+01 7.30070E+01 7.93750E+00
 -1      7890 2.04525E+01 7.63296E+01-7.93750E+00
 -1      7891 2.53465E+01 7.46683E+01-6.35000E+00
 -1      7892 1.97220E+01 7.36035E+01-6.35000E+00
 -1      7893 2.04525E+01 7.63296E+01-4.76250E+00
 -1      7894 2.53465E+01 7.46683E+01-3.17500E+00
 -1      7895 1.97220E+01 7.36035E+01-3.17500E+00
 -1      7896 2.04525E+01 7.63296E+01-1.58750E+00
 -1      7897 2.53465E+01 7.46683E+01 0.00000E+00
 -1      7898 1.97220E+01 7.36035E+01 0.00000E+00
 -1      7899 2.04525E+01 7.63296E+01 1.58750E+00
 -1      7900 2.53465E+01 7.46683E+01 3.17500E+00
 -1      7901 1.97220E+01 7.36035E+01 3.17500E+00
 -1      7902 2.04525E+01 7.63296E+01 4.76250E+00
 -1      7903 2.53465E+01 7.46683E+01 6.35000E+00
 -1      7904 1.97220E+01 7.36035E+01 6.35000E+00
 -1      7905 2.04525E+01 7.63296E+01 7.93750E+00
 -1      7906 1.03145E+01 7.83462E+01-7.93750E+00
 -1      7907 1.53835E+01 7.73379E+01-6.35000E+00
 -1      7908 9.94610E+00 7.55481E+01-6.35000E+00
 -1      7909 1.03145E+01 7.83462E+01-4.76250E+00
 -1      7910 1.53835E+01 7.73379E+01-3.17500E+00
 -1      7911 9.94610E+00 7.55481E+01-3.17500E+00
 -1      7912 1.03145E+01 7.83462E+01-1.58750E+00
 -1      7913 1.53835E+01 7.73379E+01 0.00000E+00
 -1      7914 9.94610E+00 7.55481E+01 0.00000E+00
 -1      7915 1.03145E+01 7.83462E+01 1.58750E+00
 -1      7916 1.53835E+01 7.73379E+01 3.17500E+00
 -1      7917 9.94610E+00 7.55481E+01 3.17500E+00
 -1      7918 1.03145E+01 7.83462E+01 4.76250E+00
 -1      7919 1.53835E+01 7.73379E+01 6.35000E+00
 -1      7920 9.94610E+00 7.55481E+01 6.35000E+00
 -1      7921 1.03145E+01 7.83462E+01 7.93750E+00
 -1      7922 5.15723E+00 7.86842E+01-6.35000E+00
 -1      7923 5.15723E+00 7.86842E+01-3.17500E+00
 -1      7924 5.15723E+00 7.86842E+01 0.00000E+00
 -1      7925 5.15723E+00 7.86842E+01 3.17500E+00
 -1      7926 5.15723E+00 7.86842E+01 6.35000E+00
 -1      7927 1.10512E+01-8.39423E+01-7.93750E+00
 -1      7928 5.52561E+00-8.43045E+01-6.35000E+00
 -1      7929 1.06828E+01-8.11443E+01-6.35000E+00
 -1      7930 1.10512E+01-8.39423E+01-4.76250E+00
 -1      7931 5.52561E+00-8.43045E+01-3.17500E+00
 -1      7932 1.06828E+01-8.11443E+01-3.17500E+00
 -1      7933 1.10512E+01-8.39423E+01-1.58750E+00
 -1      7934 5.52561E+00-8.43045E+01 0.00000E+00
 -1      7935 1.06828E+01-8.11443E+01 0.00000E+00
 -1      7936 1.10512E+01-8.39423E+01 1.58750E+00
 -1      7937 5.52561E+00-8.43045E+01 3.17500E+00
 -1      7938 1.06828E+01-8.11443E+01 3.17500E+00
 -1      7939 1.10512E+01-8.39423E+01 4.76250E+00
 -1      7940 5.52561E+00-8.43045E+01 6.35000E+00
 -1      7941 1.06828E+01-8.11443E+01 6.35000E+00
 -1      7942 1.10512E+01-8.39423E+01 7.93750E+00
 -1      7943 2.19133E+01-8.17817E+01-7.93750E+00
 -1      7944 1.64823E+01-8.28620E+01-6.35000E+00
 -1      7945 2.11829E+01-7.90557E+01-6.35000E+00
 -1      7946 2.19133E+01-8.17817E+01-4.76250E+00
 -1      7947 1.64823E+01-8.28620E+01-3.17500E+00
 -1      7948 2.11829E+01-7.90557E+01-3.17500E+00
 -1      7949 2.19133E+01-8.17817E+01-1.58750E+00
 -1      7950 1.64823E+01-8.28620E+01 0.00000E+00
 -1      7951 2.11829E+01-7.90557E+01 0.00000E+00
 -1      7952 2.19133E+01-8.17817E+01 1.58750E+00
 -1      7953 1.64823E+01-8.28620E+01 3.17500E+00
 -1      7954 2.11829E+01-7.90557E+01 3.17500E+00
 -1      7955 2.19133E+01-8.17817E+01 4.76250E+00
 -1      7956 1.64823E+01-8.28620E+01 6.35000E+00
 -1      7957 2.11829E+01-7.90557E+01 6.35000E+00
 -1      7958 2.19133E+01-8.17817E+01 7.93750E+00
 -1      7959 3.24005E+01-7.82218E+01-7.93750E+00
 -1      7960 2.71569E+01-8.00018E+01-6.35000E+00
 -1      7961 3.13205E+01-7.56144E+01-6.35000E+00
 -1      7962 3.24005E+01-7.82218E+01-4.76250E+00
 -1      7963 2.71569E+01-8.00018E+01-3.17500E+00
 -1      7964 3.13205E+01-7.56144E+01-3.17500E+00
 -1      7965 3.24005E+01-7.82218E+01-1.58750E+00
 -1      7966 2.71569E+01-8.00018E+01 0.00000E+00
 -1      7967 3.13205E+01-7.56144E+01 0.00000E+00
 -1      7968 3.24005E+01-7.82218E+01 1.58750E+00
 -1      7969 2.71569E+01-8.00018E+01 3.17500E+00
 -1      7970 3.13205E+01-7.56144E+01 3.17500E+00
 -1      7971 3.24005E+01-7.82218E+01 4.76250E+00
 -1      7972 2.71569E+01-8.00018E+01 6.35000E+00
 -1      7973 3.13205E+01-7.56144E+01 6.35000E+00
 -1      7974 3.24005E+01-7.82218E+01 7.93750E+00
 -1      7975 4.23333E+01-7.33235E+01-7.93750E+00
 -1      7976 3.73669E+01-7.57726E+01-6.35000E+00
 -1      7977 4.09222E+01-7.08794E+01-6.35000E+00
 -1      7978 4.23333E+01-7.33235E+01-4.76250E+00
 -1      7979 3.73669E+01-7.57726E+01-3.17500E+00
 -1      7980 4.09222E+01-7.08794E+01-3.17500E+00
 -1      7981 4.23333E+01-7.33235E+01-1.58750E+00
 -1      7982 3.73669E+01-7.57726E+01 0.00000E+00
 -1      7983 4.09222E+01-7.08794E+01 0.00000E+00
 -1      7984 4.23333E+01-7.33235E+01 1.58750E+00
 -1      7985 3.73669E+01-7.57726E+01 3.17500E+00
 -1      7986 4.09222E+01-7.08794E+01 3.17500E+00
 -1      7987 4.23333E+01-7.33235E+01 4.76250E+00
 -1      7988 3.73669E+01-7.57726E+01 6.35000E+00
 -1      7989 4.09222E+01-7.08794E+01 6.35000E+00
 -1      7990 4.23333E+01-7.33235E+01 7.93750E+00
 -1      7991 5.15418E+01-6.71706E+01-7.93750E+00
 -1      7992 4.69376E+01-7.02470E+01-6.35000E+00
 -1      7993 4.98237E+01-6.49316E+01-6.35000E+00
 -1      7994 5.15418E+01-6.71706E+01-4.76250E+00
 -1      7995 4.69376E+01-7.02470E+01-3.17500E+00
 -1      7996 4.98237E+01-6.49316E+01-3.17500E+00
 -1      7997 5.15418E+01-6.71706E+01-1.58750E+00
 -1      7998 4.69376E+01-7.02470E+01 0.00000E+00
 -1      7999 4.98237E+01-6.49316E+01 0.00000E+00
 -1      8000 5.15418E+01-6.71706E+01 1.58750E+00
 -1      8001 4.69376E+01-7.02470E+01 3.17500E+00
 -1      8002 4.98237E+01-6.49316E+01 3.17500E+00
 -1      8003 5.15418E+01-6.71706E+01 4.76250E+00
 -1      8004 4.69376E+01-7.02470E+01 6.35000E+00
 -1      8005 4.98237E+01-6.49316E+01 6.35000E+00
 -1      8006 5.15418E+01-6.71706E+01 7.93750E+00
 -1      8007 5.98684E+01-5.98684E+01-7.93750E+00
 -1      8008 5.57051E+01-6.35195E+01-6.35000E+00
 -1      8009 5.78728E+01-5.78728E+01-6.35000E+00
 -1      8010 5.98684E+01-5.98684E+01-4.76250E+00
 -1      8011 5.57051E+01-6.35195E+01-3.17500E+00
 -1      8012 5.78728E+01-5.78728E+01-3.17500E+00
 -1      8013 5.98684E+01-5.98684E+01-1.58750E+00
 -1      8014 5.57051E+01-6.35195E+01 0.00000E+00
 -1      8015 5.78728E+01-5.78728E+01 0.00000E+00
 -1      8016 5.98684E+01-5.98684E+01 1.58750E+00
 -1      8017 5.57051E+01-6.35195E+01 3.17500E+00
 -1      8018 5.78728E+01-5.78728E+01 3.17500E+00
 -1      8019 5.98684E+01-5.98684E+01 4.76250E+00
 -1      8020 5.57051E+01-6.35195E+01 6.35000E+00
 -1      8021 5.78728E+01-5.78728E+01 6.35000E+00
 -1      8022 5.98684E+01-5.98684E+01 7.93750E+00
 -1      8023 6.71706E+01-5.15418E+01-7.93750E+00
 -1      8024 6.35195E+01-5.57051E+01-6.35000E+00
 -1      8025 6.49316E+01-4.98237E+01-6.35000E+00
 -1      8026 6.71706E+01-5.15418E+01-4.76250E+00
 -1      8027 6.35195E+01-5.57051E+01-3.17500E+00
 -1      8028 6.49316E+01-4.98237E+01-3.17500E+00
 -1      8029 6.71706E+01-5.15418E+01-1.58750E+00
 -1      8030 6.35195E+01-5.57051E+01 0.00000E+00
 -1      8031 6.49316E+01-4.98237E+01 0.00000E+00
 -1      8032 6.71706E+01-5.15418E+01 1.58750E+00
 -1      8033 6.35195E+01-5.57051E+01 3.17500E+00
 -1      8034 6.49316E+01-4.98237E+01 3.17500E+00
 -1      8035 6.71706E+01-5.15418E+01 4.76250E+00
 -1      8036 6.35195E+01-5.57051E+01 6.35000E+00
 -1      8037 6.49316E+01-4.98237E+01 6.35000E+00
 -1      8038 6.71706E+01-5.15418E+01 7.93750E+00
 -1      8039 7.33235E+01-4.23333E+01-7.93750E+00
 -1      8040 7.02470E+01-4.69376E+01-6.35000E+00
 -1      8041 7.08794E+01-4.09222E+01-6.35000E+00
 -1      8042 7.33235E+01-4.23333E+01-4.76250E+00
 -1      8043 7.02470E+01-4.69376E+01-3.17500E+00
 -1      8044 7.08794E+01-4.09222E+01-3.17500E+00
 -1      8045 7.33235E+01-4.23333E+01-1.58750E+00
 -1      8046 7.02470E+01-4.69376E+01 0.00000E+00
 -1      8047 7.08794E+01-4.09222E+01 0.00000E+00
 -1      8048 7.33235E+01-4.23333E+01 1.58750E+00
 -1      8049 7.02470E+01-4.69376E+01 3.17500E+00
 -1      8050 7.08794E+01-4.09222E+01 3.17500E+00
 -1      8051 7.33235E+01-4.23333E+01 4.76250E+00
 -1      8052 7.02470E+01-4.69376E+01 6.35000E+00
 -1      8053 7.08794E+01-4.09222E+01 6.35000E+00
 -1      8054 7.33235E+01-4.23333E+01 7.93750E+00
 -1      8055 7.82218E+01-3.24005E+01-7.93750E+00
 -1      8056 7.57726E+01-3.73669E+01-6.35000E+00
 -1      8057 7.56144E+01-3.13205E+01-6.35000E+00
 -1      8058 7.82218E+01-3.24005E+01-4.76250E+00
 -1      8059 7.57726E+01-3.73669E+01-3.17500E+00
 -1      8060 7.56144E+01-3.13205E+01-3.17500E+00
 -1      8061 7.82218E+01-3.24005E+01-1.58750E+00
 -1      8062 7.57726E+01-3.73669E+01 0.00000E+00
 -1      8063 7.56144E+01-3.13205E+01 0.00000E+00
 -1      8064 7.82218E+01-3.24005E+01 1.58750E+00
 -1      8065 7.57726E+01-3.73669E+01 3.17500E+00
 -1      8066 7.56144E+01-3.13205E+01 3.17500E+00
 -1      8067 7.82218E+01-3.24005E+01 4.76250E+00
 -1      8068 7.57726E+01-3.73669E+01 6.35000E+00
 -1      8069 7.56144E+01-3.13205E+01 6.35000E+00
 -1      8070 7.82218E+01-3.24005E+01 7.93750E+00
 -1      8071 8.17817E+01-2.19133E+01-7.93750E+00
 -1      8072 8.00018E+01-2.71569E+01-6.35000E+00
 -1      8073 7.90557E+01-2.11829E+01-6.35000E+00
 -1      8074 8.17817E+01-2.19133E+01-4.76250E+00
 -1      8075 8.00018E+01-2.71569E+01-3.17500E+00
 -1      8076 7.90557E+01-2.11829E+01-3.17500E+00
 -1      8077 8.17817E+01-2.19133E+01-1.58750E+00
 -1      8078 8.00018E+01-2.71569E+01 0.00000E+00
 -1      8079 7.90557E+01-2.11829E+01 0.00000E+00
 -1      8080 8.17817E+01-2.19133E+01 1.58750E+00
 -1      8081 8.00018E+01-2.71569E+01 3.17500E+00
 -1      8082 7.90557E+01-2.11829E+01 3.17500E+00
 -1      8083 8.17817E+01-2.19133E+01 4.76250E+00
 -1      8084 8.00018E+01-2.71569E+01 6.35000E+00
 -1      8085 7.90557E+01-2.11829E+01 6.35000E+00
 -1      8086 8.17817E+01-2.19133E+01 7.93750E+00
 -1      8087 8.39423E+01-1.10512E+01-7.93750E+00
 -1      8088 8.28620E+01-1.64823E+01-6.35000E+00
 -1      8089 8.11443E+01-1.06828E+01-6.35000E+00
 -1      8090 8.39423E+01-1.10512E+01-4.76250E+00
 -1      8091 8.28620E+01-1.64823E+01-3.17500E+00
 -1      8092 8.11443E+01-1.06828E+01-3.17500E+00
 -1      8093 8.39423E+01-1.10512E+01-1.58750E+00
 -1      8094 8.28620E+01-1.64823E+01 0.00000E+00
 -1      8095 8.11443E+01-1.06828E+01 0.00000E+00
 -1      8096 8.39423E+01-1.10512E+01 1.58750E+00
 -1      8097 8.28620E+01-1.64823E+01 3.17500E+00
 -1      8098 8.11443E+01-1.06828E+01 3.17500E+00
 -1      8099 8.39423E+01-1.10512E+01 4.76250E+00
 -1      8100 8.28620E+01-1.64823E+01 6.35000E+00
 -1      8101 8.11443E+01-1.06828E+01 6.35000E+00
 -1      8102 8.39423E+01-1.10512E+01 7.93750E+00
 -1      8103 8.46667E+01 3.93179E-07-7.93750E+00
 -1      8104 8.43045E+01-5.52561E+00-6.35000E+00
 -1      8105 8.18444E+01 3.80379E-07-6.35000E+00
 -1      8106 8.46667E+01 3.93179E-07-4.76250E+00
 -1      8107 8.43045E+01-5.52561E+00-3.17500E+00
 -1      8108 8.18444E+01 3.80379E-07-3.17500E+00
 -1      8109 8.46667E+01 3.93179E-07-1.58750E+00
 -1      8110 8.43045E+01-5.52561E+00 0.00000E+00
 -1      8111 8.18444E+01 3.80379E-07 0.00000E+00
 -1      8112 8.46667E+01 3.93179E-07 1.58750E+00
 -1      8113 8.43045E+01-5.52561E+00 3.17500E+00
 -1      8114 8.18444E+01 3.80379E-07 3.17500E+00
 -1      8115 8.46667E+01 3.93179E-07 4.76250E+00
 -1      8116 8.43045E+01-5.52561E+00 6.35000E+00
 -1      8117 8.18444E+01 3.80379E-07 6.35000E+00
 -1      8118 8.46667E+01 3.93179E-07 7.93750E+00
 -1      8119 8.39423E+01 1.10512E+01-7.93750E+00
 -1      8120 8.43045E+01 5.52561E+00-6.35000E+00
 -1      8121 8.11443E+01 1.06828E+01-6.35000E+00
 -1      8122 8.39423E+01 1.10512E+01-4.76250E+00
 -1      8123 8.43045E+01 5.52561E+00-3.17500E+00
 -1      8124 8.11443E+01 1.06828E+01-3.17500E+00
 -1      8125 8.39423E+01 1.10512E+01-1.58750E+00
 -1      8126 8.43045E+01 5.52561E+00 0.00000E+00
 -1      8127 8.11443E+01 1.06828E+01 0.00000E+00
 -1      8128 8.39423E+01 1.10512E+01 1.58750E+00
 -1      8129 8.43045E+01 5.52561E+00 3.17500E+00
 -1      8130 8.11443E+01 1.06828E+01 3.17500E+00
 -1      8131 8.39423E+01 1.10512E+01 4.76250E+00
 -1      8132 8.43045E+01 5.52561E+00 6.35000E+00
 -1      8133 8.11443E+01 1.06828E+01 6.35000E+00
 -1      8134 8.39423E+01 1.10512E+01 7.93750E+00
 -1      8135 8.17817E+01 2.19133E+01-7.93750E+00
 -1      8136 8.28620E+01 1.64823E+01-6.35000E+00
 -1      8137 7.90557E+01 2.11829E+01-6.35000E+00
 -1      8138 8.17817E+01 2.19133E+01-4.76250E+00
 -1      8139 8.28620E+01 1.64823E+01-3.17500E+00
 -1      8140 7.90557E+01 2.11829E+01-3.17500E+00
 -1      8141 8.17817E+01 2.19133E+01-1.58750E+00
 -1      8142 8.28620E+01 1.64823E+01 0.00000E+00
 -1      8143 7.90557E+01 2.11829E+01 0.00000E+00
 -1      8144 8.17817E+01 2.19133E+01 1.58750E+00
 -1      8145 8.28620E+01 1.64823E+01 3.17500E+00
 -1      8146 7.90557E+01 2.11829E+01 3.17500E+00
 -1      8147 8.17817E+01 2.19133E+01 4.76250E+00
 -1      8148 8.28620E+01 1.64823E+01 6.35000E+00
 -1      8149 7.90557E+01 2.11829E+01 6.35000E+00
 -1      8150 8.17817E+01 2.19133E+01 7.93750E+00
 -1      8151 7.82218E+01 3.24005E+01-7.93750E+00
 -1      8152 8.00018E+01 2.71569E+01-6.35000E+00
 -1      8153 7.56144E+01 3.13205E+01-6.35000E+00
 -1      8154 7.82218E+01 3.24005E+01-4.76250E+00
 -1      8155 8.00018E+01 2.71569E+01-3.17500E+00
 -1      8156 7.56144E+01 3.13205E+01-3.17500E+00
 -1      8157 7.82218E+01 3.24005E+01-1.58750E+00
 -1      8158 8.00018E+01 2.71569E+01 0.00000E+00
 -1      8159 7.56144E+01 3.13205E+01 0.00000E+00
 -1      8160 7.82218E+01 3.24005E+01 1.58750E+00
 -1      8161 8.00018E+01 2.71569E+01 3.17500E+00
 -1      8162 7.56144E+01 3.13205E+01 3.17500E+00
 -1      8163 7.82218E+01 3.24005E+01 4.76250E+00
 -1      8164 8.00018E+01 2.71569E+01 6.35000E+00
 -1      8165 7.56144E+01 3.13205E+01 6.35000E+00
 -1      8166 7.82218E+01 3.24005E+01 7.93750E+00
 -1      8167 7.33235E+01 4.23333E+01-7.93750E+00
 -1      8168 7.57726E+01 3.73669E+01-6.35000E+00
 -1      8169 7.08794E+01 4.09222E+01-6.35000E+00
 -1      8170 7.33235E+01 4.23333E+01-4.76250E+00
 -1      8171 7.57726E+01 3.73669E+01-3.17500E+00
 -1      8172 7.08794E+01 4.09222E+01-3.17500E+00
 -1      8173 7.33235E+01 4.23333E+01-1.58750E+00
 -1      8174 7.57726E+01 3.73669E+01 0.00000E+00
 -1      8175 7.08794E+01 4.09222E+01 0.00000E+00
 -1      8176 7.33235E+01 4.23333E+01 1.58750E+00
 -1      8177 7.57726E+01 3.73669E+01 3.17500E+00
 -1      8178 7.08794E+01 4.09222E+01 3.17500E+00
 -1      8179 7.33235E+01 4.23333E+01 4.76250E+00
 -1      8180 7.57726E+01 3.73669E+01 6.35000E+00
 -1      8181 7.08794E+01 4.09222E+01 6.35000E+00
 -1      8182 7.33235E+01 4.23333E+01 7.93750E+00
 -1      8183 6.71706E+01 5.15418E+01-7.93750E+00
 -1      8184 7.02470E+01 4.69376E+01-6.35000E+00
 -1      8185 6.49316E+01 4.98237E+01-6.35000E+00
 -1      8186 6.71706E+01 5.15418E+01-4.76250E+00
 -1      8187 7.02470E+01 4.69376E+01-3.17500E+00
 -1      8188 6.49316E+01 4.98237E+01-3.17500E+00
 -1      8189 6.71706E+01 5.15418E+01-1.58750E+00
 -1      8190 7.02470E+01 4.69376E+01 0.00000E+00
 -1      8191 6.49316E+01 4.98237E+01 0.00000E+00
 -1      8192 6.71706E+01 5.15418E+01 1.58750E+00
 -1      8193 7.02470E+01 4.69376E+01 3.17500E+00
 -1      8194 6.49316E+01 4.98237E+01 3.17500E+00
 -1      8195 6.71706E+01 5.15418E+01 4.76250E+00
 -1      8196 7.02470E+01 4.69376E+01 6.35000E+00
 -1      8197 6.49316E+01 4.98237E+01 6.35000E+00
 -1      8198 6.71706E+01 5.15418E+01 7.93750E+00
 -1      8199 5.98684E+01 5.98684E+01-7.93750E+00
 -1      8200 6.35195E+01 5.57051E+01-6.35000E+00
 -1      8201 5.78728E+01 5.78728E+01-6.35000E+00
 -1      8202 5.98684E+01 5.98684E+01-4.76250E+00
 -1      8203 6.35195E+01 5.57051E+01-3.17500E+00
 -1      8204 5.78728E+01 5.78728E+01-3.17500E+00
 -1      8205 5.98684E+01 5.98684E+01-1.58750E+00
 -1      8206 6.35195E+01 5.57051E+01 0.00000E+00
 -1      8207 5.78728E+01 5.78728E+01 0.00000E+00
 -1      8208 5.98684E+01 5.98684E+01 1.58750E+00
 -1      8209 6.35195E+01 5.57051E+01 3.17500E+00
 -1      8210 5.78728E+01 5.78728E+01 3.17500E+00
 -1      8211 5.98684E+01 5.98684E+01 4.76250E+00
 -1      8212 6.35195E+01 5.57051E+01 6.35000E+00
 -1      8213 5.78728E+01 5.78728E+01 6.35000E+00
 -1      8214 5.98684E+01 5.98684E+01 7.93750E+00
 -1      8215 5.15418E+01 6.71706E+01-7.93750E+00
 -1      8216 5.57051E+01 6.35195E+01-6.35000E+00
 -1      8217 4.98237E+01 6.49316E+01-6.35000E+00
 -1      8218 5.15418E+01 6.71706E+01-4.76250E+00
 -1      8219 5.57051E+01 6.35195E+01-3.17500E+00
 -1      8220 4.98237E+01 6.49316E+01-3.17500E+00
 -1      8221 5.15418E+01 6.71706E+01-1.58750E+00
 -1      8222 5.57051E+01 6.35195E+01 0.00000E+00
 -1      8223 4.98237E+01 6.49316E+01 0.00000E+00
 -1      8224 5.15418E+01 6.71706E+01 1.58750E+00
 -1      8225 5.57051E+01 6.35195E+01 3.17500E+00
 -1      8226 4.98237E+01 6.49316E+01 3.17500E+00
 -1      8227 5.15418E+01 6.71706E+01 4.76250E+00
 -1      8228 5.57051E+01 6.35195E+01 6.35000E+00
 -1      8229 4.98237E+01 6.49316E+01 6.35000E+00
 -1      8230 5.15418E+01 6.71706E+01 7.93750E+00
 -1      8231 4.23333E+01 7.33235E+01-7.93750E+00
 -1      8232 4.69376E+01 7.02470E+01-6.35000E+00
 -1      8233 4.09222E+01 7.08794E+01-6.35000E+00
 -1      8234 4.23333E+01 7.33235E+01-4.76250E+00
 -1      8235 4.69376E+01 7.02470E+01-3.17500E+00
 -1      8236 4.09222E+01 7.08794E+01-3.17500E+00
 -1      8237 4.23333E+01 7.33235E+01-1.58750E+00
 -1      8238 4.69376E+01 7.02470E+01 0.00000E+00
 -1      8239 4.09222E+01 7.08794E+01 0.00000E+00
 -1      8240 4.23333E+01 7.33235E+01 1.58750E+00
 -1      8241 4.69376E+01 7.02470E+01 3.17500E+00
 -1      8242 4.09222E+01 7.08794E+01 3.17500E+00
 -1      8243 4.23333E+01 7.33235E+01 4.76250E+00
 -1      8244 4.69376E+01 7.02470E+01 6.35000E+00
 -1      8245 4.09222E+01 7.08794E+01 6.35000E+00
 -1      8246 4.23333E+01 7.33235E+01 7.93750E+00
 -1      8247 3.24005E+01 7.82218E+01-7.93750E+00
 -1      8248 3.73669E+01 7.57726E+01-6.35000E+00
 -1      8249 3.13205E+01 7.56144E+01-6.35000E+00
 -1      8250 3.24005E+01 7.82218E+01-4.76250E+00
 -1      8251 3.73669E+01 7.57726E+01-3.17500E+00
 -1      8252 3.13205E+01 7.56144E+01-3.17500E+00
 -1      8253 3.24005E+01 7.82218E+01-1.58750E+00
 -1      8254 3.73669E+01 7.57726E+01 0.00000E+00
 -1      8255 3.13205E+01 7.56144E+01 0.00000E+00
 -1      8256 3.24005E+01 7.82218E+01 1.58750E+00
 -1      8257 3.73669E+01 7.57726E+01 3.17500E+00
 -1      8258 3.13205E+01 7.56144E+01 3.17500E+00
 -1      8259 3.24005E+01 7.82218E+01 4.76250E+00
 -1      8260 3.73669E+01 7.57726E+01 6.35000E+00
 -1      8261 3.13205E+01 7.56144E+01 6.35000E+00
 -1      8262 3.24005E+01 7.82218E+01 7.93750E+00
 -1      8263 2.19133E+01 8.17817E+01-7.93750E+00
 -1      8264 2.71569E+01 8.00018E+01-6.35000E+00
 -1      8265 2.11829E+01 7.90557E+01-6.35000E+00
 -1      8266 2.19133E+01 8.17817E+01-4.76250E+00
 -1      8267 2.71569E+01 8.00018E+01-3.17500E+00
 -1      8268 2.11829E+01 7.90557E+01-3.17500E+00
 -1      8269 2.19133E+01 8.17817E+01-1.58750E+00
 -1      8270 2.71569E+01 8.00018E+01 0.00000E+00
 -1      8271 2.11829E+01 7.90557E+01 0.00000E+00
 -1      8272 2.19133E+01 8.17817E+01 1.58750E+00
 -1      8273 2.71569E+01 8.00018E+01 3.17500E+00
 -1      8274 2.11829E+01 7.90557E+01 3.17500E+00
 -1      8275 2.19133E+01 8.17817E+01 4.76250E+00
 -1      8276 2.71569E+01 8.00018E+01 6.35000E+00
 -1      8277 2.11829E+01 7.90557E+01 6.35000E+00
 -1      8278 2.19133E+01 8.17817E+01 7.93750E+00
 -1      8279 1.10512E+01 8.39423E+01-7.93750E+00
 -1      8280 1.64823E+01 8.28620E+01-6.35000E+00
 -1      8281 1.06828E+01 8.11443E+01-6.35000E+00
 -1      8282 1.10512E+01 8.39423E+01-4.76250E+00
 -1      8283 1.64823E+01 8.28620E+01-3.17500E+00
 -1      8284 1.06828E+01 8.11443E+01-3.17500E+00
 -1      8285 1.10512E+01 8.39423E+01-1.58750E+00
 -1      8286 1.64823E+01 8.28620E+01 0.00000E+00
 -1      8287 1.06828E+01 8.11443E+01 0.00000E+00
 -1      8288 1.10512E+01 8.39423E+01 1.58750E+00
 -1      8289 1.64823E+01 8.28620E+01 3.17500E+00
 -1      8290 1.06828E+01 8.11443E+01 3.17500E+00
 -1      8291 1.10512E+01 8.39423E+01 4.76250E+00
 -1      8292 1.64823E+01 8.28620E+01 6.35000E+00
 -1      8293 1.06828E+01 8.11443E+01 6.35000E+00
 -1      8294 1.10512E+01 8.39423E+01 7.93750E+00
 -1      8295 5.52561E+00 8.43045E+01-6.35000E+00
 -1      8296 5.52561E+00 8.43045E+01-3.17500E+00
 -1      8297 5.52561E+00 8.43045E+01 0.00000E+00
 -1      8298 5.52561E+00 8.43045E+01 3.17500E+00
 -1      8299 5.52561E+00 8.43045E+01 6.35000E+00
 -1      8300 1.17880E+01-8.95385E+01-7.93750E+00
 -1      8301 5.89398E+00-8.99248E+01-6.35000E+00
 -1      8302 1.14196E+01-8.67404E+01-6.35000E+00
 -1      8303 1.17880E+01-8.95385E+01-4.76250E+00
 -1      8304 5.89398E+00-8.99248E+01-3.17500E+00
 -1      8305 1.14196E+01-8.67404E+01-3.17500E+00
 -1      8306 1.17880E+01-8.95385E+01-1.58750E+00
 -1      8307 5.89398E+00-8.99248E+01 0.00000E+00
 -1      8308 1.14196E+01-8.67404E+01 0.00000E+00
 -1      8309 1.17880E+01-8.95385E+01 1.58750E+00
 -1      8310 5.89398E+00-8.99248E+01 3.17500E+00
 -1      8311 1.14196E+01-8.67404E+01 3.17500E+00
 -1      8312 1.17880E+01-8.95385E+01 4.76250E+00
 -1      8313 5.89398E+00-8.99248E+01 6.35000E+00
 -1      8314 1.14196E+01-8.67404E+01 6.35000E+00
 -1      8315 1.17880E+01-8.95385E+01 7.93750E+00
 -1      8316 2.33742E+01-8.72338E+01-7.93750E+00
 -1      8317 1.75811E+01-8.83862E+01-6.35000E+00
 -1      8318 2.26438E+01-8.45078E+01-6.35000E+00
 -1      8319 2.33742E+01-8.72338E+01-4.76250E+00
 -1      8320 1.75811E+01-8.83862E+01-3.17500E+00
 -1      8321 2.26438E+01-8.45078E+01-3.17500E+00
 -1      8322 2.33742E+01-8.72338E+01-1.58750E+00
 -1      8323 1.75811E+01-8.83862E+01 0.00000E+00
 -1      8324 2.26438E+01-8.45078E+01 0.00000E+00
 -1      8325 2.33742E+01-8.72338E+01 1.58750E+00
 -1      8326 1.75811E+01-8.83862E+01 3.17500E+00
 -1      8327 2.26438E+01-8.45078E+01 3.17500E+00
 -1      8328 2.33742E+01-8.72338E+01 4.76250E+00
 -1      8329 1.75811E+01-8.83862E+01 6.35000E+00
 -1      8330 2.26438E+01-8.45078E+01 6.35000E+00
 -1      8331 2.33742E+01-8.72338E+01 7.93750E+00
 -1      8332 3.45606E+01-8.34366E+01-7.93750E+00
 -1      8333 2.89674E+01-8.53352E+01-6.35000E+00
 -1      8334 3.34805E+01-8.08292E+01-6.35000E+00
 -1      8335 3.45606E+01-8.34366E+01-4.76250E+00
 -1      8336 2.89674E+01-8.53352E+01-3.17500E+00
 -1      8337 3.34805E+01-8.08292E+01-3.17500E+00
 -1      8338 3.45606E+01-8.34366E+01-1.58750E+00
 -1      8339 2.89674E+01-8.53352E+01 0.00000E+00
 -1      8340 3.34805E+01-8.08292E+01 0.00000E+00
 -1      8341 3.45606E+01-8.34366E+01 1.58750E+00
 -1      8342 2.89674E+01-8.53352E+01 3.17500E+00
 -1      8343 3.34805E+01-8.08292E+01 3.17500E+00
 -1      8344 3.45606E+01-8.34366E+01 4.76250E+00
 -1      8345 2.89674E+01-8.53352E+01 6.35000E+00
 -1      8346 3.34805E+01-8.08292E+01 6.35000E+00
 -1      8347 3.45606E+01-8.34366E+01 7.93750E+00
 -1      8348 4.51556E+01-7.82117E+01-7.93750E+00
 -1      8349 3.98581E+01-8.08242E+01-6.35000E+00
 -1      8350 4.37444E+01-7.57676E+01-6.35000E+00
 -1      8351 4.51556E+01-7.82117E+01-4.76250E+00
 -1      8352 3.98581E+01-8.08242E+01-3.17500E+00
 -1      8353 4.37444E+01-7.57676E+01-3.17500E+00
 -1      8354 4.51556E+01-7.82117E+01-1.58750E+00
 -1      8355 3.98581E+01-8.08242E+01 0.00000E+00
 -1      8356 4.37444E+01-7.57676E+01 0.00000E+00
 -1      8357 4.51556E+01-7.82117E+01 1.58750E+00
 -1      8358 3.98581E+01-8.08242E+01 3.17500E+00
 -1      8359 4.37444E+01-7.57676E+01 3.17500E+00
 -1      8360 4.51556E+01-7.82117E+01 4.76250E+00
 -1      8361 3.98581E+01-8.08242E+01 6.35000E+00
 -1      8362 4.37444E+01-7.57676E+01 6.35000E+00
 -1      8363 4.51556E+01-7.82117E+01 7.93750E+00
 -1      8364 5.49779E+01-7.16486E+01-7.93750E+00
 -1      8365 5.00667E+01-7.49302E+01-6.35000E+00
 -1      8366 5.32599E+01-6.94096E+01-6.35000E+00
 -1      8367 5.49779E+01-7.16486E+01-4.76250E+00
 -1      8368 5.00667E+01-7.49302E+01-3.17500E+00
 -1      8369 5.32599E+01-6.94096E+01-3.17500E+00
 -1      8370 5.49779E+01-7.16486E+01-1.58750E+00
 -1      8371 5.00667E+01-7.49302E+01 0.00000E+00
 -1      8372 5.32599E+01-6.94096E+01 0.00000E+00
 -1      8373 5.49779E+01-7.16486E+01 1.58750E+00
 -1      8374 5.00667E+01-7.49302E+01 3.17500E+00
 -1      8375 5.32599E+01-6.94096E+01 3.17500E+00
 -1      8376 5.49779E+01-7.16486E+01 4.76250E+00
 -1      8377 5.00667E+01-7.49302E+01 6.35000E+00
 -1      8378 5.32599E+01-6.94096E+01 6.35000E+00
 -1      8379 5.49779E+01-7.16486E+01 7.93750E+00
 -1      8380 6.38596E+01-6.38596E+01-7.93750E+00
 -1      8381 5.94188E+01-6.77541E+01-6.35000E+00
 -1      8382 6.18640E+01-6.18640E+01-6.35000E+00
 -1      8383 6.38596E+01-6.38596E+01-4.76250E+00
 -1      8384 5.94188E+01-6.77541E+01-3.17500E+00
 -1      8385 6.18640E+01-6.18640E+01-3.17500E+00
 -1      8386 6.38596E+01-6.38596E+01-1.58750E+00
 -1      8387 5.94188E+01-6.77541E+01 0.00000E+00
 -1      8388 6.18640E+01-6.18640E+01 0.00000E+00
 -1      8389 6.38596E+01-6.38596E+01 1.58750E+00
 -1      8390 5.94188E+01-6.77541E+01 3.17500E+00
 -1      8391 6.18640E+01-6.18640E+01 3.17500E+00
 -1      8392 6.38596E+01-6.38596E+01 4.76250E+00
 -1      8393 5.94188E+01-6.77541E+01 6.35000E+00
 -1      8394 6.18640E+01-6.18640E+01 6.35000E+00
 -1      8395 6.38596E+01-6.38596E+01 7.93750E+00
 -1      8396 7.16486E+01-5.49779E+01-7.93750E+00
 -1      8397 6.77541E+01-5.94188E+01-6.35000E+00
 -1      8398 6.94096E+01-5.32599E+01-6.35000E+00
 -1      8399 7.16486E+01-5.49779E+01-4.76250E+00
 -1      8400 6.77541E+01-5.94188E+01-3.17500E+00
 -1      8401 6.94096E+01-5.32599E+01-3.17500E+00
 -1      8402 7.16486E+01-5.49779E+01-1.58750E+00
 -1      8403 6.77541E+01-5.94188E+01 0.00000E+00
 -1      8404 6.94096E+01-5.32599E+01 0.00000E+00
 -1      8405 7.16486E+01-5.49779E+01 1.58750E+00
 -1      8406 6.77541E+01-5.94188E+01 3.17500E+00
 -1      8407 6.94096E+01-5.32599E+01 3.17500E+00
 -1      8408 7.16486E+01-5.49779E+01 4.76250E+00
 -1      8409 6.77541E+01-5.94188E+01 6.35000E+00
 -1      8410 6.94096E+01-5.32599E+01 6.35000E+00
 -1      8411 7.16486E+01-5.49779E+01 7.93750E+00
 -1      8412 7.82117E+01-4.51556E+01-7.93750E+00
 -1      8413 7.49302E+01-5.00667E+01-6.35000E+00
 -1      8414 7.57676E+01-4.37444E+01-6.35000E+00
 -1      8415 7.82117E+01-4.51556E+01-4.76250E+00
 -1      8416 7.49302E+01-5.00667E+01-3.17500E+00
 -1      8417 7.57676E+01-4.37444E+01-3.17500E+00
 -1      8418 7.82117E+01-4.51556E+01-1.58750E+00
 -1      8419 7.49302E+01-5.00667E+01 0.00000E+00
 -1      8420 7.57676E+01-4.37444E+01 0.00000E+00
 -1      8421 7.82117E+01-4.51556E+01 1.58750E+00
 -1      8422 7.49302E+01-5.00667E+01 3.17500E+00
 -1      8423 7.57676E+01-4.37444E+01 3.17500E+00
 -1      8424 7.82117E+01-4.51556E+01 4.76250E+00
 -1      8425 7.49302E+01-5.00667E+01 6.35000E+00
 -1      8426 7.57676E+01-4.37444E+01 6.35000E+00
 -1      8427 7.82117E+01-4.51556E+01 7.93750E+00
 -1      8428 8.34366E+01-3.45606E+01-7.93750E+00
 -1      8429 8.08242E+01-3.98581E+01-6.35000E+00
 -1      8430 8.08292E+01-3.34805E+01-6.35000E+00
 -1      8431 8.34366E+01-3.45606E+01-4.76250E+00
 -1      8432 8.08242E+01-3.98581E+01-3.17500E+00
 -1      8433 8.08292E+01-3.34805E+01-3.17500E+00
 -1      8434 8.34366E+01-3.45606E+01-1.58750E+00
 -1      8435 8.08242E+01-3.98581E+01 0.00000E+00
 -1      8436 8.08292E+01-3.34805E+01 0.00000E+00
 -1      8437 8.34366E+01-3.45606E+01 1.58750E+00
 -1      8438 8.08242E+01-3.98581E+01 3.17500E+00
 -1      8439 8.08292E+01-3.34805E+01 3.17500E+00
 -1      8440 8.34366E+01-3.45606E+01 4.76250E+00
 -1      8441 8.08242E+01-3.98581E+01 6.35000E+00
 -1      8442 8.08292E+01-3.34805E+01 6.35000E+00
 -1      8443 8.34366E+01-3.45606E+01 7.93750E+00
 -1      8444 8.72338E+01-2.33742E+01-7.93750E+00
 -1      8445 8.53352E+01-2.89674E+01-6.35000E+00
 -1      8446 8.45078E+01-2.26438E+01-6.35000E+00
 -1      8447 8.72338E+01-2.33742E+01-4.76250E+00
 -1      8448 8.53352E+01-2.89674E+01-3.17500E+00
 -1      8449 8.45078E+01-2.26438E+01-3.17500E+00
 -1      8450 8.72338E+01-2.33742E+01-1.58750E+00
 -1      8451 8.53352E+01-2.89674E+01 0.00000E+00
 -1      8452 8.45078E+01-2.26438E+01 0.00000E+00
 -1      8453 8.72338E+01-2.33742E+01 1.58750E+00
 -1      8454 8.53352E+01-2.89674E+01 3.17500E+00
 -1      8455 8.45078E+01-2.26438E+01 3.17500E+00
 -1      8456 8.72338E+01-2.33742E+01 4.76250E+00
 -1      8457 8.53352E+01-2.89674E+01 6.35000E+00
 -1      8458 8.45078E+01-2.26438E+01 6.35000E+00
 -1      8459 8.72338E+01-2.33742E+01 7.93750E+00
 -1      8460 8.95385E+01-1.17880E+01-7.93750E+00
 -1      8461 8.83862E+01-1.75811E+01-6.35000E+00
 -1      8462 8.67404E+01-1.14196E+01-6.35000E+00
 -1      8463 8.95385E+01-1.17880E+01-4.76250E+00
 -1      8464 8.83862E+01-1.75811E+01-3.17500E+00
 -1      8465 8.67404E+01-1.14196E+01-3.17500E+00
 -1      8466 8.95385E+01-1.17880E+01-1.58750E+00
 -1      8467 8.83862E+01-1.75811E+01 0.00000E+00
 -1      8468 8.67404E+01-1.14196E+01 0.00000E+00
 -1      8469 8.95385E+01-1.17880E+01 1.58750E+00
 -1      8470 8.83862E+01-1.75811E+01 3.17500E+00
 -1      8471 8.67404E+01-1.14196E+01 3.17500E+00
 -1      8472 8.95385E+01-1.17880E+01 4.76250E+00
 -1      8473 8.83862E+01-1.75811E+01 6.35000E+00
 -1      8474 8.67404E+01-1.14196E+01 6.35000E+00
 -1      8475 8.95385E+01-1.17880E+01 7.93750E+00
 -1      8476 9.03111E+01 4.18782E-07-7.93750E+00
 -1      8477 8.99248E+01-5.89398E+00-6.35000E+00
 -1      8478 8.74889E+01 4.05980E-07-6.35000E+00
 -1      8479 9.03111E+01 4.18782E-07-4.76250E+00
 -1      8480 8.99248E+01-5.89398E+00-3.17500E+00
 -1      8481 8.74889E+01 4.05980E-07-3.17500E+00
 -1      8482 9.03111E+01 4.18782E-07-1.58750E+00
 -1      8483 8.99248E+01-5.89398E+00 0.00000E+00
 -1      8484 8.74889E+01 4.05980E-07 0.00000E+00
 -1      8485 9.03111E+01 4.18782E-07 1.58750E+00
 -1      8486 8.99248E+01-5.89398E+00 3.17500E+00
 -1      8487 8.74889E+01 4.05980E-07 3.17500E+00
 -1      8488 9.03111E+01 4.18782E-07 4.76250E+00
 -1      8489 8.99248E+01-5.89398E+00 6.35000E+00
 -1      8490 8.74889E+01 4.05980E-07 6.35000E+00
 -1      8491 9.03111E+01 4.18782E-07 7.93750E+00
 -1      8492 8.95385E+01 1.17880E+01-7.93750E+00
 -1      8493 8.99248E+01 5.89398E+00-6.35000E+00
 -1      8494 8.67404E+01 1.14196E+01-6.35000E+00
 -1      8495 8.95385E+01 1.17880E+01-4.76250E+00
 -1      8496 8.99248E+01 5.89398E+00-3.17500E+00
 -1      8497 8.67404E+01 1.14196E+01-3.17500E+00
 -1      8498 8.95385E+01 1.17880E+01-1.58750E+00
 -1      8499 8.99248E+01 5.89398E+00 0.00000E+00
 -1      8500 8.67404E+01 1.14196E+01 0.00000E+00
 -1      8501 8.95385E+01 1.17880E+01 1.58750E+00
 -1      8502 8.99248E+01 5.89398E+00 3.17500E+00
 -1      8503 8.67404E+01 1.14196E+01 3.17500E+00
 -1      8504 8.95385E+01 1.17880E+01 4.76250E+00
 -1      8505 8.99248E+01 5.89398E+00 6.35000E+00
 -1      8506 8.67404E+01 1.14196E+01 6.35000E+00
 -1      8507 8.95385E+01 1.17880E+01 7.93750E+00
 -1      8508 8.72338E+01 2.33742E+01-7.93750E+00
 -1      8509 8.83862E+01 1.75811E+01-6.35000E+00
 -1      8510 8.45078E+01 2.26438E+01-6.35000E+00
 -1      8511 8.72338E+01 2.33742E+01-4.76250E+00
 -1      8512 8.83862E+01 1.75811E+01-3.17500E+00
 -1      8513 8.45078E+01 2.26438E+01-3.17500E+00
 -1      8514 8.72338E+01 2.33742E+01-1.58750E+00
 -1      8515 8.83862E+01 1.75811E+01 0.00000E+00
 -1      8516 8.45078E+01 2.26438E+01 0.00000E+00
 -1      8517 8.72338E+01 2.33742E+01 1.58750E+00
 -1      8518 8.83862E+01 1.75811E+01 3.17500E+00
 -1      8519 8.45078E+01 2.26438E+01 3.17500E+00
 -1      8520 8.72338E+01 2.33742E+01 4.76250E+00
 -1      8521 8.83862E+01 1.75811E+01 6.35000E+00
 -1      8522 8.45078E+01 2.26438E+01 6.35000E+00
 -1      8523 8.72338E+01 2.33742E+01 7.93750E+00
 -1      8524 8.34366E+01 3.45606E+01-7.93750E+00
 -1      8525 8.53352E+01 2.89674E+01-6.35000E+00
 -1      8526 8.08292E+01 3.34805E+01-6.35000E+00
 -1      8527 8.34366E+01 3.45606E+01-4.76250E+00
 -1      8528 8.53352E+01 2.89674E+01-3.17500E+00
 -1      8529 8.08292E+01 3.34805E+01-3.17500E+00
 -1      8530 8.34366E+01 3.45606E+01-1.58750E+00
 -1      8531 8.53352E+01 2.89674E+01 0.00000E+00
 -1      8532 8.08292E+01 3.34805E+01 0.00000E+00
 -1      8533 8.34366E+01 3.45606E+01 1.58750E+00
 -1      8534 8.53352E+01 2.89674E+01 3.17500E+00
 -1      8535 8.08292E+01 3.34805E+01 3.17500E+00
 -1      8536 8.34366E+01 3.45606E+01 4.76250E+00
 -1      8537 8.53352E+01 2.89674E+01 6.35000E+00
 -1      8538 8.08292E+01 3.34805E+01 6.35000E+00
 -1      8539 8.34366E+01 3.45606E+01 7.93750E+00
 -1      8540 7.82117E+01 4.51556E+01-7.93750E+00
 -1      8541 8.08242E+01 3.98581E+01-6.35000E+00
 -1      8542 7.57676E+01 4.37444E+01-6.35000E+00
 -1      8543 7.82117E+01 4.51556E+01-4.76250E+00
 -1      8544 8.08242E+01 3.98581E+01-3.17500E+00
 -1      8545 7.57676E+01 4.37444E+01-3.17500E+00
 -1      8546 7.82117E+01 4.51556E+01-1.58750E+00
 -1      8547 8.08242E+01 3.98581E+01 0.00000E+00
 -1      8548 7.57676E+01 4.37444E+01 0.00000E+00
 -1      8549 7.82117E+01 4.51556E+01 1.58750E+00
 -1      8550 8.08242E+01 3.98581E+01 3.17500E+00
 -1      8551 7.57676E+01 4.37444E+01 3.17500E+00
 -1      8552 7.82117E+01 4.51556E+01 4.76250E+00
 -1      8553 8.08242E+01 3.98581E+01 6.35000E+00
 -1      8554 7.57676E+01 4.37444E+01 6.35000E+00
 -1      8555 7.82117E+01 4.51556E+01 7.93750E+00
 -1      8556 7.16486E+01 5.49779E+01-7.93750E+00
 -1      8557 7.49302E+01 5.00667E+01-6.35000E+00
 -1      8558 6.94096E+01 5.32599E+01-6.35000E+00
 -1      8559 7.16486E+01 5.49779E+01-4.76250E+00
 -1      8560 7.49302E+01 5.00667E+01-3.17500E+00
 -1      8561 6.94096E+01 5.32599E+01-3.17500E+00
 -1      8562 7.16486E+01 5.49779E+01-1.58750E+00
 -1      8563 7.49302E+01 5.00667E+01 0.00000E+00
 -1      8564 6.94096E+01 5.32599E+01 0.00000E+00
 -1      8565 7.16486E+01 5.49779E+01 1.58750E+00
 -1      8566 7.49302E+01 5.00667E+01 3.17500E+00
 -1      8567 6.94096E+01 5.32599E+01 3.17500E+00
 -1      8568 7.16486E+01 5.49779E+01 4.76250E+00
 -1      8569 7.49302E+01 5.00667E+01 6.35000E+00
 -1      8570 6.94096E+01 5.32599E+01 6.35000E+00
 -1      8571 7.16486E+01 5.49779E+01 7.93750E+00
 -1      8572 6.38596E+01 6.38596E+01-7.93750E+00
 -1      8573 6.77541E+01 5.94188E+01-6.35000E+00
 -1      8574 6.18640E+01 6.18640E+01-6.35000E+00
 -1      8575 6.38596E+01 6.38596E+01-4.76250E+00
 -1      8576 6.77541E+01 5.94188E+01-3.17500E+00
 -1      8577 6.18640E+01 6.18640E+01-3.17500E+00
 -1      8578 6.38596E+01 6.38596E+01-1.58750E+00
 -1      8579 6.77541E+01 5.94188E+01 0.00000E+00
 -1      8580 6.18640E+01 6.18640E+01 0.00000E+00
 -1      8581 6.38596E+01 6.38596E+01 1.58750E+00
 -1      8582 6.77541E+01 5.94188E+01 3.17500E+00
 -1      8583 6.18640E+01 6.18640E+01 3.17500E+00
 -1      8584 6.38596E+01 6.38596E+01 4.76250E+00
 -1      8585 6.77541E+01 5.94188E+01 6.35000E+00
 -1      8586 6.18640E+01 6.18640E+01 6.35000E+00
 -1      8587 6.38596E+01 6.38596E+01 7.93750E+00
 -1      8588 5.49779E+01 7.16486E+01-7.93750E+00
 -1      8589 5.94188E+01 6.77541E+01-6.35000E+00
 -1      8590 5.32599E+01 6.94096E+01-6.35000E+00
 -1      8591 5.49779E+01 7.16486E+01-4.76250E+00
 -1      8592 5.94188E+01 6.77541E+01-3.17500E+00
 -1      8593 5.32599E+01 6.94096E+01-3.17500E+00
 -1      8594 5.49779E+01 7.16486E+01-1.58750E+00
 -1      8595 5.94188E+01 6.77541E+01 0.00000E+00
 -1      8596 5.32599E+01 6.94096E+01 0.00000E+00
 -1      8597 5.49779E+01 7.16486E+01 1.58750E+00
 -1      8598 5.94188E+01 6.77541E+01 3.17500E+00
 -1      8599 5.32599E+01 6.94096E+01 3.17500E+00
 -1      8600 5.49779E+01 7.16486E+01 4.76250E+00
 -1      8601 5.94188E+01 6.77541E+01 6.35000E+00
 -1      8602 5.32599E+01 6.94096E+01 6.35000E+00
 -1      8603 5.49779E+01 7.16486E+01 7.93750E+00
 -1      8604 4.51556E+01 7.82117E+01-7.93750E+00
 -1      8605 5.00667E+01 7.49302E+01-6.35000E+00
 -1      8606 4.37444E+01 7.57676E+01-6.35000E+00
 -1      8607 4.51556E+01 7.82117E+01-4.76250E+00
 -1      8608 5.00667E+01 7.49302E+01-3.17500E+00
 -1      8609 4.37444E+01 7.57676E+01-3.17500E+00
 -1      8610 4.51556E+01 7.82117E+01-1.58750E+00
 -1      8611 5.00667E+01 7.49302E+01 0.00000E+00
 -1      8612 4.37444E+01 7.57676E+01 0.00000E+00
 -1      8613 4.51556E+01 7.82117E+01 1.58750E+00
 -1      8614 5.00667E+01 7.49302E+01 3.17500E+00
 -1      8615 4.37444E+01 7.57676E+01 3.17500E+00
 -1      8616 4.51556E+01 7.82117E+01 4.76250E+00
 -1      8617 5.00667E+01 7.49302E+01 6.35000E+00
 -1      8618 4.37444E+01 7.57676E+01 6.35000E+00
 -1      8619 4.51556E+01 7.82117E+01 7.93750E+00
 -1      8620 3.45606E+01 8.34366E+01-7.93750E+00
 -1      8621 3.98581E+01 8.08242E+01-6.35000E+00
 -1      8622 3.34805E+01 8.08292E+01-6.35000E+00
 -1      8623 3.45606E+01 8.34366E+01-4.76250E+00
 -1      8624 3.98581E+01 8.08242E+01-3.17500E+00
 -1      8625 3.34805E+01 8.08292E+01-3.17500E+00
 -1      8626 3.45606E+01 8.34366E+01-1.58750E+00
 -1      8627 3.98581E+01 8.08242E+01 0.00000E+00
 -1      8628 3.34805E+01 8.08292E+01 0.00000E+00
 -1      8629 3.45606E+01 8.34366E+01 1.58750E+00
 -1      8630 3.98581E+01 8.08242E+01 3.17500E+00
 -1      8631 3.34805E+01 8.08292E+01 3.17500E+00
 -1      8632 3.45606E+01 8.34366E+01 4.76250E+00
 -1      8633 3.98581E+01 8.08242E+01 6.35000E+00
 -1      8634 3.34805E+01 8.08292E+01 6.35000E+00
 -1      8635 3.45606E+01 8.34366E+01 7.93750E+00
 -1      8636 2.33742E+01 8.72338E+01-7.93750E+00
 -1      8637 2.89674E+01 8.53352E+01-6.35000E+00
 -1      8638 2.26438E+01 8.45078E+01-6.35000E+00
 -1      8639 2.33742E+01 8.72338E+01-4.76250E+00
 -1      8640 2.89674E+01 8.53352E+01-3.17500E+00
 -1      8641 2.26438E+01 8.45078E+01-3.17500E+00
 -1      8642 2.33742E+01 8.72338E+01-1.58750E+00
 -1      8643 2.89674E+01 8.53352E+01 0.00000E+00
 -1      8644 2.26438E+01 8.45078E+01 0.00000E+00
 -1      8645 2.33742E+01 8.72338E+01 1.58750E+00
 -1      8646 2.89674E+01 8.53352E+01 3.17500E+00
 -1      8647 2.26438E+01 8.45078E+01 3.17500E+00
 -1      8648 2.33742E+01 8.72338E+01 4.76250E+00
 -1      8649 2.89674E+01 8.53352E+01 6.35000E+00
 -1      8650 2.26438E+01 8.45078E+01 6.35000E+00
 -1      8651 2.33742E+01 8.72338E+01 7.93750E+00
 -1      8652 1.17880E+01 8.95385E+01-7.93750E+00
 -1      8653 1.75811E+01 8.83862E+01-6.35000E+00
 -1      8654 1.14196E+01 8.67404E+01-6.35000E+00
 -1      8655 1.17880E+01 8.95385E+01-4.76250E+00
 -1      8656 1.75811E+01 8.83862E+01-3.17500E+00
 -1      8657 1.14196E+01 8.67404E+01-3.17500E+00
 -1      8658 1.17880E+01 8.95385E+01-1.58750E+00
 -1      8659 1.75811E+01 8.83862E+01 0.00000E+00
 -1      8660 1.14196E+01 8.67404E+01 0.00000E+00
 -1      8661 1.17880E+01 8.95385E+01 1.58750E+00
 -1      8662 1.75811E+01 8.83862E+01 3.17500E+00
 -1      8663 1.14196E+01 8.67404E+01 3.17500E+00
 -1      8664 1.17880E+01 8.95385E+01 4.76250E+00
 -1      8665 1.75811E+01 8.83862E+01 6.35000E+00
 -1      8666 1.14196E+01 8.67404E+01 6.35000E+00
 -1      8667 1.17880E+01 8.95385E+01 7.93750E+00
 -1      8668 5.89398E+00 8.99248E+01-6.35000E+00
 -1      8669 5.89398E+00 8.99248E+01-3.17500E+00
 -1      8670 5.89398E+00 8.99248E+01 0.00000E+00
 -1      8671 5.89398E+00 8.99248E+01 3.17500E+00
 -1      8672 5.89398E+00 8.99248E+01 6.35000E+00
 -1      8673 1.25247E+01-9.51346E+01-7.93750E+00
 -1      8674 6.26236E+00-9.55451E+01-6.35000E+00
 -1      8675 1.21563E+01-9.23366E+01-6.35000E+00
 -1      8676 1.25247E+01-9.51346E+01-4.76250E+00
 -1      8677 6.26236E+00-9.55451E+01-3.17500E+00
 -1      8678 1.21563E+01-9.23366E+01-3.17500E+00
 -1      8679 1.25247E+01-9.51346E+01-1.58750E+00
 -1      8680 6.26236E+00-9.55451E+01 0.00000E+00
 -1      8681 1.21563E+01-9.23366E+01 0.00000E+00
 -1      8682 1.25247E+01-9.51346E+01 1.58750E+00
 -1      8683 6.26236E+00-9.55451E+01 3.17500E+00
 -1      8684 1.21563E+01-9.23366E+01 3.17500E+00
 -1      8685 1.25247E+01-9.51346E+01 4.76250E+00
 -1      8686 6.26236E+00-9.55451E+01 6.35000E+00
 -1      8687 1.21563E+01-9.23366E+01 6.35000E+00
 -1      8688 1.25247E+01-9.51346E+01 7.93750E+00
 -1      8689 2.48351E+01-9.26860E+01-7.93750E+00
 -1      8690 1.86799E+01-9.39103E+01-6.35000E+00
 -1      8691 2.41047E+01-8.99599E+01-6.35000E+00
 -1      8692 2.48351E+01-9.26860E+01-4.76250E+00
 -1      8693 1.86799E+01-9.39103E+01-3.17500E+00
 -1      8694 2.41047E+01-8.99599E+01-3.17500E+00
 -1      8695 2.48351E+01-9.26860E+01-1.58750E+00
 -1      8696 1.86799E+01-9.39103E+01 0.00000E+00
 -1      8697 2.41047E+01-8.99599E+01 0.00000E+00
 -1      8698 2.48351E+01-9.26860E+01 1.58750E+00
 -1      8699 1.86799E+01-9.39103E+01 3.17500E+00
 -1      8700 2.41047E+01-8.99599E+01 3.17500E+00
 -1      8701 2.48351E+01-9.26860E+01 4.76250E+00
 -1      8702 1.86799E+01-9.39103E+01 6.35000E+00
 -1      8703 2.41047E+01-8.99599E+01 6.35000E+00
 -1      8704 2.48351E+01-9.26860E+01 7.93750E+00
 -1      8705 3.67206E+01-8.86514E+01-7.93750E+00
 -1      8706 3.07779E+01-9.06687E+01-6.35000E+00
 -1      8707 3.56406E+01-8.60440E+01-6.35000E+00
 -1      8708 3.67206E+01-8.86514E+01-4.76250E+00
 -1      8709 3.07779E+01-9.06687E+01-3.17500E+00
 -1      8710 3.56406E+01-8.60440E+01-3.17500E+00
 -1      8711 3.67206E+01-8.86514E+01-1.58750E+00
 -1      8712 3.07779E+01-9.06687E+01 0.00000E+00
 -1      8713 3.56406E+01-8.60440E+01 0.00000E+00
 -1      8714 3.67206E+01-8.86514E+01 1.58750E+00
 -1      8715 3.07779E+01-9.06687E+01 3.17500E+00
 -1      8716 3.56406E+01-8.60440E+01 3.17500E+00
 -1      8717 3.67206E+01-8.86514E+01 4.76250E+00
 -1      8718 3.07779E+01-9.06687E+01 6.35000E+00
 -1      8719 3.56406E+01-8.60440E+01 6.35000E+00
 -1      8720 3.67206E+01-8.86514E+01 7.93750E+00
 -1      8721 4.79778E+01-8.30999E+01-7.93750E+00
 -1      8722 4.23492E+01-8.58757E+01-6.35000E+00
 -1      8723 4.65667E+01-8.06558E+01-6.35000E+00
 -1      8724 4.79778E+01-8.30999E+01-4.76250E+00
 -1      8725 4.23492E+01-8.58757E+01-3.17500E+00
 -1      8726 4.65667E+01-8.06558E+01-3.17500E+00
 -1      8727 4.79778E+01-8.30999E+01-1.58750E+00
 -1      8728 4.23492E+01-8.58757E+01 0.00000E+00
 -1      8729 4.65667E+01-8.06558E+01 0.00000E+00
 -1      8730 4.79778E+01-8.30999E+01 1.58750E+00
 -1      8731 4.23492E+01-8.58757E+01 3.17500E+00
 -1      8732 4.65667E+01-8.06558E+01 3.17500E+00
 -1      8733 4.79778E+01-8.30999E+01 4.76250E+00
 -1      8734 4.23492E+01-8.58757E+01 6.35000E+00
 -1      8735 4.65667E+01-8.06558E+01 6.35000E+00
 -1      8736 4.79778E+01-8.30999E+01 7.93750E+00
 -1      8737 5.84140E+01-7.61267E+01-7.93750E+00
 -1      8738 5.31959E+01-7.96133E+01-6.35000E+00
 -1      8739 5.66960E+01-7.38876E+01-6.35000E+00
 -1      8740 5.84140E+01-7.61267E+01-4.76250E+00
 -1      8741 5.31959E+01-7.96133E+01-3.17500E+00
 -1      8742 5.66960E+01-7.38876E+01-3.17500E+00
 -1      8743 5.84140E+01-7.61267E+01-1.58750E+00
 -1      8744 5.31959E+01-7.96133E+01 0.00000E+00
 -1      8745 5.66960E+01-7.38876E+01 0.00000E+00
 -1      8746 5.84140E+01-7.61267E+01 1.58750E+00
 -1      8747 5.31959E+01-7.96133E+01 3.17500E+00
 -1      8748 5.66960E+01-7.38876E+01 3.17500E+00
 -1      8749 5.84140E+01-7.61267E+01 4.76250E+00
 -1      8750 5.31959E+01-7.96133E+01 6.35000E+00
 -1      8751 5.66960E+01-7.38876E+01 6.35000E+00
 -1      8752 5.84140E+01-7.61267E+01 7.93750E+00
 -1      8753 6.78508E+01-6.78508E+01-7.93750E+00
 -1      8754 6.31324E+01-7.19887E+01-6.35000E+00
 -1      8755 6.58552E+01-6.58552E+01-6.35000E+00
 -1      8756 6.78508E+01-6.78508E+01-4.76250E+00
 -1      8757 6.31324E+01-7.19887E+01-3.17500E+00
 -1      8758 6.58552E+01-6.58552E+01-3.17500E+00
 -1      8759 6.78508E+01-6.78508E+01-1.58750E+00
 -1      8760 6.31324E+01-7.19887E+01 0.00000E+00
 -1      8761 6.58552E+01-6.58552E+01 0.00000E+00
 -1      8762 6.78508E+01-6.78508E+01 1.58750E+00
 -1      8763 6.31324E+01-7.19887E+01 3.17500E+00
 -1      8764 6.58552E+01-6.58552E+01 3.17500E+00
 -1      8765 6.78508E+01-6.78508E+01 4.76250E+00
 -1      8766 6.31324E+01-7.19887E+01 6.35000E+00
 -1      8767 6.58552E+01-6.58552E+01 6.35000E+00
 -1      8768 6.78508E+01-6.78508E+01 7.93750E+00
 -1      8769 7.61267E+01-5.84140E+01-7.93750E+00
 -1      8770 7.19887E+01-6.31324E+01-6.35000E+00
 -1      8771 7.38876E+01-5.66960E+01-6.35000E+00
 -1      8772 7.61267E+01-5.84140E+01-4.76250E+00
 -1      8773 7.19887E+01-6.31324E+01-3.17500E+00
 -1      8774 7.38876E+01-5.66960E+01-3.17500E+00
 -1      8775 7.61267E+01-5.84140E+01-1.58750E+00
 -1      8776 7.19887E+01-6.31324E+01 0.00000E+00
 -1      8777 7.38876E+01-5.66960E+01 0.00000E+00
 -1      8778 7.61267E+01-5.84140E+01 1.58750E+00
 -1      8779 7.19887E+01-6.31324E+01 3.17500E+00
 -1      8780 7.38876E+01-5.66960E+01 3.17500E+00
 -1      8781 7.61267E+01-5.84140E+01 4.76250E+00
 -1      8782 7.19887E+01-6.31324E+01 6.35000E+00
 -1      8783 7.38876E+01-5.66960E+01 6.35000E+00
 -1      8784 7.61267E+01-5.84140E+01 7.93750E+00
 -1      8785 8.31000E+01-4.79778E+01-7.93750E+00
 -1      8786 7.96133E+01-5.31959E+01-6.35000E+00
 -1      8787 8.06558E+01-4.65667E+01-6.35000E+00
 -1      8788 8.31000E+01-4.79778E+01-4.76250E+00
 -1      8789 7.96133E+01-5.31959E+01-3.17500E+00
 -1      8790 8.06558E+01-4.65667E+01-3.17500E+00
 -1      8791 8.31000E+01-4.79778E+01-1.58750E+00
 -1      8792 7.96133E+01-5.31959E+01 0.00000E+00
 -1      8793 8.06558E+01-4.65667E+01 0.00000E+00
 -1      8794 8.31000E+01-4.79778E+01 1.58750E+00
 -1      8795 7.96133E+01-5.31959E+01 3.17500E+00
 -1      8796 8.06558E+01-4.65667E+01 3.17500E+00
 -1      8797 8.31000E+01-4.79778E+01 4.76250E+00
 -1      8798 7.96133E+01-5.31959E+01 6.35000E+00
 -1      8799 8.06558E+01-4.65667E+01 6.35000E+00
 -1      8800 8.31000E+01-4.79778E+01 7.93750E+00
 -1      8801 8.86514E+01-3.67206E+01-7.93750E+00
 -1      8802 8.58757E+01-4.23492E+01-6.35000E+00
 -1      8803 8.60440E+01-3.56406E+01-6.35000E+00
 -1      8804 8.86514E+01-3.67206E+01-4.76250E+00
 -1      8805 8.58757E+01-4.23492E+01-3.17500E+00
 -1      8806 8.60440E+01-3.56406E+01-3.17500E+00
 -1      8807 8.86514E+01-3.67206E+01-1.58750E+00
 -1      8808 8.58757E+01-4.23492E+01 0.00000E+00
 -1      8809 8.60440E+01-3.56406E+01 0.00000E+00
 -1      8810 8.86514E+01-3.67206E+01 1.58750E+00
 -1      8811 8.58757E+01-4.23492E+01 3.17500E+00
 -1      8812 8.60440E+01-3.56406E+01 3.17500E+00
 -1      8813 8.86514E+01-3.67206E+01 4.76250E+00
 -1      8814 8.58757E+01-4.23492E+01 6.35000E+00
 -1      8815 8.60440E+01-3.56406E+01 6.35000E+00
 -1      8816 8.86514E+01-3.67206E+01 7.93750E+00
 -1      8817 9.26860E+01-2.48351E+01-7.93750E+00
 -1      8818 9.06687E+01-3.07779E+01-6.35000E+00
 -1      8819 8.99599E+01-2.41047E+01-6.35000E+00
 -1      8820 9.26860E+01-2.48351E+01-4.76250E+00
 -1      8821 9.06687E+01-3.07779E+01-3.17500E+00
 -1      8822 8.99599E+01-2.41047E+01-3.17500E+00
 -1      8823 9.26860E+01-2.48351E+01-1.58750E+00
 -1      8824 9.06687E+01-3.07779E+01 0.00000E+00
 -1      8825 8.99599E+01-2.41047E+01 0.00000E+00
 -1      8826 9.26860E+01-2.48351E+01 1.58750E+00
 -1      8827 9.06687E+01-3.07779E+01 3.17500E+00
 -1      8828 8.99599E+01-2.41047E+01 3.17500E+00
 -1      8829 9.26860E+01-2.48351E+01 4.76250E+00
 -1      8830 9.06687E+01-3.07779E+01 6.35000E+00
 -1      8831 8.99599E+01-2.41047E+01 6.35000E+00
 -1      8832 9.26860E+01-2.48351E+01 7.93750E+00
 -1      8833 9.51346E+01-1.25247E+01-7.93750E+00
 -1      8834 9.39103E+01-1.86799E+01-6.35000E+00
 -1      8835 9.23366E+01-1.21563E+01-6.35000E+00
 -1      8836 9.51346E+01-1.25247E+01-4.76250E+00
 -1      8837 9.39103E+01-1.86799E+01-3.17500E+00
 -1      8838 9.23366E+01-1.21563E+01-3.17500E+00
 -1      8839 9.51346E+01-1.25247E+01-1.58750E+00
 -1      8840 9.39103E+01-1.86799E+01 0.00000E+00
 -1      8841 9.23366E+01-1.21563E+01 0.00000E+00
 -1      8842 9.51346E+01-1.25247E+01 1.58750E+00
 -1      8843 9.39103E+01-1.86799E+01 3.17500E+00
 -1      8844 9.23366E+01-1.21563E+01 3.17500E+00
 -1      8845 9.51346E+01-1.25247E+01 4.76250E+00
 -1      8846 9.39103E+01-1.86799E+01 6.35000E+00
 -1      8847 9.23366E+01-1.21563E+01 6.35000E+00
 -1      8848 9.51346E+01-1.25247E+01 7.93750E+00
 -1      8849 9.59556E+01 4.44381E-07-7.93750E+00
 -1      8850 9.55451E+01-6.26236E+00-6.35000E+00
 -1      8851 9.31333E+01 4.31581E-07-6.35000E+00
 -1      8852 9.59556E+01 4.44381E-07-4.76250E+00
 -1      8853 9.55451E+01-6.26236E+00-3.17500E+00
 -1      8854 9.31333E+01 4.31581E-07-3.17500E+00
 -1      8855 9.59556E+01 4.44381E-07-1.58750E+00
 -1      8856 9.55451E+01-6.26236E+00 0.00000E+00
 -1      8857 9.31333E+01 4.31581E-07 0.00000E+00
 -1      8858 9.59556E+01 4.44381E-07 1.58750E+00
 -1      8859 9.55451E+01-6.26236E+00 3.17500E+00
 -1      8860 9.31333E+01 4.31581E-07 3.17500E+00
 -1      8861 9.59556E+01 4.44381E-07 4.76250E+00
 -1      8862 9.55451E+01-6.26236E+00 6.35000E+00
 -1      8863 9.31333E+01 4.31581E-07 6.35000E+00
 -1      8864 9.59556E+01 4.44381E-07 7.93750E+00
 -1      8865 9.51346E+01 1.25247E+01-7.93750E+00
 -1      8866 9.55451E+01 6.26236E+00-6.35000E+00
 -1      8867 9.23366E+01 1.21563E+01-6.35000E+00
 -1      8868 9.51346E+01 1.25247E+01-4.76250E+00
 -1      8869 9.55451E+01 6.26236E+00-3.17500E+00
 -1      8870 9.23366E+01 1.21563E+01-3.17500E+00
 -1      8871 9.51346E+01 1.25247E+01-1.58750E+00
 -1      8872 9.55451E+01 6.26236E+00 0.00000E+00
 -1      8873 9.23366E+01 1.21563E+01 0.00000E+00
 -1      8874 9.51346E+01 1.25247E+01 1.58750E+00
 -1      8875 9.55451E+01 6.26236E+00 3.17500E+00
 -1      8876 9.23366E+01 1.21563E+01 3.17500E+00
 -1      8877 9.51346E+01 1.25247E+01 4.76250E+00
 -1      8878 9.55451E+01 6.26236E+00 6.35000E+00
 -1      8879 9.23366E+01 1.21563E+01 6.35000E+00
 -1      8880 9.51346E+01 1.25247E+01 7.93750E+00
 -1      8881 9.26860E+01 2.48351E+01-7.93750E+00
 -1      8882 9.39103E+01 1.86799E+01-6.35000E+00
 -1      8883 8.99599E+01 2.41047E+01-6.35000E+00
 -1      8884 9.26860E+01 2.48351E+01-4.76250E+00
 -1      8885 9.39103E+01 1.86799E+01-3.17500E+00
 -1      8886 8.99599E+01 2.41047E+01-3.17500E+00
 -1      8887 9.26860E+01 2.48351E+01-1.58750E+00
 -1      8888 9.39103E+01 1.86799E+01 0.00000E+00
 -1      8889 8.99599E+01 2.41047E+01 0.00000E+00
 -1      8890 9.26860E+01 2.48351E+01 1.58750E+00
 -1      8891 9.39103E+01 1.86799E+01 3.17500E+00
 -1      8892 8.99599E+01 2.41047E+01 3.17500E+00
 -1      8893 9.26860E+01 2.48351E+01 4.76250E+00
 -1      8894 9.39103E+01 1.86799E+01 6.35000E+00
 -1      8895 8.99599E+01 2.41047E+01 6.35000E+00
 -1      8896 9.26860E+01 2.48351E+01 7.93750E+00
 -1      8897 8.86514E+01 3.67206E+01-7.93750E+00
 -1      8898 9.06687E+01 3.07779E+01-6.35000E+00
 -1      8899 8.60440E+01 3.56406E+01-6.35000E+00
 -1      8900 8.86514E+01 3.67206E+01-4.76250E+00
 -1      8901 9.06687E+01 3.07779E+01-3.17500E+00
 -1      8902 8.60440E+01 3.56406E+01-3.17500E+00
 -1      8903 8.86514E+01 3.67206E+01-1.58750E+00
 -1      8904 9.06687E+01 3.07779E+01 0.00000E+00
 -1      8905 8.60440E+01 3.56406E+01 0.00000E+00
 -1      8906 8.86514E+01 3.67206E+01 1.58750E+00
 -1      8907 9.06687E+01 3.07779E+01 3.17500E+00
 -1      8908 8.60440E+01 3.56406E+01 3.17500E+00
 -1      8909 8.86514E+01 3.67206E+01 4.76250E+00
 -1      8910 9.06687E+01 3.07779E+01 6.35000E+00
 -1      8911 8.60440E+01 3.56406E+01 6.35000E+00
 -1      8912 8.86514E+01 3.67206E+01 7.93750E+00
 -1      8913 8.30999E+01 4.79778E+01-7.93750E+00
 -1      8914 8.58757E+01 4.23492E+01-6.35000E+00
 -1      8915 8.06558E+01 4.65667E+01-6.35000E+00
 -1      8916 8.30999E+01 4.79778E+01-4.76250E+00
 -1      8917 8.58757E+01 4.23492E+01-3.17500E+00
 -1      8918 8.06558E+01 4.65667E+01-3.17500E+00
 -1      8919 8.30999E+01 4.79778E+01-1.58750E+00
 -1      8920 8.58757E+01 4.23492E+01 0.00000E+00
 -1      8921 8.06558E+01 4.65667E+01 0.00000E+00
 -1      8922 8.30999E+01 4.79778E+01 1.58750E+00
 -1      8923 8.58757E+01 4.23492E+01 3.17500E+00
 -1      8924 8.06558E+01 4.65667E+01 3.17500E+00
 -1      8925 8.30999E+01 4.79778E+01 4.76250E+00
 -1      8926 8.58757E+01 4.23492E+01 6.35000E+00
 -1      8927 8.06558E+01 4.65667E+01 6.35000E+00
 -1      8928 8.30999E+01 4.79778E+01 7.93750E+00
 -1      8929 7.61267E+01 5.84140E+01-7.93750E+00
 -1      8930 7.96133E+01 5.31959E+01-6.35000E+00
 -1      8931 7.38876E+01 5.66960E+01-6.35000E+00
 -1      8932 7.61267E+01 5.84140E+01-4.76250E+00
 -1      8933 7.96133E+01 5.31959E+01-3.17500E+00
 -1      8934 7.38876E+01 5.66960E+01-3.17500E+00
 -1      8935 7.61267E+01 5.84140E+01-1.58750E+00
 -1      8936 7.96133E+01 5.31959E+01 0.00000E+00
 -1      8937 7.38876E+01 5.66960E+01 0.00000E+00
 -1      8938 7.61267E+01 5.84140E+01 1.58750E+00
 -1      8939 7.96133E+01 5.31959E+01 3.17500E+00
 -1      8940 7.38876E+01 5.66960E+01 3.17500E+00
 -1      8941 7.61267E+01 5.84140E+01 4.76250E+00
 -1      8942 7.96133E+01 5.31959E+01 6.35000E+00
 -1      8943 7.38876E+01 5.66960E+01 6.35000E+00
 -1      8944 7.61267E+01 5.84140E+01 7.93750E+00
 -1      8945 6.78508E+01 6.78508E+01-7.93750E+00
 -1      8946 7.19887E+01 6.31324E+01-6.35000E+00
 -1      8947 6.58552E+01 6.58552E+01-6.35000E+00
 -1      8948 6.78508E+01 6.78508E+01-4.76250E+00
 -1      8949 7.19887E+01 6.31324E+01-3.17500E+00
 -1      8950 6.58552E+01 6.58552E+01-3.17500E+00
 -1      8951 6.78508E+01 6.78508E+01-1.58750E+00
 -1      8952 7.19887E+01 6.31324E+01 0.00000E+00
 -1      8953 6.58552E+01 6.58552E+01 0.00000E+00
 -1      8954 6.78508E+01 6.78508E+01 1.58750E+00
 -1      8955 7.19887E+01 6.31324E+01 3.17500E+00
 -1      8956 6.58552E+01 6.58552E+01 3.17500E+00
 -1      8957 6.78508E+01 6.78508E+01 4.76250E+00
 -1      8958 7.19887E+01 6.31324E+01 6.35000E+00
 -1      8959 6.58552E+01 6.58552E+01 6.35000E+00
 -1      8960 6.78508E+01 6.78508E+01 7.93750E+00
 -1      8961 5.84140E+01 7.61267E+01-7.93750E+00
 -1      8962 6.31324E+01 7.19887E+01-6.35000E+00
 -1      8963 5.66960E+01 7.38876E+01-6.35000E+00
 -1      8964 5.84140E+01 7.61267E+01-4.76250E+00
 -1      8965 6.31324E+01 7.19887E+01-3.17500E+00
 -1      8966 5.66960E+01 7.38876E+01-3.17500E+00
 -1      8967 5.84140E+01 7.61267E+01-1.58750E+00
 -1      8968 6.31324E+01 7.19887E+01 0.00000E+00
 -1      8969 5.66960E+01 7.38876E+01 0.00000E+00
 -1      8970 5.84140E+01 7.61267E+01 1.58750E+00
 -1      8971 6.31324E+01 7.19887E+01 3.17500E+00
 -1      8972 5.66960E+01 7.38876E+01 3.17500E+00
 -1      8973 5.84140E+01 7.61267E+01 4.76250E+00
 -1      8974 6.31324E+01 7.19887E+01 6.35000E+00
 -1      8975 5.66960E+01 7.38876E+01 6.35000E+00
 -1      8976 5.84140E+01 7.61267E+01 7.93750E+00
 -1      8977 4.79778E+01 8.30999E+01-7.93750E+00
 -1      8978 5.31959E+01 7.96133E+01-6.35000E+00
 -1      8979 4.65667E+01 8.06558E+01-6.35000E+00
 -1      8980 4.79778E+01 8.30999E+01-4.76250E+00
 -1      8981 5.31959E+01 7.96133E+01-3.17500E+00
 -1      8982 4.65667E+01 8.06558E+01-3.17500E+00
 -1      8983 4.79778E+01 8.30999E+01-1.58750E+00
 -1      8984 5.31959E+01 7.96133E+01 0.00000E+00
 -1      8985 4.65667E+01 8.06558E+01 0.00000E+00
 -1      8986 4.79778E+01 8.30999E+01 1.58750E+00
 -1      8987 5.31959E+01 7.96133E+01 3.17500E+00
 -1      8988 4.65667E+01 8.06558E+01 3.17500E+00
 -1      8989 4.79778E+01 8.30999E+01 4.76250E+00
 -1      8990 5.31959E+01 7.96133E+01 6.35000E+00
 -1      8991 4.65667E+01 8.06558E+01 6.35000E+00
 -1      8992 4.79778E+01 8.30999E+01 7.93750E+00
 -1      8993 3.67206E+01 8.86514E+01-7.93750E+00
 -1      8994 4.23492E+01 8.58757E+01-6.35000E+00
 -1      8995 3.56406E+01 8.60440E+01-6.35000E+00
 -1      8996 3.67206E+01 8.86514E+01-4.76250E+00
 -1      8997 4.23492E+01 8.58757E+01-3.17500E+00
 -1      8998 3.56406E+01 8.60440E+01-3.17500E+00
 -1      8999 3.67206E+01 8.86514E+01-1.58750E+00
 -1      9000 4.23492E+01 8.58757E+01 0.00000E+00
 -1      9001 3.56406E+01 8.60440E+01 0.00000E+00
 -1      9002 3.67206E+01 8.86514E+01 1.58750E+00
 -1      9003 4.23492E+01 8.58757E+01 3.17500E+00
 -1      9004 3.56406E+01 8.60440E+01 3.17500E+00
 -1      9005 3.67206E+01 8.86514E+01 4.76250E+00
 -1      9006 4.23492E+01 8.58757E+01 6.35000E+00
 -1      9007 3.56406E+01 8.60440E+01 6.35000E+00
 -1      9008 3.67206E+01 8.86514E+01 7.93750E+00
 -1      9009 2.48351E+01 9.26860E+01-7.93750E+00
 -1      9010 3.07779E+01 9.06687E+01-6.35000E+00
 -1      9011 2.41047E+01 8.99599E+01-6.35000E+00
 -1      9012 2.48351E+01 9.26860E+01-4.76250E+00
 -1      9013 3.07779E+01 9.06687E+01-3.17500E+00
 -1      9014 2.41047E+01 8.99599E+01-3.17500E+00
 -1      9015 2.48351E+01 9.26860E+01-1.58750E+00
 -1      9016 3.07779E+01 9.06687E+01 0.00000E+00
 -1      9017 2.41047E+01 8.99599E+01 0.00000E+00
 -1      9018 2.48351E+01 9.26860E+01 1.58750E+00
 -1      9019 3.07779E+01 9.06687E+01 3.17500E+00
 -1      9020 2.41047E+01 8.99599E+01 3.17500E+00
 -1      9021 2.48351E+01 9.26860E+01 4.76250E+00
 -1      9022 3.07779E+01 9.06687E+01 6.35000E+00
 -1      9023 2.41047E+01 8.99599E+01 6.35000E+00
 -1      9024 2.48351E+01 9.26860E+01 7.93750E+00
 -1      9025 1.25247E+01 9.51346E+01-7.93750E+00
 -1      9026 1.86799E+01 9.39103E+01-6.35000E+00
 -1      9027 1.21563E+01 9.23366E+01-6.35000E+00
 -1      9028 1.25247E+01 9.51346E+01-4.76250E+00
 -1      9029 1.86799E+01 9.39103E+01-3.17500E+00
 -1      9030 1.21563E+01 9.23366E+01-3.17500E+00
 -1      9031 1.25247E+01 9.51346E+01-1.58750E+00
 -1      9032 1.86799E+01 9.39103E+01 0.00000E+00
 -1      9033 1.21563E+01 9.23366E+01 0.00000E+00
 -1      9034 1.25247E+01 9.51346E+01 1.58750E+00
 -1      9035 1.86799E+01 9.39103E+01 3.17500E+00
 -1      9036 1.21563E+01 9.23366E+01 3.17500E+00
 -1      9037 1.25247E+01 9.51346E+01 4.76250E+00
 -1      9038 1.86799E+01 9.39103E+01 6.35000E+00
 -1      9039 1.21563E+01 9.23366E+01 6.35000E+00
 -1      9040 1.25247E+01 9.51346E+01 7.93750E+00
 -1      9041 6.26236E+00 9.55451E+01-6.35000E+00
 -1      9042 6.26236E+00 9.55451E+01-3.17500E+00
 -1      9043 6.26236E+00 9.55451E+01 0.00000E+00
 -1      9044 6.26236E+00 9.55451E+01 3.17500E+00
 -1      9045 6.26236E+00 9.55451E+01 6.35000E+00
 -1      9046 1.32615E+01-1.00731E+02-7.93750E+00
 -1      9047 6.63073E+00-1.01165E+02-6.35000E+00
 -1      9048 1.28931E+01-9.79327E+01-6.35000E+00
 -1      9049 1.32615E+01-1.00731E+02-4.76250E+00
 -1      9050 6.63073E+00-1.01165E+02-3.17500E+00
 -1      9051 1.28931E+01-9.79327E+01-3.17500E+00
 -1      9052 1.32615E+01-1.00731E+02-1.58750E+00
 -1      9053 6.63073E+00-1.01165E+02 0.00000E+00
 -1      9054 1.28931E+01-9.79327E+01 0.00000E+00
 -1      9055 1.32615E+01-1.00731E+02 1.58750E+00
 -1      9056 6.63073E+00-1.01165E+02 3.17500E+00
 -1      9057 1.28931E+01-9.79327E+01 3.17500E+00
 -1      9058 1.32615E+01-1.00731E+02 4.76250E+00
 -1      9059 6.63073E+00-1.01165E+02 6.35000E+00
 -1      9060 1.28931E+01-9.79327E+01 6.35000E+00
 -1      9061 1.32615E+01-1.00731E+02 7.93750E+00
 -1      9062 2.62960E+01-9.81381E+01-7.93750E+00
 -1      9063 1.97787E+01-9.94344E+01-6.35000E+00
 -1      9064 2.55656E+01-9.54120E+01-6.35000E+00
 -1      9065 2.62960E+01-9.81381E+01-4.76250E+00
 -1      9066 1.97787E+01-9.94344E+01-3.17500E+00
 -1      9067 2.55656E+01-9.54120E+01-3.17500E+00
 -1      9068 2.62960E+01-9.81381E+01-1.58750E+00
 -1      9069 1.97787E+01-9.94344E+01 0.00000E+00
 -1      9070 2.55656E+01-9.54120E+01 0.00000E+00
 -1      9071 2.62960E+01-9.81381E+01 1.58750E+00
 -1      9072 1.97787E+01-9.94344E+01 3.17500E+00
 -1      9073 2.55656E+01-9.54120E+01 3.17500E+00
 -1      9074 2.62960E+01-9.81381E+01 4.76250E+00
 -1      9075 1.97787E+01-9.94344E+01 6.35000E+00
 -1      9076 2.55656E+01-9.54120E+01 6.35000E+00
 -1      9077 2.62960E+01-9.81381E+01 7.93750E+00
 -1      9078 3.88806E+01-9.38662E+01-7.93750E+00
 -1      9079 3.25883E+01-9.60021E+01-6.35000E+00
 -1      9080 3.78006E+01-9.12588E+01-6.35000E+00
 -1      9081 3.88806E+01-9.38662E+01-4.76250E+00
 -1      9082 3.25883E+01-9.60021E+01-3.17500E+00
 -1      9083 3.78006E+01-9.12588E+01-3.17500E+00
 -1      9084 3.88806E+01-9.38662E+01-1.58750E+00
 -1      9085 3.25883E+01-9.60021E+01 0.00000E+00
 -1      9086 3.78006E+01-9.12588E+01 0.00000E+00
 -1      9087 3.88806E+01-9.38662E+01 1.58750E+00
 -1      9088 3.25883E+01-9.60021E+01 3.17500E+00
 -1      9089 3.78006E+01-9.12588E+01 3.17500E+00
 -1      9090 3.88806E+01-9.38662E+01 4.76250E+00
 -1      9091 3.25883E+01-9.60021E+01 6.35000E+00
 -1      9092 3.78006E+01-9.12588E+01 6.35000E+00
 -1      9093 3.88806E+01-9.38662E+01 7.93750E+00
 -1      9094 5.08000E+01-8.79882E+01-7.93750E+00
 -1      9095 4.48403E+01-9.09272E+01-6.35000E+00
 -1      9096 4.93889E+01-8.55441E+01-6.35000E+00
 -1      9097 5.08000E+01-8.79882E+01-4.76250E+00
 -1      9098 4.48403E+01-9.09272E+01-3.17500E+00
 -1      9099 4.93889E+01-8.55441E+01-3.17500E+00
 -1      9100 5.08000E+01-8.79882E+01-1.58750E+00
 -1      9101 4.48403E+01-9.09272E+01 0.00000E+00
 -1      9102 4.93889E+01-8.55441E+01 0.00000E+00
 -1      9103 5.08000E+01-8.79882E+01 1.58750E+00
 -1      9104 4.48403E+01-9.09272E+01 3.17500E+00
 -1      9105 4.93889E+01-8.55441E+01 3.17500E+00
 -1      9106 5.08000E+01-8.79882E+01 4.76250E+00
 -1      9107 4.48403E+01-9.09272E+01 6.35000E+00
 -1      9108 4.93889E+01-8.55441E+01 6.35000E+00
 -1      9109 5.08000E+01-8.79882E+01 7.93750E+00
 -1      9110 6.18502E+01-8.06047E+01-7.93750E+00
 -1      9111 5.63251E+01-8.42964E+01-6.35000E+00
 -1      9112 6.01321E+01-7.83657E+01-6.35000E+00
 -1      9113 6.18502E+01-8.06047E+01-4.76250E+00
 -1      9114 5.63251E+01-8.42964E+01-3.17500E+00
 -1      9115 6.01321E+01-7.83657E+01-3.17500E+00
 -1      9116 6.18502E+01-8.06047E+01-1.58750E+00
 -1      9117 5.63251E+01-8.42964E+01 0.00000E+00
 -1      9118 6.01321E+01-7.83657E+01 0.00000E+00
 -1      9119 6.18502E+01-8.06047E+01 1.58750E+00
 -1      9120 5.63251E+01-8.42964E+01 3.17500E+00
 -1      9121 6.01321E+01-7.83657E+01 3.17500E+00
 -1      9122 6.18502E+01-8.06047E+01 4.76250E+00
 -1      9123 5.63251E+01-8.42964E+01 6.35000E+00
 -1      9124 6.01321E+01-7.83657E+01 6.35000E+00
 -1      9125 6.18502E+01-8.06047E+01 7.93750E+00
 -1      9126 7.18420E+01-7.18420E+01-7.93750E+00
 -1      9127 6.68461E+01-7.62234E+01-6.35000E+00
 -1      9128 6.98464E+01-6.98464E+01-6.35000E+00
 -1      9129 7.18420E+01-7.18420E+01-4.76250E+00
 -1      9130 6.68461E+01-7.62234E+01-3.17500E+00
 -1      9131 6.98464E+01-6.98464E+01-3.17500E+00
 -1      9132 7.18420E+01-7.18420E+01-1.58750E+00
 -1      9133 6.68461E+01-7.62234E+01 0.00000E+00
 -1      9134 6.98464E+01-6.98464E+01 0.00000E+00
 -1      9135 7.18420E+01-7.18420E+01 1.58750E+00
 -1      9136 6.68461E+01-7.62234E+01 3.17500E+00
 -1      9137 6.98464E+01-6.98464E+01 3.17500E+00
 -1      9138 7.18420E+01-7.18420E+01 4.76250E+00
 -1      9139 6.68461E+01-7.62234E+01 6.35000E+00
 -1      9140 6.98464E+01-6.98464E+01 6.35000E+00
 -1      9141 7.18420E+01-7.18420E+01 7.93750E+00
 -1      9142 8.06047E+01-6.18502E+01-7.93750E+00
 -1      9143 7.62234E+01-6.68461E+01-6.35000E+00
 -1      9144 7.83657E+01-6.01321E+01-6.35000E+00
 -1      9145 8.06047E+01-6.18502E+01-4.76250E+00
 -1      9146 7.62234E+01-6.68461E+01-3.17500E+00
 -1      9147 7.83657E+01-6.01321E+01-3.17500E+00
 -1      9148 8.06047E+01-6.18502E+01-1.58750E+00
 -1      9149 7.62234E+01-6.68461E+01 0.00000E+00
 -1      9150 7.83657E+01-6.01321E+01 0.00000E+00
 -1      9151 8.06047E+01-6.18502E+01 1.58750E+00
 -1      9152 7.62234E+01-6.68461E+01 3.17500E+00
 -1      9153 7.83657E+01-6.01321E+01 3.17500E+00
 -1      9154 8.06047E+01-6.18502E+01 4.76250E+00
 -1      9155 7.62234E+01-6.68461E+01 6.35000E+00
 -1      9156 7.83657E+01-6.01321E+01 6.35000E+00
 -1      9157 8.06047E+01-6.18502E+01 7.93750E+00
 -1      9158 8.79882E+01-5.08000E+01-7.93750E+00
 -1      9159 8.42964E+01-5.63251E+01-6.35000E+00
 -1      9160 8.55441E+01-4.93889E+01-6.35000E+00
 -1      9161 8.79882E+01-5.08000E+01-4.76250E+00
 -1      9162 8.42964E+01-5.63251E+01-3.17500E+00
 -1      9163 8.55441E+01-4.93889E+01-3.17500E+00
 -1      9164 8.79882E+01-5.08000E+01-1.58750E+00
 -1      9165 8.42964E+01-5.63251E+01 0.00000E+00
 -1      9166 8.55441E+01-4.93889E+01 0.00000E+00
 -1      9167 8.79882E+01-5.08000E+01 1.58750E+00
 -1      9168 8.42964E+01-5.63251E+01 3.17500E+00
 -1      9169 8.55441E+01-4.93889E+01 3.17500E+00
 -1      9170 8.79882E+01-5.08000E+01 4.76250E+00
 -1      9171 8.42964E+01-5.63251E+01 6.35000E+00
 -1      9172 8.55441E+01-4.93889E+01 6.35000E+00
 -1      9173 8.79882E+01-5.08000E+01 7.93750E+00
 -1      9174 9.38662E+01-3.88806E+01-7.93750E+00
 -1      9175 9.09272E+01-4.48403E+01-6.35000E+00
 -1      9176 9.12588E+01-3.78006E+01-6.35000E+00
 -1      9177 9.38662E+01-3.88806E+01-4.76250E+00
 -1      9178 9.09272E+01-4.48403E+01-3.17500E+00
 -1      9179 9.12588E+01-3.78006E+01-3.17500E+00
 -1      9180 9.38662E+01-3.88806E+01-1.58750E+00
 -1      9181 9.09272E+01-4.48403E+01 0.00000E+00
 -1      9182 9.12588E+01-3.78006E+01 0.00000E+00
 -1      9183 9.38662E+01-3.88806E+01 1.58750E+00
 -1      9184 9.09272E+01-4.48403E+01 3.17500E+00
 -1      9185 9.12588E+01-3.78006E+01 3.17500E+00
 -1      9186 9.38662E+01-3.88806E+01 4.76250E+00
 -1      9187 9.09272E+01-4.48403E+01 6.35000E+00
 -1      9188 9.12588E+01-3.78006E+01 6.35000E+00
 -1      9189 9.38662E+01-3.88806E+01 7.93750E+00
 -1      9190 9.81381E+01-2.62960E+01-7.93750E+00
 -1      9191 9.60021E+01-3.25883E+01-6.35000E+00
 -1      9192 9.54120E+01-2.55656E+01-6.35000E+00
 -1      9193 9.81381E+01-2.62960E+01-4.76250E+00
 -1      9194 9.60021E+01-3.25883E+01-3.17500E+00
 -1      9195 9.54120E+01-2.55656E+01-3.17500E+00
 -1      9196 9.81381E+01-2.62960E+01-1.58750E+00
 -1      9197 9.60021E+01-3.25883E+01 0.00000E+00
 -1      9198 9.54120E+01-2.55656E+01 0.00000E+00
 -1      9199 9.81381E+01-2.62960E+01 1.58750E+00
 -1      9200 9.60021E+01-3.25883E+01 3.17500E+00
 -1      9201 9.54120E+01-2.55656E+01 3.17500E+00
 -1      9202 9.81381E+01-2.62960E+01 4.76250E+00
 -1      9203 9.60021E+01-3.25883E+01 6.35000E+00
 -1      9204 9.54120E+01-2.55656E+01 6.35000E+00
 -1      9205 9.81381E+01-2.62960E+01 7.93750E+00
 -1      9206 1.00731E+02-1.32615E+01-7.93750E+00
 -1      9207 9.94344E+01-1.97787E+01-6.35000E+00
 -1      9208 9.79327E+01-1.28931E+01-6.35000E+00
 -1      9209 1.00731E+02-1.32615E+01-4.76250E+00
 -1      9210 9.94344E+01-1.97787E+01-3.17500E+00
 -1      9211 9.79327E+01-1.28931E+01-3.17500E+00
 -1      9212 1.00731E+02-1.32615E+01-1.58750E+00
 -1      9213 9.94344E+01-1.97787E+01 0.00000E+00
 -1      9214 9.79327E+01-1.28931E+01 0.00000E+00
 -1      9215 1.00731E+02-1.32615E+01 1.58750E+00
 -1      9216 9.94344E+01-1.97787E+01 3.17500E+00
 -1      9217 9.79327E+01-1.28931E+01 3.17500E+00
 -1      9218 1.00731E+02-1.32615E+01 4.76250E+00
 -1      9219 9.94344E+01-1.97787E+01 6.35000E+00
 -1      9220 9.79327E+01-1.28931E+01 6.35000E+00
 -1      9221 1.00731E+02-1.32615E+01 7.93750E+00
 -1      9222 1.01600E+02 4.69979E-07-7.93750E+00
 -1      9223 1.01165E+02-6.63073E+00-6.35000E+00
 -1      9224 9.87778E+01 4.57180E-07-6.35000E+00
 -1      9225 1.01600E+02 4.69979E-07-4.76250E+00
 -1      9226 1.01165E+02-6.63073E+00-3.17500E+00
 -1      9227 9.87778E+01 4.57180E-07-3.17500E+00
 -1      9228 1.01600E+02 4.69979E-07-1.58750E+00
 -1      9229 1.01165E+02-6.63073E+00 0.00000E+00
 -1      9230 9.87778E+01 4.57180E-07 0.00000E+00
 -1      9231 1.01600E+02 4.69979E-07 1.58750E+00
 -1      9232 1.01165E+02-6.63073E+00 3.17500E+00
 -1      9233 9.87778E+01 4.57180E-07 3.17500E+00
 -1      9234 1.01600E+02 4.69979E-07 4.76250E+00
 -1      9235 1.01165E+02-6.63073E+00 6.35000E+00
 -1      9236 9.87778E+01 4.57180E-07 6.35000E+00
 -1      9237 1.01600E+02 4.69979E-07 7.93750E+00
 -1      9238 1.00731E+02 1.32615E+01-7.93750E+00
 -1      9239 1.01165E+02 6.63073E+00-6.35000E+00
 -1      9240 9.79327E+01 1.28931E+01-6.35000E+00
 -1      9241 1.00731E+02 1.32615E+01-4.76250E+00
 -1      9242 1.01165E+02 6.63073E+00-3.17500E+00
 -1      9243 9.79327E+01 1.28931E+01-3.17500E+00
 -1      9244 1.00731E+02 1.32615E+01-1.58750E+00
 -1      9245 1.01165E+02 6.63073E+00 0.00000E+00
 -1      9246 9.79327E+01 1.28931E+01 0.00000E+00
 -1      9247 1.00731E+02 1.32615E+01 1.58750E+00
 -1      9248 1.01165E+02 6.63073E+00 3.17500E+00
 -1      9249 9.79327E+01 1.28931E+01 3.17500E+00
 -1      9250 1.00731E+02 1.32615E+01 4.76250E+00
 -1      9251 1.01165E+02 6.63073E+00 6.35000E+00
 -1      9252 9.79327E+01 1.28931E+01 6.35000E+00
 -1      9253 1.00731E+02 1.32615E+01 7.93750E+00
 -1      9254 9.81381E+01 2.62960E+01-7.93750E+00
 -1      9255 9.94344E+01 1.97787E+01-6.35000E+00
 -1      9256 9.54120E+01 2.55656E+01-6.35000E+00
 -1      9257 9.81381E+01 2.62960E+01-4.76250E+00
 -1      9258 9.94344E+01 1.97787E+01-3.17500E+00
 -1      9259 9.54120E+01 2.55656E+01-3.17500E+00
 -1      9260 9.81381E+01 2.62960E+01-1.58750E+00
 -1      9261 9.94344E+01 1.97787E+01 0.00000E+00
 -1      9262 9.54120E+01 2.55656E+01 0.00000E+00
 -1      9263 9.81381E+01 2.62960E+01 1.58750E+00
 -1      9264 9.94344E+01 1.97787E+01 3.17500E+00
 -1      9265 9.54120E+01 2.55656E+01 3.17500E+00
 -1      9266 9.81381E+01 2.62960E+01 4.76250E+00
 -1      9267 9.94344E+01 1.97787E+01 6.35000E+00
 -1      9268 9.54120E+01 2.55656E+01 6.35000E+00
 -1      9269 9.81381E+01 2.62960E+01 7.93750E+00
 -1      9270 9.38662E+01 3.88806E+01-7.93750E+00
 -1      9271 9.60021E+01 3.25883E+01-6.35000E+00
 -1      9272 9.12588E+01 3.78006E+01-6.35000E+00
 -1      9273 9.38662E+01 3.88806E+01-4.76250E+00
 -1      9274 9.60021E+01 3.25883E+01-3.17500E+00
 -1      9275 9.12588E+01 3.78006E+01-3.17500E+00
 -1      9276 9.38662E+01 3.88806E+01-1.58750E+00
 -1      9277 9.60021E+01 3.25883E+01 0.00000E+00
 -1      9278 9.12588E+01 3.78006E+01 0.00000E+00
 -1      9279 9.38662E+01 3.88806E+01 1.58750E+00
 -1      9280 9.60021E+01 3.25883E+01 3.17500E+00
 -1      9281 9.12588E+01 3.78006E+01 3.17500E+00
 -1      9282 9.38662E+01 3.88806E+01 4.76250E+00
 -1      9283 9.60021E+01 3.25883E+01 6.35000E+00
 -1      9284 9.12588E+01 3.78006E+01 6.35000E+00
 -1      9285 9.38662E+01 3.88806E+01 7.93750E+00
 -1      9286 8.79882E+01 5.08000E+01-7.93750E+00
 -1      9287 9.09272E+01 4.48403E+01-6.35000E+00
 -1      9288 8.55441E+01 4.93889E+01-6.35000E+00
 -1      9289 8.79882E+01 5.08000E+01-4.76250E+00
 -1      9290 9.09272E+01 4.48403E+01-3.17500E+00
 -1      9291 8.55441E+01 4.93889E+01-3.17500E+00
 -1      9292 8.79882E+01 5.08000E+01-1.58750E+00
 -1      9293 9.09272E+01 4.48403E+01 0.00000E+00
 -1      9294 8.55441E+01 4.93889E+01 0.00000E+00
 -1      9295 8.79882E+01 5.08000E+01 1.58750E+00
 -1      9296 9.09272E+01 4.48403E+01 3.17500E+00
 -1      9297 8.55441E+01 4.93889E+01 3.17500E+00
 -1      9298 8.79882E+01 5.08000E+01 4.76250E+00
 -1      9299 9.09272E+01 4.48403E+01 6.35000E+00
 -1      9300 8.55441E+01 4.93889E+01 6.35000E+00
 -1      9301 8.79882E+01 5.08000E+01 7.93750E+00
 -1      9302 8.06047E+01 6.18502E+01-7.93750E+00
 -1      9303 8.42964E+01 5.63251E+01-6.35000E+00
 -1      9304 7.83657E+01 6.01321E+01-6.35000E+00
 -1      9305 8.06047E+01 6.18502E+01-4.76250E+00
 -1      9306 8.42964E+01 5.63251E+01-3.17500E+00
 -1      9307 7.83657E+01 6.01321E+01-3.17500E+00
 -1      9308 8.06047E+01 6.18502E+01-1.58750E+00
 -1      9309 8.42964E+01 5.63251E+01 0.00000E+00
 -1      9310 7.83657E+01 6.01321E+01 0.00000E+00
 -1      9311 8.06047E+01 6.18502E+01 1.58750E+00
 -1      9312 8.42964E+01 5.63251E+01 3.17500E+00
 -1      9313 7.83657E+01 6.01321E+01 3.17500E+00
 -1      9314 8.06047E+01 6.18502E+01 4.76250E+00
 -1      9315 8.42964E+01 5.63251E+01 6.35000E+00
 -1      9316 7.83657E+01 6.01321E+01 6.35000E+00
 -1      9317 8.06047E+01 6.18502E+01 7.93750E+00
 -1      9318 7.18420E+01 7.18420E+01-7.93750E+00
 -1      9319 7.62234E+01 6.68461E+01-6.35000E+00
 -1      9320 6.98464E+01 6.98464E+01-6.35000E+00
 -1      9321 7.18420E+01 7.18420E+01-4.76250E+00
 -1      9322 7.62234E+01 6.68461E+01-3.17500E+00
 -1      9323 6.98464E+01 6.98464E+01-3.17500E+00
 -1      9324 7.18420E+01 7.18420E+01-1.58750E+00
 -1      9325 7.62234E+01 6.68461E+01 0.00000E+00
 -1      9326 6.98464E+01 6.98464E+01 0.00000E+00
 -1      9327 7.18420E+01 7.18420E+01 1.58750E+00
 -1      9328 7.62234E+01 6.68461E+01 3.17500E+00
 -1      9329 6.98464E+01 6.98464E+01 3.17500E+00
 -1      9330 7.18420E+01 7.18420E+01 4.76250E+00
 -1      9331 7.62234E+01 6.68461E+01 6.35000E+00
 -1      9332 6.98464E+01 6.98464E+01 6.35000E+00
 -1      9333 7.18420E+01 7.18420E+01 7.93750E+00
 -1      9334 6.18502E+01 8.06047E+01-7.93750E+00
 -1      9335 6.68461E+01 7.62234E+01-6.35000E+00
 -1      9336 6.01321E+01 7.83657E+01-6.35000E+00
 -1      9337 6.18502E+01 8.06047E+01-4.76250E+00
 -1      9338 6.68461E+01 7.62234E+01-3.17500E+00
 -1      9339 6.01321E+01 7.83657E+01-3.17500E+00
 -1      9340 6.18502E+01 8.06047E+01-1.58750E+00
 -1      9341 6.68461E+01 7.62234E+01 0.00000E+00
 -1      9342 6.01321E+01 7.83657E+01 0.00000E+00
 -1      9343 6.18502E+01 8.06047E+01 1.58750E+00
 -1      9344 6.68461E+01 7.62234E+01 3.17500E+00
 -1      9345 6.01321E+01 7.83657E+01 3.17500E+00
 -1      9346 6.18502E+01 8.06047E+01 4.76250E+00
 -1      9347 6.68461E+01 7.62234E+01 6.35000E+00
 -1      9348 6.01321E+01 7.83657E+01 6.35000E+00
 -1      9349 6.18502E+01 8.06047E+01 7.93750E+00
 -1      9350 5.08000E+01 8.79882E+01-7.93750E+00
 -1      9351 5.63251E+01 8.42964E+01-6.35000E+00
 -1      9352 4.93889E+01 8.55441E+01-6.35000E+00
 -1      9353 5.08000E+01 8.79882E+01-4.76250E+00
 -1      9354 5.63251E+01 8.42964E+01-3.17500E+00
 -1      9355 4.93889E+01 8.55441E+01-3.17500E+00
 -1      9356 5.08000E+01 8.79882E+01-1.58750E+00
 -1      9357 5.63251E+01 8.42964E+01 0.00000E+00
 -1      9358 4.93889E+01 8.55441E+01 0.00000E+00
 -1      9359 5.08000E+01 8.79882E+01 1.58750E+00
 -1      9360 5.63251E+01 8.42964E+01 3.17500E+00
 -1      9361 4.93889E+01 8.55441E+01 3.17500E+00
 -1      9362 5.08000E+01 8.79882E+01 4.76250E+00
 -1      9363 5.63251E+01 8.42964E+01 6.35000E+00
 -1      9364 4.93889E+01 8.55441E+01 6.35000E+00
 -1      9365 5.08000E+01 8.79882E+01 7.93750E+00
 -1      9366 3.88806E+01 9.38662E+01-7.93750E+00
 -1      9367 4.48403E+01 9.09272E+01-6.35000E+00
 -1      9368 3.78006E+01 9.12588E+01-6.35000E+00
 -1      9369 3.88806E+01 9.38662E+01-4.76250E+00
 -1      9370 4.48403E+01 9.09272E+01-3.17500E+00
 -1      9371 3.78006E+01 9.12588E+01-3.17500E+00
 -1      9372 3.88806E+01 9.38662E+01-1.58750E+00
 -1      9373 4.48403E+01 9.09272E+01 0.00000E+00
 -1      9374 3.78006E+01 9.12588E+01 0.00000E+00
 -1      9375 3.88806E+01 9.38662E+01 1.58750E+00
 -1      9376 4.48403E+01 9.09272E+01 3.17500E+00
 -1      9377 3.78006E+01 9.12588E+01 3.17500E+00
 -1      9378 3.88806E+01 9.38662E+01 4.76250E+00
 -1      9379 4.48403E+01 9.09272E+01 6.35000E+00
 -1      9380 3.78006E+01 9.12588E+01 6.35000E+00
 -1      9381 3.88806E+01 9.38662E+01 7.93750E+00
 -1      9382 2.62960E+01 9.81381E+01-7.93750E+00
 -1      9383 3.25883E+01 9.60021E+01-6.35000E+00
 -1      9384 2.55656E+01 9.54120E+01-6.35000E+00
 -1      9385 2.62960E+01 9.81381E+01-4.76250E+00
 -1      9386 3.25883E+01 9.60021E+01-3.17500E+00
 -1      9387 2.55656E+01 9.54120E+01-3.17500E+00
 -1      9388 2.62960E+01 9.81381E+01-1.58750E+00
 -1      9389 3.25883E+01 9.60021E+01 0.00000E+00
 -1      9390 2.55656E+01 9.54120E+01 0.00000E+00
 -1      9391 2.62960E+01 9.81381E+01 1.58750E+00
 -1      9392 3.25883E+01 9.60021E+01 3.17500E+00
 -1      9393 2.55656E+01 9.54120E+01 3.17500E+00
 -1      9394 2.62960E+01 9.81381E+01 4.76250E+00
 -1      9395 3.25883E+01 9.60021E+01 6.35000E+00
 -1      9396 2.55656E+01 9.54120E+01 6.35000E+00
 -1      9397 2.62960E+01 9.81381E+01 7.93750E+00
 -1      9398 1.32615E+01 1.00731E+02-7.93750E+00
 -1      9399 1.97787E+01 9.94344E+01-6.35000E+00
 -1      9400 1.28931E+01 9.79327E+01-6.35000E+00
 -1      9401 1.32615E+01 1.00731E+02-4.76250E+00
 -1      9402 1.97787E+01 9.94344E+01-3.17500E+00
 -1      9403 1.28931E+01 9.79327E+01-3.17500E+00
 -1      9404 1.32615E+01 1.00731E+02-1.58750E+00
 -1      9405 1.97787E+01 9.94344E+01 0.00000E+00
 -1      9406 1.28931E+01 9.79327E+01 0.00000E+00
 -1      9407 1.32615E+01 1.00731E+02 1.58750E+00
 -1      9408 1.97787E+01 9.94344E+01 3.17500E+00
 -1      9409 1.28931E+01 9.79327E+01 3.17500E+00
 -1      9410 1.32615E+01 1.00731E+02 4.76250E+00
 -1      9411 1.97787E+01 9.94344E+01 6.35000E+00
 -1      9412 1.28931E+01 9.79327E+01 6.35000E+00
 -1      9413 1.32615E+01 1.00731E+02 7.93750E+00
 -1      9414 6.63073E+00 1.01165E+02-6.35000E+00
 -1      9415 6.63073E+00 1.01165E+02-3.17500E+00
 -1      9416 6.63073E+00 1.01165E+02 0.00000E+00
 -1      9417 6.63073E+00 1.01165E+02 3.17500E+00
 -1      9418 6.63073E+00 1.01165E+02 6.35000E+00
 -1      9419 1.39982E+01-1.06327E+02-7.93750E+00
 -1      9420 6.99910E+00-1.06786E+02-6.35000E+00
 -1      9421 1.36298E+01-1.03529E+02-6.35000E+00
 -1      9422 1.39982E+01-1.06327E+02-4.76250E+00
 -1      9423 6.99910E+00-1.06786E+02-3.17500E+00
 -1      9424 1.36298E+01-1.03529E+02-3.17500E+00
 -1      9425 1.39982E+01-1.06327E+02-1.58750E+00
 -1      9426 6.99910E+00-1.06786E+02 0.00000E+00
 -1      9427 1.36298E+01-1.03529E+02 0.00000E+00
 -1      9428 1.39982E+01-1.06327E+02 1.58750E+00
 -1      9429 6.99910E+00-1.06786E+02 3.17500E+00
 -1      9430 1.36298E+01-1.03529E+02 3.17500E+00
 -1      9431 1.39982E+01-1.06327E+02 4.76250E+00
 -1      9432 6.99910E+00-1.06786E+02 6.35000E+00
 -1      9433 1.36298E+01-1.03529E+02 6.35000E+00
 -1      9434 1.39982E+01-1.06327E+02 7.93750E+00
 -1      9435 2.77569E+01-1.03590E+02-7.93750E+00
 -1      9436 2.08776E+01-1.04959E+02-6.35000E+00
 -1      9437 2.70265E+01-1.00864E+02-6.35000E+00
 -1      9438 2.77569E+01-1.03590E+02-4.76250E+00
 -1      9439 2.08776E+01-1.04959E+02-3.17500E+00
 -1      9440 2.70265E+01-1.00864E+02-3.17500E+00
 -1      9441 2.77569E+01-1.03590E+02-1.58750E+00
 -1      9442 2.08776E+01-1.04959E+02 0.00000E+00
 -1      9443 2.70265E+01-1.00864E+02 0.00000E+00
 -1      9444 2.77569E+01-1.03590E+02 1.58750E+00
 -1      9445 2.08776E+01-1.04959E+02 3.17500E+00
 -1      9446 2.70265E+01-1.00864E+02 3.17500E+00
 -1      9447 2.77569E+01-1.03590E+02 4.76250E+00
 -1      9448 2.08776E+01-1.04959E+02 6.35000E+00
 -1      9449 2.70265E+01-1.00864E+02 6.35000E+00
 -1      9450 2.77569E+01-1.03590E+02 7.93750E+00
 -1      9451 4.10407E+01-9.90809E+01-7.93750E+00
 -1      9452 3.43988E+01-1.01336E+02-6.35000E+00
 -1      9453 3.99607E+01-9.64736E+01-6.35000E+00
 -1      9454 4.10407E+01-9.90809E+01-4.76250E+00
 -1      9455 3.43988E+01-1.01336E+02-3.17500E+00
 -1      9456 3.99607E+01-9.64736E+01-3.17500E+00
 -1      9457 4.10407E+01-9.90809E+01-1.58750E+00
 -1      9458 3.43988E+01-1.01336E+02 0.00000E+00
 -1      9459 3.99607E+01-9.64736E+01 0.00000E+00
 -1      9460 4.10407E+01-9.90809E+01 1.58750E+00
 -1      9461 3.43988E+01-1.01336E+02 3.17500E+00
 -1      9462 3.99607E+01-9.64736E+01 3.17500E+00
 -1      9463 4.10407E+01-9.90809E+01 4.76250E+00
 -1      9464 3.43988E+01-1.01336E+02 6.35000E+00
 -1      9465 3.99607E+01-9.64736E+01 6.35000E+00
 -1      9466 4.10407E+01-9.90809E+01 7.93750E+00
 -1      9467 5.36222E+01-9.28764E+01-7.93750E+00
 -1      9468 4.73314E+01-9.59787E+01-6.35000E+00
 -1      9469 5.22111E+01-9.04323E+01-6.35000E+00
 -1      9470 5.36222E+01-9.28764E+01-4.76250E+00
 -1      9471 4.73314E+01-9.59787E+01-3.17500E+00
 -1      9472 5.22111E+01-9.04323E+01-3.17500E+00
 -1      9473 5.36222E+01-9.28764E+01-1.58750E+00
 -1      9474 4.73314E+01-9.59787E+01 0.00000E+00
 -1      9475 5.22111E+01-9.04323E+01 0.00000E+00
 -1      9476 5.36222E+01-9.28764E+01 1.58750E+00
 -1      9477 4.73314E+01-9.59787E+01 3.17500E+00
 -1      9478 5.22111E+01-9.04323E+01 3.17500E+00
 -1      9479 5.36222E+01-9.28764E+01 4.76250E+00
 -1      9480 4.73314E+01-9.59787E+01 6.35000E+00
 -1      9481 5.22111E+01-9.04323E+01 6.35000E+00
 -1      9482 5.36222E+01-9.28764E+01 7.93750E+00
 -1      9483 6.52863E+01-8.50827E+01-7.93750E+00
 -1      9484 5.94543E+01-8.89796E+01-6.35000E+00
 -1      9485 6.35682E+01-8.28437E+01-6.35000E+00
 -1      9486 6.52863E+01-8.50827E+01-4.76250E+00
 -1      9487 5.94543E+01-8.89796E+01-3.17500E+00
 -1      9488 6.35682E+01-8.28437E+01-3.17500E+00
 -1      9489 6.52863E+01-8.50827E+01-1.58750E+00
 -1      9490 5.94543E+01-8.89796E+01 0.00000E+00
 -1      9491 6.35682E+01-8.28437E+01 0.00000E+00
 -1      9492 6.52863E+01-8.50827E+01 1.58750E+00
 -1      9493 5.94543E+01-8.89796E+01 3.17500E+00
 -1      9494 6.35682E+01-8.28437E+01 3.17500E+00
 -1      9495 6.52863E+01-8.50827E+01 4.76250E+00
 -1      9496 5.94543E+01-8.89796E+01 6.35000E+00
 -1      9497 6.35682E+01-8.28437E+01 6.35000E+00
 -1      9498 6.52863E+01-8.50827E+01 7.93750E+00
 -1      9499 7.58333E+01-7.58333E+01-7.93750E+00
 -1      9500 7.05598E+01-8.04580E+01-6.35000E+00
 -1      9501 7.38377E+01-7.38377E+01-6.35000E+00
 -1      9502 7.58333E+01-7.58333E+01-4.76250E+00
 -1      9503 7.05598E+01-8.04580E+01-3.17500E+00
 -1      9504 7.38377E+01-7.38377E+01-3.17500E+00
 -1      9505 7.58333E+01-7.58333E+01-1.58750E+00
 -1      9506 7.05598E+01-8.04580E+01 0.00000E+00
 -1      9507 7.38377E+01-7.38377E+01 0.00000E+00
 -1      9508 7.58333E+01-7.58333E+01 1.58750E+00
 -1      9509 7.05598E+01-8.04580E+01 3.17500E+00
 -1      9510 7.38377E+01-7.38377E+01 3.17500E+00
 -1      9511 7.58333E+01-7.58333E+01 4.76250E+00
 -1      9512 7.05598E+01-8.04580E+01 6.35000E+00
 -1      9513 7.38377E+01-7.38377E+01 6.35000E+00
 -1      9514 7.58333E+01-7.58333E+01 7.93750E+00
 -1      9515 8.50827E+01-6.52863E+01-7.93750E+00
 -1      9516 8.04580E+01-7.05598E+01-6.35000E+00
 -1      9517 8.28437E+01-6.35682E+01-6.35000E+00
 -1      9518 8.50827E+01-6.52863E+01-4.76250E+00
 -1      9519 8.04580E+01-7.05598E+01-3.17500E+00
 -1      9520 8.28437E+01-6.35682E+01-3.17500E+00
 -1      9521 8.50827E+01-6.52863E+01-1.58750E+00
 -1      9522 8.04580E+01-7.05598E+01 0.00000E+00
 -1      9523 8.28437E+01-6.35682E+01 0.00000E+00
 -1      9524 8.50827E+01-6.52863E+01 1.58750E+00
 -1      9525 8.04580E+01-7.05598E+01 3.17500E+00
 -1      9526 8.28437E+01-6.35682E+01 3.17500E+00
 -1      9527 8.50827E+01-6.52863E+01 4.76250E+00
 -1      9528 8.04580E+01-7.05598E+01 6.35000E+00
 -1      9529 8.28437E+01-6.35682E+01 6.35000E+00
 -1      9530 8.50827E+01-6.52863E+01 7.93750E+00
 -1      9531 9.28764E+01-5.36222E+01-7.93750E+00
 -1      9532 8.89796E+01-5.94543E+01-6.35000E+00
 -1      9533 9.04323E+01-5.22111E+01-6.35000E+00
 -1      9534 9.28764E+01-5.36222E+01-4.76250E+00
 -1      9535 8.89796E+01-5.94543E+01-3.17500E+00
 -1      9536 9.04323E+01-5.22111E+01-3.17500E+00
 -1      9537 9.28764E+01-5.36222E+01-1.58750E+00
 -1      9538 8.89796E+01-5.94543E+01 0.00000E+00
 -1      9539 9.04323E+01-5.22111E+01 0.00000E+00
 -1      9540 9.28764E+01-5.36222E+01 1.58750E+00
 -1      9541 8.89796E+01-5.94543E+01 3.17500E+00
 -1      9542 9.04323E+01-5.22111E+01 3.17500E+00
 -1      9543 9.28764E+01-5.36222E+01 4.76250E+00
 -1      9544 8.89796E+01-5.94543E+01 6.35000E+00
 -1      9545 9.04323E+01-5.22111E+01 6.35000E+00
 -1      9546 9.28764E+01-5.36222E+01 7.93750E+00
 -1      9547 9.90809E+01-4.10407E+01-7.93750E+00
 -1      9548 9.59787E+01-4.73314E+01-6.35000E+00
 -1      9549 9.64736E+01-3.99607E+01-6.35000E+00
 -1      9550 9.90809E+01-4.10407E+01-4.76250E+00
 -1      9551 9.59787E+01-4.73314E+01-3.17500E+00
 -1      9552 9.64736E+01-3.99607E+01-3.17500E+00
 -1      9553 9.90809E+01-4.10407E+01-1.58750E+00
 -1      9554 9.59787E+01-4.73314E+01 0.00000E+00
 -1      9555 9.64736E+01-3.99607E+01 0.00000E+00
 -1      9556 9.90809E+01-4.10407E+01 1.58750E+00
 -1      9557 9.59787E+01-4.73314E+01 3.17500E+00
 -1      9558 9.64736E+01-3.99607E+01 3.17500E+00
 -1      9559 9.90809E+01-4.10407E+01 4.76250E+00
 -1      9560 9.59787E+01-4.73314E+01 6.35000E+00
 -1      9561 9.64736E+01-3.99607E+01 6.35000E+00
 -1      9562 9.90809E+01-4.10407E+01 7.93750E+00
 -1      9563 1.03590E+02-2.77569E+01-7.93750E+00
 -1      9564 1.01336E+02-3.43988E+01-6.35000E+00
 -1      9565 1.00864E+02-2.70265E+01-6.35000E+00
 -1      9566 1.03590E+02-2.77569E+01-4.76250E+00
 -1      9567 1.01336E+02-3.43988E+01-3.17500E+00
 -1      9568 1.00864E+02-2.70265E+01-3.17500E+00
 -1      9569 1.03590E+02-2.77569E+01-1.58750E+00
 -1      9570 1.01336E+02-3.43988E+01 0.00000E+00
 -1      9571 1.00864E+02-2.70265E+01 0.00000E+00
 -1      9572 1.03590E+02-2.77569E+01 1.58750E+00
 -1      9573 1.01336E+02-3.43988E+01 3.17500E+00
 -1      9574 1.00864E+02-2.70265E+01 3.17500E+00
 -1      9575 1.03590E+02-2.77569E+01 4.76250E+00
 -1      9576 1.01336E+02-3.43988E+01 6.35000E+00
 -1      9577 1.00864E+02-2.70265E+01 6.35000E+00
 -1      9578 1.03590E+02-2.77569E+01 7.93750E+00
 -1      9579 1.06327E+02-1.39982E+01-7.93750E+00
 -1      9580 1.04959E+02-2.08776E+01-6.35000E+00
 -1      9581 1.03529E+02-1.36298E+01-6.35000E+00
 -1      9582 1.06327E+02-1.39982E+01-4.76250E+00
 -1      9583 1.04959E+02-2.08776E+01-3.17500E+00
 -1      9584 1.03529E+02-1.36298E+01-3.17500E+00
 -1      9585 1.06327E+02-1.39982E+01-1.58750E+00
 -1      9586 1.04959E+02-2.08776E+01 0.00000E+00
 -1      9587 1.03529E+02-1.36298E+01 0.00000E+00
 -1      9588 1.06327E+02-1.39982E+01 1.58750E+00
 -1      9589 1.04959E+02-2.08776E+01 3.17500E+00
 -1      9590 1.03529E+02-1.36298E+01 3.17500E+00
 -1      9591 1.06327E+02-1.39982E+01 4.76250E+00
 -1      9592 1.04959E+02-2.08776E+01 6.35000E+00
 -1      9593 1.03529E+02-1.36298E+01 6.35000E+00
 -1      9594 1.06327E+02-1.39982E+01 7.93750E+00
 -1      9595 1.07244E+02 4.95548E-07-7.93750E+00
 -1      9596 1.06786E+02-6.99910E+00-6.35000E+00
 -1      9597 1.04422E+02 4.82764E-07-6.35000E+00
 -1      9598 1.07244E+02 4.95548E-07-4.76250E+00
 -1      9599 1.06786E+02-6.99910E+00-3.17500E+00
 -1      9600 1.04422E+02 4.82764E-07-3.17500E+00
 -1      9601 1.07244E+02 4.95548E-07-1.58750E+00
 -1      9602 1.06786E+02-6.99910E+00 0.00000E+00
 -1      9603 1.04422E+02 4.82764E-07 0.00000E+00
 -1      9604 1.07244E+02 4.95548E-07 1.58750E+00
 -1      9605 1.06786E+02-6.99910E+00 3.17500E+00
 -1      9606 1.04422E+02 4.82764E-07 3.17500E+00
 -1      9607 1.07244E+02 4.95548E-07 4.76250E+00
 -1      9608 1.06786E+02-6.99910E+00 6.35000E+00
 -1      9609 1.04422E+02 4.82764E-07 6.35000E+00
 -1      9610 1.07244E+02 4.95548E-07 7.93750E+00
 -1      9611 1.06327E+02 1.39982E+01-7.93750E+00
 -1      9612 1.06786E+02 6.99910E+00-6.35000E+00
 -1      9613 1.03529E+02 1.36298E+01-6.35000E+00
 -1      9614 1.06327E+02 1.39982E+01-4.76250E+00
 -1      9615 1.06786E+02 6.99910E+00-3.17500E+00
 -1      9616 1.03529E+02 1.36298E+01-3.17500E+00
 -1      9617 1.06327E+02 1.39982E+01-1.58750E+00
 -1      9618 1.06786E+02 6.99910E+00 0.00000E+00
 -1      9619 1.03529E+02 1.36298E+01 0.00000E+00
 -1      9620 1.06327E+02 1.39982E+01 1.58750E+00
 -1      9621 1.06786E+02 6.99910E+00 3.17500E+00
 -1      9622 1.03529E+02 1.36298E+01 3.17500E+00
 -1      9623 1.06327E+02 1.39982E+01 4.76250E+00
 -1      9624 1.06786E+02 6.99910E+00 6.35000E+00
 -1      9625 1.03529E+02 1.36298E+01 6.35000E+00
 -1      9626 1.06327E+02 1.39982E+01 7.93750E+00
 -1      9627 1.03590E+02 2.77569E+01-7.93750E+00
 -1      9628 1.04959E+02 2.08776E+01-6.35000E+00
 -1      9629 1.00864E+02 2.70265E+01-6.35000E+00
 -1      9630 1.03590E+02 2.77569E+01-4.76250E+00
 -1      9631 1.04959E+02 2.08776E+01-3.17500E+00
 -1      9632 1.00864E+02 2.70265E+01-3.17500E+00
 -1      9633 1.03590E+02 2.77569E+01-1.58750E+00
 -1      9634 1.04959E+02 2.08776E+01 0.00000E+00
 -1      9635 1.00864E+02 2.70265E+01 0.00000E+00
 -1      9636 1.03590E+02 2.77569E+01 1.58750E+00
 -1      9637 1.04959E+02 2.08776E+01 3.17500E+00
 -1      9638 1.00864E+02 2.70265E+01 3.17500E+00
 -1      9639 1.03590E+02 2.77569E+01 4.76250E+00
 -1      9640 1.04959E+02 2.08776E+01 6.35000E+00
 -1      9641 1.00864E+02 2.70265E+01 6.35000E+00
 -1      9642 1.03590E+02 2.77569E+01 7.93750E+00
 -1      9643 9.90809E+01 4.10407E+01-7.93750E+00
 -1      9644 1.01336E+02 3.43988E+01-6.35000E+00
 -1      9645 9.64736E+01 3.99607E+01-6.35000E+00
 -1      9646 9.90809E+01 4.10407E+01-4.76250E+00
 -1      9647 1.01336E+02 3.43988E+01-3.17500E+00
 -1      9648 9.64736E+01 3.99607E+01-3.17500E+00
 -1      9649 9.90809E+01 4.10407E+01-1.58750E+00
 -1      9650 1.01336E+02 3.43988E+01 0.00000E+00
 -1      9651 9.64736E+01 3.99607E+01 0.00000E+00
 -1      9652 9.90809E+01 4.10407E+01 1.58750E+00
 -1      9653 1.01336E+02 3.43988E+01 3.17500E+00
 -1      9654 9.64736E+01 3.99607E+01 3.17500E+00
 -1      9655 9.90809E+01 4.10407E+01 4.76250E+00
 -1      9656 1.01336E+02 3.43988E+01 6.35000E+00
 -1      9657 9.64736E+01 3.99607E+01 6.35000E+00
 -1      9658 9.90809E+01 4.10407E+01 7.93750E+00
 -1      9659 9.28764E+01 5.36222E+01-7.93750E+00
 -1      9660 9.59787E+01 4.73314E+01-6.35000E+00
 -1      9661 9.04323E+01 5.22111E+01-6.35000E+00
 -1      9662 9.28764E+01 5.36222E+01-4.76250E+00
 -1      9663 9.59787E+01 4.73314E+01-3.17500E+00
 -1      9664 9.04323E+01 5.22111E+01-3.17500E+00
 -1      9665 9.28764E+01 5.36222E+01-1.58750E+00
 -1      9666 9.59787E+01 4.73314E+01 0.00000E+00
 -1      9667 9.04323E+01 5.22111E+01 0.00000E+00
 -1      9668 9.28764E+01 5.36222E+01 1.58750E+00
 -1      9669 9.59787E+01 4.73314E+01 3.17500E+00
 -1      9670 9.04323E+01 5.22111E+01 3.17500E+00
 -1      9671 9.28764E+01 5.36222E+01 4.76250E+00
 -1      9672 9.59787E+01 4.73314E+01 6.35000E+00
 -1      9673 9.04323E+01 5.22111E+01 6.35000E+00
 -1      9674 9.28764E+01 5.36222E+01 7.93750E+00
 -1      9675 8.50827E+01 6.52863E+01-7.93750E+00
 -1      9676 8.89796E+01 5.94543E+01-6.35000E+00
 -1      9677 8.28437E+01 6.35682E+01-6.35000E+00
 -1      9678 8.50827E+01 6.52863E+01-4.76250E+00
 -1      9679 8.89796E+01 5.94543E+01-3.17500E+00
 -1      9680 8.28437E+01 6.35682E+01-3.17500E+00
 -1      9681 8.50827E+01 6.52863E+01-1.58750E+00
 -1      9682 8.89796E+01 5.94543E+01 0.00000E+00
 -1      9683 8.28437E+01 6.35682E+01 0.00000E+00
 -1      9684 8.50827E+01 6.52863E+01 1.58750E+00
 -1      9685 8.89796E+01 5.94543E+01 3.17500E+00
 -1      9686 8.28437E+01 6.35682E+01 3.17500E+00
 -1      9687 8.50827E+01 6.52863E+01 4.76250E+00
 -1      9688 8.89796E+01 5.94543E+01 6.35000E+00
 -1      9689 8.28437E+01 6.35682E+01 6.35000E+00
 -1      9690 8.50827E+01 6.52863E+01 7.93750E+00
 -1      9691 7.58333E+01 7.58333E+01-7.93750E+00
 -1      9692 8.04580E+01 7.05598E+01-6.35000E+00
 -1      9693 7.38377E+01 7.38377E+01-6.35000E+00
 -1      9694 7.58333E+01 7.58333E+01-4.76250E+00
 -1      9695 8.04580E+01 7.05598E+01-3.17500E+00
 -1      9696 7.38377E+01 7.38377E+01-3.17500E+00
 -1      9697 7.58333E+01 7.58333E+01-1.58750E+00
 -1      9698 8.04580E+01 7.05598E+01 0.00000E+00
 -1      9699 7.38377E+01 7.38377E+01 0.00000E+00
 -1      9700 7.58333E+01 7.58333E+01 1.58750E+00
 -1      9701 8.04580E+01 7.05598E+01 3.17500E+00
 -1      9702 7.38377E+01 7.38377E+01 3.17500E+00
 -1      9703 7.58333E+01 7.58333E+01 4.76250E+00
 -1      9704 8.04580E+01 7.05598E+01 6.35000E+00
 -1      9705 7.38377E+01 7.38377E+01 6.35000E+00
 -1      9706 7.58333E+01 7.58333E+01 7.93750E+00
 -1      9707 6.52863E+01 8.50827E+01-7.93750E+00
 -1      9708 7.05598E+01 8.04580E+01-6.35000E+00
 -1      9709 6.35682E+01 8.28437E+01-6.35000E+00
 -1      9710 6.52863E+01 8.50827E+01-4.76250E+00
 -1      9711 7.05598E+01 8.04580E+01-3.17500E+00
 -1      9712 6.35682E+01 8.28437E+01-3.17500E+00
 -1      9713 6.52863E+01 8.50827E+01-1.58750E+00
 -1      9714 7.05598E+01 8.04580E+01 0.00000E+00
 -1      9715 6.35682E+01 8.28437E+01 0.00000E+00
 -1      9716 6.52863E+01 8.50827E+01 1.58750E+00
 -1      9717 7.05598E+01 8.04580E+01 3.17500E+00
 -1      9718 6.35682E+01 8.28437E+01 3.17500E+00
 -1      9719 6.52863E+01 8.50827E+01 4.76250E+00
 -1      9720 7.05598E+01 8.04580E+01 6.35000E+00
 -1      9721 6.35682E+01 8.28437E+01 6.35000E+00
 -1      9722 6.52863E+01 8.50827E+01 7.93750E+00
 -1      9723 5.36222E+01 9.28764E+01-7.93750E+00
 -1      9724 5.94543E+01 8.89796E+01-6.35000E+00
 -1      9725 5.22111E+01 9.04323E+01-6.35000E+00
 -1      9726 5.36222E+01 9.28764E+01-4.76250E+00
 -1      9727 5.94543E+01 8.89796E+01-3.17500E+00
 -1      9728 5.22111E+01 9.04323E+01-3.17500E+00
 -1      9729 5.36222E+01 9.28764E+01-1.58750E+00
 -1      9730 5.94543E+01 8.89796E+01 0.00000E+00
 -1      9731 5.22111E+01 9.04323E+01 0.00000E+00
 -1      9732 5.36222E+01 9.28764E+01 1.58750E+00
 -1      9733 5.94543E+01 8.89796E+01 3.17500E+00
 -1      9734 5.22111E+01 9.04323E+01 3.17500E+00
 -1      9735 5.36222E+01 9.28764E+01 4.76250E+00
 -1      9736 5.94543E+01 8.89796E+01 6.35000E+00
 -1      9737 5.22111E+01 9.04323E+01 6.35000E+00
 -1      9738 5.36222E+01 9.28764E+01 7.93750E+00
 -1      9739 4.10407E+01 9.90809E+01-7.93750E+00
 -1      9740 4.73314E+01 9.59787E+01-6.35000E+00
 -1      9741 3.99607E+01 9.64736E+01-6.35000E+00
 -1      9742 4.10407E+01 9.90809E+01-4.76250E+00
 -1      9743 4.73314E+01 9.59787E+01-3.17500E+00
 -1      9744 3.99607E+01 9.64736E+01-3.17500E+00
 -1      9745 4.10407E+01 9.90809E+01-1.58750E+00
 -1      9746 4.73314E+01 9.59787E+01 0.00000E+00
 -1      9747 3.99607E+01 9.64736E+01 0.00000E+00
 -1      9748 4.10407E+01 9.90809E+01 1.58750E+00
 -1      9749 4.73314E+01 9.59787E+01 3.17500E+00
 -1      9750 3.99607E+01 9.64736E+01 3.17500E+00
 -1      9751 4.10407E+01 9.90809E+01 4.76250E+00
 -1      9752 4.73314E+01 9.59787E+01 6.35000E+00
 -1      9753 3.99607E+01 9.64736E+01 6.35000E+00
 -1      9754 4.10407E+01 9.90809E+01 7.93750E+00
 -1      9755 2.77569E+01 1.03590E+02-7.93750E+00
 -1      9756 3.43988E+01 1.01336E+02-6.35000E+00
 -1      9757 2.70265E+01 1.00864E+02-6.35000E+00
 -1      9758 2.77569E+01 1.03590E+02-4.76250E+00
 -1      9759 3.43988E+01 1.01336E+02-3.17500E+00
 -1      9760 2.70265E+01 1.00864E+02-3.17500E+00
 -1      9761 2.77569E+01 1.03590E+02-1.58750E+00
 -1      9762 3.43988E+01 1.01336E+02 0.00000E+00
 -1      9763 2.70265E+01 1.00864E+02 0.00000E+00
 -1      9764 2.77569E+01 1.03590E+02 1.58750E+00
 -1      9765 3.43988E+01 1.01336E+02 3.17500E+00
 -1      9766 2.70265E+01 1.00864E+02 3.17500E+00
 -1      9767 2.77569E+01 1.03590E+02 4.76250E+00
 -1      9768 3.43988E+01 1.01336E+02 6.35000E+00
 -1      9769 2.70265E+01 1.00864E+02 6.35000E+00
 -1      9770 2.77569E+01 1.03590E+02 7.93750E+00
 -1      9771 1.39982E+01 1.06327E+02-7.93750E+00
 -1      9772 2.08776E+01 1.04959E+02-6.35000E+00
 -1      9773 1.36298E+01 1.03529E+02-6.35000E+00
 -1      9774 1.39982E+01 1.06327E+02-4.76250E+00
 -1      9775 2.08776E+01 1.04959E+02-3.17500E+00
 -1      9776 1.36298E+01 1.03529E+02-3.17500E+00
 -1      9777 1.39982E+01 1.06327E+02-1.58750E+00
 -1      9778 2.08776E+01 1.04959E+02 0.00000E+00
 -1      9779 1.36298E+01 1.03529E+02 0.00000E+00
 -1      9780 1.39982E+01 1.06327E+02 1.58750E+00
 -1      9781 2.08776E+01 1.04959E+02 3.17500E+00
 -1      9782 1.36298E+01 1.03529E+02 3.17500E+00
 -1      9783 1.39982E+01 1.06327E+02 4.76250E+00
 -1      9784 2.08776E+01 1.04959E+02 6.35000E+00
 -1      9785 1.36298E+01 1.03529E+02 6.35000E+00
 -1      9786 1.39982E+01 1.06327E+02 7.93750E+00
 -1      9787 6.99910E+00 1.06786E+02-6.35000E+00
 -1      9788 6.99910E+00 1.06786E+02-3.17500E+00
 -1      9789 6.99910E+00 1.06786E+02 0.00000E+00
 -1      9790 6.99910E+00 1.06786E+02 3.17500E+00
 -1      9791 6.99910E+00 1.06786E+02 6.35000E+00
 -1      9792 1.47350E+01-1.11923E+02-7.93750E+00
 -1      9793 7.36748E+00-1.12406E+02-6.35000E+00
 -1      9794 1.43666E+01-1.09125E+02-6.35000E+00
 -1      9795 1.47350E+01-1.11923E+02-4.76250E+00
 -1      9796 7.36748E+00-1.12406E+02-3.17500E+00
 -1      9797 1.43666E+01-1.09125E+02-3.17500E+00
 -1      9798 1.47350E+01-1.11923E+02-1.58750E+00
 -1      9799 7.36748E+00-1.12406E+02 0.00000E+00
 -1      9800 1.43666E+01-1.09125E+02 0.00000E+00
 -1      9801 1.47350E+01-1.11923E+02 1.58750E+00
 -1      9802 7.36748E+00-1.12406E+02 3.17500E+00
 -1      9803 1.43666E+01-1.09125E+02 3.17500E+00
 -1      9804 1.47350E+01-1.11923E+02 4.76250E+00
 -1      9805 7.36748E+00-1.12406E+02 6.35000E+00
 -1      9806 1.43666E+01-1.09125E+02 6.35000E+00
 -1      9807 1.47350E+01-1.11923E+02 7.93750E+00
 -1      9808 2.92178E+01-1.09042E+02-7.93750E+00
 -1      9809 2.19764E+01-1.10483E+02-6.35000E+00
 -1      9810 2.84874E+01-1.06316E+02-6.35000E+00
 -1      9811 2.92178E+01-1.09042E+02-4.76250E+00
 -1      9812 2.19764E+01-1.10483E+02-3.17500E+00
 -1      9813 2.84874E+01-1.06316E+02-3.17500E+00
 -1      9814 2.92178E+01-1.09042E+02-1.58750E+00
 -1      9815 2.19764E+01-1.10483E+02 0.00000E+00
 -1      9816 2.84874E+01-1.06316E+02 0.00000E+00
 -1      9817 2.92178E+01-1.09042E+02 1.58750E+00
 -1      9818 2.19764E+01-1.10483E+02 3.17500E+00
 -1      9819 2.84874E+01-1.06316E+02 3.17500E+00
 -1      9820 2.92178E+01-1.09042E+02 4.76250E+00
 -1      9821 2.19764E+01-1.10483E+02 6.35000E+00
 -1      9822 2.84874E+01-1.06316E+02 6.35000E+00
 -1      9823 2.92178E+01-1.09042E+02 7.93750E+00
 -1      9824 4.32007E+01-1.04296E+02-7.93750E+00
 -1      9825 3.62093E+01-1.06669E+02-6.35000E+00
 -1      9826 4.21207E+01-1.01688E+02-6.35000E+00
 -1      9827 4.32007E+01-1.04296E+02-4.76250E+00
 -1      9828 3.62093E+01-1.06669E+02-3.17500E+00
 -1      9829 4.21207E+01-1.01688E+02-3.17500E+00
 -1      9830 4.32007E+01-1.04296E+02-1.58750E+00
 -1      9831 3.62093E+01-1.06669E+02 0.00000E+00
 -1      9832 4.21207E+01-1.01688E+02 0.00000E+00
 -1      9833 4.32007E+01-1.04296E+02 1.58750E+00
 -1      9834 3.62093E+01-1.06669E+02 3.17500E+00
 -1      9835 4.21207E+01-1.01688E+02 3.17500E+00
 -1      9836 4.32007E+01-1.04296E+02 4.76250E+00
 -1      9837 3.62093E+01-1.06669E+02 6.35000E+00
 -1      9838 4.21207E+01-1.01688E+02 6.35000E+00
 -1      9839 4.32007E+01-1.04296E+02 7.93750E+00
 -1      9840 5.64444E+01-9.77646E+01-7.93750E+00
 -1      9841 4.98226E+01-1.01030E+02-6.35000E+00
 -1      9842 5.50333E+01-9.53205E+01-6.35000E+00
 -1      9843 5.64444E+01-9.77646E+01-4.76250E+00
 -1      9844 4.98226E+01-1.01030E+02-3.17500E+00
 -1      9845 5.50333E+01-9.53205E+01-3.17500E+00
 -1      9846 5.64444E+01-9.77646E+01-1.58750E+00
 -1      9847 4.98226E+01-1.01030E+02 0.00000E+00
 -1      9848 5.50333E+01-9.53205E+01 0.00000E+00
 -1      9849 5.64444E+01-9.77646E+01 1.58750E+00
 -1      9850 4.98226E+01-1.01030E+02 3.17500E+00
 -1      9851 5.50333E+01-9.53205E+01 3.17500E+00
 -1      9852 5.64444E+01-9.77646E+01 4.76250E+00
 -1      9853 4.98226E+01-1.01030E+02 6.35000E+00
 -1      9854 5.50333E+01-9.53205E+01 6.35000E+00
 -1      9855 5.64444E+01-9.77646E+01 7.93750E+00
 -1      9856 6.87224E+01-8.95608E+01-7.93750E+00
 -1      9857 6.25834E+01-9.36627E+01-6.35000E+00
 -1      9858 6.70043E+01-8.73218E+01-6.35000E+00
 -1      9859 6.87224E+01-8.95608E+01-4.76250E+00
 -1      9860 6.25834E+01-9.36627E+01-3.17500E+00
 -1      9861 6.70043E+01-8.73218E+01-3.17500E+00
 -1      9862 6.87224E+01-8.95608E+01-1.58750E+00
 -1      9863 6.25834E+01-9.36627E+01 0.00000E+00
 -1      9864 6.70043E+01-8.73218E+01 0.00000E+00
 -1      9865 6.87224E+01-8.95608E+01 1.58750E+00
 -1      9866 6.25834E+01-9.36627E+01 3.17500E+00
 -1      9867 6.70043E+01-8.73218E+01 3.17500E+00
 -1      9868 6.87224E+01-8.95608E+01 4.76250E+00
 -1      9869 6.25834E+01-9.36627E+01 6.35000E+00
 -1      9870 6.70043E+01-8.73218E+01 6.35000E+00
 -1      9871 6.87224E+01-8.95608E+01 7.93750E+00
 -1      9872 7.98245E+01-7.98245E+01-7.93750E+00
 -1      9873 7.42735E+01-8.46926E+01-6.35000E+00
 -1      9874 7.78289E+01-7.78289E+01-6.35000E+00
 -1      9875 7.98245E+01-7.98245E+01-4.76250E+00
 -1      9876 7.42735E+01-8.46926E+01-3.17500E+00
 -1      9877 7.78289E+01-7.78289E+01-3.17500E+00
 -1      9878 7.98245E+01-7.98245E+01-1.58750E+00
 -1      9879 7.42735E+01-8.46926E+01 0.00000E+00
 -1      9880 7.78289E+01-7.78289E+01 0.00000E+00
 -1      9881 7.98245E+01-7.98245E+01 1.58750E+00
 -1      9882 7.42735E+01-8.46926E+01 3.17500E+00
 -1      9883 7.78289E+01-7.78289E+01 3.17500E+00
 -1      9884 7.98245E+01-7.98245E+01 4.76250E+00
 -1      9885 7.42735E+01-8.46926E+01 6.35000E+00
 -1      9886 7.78289E+01-7.78289E+01 6.35000E+00
 -1      9887 7.98245E+01-7.98245E+01 7.93750E+00
 -1      9888 8.95608E+01-6.87224E+01-7.93750E+00
 -1      9889 8.46926E+01-7.42735E+01-6.35000E+00
 -1      9890 8.73218E+01-6.70043E+01-6.35000E+00
 -1      9891 8.95608E+01-6.87224E+01-4.76250E+00
 -1      9892 8.46926E+01-7.42735E+01-3.17500E+00
 -1      9893 8.73218E+01-6.70043E+01-3.17500E+00
 -1      9894 8.95608E+01-6.87224E+01-1.58750E+00
 -1      9895 8.46926E+01-7.42735E+01 0.00000E+00
 -1      9896 8.73218E+01-6.70043E+01 0.00000E+00
 -1      9897 8.95608E+01-6.87224E+01 1.58750E+00
 -1      9898 8.46926E+01-7.42735E+01 3.17500E+00
 -1      9899 8.73218E+01-6.70043E+01 3.17500E+00
 -1      9900 8.95608E+01-6.87224E+01 4.76250E+00
 -1      9901 8.46926E+01-7.42735E+01 6.35000E+00
 -1      9902 8.73218E+01-6.70043E+01 6.35000E+00
 -1      9903 8.95608E+01-6.87224E+01 7.93750E+00
 -1      9904 9.77646E+01-5.64444E+01-7.93750E+00
 -1      9905 9.36627E+01-6.25834E+01-6.35000E+00
 -1      9906 9.53205E+01-5.50333E+01-6.35000E+00
 -1      9907 9.77646E+01-5.64444E+01-4.76250E+00
 -1      9908 9.36627E+01-6.25834E+01-3.17500E+00
 -1      9909 9.53205E+01-5.50333E+01-3.17500E+00
 -1      9910 9.77646E+01-5.64444E+01-1.58750E+00
 -1      9911 9.36627E+01-6.25834E+01 0.00000E+00
 -1      9912 9.53205E+01-5.50333E+01 0.00000E+00
 -1      9913 9.77646E+01-5.64444E+01 1.58750E+00
 -1      9914 9.36627E+01-6.25834E+01 3.17500E+00
 -1      9915 9.53205E+01-5.50333E+01 3.17500E+00
 -1      9916 9.77646E+01-5.64444E+01 4.76250E+00
 -1      9917 9.36627E+01-6.25834E+01 6.35000E+00
 -1      9918 9.53205E+01-5.50333E+01 6.35000E+00
 -1      9919 9.77646E+01-5.64444E+01 7.93750E+00
 -1      9920 1.04296E+02-4.32007E+01-7.93750E+00
 -1      9921 1.01030E+02-4.98226E+01-6.35000E+00
 -1      9922 1.01688E+02-4.21207E+01-6.35000E+00
 -1      9923 1.04296E+02-4.32007E+01-4.76250E+00
 -1      9924 1.01030E+02-4.98226E+01-3.17500E+00
 -1      9925 1.01688E+02-4.21207E+01-3.17500E+00
 -1      9926 1.04296E+02-4.32007E+01-1.58750E+00
 -1      9927 1.01030E+02-4.98226E+01 0.00000E+00
 -1      9928 1.01688E+02-4.21207E+01 0.00000E+00
 -1      9929 1.04296E+02-4.32007E+01 1.58750E+00
 -1      9930 1.01030E+02-4.98226E+01 3.17500E+00
 -1      9931 1.01688E+02-4.21207E+01 3.17500E+00
 -1      9932 1.04296E+02-4.32007E+01 4.76250E+00
 -1      9933 1.01030E+02-4.98226E+01 6.35000E+00
 -1      9934 1.01688E+02-4.21207E+01 6.35000E+00
 -1      9935 1.04296E+02-4.32007E+01 7.93750E+00
 -1      9936 1.09042E+02-2.92178E+01-7.93750E+00
 -1      9937 1.06669E+02-3.62093E+01-6.35000E+00
 -1      9938 1.06316E+02-2.84873E+01-6.35000E+00
 -1      9939 1.09042E+02-2.92178E+01-4.76250E+00
 -1      9940 1.06669E+02-3.62093E+01-3.17500E+00
 -1      9941 1.06316E+02-2.84873E+01-3.17500E+00
 -1      9942 1.09042E+02-2.92178E+01-1.58750E+00
 -1      9943 1.06669E+02-3.62093E+01 0.00000E+00
 -1      9944 1.06316E+02-2.84873E+01 0.00000E+00
 -1      9945 1.09042E+02-2.92178E+01 1.58750E+00
 -1      9946 1.06669E+02-3.62093E+01 3.17500E+00
 -1      9947 1.06316E+02-2.84873E+01 3.17500E+00
 -1      9948 1.09042E+02-2.92178E+01 4.76250E+00
 -1      9949 1.06669E+02-3.62093E+01 6.35000E+00
 -1      9950 1.06316E+02-2.84873E+01 6.35000E+00
 -1      9951 1.09042E+02-2.92178E+01 7.93750E+00
 -1      9952 1.11923E+02-1.47350E+01-7.93750E+00
 -1      9953 1.10483E+02-2.19764E+01-6.35000E+00
 -1      9954 1.09125E+02-1.43666E+01-6.35000E+00
 -1      9955 1.11923E+02-1.47350E+01-4.76250E+00
 -1      9956 1.10483E+02-2.19764E+01-3.17500E+00
 -1      9957 1.09125E+02-1.43666E+01-3.17500E+00
 -1      9958 1.11923E+02-1.47350E+01-1.58750E+00
 -1      9959 1.10483E+02-2.19764E+01 0.00000E+00
 -1      9960 1.09125E+02-1.43666E+01 0.00000E+00
 -1      9961 1.11923E+02-1.47350E+01 1.58750E+00
 -1      9962 1.10483E+02-2.19764E+01 3.17500E+00
 -1      9963 1.09125E+02-1.43666E+01 3.17500E+00
 -1      9964 1.11923E+02-1.47350E+01 4.76250E+00
 -1      9965 1.10483E+02-2.19764E+01 6.35000E+00
 -1      9966 1.09125E+02-1.43666E+01 6.35000E+00
 -1      9967 1.11923E+02-1.47350E+01 7.93750E+00
 -1      9968 1.12889E+02 5.21115E-07-7.93750E+00
 -1      9969 1.12406E+02-7.36748E+00-6.35000E+00
 -1      9970 1.10067E+02 5.08331E-07-6.35000E+00
 -1      9971 1.12889E+02 5.21115E-07-4.76250E+00
 -1      9972 1.12406E+02-7.36748E+00-3.17500E+00
 -1      9973 1.10067E+02 5.08331E-07-3.17500E+00
 -1      9974 1.12889E+02 5.21115E-07-1.58750E+00
 -1      9975 1.12406E+02-7.36748E+00 0.00000E+00
 -1      9976 1.10067E+02 5.08331E-07 0.00000E+00
 -1      9977 1.12889E+02 5.21115E-07 1.58750E+00
 -1      9978 1.12406E+02-7.36748E+00 3.17500E+00
 -1      9979 1.10067E+02 5.08331E-07 3.17500E+00
 -1      9980 1.12889E+02 5.21115E-07 4.76250E+00
 -1      9981 1.12406E+02-7.36748E+00 6.35000E+00
 -1      9982 1.10067E+02 5.08331E-07 6.35000E+00
 -1      9983 1.12889E+02 5.21115E-07 7.93750E+00
 -1      9984 1.11923E+02 1.47350E+01-7.93750E+00
 -1      9985 1.12406E+02 7.36748E+00-6.35000E+00
 -1      9986 1.09125E+02 1.43666E+01-6.35000E+00
 -1      9987 1.11923E+02 1.47350E+01-4.76250E+00
 -1      9988 1.12406E+02 7.36748E+00-3.17500E+00
 -1      9989 1.09125E+02 1.43666E+01-3.17500E+00
 -1      9990 1.11923E+02 1.47350E+01-1.58750E+00
 -1      9991 1.12406E+02 7.36748E+00 0.00000E+00
 -1      9992 1.09125E+02 1.43666E+01 0.00000E+00
 -1      9993 1.11923E+02 1.47350E+01 1.58750E+00
 -1      9994 1.12406E+02 7.36748E+00 3.17500E+00
 -1      9995 1.09125E+02 1.43666E+01 3.17500E+00
 -1      9996 1.11923E+02 1.47350E+01 4.76250E+00
 -1      9997 1.12406E+02 7.36748E+00 6.35000E+00
 -1      9998 1.09125E+02 1.43666E+01 6.35000E+00
 -1      9999 1.11923E+02 1.47350E+01 7.93750E+00
 -1     10000 1.09042E+02 2.92178E+01-7.93750E+00
 -1     10001 1.10483E+02 2.19764E+01-6.35000E+00
 -1     10002 1.06316E+02 2.84874E+01-6.35000E+00
 -1     10003 1.09042E+02 2.92178E+01-4.76250E+00
 -1     10004 1.10483E+02 2.19764E+01-3.17500E+00
 -1     10005 1.06316E+02 2.84874E+01-3.17500E+00
 -1     10006 1.09042E+02 2.92178E+01-1.58750E+00
 -1     10007 1.10483E+02 2.19764E+01 0.00000E+00
 -1     10008 1.06316E+02 2.84874E+01 0.00000E+00
 -1     10009 1.09042E+02 2.92178E+01 1.58750E+00
 -1     10010 1.10483E+02 2.19764E+01 3.17500E+00
 -1     10011 1.06316E+02 2.84874E+01 3.17500E+00
 -1     10012 1.09042E+02 2.92178E+01 4.76250E+00
 -1     10013 1.10483E+02 2.19764E+01 6.35000E+00
 -1     10014 1.06316E+02 2.84874E+01 6.35000E+00
 -1     10015 1.09042E+02 2.92178E+01 7.93750E+00
 -1     10016 1.04296E+02 4.32007E+01-7.93750E+00
 -1     10017 1.06669E+02 3.62093E+01-6.35000E+00
 -1     10018 1.01688E+02 4.21207E+01-6.35000E+00
 -1     10019 1.04296E+02 4.32007E+01-4.76250E+00
 -1     10020 1.06669E+02 3.62093E+01-3.17500E+00
 -1     10021 1.01688E+02 4.21207E+01-3.17500E+00
 -1     10022 1.04296E+02 4.32007E+01-1.58750E+00
 -1     10023 1.06669E+02 3.62093E+01 0.00000E+00
 -1     10024 1.01688E+02 4.21207E+01 0.00000E+00
 -1     10025 1.04296E+02 4.32007E+01 1.58750E+00
 -1     10026 1.06669E+02 3.62093E+01 3.17500E+00
 -1     10027 1.01688E+02 4.21207E+01 3.17500E+00
 -1     10028 1.04296E+02 4.32007E+01 4.76250E+00
 -1     10029 1.06669E+02 3.62093E+01 6.35000E+00
 -1     10030 1.01688E+02 4.21207E+01 6.35000E+00
 -1     10031 1.04296E+02 4.32007E+01 7.93750E+00
 -1     10032 9.77646E+01 5.64444E+01-7.93750E+00
 -1     10033 1.01030E+02 4.98226E+01-6.35000E+00
 -1     10034 9.53205E+01 5.50333E+01-6.35000E+00
 -1     10035 9.77646E+01 5.64444E+01-4.76250E+00
 -1     10036 1.01030E+02 4.98226E+01-3.17500E+00
 -1     10037 9.53205E+01 5.50333E+01-3.17500E+00
 -1     10038 9.77646E+01 5.64444E+01-1.58750E+00
 -1     10039 1.01030E+02 4.98226E+01 0.00000E+00
 -1     10040 9.53205E+01 5.50333E+01 0.00000E+00
 -1     10041 9.77646E+01 5.64444E+01 1.58750E+00
 -1     10042 1.01030E+02 4.98226E+01 3.17500E+00
 -1     10043 9.53205E+01 5.50333E+01 3.17500E+00
 -1     10044 9.77646E+01 5.64444E+01 4.76250E+00
 -1     10045 1.01030E+02 4.98226E+01 6.35000E+00
 -1     10046 9.53205E+01 5.50333E+01 6.35000E+00
 -1     10047 9.77646E+01 5.64444E+01 7.93750E+00
 -1     10048 8.95608E+01 6.87224E+01-7.93750E+00
 -1     10049 9.36627E+01 6.25834E+01-6.35000E+00
 -1     10050 8.73218E+01 6.70043E+01-6.35000E+00
 -1     10051 8.95608E+01 6.87224E+01-4.76250E+00
 -1     10052 9.36627E+01 6.25834E+01-3.17500E+00
 -1     10053 8.73218E+01 6.70043E+01-3.17500E+00
 -1     10054 8.95608E+01 6.87224E+01-1.58750E+00
 -1     10055 9.36627E+01 6.25834E+01 0.00000E+00
 -1     10056 8.73218E+01 6.70043E+01 0.00000E+00
 -1     10057 8.95608E+01 6.87224E+01 1.58750E+00
 -1     10058 9.36627E+01 6.25834E+01 3.17500E+00
 -1     10059 8.73218E+01 6.70043E+01 3.17500E+00
 -1     10060 8.95608E+01 6.87224E+01 4.76250E+00
 -1     10061 9.36627E+01 6.25834E+01 6.35000E+00
 -1     10062 8.73218E+01 6.70043E+01 6.35000E+00
 -1     10063 8.95608E+01 6.87224E+01 7.93750E+00
 -1     10064 7.98245E+01 7.98245E+01-7.93750E+00
 -1     10065 8.46926E+01 7.42735E+01-6.35000E+00
 -1     10066 7.78289E+01 7.78289E+01-6.35000E+00
 -1     10067 7.98245E+01 7.98245E+01-4.76250E+00
 -1     10068 8.46926E+01 7.42735E+01-3.17500E+00
 -1     10069 7.78289E+01 7.78289E+01-3.17500E+00
 -1     10070 7.98245E+01 7.98245E+01-1.58750E+00
 -1     10071 8.46926E+01 7.42735E+01 0.00000E+00
 -1     10072 7.78289E+01 7.78289E+01 0.00000E+00
 -1     10073 7.98245E+01 7.98245E+01 1.58750E+00
 -1     10074 8.46926E+01 7.42735E+01 3.17500E+00
 -1     10075 7.78289E+01 7.78289E+01 3.17500E+00
 -1     10076 7.98245E+01 7.98245E+01 4.76250E+00
 -1     10077 8.46926E+01 7.42735E+01 6.35000E+00
 -1     10078 7.78289E+01 7.78289E+01 6.35000E+00
 -1     10079 7.98245E+01 7.98245E+01 7.93750E+00
 -1     10080 6.87224E+01 8.95608E+01-7.93750E+00
 -1     10081 7.42735E+01 8.46926E+01-6.35000E+00
 -1     10082 6.70043E+01 8.73218E+01-6.35000E+00
 -1     10083 6.87224E+01 8.95608E+01-4.76250E+00
 -1     10084 7.42735E+01 8.46926E+01-3.17500E+00
 -1     10085 6.70043E+01 8.73218E+01-3.17500E+00
 -1     10086 6.87224E+01 8.95608E+01-1.58750E+00
 -1     10087 7.42735E+01 8.46926E+01 0.00000E+00
 -1     10088 6.70043E+01 8.73218E+01 0.00000E+00
 -1     10089 6.87224E+01 8.95608E+01 1.58750E+00
 -1     10090 7.42735E+01 8.46926E+01 3.17500E+00
 -1     10091 6.70043E+01 8.73218E+01 3.17500E+00
 -1     10092 6.87224E+01 8.95608E+01 4.76250E+00
 -1     10093 7.42735E+01 8.46926E+01 6.35000E+00
 -1     10094 6.70043E+01 8.73218E+01 6.35000E+00
 -1     10095 6.87224E+01 8.95608E+01 7.93750E+00
 -1     10096 5.64444E+01 9.77646E+01-7.93750E+00
 -1     10097 6.25834E+01 9.36627E+01-6.35000E+00
 -1     10098 5.50333E+01 9.53205E+01-6.35000E+00
 -1     10099 5.64444E+01 9.77646E+01-4.76250E+00
 -1     10100 6.25834E+01 9.36627E+01-3.17500E+00
 -1     10101 5.50333E+01 9.53205E+01-3.17500E+00
 -1     10102 5.64444E+01 9.77646E+01-1.58750E+00
 -1     10103 6.25834E+01 9.36627E+01 0.00000E+00
 -1     10104 5.50333E+01 9.53205E+01 0.00000E+00
 -1     10105 5.64444E+01 9.77646E+01 1.58750E+00
 -1     10106 6.25834E+01 9.36627E+01 3.17500E+00
 -1     10107 5.50333E+01 9.53205E+01 3.17500E+00
 -1     10108 5.64444E+01 9.77646E+01 4.76250E+00
 -1     10109 6.25834E+01 9.36627E+01 6.35000E+00
 -1     10110 5.50333E+01 9.53205E+01 6.35000E+00
 -1     10111 5.64444E+01 9.77646E+01 7.93750E+00
 -1     10112 4.32007E+01 1.04296E+02-7.93750E+00
 -1     10113 4.98226E+01 1.01030E+02-6.35000E+00
 -1     10114 4.21207E+01 1.01688E+02-6.35000E+00
 -1     10115 4.32007E+01 1.04296E+02-4.76250E+00
 -1     10116 4.98226E+01 1.01030E+02-3.17500E+00
 -1     10117 4.21207E+01 1.01688E+02-3.17500E+00
 -1     10118 4.32007E+01 1.04296E+02-1.58750E+00
 -1     10119 4.98226E+01 1.01030E+02 0.00000E+00
 -1     10120 4.21207E+01 1.01688E+02 0.00000E+00
 -1     10121 4.32007E+01 1.04296E+02 1.58750E+00
 -1     10122 4.98226E+01 1.01030E+02 3.17500E+00
 -1     10123 4.21207E+01 1.01688E+02 3.17500E+00
 -1     10124 4.32007E+01 1.04296E+02 4.76250E+00
 -1     10125 4.98226E+01 1.01030E+02 6.35000E+00
 -1     10126 4.21207E+01 1.01688E+02 6.35000E+00
 -1     10127 4.32007E+01 1.04296E+02 7.93750E+00
 -1     10128 2.92178E+01 1.09042E+02-7.93750E+00
 -1     10129 3.62093E+01 1.06669E+02-6.35000E+00
 -1     10130 2.84873E+01 1.06316E+02-6.35000E+00
 -1     10131 2.92178E+01 1.09042E+02-4.76250E+00
 -1     10132 3.62093E+01 1.06669E+02-3.17500E+00
 -1     10133 2.84873E+01 1.06316E+02-3.17500E+00
 -1     10134 2.92178E+01 1.09042E+02-1.58750E+00
 -1     10135 3.62093E+01 1.06669E+02 0.00000E+00
 -1     10136 2.84873E+01 1.06316E+02 0.00000E+00
 -1     10137 2.92178E+01 1.09042E+02 1.58750E+00
 -1     10138 3.62093E+01 1.06669E+02 3.17500E+00
 -1     10139 2.84873E+01 1.06316E+02 3.17500E+00
 -1     10140 2.92178E+01 1.09042E+02 4.76250E+00
 -1     10141 3.62093E+01 1.06669E+02 6.35000E+00
 -1     10142 2.84873E+01 1.06316E+02 6.35000E+00
 -1     10143 2.92178E+01 1.09042E+02 7.93750E+00
 -1     10144 1.47350E+01 1.11923E+02-7.93750E+00
 -1     10145 2.19764E+01 1.10483E+02-6.35000E+00
 -1     10146 1.43666E+01 1.09125E+02-6.35000E+00
 -1     10147 1.47350E+01 1.11923E+02-4.76250E+00
 -1     10148 2.19764E+01 1.10483E+02-3.17500E+00
 -1     10149 1.43666E+01 1.09125E+02-3.17500E+00
 -1     10150 1.47350E+01 1.11923E+02-1.58750E+00
 -1     10151 2.19764E+01 1.10483E+02 0.00000E+00
 -1     10152 1.43666E+01 1.09125E+02 0.00000E+00
 -1     10153 1.47350E+01 1.11923E+02 1.58750E+00
 -1     10154 2.19764E+01 1.10483E+02 3.17500E+00
 -1     10155 1.43666E+01 1.09125E+02 3.17500E+00
 -1     10156 1.47350E+01 1.11923E+02 4.76250E+00
 -1     10157 2.19764E+01 1.10483E+02 6.35000E+00
 -1     10158 1.43666E+01 1.09125E+02 6.35000E+00
 -1     10159 1.47350E+01 1.11923E+02 7.93750E+00
 -1     10160 7.36748E+00 1.12406E+02-6.35000E+00
 -1     10161 7.36748E+00 1.12406E+02-3.17500E+00
 -1     10162 7.36748E+00 1.12406E+02 0.00000E+00
 -1     10163 7.36748E+00 1.12406E+02 3.17500E+00
 -1     10164 7.36748E+00 1.12406E+02 6.35000E+00
 -1     10165 1.54717E+01-1.17519E+02-7.93750E+00
 -1     10166 7.73585E+00-1.18026E+02-6.35000E+00
 -1     10167 1.51033E+01-1.14721E+02-6.35000E+00
 -1     10168 1.54717E+01-1.17519E+02-4.76250E+00
 -1     10169 7.73585E+00-1.18026E+02-3.17500E+00
 -1     10170 1.51033E+01-1.14721E+02-3.17500E+00
 -1     10171 1.54717E+01-1.17519E+02-1.58750E+00
 -1     10172 7.73585E+00-1.18026E+02 0.00000E+00
 -1     10173 1.51033E+01-1.14721E+02 0.00000E+00
 -1     10174 1.54717E+01-1.17519E+02 1.58750E+00
 -1     10175 7.73585E+00-1.18026E+02 3.17500E+00
 -1     10176 1.51033E+01-1.14721E+02 3.17500E+00
 -1     10177 1.54717E+01-1.17519E+02 4.76250E+00
 -1     10178 7.73585E+00-1.18026E+02 6.35000E+00
 -1     10179 1.51033E+01-1.14721E+02 6.35000E+00
 -1     10180 1.54717E+01-1.17519E+02 7.93750E+00
 -1     10181 3.06787E+01-1.14494E+02-7.93750E+00
 -1     10182 2.30752E+01-1.16007E+02-6.35000E+00
 -1     10183 2.99482E+01-1.11768E+02-6.35000E+00
 -1     10184 3.06787E+01-1.14494E+02-4.76250E+00
 -1     10185 2.30752E+01-1.16007E+02-3.17500E+00
 -1     10186 2.99482E+01-1.11768E+02-3.17500E+00
 -1     10187 3.06787E+01-1.14494E+02-1.58750E+00
 -1     10188 2.30752E+01-1.16007E+02 0.00000E+00
 -1     10189 2.99482E+01-1.11768E+02 0.00000E+00
 -1     10190 3.06787E+01-1.14494E+02 1.58750E+00
 -1     10191 2.30752E+01-1.16007E+02 3.17500E+00
 -1     10192 2.99482E+01-1.11768E+02 3.17500E+00
 -1     10193 3.06787E+01-1.14494E+02 4.76250E+00
 -1     10194 2.30752E+01-1.16007E+02 6.35000E+00
 -1     10195 2.99482E+01-1.11768E+02 6.35000E+00
 -1     10196 3.06787E+01-1.14494E+02 7.93750E+00
 -1     10197 4.53607E+01-1.09511E+02-7.93750E+00
 -1     10198 3.80197E+01-1.12002E+02-6.35000E+00
 -1     10199 4.42807E+01-1.06903E+02-6.35000E+00
 -1     10200 4.53607E+01-1.09511E+02-4.76250E+00
 -1     10201 3.80197E+01-1.12002E+02-3.17500E+00
 -1     10202 4.42807E+01-1.06903E+02-3.17500E+00
 -1     10203 4.53607E+01-1.09511E+02-1.58750E+00
 -1     10204 3.80197E+01-1.12002E+02 0.00000E+00
 -1     10205 4.42807E+01-1.06903E+02 0.00000E+00
 -1     10206 4.53607E+01-1.09511E+02 1.58750E+00
 -1     10207 3.80197E+01-1.12002E+02 3.17500E+00
 -1     10208 4.42807E+01-1.06903E+02 3.17500E+00
 -1     10209 4.53607E+01-1.09511E+02 4.76250E+00
 -1     10210 3.80197E+01-1.12002E+02 6.35000E+00
 -1     10211 4.42807E+01-1.06903E+02 6.35000E+00
 -1     10212 4.53607E+01-1.09511E+02 7.93750E+00
 -1     10213 5.92667E+01-1.02653E+02-7.93750E+00
 -1     10214 5.23137E+01-1.06082E+02-6.35000E+00
 -1     10215 5.78556E+01-1.00209E+02-6.35000E+00
 -1     10216 5.92667E+01-1.02653E+02-4.76250E+00
 -1     10217 5.23137E+01-1.06082E+02-3.17500E+00
 -1     10218 5.78556E+01-1.00209E+02-3.17500E+00
 -1     10219 5.92667E+01-1.02653E+02-1.58750E+00
 -1     10220 5.23137E+01-1.06082E+02 0.00000E+00
 -1     10221 5.78556E+01-1.00209E+02 0.00000E+00
 -1     10222 5.92667E+01-1.02653E+02 1.58750E+00
 -1     10223 5.23137E+01-1.06082E+02 3.17500E+00
 -1     10224 5.78556E+01-1.00209E+02 3.17500E+00
 -1     10225 5.92667E+01-1.02653E+02 4.76250E+00
 -1     10226 5.23137E+01-1.06082E+02 6.35000E+00
 -1     10227 5.78556E+01-1.00209E+02 6.35000E+00
 -1     10228 5.92667E+01-1.02653E+02 7.93750E+00
 -1     10229 7.21585E+01-9.40388E+01-7.93750E+00
 -1     10230 6.57126E+01-9.83458E+01-6.35000E+00
 -1     10231 7.04405E+01-9.17998E+01-6.35000E+00
 -1     10232 7.21585E+01-9.40388E+01-4.76250E+00
 -1     10233 6.57126E+01-9.83458E+01-3.17500E+00
 -1     10234 7.04405E+01-9.17998E+01-3.17500E+00
 -1     10235 7.21585E+01-9.40388E+01-1.58750E+00
 -1     10236 6.57126E+01-9.83458E+01 0.00000E+00
 -1     10237 7.04405E+01-9.17998E+01 0.00000E+00
 -1     10238 7.21585E+01-9.40388E+01 1.58750E+00
 -1     10239 6.57126E+01-9.83458E+01 3.17500E+00
 -1     10240 7.04405E+01-9.17998E+01 3.17500E+00
 -1     10241 7.21585E+01-9.40388E+01 4.76250E+00
 -1     10242 6.57126E+01-9.83458E+01 6.35000E+00
 -1     10243 7.04405E+01-9.17998E+01 6.35000E+00
 -1     10244 7.21585E+01-9.40388E+01 7.93750E+00
 -1     10245 8.38157E+01-8.38157E+01-7.93750E+00
 -1     10246 7.79871E+01-8.89273E+01-6.35000E+00
 -1     10247 8.18201E+01-8.18201E+01-6.35000E+00
 -1     10248 8.38157E+01-8.38157E+01-4.76250E+00
 -1     10249 7.79871E+01-8.89273E+01-3.17500E+00
 -1     10250 8.18201E+01-8.18201E+01-3.17500E+00
 -1     10251 8.38157E+01-8.38157E+01-1.58750E+00
 -1     10252 7.79871E+01-8.89273E+01 0.00000E+00
 -1     10253 8.18201E+01-8.18201E+01 0.00000E+00
 -1     10254 8.38157E+01-8.38157E+01 1.58750E+00
 -1     10255 7.79871E+01-8.89273E+01 3.17500E+00
 -1     10256 8.18201E+01-8.18201E+01 3.17500E+00
 -1     10257 8.38157E+01-8.38157E+01 4.76250E+00
 -1     10258 7.79871E+01-8.89273E+01 6.35000E+00
 -1     10259 8.18201E+01-8.18201E+01 6.35000E+00
 -1     10260 8.38157E+01-8.38157E+01 7.93750E+00
 -1     10261 9.40388E+01-7.21585E+01-7.93750E+00
 -1     10262 8.89273E+01-7.79871E+01-6.35000E+00
 -1     10263 9.17998E+01-7.04405E+01-6.35000E+00
 -1     10264 9.40388E+01-7.21585E+01-4.76250E+00
 -1     10265 8.89273E+01-7.79871E+01-3.17500E+00
 -1     10266 9.17998E+01-7.04405E+01-3.17500E+00
 -1     10267 9.40388E+01-7.21585E+01-1.58750E+00
 -1     10268 8.89273E+01-7.79871E+01 0.00000E+00
 -1     10269 9.17998E+01-7.04405E+01 0.00000E+00
 -1     10270 9.40388E+01-7.21585E+01 1.58750E+00
 -1     10271 8.89273E+01-7.79871E+01 3.17500E+00
 -1     10272 9.17998E+01-7.04405E+01 3.17500E+00
 -1     10273 9.40388E+01-7.21585E+01 4.76250E+00
 -1     10274 8.89273E+01-7.79871E+01 6.35000E+00
 -1     10275 9.17998E+01-7.04405E+01 6.35000E+00
 -1     10276 9.40388E+01-7.21585E+01 7.93750E+00
 -1     10277 1.02653E+02-5.92667E+01-7.93750E+00
 -1     10278 9.83458E+01-6.57126E+01-6.35000E+00
 -1     10279 1.00209E+02-5.78556E+01-6.35000E+00
 -1     10280 1.02653E+02-5.92667E+01-4.76250E+00
 -1     10281 9.83458E+01-6.57126E+01-3.17500E+00
 -1     10282 1.00209E+02-5.78556E+01-3.17500E+00
 -1     10283 1.02653E+02-5.92667E+01-1.58750E+00
 -1     10284 9.83458E+01-6.57126E+01 0.00000E+00
 -1     10285 1.00209E+02-5.78556E+01 0.00000E+00
 -1     10286 1.02653E+02-5.92667E+01 1.58750E+00
 -1     10287 9.83458E+01-6.57126E+01 3.17500E+00
 -1     10288 1.00209E+02-5.78556E+01 3.17500E+00
 -1     10289 1.02653E+02-5.92667E+01 4.76250E+00
 -1     10290 9.83458E+01-6.57126E+01 6.35000E+00
 -1     10291 1.00209E+02-5.78556E+01 6.35000E+00
 -1     10292 1.02653E+02-5.92667E+01 7.93750E+00
 -1     10293 1.09511E+02-4.53607E+01-7.93750E+00
 -1     10294 1.06082E+02-5.23137E+01-6.35000E+00
 -1     10295 1.06903E+02-4.42807E+01-6.35000E+00
 -1     10296 1.09511E+02-4.53607E+01-4.76250E+00
 -1     10297 1.06082E+02-5.23137E+01-3.17500E+00
 -1     10298 1.06903E+02-4.42807E+01-3.17500E+00
 -1     10299 1.09511E+02-4.53607E+01-1.58750E+00
 -1     10300 1.06082E+02-5.23137E+01 0.00000E+00
 -1     10301 1.06903E+02-4.42807E+01 0.00000E+00
 -1     10302 1.09511E+02-4.53607E+01 1.58750E+00
 -1     10303 1.06082E+02-5.23137E+01 3.17500E+00
 -1     10304 1.06903E+02-4.42807E+01 3.17500E+00
 -1     10305 1.09511E+02-4.53607E+01 4.76250E+00
 -1     10306 1.06082E+02-5.23137E+01 6.35000E+00
 -1     10307 1.06903E+02-4.42807E+01 6.35000E+00
 -1     10308 1.09511E+02-4.53607E+01 7.93750E+00
 -1     10309 1.14494E+02-3.06787E+01-7.93750E+00
 -1     10310 1.12002E+02-3.80197E+01-6.35000E+00
 -1     10311 1.11768E+02-2.99482E+01-6.35000E+00
 -1     10312 1.14494E+02-3.06787E+01-4.76250E+00
 -1     10313 1.12002E+02-3.80197E+01-3.17500E+00
 -1     10314 1.11768E+02-2.99482E+01-3.17500E+00
 -1     10315 1.14494E+02-3.06787E+01-1.58750E+00
 -1     10316 1.12002E+02-3.80197E+01 0.00000E+00
 -1     10317 1.11768E+02-2.99482E+01 0.00000E+00
 -1     10318 1.14494E+02-3.06787E+01 1.58750E+00
 -1     10319 1.12002E+02-3.80197E+01 3.17500E+00
 -1     10320 1.11768E+02-2.99482E+01 3.17500E+00
 -1     10321 1.14494E+02-3.06787E+01 4.76250E+00
 -1     10322 1.12002E+02-3.80197E+01 6.35000E+00
 -1     10323 1.11768E+02-2.99482E+01 6.35000E+00
 -1     10324 1.14494E+02-3.06787E+01 7.93750E+00
 -1     10325 1.17519E+02-1.54717E+01-7.93750E+00
 -1     10326 1.16007E+02-2.30752E+01-6.35000E+00
 -1     10327 1.14721E+02-1.51033E+01-6.35000E+00
 -1     10328 1.17519E+02-1.54717E+01-4.76250E+00
 -1     10329 1.16007E+02-2.30752E+01-3.17500E+00
 -1     10330 1.14721E+02-1.51033E+01-3.17500E+00
 -1     10331 1.17519E+02-1.54717E+01-1.58750E+00
 -1     10332 1.16007E+02-2.30752E+01 0.00000E+00
 -1     10333 1.14721E+02-1.51033E+01 0.00000E+00
 -1     10334 1.17519E+02-1.54717E+01 1.58750E+00
 -1     10335 1.16007E+02-2.30752E+01 3.17500E+00
 -1     10336 1.14721E+02-1.51033E+01 3.17500E+00
 -1     10337 1.17519E+02-1.54717E+01 4.76250E+00
 -1     10338 1.16007E+02-2.30752E+01 6.35000E+00
 -1     10339 1.14721E+02-1.51033E+01 6.35000E+00
 -1     10340 1.17519E+02-1.54717E+01 7.93750E+00
 -1     10341 1.18533E+02 5.46687E-07-7.93750E+00
 -1     10342 1.18026E+02-7.73585E+00-6.35000E+00
 -1     10343 1.15711E+02 5.33901E-07-6.35000E+00
 -1     10344 1.18533E+02 5.46687E-07-4.76250E+00
 -1     10345 1.18026E+02-7.73585E+00-3.17500E+00
 -1     10346 1.15711E+02 5.33901E-07-3.17500E+00
 -1     10347 1.18533E+02 5.46687E-07-1.58750E+00
 -1     10348 1.18026E+02-7.73585E+00 0.00000E+00
 -1     10349 1.15711E+02 5.33901E-07 0.00000E+00
 -1     10350 1.18533E+02 5.46687E-07 1.58750E+00
 -1     10351 1.18026E+02-7.73585E+00 3.17500E+00
 -1     10352 1.15711E+02 5.33901E-07 3.17500E+00
 -1     10353 1.18533E+02 5.46687E-07 4.76250E+00
 -1     10354 1.18026E+02-7.73585E+00 6.35000E+00
 -1     10355 1.15711E+02 5.33901E-07 6.35000E+00
 -1     10356 1.18533E+02 5.46687E-07 7.93750E+00
 -1     10357 1.17519E+02 1.54717E+01-7.93750E+00
 -1     10358 1.18026E+02 7.73585E+00-6.35000E+00
 -1     10359 1.14721E+02 1.51033E+01-6.35000E+00
 -1     10360 1.17519E+02 1.54717E+01-4.76250E+00
 -1     10361 1.18026E+02 7.73585E+00-3.17500E+00
 -1     10362 1.14721E+02 1.51033E+01-3.17500E+00
 -1     10363 1.17519E+02 1.54717E+01-1.58750E+00
 -1     10364 1.18026E+02 7.73585E+00 0.00000E+00
 -1     10365 1.14721E+02 1.51033E+01 0.00000E+00
 -1     10366 1.17519E+02 1.54717E+01 1.58750E+00
 -1     10367 1.18026E+02 7.73585E+00 3.17500E+00
 -1     10368 1.14721E+02 1.51033E+01 3.17500E+00
 -1     10369 1.17519E+02 1.54717E+01 4.76250E+00
 -1     10370 1.18026E+02 7.73585E+00 6.35000E+00
 -1     10371 1.14721E+02 1.51033E+01 6.35000E+00
 -1     10372 1.17519E+02 1.54717E+01 7.93750E+00
 -1     10373 1.14494E+02 3.06787E+01-7.93750E+00
 -1     10374 1.16007E+02 2.30752E+01-6.35000E+00
 -1     10375 1.11768E+02 2.99482E+01-6.35000E+00
 -1     10376 1.14494E+02 3.06787E+01-4.76250E+00
 -1     10377 1.16007E+02 2.30752E+01-3.17500E+00
 -1     10378 1.11768E+02 2.99482E+01-3.17500E+00
 -1     10379 1.14494E+02 3.06787E+01-1.58750E+00
 -1     10380 1.16007E+02 2.30752E+01 0.00000E+00
 -1     10381 1.11768E+02 2.99482E+01 0.00000E+00
 -1     10382 1.14494E+02 3.06787E+01 1.58750E+00
 -1     10383 1.16007E+02 2.30752E+01 3.17500E+00
 -1     10384 1.11768E+02 2.99482E+01 3.17500E+00
 -1     10385 1.14494E+02 3.06787E+01 4.76250E+00
 -1     10386 1.16007E+02 2.30752E+01 6.35000E+00
 -1     10387 1.11768E+02 2.99482E+01 6.35000E+00
 -1     10388 1.14494E+02 3.06787E+01 7.93750E+00
 -1     10389 1.09511E+02 4.53607E+01-7.93750E+00
 -1     10390 1.12002E+02 3.80197E+01-6.35000E+00
 -1     10391 1.06903E+02 4.42807E+01-6.35000E+00
 -1     10392 1.09511E+02 4.53607E+01-4.76250E+00
 -1     10393 1.12002E+02 3.80197E+01-3.17500E+00
 -1     10394 1.06903E+02 4.42807E+01-3.17500E+00
 -1     10395 1.09511E+02 4.53607E+01-1.58750E+00
 -1     10396 1.12002E+02 3.80197E+01 0.00000E+00
 -1     10397 1.06903E+02 4.42807E+01 0.00000E+00
 -1     10398 1.09511E+02 4.53607E+01 1.58750E+00
 -1     10399 1.12002E+02 3.80197E+01 3.17500E+00
 -1     10400 1.06903E+02 4.42807E+01 3.17500E+00
 -1     10401 1.09511E+02 4.53607E+01 4.76250E+00
 -1     10402 1.12002E+02 3.80197E+01 6.35000E+00
 -1     10403 1.06903E+02 4.42807E+01 6.35000E+00
 -1     10404 1.09511E+02 4.53607E+01 7.93750E+00
 -1     10405 1.02653E+02 5.92667E+01-7.93750E+00
 -1     10406 1.06082E+02 5.23137E+01-6.35000E+00
 -1     10407 1.00209E+02 5.78556E+01-6.35000E+00
 -1     10408 1.02653E+02 5.92667E+01-4.76250E+00
 -1     10409 1.06082E+02 5.23137E+01-3.17500E+00
 -1     10410 1.00209E+02 5.78556E+01-3.17500E+00
 -1     10411 1.02653E+02 5.92667E+01-1.58750E+00
 -1     10412 1.06082E+02 5.23137E+01 0.00000E+00
 -1     10413 1.00209E+02 5.78556E+01 0.00000E+00
 -1     10414 1.02653E+02 5.92667E+01 1.58750E+00
 -1     10415 1.06082E+02 5.23137E+01 3.17500E+00
 -1     10416 1.00209E+02 5.78556E+01 3.17500E+00
 -1     10417 1.02653E+02 5.92667E+01 4.76250E+00
 -1     10418 1.06082E+02 5.23137E+01 6.35000E+00
 -1     10419 1.00209E+02 5.78556E+01 6.35000E+00
 -1     10420 1.02653E+02 5.92667E+01 7.93750E+00
 -1     10421 9.40388E+01 7.21585E+01-7.93750E+00
 -1     10422 9.83458E+01 6.57126E+01-6.35000E+00
 -1     10423 9.17998E+01 7.04405E+01-6.35000E+00
 -1     10424 9.40388E+01 7.21585E+01-4.76250E+00
 -1     10425 9.83458E+01 6.57126E+01-3.17500E+00
 -1     10426 9.17998E+01 7.04405E+01-3.17500E+00
 -1     10427 9.40388E+01 7.21585E+01-1.58750E+00
 -1     10428 9.83458E+01 6.57126E+01 0.00000E+00
 -1     10429 9.17998E+01 7.04405E+01 0.00000E+00
 -1     10430 9.40388E+01 7.21585E+01 1.58750E+00
 -1     10431 9.83458E+01 6.57126E+01 3.17500E+00
 -1     10432 9.17998E+01 7.04405E+01 3.17500E+00
 -1     10433 9.40388E+01 7.21585E+01 4.76250E+00
 -1     10434 9.83458E+01 6.57126E+01 6.35000E+00
 -1     10435 9.17998E+01 7.04405E+01 6.35000E+00
 -1     10436 9.40388E+01 7.21585E+01 7.93750E+00
 -1     10437 8.38157E+01 8.38157E+01-7.93750E+00
 -1     10438 8.89273E+01 7.79871E+01-6.35000E+00
 -1     10439 8.18201E+01 8.18201E+01-6.35000E+00
 -1     10440 8.38157E+01 8.38157E+01-4.76250E+00
 -1     10441 8.89273E+01 7.79871E+01-3.17500E+00
 -1     10442 8.18201E+01 8.18201E+01-3.17500E+00
 -1     10443 8.38157E+01 8.38157E+01-1.58750E+00
 -1     10444 8.89273E+01 7.79871E+01 0.00000E+00
 -1     10445 8.18201E+01 8.18201E+01 0.00000E+00
 -1     10446 8.38157E+01 8.38157E+01 1.58750E+00
 -1     10447 8.89273E+01 7.79871E+01 3.17500E+00
 -1     10448 8.18201E+01 8.18201E+01 3.17500E+00
 -1     10449 8.38157E+01 8.38157E+01 4.76250E+00
 -1     10450 8.89273E+01 7.79871E+01 6.35000E+00
 -1     10451 8.18201E+01 8.18201E+01 6.35000E+00
 -1     10452 8.38157E+01 8.38157E+01 7.93750E+00
 -1     10453 7.21585E+01 9.40388E+01-7.93750E+00
 -1     10454 7.79871E+01 8.89273E+01-6.35000E+00
 -1     10455 7.04405E+01 9.17998E+01-6.35000E+00
 -1     10456 7.21585E+01 9.40388E+01-4.76250E+00
 -1     10457 7.79871E+01 8.89273E+01-3.17500E+00
 -1     10458 7.04405E+01 9.17998E+01-3.17500E+00
 -1     10459 7.21585E+01 9.40388E+01-1.58750E+00
 -1     10460 7.79871E+01 8.89273E+01 0.00000E+00
 -1     10461 7.04405E+01 9.17998E+01 0.00000E+00
 -1     10462 7.21585E+01 9.40388E+01 1.58750E+00
 -1     10463 7.79871E+01 8.89273E+01 3.17500E+00
 -1     10464 7.04405E+01 9.17998E+01 3.17500E+00
 -1     10465 7.21585E+01 9.40388E+01 4.76250E+00
 -1     10466 7.79871E+01 8.89273E+01 6.35000E+00
 -1     10467 7.04405E+01 9.17998E+01 6.35000E+00
 -1     10468 7.21585E+01 9.40388E+01 7.93750E+00
 -1     10469 5.92667E+01 1.02653E+02-7.93750E+00
 -1     10470 6.57126E+01 9.83458E+01-6.35000E+00
 -1     10471 5.78556E+01 1.00209E+02-6.35000E+00
 -1     10472 5.92667E+01 1.02653E+02-4.76250E+00
 -1     10473 6.57126E+01 9.83458E+01-3.17500E+00
 -1     10474 5.78556E+01 1.00209E+02-3.17500E+00
 -1     10475 5.92667E+01 1.02653E+02-1.58750E+00
 -1     10476 6.57126E+01 9.83458E+01 0.00000E+00
 -1     10477 5.78556E+01 1.00209E+02 0.00000E+00
 -1     10478 5.92667E+01 1.02653E+02 1.58750E+00
 -1     10479 6.57126E+01 9.83458E+01 3.17500E+00
 -1     10480 5.78556E+01 1.00209E+02 3.17500E+00
 -1     10481 5.92667E+01 1.02653E+02 4.76250E+00
 -1     10482 6.57126E+01 9.83458E+01 6.35000E+00
 -1     10483 5.78556E+01 1.00209E+02 6.35000E+00
 -1     10484 5.92667E+01 1.02653E+02 7.93750E+00
 -1     10485 4.53607E+01 1.09511E+02-7.93750E+00
 -1     10486 5.23137E+01 1.06082E+02-6.35000E+00
 -1     10487 4.42807E+01 1.06903E+02-6.35000E+00
 -1     10488 4.53607E+01 1.09511E+02-4.76250E+00
 -1     10489 5.23137E+01 1.06082E+02-3.17500E+00
 -1     10490 4.42807E+01 1.06903E+02-3.17500E+00
 -1     10491 4.53607E+01 1.09511E+02-1.58750E+00
 -1     10492 5.23137E+01 1.06082E+02 0.00000E+00
 -1     10493 4.42807E+01 1.06903E+02 0.00000E+00
 -1     10494 4.53607E+01 1.09511E+02 1.58750E+00
 -1     10495 5.23137E+01 1.06082E+02 3.17500E+00
 -1     10496 4.42807E+01 1.06903E+02 3.17500E+00
 -1     10497 4.53607E+01 1.09511E+02 4.76250E+00
 -1     10498 5.23137E+01 1.06082E+02 6.35000E+00
 -1     10499 4.42807E+01 1.06903E+02 6.35000E+00
 -1     10500 4.53607E+01 1.09511E+02 7.93750E+00
 -1     10501 3.06787E+01 1.14494E+02-7.93750E+00
 -1     10502 3.80197E+01 1.12002E+02-6.35000E+00
 -1     10503 2.99482E+01 1.11768E+02-6.35000E+00
 -1     10504 3.06787E+01 1.14494E+02-4.76250E+00
 -1     10505 3.80197E+01 1.12002E+02-3.17500E+00
 -1     10506 2.99482E+01 1.11768E+02-3.17500E+00
 -1     10507 3.06787E+01 1.14494E+02-1.58750E+00
 -1     10508 3.80197E+01 1.12002E+02 0.00000E+00
 -1     10509 2.99482E+01 1.11768E+02 0.00000E+00
 -1     10510 3.06787E+01 1.14494E+02 1.58750E+00
 -1     10511 3.80197E+01 1.12002E+02 3.17500E+00
 -1     10512 2.99482E+01 1.11768E+02 3.17500E+00
 -1     10513 3.06787E+01 1.14494E+02 4.76250E+00
 -1     10514 3.80197E+01 1.12002E+02 6.35000E+00
 -1     10515 2.99482E+01 1.11768E+02 6.35000E+00
 -1     10516 3.06787E+01 1.14494E+02 7.93750E+00
 -1     10517 1.54717E+01 1.17519E+02-7.93750E+00
 -1     10518 2.30752E+01 1.16007E+02-6.35000E+00
 -1     10519 1.51033E+01 1.14721E+02-6.35000E+00
 -1     10520 1.54717E+01 1.17519E+02-4.76250E+00
 -1     10521 2.30752E+01 1.16007E+02-3.17500E+00
 -1     10522 1.51033E+01 1.14721E+02-3.17500E+00
 -1     10523 1.54717E+01 1.17519E+02-1.58750E+00
 -1     10524 2.30752E+01 1.16007E+02 0.00000E+00
 -1     10525 1.51033E+01 1.14721E+02 0.00000E+00
 -1     10526 1.54717E+01 1.17519E+02 1.58750E+00
 -1     10527 2.30752E+01 1.16007E+02 3.17500E+00
 -1     10528 1.51033E+01 1.14721E+02 3.17500E+00
 -1     10529 1.54717E+01 1.17519E+02 4.76250E+00
 -1     10530 2.30752E+01 1.16007E+02 6.35000E+00
 -1     10531 1.51033E+01 1.14721E+02 6.35000E+00
 -1     10532 1.54717E+01 1.17519E+02 7.93750E+00
 -1     10533 7.73585E+00 1.18026E+02-6.35000E+00
 -1     10534 7.73585E+00 1.18026E+02-3.17500E+00
 -1     10535 7.73585E+00 1.18026E+02 0.00000E+00
 -1     10536 7.73585E+00 1.18026E+02 3.17500E+00
 -1     10537 7.73585E+00 1.18026E+02 6.35000E+00
 -1     10538 1.62085E+01-1.23115E+02-7.93750E+00
 -1     10539 8.10423E+00-1.23647E+02-6.35000E+00
 -1     10540 1.58401E+01-1.20317E+02-6.35000E+00
 -1     10541 1.62085E+01-1.23115E+02-4.76250E+00
 -1     10542 8.10423E+00-1.23647E+02-3.17500E+00
 -1     10543 1.58401E+01-1.20317E+02-3.17500E+00
 -1     10544 1.62085E+01-1.23115E+02-1.58750E+00
 -1     10545 8.10423E+00-1.23647E+02 0.00000E+00
 -1     10546 1.58401E+01-1.20317E+02 0.00000E+00
 -1     10547 1.62085E+01-1.23115E+02 1.58750E+00
 -1     10548 8.10423E+00-1.23647E+02 3.17500E+00
 -1     10549 1.58401E+01-1.20317E+02 3.17500E+00
 -1     10550 1.62085E+01-1.23115E+02 4.76250E+00
 -1     10551 8.10423E+00-1.23647E+02 6.35000E+00
 -1     10552 1.58401E+01-1.20317E+02 6.35000E+00
 -1     10553 1.62085E+01-1.23115E+02 7.93750E+00
 -1     10554 3.21396E+01-1.19947E+02-7.93750E+00
 -1     10555 2.41740E+01-1.21531E+02-6.35000E+00
 -1     10556 3.14091E+01-1.17220E+02-6.35000E+00
 -1     10557 3.21396E+01-1.19947E+02-4.76250E+00
 -1     10558 2.41740E+01-1.21531E+02-3.17500E+00
 -1     10559 3.14091E+01-1.17220E+02-3.17500E+00
 -1     10560 3.21396E+01-1.19947E+02-1.58750E+00
 -1     10561 2.41740E+01-1.21531E+02 0.00000E+00
 -1     10562 3.14091E+01-1.17220E+02 0.00000E+00
 -1     10563 3.21396E+01-1.19947E+02 1.58750E+00
 -1     10564 2.41740E+01-1.21531E+02 3.17500E+00
 -1     10565 3.14091E+01-1.17220E+02 3.17500E+00
 -1     10566 3.21396E+01-1.19947E+02 4.76250E+00
 -1     10567 2.41740E+01-1.21531E+02 6.35000E+00
 -1     10568 3.14091E+01-1.17220E+02 6.35000E+00
 -1     10569 3.21396E+01-1.19947E+02 7.93750E+00
 -1     10570 4.75208E+01-1.14725E+02-7.93750E+00
 -1     10571 3.98302E+01-1.17336E+02-6.35000E+00
 -1     10572 4.64408E+01-1.12118E+02-6.35000E+00
 -1     10573 4.75208E+01-1.14725E+02-4.76250E+00
 -1     10574 3.98302E+01-1.17336E+02-3.17500E+00
 -1     10575 4.64408E+01-1.12118E+02-3.17500E+00
 -1     10576 4.75208E+01-1.14725E+02-1.58750E+00
 -1     10577 3.98302E+01-1.17336E+02 0.00000E+00
 -1     10578 4.64408E+01-1.12118E+02 0.00000E+00
 -1     10579 4.75208E+01-1.14725E+02 1.58750E+00
 -1     10580 3.98302E+01-1.17336E+02 3.17500E+00
 -1     10581 4.64408E+01-1.12118E+02 3.17500E+00
 -1     10582 4.75208E+01-1.14725E+02 4.76250E+00
 -1     10583 3.98302E+01-1.17336E+02 6.35000E+00
 -1     10584 4.64408E+01-1.12118E+02 6.35000E+00
 -1     10585 4.75208E+01-1.14725E+02 7.93750E+00
 -1     10586 6.20889E+01-1.07541E+02-7.93750E+00
 -1     10587 5.48048E+01-1.11133E+02-6.35000E+00
 -1     10588 6.06778E+01-1.05097E+02-6.35000E+00
 -1     10589 6.20889E+01-1.07541E+02-4.76250E+00
 -1     10590 5.48048E+01-1.11133E+02-3.17500E+00
 -1     10591 6.06778E+01-1.05097E+02-3.17500E+00
 -1     10592 6.20889E+01-1.07541E+02-1.58750E+00
 -1     10593 5.48048E+01-1.11133E+02 0.00000E+00
 -1     10594 6.06778E+01-1.05097E+02 0.00000E+00
 -1     10595 6.20889E+01-1.07541E+02 1.58750E+00
 -1     10596 5.48048E+01-1.11133E+02 3.17500E+00
 -1     10597 6.06778E+01-1.05097E+02 3.17500E+00
 -1     10598 6.20889E+01-1.07541E+02 4.76250E+00
 -1     10599 5.48048E+01-1.11133E+02 6.35000E+00
 -1     10600 6.06778E+01-1.05097E+02 6.35000E+00
 -1     10601 6.20889E+01-1.07541E+02 7.93750E+00
 -1     10602 7.55946E+01-9.85169E+01-7.93750E+00
 -1     10603 6.88418E+01-1.03029E+02-6.35000E+00
 -1     10604 7.38766E+01-9.62778E+01-6.35000E+00
 -1     10605 7.55946E+01-9.85169E+01-4.76250E+00
 -1     10606 6.88418E+01-1.03029E+02-3.17500E+00
 -1     10607 7.38766E+01-9.62778E+01-3.17500E+00
 -1     10608 7.55946E+01-9.85169E+01-1.58750E+00
 -1     10609 6.88418E+01-1.03029E+02 0.00000E+00
 -1     10610 7.38766E+01-9.62778E+01 0.00000E+00
 -1     10611 7.55946E+01-9.85169E+01 1.58750E+00
 -1     10612 6.88418E+01-1.03029E+02 3.17500E+00
 -1     10613 7.38766E+01-9.62778E+01 3.17500E+00
 -1     10614 7.55946E+01-9.85169E+01 4.76250E+00
 -1     10615 6.88418E+01-1.03029E+02 6.35000E+00
 -1     10616 7.38766E+01-9.62778E+01 6.35000E+00
 -1     10617 7.55946E+01-9.85169E+01 7.93750E+00
 -1     10618 8.78069E+01-8.78069E+01-7.93750E+00
 -1     10619 8.17008E+01-9.31619E+01-6.35000E+00
 -1     10620 8.58113E+01-8.58113E+01-6.35000E+00
 -1     10621 8.78069E+01-8.78069E+01-4.76250E+00
 -1     10622 8.17008E+01-9.31619E+01-3.17500E+00
 -1     10623 8.58113E+01-8.58113E+01-3.17500E+00
 -1     10624 8.78069E+01-8.78069E+01-1.58750E+00
 -1     10625 8.17008E+01-9.31619E+01 0.00000E+00
 -1     10626 8.58113E+01-8.58113E+01 0.00000E+00
 -1     10627 8.78069E+01-8.78069E+01 1.58750E+00
 -1     10628 8.17008E+01-9.31619E+01 3.17500E+00
 -1     10629 8.58113E+01-8.58113E+01 3.17500E+00
 -1     10630 8.78069E+01-8.78069E+01 4.76250E+00
 -1     10631 8.17008E+01-9.31619E+01 6.35000E+00
 -1     10632 8.58113E+01-8.58113E+01 6.35000E+00
 -1     10633 8.78069E+01-8.78069E+01 7.93750E+00
 -1     10634 9.85169E+01-7.55946E+01-7.93750E+00
 -1     10635 9.31619E+01-8.17008E+01-6.35000E+00
 -1     10636 9.62778E+01-7.38766E+01-6.35000E+00
 -1     10637 9.85169E+01-7.55946E+01-4.76250E+00
 -1     10638 9.31619E+01-8.17008E+01-3.17500E+00
 -1     10639 9.62778E+01-7.38766E+01-3.17500E+00
 -1     10640 9.85169E+01-7.55946E+01-1.58750E+00
 -1     10641 9.31619E+01-8.17008E+01 0.00000E+00
 -1     10642 9.62778E+01-7.38766E+01 0.00000E+00
 -1     10643 9.85169E+01-7.55946E+01 1.58750E+00
 -1     10644 9.31619E+01-8.17008E+01 3.17500E+00
 -1     10645 9.62778E+01-7.38766E+01 3.17500E+00
 -1     10646 9.85169E+01-7.55946E+01 4.76250E+00
 -1     10647 9.31619E+01-8.17008E+01 6.35000E+00
 -1     10648 9.62778E+01-7.38766E+01 6.35000E+00
 -1     10649 9.85169E+01-7.55946E+01 7.93750E+00
 -1     10650 1.07541E+02-6.20889E+01-7.93750E+00
 -1     10651 1.03029E+02-6.88418E+01-6.35000E+00
 -1     10652 1.05097E+02-6.06778E+01-6.35000E+00
 -1     10653 1.07541E+02-6.20889E+01-4.76250E+00
 -1     10654 1.03029E+02-6.88418E+01-3.17500E+00
 -1     10655 1.05097E+02-6.06778E+01-3.17500E+00
 -1     10656 1.07541E+02-6.20889E+01-1.58750E+00
 -1     10657 1.03029E+02-6.88418E+01 0.00000E+00
 -1     10658 1.05097E+02-6.06778E+01 0.00000E+00
 -1     10659 1.07541E+02-6.20889E+01 1.58750E+00
 -1     10660 1.03029E+02-6.88418E+01 3.17500E+00
 -1     10661 1.05097E+02-6.06778E+01 3.17500E+00
 -1     10662 1.07541E+02-6.20889E+01 4.76250E+00
 -1     10663 1.03029E+02-6.88418E+01 6.35000E+00
 -1     10664 1.05097E+02-6.06778E+01 6.35000E+00
 -1     10665 1.07541E+02-6.20889E+01 7.93750E+00
 -1     10666 1.14725E+02-4.75208E+01-7.93750E+00
 -1     10667 1.11133E+02-5.48048E+01-6.35000E+00
 -1     10668 1.12118E+02-4.64408E+01-6.35000E+00
 -1     10669 1.14725E+02-4.75208E+01-4.76250E+00
 -1     10670 1.11133E+02-5.48048E+01-3.17500E+00
 -1     10671 1.12118E+02-4.64408E+01-3.17500E+00
 -1     10672 1.14725E+02-4.75208E+01-1.58750E+00
 -1     10673 1.11133E+02-5.48048E+01 0.00000E+00
 -1     10674 1.12118E+02-4.64408E+01 0.00000E+00
 -1     10675 1.14725E+02-4.75208E+01 1.58750E+00
 -1     10676 1.11133E+02-5.48048E+01 3.17500E+00
 -1     10677 1.12118E+02-4.64408E+01 3.17500E+00
 -1     10678 1.14725E+02-4.75208E+01 4.76250E+00
 -1     10679 1.11133E+02-5.48048E+01 6.35000E+00
 -1     10680 1.12118E+02-4.64408E+01 6.35000E+00
 -1     10681 1.14725E+02-4.75208E+01 7.93750E+00
 -1     10682 1.19947E+02-3.21396E+01-7.93750E+00
 -1     10683 1.17336E+02-3.98302E+01-6.35000E+00
 -1     10684 1.17220E+02-3.14091E+01-6.35000E+00
 -1     10685 1.19947E+02-3.21396E+01-4.76250E+00
 -1     10686 1.17336E+02-3.98302E+01-3.17500E+00
 -1     10687 1.17220E+02-3.14091E+01-3.17500E+00
 -1     10688 1.19947E+02-3.21396E+01-1.58750E+00
 -1     10689 1.17336E+02-3.98302E+01 0.00000E+00
 -1     10690 1.17220E+02-3.14091E+01 0.00000E+00
 -1     10691 1.19947E+02-3.21396E+01 1.58750E+00
 -1     10692 1.17336E+02-3.98302E+01 3.17500E+00
 -1     10693 1.17220E+02-3.14091E+01 3.17500E+00
 -1     10694 1.19947E+02-3.21396E+01 4.76250E+00
 -1     10695 1.17336E+02-3.98302E+01 6.35000E+00
 -1     10696 1.17220E+02-3.14091E+01 6.35000E+00
 -1     10697 1.19947E+02-3.21396E+01 7.93750E+00
 -1     10698 1.23115E+02-1.62085E+01-7.93750E+00
 -1     10699 1.21531E+02-2.41740E+01-6.35000E+00
 -1     10700 1.20317E+02-1.58401E+01-6.35000E+00
 -1     10701 1.23115E+02-1.62085E+01-4.76250E+00
 -1     10702 1.21531E+02-2.41740E+01-3.17500E+00
 -1     10703 1.20317E+02-1.58401E+01-3.17500E+00
 -1     10704 1.23115E+02-1.62085E+01-1.58750E+00
 -1     10705 1.21531E+02-2.41740E+01 0.00000E+00
 -1     10706 1.20317E+02-1.58401E+01 0.00000E+00
 -1     10707 1.23115E+02-1.62085E+01 1.58750E+00
 -1     10708 1.21531E+02-2.41740E+01 3.17500E+00
 -1     10709 1.20317E+02-1.58401E+01 3.17500E+00
 -1     10710 1.23115E+02-1.62085E+01 4.76250E+00
 -1     10711 1.21531E+02-2.41740E+01 6.35000E+00
 -1     10712 1.20317E+02-1.58401E+01 6.35000E+00
 -1     10713 1.23115E+02-1.62085E+01 7.93750E+00
 -1     10714 1.24178E+02 5.72253E-07-7.93750E+00
 -1     10715 1.23647E+02-8.10423E+00-6.35000E+00
 -1     10716 1.21356E+02 5.59470E-07-6.35000E+00
 -1     10717 1.24178E+02 5.72253E-07-4.76250E+00
 -1     10718 1.23647E+02-8.10423E+00-3.17500E+00
 -1     10719 1.21356E+02 5.59470E-07-3.17500E+00
 -1     10720 1.24178E+02 5.72253E-07-1.58750E+00
 -1     10721 1.23647E+02-8.10423E+00 0.00000E+00
 -1     10722 1.21356E+02 5.59470E-07 0.00000E+00
 -1     10723 1.24178E+02 5.72253E-07 1.58750E+00
 -1     10724 1.23647E+02-8.10423E+00 3.17500E+00
 -1     10725 1.21356E+02 5.59470E-07 3.17500E+00
 -1     10726 1.24178E+02 5.72253E-07 4.76250E+00
 -1     10727 1.23647E+02-8.10423E+00 6.35000E+00
 -1     10728 1.21356E+02 5.59470E-07 6.35000E+00
 -1     10729 1.24178E+02 5.72253E-07 7.93750E+00
 -1     10730 1.23115E+02 1.62085E+01-7.93750E+00
 -1     10731 1.23647E+02 8.10423E+00-6.35000E+00
 -1     10732 1.20317E+02 1.58401E+01-6.35000E+00
 -1     10733 1.23115E+02 1.62085E+01-4.76250E+00
 -1     10734 1.23647E+02 8.10423E+00-3.17500E+00
 -1     10735 1.20317E+02 1.58401E+01-3.17500E+00
 -1     10736 1.23115E+02 1.62085E+01-1.58750E+00
 -1     10737 1.23647E+02 8.10423E+00 0.00000E+00
 -1     10738 1.20317E+02 1.58401E+01 0.00000E+00
 -1     10739 1.23115E+02 1.62085E+01 1.58750E+00
 -1     10740 1.23647E+02 8.10423E+00 3.17500E+00
 -1     10741 1.20317E+02 1.58401E+01 3.17500E+00
 -1     10742 1.23115E+02 1.62085E+01 4.76250E+00
 -1     10743 1.23647E+02 8.10423E+00 6.35000E+00
 -1     10744 1.20317E+02 1.58401E+01 6.35000E+00
 -1     10745 1.23115E+02 1.62085E+01 7.93750E+00
 -1     10746 1.19947E+02 3.21396E+01-7.93750E+00
 -1     10747 1.21531E+02 2.41740E+01-6.35000E+00
 -1     10748 1.17220E+02 3.14091E+01-6.35000E+00
 -1     10749 1.19947E+02 3.21396E+01-4.76250E+00
 -1     10750 1.21531E+02 2.41740E+01-3.17500E+00
 -1     10751 1.17220E+02 3.14091E+01-3.17500E+00
 -1     10752 1.19947E+02 3.21396E+01-1.58750E+00
 -1     10753 1.21531E+02 2.41740E+01 0.00000E+00
 -1     10754 1.17220E+02 3.14091E+01 0.00000E+00
 -1     10755 1.19947E+02 3.21396E+01 1.58750E+00
 -1     10756 1.21531E+02 2.41740E+01 3.17500E+00
 -1     10757 1.17220E+02 3.14091E+01 3.17500E+00
 -1     10758 1.19947E+02 3.21396E+01 4.76250E+00
 -1     10759 1.21531E+02 2.41740E+01 6.35000E+00
 -1     10760 1.17220E+02 3.14091E+01 6.35000E+00
 -1     10761 1.19947E+02 3.21396E+01 7.93750E+00
 -1     10762 1.14725E+02 4.75208E+01-7.93750E+00
 -1     10763 1.17336E+02 3.98302E+01-6.35000E+00
 -1     10764 1.12118E+02 4.64408E+01-6.35000E+00
 -1     10765 1.14725E+02 4.75208E+01-4.76250E+00
 -1     10766 1.17336E+02 3.98302E+01-3.17500E+00
 -1     10767 1.12118E+02 4.64408E+01-3.17500E+00
 -1     10768 1.14725E+02 4.75208E+01-1.58750E+00
 -1     10769 1.17336E+02 3.98302E+01 0.00000E+00
 -1     10770 1.12118E+02 4.64408E+01 0.00000E+00
 -1     10771 1.14725E+02 4.75208E+01 1.58750E+00
 -1     10772 1.17336E+02 3.98302E+01 3.17500E+00
 -1     10773 1.12118E+02 4.64408E+01 3.17500E+00
 -1     10774 1.14725E+02 4.75208E+01 4.76250E+00
 -1     10775 1.17336E+02 3.98302E+01 6.35000E+00
 -1     10776 1.12118E+02 4.64408E+01 6.35000E+00
 -1     10777 1.14725E+02 4.75208E+01 7.93750E+00
 -1     10778 1.07541E+02 6.20889E+01-7.93750E+00
 -1     10779 1.11133E+02 5.48048E+01-6.35000E+00
 -1     10780 1.05097E+02 6.06778E+01-6.35000E+00
 -1     10781 1.07541E+02 6.20889E+01-4.76250E+00
 -1     10782 1.11133E+02 5.48048E+01-3.17500E+00
 -1     10783 1.05097E+02 6.06778E+01-3.17500E+00
 -1     10784 1.07541E+02 6.20889E+01-1.58750E+00
 -1     10785 1.11133E+02 5.48048E+01 0.00000E+00
 -1     10786 1.05097E+02 6.06778E+01 0.00000E+00
 -1     10787 1.07541E+02 6.20889E+01 1.58750E+00
 -1     10788 1.11133E+02 5.48048E+01 3.17500E+00
 -1     10789 1.05097E+02 6.06778E+01 3.17500E+00
 -1     10790 1.07541E+02 6.20889E+01 4.76250E+00
 -1     10791 1.11133E+02 5.48048E+01 6.35000E+00
 -1     10792 1.05097E+02 6.06778E+01 6.35000E+00
 -1     10793 1.07541E+02 6.20889E+01 7.93750E+00
 -1     10794 9.85169E+01 7.55946E+01-7.93750E+00
 -1     10795 1.03029E+02 6.88418E+01-6.35000E+00
 -1     10796 9.62778E+01 7.38766E+01-6.35000E+00
 -1     10797 9.85169E+01 7.55946E+01-4.76250E+00
 -1     10798 1.03029E+02 6.88418E+01-3.17500E+00
 -1     10799 9.62778E+01 7.38766E+01-3.17500E+00
 -1     10800 9.85169E+01 7.55946E+01-1.58750E+00
 -1     10801 1.03029E+02 6.88418E+01 0.00000E+00
 -1     10802 9.62778E+01 7.38766E+01 0.00000E+00
 -1     10803 9.85169E+01 7.55946E+01 1.58750E+00
 -1     10804 1.03029E+02 6.88418E+01 3.17500E+00
 -1     10805 9.62778E+01 7.38766E+01 3.17500E+00
 -1     10806 9.85169E+01 7.55946E+01 4.76250E+00
 -1     10807 1.03029E+02 6.88418E+01 6.35000E+00
 -1     10808 9.62778E+01 7.38766E+01 6.35000E+00
 -1     10809 9.85169E+01 7.55946E+01 7.93750E+00
 -1     10810 8.78069E+01 8.78069E+01-7.93750E+00
 -1     10811 9.31619E+01 8.17008E+01-6.35000E+00
 -1     10812 8.58113E+01 8.58113E+01-6.35000E+00
 -1     10813 8.78069E+01 8.78069E+01-4.76250E+00
 -1     10814 9.31619E+01 8.17008E+01-3.17500E+00
 -1     10815 8.58113E+01 8.58113E+01-3.17500E+00
 -1     10816 8.78069E+01 8.78069E+01-1.58750E+00
 -1     10817 9.31619E+01 8.17008E+01 0.00000E+00
 -1     10818 8.58113E+01 8.58113E+01 0.00000E+00
 -1     10819 8.78069E+01 8.78069E+01 1.58750E+00
 -1     10820 9.31619E+01 8.17008E+01 3.17500E+00
 -1     10821 8.58113E+01 8.58113E+01 3.17500E+00
 -1     10822 8.78069E+01 8.78069E+01 4.76250E+00
 -1     10823 9.31619E+01 8.17008E+01 6.35000E+00
 -1     10824 8.58113E+01 8.58113E+01 6.35000E+00
 -1     10825 8.78069E+01 8.78069E+01 7.93750E+00
 -1     10826 7.55946E+01 9.85169E+01-7.93750E+00
 -1     10827 8.17008E+01 9.31619E+01-6.35000E+00
 -1     10828 7.38766E+01 9.62778E+01-6.35000E+00
 -1     10829 7.55946E+01 9.85169E+01-4.76250E+00
 -1     10830 8.17008E+01 9.31619E+01-3.17500E+00
 -1     10831 7.38766E+01 9.62778E+01-3.17500E+00
 -1     10832 7.55946E+01 9.85169E+01-1.58750E+00
 -1     10833 8.17008E+01 9.31619E+01 0.00000E+00
 -1     10834 7.38766E+01 9.62778E+01 0.00000E+00
 -1     10835 7.55946E+01 9.85169E+01 1.58750E+00
 -1     10836 8.17008E+01 9.31619E+01 3.17500E+00
 -1     10837 7.38766E+01 9.62778E+01 3.17500E+00
 -1     10838 7.55946E+01 9.85169E+01 4.76250E+00
 -1     10839 8.17008E+01 9.31619E+01 6.35000E+00
 -1     10840 7.38766E+01 9.62778E+01 6.35000E+00
 -1     10841 7.55946E+01 9.85169E+01 7.93750E+00
 -1     10842 6.20889E+01 1.07541E+02-7.93750E+00
 -1     10843 6.88418E+01 1.03029E+02-6.35000E+00
 -1     10844 6.06778E+01 1.05097E+02-6.35000E+00
 -1     10845 6.20889E+01 1.07541E+02-4.76250E+00
 -1     10846 6.88418E+01 1.03029E+02-3.17500E+00
 -1     10847 6.06778E+01 1.05097E+02-3.17500E+00
 -1     10848 6.20889E+01 1.07541E+02-1.58750E+00
 -1     10849 6.88418E+01 1.03029E+02 0.00000E+00
 -1     10850 6.06778E+01 1.05097E+02 0.00000E+00
 -1     10851 6.20889E+01 1.07541E+02 1.58750E+00
 -1     10852 6.88418E+01 1.03029E+02 3.17500E+00
 -1     10853 6.06778E+01 1.05097E+02 3.17500E+00
 -1     10854 6.20889E+01 1.07541E+02 4.76250E+00
 -1     10855 6.88418E+01 1.03029E+02 6.35000E+00
 -1     10856 6.06778E+01 1.05097E+02 6.35000E+00
 -1     10857 6.20889E+01 1.07541E+02 7.93750E+00
 -1     10858 4.75208E+01 1.14725E+02-7.93750E+00
 -1     10859 5.48048E+01 1.11133E+02-6.35000E+00
 -1     10860 4.64408E+01 1.12118E+02-6.35000E+00
 -1     10861 4.75208E+01 1.14725E+02-4.76250E+00
 -1     10862 5.48048E+01 1.11133E+02-3.17500E+00
 -1     10863 4.64408E+01 1.12118E+02-3.17500E+00
 -1     10864 4.75208E+01 1.14725E+02-1.58750E+00
 -1     10865 5.48048E+01 1.11133E+02 0.00000E+00
 -1     10866 4.64408E+01 1.12118E+02 0.00000E+00
 -1     10867 4.75208E+01 1.14725E+02 1.58750E+00
 -1     10868 5.48048E+01 1.11133E+02 3.17500E+00
 -1     10869 4.64408E+01 1.12118E+02 3.17500E+00
 -1     10870 4.75208E+01 1.14725E+02 4.76250E+00
 -1     10871 5.48048E+01 1.11133E+02 6.35000E+00
 -1     10872 4.64408E+01 1.12118E+02 6.35000E+00
 -1     10873 4.75208E+01 1.14725E+02 7.93750E+00
 -1     10874 3.21396E+01 1.19947E+02-7.93750E+00
 -1     10875 3.98302E+01 1.17336E+02-6.35000E+00
 -1     10876 3.14091E+01 1.17220E+02-6.35000E+00
 -1     10877 3.21396E+01 1.19947E+02-4.76250E+00
 -1     10878 3.98302E+01 1.17336E+02-3.17500E+00
 -1     10879 3.14091E+01 1.17220E+02-3.17500E+00
 -1     10880 3.21396E+01 1.19947E+02-1.58750E+00
 -1     10881 3.98302E+01 1.17336E+02 0.00000E+00
 -1     10882 3.14091E+01 1.17220E+02 0.00000E+00
 -1     10883 3.21396E+01 1.19947E+02 1.58750E+00
 -1     10884 3.98302E+01 1.17336E+02 3.17500E+00
 -1     10885 3.14091E+01 1.17220E+02 3.17500E+00
 -1     10886 3.21396E+01 1.19947E+02 4.76250E+00
 -1     10887 3.98302E+01 1.17336E+02 6.35000E+00
 -1     10888 3.14091E+01 1.17220E+02 6.35000E+00
 -1     10889 3.21396E+01 1.19947E+02 7.93750E+00
 -1     10890 1.62085E+01 1.23115E+02-7.93750E+00
 -1     10891 2.41740E+01 1.21531E+02-6.35000E+00
 -1     10892 1.58401E+01 1.20317E+02-6.35000E+00
 -1     10893 1.62085E+01 1.23115E+02-4.76250E+00
 -1     10894 2.41740E+01 1.21531E+02-3.17500E+00
 -1     10895 1.58401E+01 1.20317E+02-3.17500E+00
 -1     10896 1.62085E+01 1.23115E+02-1.58750E+00
 -1     10897 2.41740E+01 1.21531E+02 0.00000E+00
 -1     10898 1.58401E+01 1.20317E+02 0.00000E+00
 -1     10899 1.62085E+01 1.23115E+02 1.58750E+00
 -1     10900 2.41740E+01 1.21531E+02 3.17500E+00
 -1     10901 1.58401E+01 1.20317E+02 3.17500E+00
 -1     10902 1.62085E+01 1.23115E+02 4.76250E+00
 -1     10903 2.41740E+01 1.21531E+02 6.35000E+00
 -1     10904 1.58401E+01 1.20317E+02 6.35000E+00
 -1     10905 1.62085E+01 1.23115E+02 7.93750E+00
 -1     10906 8.10423E+00 1.23647E+02-6.35000E+00
 -1     10907 8.10423E+00 1.23647E+02-3.17500E+00
 -1     10908 8.10423E+00 1.23647E+02 0.00000E+00
 -1     10909 8.10423E+00 1.23647E+02 3.17500E+00
 -1     10910 8.10423E+00 1.23647E+02 6.35000E+00
 -1     10911 1.69452E+01-1.28712E+02-7.93750E+00
 -1     10912 8.47260E+00-1.29267E+02-6.35000E+00
 -1     10913 1.65768E+01-1.25913E+02-6.35000E+00
 -1     10914 1.69452E+01-1.28712E+02-4.76250E+00
 -1     10915 8.47260E+00-1.29267E+02-3.17500E+00
 -1     10916 1.65768E+01-1.25913E+02-3.17500E+00
 -1     10917 1.69452E+01-1.28712E+02-1.58750E+00
 -1     10918 8.47260E+00-1.29267E+02 0.00000E+00
 -1     10919 1.65768E+01-1.25913E+02 0.00000E+00
 -1     10920 1.69452E+01-1.28712E+02 1.58750E+00
 -1     10921 8.47260E+00-1.29267E+02 3.17500E+00
 -1     10922 1.65768E+01-1.25913E+02 3.17500E+00
 -1     10923 1.69452E+01-1.28712E+02 4.76250E+00
 -1     10924 8.47260E+00-1.29267E+02 6.35000E+00
 -1     10925 1.65768E+01-1.25913E+02 6.35000E+00
 -1     10926 1.69452E+01-1.28712E+02 7.93750E+00
 -1     10927 3.36005E+01-1.25399E+02-7.93750E+00
 -1     10928 2.52728E+01-1.27055E+02-6.35000E+00
 -1     10929 3.28700E+01-1.22673E+02-6.35000E+00
 -1     10930 3.36005E+01-1.25399E+02-4.76250E+00
 -1     10931 2.52728E+01-1.27055E+02-3.17500E+00
 -1     10932 3.28700E+01-1.22673E+02-3.17500E+00
 -1     10933 3.36005E+01-1.25399E+02-1.58750E+00
 -1     10934 2.52728E+01-1.27055E+02 0.00000E+00
 -1     10935 3.28700E+01-1.22673E+02 0.00000E+00
 -1     10936 3.36005E+01-1.25399E+02 1.58750E+00
 -1     10937 2.52728E+01-1.27055E+02 3.17500E+00
 -1     10938 3.28700E+01-1.22673E+02 3.17500E+00
 -1     10939 3.36005E+01-1.25399E+02 4.76250E+00
 -1     10940 2.52728E+01-1.27055E+02 6.35000E+00
 -1     10941 3.28700E+01-1.22673E+02 6.35000E+00
 -1     10942 3.36005E+01-1.25399E+02 7.93750E+00
 -1     10943 4.96808E+01-1.19940E+02-7.93750E+00
 -1     10944 4.16406E+01-1.22669E+02-6.35000E+00
 -1     10945 4.86008E+01-1.17333E+02-6.35000E+00
 -1     10946 4.96808E+01-1.19940E+02-4.76250E+00
 -1     10947 4.16406E+01-1.22669E+02-3.17500E+00
 -1     10948 4.86008E+01-1.17333E+02-3.17500E+00
 -1     10949 4.96808E+01-1.19940E+02-1.58750E+00
 -1     10950 4.16406E+01-1.22669E+02 0.00000E+00
 -1     10951 4.86008E+01-1.17333E+02 0.00000E+00
 -1     10952 4.96808E+01-1.19940E+02 1.58750E+00
 -1     10953 4.16406E+01-1.22669E+02 3.17500E+00
 -1     10954 4.86008E+01-1.17333E+02 3.17500E+00
 -1     10955 4.96808E+01-1.19940E+02 4.76250E+00
 -1     10956 4.16406E+01-1.22669E+02 6.35000E+00
 -1     10957 4.86008E+01-1.17333E+02 6.35000E+00
 -1     10958 4.96808E+01-1.19940E+02 7.93750E+00
 -1     10959 6.49111E+01-1.12429E+02-7.93750E+00
 -1     10960 5.72960E+01-1.16185E+02-6.35000E+00
 -1     10961 6.35000E+01-1.09985E+02-6.35000E+00
 -1     10962 6.49111E+01-1.12429E+02-4.76250E+00
 -1     10963 5.72960E+01-1.16185E+02-3.17500E+00
 -1     10964 6.35000E+01-1.09985E+02-3.17500E+00
 -1     10965 6.49111E+01-1.12429E+02-1.58750E+00
 -1     10966 5.72960E+01-1.16185E+02 0.00000E+00
 -1     10967 6.35000E+01-1.09985E+02 0.00000E+00
 -1     10968 6.49111E+01-1.12429E+02 1.58750E+00
 -1     10969 5.72960E+01-1.16185E+02 3.17500E+00
 -1     10970 6.35000E+01-1.09985E+02 3.17500E+00
 -1     10971 6.49111E+01-1.12429E+02 4.76250E+00
 -1     10972 5.72960E+01-1.16185E+02 6.35000E+00
 -1     10973 6.35000E+01-1.09985E+02 6.35000E+00
 -1     10974 6.49111E+01-1.12429E+02 7.93750E+00
 -1     10975 7.90308E+01-1.02995E+02-7.93750E+00
 -1     10976 7.19709E+01-1.07712E+02-6.35000E+00
 -1     10977 7.73127E+01-1.00756E+02-6.35000E+00
 -1     10978 7.90308E+01-1.02995E+02-4.76250E+00
 -1     10979 7.19709E+01-1.07712E+02-3.17500E+00
 -1     10980 7.73127E+01-1.00756E+02-3.17500E+00
 -1     10981 7.90308E+01-1.02995E+02-1.58750E+00
 -1     10982 7.19709E+01-1.07712E+02 0.00000E+00
 -1     10983 7.73127E+01-1.00756E+02 0.00000E+00
 -1     10984 7.90308E+01-1.02995E+02 1.58750E+00
 -1     10985 7.19709E+01-1.07712E+02 3.17500E+00
 -1     10986 7.73127E+01-1.00756E+02 3.17500E+00
 -1     10987 7.90308E+01-1.02995E+02 4.76250E+00
 -1     10988 7.19709E+01-1.07712E+02 6.35000E+00
 -1     10989 7.73127E+01-1.00756E+02 6.35000E+00
 -1     10990 7.90308E+01-1.02995E+02 7.93750E+00
 -1     10991 9.17982E+01-9.17982E+01-7.93750E+00
 -1     10992 8.54145E+01-9.73965E+01-6.35000E+00
 -1     10993 8.98026E+01-8.98026E+01-6.35000E+00
 -1     10994 9.17982E+01-9.17982E+01-4.76250E+00
 -1     10995 8.54145E+01-9.73965E+01-3.17500E+00
 -1     10996 8.98026E+01-8.98026E+01-3.17500E+00
 -1     10997 9.17982E+01-9.17982E+01-1.58750E+00
 -1     10998 8.54145E+01-9.73965E+01 0.00000E+00
 -1     10999 8.98026E+01-8.98026E+01 0.00000E+00
 -1     11000 9.17982E+01-9.17982E+01 1.58750E+00
 -1     11001 8.54145E+01-9.73965E+01 3.17500E+00
 -1     11002 8.98026E+01-8.98026E+01 3.17500E+00
 -1     11003 9.17982E+01-9.17982E+01 4.76250E+00
 -1     11004 8.54145E+01-9.73965E+01 6.35000E+00
 -1     11005 8.98026E+01-8.98026E+01 6.35000E+00
 -1     11006 9.17982E+01-9.17982E+01 7.93750E+00
 -1     11007 1.02995E+02-7.90308E+01-7.93750E+00
 -1     11008 9.73965E+01-8.54145E+01-6.35000E+00
 -1     11009 1.00756E+02-7.73127E+01-6.35000E+00
 -1     11010 1.02995E+02-7.90308E+01-4.76250E+00
 -1     11011 9.73965E+01-8.54145E+01-3.17500E+00
 -1     11012 1.00756E+02-7.73127E+01-3.17500E+00
 -1     11013 1.02995E+02-7.90308E+01-1.58750E+00
 -1     11014 9.73965E+01-8.54145E+01 0.00000E+00
 -1     11015 1.00756E+02-7.73127E+01 0.00000E+00
 -1     11016 1.02995E+02-7.90308E+01 1.58750E+00
 -1     11017 9.73965E+01-8.54145E+01 3.17500E+00
 -1     11018 1.00756E+02-7.73127E+01 3.17500E+00
 -1     11019 1.02995E+02-7.90308E+01 4.76250E+00
 -1     11020 9.73965E+01-8.54145E+01 6.35000E+00
 -1     11021 1.00756E+02-7.73127E+01 6.35000E+00
 -1     11022 1.02995E+02-7.90308E+01 7.93750E+00
 -1     11023 1.12429E+02-6.49111E+01-7.93750E+00
 -1     11024 1.07712E+02-7.19709E+01-6.35000E+00
 -1     11025 1.09985E+02-6.35000E+01-6.35000E+00
 -1     11026 1.12429E+02-6.49111E+01-4.76250E+00
 -1     11027 1.07712E+02-7.19709E+01-3.17500E+00
 -1     11028 1.09985E+02-6.35000E+01-3.17500E+00
 -1     11029 1.12429E+02-6.49111E+01-1.58750E+00
 -1     11030 1.07712E+02-7.19709E+01 0.00000E+00
 -1     11031 1.09985E+02-6.35000E+01 0.00000E+00
 -1     11032 1.12429E+02-6.49111E+01 1.58750E+00
 -1     11033 1.07712E+02-7.19709E+01 3.17500E+00
 -1     11034 1.09985E+02-6.35000E+01 3.17500E+00
 -1     11035 1.12429E+02-6.49111E+01 4.76250E+00
 -1     11036 1.07712E+02-7.19709E+01 6.35000E+00
 -1     11037 1.09985E+02-6.35000E+01 6.35000E+00
 -1     11038 1.12429E+02-6.49111E+01 7.93750E+00
 -1     11039 1.19940E+02-4.96808E+01-7.93750E+00
 -1     11040 1.16185E+02-5.72960E+01-6.35000E+00
 -1     11041 1.17333E+02-4.86008E+01-6.35000E+00
 -1     11042 1.19940E+02-4.96808E+01-4.76250E+00
 -1     11043 1.16185E+02-5.72960E+01-3.17500E+00
 -1     11044 1.17333E+02-4.86008E+01-3.17500E+00
 -1     11045 1.19940E+02-4.96808E+01-1.58750E+00
 -1     11046 1.16185E+02-5.72960E+01 0.00000E+00
 -1     11047 1.17333E+02-4.86008E+01 0.00000E+00
 -1     11048 1.19940E+02-4.96808E+01 1.58750E+00
 -1     11049 1.16185E+02-5.72960E+01 3.17500E+00
 -1     11050 1.17333E+02-4.86008E+01 3.17500E+00
 -1     11051 1.19940E+02-4.96808E+01 4.76250E+00
 -1     11052 1.16185E+02-5.72960E+01 6.35000E+00
 -1     11053 1.17333E+02-4.86008E+01 6.35000E+00
 -1     11054 1.19940E+02-4.96808E+01 7.93750E+00
 -1     11055 1.25399E+02-3.36005E+01-7.93750E+00
 -1     11056 1.22669E+02-4.16406E+01-6.35000E+00
 -1     11057 1.22673E+02-3.28700E+01-6.35000E+00
 -1     11058 1.25399E+02-3.36005E+01-4.76250E+00
 -1     11059 1.22669E+02-4.16406E+01-3.17500E+00
 -1     11060 1.22673E+02-3.28700E+01-3.17500E+00
 -1     11061 1.25399E+02-3.36005E+01-1.58750E+00
 -1     11062 1.22669E+02-4.16406E+01 0.00000E+00
 -1     11063 1.22673E+02-3.28700E+01 0.00000E+00
 -1     11064 1.25399E+02-3.36005E+01 1.58750E+00
 -1     11065 1.22669E+02-4.16406E+01 3.17500E+00
 -1     11066 1.22673E+02-3.28700E+01 3.17500E+00
 -1     11067 1.25399E+02-3.36005E+01 4.76250E+00
 -1     11068 1.22669E+02-4.16406E+01 6.35000E+00
 -1     11069 1.22673E+02-3.28700E+01 6.35000E+00
 -1     11070 1.25399E+02-3.36005E+01 7.93750E+00
 -1     11071 1.28712E+02-1.69452E+01-7.93750E+00
 -1     11072 1.27055E+02-2.52728E+01-6.35000E+00
 -1     11073 1.25913E+02-1.65768E+01-6.35000E+00
 -1     11074 1.28712E+02-1.69452E+01-4.76250E+00
 -1     11075 1.27055E+02-2.52728E+01-3.17500E+00
 -1     11076 1.25913E+02-1.65768E+01-3.17500E+00
 -1     11077 1.28712E+02-1.69452E+01-1.58750E+00
 -1     11078 1.27055E+02-2.52728E+01 0.00000E+00
 -1     11079 1.25913E+02-1.65768E+01 0.00000E+00
 -1     11080 1.28712E+02-1.69452E+01 1.58750E+00
 -1     11081 1.27055E+02-2.52728E+01 3.17500E+00
 -1     11082 1.25913E+02-1.65768E+01 3.17500E+00
 -1     11083 1.28712E+02-1.69452E+01 4.76250E+00
 -1     11084 1.27055E+02-2.52728E+01 6.35000E+00
 -1     11085 1.25913E+02-1.65768E+01 6.35000E+00
 -1     11086 1.28712E+02-1.69452E+01 7.93750E+00
 -1     11087 1.29822E+02 5.97826E-07-7.93750E+00
 -1     11088 1.29267E+02-8.47260E+00-6.35000E+00
 -1     11089 1.27000E+02 5.85039E-07-6.35000E+00
 -1     11090 1.29822E+02 5.97826E-07-4.76250E+00
 -1     11091 1.29267E+02-8.47260E+00-3.17500E+00
 -1     11092 1.27000E+02 5.85039E-07-3.17500E+00
 -1     11093 1.29822E+02 5.97826E-07-1.58750E+00
 -1     11094 1.29267E+02-8.47260E+00 0.00000E+00
 -1     11095 1.27000E+02 5.85039E-07 0.00000E+00
 -1     11096 1.29822E+02 5.97826E-07 1.58750E+00
 -1     11097 1.29267E+02-8.47260E+00 3.17500E+00
 -1     11098 1.27000E+02 5.85039E-07 3.17500E+00
 -1     11099 1.29822E+02 5.97826E-07 4.76250E+00
 -1     11100 1.29267E+02-8.47260E+00 6.35000E+00
 -1     11101 1.27000E+02 5.85039E-07 6.35000E+00
 -1     11102 1.29822E+02 5.97826E-07 7.93750E+00
 -1     11103 1.28712E+02 1.69452E+01-7.93750E+00
 -1     11104 1.29267E+02 8.47260E+00-6.35000E+00
 -1     11105 1.25913E+02 1.65768E+01-6.35000E+00
 -1     11106 1.28712E+02 1.69452E+01-4.76250E+00
 -1     11107 1.29267E+02 8.47260E+00-3.17500E+00
 -1     11108 1.25913E+02 1.65768E+01-3.17500E+00
 -1     11109 1.28712E+02 1.69452E+01-1.58750E+00
 -1     11110 1.29267E+02 8.47260E+00 0.00000E+00
 -1     11111 1.25913E+02 1.65768E+01 0.00000E+00
 -1     11112 1.28712E+02 1.69452E+01 1.58750E+00
 -1     11113 1.29267E+02 8.47260E+00 3.17500E+00
 -1     11114 1.25913E+02 1.65768E+01 3.17500E+00
 -1     11115 1.28712E+02 1.69452E+01 4.76250E+00
 -1     11116 1.29267E+02 8.47260E+00 6.35000E+00
 -1     11117 1.25913E+02 1.65768E+01 6.35000E+00
 -1     11118 1.28712E+02 1.69452E+01 7.93750E+00
 -1     11119 1.25399E+02 3.36005E+01-7.93750E+00
 -1     11120 1.27055E+02 2.52728E+01-6.35000E+00
 -1     11121 1.22673E+02 3.28700E+01-6.35000E+00
 -1     11122 1.25399E+02 3.36005E+01-4.76250E+00
 -1     11123 1.27055E+02 2.52728E+01-3.17500E+00
 -1     11124 1.22673E+02 3.28700E+01-3.17500E+00
 -1     11125 1.25399E+02 3.36005E+01-1.58750E+00
 -1     11126 1.27055E+02 2.52728E+01 0.00000E+00
 -1     11127 1.22673E+02 3.28700E+01 0.00000E+00
 -1     11128 1.25399E+02 3.36005E+01 1.58750E+00
 -1     11129 1.27055E+02 2.52728E+01 3.17500E+00
 -1     11130 1.22673E+02 3.28700E+01 3.17500E+00
 -1     11131 1.25399E+02 3.36005E+01 4.76250E+00
 -1     11132 1.27055E+02 2.52728E+01 6.35000E+00
 -1     11133 1.22673E+02 3.28700E+01 6.35000E+00
 -1     11134 1.25399E+02 3.36005E+01 7.93750E+00
 -1     11135 1.19940E+02 4.96808E+01-7.93750E+00
 -1     11136 1.22669E+02 4.16406E+01-6.35000E+00
 -1     11137 1.17333E+02 4.86008E+01-6.35000E+00
 -1     11138 1.19940E+02 4.96808E+01-4.76250E+00
 -1     11139 1.22669E+02 4.16406E+01-3.17500E+00
 -1     11140 1.17333E+02 4.86008E+01-3.17500E+00
 -1     11141 1.19940E+02 4.96808E+01-1.58750E+00
 -1     11142 1.22669E+02 4.16406E+01 0.00000E+00
 -1     11143 1.17333E+02 4.86008E+01 0.00000E+00
 -1     11144 1.19940E+02 4.96808E+01 1.58750E+00
 -1     11145 1.22669E+02 4.16406E+01 3.17500E+00
 -1     11146 1.17333E+02 4.86008E+01 3.17500E+00
 -1     11147 1.19940E+02 4.96808E+01 4.76250E+00
 -1     11148 1.22669E+02 4.16406E+01 6.35000E+00
 -1     11149 1.17333E+02 4.86008E+01 6.35000E+00
 -1     11150 1.19940E+02 4.96808E+01 7.93750E+00
 -1     11151 1.12429E+02 6.49111E+01-7.93750E+00
 -1     11152 1.16185E+02 5.72960E+01-6.35000E+00
 -1     11153 1.09985E+02 6.35000E+01-6.35000E+00
 -1     11154 1.12429E+02 6.49111E+01-4.76250E+00
 -1     11155 1.16185E+02 5.72960E+01-3.17500E+00
 -1     11156 1.09985E+02 6.35000E+01-3.17500E+00
 -1     11157 1.12429E+02 6.49111E+01-1.58750E+00
 -1     11158 1.16185E+02 5.72960E+01 0.00000E+00
 -1     11159 1.09985E+02 6.35000E+01 0.00000E+00
 -1     11160 1.12429E+02 6.49111E+01 1.58750E+00
 -1     11161 1.16185E+02 5.72960E+01 3.17500E+00
 -1     11162 1.09985E+02 6.35000E+01 3.17500E+00
 -1     11163 1.12429E+02 6.49111E+01 4.76250E+00
 -1     11164 1.16185E+02 5.72960E+01 6.35000E+00
 -1     11165 1.09985E+02 6.35000E+01 6.35000E+00
 -1     11166 1.12429E+02 6.49111E+01 7.93750E+00
 -1     11167 1.02995E+02 7.90308E+01-7.93750E+00
 -1     11168 1.07712E+02 7.19709E+01-6.35000E+00
 -1     11169 1.00756E+02 7.73127E+01-6.35000E+00
 -1     11170 1.02995E+02 7.90308E+01-4.76250E+00
 -1     11171 1.07712E+02 7.19709E+01-3.17500E+00
 -1     11172 1.00756E+02 7.73127E+01-3.17500E+00
 -1     11173 1.02995E+02 7.90308E+01-1.58750E+00
 -1     11174 1.07712E+02 7.19709E+01 0.00000E+00
 -1     11175 1.00756E+02 7.73127E+01 0.00000E+00
 -1     11176 1.02995E+02 7.90308E+01 1.58750E+00
 -1     11177 1.07712E+02 7.19709E+01 3.17500E+00
 -1     11178 1.00756E+02 7.73127E+01 3.17500E+00
 -1     11179 1.02995E+02 7.90308E+01 4.76250E+00
 -1     11180 1.07712E+02 7.19709E+01 6.35000E+00
 -1     11181 1.00756E+02 7.73127E+01 6.35000E+00
 -1     11182 1.02995E+02 7.90308E+01 7.93750E+00
 -1     11183 9.17982E+01 9.17982E+01-7.93750E+00
 -1     11184 9.73965E+01 8.54145E+01-6.35000E+00
 -1     11185 8.98026E+01 8.98026E+01-6.35000E+00
 -1     11186 9.17982E+01 9.17982E+01-4.76250E+00
 -1     11187 9.73965E+01 8.54145E+01-3.17500E+00
 -1     11188 8.98026E+01 8.98026E+01-3.17500E+00
 -1     11189 9.17982E+01 9.17982E+01-1.58750E+00
 -1     11190 9.73965E+01 8.54145E+01 0.00000E+00
 -1     11191 8.98026E+01 8.98026E+01 0.00000E+00
 -1     11192 9.17982E+01 9.17982E+01 1.58750E+00
 -1     11193 9.73965E+01 8.54145E+01 3.17500E+00
 -1     11194 8.98026E+01 8.98026E+01 3.17500E+00
 -1     11195 9.17982E+01 9.17982E+01 4.76250E+00
 -1     11196 9.73965E+01 8.54145E+01 6.35000E+00
 -1     11197 8.98026E+01 8.98026E+01 6.35000E+00
 -1     11198 9.17982E+01 9.17982E+01 7.93750E+00
 -1     11199 7.90308E+01 1.02995E+02-7.93750E+00
 -1     11200 8.54145E+01 9.73965E+01-6.35000E+00
 -1     11201 7.73127E+01 1.00756E+02-6.35000E+00
 -1     11202 7.90308E+01 1.02995E+02-4.76250E+00
 -1     11203 8.54145E+01 9.73965E+01-3.17500E+00
 -1     11204 7.73127E+01 1.00756E+02-3.17500E+00
 -1     11205 7.90308E+01 1.02995E+02-1.58750E+00
 -1     11206 8.54145E+01 9.73965E+01 0.00000E+00
 -1     11207 7.73127E+01 1.00756E+02 0.00000E+00
 -1     11208 7.90308E+01 1.02995E+02 1.58750E+00
 -1     11209 8.54145E+01 9.73965E+01 3.17500E+00
 -1     11210 7.73127E+01 1.00756E+02 3.17500E+00
 -1     11211 7.90308E+01 1.02995E+02 4.76250E+00
 -1     11212 8.54145E+01 9.73965E+01 6.35000E+00
 -1     11213 7.73127E+01 1.00756E+02 6.35000E+00
 -1     11214 7.90308E+01 1.02995E+02 7.93750E+00
 -1     11215 6.49111E+01 1.12429E+02-7.93750E+00
 -1     11216 7.19709E+01 1.07712E+02-6.35000E+00
 -1     11217 6.35000E+01 1.09985E+02-6.35000E+00
 -1     11218 6.49111E+01 1.12429E+02-4.76250E+00
 -1     11219 7.19709E+01 1.07712E+02-3.17500E+00
 -1     11220 6.35000E+01 1.09985E+02-3.17500E+00
 -1     11221 6.49111E+01 1.12429E+02-1.58750E+00
 -1     11222 7.19709E+01 1.07712E+02 0.00000E+00
 -1     11223 6.35000E+01 1.09985E+02 0.00000E+00
 -1     11224 6.49111E+01 1.12429E+02 1.58750E+00
 -1     11225 7.19709E+01 1.07712E+02 3.17500E+00
 -1     11226 6.35000E+01 1.09985E+02 3.17500E+00
 -1     11227 6.49111E+01 1.12429E+02 4.76250E+00
 -1     11228 7.19709E+01 1.07712E+02 6.35000E+00
 -1     11229 6.35000E+01 1.09985E+02 6.35000E+00
 -1     11230 6.49111E+01 1.12429E+02 7.93750E+00
 -1     11231 4.96808E+01 1.19940E+02-7.93750E+00
 -1     11232 5.72960E+01 1.16185E+02-6.35000E+00
 -1     11233 4.86008E+01 1.17333E+02-6.35000E+00
 -1     11234 4.96808E+01 1.19940E+02-4.76250E+00
 -1     11235 5.72960E+01 1.16185E+02-3.17500E+00
 -1     11236 4.86008E+01 1.17333E+02-3.17500E+00
 -1     11237 4.96808E+01 1.19940E+02-1.58750E+00
 -1     11238 5.72960E+01 1.16185E+02 0.00000E+00
 -1     11239 4.86008E+01 1.17333E+02 0.00000E+00
 -1     11240 4.96808E+01 1.19940E+02 1.58750E+00
 -1     11241 5.72960E+01 1.16185E+02 3.17500E+00
 -1     11242 4.86008E+01 1.17333E+02 3.17500E+00
 -1     11243 4.96808E+01 1.19940E+02 4.76250E+00
 -1     11244 5.72960E+01 1.16185E+02 6.35000E+00
 -1     11245 4.86008E+01 1.17333E+02 6.35000E+00
 -1     11246 4.96808E+01 1.19940E+02 7.93750E+00
 -1     11247 3.36005E+01 1.25399E+02-7.93750E+00
 -1     11248 4.16406E+01 1.22669E+02-6.35000E+00
 -1     11249 3.28700E+01 1.22673E+02-6.35000E+00
 -1     11250 3.36005E+01 1.25399E+02-4.76250E+00
 -1     11251 4.16406E+01 1.22669E+02-3.17500E+00
 -1     11252 3.28700E+01 1.22673E+02-3.17500E+00
 -1     11253 3.36005E+01 1.25399E+02-1.58750E+00
 -1     11254 4.16406E+01 1.22669E+02 0.00000E+00
 -1     11255 3.28700E+01 1.22673E+02 0.00000E+00
 -1     11256 3.36005E+01 1.25399E+02 1.58750E+00
 -1     11257 4.16406E+01 1.22669E+02 3.17500E+00
 -1     11258 3.28700E+01 1.22673E+02 3.17500E+00
 -1     11259 3.36005E+01 1.25399E+02 4.76250E+00
 -1     11260 4.16406E+01 1.22669E+02 6.35000E+00
 -1     11261 3.28700E+01 1.22673E+02 6.35000E+00
 -1     11262 3.36005E+01 1.25399E+02 7.93750E+00
 -1     11263 1.69452E+01 1.28712E+02-7.93750E+00
 -1     11264 2.52728E+01 1.27055E+02-6.35000E+00
 -1     11265 1.65768E+01 1.25913E+02-6.35000E+00
 -1     11266 1.69452E+01 1.28712E+02-4.76250E+00
 -1     11267 2.52728E+01 1.27055E+02-3.17500E+00
 -1     11268 1.65768E+01 1.25913E+02-3.17500E+00
 -1     11269 1.69452E+01 1.28712E+02-1.58750E+00
 -1     11270 2.52728E+01 1.27055E+02 0.00000E+00
 -1     11271 1.65768E+01 1.25913E+02 0.00000E+00
 -1     11272 1.69452E+01 1.28712E+02 1.58750E+00
 -1     11273 2.52728E+01 1.27055E+02 3.17500E+00
 -1     11274 1.65768E+01 1.25913E+02 3.17500E+00
 -1     11275 1.69452E+01 1.28712E+02 4.76250E+00
 -1     11276 2.52728E+01 1.27055E+02 6.35000E+00
 -1     11277 1.65768E+01 1.25913E+02 6.35000E+00
 -1     11278 1.69452E+01 1.28712E+02 7.93750E+00
 -1     11279 8.47260E+00 1.29267E+02-6.35000E+00
 -1     11280 8.47260E+00 1.29267E+02-3.17500E+00
 -1     11281 8.47260E+00 1.29267E+02 0.00000E+00
 -1     11282 8.47260E+00 1.29267E+02 3.17500E+00
 -1     11283 8.47260E+00 1.29267E+02 6.35000E+00
 -1     11284 1.76819E+01-1.34308E+02-7.93750E+00
 -1     11285 8.84097E+00-1.34887E+02-6.35000E+00
 -1     11286 1.73136E+01-1.31510E+02-6.35000E+00
 -1     11287 1.76819E+01-1.34308E+02-4.76250E+00
 -1     11288 8.84097E+00-1.34887E+02-3.17500E+00
 -1     11289 1.73136E+01-1.31510E+02-3.17500E+00
 -1     11290 1.76819E+01-1.34308E+02-1.58750E+00
 -1     11291 8.84097E+00-1.34887E+02 0.00000E+00
 -1     11292 1.73136E+01-1.31510E+02 0.00000E+00
 -1     11293 1.76819E+01-1.34308E+02 1.58750E+00
 -1     11294 8.84097E+00-1.34887E+02 3.17500E+00
 -1     11295 1.73136E+01-1.31510E+02 3.17500E+00
 -1     11296 1.76819E+01-1.34308E+02 4.76250E+00
 -1     11297 8.84097E+00-1.34887E+02 6.35000E+00
 -1     11298 1.73136E+01-1.31510E+02 6.35000E+00
 -1     11299 1.76819E+01-1.34308E+02 7.93750E+00
 -1     11300 3.50614E+01-1.30851E+02-7.93750E+00
 -1     11301 2.63717E+01-1.32579E+02-6.35000E+00
 -1     11302 3.43309E+01-1.28125E+02-6.35000E+00
 -1     11303 3.50614E+01-1.30851E+02-4.76250E+00
 -1     11304 2.63717E+01-1.32579E+02-3.17500E+00
 -1     11305 3.43309E+01-1.28125E+02-3.17500E+00
 -1     11306 3.50614E+01-1.30851E+02-1.58750E+00
 -1     11307 2.63717E+01-1.32579E+02 0.00000E+00
 -1     11308 3.43309E+01-1.28125E+02 0.00000E+00
 -1     11309 3.50614E+01-1.30851E+02 1.58750E+00
 -1     11310 2.63717E+01-1.32579E+02 3.17500E+00
 -1     11311 3.43309E+01-1.28125E+02 3.17500E+00
 -1     11312 3.50614E+01-1.30851E+02 4.76250E+00
 -1     11313 2.63717E+01-1.32579E+02 6.35000E+00
 -1     11314 3.43309E+01-1.28125E+02 6.35000E+00
 -1     11315 3.50614E+01-1.30851E+02 7.93750E+00
 -1     11316 5.18409E+01-1.25155E+02-7.93750E+00
 -1     11317 4.34511E+01-1.28003E+02-6.35000E+00
 -1     11318 5.07608E+01-1.22547E+02-6.35000E+00
 -1     11319 5.18409E+01-1.25155E+02-4.76250E+00
 -1     11320 4.34511E+01-1.28003E+02-3.17500E+00
 -1     11321 5.07608E+01-1.22547E+02-3.17500E+00
 -1     11322 5.18409E+01-1.25155E+02-1.58750E+00
 -1     11323 4.34511E+01-1.28003E+02 0.00000E+00
 -1     11324 5.07608E+01-1.22547E+02 0.00000E+00
 -1     11325 5.18409E+01-1.25155E+02 1.58750E+00
 -1     11326 4.34511E+01-1.28003E+02 3.17500E+00
 -1     11327 5.07608E+01-1.22547E+02 3.17500E+00
 -1     11328 5.18409E+01-1.25155E+02 4.76250E+00
 -1     11329 4.34511E+01-1.28003E+02 6.35000E+00
 -1     11330 5.07608E+01-1.22547E+02 6.35000E+00
 -1     11331 5.18409E+01-1.25155E+02 7.93750E+00
 -1     11332 6.77333E+01-1.17318E+02-7.93750E+00
 -1     11333 5.97871E+01-1.21236E+02-6.35000E+00
 -1     11334 6.63222E+01-1.14873E+02-6.35000E+00
 -1     11335 6.77333E+01-1.17318E+02-4.76250E+00
 -1     11336 5.97871E+01-1.21236E+02-3.17500E+00
 -1     11337 6.63222E+01-1.14873E+02-3.17500E+00
 -1     11338 6.77333E+01-1.17318E+02-1.58750E+00
 -1     11339 5.97871E+01-1.21236E+02 0.00000E+00
 -1     11340 6.63222E+01-1.14873E+02 0.00000E+00
 -1     11341 6.77333E+01-1.17318E+02 1.58750E+00
 -1     11342 5.97871E+01-1.21236E+02 3.17500E+00
 -1     11343 6.63222E+01-1.14873E+02 3.17500E+00
 -1     11344 6.77333E+01-1.17318E+02 4.76250E+00
 -1     11345 5.97871E+01-1.21236E+02 6.35000E+00
 -1     11346 6.63222E+01-1.14873E+02 6.35000E+00
 -1     11347 6.77333E+01-1.17318E+02 7.93750E+00
 -1     11348 8.24669E+01-1.07473E+02-7.93750E+00
 -1     11349 7.51001E+01-1.12395E+02-6.35000E+00
 -1     11350 8.07488E+01-1.05234E+02-6.35000E+00
 -1     11351 8.24669E+01-1.07473E+02-4.76250E+00
 -1     11352 7.51001E+01-1.12395E+02-3.17500E+00
 -1     11353 8.07488E+01-1.05234E+02-3.17500E+00
 -1     11354 8.24669E+01-1.07473E+02-1.58750E+00
 -1     11355 7.51001E+01-1.12395E+02 0.00000E+00
 -1     11356 8.07488E+01-1.05234E+02 0.00000E+00
 -1     11357 8.24669E+01-1.07473E+02 1.58750E+00
 -1     11358 7.51001E+01-1.12395E+02 3.17500E+00
 -1     11359 8.07488E+01-1.05234E+02 3.17500E+00
 -1     11360 8.24669E+01-1.07473E+02 4.76250E+00
 -1     11361 7.51001E+01-1.12395E+02 6.35000E+00
 -1     11362 8.07488E+01-1.05234E+02 6.35000E+00
 -1     11363 8.24669E+01-1.07473E+02 7.93750E+00
 -1     11364 9.57894E+01-9.57894E+01-7.93750E+00
 -1     11365 8.91281E+01-1.01631E+02-6.35000E+00
 -1     11366 9.37938E+01-9.37938E+01-6.35000E+00
 -1     11367 9.57894E+01-9.57894E+01-4.76250E+00
 -1     11368 8.91281E+01-1.01631E+02-3.17500E+00
 -1     11369 9.37938E+01-9.37938E+01-3.17500E+00
 -1     11370 9.57894E+01-9.57894E+01-1.58750E+00
 -1     11371 8.91281E+01-1.01631E+02 0.00000E+00
 -1     11372 9.37938E+01-9.37938E+01 0.00000E+00
 -1     11373 9.57894E+01-9.57894E+01 1.58750E+00
 -1     11374 8.91281E+01-1.01631E+02 3.17500E+00
 -1     11375 9.37938E+01-9.37938E+01 3.17500E+00
 -1     11376 9.57894E+01-9.57894E+01 4.76250E+00
 -1     11377 8.91281E+01-1.01631E+02 6.35000E+00
 -1     11378 9.37938E+01-9.37938E+01 6.35000E+00
 -1     11379 9.57894E+01-9.57894E+01 7.93750E+00
 -1     11380 1.07473E+02-8.24669E+01-7.93750E+00
 -1     11381 1.01631E+02-8.91281E+01-6.35000E+00
 -1     11382 1.05234E+02-8.07488E+01-6.35000E+00
 -1     11383 1.07473E+02-8.24669E+01-4.76250E+00
 -1     11384 1.01631E+02-8.91281E+01-3.17500E+00
 -1     11385 1.05234E+02-8.07488E+01-3.17500E+00
 -1     11386 1.07473E+02-8.24669E+01-1.58750E+00
 -1     11387 1.01631E+02-8.91281E+01 0.00000E+00
 -1     11388 1.05234E+02-8.07488E+01 0.00000E+00
 -1     11389 1.07473E+02-8.24669E+01 1.58750E+00
 -1     11390 1.01631E+02-8.91281E+01 3.17500E+00
 -1     11391 1.05234E+02-8.07488E+01 3.17500E+00
 -1     11392 1.07473E+02-8.24669E+01 4.76250E+00
 -1     11393 1.01631E+02-8.91281E+01 6.35000E+00
 -1     11394 1.05234E+02-8.07488E+01 6.35000E+00
 -1     11395 1.07473E+02-8.24669E+01 7.93750E+00
 -1     11396 1.17318E+02-6.77333E+01-7.93750E+00
 -1     11397 1.12395E+02-7.51001E+01-6.35000E+00
 -1     11398 1.14873E+02-6.63222E+01-6.35000E+00
 -1     11399 1.17318E+02-6.77333E+01-4.76250E+00
 -1     11400 1.12395E+02-7.51001E+01-3.17500E+00
 -1     11401 1.14873E+02-6.63222E+01-3.17500E+00
 -1     11402 1.17318E+02-6.77333E+01-1.58750E+00
 -1     11403 1.12395E+02-7.51001E+01 0.00000E+00
 -1     11404 1.14873E+02-6.63222E+01 0.00000E+00
 -1     11405 1.17318E+02-6.77333E+01 1.58750E+00
 -1     11406 1.12395E+02-7.51001E+01 3.17500E+00
 -1     11407 1.14873E+02-6.63222E+01 3.17500E+00
 -1     11408 1.17318E+02-6.77333E+01 4.76250E+00
 -1     11409 1.12395E+02-7.51001E+01 6.35000E+00
 -1     11410 1.14873E+02-6.63222E+01 6.35000E+00
 -1     11411 1.17318E+02-6.77333E+01 7.93750E+00
 -1     11412 1.25155E+02-5.18408E+01-7.93750E+00
 -1     11413 1.21236E+02-5.97871E+01-6.35000E+00
 -1     11414 1.22547E+02-5.07608E+01-6.35000E+00
 -1     11415 1.25155E+02-5.18408E+01-4.76250E+00
 -1     11416 1.21236E+02-5.97871E+01-3.17500E+00
 -1     11417 1.22547E+02-5.07608E+01-3.17500E+00
 -1     11418 1.25155E+02-5.18408E+01-1.58750E+00
 -1     11419 1.21236E+02-5.97871E+01 0.00000E+00
 -1     11420 1.22547E+02-5.07608E+01 0.00000E+00
 -1     11421 1.25155E+02-5.18408E+01 1.58750E+00
 -1     11422 1.21236E+02-5.97871E+01 3.17500E+00
 -1     11423 1.22547E+02-5.07608E+01 3.17500E+00
 -1     11424 1.25155E+02-5.18408E+01 4.76250E+00
 -1     11425 1.21236E+02-5.97871E+01 6.35000E+00
 -1     11426 1.22547E+02-5.07608E+01 6.35000E+00
 -1     11427 1.25155E+02-5.18408E+01 7.93750E+00
 -1     11428 1.30851E+02-3.50614E+01-7.93750E+00
 -1     11429 1.28003E+02-4.34511E+01-6.35000E+00
 -1     11430 1.28125E+02-3.43309E+01-6.35000E+00
 -1     11431 1.30851E+02-3.50614E+01-4.76250E+00
 -1     11432 1.28003E+02-4.34511E+01-3.17500E+00
 -1     11433 1.28125E+02-3.43309E+01-3.17500E+00
 -1     11434 1.30851E+02-3.50614E+01-1.58750E+00
 -1     11435 1.28003E+02-4.34511E+01 0.00000E+00
 -1     11436 1.28125E+02-3.43309E+01 0.00000E+00
 -1     11437 1.30851E+02-3.50614E+01 1.58750E+00
 -1     11438 1.28003E+02-4.34511E+01 3.17500E+00
 -1     11439 1.28125E+02-3.43309E+01 3.17500E+00
 -1     11440 1.30851E+02-3.50614E+01 4.76250E+00
 -1     11441 1.28003E+02-4.34511E+01 6.35000E+00
 -1     11442 1.28125E+02-3.43309E+01 6.35000E+00
 -1     11443 1.30851E+02-3.50614E+01 7.93750E+00
 -1     11444 1.34308E+02-1.76819E+01-7.93750E+00
 -1     11445 1.32579E+02-2.63717E+01-6.35000E+00
 -1     11446 1.31510E+02-1.73136E+01-6.35000E+00
 -1     11447 1.34308E+02-1.76819E+01-4.76250E+00
 -1     11448 1.32579E+02-2.63717E+01-3.17500E+00
 -1     11449 1.31510E+02-1.73136E+01-3.17500E+00
 -1     11450 1.34308E+02-1.76819E+01-1.58750E+00
 -1     11451 1.32579E+02-2.63717E+01 0.00000E+00
 -1     11452 1.31510E+02-1.73136E+01 0.00000E+00
 -1     11453 1.34308E+02-1.76819E+01 1.58750E+00
 -1     11454 1.32579E+02-2.63717E+01 3.17500E+00
 -1     11455 1.31510E+02-1.73136E+01 3.17500E+00
 -1     11456 1.34308E+02-1.76819E+01 4.76250E+00
 -1     11457 1.32579E+02-2.63717E+01 6.35000E+00
 -1     11458 1.31510E+02-1.73136E+01 6.35000E+00
 -1     11459 1.34308E+02-1.76819E+01 7.93750E+00
 -1     11460 1.35467E+02 6.23397E-07-7.93750E+00
 -1     11461 1.34887E+02-8.84097E+00-6.35000E+00
 -1     11462 1.32644E+02 6.10612E-07-6.35000E+00
 -1     11463 1.35467E+02 6.23397E-07-4.76250E+00
 -1     11464 1.34887E+02-8.84097E+00-3.17500E+00
 -1     11465 1.32644E+02 6.10612E-07-3.17500E+00
 -1     11466 1.35467E+02 6.23397E-07-1.58750E+00
 -1     11467 1.34887E+02-8.84097E+00 0.00000E+00
 -1     11468 1.32644E+02 6.10612E-07 0.00000E+00
 -1     11469 1.35467E+02 6.23397E-07 1.58750E+00
 -1     11470 1.34887E+02-8.84097E+00 3.17500E+00
 -1     11471 1.32644E+02 6.10612E-07 3.17500E+00
 -1     11472 1.35467E+02 6.23397E-07 4.76250E+00
 -1     11473 1.34887E+02-8.84097E+00 6.35000E+00
 -1     11474 1.32644E+02 6.10612E-07 6.35000E+00
 -1     11475 1.35467E+02 6.23397E-07 7.93750E+00
 -1     11476 1.34308E+02 1.76819E+01-7.93750E+00
 -1     11477 1.34887E+02 8.84097E+00-6.35000E+00
 -1     11478 1.31510E+02 1.73136E+01-6.35000E+00
 -1     11479 1.34308E+02 1.76819E+01-4.76250E+00
 -1     11480 1.34887E+02 8.84097E+00-3.17500E+00
 -1     11481 1.31510E+02 1.73136E+01-3.17500E+00
 -1     11482 1.34308E+02 1.76819E+01-1.58750E+00
 -1     11483 1.34887E+02 8.84097E+00 0.00000E+00
 -1     11484 1.31510E+02 1.73136E+01 0.00000E+00
 -1     11485 1.34308E+02 1.76819E+01 1.58750E+00
 -1     11486 1.34887E+02 8.84097E+00 3.17500E+00
 -1     11487 1.31510E+02 1.73136E+01 3.17500E+00
 -1     11488 1.34308E+02 1.76819E+01 4.76250E+00
 -1     11489 1.34887E+02 8.84097E+00 6.35000E+00
 -1     11490 1.31510E+02 1.73136E+01 6.35000E+00
 -1     11491 1.34308E+02 1.76819E+01 7.93750E+00
 -1     11492 1.30851E+02 3.50614E+01-7.93750E+00
 -1     11493 1.32579E+02 2.63717E+01-6.35000E+00
 -1     11494 1.28125E+02 3.43309E+01-6.35000E+00
 -1     11495 1.30851E+02 3.50614E+01-4.76250E+00
 -1     11496 1.32579E+02 2.63717E+01-3.17500E+00
 -1     11497 1.28125E+02 3.43309E+01-3.17500E+00
 -1     11498 1.30851E+02 3.50614E+01-1.58750E+00
 -1     11499 1.32579E+02 2.63717E+01 0.00000E+00
 -1     11500 1.28125E+02 3.43309E+01 0.00000E+00
 -1     11501 1.30851E+02 3.50614E+01 1.58750E+00
 -1     11502 1.32579E+02 2.63717E+01 3.17500E+00
 -1     11503 1.28125E+02 3.43309E+01 3.17500E+00
 -1     11504 1.30851E+02 3.50614E+01 4.76250E+00
 -1     11505 1.32579E+02 2.63717E+01 6.35000E+00
 -1     11506 1.28125E+02 3.43309E+01 6.35000E+00
 -1     11507 1.30851E+02 3.50614E+01 7.93750E+00
 -1     11508 1.25155E+02 5.18409E+01-7.93750E+00
 -1     11509 1.28003E+02 4.34511E+01-6.35000E+00
 -1     11510 1.22547E+02 5.07608E+01-6.35000E+00
 -1     11511 1.25155E+02 5.18409E+01-4.76250E+00
 -1     11512 1.28003E+02 4.34511E+01-3.17500E+00
 -1     11513 1.22547E+02 5.07608E+01-3.17500E+00
 -1     11514 1.25155E+02 5.18409E+01-1.58750E+00
 -1     11515 1.28003E+02 4.34511E+01 0.00000E+00
 -1     11516 1.22547E+02 5.07608E+01 0.00000E+00
 -1     11517 1.25155E+02 5.18409E+01 1.58750E+00
 -1     11518 1.28003E+02 4.34511E+01 3.17500E+00
 -1     11519 1.22547E+02 5.07608E+01 3.17500E+00
 -1     11520 1.25155E+02 5.18409E+01 4.76250E+00
 -1     11521 1.28003E+02 4.34511E+01 6.35000E+00
 -1     11522 1.22547E+02 5.07608E+01 6.35000E+00
 -1     11523 1.25155E+02 5.18409E+01 7.93750E+00
 -1     11524 1.17318E+02 6.77333E+01-7.93750E+00
 -1     11525 1.21236E+02 5.97871E+01-6.35000E+00
 -1     11526 1.14873E+02 6.63222E+01-6.35000E+00
 -1     11527 1.17318E+02 6.77333E+01-4.76250E+00
 -1     11528 1.21236E+02 5.97871E+01-3.17500E+00
 -1     11529 1.14873E+02 6.63222E+01-3.17500E+00
 -1     11530 1.17318E+02 6.77333E+01-1.58750E+00
 -1     11531 1.21236E+02 5.97871E+01 0.00000E+00
 -1     11532 1.14873E+02 6.63222E+01 0.00000E+00
 -1     11533 1.17318E+02 6.77333E+01 1.58750E+00
 -1     11534 1.21236E+02 5.97871E+01 3.17500E+00
 -1     11535 1.14873E+02 6.63222E+01 3.17500E+00
 -1     11536 1.17318E+02 6.77333E+01 4.76250E+00
 -1     11537 1.21236E+02 5.97871E+01 6.35000E+00
 -1     11538 1.14873E+02 6.63222E+01 6.35000E+00
 -1     11539 1.17318E+02 6.77333E+01 7.93750E+00
 -1     11540 1.07473E+02 8.24669E+01-7.93750E+00
 -1     11541 1.12395E+02 7.51001E+01-6.35000E+00
 -1     11542 1.05234E+02 8.07488E+01-6.35000E+00
 -1     11543 1.07473E+02 8.24669E+01-4.76250E+00
 -1     11544 1.12395E+02 7.51001E+01-3.17500E+00
 -1     11545 1.05234E+02 8.07488E+01-3.17500E+00
 -1     11546 1.07473E+02 8.24669E+01-1.58750E+00
 -1     11547 1.12395E+02 7.51001E+01 0.00000E+00
 -1     11548 1.05234E+02 8.07488E+01 0.00000E+00
 -1     11549 1.07473E+02 8.24669E+01 1.58750E+00
 -1     11550 1.12395E+02 7.51001E+01 3.17500E+00
 -1     11551 1.05234E+02 8.07488E+01 3.17500E+00
 -1     11552 1.07473E+02 8.24669E+01 4.76250E+00
 -1     11553 1.12395E+02 7.51001E+01 6.35000E+00
 -1     11554 1.05234E+02 8.07488E+01 6.35000E+00
 -1     11555 1.07473E+02 8.24669E+01 7.93750E+00
 -1     11556 9.57894E+01 9.57894E+01-7.93750E+00
 -1     11557 1.01631E+02 8.91281E+01-6.35000E+00
 -1     11558 9.37938E+01 9.37938E+01-6.35000E+00
 -1     11559 9.57894E+01 9.57894E+01-4.76250E+00
 -1     11560 1.01631E+02 8.91281E+01-3.17500E+00
 -1     11561 9.37938E+01 9.37938E+01-3.17500E+00
 -1     11562 9.57894E+01 9.57894E+01-1.58750E+00
 -1     11563 1.01631E+02 8.91281E+01 0.00000E+00
 -1     11564 9.37938E+01 9.37938E+01 0.00000E+00
 -1     11565 9.57894E+01 9.57894E+01 1.58750E+00
 -1     11566 1.01631E+02 8.91281E+01 3.17500E+00
 -1     11567 9.37938E+01 9.37938E+01 3.17500E+00
 -1     11568 9.57894E+01 9.57894E+01 4.76250E+00
 -1     11569 1.01631E+02 8.91281E+01 6.35000E+00
 -1     11570 9.37938E+01 9.37938E+01 6.35000E+00
 -1     11571 9.57894E+01 9.57894E+01 7.93750E+00
 -1     11572 8.24669E+01 1.07473E+02-7.93750E+00
 -1     11573 8.91281E+01 1.01631E+02-6.35000E+00
 -1     11574 8.07488E+01 1.05234E+02-6.35000E+00
 -1     11575 8.24669E+01 1.07473E+02-4.76250E+00
 -1     11576 8.91281E+01 1.01631E+02-3.17500E+00
 -1     11577 8.07488E+01 1.05234E+02-3.17500E+00
 -1     11578 8.24669E+01 1.07473E+02-1.58750E+00
 -1     11579 8.91281E+01 1.01631E+02 0.00000E+00
 -1     11580 8.07488E+01 1.05234E+02 0.00000E+00
 -1     11581 8.24669E+01 1.07473E+02 1.58750E+00
 -1     11582 8.91281E+01 1.01631E+02 3.17500E+00
 -1     11583 8.07488E+01 1.05234E+02 3.17500E+00
 -1     11584 8.24669E+01 1.07473E+02 4.76250E+00
 -1     11585 8.91281E+01 1.01631E+02 6.35000E+00
 -1     11586 8.07488E+01 1.05234E+02 6.35000E+00
 -1     11587 8.24669E+01 1.07473E+02 7.93750E+00
 -1     11588 6.77333E+01 1.17318E+02-7.93750E+00
 -1     11589 7.51001E+01 1.12395E+02-6.35000E+00
 -1     11590 6.63222E+01 1.14873E+02-6.35000E+00
 -1     11591 6.77333E+01 1.17318E+02-4.76250E+00
 -1     11592 7.51001E+01 1.12395E+02-3.17500E+00
 -1     11593 6.63222E+01 1.14873E+02-3.17500E+00
 -1     11594 6.77333E+01 1.17318E+02-1.58750E+00
 -1     11595 7.51001E+01 1.12395E+02 0.00000E+00
 -1     11596 6.63222E+01 1.14873E+02 0.00000E+00
 -1     11597 6.77333E+01 1.17318E+02 1.58750E+00
 -1     11598 7.51001E+01 1.12395E+02 3.17500E+00
 -1     11599 6.63222E+01 1.14873E+02 3.17500E+00
 -1     11600 6.77333E+01 1.17318E+02 4.76250E+00
 -1     11601 7.51001E+01 1.12395E+02 6.35000E+00
 -1     11602 6.63222E+01 1.14873E+02 6.35000E+00
 -1     11603 6.77333E+01 1.17318E+02 7.93750E+00
 -1     11604 5.18408E+01 1.25155E+02-7.93750E+00
 -1     11605 5.97871E+01 1.21236E+02-6.35000E+00
 -1     11606 5.07608E+01 1.22547E+02-6.35000E+00
 -1     11607 5.18408E+01 1.25155E+02-4.76250E+00
 -1     11608 5.97871E+01 1.21236E+02-3.17500E+00
 -1     11609 5.07608E+01 1.22547E+02-3.17500E+00
 -1     11610 5.18408E+01 1.25155E+02-1.58750E+00
 -1     11611 5.97871E+01 1.21236E+02 0.00000E+00
 -1     11612 5.07608E+01 1.22547E+02 0.00000E+00
 -1     11613 5.18408E+01 1.25155E+02 1.58750E+00
 -1     11614 5.97871E+01 1.21236E+02 3.17500E+00
 -1     11615 5.07608E+01 1.22547E+02 3.17500E+00
 -1     11616 5.18408E+01 1.25155E+02 4.76250E+00
 -1     11617 5.97871E+01 1.21236E+02 6.35000E+00
 -1     11618 5.07608E+01 1.22547E+02 6.35000E+00
 -1     11619 5.18408E+01 1.25155E+02 7.93750E+00
 -1     11620 3.50614E+01 1.30851E+02-7.93750E+00
 -1     11621 4.34511E+01 1.28003E+02-6.35000E+00
 -1     11622 3.43309E+01 1.28125E+02-6.35000E+00
 -1     11623 3.50614E+01 1.30851E+02-4.76250E+00
 -1     11624 4.34511E+01 1.28003E+02-3.17500E+00
 -1     11625 3.43309E+01 1.28125E+02-3.17500E+00
 -1     11626 3.50614E+01 1.30851E+02-1.58750E+00
 -1     11627 4.34511E+01 1.28003E+02 0.00000E+00
 -1     11628 3.43309E+01 1.28125E+02 0.00000E+00
 -1     11629 3.50614E+01 1.30851E+02 1.58750E+00
 -1     11630 4.34511E+01 1.28003E+02 3.17500E+00
 -1     11631 3.43309E+01 1.28125E+02 3.17500E+00
 -1     11632 3.50614E+01 1.30851E+02 4.76250E+00
 -1     11633 4.34511E+01 1.28003E+02 6.35000E+00
 -1     11634 3.43309E+01 1.28125E+02 6.35000E+00
 -1     11635 3.50614E+01 1.30851E+02 7.93750E+00
 -1     11636 1.76819E+01 1.34308E+02-7.93750E+00
 -1     11637 2.63717E+01 1.32579E+02-6.35000E+00
 -1     11638 1.73136E+01 1.31510E+02-6.35000E+00
 -1     11639 1.76819E+01 1.34308E+02-4.76250E+00
 -1     11640 2.63717E+01 1.32579E+02-3.17500E+00
 -1     11641 1.73136E+01 1.31510E+02-3.17500E+00
 -1     11642 1.76819E+01 1.34308E+02-1.58750E+00
 -1     11643 2.63717E+01 1.32579E+02 0.00000E+00
 -1     11644 1.73136E+01 1.31510E+02 0.00000E+00
 -1     11645 1.76819E+01 1.34308E+02 1.58750E+00
 -1     11646 2.63717E+01 1.32579E+02 3.17500E+00
 -1     11647 1.73136E+01 1.31510E+02 3.17500E+00
 -1     11648 1.76819E+01 1.34308E+02 4.76250E+00
 -1     11649 2.63717E+01 1.32579E+02 6.35000E+00
 -1     11650 1.73136E+01 1.31510E+02 6.35000E+00
 -1     11651 1.76819E+01 1.34308E+02 7.93750E+00
 -1     11652 8.84097E+00 1.34887E+02-6.35000E+00
 -1     11653 8.84097E+00 1.34887E+02-3.17500E+00
 -1     11654 8.84097E+00 1.34887E+02 0.00000E+00
 -1     11655 8.84097E+00 1.34887E+02 3.17500E+00
 -1     11656 8.84097E+00 1.34887E+02 6.35000E+00
 -1     11657 1.84187E+01-1.39904E+02-7.93750E+00
 -1     11658 9.20935E+00-1.40507E+02-6.35000E+00
 -1     11659 1.80503E+01-1.37106E+02-6.35000E+00
 -1     11660 1.84187E+01-1.39904E+02-4.76250E+00
 -1     11661 9.20935E+00-1.40507E+02-3.17500E+00
 -1     11662 1.80503E+01-1.37106E+02-3.17500E+00
 -1     11663 1.84187E+01-1.39904E+02-1.58750E+00
 -1     11664 9.20935E+00-1.40507E+02 0.00000E+00
 -1     11665 1.80503E+01-1.37106E+02 0.00000E+00
 -1     11666 1.84187E+01-1.39904E+02 1.58750E+00
 -1     11667 9.20935E+00-1.40507E+02 3.17500E+00
 -1     11668 1.80503E+01-1.37106E+02 3.17500E+00
 -1     11669 1.84187E+01-1.39904E+02 4.76250E+00
 -1     11670 9.20935E+00-1.40507E+02 6.35000E+00
 -1     11671 1.80503E+01-1.37106E+02 6.35000E+00
 -1     11672 1.84187E+01-1.39904E+02 7.93750E+00
 -1     11673 3.65222E+01-1.36303E+02-7.93750E+00
 -1     11674 2.74705E+01-1.38103E+02-6.35000E+00
 -1     11675 3.57918E+01-1.33577E+02-6.35000E+00
 -1     11676 3.65222E+01-1.36303E+02-4.76250E+00
 -1     11677 2.74705E+01-1.38103E+02-3.17500E+00
 -1     11678 3.57918E+01-1.33577E+02-3.17500E+00
 -1     11679 3.65222E+01-1.36303E+02-1.58750E+00
 -1     11680 2.74705E+01-1.38103E+02 0.00000E+00
 -1     11681 3.57918E+01-1.33577E+02 0.00000E+00
 -1     11682 3.65222E+01-1.36303E+02 1.58750E+00
 -1     11683 2.74705E+01-1.38103E+02 3.17500E+00
 -1     11684 3.57918E+01-1.33577E+02 3.17500E+00
 -1     11685 3.65222E+01-1.36303E+02 4.76250E+00
 -1     11686 2.74705E+01-1.38103E+02 6.35000E+00
 -1     11687 3.57918E+01-1.33577E+02 6.35000E+00
 -1     11688 3.65222E+01-1.36303E+02 7.93750E+00
 -1     11689 5.40009E+01-1.30370E+02-7.93750E+00
 -1     11690 4.52616E+01-1.33336E+02-6.35000E+00
 -1     11691 5.29209E+01-1.27762E+02-6.35000E+00
 -1     11692 5.40009E+01-1.30370E+02-4.76250E+00
 -1     11693 4.52616E+01-1.33336E+02-3.17500E+00
 -1     11694 5.29209E+01-1.27762E+02-3.17500E+00
 -1     11695 5.40009E+01-1.30370E+02-1.58750E+00
 -1     11696 4.52616E+01-1.33336E+02 0.00000E+00
 -1     11697 5.29209E+01-1.27762E+02 0.00000E+00
 -1     11698 5.40009E+01-1.30370E+02 1.58750E+00
 -1     11699 4.52616E+01-1.33336E+02 3.17500E+00
 -1     11700 5.29209E+01-1.27762E+02 3.17500E+00
 -1     11701 5.40009E+01-1.30370E+02 4.76250E+00
 -1     11702 4.52616E+01-1.33336E+02 6.35000E+00
 -1     11703 5.29209E+01-1.27762E+02 6.35000E+00
 -1     11704 5.40009E+01-1.30370E+02 7.93750E+00
 -1     11705 7.05556E+01-1.22206E+02-7.93750E+00
 -1     11706 6.22782E+01-1.26288E+02-6.35000E+00
 -1     11707 6.91444E+01-1.19762E+02-6.35000E+00
 -1     11708 7.05556E+01-1.22206E+02-4.76250E+00
 -1     11709 6.22782E+01-1.26288E+02-3.17500E+00
 -1     11710 6.91444E+01-1.19762E+02-3.17500E+00
 -1     11711 7.05556E+01-1.22206E+02-1.58750E+00
 -1     11712 6.22782E+01-1.26288E+02 0.00000E+00
 -1     11713 6.91444E+01-1.19762E+02 0.00000E+00
 -1     11714 7.05556E+01-1.22206E+02 1.58750E+00
 -1     11715 6.22782E+01-1.26288E+02 3.17500E+00
 -1     11716 6.91444E+01-1.19762E+02 3.17500E+00
 -1     11717 7.05556E+01-1.22206E+02 4.76250E+00
 -1     11718 6.22782E+01-1.26288E+02 6.35000E+00
 -1     11719 6.91444E+01-1.19762E+02 6.35000E+00
 -1     11720 7.05556E+01-1.22206E+02 7.93750E+00
 -1     11721 8.59030E+01-1.11951E+02-7.93750E+00
 -1     11722 7.82293E+01-1.17078E+02-6.35000E+00
 -1     11723 8.41849E+01-1.09712E+02-6.35000E+00
 -1     11724 8.59030E+01-1.11951E+02-4.76250E+00
 -1     11725 7.82293E+01-1.17078E+02-3.17500E+00
 -1     11726 8.41849E+01-1.09712E+02-3.17500E+00
 -1     11727 8.59030E+01-1.11951E+02-1.58750E+00
 -1     11728 7.82293E+01-1.17078E+02 0.00000E+00
 -1     11729 8.41849E+01-1.09712E+02 0.00000E+00
 -1     11730 8.59030E+01-1.11951E+02 1.58750E+00
 -1     11731 7.82293E+01-1.17078E+02 3.17500E+00
 -1     11732 8.41849E+01-1.09712E+02 3.17500E+00
 -1     11733 8.59030E+01-1.11951E+02 4.76250E+00
 -1     11734 7.82293E+01-1.17078E+02 6.35000E+00
 -1     11735 8.41849E+01-1.09712E+02 6.35000E+00
 -1     11736 8.59030E+01-1.11951E+02 7.93750E+00
 -1     11737 9.97806E+01-9.97806E+01-7.93750E+00
 -1     11738 9.28418E+01-1.05866E+02-6.35000E+00
 -1     11739 9.77850E+01-9.77850E+01-6.35000E+00
 -1     11740 9.97806E+01-9.97806E+01-4.76250E+00
 -1     11741 9.28418E+01-1.05866E+02-3.17500E+00
 -1     11742 9.77850E+01-9.77850E+01-3.17500E+00
 -1     11743 9.97806E+01-9.97806E+01-1.58750E+00
 -1     11744 9.28418E+01-1.05866E+02 0.00000E+00
 -1     11745 9.77850E+01-9.77850E+01 0.00000E+00
 -1     11746 9.97806E+01-9.97806E+01 1.58750E+00
 -1     11747 9.28418E+01-1.05866E+02 3.17500E+00
 -1     11748 9.77850E+01-9.77850E+01 3.17500E+00
 -1     11749 9.97806E+01-9.97806E+01 4.76250E+00
 -1     11750 9.28418E+01-1.05866E+02 6.35000E+00
 -1     11751 9.77850E+01-9.77850E+01 6.35000E+00
 -1     11752 9.97806E+01-9.97806E+01 7.93750E+00
 -1     11753 1.11951E+02-8.59030E+01-7.93750E+00
 -1     11754 1.05866E+02-9.28418E+01-6.35000E+00
 -1     11755 1.09712E+02-8.41849E+01-6.35000E+00
 -1     11756 1.11951E+02-8.59030E+01-4.76250E+00
 -1     11757 1.05866E+02-9.28418E+01-3.17500E+00
 -1     11758 1.09712E+02-8.41849E+01-3.17500E+00
 -1     11759 1.11951E+02-8.59030E+01-1.58750E+00
 -1     11760 1.05866E+02-9.28418E+01 0.00000E+00
 -1     11761 1.09712E+02-8.41849E+01 0.00000E+00
 -1     11762 1.11951E+02-8.59030E+01 1.58750E+00
 -1     11763 1.05866E+02-9.28418E+01 3.17500E+00
 -1     11764 1.09712E+02-8.41849E+01 3.17500E+00
 -1     11765 1.11951E+02-8.59030E+01 4.76250E+00
 -1     11766 1.05866E+02-9.28418E+01 6.35000E+00
 -1     11767 1.09712E+02-8.41849E+01 6.35000E+00
 -1     11768 1.11951E+02-8.59030E+01 7.93750E+00
 -1     11769 1.22206E+02-7.05556E+01-7.93750E+00
 -1     11770 1.17078E+02-7.82293E+01-6.35000E+00
 -1     11771 1.19762E+02-6.91444E+01-6.35000E+00
 -1     11772 1.22206E+02-7.05556E+01-4.76250E+00
 -1     11773 1.17078E+02-7.82293E+01-3.17500E+00
 -1     11774 1.19762E+02-6.91444E+01-3.17500E+00
 -1     11775 1.22206E+02-7.05556E+01-1.58750E+00
 -1     11776 1.17078E+02-7.82293E+01 0.00000E+00
 -1     11777 1.19762E+02-6.91444E+01 0.00000E+00
 -1     11778 1.22206E+02-7.05556E+01 1.58750E+00
 -1     11779 1.17078E+02-7.82293E+01 3.17500E+00
 -1     11780 1.19762E+02-6.91444E+01 3.17500E+00
 -1     11781 1.22206E+02-7.05556E+01 4.76250E+00
 -1     11782 1.17078E+02-7.82293E+01 6.35000E+00
 -1     11783 1.19762E+02-6.91444E+01 6.35000E+00
 -1     11784 1.22206E+02-7.05556E+01 7.93750E+00
 -1     11785 1.30370E+02-5.40009E+01-7.93750E+00
 -1     11786 1.26288E+02-6.22782E+01-6.35000E+00
 -1     11787 1.27762E+02-5.29209E+01-6.35000E+00
 -1     11788 1.30370E+02-5.40009E+01-4.76250E+00
 -1     11789 1.26288E+02-6.22782E+01-3.17500E+00
 -1     11790 1.27762E+02-5.29209E+01-3.17500E+00
 -1     11791 1.30370E+02-5.40009E+01-1.58750E+00
 -1     11792 1.26288E+02-6.22782E+01 0.00000E+00
 -1     11793 1.27762E+02-5.29209E+01 0.00000E+00
 -1     11794 1.30370E+02-5.40009E+01 1.58750E+00
 -1     11795 1.26288E+02-6.22782E+01 3.17500E+00
 -1     11796 1.27762E+02-5.29209E+01 3.17500E+00
 -1     11797 1.30370E+02-5.40009E+01 4.76250E+00
 -1     11798 1.26288E+02-6.22782E+01 6.35000E+00
 -1     11799 1.27762E+02-5.29209E+01 6.35000E+00
 -1     11800 1.30370E+02-5.40009E+01 7.93750E+00
 -1     11801 1.36303E+02-3.65222E+01-7.93750E+00
 -1     11802 1.33336E+02-4.52616E+01-6.35000E+00
 -1     11803 1.33577E+02-3.57918E+01-6.35000E+00
 -1     11804 1.36303E+02-3.65222E+01-4.76250E+00
 -1     11805 1.33336E+02-4.52616E+01-3.17500E+00
 -1     11806 1.33577E+02-3.57918E+01-3.17500E+00
 -1     11807 1.36303E+02-3.65222E+01-1.58750E+00
 -1     11808 1.33336E+02-4.52616E+01 0.00000E+00
 -1     11809 1.33577E+02-3.57918E+01 0.00000E+00
 -1     11810 1.36303E+02-3.65222E+01 1.58750E+00
 -1     11811 1.33336E+02-4.52616E+01 3.17500E+00
 -1     11812 1.33577E+02-3.57918E+01 3.17500E+00
 -1     11813 1.36303E+02-3.65222E+01 4.76250E+00
 -1     11814 1.33336E+02-4.52616E+01 6.35000E+00
 -1     11815 1.33577E+02-3.57918E+01 6.35000E+00
 -1     11816 1.36303E+02-3.65222E+01 7.93750E+00
 -1     11817 1.39904E+02-1.84187E+01-7.93750E+00
 -1     11818 1.38103E+02-2.74705E+01-6.35000E+00
 -1     11819 1.37106E+02-1.80503E+01-6.35000E+00
 -1     11820 1.39904E+02-1.84187E+01-4.76250E+00
 -1     11821 1.38103E+02-2.74705E+01-3.17500E+00
 -1     11822 1.37106E+02-1.80503E+01-3.17500E+00
 -1     11823 1.39904E+02-1.84187E+01-1.58750E+00
 -1     11824 1.38103E+02-2.74705E+01 0.00000E+00
 -1     11825 1.37106E+02-1.80503E+01 0.00000E+00
 -1     11826 1.39904E+02-1.84187E+01 1.58750E+00
 -1     11827 1.38103E+02-2.74705E+01 3.17500E+00
 -1     11828 1.37106E+02-1.80503E+01 3.17500E+00
 -1     11829 1.39904E+02-1.84187E+01 4.76250E+00
 -1     11830 1.38103E+02-2.74705E+01 6.35000E+00
 -1     11831 1.37106E+02-1.80503E+01 6.35000E+00
 -1     11832 1.39904E+02-1.84187E+01 7.93750E+00
 -1     11833 1.41111E+02 6.48959E-07-7.93750E+00
 -1     11834 1.40507E+02-9.20935E+00-6.35000E+00
 -1     11835 1.38289E+02 6.36178E-07-6.35000E+00
 -1     11836 1.41111E+02 6.48959E-07-4.76250E+00
 -1     11837 1.40507E+02-9.20935E+00-3.17500E+00
 -1     11838 1.38289E+02 6.36178E-07-3.17500E+00
 -1     11839 1.41111E+02 6.48959E-07-1.58750E+00
 -1     11840 1.40507E+02-9.20935E+00 0.00000E+00
 -1     11841 1.38289E+02 6.36178E-07 0.00000E+00
 -1     11842 1.41111E+02 6.48959E-07 1.58750E+00
 -1     11843 1.40507E+02-9.20935E+00 3.17500E+00
 -1     11844 1.38289E+02 6.36178E-07 3.17500E+00
 -1     11845 1.41111E+02 6.48959E-07 4.76250E+00
 -1     11846 1.40507E+02-9.20935E+00 6.35000E+00
 -1     11847 1.38289E+02 6.36178E-07 6.35000E+00
 -1     11848 1.41111E+02 6.48959E-07 7.93750E+00
 -1     11849 1.39904E+02 1.84187E+01-7.93750E+00
 -1     11850 1.40507E+02 9.20935E+00-6.35000E+00
 -1     11851 1.37106E+02 1.80503E+01-6.35000E+00
 -1     11852 1.39904E+02 1.84187E+01-4.76250E+00
 -1     11853 1.40507E+02 9.20935E+00-3.17500E+00
 -1     11854 1.37106E+02 1.80503E+01-3.17500E+00
 -1     11855 1.39904E+02 1.84187E+01-1.58750E+00
 -1     11856 1.40507E+02 9.20935E+00 0.00000E+00
 -1     11857 1.37106E+02 1.80503E+01 0.00000E+00
 -1     11858 1.39904E+02 1.84187E+01 1.58750E+00
 -1     11859 1.40507E+02 9.20935E+00 3.17500E+00
 -1     11860 1.37106E+02 1.80503E+01 3.17500E+00
 -1     11861 1.39904E+02 1.84187E+01 4.76250E+00
 -1     11862 1.40507E+02 9.20935E+00 6.35000E+00
 -1     11863 1.37106E+02 1.80503E+01 6.35000E+00
 -1     11864 1.39904E+02 1.84187E+01 7.93750E+00
 -1     11865 1.36303E+02 3.65222E+01-7.93750E+00
 -1     11866 1.38103E+02 2.74705E+01-6.35000E+00
 -1     11867 1.33577E+02 3.57918E+01-6.35000E+00
 -1     11868 1.36303E+02 3.65222E+01-4.76250E+00
 -1     11869 1.38103E+02 2.74705E+01-3.17500E+00
 -1     11870 1.33577E+02 3.57918E+01-3.17500E+00
 -1     11871 1.36303E+02 3.65222E+01-1.58750E+00
 -1     11872 1.38103E+02 2.74705E+01 0.00000E+00
 -1     11873 1.33577E+02 3.57918E+01 0.00000E+00
 -1     11874 1.36303E+02 3.65222E+01 1.58750E+00
 -1     11875 1.38103E+02 2.74705E+01 3.17500E+00
 -1     11876 1.33577E+02 3.57918E+01 3.17500E+00
 -1     11877 1.36303E+02 3.65222E+01 4.76250E+00
 -1     11878 1.38103E+02 2.74705E+01 6.35000E+00
 -1     11879 1.33577E+02 3.57918E+01 6.35000E+00
 -1     11880 1.36303E+02 3.65222E+01 7.93750E+00
 -1     11881 1.30370E+02 5.40009E+01-7.93750E+00
 -1     11882 1.33336E+02 4.52616E+01-6.35000E+00
 -1     11883 1.27762E+02 5.29209E+01-6.35000E+00
 -1     11884 1.30370E+02 5.40009E+01-4.76250E+00
 -1     11885 1.33336E+02 4.52616E+01-3.17500E+00
 -1     11886 1.27762E+02 5.29209E+01-3.17500E+00
 -1     11887 1.30370E+02 5.40009E+01-1.58750E+00
 -1     11888 1.33336E+02 4.52616E+01 0.00000E+00
 -1     11889 1.27762E+02 5.29209E+01 0.00000E+00
 -1     11890 1.30370E+02 5.40009E+01 1.58750E+00
 -1     11891 1.33336E+02 4.52616E+01 3.17500E+00
 -1     11892 1.27762E+02 5.29209E+01 3.17500E+00
 -1     11893 1.30370E+02 5.40009E+01 4.76250E+00
 -1     11894 1.33336E+02 4.52616E+01 6.35000E+00
 -1     11895 1.27762E+02 5.29209E+01 6.35000E+00
 -1     11896 1.30370E+02 5.40009E+01 7.93750E+00
 -1     11897 1.22206E+02 7.05556E+01-7.93750E+00
 -1     11898 1.26288E+02 6.22782E+01-6.35000E+00
 -1     11899 1.19762E+02 6.91444E+01-6.35000E+00
 -1     11900 1.22206E+02 7.05556E+01-4.76250E+00
 -1     11901 1.26288E+02 6.22782E+01-3.17500E+00
 -1     11902 1.19762E+02 6.91444E+01-3.17500E+00
 -1     11903 1.22206E+02 7.05556E+01-1.58750E+00
 -1     11904 1.26288E+02 6.22782E+01 0.00000E+00
 -1     11905 1.19762E+02 6.91444E+01 0.00000E+00
 -1     11906 1.22206E+02 7.05556E+01 1.58750E+00
 -1     11907 1.26288E+02 6.22782E+01 3.17500E+00
 -1     11908 1.19762E+02 6.91444E+01 3.17500E+00
 -1     11909 1.22206E+02 7.05556E+01 4.76250E+00
 -1     11910 1.26288E+02 6.22782E+01 6.35000E+00
 -1     11911 1.19762E+02 6.91444E+01 6.35000E+00
 -1     11912 1.22206E+02 7.05556E+01 7.93750E+00
 -1     11913 1.11951E+02 8.59030E+01-7.93750E+00
 -1     11914 1.17078E+02 7.82293E+01-6.35000E+00
 -1     11915 1.09712E+02 8.41849E+01-6.35000E+00
 -1     11916 1.11951E+02 8.59030E+01-4.76250E+00
 -1     11917 1.17078E+02 7.82293E+01-3.17500E+00
 -1     11918 1.09712E+02 8.41849E+01-3.17500E+00
 -1     11919 1.11951E+02 8.59030E+01-1.58750E+00
 -1     11920 1.17078E+02 7.82293E+01 0.00000E+00
 -1     11921 1.09712E+02 8.41849E+01 0.00000E+00
 -1     11922 1.11951E+02 8.59030E+01 1.58750E+00
 -1     11923 1.17078E+02 7.82293E+01 3.17500E+00
 -1     11924 1.09712E+02 8.41849E+01 3.17500E+00
 -1     11925 1.11951E+02 8.59030E+01 4.76250E+00
 -1     11926 1.17078E+02 7.82293E+01 6.35000E+00
 -1     11927 1.09712E+02 8.41849E+01 6.35000E+00
 -1     11928 1.11951E+02 8.59030E+01 7.93750E+00
 -1     11929 9.97806E+01 9.97806E+01-7.93750E+00
 -1     11930 1.05866E+02 9.28418E+01-6.35000E+00
 -1     11931 9.77850E+01 9.77850E+01-6.35000E+00
 -1     11932 9.97806E+01 9.97806E+01-4.76250E+00
 -1     11933 1.05866E+02 9.28418E+01-3.17500E+00
 -1     11934 9.77850E+01 9.77850E+01-3.17500E+00
 -1     11935 9.97806E+01 9.97806E+01-1.58750E+00
 -1     11936 1.05866E+02 9.28418E+01 0.00000E+00
 -1     11937 9.77850E+01 9.77850E+01 0.00000E+00
 -1     11938 9.97806E+01 9.97806E+01 1.58750E+00
 -1     11939 1.05866E+02 9.28418E+01 3.17500E+00
 -1     11940 9.77850E+01 9.77850E+01 3.17500E+00
 -1     11941 9.97806E+01 9.97806E+01 4.76250E+00
 -1     11942 1.05866E+02 9.28418E+01 6.35000E+00
 -1     11943 9.77850E+01 9.77850E+01 6.35000E+00
 -1     11944 9.97806E+01 9.97806E+01 7.93750E+00
 -1     11945 8.59030E+01 1.11951E+02-7.93750E+00
 -1     11946 9.28418E+01 1.05866E+02-6.35000E+00
 -1     11947 8.41849E+01 1.09712E+02-6.35000E+00
 -1     11948 8.59030E+01 1.11951E+02-4.76250E+00
 -1     11949 9.28418E+01 1.05866E+02-3.17500E+00
 -1     11950 8.41849E+01 1.09712E+02-3.17500E+00
 -1     11951 8.59030E+01 1.11951E+02-1.58750E+00
 -1     11952 9.28418E+01 1.05866E+02 0.00000E+00
 -1     11953 8.41849E+01 1.09712E+02 0.00000E+00
 -1     11954 8.59030E+01 1.11951E+02 1.58750E+00
 -1     11955 9.28418E+01 1.05866E+02 3.17500E+00
 -1     11956 8.41849E+01 1.09712E+02 3.17500E+00
 -1     11957 8.59030E+01 1.11951E+02 4.76250E+00
 -1     11958 9.28418E+01 1.05866E+02 6.35000E+00
 -1     11959 8.41849E+01 1.09712E+02 6.35000E+00
 -1     11960 8.59030E+01 1.11951E+02 7.93750E+00
 -1     11961 7.05556E+01 1.22206E+02-7.93750E+00
 -1     11962 7.82293E+01 1.17078E+02-6.35000E+00
 -1     11963 6.91444E+01 1.19762E+02-6.35000E+00
 -1     11964 7.05556E+01 1.22206E+02-4.76250E+00
 -1     11965 7.82293E+01 1.17078E+02-3.17500E+00
 -1     11966 6.91444E+01 1.19762E+02-3.17500E+00
 -1     11967 7.05556E+01 1.22206E+02-1.58750E+00
 -1     11968 7.82293E+01 1.17078E+02 0.00000E+00
 -1     11969 6.91444E+01 1.19762E+02 0.00000E+00
 -1     11970 7.05556E+01 1.22206E+02 1.58750E+00
 -1     11971 7.82293E+01 1.17078E+02 3.17500E+00
 -1     11972 6.91444E+01 1.19762E+02 3.17500E+00
 -1     11973 7.05556E+01 1.22206E+02 4.76250E+00
 -1     11974 7.82293E+01 1.17078E+02 6.35000E+00
 -1     11975 6.91444E+01 1.19762E+02 6.35000E+00
 -1     11976 7.05556E+01 1.22206E+02 7.93750E+00
 -1     11977 5.40009E+01 1.30370E+02-7.93750E+00
 -1     11978 6.22782E+01 1.26288E+02-6.35000E+00
 -1     11979 5.29209E+01 1.27762E+02-6.35000E+00
 -1     11980 5.40009E+01 1.30370E+02-4.76250E+00
 -1     11981 6.22782E+01 1.26288E+02-3.17500E+00
 -1     11982 5.29209E+01 1.27762E+02-3.17500E+00
 -1     11983 5.40009E+01 1.30370E+02-1.58750E+00
 -1     11984 6.22782E+01 1.26288E+02 0.00000E+00
 -1     11985 5.29209E+01 1.27762E+02 0.00000E+00
 -1     11986 5.40009E+01 1.30370E+02 1.58750E+00
 -1     11987 6.22782E+01 1.26288E+02 3.17500E+00
 -1     11988 5.29209E+01 1.27762E+02 3.17500E+00
 -1     11989 5.40009E+01 1.30370E+02 4.76250E+00
 -1     11990 6.22782E+01 1.26288E+02 6.35000E+00
 -1     11991 5.29209E+01 1.27762E+02 6.35000E+00
 -1     11992 5.40009E+01 1.30370E+02 7.93750E+00
 -1     11993 3.65222E+01 1.36303E+02-7.93750E+00
 -1     11994 4.52616E+01 1.33336E+02-6.35000E+00
 -1     11995 3.57918E+01 1.33577E+02-6.35000E+00
 -1     11996 3.65222E+01 1.36303E+02-4.76250E+00
 -1     11997 4.52616E+01 1.33336E+02-3.17500E+00
 -1     11998 3.57918E+01 1.33577E+02-3.17500E+00
 -1     11999 3.65222E+01 1.36303E+02-1.58750E+00
 -1     12000 4.52616E+01 1.33336E+02 0.00000E+00
 -1     12001 3.57918E+01 1.33577E+02 0.00000E+00
 -1     12002 3.65222E+01 1.36303E+02 1.58750E+00
 -1     12003 4.52616E+01 1.33336E+02 3.17500E+00
 -1     12004 3.57918E+01 1.33577E+02 3.17500E+00
 -1     12005 3.65222E+01 1.36303E+02 4.76250E+00
 -1     12006 4.52616E+01 1.33336E+02 6.35000E+00
 -1     12007 3.57918E+01 1.33577E+02 6.35000E+00
 -1     12008 3.65222E+01 1.36303E+02 7.93750E+00
 -1     12009 1.84187E+01 1.39904E+02-7.93750E+00
 -1     12010 2.74705E+01 1.38103E+02-6.35000E+00
 -1     12011 1.80503E+01 1.37106E+02-6.35000E+00
 -1     12012 1.84187E+01 1.39904E+02-4.76250E+00
 -1     12013 2.74705E+01 1.38103E+02-3.17500E+00
 -1     12014 1.80503E+01 1.37106E+02-3.17500E+00
 -1     12015 1.84187E+01 1.39904E+02-1.58750E+00
 -1     12016 2.74705E+01 1.38103E+02 0.00000E+00
 -1     12017 1.80503E+01 1.37106E+02 0.00000E+00
 -1     12018 1.84187E+01 1.39904E+02 1.58750E+00
 -1     12019 2.74705E+01 1.38103E+02 3.17500E+00
 -1     12020 1.80503E+01 1.37106E+02 3.17500E+00
 -1     12021 1.84187E+01 1.39904E+02 4.76250E+00
 -1     12022 2.74705E+01 1.38103E+02 6.35000E+00
 -1     12023 1.80503E+01 1.37106E+02 6.35000E+00
 -1     12024 1.84187E+01 1.39904E+02 7.93750E+00
 -1     12025 9.20935E+00 1.40507E+02-6.35000E+00
 -1     12026 9.20935E+00 1.40507E+02-3.17500E+00
 -1     12027 9.20935E+00 1.40507E+02 0.00000E+00
 -1     12028 9.20935E+00 1.40507E+02 3.17500E+00
 -1     12029 9.20935E+00 1.40507E+02 6.35000E+00
 -1     12030 1.91554E+01-1.45500E+02-7.93750E+00
 -1     12031 9.57772E+00-1.46128E+02-6.35000E+00
 -1     12032 1.87871E+01-1.42702E+02-6.35000E+00
 -1     12033 1.91554E+01-1.45500E+02-4.76250E+00
 -1     12034 9.57772E+00-1.46128E+02-3.17500E+00
 -1     12035 1.87871E+01-1.42702E+02-3.17500E+00
 -1     12036 1.91554E+01-1.45500E+02-1.58750E+00
 -1     12037 9.57772E+00-1.46128E+02 0.00000E+00
 -1     12038 1.87871E+01-1.42702E+02 0.00000E+00
 -1     12039 1.91554E+01-1.45500E+02 1.58750E+00
 -1     12040 9.57772E+00-1.46128E+02 3.17500E+00
 -1     12041 1.87871E+01-1.42702E+02 3.17500E+00
 -1     12042 1.91554E+01-1.45500E+02 4.76250E+00
 -1     12043 9.57772E+00-1.46128E+02 6.35000E+00
 -1     12044 1.87871E+01-1.42702E+02 6.35000E+00
 -1     12045 1.91554E+01-1.45500E+02 7.93750E+00
 -1     12046 3.79831E+01-1.41755E+02-7.93750E+00
 -1     12047 2.85693E+01-1.43628E+02-6.35000E+00
 -1     12048 3.72527E+01-1.39029E+02-6.35000E+00
 -1     12049 3.79831E+01-1.41755E+02-4.76250E+00
 -1     12050 2.85693E+01-1.43628E+02-3.17500E+00
 -1     12051 3.72527E+01-1.39029E+02-3.17500E+00
 -1     12052 3.79831E+01-1.41755E+02-1.58750E+00
 -1     12053 2.85693E+01-1.43628E+02 0.00000E+00
 -1     12054 3.72527E+01-1.39029E+02 0.00000E+00
 -1     12055 3.79831E+01-1.41755E+02 1.58750E+00
 -1     12056 2.85693E+01-1.43628E+02 3.17500E+00
 -1     12057 3.72527E+01-1.39029E+02 3.17500E+00
 -1     12058 3.79831E+01-1.41755E+02 4.76250E+00
 -1     12059 2.85693E+01-1.43628E+02 6.35000E+00
 -1     12060 3.72527E+01-1.39029E+02 6.35000E+00
 -1     12061 3.79831E+01-1.41755E+02 7.93750E+00
 -1     12062 5.61609E+01-1.35584E+02-7.93750E+00
 -1     12063 4.70720E+01-1.38670E+02-6.35000E+00
 -1     12064 5.50809E+01-1.32977E+02-6.35000E+00
 -1     12065 5.61609E+01-1.35584E+02-4.76250E+00
 -1     12066 4.70720E+01-1.38670E+02-3.17500E+00
 -1     12067 5.50809E+01-1.32977E+02-3.17500E+00
 -1     12068 5.61609E+01-1.35584E+02-1.58750E+00
 -1     12069 4.70720E+01-1.38670E+02 0.00000E+00
 -1     12070 5.50809E+01-1.32977E+02 0.00000E+00
 -1     12071 5.61609E+01-1.35584E+02 1.58750E+00
 -1     12072 4.70720E+01-1.38670E+02 3.17500E+00
 -1     12073 5.50809E+01-1.32977E+02 3.17500E+00
 -1     12074 5.61609E+01-1.35584E+02 4.76250E+00
 -1     12075 4.70720E+01-1.38670E+02 6.35000E+00
 -1     12076 5.50809E+01-1.32977E+02 6.35000E+00
 -1     12077 5.61609E+01-1.35584E+02 7.93750E+00
 -1     12078 7.33778E+01-1.27094E+02-7.93750E+00
 -1     12079 6.47693E+01-1.31339E+02-6.35000E+00
 -1     12080 7.19667E+01-1.24650E+02-6.35000E+00
 -1     12081 7.33778E+01-1.27094E+02-4.76250E+00
 -1     12082 6.47693E+01-1.31339E+02-3.17500E+00
 -1     12083 7.19667E+01-1.24650E+02-3.17500E+00
 -1     12084 7.33778E+01-1.27094E+02-1.58750E+00
 -1     12085 6.47693E+01-1.31339E+02 0.00000E+00
 -1     12086 7.19667E+01-1.24650E+02 0.00000E+00
 -1     12087 7.33778E+01-1.27094E+02 1.58750E+00
 -1     12088 6.47693E+01-1.31339E+02 3.17500E+00
 -1     12089 7.19667E+01-1.24650E+02 3.17500E+00
 -1     12090 7.33778E+01-1.27094E+02 4.76250E+00
 -1     12091 6.47693E+01-1.31339E+02 6.35000E+00
 -1     12092 7.19667E+01-1.24650E+02 6.35000E+00
 -1     12093 7.33778E+01-1.27094E+02 7.93750E+00
 -1     12094 8.93391E+01-1.16429E+02-7.93750E+00
 -1     12095 8.13585E+01-1.21762E+02-6.35000E+00
 -1     12096 8.76211E+01-1.14190E+02-6.35000E+00
 -1     12097 8.93391E+01-1.16429E+02-4.76250E+00
 -1     12098 8.13585E+01-1.21762E+02-3.17500E+00
 -1     12099 8.76211E+01-1.14190E+02-3.17500E+00
 -1     12100 8.93391E+01-1.16429E+02-1.58750E+00
 -1     12101 8.13585E+01-1.21762E+02 0.00000E+00
 -1     12102 8.76211E+01-1.14190E+02 0.00000E+00
 -1     12103 8.93391E+01-1.16429E+02 1.58750E+00
 -1     12104 8.13585E+01-1.21762E+02 3.17500E+00
 -1     12105 8.76211E+01-1.14190E+02 3.17500E+00
 -1     12106 8.93391E+01-1.16429E+02 4.76250E+00
 -1     12107 8.13585E+01-1.21762E+02 6.35000E+00
 -1     12108 8.76211E+01-1.14190E+02 6.35000E+00
 -1     12109 8.93391E+01-1.16429E+02 7.93750E+00
 -1     12110 1.03772E+02-1.03772E+02-7.93750E+00
 -1     12111 9.65555E+01-1.10100E+02-6.35000E+00
 -1     12112 1.01776E+02-1.01776E+02-6.35000E+00
 -1     12113 1.03772E+02-1.03772E+02-4.76250E+00
 -1     12114 9.65555E+01-1.10100E+02-3.17500E+00
 -1     12115 1.01776E+02-1.01776E+02-3.17500E+00
 -1     12116 1.03772E+02-1.03772E+02-1.58750E+00
 -1     12117 9.65555E+01-1.10100E+02 0.00000E+00
 -1     12118 1.01776E+02-1.01776E+02 0.00000E+00
 -1     12119 1.03772E+02-1.03772E+02 1.58750E+00
 -1     12120 9.65555E+01-1.10100E+02 3.17500E+00
 -1     12121 1.01776E+02-1.01776E+02 3.17500E+00
 -1     12122 1.03772E+02-1.03772E+02 4.76250E+00
 -1     12123 9.65555E+01-1.10100E+02 6.35000E+00
 -1     12124 1.01776E+02-1.01776E+02 6.35000E+00
 -1     12125 1.03772E+02-1.03772E+02 7.93750E+00
 -1     12126 1.16429E+02-8.93391E+01-7.93750E+00
 -1     12127 1.10100E+02-9.65555E+01-6.35000E+00
 -1     12128 1.14190E+02-8.76211E+01-6.35000E+00
 -1     12129 1.16429E+02-8.93391E+01-4.76250E+00
 -1     12130 1.10100E+02-9.65555E+01-3.17500E+00
 -1     12131 1.14190E+02-8.76211E+01-3.17500E+00
 -1     12132 1.16429E+02-8.93391E+01-1.58750E+00
 -1     12133 1.10100E+02-9.65555E+01 0.00000E+00
 -1     12134 1.14190E+02-8.76211E+01 0.00000E+00
 -1     12135 1.16429E+02-8.93391E+01 1.58750E+00
 -1     12136 1.10100E+02-9.65555E+01 3.17500E+00
 -1     12137 1.14190E+02-8.76211E+01 3.17500E+00
 -1     12138 1.16429E+02-8.93391E+01 4.76250E+00
 -1     12139 1.10100E+02-9.65555E+01 6.35000E+00
 -1     12140 1.14190E+02-8.76211E+01 6.35000E+00
 -1     12141 1.16429E+02-8.93391E+01 7.93750E+00
 -1     12142 1.27094E+02-7.33778E+01-7.93750E+00
 -1     12143 1.21762E+02-8.13585E+01-6.35000E+00
 -1     12144 1.24650E+02-7.19667E+01-6.35000E+00
 -1     12145 1.27094E+02-7.33778E+01-4.76250E+00
 -1     12146 1.21762E+02-8.13585E+01-3.17500E+00
 -1     12147 1.24650E+02-7.19667E+01-3.17500E+00
 -1     12148 1.27094E+02-7.33778E+01-1.58750E+00
 -1     12149 1.21762E+02-8.13585E+01 0.00000E+00
 -1     12150 1.24650E+02-7.19667E+01 0.00000E+00
 -1     12151 1.27094E+02-7.33778E+01 1.58750E+00
 -1     12152 1.21762E+02-8.13585E+01 3.17500E+00
 -1     12153 1.24650E+02-7.19667E+01 3.17500E+00
 -1     12154 1.27094E+02-7.33778E+01 4.76250E+00
 -1     12155 1.21762E+02-8.13585E+01 6.35000E+00
 -1     12156 1.24650E+02-7.19667E+01 6.35000E+00
 -1     12157 1.27094E+02-7.33778E+01 7.93750E+00
 -1     12158 1.35584E+02-5.61609E+01-7.93750E+00
 -1     12159 1.31339E+02-6.47693E+01-6.35000E+00
 -1     12160 1.32977E+02-5.50809E+01-6.35000E+00
 -1     12161 1.35584E+02-5.61609E+01-4.76250E+00
 -1     12162 1.31339E+02-6.47693E+01-3.17500E+00
 -1     12163 1.32977E+02-5.50809E+01-3.17500E+00
 -1     12164 1.35584E+02-5.61609E+01-1.58750E+00
 -1     12165 1.31339E+02-6.47693E+01 0.00000E+00
 -1     12166 1.32977E+02-5.50809E+01 0.00000E+00
 -1     12167 1.35584E+02-5.61609E+01 1.58750E+00
 -1     12168 1.31339E+02-6.47693E+01 3.17500E+00
 -1     12169 1.32977E+02-5.50809E+01 3.17500E+00
 -1     12170 1.35584E+02-5.61609E+01 4.76250E+00
 -1     12171 1.31339E+02-6.47693E+01 6.35000E+00
 -1     12172 1.32977E+02-5.50809E+01 6.35000E+00
 -1     12173 1.35584E+02-5.61609E+01 7.93750E+00
 -1     12174 1.41755E+02-3.79831E+01-7.93750E+00
 -1     12175 1.38670E+02-4.70720E+01-6.35000E+00
 -1     12176 1.39029E+02-3.72527E+01-6.35000E+00
 -1     12177 1.41755E+02-3.79831E+01-4.76250E+00
 -1     12178 1.38670E+02-4.70720E+01-3.17500E+00
 -1     12179 1.39029E+02-3.72527E+01-3.17500E+00
 -1     12180 1.41755E+02-3.79831E+01-1.58750E+00
 -1     12181 1.38670E+02-4.70720E+01 0.00000E+00
 -1     12182 1.39029E+02-3.72527E+01 0.00000E+00
 -1     12183 1.41755E+02-3.79831E+01 1.58750E+00
 -1     12184 1.38670E+02-4.70720E+01 3.17500E+00
 -1     12185 1.39029E+02-3.72527E+01 3.17500E+00
 -1     12186 1.41755E+02-3.79831E+01 4.76250E+00
 -1     12187 1.38670E+02-4.70720E+01 6.35000E+00
 -1     12188 1.39029E+02-3.72527E+01 6.35000E+00
 -1     12189 1.41755E+02-3.79831E+01 7.93750E+00
 -1     12190 1.45500E+02-1.91554E+01-7.93750E+00
 -1     12191 1.43628E+02-2.85693E+01-6.35000E+00
 -1     12192 1.42702E+02-1.87871E+01-6.35000E+00
 -1     12193 1.45500E+02-1.91554E+01-4.76250E+00
 -1     12194 1.43628E+02-2.85693E+01-3.17500E+00
 -1     12195 1.42702E+02-1.87871E+01-3.17500E+00
 -1     12196 1.45500E+02-1.91554E+01-1.58750E+00
 -1     12197 1.43628E+02-2.85693E+01 0.00000E+00
 -1     12198 1.42702E+02-1.87871E+01 0.00000E+00
 -1     12199 1.45500E+02-1.91554E+01 1.58750E+00
 -1     12200 1.43628E+02-2.85693E+01 3.17500E+00
 -1     12201 1.42702E+02-1.87871E+01 3.17500E+00
 -1     12202 1.45500E+02-1.91554E+01 4.76250E+00
 -1     12203 1.43628E+02-2.85693E+01 6.35000E+00
 -1     12204 1.42702E+02-1.87871E+01 6.35000E+00
 -1     12205 1.45500E+02-1.91554E+01 7.93750E+00
 -1     12206 1.46756E+02 6.74529E-07-7.93750E+00
 -1     12207 1.46128E+02-9.57772E+00-6.35000E+00
 -1     12208 1.43933E+02 6.61744E-07-6.35000E+00
 -1     12209 1.46756E+02 6.74529E-07-4.76250E+00
 -1     12210 1.46128E+02-9.57772E+00-3.17500E+00
 -1     12211 1.43933E+02 6.61744E-07-3.17500E+00
 -1     12212 1.46756E+02 6.74529E-07-1.58750E+00
 -1     12213 1.46128E+02-9.57772E+00 0.00000E+00
 -1     12214 1.43933E+02 6.61744E-07 0.00000E+00
 -1     12215 1.46756E+02 6.74529E-07 1.58750E+00
 -1     12216 1.46128E+02-9.57772E+00 3.17500E+00
 -1     12217 1.43933E+02 6.61744E-07 3.17500E+00
 -1     12218 1.46756E+02 6.74529E-07 4.76250E+00
 -1     12219 1.46128E+02-9.57772E+00 6.35000E+00
 -1     12220 1.43933E+02 6.61744E-07 6.35000E+00
 -1     12221 1.46756E+02 6.74529E-07 7.93750E+00
 -1     12222 1.45500E+02 1.91554E+01-7.93750E+00
 -1     12223 1.46128E+02 9.57772E+00-6.35000E+00
 -1     12224 1.42702E+02 1.87871E+01-6.35000E+00
 -1     12225 1.45500E+02 1.91554E+01-4.76250E+00
 -1     12226 1.46128E+02 9.57772E+00-3.17500E+00
 -1     12227 1.42702E+02 1.87871E+01-3.17500E+00
 -1     12228 1.45500E+02 1.91554E+01-1.58750E+00
 -1     12229 1.46128E+02 9.57772E+00 0.00000E+00
 -1     12230 1.42702E+02 1.87871E+01 0.00000E+00
 -1     12231 1.45500E+02 1.91554E+01 1.58750E+00
 -1     12232 1.46128E+02 9.57772E+00 3.17500E+00
 -1     12233 1.42702E+02 1.87871E+01 3.17500E+00
 -1     12234 1.45500E+02 1.91554E+01 4.76250E+00
 -1     12235 1.46128E+02 9.57772E+00 6.35000E+00
 -1     12236 1.42702E+02 1.87871E+01 6.35000E+00
 -1     12237 1.45500E+02 1.91554E+01 7.93750E+00
 -1     12238 1.41755E+02 3.79831E+01-7.93750E+00
 -1     12239 1.43628E+02 2.85693E+01-6.35000E+00
 -1     12240 1.39029E+02 3.72527E+01-6.35000E+00
 -1     12241 1.41755E+02 3.79831E+01-4.76250E+00
 -1     12242 1.43628E+02 2.85693E+01-3.17500E+00
 -1     12243 1.39029E+02 3.72527E+01-3.17500E+00
 -1     12244 1.41755E+02 3.79831E+01-1.58750E+00
 -1     12245 1.43628E+02 2.85693E+01 0.00000E+00
 -1     12246 1.39029E+02 3.72527E+01 0.00000E+00
 -1     12247 1.41755E+02 3.79831E+01 1.58750E+00
 -1     12248 1.43628E+02 2.85693E+01 3.17500E+00
 -1     12249 1.39029E+02 3.72527E+01 3.17500E+00
 -1     12250 1.41755E+02 3.79831E+01 4.76250E+00
 -1     12251 1.43628E+02 2.85693E+01 6.35000E+00
 -1     12252 1.39029E+02 3.72527E+01 6.35000E+00
 -1     12253 1.41755E+02 3.79831E+01 7.93750E+00
 -1     12254 1.35584E+02 5.61609E+01-7.93750E+00
 -1     12255 1.38670E+02 4.70720E+01-6.35000E+00
 -1     12256 1.32977E+02 5.50809E+01-6.35000E+00
 -1     12257 1.35584E+02 5.61609E+01-4.76250E+00
 -1     12258 1.38670E+02 4.70720E+01-3.17500E+00
 -1     12259 1.32977E+02 5.50809E+01-3.17500E+00
 -1     12260 1.35584E+02 5.61609E+01-1.58750E+00
 -1     12261 1.38670E+02 4.70720E+01 0.00000E+00
 -1     12262 1.32977E+02 5.50809E+01 0.00000E+00
 -1     12263 1.35584E+02 5.61609E+01 1.58750E+00
 -1     12264 1.38670E+02 4.70720E+01 3.17500E+00
 -1     12265 1.32977E+02 5.50809E+01 3.17500E+00
 -1     12266 1.35584E+02 5.61609E+01 4.76250E+00
 -1     12267 1.38670E+02 4.70720E+01 6.35000E+00
 -1     12268 1.32977E+02 5.50809E+01 6.35000E+00
 -1     12269 1.35584E+02 5.61609E+01 7.93750E+00
 -1     12270 1.27094E+02 7.33778E+01-7.93750E+00
 -1     12271 1.31339E+02 6.47693E+01-6.35000E+00
 -1     12272 1.24650E+02 7.19667E+01-6.35000E+00
 -1     12273 1.27094E+02 7.33778E+01-4.76250E+00
 -1     12274 1.31339E+02 6.47693E+01-3.17500E+00
 -1     12275 1.24650E+02 7.19667E+01-3.17500E+00
 -1     12276 1.27094E+02 7.33778E+01-1.58750E+00
 -1     12277 1.31339E+02 6.47693E+01 0.00000E+00
 -1     12278 1.24650E+02 7.19667E+01 0.00000E+00
 -1     12279 1.27094E+02 7.33778E+01 1.58750E+00
 -1     12280 1.31339E+02 6.47693E+01 3.17500E+00
 -1     12281 1.24650E+02 7.19667E+01 3.17500E+00
 -1     12282 1.27094E+02 7.33778E+01 4.76250E+00
 -1     12283 1.31339E+02 6.47693E+01 6.35000E+00
 -1     12284 1.24650E+02 7.19667E+01 6.35000E+00
 -1     12285 1.27094E+02 7.33778E+01 7.93750E+00
 -1     12286 1.16429E+02 8.93391E+01-7.93750E+00
 -1     12287 1.21762E+02 8.13585E+01-6.35000E+00
 -1     12288 1.14190E+02 8.76211E+01-6.35000E+00
 -1     12289 1.16429E+02 8.93391E+01-4.76250E+00
 -1     12290 1.21762E+02 8.13585E+01-3.17500E+00
 -1     12291 1.14190E+02 8.76211E+01-3.17500E+00
 -1     12292 1.16429E+02 8.93391E+01-1.58750E+00
 -1     12293 1.21762E+02 8.13585E+01 0.00000E+00
 -1     12294 1.14190E+02 8.76211E+01 0.00000E+00
 -1     12295 1.16429E+02 8.93391E+01 1.58750E+00
 -1     12296 1.21762E+02 8.13585E+01 3.17500E+00
 -1     12297 1.14190E+02 8.76211E+01 3.17500E+00
 -1     12298 1.16429E+02 8.93391E+01 4.76250E+00
 -1     12299 1.21762E+02 8.13585E+01 6.35000E+00
 -1     12300 1.14190E+02 8.76211E+01 6.35000E+00
 -1     12301 1.16429E+02 8.93391E+01 7.93750E+00
 -1     12302 1.03772E+02 1.03772E+02-7.93750E+00
 -1     12303 1.10100E+02 9.65555E+01-6.35000E+00
 -1     12304 1.01776E+02 1.01776E+02-6.35000E+00
 -1     12305 1.03772E+02 1.03772E+02-4.76250E+00
 -1     12306 1.10100E+02 9.65555E+01-3.17500E+00
 -1     12307 1.01776E+02 1.01776E+02-3.17500E+00
 -1     12308 1.03772E+02 1.03772E+02-1.58750E+00
 -1     12309 1.10100E+02 9.65555E+01 0.00000E+00
 -1     12310 1.01776E+02 1.01776E+02 0.00000E+00
 -1     12311 1.03772E+02 1.03772E+02 1.58750E+00
 -1     12312 1.10100E+02 9.65555E+01 3.17500E+00
 -1     12313 1.01776E+02 1.01776E+02 3.17500E+00
 -1     12314 1.03772E+02 1.03772E+02 4.76250E+00
 -1     12315 1.10100E+02 9.65555E+01 6.35000E+00
 -1     12316 1.01776E+02 1.01776E+02 6.35000E+00
 -1     12317 1.03772E+02 1.03772E+02 7.93750E+00
 -1     12318 8.93391E+01 1.16429E+02-7.93750E+00
 -1     12319 9.65555E+01 1.10100E+02-6.35000E+00
 -1     12320 8.76211E+01 1.14190E+02-6.35000E+00
 -1     12321 8.93391E+01 1.16429E+02-4.76250E+00
 -1     12322 9.65555E+01 1.10100E+02-3.17500E+00
 -1     12323 8.76211E+01 1.14190E+02-3.17500E+00
 -1     12324 8.93391E+01 1.16429E+02-1.58750E+00
 -1     12325 9.65555E+01 1.10100E+02 0.00000E+00
 -1     12326 8.76211E+01 1.14190E+02 0.00000E+00
 -1     12327 8.93391E+01 1.16429E+02 1.58750E+00
 -1     12328 9.65555E+01 1.10100E+02 3.17500E+00
 -1     12329 8.76211E+01 1.14190E+02 3.17500E+00
 -1     12330 8.93391E+01 1.16429E+02 4.76250E+00
 -1     12331 9.65555E+01 1.10100E+02 6.35000E+00
 -1     12332 8.76211E+01 1.14190E+02 6.35000E+00
 -1     12333 8.93391E+01 1.16429E+02 7.93750E+00
 -1     12334 7.33778E+01 1.27094E+02-7.93750E+00
 -1     12335 8.13585E+01 1.21762E+02-6.35000E+00
 -1     12336 7.19667E+01 1.24650E+02-6.35000E+00
 -1     12337 7.33778E+01 1.27094E+02-4.76250E+00
 -1     12338 8.13585E+01 1.21762E+02-3.17500E+00
 -1     12339 7.19667E+01 1.24650E+02-3.17500E+00
 -1     12340 7.33778E+01 1.27094E+02-1.58750E+00
 -1     12341 8.13585E+01 1.21762E+02 0.00000E+00
 -1     12342 7.19667E+01 1.24650E+02 0.00000E+00
 -1     12343 7.33778E+01 1.27094E+02 1.58750E+00
 -1     12344 8.13585E+01 1.21762E+02 3.17500E+00
 -1     12345 7.19667E+01 1.24650E+02 3.17500E+00
 -1     12346 7.33778E+01 1.27094E+02 4.76250E+00
 -1     12347 8.13585E+01 1.21762E+02 6.35000E+00
 -1     12348 7.19667E+01 1.24650E+02 6.35000E+00
 -1     12349 7.33778E+01 1.27094E+02 7.93750E+00
 -1     12350 5.61609E+01 1.35584E+02-7.93750E+00
 -1     12351 6.47693E+01 1.31339E+02-6.35000E+00
 -1     12352 5.50809E+01 1.32977E+02-6.35000E+00
 -1     12353 5.61609E+01 1.35584E+02-4.76250E+00
 -1     12354 6.47693E+01 1.31339E+02-3.17500E+00
 -1     12355 5.50809E+01 1.32977E+02-3.17500E+00
 -1     12356 5.61609E+01 1.35584E+02-1.58750E+00
 -1     12357 6.47693E+01 1.31339E+02 0.00000E+00
 -1     12358 5.50809E+01 1.32977E+02 0.00000E+00
 -1     12359 5.61609E+01 1.35584E+02 1.58750E+00
 -1     12360 6.47693E+01 1.31339E+02 3.17500E+00
 -1     12361 5.50809E+01 1.32977E+02 3.17500E+00
 -1     12362 5.61609E+01 1.35584E+02 4.76250E+00
 -1     12363 6.47693E+01 1.31339E+02 6.35000E+00
 -1     12364 5.50809E+01 1.32977E+02 6.35000E+00
 -1     12365 5.61609E+01 1.35584E+02 7.93750E+00
 -1     12366 3.79831E+01 1.41755E+02-7.93750E+00
 -1     12367 4.70720E+01 1.38670E+02-6.35000E+00
 -1     12368 3.72527E+01 1.39029E+02-6.35000E+00
 -1     12369 3.79831E+01 1.41755E+02-4.76250E+00
 -1     12370 4.70720E+01 1.38670E+02-3.17500E+00
 -1     12371 3.72527E+01 1.39029E+02-3.17500E+00
 -1     12372 3.79831E+01 1.41755E+02-1.58750E+00
 -1     12373 4.70720E+01 1.38670E+02 0.00000E+00
 -1     12374 3.72527E+01 1.39029E+02 0.00000E+00
 -1     12375 3.79831E+01 1.41755E+02 1.58750E+00
 -1     12376 4.70720E+01 1.38670E+02 3.17500E+00
 -1     12377 3.72527E+01 1.39029E+02 3.17500E+00
 -1     12378 3.79831E+01 1.41755E+02 4.76250E+00
 -1     12379 4.70720E+01 1.38670E+02 6.35000E+00
 -1     12380 3.72527E+01 1.39029E+02 6.35000E+00
 -1     12381 3.79831E+01 1.41755E+02 7.93750E+00
 -1     12382 1.91554E+01 1.45500E+02-7.93750E+00
 -1     12383 2.85693E+01 1.43628E+02-6.35000E+00
 -1     12384 1.87871E+01 1.42702E+02-6.35000E+00
 -1     12385 1.91554E+01 1.45500E+02-4.76250E+00
 -1     12386 2.85693E+01 1.43628E+02-3.17500E+00
 -1     12387 1.87871E+01 1.42702E+02-3.17500E+00
 -1     12388 1.91554E+01 1.45500E+02-1.58750E+00
 -1     12389 2.85693E+01 1.43628E+02 0.00000E+00
 -1     12390 1.87871E+01 1.42702E+02 0.00000E+00
 -1     12391 1.91554E+01 1.45500E+02 1.58750E+00
 -1     12392 2.85693E+01 1.43628E+02 3.17500E+00
 -1     12393 1.87871E+01 1.42702E+02 3.17500E+00
 -1     12394 1.91554E+01 1.45500E+02 4.76250E+00
 -1     12395 2.85693E+01 1.43628E+02 6.35000E+00
 -1     12396 1.87871E+01 1.42702E+02 6.35000E+00
 -1     12397 1.91554E+01 1.45500E+02 7.93750E+00
 -1     12398 9.57772E+00 1.46128E+02-6.35000E+00
 -1     12399 9.57772E+00 1.46128E+02-3.17500E+00
 -1     12400 9.57772E+00 1.46128E+02 0.00000E+00
 -1     12401 9.57772E+00 1.46128E+02 3.17500E+00
 -1     12402 9.57772E+00 1.46128E+02 6.35000E+00
 -1     12403 1.95238E+01-1.48298E+02-6.35000E+00
 -1     12404 1.95238E+01-1.48298E+02-3.17500E+00
 -1     12405 1.95238E+01-1.48298E+02 0.00000E+00
 -1     12406 1.95238E+01-1.48298E+02 3.17500E+00
 -1     12407 1.95238E+01-1.48298E+02 6.35000E+00
 -1     12408 3.87136E+01-1.44481E+02-6.35000E+00
 -1     12409 3.87136E+01-1.44481E+02-3.17500E+00
 -1     12410 3.87136E+01-1.44481E+02 0.00000E+00
 -1     12411 3.87136E+01-1.44481E+02 3.17500E+00
 -1     12412 3.87136E+01-1.44481E+02 6.35000E+00
 -1     12413 5.72409E+01-1.38192E+02-6.35000E+00
 -1     12414 5.72409E+01-1.38192E+02-3.17500E+00
 -1     12415 5.72409E+01-1.38192E+02 0.00000E+00
 -1     12416 5.72409E+01-1.38192E+02 3.17500E+00
 -1     12417 5.72409E+01-1.38192E+02 6.35000E+00
 -1     12418 7.47889E+01-1.29538E+02-6.35000E+00
 -1     12419 7.47889E+01-1.29538E+02-3.17500E+00
 -1     12420 7.47889E+01-1.29538E+02 0.00000E+00
 -1     12421 7.47889E+01-1.29538E+02 3.17500E+00
 -1     12422 7.47889E+01-1.29538E+02 6.35000E+00
 -1     12423 9.10572E+01-1.18668E+02-6.35000E+00
 -1     12424 9.10572E+01-1.18668E+02-3.17500E+00
 -1     12425 9.10572E+01-1.18668E+02 0.00000E+00
 -1     12426 9.10572E+01-1.18668E+02 3.17500E+00
 -1     12427 9.10572E+01-1.18668E+02 6.35000E+00
 -1     12428 1.05767E+02-1.05767E+02-6.35000E+00
 -1     12429 1.05767E+02-1.05767E+02-3.17500E+00
 -1     12430 1.05767E+02-1.05767E+02 0.00000E+00
 -1     12431 1.05767E+02-1.05767E+02 3.17500E+00
 -1     12432 1.05767E+02-1.05767E+02 6.35000E+00
 -1     12433 1.18668E+02-9.10572E+01-6.35000E+00
 -1     12434 1.18668E+02-9.10572E+01-3.17500E+00
 -1     12435 1.18668E+02-9.10572E+01 0.00000E+00
 -1     12436 1.18668E+02-9.10572E+01 3.17500E+00
 -1     12437 1.18668E+02-9.10572E+01 6.35000E+00
 -1     12438 1.29538E+02-7.47889E+01-6.35000E+00
 -1     12439 1.29538E+02-7.47889E+01-3.17500E+00
 -1     12440 1.29538E+02-7.47889E+01 0.00000E+00
 -1     12441 1.29538E+02-7.47889E+01 3.17500E+00
 -1     12442 1.29538E+02-7.47889E+01 6.35000E+00
 -1     12443 1.38192E+02-5.72409E+01-6.35000E+00
 -1     12444 1.38192E+02-5.72409E+01-3.17500E+00
 -1     12445 1.38192E+02-5.72409E+01 0.00000E+00
 -1     12446 1.38192E+02-5.72409E+01 3.17500E+00
 -1     12447 1.38192E+02-5.72409E+01 6.35000E+00
 -1     12448 1.44481E+02-3.87136E+01-6.35000E+00
 -1     12449 1.44481E+02-3.87136E+01-3.17500E+00
 -1     12450 1.44481E+02-3.87136E+01 0.00000E+00
 -1     12451 1.44481E+02-3.87136E+01 3.17500E+00
 -1     12452 1.44481E+02-3.87136E+01 6.35000E+00
 -1     12453 1.48298E+02-1.95238E+01-6.35000E+00
 -1     12454 1.48298E+02-1.95238E+01-3.17500E+00
 -1     12455 1.48298E+02-1.95238E+01 0.00000E+00
 -1     12456 1.48298E+02-1.95238E+01 3.17500E+00
 -1     12457 1.48298E+02-1.95238E+01 6.35000E+00
 -1     12458 1.49578E+02 6.87313E-07-6.35000E+00
 -1     12459 1.49578E+02 6.87313E-07-3.17500E+00
 -1     12460 1.49578E+02 6.87313E-07 0.00000E+00
 -1     12461 1.49578E+02 6.87313E-07 3.17500E+00
 -1     12462 1.49578E+02 6.87313E-07 6.35000E+00
 -1     12463 1.48298E+02 1.95238E+01-6.35000E+00
 -1     12464 1.48298E+02 1.95238E+01-3.17500E+00
 -1     12465 1.48298E+02 1.95238E+01 0.00000E+00
 -1     12466 1.48298E+02 1.95238E+01 3.17500E+00
 -1     12467 1.48298E+02 1.95238E+01 6.35000E+00
 -1     12468 1.44481E+02 3.87136E+01-6.35000E+00
 -1     12469 1.44481E+02 3.87136E+01-3.17500E+00
 -1     12470 1.44481E+02 3.87136E+01 0.00000E+00
 -1     12471 1.44481E+02 3.87136E+01 3.17500E+00
 -1     12472 1.44481E+02 3.87136E+01 6.35000E+00
 -1     12473 1.38192E+02 5.72409E+01-6.35000E+00
 -1     12474 1.38192E+02 5.72409E+01-3.17500E+00
 -1     12475 1.38192E+02 5.72409E+01 0.00000E+00
 -1     12476 1.38192E+02 5.72409E+01 3.17500E+00
 -1     12477 1.38192E+02 5.72409E+01 6.35000E+00
 -1     12478 1.29538E+02 7.47889E+01-6.35000E+00
 -1     12479 1.29538E+02 7.47889E+01-3.17500E+00
 -1     12480 1.29538E+02 7.47889E+01 0.00000E+00
 -1     12481 1.29538E+02 7.47889E+01 3.17500E+00
 -1     12482 1.29538E+02 7.47889E+01 6.35000E+00
 -1     12483 1.18668E+02 9.10572E+01-6.35000E+00
 -1     12484 1.18668E+02 9.10572E+01-3.17500E+00
 -1     12485 1.18668E+02 9.10572E+01 0.00000E+00
 -1     12486 1.18668E+02 9.10572E+01 3.17500E+00
 -1     12487 1.18668E+02 9.10572E+01 6.35000E+00
 -1     12488 1.05767E+02 1.05767E+02-6.35000E+00
 -1     12489 1.05767E+02 1.05767E+02-3.17500E+00
 -1     12490 1.05767E+02 1.05767E+02 0.00000E+00
 -1     12491 1.05767E+02 1.05767E+02 3.17500E+00
 -1     12492 1.05767E+02 1.05767E+02 6.35000E+00
 -1     12493 9.10572E+01 1.18668E+02-6.35000E+00
 -1     12494 9.10572E+01 1.18668E+02-3.17500E+00
 -1     12495 9.10572E+01 1.18668E+02 0.00000E+00
 -1     12496 9.10572E+01 1.18668E+02 3.17500E+00
 -1     12497 9.10572E+01 1.18668E+02 6.35000E+00
 -1     12498 7.47889E+01 1.29538E+02-6.35000E+00
 -1     12499 7.47889E+01 1.29538E+02-3.17500E+00
 -1     12500 7.47889E+01 1.29538E+02 0.00000E+00
 -1     12501 7.47889E+01 1.29538E+02 3.17500E+00
 -1     12502 7.47889E+01 1.29538E+02 6.35000E+00
 -1     12503 5.72409E+01 1.38192E+02-6.35000E+00
 -1     12504 5.72409E+01 1.38192E+02-3.17500E+00
 -1     12505 5.72409E+01 1.38192E+02 0.00000E+00
 -1     12506 5.72409E+01 1.38192E+02 3.17500E+00
 -1     12507 5.72409E+01 1.38192E+02 6.35000E+00
 -1     12508 3.87136E+01 1.44481E+02-6.35000E+00
 -1     12509 3.87136E+01 1.44481E+02-3.17500E+00
 -1     12510 3.87136E+01 1.44481E+02 0.00000E+00
 -1     12511 3.87136E+01 1.44481E+02 3.17500E+00
 -1     12512 3.87136E+01 1.44481E+02 6.35000E+00
 -1     12513 1.95238E+01 1.48298E+02-6.35000E+00
 -1     12514 1.95238E+01 1.48298E+02-3.17500E+00
 -1     12515 1.95238E+01 1.48298E+02 0.00000E+00
 -1     12516 1.95238E+01 1.48298E+02 3.17500E+00
 -1     12517 1.95238E+01 1.48298E+02 6.35000E+00
 -3
    3C                          2592                                     1
 -1       223    4    0    1
 -2         1         9       381       126       337      1594      4107      2521        26       772
 -2       773       149       342      1679      6062      2637      1680      6063      6064      2636
 -1       224    4    0    1
 -2       337      1594      4107      2521       338      1595      4108      2522      1680      6063
 -2      6064      2636       343      1681      6065      2639      1682      6066      6067      2638
 -1       225    4    0    1
 -2       338      1595      4108      2522       339      1596      4109      2523      1682      6066
 -2      6067      2638       344      1683      6068      2641      1684      6069      6070      2640
 -1       226    4    0    1
 -2       339      1596      4109      2523       340      1597      4110      2524      1684      6069
 -2      6070      2640       345      1685      6071      2643      1686      6072      6073      2642
 -1       227    4    0    1
 -2       340      1597      4110      2524       341      1598      4111      2525      1686      6072
 -2      6073      2642       346      1687      6074      2645      1688      6075      6076      2644
 -1       228    4    0    1
 -2       341      1598      4111      2525         5       173      2894       312      1688      6075
 -2      6076      2644       347      1689      6077      2646       190      3285      3286       336
 -1       229    4    0    1
 -2       126       381       382       127      2521      4107      4112      2526       773       774
 -2       775       150      2637      6062      6078      2648      6064      6079      6080      2647
 -1       230    4    0    1
 -2      2521      4107      4112      2526      2522      4108      4113      2527      6064      6079
 -2      6080      2647      2639      6065      6081      2650      6067      6082      6083      2649
 -1       231    4    0    1
 -2      2522      4108      4113      2527      2523      4109      4114      2528      6067      6082
 -2      6083      2649      2641      6068      6084      2652      6070      6085      6086      2651
 -1       232    4    0    1
 -2      2523      4109      4114      2528      2524      4110      4115      2529      6070      6085
 -2      6086      2651      2643      6071      6087      2654      6073      6088      6089      2653
 -1       233    4    0    1
 -2      2524      4110      4115      2529      2525      4111      4116      2530      6073      6088
 -2      6089      2653      2645      6074      6090      2656      6076      6091      6092      2655
 -1       234    4    0    1
 -2      2525      4111      4116      2530       312      2894      2895       311      6076      6091
 -2      6092      2655      2646      6077      6093      2657      3286      3287      3288       335
 -1       235    4    0    1
 -2       127       382       383       128      2526      4112      4117      2531       775       776
 -2       777       151      2648      6078      6094      2659      6080      6095      6096      2658
 -1       236    4    0    1
 -2      2526      4112      4117      2531      2527      4113      4118      2532      6080      6095
 -2      6096      2658      2650      6081      6097      2661      6083      6098      6099      2660
 -1       237    4    0    1
 -2      2527      4113      4118      2532      2528      4114      4119      2533      6083      6098
 -2      6099      2660      2652      6084      6100      2663      6086      6101      6102      2662
 -1       238    4    0    1
 -2      2528      4114      4119      2533      2529      4115      4120      2534      6086      6101
 -2      6102      2662      2654      6087      6103      2665      6089      6104      6105      2664
 -1       239    4    0    1
 -2      2529      4115      4120      2534      2530      4116      4121      2535      6089      6104
 -2      6105      2664      2656      6090      6106      2667      6092      6107      6108      2666
 -1       240    4    0    1
 -2      2530      4116      4121      2535       311      2895      2896       310      6092      6107
 -2      6108      2666      2657      6093      6109      2668      3288      3289      3290       334
 -1       241    4    0    1
 -2       128       383       384       129      2531      4117      4122      2536       777       778
 -2       779       152      2659      6094      6110      2670      6096      6111      6112      2669
 -1       242    4    0    1
 -2      2531      4117      4122      2536      2532      4118      4123      2537      6096      6111
 -2      6112      2669      2661      6097      6113      2672      6099      6114      6115      2671
 -1       243    4    0    1
 -2      2532      4118      4123      2537      2533      4119      4124      2538      6099      6114
 -2      6115      2671      2663      6100      6116      2674      6102      6117      6118      2673
 -1       244    4    0    1
 -2      2533      4119      4124      2538      2534      4120      4125      2539      6102      6117
 -2      6118      2673      2665      6103      6119      2676      6105      6120      6121      2675
 -1       245    4    0    1
 -2      2534      4120      4125      2539      2535      4121      4126      2540      6105      6120
 -2      6121      2675      2667      6106      6122      2678      6108      6123      6124      2677
 -1       246    4    0    1
 -2      2535      4121      4126      2540       310      2896      2897       309      6108      6123
 -2      6124      2677      2668      6109      6125      2679      3290      3291      3292       333
 -1       247    4    0    1
 -2       129       384       385       130      2536      4122      4127      2541       779       780
 -2       781       153      2670      6110      6126      2681      6112      6127      6128      2680
 -1       248    4    0    1
 -2      2536      4122      4127      2541      2537      4123      4128      2542      6112      6127
 -2      6128      2680      2672      6113      6129      2683      6115      6130      6131      2682
 -1       249    4    0    1
 -2      2537      4123      4128      2542      2538      4124      4129      2543      6115      6130
 -2      6131      2682      2674      6116      6132      2685      6118      6133      6134      2684
 -1       250    4    0    1
 -2      2538      4124      4129      2543      2539      4125      4130      2544      6118      6133
 -2      6134      2684      2676      6119      6135      2687      6121      6136      6137      2686
 -1       251    4    0    1
 -2      2539      4125      4130      2544      2540      4126      4131      2545      6121      6136
 -2      6137      2686      2678      6122      6138      2689      6124      6139      6140      2688
 -1       252    4    0    1
 -2      2540      4126      4131      2545       309      2897      2898       308      6124      6139
 -2      6140      2688      2679      6125      6141      2690      3292      3293      3294       332
 -1       253    4    0    1
 -2       130       385       386       131      2541      4127      4132      2546       781       782
 -2       783       154      2681      6126      6142      2692      6128      6143      6144      2691
 -1       254    4    0    1
 -2      2541      4127      4132      2546      2542      4128      4133      2547      6128      6143
 -2      6144      2691      2683      6129      6145      2694      6131      6146      6147      2693
 -1       255    4    0    1
 -2      2542      4128      4133      2547      2543      4129      4134      2548      6131      6146
 -2      6147      2693      2685      6132      6148      2696      6134      6149      6150      2695
 -1       256    4    0    1
 -2      2543      4129      4134      2548      2544      4130      4135      2549      6134      6149
 -2      6150      2695      2687      6135      6151      2698      6137      6152      6153      2697
 -1       257    4    0    1
 -2      2544      4130      4135      2549      2545      4131      4136      2550      6137      6152
 -2      6153      2697      2689      6138      6154      2700      6140      6155      6156      2699
 -1       258    4    0    1
 -2      2545      4131      4136      2550       308      2898      2899       307      6140      6155
 -2      6156      2699      2690      6141      6157      2701      3294      3295      3296       331
 -1       259    4    0    1
 -2       131       386       387       132      2546      4132      4137      2551       783       784
 -2       785       155      2692      6142      6158      2703      6144      6159      6160      2702
 -1       260    4    0    1
 -2      2546      4132      4137      2551      2547      4133      4138      2552      6144      6159
 -2      6160      2702      2694      6145      6161      2705      6147      6162      6163      2704
 -1       261    4    0    1
 -2      2547      4133      4138      2552      2548      4134      4139      2553      6147      6162
 -2      6163      2704      2696      6148      6164      2707      6150      6165      6166      2706
 -1       262    4    0    1
 -2      2548      4134      4139      2553      2549      4135      4140      2554      6150      6165
 -2      6166      2706      2698      6151      6167      2709      6153      6168      6169      2708
 -1       263    4    0    1
 -2      2549      4135      4140      2554      2550      4136      4141      2555      6153      6168
 -2      6169      2708      2700      6154      6170      2711      6156      6171      6172      2710
 -1       264    4    0    1
 -2      2550      4136      4141      2555       307      2899      2900       306      6156      6171
 -2      6172      2710      2701      6157      6173      2712      3296      3297      3298       330
 -1       265    4    0    1
 -2       132       387       388       133      2551      4137      4142      2556       785       786
 -2       787       156      2703      6158      6174      2714      6160      6175      6176      2713
 -1       266    4    0    1
 -2      2551      4137      4142      2556      2552      4138      4143      2557      6160      6175
 -2      6176      2713      2705      6161      6177      2716      6163      6178      6179      2715
 -1       267    4    0    1
 -2      2552      4138      4143      2557      2553      4139      4144      2558      6163      6178
 -2      6179      2715      2707      6164      6180      2718      6166      6181      6182      2717
 -1       268    4    0    1
 -2      2553      4139      4144      2558      2554      4140      4145      2559      6166      6181
 -2      6182      2717      2709      6167      6183      2720      6169      6184      6185      2719
 -1       269    4    0    1
 -2      2554      4140      4145      2559      2555      4141      4146      2560      6169      6184
 -2      6185      2719      2711      6170      6186      2722      6172      6187      6188      2721
 -1       270    4    0    1
 -2      2555      4141      4146      2560       306      2900      2901       305      6172      6187
 -2      6188      2721      2712      6173      6189      2723      3298      3299      3300       329
 -1       271    4    0    1
 -2       133       388       389       134      2556      4142      4147      2561       787       788
 -2       789       157      2714      6174      6190      2725      6176      6191      6192      2724
 -1       272    4    0    1
 -2      2556      4142      4147      2561      2557      4143      4148      2562      6176      6191
 -2      6192      2724      2716      6177      6193      2727      6179      6194      6195      2726
 -1       273    4    0    1
 -2      2557      4143      4148      2562      2558      4144      4149      2563      6179      6194
 -2      6195      2726      2718      6180      6196      2729      6182      6197      6198      2728
 -1       274    4    0    1
 -2      2558      4144      4149      2563      2559      4145      4150      2564      6182      6197
 -2      6198      2728      2720      6183      6199      2731      6185      6200      6201      2730
 -1       275    4    0    1
 -2      2559      4145      4150      2564      2560      4146      4151      2565      6185      6200
 -2      6201      2730      2722      6186      6202      2733      6188      6203      6204      2732
 -1       276    4    0    1
 -2      2560      4146      4151      2565       305      2901      2902       304      6188      6203
 -2      6204      2732      2723      6189      6205      2734      3300      3301      3302       328
 -1       277    4    0    1
 -2       134       389       390       135      2561      4147      4152      2566       789       790
 -2       791       158      2725      6190      6206      2736      6192      6207      6208      2735
 -1       278    4    0    1
 -2      2561      4147      4152      2566      2562      4148      4153      2567      6192      6207
 -2      6208      2735      2727      6193      6209      2738      6195      6210      6211      2737
 -1       279    4    0    1
 -2      2562      4148      4153      2567      2563      4149      4154      2568      6195      6210
 -2      6211      2737      2729      6196      6212      2740      6198      6213      6214      2739
 -1       280    4    0    1
 -2      2563      4149      4154      2568      2564      4150      4155      2569      6198      6213
 -2      6214      2739      2731      6199      6215      2742      6201      6216      6217      2741
 -1       281    4    0    1
 -2      2564      4150      4155      2569      2565      4151      4156      2570      6201      6216
 -2      6217      2741      2733      6202      6218      2744      6204      6219      6220      2743
 -1       282    4    0    1
 -2      2565      4151      4156      2570       304      2902      2903       303      6204      6219
 -2      6220      2743      2734      6205      6221      2745      3302      3303      3304       327
 -1       283    4    0    1
 -2       135       390       391       136      2566      4152      4157      2571       791       792
 -2       793       159      2736      6206      6222      2747      6208      6223      6224      2746
 -1       284    4    0    1
 -2      2566      4152      4157      2571      2567      4153      4158      2572      6208      6223
 -2      6224      2746      2738      6209      6225      2749      6211      6226      6227      2748
 -1       285    4    0    1
 -2      2567      4153      4158      2572      2568      4154      4159      2573      6211      6226
 -2      6227      2748      2740      6212      6228      2751      6214      6229      6230      2750
 -1       286    4    0    1
 -2      2568      4154      4159      2573      2569      4155      4160      2574      6214      6229
 -2      6230      2750      2742      6215      6231      2753      6217      6232      6233      2752
 -1       287    4    0    1
 -2      2569      4155      4160      2574      2570      4156      4161      2575      6217      6232
 -2      6233      2752      2744      6218      6234      2755      6220      6235      6236      2754
 -1       288    4    0    1
 -2      2570      4156      4161      2575       303      2903      2904       302      6220      6235
 -2      6236      2754      2745      6221      6237      2756      3304      3305      3306       326
 -1       289    4    0    1
 -2       136       391       392       137      2571      4157      4162      2576       793       794
 -2       795       160      2747      6222      6238      2758      6224      6239      6240      2757
 -1       290    4    0    1
 -2      2571      4157      4162      2576      2572      4158      4163      2577      6224      6239
 -2      6240      2757      2749      6225      6241      2760      6227      6242      6243      2759
 -1       291    4    0    1
 -2      2572      4158      4163      2577      2573      4159      4164      2578      6227      6242
 -2      6243      2759      2751      6228      6244      2762      6230      6245      6246      2761
 -1       292    4    0    1
 -2      2573      4159      4164      2578      2574      4160      4165      2579      6230      6245
 -2      6246      2761      2753      6231      6247      2764      6233      6248      6249      2763
 -1       293    4    0    1
 -2      2574      4160      4165      2579      2575      4161      4166      2580      6233      6248
 -2      6249      2763      2755      6234      6250      2766      6236      6251      6252      2765
 -1       294    4    0    1
 -2      2575      4161      4166      2580       302      2904      2905       301      6236      6251
 -2      6252      2765      2756      6237      6253      2767      3306      3307      3308       325
 -1       295    4    0    1
 -2       137       392       393       138      2576      4162      4167      2581       795       796
 -2       797       161      2758      6238      6254      2769      6240      6255      6256      2768
 -1       296    4    0    1
 -2      2576      4162      4167      2581      2577      4163      4168      2582      6240      6255
 -2      6256      2768      2760      6241      6257      2771      6243      6258      6259      2770
 -1       297    4    0    1
 -2      2577      4163      4168      2582      2578      4164      4169      2583      6243      6258
 -2      6259      2770      2762      6244      6260      2773      6246      6261      6262      2772
 -1       298    4    0    1
 -2      2578      4164      4169      2583      2579      4165      4170      2584      6246      6261
 -2      6262      2772      2764      6247      6263      2775      6249      6264      6265      2774
 -1       299    4    0    1
 -2      2579      4165      4170      2584      2580      4166      4171      2585      6249      6264
 -2      6265      2774      2766      6250      6266      2777      6252      6267      6268      2776
 -1       300    4    0    1
 -2      2580      4166      4171      2585       301      2905      2906       300      6252      6267
 -2      6268      2776      2767      6253      6269      2778      3308      3309      3310       324
 -1       301    4    0    1
 -2       138       393       394       139      2581      4167      4172      2586       797       798
 -2       799       162      2769      6254      6270      2780      6256      6271      6272      2779
 -1       302    4    0    1
 -2      2581      4167      4172      2586      2582      4168      4173      2587      6256      6271
 -2      6272      2779      2771      6257      6273      2782      6259      6274      6275      2781
 -1       303    4    0    1
 -2      2582      4168      4173      2587      2583      4169      4174      2588      6259      6274
 -2      6275      2781      2773      6260      6276      2784      6262      6277      6278      2783
 -1       304    4    0    1
 -2      2583      4169      4174      2588      2584      4170      4175      2589      6262      6277
 -2      6278      2783      2775      6263      6279      2786      6265      6280      6281      2785
 -1       305    4    0    1
 -2      2584      4170      4175      2589      2585      4171      4176      2590      6265      6280
 -2      6281      2785      2777      6266      6282      2788      6268      6283      6284      2787
 -1       306    4    0    1
 -2      2585      4171      4176      2590       300      2906      2907       299      6268      6283
 -2      6284      2787      2778      6269      6285      2789      3310      3311      3312       323
 -1       307    4    0    1
 -2       139       394       395       140      2586      4172      4177      2591       799       800
 -2       801       163      2780      6270      6286      2791      6272      6287      6288      2790
 -1       308    4    0    1
 -2      2586      4172      4177      2591      2587      4173      4178      2592      6272      6287
 -2      6288      2790      2782      6273      6289      2793      6275      6290      6291      2792
 -1       309    4    0    1
 -2      2587      4173      4178      2592      2588      4174      4179      2593      6275      6290
 -2      6291      2792      2784      6276      6292      2795      6278      6293      6294      2794
 -1       310    4    0    1
 -2      2588      4174      4179      2593      2589      4175      4180      2594      6278      6293
 -2      6294      2794      2786      6279      6295      2797      6281      6296      6297      2796
 -1       311    4    0    1
 -2      2589      4175      4180      2594      2590      4176      4181      2595      6281      6296
 -2      6297      2796      2788      6282      6298      2799      6284      6299      6300      2798
 -1       312    4    0    1
 -2      2590      4176      4181      2595       299      2907      2908       298      6284      6299
 -2      6300      2798      2789      6285      6301      2800      3312      3313      3314       322
 -1       313    4    0    1
 -2       140       395       396       141      2591      4177      4182      2596       801       802
 -2       803       164      2791      6286      6302      2802      6288      6303      6304      2801
 -1       314    4    0    1
 -2      2591      4177      4182      2596      2592      4178      4183      2597      6288      6303
 -2      6304      2801      2793      6289      6305      2804      6291      6306      6307      2803
 -1       315    4    0    1
 -2      2592      4178      4183      2597      2593      4179      4184      2598      6291      6306
 -2      6307      2803      2795      6292      6308      2806      6294      6309      6310      2805
 -1       316    4    0    1
 -2      2593      4179      4184      2598      2594      4180      4185      2599      6294      6309
 -2      6310      2805      2797      6295      6311      2808      6297      6312      6313      2807
 -1       317    4    0    1
 -2      2594      4180      4185      2599      2595      4181      4186      2600      6297      6312
 -2      6313      2807      2799      6298      6314      2810      6300      6315      6316      2809
 -1       318    4    0    1
 -2      2595      4181      4186      2600       298      2908      2909       297      6300      6315
 -2      6316      2809      2800      6301      6317      2811      3314      3315      3316       321
 -1       319    4    0    1
 -2       141       396       397       142      2596      4182      4187      2601       803       804
 -2       805       165      2802      6302      6318      2813      6304      6319      6320      2812
 -1       320    4    0    1
 -2      2596      4182      4187      2601      2597      4183      4188      2602      6304      6319
 -2      6320      2812      2804      6305      6321      2815      6307      6322      6323      2814
 -1       321    4    0    1
 -2      2597      4183      4188      2602      2598      4184      4189      2603      6307      6322
 -2      6323      2814      2806      6308      6324      2817      6310      6325      6326      2816
 -1       322    4    0    1
 -2      2598      4184      4189      2603      2599      4185      4190      2604      6310      6325
 -2      6326      2816      2808      6311      6327      2819      6313      6328      6329      2818
 -1       323    4    0    1
 -2      2599      4185      4190      2604      2600      4186      4191      2605      6313      6328
 -2      6329      2818      2810      6314      6330      2821      6316      6331      6332      2820
 -1       324    4    0    1
 -2      2600      4186      4191      2605       297      2909      2910       296      6316      6331
 -2      6332      2820      2811      6317      6333      2822      3316      3317      3318       320
 -1       325    4    0    1
 -2       142       397       398       143      2601      4187      4192      2606       805       806
 -2       807       166      2813      6318      6334      2824      6320      6335      6336      2823
 -1       326    4    0    1
 -2      2601      4187      4192      2606      2602      4188      4193      2607      6320      6335
 -2      6336      2823      2815      6321      6337      2826      6323      6338      6339      2825
 -1       327    4    0    1
 -2      2602      4188      4193      2607      2603      4189      4194      2608      6323      6338
 -2      6339      2825      2817      6324      6340      2828      6326      6341      6342      2827
 -1       328    4    0    1
 -2      2603      4189      4194      2608      2604      4190      4195      2609      6326      6341
 -2      6342      2827      2819      6327      6343      2830      6329      6344      6345      2829
 -1       329    4    0    1
 -2      2604      4190      4195      2609      2605      4191      4196      2610      6329      6344
 -2      6345      2829      2821      6330      6346      2832      6332      6347      6348      2831
 -1       330    4    0    1
 -2      2605      4191      4196      2610       296      2910      2911       295      6332      6347
 -2      6348      2831      2822      6333      6349      2833      3318      3319      3320       319
 -1       331    4    0    1
 -2       143       398       399       144      2606      4192      4197      2611       807       808
 -2       809       167      2824      6334      6350      2835      6336      6351      6352      2834
 -1       332    4    0    1
 -2      2606      4192      4197      2611      2607      4193      4198      2612      6336      6351
 -2      6352      2834      2826      6337      6353      2837      6339      6354      6355      2836
 -1       333    4    0    1
 -2      2607      4193      4198      2612      2608      4194      4199      2613      6339      6354
 -2      6355      2836      2828      6340      6356      2839      6342      6357      6358      2838
 -1       334    4    0    1
 -2      2608      4194      4199      2613      2609      4195      4200      2614      6342      6357
 -2      6358      2838      2830      6343      6359      2841      6345      6360      6361      2840
 -1       335    4    0    1
 -2      2609      4195      4200      2614      2610      4196      4201      2615      6345      6360
 -2      6361      2840      2832      6346      6362      2843      6348      6363      6364      2842
 -1       336    4    0    1
 -2      2610      4196      4201      2615       295      2911      2912       294      6348      6363
 -2      6364      2842      2833      6349      6365      2844      3320      3321      3322       318
 -1       337    4    0    1
 -2       144       399       400       145      2611      4197      4202      2616       809       810
 -2       811       168      2835      6350      6366      2846      6352      6367      6368      2845
 -1       338    4    0    1
 -2      2611      4197      4202      2616      2612      4198      4203      2617      6352      6367
 -2      6368      2845      2837      6353      6369      2848      6355      6370      6371      2847
 -1       339    4    0    1
 -2      2612      4198      4203      2617      2613      4199      4204      2618      6355      6370
 -2      6371      2847      2839      6356      6372      2850      6358      6373      6374      2849
 -1       340    4    0    1
 -2      2613      4199      4204      2618      2614      4200      4205      2619      6358      6373
 -2      6374      2849      2841      6359      6375      2852      6361      6376      6377      2851
 -1       341    4    0    1
 -2      2614      4200      4205      2619      2615      4201      4206      2620      6361      6376
 -2      6377      2851      2843      6362      6378      2854      6364      6379      6380      2853
 -1       342    4    0    1
 -2      2615      4201      4206      2620       294      2912      2913       293      6364      6379
 -2      6380      2853      2844      6365      6381      2855      3322      3323      3324       317
 -1       343    4    0    1
 -2       145       400       401       146      2616      4202      4207      2621       811       812
 -2       813       169      2846      6366      6382      2857      6368      6383      6384      2856
 -1       344    4    0    1
 -2      2616      4202      4207      2621      2617      4203      4208      2622      6368      6383
 -2      6384      2856      2848      6369      6385      2859      6371      6386      6387      2858
 -1       345    4    0    1
 -2      2617      4203      4208      2622      2618      4204      4209      2623      6371      6386
 -2      6387      2858      2850      6372      6388      2861      6374      6389      6390      2860
 -1       346    4    0    1
 -2      2618      4204      4209      2623      2619      4205      4210      2624      6374      6389
 -2      6390      2860      2852      6375      6391      2863      6377      6392      6393      2862
 -1       347    4    0    1
 -2      2619      4205      4210      2624      2620      4206      4211      2625      6377      6392
 -2      6393      2862      2854      6378      6394      2865      6380      6395      6396      2864
 -1       348    4    0    1
 -2      2620      4206      4211      2625       293      2913      2914       292      6380      6395
 -2      6396      2864      2855      6381      6397      2866      3324      3325      3326       316
 -1       349    4    0    1
 -2       146       401       402       147      2621      4207      4212      2626       813       814
 -2       815       170      2857      6382      6398      2868      6384      6399      6400      2867
 -1       350    4    0    1
 -2      2621      4207      4212      2626      2622      4208      4213      2627      6384      6399
 -2      6400      2867      2859      6385      6401      2870      6387      6402      6403      2869
 -1       351    4    0    1
 -2      2622      4208      4213      2627      2623      4209      4214      2628      6387      6402
 -2      6403      2869      2861      6388      6404      2872      6390      6405      6406      2871
 -1       352    4    0    1
 -2      2623      4209      4214      2628      2624      4210      4215      2629      6390      6405
 -2      6406      2871      2863      6391      6407      2874      6393      6408      6409      2873
 -1       353    4    0    1
 -2      2624      4210      4215      2629      2625      4211      4216      2630      6393      6408
 -2      6409      2873      2865      6394      6410      2876      6396      6411      6412      2875
 -1       354    4    0    1
 -2      2625      4211      4216      2630       292      2914      2915       291      6396      6411
 -2      6412      2875      2866      6397      6413      2877      3326      3327      3328       315
 -1       355    4    0    1
 -2       147       402       403       148      2626      4212      4217      2631       815       816
 -2       817       171      2868      6398      6414      2879      6400      6415      6416      2878
 -1       356    4    0    1
 -2      2626      4212      4217      2631      2627      4213      4218      2632      6400      6415
 -2      6416      2878      2870      6401      6417      2881      6403      6418      6419      2880
 -1       357    4    0    1
 -2      2627      4213      4218      2632      2628      4214      4219      2633      6403      6418
 -2      6419      2880      2872      6404      6420      2883      6406      6421      6422      2882
 -1       358    4    0    1
 -2      2628      4214      4219      2633      2629      4215      4220      2634      6406      6421
 -2      6422      2882      2874      6407      6423      2885      6409      6424      6425      2884
 -1       359    4    0    1
 -2      2629      4215      4220      2634      2630      4216      4221      2635      6409      6424
 -2      6425      2884      2876      6410      6426      2887      6412      6427      6428      2886
 -1       360    4    0    1
 -2      2630      4216      4221      2635       291      2915      2916       290      6412      6427
 -2      6428      2886      2877      6413      6429      2888      3328      3329      3330       314
 -1       361    4    0    1
 -2       148       403       107         4      2631      4217      2324       370       817       818
 -2       125       172      2879      6414      2505       375      6416      6430      2516      2889
 -1       362    4    0    1
 -2      2631      4217      2324       370      2632      4218      2325       371      6416      6430
 -2      2516      2889      2881      6417      2507       376      6419      6431      2517      2890
 -1       363    4    0    1
 -2      2632      4218      2325       371      2633      4219      2326       372      6419      6431
 -2      2517      2890      2883      6420      2509       377      6422      6432      2518      2891
 -1       364    4    0    1
 -2      2633      4219      2326       372      2634      4220      2327       373      6422      6432
 -2      2518      2891      2885      6423      2511       378      6425      6433      2519      2892
 -1       365    4    0    1
 -2      2634      4220      2327       373      2635      4221      2328       374      6425      6433
 -2      2519      2892      2887      6426      2513       379      6428      6434      2520      2893
 -1       366    4    0    1
 -2      2635      4221      2328       374       290      2916       271         8      6428      6434
 -2      2520      2893      2888      6429      2515       380      3330      3331       289       313
 -1       367    4    0    1
 -2         9        10       404       381      1594      1599      4222      4107        27       819
 -2       820       772      1679      1690      6435      6062      1691      6436      6437      6063
 -1       368    4    0    1
 -2      1594      1599      4222      4107      1595      1600      4223      4108      1691      6436
 -2      6437      6063      1681      1692      6438      6065      1693      6439      6440      6066
 -1       369    4    0    1
 -2      1595      1600      4223      4108      1596      1601      4224      4109      1693      6439
 -2      6440      6066      1683      1694      6441      6068      1695      6442      6443      6069
 -1       370    4    0    1
 -2      1596      1601      4224      4109      1597      1602      4225      4110      1695      6442
 -2      6443      6069      1685      1696      6444      6071      1697      6445      6446      6072
 -1       371    4    0    1
 -2      1597      1602      4225      4110      1598      1603      4226      4111      1697      6445
 -2      6446      6072      1687      1698      6447      6074      1699      6448      6449      6075
 -1       372    4    0    1
 -2      1598      1603      4226      4111       173       174      2917      2894      1699      6448
 -2      6449      6075      1689      1700      6450      6077       191      3332      3333      3285
 -1       373    4    0    1
 -2       381       404       405       382      4107      4222      4227      4112       820       821
 -2       822       774      6062      6435      6451      6078      6437      6452      6453      6079
 -1       374    4    0    1
 -2      4107      4222      4227      4112      4108      4223      4228      4113      6437      6452
 -2      6453      6079      6065      6438      6454      6081      6440      6455      6456      6082
 -1       375    4    0    1
 -2      4108      4223      4228      4113      4109      4224      4229      4114      6440      6455
 -2      6456      6082      6068      6441      6457      6084      6443      6458      6459      6085
 -1       376    4    0    1
 -2      4109      4224      4229      4114      4110      4225      4230      4115      6443      6458
 -2      6459      6085      6071      6444      6460      6087      6446      6461      6462      6088
 -1       377    4    0    1
 -2      4110      4225      4230      4115      4111      4226      4231      4116      6446      6461
 -2      6462      6088      6074      6447      6463      6090      6449      6464      6465      6091
 -1       378    4    0    1
 -2      4111      4226      4231      4116      2894      2917      2918      2895      6449      6464
 -2      6465      6091      6077      6450      6466      6093      3333      3334      3335      3287
 -1       379    4    0    1
 -2       382       405       406       383      4112      4227      4232      4117       822       823
 -2       824       776      6078      6451      6467      6094      6453      6468      6469      6095
 -1       380    4    0    1
 -2      4112      4227      4232      4117      4113      4228      4233      4118      6453      6468
 -2      6469      6095      6081      6454      6470      6097      6456      6471      6472      6098
 -1       381    4    0    1
 -2      4113      4228      4233      4118      4114      4229      4234      4119      6456      6471
 -2      6472      6098      6084      6457      6473      6100      6459      6474      6475      6101
 -1       382    4    0    1
 -2      4114      4229      4234      4119      4115      4230      4235      4120      6459      6474
 -2      6475      6101      6087      6460      6476      6103      6462      6477      6478      6104
 -1       383    4    0    1
 -2      4115      4230      4235      4120      4116      4231      4236      4121      6462      6477
 -2      6478      6104      6090      6463      6479      6106      6465      6480      6481      6107
 -1       384    4    0    1
 -2      4116      4231      4236      4121      2895      2918      2919      2896      6465      6480
 -2      6481      6107      6093      6466      6482      6109      3335      3336      3337      3289
 -1       385    4    0    1
 -2       383       406       407       384      4117      4232      4237      4122       824       825
 -2       826       778      6094      6467      6483      6110      6469      6484      6485      6111
 -1       386    4    0    1
 -2      4117      4232      4237      4122      4118      4233      4238      4123      6469      6484
 -2      6485      6111      6097      6470      6486      6113      6472      6487      6488      6114
 -1       387    4    0    1
 -2      4118      4233      4238      4123      4119      4234      4239      4124      6472      6487
 -2      6488      6114      6100      6473      6489      6116      6475      6490      6491      6117
 -1       388    4    0    1
 -2      4119      4234      4239      4124      4120      4235      4240      4125      6475      6490
 -2      6491      6117      6103      6476      6492      6119      6478      6493      6494      6120
 -1       389    4    0    1
 -2      4120      4235      4240      4125      4121      4236      4241      4126      6478      6493
 -2      6494      6120      6106      6479      6495      6122      6481      6496      6497      6123
 -1       390    4    0    1
 -2      4121      4236      4241      4126      2896      2919      2920      2897      6481      6496
 -2      6497      6123      6109      6482      6498      6125      3337      3338      3339      3291
 -1       391    4    0    1
 -2       384       407       408       385      4122      4237      4242      4127       826       827
 -2       828       780      6110      6483      6499      6126      6485      6500      6501      6127
 -1       392    4    0    1
 -2      4122      4237      4242      4127      4123      4238      4243      4128      6485      6500
 -2      6501      6127      6113      6486      6502      6129      6488      6503      6504      6130
 -1       393    4    0    1
 -2      4123      4238      4243      4128      4124      4239      4244      4129      6488      6503
 -2      6504      6130      6116      6489      6505      6132      6491      6506      6507      6133
 -1       394    4    0    1
 -2      4124      4239      4244      4129      4125      4240      4245      4130      6491      6506
 -2      6507      6133      6119      6492      6508      6135      6494      6509      6510      6136
 -1       395    4    0    1
 -2      4125      4240      4245      4130      4126      4241      4246      4131      6494      6509
 -2      6510      6136      6122      6495      6511      6138      6497      6512      6513      6139
 -1       396    4    0    1
 -2      4126      4241      4246      4131      2897      2920      2921      2898      6497      6512
 -2      6513      6139      6125      6498      6514      6141      3339      3340      3341      3293
 -1       397    4    0    1
 -2       385       408       409       386      4127      4242      4247      4132       828       829
 -2       830       782      6126      6499      6515      6142      6501      6516      6517      6143
 -1       398    4    0    1
 -2      4127      4242      4247      4132      4128      4243      4248      4133      6501      6516
 -2      6517      6143      6129      6502      6518      6145      6504      6519      6520      6146
 -1       399    4    0    1
 -2      4128      4243      4248      4133      4129      4244      4249      4134      6504      6519
 -2      6520      6146      6132      6505      6521      6148      6507      6522      6523      6149
 -1       400    4    0    1
 -2      4129      4244      4249      4134      4130      4245      4250      4135      6507      6522
 -2      6523      6149      6135      6508      6524      6151      6510      6525      6526      6152
 -1       401    4    0    1
 -2      4130      4245      4250      4135      4131      4246      4251      4136      6510      6525
 -2      6526      6152      6138      6511      6527      6154      6513      6528      6529      6155
 -1       402    4    0    1
 -2      4131      4246      4251      4136      2898      2921      2922      2899      6513      6528
 -2      6529      6155      6141      6514      6530      6157      3341      3342      3343      3295
 -1       403    4    0    1
 -2       386       409       410       387      4132      4247      4252      4137       830       831
 -2       832       784      6142      6515      6531      6158      6517      6532      6533      6159
 -1       404    4    0    1
 -2      4132      4247      4252      4137      4133      4248      4253      4138      6517      6532
 -2      6533      6159      6145      6518      6534      6161      6520      6535      6536      6162
 -1       405    4    0    1
 -2      4133      4248      4253      4138      4134      4249      4254      4139      6520      6535
 -2      6536      6162      6148      6521      6537      6164      6523      6538      6539      6165
 -1       406    4    0    1
 -2      4134      4249      4254      4139      4135      4250      4255      4140      6523      6538
 -2      6539      6165      6151      6524      6540      6167      6526      6541      6542      6168
 -1       407    4    0    1
 -2      4135      4250      4255      4140      4136      4251      4256      4141      6526      6541
 -2      6542      6168      6154      6527      6543      6170      6529      6544      6545      6171
 -1       408    4    0    1
 -2      4136      4251      4256      4141      2899      2922      2923      2900      6529      6544
 -2      6545      6171      6157      6530      6546      6173      3343      3344      3345      3297
 -1       409    4    0    1
 -2       387       410       411       388      4137      4252      4257      4142       832       833
 -2       834       786      6158      6531      6547      6174      6533      6548      6549      6175
 -1       410    4    0    1
 -2      4137      4252      4257      4142      4138      4253      4258      4143      6533      6548
 -2      6549      6175      6161      6534      6550      6177      6536      6551      6552      6178
 -1       411    4    0    1
 -2      4138      4253      4258      4143      4139      4254      4259      4144      6536      6551
 -2      6552      6178      6164      6537      6553      6180      6539      6554      6555      6181
 -1       412    4    0    1
 -2      4139      4254      4259      4144      4140      4255      4260      4145      6539      6554
 -2      6555      6181      6167      6540      6556      6183      6542      6557      6558      6184
 -1       413    4    0    1
 -2      4140      4255      4260      4145      4141      4256      4261      4146      6542      6557
 -2      6558      6184      6170      6543      6559      6186      6545      6560      6561      6187
 -1       414    4    0    1
 -2      4141      4256      4261      4146      2900      2923      2924      2901      6545      6560
 -2      6561      6187      6173      6546      6562      6189      3345      3346      3347      3299
 -1       415    4    0    1
 -2       388       411       412       389      4142      4257      4262      4147       834       835
 -2       836       788      6174      6547      6563      6190      6549      6564      6565      6191
 -1       416    4    0    1
 -2      4142      4257      4262      4147      4143      4258      4263      4148      6549      6564
 -2      6565      6191      6177      6550      6566      6193      6552      6567      6568      6194
 -1       417    4    0    1
 -2      4143      4258      4263      4148      4144      4259      4264      4149      6552      6567
 -2      6568      6194      6180      6553      6569      6196      6555      6570      6571      6197
 -1       418    4    0    1
 -2      4144      4259      4264      4149      4145      4260      4265      4150      6555      6570
 -2      6571      6197      6183      6556      6572      6199      6558      6573      6574      6200
 -1       419    4    0    1
 -2      4145      4260      4265      4150      4146      4261      4266      4151      6558      6573
 -2      6574      6200      6186      6559      6575      6202      6561      6576      6577      6203
 -1       420    4    0    1
 -2      4146      4261      4266      4151      2901      2924      2925      2902      6561      6576
 -2      6577      6203      6189      6562      6578      6205      3347      3348      3349      3301
 -1       421    4    0    1
 -2       389       412       413       390      4147      4262      4267      4152       836       837
 -2       838       790      6190      6563      6579      6206      6565      6580      6581      6207
 -1       422    4    0    1
 -2      4147      4262      4267      4152      4148      4263      4268      4153      6565      6580
 -2      6581      6207      6193      6566      6582      6209      6568      6583      6584      6210
 -1       423    4    0    1
 -2      4148      4263      4268      4153      4149      4264      4269      4154      6568      6583
 -2      6584      6210      6196      6569      6585      6212      6571      6586      6587      6213
 -1       424    4    0    1
 -2      4149      4264      4269      4154      4150      4265      4270      4155      6571      6586
 -2      6587      6213      6199      6572      6588      6215      6574      6589      6590      6216
 -1       425    4    0    1
 -2      4150      4265      4270      4155      4151      4266      4271      4156      6574      6589
 -2      6590      6216      6202      6575      6591      6218      6577      6592      6593      6219
 -1       426    4    0    1
 -2      4151      4266      4271      4156      2902      2925      2926      2903      6577      6592
 -2      6593      6219      6205      6578      6594      6221      3349      3350      3351      3303
 -1       427    4    0    1
 -2       390       413       414       391      4152      4267      4272      4157       838       839
 -2       840       792      6206      6579      6595      6222      6581      6596      6597      6223
 -1       428    4    0    1
 -2      4152      4267      4272      4157      4153      4268      4273      4158      6581      6596
 -2      6597      6223      6209      6582      6598      6225      6584      6599      6600      6226
 -1       429    4    0    1
 -2      4153      4268      4273      4158      4154      4269      4274      4159      6584      6599
 -2      6600      6226      6212      6585      6601      6228      6587      6602      6603      6229
 -1       430    4    0    1
 -2      4154      4269      4274      4159      4155      4270      4275      4160      6587      6602
 -2      6603      6229      6215      6588      6604      6231      6590      6605      6606      6232
 -1       431    4    0    1
 -2      4155      4270      4275      4160      4156      4271      4276      4161      6590      6605
 -2      6606      6232      6218      6591      6607      6234      6593      6608      6609      6235
 -1       432    4    0    1
 -2      4156      4271      4276      4161      2903      2926      2927      2904      6593      6608
 -2      6609      6235      6221      6594      6610      6237      3351      3352      3353      3305
 -1       433    4    0    1
 -2       391       414       415       392      4157      4272      4277      4162       840       841
 -2       842       794      6222      6595      6611      6238      6597      6612      6613      6239
 -1       434    4    0    1
 -2      4157      4272      4277      4162      4158      4273      4278      4163      6597      6612
 -2      6613      6239      6225      6598      6614      6241      6600      6615      6616      6242
 -1       435    4    0    1
 -2      4158      4273      4278      4163      4159      4274      4279      4164      6600      6615
 -2      6616      6242      6228      6601      6617      6244      6603      6618      6619      6245
 -1       436    4    0    1
 -2      4159      4274      4279      4164      4160      4275      4280      4165      6603      6618
 -2      6619      6245      6231      6604      6620      6247      6606      6621      6622      6248
 -1       437    4    0    1
 -2      4160      4275      4280      4165      4161      4276      4281      4166      6606      6621
 -2      6622      6248      6234      6607      6623      6250      6609      6624      6625      6251
 -1       438    4    0    1
 -2      4161      4276      4281      4166      2904      2927      2928      2905      6609      6624
 -2      6625      6251      6237      6610      6626      6253      3353      3354      3355      3307
 -1       439    4    0    1
 -2       392       415       416       393      4162      4277      4282      4167       842       843
 -2       844       796      6238      6611      6627      6254      6613      6628      6629      6255
 -1       440    4    0    1
 -2      4162      4277      4282      4167      4163      4278      4283      4168      6613      6628
 -2      6629      6255      6241      6614      6630      6257      6616      6631      6632      6258
 -1       441    4    0    1
 -2      4163      4278      4283      4168      4164      4279      4284      4169      6616      6631
 -2      6632      6258      6244      6617      6633      6260      6619      6634      6635      6261
 -1       442    4    0    1
 -2      4164      4279      4284      4169      4165      4280      4285      4170      6619      6634
 -2      6635      6261      6247      6620      6636      6263      6622      6637      6638      6264
 -1       443    4    0    1
 -2      4165      4280      4285      4170      4166      4281      4286      4171      6622      6637
 -2      6638      6264      6250      6623      6639      6266      6625      6640      6641      6267
 -1       444    4    0    1
 -2      4166      4281      4286      4171      2905      2928      2929      2906      6625      6640
 -2      6641      6267      6253      6626      6642      6269      3355      3356      3357      3309
 -1       445    4    0    1
 -2       393       416       417       394      4167      4282      4287      4172       844       845
 -2       846       798      6254      6627      6643      6270      6629      6644      6645      6271
 -1       446    4    0    1
 -2      4167      4282      4287      4172      4168      4283      4288      4173      6629      6644
 -2      6645      6271      6257      6630      6646      6273      6632      6647      6648      6274
 -1       447    4    0    1
 -2      4168      4283      4288      4173      4169      4284      4289      4174      6632      6647
 -2      6648      6274      6260      6633      6649      6276      6635      6650      6651      6277
 -1       448    4    0    1
 -2      4169      4284      4289      4174      4170      4285      4290      4175      6635      6650
 -2      6651      6277      6263      6636      6652      6279      6638      6653      6654      6280
 -1       449    4    0    1
 -2      4170      4285      4290      4175      4171      4286      4291      4176      6638      6653
 -2      6654      6280      6266      6639      6655      6282      6641      6656      6657      6283
 -1       450    4    0    1
 -2      4171      4286      4291      4176      2906      2929      2930      2907      6641      6656
 -2      6657      6283      6269      6642      6658      6285      3357      3358      3359      3311
 -1       451    4    0    1
 -2       394       417       418       395      4172      4287      4292      4177       846       847
 -2       848       800      6270      6643      6659      6286      6645      6660      6661      6287
 -1       452    4    0    1
 -2      4172      4287      4292      4177      4173      4288      4293      4178      6645      6660
 -2      6661      6287      6273      6646      6662      6289      6648      6663      6664      6290
 -1       453    4    0    1
 -2      4173      4288      4293      4178      4174      4289      4294      4179      6648      6663
 -2      6664      6290      6276      6649      6665      6292      6651      6666      6667      6293
 -1       454    4    0    1
 -2      4174      4289      4294      4179      4175      4290      4295      4180      6651      6666
 -2      6667      6293      6279      6652      6668      6295      6654      6669      6670      6296
 -1       455    4    0    1
 -2      4175      4290      4295      4180      4176      4291      4296      4181      6654      6669
 -2      6670      6296      6282      6655      6671      6298      6657      6672      6673      6299
 -1       456    4    0    1
 -2      4176      4291      4296      4181      2907      2930      2931      2908      6657      6672
 -2      6673      6299      6285      6658      6674      6301      3359      3360      3361      3313
 -1       457    4    0    1
 -2       395       418       419       396      4177      4292      4297      4182       848       849
 -2       850       802      6286      6659      6675      6302      6661      6676      6677      6303
 -1       458    4    0    1
 -2      4177      4292      4297      4182      4178      4293      4298      4183      6661      6676
 -2      6677      6303      6289      6662      6678      6305      6664      6679      6680      6306
 -1       459    4    0    1
 -2      4178      4293      4298      4183      4179      4294      4299      4184      6664      6679
 -2      6680      6306      6292      6665      6681      6308      6667      6682      6683      6309
 -1       460    4    0    1
 -2      4179      4294      4299      4184      4180      4295      4300      4185      6667      6682
 -2      6683      6309      6295      6668      6684      6311      6670      6685      6686      6312
 -1       461    4    0    1
 -2      4180      4295      4300      4185      4181      4296      4301      4186      6670      6685
 -2      6686      6312      6298      6671      6687      6314      6673      6688      6689      6315
 -1       462    4    0    1
 -2      4181      4296      4301      4186      2908      2931      2932      2909      6673      6688
 -2      6689      6315      6301      6674      6690      6317      3361      3362      3363      3315
 -1       463    4    0    1
 -2       396       419       420       397      4182      4297      4302      4187       850       851
 -2       852       804      6302      6675      6691      6318      6677      6692      6693      6319
 -1       464    4    0    1
 -2      4182      4297      4302      4187      4183      4298      4303      4188      6677      6692
 -2      6693      6319      6305      6678      6694      6321      6680      6695      6696      6322
 -1       465    4    0    1
 -2      4183      4298      4303      4188      4184      4299      4304      4189      6680      6695
 -2      6696      6322      6308      6681      6697      6324      6683      6698      6699      6325
 -1       466    4    0    1
 -2      4184      4299      4304      4189      4185      4300      4305      4190      6683      6698
 -2      6699      6325      6311      6684      6700      6327      6686      6701      6702      6328
 -1       467    4    0    1
 -2      4185      4300      4305      4190      4186      4301      4306      4191      6686      6701
 -2      6702      6328      6314      6687      6703      6330      6689      6704      6705      6331
 -1       468    4    0    1
 -2      4186      4301      4306      4191      2909      2932      2933      2910      6689      6704
 -2      6705      6331      6317      6690      6706      6333      3363      3364      3365      3317
 -1       469    4    0    1
 -2       397       420       421       398      4187      4302      4307      4192       852       853
 -2       854       806      6318      6691      6707      6334      6693      6708      6709      6335
 -1       470    4    0    1
 -2      4187      4302      4307      4192      4188      4303      4308      4193      6693      6708
 -2      6709      6335      6321      6694      6710      6337      6696      6711      6712      6338
 -1       471    4    0    1
 -2      4188      4303      4308      4193      4189      4304      4309      4194      6696      6711
 -2      6712      6338      6324      6697      6713      6340      6699      6714      6715      6341
 -1       472    4    0    1
 -2      4189      4304      4309      4194      4190      4305      4310      4195      6699      6714
 -2      6715      6341      6327      6700      6716      6343      6702      6717      6718      6344
 -1       473    4    0    1
 -2      4190      4305      4310      4195      4191      4306      4311      4196      6702      6717
 -2      6718      6344      6330      6703      6719      6346      6705      6720      6721      6347
 -1       474    4    0    1
 -2      4191      4306      4311      4196      2910      2933      2934      2911      6705      6720
 -2      6721      6347      6333      6706      6722      6349      3365      3366      3367      3319
 -1       475    4    0    1
 -2       398       421       422       399      4192      4307      4312      4197       854       855
 -2       856       808      6334      6707      6723      6350      6709      6724      6725      6351
 -1       476    4    0    1
 -2      4192      4307      4312      4197      4193      4308      4313      4198      6709      6724
 -2      6725      6351      6337      6710      6726      6353      6712      6727      6728      6354
 -1       477    4    0    1
 -2      4193      4308      4313      4198      4194      4309      4314      4199      6712      6727
 -2      6728      6354      6340      6713      6729      6356      6715      6730      6731      6357
 -1       478    4    0    1
 -2      4194      4309      4314      4199      4195      4310      4315      4200      6715      6730
 -2      6731      6357      6343      6716      6732      6359      6718      6733      6734      6360
 -1       479    4    0    1
 -2      4195      4310      4315      4200      4196      4311      4316      4201      6718      6733
 -2      6734      6360      6346      6719      6735      6362      6721      6736      6737      6363
 -1       480    4    0    1
 -2      4196      4311      4316      4201      2911      2934      2935      2912      6721      6736
 -2      6737      6363      6349      6722      6738      6365      3367      3368      3369      3321
 -1       481    4    0    1
 -2       399       422       423       400      4197      4312      4317      4202       856       857
 -2       858       810      6350      6723      6739      6366      6725      6740      6741      6367
 -1       482    4    0    1
 -2      4197      4312      4317      4202      4198      4313      4318      4203      6725      6740
 -2      6741      6367      6353      6726      6742      6369      6728      6743      6744      6370
 -1       483    4    0    1
 -2      4198      4313      4318      4203      4199      4314      4319      4204      6728      6743
 -2      6744      6370      6356      6729      6745      6372      6731      6746      6747      6373
 -1       484    4    0    1
 -2      4199      4314      4319      4204      4200      4315      4320      4205      6731      6746
 -2      6747      6373      6359      6732      6748      6375      6734      6749      6750      6376
 -1       485    4    0    1
 -2      4200      4315      4320      4205      4201      4316      4321      4206      6734      6749
 -2      6750      6376      6362      6735      6751      6378      6737      6752      6753      6379
 -1       486    4    0    1
 -2      4201      4316      4321      4206      2912      2935      2936      2913      6737      6752
 -2      6753      6379      6365      6738      6754      6381      3369      3370      3371      3323
 -1       487    4    0    1
 -2       400       423       424       401      4202      4317      4322      4207       858       859
 -2       860       812      6366      6739      6755      6382      6741      6756      6757      6383
 -1       488    4    0    1
 -2      4202      4317      4322      4207      4203      4318      4323      4208      6741      6756
 -2      6757      6383      6369      6742      6758      6385      6744      6759      6760      6386
 -1       489    4    0    1
 -2      4203      4318      4323      4208      4204      4319      4324      4209      6744      6759
 -2      6760      6386      6372      6745      6761      6388      6747      6762      6763      6389
 -1       490    4    0    1
 -2      4204      4319      4324      4209      4205      4320      4325      4210      6747      6762
 -2      6763      6389      6375      6748      6764      6391      6750      6765      6766      6392
 -1       491    4    0    1
 -2      4205      4320      4325      4210      4206      4321      4326      4211      6750      6765
 -2      6766      6392      6378      6751      6767      6394      6753      6768      6769      6395
 -1       492    4    0    1
 -2      4206      4321      4326      4211      2913      2936      2937      2914      6753      6768
 -2      6769      6395      6381      6754      6770      6397      3371      3372      3373      3325
 -1       493    4    0    1
 -2       401       424       425       402      4207      4322      4327      4212       860       861
 -2       862       814      6382      6755      6771      6398      6757      6772      6773      6399
 -1       494    4    0    1
 -2      4207      4322      4327      4212      4208      4323      4328      4213      6757      6772
 -2      6773      6399      6385      6758      6774      6401      6760      6775      6776      6402
 -1       495    4    0    1
 -2      4208      4323      4328      4213      4209      4324      4329      4214      6760      6775
 -2      6776      6402      6388      6761      6777      6404      6763      6778      6779      6405
 -1       496    4    0    1
 -2      4209      4324      4329      4214      4210      4325      4330      4215      6763      6778
 -2      6779      6405      6391      6764      6780      6407      6766      6781      6782      6408
 -1       497    4    0    1
 -2      4210      4325      4330      4215      4211      4326      4331      4216      6766      6781
 -2      6782      6408      6394      6767      6783      6410      6769      6784      6785      6411
 -1       498    4    0    1
 -2      4211      4326      4331      4216      2914      2937      2938      2915      6769      6784
 -2      6785      6411      6397      6770      6786      6413      3373      3374      3375      3327
 -1       499    4    0    1
 -2       402       425       426       403      4212      4327      4332      4217       862       863
 -2       864       816      6398      6771      6787      6414      6773      6788      6789      6415
 -1       500    4    0    1
 -2      4212      4327      4332      4217      4213      4328      4333      4218      6773      6788
 -2      6789      6415      6401      6774      6790      6417      6776      6791      6792      6418
 -1       501    4    0    1
 -2      4213      4328      4333      4218      4214      4329      4334      4219      6776      6791
 -2      6792      6418      6404      6777      6793      6420      6779      6794      6795      6421
 -1       502    4    0    1
 -2      4214      4329      4334      4219      4215      4330      4335      4220      6779      6794
 -2      6795      6421      6407      6780      6796      6423      6782      6797      6798      6424
 -1       503    4    0    1
 -2      4215      4330      4335      4220      4216      4331      4336      4221      6782      6797
 -2      6798      6424      6410      6783      6799      6426      6785      6800      6801      6427
 -1       504    4    0    1
 -2      4216      4331      4336      4221      2915      2938      2939      2916      6785      6800
 -2      6801      6427      6413      6786      6802      6429      3375      3376      3377      3329
 -1       505    4    0    1
 -2       403       426       106       107      4217      4332      2319      2324       864       865
 -2       124       818      6414      6787      2494      2505      6789      6803      2506      6430
 -1       506    4    0    1
 -2      4217      4332      2319      2324      4218      4333      2320      2325      6789      6803
 -2      2506      6430      6417      6790      2496      2507      6792      6804      2508      6431
 -1       507    4    0    1
 -2      4218      4333      2320      2325      4219      4334      2321      2326      6792      6804
 -2      2508      6431      6420      6793      2498      2509      6795      6805      2510      6432
 -1       508    4    0    1
 -2      4219      4334      2321      2326      4220      4335      2322      2327      6795      6805
 -2      2510      6432      6423      6796      2500      2511      6798      6806      2512      6433
 -1       509    4    0    1
 -2      4220      4335      2322      2327      4221      4336      2323      2328      6798      6806
 -2      2512      6433      6426      6799      2502      2513      6801      6807      2514      6434
 -1       510    4    0    1
 -2      4221      4336      2323      2328      2916      2939       270       271      6801      6807
 -2      2514      6434      6429      6802      2504      2515      3377      3378       288      3331
 -1       511    4    0    1
 -2        10        11       427       404      1599      1604      4337      4222        28       866
 -2       867       819      1690      1701      6808      6435      1702      6809      6810      6436
 -1       512    4    0    1
 -2      1599      1604      4337      4222      1600      1605      4338      4223      1702      6809
 -2      6810      6436      1692      1703      6811      6438      1704      6812      6813      6439
 -1       513    4    0    1
 -2      1600      1605      4338      4223      1601      1606      4339      4224      1704      6812
 -2      6813      6439      1694      1705      6814      6441      1706      6815      6816      6442
 -1       514    4    0    1
 -2      1601      1606      4339      4224      1602      1607      4340      4225      1706      6815
 -2      6816      6442      1696      1707      6817      6444      1708      6818      6819      6445
 -1       515    4    0    1
 -2      1602      1607      4340      4225      1603      1608      4341      4226      1708      6818
 -2      6819      6445      1698      1709      6820      6447      1710      6821      6822      6448
 -1       516    4    0    1
 -2      1603      1608      4341      4226       174       175      2940      2917      1710      6821
 -2      6822      6448      1700      1711      6823      6450       192      3379      3380      3332
 -1       517    4    0    1
 -2       404       427       428       405      4222      4337      4342      4227       867       868
 -2       869       821      6435      6808      6824      6451      6810      6825      6826      6452
 -1       518    4    0    1
 -2      4222      4337      4342      4227      4223      4338      4343      4228      6810      6825
 -2      6826      6452      6438      6811      6827      6454      6813      6828      6829      6455
 -1       519    4    0    1
 -2      4223      4338      4343      4228      4224      4339      4344      4229      6813      6828
 -2      6829      6455      6441      6814      6830      6457      6816      6831      6832      6458
 -1       520    4    0    1
 -2      4224      4339      4344      4229      4225      4340      4345      4230      6816      6831
 -2      6832      6458      6444      6817      6833      6460      6819      6834      6835      6461
 -1       521    4    0    1
 -2      4225      4340      4345      4230      4226      4341      4346      4231      6819      6834
 -2      6835      6461      6447      6820      6836      6463      6822      6837      6838      6464
 -1       522    4    0    1
 -2      4226      4341      4346      4231      2917      2940      2941      2918      6822      6837
 -2      6838      6464      6450      6823      6839      6466      3380      3381      3382      3334
 -1       523    4    0    1
 -2       405       428       429       406      4227      4342      4347      4232       869       870
 -2       871       823      6451      6824      6840      6467      6826      6841      6842      6468
 -1       524    4    0    1
 -2      4227      4342      4347      4232      4228      4343      4348      4233      6826      6841
 -2      6842      6468      6454      6827      6843      6470      6829      6844      6845      6471
 -1       525    4    0    1
 -2      4228      4343      4348      4233      4229      4344      4349      4234      6829      6844
 -2      6845      6471      6457      6830      6846      6473      6832      6847      6848      6474
 -1       526    4    0    1
 -2      4229      4344      4349      4234      4230      4345      4350      4235      6832      6847
 -2      6848      6474      6460      6833      6849      6476      6835      6850      6851      6477
 -1       527    4    0    1
 -2      4230      4345      4350      4235      4231      4346      4351      4236      6835      6850
 -2      6851      6477      6463      6836      6852      6479      6838      6853      6854      6480
 -1       528    4    0    1
 -2      4231      4346      4351      4236      2918      2941      2942      2919      6838      6853
 -2      6854      6480      6466      6839      6855      6482      3382      3383      3384      3336
 -1       529    4    0    1
 -2       406       429       430       407      4232      4347      4352      4237       871       872
 -2       873       825      6467      6840      6856      6483      6842      6857      6858      6484
 -1       530    4    0    1
 -2      4232      4347      4352      4237      4233      4348      4353      4238      6842      6857
 -2      6858      6484      6470      6843      6859      6486      6845      6860      6861      6487
 -1       531    4    0    1
 -2      4233      4348      4353      4238      4234      4349      4354      4239      6845      6860
 -2      6861      6487      6473      6846      6862      6489      6848      6863      6864      6490
 -1       532    4    0    1
 -2      4234      4349      4354      4239      4235      4350      4355      4240      6848      6863
 -2      6864      6490      6476      6849      6865      6492      6851      6866      6867      6493
 -1       533    4    0    1
 -2      4235      4350      4355      4240      4236      4351      4356      4241      6851      6866
 -2      6867      6493      6479      6852      6868      6495      6854      6869      6870      6496
 -1       534    4    0    1
 -2      4236      4351      4356      4241      2919      2942      2943      2920      6854      6869
 -2      6870      6496      6482      6855      6871      6498      3384      3385      3386      3338
 -1       535    4    0    1
 -2       407       430       431       408      4237      4352      4357      4242       873       874
 -2       875       827      6483      6856      6872      6499      6858      6873      6874      6500
 -1       536    4    0    1
 -2      4237      4352      4357      4242      4238      4353      4358      4243      6858      6873
 -2      6874      6500      6486      6859      6875      6502      6861      6876      6877      6503
 -1       537    4    0    1
 -2      4238      4353      4358      4243      4239      4354      4359      4244      6861      6876
 -2      6877      6503      6489      6862      6878      6505      6864      6879      6880      6506
 -1       538    4    0    1
 -2      4239      4354      4359      4244      4240      4355      4360      4245      6864      6879
 -2      6880      6506      6492      6865      6881      6508      6867      6882      6883      6509
 -1       539    4    0    1
 -2      4240      4355      4360      4245      4241      4356      4361      4246      6867      6882
 -2      6883      6509      6495      6868      6884      6511      6870      6885      6886      6512
 -1       540    4    0    1
 -2      4241      4356      4361      4246      2920      2943      2944      2921      6870      6885
 -2      6886      6512      6498      6871      6887      6514      3386      3387      3388      3340
 -1       541    4    0    1
 -2       408       431       432       409      4242      4357      4362      4247       875       876
 -2       877       829      6499      6872      6888      6515      6874      6889      6890      6516
 -1       542    4    0    1
 -2      4242      4357      4362      4247      4243      4358      4363      4248      6874      6889
 -2      6890      6516      6502      6875      6891      6518      6877      6892      6893      6519
 -1       543    4    0    1
 -2      4243      4358      4363      4248      4244      4359      4364      4249      6877      6892
 -2      6893      6519      6505      6878      6894      6521      6880      6895      6896      6522
 -1       544    4    0    1
 -2      4244      4359      4364      4249      4245      4360      4365      4250      6880      6895
 -2      6896      6522      6508      6881      6897      6524      6883      6898      6899      6525
 -1       545    4    0    1
 -2      4245      4360      4365      4250      4246      4361      4366      4251      6883      6898
 -2      6899      6525      6511      6884      6900      6527      6886      6901      6902      6528
 -1       546    4    0    1
 -2      4246      4361      4366      4251      2921      2944      2945      2922      6886      6901
 -2      6902      6528      6514      6887      6903      6530      3388      3389      3390      3342
 -1       547    4    0    1
 -2       409       432       433       410      4247      4362      4367      4252       877       878
 -2       879       831      6515      6888      6904      6531      6890      6905      6906      6532
 -1       548    4    0    1
 -2      4247      4362      4367      4252      4248      4363      4368      4253      6890      6905
 -2      6906      6532      6518      6891      6907      6534      6893      6908      6909      6535
 -1       549    4    0    1
 -2      4248      4363      4368      4253      4249      4364      4369      4254      6893      6908
 -2      6909      6535      6521      6894      6910      6537      6896      6911      6912      6538
 -1       550    4    0    1
 -2      4249      4364      4369      4254      4250      4365      4370      4255      6896      6911
 -2      6912      6538      6524      6897      6913      6540      6899      6914      6915      6541
 -1       551    4    0    1
 -2      4250      4365      4370      4255      4251      4366      4371      4256      6899      6914
 -2      6915      6541      6527      6900      6916      6543      6902      6917      6918      6544
 -1       552    4    0    1
 -2      4251      4366      4371      4256      2922      2945      2946      2923      6902      6917
 -2      6918      6544      6530      6903      6919      6546      3390      3391      3392      3344
 -1       553    4    0    1
 -2       410       433       434       411      4252      4367      4372      4257       879       880
 -2       881       833      6531      6904      6920      6547      6906      6921      6922      6548
 -1       554    4    0    1
 -2      4252      4367      4372      4257      4253      4368      4373      4258      6906      6921
 -2      6922      6548      6534      6907      6923      6550      6909      6924      6925      6551
 -1       555    4    0    1
 -2      4253      4368      4373      4258      4254      4369      4374      4259      6909      6924
 -2      6925      6551      6537      6910      6926      6553      6912      6927      6928      6554
 -1       556    4    0    1
 -2      4254      4369      4374      4259      4255      4370      4375      4260      6912      6927
 -2      6928      6554      6540      6913      6929      6556      6915      6930      6931      6557
 -1       557    4    0    1
 -2      4255      4370      4375      4260      4256      4371      4376      4261      6915      6930
 -2      6931      6557      6543      6916      6932      6559      6918      6933      6934      6560
 -1       558    4    0    1
 -2      4256      4371      4376      4261      2923      2946      2947      2924      6918      6933
 -2      6934      6560      6546      6919      6935      6562      3392      3393      3394      3346
 -1       559    4    0    1
 -2       411       434       435       412      4257      4372      4377      4262       881       882
 -2       883       835      6547      6920      6936      6563      6922      6937      6938      6564
 -1       560    4    0    1
 -2      4257      4372      4377      4262      4258      4373      4378      4263      6922      6937
 -2      6938      6564      6550      6923      6939      6566      6925      6940      6941      6567
 -1       561    4    0    1
 -2      4258      4373      4378      4263      4259      4374      4379      4264      6925      6940
 -2      6941      6567      6553      6926      6942      6569      6928      6943      6944      6570
 -1       562    4    0    1
 -2      4259      4374      4379      4264      4260      4375      4380      4265      6928      6943
 -2      6944      6570      6556      6929      6945      6572      6931      6946      6947      6573
 -1       563    4    0    1
 -2      4260      4375      4380      4265      4261      4376      4381      4266      6931      6946
 -2      6947      6573      6559      6932      6948      6575      6934      6949      6950      6576
 -1       564    4    0    1
 -2      4261      4376      4381      4266      2924      2947      2948      2925      6934      6949
 -2      6950      6576      6562      6935      6951      6578      3394      3395      3396      3348
 -1       565    4    0    1
 -2       412       435       436       413      4262      4377      4382      4267       883       884
 -2       885       837      6563      6936      6952      6579      6938      6953      6954      6580
 -1       566    4    0    1
 -2      4262      4377      4382      4267      4263      4378      4383      4268      6938      6953
 -2      6954      6580      6566      6939      6955      6582      6941      6956      6957      6583
 -1       567    4    0    1
 -2      4263      4378      4383      4268      4264      4379      4384      4269      6941      6956
 -2      6957      6583      6569      6942      6958      6585      6944      6959      6960      6586
 -1       568    4    0    1
 -2      4264      4379      4384      4269      4265      4380      4385      4270      6944      6959
 -2      6960      6586      6572      6945      6961      6588      6947      6962      6963      6589
 -1       569    4    0    1
 -2      4265      4380      4385      4270      4266      4381      4386      4271      6947      6962
 -2      6963      6589      6575      6948      6964      6591      6950      6965      6966      6592
 -1       570    4    0    1
 -2      4266      4381      4386      4271      2925      2948      2949      2926      6950      6965
 -2      6966      6592      6578      6951      6967      6594      3396      3397      3398      3350
 -1       571    4    0    1
 -2       413       436       437       414      4267      4382      4387      4272       885       886
 -2       887       839      6579      6952      6968      6595      6954      6969      6970      6596
 -1       572    4    0    1
 -2      4267      4382      4387      4272      4268      4383      4388      4273      6954      6969
 -2      6970      6596      6582      6955      6971      6598      6957      6972      6973      6599
 -1       573    4    0    1
 -2      4268      4383      4388      4273      4269      4384      4389      4274      6957      6972
 -2      6973      6599      6585      6958      6974      6601      6960      6975      6976      6602
 -1       574    4    0    1
 -2      4269      4384      4389      4274      4270      4385      4390      4275      6960      6975
 -2      6976      6602      6588      6961      6977      6604      6963      6978      6979      6605
 -1       575    4    0    1
 -2      4270      4385      4390      4275      4271      4386      4391      4276      6963      6978
 -2      6979      6605      6591      6964      6980      6607      6966      6981      6982      6608
 -1       576    4    0    1
 -2      4271      4386      4391      4276      2926      2949      2950      2927      6966      6981
 -2      6982      6608      6594      6967      6983      6610      3398      3399      3400      3352
 -1       577    4    0    1
 -2       414       437       438       415      4272      4387      4392      4277       887       888
 -2       889       841      6595      6968      6984      6611      6970      6985      6986      6612
 -1       578    4    0    1
 -2      4272      4387      4392      4277      4273      4388      4393      4278      6970      6985
 -2      6986      6612      6598      6971      6987      6614      6973      6988      6989      6615
 -1       579    4    0    1
 -2      4273      4388      4393      4278      4274      4389      4394      4279      6973      6988
 -2      6989      6615      6601      6974      6990      6617      6976      6991      6992      6618
 -1       580    4    0    1
 -2      4274      4389      4394      4279      4275      4390      4395      4280      6976      6991
 -2      6992      6618      6604      6977      6993      6620      6979      6994      6995      6621
 -1       581    4    0    1
 -2      4275      4390      4395      4280      4276      4391      4396      4281      6979      6994
 -2      6995      6621      6607      6980      6996      6623      6982      6997      6998      6624
 -1       582    4    0    1
 -2      4276      4391      4396      4281      2927      2950      2951      2928      6982      6997
 -2      6998      6624      6610      6983      6999      6626      3400      3401      3402      3354
 -1       583    4    0    1
 -2       415       438       439       416      4277      4392      4397      4282       889       890
 -2       891       843      6611      6984      7000      6627      6986      7001      7002      6628
 -1       584    4    0    1
 -2      4277      4392      4397      4282      4278      4393      4398      4283      6986      7001
 -2      7002      6628      6614      6987      7003      6630      6989      7004      7005      6631
 -1       585    4    0    1
 -2      4278      4393      4398      4283      4279      4394      4399      4284      6989      7004
 -2      7005      6631      6617      6990      7006      6633      6992      7007      7008      6634
 -1       586    4    0    1
 -2      4279      4394      4399      4284      4280      4395      4400      4285      6992      7007
 -2      7008      6634      6620      6993      7009      6636      6995      7010      7011      6637
 -1       587    4    0    1
 -2      4280      4395      4400      4285      4281      4396      4401      4286      6995      7010
 -2      7011      6637      6623      6996      7012      6639      6998      7013      7014      6640
 -1       588    4    0    1
 -2      4281      4396      4401      4286      2928      2951      2952      2929      6998      7013
 -2      7014      6640      6626      6999      7015      6642      3402      3403      3404      3356
 -1       589    4    0    1
 -2       416       439       440       417      4282      4397      4402      4287       891       892
 -2       893       845      6627      7000      7016      6643      7002      7017      7018      6644
 -1       590    4    0    1
 -2      4282      4397      4402      4287      4283      4398      4403      4288      7002      7017
 -2      7018      6644      6630      7003      7019      6646      7005      7020      7021      6647
 -1       591    4    0    1
 -2      4283      4398      4403      4288      4284      4399      4404      4289      7005      7020
 -2      7021      6647      6633      7006      7022      6649      7008      7023      7024      6650
 -1       592    4    0    1
 -2      4284      4399      4404      4289      4285      4400      4405      4290      7008      7023
 -2      7024      6650      6636      7009      7025      6652      7011      7026      7027      6653
 -1       593    4    0    1
 -2      4285      4400      4405      4290      4286      4401      4406      4291      7011      7026
 -2      7027      6653      6639      7012      7028      6655      7014      7029      7030      6656
 -1       594    4    0    1
 -2      4286      4401      4406      4291      2929      2952      2953      2930      7014      7029
 -2      7030      6656      6642      7015      7031      6658      3404      3405      3406      3358
 -1       595    4    0    1
 -2       417       440       441       418      4287      4402      4407      4292       893       894
 -2       895       847      6643      7016      7032      6659      7018      7033      7034      6660
 -1       596    4    0    1
 -2      4287      4402      4407      4292      4288      4403      4408      4293      7018      7033
 -2      7034      6660      6646      7019      7035      6662      7021      7036      7037      6663
 -1       597    4    0    1
 -2      4288      4403      4408      4293      4289      4404      4409      4294      7021      7036
 -2      7037      6663      6649      7022      7038      6665      7024      7039      7040      6666
 -1       598    4    0    1
 -2      4289      4404      4409      4294      4290      4405      4410      4295      7024      7039
 -2      7040      6666      6652      7025      7041      6668      7027      7042      7043      6669
 -1       599    4    0    1
 -2      4290      4405      4410      4295      4291      4406      4411      4296      7027      7042
 -2      7043      6669      6655      7028      7044      6671      7030      7045      7046      6672
 -1       600    4    0    1
 -2      4291      4406      4411      4296      2930      2953      2954      2931      7030      7045
 -2      7046      6672      6658      7031      7047      6674      3406      3407      3408      3360
 -1       601    4    0    1
 -2       418       441       442       419      4292      4407      4412      4297       895       896
 -2       897       849      6659      7032      7048      6675      7034      7049      7050      6676
 -1       602    4    0    1
 -2      4292      4407      4412      4297      4293      4408      4413      4298      7034      7049
 -2      7050      6676      6662      7035      7051      6678      7037      7052      7053      6679
 -1       603    4    0    1
 -2      4293      4408      4413      4298      4294      4409      4414      4299      7037      7052
 -2      7053      6679      6665      7038      7054      6681      7040      7055      7056      6682
 -1       604    4    0    1
 -2      4294      4409      4414      4299      4295      4410      4415      4300      7040      7055
 -2      7056      6682      6668      7041      7057      6684      7043      7058      7059      6685
 -1       605    4    0    1
 -2      4295      4410      4415      4300      4296      4411      4416      4301      7043      7058
 -2      7059      6685      6671      7044      7060      6687      7046      7061      7062      6688
 -1       606    4    0    1
 -2      4296      4411      4416      4301      2931      2954      2955      2932      7046      7061
 -2      7062      6688      6674      7047      7063      6690      3408      3409      3410      3362
 -1       607    4    0    1
 -2       419       442       443       420      4297      4412      4417      4302       897       898
 -2       899       851      6675      7048      7064      6691      7050      7065      7066      6692
 -1       608    4    0    1
 -2      4297      4412      4417      4302      4298      4413      4418      4303      7050      7065
 -2      7066      6692      6678      7051      7067      6694      7053      7068      7069      6695
 -1       609    4    0    1
 -2      4298      4413      4418      4303      4299      4414      4419      4304      7053      7068
 -2      7069      6695      6681      7054      7070      6697      7056      7071      7072      6698
 -1       610    4    0    1
 -2      4299      4414      4419      4304      4300      4415      4420      4305      7056      7071
 -2      7072      6698      6684      7057      7073      6700      7059      7074      7075      6701
 -1       611    4    0    1
 -2      4300      4415      4420      4305      4301      4416      4421      4306      7059      7074
 -2      7075      6701      6687      7060      7076      6703      7062      7077      7078      6704
 -1       612    4    0    1
 -2      4301      4416      4421      4306      2932      2955      2956      2933      7062      7077
 -2      7078      6704      6690      7063      7079      6706      3410      3411      3412      3364
 -1       613    4    0    1
 -2       420       443       444       421      4302      4417      4422      4307       899       900
 -2       901       853      6691      7064      7080      6707      7066      7081      7082      6708
 -1       614    4    0    1
 -2      4302      4417      4422      4307      4303      4418      4423      4308      7066      7081
 -2      7082      6708      6694      7067      7083      6710      7069      7084      7085      6711
 -1       615    4    0    1
 -2      4303      4418      4423      4308      4304      4419      4424      4309      7069      7084
 -2      7085      6711      6697      7070      7086      6713      7072      7087      7088      6714
 -1       616    4    0    1
 -2      4304      4419      4424      4309      4305      4420      4425      4310      7072      7087
 -2      7088      6714      6700      7073      7089      6716      7075      7090      7091      6717
 -1       617    4    0    1
 -2      4305      4420      4425      4310      4306      4421      4426      4311      7075      7090
 -2      7091      6717      6703      7076      7092      6719      7078      7093      7094      6720
 -1       618    4    0    1
 -2      4306      4421      4426      4311      2933      2956      2957      2934      7078      7093
 -2      7094      6720      6706      7079      7095      6722      3412      3413      3414      3366
 -1       619    4    0    1
 -2       421       444       445       422      4307      4422      4427      4312       901       902
 -2       903       855      6707      7080      7096      6723      7082      7097      7098      6724
 -1       620    4    0    1
 -2      4307      4422      4427      4312      4308      4423      4428      4313      7082      7097
 -2      7098      6724      6710      7083      7099      6726      7085      7100      7101      6727
 -1       621    4    0    1
 -2      4308      4423      4428      4313      4309      4424      4429      4314      7085      7100
 -2      7101      6727      6713      7086      7102      6729      7088      7103      7104      6730
 -1       622    4    0    1
 -2      4309      4424      4429      4314      4310      4425      4430      4315      7088      7103
 -2      7104      6730      6716      7089      7105      6732      7091      7106      7107      6733
 -1       623    4    0    1
 -2      4310      4425      4430      4315      4311      4426      4431      4316      7091      7106
 -2      7107      6733      6719      7092      7108      6735      7094      7109      7110      6736
 -1       624    4    0    1
 -2      4311      4426      4431      4316      2934      2957      2958      2935      7094      7109
 -2      7110      6736      6722      7095      7111      6738      3414      3415      3416      3368
 -1       625    4    0    1
 -2       422       445       446       423      4312      4427      4432      4317       903       904
 -2       905       857      6723      7096      7112      6739      7098      7113      7114      6740
 -1       626    4    0    1
 -2      4312      4427      4432      4317      4313      4428      4433      4318      7098      7113
 -2      7114      6740      6726      7099      7115      6742      7101      7116      7117      6743
 -1       627    4    0    1
 -2      4313      4428      4433      4318      4314      4429      4434      4319      7101      7116
 -2      7117      6743      6729      7102      7118      6745      7104      7119      7120      6746
 -1       628    4    0    1
 -2      4314      4429      4434      4319      4315      4430      4435      4320      7104      7119
 -2      7120      6746      6732      7105      7121      6748      7107      7122      7123      6749
 -1       629    4    0    1
 -2      4315      4430      4435      4320      4316      4431      4436      4321      7107      7122
 -2      7123      6749      6735      7108      7124      6751      7110      7125      7126      6752
 -1       630    4    0    1
 -2      4316      4431      4436      4321      2935      2958      2959      2936      7110      7125
 -2      7126      6752      6738      7111      7127      6754      3416      3417      3418      3370
 -1       631    4    0    1
 -2       423       446       447       424      4317      4432      4437      4322       905       906
 -2       907       859      6739      7112      7128      6755      7114      7129      7130      6756
 -1       632    4    0    1
 -2      4317      4432      4437      4322      4318      4433      4438      4323      7114      7129
 -2      7130      6756      6742      7115      7131      6758      7117      7132      7133      6759
 -1       633    4    0    1
 -2      4318      4433      4438      4323      4319      4434      4439      4324      7117      7132
 -2      7133      6759      6745      7118      7134      6761      7120      7135      7136      6762
 -1       634    4    0    1
 -2      4319      4434      4439      4324      4320      4435      4440      4325      7120      7135
 -2      7136      6762      6748      7121      7137      6764      7123      7138      7139      6765
 -1       635    4    0    1
 -2      4320      4435      4440      4325      4321      4436      4441      4326      7123      7138
 -2      7139      6765      6751      7124      7140      6767      7126      7141      7142      6768
 -1       636    4    0    1
 -2      4321      4436      4441      4326      2936      2959      2960      2937      7126      7141
 -2      7142      6768      6754      7127      7143      6770      3418      3419      3420      3372
 -1       637    4    0    1
 -2       424       447       448       425      4322      4437      4442      4327       907       908
 -2       909       861      6755      7128      7144      6771      7130      7145      7146      6772
 -1       638    4    0    1
 -2      4322      4437      4442      4327      4323      4438      4443      4328      7130      7145
 -2      7146      6772      6758      7131      7147      6774      7133      7148      7149      6775
 -1       639    4    0    1
 -2      4323      4438      4443      4328      4324      4439      4444      4329      7133      7148
 -2      7149      6775      6761      7134      7150      6777      7136      7151      7152      6778
 -1       640    4    0    1
 -2      4324      4439      4444      4329      4325      4440      4445      4330      7136      7151
 -2      7152      6778      6764      7137      7153      6780      7139      7154      7155      6781
 -1       641    4    0    1
 -2      4325      4440      4445      4330      4326      4441      4446      4331      7139      7154
 -2      7155      6781      6767      7140      7156      6783      7142      7157      7158      6784
 -1       642    4    0    1
 -2      4326      4441      4446      4331      2937      2960      2961      2938      7142      7157
 -2      7158      6784      6770      7143      7159      6786      3420      3421      3422      3374
 -1       643    4    0    1
 -2       425       448       449       426      4327      4442      4447      4332       909       910
 -2       911       863      6771      7144      7160      6787      7146      7161      7162      6788
 -1       644    4    0    1
 -2      4327      4442      4447      4332      4328      4443      4448      4333      7146      7161
 -2      7162      6788      6774      7147      7163      6790      7149      7164      7165      6791
 -1       645    4    0    1
 -2      4328      4443      4448      4333      4329      4444      4449      4334      7149      7164
 -2      7165      6791      6777      7150      7166      6793      7152      7167      7168      6794
 -1       646    4    0    1
 -2      4329      4444      4449      4334      4330      4445      4450      4335      7152      7167
 -2      7168      6794      6780      7153      7169      6796      7155      7170      7171      6797
 -1       647    4    0    1
 -2      4330      4445      4450      4335      4331      4446      4451      4336      7155      7170
 -2      7171      6797      6783      7156      7172      6799      7158      7173      7174      6800
 -1       648    4    0    1
 -2      4331      4446      4451      4336      2938      2961      2962      2939      7158      7173
 -2      7174      6800      6786      7159      7175      6802      3422      3423      3424      3376
 -1       649    4    0    1
 -2       426       449       105       106      4332      4447      2314      2319       911       912
 -2       123       865      6787      7160      2483      2494      7162      7176      2495      6803
 -1       650    4    0    1
 -2      4332      4447      2314      2319      4333      4448      2315      2320      7162      7176
 -2      2495      6803      6790      7163      2485      2496      7165      7177      2497      6804
 -1       651    4    0    1
 -2      4333      4448      2315      2320      4334      4449      2316      2321      7165      7177
 -2      2497      6804      6793      7166      2487      2498      7168      7178      2499      6805
 -1       652    4    0    1
 -2      4334      4449      2316      2321      4335      4450      2317      2322      7168      7178
 -2      2499      6805      6796      7169      2489      2500      7171      7179      2501      6806
 -1       653    4    0    1
 -2      4335      4450      2317      2322      4336      4451      2318      2323      7171      7179
 -2      2501      6806      6799      7172      2491      2502      7174      7180      2503      6807
 -1       654    4    0    1
 -2      4336      4451      2318      2323      2939      2962       269       270      7174      7180
 -2      2503      6807      6802      7175      2493      2504      3424      3425       287      3378
 -1       655    4    0    1
 -2        11        12       450       427      1604      1609      4452      4337        29       913
 -2       914       866      1701      1712      7181      6808      1713      7182      7183      6809
 -1       656    4    0    1
 -2      1604      1609      4452      4337      1605      1610      4453      4338      1713      7182
 -2      7183      6809      1703      1714      7184      6811      1715      7185      7186      6812
 -1       657    4    0    1
 -2      1605      1610      4453      4338      1606      1611      4454      4339      1715      7185
 -2      7186      6812      1705      1716      7187      6814      1717      7188      7189      6815
 -1       658    4    0    1
 -2      1606      1611      4454      4339      1607      1612      4455      4340      1717      7188
 -2      7189      6815      1707      1718      7190      6817      1719      7191      7192      6818
 -1       659    4    0    1
 -2      1607      1612      4455      4340      1608      1613      4456      4341      1719      7191
 -2      7192      6818      1709      1720      7193      6820      1721      7194      7195      6821
 -1       660    4    0    1
 -2      1608      1613      4456      4341       175       176      2963      2940      1721      7194
 -2      7195      6821      1711      1722      7196      6823       193      3426      3427      3379
 -1       661    4    0    1
 -2       427       450       451       428      4337      4452      4457      4342       914       915
 -2       916       868      6808      7181      7197      6824      7183      7198      7199      6825
 -1       662    4    0    1
 -2      4337      4452      4457      4342      4338      4453      4458      4343      7183      7198
 -2      7199      6825      6811      7184      7200      6827      7186      7201      7202      6828
 -1       663    4    0    1
 -2      4338      4453      4458      4343      4339      4454      4459      4344      7186      7201
 -2      7202      6828      6814      7187      7203      6830      7189      7204      7205      6831
 -1       664    4    0    1
 -2      4339      4454      4459      4344      4340      4455      4460      4345      7189      7204
 -2      7205      6831      6817      7190      7206      6833      7192      7207      7208      6834
 -1       665    4    0    1
 -2      4340      4455      4460      4345      4341      4456      4461      4346      7192      7207
 -2      7208      6834      6820      7193      7209      6836      7195      7210      7211      6837
 -1       666    4    0    1
 -2      4341      4456      4461      4346      2940      2963      2964      2941      7195      7210
 -2      7211      6837      6823      7196      7212      6839      3427      3428      3429      3381
 -1       667    4    0    1
 -2       428       451       452       429      4342      4457      4462      4347       916       917
 -2       918       870      6824      7197      7213      6840      7199      7214      7215      6841
 -1       668    4    0    1
 -2      4342      4457      4462      4347      4343      4458      4463      4348      7199      7214
 -2      7215      6841      6827      7200      7216      6843      7202      7217      7218      6844
 -1       669    4    0    1
 -2      4343      4458      4463      4348      4344      4459      4464      4349      7202      7217
 -2      7218      6844      6830      7203      7219      6846      7205      7220      7221      6847
 -1       670    4    0    1
 -2      4344      4459      4464      4349      4345      4460      4465      4350      7205      7220
 -2      7221      6847      6833      7206      7222      6849      7208      7223      7224      6850
 -1       671    4    0    1
 -2      4345      4460      4465      4350      4346      4461      4466      4351      7208      7223
 -2      7224      6850      6836      7209      7225      6852      7211      7226      7227      6853
 -1       672    4    0    1
 -2      4346      4461      4466      4351      2941      2964      2965      2942      7211      7226
 -2      7227      6853      6839      7212      7228      6855      3429      3430      3431      3383
 -1       673    4    0    1
 -2       429       452       453       430      4347      4462      4467      4352       918       919
 -2       920       872      6840      7213      7229      6856      7215      7230      7231      6857
 -1       674    4    0    1
 -2      4347      4462      4467      4352      4348      4463      4468      4353      7215      7230
 -2      7231      6857      6843      7216      7232      6859      7218      7233      7234      6860
 -1       675    4    0    1
 -2      4348      4463      4468      4353      4349      4464      4469      4354      7218      7233
 -2      7234      6860      6846      7219      7235      6862      7221      7236      7237      6863
 -1       676    4    0    1
 -2      4349      4464      4469      4354      4350      4465      4470      4355      7221      7236
 -2      7237      6863      6849      7222      7238      6865      7224      7239      7240      6866
 -1       677    4    0    1
 -2      4350      4465      4470      4355      4351      4466      4471      4356      7224      7239
 -2      7240      6866      6852      7225      7241      6868      7227      7242      7243      6869
 -1       678    4    0    1
 -2      4351      4466      4471      4356      2942      2965      2966      2943      7227      7242
 -2      7243      6869      6855      7228      7244      6871      3431      3432      3433      3385
 -1       679    4    0    1
 -2       430       453       454       431      4352      4467      4472      4357       920       921
 -2       922       874      6856      7229      7245      6872      7231      7246      7247      6873
 -1       680    4    0    1
 -2      4352      4467      4472      4357      4353      4468      4473      4358      7231      7246
 -2      7247      6873      6859      7232      7248      6875      7234      7249      7250      6876
 -1       681    4    0    1
 -2      4353      4468      4473      4358      4354      4469      4474      4359      7234      7249
 -2      7250      6876      6862      7235      7251      6878      7237      7252      7253      6879
 -1       682    4    0    1
 -2      4354      4469      4474      4359      4355      4470      4475      4360      7237      7252
 -2      7253      6879      6865      7238      7254      6881      7240      7255      7256      6882
 -1       683    4    0    1
 -2      4355      4470      4475      4360      4356      4471      4476      4361      7240      7255
 -2      7256      6882      6868      7241      7257      6884      7243      7258      7259      6885
 -1       684    4    0    1
 -2      4356      4471      4476      4361      2943      2966      2967      2944      7243      7258
 -2      7259      6885      6871      7244      7260      6887      3433      3434      3435      3387
 -1       685    4    0    1
 -2       431       454       455       432      4357      4472      4477      4362       922       923
 -2       924       876      6872      7245      7261      6888      7247      7262      7263      6889
 -1       686    4    0    1
 -2      4357      4472      4477      4362      4358      4473      4478      4363      7247      7262
 -2      7263      6889      6875      7248      7264      6891      7250      7265      7266      6892
 -1       687    4    0    1
 -2      4358      4473      4478      4363      4359      4474      4479      4364      7250      7265
 -2      7266      6892      6878      7251      7267      6894      7253      7268      7269      6895
 -1       688    4    0    1
 -2      4359      4474      4479      4364      4360      4475      4480      4365      7253      7268
 -2      7269      6895      6881      7254      7270      6897      7256      7271      7272      6898
 -1       689    4    0    1
 -2      4360      4475      4480      4365      4361      4476      4481      4366      7256      7271
 -2      7272      6898      6884      7257      7273      6900      7259      7274      7275      6901
 -1       690    4    0    1
 -2      4361      4476      4481      4366      2944      2967      2968      2945      7259      7274
 -2      7275      6901      6887      7260      7276      6903      3435      3436      3437      3389
 -1       691    4    0    1
 -2       432       455       456       433      4362      4477      4482      4367       924       925
 -2       926       878      6888      7261      7277      6904      7263      7278      7279      6905
 -1       692    4    0    1
 -2      4362      4477      4482      4367      4363      4478      4483      4368      7263      7278
 -2      7279      6905      6891      7264      7280      6907      7266      7281      7282      6908
 -1       693    4    0    1
 -2      4363      4478      4483      4368      4364      4479      4484      4369      7266      7281
 -2      7282      6908      6894      7267      7283      6910      7269      7284      7285      6911
 -1       694    4    0    1
 -2      4364      4479      4484      4369      4365      4480      4485      4370      7269      7284
 -2      7285      6911      6897      7270      7286      6913      7272      7287      7288      6914
 -1       695    4    0    1
 -2      4365      4480      4485      4370      4366      4481      4486      4371      7272      7287
 -2      7288      6914      6900      7273      7289      6916      7275      7290      7291      6917
 -1       696    4    0    1
 -2      4366      4481      4486      4371      2945      2968      2969      2946      7275      7290
 -2      7291      6917      6903      7276      7292      6919      3437      3438      3439      3391
 -1       697    4    0    1
 -2       433       456       457       434      4367      4482      4487      4372       926       927
 -2       928       880      6904      7277      7293      6920      7279      7294      7295      6921
 -1       698    4    0    1
 -2      4367      4482      4487      4372      4368      4483      4488      4373      7279      7294
 -2      7295      6921      6907      7280      7296      6923      7282      7297      7298      6924
 -1       699    4    0    1
 -2      4368      4483      4488      4373      4369      4484      4489      4374      7282      7297
 -2      7298      6924      6910      7283      7299      6926      7285      7300      7301      6927
 -1       700    4    0    1
 -2      4369      4484      4489      4374      4370      4485      4490      4375      7285      7300
 -2      7301      6927      6913      7286      7302      6929      7288      7303      7304      6930
 -1       701    4    0    1
 -2      4370      4485      4490      4375      4371      4486      4491      4376      7288      7303
 -2      7304      6930      6916      7289      7305      6932      7291      7306      7307      6933
 -1       702    4    0    1
 -2      4371      4486      4491      4376      2946      2969      2970      2947      7291      7306
 -2      7307      6933      6919      7292      7308      6935      3439      3440      3441      3393
 -1       703    4    0    1
 -2       434       457       458       435      4372      4487      4492      4377       928       929
 -2       930       882      6920      7293      7309      6936      7295      7310      7311      6937
 -1       704    4    0    1
 -2      4372      4487      4492      4377      4373      4488      4493      4378      7295      7310
 -2      7311      6937      6923      7296      7312      6939      7298      7313      7314      6940
 -1       705    4    0    1
 -2      4373      4488      4493      4378      4374      4489      4494      4379      7298      7313
 -2      7314      6940      6926      7299      7315      6942      7301      7316      7317      6943
 -1       706    4    0    1
 -2      4374      4489      4494      4379      4375      4490      4495      4380      7301      7316
 -2      7317      6943      6929      7302      7318      6945      7304      7319      7320      6946
 -1       707    4    0    1
 -2      4375      4490      4495      4380      4376      4491      4496      4381      7304      7319
 -2      7320      6946      6932      7305      7321      6948      7307      7322      7323      6949
 -1       708    4    0    1
 -2      4376      4491      4496      4381      2947      2970      2971      2948      7307      7322
 -2      7323      6949      6935      7308      7324      6951      3441      3442      3443      3395
 -1       709    4    0    1
 -2       435       458       459       436      4377      4492      4497      4382       930       931
 -2       932       884      6936      7309      7325      6952      7311      7326      7327      6953
 -1       710    4    0    1
 -2      4377      4492      4497      4382      4378      4493      4498      4383      7311      7326
 -2      7327      6953      6939      7312      7328      6955      7314      7329      7330      6956
 -1       711    4    0    1
 -2      4378      4493      4498      4383      4379      4494      4499      4384      7314      7329
 -2      7330      6956      6942      7315      7331      6958      7317      7332      7333      6959
 -1       712    4    0    1
 -2      4379      4494      4499      4384      4380      4495      4500      4385      7317      7332
 -2      7333      6959      6945      7318      7334      6961      7320      7335      7336      6962
 -1       713    4    0    1
 -2      4380      4495      4500      4385      4381      4496      4501      4386      7320      7335
 -2      7336      6962      6948      7321      7337      6964      7323      7338      7339      6965
 -1       714    4    0    1
 -2      4381      4496      4501      4386      2948      2971      2972      2949      7323      7338
 -2      7339      6965      6951      7324      7340      6967      3443      3444      3445      3397
 -1       715    4    0    1
 -2       436       459       460       437      4382      4497      4502      4387       932       933
 -2       934       886      6952      7325      7341      6968      7327      7342      7343      6969
 -1       716    4    0    1
 -2      4382      4497      4502      4387      4383      4498      4503      4388      7327      7342
 -2      7343      6969      6955      7328      7344      6971      7330      7345      7346      6972
 -1       717    4    0    1
 -2      4383      4498      4503      4388      4384      4499      4504      4389      7330      7345
 -2      7346      6972      6958      7331      7347      6974      7333      7348      7349      6975
 -1       718    4    0    1
 -2      4384      4499      4504      4389      4385      4500      4505      4390      7333      7348
 -2      7349      6975      6961      7334      7350      6977      7336      7351      7352      6978
 -1       719    4    0    1
 -2      4385      4500      4505      4390      4386      4501      4506      4391      7336      7351
 -2      7352      6978      6964      7337      7353      6980      7339      7354      7355      6981
 -1       720    4    0    1
 -2      4386      4501      4506      4391      2949      2972      2973      2950      7339      7354
 -2      7355      6981      6967      7340      7356      6983      3445      3446      3447      3399
 -1       721    4    0    1
 -2       437       460       461       438      4387      4502      4507      4392       934       935
 -2       936       888      6968      7341      7357      6984      7343      7358      7359      6985
 -1       722    4    0    1
 -2      4387      4502      4507      4392      4388      4503      4508      4393      7343      7358
 -2      7359      6985      6971      7344      7360      6987      7346      7361      7362      6988
 -1       723    4    0    1
 -2      4388      4503      4508      4393      4389      4504      4509      4394      7346      7361
 -2      7362      6988      6974      7347      7363      6990      7349      7364      7365      6991
 -1       724    4    0    1
 -2      4389      4504      4509      4394      4390      4505      4510      4395      7349      7364
 -2      7365      6991      6977      7350      7366      6993      7352      7367      7368      6994
 -1       725    4    0    1
 -2      4390      4505      4510      4395      4391      4506      4511      4396      7352      7367
 -2      7368      6994      6980      7353      7369      6996      7355      7370      7371      6997
 -1       726    4    0    1
 -2      4391      4506      4511      4396      2950      2973      2974      2951      7355      7370
 -2      7371      6997      6983      7356      7372      6999      3447      3448      3449      3401
 -1       727    4    0    1
 -2       438       461       462       439      4392      4507      4512      4397       936       937
 -2       938       890      6984      7357      7373      7000      7359      7374      7375      7001
 -1       728    4    0    1
 -2      4392      4507      4512      4397      4393      4508      4513      4398      7359      7374
 -2      7375      7001      6987      7360      7376      7003      7362      7377      7378      7004
 -1       729    4    0    1
 -2      4393      4508      4513      4398      4394      4509      4514      4399      7362      7377
 -2      7378      7004      6990      7363      7379      7006      7365      7380      7381      7007
 -1       730    4    0    1
 -2      4394      4509      4514      4399      4395      4510      4515      4400      7365      7380
 -2      7381      7007      6993      7366      7382      7009      7368      7383      7384      7010
 -1       731    4    0    1
 -2      4395      4510      4515      4400      4396      4511      4516      4401      7368      7383
 -2      7384      7010      6996      7369      7385      7012      7371      7386      7387      7013
 -1       732    4    0    1
 -2      4396      4511      4516      4401      2951      2974      2975      2952      7371      7386
 -2      7387      7013      6999      7372      7388      7015      3449      3450      3451      3403
 -1       733    4    0    1
 -2       439       462       463       440      4397      4512      4517      4402       938       939
 -2       940       892      7000      7373      7389      7016      7375      7390      7391      7017
 -1       734    4    0    1
 -2      4397      4512      4517      4402      4398      4513      4518      4403      7375      7390
 -2      7391      7017      7003      7376      7392      7019      7378      7393      7394      7020
 -1       735    4    0    1
 -2      4398      4513      4518      4403      4399      4514      4519      4404      7378      7393
 -2      7394      7020      7006      7379      7395      7022      7381      7396      7397      7023
 -1       736    4    0    1
 -2      4399      4514      4519      4404      4400      4515      4520      4405      7381      7396
 -2      7397      7023      7009      7382      7398      7025      7384      7399      7400      7026
 -1       737    4    0    1
 -2      4400      4515      4520      4405      4401      4516      4521      4406      7384      7399
 -2      7400      7026      7012      7385      7401      7028      7387      7402      7403      7029
 -1       738    4    0    1
 -2      4401      4516      4521      4406      2952      2975      2976      2953      7387      7402
 -2      7403      7029      7015      7388      7404      7031      3451      3452      3453      3405
 -1       739    4    0    1
 -2       440       463       464       441      4402      4517      4522      4407       940       941
 -2       942       894      7016      7389      7405      7032      7391      7406      7407      7033
 -1       740    4    0    1
 -2      4402      4517      4522      4407      4403      4518      4523      4408      7391      7406
 -2      7407      7033      7019      7392      7408      7035      7394      7409      7410      7036
 -1       741    4    0    1
 -2      4403      4518      4523      4408      4404      4519      4524      4409      7394      7409
 -2      7410      7036      7022      7395      7411      7038      7397      7412      7413      7039
 -1       742    4    0    1
 -2      4404      4519      4524      4409      4405      4520      4525      4410      7397      7412
 -2      7413      7039      7025      7398      7414      7041      7400      7415      7416      7042
 -1       743    4    0    1
 -2      4405      4520      4525      4410      4406      4521      4526      4411      7400      7415
 -2      7416      7042      7028      7401      7417      7044      7403      7418      7419      7045
 -1       744    4    0    1
 -2      4406      4521      4526      4411      2953      2976      2977      2954      7403      7418
 -2      7419      7045      7031      7404      7420      7047      3453      3454      3455      3407
 -1       745    4    0    1
 -2       441       464       465       442      4407      4522      4527      4412       942       943
 -2       944       896      7032      7405      7421      7048      7407      7422      7423      7049
 -1       746    4    0    1
 -2      4407      4522      4527      4412      4408      4523      4528      4413      7407      7422
 -2      7423      7049      7035      7408      7424      7051      7410      7425      7426      7052
 -1       747    4    0    1
 -2      4408      4523      4528      4413      4409      4524      4529      4414      7410      7425
 -2      7426      7052      7038      7411      7427      7054      7413      7428      7429      7055
 -1       748    4    0    1
 -2      4409      4524      4529      4414      4410      4525      4530      4415      7413      7428
 -2      7429      7055      7041      7414      7430      7057      7416      7431      7432      7058
 -1       749    4    0    1
 -2      4410      4525      4530      4415      4411      4526      4531      4416      7416      7431
 -2      7432      7058      7044      7417      7433      7060      7419      7434      7435      7061
 -1       750    4    0    1
 -2      4411      4526      4531      4416      2954      2977      2978      2955      7419      7434
 -2      7435      7061      7047      7420      7436      7063      3455      3456      3457      3409
 -1       751    4    0    1
 -2       442       465       466       443      4412      4527      4532      4417       944       945
 -2       946       898      7048      7421      7437      7064      7423      7438      7439      7065
 -1       752    4    0    1
 -2      4412      4527      4532      4417      4413      4528      4533      4418      7423      7438
 -2      7439      7065      7051      7424      7440      7067      7426      7441      7442      7068
 -1       753    4    0    1
 -2      4413      4528      4533      4418      4414      4529      4534      4419      7426      7441
 -2      7442      7068      7054      7427      7443      7070      7429      7444      7445      7071
 -1       754    4    0    1
 -2      4414      4529      4534      4419      4415      4530      4535      4420      7429      7444
 -2      7445      7071      7057      7430      7446      7073      7432      7447      7448      7074
 -1       755    4    0    1
 -2      4415      4530      4535      4420      4416      4531      4536      4421      7432      7447
 -2      7448      7074      7060      7433      7449      7076      7435      7450      7451      7077
 -1       756    4    0    1
 -2      4416      4531      4536      4421      2955      2978      2979      2956      7435      7450
 -2      7451      7077      7063      7436      7452      7079      3457      3458      3459      3411
 -1       757    4    0    1
 -2       443       466       467       444      4417      4532      4537      4422       946       947
 -2       948       900      7064      7437      7453      7080      7439      7454      7455      7081
 -1       758    4    0    1
 -2      4417      4532      4537      4422      4418      4533      4538      4423      7439      7454
 -2      7455      7081      7067      7440      7456      7083      7442      7457      7458      7084
 -1       759    4    0    1
 -2      4418      4533      4538      4423      4419      4534      4539      4424      7442      7457
 -2      7458      7084      7070      7443      7459      7086      7445      7460      7461      7087
 -1       760    4    0    1
 -2      4419      4534      4539      4424      4420      4535      4540      4425      7445      7460
 -2      7461      7087      7073      7446      7462      7089      7448      7463      7464      7090
 -1       761    4    0    1
 -2      4420      4535      4540      4425      4421      4536      4541      4426      7448      7463
 -2      7464      7090      7076      7449      7465      7092      7451      7466      7467      7093
 -1       762    4    0    1
 -2      4421      4536      4541      4426      2956      2979      2980      2957      7451      7466
 -2      7467      7093      7079      7452      7468      7095      3459      3460      3461      3413
 -1       763    4    0    1
 -2       444       467       468       445      4422      4537      4542      4427       948       949
 -2       950       902      7080      7453      7469      7096      7455      7470      7471      7097
 -1       764    4    0    1
 -2      4422      4537      4542      4427      4423      4538      4543      4428      7455      7470
 -2      7471      7097      7083      7456      7472      7099      7458      7473      7474      7100
 -1       765    4    0    1
 -2      4423      4538      4543      4428      4424      4539      4544      4429      7458      7473
 -2      7474      7100      7086      7459      7475      7102      7461      7476      7477      7103
 -1       766    4    0    1
 -2      4424      4539      4544      4429      4425      4540      4545      4430      7461      7476
 -2      7477      7103      7089      7462      7478      7105      7464      7479      7480      7106
 -1       767    4    0    1
 -2      4425      4540      4545      4430      4426      4541      4546      4431      7464      7479
 -2      7480      7106      7092      7465      7481      7108      7467      7482      7483      7109
 -1       768    4    0    1
 -2      4426      4541      4546      4431      2957      2980      2981      2958      7467      7482
 -2      7483      7109      7095      7468      7484      7111      3461      3462      3463      3415
 -1       769    4    0    1
 -2       445       468       469       446      4427      4542      4547      4432       950       951
 -2       952       904      7096      7469      7485      7112      7471      7486      7487      7113
 -1       770    4    0    1
 -2      4427      4542      4547      4432      4428      4543      4548      4433      7471      7486
 -2      7487      7113      7099      7472      7488      7115      7474      7489      7490      7116
 -1       771    4    0    1
 -2      4428      4543      4548      4433      4429      4544      4549      4434      7474      7489
 -2      7490      7116      7102      7475      7491      7118      7477      7492      7493      7119
 -1       772    4    0    1
 -2      4429      4544      4549      4434      4430      4545      4550      4435      7477      7492
 -2      7493      7119      7105      7478      7494      7121      7480      7495      7496      7122
 -1       773    4    0    1
 -2      4430      4545      4550      4435      4431      4546      4551      4436      7480      7495
 -2      7496      7122      7108      7481      7497      7124      7483      7498      7499      7125
 -1       774    4    0    1
 -2      4431      4546      4551      4436      2958      2981      2982      2959      7483      7498
 -2      7499      7125      7111      7484      7500      7127      3463      3464      3465      3417
 -1       775    4    0    1
 -2       446       469       470       447      4432      4547      4552      4437       952       953
 -2       954       906      7112      7485      7501      7128      7487      7502      7503      7129
 -1       776    4    0    1
 -2      4432      4547      4552      4437      4433      4548      4553      4438      7487      7502
 -2      7503      7129      7115      7488      7504      7131      7490      7505      7506      7132
 -1       777    4    0    1
 -2      4433      4548      4553      4438      4434      4549      4554      4439      7490      7505
 -2      7506      7132      7118      7491      7507      7134      7493      7508      7509      7135
 -1       778    4    0    1
 -2      4434      4549      4554      4439      4435      4550      4555      4440      7493      7508
 -2      7509      7135      7121      7494      7510      7137      7496      7511      7512      7138
 -1       779    4    0    1
 -2      4435      4550      4555      4440      4436      4551      4556      4441      7496      7511
 -2      7512      7138      7124      7497      7513      7140      7499      7514      7515      7141
 -1       780    4    0    1
 -2      4436      4551      4556      4441      2959      2982      2983      2960      7499      7514
 -2      7515      7141      7127      7500      7516      7143      3465      3466      3467      3419
 -1       781    4    0    1
 -2       447       470       471       448      4437      4552      4557      4442       954       955
 -2       956       908      7128      7501      7517      7144      7503      7518      7519      7145
 -1       782    4    0    1
 -2      4437      4552      4557      4442      4438      4553      4558      4443      7503      7518
 -2      7519      7145      7131      7504      7520      7147      7506      7521      7522      7148
 -1       783    4    0    1
 -2      4438      4553      4558      4443      4439      4554      4559      4444      7506      7521
 -2      7522      7148      7134      7507      7523      7150      7509      7524      7525      7151
 -1       784    4    0    1
 -2      4439      4554      4559      4444      4440      4555      4560      4445      7509      7524
 -2      7525      7151      7137      7510      7526      7153      7512      7527      7528      7154
 -1       785    4    0    1
 -2      4440      4555      4560      4445      4441      4556      4561      4446      7512      7527
 -2      7528      7154      7140      7513      7529      7156      7515      7530      7531      7157
 -1       786    4    0    1
 -2      4441      4556      4561      4446      2960      2983      2984      2961      7515      7530
 -2      7531      7157      7143      7516      7532      7159      3467      3468      3469      3421
 -1       787    4    0    1
 -2       448       471       472       449      4442      4557      4562      4447       956       957
 -2       958       910      7144      7517      7533      7160      7519      7534      7535      7161
 -1       788    4    0    1
 -2      4442      4557      4562      4447      4443      4558      4563      4448      7519      7534
 -2      7535      7161      7147      7520      7536      7163      7522      7537      7538      7164
 -1       789    4    0    1
 -2      4443      4558      4563      4448      4444      4559      4564      4449      7522      7537
 -2      7538      7164      7150      7523      7539      7166      7525      7540      7541      7167
 -1       790    4    0    1
 -2      4444      4559      4564      4449      4445      4560      4565      4450      7525      7540
 -2      7541      7167      7153      7526      7542      7169      7528      7543      7544      7170
 -1       791    4    0    1
 -2      4445      4560      4565      4450      4446      4561      4566      4451      7528      7543
 -2      7544      7170      7156      7529      7545      7172      7531      7546      7547      7173
 -1       792    4    0    1
 -2      4446      4561      4566      4451      2961      2984      2985      2962      7531      7546
 -2      7547      7173      7159      7532      7548      7175      3469      3470      3471      3423
 -1       793    4    0    1
 -2       449       472       104       105      4447      4562      2309      2314       958       959
 -2       122       912      7160      7533      2472      2483      7535      7549      2484      7176
 -1       794    4    0    1
 -2      4447      4562      2309      2314      4448      4563      2310      2315      7535      7549
 -2      2484      7176      7163      7536      2474      2485      7538      7550      2486      7177
 -1       795    4    0    1
 -2      4448      4563      2310      2315      4449      4564      2311      2316      7538      7550
 -2      2486      7177      7166      7539      2476      2487      7541      7551      2488      7178
 -1       796    4    0    1
 -2      4449      4564      2311      2316      4450      4565      2312      2317      7541      7551
 -2      2488      7178      7169      7542      2478      2489      7544      7552      2490      7179
 -1       797    4    0    1
 -2      4450      4565      2312      2317      4451      4566      2313      2318      7544      7552
 -2      2490      7179      7172      7545      2480      2491      7547      7553      2492      7180
 -1       798    4    0    1
 -2      4451      4566      2313      2318      2962      2985       268       269      7547      7553
 -2      2492      7180      7175      7548      2482      2493      3471      3472       286      3425
 -1       799    4    0    1
 -2        12        13       473       450      1609      1614      4567      4452        30       960
 -2       961       913      1712      1723      7554      7181      1724      7555      7556      7182
 -1       800    4    0    1
 -2      1609      1614      4567      4452      1610      1615      4568      4453      1724      7555
 -2      7556      7182      1714      1725      7557      7184      1726      7558      7559      7185
 -1       801    4    0    1
 -2      1610      1615      4568      4453      1611      1616      4569      4454      1726      7558
 -2      7559      7185      1716      1727      7560      7187      1728      7561      7562      7188
 -1       802    4    0    1
 -2      1611      1616      4569      4454      1612      1617      4570      4455      1728      7561
 -2      7562      7188      1718      1729      7563      7190      1730      7564      7565      7191
 -1       803    4    0    1
 -2      1612      1617      4570      4455      1613      1618      4571      4456      1730      7564
 -2      7565      7191      1720      1731      7566      7193      1732      7567      7568      7194
 -1       804    4    0    1
 -2      1613      1618      4571      4456       176       177      2986      2963      1732      7567
 -2      7568      7194      1722      1733      7569      7196       194      3473      3474      3426
 -1       805    4    0    1
 -2       450       473       474       451      4452      4567      4572      4457       961       962
 -2       963       915      7181      7554      7570      7197      7556      7571      7572      7198
 -1       806    4    0    1
 -2      4452      4567      4572      4457      4453      4568      4573      4458      7556      7571
 -2      7572      7198      7184      7557      7573      7200      7559      7574      7575      7201
 -1       807    4    0    1
 -2      4453      4568      4573      4458      4454      4569      4574      4459      7559      7574
 -2      7575      7201      7187      7560      7576      7203      7562      7577      7578      7204
 -1       808    4    0    1
 -2      4454      4569      4574      4459      4455      4570      4575      4460      7562      7577
 -2      7578      7204      7190      7563      7579      7206      7565      7580      7581      7207
 -1       809    4    0    1
 -2      4455      4570      4575      4460      4456      4571      4576      4461      7565      7580
 -2      7581      7207      7193      7566      7582      7209      7568      7583      7584      7210
 -1       810    4    0    1
 -2      4456      4571      4576      4461      2963      2986      2987      2964      7568      7583
 -2      7584      7210      7196      7569      7585      7212      3474      3475      3476      3428
 -1       811    4    0    1
 -2       451       474       475       452      4457      4572      4577      4462       963       964
 -2       965       917      7197      7570      7586      7213      7572      7587      7588      7214
 -1       812    4    0    1
 -2      4457      4572      4577      4462      4458      4573      4578      4463      7572      7587
 -2      7588      7214      7200      7573      7589      7216      7575      7590      7591      7217
 -1       813    4    0    1
 -2      4458      4573      4578      4463      4459      4574      4579      4464      7575      7590
 -2      7591      7217      7203      7576      7592      7219      7578      7593      7594      7220
 -1       814    4    0    1
 -2      4459      4574      4579      4464      4460      4575      4580      4465      7578      7593
 -2      7594      7220      7206      7579      7595      7222      7581      7596      7597      7223
 -1       815    4    0    1
 -2      4460      4575      4580      4465      4461      4576      4581      4466      7581      7596
 -2      7597      7223      7209      7582      7598      7225      7584      7599      7600      7226
 -1       816    4    0    1
 -2      4461      4576      4581      4466      2964      2987      2988      2965      7584      7599
 -2      7600      7226      7212      7585      7601      7228      3476      3477      3478      3430
 -1       817    4    0    1
 -2       452       475       476       453      4462      4577      4582      4467       965       966
 -2       967       919      7213      7586      7602      7229      7588      7603      7604      7230
 -1       818    4    0    1
 -2      4462      4577      4582      4467      4463      4578      4583      4468      7588      7603
 -2      7604      7230      7216      7589      7605      7232      7591      7606      7607      7233
 -1       819    4    0    1
 -2      4463      4578      4583      4468      4464      4579      4584      4469      7591      7606
 -2      7607      7233      7219      7592      7608      7235      7594      7609      7610      7236
 -1       820    4    0    1
 -2      4464      4579      4584      4469      4465      4580      4585      4470      7594      7609
 -2      7610      7236      7222      7595      7611      7238      7597      7612      7613      7239
 -1       821    4    0    1
 -2      4465      4580      4585      4470      4466      4581      4586      4471      7597      7612
 -2      7613      7239      7225      7598      7614      7241      7600      7615      7616      7242
 -1       822    4    0    1
 -2      4466      4581      4586      4471      2965      2988      2989      2966      7600      7615
 -2      7616      7242      7228      7601      7617      7244      3478      3479      3480      3432
 -1       823    4    0    1
 -2       453       476       477       454      4467      4582      4587      4472       967       968
 -2       969       921      7229      7602      7618      7245      7604      7619      7620      7246
 -1       824    4    0    1
 -2      4467      4582      4587      4472      4468      4583      4588      4473      7604      7619
 -2      7620      7246      7232      7605      7621      7248      7607      7622      7623      7249
 -1       825    4    0    1
 -2      4468      4583      4588      4473      4469      4584      4589      4474      7607      7622
 -2      7623      7249      7235      7608      7624      7251      7610      7625      7626      7252
 -1       826    4    0    1
 -2      4469      4584      4589      4474      4470      4585      4590      4475      7610      7625
 -2      7626      7252      7238      7611      7627      7254      7613      7628      7629      7255
 -1       827    4    0    1
 -2      4470      4585      4590      4475      4471      4586      4591      4476      7613      7628
 -2      7629      7255      7241      7614      7630      7257      7616      7631      7632      7258
 -1       828    4    0    1
 -2      4471      4586      4591      4476      2966      2989      2990      2967      7616      7631
 -2      7632      7258      7244      7617      7633      7260      3480      3481      3482      3434
 -1       829    4    0    1
 -2       454       477       478       455      4472      4587      4592      4477       969       970
 -2       971       923      7245      7618      7634      7261      7620      7635      7636      7262
 -1       830    4    0    1
 -2      4472      4587      4592      4477      4473      4588      4593      4478      7620      7635
 -2      7636      7262      7248      7621      7637      7264      7623      7638      7639      7265
 -1       831    4    0    1
 -2      4473      4588      4593      4478      4474      4589      4594      4479      7623      7638
 -2      7639      7265      7251      7624      7640      7267      7626      7641      7642      7268
 -1       832    4    0    1
 -2      4474      4589      4594      4479      4475      4590      4595      4480      7626      7641
 -2      7642      7268      7254      7627      7643      7270      7629      7644      7645      7271
 -1       833    4    0    1
 -2      4475      4590      4595      4480      4476      4591      4596      4481      7629      7644
 -2      7645      7271      7257      7630      7646      7273      7632      7647      7648      7274
 -1       834    4    0    1
 -2      4476      4591      4596      4481      2967      2990      2991      2968      7632      7647
 -2      7648      7274      7260      7633      7649      7276      3482      3483      3484      3436
 -1       835    4    0    1
 -2       455       478       479       456      4477      4592      4597      4482       971       972
 -2       973       925      7261      7634      7650      7277      7636      7651      7652      7278
 -1       836    4    0    1
 -2      4477      4592      4597      4482      4478      4593      4598      4483      7636      7651
 -2      7652      7278      7264      7637      7653      7280      7639      7654      7655      7281
 -1       837    4    0    1
 -2      4478      4593      4598      4483      4479      4594      4599      4484      7639      7654
 -2      7655      7281      7267      7640      7656      7283      7642      7657      7658      7284
 -1       838    4    0    1
 -2      4479      4594      4599      4484      4480      4595      4600      4485      7642      7657
 -2      7658      7284      7270      7643      7659      7286      7645      7660      7661      7287
 -1       839    4    0    1
 -2      4480      4595      4600      4485      4481      4596      4601      4486      7645      7660
 -2      7661      7287      7273      7646      7662      7289      7648      7663      7664      7290
 -1       840    4    0    1
 -2      4481      4596      4601      4486      2968      2991      2992      2969      7648      7663
 -2      7664      7290      7276      7649      7665      7292      3484      3485      3486      3438
 -1       841    4    0    1
 -2       456       479       480       457      4482      4597      4602      4487       973       974
 -2       975       927      7277      7650      7666      7293      7652      7667      7668      7294
 -1       842    4    0    1
 -2      4482      4597      4602      4487      4483      4598      4603      4488      7652      7667
 -2      7668      7294      7280      7653      7669      7296      7655      7670      7671      7297
 -1       843    4    0    1
 -2      4483      4598      4603      4488      4484      4599      4604      4489      7655      7670
 -2      7671      7297      7283      7656      7672      7299      7658      7673      7674      7300
 -1       844    4    0    1
 -2      4484      4599      4604      4489      4485      4600      4605      4490      7658      7673
 -2      7674      7300      7286      7659      7675      7302      7661      7676      7677      7303
 -1       845    4    0    1
 -2      4485      4600      4605      4490      4486      4601      4606      4491      7661      7676
 -2      7677      7303      7289      7662      7678      7305      7664      7679      7680      7306
 -1       846    4    0    1
 -2      4486      4601      4606      4491      2969      2992      2993      2970      7664      7679
 -2      7680      7306      7292      7665      7681      7308      3486      3487      3488      3440
 -1       847    4    0    1
 -2       457       480       481       458      4487      4602      4607      4492       975       976
 -2       977       929      7293      7666      7682      7309      7668      7683      7684      7310
 -1       848    4    0    1
 -2      4487      4602      4607      4492      4488      4603      4608      4493      7668      7683
 -2      7684      7310      7296      7669      7685      7312      7671      7686      7687      7313
 -1       849    4    0    1
 -2      4488      4603      4608      4493      4489      4604      4609      4494      7671      7686
 -2      7687      7313      7299      7672      7688      7315      7674      7689      7690      7316
 -1       850    4    0    1
 -2      4489      4604      4609      4494      4490      4605      4610      4495      7674      7689
 -2      7690      7316      7302      7675      7691      7318      7677      7692      7693      7319
 -1       851    4    0    1
 -2      4490      4605      4610      4495      4491      4606      4611      4496      7677      7692
 -2      7693      7319      7305      7678      7694      7321      7680      7695      7696      7322
 -1       852    4    0    1
 -2      4491      4606      4611      4496      2970      2993      2994      2971      7680      7695
 -2      7696      7322      7308      7681      7697      7324      3488      3489      3490      3442
 -1       853    4    0    1
 -2       458       481       482       459      4492      4607      4612      4497       977       978
 -2       979       931      7309      7682      7698      7325      7684      7699      7700      7326
 -1       854    4    0    1
 -2      4492      4607      4612      4497      4493      4608      4613      4498      7684      7699
 -2      7700      7326      7312      7685      7701      7328      7687      7702      7703      7329
 -1       855    4    0    1
 -2      4493      4608      4613      4498      4494      4609      4614      4499      7687      7702
 -2      7703      7329      7315      7688      7704      7331      7690      7705      7706      7332
 -1       856    4    0    1
 -2      4494      4609      4614      4499      4495      4610      4615      4500      7690      7705
 -2      7706      7332      7318      7691      7707      7334      7693      7708      7709      7335
 -1       857    4    0    1
 -2      4495      4610      4615      4500      4496      4611      4616      4501      7693      7708
 -2      7709      7335      7321      7694      7710      7337      7696      7711      7712      7338
 -1       858    4    0    1
 -2      4496      4611      4616      4501      2971      2994      2995      2972      7696      7711
 -2      7712      7338      7324      7697      7713      7340      3490      3491      3492      3444
 -1       859    4    0    1
 -2       459       482       483       460      4497      4612      4617      4502       979       980
 -2       981       933      7325      7698      7714      7341      7700      7715      7716      7342
 -1       860    4    0    1
 -2      4497      4612      4617      4502      4498      4613      4618      4503      7700      7715
 -2      7716      7342      7328      7701      7717      7344      7703      7718      7719      7345
 -1       861    4    0    1
 -2      4498      4613      4618      4503      4499      4614      4619      4504      7703      7718
 -2      7719      7345      7331      7704      7720      7347      7706      7721      7722      7348
 -1       862    4    0    1
 -2      4499      4614      4619      4504      4500      4615      4620      4505      7706      7721
 -2      7722      7348      7334      7707      7723      7350      7709      7724      7725      7351
 -1       863    4    0    1
 -2      4500      4615      4620      4505      4501      4616      4621      4506      7709      7724
 -2      7725      7351      7337      7710      7726      7353      7712      7727      7728      7354
 -1       864    4    0    1
 -2      4501      4616      4621      4506      2972      2995      2996      2973      7712      7727
 -2      7728      7354      7340      7713      7729      7356      3492      3493      3494      3446
 -1       865    4    0    1
 -2       460       483       484       461      4502      4617      4622      4507       981       982
 -2       983       935      7341      7714      7730      7357      7716      7731      7732      7358
 -1       866    4    0    1
 -2      4502      4617      4622      4507      4503      4618      4623      4508      7716      7731
 -2      7732      7358      7344      7717      7733      7360      7719      7734      7735      7361
 -1       867    4    0    1
 -2      4503      4618      4623      4508      4504      4619      4624      4509      7719      7734
 -2      7735      7361      7347      7720      7736      7363      7722      7737      7738      7364
 -1       868    4    0    1
 -2      4504      4619      4624      4509      4505      4620      4625      4510      7722      7737
 -2      7738      7364      7350      7723      7739      7366      7725      7740      7741      7367
 -1       869    4    0    1
 -2      4505      4620      4625      4510      4506      4621      4626      4511      7725      7740
 -2      7741      7367      7353      7726      7742      7369      7728      7743      7744      7370
 -1       870    4    0    1
 -2      4506      4621      4626      4511      2973      2996      2997      2974      7728      7743
 -2      7744      7370      7356      7729      7745      7372      3494      3495      3496      3448
 -1       871    4    0    1
 -2       461       484       485       462      4507      4622      4627      4512       983       984
 -2       985       937      7357      7730      7746      7373      7732      7747      7748      7374
 -1       872    4    0    1
 -2      4507      4622      4627      4512      4508      4623      4628      4513      7732      7747
 -2      7748      7374      7360      7733      7749      7376      7735      7750      7751      7377
 -1       873    4    0    1
 -2      4508      4623      4628      4513      4509      4624      4629      4514      7735      7750
 -2      7751      7377      7363      7736      7752      7379      7738      7753      7754      7380
 -1       874    4    0    1
 -2      4509      4624      4629      4514      4510      4625      4630      4515      7738      7753
 -2      7754      7380      7366      7739      7755      7382      7741      7756      7757      7383
 -1       875    4    0    1
 -2      4510      4625      4630      4515      4511      4626      4631      4516      7741      7756
 -2      7757      7383      7369      7742      7758      7385      7744      7759      7760      7386
 -1       876    4    0    1
 -2      4511      4626      4631      4516      2974      2997      2998      2975      7744      7759
 -2      7760      7386      7372      7745      7761      7388      3496      3497      3498      3450
 -1       877    4    0    1
 -2       462       485       486       463      4512      4627      4632      4517       985       986
 -2       987       939      7373      7746      7762      7389      7748      7763      7764      7390
 -1       878    4    0    1
 -2      4512      4627      4632      4517      4513      4628      4633      4518      7748      7763
 -2      7764      7390      7376      7749      7765      7392      7751      7766      7767      7393
 -1       879    4    0    1
 -2      4513      4628      4633      4518      4514      4629      4634      4519      7751      7766
 -2      7767      7393      7379      7752      7768      7395      7754      7769      7770      7396
 -1       880    4    0    1
 -2      4514      4629      4634      4519      4515      4630      4635      4520      7754      7769
 -2      7770      7396      7382      7755      7771      7398      7757      7772      7773      7399
 -1       881    4    0    1
 -2      4515      4630      4635      4520      4516      4631      4636      4521      7757      7772
 -2      7773      7399      7385      7758      7774      7401      7760      7775      7776      7402
 -1       882    4    0    1
 -2      4516      4631      4636      4521      2975      2998      2999      2976      7760      7775
 -2      7776      7402      7388      7761      7777      7404      3498      3499      3500      3452
 -1       883    4    0    1
 -2       463       486       487       464      4517      4632      4637      4522       987       988
 -2       989       941      7389      7762      7778      7405      7764      7779      7780      7406
 -1       884    4    0    1
 -2      4517      4632      4637      4522      4518      4633      4638      4523      7764      7779
 -2      7780      7406      7392      7765      7781      7408      7767      7782      7783      7409
 -1       885    4    0    1
 -2      4518      4633      4638      4523      4519      4634      4639      4524      7767      7782
 -2      7783      7409      7395      7768      7784      7411      7770      7785      7786      7412
 -1       886    4    0    1
 -2      4519      4634      4639      4524      4520      4635      4640      4525      7770      7785
 -2      7786      7412      7398      7771      7787      7414      7773      7788      7789      7415
 -1       887    4    0    1
 -2      4520      4635      4640      4525      4521      4636      4641      4526      7773      7788
 -2      7789      7415      7401      7774      7790      7417      7776      7791      7792      7418
 -1       888    4    0    1
 -2      4521      4636      4641      4526      2976      2999      3000      2977      7776      7791
 -2      7792      7418      7404      7777      7793      7420      3500      3501      3502      3454
 -1       889    4    0    1
 -2       464       487       488       465      4522      4637      4642      4527       989       990
 -2       991       943      7405      7778      7794      7421      7780      7795      7796      7422
 -1       890    4    0    1
 -2      4522      4637      4642      4527      4523      4638      4643      4528      7780      7795
 -2      7796      7422      7408      7781      7797      7424      7783      7798      7799      7425
 -1       891    4    0    1
 -2      4523      4638      4643      4528      4524      4639      4644      4529      7783      7798
 -2      7799      7425      7411      7784      7800      7427      7786      7801      7802      7428
 -1       892    4    0    1
 -2      4524      4639      4644      4529      4525      4640      4645      4530      7786      7801
 -2      7802      7428      7414      7787      7803      7430      7789      7804      7805      7431
 -1       893    4    0    1
 -2      4525      4640      4645      4530      4526      4641      4646      4531      7789      7804
 -2      7805      7431      7417      7790      7806      7433      7792      7807      7808      7434
 -1       894    4    0    1
 -2      4526      4641      4646      4531      2977      3000      3001      2978      7792      7807
 -2      7808      7434      7420      7793      7809      7436      3502      3503      3504      3456
 -1       895    4    0    1
 -2       465       488       489       466      4527      4642      4647      4532       991       992
 -2       993       945      7421      7794      7810      7437      7796      7811      7812      7438
 -1       896    4    0    1
 -2      4527      4642      4647      4532      4528      4643      4648      4533      7796      7811
 -2      7812      7438      7424      7797      7813      7440      7799      7814      7815      7441
 -1       897    4    0    1
 -2      4528      4643      4648      4533      4529      4644      4649      4534      7799      7814
 -2      7815      7441      7427      7800      7816      7443      7802      7817      7818      7444
 -1       898    4    0    1
 -2      4529      4644      4649      4534      4530      4645      4650      4535      7802      7817
 -2      7818      7444      7430      7803      7819      7446      7805      7820      7821      7447
 -1       899    4    0    1
 -2      4530      4645      4650      4535      4531      4646      4651      4536      7805      7820
 -2      7821      7447      7433      7806      7822      7449      7808      7823      7824      7450
 -1       900    4    0    1
 -2      4531      4646      4651      4536      2978      3001      3002      2979      7808      7823
 -2      7824      7450      7436      7809      7825      7452      3504      3505      3506      3458
 -1       901    4    0    1
 -2       466       489       490       467      4532      4647      4652      4537       993       994
 -2       995       947      7437      7810      7826      7453      7812      7827      7828      7454
 -1       902    4    0    1
 -2      4532      4647      4652      4537      4533      4648      4653      4538      7812      7827
 -2      7828      7454      7440      7813      7829      7456      7815      7830      7831      7457
 -1       903    4    0    1
 -2      4533      4648      4653      4538      4534      4649      4654      4539      7815      7830
 -2      7831      7457      7443      7816      7832      7459      7818      7833      7834      7460
 -1       904    4    0    1
 -2      4534      4649      4654      4539      4535      4650      4655      4540      7818      7833
 -2      7834      7460      7446      7819      7835      7462      7821      7836      7837      7463
 -1       905    4    0    1
 -2      4535      4650      4655      4540      4536      4651      4656      4541      7821      7836
 -2      7837      7463      7449      7822      7838      7465      7824      7839      7840      7466
 -1       906    4    0    1
 -2      4536      4651      4656      4541      2979      3002      3003      2980      7824      7839
 -2      7840      7466      7452      7825      7841      7468      3506      3507      3508      3460
 -1       907    4    0    1
 -2       467       490       491       468      4537      4652      4657      4542       995       996
 -2       997       949      7453      7826      7842      7469      7828      7843      7844      7470
 -1       908    4    0    1
 -2      4537      4652      4657      4542      4538      4653      4658      4543      7828      7843
 -2      7844      7470      7456      7829      7845      7472      7831      7846      7847      7473
 -1       909    4    0    1
 -2      4538      4653      4658      4543      4539      4654      4659      4544      7831      7846
 -2      7847      7473      7459      7832      7848      7475      7834      7849      7850      7476
 -1       910    4    0    1
 -2      4539      4654      4659      4544      4540      4655      4660      4545      7834      7849
 -2      7850      7476      7462      7835      7851      7478      7837      7852      7853      7479
 -1       911    4    0    1
 -2      4540      4655      4660      4545      4541      4656      4661      4546      7837      7852
 -2      7853      7479      7465      7838      7854      7481      7840      7855      7856      7482
 -1       912    4    0    1
 -2      4541      4656      4661      4546      2980      3003      3004      2981      7840      7855
 -2      7856      7482      7468      7841      7857      7484      3508      3509      3510      3462
 -1       913    4    0    1
 -2       468       491       492       469      4542      4657      4662      4547       997       998
 -2       999       951      7469      7842      7858      7485      7844      7859      7860      7486
 -1       914    4    0    1
 -2      4542      4657      4662      4547      4543      4658      4663      4548      7844      7859
 -2      7860      7486      7472      7845      7861      7488      7847      7862      7863      7489
 -1       915    4    0    1
 -2      4543      4658      4663      4548      4544      4659      4664      4549      7847      7862
 -2      7863      7489      7475      7848      7864      7491      7850      7865      7866      7492
 -1       916    4    0    1
 -2      4544      4659      4664      4549      4545      4660      4665      4550      7850      7865
 -2      7866      7492      7478      7851      7867      7494      7853      7868      7869      7495
 -1       917    4    0    1
 -2      4545      4660      4665      4550      4546      4661      4666      4551      7853      7868
 -2      7869      7495      7481      7854      7870      7497      7856      7871      7872      7498
 -1       918    4    0    1
 -2      4546      4661      4666      4551      2981      3004      3005      2982      7856      7871
 -2      7872      7498      7484      7857      7873      7500      3510      3511      3512      3464
 -1       919    4    0    1
 -2       469       492       493       470      4547      4662      4667      4552       999      1000
 -2      1001       953      7485      7858      7874      7501      7860      7875      7876      7502
 -1       920    4    0    1
 -2      4547      4662      4667      4552      4548      4663      4668      4553      7860      7875
 -2      7876      7502      7488      7861      7877      7504      7863      7878      7879      7505
 -1       921    4    0    1
 -2      4548      4663      4668      4553      4549      4664      4669      4554      7863      7878
 -2      7879      7505      7491      7864      7880      7507      7866      7881      7882      7508
 -1       922    4    0    1
 -2      4549      4664      4669      4554      4550      4665      4670      4555      7866      7881
 -2      7882      7508      7494      7867      7883      7510      7869      7884      7885      7511
 -1       923    4    0    1
 -2      4550      4665      4670      4555      4551      4666      4671      4556      7869      7884
 -2      7885      7511      7497      7870      7886      7513      7872      7887      7888      7514
 -1       924    4    0    1
 -2      4551      4666      4671      4556      2982      3005      3006      2983      7872      7887
 -2      7888      7514      7500      7873      7889      7516      3512      3513      3514      3466
 -1       925    4    0    1
 -2       470       493       494       471      4552      4667      4672      4557      1001      1002
 -2      1003       955      7501      7874      7890      7517      7876      7891      7892      7518
 -1       926    4    0    1
 -2      4552      4667      4672      4557      4553      4668      4673      4558      7876      7891
 -2      7892      7518      7504      7877      7893      7520      7879      7894      7895      7521
 -1       927    4    0    1
 -2      4553      4668      4673      4558      4554      4669      4674      4559      7879      7894
 -2      7895      7521      7507      7880      7896      7523      7882      7897      7898      7524
 -1       928    4    0    1
 -2      4554      4669      4674      4559      4555      4670      4675      4560      7882      7897
 -2      7898      7524      7510      7883      7899      7526      7885      7900      7901      7527
 -1       929    4    0    1
 -2      4555      4670      4675      4560      4556      4671      4676      4561      7885      7900
 -2      7901      7527      7513      7886      7902      7529      7888      7903      7904      7530
 -1       930    4    0    1
 -2      4556      4671      4676      4561      2983      3006      3007      2984      7888      7903
 -2      7904      7530      7516      7889      7905      7532      3514      3515      3516      3468
 -1       931    4    0    1
 -2       471       494       495       472      4557      4672      4677      4562      1003      1004
 -2      1005       957      7517      7890      7906      7533      7892      7907      7908      7534
 -1       932    4    0    1
 -2      4557      4672      4677      4562      4558      4673      4678      4563      7892      7907
 -2      7908      7534      7520      7893      7909      7536      7895      7910      7911      7537
 -1       933    4    0    1
 -2      4558      4673      4678      4563      4559      4674      4679      4564      7895      7910
 -2      7911      7537      7523      7896      7912      7539      7898      7913      7914      7540
 -1       934    4    0    1
 -2      4559      4674      4679      4564      4560      4675      4680      4565      7898      7913
 -2      7914      7540      7526      7899      7915      7542      7901      7916      7917      7543
 -1       935    4    0    1
 -2      4560      4675      4680      4565      4561      4676      4681      4566      7901      7916
 -2      7917      7543      7529      7902      7918      7545      7904      7919      7920      7546
 -1       936    4    0    1
 -2      4561      4676      4681      4566      2984      3007      3008      2985      7904      7919
 -2      7920      7546      7532      7905      7921      7548      3516      3517      3518      3470
 -1       937    4    0    1
 -2       472       495       103       104      4562      4677      2304      2309      1005      1006
 -2       121       959      7533      7906      2461      2472      7908      7922      2473      7549
 -1       938    4    0    1
 -2      4562      4677      2304      2309      4563      4678      2305      2310      7908      7922
 -2      2473      7549      7536      7909      2463      2474      7911      7923      2475      7550
 -1       939    4    0    1
 -2      4563      4678      2305      2310      4564      4679      2306      2311      7911      7923
 -2      2475      7550      7539      7912      2465      2476      7914      7924      2477      7551
 -1       940    4    0    1
 -2      4564      4679      2306      2311      4565      4680      2307      2312      7914      7924
 -2      2477      7551      7542      7915      2467      2478      7917      7925      2479      7552
 -1       941    4    0    1
 -2      4565      4680      2307      2312      4566      4681      2308      2313      7917      7925
 -2      2479      7552      7545      7918      2469      2480      7920      7926      2481      7553
 -1       942    4    0    1
 -2      4566      4681      2308      2313      2985      3008       267       268      7920      7926
 -2      2481      7553      7548      7921      2471      2482      3518      3519       285      3472
 -1       943    4    0    1
 -2        13        14       496       473      1614      1619      4682      4567        31      1007
 -2      1008       960      1723      1734      7927      7554      1735      7928      7929      7555
 -1       944    4    0    1
 -2      1614      1619      4682      4567      1615      1620      4683      4568      1735      7928
 -2      7929      7555      1725      1736      7930      7557      1737      7931      7932      7558
 -1       945    4    0    1
 -2      1615      1620      4683      4568      1616      1621      4684      4569      1737      7931
 -2      7932      7558      1727      1738      7933      7560      1739      7934      7935      7561
 -1       946    4    0    1
 -2      1616      1621      4684      4569      1617      1622      4685      4570      1739      7934
 -2      7935      7561      1729      1740      7936      7563      1741      7937      7938      7564
 -1       947    4    0    1
 -2      1617      1622      4685      4570      1618      1623      4686      4571      1741      7937
 -2      7938      7564      1731      1742      7939      7566      1743      7940      7941      7567
 -1       948    4    0    1
 -2      1618      1623      4686      4571       177       178      3009      2986      1743      7940
 -2      7941      7567      1733      1744      7942      7569       195      3520      3521      3473
 -1       949    4    0    1
 -2       473       496       497       474      4567      4682      4687      4572      1008      1009
 -2      1010       962      7554      7927      7943      7570      7929      7944      7945      7571
 -1       950    4    0    1
 -2      4567      4682      4687      4572      4568      4683      4688      4573      7929      7944
 -2      7945      7571      7557      7930      7946      7573      7932      7947      7948      7574
 -1       951    4    0    1
 -2      4568      4683      4688      4573      4569      4684      4689      4574      7932      7947
 -2      7948      7574      7560      7933      7949      7576      7935      7950      7951      7577
 -1       952    4    0    1
 -2      4569      4684      4689      4574      4570      4685      4690      4575      7935      7950
 -2      7951      7577      7563      7936      7952      7579      7938      7953      7954      7580
 -1       953    4    0    1
 -2      4570      4685      4690      4575      4571      4686      4691      4576      7938      7953
 -2      7954      7580      7566      7939      7955      7582      7941      7956      7957      7583
 -1       954    4    0    1
 -2      4571      4686      4691      4576      2986      3009      3010      2987      7941      7956
 -2      7957      7583      7569      7942      7958      7585      3521      3522      3523      3475
 -1       955    4    0    1
 -2       474       497       498       475      4572      4687      4692      4577      1010      1011
 -2      1012       964      7570      7943      7959      7586      7945      7960      7961      7587
 -1       956    4    0    1
 -2      4572      4687      4692      4577      4573      4688      4693      4578      7945      7960
 -2      7961      7587      7573      7946      7962      7589      7948      7963      7964      7590
 -1       957    4    0    1
 -2      4573      4688      4693      4578      4574      4689      4694      4579      7948      7963
 -2      7964      7590      7576      7949      7965      7592      7951      7966      7967      7593
 -1       958    4    0    1
 -2      4574      4689      4694      4579      4575      4690      4695      4580      7951      7966
 -2      7967      7593      7579      7952      7968      7595      7954      7969      7970      7596
 -1       959    4    0    1
 -2      4575      4690      4695      4580      4576      4691      4696      4581      7954      7969
 -2      7970      7596      7582      7955      7971      7598      7957      7972      7973      7599
 -1       960    4    0    1
 -2      4576      4691      4696      4581      2987      3010      3011      2988      7957      7972
 -2      7973      7599      7585      7958      7974      7601      3523      3524      3525      3477
 -1       961    4    0    1
 -2       475       498       499       476      4577      4692      4697      4582      1012      1013
 -2      1014       966      7586      7959      7975      7602      7961      7976      7977      7603
 -1       962    4    0    1
 -2      4577      4692      4697      4582      4578      4693      4698      4583      7961      7976
 -2      7977      7603      7589      7962      7978      7605      7964      7979      7980      7606
 -1       963    4    0    1
 -2      4578      4693      4698      4583      4579      4694      4699      4584      7964      7979
 -2      7980      7606      7592      7965      7981      7608      7967      7982      7983      7609
 -1       964    4    0    1
 -2      4579      4694      4699      4584      4580      4695      4700      4585      7967      7982
 -2      7983      7609      7595      7968      7984      7611      7970      7985      7986      7612
 -1       965    4    0    1
 -2      4580      4695      4700      4585      4581      4696      4701      4586      7970      7985
 -2      7986      7612      7598      7971      7987      7614      7973      7988      7989      7615
 -1       966    4    0    1
 -2      4581      4696      4701      4586      2988      3011      3012      2989      7973      7988
 -2      7989      7615      7601      7974      7990      7617      3525      3526      3527      3479
 -1       967    4    0    1
 -2       476       499       500       477      4582      4697      4702      4587      1014      1015
 -2      1016       968      7602      7975      7991      7618      7977      7992      7993      7619
 -1       968    4    0    1
 -2      4582      4697      4702      4587      4583      4698      4703      4588      7977      7992
 -2      7993      7619      7605      7978      7994      7621      7980      7995      7996      7622
 -1       969    4    0    1
 -2      4583      4698      4703      4588      4584      4699      4704      4589      7980      7995
 -2      7996      7622      7608      7981      7997      7624      7983      7998      7999      7625
 -1       970    4    0    1
 -2      4584      4699      4704      4589      4585      4700      4705      4590      7983      7998
 -2      7999      7625      7611      7984      8000      7627      7986      8001      8002      7628
 -1       971    4    0    1
 -2      4585      4700      4705      4590      4586      4701      4706      4591      7986      8001
 -2      8002      7628      7614      7987      8003      7630      7989      8004      8005      7631
 -1       972    4    0    1
 -2      4586      4701      4706      4591      2989      3012      3013      2990      7989      8004
 -2      8005      7631      7617      7990      8006      7633      3527      3528      3529      3481
 -1       973    4    0    1
 -2       477       500       501       478      4587      4702      4707      4592      1016      1017
 -2      1018       970      7618      7991      8007      7634      7993      8008      8009      7635
 -1       974    4    0    1
 -2      4587      4702      4707      4592      4588      4703      4708      4593      7993      8008
 -2      8009      7635      7621      7994      8010      7637      7996      8011      8012      7638
 -1       975    4    0    1
 -2      4588      4703      4708      4593      4589      4704      4709      4594      7996      8011
 -2      8012      7638      7624      7997      8013      7640      7999      8014      8015      7641
 -1       976    4    0    1
 -2      4589      4704      4709      4594      4590      4705      4710      4595      7999      8014
 -2      8015      7641      7627      8000      8016      7643      8002      8017      8018      7644
 -1       977    4    0    1
 -2      4590      4705      4710      4595      4591      4706      4711      4596      8002      8017
 -2      8018      7644      7630      8003      8019      7646      8005      8020      8021      7647
 -1       978    4    0    1
 -2      4591      4706      4711      4596      2990      3013      3014      2991      8005      8020
 -2      8021      7647      7633      8006      8022      7649      3529      3530      3531      3483
 -1       979    4    0    1
 -2       478       501       502       479      4592      4707      4712      4597      1018      1019
 -2      1020       972      7634      8007      8023      7650      8009      8024      8025      7651
 -1       980    4    0    1
 -2      4592      4707      4712      4597      4593      4708      4713      4598      8009      8024
 -2      8025      7651      7637      8010      8026      7653      8012      8027      8028      7654
 -1       981    4    0    1
 -2      4593      4708      4713      4598      4594      4709      4714      4599      8012      8027
 -2      8028      7654      7640      8013      8029      7656      8015      8030      8031      7657
 -1       982    4    0    1
 -2      4594      4709      4714      4599      4595      4710      4715      4600      8015      8030
 -2      8031      7657      7643      8016      8032      7659      8018      8033      8034      7660
 -1       983    4    0    1
 -2      4595      4710      4715      4600      4596      4711      4716      4601      8018      8033
 -2      8034      7660      7646      8019      8035      7662      8021      8036      8037      7663
 -1       984    4    0    1
 -2      4596      4711      4716      4601      2991      3014      3015      2992      8021      8036
 -2      8037      7663      7649      8022      8038      7665      3531      3532      3533      3485
 -1       985    4    0    1
 -2       479       502       503       480      4597      4712      4717      4602      1020      1021
 -2      1022       974      7650      8023      8039      7666      8025      8040      8041      7667
 -1       986    4    0    1
 -2      4597      4712      4717      4602      4598      4713      4718      4603      8025      8040
 -2      8041      7667      7653      8026      8042      7669      8028      8043      8044      7670
 -1       987    4    0    1
 -2      4598      4713      4718      4603      4599      4714      4719      4604      8028      8043
 -2      8044      7670      7656      8029      8045      7672      8031      8046      8047      7673
 -1       988    4    0    1
 -2      4599      4714      4719      4604      4600      4715      4720      4605      8031      8046
 -2      8047      7673      7659      8032      8048      7675      8034      8049      8050      7676
 -1       989    4    0    1
 -2      4600      4715      4720      4605      4601      4716      4721      4606      8034      8049
 -2      8050      7676      7662      8035      8051      7678      8037      8052      8053      7679
 -1       990    4    0    1
 -2      4601      4716      4721      4606      2992      3015      3016      2993      8037      8052
 -2      8053      7679      7665      8038      8054      7681      3533      3534      3535      3487
 -1       991    4    0    1
 -2       480       503       504       481      4602      4717      4722      4607      1022      1023
 -2      1024       976      7666      8039      8055      7682      8041      8056      8057      7683
 -1       992    4    0    1
 -2      4602      4717      4722      4607      4603      4718      4723      4608      8041      8056
 -2      8057      7683      7669      8042      8058      7685      8044      8059      8060      7686
 -1       993    4    0    1
 -2      4603      4718      4723      4608      4604      4719      4724      4609      8044      8059
 -2      8060      7686      7672      8045      8061      7688      8047      8062      8063      7689
 -1       994    4    0    1
 -2      4604      4719      4724      4609      4605      4720      4725      4610      8047      8062
 -2      8063      7689      7675      8048      8064      7691      8050      8065      8066      7692
 -1       995    4    0    1
 -2      4605      4720      4725      4610      4606      4721      4726      4611      8050      8065
 -2      8066      7692      7678      8051      8067      7694      8053      8068      8069      7695
 -1       996    4    0    1
 -2      4606      4721      4726      4611      2993      3016      3017      2994      8053      8068
 -2      8069      7695      7681      8054      8070      7697      3535      3536      3537      3489
 -1       997    4    0    1
 -2       481       504       505       482      4607      4722      4727      4612      1024      1025
 -2      1026       978      7682      8055      8071      7698      8057      8072      8073      7699
 -1       998    4    0    1
 -2      4607      4722      4727      4612      4608      4723      4728      4613      8057      8072
 -2      8073      7699      7685      8058      8074      7701      8060      8075      8076      7702
 -1       999    4    0    1
 -2      4608      4723      4728      4613      4609      4724      4729      4614      8060      8075
 -2      8076      7702      7688      8061      8077      7704      8063      8078      8079      7705
 -1      1000    4    0    1
 -2      4609      4724      4729      4614      4610      4725      4730      4615      8063      8078
 -2      8079      7705      7691      8064      8080      7707      8066      8081      8082      7708
 -1      1001    4    0    1
 -2      4610      4725      4730      4615      4611      4726      4731      4616      8066      8081
 -2      8082      7708      7694      8067      8083      7710      8069      8084      8085      7711
 -1      1002    4    0    1
 -2      4611      4726      4731      4616      2994      3017      3018      2995      8069      8084
 -2      8085      7711      7697      8070      8086      7713      3537      3538      3539      3491
 -1      1003    4    0    1
 -2       482       505       506       483      4612      4727      4732      4617      1026      1027
 -2      1028       980      7698      8071      8087      7714      8073      8088      8089      7715
 -1      1004    4    0    1
 -2      4612      4727      4732      4617      4613      4728      4733      4618      8073      8088
 -2      8089      7715      7701      8074      8090      7717      8076      8091      8092      7718
 -1      1005    4    0    1
 -2      4613      4728      4733      4618      4614      4729      4734      4619      8076      8091
 -2      8092      7718      7704      8077      8093      7720      8079      8094      8095      7721
 -1      1006    4    0    1
 -2      4614      4729      4734      4619      4615      4730      4735      4620      8079      8094
 -2      8095      7721      7707      8080      8096      7723      8082      8097      8098      7724
 -1      1007    4    0    1
 -2      4615      4730      4735      4620      4616      4731      4736      4621      8082      8097
 -2      8098      7724      7710      8083      8099      7726      8085      8100      8101      7727
 -1      1008    4    0    1
 -2      4616      4731      4736      4621      2995      3018      3019      2996      8085      8100
 -2      8101      7727      7713      8086      8102      7729      3539      3540      3541      3493
 -1      1009    4    0    1
 -2       483       506       507       484      4617      4732      4737      4622      1028      1029
 -2      1030       982      7714      8087      8103      7730      8089      8104      8105      7731
 -1      1010    4    0    1
 -2      4617      4732      4737      4622      4618      4733      4738      4623      8089      8104
 -2      8105      7731      7717      8090      8106      7733      8092      8107      8108      7734
 -1      1011    4    0    1
 -2      4618      4733      4738      4623      4619      4734      4739      4624      8092      8107
 -2      8108      7734      7720      8093      8109      7736      8095      8110      8111      7737
 -1      1012    4    0    1
 -2      4619      4734      4739      4624      4620      4735      4740      4625      8095      8110
 -2      8111      7737      7723      8096      8112      7739      8098      8113      8114      7740
 -1      1013    4    0    1
 -2      4620      4735      4740      4625      4621      4736      4741      4626      8098      8113
 -2      8114      7740      7726      8099      8115      7742      8101      8116      8117      7743
 -1      1014    4    0    1
 -2      4621      4736      4741      4626      2996      3019      3020      2997      8101      8116
 -2      8117      7743      7729      8102      8118      7745      3541      3542      3543      3495
 -1      1015    4    0    1
 -2       484       507       508       485      4622      4737      4742      4627      1030      1031
 -2      1032       984      7730      8103      8119      7746      8105      8120      8121      7747
 -1      1016    4    0    1
 -2      4622      4737      4742      4627      4623      4738      4743      4628      8105      8120
 -2      8121      7747      7733      8106      8122      7749      8108      8123      8124      7750
 -1      1017    4    0    1
 -2      4623      4738      4743      4628      4624      4739      4744      4629      8108      8123
 -2      8124      7750      7736      8109      8125      7752      8111      8126      8127      7753
 -1      1018    4    0    1
 -2      4624      4739      4744      4629      4625      4740      4745      4630      8111      8126
 -2      8127      7753      7739      8112      8128      7755      8114      8129      8130      7756
 -1      1019    4    0    1
 -2      4625      4740      4745      4630      4626      4741      4746      4631      8114      8129
 -2      8130      7756      7742      8115      8131      7758      8117      8132      8133      7759
 -1      1020    4    0    1
 -2      4626      4741      4746      4631      2997      3020      3021      2998      8117      8132
 -2      8133      7759      7745      8118      8134      7761      3543      3544      3545      3497
 -1      1021    4    0    1
 -2       485       508       509       486      4627      4742      4747      4632      1032      1033
 -2      1034       986      7746      8119      8135      7762      8121      8136      8137      7763
 -1      1022    4    0    1
 -2      4627      4742      4747      4632      4628      4743      4748      4633      8121      8136
 -2      8137      7763      7749      8122      8138      7765      8124      8139      8140      7766
 -1      1023    4    0    1
 -2      4628      4743      4748      4633      4629      4744      4749      4634      8124      8139
 -2      8140      7766      7752      8125      8141      7768      8127      8142      8143      7769
 -1      1024    4    0    1
 -2      4629      4744      4749      4634      4630      4745      4750      4635      8127      8142
 -2      8143      7769      7755      8128      8144      7771      8130      8145      8146      7772
 -1      1025    4    0    1
 -2      4630      4745      4750      4635      4631      4746      4751      4636      8130      8145
 -2      8146      7772      7758      8131      8147      7774      8133      8148      8149      7775
 -1      1026    4    0    1
 -2      4631      4746      4751      4636      2998      3021      3022      2999      8133      8148
 -2      8149      7775      7761      8134      8150      7777      3545      3546      3547      3499
 -1      1027    4    0    1
 -2       486       509       510       487      4632      4747      4752      4637      1034      1035
 -2      1036       988      7762      8135      8151      7778      8137      8152      8153      7779
 -1      1028    4    0    1
 -2      4632      4747      4752      4637      4633      4748      4753      4638      8137      8152
 -2      8153      7779      7765      8138      8154      7781      8140      8155      8156      7782
 -1      1029    4    0    1
 -2      4633      4748      4753      4638      4634      4749      4754      4639      8140      8155
 -2      8156      7782      7768      8141      8157      7784      8143      8158      8159      7785
 -1      1030    4    0    1
 -2      4634      4749      4754      4639      4635      4750      4755      4640      8143      8158
 -2      8159      7785      7771      8144      8160      7787      8146      8161      8162      7788
 -1      1031    4    0    1
 -2      4635      4750      4755      4640      4636      4751      4756      4641      8146      8161
 -2      8162      7788      7774      8147      8163      7790      8149      8164      8165      7791
 -1      1032    4    0    1
 -2      4636      4751      4756      4641      2999      3022      3023      3000      8149      8164
 -2      8165      7791      7777      8150      8166      7793      3547      3548      3549      3501
 -1      1033    4    0    1
 -2       487       510       511       488      4637      4752      4757      4642      1036      1037
 -2      1038       990      7778      8151      8167      7794      8153      8168      8169      7795
 -1      1034    4    0    1
 -2      4637      4752      4757      4642      4638      4753      4758      4643      8153      8168
 -2      8169      7795      7781      8154      8170      7797      8156      8171      8172      7798
 -1      1035    4    0    1
 -2      4638      4753      4758      4643      4639      4754      4759      4644      8156      8171
 -2      8172      7798      7784      8157      8173      7800      8159      8174      8175      7801
 -1      1036    4    0    1
 -2      4639      4754      4759      4644      4640      4755      4760      4645      8159      8174
 -2      8175      7801      7787      8160      8176      7803      8162      8177      8178      7804
 -1      1037    4    0    1
 -2      4640      4755      4760      4645      4641      4756      4761      4646      8162      8177
 -2      8178      7804      7790      8163      8179      7806      8165      8180      8181      7807
 -1      1038    4    0    1
 -2      4641      4756      4761      4646      3000      3023      3024      3001      8165      8180
 -2      8181      7807      7793      8166      8182      7809      3549      3550      3551      3503
 -1      1039    4    0    1
 -2       488       511       512       489      4642      4757      4762      4647      1038      1039
 -2      1040       992      7794      8167      8183      7810      8169      8184      8185      7811
 -1      1040    4    0    1
 -2      4642      4757      4762      4647      4643      4758      4763      4648      8169      8184
 -2      8185      7811      7797      8170      8186      7813      8172      8187      8188      7814
 -1      1041    4    0    1
 -2      4643      4758      4763      4648      4644      4759      4764      4649      8172      8187
 -2      8188      7814      7800      8173      8189      7816      8175      8190      8191      7817
 -1      1042    4    0    1
 -2      4644      4759      4764      4649      4645      4760      4765      4650      8175      8190
 -2      8191      7817      7803      8176      8192      7819      8178      8193      8194      7820
 -1      1043    4    0    1
 -2      4645      4760      4765      4650      4646      4761      4766      4651      8178      8193
 -2      8194      7820      7806      8179      8195      7822      8181      8196      8197      7823
 -1      1044    4    0    1
 -2      4646      4761      4766      4651      3001      3024      3025      3002      8181      8196
 -2      8197      7823      7809      8182      8198      7825      3551      3552      3553      3505
 -1      1045    4    0    1
 -2       489       512       513       490      4647      4762      4767      4652      1040      1041
 -2      1042       994      7810      8183      8199      7826      8185      8200      8201      7827
 -1      1046    4    0    1
 -2      4647      4762      4767      4652      4648      4763      4768      4653      8185      8200
 -2      8201      7827      7813      8186      8202      7829      8188      8203      8204      7830
 -1      1047    4    0    1
 -2      4648      4763      4768      4653      4649      4764      4769      4654      8188      8203
 -2      8204      7830      7816      8189      8205      7832      8191      8206      8207      7833
 -1      1048    4    0    1
 -2      4649      4764      4769      4654      4650      4765      4770      4655      8191      8206
 -2      8207      7833      7819      8192      8208      7835      8194      8209      8210      7836
 -1      1049    4    0    1
 -2      4650      4765      4770      4655      4651      4766      4771      4656      8194      8209
 -2      8210      7836      7822      8195      8211      7838      8197      8212      8213      7839
 -1      1050    4    0    1
 -2      4651      4766      4771      4656      3002      3025      3026      3003      8197      8212
 -2      8213      7839      7825      8198      8214      7841      3553      3554      3555      3507
 -1      1051    4    0    1
 -2       490       513       514       491      4652      4767      4772      4657      1042      1043
 -2      1044       996      7826      8199      8215      7842      8201      8216      8217      7843
 -1      1052    4    0    1
 -2      4652      4767      4772      4657      4653      4768      4773      4658      8201      8216
 -2      8217      7843      7829      8202      8218      7845      8204      8219      8220      7846
 -1      1053    4    0    1
 -2      4653      4768      4773      4658      4654      4769      4774      4659      8204      8219
 -2      8220      7846      7832      8205      8221      7848      8207      8222      8223      7849
 -1      1054    4    0    1
 -2      4654      4769      4774      4659      4655      4770      4775      4660      8207      8222
 -2      8223      7849      7835      8208      8224      7851      8210      8225      8226      7852
 -1      1055    4    0    1
 -2      4655      4770      4775      4660      4656      4771      4776      4661      8210      8225
 -2      8226      7852      7838      8211      8227      7854      8213      8228      8229      7855
 -1      1056    4    0    1
 -2      4656      4771      4776      4661      3003      3026      3027      3004      8213      8228
 -2      8229      7855      7841      8214      8230      7857      3555      3556      3557      3509
 -1      1057    4    0    1
 -2       491       514       515       492      4657      4772      4777      4662      1044      1045
 -2      1046       998      7842      8215      8231      7858      8217      8232      8233      7859
 -1      1058    4    0    1
 -2      4657      4772      4777      4662      4658      4773      4778      4663      8217      8232
 -2      8233      7859      7845      8218      8234      7861      8220      8235      8236      7862
 -1      1059    4    0    1
 -2      4658      4773      4778      4663      4659      4774      4779      4664      8220      8235
 -2      8236      7862      7848      8221      8237      7864      8223      8238      8239      7865
 -1      1060    4    0    1
 -2      4659      4774      4779      4664      4660      4775      4780      4665      8223      8238
 -2      8239      7865      7851      8224      8240      7867      8226      8241      8242      7868
 -1      1061    4    0    1
 -2      4660      4775      4780      4665      4661      4776      4781      4666      8226      8241
 -2      8242      7868      7854      8227      8243      7870      8229      8244      8245      7871
 -1      1062    4    0    1
 -2      4661      4776      4781      4666      3004      3027      3028      3005      8229      8244
 -2      8245      7871      7857      8230      8246      7873      3557      3558      3559      3511
 -1      1063    4    0    1
 -2       492       515       516       493      4662      4777      4782      4667      1046      1047
 -2      1048      1000      7858      8231      8247      7874      8233      8248      8249      7875
 -1      1064    4    0    1
 -2      4662      4777      4782      4667      4663      4778      4783      4668      8233      8248
 -2      8249      7875      7861      8234      8250      7877      8236      8251      8252      7878
 -1      1065    4    0    1
 -2      4663      4778      4783      4668      4664      4779      4784      4669      8236      8251
 -2      8252      7878      7864      8237      8253      7880      8239      8254      8255      7881
 -1      1066    4    0    1
 -2      4664      4779      4784      4669      4665      4780      4785      4670      8239      8254
 -2      8255      7881      7867      8240      8256      7883      8242      8257      8258      7884
 -1      1067    4    0    1
 -2      4665      4780      4785      4670      4666      4781      4786      4671      8242      8257
 -2      8258      7884      7870      8243      8259      7886      8245      8260      8261      7887
 -1      1068    4    0    1
 -2      4666      4781      4786      4671      3005      3028      3029      3006      8245      8260
 -2      8261      7887      7873      8246      8262      7889      3559      3560      3561      3513
 -1      1069    4    0    1
 -2       493       516       517       494      4667      4782      4787      4672      1048      1049
 -2      1050      1002      7874      8247      8263      7890      8249      8264      8265      7891
 -1      1070    4    0    1
 -2      4667      4782      4787      4672      4668      4783      4788      4673      8249      8264
 -2      8265      7891      7877      8250      8266      7893      8252      8267      8268      7894
 -1      1071    4    0    1
 -2      4668      4783      4788      4673      4669      4784      4789      4674      8252      8267
 -2      8268      7894      7880      8253      8269      7896      8255      8270      8271      7897
 -1      1072    4    0    1
 -2      4669      4784      4789      4674      4670      4785      4790      4675      8255      8270
 -2      8271      7897      7883      8256      8272      7899      8258      8273      8274      7900
 -1      1073    4    0    1
 -2      4670      4785      4790      4675      4671      4786      4791      4676      8258      8273
 -2      8274      7900      7886      8259      8275      7902      8261      8276      8277      7903
 -1      1074    4    0    1
 -2      4671      4786      4791      4676      3006      3029      3030      3007      8261      8276
 -2      8277      7903      7889      8262      8278      7905      3561      3562      3563      3515
 -1      1075    4    0    1
 -2       494       517       518       495      4672      4787      4792      4677      1050      1051
 -2      1052      1004      7890      8263      8279      7906      8265      8280      8281      7907
 -1      1076    4    0    1
 -2      4672      4787      4792      4677      4673      4788      4793      4678      8265      8280
 -2      8281      7907      7893      8266      8282      7909      8268      8283      8284      7910
 -1      1077    4    0    1
 -2      4673      4788      4793      4678      4674      4789      4794      4679      8268      8283
 -2      8284      7910      7896      8269      8285      7912      8271      8286      8287      7913
 -1      1078    4    0    1
 -2      4674      4789      4794      4679      4675      4790      4795      4680      8271      8286
 -2      8287      7913      7899      8272      8288      7915      8274      8289      8290      7916
 -1      1079    4    0    1
 -2      4675      4790      4795      4680      4676      4791      4796      4681      8274      8289
 -2      8290      7916      7902      8275      8291      7918      8277      8292      8293      7919
 -1      1080    4    0    1
 -2      4676      4791      4796      4681      3007      3030      3031      3008      8277      8292
 -2      8293      7919      7905      8278      8294      7921      3563      3564      3565      3517
 -1      1081    4    0    1
 -2       495       518       102       103      4677      4792      2299      2304      1052      1053
 -2       120      1006      7906      8279      2450      2461      8281      8295      2462      7922
 -1      1082    4    0    1
 -2      4677      4792      2299      2304      4678      4793      2300      2305      8281      8295
 -2      2462      7922      7909      8282      2452      2463      8284      8296      2464      7923
 -1      1083    4    0    1
 -2      4678      4793      2300      2305      4679      4794      2301      2306      8284      8296
 -2      2464      7923      7912      8285      2454      2465      8287      8297      2466      7924
 -1      1084    4    0    1
 -2      4679      4794      2301      2306      4680      4795      2302      2307      8287      8297
 -2      2466      7924      7915      8288      2456      2467      8290      8298      2468      7925
 -1      1085    4    0    1
 -2      4680      4795      2302      2307      4681      4796      2303      2308      8290      8298
 -2      2468      7925      7918      8291      2458      2469      8293      8299      2470      7926
 -1      1086    4    0    1
 -2      4681      4796      2303      2308      3008      3031       266       267      8293      8299
 -2      2470      7926      7921      8294      2460      2471      3565      3566       284      3519
 -1      1087    4    0    1
 -2        14        15       519       496      1619      1624      4797      4682        32      1054
 -2      1055      1007      1734      1745      8300      7927      1746      8301      8302      7928
 -1      1088    4    0    1
 -2      1619      1624      4797      4682      1620      1625      4798      4683      1746      8301
 -2      8302      7928      1736      1747      8303      7930      1748      8304      8305      7931
 -1      1089    4    0    1
 -2      1620      1625      4798      4683      1621      1626      4799      4684      1748      8304
 -2      8305      7931      1738      1749      8306      7933      1750      8307      8308      7934
 -1      1090    4    0    1
 -2      1621      1626      4799      4684      1622      1627      4800      4685      1750      8307
 -2      8308      7934      1740      1751      8309      7936      1752      8310      8311      7937
 -1      1091    4    0    1
 -2      1622      1627      4800      4685      1623      1628      4801      4686      1752      8310
 -2      8311      7937      1742      1753      8312      7939      1754      8313      8314      7940
 -1      1092    4    0    1
 -2      1623      1628      4801      4686       178       179      3032      3009      1754      8313
 -2      8314      7940      1744      1755      8315      7942       196      3567      3568      3520
 -1      1093    4    0    1
 -2       496       519       520       497      4682      4797      4802      4687      1055      1056
 -2      1057      1009      7927      8300      8316      7943      8302      8317      8318      7944
 -1      1094    4    0    1
 -2      4682      4797      4802      4687      4683      4798      4803      4688      8302      8317
 -2      8318      7944      7930      8303      8319      7946      8305      8320      8321      7947
 -1      1095    4    0    1
 -2      4683      4798      4803      4688      4684      4799      4804      4689      8305      8320
 -2      8321      7947      7933      8306      8322      7949      8308      8323      8324      7950
 -1      1096    4    0    1
 -2      4684      4799      4804      4689      4685      4800      4805      4690      8308      8323
 -2      8324      7950      7936      8309      8325      7952      8311      8326      8327      7953
 -1      1097    4    0    1
 -2      4685      4800      4805      4690      4686      4801      4806      4691      8311      8326
 -2      8327      7953      7939      8312      8328      7955      8314      8329      8330      7956
 -1      1098    4    0    1
 -2      4686      4801      4806      4691      3009      3032      3033      3010      8314      8329
 -2      8330      7956      7942      8315      8331      7958      3568      3569      3570      3522
 -1      1099    4    0    1
 -2       497       520       521       498      4687      4802      4807      4692      1057      1058
 -2      1059      1011      7943      8316      8332      7959      8318      8333      8334      7960
 -1      1100    4    0    1
 -2      4687      4802      4807      4692      4688      4803      4808      4693      8318      8333
 -2      8334      7960      7946      8319      8335      7962      8321      8336      8337      7963
 -1      1101    4    0    1
 -2      4688      4803      4808      4693      4689      4804      4809      4694      8321      8336
 -2      8337      7963      7949      8322      8338      7965      8324      8339      8340      7966
 -1      1102    4    0    1
 -2      4689      4804      4809      4694      4690      4805      4810      4695      8324      8339
 -2      8340      7966      7952      8325      8341      7968      8327      8342      8343      7969
 -1      1103    4    0    1
 -2      4690      4805      4810      4695      4691      4806      4811      4696      8327      8342
 -2      8343      7969      7955      8328      8344      7971      8330      8345      8346      7972
 -1      1104    4    0    1
 -2      4691      4806      4811      4696      3010      3033      3034      3011      8330      8345
 -2      8346      7972      7958      8331      8347      7974      3570      3571      3572      3524
 -1      1105    4    0    1
 -2       498       521       522       499      4692      4807      4812      4697      1059      1060
 -2      1061      1013      7959      8332      8348      7975      8334      8349      8350      7976
 -1      1106    4    0    1
 -2      4692      4807      4812      4697      4693      4808      4813      4698      8334      8349
 -2      8350      7976      7962      8335      8351      7978      8337      8352      8353      7979
 -1      1107    4    0    1
 -2      4693      4808      4813      4698      4694      4809      4814      4699      8337      8352
 -2      8353      7979      7965      8338      8354      7981      8340      8355      8356      7982
 -1      1108    4    0    1
 -2      4694      4809      4814      4699      4695      4810      4815      4700      8340      8355
 -2      8356      7982      7968      8341      8357      7984      8343      8358      8359      7985
 -1      1109    4    0    1
 -2      4695      4810      4815      4700      4696      4811      4816      4701      8343      8358
 -2      8359      7985      7971      8344      8360      7987      8346      8361      8362      7988
 -1      1110    4    0    1
 -2      4696      4811      4816      4701      3011      3034      3035      3012      8346      8361
 -2      8362      7988      7974      8347      8363      7990      3572      3573      3574      3526
 -1      1111    4    0    1
 -2       499       522       523       500      4697      4812      4817      4702      1061      1062
 -2      1063      1015      7975      8348      8364      7991      8350      8365      8366      7992
 -1      1112    4    0    1
 -2      4697      4812      4817      4702      4698      4813      4818      4703      8350      8365
 -2      8366      7992      7978      8351      8367      7994      8353      8368      8369      7995
 -1      1113    4    0    1
 -2      4698      4813      4818      4703      4699      4814      4819      4704      8353      8368
 -2      8369      7995      7981      8354      8370      7997      8356      8371      8372      7998
 -1      1114    4    0    1
 -2      4699      4814      4819      4704      4700      4815      4820      4705      8356      8371
 -2      8372      7998      7984      8357      8373      8000      8359      8374      8375      8001
 -1      1115    4    0    1
 -2      4700      4815      4820      4705      4701      4816      4821      4706      8359      8374
 -2      8375      8001      7987      8360      8376      8003      8362      8377      8378      8004
 -1      1116    4    0    1
 -2      4701      4816      4821      4706      3012      3035      3036      3013      8362      8377
 -2      8378      8004      7990      8363      8379      8006      3574      3575      3576      3528
 -1      1117    4    0    1
 -2       500       523       524       501      4702      4817      4822      4707      1063      1064
 -2      1065      1017      7991      8364      8380      8007      8366      8381      8382      8008
 -1      1118    4    0    1
 -2      4702      4817      4822      4707      4703      4818      4823      4708      8366      8381
 -2      8382      8008      7994      8367      8383      8010      8369      8384      8385      8011
 -1      1119    4    0    1
 -2      4703      4818      4823      4708      4704      4819      4824      4709      8369      8384
 -2      8385      8011      7997      8370      8386      8013      8372      8387      8388      8014
 -1      1120    4    0    1
 -2      4704      4819      4824      4709      4705      4820      4825      4710      8372      8387
 -2      8388      8014      8000      8373      8389      8016      8375      8390      8391      8017
 -1      1121    4    0    1
 -2      4705      4820      4825      4710      4706      4821      4826      4711      8375      8390
 -2      8391      8017      8003      8376      8392      8019      8378      8393      8394      8020
 -1      1122    4    0    1
 -2      4706      4821      4826      4711      3013      3036      3037      3014      8378      8393
 -2      8394      8020      8006      8379      8395      8022      3576      3577      3578      3530
 -1      1123    4    0    1
 -2       501       524       525       502      4707      4822      4827      4712      1065      1066
 -2      1067      1019      8007      8380      8396      8023      8382      8397      8398      8024
 -1      1124    4    0    1
 -2      4707      4822      4827      4712      4708      4823      4828      4713      8382      8397
 -2      8398      8024      8010      8383      8399      8026      8385      8400      8401      8027
 -1      1125    4    0    1
 -2      4708      4823      4828      4713      4709      4824      4829      4714      8385      8400
 -2      8401      8027      8013      8386      8402      8029      8388      8403      8404      8030
 -1      1126    4    0    1
 -2      4709      4824      4829      4714      4710      4825      4830      4715      8388      8403
 -2      8404      8030      8016      8389      8405      8032      8391      8406      8407      8033
 -1      1127    4    0    1
 -2      4710      4825      4830      4715      4711      4826      4831      4716      8391      8406
 -2      8407      8033      8019      8392      8408      8035      8394      8409      8410      8036
 -1      1128    4    0    1
 -2      4711      4826      4831      4716      3014      3037      3038      3015      8394      8409
 -2      8410      8036      8022      8395      8411      8038      3578      3579      3580      3532
 -1      1129    4    0    1
 -2       502       525       526       503      4712      4827      4832      4717      1067      1068
 -2      1069      1021      8023      8396      8412      8039      8398      8413      8414      8040
 -1      1130    4    0    1
 -2      4712      4827      4832      4717      4713      4828      4833      4718      8398      8413
 -2      8414      8040      8026      8399      8415      8042      8401      8416      8417      8043
 -1      1131    4    0    1
 -2      4713      4828      4833      4718      4714      4829      4834      4719      8401      8416
 -2      8417      8043      8029      8402      8418      8045      8404      8419      8420      8046
 -1      1132    4    0    1
 -2      4714      4829      4834      4719      4715      4830      4835      4720      8404      8419
 -2      8420      8046      8032      8405      8421      8048      8407      8422      8423      8049
 -1      1133    4    0    1
 -2      4715      4830      4835      4720      4716      4831      4836      4721      8407      8422
 -2      8423      8049      8035      8408      8424      8051      8410      8425      8426      8052
 -1      1134    4    0    1
 -2      4716      4831      4836      4721      3015      3038      3039      3016      8410      8425
 -2      8426      8052      8038      8411      8427      8054      3580      3581      3582      3534
 -1      1135    4    0    1
 -2       503       526       527       504      4717      4832      4837      4722      1069      1070
 -2      1071      1023      8039      8412      8428      8055      8414      8429      8430      8056
 -1      1136    4    0    1
 -2      4717      4832      4837      4722      4718      4833      4838      4723      8414      8429
 -2      8430      8056      8042      8415      8431      8058      8417      8432      8433      8059
 -1      1137    4    0    1
 -2      4718      4833      4838      4723      4719      4834      4839      4724      8417      8432
 -2      8433      8059      8045      8418      8434      8061      8420      8435      8436      8062
 -1      1138    4    0    1
 -2      4719      4834      4839      4724      4720      4835      4840      4725      8420      8435
 -2      8436      8062      8048      8421      8437      8064      8423      8438      8439      8065
 -1      1139    4    0    1
 -2      4720      4835      4840      4725      4721      4836      4841      4726      8423      8438
 -2      8439      8065      8051      8424      8440      8067      8426      8441      8442      8068
 -1      1140    4    0    1
 -2      4721      4836      4841      4726      3016      3039      3040      3017      8426      8441
 -2      8442      8068      8054      8427      8443      8070      3582      3583      3584      3536
 -1      1141    4    0    1
 -2       504       527       528       505      4722      4837      4842      4727      1071      1072
 -2      1073      1025      8055      8428      8444      8071      8430      8445      8446      8072
 -1      1142    4    0    1
 -2      4722      4837      4842      4727      4723      4838      4843      4728      8430      8445
 -2      8446      8072      8058      8431      8447      8074      8433      8448      8449      8075
 -1      1143    4    0    1
 -2      4723      4838      4843      4728      4724      4839      4844      4729      8433      8448
 -2      8449      8075      8061      8434      8450      8077      8436      8451      8452      8078
 -1      1144    4    0    1
 -2      4724      4839      4844      4729      4725      4840      4845      4730      8436      8451
 -2      8452      8078      8064      8437      8453      8080      8439      8454      8455      8081
 -1      1145    4    0    1
 -2      4725      4840      4845      4730      4726      4841      4846      4731      8439      8454
 -2      8455      8081      8067      8440      8456      8083      8442      8457      8458      8084
 -1      1146    4    0    1
 -2      4726      4841      4846      4731      3017      3040      3041      3018      8442      8457
 -2      8458      8084      8070      8443      8459      8086      3584      3585      3586      3538
 -1      1147    4    0    1
 -2       505       528       529       506      4727      4842      4847      4732      1073      1074
 -2      1075      1027      8071      8444      8460      8087      8446      8461      8462      8088
 -1      1148    4    0    1
 -2      4727      4842      4847      4732      4728      4843      4848      4733      8446      8461
 -2      8462      8088      8074      8447      8463      8090      8449      8464      8465      8091
 -1      1149    4    0    1
 -2      4728      4843      4848      4733      4729      4844      4849      4734      8449      8464
 -2      8465      8091      8077      8450      8466      8093      8452      8467      8468      8094
 -1      1150    4    0    1
 -2      4729      4844      4849      4734      4730      4845      4850      4735      8452      8467
 -2      8468      8094      8080      8453      8469      8096      8455      8470      8471      8097
 -1      1151    4    0    1
 -2      4730      4845      4850      4735      4731      4846      4851      4736      8455      8470
 -2      8471      8097      8083      8456      8472      8099      8458      8473      8474      8100
 -1      1152    4    0    1
 -2      4731      4846      4851      4736      3018      3041      3042      3019      8458      8473
 -2      8474      8100      8086      8459      8475      8102      3586      3587      3588      3540
 -1      1153    4    0    1
 -2       506       529       530       507      4732      4847      4852      4737      1075      1076
 -2      1077      1029      8087      8460      8476      8103      8462      8477      8478      8104
 -1      1154    4    0    1
 -2      4732      4847      4852      4737      4733      4848      4853      4738      8462      8477
 -2      8478      8104      8090      8463      8479      8106      8465      8480      8481      8107
 -1      1155    4    0    1
 -2      4733      4848      4853      4738      4734      4849      4854      4739      8465      8480
 -2      8481      8107      8093      8466      8482      8109      8468      8483      8484      8110
 -1      1156    4    0    1
 -2      4734      4849      4854      4739      4735      4850      4855      4740      8468      8483
 -2      8484      8110      8096      8469      8485      8112      8471      8486      8487      8113
 -1      1157    4    0    1
 -2      4735      4850      4855      4740      4736      4851      4856      4741      8471      8486
 -2      8487      8113      8099      8472      8488      8115      8474      8489      8490      8116
 -1      1158    4    0    1
 -2      4736      4851      4856      4741      3019      3042      3043      3020      8474      8489
 -2      8490      8116      8102      8475      8491      8118      3588      3589      3590      3542
 -1      1159    4    0    1
 -2       507       530       531       508      4737      4852      4857      4742      1077      1078
 -2      1079      1031      8103      8476      8492      8119      8478      8493      8494      8120
 -1      1160    4    0    1
 -2      4737      4852      4857      4742      4738      4853      4858      4743      8478      8493
 -2      8494      8120      8106      8479      8495      8122      8481      8496      8497      8123
 -1      1161    4    0    1
 -2      4738      4853      4858      4743      4739      4854      4859      4744      8481      8496
 -2      8497      8123      8109      8482      8498      8125      8484      8499      8500      8126
 -1      1162    4    0    1
 -2      4739      4854      4859      4744      4740      4855      4860      4745      8484      8499
 -2      8500      8126      8112      8485      8501      8128      8487      8502      8503      8129
 -1      1163    4    0    1
 -2      4740      4855      4860      4745      4741      4856      4861      4746      8487      8502
 -2      8503      8129      8115      8488      8504      8131      8490      8505      8506      8132
 -1      1164    4    0    1
 -2      4741      4856      4861      4746      3020      3043      3044      3021      8490      8505
 -2      8506      8132      8118      8491      8507      8134      3590      3591      3592      3544
 -1      1165    4    0    1
 -2       508       531       532       509      4742      4857      4862      4747      1079      1080
 -2      1081      1033      8119      8492      8508      8135      8494      8509      8510      8136
 -1      1166    4    0    1
 -2      4742      4857      4862      4747      4743      4858      4863      4748      8494      8509
 -2      8510      8136      8122      8495      8511      8138      8497      8512      8513      8139
 -1      1167    4    0    1
 -2      4743      4858      4863      4748      4744      4859      4864      4749      8497      8512
 -2      8513      8139      8125      8498      8514      8141      8500      8515      8516      8142
 -1      1168    4    0    1
 -2      4744      4859      4864      4749      4745      4860      4865      4750      8500      8515
 -2      8516      8142      8128      8501      8517      8144      8503      8518      8519      8145
 -1      1169    4    0    1
 -2      4745      4860      4865      4750      4746      4861      4866      4751      8503      8518
 -2      8519      8145      8131      8504      8520      8147      8506      8521      8522      8148
 -1      1170    4    0    1
 -2      4746      4861      4866      4751      3021      3044      3045      3022      8506      8521
 -2      8522      8148      8134      8507      8523      8150      3592      3593      3594      3546
 -1      1171    4    0    1
 -2       509       532       533       510      4747      4862      4867      4752      1081      1082
 -2      1083      1035      8135      8508      8524      8151      8510      8525      8526      8152
 -1      1172    4    0    1
 -2      4747      4862      4867      4752      4748      4863      4868      4753      8510      8525
 -2      8526      8152      8138      8511      8527      8154      8513      8528      8529      8155
 -1      1173    4    0    1
 -2      4748      4863      4868      4753      4749      4864      4869      4754      8513      8528
 -2      8529      8155      8141      8514      8530      8157      8516      8531      8532      8158
 -1      1174    4    0    1
 -2      4749      4864      4869      4754      4750      4865      4870      4755      8516      8531
 -2      8532      8158      8144      8517      8533      8160      8519      8534      8535      8161
 -1      1175    4    0    1
 -2      4750      4865      4870      4755      4751      4866      4871      4756      8519      8534
 -2      8535      8161      8147      8520      8536      8163      8522      8537      8538      8164
 -1      1176    4    0    1
 -2      4751      4866      4871      4756      3022      3045      3046      3023      8522      8537
 -2      8538      8164      8150      8523      8539      8166      3594      3595      3596      3548
 -1      1177    4    0    1
 -2       510       533       534       511      4752      4867      4872      4757      1083      1084
 -2      1085      1037      8151      8524      8540      8167      8526      8541      8542      8168
 -1      1178    4    0    1
 -2      4752      4867      4872      4757      4753      4868      4873      4758      8526      8541
 -2      8542      8168      8154      8527      8543      8170      8529      8544      8545      8171
 -1      1179    4    0    1
 -2      4753      4868      4873      4758      4754      4869      4874      4759      8529      8544
 -2      8545      8171      8157      8530      8546      8173      8532      8547      8548      8174
 -1      1180    4    0    1
 -2      4754      4869      4874      4759      4755      4870      4875      4760      8532      8547
 -2      8548      8174      8160      8533      8549      8176      8535      8550      8551      8177
 -1      1181    4    0    1
 -2      4755      4870      4875      4760      4756      4871      4876      4761      8535      8550
 -2      8551      8177      8163      8536      8552      8179      8538      8553      8554      8180
 -1      1182    4    0    1
 -2      4756      4871      4876      4761      3023      3046      3047      3024      8538      8553
 -2      8554      8180      8166      8539      8555      8182      3596      3597      3598      3550
 -1      1183    4    0    1
 -2       511       534       535       512      4757      4872      4877      4762      1085      1086
 -2      1087      1039      8167      8540      8556      8183      8542      8557      8558      8184
 -1      1184    4    0    1
 -2      4757      4872      4877      4762      4758      4873      4878      4763      8542      8557
 -2      8558      8184      8170      8543      8559      8186      8545      8560      8561      8187
 -1      1185    4    0    1
 -2      4758      4873      4878      4763      4759      4874      4879      4764      8545      8560
 -2      8561      8187      8173      8546      8562      8189      8548      8563      8564      8190
 -1      1186    4    0    1
 -2      4759      4874      4879      4764      4760      4875      4880      4765      8548      8563
 -2      8564      8190      8176      8549      8565      8192      8551      8566      8567      8193
 -1      1187    4    0    1
 -2      4760      4875      4880      4765      4761      4876      4881      4766      8551      8566
 -2      8567      8193      8179      8552      8568      8195      8554      8569      8570      8196
 -1      1188    4    0    1
 -2      4761      4876      4881      4766      3024      3047      3048      3025      8554      8569
 -2      8570      8196      8182      8555      8571      8198      3598      3599      3600      3552
 -1      1189    4    0    1
 -2       512       535       536       513      4762      4877      4882      4767      1087      1088
 -2      1089      1041      8183      8556      8572      8199      8558      8573      8574      8200
 -1      1190    4    0    1
 -2      4762      4877      4882      4767      4763      4878      4883      4768      8558      8573
 -2      8574      8200      8186      8559      8575      8202      8561      8576      8577      8203
 -1      1191    4    0    1
 -2      4763      4878      4883      4768      4764      4879      4884      4769      8561      8576
 -2      8577      8203      8189      8562      8578      8205      8564      8579      8580      8206
 -1      1192    4    0    1
 -2      4764      4879      4884      4769      4765      4880      4885      4770      8564      8579
 -2      8580      8206      8192      8565      8581      8208      8567      8582      8583      8209
 -1      1193    4    0    1
 -2      4765      4880      4885      4770      4766      4881      4886      4771      8567      8582
 -2      8583      8209      8195      8568      8584      8211      8570      8585      8586      8212
 -1      1194    4    0    1
 -2      4766      4881      4886      4771      3025      3048      3049      3026      8570      8585
 -2      8586      8212      8198      8571      8587      8214      3600      3601      3602      3554
 -1      1195    4    0    1
 -2       513       536       537       514      4767      4882      4887      4772      1089      1090
 -2      1091      1043      8199      8572      8588      8215      8574      8589      8590      8216
 -1      1196    4    0    1
 -2      4767      4882      4887      4772      4768      4883      4888      4773      8574      8589
 -2      8590      8216      8202      8575      8591      8218      8577      8592      8593      8219
 -1      1197    4    0    1
 -2      4768      4883      4888      4773      4769      4884      4889      4774      8577      8592
 -2      8593      8219      8205      8578      8594      8221      8580      8595      8596      8222
 -1      1198    4    0    1
 -2      4769      4884      4889      4774      4770      4885      4890      4775      8580      8595
 -2      8596      8222      8208      8581      8597      8224      8583      8598      8599      8225
 -1      1199    4    0    1
 -2      4770      4885      4890      4775      4771      4886      4891      4776      8583      8598
 -2      8599      8225      8211      8584      8600      8227      8586      8601      8602      8228
 -1      1200    4    0    1
 -2      4771      4886      4891      4776      3026      3049      3050      3027      8586      8601
 -2      8602      8228      8214      8587      8603      8230      3602      3603      3604      3556
 -1      1201    4    0    1
 -2       514       537       538       515      4772      4887      4892      4777      1091      1092
 -2      1093      1045      8215      8588      8604      8231      8590      8605      8606      8232
 -1      1202    4    0    1
 -2      4772      4887      4892      4777      4773      4888      4893      4778      8590      8605
 -2      8606      8232      8218      8591      8607      8234      8593      8608      8609      8235
 -1      1203    4    0    1
 -2      4773      4888      4893      4778      4774      4889      4894      4779      8593      8608
 -2      8609      8235      8221      8594      8610      8237      8596      8611      8612      8238
 -1      1204    4    0    1
 -2      4774      4889      4894      4779      4775      4890      4895      4780      8596      8611
 -2      8612      8238      8224      8597      8613      8240      8599      8614      8615      8241
 -1      1205    4    0    1
 -2      4775      4890      4895      4780      4776      4891      4896      4781      8599      8614
 -2      8615      8241      8227      8600      8616      8243      8602      8617      8618      8244
 -1      1206    4    0    1
 -2      4776      4891      4896      4781      3027      3050      3051      3028      8602      8617
 -2      8618      8244      8230      8603      8619      8246      3604      3605      3606      3558
 -1      1207    4    0    1
 -2       515       538       539       516      4777      4892      4897      4782      1093      1094
 -2      1095      1047      8231      8604      8620      8247      8606      8621      8622      8248
 -1      1208    4    0    1
 -2      4777      4892      4897      4782      4778      4893      4898      4783      8606      8621
 -2      8622      8248      8234      8607      8623      8250      8609      8624      8625      8251
 -1      1209    4    0    1
 -2      4778      4893      4898      4783      4779      4894      4899      4784      8609      8624
 -2      8625      8251      8237      8610      8626      8253      8612      8627      8628      8254
 -1      1210    4    0    1
 -2      4779      4894      4899      4784      4780      4895      4900      4785      8612      8627
 -2      8628      8254      8240      8613      8629      8256      8615      8630      8631      8257
 -1      1211    4    0    1
 -2      4780      4895      4900      4785      4781      4896      4901      4786      8615      8630
 -2      8631      8257      8243      8616      8632      8259      8618      8633      8634      8260
 -1      1212    4    0    1
 -2      4781      4896      4901      4786      3028      3051      3052      3029      8618      8633
 -2      8634      8260      8246      8619      8635      8262      3606      3607      3608      3560
 -1      1213    4    0    1
 -2       516       539       540       517      4782      4897      4902      4787      1095      1096
 -2      1097      1049      8247      8620      8636      8263      8622      8637      8638      8264
 -1      1214    4    0    1
 -2      4782      4897      4902      4787      4783      4898      4903      4788      8622      8637
 -2      8638      8264      8250      8623      8639      8266      8625      8640      8641      8267
 -1      1215    4    0    1
 -2      4783      4898      4903      4788      4784      4899      4904      4789      8625      8640
 -2      8641      8267      8253      8626      8642      8269      8628      8643      8644      8270
 -1      1216    4    0    1
 -2      4784      4899      4904      4789      4785      4900      4905      4790      8628      8643
 -2      8644      8270      8256      8629      8645      8272      8631      8646      8647      8273
 -1      1217    4    0    1
 -2      4785      4900      4905      4790      4786      4901      4906      4791      8631      8646
 -2      8647      8273      8259      8632      8648      8275      8634      8649      8650      8276
 -1      1218    4    0    1
 -2      4786      4901      4906      4791      3029      3052      3053      3030      8634      8649
 -2      8650      8276      8262      8635      8651      8278      3608      3609      3610      3562
 -1      1219    4    0    1
 -2       517       540       541       518      4787      4902      4907      4792      1097      1098
 -2      1099      1051      8263      8636      8652      8279      8638      8653      8654      8280
 -1      1220    4    0    1
 -2      4787      4902      4907      4792      4788      4903      4908      4793      8638      8653
 -2      8654      8280      8266      8639      8655      8282      8641      8656      8657      8283
 -1      1221    4    0    1
 -2      4788      4903      4908      4793      4789      4904      4909      4794      8641      8656
 -2      8657      8283      8269      8642      8658      8285      8644      8659      8660      8286
 -1      1222    4    0    1
 -2      4789      4904      4909      4794      4790      4905      4910      4795      8644      8659
 -2      8660      8286      8272      8645      8661      8288      8647      8662      8663      8289
 -1      1223    4    0    1
 -2      4790      4905      4910      4795      4791      4906      4911      4796      8647      8662
 -2      8663      8289      8275      8648      8664      8291      8650      8665      8666      8292
 -1      1224    4    0    1
 -2      4791      4906      4911      4796      3030      3053      3054      3031      8650      8665
 -2      8666      8292      8278      8651      8667      8294      3610      3611      3612      3564
 -1      1225    4    0    1
 -2       518       541       101       102      4792      4907      2294      2299      1099      1100
 -2       119      1053      8279      8652      2439      2450      8654      8668      2451      8295
 -1      1226    4    0    1
 -2      4792      4907      2294      2299      4793      4908      2295      2300      8654      8668
 -2      2451      8295      8282      8655      2441      2452      8657      8669      2453      8296
 -1      1227    4    0    1
 -2      4793      4908      2295      2300      4794      4909      2296      2301      8657      8669
 -2      2453      8296      8285      8658      2443      2454      8660      8670      2455      8297
 -1      1228    4    0    1
 -2      4794      4909      2296      2301      4795      4910      2297      2302      8660      8670
 -2      2455      8297      8288      8661      2445      2456      8663      8671      2457      8298
 -1      1229    4    0    1
 -2      4795      4910      2297      2302      4796      4911      2298      2303      8663      8671
 -2      2457      8298      8291      8664      2447      2458      8666      8672      2459      8299
 -1      1230    4    0    1
 -2      4796      4911      2298      2303      3031      3054       265       266      8666      8672
 -2      2459      8299      8294      8667      2449      2460      3612      3613       283      3566
 -1      1231    4    0    1
 -2        15        16       542       519      1624      1629      4912      4797        33      1101
 -2      1102      1054      1745      1756      8673      8300      1757      8674      8675      8301
 -1      1232    4    0    1
 -2      1624      1629      4912      4797      1625      1630      4913      4798      1757      8674
 -2      8675      8301      1747      1758      8676      8303      1759      8677      8678      8304
 -1      1233    4    0    1
 -2      1625      1630      4913      4798      1626      1631      4914      4799      1759      8677
 -2      8678      8304      1749      1760      8679      8306      1761      8680      8681      8307
 -1      1234    4    0    1
 -2      1626      1631      4914      4799      1627      1632      4915      4800      1761      8680
 -2      8681      8307      1751      1762      8682      8309      1763      8683      8684      8310
 -1      1235    4    0    1
 -2      1627      1632      4915      4800      1628      1633      4916      4801      1763      8683
 -2      8684      8310      1753      1764      8685      8312      1765      8686      8687      8313
 -1      1236    4    0    1
 -2      1628      1633      4916      4801       179       180      3055      3032      1765      8686
 -2      8687      8313      1755      1766      8688      8315       197      3614      3615      3567
 -1      1237    4    0    1
 -2       519       542       543       520      4797      4912      4917      4802      1102      1103
 -2      1104      1056      8300      8673      8689      8316      8675      8690      8691      8317
 -1      1238    4    0    1
 -2      4797      4912      4917      4802      4798      4913      4918      4803      8675      8690
 -2      8691      8317      8303      8676      8692      8319      8678      8693      8694      8320
 -1      1239    4    0    1
 -2      4798      4913      4918      4803      4799      4914      4919      4804      8678      8693
 -2      8694      8320      8306      8679      8695      8322      8681      8696      8697      8323
 -1      1240    4    0    1
 -2      4799      4914      4919      4804      4800      4915      4920      4805      8681      8696
 -2      8697      8323      8309      8682      8698      8325      8684      8699      8700      8326
 -1      1241    4    0    1
 -2      4800      4915      4920      4805      4801      4916      4921      4806      8684      8699
 -2      8700      8326      8312      8685      8701      8328      8687      8702      8703      8329
 -1      1242    4    0    1
 -2      4801      4916      4921      4806      3032      3055      3056      3033      8687      8702
 -2      8703      8329      8315      8688      8704      8331      3615      3616      3617      3569
 -1      1243    4    0    1
 -2       520       543       544       521      4802      4917      4922      4807      1104      1105
 -2      1106      1058      8316      8689      8705      8332      8691      8706      8707      8333
 -1      1244    4    0    1
 -2      4802      4917      4922      4807      4803      4918      4923      4808      8691      8706
 -2      8707      8333      8319      8692      8708      8335      8694      8709      8710      8336
 -1      1245    4    0    1
 -2      4803      4918      4923      4808      4804      4919      4924      4809      8694      8709
 -2      8710      8336      8322      8695      8711      8338      8697      8712      8713      8339
 -1      1246    4    0    1
 -2      4804      4919      4924      4809      4805      4920      4925      4810      8697      8712
 -2      8713      8339      8325      8698      8714      8341      8700      8715      8716      8342
 -1      1247    4    0    1
 -2      4805      4920      4925      4810      4806      4921      4926      4811      8700      8715
 -2      8716      8342      8328      8701      8717      8344      8703      8718      8719      8345
 -1      1248    4    0    1
 -2      4806      4921      4926      4811      3033      3056      3057      3034      8703      8718
 -2      8719      8345      8331      8704      8720      8347      3617      3618      3619      3571
 -1      1249    4    0    1
 -2       521       544       545       522      4807      4922      4927      4812      1106      1107
 -2      1108      1060      8332      8705      8721      8348      8707      8722      8723      8349
 -1      1250    4    0    1
 -2      4807      4922      4927      4812      4808      4923      4928      4813      8707      8722
 -2      8723      8349      8335      8708      8724      8351      8710      8725      8726      8352
 -1      1251    4    0    1
 -2      4808      4923      4928      4813      4809      4924      4929      4814      8710      8725
 -2      8726      8352      8338      8711      8727      8354      8713      8728      8729      8355
 -1      1252    4    0    1
 -2      4809      4924      4929      4814      4810      4925      4930      4815      8713      8728
 -2      8729      8355      8341      8714      8730      8357      8716      8731      8732      8358
 -1      1253    4    0    1
 -2      4810      4925      4930      4815      4811      4926      4931      4816      8716      8731
 -2      8732      8358      8344      8717      8733      8360      8719      8734      8735      8361
 -1      1254    4    0    1
 -2      4811      4926      4931      4816      3034      3057      3058      3035      8719      8734
 -2      8735      8361      8347      8720      8736      8363      3619      3620      3621      3573
 -1      1255    4    0    1
 -2       522       545       546       523      4812      4927      4932      4817      1108      1109
 -2      1110      1062      8348      8721      8737      8364      8723      8738      8739      8365
 -1      1256    4    0    1
 -2      4812      4927      4932      4817      4813      4928      4933      4818      8723      8738
 -2      8739      8365      8351      8724      8740      8367      8726      8741      8742      8368
 -1      1257    4    0    1
 -2      4813      4928      4933      4818      4814      4929      4934      4819      8726      8741
 -2      8742      8368      8354      8727      8743      8370      8729      8744      8745      8371
 -1      1258    4    0    1
 -2      4814      4929      4934      4819      4815      4930      4935      4820      8729      8744
 -2      8745      8371      8357      8730      8746      8373      8732      8747      8748      8374
 -1      1259    4    0    1
 -2      4815      4930      4935      4820      4816      4931      4936      4821      8732      8747
 -2      8748      8374      8360      8733      8749      8376      8735      8750      8751      8377
 -1      1260    4    0    1
 -2      4816      4931      4936      4821      3035      3058      3059      3036      8735      8750
 -2      8751      8377      8363      8736      8752      8379      3621      3622      3623      3575
 -1      1261    4    0    1
 -2       523       546       547       524      4817      4932      4937      4822      1110      1111
 -2      1112      1064      8364      8737      8753      8380      8739      8754      8755      8381
 -1      1262    4    0    1
 -2      4817      4932      4937      4822      4818      4933      4938      4823      8739      8754
 -2      8755      8381      8367      8740      8756      8383      8742      8757      8758      8384
 -1      1263    4    0    1
 -2      4818      4933      4938      4823      4819      4934      4939      4824      8742      8757
 -2      8758      8384      8370      8743      8759      8386      8745      8760      8761      8387
 -1      1264    4    0    1
 -2      4819      4934      4939      4824      4820      4935      4940      4825      8745      8760
 -2      8761      8387      8373      8746      8762      8389      8748      8763      8764      8390
 -1      1265    4    0    1
 -2      4820      4935      4940      4825      4821      4936      4941      4826      8748      8763
 -2      8764      8390      8376      8749      8765      8392      8751      8766      8767      8393
 -1      1266    4    0    1
 -2      4821      4936      4941      4826      3036      3059      3060      3037      8751      8766
 -2      8767      8393      8379      8752      8768      8395      3623      3624      3625      3577
 -1      1267    4    0    1
 -2       524       547       548       525      4822      4937      4942      4827      1112      1113
 -2      1114      1066      8380      8753      8769      8396      8755      8770      8771      8397
 -1      1268    4    0    1
 -2      4822      4937      4942      4827      4823      4938      4943      4828      8755      8770
 -2      8771      8397      8383      8756      8772      8399      8758      8773      8774      8400
 -1      1269    4    0    1
 -2      4823      4938      4943      4828      4824      4939      4944      4829      8758      8773
 -2      8774      8400      8386      8759      8775      8402      8761      8776      8777      8403
 -1      1270    4    0    1
 -2      4824      4939      4944      4829      4825      4940      4945      4830      8761      8776
 -2      8777      8403      8389      8762      8778      8405      8764      8779      8780      8406
 -1      1271    4    0    1
 -2      4825      4940      4945      4830      4826      4941      4946      4831      8764      8779
 -2      8780      8406      8392      8765      8781      8408      8767      8782      8783      8409
 -1      1272    4    0    1
 -2      4826      4941      4946      4831      3037      3060      3061      3038      8767      8782
 -2      8783      8409      8395      8768      8784      8411      3625      3626      3627      3579
 -1      1273    4    0    1
 -2       525       548       549       526      4827      4942      4947      4832      1114      1115
 -2      1116      1068      8396      8769      8785      8412      8771      8786      8787      8413
 -1      1274    4    0    1
 -2      4827      4942      4947      4832      4828      4943      4948      4833      8771      8786
 -2      8787      8413      8399      8772      8788      8415      8774      8789      8790      8416
 -1      1275    4    0    1
 -2      4828      4943      4948      4833      4829      4944      4949      4834      8774      8789
 -2      8790      8416      8402      8775      8791      8418      8777      8792      8793      8419
 -1      1276    4    0    1
 -2      4829      4944      4949      4834      4830      4945      4950      4835      8777      8792
 -2      8793      8419      8405      8778      8794      8421      8780      8795      8796      8422
 -1      1277    4    0    1
 -2      4830      4945      4950      4835      4831      4946      4951      4836      8780      8795
 -2      8796      8422      8408      8781      8797      8424      8783      8798      8799      8425
 -1      1278    4    0    1
 -2      4831      4946      4951      4836      3038      3061      3062      3039      8783      8798
 -2      8799      8425      8411      8784      8800      8427      3627      3628      3629      3581
 -1      1279    4    0    1
 -2       526       549       550       527      4832      4947      4952      4837      1116      1117
 -2      1118      1070      8412      8785      8801      8428      8787      8802      8803      8429
 -1      1280    4    0    1
 -2      4832      4947      4952      4837      4833      4948      4953      4838      8787      8802
 -2      8803      8429      8415      8788      8804      8431      8790      8805      8806      8432
 -1      1281    4    0    1
 -2      4833      4948      4953      4838      4834      4949      4954      4839      8790      8805
 -2      8806      8432      8418      8791      8807      8434      8793      8808      8809      8435
 -1      1282    4    0    1
 -2      4834      4949      4954      4839      4835      4950      4955      4840      8793      8808
 -2      8809      8435      8421      8794      8810      8437      8796      8811      8812      8438
 -1      1283    4    0    1
 -2      4835      4950      4955      4840      4836      4951      4956      4841      8796      8811
 -2      8812      8438      8424      8797      8813      8440      8799      8814      8815      8441
 -1      1284    4    0    1
 -2      4836      4951      4956      4841      3039      3062      3063      3040      8799      8814
 -2      8815      8441      8427      8800      8816      8443      3629      3630      3631      3583
 -1      1285    4    0    1
 -2       527       550       551       528      4837      4952      4957      4842      1118      1119
 -2      1120      1072      8428      8801      8817      8444      8803      8818      8819      8445
 -1      1286    4    0    1
 -2      4837      4952      4957      4842      4838      4953      4958      4843      8803      8818
 -2      8819      8445      8431      8804      8820      8447      8806      8821      8822      8448
 -1      1287    4    0    1
 -2      4838      4953      4958      4843      4839      4954      4959      4844      8806      8821
 -2      8822      8448      8434      8807      8823      8450      8809      8824      8825      8451
 -1      1288    4    0    1
 -2      4839      4954      4959      4844      4840      4955      4960      4845      8809      8824
 -2      8825      8451      8437      8810      8826      8453      8812      8827      8828      8454
 -1      1289    4    0    1
 -2      4840      4955      4960      4845      4841      4956      4961      4846      8812      8827
 -2      8828      8454      8440      8813      8829      8456      8815      8830      8831      8457
 -1      1290    4    0    1
 -2      4841      4956      4961      4846      3040      3063      3064      3041      8815      8830
 -2      8831      8457      8443      8816      8832      8459      3631      3632      3633      3585
 -1      1291    4    0    1
 -2       528       551       552       529      4842      4957      4962      4847      1120      1121
 -2      1122      1074      8444      8817      8833      8460      8819      8834      8835      8461
 -1      1292    4    0    1
 -2      4842      4957      4962      4847      4843      4958      4963      4848      8819      8834
 -2      8835      8461      8447      8820      8836      8463      8822      8837      8838      8464
 -1      1293    4    0    1
 -2      4843      4958      4963      4848      4844      4959      4964      4849      8822      8837
 -2      8838      8464      8450      8823      8839      8466      8825      8840      8841      8467
 -1      1294    4    0    1
 -2      4844      4959      4964      4849      4845      4960      4965      4850      8825      8840
 -2      8841      8467      8453      8826      8842      8469      8828      8843      8844      8470
 -1      1295    4    0    1
 -2      4845      4960      4965      4850      4846      4961      4966      4851      8828      8843
 -2      8844      8470      8456      8829      8845      8472      8831      8846      8847      8473
 -1      1296    4    0    1
 -2      4846      4961      4966      4851      3041      3064      3065      3042      8831      8846
 -2      8847      8473      8459      8832      8848      8475      3633      3634      3635      3587
 -1      1297    4    0    1
 -2       529       552       553       530      4847      4962      4967      4852      1122      1123
 -2      1124      1076      8460      8833      8849      8476      8835      8850      8851      8477
 -1      1298    4    0    1
 -2      4847      4962      4967      4852      4848      4963      4968      4853      8835      8850
 -2      8851      8477      8463      8836      8852      8479      8838      8853      8854      8480
 -1      1299    4    0    1
 -2      4848      4963      4968      4853      4849      4964      4969      4854      8838      8853
 -2      8854      8480      8466      8839      8855      8482      8841      8856      8857      8483
 -1      1300    4    0    1
 -2      4849      4964      4969      4854      4850      4965      4970      4855      8841      8856
 -2      8857      8483      8469      8842      8858      8485      8844      8859      8860      8486
 -1      1301    4    0    1
 -2      4850      4965      4970      4855      4851      4966      4971      4856      8844      8859
 -2      8860      8486      8472      8845      8861      8488      8847      8862      8863      8489
 -1      1302    4    0    1
 -2      4851      4966      4971      4856      3042      3065      3066      3043      8847      8862
 -2      8863      8489      8475      8848      8864      8491      3635      3636      3637      3589
 -1      1303    4    0    1
 -2       530       553       554       531      4852      4967      4972      4857      1124      1125
 -2      1126      1078      8476      8849      8865      8492      8851      8866      8867      8493
 -1      1304    4    0    1
 -2      4852      4967      4972      4857      4853      4968      4973      4858      8851      8866
 -2      8867      8493      8479      8852      8868      8495      8854      8869      8870      8496
 -1      1305    4    0    1
 -2      4853      4968      4973      4858      4854      4969      4974      4859      8854      8869
 -2      8870      8496      8482      8855      8871      8498      8857      8872      8873      8499
 -1      1306    4    0    1
 -2      4854      4969      4974      4859      4855      4970      4975      4860      8857      8872
 -2      8873      8499      8485      8858      8874      8501      8860      8875      8876      8502
 -1      1307    4    0    1
 -2      4855      4970      4975      4860      4856      4971      4976      4861      8860      8875
 -2      8876      8502      8488      8861      8877      8504      8863      8878      8879      8505
 -1      1308    4    0    1
 -2      4856      4971      4976      4861      3043      3066      3067      3044      8863      8878
 -2      8879      8505      8491      8864      8880      8507      3637      3638      3639      3591
 -1      1309    4    0    1
 -2       531       554       555       532      4857      4972      4977      4862      1126      1127
 -2      1128      1080      8492      8865      8881      8508      8867      8882      8883      8509
 -1      1310    4    0    1
 -2      4857      4972      4977      4862      4858      4973      4978      4863      8867      8882
 -2      8883      8509      8495      8868      8884      8511      8870      8885      8886      8512
 -1      1311    4    0    1
 -2      4858      4973      4978      4863      4859      4974      4979      4864      8870      8885
 -2      8886      8512      8498      8871      8887      8514      8873      8888      8889      8515
 -1      1312    4    0    1
 -2      4859      4974      4979      4864      4860      4975      4980      4865      8873      8888
 -2      8889      8515      8501      8874      8890      8517      8876      8891      8892      8518
 -1      1313    4    0    1
 -2      4860      4975      4980      4865      4861      4976      4981      4866      8876      8891
 -2      8892      8518      8504      8877      8893      8520      8879      8894      8895      8521
 -1      1314    4    0    1
 -2      4861      4976      4981      4866      3044      3067      3068      3045      8879      8894
 -2      8895      8521      8507      8880      8896      8523      3639      3640      3641      3593
 -1      1315    4    0    1
 -2       532       555       556       533      4862      4977      4982      4867      1128      1129
 -2      1130      1082      8508      8881      8897      8524      8883      8898      8899      8525
 -1      1316    4    0    1
 -2      4862      4977      4982      4867      4863      4978      4983      4868      8883      8898
 -2      8899      8525      8511      8884      8900      8527      8886      8901      8902      8528
 -1      1317    4    0    1
 -2      4863      4978      4983      4868      4864      4979      4984      4869      8886      8901
 -2      8902      8528      8514      8887      8903      8530      8889      8904      8905      8531
 -1      1318    4    0    1
 -2      4864      4979      4984      4869      4865      4980      4985      4870      8889      8904
 -2      8905      8531      8517      8890      8906      8533      8892      8907      8908      8534
 -1      1319    4    0    1
 -2      4865      4980      4985      4870      4866      4981      4986      4871      8892      8907
 -2      8908      8534      8520      8893      8909      8536      8895      8910      8911      8537
 -1      1320    4    0    1
 -2      4866      4981      4986      4871      3045      3068      3069      3046      8895      8910
 -2      8911      8537      8523      8896      8912      8539      3641      3642      3643      3595
 -1      1321    4    0    1
 -2       533       556       557       534      4867      4982      4987      4872      1130      1131
 -2      1132      1084      8524      8897      8913      8540      8899      8914      8915      8541
 -1      1322    4    0    1
 -2      4867      4982      4987      4872      4868      4983      4988      4873      8899      8914
 -2      8915      8541      8527      8900      8916      8543      8902      8917      8918      8544
 -1      1323    4    0    1
 -2      4868      4983      4988      4873      4869      4984      4989      4874      8902      8917
 -2      8918      8544      8530      8903      8919      8546      8905      8920      8921      8547
 -1      1324    4    0    1
 -2      4869      4984      4989      4874      4870      4985      4990      4875      8905      8920
 -2      8921      8547      8533      8906      8922      8549      8908      8923      8924      8550
 -1      1325    4    0    1
 -2      4870      4985      4990      4875      4871      4986      4991      4876      8908      8923
 -2      8924      8550      8536      8909      8925      8552      8911      8926      8927      8553
 -1      1326    4    0    1
 -2      4871      4986      4991      4876      3046      3069      3070      3047      8911      8926
 -2      8927      8553      8539      8912      8928      8555      3643      3644      3645      3597
 -1      1327    4    0    1
 -2       534       557       558       535      4872      4987      4992      4877      1132      1133
 -2      1134      1086      8540      8913      8929      8556      8915      8930      8931      8557
 -1      1328    4    0    1
 -2      4872      4987      4992      4877      4873      4988      4993      4878      8915      8930
 -2      8931      8557      8543      8916      8932      8559      8918      8933      8934      8560
 -1      1329    4    0    1
 -2      4873      4988      4993      4878      4874      4989      4994      4879      8918      8933
 -2      8934      8560      8546      8919      8935      8562      8921      8936      8937      8563
 -1      1330    4    0    1
 -2      4874      4989      4994      4879      4875      4990      4995      4880      8921      8936
 -2      8937      8563      8549      8922      8938      8565      8924      8939      8940      8566
 -1      1331    4    0    1
 -2      4875      4990      4995      4880      4876      4991      4996      4881      8924      8939
 -2      8940      8566      8552      8925      8941      8568      8927      8942      8943      8569
 -1      1332    4    0    1
 -2      4876      4991      4996      4881      3047      3070      3071      3048      8927      8942
 -2      8943      8569      8555      8928      8944      8571      3645      3646      3647      3599
 -1      1333    4    0    1
 -2       535       558       559       536      4877      4992      4997      4882      1134      1135
 -2      1136      1088      8556      8929      8945      8572      8931      8946      8947      8573
 -1      1334    4    0    1
 -2      4877      4992      4997      4882      4878      4993      4998      4883      8931      8946
 -2      8947      8573      8559      8932      8948      8575      8934      8949      8950      8576
 -1      1335    4    0    1
 -2      4878      4993      4998      4883      4879      4994      4999      4884      8934      8949
 -2      8950      8576      8562      8935      8951      8578      8937      8952      8953      8579
 -1      1336    4    0    1
 -2      4879      4994      4999      4884      4880      4995      5000      4885      8937      8952
 -2      8953      8579      8565      8938      8954      8581      8940      8955      8956      8582
 -1      1337    4    0    1
 -2      4880      4995      5000      4885      4881      4996      5001      4886      8940      8955
 -2      8956      8582      8568      8941      8957      8584      8943      8958      8959      8585
 -1      1338    4    0    1
 -2      4881      4996      5001      4886      3048      3071      3072      3049      8943      8958
 -2      8959      8585      8571      8944      8960      8587      3647      3648      3649      3601
 -1      1339    4    0    1
 -2       536       559       560       537      4882      4997      5002      4887      1136      1137
 -2      1138      1090      8572      8945      8961      8588      8947      8962      8963      8589
 -1      1340    4    0    1
 -2      4882      4997      5002      4887      4883      4998      5003      4888      8947      8962
 -2      8963      8589      8575      8948      8964      8591      8950      8965      8966      8592
 -1      1341    4    0    1
 -2      4883      4998      5003      4888      4884      4999      5004      4889      8950      8965
 -2      8966      8592      8578      8951      8967      8594      8953      8968      8969      8595
 -1      1342    4    0    1
 -2      4884      4999      5004      4889      4885      5000      5005      4890      8953      8968
 -2      8969      8595      8581      8954      8970      8597      8956      8971      8972      8598
 -1      1343    4    0    1
 -2      4885      5000      5005      4890      4886      5001      5006      4891      8956      8971
 -2      8972      8598      8584      8957      8973      8600      8959      8974      8975      8601
 -1      1344    4    0    1
 -2      4886      5001      5006      4891      3049      3072      3073      3050      8959      8974
 -2      8975      8601      8587      8960      8976      8603      3649      3650      3651      3603
 -1      1345    4    0    1
 -2       537       560       561       538      4887      5002      5007      4892      1138      1139
 -2      1140      1092      8588      8961      8977      8604      8963      8978      8979      8605
 -1      1346    4    0    1
 -2      4887      5002      5007      4892      4888      5003      5008      4893      8963      8978
 -2      8979      8605      8591      8964      8980      8607      8966      8981      8982      8608
 -1      1347    4    0    1
 -2      4888      5003      5008      4893      4889      5004      5009      4894      8966      8981
 -2      8982      8608      8594      8967      8983      8610      8969      8984      8985      8611
 -1      1348    4    0    1
 -2      4889      5004      5009      4894      4890      5005      5010      4895      8969      8984
 -2      8985      8611      8597      8970      8986      8613      8972      8987      8988      8614
 -1      1349    4    0    1
 -2      4890      5005      5010      4895      4891      5006      5011      4896      8972      8987
 -2      8988      8614      8600      8973      8989      8616      8975      8990      8991      8617
 -1      1350    4    0    1
 -2      4891      5006      5011      4896      3050      3073      3074      3051      8975      8990
 -2      8991      8617      8603      8976      8992      8619      3651      3652      3653      3605
 -1      1351    4    0    1
 -2       538       561       562       539      4892      5007      5012      4897      1140      1141
 -2      1142      1094      8604      8977      8993      8620      8979      8994      8995      8621
 -1      1352    4    0    1
 -2      4892      5007      5012      4897      4893      5008      5013      4898      8979      8994
 -2      8995      8621      8607      8980      8996      8623      8982      8997      8998      8624
 -1      1353    4    0    1
 -2      4893      5008      5013      4898      4894      5009      5014      4899      8982      8997
 -2      8998      8624      8610      8983      8999      8626      8985      9000      9001      8627
 -1      1354    4    0    1
 -2      4894      5009      5014      4899      4895      5010      5015      4900      8985      9000
 -2      9001      8627      8613      8986      9002      8629      8988      9003      9004      8630
 -1      1355    4    0    1
 -2      4895      5010      5015      4900      4896      5011      5016      4901      8988      9003
 -2      9004      8630      8616      8989      9005      8632      8991      9006      9007      8633
 -1      1356    4    0    1
 -2      4896      5011      5016      4901      3051      3074      3075      3052      8991      9006
 -2      9007      8633      8619      8992      9008      8635      3653      3654      3655      3607
 -1      1357    4    0    1
 -2       539       562       563       540      4897      5012      5017      4902      1142      1143
 -2      1144      1096      8620      8993      9009      8636      8995      9010      9011      8637
 -1      1358    4    0    1
 -2      4897      5012      5017      4902      4898      5013      5018      4903      8995      9010
 -2      9011      8637      8623      8996      9012      8639      8998      9013      9014      8640
 -1      1359    4    0    1
 -2      4898      5013      5018      4903      4899      5014      5019      4904      8998      9013
 -2      9014      8640      8626      8999      9015      8642      9001      9016      9017      8643
 -1      1360    4    0    1
 -2      4899      5014      5019      4904      4900      5015      5020      4905      9001      9016
 -2      9017      8643      8629      9002      9018      8645      9004      9019      9020      8646
 -1      1361    4    0    1
 -2      4900      5015      5020      4905      4901      5016      5021      4906      9004      9019
 -2      9020      8646      8632      9005      9021      8648      9007      9022      9023      8649
 -1      1362    4    0    1
 -2      4901      5016      5021      4906      3052      3075      3076      3053      9007      9022
 -2      9023      8649      8635      9008      9024      8651      3655      3656      3657      3609
 -1      1363    4    0    1
 -2       540       563       564       541      4902      5017      5022      4907      1144      1145
 -2      1146      1098      8636      9009      9025      8652      9011      9026      9027      8653
 -1      1364    4    0    1
 -2      4902      5017      5022      4907      4903      5018      5023      4908      9011      9026
 -2      9027      8653      8639      9012      9028      8655      9014      9029      9030      8656
 -1      1365    4    0    1
 -2      4903      5018      5023      4908      4904      5019      5024      4909      9014      9029
 -2      9030      8656      8642      9015      9031      8658      9017      9032      9033      8659
 -1      1366    4    0    1
 -2      4904      5019      5024      4909      4905      5020      5025      4910      9017      9032
 -2      9033      8659      8645      9018      9034      8661      9020      9035      9036      8662
 -1      1367    4    0    1
 -2      4905      5020      5025      4910      4906      5021      5026      4911      9020      9035
 -2      9036      8662      8648      9021      9037      8664      9023      9038      9039      8665
 -1      1368    4    0    1
 -2      4906      5021      5026      4911      3053      3076      3077      3054      9023      9038
 -2      9039      8665      8651      9024      9040      8667      3657      3658      3659      3611
 -1      1369    4    0    1
 -2       541       564       100       101      4907      5022      2289      2294      1146      1147
 -2       118      1100      8652      9025      2428      2439      9027      9041      2440      8668
 -1      1370    4    0    1
 -2      4907      5022      2289      2294      4908      5023      2290      2295      9027      9041
 -2      2440      8668      8655      9028      2430      2441      9030      9042      2442      8669
 -1      1371    4    0    1
 -2      4908      5023      2290      2295      4909      5024      2291      2296      9030      9042
 -2      2442      8669      8658      9031      2432      2443      9033      9043      2444      8670
 -1      1372    4    0    1
 -2      4909      5024      2291      2296      4910      5025      2292      2297      9033      9043
 -2      2444      8670      8661      9034      2434      2445      9036      9044      2446      8671
 -1      1373    4    0    1
 -2      4910      5025      2292      2297      4911      5026      2293      2298      9036      9044
 -2      2446      8671      8664      9037      2436      2447      9039      9045      2448      8672
 -1      1374    4    0    1
 -2      4911      5026      2293      2298      3054      3077       264       265      9039      9045
 -2      2448      8672      8667      9040      2438      2449      3659      3660       282      3613
 -1      1375    4    0    1
 -2        16        17       565       542      1629      1634      5027      4912        34      1148
 -2      1149      1101      1756      1767      9046      8673      1768      9047      9048      8674
 -1      1376    4    0    1
 -2      1629      1634      5027      4912      1630      1635      5028      4913      1768      9047
 -2      9048      8674      1758      1769      9049      8676      1770      9050      9051      8677
 -1      1377    4    0    1
 -2      1630      1635      5028      4913      1631      1636      5029      4914      1770      9050
 -2      9051      8677      1760      1771      9052      8679      1772      9053      9054      8680
 -1      1378    4    0    1
 -2      1631      1636      5029      4914      1632      1637      5030      4915      1772      9053
 -2      9054      8680      1762      1773      9055      8682      1774      9056      9057      8683
 -1      1379    4    0    1
 -2      1632      1637      5030      4915      1633      1638      5031      4916      1774      9056
 -2      9057      8683      1764      1775      9058      8685      1776      9059      9060      8686
 -1      1380    4    0    1
 -2      1633      1638      5031      4916       180       181      3078      3055      1776      9059
 -2      9060      8686      1766      1777      9061      8688       198      3661      3662      3614
 -1      1381    4    0    1
 -2       542       565       566       543      4912      5027      5032      4917      1149      1150
 -2      1151      1103      8673      9046      9062      8689      9048      9063      9064      8690
 -1      1382    4    0    1
 -2      4912      5027      5032      4917      4913      5028      5033      4918      9048      9063
 -2      9064      8690      8676      9049      9065      8692      9051      9066      9067      8693
 -1      1383    4    0    1
 -2      4913      5028      5033      4918      4914      5029      5034      4919      9051      9066
 -2      9067      8693      8679      9052      9068      8695      9054      9069      9070      8696
 -1      1384    4    0    1
 -2      4914      5029      5034      4919      4915      5030      5035      4920      9054      9069
 -2      9070      8696      8682      9055      9071      8698      9057      9072      9073      8699
 -1      1385    4    0    1
 -2      4915      5030      5035      4920      4916      5031      5036      4921      9057      9072
 -2      9073      8699      8685      9058      9074      8701      9060      9075      9076      8702
 -1      1386    4    0    1
 -2      4916      5031      5036      4921      3055      3078      3079      3056      9060      9075
 -2      9076      8702      8688      9061      9077      8704      3662      3663      3664      3616
 -1      1387    4    0    1
 -2       543       566       567       544      4917      5032      5037      4922      1151      1152
 -2      1153      1105      8689      9062      9078      8705      9064      9079      9080      8706
 -1      1388    4    0    1
 -2      4917      5032      5037      4922      4918      5033      5038      4923      9064      9079
 -2      9080      8706      8692      9065      9081      8708      9067      9082      9083      8709
 -1      1389    4    0    1
 -2      4918      5033      5038      4923      4919      5034      5039      4924      9067      9082
 -2      9083      8709      8695      9068      9084      8711      9070      9085      9086      8712
 -1      1390    4    0    1
 -2      4919      5034      5039      4924      4920      5035      5040      4925      9070      9085
 -2      9086      8712      8698      9071      9087      8714      9073      9088      9089      8715
 -1      1391    4    0    1
 -2      4920      5035      5040      4925      4921      5036      5041      4926      9073      9088
 -2      9089      8715      8701      9074      9090      8717      9076      9091      9092      8718
 -1      1392    4    0    1
 -2      4921      5036      5041      4926      3056      3079      3080      3057      9076      9091
 -2      9092      8718      8704      9077      9093      8720      3664      3665      3666      3618
 -1      1393    4    0    1
 -2       544       567       568       545      4922      5037      5042      4927      1153      1154
 -2      1155      1107      8705      9078      9094      8721      9080      9095      9096      8722
 -1      1394    4    0    1
 -2      4922      5037      5042      4927      4923      5038      5043      4928      9080      9095
 -2      9096      8722      8708      9081      9097      8724      9083      9098      9099      8725
 -1      1395    4    0    1
 -2      4923      5038      5043      4928      4924      5039      5044      4929      9083      9098
 -2      9099      8725      8711      9084      9100      8727      9086      9101      9102      8728
 -1      1396    4    0    1
 -2      4924      5039      5044      4929      4925      5040      5045      4930      9086      9101
 -2      9102      8728      8714      9087      9103      8730      9089      9104      9105      8731
 -1      1397    4    0    1
 -2      4925      5040      5045      4930      4926      5041      5046      4931      9089      9104
 -2      9105      8731      8717      9090      9106      8733      9092      9107      9108      8734
 -1      1398    4    0    1
 -2      4926      5041      5046      4931      3057      3080      3081      3058      9092      9107
 -2      9108      8734      8720      9093      9109      8736      3666      3667      3668      3620
 -1      1399    4    0    1
 -2       545       568       569       546      4927      5042      5047      4932      1155      1156
 -2      1157      1109      8721      9094      9110      8737      9096      9111      9112      8738
 -1      1400    4    0    1
 -2      4927      5042      5047      4932      4928      5043      5048      4933      9096      9111
 -2      9112      8738      8724      9097      9113      8740      9099      9114      9115      8741
 -1      1401    4    0    1
 -2      4928      5043      5048      4933      4929      5044      5049      4934      9099      9114
 -2      9115      8741      8727      9100      9116      8743      9102      9117      9118      8744
 -1      1402    4    0    1
 -2      4929      5044      5049      4934      4930      5045      5050      4935      9102      9117
 -2      9118      8744      8730      9103      9119      8746      9105      9120      9121      8747
 -1      1403    4    0    1
 -2      4930      5045      5050      4935      4931      5046      5051      4936      9105      9120
 -2      9121      8747      8733      9106      9122      8749      9108      9123      9124      8750
 -1      1404    4    0    1
 -2      4931      5046      5051      4936      3058      3081      3082      3059      9108      9123
 -2      9124      8750      8736      9109      9125      8752      3668      3669      3670      3622
 -1      1405    4    0    1
 -2       546       569       570       547      4932      5047      5052      4937      1157      1158
 -2      1159      1111      8737      9110      9126      8753      9112      9127      9128      8754
 -1      1406    4    0    1
 -2      4932      5047      5052      4937      4933      5048      5053      4938      9112      9127
 -2      9128      8754      8740      9113      9129      8756      9115      9130      9131      8757
 -1      1407    4    0    1
 -2      4933      5048      5053      4938      4934      5049      5054      4939      9115      9130
 -2      9131      8757      8743      9116      9132      8759      9118      9133      9134      8760
 -1      1408    4    0    1
 -2      4934      5049      5054      4939      4935      5050      5055      4940      9118      9133
 -2      9134      8760      8746      9119      9135      8762      9121      9136      9137      8763
 -1      1409    4    0    1
 -2      4935      5050      5055      4940      4936      5051      5056      4941      9121      9136
 -2      9137      8763      8749      9122      9138      8765      9124      9139      9140      8766
 -1      1410    4    0    1
 -2      4936      5051      5056      4941      3059      3082      3083      3060      9124      9139
 -2      9140      8766      8752      9125      9141      8768      3670      3671      3672      3624
 -1      1411    4    0    1
 -2       547       570       571       548      4937      5052      5057      4942      1159      1160
 -2      1161      1113      8753      9126      9142      8769      9128      9143      9144      8770
 -1      1412    4    0    1
 -2      4937      5052      5057      4942      4938      5053      5058      4943      9128      9143
 -2      9144      8770      8756      9129      9145      8772      9131      9146      9147      8773
 -1      1413    4    0    1
 -2      4938      5053      5058      4943      4939      5054      5059      4944      9131      9146
 -2      9147      8773      8759      9132      9148      8775      9134      9149      9150      8776
 -1      1414    4    0    1
 -2      4939      5054      5059      4944      4940      5055      5060      4945      9134      9149
 -2      9150      8776      8762      9135      9151      8778      9137      9152      9153      8779
 -1      1415    4    0    1
 -2      4940      5055      5060      4945      4941      5056      5061      4946      9137      9152
 -2      9153      8779      8765      9138      9154      8781      9140      9155      9156      8782
 -1      1416    4    0    1
 -2      4941      5056      5061      4946      3060      3083      3084      3061      9140      9155
 -2      9156      8782      8768      9141      9157      8784      3672      3673      3674      3626
 -1      1417    4    0    1
 -2       548       571       572       549      4942      5057      5062      4947      1161      1162
 -2      1163      1115      8769      9142      9158      8785      9144      9159      9160      8786
 -1      1418    4    0    1
 -2      4942      5057      5062      4947      4943      5058      5063      4948      9144      9159
 -2      9160      8786      8772      9145      9161      8788      9147      9162      9163      8789
 -1      1419    4    0    1
 -2      4943      5058      5063      4948      4944      5059      5064      4949      9147      9162
 -2      9163      8789      8775      9148      9164      8791      9150      9165      9166      8792
 -1      1420    4    0    1
 -2      4944      5059      5064      4949      4945      5060      5065      4950      9150      9165
 -2      9166      8792      8778      9151      9167      8794      9153      9168      9169      8795
 -1      1421    4    0    1
 -2      4945      5060      5065      4950      4946      5061      5066      4951      9153      9168
 -2      9169      8795      8781      9154      9170      8797      9156      9171      9172      8798
 -1      1422    4    0    1
 -2      4946      5061      5066      4951      3061      3084      3085      3062      9156      9171
 -2      9172      8798      8784      9157      9173      8800      3674      3675      3676      3628
 -1      1423    4    0    1
 -2       549       572       573       550      4947      5062      5067      4952      1163      1164
 -2      1165      1117      8785      9158      9174      8801      9160      9175      9176      8802
 -1      1424    4    0    1
 -2      4947      5062      5067      4952      4948      5063      5068      4953      9160      9175
 -2      9176      8802      8788      9161      9177      8804      9163      9178      9179      8805
 -1      1425    4    0    1
 -2      4948      5063      5068      4953      4949      5064      5069      4954      9163      9178
 -2      9179      8805      8791      9164      9180      8807      9166      9181      9182      8808
 -1      1426    4    0    1
 -2      4949      5064      5069      4954      4950      5065      5070      4955      9166      9181
 -2      9182      8808      8794      9167      9183      8810      9169      9184      9185      8811
 -1      1427    4    0    1
 -2      4950      5065      5070      4955      4951      5066      5071      4956      9169      9184
 -2      9185      8811      8797      9170      9186      8813      9172      9187      9188      8814
 -1      1428    4    0    1
 -2      4951      5066      5071      4956      3062      3085      3086      3063      9172      9187
 -2      9188      8814      8800      9173      9189      8816      3676      3677      3678      3630
 -1      1429    4    0    1
 -2       550       573       574       551      4952      5067      5072      4957      1165      1166
 -2      1167      1119      8801      9174      9190      8817      9176      9191      9192      8818
 -1      1430    4    0    1
 -2      4952      5067      5072      4957      4953      5068      5073      4958      9176      9191
 -2      9192      8818      8804      9177      9193      8820      9179      9194      9195      8821
 -1      1431    4    0    1
 -2      4953      5068      5073      4958      4954      5069      5074      4959      9179      9194
 -2      9195      8821      8807      9180      9196      8823      9182      9197      9198      8824
 -1      1432    4    0    1
 -2      4954      5069      5074      4959      4955      5070      5075      4960      9182      9197
 -2      9198      8824      8810      9183      9199      8826      9185      9200      9201      8827
 -1      1433    4    0    1
 -2      4955      5070      5075      4960      4956      5071      5076      4961      9185      9200
 -2      9201      8827      8813      9186      9202      8829      9188      9203      9204      8830
 -1      1434    4    0    1
 -2      4956      5071      5076      4961      3063      3086      3087      3064      9188      9203
 -2      9204      8830      8816      9189      9205      8832      3678      3679      3680      3632
 -1      1435    4    0    1
 -2       551       574       575       552      4957      5072      5077      4962      1167      1168
 -2      1169      1121      8817      9190      9206      8833      9192      9207      9208      8834
 -1      1436    4    0    1
 -2      4957      5072      5077      4962      4958      5073      5078      4963      9192      9207
 -2      9208      8834      8820      9193      9209      8836      9195      9210      9211      8837
 -1      1437    4    0    1
 -2      4958      5073      5078      4963      4959      5074      5079      4964      9195      9210
 -2      9211      8837      8823      9196      9212      8839      9198      9213      9214      8840
 -1      1438    4    0    1
 -2      4959      5074      5079      4964      4960      5075      5080      4965      9198      9213
 -2      9214      8840      8826      9199      9215      8842      9201      9216      9217      8843
 -1      1439    4    0    1
 -2      4960      5075      5080      4965      4961      5076      5081      4966      9201      9216
 -2      9217      8843      8829      9202      9218      8845      9204      9219      9220      8846
 -1      1440    4    0    1
 -2      4961      5076      5081      4966      3064      3087      3088      3065      9204      9219
 -2      9220      8846      8832      9205      9221      8848      3680      3681      3682      3634
 -1      1441    4    0    1
 -2       552       575       576       553      4962      5077      5082      4967      1169      1170
 -2      1171      1123      8833      9206      9222      8849      9208      9223      9224      8850
 -1      1442    4    0    1
 -2      4962      5077      5082      4967      4963      5078      5083      4968      9208      9223
 -2      9224      8850      8836      9209      9225      8852      9211      9226      9227      8853
 -1      1443    4    0    1
 -2      4963      5078      5083      4968      4964      5079      5084      4969      9211      9226
 -2      9227      8853      8839      9212      9228      8855      9214      9229      9230      8856
 -1      1444    4    0    1
 -2      4964      5079      5084      4969      4965      5080      5085      4970      9214      9229
 -2      9230      8856      8842      9215      9231      8858      9217      9232      9233      8859
 -1      1445    4    0    1
 -2      4965      5080      5085      4970      4966      5081      5086      4971      9217      9232
 -2      9233      8859      8845      9218      9234      8861      9220      9235      9236      8862
 -1      1446    4    0    1
 -2      4966      5081      5086      4971      3065      3088      3089      3066      9220      9235
 -2      9236      8862      8848      9221      9237      8864      3682      3683      3684      3636
 -1      1447    4    0    1
 -2       553       576       577       554      4967      5082      5087      4972      1171      1172
 -2      1173      1125      8849      9222      9238      8865      9224      9239      9240      8866
 -1      1448    4    0    1
 -2      4967      5082      5087      4972      4968      5083      5088      4973      9224      9239
 -2      9240      8866      8852      9225      9241      8868      9227      9242      9243      8869
 -1      1449    4    0    1
 -2      4968      5083      5088      4973      4969      5084      5089      4974      9227      9242
 -2      9243      8869      8855      9228      9244      8871      9230      9245      9246      8872
 -1      1450    4    0    1
 -2      4969      5084      5089      4974      4970      5085      5090      4975      9230      9245
 -2      9246      8872      8858      9231      9247      8874      9233      9248      9249      8875
 -1      1451    4    0    1
 -2      4970      5085      5090      4975      4971      5086      5091      4976      9233      9248
 -2      9249      8875      8861      9234      9250      8877      9236      9251      9252      8878
 -1      1452    4    0    1
 -2      4971      5086      5091      4976      3066      3089      3090      3067      9236      9251
 -2      9252      8878      8864      9237      9253      8880      3684      3685      3686      3638
 -1      1453    4    0    1
 -2       554       577       578       555      4972      5087      5092      4977      1173      1174
 -2      1175      1127      8865      9238      9254      8881      9240      9255      9256      8882
 -1      1454    4    0    1
 -2      4972      5087      5092      4977      4973      5088      5093      4978      9240      9255
 -2      9256      8882      8868      9241      9257      8884      9243      9258      9259      8885
 -1      1455    4    0    1
 -2      4973      5088      5093      4978      4974      5089      5094      4979      9243      9258
 -2      9259      8885      8871      9244      9260      8887      9246      9261      9262      8888
 -1      1456    4    0    1
 -2      4974      5089      5094      4979      4975      5090      5095      4980      9246      9261
 -2      9262      8888      8874      9247      9263      8890      9249      9264      9265      8891
 -1      1457    4    0    1
 -2      4975      5090      5095      4980      4976      5091      5096      4981      9249      9264
 -2      9265      8891      8877      9250      9266      8893      9252      9267      9268      8894
 -1      1458    4    0    1
 -2      4976      5091      5096      4981      3067      3090      3091      3068      9252      9267
 -2      9268      8894      8880      9253      9269      8896      3686      3687      3688      3640
 -1      1459    4    0    1
 -2       555       578       579       556      4977      5092      5097      4982      1175      1176
 -2      1177      1129      8881      9254      9270      8897      9256      9271      9272      8898
 -1      1460    4    0    1
 -2      4977      5092      5097      4982      4978      5093      5098      4983      9256      9271
 -2      9272      8898      8884      9257      9273      8900      9259      9274      9275      8901
 -1      1461    4    0    1
 -2      4978      5093      5098      4983      4979      5094      5099      4984      9259      9274
 -2      9275      8901      8887      9260      9276      8903      9262      9277      9278      8904
 -1      1462    4    0    1
 -2      4979      5094      5099      4984      4980      5095      5100      4985      9262      9277
 -2      9278      8904      8890      9263      9279      8906      9265      9280      9281      8907
 -1      1463    4    0    1
 -2      4980      5095      5100      4985      4981      5096      5101      4986      9265      9280
 -2      9281      8907      8893      9266      9282      8909      9268      9283      9284      8910
 -1      1464    4    0    1
 -2      4981      5096      5101      4986      3068      3091      3092      3069      9268      9283
 -2      9284      8910      8896      9269      9285      8912      3688      3689      3690      3642
 -1      1465    4    0    1
 -2       556       579       580       557      4982      5097      5102      4987      1177      1178
 -2      1179      1131      8897      9270      9286      8913      9272      9287      9288      8914
 -1      1466    4    0    1
 -2      4982      5097      5102      4987      4983      5098      5103      4988      9272      9287
 -2      9288      8914      8900      9273      9289      8916      9275      9290      9291      8917
 -1      1467    4    0    1
 -2      4983      5098      5103      4988      4984      5099      5104      4989      9275      9290
 -2      9291      8917      8903      9276      9292      8919      9278      9293      9294      8920
 -1      1468    4    0    1
 -2      4984      5099      5104      4989      4985      5100      5105      4990      9278      9293
 -2      9294      8920      8906      9279      9295      8922      9281      9296      9297      8923
 -1      1469    4    0    1
 -2      4985      5100      5105      4990      4986      5101      5106      4991      9281      9296
 -2      9297      8923      8909      9282      9298      8925      9284      9299      9300      8926
 -1      1470    4    0    1
 -2      4986      5101      5106      4991      3069      3092      3093      3070      9284      9299
 -2      9300      8926      8912      9285      9301      8928      3690      3691      3692      3644
 -1      1471    4    0    1
 -2       557       580       581       558      4987      5102      5107      4992      1179      1180
 -2      1181      1133      8913      9286      9302      8929      9288      9303      9304      8930
 -1      1472    4    0    1
 -2      4987      5102      5107      4992      4988      5103      5108      4993      9288      9303
 -2      9304      8930      8916      9289      9305      8932      9291      9306      9307      8933
 -1      1473    4    0    1
 -2      4988      5103      5108      4993      4989      5104      5109      4994      9291      9306
 -2      9307      8933      8919      9292      9308      8935      9294      9309      9310      8936
 -1      1474    4    0    1
 -2      4989      5104      5109      4994      4990      5105      5110      4995      9294      9309
 -2      9310      8936      8922      9295      9311      8938      9297      9312      9313      8939
 -1      1475    4    0    1
 -2      4990      5105      5110      4995      4991      5106      5111      4996      9297      9312
 -2      9313      8939      8925      9298      9314      8941      9300      9315      9316      8942
 -1      1476    4    0    1
 -2      4991      5106      5111      4996      3070      3093      3094      3071      9300      9315
 -2      9316      8942      8928      9301      9317      8944      3692      3693      3694      3646
 -1      1477    4    0    1
 -2       558       581       582       559      4992      5107      5112      4997      1181      1182
 -2      1183      1135      8929      9302      9318      8945      9304      9319      9320      8946
 -1      1478    4    0    1
 -2      4992      5107      5112      4997      4993      5108      5113      4998      9304      9319
 -2      9320      8946      8932      9305      9321      8948      9307      9322      9323      8949
 -1      1479    4    0    1
 -2      4993      5108      5113      4998      4994      5109      5114      4999      9307      9322
 -2      9323      8949      8935      9308      9324      8951      9310      9325      9326      8952
 -1      1480    4    0    1
 -2      4994      5109      5114      4999      4995      5110      5115      5000      9310      9325
 -2      9326      8952      8938      9311      9327      8954      9313      9328      9329      8955
 -1      1481    4    0    1
 -2      4995      5110      5115      5000      4996      5111      5116      5001      9313      9328
 -2      9329      8955      8941      9314      9330      8957      9316      9331      9332      8958
 -1      1482    4    0    1
 -2      4996      5111      5116      5001      3071      3094      3095      3072      9316      9331
 -2      9332      8958      8944      9317      9333      8960      3694      3695      3696      3648
 -1      1483    4    0    1
 -2       559       582       583       560      4997      5112      5117      5002      1183      1184
 -2      1185      1137      8945      9318      9334      8961      9320      9335      9336      8962
 -1      1484    4    0    1
 -2      4997      5112      5117      5002      4998      5113      5118      5003      9320      9335
 -2      9336      8962      8948      9321      9337      8964      9323      9338      9339      8965
 -1      1485    4    0    1
 -2      4998      5113      5118      5003      4999      5114      5119      5004      9323      9338
 -2      9339      8965      8951      9324      9340      8967      9326      9341      9342      8968
 -1      1486    4    0    1
 -2      4999      5114      5119      5004      5000      5115      5120      5005      9326      9341
 -2      9342      8968      8954      9327      9343      8970      9329      9344      9345      8971
 -1      1487    4    0    1
 -2      5000      5115      5120      5005      5001      5116      5121      5006      9329      9344
 -2      9345      8971      8957      9330      9346      8973      9332      9347      9348      8974
 -1      1488    4    0    1
 -2      5001      5116      5121      5006      3072      3095      3096      3073      9332      9347
 -2      9348      8974      8960      9333      9349      8976      3696      3697      3698      3650
 -1      1489    4    0    1
 -2       560       583       584       561      5002      5117      5122      5007      1185      1186
 -2      1187      1139      8961      9334      9350      8977      9336      9351      9352      8978
 -1      1490    4    0    1
 -2      5002      5117      5122      5007      5003      5118      5123      5008      9336      9351
 -2      9352      8978      8964      9337      9353      8980      9339      9354      9355      8981
 -1      1491    4    0    1
 -2      5003      5118      5123      5008      5004      5119      5124      5009      9339      9354
 -2      9355      8981      8967      9340      9356      8983      9342      9357      9358      8984
 -1      1492    4    0    1
 -2      5004      5119      5124      5009      5005      5120      5125      5010      9342      9357
 -2      9358      8984      8970      9343      9359      8986      9345      9360      9361      8987
 -1      1493    4    0    1
 -2      5005      5120      5125      5010      5006      5121      5126      5011      9345      9360
 -2      9361      8987      8973      9346      9362      8989      9348      9363      9364      8990
 -1      1494    4    0    1
 -2      5006      5121      5126      5011      3073      3096      3097      3074      9348      9363
 -2      9364      8990      8976      9349      9365      8992      3698      3699      3700      3652
 -1      1495    4    0    1
 -2       561       584       585       562      5007      5122      5127      5012      1187      1188
 -2      1189      1141      8977      9350      9366      8993      9352      9367      9368      8994
 -1      1496    4    0    1
 -2      5007      5122      5127      5012      5008      5123      5128      5013      9352      9367
 -2      9368      8994      8980      9353      9369      8996      9355      9370      9371      8997
 -1      1497    4    0    1
 -2      5008      5123      5128      5013      5009      5124      5129      5014      9355      9370
 -2      9371      8997      8983      9356      9372      8999      9358      9373      9374      9000
 -1      1498    4    0    1
 -2      5009      5124      5129      5014      5010      5125      5130      5015      9358      9373
 -2      9374      9000      8986      9359      9375      9002      9361      9376      9377      9003
 -1      1499    4    0    1
 -2      5010      5125      5130      5015      5011      5126      5131      5016      9361      9376
 -2      9377      9003      8989      9362      9378      9005      9364      9379      9380      9006
 -1      1500    4    0    1
 -2      5011      5126      5131      5016      3074      3097      3098      3075      9364      9379
 -2      9380      9006      8992      9365      9381      9008      3700      3701      3702      3654
 -1      1501    4    0    1
 -2       562       585       586       563      5012      5127      5132      5017      1189      1190
 -2      1191      1143      8993      9366      9382      9009      9368      9383      9384      9010
 -1      1502    4    0    1
 -2      5012      5127      5132      5017      5013      5128      5133      5018      9368      9383
 -2      9384      9010      8996      9369      9385      9012      9371      9386      9387      9013
 -1      1503    4    0    1
 -2      5013      5128      5133      5018      5014      5129      5134      5019      9371      9386
 -2      9387      9013      8999      9372      9388      9015      9374      9389      9390      9016
 -1      1504    4    0    1
 -2      5014      5129      5134      5019      5015      5130      5135      5020      9374      9389
 -2      9390      9016      9002      9375      9391      9018      9377      9392      9393      9019
 -1      1505    4    0    1
 -2      5015      5130      5135      5020      5016      5131      5136      5021      9377      9392
 -2      9393      9019      9005      9378      9394      9021      9380      9395      9396      9022
 -1      1506    4    0    1
 -2      5016      5131      5136      5021      3075      3098      3099      3076      9380      9395
 -2      9396      9022      9008      9381      9397      9024      3702      3703      3704      3656
 -1      1507    4    0    1
 -2       563       586       587       564      5017      5132      5137      5022      1191      1192
 -2      1193      1145      9009      9382      9398      9025      9384      9399      9400      9026
 -1      1508    4    0    1
 -2      5017      5132      5137      5022      5018      5133      5138      5023      9384      9399
 -2      9400      9026      9012      9385      9401      9028      9387      9402      9403      9029
 -1      1509    4    0    1
 -2      5018      5133      5138      5023      5019      5134      5139      5024      9387      9402
 -2      9403      9029      9015      9388      9404      9031      9390      9405      9406      9032
 -1      1510    4    0    1
 -2      5019      5134      5139      5024      5020      5135      5140      5025      9390      9405
 -2      9406      9032      9018      9391      9407      9034      9393      9408      9409      9035
 -1      1511    4    0    1
 -2      5020      5135      5140      5025      5021      5136      5141      5026      9393      9408
 -2      9409      9035      9021      9394      9410      9037      9396      9411      9412      9038
 -1      1512    4    0    1
 -2      5021      5136      5141      5026      3076      3099      3100      3077      9396      9411
 -2      9412      9038      9024      9397      9413      9040      3704      3705      3706      3658
 -1      1513    4    0    1
 -2       564       587        99       100      5022      5137      2284      2289      1193      1194
 -2       117      1147      9025      9398      2417      2428      9400      9414      2429      9041
 -1      1514    4    0    1
 -2      5022      5137      2284      2289      5023      5138      2285      2290      9400      9414
 -2      2429      9041      9028      9401      2419      2430      9403      9415      2431      9042
 -1      1515    4    0    1
 -2      5023      5138      2285      2290      5024      5139      2286      2291      9403      9415
 -2      2431      9042      9031      9404      2421      2432      9406      9416      2433      9043
 -1      1516    4    0    1
 -2      5024      5139      2286      2291      5025      5140      2287      2292      9406      9416
 -2      2433      9043      9034      9407      2423      2434      9409      9417      2435      9044
 -1      1517    4    0    1
 -2      5025      5140      2287      2292      5026      5141      2288      2293      9409      9417
 -2      2435      9044      9037      9410      2425      2436      9412      9418      2437      9045
 -1      1518    4    0    1
 -2      5026      5141      2288      2293      3077      3100       263       264      9412      9418
 -2      2437      9045      9040      9413      2427      2438      3706      3707       281      3660
 -1      1519    4    0    1
 -2        17        18       588       565      1634      1639      5142      5027        35      1195
 -2      1196      1148      1767      1778      9419      9046      1779      9420      9421      9047
 -1      1520    4    0    1
 -2      1634      1639      5142      5027      1635      1640      5143      5028      1779      9420
 -2      9421      9047      1769      1780      9422      9049      1781      9423      9424      9050
 -1      1521    4    0    1
 -2      1635      1640      5143      5028      1636      1641      5144      5029      1781      9423
 -2      9424      9050      1771      1782      9425      9052      1783      9426      9427      9053
 -1      1522    4    0    1
 -2      1636      1641      5144      5029      1637      1642      5145      5030      1783      9426
 -2      9427      9053      1773      1784      9428      9055      1785      9429      9430      9056
 -1      1523    4    0    1
 -2      1637      1642      5145      5030      1638      1643      5146      5031      1785      9429
 -2      9430      9056      1775      1786      9431      9058      1787      9432      9433      9059
 -1      1524    4    0    1
 -2      1638      1643      5146      5031       181       182      3101      3078      1787      9432
 -2      9433      9059      1777      1788      9434      9061       199      3708      3709      3661
 -1      1525    4    0    1
 -2       565       588       589       566      5027      5142      5147      5032      1196      1197
 -2      1198      1150      9046      9419      9435      9062      9421      9436      9437      9063
 -1      1526    4    0    1
 -2      5027      5142      5147      5032      5028      5143      5148      5033      9421      9436
 -2      9437      9063      9049      9422      9438      9065      9424      9439      9440      9066
 -1      1527    4    0    1
 -2      5028      5143      5148      5033      5029      5144      5149      5034      9424      9439
 -2      9440      9066      9052      9425      9441      9068      9427      9442      9443      9069
 -1      1528    4    0    1
 -2      5029      5144      5149      5034      5030      5145      5150      5035      9427      9442
 -2      9443      9069      9055      9428      9444      9071      9430      9445      9446      9072
 -1      1529    4    0    1
 -2      5030      5145      5150      5035      5031      5146      5151      5036      9430      9445
 -2      9446      9072      9058      9431      9447      9074      9433      9448      9449      9075
 -1      1530    4    0    1
 -2      5031      5146      5151      5036      3078      3101      3102      3079      9433      9448
 -2      9449      9075      9061      9434      9450      9077      3709      3710      3711      3663
 -1      1531    4    0    1
 -2       566       589       590       567      5032      5147      5152      5037      1198      1199
 -2      1200      1152      9062      9435      9451      9078      9437      9452      9453      9079
 -1      1532    4    0    1
 -2      5032      5147      5152      5037      5033      5148      5153      5038      9437      9452
 -2      9453      9079      9065      9438      9454      9081      9440      9455      9456      9082
 -1      1533    4    0    1
 -2      5033      5148      5153      5038      5034      5149      5154      5039      9440      9455
 -2      9456      9082      9068      9441      9457      9084      9443      9458      9459      9085
 -1      1534    4    0    1
 -2      5034      5149      5154      5039      5035      5150      5155      5040      9443      9458
 -2      9459      9085      9071      9444      9460      9087      9446      9461      9462      9088
 -1      1535    4    0    1
 -2      5035      5150      5155      5040      5036      5151      5156      5041      9446      9461
 -2      9462      9088      9074      9447      9463      9090      9449      9464      9465      9091
 -1      1536    4    0    1
 -2      5036      5151      5156      5041      3079      3102      3103      3080      9449      9464
 -2      9465      9091      9077      9450      9466      9093      3711      3712      3713      3665
 -1      1537    4    0    1
 -2       567       590       591       568      5037      5152      5157      5042      1200      1201
 -2      1202      1154      9078      9451      9467      9094      9453      9468      9469      9095
 -1      1538    4    0    1
 -2      5037      5152      5157      5042      5038      5153      5158      5043      9453      9468
 -2      9469      9095      9081      9454      9470      9097      9456      9471      9472      9098
 -1      1539    4    0    1
 -2      5038      5153      5158      5043      5039      5154      5159      5044      9456      9471
 -2      9472      9098      9084      9457      9473      9100      9459      9474      9475      9101
 -1      1540    4    0    1
 -2      5039      5154      5159      5044      5040      5155      5160      5045      9459      9474
 -2      9475      9101      9087      9460      9476      9103      9462      9477      9478      9104
 -1      1541    4    0    1
 -2      5040      5155      5160      5045      5041      5156      5161      5046      9462      9477
 -2      9478      9104      9090      9463      9479      9106      9465      9480      9481      9107
 -1      1542    4    0    1
 -2      5041      5156      5161      5046      3080      3103      3104      3081      9465      9480
 -2      9481      9107      9093      9466      9482      9109      3713      3714      3715      3667
 -1      1543    4    0    1
 -2       568       591       592       569      5042      5157      5162      5047      1202      1203
 -2      1204      1156      9094      9467      9483      9110      9469      9484      9485      9111
 -1      1544    4    0    1
 -2      5042      5157      5162      5047      5043      5158      5163      5048      9469      9484
 -2      9485      9111      9097      9470      9486      9113      9472      9487      9488      9114
 -1      1545    4    0    1
 -2      5043      5158      5163      5048      5044      5159      5164      5049      9472      9487
 -2      9488      9114      9100      9473      9489      9116      9475      9490      9491      9117
 -1      1546    4    0    1
 -2      5044      5159      5164      5049      5045      5160      5165      5050      9475      9490
 -2      9491      9117      9103      9476      9492      9119      9478      9493      9494      9120
 -1      1547    4    0    1
 -2      5045      5160      5165      5050      5046      5161      5166      5051      9478      9493
 -2      9494      9120      9106      9479      9495      9122      9481      9496      9497      9123
 -1      1548    4    0    1
 -2      5046      5161      5166      5051      3081      3104      3105      3082      9481      9496
 -2      9497      9123      9109      9482      9498      9125      3715      3716      3717      3669
 -1      1549    4    0    1
 -2       569       592       593       570      5047      5162      5167      5052      1204      1205
 -2      1206      1158      9110      9483      9499      9126      9485      9500      9501      9127
 -1      1550    4    0    1
 -2      5047      5162      5167      5052      5048      5163      5168      5053      9485      9500
 -2      9501      9127      9113      9486      9502      9129      9488      9503      9504      9130
 -1      1551    4    0    1
 -2      5048      5163      5168      5053      5049      5164      5169      5054      9488      9503
 -2      9504      9130      9116      9489      9505      9132      9491      9506      9507      9133
 -1      1552    4    0    1
 -2      5049      5164      5169      5054      5050      5165      5170      5055      9491      9506
 -2      9507      9133      9119      9492      9508      9135      9494      9509      9510      9136
 -1      1553    4    0    1
 -2      5050      5165      5170      5055      5051      5166      5171      5056      9494      9509
 -2      9510      9136      9122      9495      9511      9138      9497      9512      9513      9139
 -1      1554    4    0    1
 -2      5051      5166      5171      5056      3082      3105      3106      3083      9497      9512
 -2      9513      9139      9125      9498      9514      9141      3717      3718      3719      3671
 -1      1555    4    0    1
 -2       570       593       594       571      5052      5167      5172      5057      1206      1207
 -2      1208      1160      9126      9499      9515      9142      9501      9516      9517      9143
 -1      1556    4    0    1
 -2      5052      5167      5172      5057      5053      5168      5173      5058      9501      9516
 -2      9517      9143      9129      9502      9518      9145      9504      9519      9520      9146
 -1      1557    4    0    1
 -2      5053      5168      5173      5058      5054      5169      5174      5059      9504      9519
 -2      9520      9146      9132      9505      9521      9148      9507      9522      9523      9149
 -1      1558    4    0    1
 -2      5054      5169      5174      5059      5055      5170      5175      5060      9507      9522
 -2      9523      9149      9135      9508      9524      9151      9510      9525      9526      9152
 -1      1559    4    0    1
 -2      5055      5170      5175      5060      5056      5171      5176      5061      9510      9525
 -2      9526      9152      9138      9511      9527      9154      9513      9528      9529      9155
 -1      1560    4    0    1
 -2      5056      5171      5176      5061      3083      3106      3107      3084      9513      9528
 -2      9529      9155      9141      9514      9530      9157      3719      3720      3721      3673
 -1      1561    4    0    1
 -2       571       594       595       572      5057      5172      5177      5062      1208      1209
 -2      1210      1162      9142      9515      9531      9158      9517      9532      9533      9159
 -1      1562    4    0    1
 -2      5057      5172      5177      5062      5058      5173      5178      5063      9517      9532
 -2      9533      9159      9145      9518      9534      9161      9520      9535      9536      9162
 -1      1563    4    0    1
 -2      5058      5173      5178      5063      5059      5174      5179      5064      9520      9535
 -2      9536      9162      9148      9521      9537      9164      9523      9538      9539      9165
 -1      1564    4    0    1
 -2      5059      5174      5179      5064      5060      5175      5180      5065      9523      9538
 -2      9539      9165      9151      9524      9540      9167      9526      9541      9542      9168
 -1      1565    4    0    1
 -2      5060      5175      5180      5065      5061      5176      5181      5066      9526      9541
 -2      9542      9168      9154      9527      9543      9170      9529      9544      9545      9171
 -1      1566    4    0    1
 -2      5061      5176      5181      5066      3084      3107      3108      3085      9529      9544
 -2      9545      9171      9157      9530      9546      9173      3721      3722      3723      3675
 -1      1567    4    0    1
 -2       572       595       596       573      5062      5177      5182      5067      1210      1211
 -2      1212      1164      9158      9531      9547      9174      9533      9548      9549      9175
 -1      1568    4    0    1
 -2      5062      5177      5182      5067      5063      5178      5183      5068      9533      9548
 -2      9549      9175      9161      9534      9550      9177      9536      9551      9552      9178
 -1      1569    4    0    1
 -2      5063      5178      5183      5068      5064      5179      5184      5069      9536      9551
 -2      9552      9178      9164      9537      9553      9180      9539      9554      9555      9181
 -1      1570    4    0    1
 -2      5064      5179      5184      5069      5065      5180      5185      5070      9539      9554
 -2      9555      9181      9167      9540      9556      9183      9542      9557      9558      9184
 -1      1571    4    0    1
 -2      5065      5180      5185      5070      5066      5181      5186      5071      9542      9557
 -2      9558      9184      9170      9543      9559      9186      9545      9560      9561      9187
 -1      1572    4    0    1
 -2      5066      5181      5186      5071      3085      3108      3109      3086      9545      9560
 -2      9561      9187      9173      9546      9562      9189      3723      3724      3725      3677
 -1      1573    4    0    1
 -2       573       596       597       574      5067      5182      5187      5072      1212      1213
 -2      1214      1166      9174      9547      9563      9190      9549      9564      9565      9191
 -1      1574    4    0    1
 -2      5067      5182      5187      5072      5068      5183      5188      5073      9549      9564
 -2      9565      9191      9177      9550      9566      9193      9552      9567      9568      9194
 -1      1575    4    0    1
 -2      5068      5183      5188      5073      5069      5184      5189      5074      9552      9567
 -2      9568      9194      9180      9553      9569      9196      9555      9570      9571      9197
 -1      1576    4    0    1
 -2      5069      5184      5189      5074      5070      5185      5190      5075      9555      9570
 -2      9571      9197      9183      9556      9572      9199      9558      9573      9574      9200
 -1      1577    4    0    1
 -2      5070      5185      5190      5075      5071      5186      5191      5076      9558      9573
 -2      9574      9200      9186      9559      9575      9202      9561      9576      9577      9203
 -1      1578    4    0    1
 -2      5071      5186      5191      5076      3086      3109      3110      3087      9561      9576
 -2      9577      9203      9189      9562      9578      9205      3725      3726      3727      3679
 -1      1579    4    0    1
 -2       574       597       598       575      5072      5187      5192      5077      1214      1215
 -2      1216      1168      9190      9563      9579      9206      9565      9580      9581      9207
 -1      1580    4    0    1
 -2      5072      5187      5192      5077      5073      5188      5193      5078      9565      9580
 -2      9581      9207      9193      9566      9582      9209      9568      9583      9584      9210
 -1      1581    4    0    1
 -2      5073      5188      5193      5078      5074      5189      5194      5079      9568      9583
 -2      9584      9210      9196      9569      9585      9212      9571      9586      9587      9213
 -1      1582    4    0    1
 -2      5074      5189      5194      5079      5075      5190      5195      5080      9571      9586
 -2      9587      9213      9199      9572      9588      9215      9574      9589      9590      9216
 -1      1583    4    0    1
 -2      5075      5190      5195      5080      5076      5191      5196      5081      9574      9589
 -2      9590      9216      9202      9575      9591      9218      9577      9592      9593      9219
 -1      1584    4    0    1
 -2      5076      5191      5196      5081      3087      3110      3111      3088      9577      9592
 -2      9593      9219      9205      9578      9594      9221      3727      3728      3729      3681
 -1      1585    4    0    1
 -2       575       598       599       576      5077      5192      5197      5082      1216      1217
 -2      1218      1170      9206      9579      9595      9222      9581      9596      9597      9223
 -1      1586    4    0    1
 -2      5077      5192      5197      5082      5078      5193      5198      5083      9581      9596
 -2      9597      9223      9209      9582      9598      9225      9584      9599      9600      9226
 -1      1587    4    0    1
 -2      5078      5193      5198      5083      5079      5194      5199      5084      9584      9599
 -2      9600      9226      9212      9585      9601      9228      9587      9602      9603      9229
 -1      1588    4    0    1
 -2      5079      5194      5199      5084      5080      5195      5200      5085      9587      9602
 -2      9603      9229      9215      9588      9604      9231      9590      9605      9606      9232
 -1      1589    4    0    1
 -2      5080      5195      5200      5085      5081      5196      5201      5086      9590      9605
 -2      9606      9232      9218      9591      9607      9234      9593      9608      9609      9235
 -1      1590    4    0    1
 -2      5081      5196      5201      5086      3088      3111      3112      3089      9593      9608
 -2      9609      9235      9221      9594      9610      9237      3729      3730      3731      3683
 -1      1591    4    0    1
 -2       576       599       600       577      5082      5197      5202      5087      1218      1219
 -2      1220      1172      9222      9595      9611      9238      9597      9612      9613      9239
 -1      1592    4    0    1
 -2      5082      5197      5202      5087      5083      5198      5203      5088      9597      9612
 -2      9613      9239      9225      9598      9614      9241      9600      9615      9616      9242
 -1      1593    4    0    1
 -2      5083      5198      5203      5088      5084      5199      5204      5089      9600      9615
 -2      9616      9242      9228      9601      9617      9244      9603      9618      9619      9245
 -1      1594    4    0    1
 -2      5084      5199      5204      5089      5085      5200      5205      5090      9603      9618
 -2      9619      9245      9231      9604      9620      9247      9606      9621      9622      9248
 -1      1595    4    0    1
 -2      5085      5200      5205      5090      5086      5201      5206      5091      9606      9621
 -2      9622      9248      9234      9607      9623      9250      9609      9624      9625      9251
 -1      1596    4    0    1
 -2      5086      5201      5206      5091      3089      3112      3113      3090      9609      9624
 -2      9625      9251      9237      9610      9626      9253      3731      3732      3733      3685
 -1      1597    4    0    1
 -2       577       600       601       578      5087      5202      5207      5092      1220      1221
 -2      1222      1174      9238      9611      9627      9254      9613      9628      9629      9255
 -1      1598    4    0    1
 -2      5087      5202      5207      5092      5088      5203      5208      5093      9613      9628
 -2      9629      9255      9241      9614      9630      9257      9616      9631      9632      9258
 -1      1599    4    0    1
 -2      5088      5203      5208      5093      5089      5204      5209      5094      9616      9631
 -2      9632      9258      9244      9617      9633      9260      9619      9634      9635      9261
 -1      1600    4    0    1
 -2      5089      5204      5209      5094      5090      5205      5210      5095      9619      9634
 -2      9635      9261      9247      9620      9636      9263      9622      9637      9638      9264
 -1      1601    4    0    1
 -2      5090      5205      5210      5095      5091      5206      5211      5096      9622      9637
 -2      9638      9264      9250      9623      9639      9266      9625      9640      9641      9267
 -1      1602    4    0    1
 -2      5091      5206      5211      5096      3090      3113      3114      3091      9625      9640
 -2      9641      9267      9253      9626      9642      9269      3733      3734      3735      3687
 -1      1603    4    0    1
 -2       578       601       602       579      5092      5207      5212      5097      1222      1223
 -2      1224      1176      9254      9627      9643      9270      9629      9644      9645      9271
 -1      1604    4    0    1
 -2      5092      5207      5212      5097      5093      5208      5213      5098      9629      9644
 -2      9645      9271      9257      9630      9646      9273      9632      9647      9648      9274
 -1      1605    4    0    1
 -2      5093      5208      5213      5098      5094      5209      5214      5099      9632      9647
 -2      9648      9274      9260      9633      9649      9276      9635      9650      9651      9277
 -1      1606    4    0    1
 -2      5094      5209      5214      5099      5095      5210      5215      5100      9635      9650
 -2      9651      9277      9263      9636      9652      9279      9638      9653      9654      9280
 -1      1607    4    0    1
 -2      5095      5210      5215      5100      5096      5211      5216      5101      9638      9653
 -2      9654      9280      9266      9639      9655      9282      9641      9656      9657      9283
 -1      1608    4    0    1
 -2      5096      5211      5216      5101      3091      3114      3115      3092      9641      9656
 -2      9657      9283      9269      9642      9658      9285      3735      3736      3737      3689
 -1      1609    4    0    1
 -2       579       602       603       580      5097      5212      5217      5102      1224      1225
 -2      1226      1178      9270      9643      9659      9286      9645      9660      9661      9287
 -1      1610    4    0    1
 -2      5097      5212      5217      5102      5098      5213      5218      5103      9645      9660
 -2      9661      9287      9273      9646      9662      9289      9648      9663      9664      9290
 -1      1611    4    0    1
 -2      5098      5213      5218      5103      5099      5214      5219      5104      9648      9663
 -2      9664      9290      9276      9649      9665      9292      9651      9666      9667      9293
 -1      1612    4    0    1
 -2      5099      5214      5219      5104      5100      5215      5220      5105      9651      9666
 -2      9667      9293      9279      9652      9668      9295      9654      9669      9670      9296
 -1      1613    4    0    1
 -2      5100      5215      5220      5105      5101      5216      5221      5106      9654      9669
 -2      9670      9296      9282      9655      9671      9298      9657      9672      9673      9299
 -1      1614    4    0    1
 -2      5101      5216      5221      5106      3092      3115      3116      3093      9657      9672
 -2      9673      9299      9285      9658      9674      9301      3737      3738      3739      3691
 -1      1615    4    0    1
 -2       580       603       604       581      5102      5217      5222      5107      1226      1227
 -2      1228      1180      9286      9659      9675      9302      9661      9676      9677      9303
 -1      1616    4    0    1
 -2      5102      5217      5222      5107      5103      5218      5223      5108      9661      9676
 -2      9677      9303      9289      9662      9678      9305      9664      9679      9680      9306
 -1      1617    4    0    1
 -2      5103      5218      5223      5108      5104      5219      5224      5109      9664      9679
 -2      9680      9306      9292      9665      9681      9308      9667      9682      9683      9309
 -1      1618    4    0    1
 -2      5104      5219      5224      5109      5105      5220      5225      5110      9667      9682
 -2      9683      9309      9295      9668      9684      9311      9670      9685      9686      9312
 -1      1619    4    0    1
 -2      5105      5220      5225      5110      5106      5221      5226      5111      9670      9685
 -2      9686      9312      9298      9671      9687      9314      9673      9688      9689      9315
 -1      1620    4    0    1
 -2      5106      5221      5226      5111      3093      3116      3117      3094      9673      9688
 -2      9689      9315      9301      9674      9690      9317      3739      3740      3741      3693
 -1      1621    4    0    1
 -2       581       604       605       582      5107      5222      5227      5112      1228      1229
 -2      1230      1182      9302      9675      9691      9318      9677      9692      9693      9319
 -1      1622    4    0    1
 -2      5107      5222      5227      5112      5108      5223      5228      5113      9677      9692
 -2      9693      9319      9305      9678      9694      9321      9680      9695      9696      9322
 -1      1623    4    0    1
 -2      5108      5223      5228      5113      5109      5224      5229      5114      9680      9695
 -2      9696      9322      9308      9681      9697      9324      9683      9698      9699      9325
 -1      1624    4    0    1
 -2      5109      5224      5229      5114      5110      5225      5230      5115      9683      9698
 -2      9699      9325      9311      9684      9700      9327      9686      9701      9702      9328
 -1      1625    4    0    1
 -2      5110      5225      5230      5115      5111      5226      5231      5116      9686      9701
 -2      9702      9328      9314      9687      9703      9330      9689      9704      9705      9331
 -1      1626    4    0    1
 -2      5111      5226      5231      5116      3094      3117      3118      3095      9689      9704
 -2      9705      9331      9317      9690      9706      9333      3741      3742      3743      3695
 -1      1627    4    0    1
 -2       582       605       606       583      5112      5227      5232      5117      1230      1231
 -2      1232      1184      9318      9691      9707      9334      9693      9708      9709      9335
 -1      1628    4    0    1
 -2      5112      5227      5232      5117      5113      5228      5233      5118      9693      9708
 -2      9709      9335      9321      9694      9710      9337      9696      9711      9712      9338
 -1      1629    4    0    1
 -2      5113      5228      5233      5118      5114      5229      5234      5119      9696      9711
 -2      9712      9338      9324      9697      9713      9340      9699      9714      9715      9341
 -1      1630    4    0    1
 -2      5114      5229      5234      5119      5115      5230      5235      5120      9699      9714
 -2      9715      9341      9327      9700      9716      9343      9702      9717      9718      9344
 -1      1631    4    0    1
 -2      5115      5230      5235      5120      5116      5231      5236      5121      9702      9717
 -2      9718      9344      9330      9703      9719      9346      9705      9720      9721      9347
 -1      1632    4    0    1
 -2      5116      5231      5236      5121      3095      3118      3119      3096      9705      9720
 -2      9721      9347      9333      9706      9722      9349      3743      3744      3745      3697
 -1      1633    4    0    1
 -2       583       606       607       584      5117      5232      5237      5122      1232      1233
 -2      1234      1186      9334      9707      9723      9350      9709      9724      9725      9351
 -1      1634    4    0    1
 -2      5117      5232      5237      5122      5118      5233      5238      5123      9709      9724
 -2      9725      9351      9337      9710      9726      9353      9712      9727      9728      9354
 -1      1635    4    0    1
 -2      5118      5233      5238      5123      5119      5234      5239      5124      9712      9727
 -2      9728      9354      9340      9713      9729      9356      9715      9730      9731      9357
 -1      1636    4    0    1
 -2      5119      5234      5239      5124      5120      5235      5240      5125      9715      9730
 -2      9731      9357      9343      9716      9732      9359      9718      9733      9734      9360
 -1      1637    4    0    1
 -2      5120      5235      5240      5125      5121      5236      5241      5126      9718      9733
 -2      9734      9360      9346      9719      9735      9362      9721      9736      9737      9363
 -1      1638    4    0    1
 -2      5121      5236      5241      5126      3096      3119      3120      3097      9721      9736
 -2      9737      9363      9349      9722      9738      9365      3745      3746      3747      3699
 -1      1639    4    0    1
 -2       584       607       608       585      5122      5237      5242      5127      1234      1235
 -2      1236      1188      9350      9723      9739      9366      9725      9740      9741      9367
 -1      1640    4    0    1
 -2      5122      5237      5242      5127      5123      5238      5243      5128      9725      9740
 -2      9741      9367      9353      9726      9742      9369      9728      9743      9744      9370
 -1      1641    4    0    1
 -2      5123      5238      5243      5128      5124      5239      5244      5129      9728      9743
 -2      9744      9370      9356      9729      9745      9372      9731      9746      9747      9373
 -1      1642    4    0    1
 -2      5124      5239      5244      5129      5125      5240      5245      5130      9731      9746
 -2      9747      9373      9359      9732      9748      9375      9734      9749      9750      9376
 -1      1643    4    0    1
 -2      5125      5240      5245      5130      5126      5241      5246      5131      9734      9749
 -2      9750      9376      9362      9735      9751      9378      9737      9752      9753      9379
 -1      1644    4    0    1
 -2      5126      5241      5246      5131      3097      3120      3121      3098      9737      9752
 -2      9753      9379      9365      9738      9754      9381      3747      3748      3749      3701
 -1      1645    4    0    1
 -2       585       608       609       586      5127      5242      5247      5132      1236      1237
 -2      1238      1190      9366      9739      9755      9382      9741      9756      9757      9383
 -1      1646    4    0    1
 -2      5127      5242      5247      5132      5128      5243      5248      5133      9741      9756
 -2      9757      9383      9369      9742      9758      9385      9744      9759      9760      9386
 -1      1647    4    0    1
 -2      5128      5243      5248      5133      5129      5244      5249      5134      9744      9759
 -2      9760      9386      9372      9745      9761      9388      9747      9762      9763      9389
 -1      1648    4    0    1
 -2      5129      5244      5249      5134      5130      5245      5250      5135      9747      9762
 -2      9763      9389      9375      9748      9764      9391      9750      9765      9766      9392
 -1      1649    4    0    1
 -2      5130      5245      5250      5135      5131      5246      5251      5136      9750      9765
 -2      9766      9392      9378      9751      9767      9394      9753      9768      9769      9395
 -1      1650    4    0    1
 -2      5131      5246      5251      5136      3098      3121      3122      3099      9753      9768
 -2      9769      9395      9381      9754      9770      9397      3749      3750      3751      3703
 -1      1651    4    0    1
 -2       586       609       610       587      5132      5247      5252      5137      1238      1239
 -2      1240      1192      9382      9755      9771      9398      9757      9772      9773      9399
 -1      1652    4    0    1
 -2      5132      5247      5252      5137      5133      5248      5253      5138      9757      9772
 -2      9773      9399      9385      9758      9774      9401      9760      9775      9776      9402
 -1      1653    4    0    1
 -2      5133      5248      5253      5138      5134      5249      5254      5139      9760      9775
 -2      9776      9402      9388      9761      9777      9404      9763      9778      9779      9405
 -1      1654    4    0    1
 -2      5134      5249      5254      5139      5135      5250      5255      5140      9763      9778
 -2      9779      9405      9391      9764      9780      9407      9766      9781      9782      9408
 -1      1655    4    0    1
 -2      5135      5250      5255      5140      5136      5251      5256      5141      9766      9781
 -2      9782      9408      9394      9767      9783      9410      9769      9784      9785      9411
 -1      1656    4    0    1
 -2      5136      5251      5256      5141      3099      3122      3123      3100      9769      9784
 -2      9785      9411      9397      9770      9786      9413      3751      3752      3753      3705
 -1      1657    4    0    1
 -2       587       610        98        99      5137      5252      2279      2284      1240      1241
 -2       116      1194      9398      9771      2406      2417      9773      9787      2418      9414
 -1      1658    4    0    1
 -2      5137      5252      2279      2284      5138      5253      2280      2285      9773      9787
 -2      2418      9414      9401      9774      2408      2419      9776      9788      2420      9415
 -1      1659    4    0    1
 -2      5138      5253      2280      2285      5139      5254      2281      2286      9776      9788
 -2      2420      9415      9404      9777      2410      2421      9779      9789      2422      9416
 -1      1660    4    0    1
 -2      5139      5254      2281      2286      5140      5255      2282      2287      9779      9789
 -2      2422      9416      9407      9780      2412      2423      9782      9790      2424      9417
 -1      1661    4    0    1
 -2      5140      5255      2282      2287      5141      5256      2283      2288      9782      9790
 -2      2424      9417      9410      9783      2414      2425      9785      9791      2426      9418
 -1      1662    4    0    1
 -2      5141      5256      2283      2288      3100      3123       262       263      9785      9791
 -2      2426      9418      9413      9786      2416      2427      3753      3754       280      3707
 -1      1663    4    0    1
 -2        18        19       611       588      1639      1644      5257      5142        36      1242
 -2      1243      1195      1778      1789      9792      9419      1790      9793      9794      9420
 -1      1664    4    0    1
 -2      1639      1644      5257      5142      1640      1645      5258      5143      1790      9793
 -2      9794      9420      1780      1791      9795      9422      1792      9796      9797      9423
 -1      1665    4    0    1
 -2      1640      1645      5258      5143      1641      1646      5259      5144      1792      9796
 -2      9797      9423      1782      1793      9798      9425      1794      9799      9800      9426
 -1      1666    4    0    1
 -2      1641      1646      5259      5144      1642      1647      5260      5145      1794      9799
 -2      9800      9426      1784      1795      9801      9428      1796      9802      9803      9429
 -1      1667    4    0    1
 -2      1642      1647      5260      5145      1643      1648      5261      5146      1796      9802
 -2      9803      9429      1786      1797      9804      9431      1798      9805      9806      9432
 -1      1668    4    0    1
 -2      1643      1648      5261      5146       182       183      3124      3101      1798      9805
 -2      9806      9432      1788      1799      9807      9434       200      3755      3756      3708
 -1      1669    4    0    1
 -2       588       611       612       589      5142      5257      5262      5147      1243      1244
 -2      1245      1197      9419      9792      9808      9435      9794      9809      9810      9436
 -1      1670    4    0    1
 -2      5142      5257      5262      5147      5143      5258      5263      5148      9794      9809
 -2      9810      9436      9422      9795      9811      9438      9797      9812      9813      9439
 -1      1671    4    0    1
 -2      5143      5258      5263      5148      5144      5259      5264      5149      9797      9812
 -2      9813      9439      9425      9798      9814      9441      9800      9815      9816      9442
 -1      1672    4    0    1
 -2      5144      5259      5264      5149      5145      5260      5265      5150      9800      9815
 -2      9816      9442      9428      9801      9817      9444      9803      9818      9819      9445
 -1      1673    4    0    1
 -2      5145      5260      5265      5150      5146      5261      5266      5151      9803      9818
 -2      9819      9445      9431      9804      9820      9447      9806      9821      9822      9448
 -1      1674    4    0    1
 -2      5146      5261      5266      5151      3101      3124      3125      3102      9806      9821
 -2      9822      9448      9434      9807      9823      9450      3756      3757      3758      3710
 -1      1675    4    0    1
 -2       589       612       613       590      5147      5262      5267      5152      1245      1246
 -2      1247      1199      9435      9808      9824      9451      9810      9825      9826      9452
 -1      1676    4    0    1
 -2      5147      5262      5267      5152      5148      5263      5268      5153      9810      9825
 -2      9826      9452      9438      9811      9827      9454      9813      9828      9829      9455
 -1      1677    4    0    1
 -2      5148      5263      5268      5153      5149      5264      5269      5154      9813      9828
 -2      9829      9455      9441      9814      9830      9457      9816      9831      9832      9458
 -1      1678    4    0    1
 -2      5149      5264      5269      5154      5150      5265      5270      5155      9816      9831
 -2      9832      9458      9444      9817      9833      9460      9819      9834      9835      9461
 -1      1679    4    0    1
 -2      5150      5265      5270      5155      5151      5266      5271      5156      9819      9834
 -2      9835      9461      9447      9820      9836      9463      9822      9837      9838      9464
 -1      1680    4    0    1
 -2      5151      5266      5271      5156      3102      3125      3126      3103      9822      9837
 -2      9838      9464      9450      9823      9839      9466      3758      3759      3760      3712
 -1      1681    4    0    1
 -2       590       613       614       591      5152      5267      5272      5157      1247      1248
 -2      1249      1201      9451      9824      9840      9467      9826      9841      9842      9468
 -1      1682    4    0    1
 -2      5152      5267      5272      5157      5153      5268      5273      5158      9826      9841
 -2      9842      9468      9454      9827      9843      9470      9829      9844      9845      9471
 -1      1683    4    0    1
 -2      5153      5268      5273      5158      5154      5269      5274      5159      9829      9844
 -2      9845      9471      9457      9830      9846      9473      9832      9847      9848      9474
 -1      1684    4    0    1
 -2      5154      5269      5274      5159      5155      5270      5275      5160      9832      9847
 -2      9848      9474      9460      9833      9849      9476      9835      9850      9851      9477
 -1      1685    4    0    1
 -2      5155      5270      5275      5160      5156      5271      5276      5161      9835      9850
 -2      9851      9477      9463      9836      9852      9479      9838      9853      9854      9480
 -1      1686    4    0    1
 -2      5156      5271      5276      5161      3103      3126      3127      3104      9838      9853
 -2      9854      9480      9466      9839      9855      9482      3760      3761      3762      3714
 -1      1687    4    0    1
 -2       591       614       615       592      5157      5272      5277      5162      1249      1250
 -2      1251      1203      9467      9840      9856      9483      9842      9857      9858      9484
 -1      1688    4    0    1
 -2      5157      5272      5277      5162      5158      5273      5278      5163      9842      9857
 -2      9858      9484      9470      9843      9859      9486      9845      9860      9861      9487
 -1      1689    4    0    1
 -2      5158      5273      5278      5163      5159      5274      5279      5164      9845      9860
 -2      9861      9487      9473      9846      9862      9489      9848      9863      9864      9490
 -1      1690    4    0    1
 -2      5159      5274      5279      5164      5160      5275      5280      5165      9848      9863
 -2      9864      9490      9476      9849      9865      9492      9851      9866      9867      9493
 -1      1691    4    0    1
 -2      5160      5275      5280      5165      5161      5276      5281      5166      9851      9866
 -2      9867      9493      9479      9852      9868      9495      9854      9869      9870      9496
 -1      1692    4    0    1
 -2      5161      5276      5281      5166      3104      3127      3128      3105      9854      9869
 -2      9870      9496      9482      9855      9871      9498      3762      3763      3764      3716
 -1      1693    4    0    1
 -2       592       615       616       593      5162      5277      5282      5167      1251      1252
 -2      1253      1205      9483      9856      9872      9499      9858      9873      9874      9500
 -1      1694    4    0    1
 -2      5162      5277      5282      5167      5163      5278      5283      5168      9858      9873
 -2      9874      9500      9486      9859      9875      9502      9861      9876      9877      9503
 -1      1695    4    0    1
 -2      5163      5278      5283      5168      5164      5279      5284      5169      9861      9876
 -2      9877      9503      9489      9862      9878      9505      9864      9879      9880      9506
 -1      1696    4    0    1
 -2      5164      5279      5284      5169      5165      5280      5285      5170      9864      9879
 -2      9880      9506      9492      9865      9881      9508      9867      9882      9883      9509
 -1      1697    4    0    1
 -2      5165      5280      5285      5170      5166      5281      5286      5171      9867      9882
 -2      9883      9509      9495      9868      9884      9511      9870      9885      9886      9512
 -1      1698    4    0    1
 -2      5166      5281      5286      5171      3105      3128      3129      3106      9870      9885
 -2      9886      9512      9498      9871      9887      9514      3764      3765      3766      3718
 -1      1699    4    0    1
 -2       593       616       617       594      5167      5282      5287      5172      1253      1254
 -2      1255      1207      9499      9872      9888      9515      9874      9889      9890      9516
 -1      1700    4    0    1
 -2      5167      5282      5287      5172      5168      5283      5288      5173      9874      9889
 -2      9890      9516      9502      9875      9891      9518      9877      9892      9893      9519
 -1      1701    4    0    1
 -2      5168      5283      5288      5173      5169      5284      5289      5174      9877      9892
 -2      9893      9519      9505      9878      9894      9521      9880      9895      9896      9522
 -1      1702    4    0    1
 -2      5169      5284      5289      5174      5170      5285      5290      5175      9880      9895
 -2      9896      9522      9508      9881      9897      9524      9883      9898      9899      9525
 -1      1703    4    0    1
 -2      5170      5285      5290      5175      5171      5286      5291      5176      9883      9898
 -2      9899      9525      9511      9884      9900      9527      9886      9901      9902      9528
 -1      1704    4    0    1
 -2      5171      5286      5291      5176      3106      3129      3130      3107      9886      9901
 -2      9902      9528      9514      9887      9903      9530      3766      3767      3768      3720
 -1      1705    4    0    1
 -2       594       617       618       595      5172      5287      5292      5177      1255      1256
 -2      1257      1209      9515      9888      9904      9531      9890      9905      9906      9532
 -1      1706    4    0    1
 -2      5172      5287      5292      5177      5173      5288      5293      5178      9890      9905
 -2      9906      9532      9518      9891      9907      9534      9893      9908      9909      9535
 -1      1707    4    0    1
 -2      5173      5288      5293      5178      5174      5289      5294      5179      9893      9908
 -2      9909      9535      9521      9894      9910      9537      9896      9911      9912      9538
 -1      1708    4    0    1
 -2      5174      5289      5294      5179      5175      5290      5295      5180      9896      9911
 -2      9912      9538      9524      9897      9913      9540      9899      9914      9915      9541
 -1      1709    4    0    1
 -2      5175      5290      5295      5180      5176      5291      5296      5181      9899      9914
 -2      9915      9541      9527      9900      9916      9543      9902      9917      9918      9544
 -1      1710    4    0    1
 -2      5176      5291      5296      5181      3107      3130      3131      3108      9902      9917
 -2      9918      9544      9530      9903      9919      9546      3768      3769      3770      3722
 -1      1711    4    0    1
 -2       595       618       619       596      5177      5292      5297      5182      1257      1258
 -2      1259      1211      9531      9904      9920      9547      9906      9921      9922      9548
 -1      1712    4    0    1
 -2      5177      5292      5297      5182      5178      5293      5298      5183      9906      9921
 -2      9922      9548      9534      9907      9923      9550      9909      9924      9925      9551
 -1      1713    4    0    1
 -2      5178      5293      5298      5183      5179      5294      5299      5184      9909      9924
 -2      9925      9551      9537      9910      9926      9553      9912      9927      9928      9554
 -1      1714    4    0    1
 -2      5179      5294      5299      5184      5180      5295      5300      5185      9912      9927
 -2      9928      9554      9540      9913      9929      9556      9915      9930      9931      9557
 -1      1715    4    0    1
 -2      5180      5295      5300      5185      5181      5296      5301      5186      9915      9930
 -2      9931      9557      9543      9916      9932      9559      9918      9933      9934      9560
 -1      1716    4    0    1
 -2      5181      5296      5301      5186      3108      3131      3132      3109      9918      9933
 -2      9934      9560      9546      9919      9935      9562      3770      3771      3772      3724
 -1      1717    4    0    1
 -2       596       619       620       597      5182      5297      5302      5187      1259      1260
 -2      1261      1213      9547      9920      9936      9563      9922      9937      9938      9564
 -1      1718    4    0    1
 -2      5182      5297      5302      5187      5183      5298      5303      5188      9922      9937
 -2      9938      9564      9550      9923      9939      9566      9925      9940      9941      9567
 -1      1719    4    0    1
 -2      5183      5298      5303      5188      5184      5299      5304      5189      9925      9940
 -2      9941      9567      9553      9926      9942      9569      9928      9943      9944      9570
 -1      1720    4    0    1
 -2      5184      5299      5304      5189      5185      5300      5305      5190      9928      9943
 -2      9944      9570      9556      9929      9945      9572      9931      9946      9947      9573
 -1      1721    4    0    1
 -2      5185      5300      5305      5190      5186      5301      5306      5191      9931      9946
 -2      9947      9573      9559      9932      9948      9575      9934      9949      9950      9576
 -1      1722    4    0    1
 -2      5186      5301      5306      5191      3109      3132      3133      3110      9934      9949
 -2      9950      9576      9562      9935      9951      9578      3772      3773      3774      3726
 -1      1723    4    0    1
 -2       597       620       621       598      5187      5302      5307      5192      1261      1262
 -2      1263      1215      9563      9936      9952      9579      9938      9953      9954      9580
 -1      1724    4    0    1
 -2      5187      5302      5307      5192      5188      5303      5308      5193      9938      9953
 -2      9954      9580      9566      9939      9955      9582      9941      9956      9957      9583
 -1      1725    4    0    1
 -2      5188      5303      5308      5193      5189      5304      5309      5194      9941      9956
 -2      9957      9583      9569      9942      9958      9585      9944      9959      9960      9586
 -1      1726    4    0    1
 -2      5189      5304      5309      5194      5190      5305      5310      5195      9944      9959
 -2      9960      9586      9572      9945      9961      9588      9947      9962      9963      9589
 -1      1727    4    0    1
 -2      5190      5305      5310      5195      5191      5306      5311      5196      9947      9962
 -2      9963      9589      9575      9948      9964      9591      9950      9965      9966      9592
 -1      1728    4    0    1
 -2      5191      5306      5311      5196      3110      3133      3134      3111      9950      9965
 -2      9966      9592      9578      9951      9967      9594      3774      3775      3776      3728
 -1      1729    4    0    1
 -2       598       621       622       599      5192      5307      5312      5197      1263      1264
 -2      1265      1217      9579      9952      9968      9595      9954      9969      9970      9596
 -1      1730    4    0    1
 -2      5192      5307      5312      5197      5193      5308      5313      5198      9954      9969
 -2      9970      9596      9582      9955      9971      9598      9957      9972      9973      9599
 -1      1731    4    0    1
 -2      5193      5308      5313      5198      5194      5309      5314      5199      9957      9972
 -2      9973      9599      9585      9958      9974      9601      9960      9975      9976      9602
 -1      1732    4    0    1
 -2      5194      5309      5314      5199      5195      5310      5315      5200      9960      9975
 -2      9976      9602      9588      9961      9977      9604      9963      9978      9979      9605
 -1      1733    4    0    1
 -2      5195      5310      5315      5200      5196      5311      5316      5201      9963      9978
 -2      9979      9605      9591      9964      9980      9607      9966      9981      9982      9608
 -1      1734    4    0    1
 -2      5196      5311      5316      5201      3111      3134      3135      3112      9966      9981
 -2      9982      9608      9594      9967      9983      9610      3776      3777      3778      3730
 -1      1735    4    0    1
 -2       599       622       623       600      5197      5312      5317      5202      1265      1266
 -2      1267      1219      9595      9968      9984      9611      9970      9985      9986      9612
 -1      1736    4    0    1
 -2      5197      5312      5317      5202      5198      5313      5318      5203      9970      9985
 -2      9986      9612      9598      9971      9987      9614      9973      9988      9989      9615
 -1      1737    4    0    1
 -2      5198      5313      5318      5203      5199      5314      5319      5204      9973      9988
 -2      9989      9615      9601      9974      9990      9617      9976      9991      9992      9618
 -1      1738    4    0    1
 -2      5199      5314      5319      5204      5200      5315      5320      5205      9976      9991
 -2      9992      9618      9604      9977      9993      9620      9979      9994      9995      9621
 -1      1739    4    0    1
 -2      5200      5315      5320      5205      5201      5316      5321      5206      9979      9994
 -2      9995      9621      9607      9980      9996      9623      9982      9997      9998      9624
 -1      1740    4    0    1
 -2      5201      5316      5321      5206      3112      3135      3136      3113      9982      9997
 -2      9998      9624      9610      9983      9999      9626      3778      3779      3780      3732
 -1      1741    4    0    1
 -2       600       623       624       601      5202      5317      5322      5207      1267      1268
 -2      1269      1221      9611      9984     10000      9627      9986     10001     10002      9628
 -1      1742    4    0    1
 -2      5202      5317      5322      5207      5203      5318      5323      5208      9986     10001
 -2     10002      9628      9614      9987     10003      9630      9989     10004     10005      9631
 -1      1743    4    0    1
 -2      5203      5318      5323      5208      5204      5319      5324      5209      9989     10004
 -2     10005      9631      9617      9990     10006      9633      9992     10007     10008      9634
 -1      1744    4    0    1
 -2      5204      5319      5324      5209      5205      5320      5325      5210      9992     10007
 -2     10008      9634      9620      9993     10009      9636      9995     10010     10011      9637
 -1      1745    4    0    1
 -2      5205      5320      5325      5210      5206      5321      5326      5211      9995     10010
 -2     10011      9637      9623      9996     10012      9639      9998     10013     10014      9640
 -1      1746    4    0    1
 -2      5206      5321      5326      5211      3113      3136      3137      3114      9998     10013
 -2     10014      9640      9626      9999     10015      9642      3780      3781      3782      3734
 -1      1747    4    0    1
 -2       601       624       625       602      5207      5322      5327      5212      1269      1270
 -2      1271      1223      9627     10000     10016      9643     10002     10017     10018      9644
 -1      1748    4    0    1
 -2      5207      5322      5327      5212      5208      5323      5328      5213     10002     10017
 -2     10018      9644      9630     10003     10019      9646     10005     10020     10021      9647
 -1      1749    4    0    1
 -2      5208      5323      5328      5213      5209      5324      5329      5214     10005     10020
 -2     10021      9647      9633     10006     10022      9649     10008     10023     10024      9650
 -1      1750    4    0    1
 -2      5209      5324      5329      5214      5210      5325      5330      5215     10008     10023
 -2     10024      9650      9636     10009     10025      9652     10011     10026     10027      9653
 -1      1751    4    0    1
 -2      5210      5325      5330      5215      5211      5326      5331      5216     10011     10026
 -2     10027      9653      9639     10012     10028      9655     10014     10029     10030      9656
 -1      1752    4    0    1
 -2      5211      5326      5331      5216      3114      3137      3138      3115     10014     10029
 -2     10030      9656      9642     10015     10031      9658      3782      3783      3784      3736
 -1      1753    4    0    1
 -2       602       625       626       603      5212      5327      5332      5217      1271      1272
 -2      1273      1225      9643     10016     10032      9659     10018     10033     10034      9660
 -1      1754    4    0    1
 -2      5212      5327      5332      5217      5213      5328      5333      5218     10018     10033
 -2     10034      9660      9646     10019     10035      9662     10021     10036     10037      9663
 -1      1755    4    0    1
 -2      5213      5328      5333      5218      5214      5329      5334      5219     10021     10036
 -2     10037      9663      9649     10022     10038      9665     10024     10039     10040      9666
 -1      1756    4    0    1
 -2      5214      5329      5334      5219      5215      5330      5335      5220     10024     10039
 -2     10040      9666      9652     10025     10041      9668     10027     10042     10043      9669
 -1      1757    4    0    1
 -2      5215      5330      5335      5220      5216      5331      5336      5221     10027     10042
 -2     10043      9669      9655     10028     10044      9671     10030     10045     10046      9672
 -1      1758    4    0    1
 -2      5216      5331      5336      5221      3115      3138      3139      3116     10030     10045
 -2     10046      9672      9658     10031     10047      9674      3784      3785      3786      3738
 -1      1759    4    0    1
 -2       603       626       627       604      5217      5332      5337      5222      1273      1274
 -2      1275      1227      9659     10032     10048      9675     10034     10049     10050      9676
 -1      1760    4    0    1
 -2      5217      5332      5337      5222      5218      5333      5338      5223     10034     10049
 -2     10050      9676      9662     10035     10051      9678     10037     10052     10053      9679
 -1      1761    4    0    1
 -2      5218      5333      5338      5223      5219      5334      5339      5224     10037     10052
 -2     10053      9679      9665     10038     10054      9681     10040     10055     10056      9682
 -1      1762    4    0    1
 -2      5219      5334      5339      5224      5220      5335      5340      5225     10040     10055
 -2     10056      9682      9668     10041     10057      9684     10043     10058     10059      9685
 -1      1763    4    0    1
 -2      5220      5335      5340      5225      5221      5336      5341      5226     10043     10058
 -2     10059      9685      9671     10044     10060      9687     10046     10061     10062      9688
 -1      1764    4    0    1
 -2      5221      5336      5341      5226      3116      3139      3140      3117     10046     10061
 -2     10062      9688      9674     10047     10063      9690      3786      3787      3788      3740
 -1      1765    4    0    1
 -2       604       627       628       605      5222      5337      5342      5227      1275      1276
 -2      1277      1229      9675     10048     10064      9691     10050     10065     10066      9692
 -1      1766    4    0    1
 -2      5222      5337      5342      5227      5223      5338      5343      5228     10050     10065
 -2     10066      9692      9678     10051     10067      9694     10053     10068     10069      9695
 -1      1767    4    0    1
 -2      5223      5338      5343      5228      5224      5339      5344      5229     10053     10068
 -2     10069      9695      9681     10054     10070      9697     10056     10071     10072      9698
 -1      1768    4    0    1
 -2      5224      5339      5344      5229      5225      5340      5345      5230     10056     10071
 -2     10072      9698      9684     10057     10073      9700     10059     10074     10075      9701
 -1      1769    4    0    1
 -2      5225      5340      5345      5230      5226      5341      5346      5231     10059     10074
 -2     10075      9701      9687     10060     10076      9703     10062     10077     10078      9704
 -1      1770    4    0    1
 -2      5226      5341      5346      5231      3117      3140      3141      3118     10062     10077
 -2     10078      9704      9690     10063     10079      9706      3788      3789      3790      3742
 -1      1771    4    0    1
 -2       605       628       629       606      5227      5342      5347      5232      1277      1278
 -2      1279      1231      9691     10064     10080      9707     10066     10081     10082      9708
 -1      1772    4    0    1
 -2      5227      5342      5347      5232      5228      5343      5348      5233     10066     10081
 -2     10082      9708      9694     10067     10083      9710     10069     10084     10085      9711
 -1      1773    4    0    1
 -2      5228      5343      5348      5233      5229      5344      5349      5234     10069     10084
 -2     10085      9711      9697     10070     10086      9713     10072     10087     10088      9714
 -1      1774    4    0    1
 -2      5229      5344      5349      5234      5230      5345      5350      5235     10072     10087
 -2     10088      9714      9700     10073     10089      9716     10075     10090     10091      9717
 -1      1775    4    0    1
 -2      5230      5345      5350      5235      5231      5346      5351      5236     10075     10090
 -2     10091      9717      9703     10076     10092      9719     10078     10093     10094      9720
 -1      1776    4    0    1
 -2      5231      5346      5351      5236      3118      3141      3142      3119     10078     10093
 -2     10094      9720      9706     10079     10095      9722      3790      3791      3792      3744
 -1      1777    4    0    1
 -2       606       629       630       607      5232      5347      5352      5237      1279      1280
 -2      1281      1233      9707     10080     10096      9723     10082     10097     10098      9724
 -1      1778    4    0    1
 -2      5232      5347      5352      5237      5233      5348      5353      5238     10082     10097
 -2     10098      9724      9710     10083     10099      9726     10085     10100     10101      9727
 -1      1779    4    0    1
 -2      5233      5348      5353      5238      5234      5349      5354      5239     10085     10100
 -2     10101      9727      9713     10086     10102      9729     10088     10103     10104      9730
 -1      1780    4    0    1
 -2      5234      5349      5354      5239      5235      5350      5355      5240     10088     10103
 -2     10104      9730      9716     10089     10105      9732     10091     10106     10107      9733
 -1      1781    4    0    1
 -2      5235      5350      5355      5240      5236      5351      5356      5241     10091     10106
 -2     10107      9733      9719     10092     10108      9735     10094     10109     10110      9736
 -1      1782    4    0    1
 -2      5236      5351      5356      5241      3119      3142      3143      3120     10094     10109
 -2     10110      9736      9722     10095     10111      9738      3792      3793      3794      3746
 -1      1783    4    0    1
 -2       607       630       631       608      5237      5352      5357      5242      1281      1282
 -2      1283      1235      9723     10096     10112      9739     10098     10113     10114      9740
 -1      1784    4    0    1
 -2      5237      5352      5357      5242      5238      5353      5358      5243     10098     10113
 -2     10114      9740      9726     10099     10115      9742     10101     10116     10117      9743
 -1      1785    4    0    1
 -2      5238      5353      5358      5243      5239      5354      5359      5244     10101     10116
 -2     10117      9743      9729     10102     10118      9745     10104     10119     10120      9746
 -1      1786    4    0    1
 -2      5239      5354      5359      5244      5240      5355      5360      5245     10104     10119
 -2     10120      9746      9732     10105     10121      9748     10107     10122     10123      9749
 -1      1787    4    0    1
 -2      5240      5355      5360      5245      5241      5356      5361      5246     10107     10122
 -2     10123      9749      9735     10108     10124      9751     10110     10125     10126      9752
 -1      1788    4    0    1
 -2      5241      5356      5361      5246      3120      3143      3144      3121     10110     10125
 -2     10126      9752      9738     10111     10127      9754      3794      3795      3796      3748
 -1      1789    4    0    1
 -2       608       631       632       609      5242      5357      5362      5247      1283      1284
 -2      1285      1237      9739     10112     10128      9755     10114     10129     10130      9756
 -1      1790    4    0    1
 -2      5242      5357      5362      5247      5243      5358      5363      5248     10114     10129
 -2     10130      9756      9742     10115     10131      9758     10117     10132     10133      9759
 -1      1791    4    0    1
 -2      5243      5358      5363      5248      5244      5359      5364      5249     10117     10132
 -2     10133      9759      9745     10118     10134      9761     10120     10135     10136      9762
 -1      1792    4    0    1
 -2      5244      5359      5364      5249      5245      5360      5365      5250     10120     10135
 -2     10136      9762      9748     10121     10137      9764     10123     10138     10139      9765
 -1      1793    4    0    1
 -2      5245      5360      5365      5250      5246      5361      5366      5251     10123     10138
 -2     10139      9765      9751     10124     10140      9767     10126     10141     10142      9768
 -1      1794    4    0    1
 -2      5246      5361      5366      5251      3121      3144      3145      3122     10126     10141
 -2     10142      9768      9754     10127     10143      9770      3796      3797      3798      3750
 -1      1795    4    0    1
 -2       609       632       633       610      5247      5362      5367      5252      1285      1286
 -2      1287      1239      9755     10128     10144      9771     10130     10145     10146      9772
 -1      1796    4    0    1
 -2      5247      5362      5367      5252      5248      5363      5368      5253     10130     10145
 -2     10146      9772      9758     10131     10147      9774     10133     10148     10149      9775
 -1      1797    4    0    1
 -2      5248      5363      5368      5253      5249      5364      5369      5254     10133     10148
 -2     10149      9775      9761     10134     10150      9777     10136     10151     10152      9778
 -1      1798    4    0    1
 -2      5249      5364      5369      5254      5250      5365      5370      5255     10136     10151
 -2     10152      9778      9764     10137     10153      9780     10139     10154     10155      9781
 -1      1799    4    0    1
 -2      5250      5365      5370      5255      5251      5366      5371      5256     10139     10154
 -2     10155      9781      9767     10140     10156      9783     10142     10157     10158      9784
 -1      1800    4    0    1
 -2      5251      5366      5371      5256      3122      3145      3146      3123     10142     10157
 -2     10158      9784      9770     10143     10159      9786      3798      3799      3800      3752
 -1      1801    4    0    1
 -2       610       633        97        98      5252      5367      2274      2279      1287      1288
 -2       115      1241      9771     10144      2395      2406     10146     10160      2407      9787
 -1      1802    4    0    1
 -2      5252      5367      2274      2279      5253      5368      2275      2280     10146     10160
 -2      2407      9787      9774     10147      2397      2408     10149     10161      2409      9788
 -1      1803    4    0    1
 -2      5253      5368      2275      2280      5254      5369      2276      2281     10149     10161
 -2      2409      9788      9777     10150      2399      2410     10152     10162      2411      9789
 -1      1804    4    0    1
 -2      5254      5369      2276      2281      5255      5370      2277      2282     10152     10162
 -2      2411      9789      9780     10153      2401      2412     10155     10163      2413      9790
 -1      1805    4    0    1
 -2      5255      5370      2277      2282      5256      5371      2278      2283     10155     10163
 -2      2413      9790      9783     10156      2403      2414     10158     10164      2415      9791
 -1      1806    4    0    1
 -2      5256      5371      2278      2283      3123      3146       261       262     10158     10164
 -2      2415      9791      9786     10159      2405      2416      3800      3801       279      3754
 -1      1807    4    0    1
 -2        19        20       634       611      1644      1649      5372      5257        37      1289
 -2      1290      1242      1789      1800     10165      9792      1801     10166     10167      9793
 -1      1808    4    0    1
 -2      1644      1649      5372      5257      1645      1650      5373      5258      1801     10166
 -2     10167      9793      1791      1802     10168      9795      1803     10169     10170      9796
 -1      1809    4    0    1
 -2      1645      1650      5373      5258      1646      1651      5374      5259      1803     10169
 -2     10170      9796      1793      1804     10171      9798      1805     10172     10173      9799
 -1      1810    4    0    1
 -2      1646      1651      5374      5259      1647      1652      5375      5260      1805     10172
 -2     10173      9799      1795      1806     10174      9801      1807     10175     10176      9802
 -1      1811    4    0    1
 -2      1647      1652      5375      5260      1648      1653      5376      5261      1807     10175
 -2     10176      9802      1797      1808     10177      9804      1809     10178     10179      9805
 -1      1812    4    0    1
 -2      1648      1653      5376      5261       183       184      3147      3124      1809     10178
 -2     10179      9805      1799      1810     10180      9807       201      3802      3803      3755
 -1      1813    4    0    1
 -2       611       634       635       612      5257      5372      5377      5262      1290      1291
 -2      1292      1244      9792     10165     10181      9808     10167     10182     10183      9809
 -1      1814    4    0    1
 -2      5257      5372      5377      5262      5258      5373      5378      5263     10167     10182
 -2     10183      9809      9795     10168     10184      9811     10170     10185     10186      9812
 -1      1815    4    0    1
 -2      5258      5373      5378      5263      5259      5374      5379      5264     10170     10185
 -2     10186      9812      9798     10171     10187      9814     10173     10188     10189      9815
 -1      1816    4    0    1
 -2      5259      5374      5379      5264      5260      5375      5380      5265     10173     10188
 -2     10189      9815      9801     10174     10190      9817     10176     10191     10192      9818
 -1      1817    4    0    1
 -2      5260      5375      5380      5265      5261      5376      5381      5266     10176     10191
 -2     10192      9818      9804     10177     10193      9820     10179     10194     10195      9821
 -1      1818    4    0    1
 -2      5261      5376      5381      5266      3124      3147      3148      3125     10179     10194
 -2     10195      9821      9807     10180     10196      9823      3803      3804      3805      3757
 -1      1819    4    0    1
 -2       612       635       636       613      5262      5377      5382      5267      1292      1293
 -2      1294      1246      9808     10181     10197      9824     10183     10198     10199      9825
 -1      1820    4    0    1
 -2      5262      5377      5382      5267      5263      5378      5383      5268     10183     10198
 -2     10199      9825      9811     10184     10200      9827     10186     10201     10202      9828
 -1      1821    4    0    1
 -2      5263      5378      5383      5268      5264      5379      5384      5269     10186     10201
 -2     10202      9828      9814     10187     10203      9830     10189     10204     10205      9831
 -1      1822    4    0    1
 -2      5264      5379      5384      5269      5265      5380      5385      5270     10189     10204
 -2     10205      9831      9817     10190     10206      9833     10192     10207     10208      9834
 -1      1823    4    0    1
 -2      5265      5380      5385      5270      5266      5381      5386      5271     10192     10207
 -2     10208      9834      9820     10193     10209      9836     10195     10210     10211      9837
 -1      1824    4    0    1
 -2      5266      5381      5386      5271      3125      3148      3149      3126     10195     10210
 -2     10211      9837      9823     10196     10212      9839      3805      3806      3807      3759
 -1      1825    4    0    1
 -2       613       636       637       614      5267      5382      5387      5272      1294      1295
 -2      1296      1248      9824     10197     10213      9840     10199     10214     10215      9841
 -1      1826    4    0    1
 -2      5267      5382      5387      5272      5268      5383      5388      5273     10199     10214
 -2     10215      9841      9827     10200     10216      9843     10202     10217     10218      9844
 -1      1827    4    0    1
 -2      5268      5383      5388      5273      5269      5384      5389      5274     10202     10217
 -2     10218      9844      9830     10203     10219      9846     10205     10220     10221      9847
 -1      1828    4    0    1
 -2      5269      5384      5389      5274      5270      5385      5390      5275     10205     10220
 -2     10221      9847      9833     10206     10222      9849     10208     10223     10224      9850
 -1      1829    4    0    1
 -2      5270      5385      5390      5275      5271      5386      5391      5276     10208     10223
 -2     10224      9850      9836     10209     10225      9852     10211     10226     10227      9853
 -1      1830    4    0    1
 -2      5271      5386      5391      5276      3126      3149      3150      3127     10211     10226
 -2     10227      9853      9839     10212     10228      9855      3807      3808      3809      3761
 -1      1831    4    0    1
 -2       614       637       638       615      5272      5387      5392      5277      1296      1297
 -2      1298      1250      9840     10213     10229      9856     10215     10230     10231      9857
 -1      1832    4    0    1
 -2      5272      5387      5392      5277      5273      5388      5393      5278     10215     10230
 -2     10231      9857      9843     10216     10232      9859     10218     10233     10234      9860
 -1      1833    4    0    1
 -2      5273      5388      5393      5278      5274      5389      5394      5279     10218     10233
 -2     10234      9860      9846     10219     10235      9862     10221     10236     10237      9863
 -1      1834    4    0    1
 -2      5274      5389      5394      5279      5275      5390      5395      5280     10221     10236
 -2     10237      9863      9849     10222     10238      9865     10224     10239     10240      9866
 -1      1835    4    0    1
 -2      5275      5390      5395      5280      5276      5391      5396      5281     10224     10239
 -2     10240      9866      9852     10225     10241      9868     10227     10242     10243      9869
 -1      1836    4    0    1
 -2      5276      5391      5396      5281      3127      3150      3151      3128     10227     10242
 -2     10243      9869      9855     10228     10244      9871      3809      3810      3811      3763
 -1      1837    4    0    1
 -2       615       638       639       616      5277      5392      5397      5282      1298      1299
 -2      1300      1252      9856     10229     10245      9872     10231     10246     10247      9873
 -1      1838    4    0    1
 -2      5277      5392      5397      5282      5278      5393      5398      5283     10231     10246
 -2     10247      9873      9859     10232     10248      9875     10234     10249     10250      9876
 -1      1839    4    0    1
 -2      5278      5393      5398      5283      5279      5394      5399      5284     10234     10249
 -2     10250      9876      9862     10235     10251      9878     10237     10252     10253      9879
 -1      1840    4    0    1
 -2      5279      5394      5399      5284      5280      5395      5400      5285     10237     10252
 -2     10253      9879      9865     10238     10254      9881     10240     10255     10256      9882
 -1      1841    4    0    1
 -2      5280      5395      5400      5285      5281      5396      5401      5286     10240     10255
 -2     10256      9882      9868     10241     10257      9884     10243     10258     10259      9885
 -1      1842    4    0    1
 -2      5281      5396      5401      5286      3128      3151      3152      3129     10243     10258
 -2     10259      9885      9871     10244     10260      9887      3811      3812      3813      3765
 -1      1843    4    0    1
 -2       616       639       640       617      5282      5397      5402      5287      1300      1301
 -2      1302      1254      9872     10245     10261      9888     10247     10262     10263      9889
 -1      1844    4    0    1
 -2      5282      5397      5402      5287      5283      5398      5403      5288     10247     10262
 -2     10263      9889      9875     10248     10264      9891     10250     10265     10266      9892
 -1      1845    4    0    1
 -2      5283      5398      5403      5288      5284      5399      5404      5289     10250     10265
 -2     10266      9892      9878     10251     10267      9894     10253     10268     10269      9895
 -1      1846    4    0    1
 -2      5284      5399      5404      5289      5285      5400      5405      5290     10253     10268
 -2     10269      9895      9881     10254     10270      9897     10256     10271     10272      9898
 -1      1847    4    0    1
 -2      5285      5400      5405      5290      5286      5401      5406      5291     10256     10271
 -2     10272      9898      9884     10257     10273      9900     10259     10274     10275      9901
 -1      1848    4    0    1
 -2      5286      5401      5406      5291      3129      3152      3153      3130     10259     10274
 -2     10275      9901      9887     10260     10276      9903      3813      3814      3815      3767
 -1      1849    4    0    1
 -2       617       640       641       618      5287      5402      5407      5292      1302      1303
 -2      1304      1256      9888     10261     10277      9904     10263     10278     10279      9905
 -1      1850    4    0    1
 -2      5287      5402      5407      5292      5288      5403      5408      5293     10263     10278
 -2     10279      9905      9891     10264     10280      9907     10266     10281     10282      9908
 -1      1851    4    0    1
 -2      5288      5403      5408      5293      5289      5404      5409      5294     10266     10281
 -2     10282      9908      9894     10267     10283      9910     10269     10284     10285      9911
 -1      1852    4    0    1
 -2      5289      5404      5409      5294      5290      5405      5410      5295     10269     10284
 -2     10285      9911      9897     10270     10286      9913     10272     10287     10288      9914
 -1      1853    4    0    1
 -2      5290      5405      5410      5295      5291      5406      5411      5296     10272     10287
 -2     10288      9914      9900     10273     10289      9916     10275     10290     10291      9917
 -1      1854    4    0    1
 -2      5291      5406      5411      5296      3130      3153      3154      3131     10275     10290
 -2     10291      9917      9903     10276     10292      9919      3815      3816      3817      3769
 -1      1855    4    0    1
 -2       618       641       642       619      5292      5407      5412      5297      1304      1305
 -2      1306      1258      9904     10277     10293      9920     10279     10294     10295      9921
 -1      1856    4    0    1
 -2      5292      5407      5412      5297      5293      5408      5413      5298     10279     10294
 -2     10295      9921      9907     10280     10296      9923     10282     10297     10298      9924
 -1      1857    4    0    1
 -2      5293      5408      5413      5298      5294      5409      5414      5299     10282     10297
 -2     10298      9924      9910     10283     10299      9926     10285     10300     10301      9927
 -1      1858    4    0    1
 -2      5294      5409      5414      5299      5295      5410      5415      5300     10285     10300
 -2     10301      9927      9913     10286     10302      9929     10288     10303     10304      9930
 -1      1859    4    0    1
 -2      5295      5410      5415      5300      5296      5411      5416      5301     10288     10303
 -2     10304      9930      9916     10289     10305      9932     10291     10306     10307      9933
 -1      1860    4    0    1
 -2      5296      5411      5416      5301      3131      3154      3155      3132     10291     10306
 -2     10307      9933      9919     10292     10308      9935      3817      3818      3819      3771
 -1      1861    4    0    1
 -2       619       642       643       620      5297      5412      5417      5302      1306      1307
 -2      1308      1260      9920     10293     10309      9936     10295     10310     10311      9937
 -1      1862    4    0    1
 -2      5297      5412      5417      5302      5298      5413      5418      5303     10295     10310
 -2     10311      9937      9923     10296     10312      9939     10298     10313     10314      9940
 -1      1863    4    0    1
 -2      5298      5413      5418      5303      5299      5414      5419      5304     10298     10313
 -2     10314      9940      9926     10299     10315      9942     10301     10316     10317      9943
 -1      1864    4    0    1
 -2      5299      5414      5419      5304      5300      5415      5420      5305     10301     10316
 -2     10317      9943      9929     10302     10318      9945     10304     10319     10320      9946
 -1      1865    4    0    1
 -2      5300      5415      5420      5305      5301      5416      5421      5306     10304     10319
 -2     10320      9946      9932     10305     10321      9948     10307     10322     10323      9949
 -1      1866    4    0    1
 -2      5301      5416      5421      5306      3132      3155      3156      3133     10307     10322
 -2     10323      9949      9935     10308     10324      9951      3819      3820      3821      3773
 -1      1867    4    0    1
 -2       620       643       644       621      5302      5417      5422      5307      1308      1309
 -2      1310      1262      9936     10309     10325      9952     10311     10326     10327      9953
 -1      1868    4    0    1
 -2      5302      5417      5422      5307      5303      5418      5423      5308     10311     10326
 -2     10327      9953      9939     10312     10328      9955     10314     10329     10330      9956
 -1      1869    4    0    1
 -2      5303      5418      5423      5308      5304      5419      5424      5309     10314     10329
 -2     10330      9956      9942     10315     10331      9958     10317     10332     10333      9959
 -1      1870    4    0    1
 -2      5304      5419      5424      5309      5305      5420      5425      5310     10317     10332
 -2     10333      9959      9945     10318     10334      9961     10320     10335     10336      9962
 -1      1871    4    0    1
 -2      5305      5420      5425      5310      5306      5421      5426      5311     10320     10335
 -2     10336      9962      9948     10321     10337      9964     10323     10338     10339      9965
 -1      1872    4    0    1
 -2      5306      5421      5426      5311      3133      3156      3157      3134     10323     10338
 -2     10339      9965      9951     10324     10340      9967      3821      3822      3823      3775
 -1      1873    4    0    1
 -2       621       644       645       622      5307      5422      5427      5312      1310      1311
 -2      1312      1264      9952     10325     10341      9968     10327     10342     10343      9969
 -1      1874    4    0    1
 -2      5307      5422      5427      5312      5308      5423      5428      5313     10327     10342
 -2     10343      9969      9955     10328     10344      9971     10330     10345     10346      9972
 -1      1875    4    0    1
 -2      5308      5423      5428      5313      5309      5424      5429      5314     10330     10345
 -2     10346      9972      9958     10331     10347      9974     10333     10348     10349      9975
 -1      1876    4    0    1
 -2      5309      5424      5429      5314      5310      5425      5430      5315     10333     10348
 -2     10349      9975      9961     10334     10350      9977     10336     10351     10352      9978
 -1      1877    4    0    1
 -2      5310      5425      5430      5315      5311      5426      5431      5316     10336     10351
 -2     10352      9978      9964     10337     10353      9980     10339     10354     10355      9981
 -1      1878    4    0    1
 -2      5311      5426      5431      5316      3134      3157      3158      3135     10339     10354
 -2     10355      9981      9967     10340     10356      9983      3823      3824      3825      3777
 -1      1879    4    0    1
 -2       622       645       646       623      5312      5427      5432      5317      1312      1313
 -2      1314      1266      9968     10341     10357      9984     10343     10358     10359      9985
 -1      1880    4    0    1
 -2      5312      5427      5432      5317      5313      5428      5433      5318     10343     10358
 -2     10359      9985      9971     10344     10360      9987     10346     10361     10362      9988
 -1      1881    4    0    1
 -2      5313      5428      5433      5318      5314      5429      5434      5319     10346     10361
 -2     10362      9988      9974     10347     10363      9990     10349     10364     10365      9991
 -1      1882    4    0    1
 -2      5314      5429      5434      5319      5315      5430      5435      5320     10349     10364
 -2     10365      9991      9977     10350     10366      9993     10352     10367     10368      9994
 -1      1883    4    0    1
 -2      5315      5430      5435      5320      5316      5431      5436      5321     10352     10367
 -2     10368      9994      9980     10353     10369      9996     10355     10370     10371      9997
 -1      1884    4    0    1
 -2      5316      5431      5436      5321      3135      3158      3159      3136     10355     10370
 -2     10371      9997      9983     10356     10372      9999      3825      3826      3827      3779
 -1      1885    4    0    1
 -2       623       646       647       624      5317      5432      5437      5322      1314      1315
 -2      1316      1268      9984     10357     10373     10000     10359     10374     10375     10001
 -1      1886    4    0    1
 -2      5317      5432      5437      5322      5318      5433      5438      5323     10359     10374
 -2     10375     10001      9987     10360     10376     10003     10362     10377     10378     10004
 -1      1887    4    0    1
 -2      5318      5433      5438      5323      5319      5434      5439      5324     10362     10377
 -2     10378     10004      9990     10363     10379     10006     10365     10380     10381     10007
 -1      1888    4    0    1
 -2      5319      5434      5439      5324      5320      5435      5440      5325     10365     10380
 -2     10381     10007      9993     10366     10382     10009     10368     10383     10384     10010
 -1      1889    4    0    1
 -2      5320      5435      5440      5325      5321      5436      5441      5326     10368     10383
 -2     10384     10010      9996     10369     10385     10012     10371     10386     10387     10013
 -1      1890    4    0    1
 -2      5321      5436      5441      5326      3136      3159      3160      3137     10371     10386
 -2     10387     10013      9999     10372     10388     10015      3827      3828      3829      3781
 -1      1891    4    0    1
 -2       624       647       648       625      5322      5437      5442      5327      1316      1317
 -2      1318      1270     10000     10373     10389     10016     10375     10390     10391     10017
 -1      1892    4    0    1
 -2      5322      5437      5442      5327      5323      5438      5443      5328     10375     10390
 -2     10391     10017     10003     10376     10392     10019     10378     10393     10394     10020
 -1      1893    4    0    1
 -2      5323      5438      5443      5328      5324      5439      5444      5329     10378     10393
 -2     10394     10020     10006     10379     10395     10022     10381     10396     10397     10023
 -1      1894    4    0    1
 -2      5324      5439      5444      5329      5325      5440      5445      5330     10381     10396
 -2     10397     10023     10009     10382     10398     10025     10384     10399     10400     10026
 -1      1895    4    0    1
 -2      5325      5440      5445      5330      5326      5441      5446      5331     10384     10399
 -2     10400     10026     10012     10385     10401     10028     10387     10402     10403     10029
 -1      1896    4    0    1
 -2      5326      5441      5446      5331      3137      3160      3161      3138     10387     10402
 -2     10403     10029     10015     10388     10404     10031      3829      3830      3831      3783
 -1      1897    4    0    1
 -2       625       648       649       626      5327      5442      5447      5332      1318      1319
 -2      1320      1272     10016     10389     10405     10032     10391     10406     10407     10033
 -1      1898    4    0    1
 -2      5327      5442      5447      5332      5328      5443      5448      5333     10391     10406
 -2     10407     10033     10019     10392     10408     10035     10394     10409     10410     10036
 -1      1899    4    0    1
 -2      5328      5443      5448      5333      5329      5444      5449      5334     10394     10409
 -2     10410     10036     10022     10395     10411     10038     10397     10412     10413     10039
 -1      1900    4    0    1
 -2      5329      5444      5449      5334      5330      5445      5450      5335     10397     10412
 -2     10413     10039     10025     10398     10414     10041     10400     10415     10416     10042
 -1      1901    4    0    1
 -2      5330      5445      5450      5335      5331      5446      5451      5336     10400     10415
 -2     10416     10042     10028     10401     10417     10044     10403     10418     10419     10045
 -1      1902    4    0    1
 -2      5331      5446      5451      5336      3138      3161      3162      3139     10403     10418
 -2     10419     10045     10031     10404     10420     10047      3831      3832      3833      3785
 -1      1903    4    0    1
 -2       626       649       650       627      5332      5447      5452      5337      1320      1321
 -2      1322      1274     10032     10405     10421     10048     10407     10422     10423     10049
 -1      1904    4    0    1
 -2      5332      5447      5452      5337      5333      5448      5453      5338     10407     10422
 -2     10423     10049     10035     10408     10424     10051     10410     10425     10426     10052
 -1      1905    4    0    1
 -2      5333      5448      5453      5338      5334      5449      5454      5339     10410     10425
 -2     10426     10052     10038     10411     10427     10054     10413     10428     10429     10055
 -1      1906    4    0    1
 -2      5334      5449      5454      5339      5335      5450      5455      5340     10413     10428
 -2     10429     10055     10041     10414     10430     10057     10416     10431     10432     10058
 -1      1907    4    0    1
 -2      5335      5450      5455      5340      5336      5451      5456      5341     10416     10431
 -2     10432     10058     10044     10417     10433     10060     10419     10434     10435     10061
 -1      1908    4    0    1
 -2      5336      5451      5456      5341      3139      3162      3163      3140     10419     10434
 -2     10435     10061     10047     10420     10436     10063      3833      3834      3835      3787
 -1      1909    4    0    1
 -2       627       650       651       628      5337      5452      5457      5342      1322      1323
 -2      1324      1276     10048     10421     10437     10064     10423     10438     10439     10065
 -1      1910    4    0    1
 -2      5337      5452      5457      5342      5338      5453      5458      5343     10423     10438
 -2     10439     10065     10051     10424     10440     10067     10426     10441     10442     10068
 -1      1911    4    0    1
 -2      5338      5453      5458      5343      5339      5454      5459      5344     10426     10441
 -2     10442     10068     10054     10427     10443     10070     10429     10444     10445     10071
 -1      1912    4    0    1
 -2      5339      5454      5459      5344      5340      5455      5460      5345     10429     10444
 -2     10445     10071     10057     10430     10446     10073     10432     10447     10448     10074
 -1      1913    4    0    1
 -2      5340      5455      5460      5345      5341      5456      5461      5346     10432     10447
 -2     10448     10074     10060     10433     10449     10076     10435     10450     10451     10077
 -1      1914    4    0    1
 -2      5341      5456      5461      5346      3140      3163      3164      3141     10435     10450
 -2     10451     10077     10063     10436     10452     10079      3835      3836      3837      3789
 -1      1915    4    0    1
 -2       628       651       652       629      5342      5457      5462      5347      1324      1325
 -2      1326      1278     10064     10437     10453     10080     10439     10454     10455     10081
 -1      1916    4    0    1
 -2      5342      5457      5462      5347      5343      5458      5463      5348     10439     10454
 -2     10455     10081     10067     10440     10456     10083     10442     10457     10458     10084
 -1      1917    4    0    1
 -2      5343      5458      5463      5348      5344      5459      5464      5349     10442     10457
 -2     10458     10084     10070     10443     10459     10086     10445     10460     10461     10087
 -1      1918    4    0    1
 -2      5344      5459      5464      5349      5345      5460      5465      5350     10445     10460
 -2     10461     10087     10073     10446     10462     10089     10448     10463     10464     10090
 -1      1919    4    0    1
 -2      5345      5460      5465      5350      5346      5461      5466      5351     10448     10463
 -2     10464     10090     10076     10449     10465     10092     10451     10466     10467     10093
 -1      1920    4    0    1
 -2      5346      5461      5466      5351      3141      3164      3165      3142     10451     10466
 -2     10467     10093     10079     10452     10468     10095      3837      3838      3839      3791
 -1      1921    4    0    1
 -2       629       652       653       630      5347      5462      5467      5352      1326      1327
 -2      1328      1280     10080     10453     10469     10096     10455     10470     10471     10097
 -1      1922    4    0    1
 -2      5347      5462      5467      5352      5348      5463      5468      5353     10455     10470
 -2     10471     10097     10083     10456     10472     10099     10458     10473     10474     10100
 -1      1923    4    0    1
 -2      5348      5463      5468      5353      5349      5464      5469      5354     10458     10473
 -2     10474     10100     10086     10459     10475     10102     10461     10476     10477     10103
 -1      1924    4    0    1
 -2      5349      5464      5469      5354      5350      5465      5470      5355     10461     10476
 -2     10477     10103     10089     10462     10478     10105     10464     10479     10480     10106
 -1      1925    4    0    1
 -2      5350      5465      5470      5355      5351      5466      5471      5356     10464     10479
 -2     10480     10106     10092     10465     10481     10108     10467     10482     10483     10109
 -1      1926    4    0    1
 -2      5351      5466      5471      5356      3142      3165      3166      3143     10467     10482
 -2     10483     10109     10095     10468     10484     10111      3839      3840      3841      3793
 -1      1927    4    0    1
 -2       630       653       654       631      5352      5467      5472      5357      1328      1329
 -2      1330      1282     10096     10469     10485     10112     10471     10486     10487     10113
 -1      1928    4    0    1
 -2      5352      5467      5472      5357      5353      5468      5473      5358     10471     10486
 -2     10487     10113     10099     10472     10488     10115     10474     10489     10490     10116
 -1      1929    4    0    1
 -2      5353      5468      5473      5358      5354      5469      5474      5359     10474     10489
 -2     10490     10116     10102     10475     10491     10118     10477     10492     10493     10119
 -1      1930    4    0    1
 -2      5354      5469      5474      5359      5355      5470      5475      5360     10477     10492
 -2     10493     10119     10105     10478     10494     10121     10480     10495     10496     10122
 -1      1931    4    0    1
 -2      5355      5470      5475      5360      5356      5471      5476      5361     10480     10495
 -2     10496     10122     10108     10481     10497     10124     10483     10498     10499     10125
 -1      1932    4    0    1
 -2      5356      5471      5476      5361      3143      3166      3167      3144     10483     10498
 -2     10499     10125     10111     10484     10500     10127      3841      3842      3843      3795
 -1      1933    4    0    1
 -2       631       654       655       632      5357      5472      5477      5362      1330      1331
 -2      1332      1284     10112     10485     10501     10128     10487     10502     10503     10129
 -1      1934    4    0    1
 -2      5357      5472      5477      5362      5358      5473      5478      5363     10487     10502
 -2     10503     10129     10115     10488     10504     10131     10490     10505     10506     10132
 -1      1935    4    0    1
 -2      5358      5473      5478      5363      5359      5474      5479      5364     10490     10505
 -2     10506     10132     10118     10491     10507     10134     10493     10508     10509     10135
 -1      1936    4    0    1
 -2      5359      5474      5479      5364      5360      5475      5480      5365     10493     10508
 -2     10509     10135     10121     10494     10510     10137     10496     10511     10512     10138
 -1      1937    4    0    1
 -2      5360      5475      5480      5365      5361      5476      5481      5366     10496     10511
 -2     10512     10138     10124     10497     10513     10140     10499     10514     10515     10141
 -1      1938    4    0    1
 -2      5361      5476      5481      5366      3144      3167      3168      3145     10499     10514
 -2     10515     10141     10127     10500     10516     10143      3843      3844      3845      3797
 -1      1939    4    0    1
 -2       632       655       656       633      5362      5477      5482      5367      1332      1333
 -2      1334      1286     10128     10501     10517     10144     10503     10518     10519     10145
 -1      1940    4    0    1
 -2      5362      5477      5482      5367      5363      5478      5483      5368     10503     10518
 -2     10519     10145     10131     10504     10520     10147     10506     10521     10522     10148
 -1      1941    4    0    1
 -2      5363      5478      5483      5368      5364      5479      5484      5369     10506     10521
 -2     10522     10148     10134     10507     10523     10150     10509     10524     10525     10151
 -1      1942    4    0    1
 -2      5364      5479      5484      5369      5365      5480      5485      5370     10509     10524
 -2     10525     10151     10137     10510     10526     10153     10512     10527     10528     10154
 -1      1943    4    0    1
 -2      5365      5480      5485      5370      5366      5481      5486      5371     10512     10527
 -2     10528     10154     10140     10513     10529     10156     10515     10530     10531     10157
 -1      1944    4    0    1
 -2      5366      5481      5486      5371      3145      3168      3169      3146     10515     10530
 -2     10531     10157     10143     10516     10532     10159      3845      3846      3847      3799
 -1      1945    4    0    1
 -2       633       656        96        97      5367      5482      2269      2274      1334      1335
 -2       114      1288     10144     10517      2384      2395     10519     10533      2396     10160
 -1      1946    4    0    1
 -2      5367      5482      2269      2274      5368      5483      2270      2275     10519     10533
 -2      2396     10160     10147     10520      2386      2397     10522     10534      2398     10161
 -1      1947    4    0    1
 -2      5368      5483      2270      2275      5369      5484      2271      2276     10522     10534
 -2      2398     10161     10150     10523      2388      2399     10525     10535      2400     10162
 -1      1948    4    0    1
 -2      5369      5484      2271      2276      5370      5485      2272      2277     10525     10535
 -2      2400     10162     10153     10526      2390      2401     10528     10536      2402     10163
 -1      1949    4    0    1
 -2      5370      5485      2272      2277      5371      5486      2273      2278     10528     10536
 -2      2402     10163     10156     10529      2392      2403     10531     10537      2404     10164
 -1      1950    4    0    1
 -2      5371      5486      2273      2278      3146      3169       260       261     10531     10537
 -2      2404     10164     10159     10532      2394      2405      3847      3848       278      3801
 -1      1951    4    0    1
 -2        20        21       657       634      1649      1654      5487      5372        38      1336
 -2      1337      1289      1800      1811     10538     10165      1812     10539     10540     10166
 -1      1952    4    0    1
 -2      1649      1654      5487      5372      1650      1655      5488      5373      1812     10539
 -2     10540     10166      1802      1813     10541     10168      1814     10542     10543     10169
 -1      1953    4    0    1
 -2      1650      1655      5488      5373      1651      1656      5489      5374      1814     10542
 -2     10543     10169      1804      1815     10544     10171      1816     10545     10546     10172
 -1      1954    4    0    1
 -2      1651      1656      5489      5374      1652      1657      5490      5375      1816     10545
 -2     10546     10172      1806      1817     10547     10174      1818     10548     10549     10175
 -1      1955    4    0    1
 -2      1652      1657      5490      5375      1653      1658      5491      5376      1818     10548
 -2     10549     10175      1808      1819     10550     10177      1820     10551     10552     10178
 -1      1956    4    0    1
 -2      1653      1658      5491      5376       184       185      3170      3147      1820     10551
 -2     10552     10178      1810      1821     10553     10180       202      3849      3850      3802
 -1      1957    4    0    1
 -2       634       657       658       635      5372      5487      5492      5377      1337      1338
 -2      1339      1291     10165     10538     10554     10181     10540     10555     10556     10182
 -1      1958    4    0    1
 -2      5372      5487      5492      5377      5373      5488      5493      5378     10540     10555
 -2     10556     10182     10168     10541     10557     10184     10543     10558     10559     10185
 -1      1959    4    0    1
 -2      5373      5488      5493      5378      5374      5489      5494      5379     10543     10558
 -2     10559     10185     10171     10544     10560     10187     10546     10561     10562     10188
 -1      1960    4    0    1
 -2      5374      5489      5494      5379      5375      5490      5495      5380     10546     10561
 -2     10562     10188     10174     10547     10563     10190     10549     10564     10565     10191
 -1      1961    4    0    1
 -2      5375      5490      5495      5380      5376      5491      5496      5381     10549     10564
 -2     10565     10191     10177     10550     10566     10193     10552     10567     10568     10194
 -1      1962    4    0    1
 -2      5376      5491      5496      5381      3147      3170      3171      3148     10552     10567
 -2     10568     10194     10180     10553     10569     10196      3850      3851      3852      3804
 -1      1963    4    0    1
 -2       635       658       659       636      5377      5492      5497      5382      1339      1340
 -2      1341      1293     10181     10554     10570     10197     10556     10571     10572     10198
 -1      1964    4    0    1
 -2      5377      5492      5497      5382      5378      5493      5498      5383     10556     10571
 -2     10572     10198     10184     10557     10573     10200     10559     10574     10575     10201
 -1      1965    4    0    1
 -2      5378      5493      5498      5383      5379      5494      5499      5384     10559     10574
 -2     10575     10201     10187     10560     10576     10203     10562     10577     10578     10204
 -1      1966    4    0    1
 -2      5379      5494      5499      5384      5380      5495      5500      5385     10562     10577
 -2     10578     10204     10190     10563     10579     10206     10565     10580     10581     10207
 -1      1967    4    0    1
 -2      5380      5495      5500      5385      5381      5496      5501      5386     10565     10580
 -2     10581     10207     10193     10566     10582     10209     10568     10583     10584     10210
 -1      1968    4    0    1
 -2      5381      5496      5501      5386      3148      3171      3172      3149     10568     10583
 -2     10584     10210     10196     10569     10585     10212      3852      3853      3854      3806
 -1      1969    4    0    1
 -2       636       659       660       637      5382      5497      5502      5387      1341      1342
 -2      1343      1295     10197     10570     10586     10213     10572     10587     10588     10214
 -1      1970    4    0    1
 -2      5382      5497      5502      5387      5383      5498      5503      5388     10572     10587
 -2     10588     10214     10200     10573     10589     10216     10575     10590     10591     10217
 -1      1971    4    0    1
 -2      5383      5498      5503      5388      5384      5499      5504      5389     10575     10590
 -2     10591     10217     10203     10576     10592     10219     10578     10593     10594     10220
 -1      1972    4    0    1
 -2      5384      5499      5504      5389      5385      5500      5505      5390     10578     10593
 -2     10594     10220     10206     10579     10595     10222     10581     10596     10597     10223
 -1      1973    4    0    1
 -2      5385      5500      5505      5390      5386      5501      5506      5391     10581     10596
 -2     10597     10223     10209     10582     10598     10225     10584     10599     10600     10226
 -1      1974    4    0    1
 -2      5386      5501      5506      5391      3149      3172      3173      3150     10584     10599
 -2     10600     10226     10212     10585     10601     10228      3854      3855      3856      3808
 -1      1975    4    0    1
 -2       637       660       661       638      5387      5502      5507      5392      1343      1344
 -2      1345      1297     10213     10586     10602     10229     10588     10603     10604     10230
 -1      1976    4    0    1
 -2      5387      5502      5507      5392      5388      5503      5508      5393     10588     10603
 -2     10604     10230     10216     10589     10605     10232     10591     10606     10607     10233
 -1      1977    4    0    1
 -2      5388      5503      5508      5393      5389      5504      5509      5394     10591     10606
 -2     10607     10233     10219     10592     10608     10235     10594     10609     10610     10236
 -1      1978    4    0    1
 -2      5389      5504      5509      5394      5390      5505      5510      5395     10594     10609
 -2     10610     10236     10222     10595     10611     10238     10597     10612     10613     10239
 -1      1979    4    0    1
 -2      5390      5505      5510      5395      5391      5506      5511      5396     10597     10612
 -2     10613     10239     10225     10598     10614     10241     10600     10615     10616     10242
 -1      1980    4    0    1
 -2      5391      5506      5511      5396      3150      3173      3174      3151     10600     10615
 -2     10616     10242     10228     10601     10617     10244      3856      3857      3858      3810
 -1      1981    4    0    1
 -2       638       661       662       639      5392      5507      5512      5397      1345      1346
 -2      1347      1299     10229     10602     10618     10245     10604     10619     10620     10246
 -1      1982    4    0    1
 -2      5392      5507      5512      5397      5393      5508      5513      5398     10604     10619
 -2     10620     10246     10232     10605     10621     10248     10607     10622     10623     10249
 -1      1983    4    0    1
 -2      5393      5508      5513      5398      5394      5509      5514      5399     10607     10622
 -2     10623     10249     10235     10608     10624     10251     10610     10625     10626     10252
 -1      1984    4    0    1
 -2      5394      5509      5514      5399      5395      5510      5515      5400     10610     10625
 -2     10626     10252     10238     10611     10627     10254     10613     10628     10629     10255
 -1      1985    4    0    1
 -2      5395      5510      5515      5400      5396      5511      5516      5401     10613     10628
 -2     10629     10255     10241     10614     10630     10257     10616     10631     10632     10258
 -1      1986    4    0    1
 -2      5396      5511      5516      5401      3151      3174      3175      3152     10616     10631
 -2     10632     10258     10244     10617     10633     10260      3858      3859      3860      3812
 -1      1987    4    0    1
 -2       639       662       663       640      5397      5512      5517      5402      1347      1348
 -2      1349      1301     10245     10618     10634     10261     10620     10635     10636     10262
 -1      1988    4    0    1
 -2      5397      5512      5517      5402      5398      5513      5518      5403     10620     10635
 -2     10636     10262     10248     10621     10637     10264     10623     10638     10639     10265
 -1      1989    4    0    1
 -2      5398      5513      5518      5403      5399      5514      5519      5404     10623     10638
 -2     10639     10265     10251     10624     10640     10267     10626     10641     10642     10268
 -1      1990    4    0    1
 -2      5399      5514      5519      5404      5400      5515      5520      5405     10626     10641
 -2     10642     10268     10254     10627     10643     10270     10629     10644     10645     10271
 -1      1991    4    0    1
 -2      5400      5515      5520      5405      5401      5516      5521      5406     10629     10644
 -2     10645     10271     10257     10630     10646     10273     10632     10647     10648     10274
 -1      1992    4    0    1
 -2      5401      5516      5521      5406      3152      3175      3176      3153     10632     10647
 -2     10648     10274     10260     10633     10649     10276      3860      3861      3862      3814
 -1      1993    4    0    1
 -2       640       663       664       641      5402      5517      5522      5407      1349      1350
 -2      1351      1303     10261     10634     10650     10277     10636     10651     10652     10278
 -1      1994    4    0    1
 -2      5402      5517      5522      5407      5403      5518      5523      5408     10636     10651
 -2     10652     10278     10264     10637     10653     10280     10639     10654     10655     10281
 -1      1995    4    0    1
 -2      5403      5518      5523      5408      5404      5519      5524      5409     10639     10654
 -2     10655     10281     10267     10640     10656     10283     10642     10657     10658     10284
 -1      1996    4    0    1
 -2      5404      5519      5524      5409      5405      5520      5525      5410     10642     10657
 -2     10658     10284     10270     10643     10659     10286     10645     10660     10661     10287
 -1      1997    4    0    1
 -2      5405      5520      5525      5410      5406      5521      5526      5411     10645     10660
 -2     10661     10287     10273     10646     10662     10289     10648     10663     10664     10290
 -1      1998    4    0    1
 -2      5406      5521      5526      5411      3153      3176      3177      3154     10648     10663
 -2     10664     10290     10276     10649     10665     10292      3862      3863      3864      3816
 -1      1999    4    0    1
 -2       641       664       665       642      5407      5522      5527      5412      1351      1352
 -2      1353      1305     10277     10650     10666     10293     10652     10667     10668     10294
 -1      2000    4    0    1
 -2      5407      5522      5527      5412      5408      5523      5528      5413     10652     10667
 -2     10668     10294     10280     10653     10669     10296     10655     10670     10671     10297
 -1      2001    4    0    1
 -2      5408      5523      5528      5413      5409      5524      5529      5414     10655     10670
 -2     10671     10297     10283     10656     10672     10299     10658     10673     10674     10300
 -1      2002    4    0    1
 -2      5409      5524      5529      5414      5410      5525      5530      5415     10658     10673
 -2     10674     10300     10286     10659     10675     10302     10661     10676     10677     10303
 -1      2003    4    0    1
 -2      5410      5525      5530      5415      5411      5526      5531      5416     10661     10676
 -2     10677     10303     10289     10662     10678     10305     10664     10679     10680     10306
 -1      2004    4    0    1
 -2      5411      5526      5531      5416      3154      3177      3178      3155     10664     10679
 -2     10680     10306     10292     10665     10681     10308      3864      3865      3866      3818
 -1      2005    4    0    1
 -2       642       665       666       643      5412      5527      5532      5417      1353      1354
 -2      1355      1307     10293     10666     10682     10309     10668     10683     10684     10310
 -1      2006    4    0    1
 -2      5412      5527      5532      5417      5413      5528      5533      5418     10668     10683
 -2     10684     10310     10296     10669     10685     10312     10671     10686     10687     10313
 -1      2007    4    0    1
 -2      5413      5528      5533      5418      5414      5529      5534      5419     10671     10686
 -2     10687     10313     10299     10672     10688     10315     10674     10689     10690     10316
 -1      2008    4    0    1
 -2      5414      5529      5534      5419      5415      5530      5535      5420     10674     10689
 -2     10690     10316     10302     10675     10691     10318     10677     10692     10693     10319
 -1      2009    4    0    1
 -2      5415      5530      5535      5420      5416      5531      5536      5421     10677     10692
 -2     10693     10319     10305     10678     10694     10321     10680     10695     10696     10322
 -1      2010    4    0    1
 -2      5416      5531      5536      5421      3155      3178      3179      3156     10680     10695
 -2     10696     10322     10308     10681     10697     10324      3866      3867      3868      3820
 -1      2011    4    0    1
 -2       643       666       667       644      5417      5532      5537      5422      1355      1356
 -2      1357      1309     10309     10682     10698     10325     10684     10699     10700     10326
 -1      2012    4    0    1
 -2      5417      5532      5537      5422      5418      5533      5538      5423     10684     10699
 -2     10700     10326     10312     10685     10701     10328     10687     10702     10703     10329
 -1      2013    4    0    1
 -2      5418      5533      5538      5423      5419      5534      5539      5424     10687     10702
 -2     10703     10329     10315     10688     10704     10331     10690     10705     10706     10332
 -1      2014    4    0    1
 -2      5419      5534      5539      5424      5420      5535      5540      5425     10690     10705
 -2     10706     10332     10318     10691     10707     10334     10693     10708     10709     10335
 -1      2015    4    0    1
 -2      5420      5535      5540      5425      5421      5536      5541      5426     10693     10708
 -2     10709     10335     10321     10694     10710     10337     10696     10711     10712     10338
 -1      2016    4    0    1
 -2      5421      5536      5541      5426      3156      3179      3180      3157     10696     10711
 -2     10712     10338     10324     10697     10713     10340      3868      3869      3870      3822
 -1      2017    4    0    1
 -2       644       667       668       645      5422      5537      5542      5427      1357      1358
 -2      1359      1311     10325     10698     10714     10341     10700     10715     10716     10342
 -1      2018    4    0    1
 -2      5422      5537      5542      5427      5423      5538      5543      5428     10700     10715
 -2     10716     10342     10328     10701     10717     10344     10703     10718     10719     10345
 -1      2019    4    0    1
 -2      5423      5538      5543      5428      5424      5539      5544      5429     10703     10718
 -2     10719     10345     10331     10704     10720     10347     10706     10721     10722     10348
 -1      2020    4    0    1
 -2      5424      5539      5544      5429      5425      5540      5545      5430     10706     10721
 -2     10722     10348     10334     10707     10723     10350     10709     10724     10725     10351
 -1      2021    4    0    1
 -2      5425      5540      5545      5430      5426      5541      5546      5431     10709     10724
 -2     10725     10351     10337     10710     10726     10353     10712     10727     10728     10354
 -1      2022    4    0    1
 -2      5426      5541      5546      5431      3157      3180      3181      3158     10712     10727
 -2     10728     10354     10340     10713     10729     10356      3870      3871      3872      3824
 -1      2023    4    0    1
 -2       645       668       669       646      5427      5542      5547      5432      1359      1360
 -2      1361      1313     10341     10714     10730     10357     10716     10731     10732     10358
 -1      2024    4    0    1
 -2      5427      5542      5547      5432      5428      5543      5548      5433     10716     10731
 -2     10732     10358     10344     10717     10733     10360     10719     10734     10735     10361
 -1      2025    4    0    1
 -2      5428      5543      5548      5433      5429      5544      5549      5434     10719     10734
 -2     10735     10361     10347     10720     10736     10363     10722     10737     10738     10364
 -1      2026    4    0    1
 -2      5429      5544      5549      5434      5430      5545      5550      5435     10722     10737
 -2     10738     10364     10350     10723     10739     10366     10725     10740     10741     10367
 -1      2027    4    0    1
 -2      5430      5545      5550      5435      5431      5546      5551      5436     10725     10740
 -2     10741     10367     10353     10726     10742     10369     10728     10743     10744     10370
 -1      2028    4    0    1
 -2      5431      5546      5551      5436      3158      3181      3182      3159     10728     10743
 -2     10744     10370     10356     10729     10745     10372      3872      3873      3874      3826
 -1      2029    4    0    1
 -2       646       669       670       647      5432      5547      5552      5437      1361      1362
 -2      1363      1315     10357     10730     10746     10373     10732     10747     10748     10374
 -1      2030    4    0    1
 -2      5432      5547      5552      5437      5433      5548      5553      5438     10732     10747
 -2     10748     10374     10360     10733     10749     10376     10735     10750     10751     10377
 -1      2031    4    0    1
 -2      5433      5548      5553      5438      5434      5549      5554      5439     10735     10750
 -2     10751     10377     10363     10736     10752     10379     10738     10753     10754     10380
 -1      2032    4    0    1
 -2      5434      5549      5554      5439      5435      5550      5555      5440     10738     10753
 -2     10754     10380     10366     10739     10755     10382     10741     10756     10757     10383
 -1      2033    4    0    1
 -2      5435      5550      5555      5440      5436      5551      5556      5441     10741     10756
 -2     10757     10383     10369     10742     10758     10385     10744     10759     10760     10386
 -1      2034    4    0    1
 -2      5436      5551      5556      5441      3159      3182      3183      3160     10744     10759
 -2     10760     10386     10372     10745     10761     10388      3874      3875      3876      3828
 -1      2035    4    0    1
 -2       647       670       671       648      5437      5552      5557      5442      1363      1364
 -2      1365      1317     10373     10746     10762     10389     10748     10763     10764     10390
 -1      2036    4    0    1
 -2      5437      5552      5557      5442      5438      5553      5558      5443     10748     10763
 -2     10764     10390     10376     10749     10765     10392     10751     10766     10767     10393
 -1      2037    4    0    1
 -2      5438      5553      5558      5443      5439      5554      5559      5444     10751     10766
 -2     10767     10393     10379     10752     10768     10395     10754     10769     10770     10396
 -1      2038    4    0    1
 -2      5439      5554      5559      5444      5440      5555      5560      5445     10754     10769
 -2     10770     10396     10382     10755     10771     10398     10757     10772     10773     10399
 -1      2039    4    0    1
 -2      5440      5555      5560      5445      5441      5556      5561      5446     10757     10772
 -2     10773     10399     10385     10758     10774     10401     10760     10775     10776     10402
 -1      2040    4    0    1
 -2      5441      5556      5561      5446      3160      3183      3184      3161     10760     10775
 -2     10776     10402     10388     10761     10777     10404      3876      3877      3878      3830
 -1      2041    4    0    1
 -2       648       671       672       649      5442      5557      5562      5447      1365      1366
 -2      1367      1319     10389     10762     10778     10405     10764     10779     10780     10406
 -1      2042    4    0    1
 -2      5442      5557      5562      5447      5443      5558      5563      5448     10764     10779
 -2     10780     10406     10392     10765     10781     10408     10767     10782     10783     10409
 -1      2043    4    0    1
 -2      5443      5558      5563      5448      5444      5559      5564      5449     10767     10782
 -2     10783     10409     10395     10768     10784     10411     10770     10785     10786     10412
 -1      2044    4    0    1
 -2      5444      5559      5564      5449      5445      5560      5565      5450     10770     10785
 -2     10786     10412     10398     10771     10787     10414     10773     10788     10789     10415
 -1      2045    4    0    1
 -2      5445      5560      5565      5450      5446      5561      5566      5451     10773     10788
 -2     10789     10415     10401     10774     10790     10417     10776     10791     10792     10418
 -1      2046    4    0    1
 -2      5446      5561      5566      5451      3161      3184      3185      3162     10776     10791
 -2     10792     10418     10404     10777     10793     10420      3878      3879      3880      3832
 -1      2047    4    0    1
 -2       649       672       673       650      5447      5562      5567      5452      1367      1368
 -2      1369      1321     10405     10778     10794     10421     10780     10795     10796     10422
 -1      2048    4    0    1
 -2      5447      5562      5567      5452      5448      5563      5568      5453     10780     10795
 -2     10796     10422     10408     10781     10797     10424     10783     10798     10799     10425
 -1      2049    4    0    1
 -2      5448      5563      5568      5453      5449      5564      5569      5454     10783     10798
 -2     10799     10425     10411     10784     10800     10427     10786     10801     10802     10428
 -1      2050    4    0    1
 -2      5449      5564      5569      5454      5450      5565      5570      5455     10786     10801
 -2     10802     10428     10414     10787     10803     10430     10789     10804     10805     10431
 -1      2051    4    0    1
 -2      5450      5565      5570      5455      5451      5566      5571      5456     10789     10804
 -2     10805     10431     10417     10790     10806     10433     10792     10807     10808     10434
 -1      2052    4    0    1
 -2      5451      5566      5571      5456      3162      3185      3186      3163     10792     10807
 -2     10808     10434     10420     10793     10809     10436      3880      3881      3882      3834
 -1      2053    4    0    1
 -2       650       673       674       651      5452      5567      5572      5457      1369      1370
 -2      1371      1323     10421     10794     10810     10437     10796     10811     10812     10438
 -1      2054    4    0    1
 -2      5452      5567      5572      5457      5453      5568      5573      5458     10796     10811
 -2     10812     10438     10424     10797     10813     10440     10799     10814     10815     10441
 -1      2055    4    0    1
 -2      5453      5568      5573      5458      5454      5569      5574      5459     10799     10814
 -2     10815     10441     10427     10800     10816     10443     10802     10817     10818     10444
 -1      2056    4    0    1
 -2      5454      5569      5574      5459      5455      5570      5575      5460     10802     10817
 -2     10818     10444     10430     10803     10819     10446     10805     10820     10821     10447
 -1      2057    4    0    1
 -2      5455      5570      5575      5460      5456      5571      5576      5461     10805     10820
 -2     10821     10447     10433     10806     10822     10449     10808     10823     10824     10450
 -1      2058    4    0    1
 -2      5456      5571      5576      5461      3163      3186      3187      3164     10808     10823
 -2     10824     10450     10436     10809     10825     10452      3882      3883      3884      3836
 -1      2059    4    0    1
 -2       651       674       675       652      5457      5572      5577      5462      1371      1372
 -2      1373      1325     10437     10810     10826     10453     10812     10827     10828     10454
 -1      2060    4    0    1
 -2      5457      5572      5577      5462      5458      5573      5578      5463     10812     10827
 -2     10828     10454     10440     10813     10829     10456     10815     10830     10831     10457
 -1      2061    4    0    1
 -2      5458      5573      5578      5463      5459      5574      5579      5464     10815     10830
 -2     10831     10457     10443     10816     10832     10459     10818     10833     10834     10460
 -1      2062    4    0    1
 -2      5459      5574      5579      5464      5460      5575      5580      5465     10818     10833
 -2     10834     10460     10446     10819     10835     10462     10821     10836     10837     10463
 -1      2063    4    0    1
 -2      5460      5575      5580      5465      5461      5576      5581      5466     10821     10836
 -2     10837     10463     10449     10822     10838     10465     10824     10839     10840     10466
 -1      2064    4    0    1
 -2      5461      5576      5581      5466      3164      3187      3188      3165     10824     10839
 -2     10840     10466     10452     10825     10841     10468      3884      3885      3886      3838
 -1      2065    4    0    1
 -2       652       675       676       653      5462      5577      5582      5467      1373      1374
 -2      1375      1327     10453     10826     10842     10469     10828     10843     10844     10470
 -1      2066    4    0    1
 -2      5462      5577      5582      5467      5463      5578      5583      5468     10828     10843
 -2     10844     10470     10456     10829     10845     10472     10831     10846     10847     10473
 -1      2067    4    0    1
 -2      5463      5578      5583      5468      5464      5579      5584      5469     10831     10846
 -2     10847     10473     10459     10832     10848     10475     10834     10849     10850     10476
 -1      2068    4    0    1
 -2      5464      5579      5584      5469      5465      5580      5585      5470     10834     10849
 -2     10850     10476     10462     10835     10851     10478     10837     10852     10853     10479
 -1      2069    4    0    1
 -2      5465      5580      5585      5470      5466      5581      5586      5471     10837     10852
 -2     10853     10479     10465     10838     10854     10481     10840     10855     10856     10482
 -1      2070    4    0    1
 -2      5466      5581      5586      5471      3165      3188      3189      3166     10840     10855
 -2     10856     10482     10468     10841     10857     10484      3886      3887      3888      3840
 -1      2071    4    0    1
 -2       653       676       677       654      5467      5582      5587      5472      1375      1376
 -2      1377      1329     10469     10842     10858     10485     10844     10859     10860     10486
 -1      2072    4    0    1
 -2      5467      5582      5587      5472      5468      5583      5588      5473     10844     10859
 -2     10860     10486     10472     10845     10861     10488     10847     10862     10863     10489
 -1      2073    4    0    1
 -2      5468      5583      5588      5473      5469      5584      5589      5474     10847     10862
 -2     10863     10489     10475     10848     10864     10491     10850     10865     10866     10492
 -1      2074    4    0    1
 -2      5469      5584      5589      5474      5470      5585      5590      5475     10850     10865
 -2     10866     10492     10478     10851     10867     10494     10853     10868     10869     10495
 -1      2075    4    0    1
 -2      5470      5585      5590      5475      5471      5586      5591      5476     10853     10868
 -2     10869     10495     10481     10854     10870     10497     10856     10871     10872     10498
 -1      2076    4    0    1
 -2      5471      5586      5591      5476      3166      3189      3190      3167     10856     10871
 -2     10872     10498     10484     10857     10873     10500      3888      3889      3890      3842
 -1      2077    4    0    1
 -2       654       677       678       655      5472      5587      5592      5477      1377      1378
 -2      1379      1331     10485     10858     10874     10501     10860     10875     10876     10502
 -1      2078    4    0    1
 -2      5472      5587      5592      5477      5473      5588      5593      5478     10860     10875
 -2     10876     10502     10488     10861     10877     10504     10863     10878     10879     10505
 -1      2079    4    0    1
 -2      5473      5588      5593      5478      5474      5589      5594      5479     10863     10878
 -2     10879     10505     10491     10864     10880     10507     10866     10881     10882     10508
 -1      2080    4    0    1
 -2      5474      5589      5594      5479      5475      5590      5595      5480     10866     10881
 -2     10882     10508     10494     10867     10883     10510     10869     10884     10885     10511
 -1      2081    4    0    1
 -2      5475      5590      5595      5480      5476      5591      5596      5481     10869     10884
 -2     10885     10511     10497     10870     10886     10513     10872     10887     10888     10514
 -1      2082    4    0    1
 -2      5476      5591      5596      5481      3167      3190      3191      3168     10872     10887
 -2     10888     10514     10500     10873     10889     10516      3890      3891      3892      3844
 -1      2083    4    0    1
 -2       655       678       679       656      5477      5592      5597      5482      1379      1380
 -2      1381      1333     10501     10874     10890     10517     10876     10891     10892     10518
 -1      2084    4    0    1
 -2      5477      5592      5597      5482      5478      5593      5598      5483     10876     10891
 -2     10892     10518     10504     10877     10893     10520     10879     10894     10895     10521
 -1      2085    4    0    1
 -2      5478      5593      5598      5483      5479      5594      5599      5484     10879     10894
 -2     10895     10521     10507     10880     10896     10523     10882     10897     10898     10524
 -1      2086    4    0    1
 -2      5479      5594      5599      5484      5480      5595      5600      5485     10882     10897
 -2     10898     10524     10510     10883     10899     10526     10885     10900     10901     10527
 -1      2087    4    0    1
 -2      5480      5595      5600      5485      5481      5596      5601      5486     10885     10900
 -2     10901     10527     10513     10886     10902     10529     10888     10903     10904     10530
 -1      2088    4    0    1
 -2      5481      5596      5601      5486      3168      3191      3192      3169     10888     10903
 -2     10904     10530     10516     10889     10905     10532      3892      3893      3894      3846
 -1      2089    4    0    1
 -2       656       679        95        96      5482      5597      2264      2269      1381      1382
 -2       113      1335     10517     10890      2373      2384     10892     10906      2385     10533
 -1      2090    4    0    1
 -2      5482      5597      2264      2269      5483      5598      2265      2270     10892     10906
 -2      2385     10533     10520     10893      2375      2386     10895     10907      2387     10534
 -1      2091    4    0    1
 -2      5483      5598      2265      2270      5484      5599      2266      2271     10895     10907
 -2      2387     10534     10523     10896      2377      2388     10898     10908      2389     10535
 -1      2092    4    0    1
 -2      5484      5599      2266      2271      5485      5600      2267      2272     10898     10908
 -2      2389     10535     10526     10899      2379      2390     10901     10909      2391     10536
 -1      2093    4    0    1
 -2      5485      5600      2267      2272      5486      5601      2268      2273     10901     10909
 -2      2391     10536     10529     10902      2381      2392     10904     10910      2393     10537
 -1      2094    4    0    1
 -2      5486      5601      2268      2273      3169      3192       259       260     10904     10910
 -2      2393     10537     10532     10905      2383      2394      3894      3895       277      3848
 -1      2095    4    0    1
 -2        21        22       680       657      1654      1659      5602      5487        39      1383
 -2      1384      1336      1811      1822     10911     10538      1823     10912     10913     10539
 -1      2096    4    0    1
 -2      1654      1659      5602      5487      1655      1660      5603      5488      1823     10912
 -2     10913     10539      1813      1824     10914     10541      1825     10915     10916     10542
 -1      2097    4    0    1
 -2      1655      1660      5603      5488      1656      1661      5604      5489      1825     10915
 -2     10916     10542      1815      1826     10917     10544      1827     10918     10919     10545
 -1      2098    4    0    1
 -2      1656      1661      5604      5489      1657      1662      5605      5490      1827     10918
 -2     10919     10545      1817      1828     10920     10547      1829     10921     10922     10548
 -1      2099    4    0    1
 -2      1657      1662      5605      5490      1658      1663      5606      5491      1829     10921
 -2     10922     10548      1819      1830     10923     10550      1831     10924     10925     10551
 -1      2100    4    0    1
 -2      1658      1663      5606      5491       185       186      3193      3170      1831     10924
 -2     10925     10551      1821      1832     10926     10553       203      3896      3897      3849
 -1      2101    4    0    1
 -2       657       680       681       658      5487      5602      5607      5492      1384      1385
 -2      1386      1338     10538     10911     10927     10554     10913     10928     10929     10555
 -1      2102    4    0    1
 -2      5487      5602      5607      5492      5488      5603      5608      5493     10913     10928
 -2     10929     10555     10541     10914     10930     10557     10916     10931     10932     10558
 -1      2103    4    0    1
 -2      5488      5603      5608      5493      5489      5604      5609      5494     10916     10931
 -2     10932     10558     10544     10917     10933     10560     10919     10934     10935     10561
 -1      2104    4    0    1
 -2      5489      5604      5609      5494      5490      5605      5610      5495     10919     10934
 -2     10935     10561     10547     10920     10936     10563     10922     10937     10938     10564
 -1      2105    4    0    1
 -2      5490      5605      5610      5495      5491      5606      5611      5496     10922     10937
 -2     10938     10564     10550     10923     10939     10566     10925     10940     10941     10567
 -1      2106    4    0    1
 -2      5491      5606      5611      5496      3170      3193      3194      3171     10925     10940
 -2     10941     10567     10553     10926     10942     10569      3897      3898      3899      3851
 -1      2107    4    0    1
 -2       658       681       682       659      5492      5607      5612      5497      1386      1387
 -2      1388      1340     10554     10927     10943     10570     10929     10944     10945     10571
 -1      2108    4    0    1
 -2      5492      5607      5612      5497      5493      5608      5613      5498     10929     10944
 -2     10945     10571     10557     10930     10946     10573     10932     10947     10948     10574
 -1      2109    4    0    1
 -2      5493      5608      5613      5498      5494      5609      5614      5499     10932     10947
 -2     10948     10574     10560     10933     10949     10576     10935     10950     10951     10577
 -1      2110    4    0    1
 -2      5494      5609      5614      5499      5495      5610      5615      5500     10935     10950
 -2     10951     10577     10563     10936     10952     10579     10938     10953     10954     10580
 -1      2111    4    0    1
 -2      5495      5610      5615      5500      5496      5611      5616      5501     10938     10953
 -2     10954     10580     10566     10939     10955     10582     10941     10956     10957     10583
 -1      2112    4    0    1
 -2      5496      5611      5616      5501      3171      3194      3195      3172     10941     10956
 -2     10957     10583     10569     10942     10958     10585      3899      3900      3901      3853
 -1      2113    4    0    1
 -2       659       682       683       660      5497      5612      5617      5502      1388      1389
 -2      1390      1342     10570     10943     10959     10586     10945     10960     10961     10587
 -1      2114    4    0    1
 -2      5497      5612      5617      5502      5498      5613      5618      5503     10945     10960
 -2     10961     10587     10573     10946     10962     10589     10948     10963     10964     10590
 -1      2115    4    0    1
 -2      5498      5613      5618      5503      5499      5614      5619      5504     10948     10963
 -2     10964     10590     10576     10949     10965     10592     10951     10966     10967     10593
 -1      2116    4    0    1
 -2      5499      5614      5619      5504      5500      5615      5620      5505     10951     10966
 -2     10967     10593     10579     10952     10968     10595     10954     10969     10970     10596
 -1      2117    4    0    1
 -2      5500      5615      5620      5505      5501      5616      5621      5506     10954     10969
 -2     10970     10596     10582     10955     10971     10598     10957     10972     10973     10599
 -1      2118    4    0    1
 -2      5501      5616      5621      5506      3172      3195      3196      3173     10957     10972
 -2     10973     10599     10585     10958     10974     10601      3901      3902      3903      3855
 -1      2119    4    0    1
 -2       660       683       684       661      5502      5617      5622      5507      1390      1391
 -2      1392      1344     10586     10959     10975     10602     10961     10976     10977     10603
 -1      2120    4    0    1
 -2      5502      5617      5622      5507      5503      5618      5623      5508     10961     10976
 -2     10977     10603     10589     10962     10978     10605     10964     10979     10980     10606
 -1      2121    4    0    1
 -2      5503      5618      5623      5508      5504      5619      5624      5509     10964     10979
 -2     10980     10606     10592     10965     10981     10608     10967     10982     10983     10609
 -1      2122    4    0    1
 -2      5504      5619      5624      5509      5505      5620      5625      5510     10967     10982
 -2     10983     10609     10595     10968     10984     10611     10970     10985     10986     10612
 -1      2123    4    0    1
 -2      5505      5620      5625      5510      5506      5621      5626      5511     10970     10985
 -2     10986     10612     10598     10971     10987     10614     10973     10988     10989     10615
 -1      2124    4    0    1
 -2      5506      5621      5626      5511      3173      3196      3197      3174     10973     10988
 -2     10989     10615     10601     10974     10990     10617      3903      3904      3905      3857
 -1      2125    4    0    1
 -2       661       684       685       662      5507      5622      5627      5512      1392      1393
 -2      1394      1346     10602     10975     10991     10618     10977     10992     10993     10619
 -1      2126    4    0    1
 -2      5507      5622      5627      5512      5508      5623      5628      5513     10977     10992
 -2     10993     10619     10605     10978     10994     10621     10980     10995     10996     10622
 -1      2127    4    0    1
 -2      5508      5623      5628      5513      5509      5624      5629      5514     10980     10995
 -2     10996     10622     10608     10981     10997     10624     10983     10998     10999     10625
 -1      2128    4    0    1
 -2      5509      5624      5629      5514      5510      5625      5630      5515     10983     10998
 -2     10999     10625     10611     10984     11000     10627     10986     11001     11002     10628
 -1      2129    4    0    1
 -2      5510      5625      5630      5515      5511      5626      5631      5516     10986     11001
 -2     11002     10628     10614     10987     11003     10630     10989     11004     11005     10631
 -1      2130    4    0    1
 -2      5511      5626      5631      5516      3174      3197      3198      3175     10989     11004
 -2     11005     10631     10617     10990     11006     10633      3905      3906      3907      3859
 -1      2131    4    0    1
 -2       662       685       686       663      5512      5627      5632      5517      1394      1395
 -2      1396      1348     10618     10991     11007     10634     10993     11008     11009     10635
 -1      2132    4    0    1
 -2      5512      5627      5632      5517      5513      5628      5633      5518     10993     11008
 -2     11009     10635     10621     10994     11010     10637     10996     11011     11012     10638
 -1      2133    4    0    1
 -2      5513      5628      5633      5518      5514      5629      5634      5519     10996     11011
 -2     11012     10638     10624     10997     11013     10640     10999     11014     11015     10641
 -1      2134    4    0    1
 -2      5514      5629      5634      5519      5515      5630      5635      5520     10999     11014
 -2     11015     10641     10627     11000     11016     10643     11002     11017     11018     10644
 -1      2135    4    0    1
 -2      5515      5630      5635      5520      5516      5631      5636      5521     11002     11017
 -2     11018     10644     10630     11003     11019     10646     11005     11020     11021     10647
 -1      2136    4    0    1
 -2      5516      5631      5636      5521      3175      3198      3199      3176     11005     11020
 -2     11021     10647     10633     11006     11022     10649      3907      3908      3909      3861
 -1      2137    4    0    1
 -2       663       686       687       664      5517      5632      5637      5522      1396      1397
 -2      1398      1350     10634     11007     11023     10650     11009     11024     11025     10651
 -1      2138    4    0    1
 -2      5517      5632      5637      5522      5518      5633      5638      5523     11009     11024
 -2     11025     10651     10637     11010     11026     10653     11012     11027     11028     10654
 -1      2139    4    0    1
 -2      5518      5633      5638      5523      5519      5634      5639      5524     11012     11027
 -2     11028     10654     10640     11013     11029     10656     11015     11030     11031     10657
 -1      2140    4    0    1
 -2      5519      5634      5639      5524      5520      5635      5640      5525     11015     11030
 -2     11031     10657     10643     11016     11032     10659     11018     11033     11034     10660
 -1      2141    4    0    1
 -2      5520      5635      5640      5525      5521      5636      5641      5526     11018     11033
 -2     11034     10660     10646     11019     11035     10662     11021     11036     11037     10663
 -1      2142    4    0    1
 -2      5521      5636      5641      5526      3176      3199      3200      3177     11021     11036
 -2     11037     10663     10649     11022     11038     10665      3909      3910      3911      3863
 -1      2143    4    0    1
 -2       664       687       688       665      5522      5637      5642      5527      1398      1399
 -2      1400      1352     10650     11023     11039     10666     11025     11040     11041     10667
 -1      2144    4    0    1
 -2      5522      5637      5642      5527      5523      5638      5643      5528     11025     11040
 -2     11041     10667     10653     11026     11042     10669     11028     11043     11044     10670
 -1      2145    4    0    1
 -2      5523      5638      5643      5528      5524      5639      5644      5529     11028     11043
 -2     11044     10670     10656     11029     11045     10672     11031     11046     11047     10673
 -1      2146    4    0    1
 -2      5524      5639      5644      5529      5525      5640      5645      5530     11031     11046
 -2     11047     10673     10659     11032     11048     10675     11034     11049     11050     10676
 -1      2147    4    0    1
 -2      5525      5640      5645      5530      5526      5641      5646      5531     11034     11049
 -2     11050     10676     10662     11035     11051     10678     11037     11052     11053     10679
 -1      2148    4    0    1
 -2      5526      5641      5646      5531      3177      3200      3201      3178     11037     11052
 -2     11053     10679     10665     11038     11054     10681      3911      3912      3913      3865
 -1      2149    4    0    1
 -2       665       688       689       666      5527      5642      5647      5532      1400      1401
 -2      1402      1354     10666     11039     11055     10682     11041     11056     11057     10683
 -1      2150    4    0    1
 -2      5527      5642      5647      5532      5528      5643      5648      5533     11041     11056
 -2     11057     10683     10669     11042     11058     10685     11044     11059     11060     10686
 -1      2151    4    0    1
 -2      5528      5643      5648      5533      5529      5644      5649      5534     11044     11059
 -2     11060     10686     10672     11045     11061     10688     11047     11062     11063     10689
 -1      2152    4    0    1
 -2      5529      5644      5649      5534      5530      5645      5650      5535     11047     11062
 -2     11063     10689     10675     11048     11064     10691     11050     11065     11066     10692
 -1      2153    4    0    1
 -2      5530      5645      5650      5535      5531      5646      5651      5536     11050     11065
 -2     11066     10692     10678     11051     11067     10694     11053     11068     11069     10695
 -1      2154    4    0    1
 -2      5531      5646      5651      5536      3178      3201      3202      3179     11053     11068
 -2     11069     10695     10681     11054     11070     10697      3913      3914      3915      3867
 -1      2155    4    0    1
 -2       666       689       690       667      5532      5647      5652      5537      1402      1403
 -2      1404      1356     10682     11055     11071     10698     11057     11072     11073     10699
 -1      2156    4    0    1
 -2      5532      5647      5652      5537      5533      5648      5653      5538     11057     11072
 -2     11073     10699     10685     11058     11074     10701     11060     11075     11076     10702
 -1      2157    4    0    1
 -2      5533      5648      5653      5538      5534      5649      5654      5539     11060     11075
 -2     11076     10702     10688     11061     11077     10704     11063     11078     11079     10705
 -1      2158    4    0    1
 -2      5534      5649      5654      5539      5535      5650      5655      5540     11063     11078
 -2     11079     10705     10691     11064     11080     10707     11066     11081     11082     10708
 -1      2159    4    0    1
 -2      5535      5650      5655      5540      5536      5651      5656      5541     11066     11081
 -2     11082     10708     10694     11067     11083     10710     11069     11084     11085     10711
 -1      2160    4    0    1
 -2      5536      5651      5656      5541      3179      3202      3203      3180     11069     11084
 -2     11085     10711     10697     11070     11086     10713      3915      3916      3917      3869
 -1      2161    4    0    1
 -2       667       690       691       668      5537      5652      5657      5542      1404      1405
 -2      1406      1358     10698     11071     11087     10714     11073     11088     11089     10715
 -1      2162    4    0    1
 -2      5537      5652      5657      5542      5538      5653      5658      5543     11073     11088
 -2     11089     10715     10701     11074     11090     10717     11076     11091     11092     10718
 -1      2163    4    0    1
 -2      5538      5653      5658      5543      5539      5654      5659      5544     11076     11091
 -2     11092     10718     10704     11077     11093     10720     11079     11094     11095     10721
 -1      2164    4    0    1
 -2      5539      5654      5659      5544      5540      5655      5660      5545     11079     11094
 -2     11095     10721     10707     11080     11096     10723     11082     11097     11098     10724
 -1      2165    4    0    1
 -2      5540      5655      5660      5545      5541      5656      5661      5546     11082     11097
 -2     11098     10724     10710     11083     11099     10726     11085     11100     11101     10727
 -1      2166    4    0    1
 -2      5541      5656      5661      5546      3180      3203      3204      3181     11085     11100
 -2     11101     10727     10713     11086     11102     10729      3917      3918      3919      3871
 -1      2167    4    0    1
 -2       668       691       692       669      5542      5657      5662      5547      1406      1407
 -2      1408      1360     10714     11087     11103     10730     11089     11104     11105     10731
 -1      2168    4    0    1
 -2      5542      5657      5662      5547      5543      5658      5663      5548     11089     11104
 -2     11105     10731     10717     11090     11106     10733     11092     11107     11108     10734
 -1      2169    4    0    1
 -2      5543      5658      5663      5548      5544      5659      5664      5549     11092     11107
 -2     11108     10734     10720     11093     11109     10736     11095     11110     11111     10737
 -1      2170    4    0    1
 -2      5544      5659      5664      5549      5545      5660      5665      5550     11095     11110
 -2     11111     10737     10723     11096     11112     10739     11098     11113     11114     10740
 -1      2171    4    0    1
 -2      5545      5660      5665      5550      5546      5661      5666      5551     11098     11113
 -2     11114     10740     10726     11099     11115     10742     11101     11116     11117     10743
 -1      2172    4    0    1
 -2      5546      5661      5666      5551      3181      3204      3205      3182     11101     11116
 -2     11117     10743     10729     11102     11118     10745      3919      3920      3921      3873
 -1      2173    4    0    1
 -2       669       692       693       670      5547      5662      5667      5552      1408      1409
 -2      1410      1362     10730     11103     11119     10746     11105     11120     11121     10747
 -1      2174    4    0    1
 -2      5547      5662      5667      5552      5548      5663      5668      5553     11105     11120
 -2     11121     10747     10733     11106     11122     10749     11108     11123     11124     10750
 -1      2175    4    0    1
 -2      5548      5663      5668      5553      5549      5664      5669      5554     11108     11123
 -2     11124     10750     10736     11109     11125     10752     11111     11126     11127     10753
 -1      2176    4    0    1
 -2      5549      5664      5669      5554      5550      5665      5670      5555     11111     11126
 -2     11127     10753     10739     11112     11128     10755     11114     11129     11130     10756
 -1      2177    4    0    1
 -2      5550      5665      5670      5555      5551      5666      5671      5556     11114     11129
 -2     11130     10756     10742     11115     11131     10758     11117     11132     11133     10759
 -1      2178    4    0    1
 -2      5551      5666      5671      5556      3182      3205      3206      3183     11117     11132
 -2     11133     10759     10745     11118     11134     10761      3921      3922      3923      3875
 -1      2179    4    0    1
 -2       670       693       694       671      5552      5667      5672      5557      1410      1411
 -2      1412      1364     10746     11119     11135     10762     11121     11136     11137     10763
 -1      2180    4    0    1
 -2      5552      5667      5672      5557      5553      5668      5673      5558     11121     11136
 -2     11137     10763     10749     11122     11138     10765     11124     11139     11140     10766
 -1      2181    4    0    1
 -2      5553      5668      5673      5558      5554      5669      5674      5559     11124     11139
 -2     11140     10766     10752     11125     11141     10768     11127     11142     11143     10769
 -1      2182    4    0    1
 -2      5554      5669      5674      5559      5555      5670      5675      5560     11127     11142
 -2     11143     10769     10755     11128     11144     10771     11130     11145     11146     10772
 -1      2183    4    0    1
 -2      5555      5670      5675      5560      5556      5671      5676      5561     11130     11145
 -2     11146     10772     10758     11131     11147     10774     11133     11148     11149     10775
 -1      2184    4    0    1
 -2      5556      5671      5676      5561      3183      3206      3207      3184     11133     11148
 -2     11149     10775     10761     11134     11150     10777      3923      3924      3925      3877
 -1      2185    4    0    1
 -2       671       694       695       672      5557      5672      5677      5562      1412      1413
 -2      1414      1366     10762     11135     11151     10778     11137     11152     11153     10779
 -1      2186    4    0    1
 -2      5557      5672      5677      5562      5558      5673      5678      5563     11137     11152
 -2     11153     10779     10765     11138     11154     10781     11140     11155     11156     10782
 -1      2187    4    0    1
 -2      5558      5673      5678      5563      5559      5674      5679      5564     11140     11155
 -2     11156     10782     10768     11141     11157     10784     11143     11158     11159     10785
 -1      2188    4    0    1
 -2      5559      5674      5679      5564      5560      5675      5680      5565     11143     11158
 -2     11159     10785     10771     11144     11160     10787     11146     11161     11162     10788
 -1      2189    4    0    1
 -2      5560      5675      5680      5565      5561      5676      5681      5566     11146     11161
 -2     11162     10788     10774     11147     11163     10790     11149     11164     11165     10791
 -1      2190    4    0    1
 -2      5561      5676      5681      5566      3184      3207      3208      3185     11149     11164
 -2     11165     10791     10777     11150     11166     10793      3925      3926      3927      3879
 -1      2191    4    0    1
 -2       672       695       696       673      5562      5677      5682      5567      1414      1415
 -2      1416      1368     10778     11151     11167     10794     11153     11168     11169     10795
 -1      2192    4    0    1
 -2      5562      5677      5682      5567      5563      5678      5683      5568     11153     11168
 -2     11169     10795     10781     11154     11170     10797     11156     11171     11172     10798
 -1      2193    4    0    1
 -2      5563      5678      5683      5568      5564      5679      5684      5569     11156     11171
 -2     11172     10798     10784     11157     11173     10800     11159     11174     11175     10801
 -1      2194    4    0    1
 -2      5564      5679      5684      5569      5565      5680      5685      5570     11159     11174
 -2     11175     10801     10787     11160     11176     10803     11162     11177     11178     10804
 -1      2195    4    0    1
 -2      5565      5680      5685      5570      5566      5681      5686      5571     11162     11177
 -2     11178     10804     10790     11163     11179     10806     11165     11180     11181     10807
 -1      2196    4    0    1
 -2      5566      5681      5686      5571      3185      3208      3209      3186     11165     11180
 -2     11181     10807     10793     11166     11182     10809      3927      3928      3929      3881
 -1      2197    4    0    1
 -2       673       696       697       674      5567      5682      5687      5572      1416      1417
 -2      1418      1370     10794     11167     11183     10810     11169     11184     11185     10811
 -1      2198    4    0    1
 -2      5567      5682      5687      5572      5568      5683      5688      5573     11169     11184
 -2     11185     10811     10797     11170     11186     10813     11172     11187     11188     10814
 -1      2199    4    0    1
 -2      5568      5683      5688      5573      5569      5684      5689      5574     11172     11187
 -2     11188     10814     10800     11173     11189     10816     11175     11190     11191     10817
 -1      2200    4    0    1
 -2      5569      5684      5689      5574      5570      5685      5690      5575     11175     11190
 -2     11191     10817     10803     11176     11192     10819     11178     11193     11194     10820
 -1      2201    4    0    1
 -2      5570      5685      5690      5575      5571      5686      5691      5576     11178     11193
 -2     11194     10820     10806     11179     11195     10822     11181     11196     11197     10823
 -1      2202    4    0    1
 -2      5571      5686      5691      5576      3186      3209      3210      3187     11181     11196
 -2     11197     10823     10809     11182     11198     10825      3929      3930      3931      3883
 -1      2203    4    0    1
 -2       674       697       698       675      5572      5687      5692      5577      1418      1419
 -2      1420      1372     10810     11183     11199     10826     11185     11200     11201     10827
 -1      2204    4    0    1
 -2      5572      5687      5692      5577      5573      5688      5693      5578     11185     11200
 -2     11201     10827     10813     11186     11202     10829     11188     11203     11204     10830
 -1      2205    4    0    1
 -2      5573      5688      5693      5578      5574      5689      5694      5579     11188     11203
 -2     11204     10830     10816     11189     11205     10832     11191     11206     11207     10833
 -1      2206    4    0    1
 -2      5574      5689      5694      5579      5575      5690      5695      5580     11191     11206
 -2     11207     10833     10819     11192     11208     10835     11194     11209     11210     10836
 -1      2207    4    0    1
 -2      5575      5690      5695      5580      5576      5691      5696      5581     11194     11209
 -2     11210     10836     10822     11195     11211     10838     11197     11212     11213     10839
 -1      2208    4    0    1
 -2      5576      5691      5696      5581      3187      3210      3211      3188     11197     11212
 -2     11213     10839     10825     11198     11214     10841      3931      3932      3933      3885
 -1      2209    4    0    1
 -2       675       698       699       676      5577      5692      5697      5582      1420      1421
 -2      1422      1374     10826     11199     11215     10842     11201     11216     11217     10843
 -1      2210    4    0    1
 -2      5577      5692      5697      5582      5578      5693      5698      5583     11201     11216
 -2     11217     10843     10829     11202     11218     10845     11204     11219     11220     10846
 -1      2211    4    0    1
 -2      5578      5693      5698      5583      5579      5694      5699      5584     11204     11219
 -2     11220     10846     10832     11205     11221     10848     11207     11222     11223     10849
 -1      2212    4    0    1
 -2      5579      5694      5699      5584      5580      5695      5700      5585     11207     11222
 -2     11223     10849     10835     11208     11224     10851     11210     11225     11226     10852
 -1      2213    4    0    1
 -2      5580      5695      5700      5585      5581      5696      5701      5586     11210     11225
 -2     11226     10852     10838     11211     11227     10854     11213     11228     11229     10855
 -1      2214    4    0    1
 -2      5581      5696      5701      5586      3188      3211      3212      3189     11213     11228
 -2     11229     10855     10841     11214     11230     10857      3933      3934      3935      3887
 -1      2215    4    0    1
 -2       676       699       700       677      5582      5697      5702      5587      1422      1423
 -2      1424      1376     10842     11215     11231     10858     11217     11232     11233     10859
 -1      2216    4    0    1
 -2      5582      5697      5702      5587      5583      5698      5703      5588     11217     11232
 -2     11233     10859     10845     11218     11234     10861     11220     11235     11236     10862
 -1      2217    4    0    1
 -2      5583      5698      5703      5588      5584      5699      5704      5589     11220     11235
 -2     11236     10862     10848     11221     11237     10864     11223     11238     11239     10865
 -1      2218    4    0    1
 -2      5584      5699      5704      5589      5585      5700      5705      5590     11223     11238
 -2     11239     10865     10851     11224     11240     10867     11226     11241     11242     10868
 -1      2219    4    0    1
 -2      5585      5700      5705      5590      5586      5701      5706      5591     11226     11241
 -2     11242     10868     10854     11227     11243     10870     11229     11244     11245     10871
 -1      2220    4    0    1
 -2      5586      5701      5706      5591      3189      3212      3213      3190     11229     11244
 -2     11245     10871     10857     11230     11246     10873      3935      3936      3937      3889
 -1      2221    4    0    1
 -2       677       700       701       678      5587      5702      5707      5592      1424      1425
 -2      1426      1378     10858     11231     11247     10874     11233     11248     11249     10875
 -1      2222    4    0    1
 -2      5587      5702      5707      5592      5588      5703      5708      5593     11233     11248
 -2     11249     10875     10861     11234     11250     10877     11236     11251     11252     10878
 -1      2223    4    0    1
 -2      5588      5703      5708      5593      5589      5704      5709      5594     11236     11251
 -2     11252     10878     10864     11237     11253     10880     11239     11254     11255     10881
 -1      2224    4    0    1
 -2      5589      5704      5709      5594      5590      5705      5710      5595     11239     11254
 -2     11255     10881     10867     11240     11256     10883     11242     11257     11258     10884
 -1      2225    4    0    1
 -2      5590      5705      5710      5595      5591      5706      5711      5596     11242     11257
 -2     11258     10884     10870     11243     11259     10886     11245     11260     11261     10887
 -1      2226    4    0    1
 -2      5591      5706      5711      5596      3190      3213      3214      3191     11245     11260
 -2     11261     10887     10873     11246     11262     10889      3937      3938      3939      3891
 -1      2227    4    0    1
 -2       678       701       702       679      5592      5707      5712      5597      1426      1427
 -2      1428      1380     10874     11247     11263     10890     11249     11264     11265     10891
 -1      2228    4    0    1
 -2      5592      5707      5712      5597      5593      5708      5713      5598     11249     11264
 -2     11265     10891     10877     11250     11266     10893     11252     11267     11268     10894
 -1      2229    4    0    1
 -2      5593      5708      5713      5598      5594      5709      5714      5599     11252     11267
 -2     11268     10894     10880     11253     11269     10896     11255     11270     11271     10897
 -1      2230    4    0    1
 -2      5594      5709      5714      5599      5595      5710      5715      5600     11255     11270
 -2     11271     10897     10883     11256     11272     10899     11258     11273     11274     10900
 -1      2231    4    0    1
 -2      5595      5710      5715      5600      5596      5711      5716      5601     11258     11273
 -2     11274     10900     10886     11259     11275     10902     11261     11276     11277     10903
 -1      2232    4    0    1
 -2      5596      5711      5716      5601      3191      3214      3215      3192     11261     11276
 -2     11277     10903     10889     11262     11278     10905      3939      3940      3941      3893
 -1      2233    4    0    1
 -2       679       702        94        95      5597      5712      2259      2264      1428      1429
 -2       112      1382     10890     11263      2362      2373     11265     11279      2374     10906
 -1      2234    4    0    1
 -2      5597      5712      2259      2264      5598      5713      2260      2265     11265     11279
 -2      2374     10906     10893     11266      2364      2375     11268     11280      2376     10907
 -1      2235    4    0    1
 -2      5598      5713      2260      2265      5599      5714      2261      2266     11268     11280
 -2      2376     10907     10896     11269      2366      2377     11271     11281      2378     10908
 -1      2236    4    0    1
 -2      5599      5714      2261      2266      5600      5715      2262      2267     11271     11281
 -2      2378     10908     10899     11272      2368      2379     11274     11282      2380     10909
 -1      2237    4    0    1
 -2      5600      5715      2262      2267      5601      5716      2263      2268     11274     11282
 -2      2380     10909     10902     11275      2370      2381     11277     11283      2382     10910
 -1      2238    4    0    1
 -2      5601      5716      2263      2268      3192      3215       258       259     11277     11283
 -2      2382     10910     10905     11278      2372      2383      3941      3942       276      3895
 -1      2239    4    0    1
 -2        22        23       703       680      1659      1664      5717      5602        40      1430
 -2      1431      1383      1822      1833     11284     10911      1834     11285     11286     10912
 -1      2240    4    0    1
 -2      1659      1664      5717      5602      1660      1665      5718      5603      1834     11285
 -2     11286     10912      1824      1835     11287     10914      1836     11288     11289     10915
 -1      2241    4    0    1
 -2      1660      1665      5718      5603      1661      1666      5719      5604      1836     11288
 -2     11289     10915      1826      1837     11290     10917      1838     11291     11292     10918
 -1      2242    4    0    1
 -2      1661      1666      5719      5604      1662      1667      5720      5605      1838     11291
 -2     11292     10918      1828      1839     11293     10920      1840     11294     11295     10921
 -1      2243    4    0    1
 -2      1662      1667      5720      5605      1663      1668      5721      5606      1840     11294
 -2     11295     10921      1830      1841     11296     10923      1842     11297     11298     10924
 -1      2244    4    0    1
 -2      1663      1668      5721      5606       186       187      3216      3193      1842     11297
 -2     11298     10924      1832      1843     11299     10926       204      3943      3944      3896
 -1      2245    4    0    1
 -2       680       703       704       681      5602      5717      5722      5607      1431      1432
 -2      1433      1385     10911     11284     11300     10927     11286     11301     11302     10928
 -1      2246    4    0    1
 -2      5602      5717      5722      5607      5603      5718      5723      5608     11286     11301
 -2     11302     10928     10914     11287     11303     10930     11289     11304     11305     10931
 -1      2247    4    0    1
 -2      5603      5718      5723      5608      5604      5719      5724      5609     11289     11304
 -2     11305     10931     10917     11290     11306     10933     11292     11307     11308     10934
 -1      2248    4    0    1
 -2      5604      5719      5724      5609      5605      5720      5725      5610     11292     11307
 -2     11308     10934     10920     11293     11309     10936     11295     11310     11311     10937
 -1      2249    4    0    1
 -2      5605      5720      5725      5610      5606      5721      5726      5611     11295     11310
 -2     11311     10937     10923     11296     11312     10939     11298     11313     11314     10940
 -1      2250    4    0    1
 -2      5606      5721      5726      5611      3193      3216      3217      3194     11298     11313
 -2     11314     10940     10926     11299     11315     10942      3944      3945      3946      3898
 -1      2251    4    0    1
 -2       681       704       705       682      5607      5722      5727      5612      1433      1434
 -2      1435      1387     10927     11300     11316     10943     11302     11317     11318     10944
 -1      2252    4    0    1
 -2      5607      5722      5727      5612      5608      5723      5728      5613     11302     11317
 -2     11318     10944     10930     11303     11319     10946     11305     11320     11321     10947
 -1      2253    4    0    1
 -2      5608      5723      5728      5613      5609      5724      5729      5614     11305     11320
 -2     11321     10947     10933     11306     11322     10949     11308     11323     11324     10950
 -1      2254    4    0    1
 -2      5609      5724      5729      5614      5610      5725      5730      5615     11308     11323
 -2     11324     10950     10936     11309     11325     10952     11311     11326     11327     10953
 -1      2255    4    0    1
 -2      5610      5725      5730      5615      5611      5726      5731      5616     11311     11326
 -2     11327     10953     10939     11312     11328     10955     11314     11329     11330     10956
 -1      2256    4    0    1
 -2      5611      5726      5731      5616      3194      3217      3218      3195     11314     11329
 -2     11330     10956     10942     11315     11331     10958      3946      3947      3948      3900
 -1      2257    4    0    1
 -2       682       705       706       683      5612      5727      5732      5617      1435      1436
 -2      1437      1389     10943     11316     11332     10959     11318     11333     11334     10960
 -1      2258    4    0    1
 -2      5612      5727      5732      5617      5613      5728      5733      5618     11318     11333
 -2     11334     10960     10946     11319     11335     10962     11321     11336     11337     10963
 -1      2259    4    0    1
 -2      5613      5728      5733      5618      5614      5729      5734      5619     11321     11336
 -2     11337     10963     10949     11322     11338     10965     11324     11339     11340     10966
 -1      2260    4    0    1
 -2      5614      5729      5734      5619      5615      5730      5735      5620     11324     11339
 -2     11340     10966     10952     11325     11341     10968     11327     11342     11343     10969
 -1      2261    4    0    1
 -2      5615      5730      5735      5620      5616      5731      5736      5621     11327     11342
 -2     11343     10969     10955     11328     11344     10971     11330     11345     11346     10972
 -1      2262    4    0    1
 -2      5616      5731      5736      5621      3195      3218      3219      3196     11330     11345
 -2     11346     10972     10958     11331     11347     10974      3948      3949      3950      3902
 -1      2263    4    0    1
 -2       683       706       707       684      5617      5732      5737      5622      1437      1438
 -2      1439      1391     10959     11332     11348     10975     11334     11349     11350     10976
 -1      2264    4    0    1
 -2      5617      5732      5737      5622      5618      5733      5738      5623     11334     11349
 -2     11350     10976     10962     11335     11351     10978     11337     11352     11353     10979
 -1      2265    4    0    1
 -2      5618      5733      5738      5623      5619      5734      5739      5624     11337     11352
 -2     11353     10979     10965     11338     11354     10981     11340     11355     11356     10982
 -1      2266    4    0    1
 -2      5619      5734      5739      5624      5620      5735      5740      5625     11340     11355
 -2     11356     10982     10968     11341     11357     10984     11343     11358     11359     10985
 -1      2267    4    0    1
 -2      5620      5735      5740      5625      5621      5736      5741      5626     11343     11358
 -2     11359     10985     10971     11344     11360     10987     11346     11361     11362     10988
 -1      2268    4    0    1
 -2      5621      5736      5741      5626      3196      3219      3220      3197     11346     11361
 -2     11362     10988     10974     11347     11363     10990      3950      3951      3952      3904
 -1      2269    4    0    1
 -2       684       707       708       685      5622      5737      5742      5627      1439      1440
 -2      1441      1393     10975     11348     11364     10991     11350     11365     11366     10992
 -1      2270    4    0    1
 -2      5622      5737      5742      5627      5623      5738      5743      5628     11350     11365
 -2     11366     10992     10978     11351     11367     10994     11353     11368     11369     10995
 -1      2271    4    0    1
 -2      5623      5738      5743      5628      5624      5739      5744      5629     11353     11368
 -2     11369     10995     10981     11354     11370     10997     11356     11371     11372     10998
 -1      2272    4    0    1
 -2      5624      5739      5744      5629      5625      5740      5745      5630     11356     11371
 -2     11372     10998     10984     11357     11373     11000     11359     11374     11375     11001
 -1      2273    4    0    1
 -2      5625      5740      5745      5630      5626      5741      5746      5631     11359     11374
 -2     11375     11001     10987     11360     11376     11003     11362     11377     11378     11004
 -1      2274    4    0    1
 -2      5626      5741      5746      5631      3197      3220      3221      3198     11362     11377
 -2     11378     11004     10990     11363     11379     11006      3952      3953      3954      3906
 -1      2275    4    0    1
 -2       685       708       709       686      5627      5742      5747      5632      1441      1442
 -2      1443      1395     10991     11364     11380     11007     11366     11381     11382     11008
 -1      2276    4    0    1
 -2      5627      5742      5747      5632      5628      5743      5748      5633     11366     11381
 -2     11382     11008     10994     11367     11383     11010     11369     11384     11385     11011
 -1      2277    4    0    1
 -2      5628      5743      5748      5633      5629      5744      5749      5634     11369     11384
 -2     11385     11011     10997     11370     11386     11013     11372     11387     11388     11014
 -1      2278    4    0    1
 -2      5629      5744      5749      5634      5630      5745      5750      5635     11372     11387
 -2     11388     11014     11000     11373     11389     11016     11375     11390     11391     11017
 -1      2279    4    0    1
 -2      5630      5745      5750      5635      5631      5746      5751      5636     11375     11390
 -2     11391     11017     11003     11376     11392     11019     11378     11393     11394     11020
 -1      2280    4    0    1
 -2      5631      5746      5751      5636      3198      3221      3222      3199     11378     11393
 -2     11394     11020     11006     11379     11395     11022      3954      3955      3956      3908
 -1      2281    4    0    1
 -2       686       709       710       687      5632      5747      5752      5637      1443      1444
 -2      1445      1397     11007     11380     11396     11023     11382     11397     11398     11024
 -1      2282    4    0    1
 -2      5632      5747      5752      5637      5633      5748      5753      5638     11382     11397
 -2     11398     11024     11010     11383     11399     11026     11385     11400     11401     11027
 -1      2283    4    0    1
 -2      5633      5748      5753      5638      5634      5749      5754      5639     11385     11400
 -2     11401     11027     11013     11386     11402     11029     11388     11403     11404     11030
 -1      2284    4    0    1
 -2      5634      5749      5754      5639      5635      5750      5755      5640     11388     11403
 -2     11404     11030     11016     11389     11405     11032     11391     11406     11407     11033
 -1      2285    4    0    1
 -2      5635      5750      5755      5640      5636      5751      5756      5641     11391     11406
 -2     11407     11033     11019     11392     11408     11035     11394     11409     11410     11036
 -1      2286    4    0    1
 -2      5636      5751      5756      5641      3199      3222      3223      3200     11394     11409
 -2     11410     11036     11022     11395     11411     11038      3956      3957      3958      3910
 -1      2287    4    0    1
 -2       687       710       711       688      5637      5752      5757      5642      1445      1446
 -2      1447      1399     11023     11396     11412     11039     11398     11413     11414     11040
 -1      2288    4    0    1
 -2      5637      5752      5757      5642      5638      5753      5758      5643     11398     11413
 -2     11414     11040     11026     11399     11415     11042     11401     11416     11417     11043
 -1      2289    4    0    1
 -2      5638      5753      5758      5643      5639      5754      5759      5644     11401     11416
 -2     11417     11043     11029     11402     11418     11045     11404     11419     11420     11046
 -1      2290    4    0    1
 -2      5639      5754      5759      5644      5640      5755      5760      5645     11404     11419
 -2     11420     11046     11032     11405     11421     11048     11407     11422     11423     11049
 -1      2291    4    0    1
 -2      5640      5755      5760      5645      5641      5756      5761      5646     11407     11422
 -2     11423     11049     11035     11408     11424     11051     11410     11425     11426     11052
 -1      2292    4    0    1
 -2      5641      5756      5761      5646      3200      3223      3224      3201     11410     11425
 -2     11426     11052     11038     11411     11427     11054      3958      3959      3960      3912
 -1      2293    4    0    1
 -2       688       711       712       689      5642      5757      5762      5647      1447      1448
 -2      1449      1401     11039     11412     11428     11055     11414     11429     11430     11056
 -1      2294    4    0    1
 -2      5642      5757      5762      5647      5643      5758      5763      5648     11414     11429
 -2     11430     11056     11042     11415     11431     11058     11417     11432     11433     11059
 -1      2295    4    0    1
 -2      5643      5758      5763      5648      5644      5759      5764      5649     11417     11432
 -2     11433     11059     11045     11418     11434     11061     11420     11435     11436     11062
 -1      2296    4    0    1
 -2      5644      5759      5764      5649      5645      5760      5765      5650     11420     11435
 -2     11436     11062     11048     11421     11437     11064     11423     11438     11439     11065
 -1      2297    4    0    1
 -2      5645      5760      5765      5650      5646      5761      5766      5651     11423     11438
 -2     11439     11065     11051     11424     11440     11067     11426     11441     11442     11068
 -1      2298    4    0    1
 -2      5646      5761      5766      5651      3201      3224      3225      3202     11426     11441
 -2     11442     11068     11054     11427     11443     11070      3960      3961      3962      3914
 -1      2299    4    0    1
 -2       689       712       713       690      5647      5762      5767      5652      1449      1450
 -2      1451      1403     11055     11428     11444     11071     11430     11445     11446     11072
 -1      2300    4    0    1
 -2      5647      5762      5767      5652      5648      5763      5768      5653     11430     11445
 -2     11446     11072     11058     11431     11447     11074     11433     11448     11449     11075
 -1      2301    4    0    1
 -2      5648      5763      5768      5653      5649      5764      5769      5654     11433     11448
 -2     11449     11075     11061     11434     11450     11077     11436     11451     11452     11078
 -1      2302    4    0    1
 -2      5649      5764      5769      5654      5650      5765      5770      5655     11436     11451
 -2     11452     11078     11064     11437     11453     11080     11439     11454     11455     11081
 -1      2303    4    0    1
 -2      5650      5765      5770      5655      5651      5766      5771      5656     11439     11454
 -2     11455     11081     11067     11440     11456     11083     11442     11457     11458     11084
 -1      2304    4    0    1
 -2      5651      5766      5771      5656      3202      3225      3226      3203     11442     11457
 -2     11458     11084     11070     11443     11459     11086      3962      3963      3964      3916
 -1      2305    4    0    1
 -2       690       713       714       691      5652      5767      5772      5657      1451      1452
 -2      1453      1405     11071     11444     11460     11087     11446     11461     11462     11088
 -1      2306    4    0    1
 -2      5652      5767      5772      5657      5653      5768      5773      5658     11446     11461
 -2     11462     11088     11074     11447     11463     11090     11449     11464     11465     11091
 -1      2307    4    0    1
 -2      5653      5768      5773      5658      5654      5769      5774      5659     11449     11464
 -2     11465     11091     11077     11450     11466     11093     11452     11467     11468     11094
 -1      2308    4    0    1
 -2      5654      5769      5774      5659      5655      5770      5775      5660     11452     11467
 -2     11468     11094     11080     11453     11469     11096     11455     11470     11471     11097
 -1      2309    4    0    1
 -2      5655      5770      5775      5660      5656      5771      5776      5661     11455     11470
 -2     11471     11097     11083     11456     11472     11099     11458     11473     11474     11100
 -1      2310    4    0    1
 -2      5656      5771      5776      5661      3203      3226      3227      3204     11458     11473
 -2     11474     11100     11086     11459     11475     11102      3964      3965      3966      3918
 -1      2311    4    0    1
 -2       691       714       715       692      5657      5772      5777      5662      1453      1454
 -2      1455      1407     11087     11460     11476     11103     11462     11477     11478     11104
 -1      2312    4    0    1
 -2      5657      5772      5777      5662      5658      5773      5778      5663     11462     11477
 -2     11478     11104     11090     11463     11479     11106     11465     11480     11481     11107
 -1      2313    4    0    1
 -2      5658      5773      5778      5663      5659      5774      5779      5664     11465     11480
 -2     11481     11107     11093     11466     11482     11109     11468     11483     11484     11110
 -1      2314    4    0    1
 -2      5659      5774      5779      5664      5660      5775      5780      5665     11468     11483
 -2     11484     11110     11096     11469     11485     11112     11471     11486     11487     11113
 -1      2315    4    0    1
 -2      5660      5775      5780      5665      5661      5776      5781      5666     11471     11486
 -2     11487     11113     11099     11472     11488     11115     11474     11489     11490     11116
 -1      2316    4    0    1
 -2      5661      5776      5781      5666      3204      3227      3228      3205     11474     11489
 -2     11490     11116     11102     11475     11491     11118      3966      3967      3968      3920
 -1      2317    4    0    1
 -2       692       715       716       693      5662      5777      5782      5667      1455      1456
 -2      1457      1409     11103     11476     11492     11119     11478     11493     11494     11120
 -1      2318    4    0    1
 -2      5662      5777      5782      5667      5663      5778      5783      5668     11478     11493
 -2     11494     11120     11106     11479     11495     11122     11481     11496     11497     11123
 -1      2319    4    0    1
 -2      5663      5778      5783      5668      5664      5779      5784      5669     11481     11496
 -2     11497     11123     11109     11482     11498     11125     11484     11499     11500     11126
 -1      2320    4    0    1
 -2      5664      5779      5784      5669      5665      5780      5785      5670     11484     11499
 -2     11500     11126     11112     11485     11501     11128     11487     11502     11503     11129
 -1      2321    4    0    1
 -2      5665      5780      5785      5670      5666      5781      5786      5671     11487     11502
 -2     11503     11129     11115     11488     11504     11131     11490     11505     11506     11132
 -1      2322    4    0    1
 -2      5666      5781      5786      5671      3205      3228      3229      3206     11490     11505
 -2     11506     11132     11118     11491     11507     11134      3968      3969      3970      3922
 -1      2323    4    0    1
 -2       693       716       717       694      5667      5782      5787      5672      1457      1458
 -2      1459      1411     11119     11492     11508     11135     11494     11509     11510     11136
 -1      2324    4    0    1
 -2      5667      5782      5787      5672      5668      5783      5788      5673     11494     11509
 -2     11510     11136     11122     11495     11511     11138     11497     11512     11513     11139
 -1      2325    4    0    1
 -2      5668      5783      5788      5673      5669      5784      5789      5674     11497     11512
 -2     11513     11139     11125     11498     11514     11141     11500     11515     11516     11142
 -1      2326    4    0    1
 -2      5669      5784      5789      5674      5670      5785      5790      5675     11500     11515
 -2     11516     11142     11128     11501     11517     11144     11503     11518     11519     11145
 -1      2327    4    0    1
 -2      5670      5785      5790      5675      5671      5786      5791      5676     11503     11518
 -2     11519     11145     11131     11504     11520     11147     11506     11521     11522     11148
 -1      2328    4    0    1
 -2      5671      5786      5791      5676      3206      3229      3230      3207     11506     11521
 -2     11522     11148     11134     11507     11523     11150      3970      3971      3972      3924
 -1      2329    4    0    1
 -2       694       717       718       695      5672      5787      5792      5677      1459      1460
 -2      1461      1413     11135     11508     11524     11151     11510     11525     11526     11152
 -1      2330    4    0    1
 -2      5672      5787      5792      5677      5673      5788      5793      5678     11510     11525
 -2     11526     11152     11138     11511     11527     11154     11513     11528     11529     11155
 -1      2331    4    0    1
 -2      5673      5788      5793      5678      5674      5789      5794      5679     11513     11528
 -2     11529     11155     11141     11514     11530     11157     11516     11531     11532     11158
 -1      2332    4    0    1
 -2      5674      5789      5794      5679      5675      5790      5795      5680     11516     11531
 -2     11532     11158     11144     11517     11533     11160     11519     11534     11535     11161
 -1      2333    4    0    1
 -2      5675      5790      5795      5680      5676      5791      5796      5681     11519     11534
 -2     11535     11161     11147     11520     11536     11163     11522     11537     11538     11164
 -1      2334    4    0    1
 -2      5676      5791      5796      5681      3207      3230      3231      3208     11522     11537
 -2     11538     11164     11150     11523     11539     11166      3972      3973      3974      3926
 -1      2335    4    0    1
 -2       695       718       719       696      5677      5792      5797      5682      1461      1462
 -2      1463      1415     11151     11524     11540     11167     11526     11541     11542     11168
 -1      2336    4    0    1
 -2      5677      5792      5797      5682      5678      5793      5798      5683     11526     11541
 -2     11542     11168     11154     11527     11543     11170     11529     11544     11545     11171
 -1      2337    4    0    1
 -2      5678      5793      5798      5683      5679      5794      5799      5684     11529     11544
 -2     11545     11171     11157     11530     11546     11173     11532     11547     11548     11174
 -1      2338    4    0    1
 -2      5679      5794      5799      5684      5680      5795      5800      5685     11532     11547
 -2     11548     11174     11160     11533     11549     11176     11535     11550     11551     11177
 -1      2339    4    0    1
 -2      5680      5795      5800      5685      5681      5796      5801      5686     11535     11550
 -2     11551     11177     11163     11536     11552     11179     11538     11553     11554     11180
 -1      2340    4    0    1
 -2      5681      5796      5801      5686      3208      3231      3232      3209     11538     11553
 -2     11554     11180     11166     11539     11555     11182      3974      3975      3976      3928
 -1      2341    4    0    1
 -2       696       719       720       697      5682      5797      5802      5687      1463      1464
 -2      1465      1417     11167     11540     11556     11183     11542     11557     11558     11184
 -1      2342    4    0    1
 -2      5682      5797      5802      5687      5683      5798      5803      5688     11542     11557
 -2     11558     11184     11170     11543     11559     11186     11545     11560     11561     11187
 -1      2343    4    0    1
 -2      5683      5798      5803      5688      5684      5799      5804      5689     11545     11560
 -2     11561     11187     11173     11546     11562     11189     11548     11563     11564     11190
 -1      2344    4    0    1
 -2      5684      5799      5804      5689      5685      5800      5805      5690     11548     11563
 -2     11564     11190     11176     11549     11565     11192     11551     11566     11567     11193
 -1      2345    4    0    1
 -2      5685      5800      5805      5690      5686      5801      5806      5691     11551     11566
 -2     11567     11193     11179     11552     11568     11195     11554     11569     11570     11196
 -1      2346    4    0    1
 -2      5686      5801      5806      5691      3209      3232      3233      3210     11554     11569
 -2     11570     11196     11182     11555     11571     11198      3976      3977      3978      3930
 -1      2347    4    0    1
 -2       697       720       721       698      5687      5802      5807      5692      1465      1466
 -2      1467      1419     11183     11556     11572     11199     11558     11573     11574     11200
 -1      2348    4    0    1
 -2      5687      5802      5807      5692      5688      5803      5808      5693     11558     11573
 -2     11574     11200     11186     11559     11575     11202     11561     11576     11577     11203
 -1      2349    4    0    1
 -2      5688      5803      5808      5693      5689      5804      5809      5694     11561     11576
 -2     11577     11203     11189     11562     11578     11205     11564     11579     11580     11206
 -1      2350    4    0    1
 -2      5689      5804      5809      5694      5690      5805      5810      5695     11564     11579
 -2     11580     11206     11192     11565     11581     11208     11567     11582     11583     11209
 -1      2351    4    0    1
 -2      5690      5805      5810      5695      5691      5806      5811      5696     11567     11582
 -2     11583     11209     11195     11568     11584     11211     11570     11585     11586     11212
 -1      2352    4    0    1
 -2      5691      5806      5811      5696      3210      3233      3234      3211     11570     11585
 -2     11586     11212     11198     11571     11587     11214      3978      3979      3980      3932
 -1      2353    4    0    1
 -2       698       721       722       699      5692      5807      5812      5697      1467      1468
 -2      1469      1421     11199     11572     11588     11215     11574     11589     11590     11216
 -1      2354    4    0    1
 -2      5692      5807      5812      5697      5693      5808      5813      5698     11574     11589
 -2     11590     11216     11202     11575     11591     11218     11577     11592     11593     11219
 -1      2355    4    0    1
 -2      5693      5808      5813      5698      5694      5809      5814      5699     11577     11592
 -2     11593     11219     11205     11578     11594     11221     11580     11595     11596     11222
 -1      2356    4    0    1
 -2      5694      5809      5814      5699      5695      5810      5815      5700     11580     11595
 -2     11596     11222     11208     11581     11597     11224     11583     11598     11599     11225
 -1      2357    4    0    1
 -2      5695      5810      5815      5700      5696      5811      5816      5701     11583     11598
 -2     11599     11225     11211     11584     11600     11227     11586     11601     11602     11228
 -1      2358    4    0    1
 -2      5696      5811      5816      5701      3211      3234      3235      3212     11586     11601
 -2     11602     11228     11214     11587     11603     11230      3980      3981      3982      3934
 -1      2359    4    0    1
 -2       699       722       723       700      5697      5812      5817      5702      1469      1470
 -2      1471      1423     11215     11588     11604     11231     11590     11605     11606     11232
 -1      2360    4    0    1
 -2      5697      5812      5817      5702      5698      5813      5818      5703     11590     11605
 -2     11606     11232     11218     11591     11607     11234     11593     11608     11609     11235
 -1      2361    4    0    1
 -2      5698      5813      5818      5703      5699      5814      5819      5704     11593     11608
 -2     11609     11235     11221     11594     11610     11237     11596     11611     11612     11238
 -1      2362    4    0    1
 -2      5699      5814      5819      5704      5700      5815      5820      5705     11596     11611
 -2     11612     11238     11224     11597     11613     11240     11599     11614     11615     11241
 -1      2363    4    0    1
 -2      5700      5815      5820      5705      5701      5816      5821      5706     11599     11614
 -2     11615     11241     11227     11600     11616     11243     11602     11617     11618     11244
 -1      2364    4    0    1
 -2      5701      5816      5821      5706      3212      3235      3236      3213     11602     11617
 -2     11618     11244     11230     11603     11619     11246      3982      3983      3984      3936
 -1      2365    4    0    1
 -2       700       723       724       701      5702      5817      5822      5707      1471      1472
 -2      1473      1425     11231     11604     11620     11247     11606     11621     11622     11248
 -1      2366    4    0    1
 -2      5702      5817      5822      5707      5703      5818      5823      5708     11606     11621
 -2     11622     11248     11234     11607     11623     11250     11609     11624     11625     11251
 -1      2367    4    0    1
 -2      5703      5818      5823      5708      5704      5819      5824      5709     11609     11624
 -2     11625     11251     11237     11610     11626     11253     11612     11627     11628     11254
 -1      2368    4    0    1
 -2      5704      5819      5824      5709      5705      5820      5825      5710     11612     11627
 -2     11628     11254     11240     11613     11629     11256     11615     11630     11631     11257
 -1      2369    4    0    1
 -2      5705      5820      5825      5710      5706      5821      5826      5711     11615     11630
 -2     11631     11257     11243     11616     11632     11259     11618     11633     11634     11260
 -1      2370    4    0    1
 -2      5706      5821      5826      5711      3213      3236      3237      3214     11618     11633
 -2     11634     11260     11246     11619     11635     11262      3984      3985      3986      3938
 -1      2371    4    0    1
 -2       701       724       725       702      5707      5822      5827      5712      1473      1474
 -2      1475      1427     11247     11620     11636     11263     11622     11637     11638     11264
 -1      2372    4    0    1
 -2      5707      5822      5827      5712      5708      5823      5828      5713     11622     11637
 -2     11638     11264     11250     11623     11639     11266     11625     11640     11641     11267
 -1      2373    4    0    1
 -2      5708      5823      5828      5713      5709      5824      5829      5714     11625     11640
 -2     11641     11267     11253     11626     11642     11269     11628     11643     11644     11270
 -1      2374    4    0    1
 -2      5709      5824      5829      5714      5710      5825      5830      5715     11628     11643
 -2     11644     11270     11256     11629     11645     11272     11631     11646     11647     11273
 -1      2375    4    0    1
 -2      5710      5825      5830      5715      5711      5826      5831      5716     11631     11646
 -2     11647     11273     11259     11632     11648     11275     11634     11649     11650     11276
 -1      2376    4    0    1
 -2      5711      5826      5831      5716      3214      3237      3238      3215     11634     11649
 -2     11650     11276     11262     11635     11651     11278      3986      3987      3988      3940
 -1      2377    4    0    1
 -2       702       725        93        94      5712      5827      2254      2259      1475      1476
 -2       111      1429     11263     11636      2351      2362     11638     11652      2363     11279
 -1      2378    4    0    1
 -2      5712      5827      2254      2259      5713      5828      2255      2260     11638     11652
 -2      2363     11279     11266     11639      2353      2364     11641     11653      2365     11280
 -1      2379    4    0    1
 -2      5713      5828      2255      2260      5714      5829      2256      2261     11641     11653
 -2      2365     11280     11269     11642      2355      2366     11644     11654      2367     11281
 -1      2380    4    0    1
 -2      5714      5829      2256      2261      5715      5830      2257      2262     11644     11654
 -2      2367     11281     11272     11645      2357      2368     11647     11655      2369     11282
 -1      2381    4    0    1
 -2      5715      5830      2257      2262      5716      5831      2258      2263     11647     11655
 -2      2369     11282     11275     11648      2359      2370     11650     11656      2371     11283
 -1      2382    4    0    1
 -2      5716      5831      2258      2263      3215      3238       257       258     11650     11656
 -2      2371     11283     11278     11651      2361      2372      3988      3989       275      3942
 -1      2383    4    0    1
 -2        23        24       726       703      1664      1669      5832      5717        41      1477
 -2      1478      1430      1833      1844     11657     11284      1845     11658     11659     11285
 -1      2384    4    0    1
 -2      1664      1669      5832      5717      1665      1670      5833      5718      1845     11658
 -2     11659     11285      1835      1846     11660     11287      1847     11661     11662     11288
 -1      2385    4    0    1
 -2      1665      1670      5833      5718      1666      1671      5834      5719      1847     11661
 -2     11662     11288      1837      1848     11663     11290      1849     11664     11665     11291
 -1      2386    4    0    1
 -2      1666      1671      5834      5719      1667      1672      5835      5720      1849     11664
 -2     11665     11291      1839      1850     11666     11293      1851     11667     11668     11294
 -1      2387    4    0    1
 -2      1667      1672      5835      5720      1668      1673      5836      5721      1851     11667
 -2     11668     11294      1841      1852     11669     11296      1853     11670     11671     11297
 -1      2388    4    0    1
 -2      1668      1673      5836      5721       187       188      3239      3216      1853     11670
 -2     11671     11297      1843      1854     11672     11299       205      3990      3991      3943
 -1      2389    4    0    1
 -2       703       726       727       704      5717      5832      5837      5722      1478      1479
 -2      1480      1432     11284     11657     11673     11300     11659     11674     11675     11301
 -1      2390    4    0    1
 -2      5717      5832      5837      5722      5718      5833      5838      5723     11659     11674
 -2     11675     11301     11287     11660     11676     11303     11662     11677     11678     11304
 -1      2391    4    0    1
 -2      5718      5833      5838      5723      5719      5834      5839      5724     11662     11677
 -2     11678     11304     11290     11663     11679     11306     11665     11680     11681     11307
 -1      2392    4    0    1
 -2      5719      5834      5839      5724      5720      5835      5840      5725     11665     11680
 -2     11681     11307     11293     11666     11682     11309     11668     11683     11684     11310
 -1      2393    4    0    1
 -2      5720      5835      5840      5725      5721      5836      5841      5726     11668     11683
 -2     11684     11310     11296     11669     11685     11312     11671     11686     11687     11313
 -1      2394    4    0    1
 -2      5721      5836      5841      5726      3216      3239      3240      3217     11671     11686
 -2     11687     11313     11299     11672     11688     11315      3991      3992      3993      3945
 -1      2395    4    0    1
 -2       704       727       728       705      5722      5837      5842      5727      1480      1481
 -2      1482      1434     11300     11673     11689     11316     11675     11690     11691     11317
 -1      2396    4    0    1
 -2      5722      5837      5842      5727      5723      5838      5843      5728     11675     11690
 -2     11691     11317     11303     11676     11692     11319     11678     11693     11694     11320
 -1      2397    4    0    1
 -2      5723      5838      5843      5728      5724      5839      5844      5729     11678     11693
 -2     11694     11320     11306     11679     11695     11322     11681     11696     11697     11323
 -1      2398    4    0    1
 -2      5724      5839      5844      5729      5725      5840      5845      5730     11681     11696
 -2     11697     11323     11309     11682     11698     11325     11684     11699     11700     11326
 -1      2399    4    0    1
 -2      5725      5840      5845      5730      5726      5841      5846      5731     11684     11699
 -2     11700     11326     11312     11685     11701     11328     11687     11702     11703     11329
 -1      2400    4    0    1
 -2      5726      5841      5846      5731      3217      3240      3241      3218     11687     11702
 -2     11703     11329     11315     11688     11704     11331      3993      3994      3995      3947
 -1      2401    4    0    1
 -2       705       728       729       706      5727      5842      5847      5732      1482      1483
 -2      1484      1436     11316     11689     11705     11332     11691     11706     11707     11333
 -1      2402    4    0    1
 -2      5727      5842      5847      5732      5728      5843      5848      5733     11691     11706
 -2     11707     11333     11319     11692     11708     11335     11694     11709     11710     11336
 -1      2403    4    0    1
 -2      5728      5843      5848      5733      5729      5844      5849      5734     11694     11709
 -2     11710     11336     11322     11695     11711     11338     11697     11712     11713     11339
 -1      2404    4    0    1
 -2      5729      5844      5849      5734      5730      5845      5850      5735     11697     11712
 -2     11713     11339     11325     11698     11714     11341     11700     11715     11716     11342
 -1      2405    4    0    1
 -2      5730      5845      5850      5735      5731      5846      5851      5736     11700     11715
 -2     11716     11342     11328     11701     11717     11344     11703     11718     11719     11345
 -1      2406    4    0    1
 -2      5731      5846      5851      5736      3218      3241      3242      3219     11703     11718
 -2     11719     11345     11331     11704     11720     11347      3995      3996      3997      3949
 -1      2407    4    0    1
 -2       706       729       730       707      5732      5847      5852      5737      1484      1485
 -2      1486      1438     11332     11705     11721     11348     11707     11722     11723     11349
 -1      2408    4    0    1
 -2      5732      5847      5852      5737      5733      5848      5853      5738     11707     11722
 -2     11723     11349     11335     11708     11724     11351     11710     11725     11726     11352
 -1      2409    4    0    1
 -2      5733      5848      5853      5738      5734      5849      5854      5739     11710     11725
 -2     11726     11352     11338     11711     11727     11354     11713     11728     11729     11355
 -1      2410    4    0    1
 -2      5734      5849      5854      5739      5735      5850      5855      5740     11713     11728
 -2     11729     11355     11341     11714     11730     11357     11716     11731     11732     11358
 -1      2411    4    0    1
 -2      5735      5850      5855      5740      5736      5851      5856      5741     11716     11731
 -2     11732     11358     11344     11717     11733     11360     11719     11734     11735     11361
 -1      2412    4    0    1
 -2      5736      5851      5856      5741      3219      3242      3243      3220     11719     11734
 -2     11735     11361     11347     11720     11736     11363      3997      3998      3999      3951
 -1      2413    4    0    1
 -2       707       730       731       708      5737      5852      5857      5742      1486      1487
 -2      1488      1440     11348     11721     11737     11364     11723     11738     11739     11365
 -1      2414    4    0    1
 -2      5737      5852      5857      5742      5738      5853      5858      5743     11723     11738
 -2     11739     11365     11351     11724     11740     11367     11726     11741     11742     11368
 -1      2415    4    0    1
 -2      5738      5853      5858      5743      5739      5854      5859      5744     11726     11741
 -2     11742     11368     11354     11727     11743     11370     11729     11744     11745     11371
 -1      2416    4    0    1
 -2      5739      5854      5859      5744      5740      5855      5860      5745     11729     11744
 -2     11745     11371     11357     11730     11746     11373     11732     11747     11748     11374
 -1      2417    4    0    1
 -2      5740      5855      5860      5745      5741      5856      5861      5746     11732     11747
 -2     11748     11374     11360     11733     11749     11376     11735     11750     11751     11377
 -1      2418    4    0    1
 -2      5741      5856      5861      5746      3220      3243      3244      3221     11735     11750
 -2     11751     11377     11363     11736     11752     11379      3999      4000      4001      3953
 -1      2419    4    0    1
 -2       708       731       732       709      5742      5857      5862      5747      1488      1489
 -2      1490      1442     11364     11737     11753     11380     11739     11754     11755     11381
 -1      2420    4    0    1
 -2      5742      5857      5862      5747      5743      5858      5863      5748     11739     11754
 -2     11755     11381     11367     11740     11756     11383     11742     11757     11758     11384
 -1      2421    4    0    1
 -2      5743      5858      5863      5748      5744      5859      5864      5749     11742     11757
 -2     11758     11384     11370     11743     11759     11386     11745     11760     11761     11387
 -1      2422    4    0    1
 -2      5744      5859      5864      5749      5745      5860      5865      5750     11745     11760
 -2     11761     11387     11373     11746     11762     11389     11748     11763     11764     11390
 -1      2423    4    0    1
 -2      5745      5860      5865      5750      5746      5861      5866      5751     11748     11763
 -2     11764     11390     11376     11749     11765     11392     11751     11766     11767     11393
 -1      2424    4    0    1
 -2      5746      5861      5866      5751      3221      3244      3245      3222     11751     11766
 -2     11767     11393     11379     11752     11768     11395      4001      4002      4003      3955
 -1      2425    4    0    1
 -2       709       732       733       710      5747      5862      5867      5752      1490      1491
 -2      1492      1444     11380     11753     11769     11396     11755     11770     11771     11397
 -1      2426    4    0    1
 -2      5747      5862      5867      5752      5748      5863      5868      5753     11755     11770
 -2     11771     11397     11383     11756     11772     11399     11758     11773     11774     11400
 -1      2427    4    0    1
 -2      5748      5863      5868      5753      5749      5864      5869      5754     11758     11773
 -2     11774     11400     11386     11759     11775     11402     11761     11776     11777     11403
 -1      2428    4    0    1
 -2      5749      5864      5869      5754      5750      5865      5870      5755     11761     11776
 -2     11777     11403     11389     11762     11778     11405     11764     11779     11780     11406
 -1      2429    4    0    1
 -2      5750      5865      5870      5755      5751      5866      5871      5756     11764     11779
 -2     11780     11406     11392     11765     11781     11408     11767     11782     11783     11409
 -1      2430    4    0    1
 -2      5751      5866      5871      5756      3222      3245      3246      3223     11767     11782
 -2     11783     11409     11395     11768     11784     11411      4003      4004      4005      3957
 -1      2431    4    0    1
 -2       710       733       734       711      5752      5867      5872      5757      1492      1493
 -2      1494      1446     11396     11769     11785     11412     11771     11786     11787     11413
 -1      2432    4    0    1
 -2      5752      5867      5872      5757      5753      5868      5873      5758     11771     11786
 -2     11787     11413     11399     11772     11788     11415     11774     11789     11790     11416
 -1      2433    4    0    1
 -2      5753      5868      5873      5758      5754      5869      5874      5759     11774     11789
 -2     11790     11416     11402     11775     11791     11418     11777     11792     11793     11419
 -1      2434    4    0    1
 -2      5754      5869      5874      5759      5755      5870      5875      5760     11777     11792
 -2     11793     11419     11405     11778     11794     11421     11780     11795     11796     11422
 -1      2435    4    0    1
 -2      5755      5870      5875      5760      5756      5871      5876      5761     11780     11795
 -2     11796     11422     11408     11781     11797     11424     11783     11798     11799     11425
 -1      2436    4    0    1
 -2      5756      5871      5876      5761      3223      3246      3247      3224     11783     11798
 -2     11799     11425     11411     11784     11800     11427      4005      4006      4007      3959
 -1      2437    4    0    1
 -2       711       734       735       712      5757      5872      5877      5762      1494      1495
 -2      1496      1448     11412     11785     11801     11428     11787     11802     11803     11429
 -1      2438    4    0    1
 -2      5757      5872      5877      5762      5758      5873      5878      5763     11787     11802
 -2     11803     11429     11415     11788     11804     11431     11790     11805     11806     11432
 -1      2439    4    0    1
 -2      5758      5873      5878      5763      5759      5874      5879      5764     11790     11805
 -2     11806     11432     11418     11791     11807     11434     11793     11808     11809     11435
 -1      2440    4    0    1
 -2      5759      5874      5879      5764      5760      5875      5880      5765     11793     11808
 -2     11809     11435     11421     11794     11810     11437     11796     11811     11812     11438
 -1      2441    4    0    1
 -2      5760      5875      5880      5765      5761      5876      5881      5766     11796     11811
 -2     11812     11438     11424     11797     11813     11440     11799     11814     11815     11441
 -1      2442    4    0    1
 -2      5761      5876      5881      5766      3224      3247      3248      3225     11799     11814
 -2     11815     11441     11427     11800     11816     11443      4007      4008      4009      3961
 -1      2443    4    0    1
 -2       712       735       736       713      5762      5877      5882      5767      1496      1497
 -2      1498      1450     11428     11801     11817     11444     11803     11818     11819     11445
 -1      2444    4    0    1
 -2      5762      5877      5882      5767      5763      5878      5883      5768     11803     11818
 -2     11819     11445     11431     11804     11820     11447     11806     11821     11822     11448
 -1      2445    4    0    1
 -2      5763      5878      5883      5768      5764      5879      5884      5769     11806     11821
 -2     11822     11448     11434     11807     11823     11450     11809     11824     11825     11451
 -1      2446    4    0    1
 -2      5764      5879      5884      5769      5765      5880      5885      5770     11809     11824
 -2     11825     11451     11437     11810     11826     11453     11812     11827     11828     11454
 -1      2447    4    0    1
 -2      5765      5880      5885      5770      5766      5881      5886      5771     11812     11827
 -2     11828     11454     11440     11813     11829     11456     11815     11830     11831     11457
 -1      2448    4    0    1
 -2      5766      5881      5886      5771      3225      3248      3249      3226     11815     11830
 -2     11831     11457     11443     11816     11832     11459      4009      4010      4011      3963
 -1      2449    4    0    1
 -2       713       736       737       714      5767      5882      5887      5772      1498      1499
 -2      1500      1452     11444     11817     11833     11460     11819     11834     11835     11461
 -1      2450    4    0    1
 -2      5767      5882      5887      5772      5768      5883      5888      5773     11819     11834
 -2     11835     11461     11447     11820     11836     11463     11822     11837     11838     11464
 -1      2451    4    0    1
 -2      5768      5883      5888      5773      5769      5884      5889      5774     11822     11837
 -2     11838     11464     11450     11823     11839     11466     11825     11840     11841     11467
 -1      2452    4    0    1
 -2      5769      5884      5889      5774      5770      5885      5890      5775     11825     11840
 -2     11841     11467     11453     11826     11842     11469     11828     11843     11844     11470
 -1      2453    4    0    1
 -2      5770      5885      5890      5775      5771      5886      5891      5776     11828     11843
 -2     11844     11470     11456     11829     11845     11472     11831     11846     11847     11473
 -1      2454    4    0    1
 -2      5771      5886      5891      5776      3226      3249      3250      3227     11831     11846
 -2     11847     11473     11459     11832     11848     11475      4011      4012      4013      3965
 -1      2455    4    0    1
 -2       714       737       738       715      5772      5887      5892      5777      1500      1501
 -2      1502      1454     11460     11833     11849     11476     11835     11850     11851     11477
 -1      2456    4    0    1
 -2      5772      5887      5892      5777      5773      5888      5893      5778     11835     11850
 -2     11851     11477     11463     11836     11852     11479     11838     11853     11854     11480
 -1      2457    4    0    1
 -2      5773      5888      5893      5778      5774      5889      5894      5779     11838     11853
 -2     11854     11480     11466     11839     11855     11482     11841     11856     11857     11483
 -1      2458    4    0    1
 -2      5774      5889      5894      5779      5775      5890      5895      5780     11841     11856
 -2     11857     11483     11469     11842     11858     11485     11844     11859     11860     11486
 -1      2459    4    0    1
 -2      5775      5890      5895      5780      5776      5891      5896      5781     11844     11859
 -2     11860     11486     11472     11845     11861     11488     11847     11862     11863     11489
 -1      2460    4    0    1
 -2      5776      5891      5896      5781      3227      3250      3251      3228     11847     11862
 -2     11863     11489     11475     11848     11864     11491      4013      4014      4015      3967
 -1      2461    4    0    1
 -2       715       738       739       716      5777      5892      5897      5782      1502      1503
 -2      1504      1456     11476     11849     11865     11492     11851     11866     11867     11493
 -1      2462    4    0    1
 -2      5777      5892      5897      5782      5778      5893      5898      5783     11851     11866
 -2     11867     11493     11479     11852     11868     11495     11854     11869     11870     11496
 -1      2463    4    0    1
 -2      5778      5893      5898      5783      5779      5894      5899      5784     11854     11869
 -2     11870     11496     11482     11855     11871     11498     11857     11872     11873     11499
 -1      2464    4    0    1
 -2      5779      5894      5899      5784      5780      5895      5900      5785     11857     11872
 -2     11873     11499     11485     11858     11874     11501     11860     11875     11876     11502
 -1      2465    4    0    1
 -2      5780      5895      5900      5785      5781      5896      5901      5786     11860     11875
 -2     11876     11502     11488     11861     11877     11504     11863     11878     11879     11505
 -1      2466    4    0    1
 -2      5781      5896      5901      5786      3228      3251      3252      3229     11863     11878
 -2     11879     11505     11491     11864     11880     11507      4015      4016      4017      3969
 -1      2467    4    0    1
 -2       716       739       740       717      5782      5897      5902      5787      1504      1505
 -2      1506      1458     11492     11865     11881     11508     11867     11882     11883     11509
 -1      2468    4    0    1
 -2      5782      5897      5902      5787      5783      5898      5903      5788     11867     11882
 -2     11883     11509     11495     11868     11884     11511     11870     11885     11886     11512
 -1      2469    4    0    1
 -2      5783      5898      5903      5788      5784      5899      5904      5789     11870     11885
 -2     11886     11512     11498     11871     11887     11514     11873     11888     11889     11515
 -1      2470    4    0    1
 -2      5784      5899      5904      5789      5785      5900      5905      5790     11873     11888
 -2     11889     11515     11501     11874     11890     11517     11876     11891     11892     11518
 -1      2471    4    0    1
 -2      5785      5900      5905      5790      5786      5901      5906      5791     11876     11891
 -2     11892     11518     11504     11877     11893     11520     11879     11894     11895     11521
 -1      2472    4    0    1
 -2      5786      5901      5906      5791      3229      3252      3253      3230     11879     11894
 -2     11895     11521     11507     11880     11896     11523      4017      4018      4019      3971
 -1      2473    4    0    1
 -2       717       740       741       718      5787      5902      5907      5792      1506      1507
 -2      1508      1460     11508     11881     11897     11524     11883     11898     11899     11525
 -1      2474    4    0    1
 -2      5787      5902      5907      5792      5788      5903      5908      5793     11883     11898
 -2     11899     11525     11511     11884     11900     11527     11886     11901     11902     11528
 -1      2475    4    0    1
 -2      5788      5903      5908      5793      5789      5904      5909      5794     11886     11901
 -2     11902     11528     11514     11887     11903     11530     11889     11904     11905     11531
 -1      2476    4    0    1
 -2      5789      5904      5909      5794      5790      5905      5910      5795     11889     11904
 -2     11905     11531     11517     11890     11906     11533     11892     11907     11908     11534
 -1      2477    4    0    1
 -2      5790      5905      5910      5795      5791      5906      5911      5796     11892     11907
 -2     11908     11534     11520     11893     11909     11536     11895     11910     11911     11537
 -1      2478    4    0    1
 -2      5791      5906      5911      5796      3230      3253      3254      3231     11895     11910
 -2     11911     11537     11523     11896     11912     11539      4019      4020      4021      3973
 -1      2479    4    0    1
 -2       718       741       742       719      5792      5907      5912      5797      1508      1509
 -2      1510      1462     11524     11897     11913     11540     11899     11914     11915     11541
 -1      2480    4    0    1
 -2      5792      5907      5912      5797      5793      5908      5913      5798     11899     11914
 -2     11915     11541     11527     11900     11916     11543     11902     11917     11918     11544
 -1      2481    4    0    1
 -2      5793      5908      5913      5798      5794      5909      5914      5799     11902     11917
 -2     11918     11544     11530     11903     11919     11546     11905     11920     11921     11547
 -1      2482    4    0    1
 -2      5794      5909      5914      5799      5795      5910      5915      5800     11905     11920
 -2     11921     11547     11533     11906     11922     11549     11908     11923     11924     11550
 -1      2483    4    0    1
 -2      5795      5910      5915      5800      5796      5911      5916      5801     11908     11923
 -2     11924     11550     11536     11909     11925     11552     11911     11926     11927     11553
 -1      2484    4    0    1
 -2      5796      5911      5916      5801      3231      3254      3255      3232     11911     11926
 -2     11927     11553     11539     11912     11928     11555      4021      4022      4023      3975
 -1      2485    4    0    1
 -2       719       742       743       720      5797      5912      5917      5802      1510      1511
 -2      1512      1464     11540     11913     11929     11556     11915     11930     11931     11557
 -1      2486    4    0    1
 -2      5797      5912      5917      5802      5798      5913      5918      5803     11915     11930
 -2     11931     11557     11543     11916     11932     11559     11918     11933     11934     11560
 -1      2487    4    0    1
 -2      5798      5913      5918      5803      5799      5914      5919      5804     11918     11933
 -2     11934     11560     11546     11919     11935     11562     11921     11936     11937     11563
 -1      2488    4    0    1
 -2      5799      5914      5919      5804      5800      5915      5920      5805     11921     11936
 -2     11937     11563     11549     11922     11938     11565     11924     11939     11940     11566
 -1      2489    4    0    1
 -2      5800      5915      5920      5805      5801      5916      5921      5806     11924     11939
 -2     11940     11566     11552     11925     11941     11568     11927     11942     11943     11569
 -1      2490    4    0    1
 -2      5801      5916      5921      5806      3232      3255      3256      3233     11927     11942
 -2     11943     11569     11555     11928     11944     11571      4023      4024      4025      3977
 -1      2491    4    0    1
 -2       720       743       744       721      5802      5917      5922      5807      1512      1513
 -2      1514      1466     11556     11929     11945     11572     11931     11946     11947     11573
 -1      2492    4    0    1
 -2      5802      5917      5922      5807      5803      5918      5923      5808     11931     11946
 -2     11947     11573     11559     11932     11948     11575     11934     11949     11950     11576
 -1      2493    4    0    1
 -2      5803      5918      5923      5808      5804      5919      5924      5809     11934     11949
 -2     11950     11576     11562     11935     11951     11578     11937     11952     11953     11579
 -1      2494    4    0    1
 -2      5804      5919      5924      5809      5805      5920      5925      5810     11937     11952
 -2     11953     11579     11565     11938     11954     11581     11940     11955     11956     11582
 -1      2495    4    0    1
 -2      5805      5920      5925      5810      5806      5921      5926      5811     11940     11955
 -2     11956     11582     11568     11941     11957     11584     11943     11958     11959     11585
 -1      2496    4    0    1
 -2      5806      5921      5926      5811      3233      3256      3257      3234     11943     11958
 -2     11959     11585     11571     11944     11960     11587      4025      4026      4027      3979
 -1      2497    4    0    1
 -2       721       744       745       722      5807      5922      5927      5812      1514      1515
 -2      1516      1468     11572     11945     11961     11588     11947     11962     11963     11589
 -1      2498    4    0    1
 -2      5807      5922      5927      5812      5808      5923      5928      5813     11947     11962
 -2     11963     11589     11575     11948     11964     11591     11950     11965     11966     11592
 -1      2499    4    0    1
 -2      5808      5923      5928      5813      5809      5924      5929      5814     11950     11965
 -2     11966     11592     11578     11951     11967     11594     11953     11968     11969     11595
 -1      2500    4    0    1
 -2      5809      5924      5929      5814      5810      5925      5930      5815     11953     11968
 -2     11969     11595     11581     11954     11970     11597     11956     11971     11972     11598
 -1      2501    4    0    1
 -2      5810      5925      5930      5815      5811      5926      5931      5816     11956     11971
 -2     11972     11598     11584     11957     11973     11600     11959     11974     11975     11601
 -1      2502    4    0    1
 -2      5811      5926      5931      5816      3234      3257      3258      3235     11959     11974
 -2     11975     11601     11587     11960     11976     11603      4027      4028      4029      3981
 -1      2503    4    0    1
 -2       722       745       746       723      5812      5927      5932      5817      1516      1517
 -2      1518      1470     11588     11961     11977     11604     11963     11978     11979     11605
 -1      2504    4    0    1
 -2      5812      5927      5932      5817      5813      5928      5933      5818     11963     11978
 -2     11979     11605     11591     11964     11980     11607     11966     11981     11982     11608
 -1      2505    4    0    1
 -2      5813      5928      5933      5818      5814      5929      5934      5819     11966     11981
 -2     11982     11608     11594     11967     11983     11610     11969     11984     11985     11611
 -1      2506    4    0    1
 -2      5814      5929      5934      5819      5815      5930      5935      5820     11969     11984
 -2     11985     11611     11597     11970     11986     11613     11972     11987     11988     11614
 -1      2507    4    0    1
 -2      5815      5930      5935      5820      5816      5931      5936      5821     11972     11987
 -2     11988     11614     11600     11973     11989     11616     11975     11990     11991     11617
 -1      2508    4    0    1
 -2      5816      5931      5936      5821      3235      3258      3259      3236     11975     11990
 -2     11991     11617     11603     11976     11992     11619      4029      4030      4031      3983
 -1      2509    4    0    1
 -2       723       746       747       724      5817      5932      5937      5822      1518      1519
 -2      1520      1472     11604     11977     11993     11620     11979     11994     11995     11621
 -1      2510    4    0    1
 -2      5817      5932      5937      5822      5818      5933      5938      5823     11979     11994
 -2     11995     11621     11607     11980     11996     11623     11982     11997     11998     11624
 -1      2511    4    0    1
 -2      5818      5933      5938      5823      5819      5934      5939      5824     11982     11997
 -2     11998     11624     11610     11983     11999     11626     11985     12000     12001     11627
 -1      2512    4    0    1
 -2      5819      5934      5939      5824      5820      5935      5940      5825     11985     12000
 -2     12001     11627     11613     11986     12002     11629     11988     12003     12004     11630
 -1      2513    4    0    1
 -2      5820      5935      5940      5825      5821      5936      5941      5826     11988     12003
 -2     12004     11630     11616     11989     12005     11632     11991     12006     12007     11633
 -1      2514    4    0    1
 -2      5821      5936      5941      5826      3236      3259      3260      3237     11991     12006
 -2     12007     11633     11619     11992     12008     11635      4031      4032      4033      3985
 -1      2515    4    0    1
 -2       724       747       748       725      5822      5937      5942      5827      1520      1521
 -2      1522      1474     11620     11993     12009     11636     11995     12010     12011     11637
 -1      2516    4    0    1
 -2      5822      5937      5942      5827      5823      5938      5943      5828     11995     12010
 -2     12011     11637     11623     11996     12012     11639     11998     12013     12014     11640
 -1      2517    4    0    1
 -2      5823      5938      5943      5828      5824      5939      5944      5829     11998     12013
 -2     12014     11640     11626     11999     12015     11642     12001     12016     12017     11643
 -1      2518    4    0    1
 -2      5824      5939      5944      5829      5825      5940      5945      5830     12001     12016
 -2     12017     11643     11629     12002     12018     11645     12004     12019     12020     11646
 -1      2519    4    0    1
 -2      5825      5940      5945      5830      5826      5941      5946      5831     12004     12019
 -2     12020     11646     11632     12005     12021     11648     12007     12022     12023     11649
 -1      2520    4    0    1
 -2      5826      5941      5946      5831      3237      3260      3261      3238     12007     12022
 -2     12023     11649     11635     12008     12024     11651      4033      4034      4035      3987
 -1      2521    4    0    1
 -2       725       748        92        93      5827      5942      2249      2254      1522      1523
 -2       110      1476     11636     12009      2340      2351     12011     12025      2352     11652
 -1      2522    4    0    1
 -2      5827      5942      2249      2254      5828      5943      2250      2255     12011     12025
 -2      2352     11652     11639     12012      2342      2353     12014     12026      2354     11653
 -1      2523    4    0    1
 -2      5828      5943      2250      2255      5829      5944      2251      2256     12014     12026
 -2      2354     11653     11642     12015      2344      2355     12017     12027      2356     11654
 -1      2524    4    0    1
 -2      5829      5944      2251      2256      5830      5945      2252      2257     12017     12027
 -2      2356     11654     11645     12018      2346      2357     12020     12028      2358     11655
 -1      2525    4    0    1
 -2      5830      5945      2252      2257      5831      5946      2253      2258     12020     12028
 -2      2358     11655     11648     12021      2348      2359     12023     12029      2360     11656
 -1      2526    4    0    1
 -2      5831      5946      2253      2258      3238      3261       256       257     12023     12029
 -2      2360     11656     11651     12024      2350      2361      4035      4036       274      3989
 -1      2527    4    0    1
 -2        24        25       749       726      1669      1674      5947      5832        42      1524
 -2      1525      1477      1844      1855     12030     11657      1856     12031     12032     11658
 -1      2528    4    0    1
 -2      1669      1674      5947      5832      1670      1675      5948      5833      1856     12031
 -2     12032     11658      1846      1857     12033     11660      1858     12034     12035     11661
 -1      2529    4    0    1
 -2      1670      1675      5948      5833      1671      1676      5949      5834      1858     12034
 -2     12035     11661      1848      1859     12036     11663      1860     12037     12038     11664
 -1      2530    4    0    1
 -2      1671      1676      5949      5834      1672      1677      5950      5835      1860     12037
 -2     12038     11664      1850      1861     12039     11666      1862     12040     12041     11667
 -1      2531    4    0    1
 -2      1672      1677      5950      5835      1673      1678      5951      5836      1862     12040
 -2     12041     11667      1852      1863     12042     11669      1864     12043     12044     11670
 -1      2532    4    0    1
 -2      1673      1678      5951      5836       188       189      3262      3239      1864     12043
 -2     12044     11670      1854      1865     12045     11672       206      4037      4038      3990
 -1      2533    4    0    1
 -2       726       749       750       727      5832      5947      5952      5837      1525      1526
 -2      1527      1479     11657     12030     12046     11673     12032     12047     12048     11674
 -1      2534    4    0    1
 -2      5832      5947      5952      5837      5833      5948      5953      5838     12032     12047
 -2     12048     11674     11660     12033     12049     11676     12035     12050     12051     11677
 -1      2535    4    0    1
 -2      5833      5948      5953      5838      5834      5949      5954      5839     12035     12050
 -2     12051     11677     11663     12036     12052     11679     12038     12053     12054     11680
 -1      2536    4    0    1
 -2      5834      5949      5954      5839      5835      5950      5955      5840     12038     12053
 -2     12054     11680     11666     12039     12055     11682     12041     12056     12057     11683
 -1      2537    4    0    1
 -2      5835      5950      5955      5840      5836      5951      5956      5841     12041     12056
 -2     12057     11683     11669     12042     12058     11685     12044     12059     12060     11686
 -1      2538    4    0    1
 -2      5836      5951      5956      5841      3239      3262      3263      3240     12044     12059
 -2     12060     11686     11672     12045     12061     11688      4038      4039      4040      3992
 -1      2539    4    0    1
 -2       727       750       751       728      5837      5952      5957      5842      1527      1528
 -2      1529      1481     11673     12046     12062     11689     12048     12063     12064     11690
 -1      2540    4    0    1
 -2      5837      5952      5957      5842      5838      5953      5958      5843     12048     12063
 -2     12064     11690     11676     12049     12065     11692     12051     12066     12067     11693
 -1      2541    4    0    1
 -2      5838      5953      5958      5843      5839      5954      5959      5844     12051     12066
 -2     12067     11693     11679     12052     12068     11695     12054     12069     12070     11696
 -1      2542    4    0    1
 -2      5839      5954      5959      5844      5840      5955      5960      5845     12054     12069
 -2     12070     11696     11682     12055     12071     11698     12057     12072     12073     11699
 -1      2543    4    0    1
 -2      5840      5955      5960      5845      5841      5956      5961      5846     12057     12072
 -2     12073     11699     11685     12058     12074     11701     12060     12075     12076     11702
 -1      2544    4    0    1
 -2      5841      5956      5961      5846      3240      3263      3264      3241     12060     12075
 -2     12076     11702     11688     12061     12077     11704      4040      4041      4042      3994
 -1      2545    4    0    1
 -2       728       751       752       729      5842      5957      5962      5847      1529      1530
 -2      1531      1483     11689     12062     12078     11705     12064     12079     12080     11706
 -1      2546    4    0    1
 -2      5842      5957      5962      5847      5843      5958      5963      5848     12064     12079
 -2     12080     11706     11692     12065     12081     11708     12067     12082     12083     11709
 -1      2547    4    0    1
 -2      5843      5958      5963      5848      5844      5959      5964      5849     12067     12082
 -2     12083     11709     11695     12068     12084     11711     12070     12085     12086     11712
 -1      2548    4    0    1
 -2      5844      5959      5964      5849      5845      5960      5965      5850     12070     12085
 -2     12086     11712     11698     12071     12087     11714     12073     12088     12089     11715
 -1      2549    4    0    1
 -2      5845      5960      5965      5850      5846      5961      5966      5851     12073     12088
 -2     12089     11715     11701     12074     12090     11717     12076     12091     12092     11718
 -1      2550    4    0    1
 -2      5846      5961      5966      5851      3241      3264      3265      3242     12076     12091
 -2     12092     11718     11704     12077     12093     11720      4042      4043      4044      3996
 -1      2551    4    0    1
 -2       729       752       753       730      5847      5962      5967      5852      1531      1532
 -2      1533      1485     11705     12078     12094     11721     12080     12095     12096     11722
 -1      2552    4    0    1
 -2      5847      5962      5967      5852      5848      5963      5968      5853     12080     12095
 -2     12096     11722     11708     12081     12097     11724     12083     12098     12099     11725
 -1      2553    4    0    1
 -2      5848      5963      5968      5853      5849      5964      5969      5854     12083     12098
 -2     12099     11725     11711     12084     12100     11727     12086     12101     12102     11728
 -1      2554    4    0    1
 -2      5849      5964      5969      5854      5850      5965      5970      5855     12086     12101
 -2     12102     11728     11714     12087     12103     11730     12089     12104     12105     11731
 -1      2555    4    0    1
 -2      5850      5965      5970      5855      5851      5966      5971      5856     12089     12104
 -2     12105     11731     11717     12090     12106     11733     12092     12107     12108     11734
 -1      2556    4    0    1
 -2      5851      5966      5971      5856      3242      3265      3266      3243     12092     12107
 -2     12108     11734     11720     12093     12109     11736      4044      4045      4046      3998
 -1      2557    4    0    1
 -2       730       753       754       731      5852      5967      5972      5857      1533      1534
 -2      1535      1487     11721     12094     12110     11737     12096     12111     12112     11738
 -1      2558    4    0    1
 -2      5852      5967      5972      5857      5853      5968      5973      5858     12096     12111
 -2     12112     11738     11724     12097     12113     11740     12099     12114     12115     11741
 -1      2559    4    0    1
 -2      5853      5968      5973      5858      5854      5969      5974      5859     12099     12114
 -2     12115     11741     11727     12100     12116     11743     12102     12117     12118     11744
 -1      2560    4    0    1
 -2      5854      5969      5974      5859      5855      5970      5975      5860     12102     12117
 -2     12118     11744     11730     12103     12119     11746     12105     12120     12121     11747
 -1      2561    4    0    1
 -2      5855      5970      5975      5860      5856      5971      5976      5861     12105     12120
 -2     12121     11747     11733     12106     12122     11749     12108     12123     12124     11750
 -1      2562    4    0    1
 -2      5856      5971      5976      5861      3243      3266      3267      3244     12108     12123
 -2     12124     11750     11736     12109     12125     11752      4046      4047      4048      4000
 -1      2563    4    0    1
 -2       731       754       755       732      5857      5972      5977      5862      1535      1536
 -2      1537      1489     11737     12110     12126     11753     12112     12127     12128     11754
 -1      2564    4    0    1
 -2      5857      5972      5977      5862      5858      5973      5978      5863     12112     12127
 -2     12128     11754     11740     12113     12129     11756     12115     12130     12131     11757
 -1      2565    4    0    1
 -2      5858      5973      5978      5863      5859      5974      5979      5864     12115     12130
 -2     12131     11757     11743     12116     12132     11759     12118     12133     12134     11760
 -1      2566    4    0    1
 -2      5859      5974      5979      5864      5860      5975      5980      5865     12118     12133
 -2     12134     11760     11746     12119     12135     11762     12121     12136     12137     11763
 -1      2567    4    0    1
 -2      5860      5975      5980      5865      5861      5976      5981      5866     12121     12136
 -2     12137     11763     11749     12122     12138     11765     12124     12139     12140     11766
 -1      2568    4    0    1
 -2      5861      5976      5981      5866      3244      3267      3268      3245     12124     12139
 -2     12140     11766     11752     12125     12141     11768      4048      4049      4050      4002
 -1      2569    4    0    1
 -2       732       755       756       733      5862      5977      5982      5867      1537      1538
 -2      1539      1491     11753     12126     12142     11769     12128     12143     12144     11770
 -1      2570    4    0    1
 -2      5862      5977      5982      5867      5863      5978      5983      5868     12128     12143
 -2     12144     11770     11756     12129     12145     11772     12131     12146     12147     11773
 -1      2571    4    0    1
 -2      5863      5978      5983      5868      5864      5979      5984      5869     12131     12146
 -2     12147     11773     11759     12132     12148     11775     12134     12149     12150     11776
 -1      2572    4    0    1
 -2      5864      5979      5984      5869      5865      5980      5985      5870     12134     12149
 -2     12150     11776     11762     12135     12151     11778     12137     12152     12153     11779
 -1      2573    4    0    1
 -2      5865      5980      5985      5870      5866      5981      5986      5871     12137     12152
 -2     12153     11779     11765     12138     12154     11781     12140     12155     12156     11782
 -1      2574    4    0    1
 -2      5866      5981      5986      5871      3245      3268      3269      3246     12140     12155
 -2     12156     11782     11768     12141     12157     11784      4050      4051      4052      4004
 -1      2575    4    0    1
 -2       733       756       757       734      5867      5982      5987      5872      1539      1540
 -2      1541      1493     11769     12142     12158     11785     12144     12159     12160     11786
 -1      2576    4    0    1
 -2      5867      5982      5987      5872      5868      5983      5988      5873     12144     12159
 -2     12160     11786     11772     12145     12161     11788     12147     12162     12163     11789
 -1      2577    4    0    1
 -2      5868      5983      5988      5873      5869      5984      5989      5874     12147     12162
 -2     12163     11789     11775     12148     12164     11791     12150     12165     12166     11792
 -1      2578    4    0    1
 -2      5869      5984      5989      5874      5870      5985      5990      5875     12150     12165
 -2     12166     11792     11778     12151     12167     11794     12153     12168     12169     11795
 -1      2579    4    0    1
 -2      5870      5985      5990      5875      5871      5986      5991      5876     12153     12168
 -2     12169     11795     11781     12154     12170     11797     12156     12171     12172     11798
 -1      2580    4    0    1
 -2      5871      5986      5991      5876      3246      3269      3270      3247     12156     12171
 -2     12172     11798     11784     12157     12173     11800      4052      4053      4054      4006
 -1      2581    4    0    1
 -2       734       757       758       735      5872      5987      5992      5877      1541      1542
 -2      1543      1495     11785     12158     12174     11801     12160     12175     12176     11802
 -1      2582    4    0    1
 -2      5872      5987      5992      5877      5873      5988      5993      5878     12160     12175
 -2     12176     11802     11788     12161     12177     11804     12163     12178     12179     11805
 -1      2583    4    0    1
 -2      5873      5988      5993      5878      5874      5989      5994      5879     12163     12178
 -2     12179     11805     11791     12164     12180     11807     12166     12181     12182     11808
 -1      2584    4    0    1
 -2      5874      5989      5994      5879      5875      5990      5995      5880     12166     12181
 -2     12182     11808     11794     12167     12183     11810     12169     12184     12185     11811
 -1      2585    4    0    1
 -2      5875      5990      5995      5880      5876      5991      5996      5881     12169     12184
 -2     12185     11811     11797     12170     12186     11813     12172     12187     12188     11814
 -1      2586    4    0    1
 -2      5876      5991      5996      5881      3247      3270      3271      3248     12172     12187
 -2     12188     11814     11800     12173     12189     11816      4054      4055      4056      4008
 -1      2587    4    0    1
 -2       735       758       759       736      5877      5992      5997      5882      1543      1544
 -2      1545      1497     11801     12174     12190     11817     12176     12191     12192     11818
 -1      2588    4    0    1
 -2      5877      5992      5997      5882      5878      5993      5998      5883     12176     12191
 -2     12192     11818     11804     12177     12193     11820     12179     12194     12195     11821
 -1      2589    4    0    1
 -2      5878      5993      5998      5883      5879      5994      5999      5884     12179     12194
 -2     12195     11821     11807     12180     12196     11823     12182     12197     12198     11824
 -1      2590    4    0    1
 -2      5879      5994      5999      5884      5880      5995      6000      5885     12182     12197
 -2     12198     11824     11810     12183     12199     11826     12185     12200     12201     11827
 -1      2591    4    0    1
 -2      5880      5995      6000      5885      5881      5996      6001      5886     12185     12200
 -2     12201     11827     11813     12186     12202     11829     12188     12203     12204     11830
 -1      2592    4    0    1
 -2      5881      5996      6001      5886      3248      3271      3272      3249     12188     12203
 -2     12204     11830     11816     12189     12205     11832      4056      4057      4058      4010
 -1      2593    4    0    1
 -2       736       759       760       737      5882      5997      6002      5887      1545      1546
 -2      1547      1499     11817     12190     12206     11833     12192     12207     12208     11834
 -1      2594    4    0    1
 -2      5882      5997      6002      5887      5883      5998      6003      5888     12192     12207
 -2     12208     11834     11820     12193     12209     11836     12195     12210     12211     11837
 -1      2595    4    0    1
 -2      5883      5998      6003      5888      5884      5999      6004      5889     12195     12210
 -2     12211     11837     11823     12196     12212     11839     12198     12213     12214     11840
 -1      2596    4    0    1
 -2      5884      5999      6004      5889      5885      6000      6005      5890     12198     12213
 -2     12214     11840     11826     12199     12215     11842     12201     12216     12217     11843
 -1      2597    4    0    1
 -2      5885      6000      6005      5890      5886      6001      6006      5891     12201     12216
 -2     12217     11843     11829     12202     12218     11845     12204     12219     12220     11846
 -1      2598    4    0    1
 -2      5886      6001      6006      5891      3249      3272      3273      3250     12204     12219
 -2     12220     11846     11832     12205     12221     11848      4058      4059      4060      4012
 -1      2599    4    0    1
 -2       737       760       761       738      5887      6002      6007      5892      1547      1548
 -2      1549      1501     11833     12206     12222     11849     12208     12223     12224     11850
 -1      2600    4    0    1
 -2      5887      6002      6007      5892      5888      6003      6008      5893     12208     12223
 -2     12224     11850     11836     12209     12225     11852     12211     12226     12227     11853
 -1      2601    4    0    1
 -2      5888      6003      6008      5893      5889      6004      6009      5894     12211     12226
 -2     12227     11853     11839     12212     12228     11855     12214     12229     12230     11856
 -1      2602    4    0    1
 -2      5889      6004      6009      5894      5890      6005      6010      5895     12214     12229
 -2     12230     11856     11842     12215     12231     11858     12217     12232     12233     11859
 -1      2603    4    0    1
 -2      5890      6005      6010      5895      5891      6006      6011      5896     12217     12232
 -2     12233     11859     11845     12218     12234     11861     12220     12235     12236     11862
 -1      2604    4    0    1
 -2      5891      6006      6011      5896      3250      3273      3274      3251     12220     12235
 -2     12236     11862     11848     12221     12237     11864      4060      4061      4062      4014
 -1      2605    4    0    1
 -2       738       761       762       739      5892      6007      6012      5897      1549      1550
 -2      1551      1503     11849     12222     12238     11865     12224     12239     12240     11866
 -1      2606    4    0    1
 -2      5892      6007      6012      5897      5893      6008      6013      5898     12224     12239
 -2     12240     11866     11852     12225     12241     11868     12227     12242     12243     11869
 -1      2607    4    0    1
 -2      5893      6008      6013      5898      5894      6009      6014      5899     12227     12242
 -2     12243     11869     11855     12228     12244     11871     12230     12245     12246     11872
 -1      2608    4    0    1
 -2      5894      6009      6014      5899      5895      6010      6015      5900     12230     12245
 -2     12246     11872     11858     12231     12247     11874     12233     12248     12249     11875
 -1      2609    4    0    1
 -2      5895      6010      6015      5900      5896      6011      6016      5901     12233     12248
 -2     12249     11875     11861     12234     12250     11877     12236     12251     12252     11878
 -1      2610    4    0    1
 -2      5896      6011      6016      5901      3251      3274      3275      3252     12236     12251
 -2     12252     11878     11864     12237     12253     11880      4062      4063      4064      4016
 -1      2611    4    0    1
 -2       739       762       763       740      5897      6012      6017      5902      1551      1552
 -2      1553      1505     11865     12238     12254     11881     12240     12255     12256     11882
 -1      2612    4    0    1
 -2      5897      6012      6017      5902      5898      6013      6018      5903     12240     12255
 -2     12256     11882     11868     12241     12257     11884     12243     12258     12259     11885
 -1      2613    4    0    1
 -2      5898      6013      6018      5903      5899      6014      6019      5904     12243     12258
 -2     12259     11885     11871     12244     12260     11887     12246     12261     12262     11888
 -1      2614    4    0    1
 -2      5899      6014      6019      5904      5900      6015      6020      5905     12246     12261
 -2     12262     11888     11874     12247     12263     11890     12249     12264     12265     11891
 -1      2615    4    0    1
 -2      5900      6015      6020      5905      5901      6016      6021      5906     12249     12264
 -2     12265     11891     11877     12250     12266     11893     12252     12267     12268     11894
 -1      2616    4    0    1
 -2      5901      6016      6021      5906      3252      3275      3276      3253     12252     12267
 -2     12268     11894     11880     12253     12269     11896      4064      4065      4066      4018
 -1      2617    4    0    1
 -2       740       763       764       741      5902      6017      6022      5907      1553      1554
 -2      1555      1507     11881     12254     12270     11897     12256     12271     12272     11898
 -1      2618    4    0    1
 -2      5902      6017      6022      5907      5903      6018      6023      5908     12256     12271
 -2     12272     11898     11884     12257     12273     11900     12259     12274     12275     11901
 -1      2619    4    0    1
 -2      5903      6018      6023      5908      5904      6019      6024      5909     12259     12274
 -2     12275     11901     11887     12260     12276     11903     12262     12277     12278     11904
 -1      2620    4    0    1
 -2      5904      6019      6024      5909      5905      6020      6025      5910     12262     12277
 -2     12278     11904     11890     12263     12279     11906     12265     12280     12281     11907
 -1      2621    4    0    1
 -2      5905      6020      6025      5910      5906      6021      6026      5911     12265     12280
 -2     12281     11907     11893     12266     12282     11909     12268     12283     12284     11910
 -1      2622    4    0    1
 -2      5906      6021      6026      5911      3253      3276      3277      3254     12268     12283
 -2     12284     11910     11896     12269     12285     11912      4066      4067      4068      4020
 -1      2623    4    0    1
 -2       741       764       765       742      5907      6022      6027      5912      1555      1556
 -2      1557      1509     11897     12270     12286     11913     12272     12287     12288     11914
 -1      2624    4    0    1
 -2      5907      6022      6027      5912      5908      6023      6028      5913     12272     12287
 -2     12288     11914     11900     12273     12289     11916     12275     12290     12291     11917
 -1      2625    4    0    1
 -2      5908      6023      6028      5913      5909      6024      6029      5914     12275     12290
 -2     12291     11917     11903     12276     12292     11919     12278     12293     12294     11920
 -1      2626    4    0    1
 -2      5909      6024      6029      5914      5910      6025      6030      5915     12278     12293
 -2     12294     11920     11906     12279     12295     11922     12281     12296     12297     11923
 -1      2627    4    0    1
 -2      5910      6025      6030      5915      5911      6026      6031      5916     12281     12296
 -2     12297     11923     11909     12282     12298     11925     12284     12299     12300     11926
 -1      2628    4    0    1
 -2      5911      6026      6031      5916      3254      3277      3278      3255     12284     12299
 -2     12300     11926     11912     12285     12301     11928      4068      4069      4070      4022
 -1      2629    4    0    1
 -2       742       765       766       743      5912      6027      6032      5917      1557      1558
 -2      1559      1511     11913     12286     12302     11929     12288     12303     12304     11930
 -1      2630    4    0    1
 -2      5912      6027      6032      5917      5913      6028      6033      5918     12288     12303
 -2     12304     11930     11916     12289     12305     11932     12291     12306     12307     11933
 -1      2631    4    0    1
 -2      5913      6028      6033      5918      5914      6029      6034      5919     12291     12306
 -2     12307     11933     11919     12292     12308     11935     12294     12309     12310     11936
 -1      2632    4    0    1
 -2      5914      6029      6034      5919      5915      6030      6035      5920     12294     12309
 -2     12310     11936     11922     12295     12311     11938     12297     12312     12313     11939
 -1      2633    4    0    1
 -2      5915      6030      6035      5920      5916      6031      6036      5921     12297     12312
 -2     12313     11939     11925     12298     12314     11941     12300     12315     12316     11942
 -1      2634    4    0    1
 -2      5916      6031      6036      5921      3255      3278      3279      3256     12300     12315
 -2     12316     11942     11928     12301     12317     11944      4070      4071      4072      4024
 -1      2635    4    0    1
 -2       743       766       767       744      5917      6032      6037      5922      1559      1560
 -2      1561      1513     11929     12302     12318     11945     12304     12319     12320     11946
 -1      2636    4    0    1
 -2      5917      6032      6037      5922      5918      6033      6038      5923     12304     12319
 -2     12320     11946     11932     12305     12321     11948     12307     12322     12323     11949
 -1      2637    4    0    1
 -2      5918      6033      6038      5923      5919      6034      6039      5924     12307     12322
 -2     12323     11949     11935     12308     12324     11951     12310     12325     12326     11952
 -1      2638    4    0    1
 -2      5919      6034      6039      5924      5920      6035      6040      5925     12310     12325
 -2     12326     11952     11938     12311     12327     11954     12313     12328     12329     11955
 -1      2639    4    0    1
 -2      5920      6035      6040      5925      5921      6036      6041      5926     12313     12328
 -2     12329     11955     11941     12314     12330     11957     12316     12331     12332     11958
 -1      2640    4    0    1
 -2      5921      6036      6041      5926      3256      3279      3280      3257     12316     12331
 -2     12332     11958     11944     12317     12333     11960      4072      4073      4074      4026
 -1      2641    4    0    1
 -2       744       767       768       745      5922      6037      6042      5927      1561      1562
 -2      1563      1515     11945     12318     12334     11961     12320     12335     12336     11962
 -1      2642    4    0    1
 -2      5922      6037      6042      5927      5923      6038      6043      5928     12320     12335
 -2     12336     11962     11948     12321     12337     11964     12323     12338     12339     11965
 -1      2643    4    0    1
 -2      5923      6038      6043      5928      5924      6039      6044      5929     12323     12338
 -2     12339     11965     11951     12324     12340     11967     12326     12341     12342     11968
 -1      2644    4    0    1
 -2      5924      6039      6044      5929      5925      6040      6045      5930     12326     12341
 -2     12342     11968     11954     12327     12343     11970     12329     12344     12345     11971
 -1      2645    4    0    1
 -2      5925      6040      6045      5930      5926      6041      6046      5931     12329     12344
 -2     12345     11971     11957     12330     12346     11973     12332     12347     12348     11974
 -1      2646    4    0    1
 -2      5926      6041      6046      5931      3257      3280      3281      3258     12332     12347
 -2     12348     11974     11960     12333     12349     11976      4074      4075      4076      4028
 -1      2647    4    0    1
 -2       745       768       769       746      5927      6042      6047      5932      1563      1564
 -2      1565      1517     11961     12334     12350     11977     12336     12351     12352     11978
 -1      2648    4    0    1
 -2      5927      6042      6047      5932      5928      6043      6048      5933     12336     12351
 -2     12352     11978     11964     12337     12353     11980     12339     12354     12355     11981
 -1      2649    4    0    1
 -2      5928      6043      6048      5933      5929      6044      6049      5934     12339     12354
 -2     12355     11981     11967     12340     12356     11983     12342     12357     12358     11984
 -1      2650    4    0    1
 -2      5929      6044      6049      5934      5930      6045      6050      5935     12342     12357
 -2     12358     11984     11970     12343     12359     11986     12345     12360     12361     11987
 -1      2651    4    0    1
 -2      5930      6045      6050      5935      5931      6046      6051      5936     12345     12360
 -2     12361     11987     11973     12346     12362     11989     12348     12363     12364     11990
 -1      2652    4    0    1
 -2      5931      6046      6051      5936      3258      3281      3282      3259     12348     12363
 -2     12364     11990     11976     12349     12365     11992      4076      4077      4078      4030
 -1      2653    4    0    1
 -2       746       769       770       747      5932      6047      6052      5937      1565      1566
 -2      1567      1519     11977     12350     12366     11993     12352     12367     12368     11994
 -1      2654    4    0    1
 -2      5932      6047      6052      5937      5933      6048      6053      5938     12352     12367
 -2     12368     11994     11980     12353     12369     11996     12355     12370     12371     11997
 -1      2655    4    0    1
 -2      5933      6048      6053      5938      5934      6049      6054      5939     12355     12370
 -2     12371     11997     11983     12356     12372     11999     12358     12373     12374     12000
 -1      2656    4    0    1
 -2      5934      6049      6054      5939      5935      6050      6055      5940     12358     12373
 -2     12374     12000     11986     12359     12375     12002     12361     12376     12377     12003
 -1      2657    4    0    1
 -2      5935      6050      6055      5940      5936      6051      6056      5941     12361     12376
 -2     12377     12003     11989     12362     12378     12005     12364     12379     12380     12006
 -1      2658    4    0    1
 -2      5936      6051      6056      5941      3259      3282      3283      3260     12364     12379
 -2     12380     12006     11992     12365     12381     12008      4078      4079      4080      4032
 -1      2659    4    0    1
 -2       747       770       771       748      5937      6052      6057      5942      1567      1568
 -2      1569      1521     11993     12366     12382     12009     12368     12383     12384     12010
 -1      2660    4    0    1
 -2      5937      6052      6057      5942      5938      6053      6058      5943     12368     12383
 -2     12384     12010     11996     12369     12385     12012     12371     12386     12387     12013
 -1      2661    4    0    1
 -2      5938      6053      6058      5943      5939      6054      6059      5944     12371     12386
 -2     12387     12013     11999     12372     12388     12015     12374     12389     12390     12016
 -1      2662    4    0    1
 -2      5939      6054      6059      5944      5940      6055      6060      5945     12374     12389
 -2     12390     12016     12002     12375     12391     12018     12377     12392     12393     12019
 -1      2663    4    0    1
 -2      5940      6055      6060      5945      5941      6056      6061      5946     12377     12392
 -2     12393     12019     12005     12378     12394     12021     12380     12395     12396     12022
 -1      2664    4    0    1
 -2      5941      6056      6061      5946      3260      3283      3284      3261     12380     12395
 -2     12396     12022     12008     12381     12397     12024      4080      4081      4082      4034
 -1      2665    4    0    1
 -2       748       771        91        92      5942      6057      2244      2249      1569      1570
 -2       109      1523     12009     12382      2329      2340     12384     12398      2341     12025
 -1      2666    4    0    1
 -2      5942      6057      2244      2249      5943      6058      2245      2250     12384     12398
 -2      2341     12025     12012     12385      2331      2342     12387     12399      2343     12026
 -1      2667    4    0    1
 -2      5943      6058      2245      2250      5944      6059      2246      2251     12387     12399
 -2      2343     12026     12015     12388      2333      2344     12390     12400      2345     12027
 -1      2668    4    0    1
 -2      5944      6059      2246      2251      5945      6060      2247      2252     12390     12400
 -2      2345     12027     12018     12391      2335      2346     12393     12401      2347     12028
 -1      2669    4    0    1
 -2      5945      6060      2247      2252      5946      6061      2248      2253     12393     12401
 -2      2347     12028     12021     12394      2337      2348     12396     12402      2349     12029
 -1      2670    4    0    1
 -2      5946      6061      2248      2253      3261      3284       255       256     12396     12402
 -2      2349     12029     12024     12397      2339      2350      4082      4083       273      4036
 -1      2671    4    0    1
 -2        25         2        44       749      1674       348      1871      5947        43        67
 -2      1571      1524      1855       353      1986     12030      1866      1987     12403     12031
 -1      2672    4    0    1
 -2      1674       348      1871      5947      1675       349      1872      5948      1866      1987
 -2     12403     12031      1857       354      1988     12033      1867      1989     12404     12034
 -1      2673    4    0    1
 -2      1675       349      1872      5948      1676       350      1873      5949      1867      1989
 -2     12404     12034      1859       355      1990     12036      1868      1991     12405     12037
 -1      2674    4    0    1
 -2      1676       350      1873      5949      1677       351      1874      5950      1868      1991
 -2     12405     12037      1861       356      1992     12039      1869      1993     12406     12040
 -1      2675    4    0    1
 -2      1677       351      1874      5950      1678       352      1875      5951      1869      1993
 -2     12406     12040      1863       357      1994     12042      1870      1995     12407     12043
 -1      2676    4    0    1
 -2      1678       352      1875      5951       189         6       208      3262      1870      1995
 -2     12407     12043      1865       358      1996     12045       207       231      4084      4037
 -1      2677    4    0    1
 -2       749        44        45       750      5947      1871      1876      5952      1571        68
 -2      1572      1526     12030      1986      1997     12046     12403      1998     12408     12047
 -1      2678    4    0    1
 -2      5947      1871      1876      5952      5948      1872      1877      5953     12403      1998
 -2     12408     12047     12033      1988      1999     12049     12404      2000     12409     12050
 -1      2679    4    0    1
 -2      5948      1872      1877      5953      5949      1873      1878      5954     12404      2000
 -2     12409     12050     12036      1990      2001     12052     12405      2002     12410     12053
 -1      2680    4    0    1
 -2      5949      1873      1878      5954      5950      1874      1879      5955     12405      2002
 -2     12410     12053     12039      1992      2003     12055     12406      2004     12411     12056
 -1      2681    4    0    1
 -2      5950      1874      1879      5955      5951      1875      1880      5956     12406      2004
 -2     12411     12056     12042      1994      2005     12058     12407      2006     12412     12059
 -1      2682    4    0    1
 -2      5951      1875      1880      5956      3262       208       209      3263     12407      2006
 -2     12412     12059     12045      1996      2007     12061      4084       232      4085      4039
 -1      2683    4    0    1
 -2       750        45        46       751      5952      1876      1881      5957      1572        69
 -2      1573      1528     12046      1997      2008     12062     12408      2009     12413     12063
 -1      2684    4    0    1
 -2      5952      1876      1881      5957      5953      1877      1882      5958     12408      2009
 -2     12413     12063     12049      1999      2010     12065     12409      2011     12414     12066
 -1      2685    4    0    1
 -2      5953      1877      1882      5958      5954      1878      1883      5959     12409      2011
 -2     12414     12066     12052      2001      2012     12068     12410      2013     12415     12069
 -1      2686    4    0    1
 -2      5954      1878      1883      5959      5955      1879      1884      5960     12410      2013
 -2     12415     12069     12055      2003      2014     12071     12411      2015     12416     12072
 -1      2687    4    0    1
 -2      5955      1879      1884      5960      5956      1880      1885      5961     12411      2015
 -2     12416     12072     12058      2005      2016     12074     12412      2017     12417     12075
 -1      2688    4    0    1
 -2      5956      1880      1885      5961      3263       209       210      3264     12412      2017
 -2     12417     12075     12061      2007      2018     12077      4085       233      4086      4041
 -1      2689    4    0    1
 -2       751        46        47       752      5957      1881      1886      5962      1573        70
 -2      1574      1530     12062      2008      2019     12078     12413      2020     12418     12079
 -1      2690    4    0    1
 -2      5957      1881      1886      5962      5958      1882      1887      5963     12413      2020
 -2     12418     12079     12065      2010      2021     12081     12414      2022     12419     12082
 -1      2691    4    0    1
 -2      5958      1882      1887      5963      5959      1883      1888      5964     12414      2022
 -2     12419     12082     12068      2012      2023     12084     12415      2024     12420     12085
 -1      2692    4    0    1
 -2      5959      1883      1888      5964      5960      1884      1889      5965     12415      2024
 -2     12420     12085     12071      2014      2025     12087     12416      2026     12421     12088
 -1      2693    4    0    1
 -2      5960      1884      1889      5965      5961      1885      1890      5966     12416      2026
 -2     12421     12088     12074      2016      2027     12090     12417      2028     12422     12091
 -1      2694    4    0    1
 -2      5961      1885      1890      5966      3264       210       211      3265     12417      2028
 -2     12422     12091     12077      2018      2029     12093      4086       234      4087      4043
 -1      2695    4    0    1
 -2       752        47        48       753      5962      1886      1891      5967      1574        71
 -2      1575      1532     12078      2019      2030     12094     12418      2031     12423     12095
 -1      2696    4    0    1
 -2      5962      1886      1891      5967      5963      1887      1892      5968     12418      2031
 -2     12423     12095     12081      2021      2032     12097     12419      2033     12424     12098
 -1      2697    4    0    1
 -2      5963      1887      1892      5968      5964      1888      1893      5969     12419      2033
 -2     12424     12098     12084      2023      2034     12100     12420      2035     12425     12101
 -1      2698    4    0    1
 -2      5964      1888      1893      5969      5965      1889      1894      5970     12420      2035
 -2     12425     12101     12087      2025      2036     12103     12421      2037     12426     12104
 -1      2699    4    0    1
 -2      5965      1889      1894      5970      5966      1890      1895      5971     12421      2037
 -2     12426     12104     12090      2027      2038     12106     12422      2039     12427     12107
 -1      2700    4    0    1
 -2      5966      1890      1895      5971      3265       211       212      3266     12422      2039
 -2     12427     12107     12093      2029      2040     12109      4087       235      4088      4045
 -1      2701    4    0    1
 -2       753        48        49       754      5967      1891      1896      5972      1575        72
 -2      1576      1534     12094      2030      2041     12110     12423      2042     12428     12111
 -1      2702    4    0    1
 -2      5967      1891      1896      5972      5968      1892      1897      5973     12423      2042
 -2     12428     12111     12097      2032      2043     12113     12424      2044     12429     12114
 -1      2703    4    0    1
 -2      5968      1892      1897      5973      5969      1893      1898      5974     12424      2044
 -2     12429     12114     12100      2034      2045     12116     12425      2046     12430     12117
 -1      2704    4    0    1
 -2      5969      1893      1898      5974      5970      1894      1899      5975     12425      2046
 -2     12430     12117     12103      2036      2047     12119     12426      2048     12431     12120
 -1      2705    4    0    1
 -2      5970      1894      1899      5975      5971      1895      1900      5976     12426      2048
 -2     12431     12120     12106      2038      2049     12122     12427      2050     12432     12123
 -1      2706    4    0    1
 -2      5971      1895      1900      5976      3266       212       213      3267     12427      2050
 -2     12432     12123     12109      2040      2051     12125      4088       236      4089      4047
 -1      2707    4    0    1
 -2       754        49        50       755      5972      1896      1901      5977      1576        73
 -2      1577      1536     12110      2041      2052     12126     12428      2053     12433     12127
 -1      2708    4    0    1
 -2      5972      1896      1901      5977      5973      1897      1902      5978     12428      2053
 -2     12433     12127     12113      2043      2054     12129     12429      2055     12434     12130
 -1      2709    4    0    1
 -2      5973      1897      1902      5978      5974      1898      1903      5979     12429      2055
 -2     12434     12130     12116      2045      2056     12132     12430      2057     12435     12133
 -1      2710    4    0    1
 -2      5974      1898      1903      5979      5975      1899      1904      5980     12430      2057
 -2     12435     12133     12119      2047      2058     12135     12431      2059     12436     12136
 -1      2711    4    0    1
 -2      5975      1899      1904      5980      5976      1900      1905      5981     12431      2059
 -2     12436     12136     12122      2049      2060     12138     12432      2061     12437     12139
 -1      2712    4    0    1
 -2      5976      1900      1905      5981      3267       213       214      3268     12432      2061
 -2     12437     12139     12125      2051      2062     12141      4089       237      4090      4049
 -1      2713    4    0    1
 -2       755        50        51       756      5977      1901      1906      5982      1577        74
 -2      1578      1538     12126      2052      2063     12142     12433      2064     12438     12143
 -1      2714    4    0    1
 -2      5977      1901      1906      5982      5978      1902      1907      5983     12433      2064
 -2     12438     12143     12129      2054      2065     12145     12434      2066     12439     12146
 -1      2715    4    0    1
 -2      5978      1902      1907      5983      5979      1903      1908      5984     12434      2066
 -2     12439     12146     12132      2056      2067     12148     12435      2068     12440     12149
 -1      2716    4    0    1
 -2      5979      1903      1908      5984      5980      1904      1909      5985     12435      2068
 -2     12440     12149     12135      2058      2069     12151     12436      2070     12441     12152
 -1      2717    4    0    1
 -2      5980      1904      1909      5985      5981      1905      1910      5986     12436      2070
 -2     12441     12152     12138      2060      2071     12154     12437      2072     12442     12155
 -1      2718    4    0    1
 -2      5981      1905      1910      5986      3268       214       215      3269     12437      2072
 -2     12442     12155     12141      2062      2073     12157      4090       238      4091      4051
 -1      2719    4    0    1
 -2       756        51        52       757      5982      1906      1911      5987      1578        75
 -2      1579      1540     12142      2063      2074     12158     12438      2075     12443     12159
 -1      2720    4    0    1
 -2      5982      1906      1911      5987      5983      1907      1912      5988     12438      2075
 -2     12443     12159     12145      2065      2076     12161     12439      2077     12444     12162
 -1      2721    4    0    1
 -2      5983      1907      1912      5988      5984      1908      1913      5989     12439      2077
 -2     12444     12162     12148      2067      2078     12164     12440      2079     12445     12165
 -1      2722    4    0    1
 -2      5984      1908      1913      5989      5985      1909      1914      5990     12440      2079
 -2     12445     12165     12151      2069      2080     12167     12441      2081     12446     12168
 -1      2723    4    0    1
 -2      5985      1909      1914      5990      5986      1910      1915      5991     12441      2081
 -2     12446     12168     12154      2071      2082     12170     12442      2083     12447     12171
 -1      2724    4    0    1
 -2      5986      1910      1915      5991      3269       215       216      3270     12442      2083
 -2     12447     12171     12157      2073      2084     12173      4091       239      4092      4053
 -1      2725    4    0    1
 -2       757        52        53       758      5987      1911      1916      5992      1579        76
 -2      1580      1542     12158      2074      2085     12174     12443      2086     12448     12175
 -1      2726    4    0    1
 -2      5987      1911      1916      5992      5988      1912      1917      5993     12443      2086
 -2     12448     12175     12161      2076      2087     12177     12444      2088     12449     12178
 -1      2727    4    0    1
 -2      5988      1912      1917      5993      5989      1913      1918      5994     12444      2088
 -2     12449     12178     12164      2078      2089     12180     12445      2090     12450     12181
 -1      2728    4    0    1
 -2      5989      1913      1918      5994      5990      1914      1919      5995     12445      2090
 -2     12450     12181     12167      2080      2091     12183     12446      2092     12451     12184
 -1      2729    4    0    1
 -2      5990      1914      1919      5995      5991      1915      1920      5996     12446      2092
 -2     12451     12184     12170      2082      2093     12186     12447      2094     12452     12187
 -1      2730    4    0    1
 -2      5991      1915      1920      5996      3270       216       217      3271     12447      2094
 -2     12452     12187     12173      2084      2095     12189      4092       240      4093      4055
 -1      2731    4    0    1
 -2       758        53        54       759      5992      1916      1921      5997      1580        77
 -2      1581      1544     12174      2085      2096     12190     12448      2097     12453     12191
 -1      2732    4    0    1
 -2      5992      1916      1921      5997      5993      1917      1922      5998     12448      2097
 -2     12453     12191     12177      2087      2098     12193     12449      2099     12454     12194
 -1      2733    4    0    1
 -2      5993      1917      1922      5998      5994      1918      1923      5999     12449      2099
 -2     12454     12194     12180      2089      2100     12196     12450      2101     12455     12197
 -1      2734    4    0    1
 -2      5994      1918      1923      5999      5995      1919      1924      6000     12450      2101
 -2     12455     12197     12183      2091      2102     12199     12451      2103     12456     12200
 -1      2735    4    0    1
 -2      5995      1919      1924      6000      5996      1920      1925      6001     12451      2103
 -2     12456     12200     12186      2093      2104     12202     12452      2105     12457     12203
 -1      2736    4    0    1
 -2      5996      1920      1925      6001      3271       217       218      3272     12452      2105
 -2     12457     12203     12189      2095      2106     12205      4093       241      4094      4057
 -1      2737    4    0    1
 -2       759        54        55       760      5997      1921      1926      6002      1581        78
 -2      1582      1546     12190      2096      2107     12206     12453      2108     12458     12207
 -1      2738    4    0    1
 -2      5997      1921      1926      6002      5998      1922      1927      6003     12453      2108
 -2     12458     12207     12193      2098      2109     12209     12454      2110     12459     12210
 -1      2739    4    0    1
 -2      5998      1922      1927      6003      5999      1923      1928      6004     12454      2110
 -2     12459     12210     12196      2100      2111     12212     12455      2112     12460     12213
 -1      2740    4    0    1
 -2      5999      1923      1928      6004      6000      1924      1929      6005     12455      2112
 -2     12460     12213     12199      2102      2113     12215     12456      2114     12461     12216
 -1      2741    4    0    1
 -2      6000      1924      1929      6005      6001      1925      1930      6006     12456      2114
 -2     12461     12216     12202      2104      2115     12218     12457      2116     12462     12219
 -1      2742    4    0    1
 -2      6001      1925      1930      6006      3272       218       219      3273     12457      2116
 -2     12462     12219     12205      2106      2117     12221      4094       242      4095      4059
 -1      2743    4    0    1
 -2       760        55        56       761      6002      1926      1931      6007      1582        79
 -2      1583      1548     12206      2107      2118     12222     12458      2119     12463     12223
 -1      2744    4    0    1
 -2      6002      1926      1931      6007      6003      1927      1932      6008     12458      2119
 -2     12463     12223     12209      2109      2120     12225     12459      2121     12464     12226
 -1      2745    4    0    1
 -2      6003      1927      1932      6008      6004      1928      1933      6009     12459      2121
 -2     12464     12226     12212      2111      2122     12228     12460      2123     12465     12229
 -1      2746    4    0    1
 -2      6004      1928      1933      6009      6005      1929      1934      6010     12460      2123
 -2     12465     12229     12215      2113      2124     12231     12461      2125     12466     12232
 -1      2747    4    0    1
 -2      6005      1929      1934      6010      6006      1930      1935      6011     12461      2125
 -2     12466     12232     12218      2115      2126     12234     12462      2127     12467     12235
 -1      2748    4    0    1
 -2      6006      1930      1935      6011      3273       219       220      3274     12462      2127
 -2     12467     12235     12221      2117      2128     12237      4095       243      4096      4061
 -1      2749    4    0    1
 -2       761        56        57       762      6007      1931      1936      6012      1583        80
 -2      1584      1550     12222      2118      2129     12238     12463      2130     12468     12239
 -1      2750    4    0    1
 -2      6007      1931      1936      6012      6008      1932      1937      6013     12463      2130
 -2     12468     12239     12225      2120      2131     12241     12464      2132     12469     12242
 -1      2751    4    0    1
 -2      6008      1932      1937      6013      6009      1933      1938      6014     12464      2132
 -2     12469     12242     12228      2122      2133     12244     12465      2134     12470     12245
 -1      2752    4    0    1
 -2      6009      1933      1938      6014      6010      1934      1939      6015     12465      2134
 -2     12470     12245     12231      2124      2135     12247     12466      2136     12471     12248
 -1      2753    4    0    1
 -2      6010      1934      1939      6015      6011      1935      1940      6016     12466      2136
 -2     12471     12248     12234      2126      2137     12250     12467      2138     12472     12251
 -1      2754    4    0    1
 -2      6011      1935      1940      6016      3274       220       221      3275     12467      2138
 -2     12472     12251     12237      2128      2139     12253      4096       244      4097      4063
 -1      2755    4    0    1
 -2       762        57        58       763      6012      1936      1941      6017      1584        81
 -2      1585      1552     12238      2129      2140     12254     12468      2141     12473     12255
 -1      2756    4    0    1
 -2      6012      1936      1941      6017      6013      1937      1942      6018     12468      2141
 -2     12473     12255     12241      2131      2142     12257     12469      2143     12474     12258
 -1      2757    4    0    1
 -2      6013      1937      1942      6018      6014      1938      1943      6019     12469      2143
 -2     12474     12258     12244      2133      2144     12260     12470      2145     12475     12261
 -1      2758    4    0    1
 -2      6014      1938      1943      6019      6015      1939      1944      6020     12470      2145
 -2     12475     12261     12247      2135      2146     12263     12471      2147     12476     12264
 -1      2759    4    0    1
 -2      6015      1939      1944      6020      6016      1940      1945      6021     12471      2147
 -2     12476     12264     12250      2137      2148     12266     12472      2149     12477     12267
 -1      2760    4    0    1
 -2      6016      1940      1945      6021      3275       221       222      3276     12472      2149
 -2     12477     12267     12253      2139      2150     12269      4097       245      4098      4065
 -1      2761    4    0    1
 -2       763        58        59       764      6017      1941      1946      6022      1585        82
 -2      1586      1554     12254      2140      2151     12270     12473      2152     12478     12271
 -1      2762    4    0    1
 -2      6017      1941      1946      6022      6018      1942      1947      6023     12473      2152
 -2     12478     12271     12257      2142      2153     12273     12474      2154     12479     12274
 -1      2763    4    0    1
 -2      6018      1942      1947      6023      6019      1943      1948      6024     12474      2154
 -2     12479     12274     12260      2144      2155     12276     12475      2156     12480     12277
 -1      2764    4    0    1
 -2      6019      1943      1948      6024      6020      1944      1949      6025     12475      2156
 -2     12480     12277     12263      2146      2157     12279     12476      2158     12481     12280
 -1      2765    4    0    1
 -2      6020      1944      1949      6025      6021      1945      1950      6026     12476      2158
 -2     12481     12280     12266      2148      2159     12282     12477      2160     12482     12283
 -1      2766    4    0    1
 -2      6021      1945      1950      6026      3276       222       223      3277     12477      2160
 -2     12482     12283     12269      2150      2161     12285      4098       246      4099      4067
 -1      2767    4    0    1
 -2       764        59        60       765      6022      1946      1951      6027      1586        83
 -2      1587      1556     12270      2151      2162     12286     12478      2163     12483     12287
 -1      2768    4    0    1
 -2      6022      1946      1951      6027      6023      1947      1952      6028     12478      2163
 -2     12483     12287     12273      2153      2164     12289     12479      2165     12484     12290
 -1      2769    4    0    1
 -2      6023      1947      1952      6028      6024      1948      1953      6029     12479      2165
 -2     12484     12290     12276      2155      2166     12292     12480      2167     12485     12293
 -1      2770    4    0    1
 -2      6024      1948      1953      6029      6025      1949      1954      6030     12480      2167
 -2     12485     12293     12279      2157      2168     12295     12481      2169     12486     12296
 -1      2771    4    0    1
 -2      6025      1949      1954      6030      6026      1950      1955      6031     12481      2169
 -2     12486     12296     12282      2159      2170     12298     12482      2171     12487     12299
 -1      2772    4    0    1
 -2      6026      1950      1955      6031      3277       223       224      3278     12482      2171
 -2     12487     12299     12285      2161      2172     12301      4099       247      4100      4069
 -1      2773    4    0    1
 -2       765        60        61       766      6027      1951      1956      6032      1587        84
 -2      1588      1558     12286      2162      2173     12302     12483      2174     12488     12303
 -1      2774    4    0    1
 -2      6027      1951      1956      6032      6028      1952      1957      6033     12483      2174
 -2     12488     12303     12289      2164      2175     12305     12484      2176     12489     12306
 -1      2775    4    0    1
 -2      6028      1952      1957      6033      6029      1953      1958      6034     12484      2176
 -2     12489     12306     12292      2166      2177     12308     12485      2178     12490     12309
 -1      2776    4    0    1
 -2      6029      1953      1958      6034      6030      1954      1959      6035     12485      2178
 -2     12490     12309     12295      2168      2179     12311     12486      2180     12491     12312
 -1      2777    4    0    1
 -2      6030      1954      1959      6035      6031      1955      1960      6036     12486      2180
 -2     12491     12312     12298      2170      2181     12314     12487      2182     12492     12315
 -1      2778    4    0    1
 -2      6031      1955      1960      6036      3278       224       225      3279     12487      2182
 -2     12492     12315     12301      2172      2183     12317      4100       248      4101      4071
 -1      2779    4    0    1
 -2       766        61        62       767      6032      1956      1961      6037      1588        85
 -2      1589      1560     12302      2173      2184     12318     12488      2185     12493     12319
 -1      2780    4    0    1
 -2      6032      1956      1961      6037      6033      1957      1962      6038     12488      2185
 -2     12493     12319     12305      2175      2186     12321     12489      2187     12494     12322
 -1      2781    4    0    1
 -2      6033      1957      1962      6038      6034      1958      1963      6039     12489      2187
 -2     12494     12322     12308      2177      2188     12324     12490      2189     12495     12325
 -1      2782    4    0    1
 -2      6034      1958      1963      6039      6035      1959      1964      6040     12490      2189
 -2     12495     12325     12311      2179      2190     12327     12491      2191     12496     12328
 -1      2783    4    0    1
 -2      6035      1959      1964      6040      6036      1960      1965      6041     12491      2191
 -2     12496     12328     12314      2181      2192     12330     12492      2193     12497     12331
 -1      2784    4    0    1
 -2      6036      1960      1965      6041      3279       225       226      3280     12492      2193
 -2     12497     12331     12317      2183      2194     12333      4101       249      4102      4073
 -1      2785    4    0    1
 -2       767        62        63       768      6037      1961      1966      6042      1589        86
 -2      1590      1562     12318      2184      2195     12334     12493      2196     12498     12335
 -1      2786    4    0    1
 -2      6037      1961      1966      6042      6038      1962      1967      6043     12493      2196
 -2     12498     12335     12321      2186      2197     12337     12494      2198     12499     12338
 -1      2787    4    0    1
 -2      6038      1962      1967      6043      6039      1963      1968      6044     12494      2198
 -2     12499     12338     12324      2188      2199     12340     12495      2200     12500     12341
 -1      2788    4    0    1
 -2      6039      1963      1968      6044      6040      1964      1969      6045     12495      2200
 -2     12500     12341     12327      2190      2201     12343     12496      2202     12501     12344
 -1      2789    4    0    1
 -2      6040      1964      1969      6045      6041      1965      1970      6046     12496      2202
 -2     12501     12344     12330      2192      2203     12346     12497      2204     12502     12347
 -1      2790    4    0    1
 -2      6041      1965      1970      6046      3280       226       227      3281     12497      2204
 -2     12502     12347     12333      2194      2205     12349      4102       250      4103      4075
 -1      2791    4    0    1
 -2       768        63        64       769      6042      1966      1971      6047      1590        87
 -2      1591      1564     12334      2195      2206     12350     12498      2207     12503     12351
 -1      2792    4    0    1
 -2      6042      1966      1971      6047      6043      1967      1972      6048     12498      2207
 -2     12503     12351     12337      2197      2208     12353     12499      2209     12504     12354
 -1      2793    4    0    1
 -2      6043      1967      1972      6048      6044      1968      1973      6049     12499      2209
 -2     12504     12354     12340      2199      2210     12356     12500      2211     12505     12357
 -1      2794    4    0    1
 -2      6044      1968      1973      6049      6045      1969      1974      6050     12500      2211
 -2     12505     12357     12343      2201      2212     12359     12501      2213     12506     12360
 -1      2795    4    0    1
 -2      6045      1969      1974      6050      6046      1970      1975      6051     12501      2213
 -2     12506     12360     12346      2203      2214     12362     12502      2215     12507     12363
 -1      2796    4    0    1
 -2      6046      1970      1975      6051      3281       227       228      3282     12502      2215
 -2     12507     12363     12349      2205      2216     12365      4103       251      4104      4077
 -1      2797    4    0    1
 -2       769        64        65       770      6047      1971      1976      6052      1591        88
 -2      1592      1566     12350      2206      2217     12366     12503      2218     12508     12367
 -1      2798    4    0    1
 -2      6047      1971      1976      6052      6048      1972      1977      6053     12503      2218
 -2     12508     12367     12353      2208      2219     12369     12504      2220     12509     12370
 -1      2799    4    0    1
 -2      6048      1972      1977      6053      6049      1973      1978      6054     12504      2220
 -2     12509     12370     12356      2210      2221     12372     12505      2222     12510     12373
 -1      2800    4    0    1
 -2      6049      1973      1978      6054      6050      1974      1979      6055     12505      2222
 -2     12510     12373     12359      2212      2223     12375     12506      2224     12511     12376
 -1      2801    4    0    1
 -2      6050      1974      1979      6055      6051      1975      1980      6056     12506      2224
 -2     12511     12376     12362      2214      2225     12378     12507      2226     12512     12379
 -1      2802    4    0    1
 -2      6051      1975      1980      6056      3282       228       229      3283     12507      2226
 -2     12512     12379     12365      2216      2227     12381      4104       252      4105      4079
 -1      2803    4    0    1
 -2       770        65        66       771      6052      1976      1981      6057      1592        89
 -2      1593      1568     12366      2217      2228     12382     12508      2229     12513     12383
 -1      2804    4    0    1
 -2      6052      1976      1981      6057      6053      1977      1982      6058     12508      2229
 -2     12513     12383     12369      2219      2230     12385     12509      2231     12514     12386
 -1      2805    4    0    1
 -2      6053      1977      1982      6058      6054      1978      1983      6059     12509      2231
 -2     12514     12386     12372      2221      2232     12388     12510      2233     12515     12389
 -1      2806    4    0    1
 -2      6054      1978      1983      6059      6055      1979      1984      6060     12510      2233
 -2     12515     12389     12375      2223      2234     12391     12511      2235     12516     12392
 -1      2807    4    0    1
 -2      6055      1979      1984      6060      6056      1980      1985      6061     12511      2235
 -2     12516     12392     12378      2225      2236     12394     12512      2237     12517     12395
 -1      2808    4    0    1
 -2      6056      1980      1985      6061      3283       229       230      3284     12512      2237
 -2     12517     12395     12381      2227      2238     12397      4105       253      4106      4081
 -1      2809    4    0    1
 -2       771        66         3        91      6057      1981       359      2244      1593        90
 -2       108      1570     12382      2228       364      2329     12513      2239      2330     12398
 -1      2810    4    0    1
 -2      6057      1981       359      2244      6058      1982       360      2245     12513      2239
 -2      2330     12398     12385      2230       365      2331     12514      2240      2332     12399
 -1      2811    4    0    1
 -2      6058      1982       360      2245      6059      1983       361      2246     12514      2240
 -2      2332     12399     12388      2232       366      2333     12515      2241      2334     12400
 -1      2812    4    0    1
 -2      6059      1983       361      2246      6060      1984       362      2247     12515      2241
 -2      2334     12400     12391      2234       367      2335     12516      2242      2336     12401
 -1      2813    4    0    1
 -2      6060      1984       362      2247      6061      1985       363      2248     12516      2242
 -2      2336     12401     12394      2236       368      2337     12517      2243      2338     12402
 -1      2814    4    0    1
 -2      6061      1985       363      2248      3284       230         7       255     12517      2243
 -2      2338     12402     12397      2238       369      2339      4106       254       272      4083
 -3
    1PSTEP                         1           1           1          
  100CL  101 1.000000000       12517                     0    1           1
 -4  DISP        4    1
 -5  D1          1    2    1    0
 -5  D2          1    2    2    0
 -5  D3          1    2    3    0
 -5  ALL         1    2    0    0    1ALL
 -1         1 3.56050E-02-1.73799E-01-1.11207E-02
 -1         2 1.80316E-01-1.12195E-01 1.54383E-06
 -1         3 0.00000E+00 0.00000E+00 0.00000E+00
 -1         4 0.00000E+00 0.00000E+00 0.00000E+00
 -1         5 3.56050E-02-1.73799E-01 1.11207E-02
 -1         6 1.80316E-01-1.12195E-01-1.54383E-06
 -1         7 0.00000E+00 0.00000E+00 0.00000E+00
 -1         8 0.00000E+00 0.00000E+00 0.00000E+00
 -1         9 6.85143E-02-1.29738E-01-5.73624E-03
 -1        10 7.65409E-02-1.26266E-01-2.71392E-03
 -1        11 8.42048E-02-1.21032E-01-1.87710E-03
 -1        12 9.08537E-02-1.18467E-01-1.20245E-03
 -1        13 9.73443E-02-1.16493E-01-8.44559E-04
 -1        14 1.03668E-01-1.15123E-01-5.96145E-04
 -1        15 1.09925E-01-1.14133E-01-4.25184E-04
 -1        16 1.16156E-01-1.13429E-01-3.00067E-04
 -1        17 1.22392E-01-1.12936E-01-2.06706E-04
 -1        18 1.28654E-01-1.12603E-01-1.36591E-04
 -1        19 1.34956E-01-1.12389E-01-8.43940E-05
 -1        20 1.41306E-01-1.12263E-01-4.65582E-05
 -1        21 1.47706E-01-1.12199E-01-2.05438E-05
 -1        22 1.54158E-01-1.12177E-01-4.38588E-06
 -1        23 1.60656E-01-1.12178E-01 3.49872E-06
 -1        24 1.67192E-01-1.12187E-01 5.41247E-06
 -1        25 1.73752E-01-1.12196E-01 2.95559E-06
 -1        26 6.40083E-02-1.48002E-01-5.31698E-03
 -1        27 7.24157E-02-1.27345E-01-3.64033E-03
 -1        28 8.06527E-02-1.23354E-01-2.08707E-03
 -1        29 8.75451E-02-1.19609E-01-1.48622E-03
 -1        30 9.41262E-02-1.17390E-01-9.91709E-04
 -1        31 1.00518E-01-1.15748E-01-7.07781E-04
 -1        32 1.06802E-01-1.14586E-01-5.02664E-04
 -1        33 1.13041E-01-1.13750E-01-3.57852E-04
 -1        34 1.19272E-01-1.13159E-01-2.49965E-04
 -1        35 1.25519E-01-1.12752E-01-1.69108E-04
 -1        36 1.31799E-01-1.12483E-01-1.08492E-04
 -1        37 1.38124E-01-1.12316E-01-6.38562E-05
 -1        38 1.44499E-01-1.12224E-01-3.22126E-05
 -1        39 1.50926E-01-1.12184E-01-1.13552E-05
 -1        40 1.57402E-01-1.12175E-01 4.34499E-07
 -1        41 1.63920E-01-1.12182E-01 5.06192E-06
 -1        42 1.70470E-01-1.12192E-01 4.42506E-06
 -1        43 1.77036E-01-1.12196E-01 2.00643E-06
 -1        44 1.78817E-01-8.90221E-02 5.55499E-07
 -1        45 1.74115E-01-6.59470E-02-4.16650E-05
 -1        46 1.65957E-01-4.35987E-02-1.18404E-04
 -1        47 1.54484E-01-2.28845E-02-2.07144E-04
 -1        48 1.40196E-01-4.63510E-03-2.92725E-04
 -1        49 1.23820E-01 1.05471E-02-3.67614E-04
 -1        50 1.06179E-01 2.23240E-02-4.29392E-04
 -1        51 8.81007E-02 3.06027E-02-4.78146E-04
 -1        52 7.03587E-02 3.54985E-02-5.14788E-04
 -1        53 5.36364E-02 3.72981E-02-5.40238E-04
 -1        54 3.85003E-02 3.64236E-02-5.55170E-04
 -1        55 2.53799E-02 3.33965E-02-5.60023E-04
 -1        56 1.45541E-02 2.88011E-02-5.55111E-04
 -1        57 6.14585E-03 2.32447E-02-5.40725E-04
 -1        58 1.24522E-04 1.73187E-02-5.17227E-04
 -1        59-3.68108E-03 1.15616E-02-4.85108E-04
 -1        60-5.56134E-03 6.42565E-03-4.45025E-04
 -1        61-5.89654E-03 2.25166E-03-3.97813E-04
 -1        62-5.12214E-03-7.47482E-04-3.44376E-04
 -1        63-3.69324E-03-2.49227E-03-2.85629E-04
 -1        64-2.05089E-03-3.03268E-03-2.21547E-04
 -1        65-6.11473E-04-2.54087E-03-1.51647E-04
 -1        66 2.44051E-04-1.32815E-03-7.71597E-05
 -1        67 1.79945E-01-1.00607E-01 4.46859E-06
 -1        68 1.76887E-01-7.74451E-02-1.31067E-05
 -1        69 1.70465E-01-5.46284E-02-7.63187E-05
 -1        70 1.60608E-01-3.29861E-02-1.61998E-04
 -1        71 1.47649E-01-1.34151E-02-2.50923E-04
 -1        72 1.32221E-01 3.35823E-03-3.31951E-04
 -1        73 1.15110E-01 1.68637E-02-4.00497E-04
 -1        74 9.71522E-02 2.68898E-02-4.55707E-04
 -1        75 7.91523E-02 3.34523E-02-4.98262E-04
 -1        76 6.18431E-02 3.67565E-02-5.29155E-04
 -1        77 4.58524E-02 3.71612E-02-5.49197E-04
 -1        78 3.16802E-02 3.51426E-02-5.58929E-04
 -1        79 1.96819E-02 3.12582E-02-5.58700E-04
 -1        80 1.00587E-02 2.61085E-02-5.48777E-04
 -1        81 2.85570E-03 2.02978E-02-5.29448E-04
 -1        82-2.02998E-03 1.43952E-02-5.01085E-04
 -1        83-4.83229E-03 8.89968E-03-4.64188E-04
 -1        84-5.89049E-03 4.21026E-03-4.19388E-04
 -1        85-5.61687E-03 6.05083E-04-3.67381E-04
 -1        86-4.46076E-03-1.76973E-03-3.08721E-04
 -1        87-2.87357E-03-2.90109E-03-2.43369E-04
 -1        88-1.28259E-03-2.89907E-03-1.68824E-04
 -1        89-7.84230E-05-2.00458E-03-7.89810E-05
 -1        90 3.24262E-04-5.93374E-04 7.73516E-05
 -1        91 0.00000E+00 0.00000E+00 0.00000E+00
 -1        92 0.00000E+00 0.00000E+00 0.00000E+00
 -1        93 0.00000E+00 0.00000E+00 0.00000E+00
 -1        94 0.00000E+00 0.00000E+00 0.00000E+00
 -1        95 0.00000E+00 0.00000E+00 0.00000E+00
 -1        96 0.00000E+00 0.00000E+00 0.00000E+00
 -1        97 0.00000E+00 0.00000E+00 0.00000E+00
 -1        98 0.00000E+00 0.00000E+00 0.00000E+00
 -1        99 0.00000E+00 0.00000E+00 0.00000E+00
 -1       100 0.00000E+00 0.00000E+00 0.00000E+00
 -1       101 0.00000E+00 0.00000E+00 0.00000E+00
 -1       102 0.00000E+00 0.00000E+00 0.00000E+00
 -1       103 0.00000E+00 0.00000E+00 0.00000E+00
 -1       104 0.00000E+00 0.00000E+00 0.00000E+00
 -1       105 0.00000E+00 0.00000E+00 0.00000E+00
 -1       106 0.00000E+00 0.00000E+00 0.00000E+00
 -1       107 0.00000E+00 0.00000E+00 0.00000E+00
 -1       108 0.00000E+00 0.00000E+00 0.00000E+00
 -1       109 0.00000E+00 0.00000E+00 0.00000E+00
 -1       110 0.00000E+00 0.00000E+00 0.00000E+00
 -1       111 0.00000E+00 0.00000E+00 0.00000E+00
 -1       112 0.00000E+00 0.00000E+00 0.00000E+00
 -1       113 0.00000E+00 0.00000E+00 0.00000E+00
 -1       114 0.00000E+00 0.00000E+00 0.00000E+00
 -1       115 0.00000E+00 0.00000E+00 0.00000E+00
 -1       116 0.00000E+00 0.00000E+00 0.00000E+00
 -1       117 0.00000E+00 0.00000E+00 0.00000E+00
 -1       118 0.00000E+00 0.00000E+00 0.00000E+00
 -1       119 0.00000E+00 0.00000E+00 0.00000E+00
 -1       120 0.00000E+00 0.00000E+00 0.00000E+00
 -1       121 0.00000E+00 0.00000E+00 0.00000E+00
 -1       122 0.00000E+00 0.00000E+00 0.00000E+00
 -1       123 0.00000E+00 0.00000E+00 0.00000E+00
 -1       124 0.00000E+00 0.00000E+00 0.00000E+00
 -1       125 0.00000E+00 0.00000E+00 0.00000E+00
 -1       126 5.35743E-02-1.14140E-01 3.66340E-03
 -1       127 5.37150E-02-1.00585E-01 1.56076E-03
 -1       128 5.38110E-02-8.85426E-02 1.52743E-03
 -1       129 5.21613E-02-7.90191E-02 1.21860E-03
 -1       130 4.96027E-02-7.01354E-02 1.22694E-03
 -1       131 4.63219E-02-6.20321E-02 1.27921E-03
 -1       132 4.25337E-02-5.46202E-02 1.36806E-03
 -1       133 3.84115E-02-4.79072E-02 1.45940E-03
 -1       134 3.41077E-02-4.18841E-02 1.54136E-03
 -1       135 2.97578E-02-3.65312E-02 1.60509E-03
 -1       136 2.54806E-02-3.18129E-02 1.64554E-03
 -1       137 2.13768E-02-2.76781E-02 1.65974E-03
 -1       138 1.75282E-02-2.40635E-02 1.64626E-03
 -1       139 1.39969E-02-2.08970E-02 1.60478E-03
 -1       140 1.08257E-02-1.81026E-02 1.53576E-03
 -1       141 8.03915E-03-1.56039E-02 1.44023E-03
 -1       142 5.64580E-03-1.33291E-02 1.31963E-03
 -1       143 3.64182E-03-1.12131E-02 1.17543E-03
 -1       144 2.01581E-03-9.20080E-03 1.00851E-03
 -1       145 7.54635E-04-7.24665E-03 8.18146E-04
 -1       146-1.43162E-04-5.31847E-03 5.97469E-04
 -1       147-6.63466E-04-3.39364E-03 3.38495E-04
 -1       148-7.36122E-04-1.49201E-03 3.10336E-05
 -1       149 4.65057E-02-1.22782E-01-1.71817E-03
 -1       150 5.37308E-02-1.04992E-01 2.04023E-03
 -1       151 5.38289E-02-9.37301E-02 1.36299E-03
 -1       152 5.31160E-02-8.35895E-02 1.27150E-03
 -1       153 5.09714E-02-7.44519E-02 1.18891E-03
 -1       154 4.80363E-02-6.59901E-02 1.23928E-03
 -1       155 4.44789E-02-5.82385E-02 1.31915E-03
 -1       156 4.05048E-02-5.11778E-02 1.41324E-03
 -1       157 3.62743E-02-4.48117E-02 1.50184E-03
 -1       158 3.19319E-02-3.91269E-02 1.57574E-03
 -1       159 2.76049E-02-3.40964E-02 1.62839E-03
 -1       160 2.34031E-02-2.96765E-02 1.65600E-03
 -1       161 1.94179E-02-2.58098E-02 1.65648E-03
 -1       162 1.57212E-02-2.24280E-02 1.62899E-03
 -1       163 1.23655E-02-1.94566E-02 1.57364E-03
 -1       164 9.38419E-03-1.68190E-02 1.49119E-03
 -1       165 6.79345E-03-1.44405E-02 1.38290E-03
 -1       166 4.59520E-03-1.22525E-02 1.25025E-03
 -1       167 2.78114E-03-1.01947E-02 1.09443E-03
 -1       168 1.33803E-03-8.21699E-03 9.15451E-04
 -1       169 2.56206E-04-6.28007E-03 7.09840E-04
 -1       170-4.55789E-04-4.35879E-03 4.65387E-04
 -1       171-7.79015E-04-2.45538E-03 1.70617E-04
 -1       172-4.87136E-04-6.38437E-04-1.75437E-04
 -1       173 6.85143E-02-1.29738E-01 5.73624E-03
 -1       174 7.65409E-02-1.26266E-01 2.71392E-03
 -1       175 8.42048E-02-1.21032E-01 1.87710E-03
 -1       176 9.08537E-02-1.18467E-01 1.20245E-03
 -1       177 9.73443E-02-1.16493E-01 8.44559E-04
 -1       178 1.03668E-01-1.15123E-01 5.96145E-04
 -1       179 1.09925E-01-1.14133E-01 4.25184E-04
 -1       180 1.16156E-01-1.13429E-01 3.00067E-04
 -1       181 1.22392E-01-1.12936E-01 2.06706E-04
 -1       182 1.28654E-01-1.12603E-01 1.36591E-04
 -1       183 1.34956E-01-1.12389E-01 8.43940E-05
 -1       184 1.41306E-01-1.12263E-01 4.65582E-05
 -1       185 1.47706E-01-1.12199E-01 2.05438E-05
 -1       186 1.54158E-01-1.12177E-01 4.38588E-06
 -1       187 1.60656E-01-1.12178E-01-3.49872E-06
 -1       188 1.67192E-01-1.12187E-01-5.41247E-06
 -1       189 1.73752E-01-1.12196E-01-2.95559E-06
 -1       190 6.40083E-02-1.48002E-01 5.31698E-03
 -1       191 7.24157E-02-1.27345E-01 3.64033E-03
 -1       192 8.06527E-02-1.23354E-01 2.08707E-03
 -1       193 8.75451E-02-1.19609E-01 1.48622E-03
 -1       194 9.41262E-02-1.17390E-01 9.91709E-04
 -1       195 1.00518E-01-1.15748E-01 7.07781E-04
 -1       196 1.06802E-01-1.14586E-01 5.02664E-04
 -1       197 1.13041E-01-1.13750E-01 3.57852E-04
 -1       198 1.19272E-01-1.13159E-01 2.49965E-04
 -1       199 1.25519E-01-1.12752E-01 1.69108E-04
 -1       200 1.31799E-01-1.12483E-01 1.08492E-04
 -1       201 1.38124E-01-1.12316E-01 6.38562E-05
 -1       202 1.44499E-01-1.12224E-01 3.22126E-05
 -1       203 1.50926E-01-1.12184E-01 1.13552E-05
 -1       204 1.57402E-01-1.12175E-01-4.34499E-07
 -1       205 1.63920E-01-1.12182E-01-5.06192E-06
 -1       206 1.70470E-01-1.12192E-01-4.42506E-06
 -1       207 1.77036E-01-1.12196E-01-2.00643E-06
 -1       208 1.78817E-01-8.90221E-02-5.55499E-07
 -1       209 1.74115E-01-6.59470E-02 4.16650E-05
 -1       210 1.65957E-01-4.35987E-02 1.18404E-04
 -1       211 1.54484E-01-2.28845E-02 2.07144E-04
 -1       212 1.40196E-01-4.63510E-03 2.92725E-04
 -1       213 1.23820E-01 1.05471E-02 3.67614E-04
 -1       214 1.06179E-01 2.23240E-02 4.29392E-04
 -1       215 8.81007E-02 3.06027E-02 4.78146E-04
 -1       216 7.03587E-02 3.54985E-02 5.14788E-04
 -1       217 5.36364E-02 3.72981E-02 5.40238E-04
 -1       218 3.85003E-02 3.64236E-02 5.55170E-04
 -1       219 2.53799E-02 3.33965E-02 5.60023E-04
 -1       220 1.45541E-02 2.88011E-02 5.55111E-04
 -1       221 6.14585E-03 2.32447E-02 5.40725E-04
 -1       222 1.24522E-04 1.73187E-02 5.17227E-04
 -1       223-3.68108E-03 1.15616E-02 4.85108E-04
 -1       224-5.56134E-03 6.42565E-03 4.45025E-04
 -1       225-5.89654E-03 2.25166E-03 3.97813E-04
 -1       226-5.12214E-03-7.47482E-04 3.44376E-04
 -1       227-3.69324E-03-2.49227E-03 2.85629E-04
 -1       228-2.05089E-03-3.03268E-03 2.21547E-04
 -1       229-6.11473E-04-2.54087E-03 1.51647E-04
 -1       230 2.44051E-04-1.32815E-03 7.71597E-05
 -1       231 1.79945E-01-1.00607E-01-4.46859E-06
 -1       232 1.76887E-01-7.74451E-02 1.31067E-05
 -1       233 1.70465E-01-5.46284E-02 7.63187E-05
 -1       234 1.60608E-01-3.29861E-02 1.61998E-04
 -1       235 1.47649E-01-1.34151E-02 2.50923E-04
 -1       236 1.32221E-01 3.35823E-03 3.31951E-04
 -1       237 1.15110E-01 1.68637E-02 4.00497E-04
 -1       238 9.71522E-02 2.68898E-02 4.55707E-04
 -1       239 7.91523E-02 3.34523E-02 4.98262E-04
 -1       240 6.18431E-02 3.67565E-02 5.29155E-04
 -1       241 4.58524E-02 3.71612E-02 5.49197E-04
 -1       242 3.16802E-02 3.51426E-02 5.58929E-04
 -1       243 1.96819E-02 3.12582E-02 5.58700E-04
 -1       244 1.00587E-02 2.61085E-02 5.48777E-04
 -1       245 2.85570E-03 2.02978E-02 5.29448E-04
 -1       246-2.02998E-03 1.43952E-02 5.01085E-04
 -1       247-4.83229E-03 8.89968E-03 4.64188E-04
 -1       248-5.89049E-03 4.21026E-03 4.19388E-04
 -1       249-5.61687E-03 6.05083E-04 3.67381E-04
 -1       250-4.46076E-03-1.76973E-03 3.08721E-04
 -1       251-2.87357E-03-2.90109E-03 2.43369E-04
 -1       252-1.28259E-03-2.89907E-03 1.68824E-04
 -1       253-7.84230E-05-2.00458E-03 7.89810E-05
 -1       254 3.24262E-04-5.93374E-04-7.73516E-05
 -1       255 0.00000E+00 0.00000E+00 0.00000E+00
 -1       256 0.00000E+00 0.00000E+00 0.00000E+00
 -1       257 0.00000E+00 0.00000E+00 0.00000E+00
 -1       258 0.00000E+00 0.00000E+00 0.00000E+00
 -1       259 0.00000E+00 0.00000E+00 0.00000E+00
 -1       260 0.00000E+00 0.00000E+00 0.00000E+00
 -1       261 0.00000E+00 0.00000E+00 0.00000E+00
 -1       262 0.00000E+00 0.00000E+00 0.00000E+00
 -1       263 0.00000E+00 0.00000E+00 0.00000E+00
 -1       264 0.00000E+00 0.00000E+00 0.00000E+00
 -1       265 0.00000E+00 0.00000E+00 0.00000E+00
 -1       266 0.00000E+00 0.00000E+00 0.00000E+00
 -1       267 0.00000E+00 0.00000E+00 0.00000E+00
 -1       268 0.00000E+00 0.00000E+00 0.00000E+00
 -1       269 0.00000E+00 0.00000E+00 0.00000E+00
 -1       270 0.00000E+00 0.00000E+00 0.00000E+00
 -1       271 0.00000E+00 0.00000E+00 0.00000E+00
 -1       272 0.00000E+00 0.00000E+00 0.00000E+00
 -1       273 0.00000E+00 0.00000E+00 0.00000E+00
 -1       274 0.00000E+00 0.00000E+00 0.00000E+00
 -1       275 0.00000E+00 0.00000E+00 0.00000E+00
 -1       276 0.00000E+00 0.00000E+00 0.00000E+00
 -1       277 0.00000E+00 0.00000E+00 0.00000E+00
 -1       278 0.00000E+00 0.00000E+00 0.00000E+00
 -1       279 0.00000E+00 0.00000E+00 0.00000E+00
 -1       280 0.00000E+00 0.00000E+00 0.00000E+00
 -1       281 0.00000E+00 0.00000E+00 0.00000E+00
 -1       282 0.00000E+00 0.00000E+00 0.00000E+00
 -1       283 0.00000E+00 0.00000E+00 0.00000E+00
 -1       284 0.00000E+00 0.00000E+00 0.00000E+00
 -1       285 0.00000E+00 0.00000E+00 0.00000E+00
 -1       286 0.00000E+00 0.00000E+00 0.00000E+00
 -1       287 0.00000E+00 0.00000E+00 0.00000E+00
 -1       288 0.00000E+00 0.00000E+00 0.00000E+00
 -1       289 0.00000E+00 0.00000E+00 0.00000E+00
 -1       290-7.36122E-04-1.49201E-03-3.10336E-05
 -1       291-6.63466E-04-3.39364E-03-3.38495E-04
 -1       292-1.43162E-04-5.31847E-03-5.97469E-04
 -1       293 7.54635E-04-7.24665E-03-8.18146E-04
 -1       294 2.01581E-03-9.20080E-03-1.00851E-03
 -1       295 3.64182E-03-1.12131E-02-1.17543E-03
 -1       296 5.64580E-03-1.33291E-02-1.31963E-03
 -1       297 8.03915E-03-1.56039E-02-1.44023E-03
 -1       298 1.08257E-02-1.81026E-02-1.53576E-03
 -1       299 1.39969E-02-2.08970E-02-1.60478E-03
 -1       300 1.75282E-02-2.40635E-02-1.64626E-03
 -1       301 2.13768E-02-2.76781E-02-1.65974E-03
 -1       302 2.54806E-02-3.18129E-02-1.64554E-03
 -1       303 2.97578E-02-3.65312E-02-1.60509E-03
 -1       304 3.41077E-02-4.18841E-02-1.54136E-03
 -1       305 3.84115E-02-4.79072E-02-1.45940E-03
 -1       306 4.25337E-02-5.46202E-02-1.36806E-03
 -1       307 4.63219E-02-6.20321E-02-1.27921E-03
 -1       308 4.96027E-02-7.01354E-02-1.22694E-03
 -1       309 5.21613E-02-7.90191E-02-1.21860E-03
 -1       310 5.38110E-02-8.85426E-02-1.52743E-03
 -1       311 5.37150E-02-1.00585E-01-1.56076E-03
 -1       312 5.35743E-02-1.14140E-01-3.66340E-03
 -1       313-4.87136E-04-6.38437E-04 1.75437E-04
 -1       314-7.79015E-04-2.45538E-03-1.70617E-04
 -1       315-4.55789E-04-4.35879E-03-4.65387E-04
 -1       316 2.56206E-04-6.28007E-03-7.09840E-04
 -1       317 1.33803E-03-8.21699E-03-9.15451E-04
 -1       318 2.78114E-03-1.01947E-02-1.09443E-03
 -1       319 4.59520E-03-1.22525E-02-1.25025E-03
 -1       320 6.79345E-03-1.44405E-02-1.38290E-03
 -1       321 9.38419E-03-1.68190E-02-1.49119E-03
 -1       322 1.23655E-02-1.94566E-02-1.57364E-03
 -1       323 1.57212E-02-2.24280E-02-1.62899E-03
 -1       324 1.94179E-02-2.58098E-02-1.65648E-03
 -1       325 2.34031E-02-2.96765E-02-1.65600E-03
 -1       326 2.76049E-02-3.40964E-02-1.62839E-03
 -1       327 3.19319E-02-3.91269E-02-1.57574E-03
 -1       328 3.62743E-02-4.48117E-02-1.50184E-03
 -1       329 4.05048E-02-5.11778E-02-1.41324E-03
 -1       330 4.44789E-02-5.82385E-02-1.31915E-03
 -1       331 4.80363E-02-6.59901E-02-1.23928E-03
 -1       332 5.09714E-02-7.44519E-02-1.18891E-03
 -1       333 5.31160E-02-8.35895E-02-1.27150E-03
 -1       334 5.38289E-02-9.37301E-02-1.36299E-03
 -1       335 5.37308E-02-1.04992E-01-2.04023E-03
 -1       336 4.65057E-02-1.22782E-01 1.71817E-03
 -1       337 3.79244E-02-1.57778E-01-3.23598E-03
 -1       338 3.76876E-02-1.57857E-01-1.46371E-03
 -1       339 3.77531E-02-1.57271E-01-1.25361E-13
 -1       340 3.76876E-02-1.57857E-01 1.46371E-03
 -1       341 3.79244E-02-1.57778E-01 3.23598E-03
 -1       342 3.53989E-02-1.62519E-01-6.78587E-03
 -1       343 3.78887E-02-1.56315E-01-2.28584E-03
 -1       344 3.77223E-02-1.56174E-01-6.87354E-04
 -1       345 3.77223E-02-1.56174E-01 6.87354E-04
 -1       346 3.78887E-02-1.56315E-01 2.28584E-03
 -1       347 3.53989E-02-1.62519E-01 6.78587E-03
 -1       348 1.80316E-01-1.12195E-01 2.61959E-06
 -1       349 1.80317E-01-1.12194E-01 1.65621E-06
 -1       350 1.80317E-01-1.12194E-01-2.28895E-13
 -1       351 1.80317E-01-1.12194E-01-1.65621E-06
 -1       352 1.80316E-01-1.12195E-01-2.61959E-06
 -1       353 1.80316E-01-1.12195E-01 2.12626E-06
 -1       354 1.80317E-01-1.12195E-01 2.20506E-06
 -1       355 1.80317E-01-1.12194E-01 8.58667E-07
 -1       356 1.80317E-01-1.12194E-01-8.58667E-07
 -1       357 1.80317E-01-1.12195E-01-2.20506E-06
 -1       358 1.80316E-01-1.12195E-01-2.12626E-06
 -1       359 0.00000E+00 0.00000E+00 0.00000E+00
 -1       360 0.00000E+00 0.00000E+00 0.00000E+00
 -1       361 0.00000E+00 0.00000E+00 0.00000E+00
 -1       362 0.00000E+00 0.00000E+00 0.00000E+00
 -1       363 0.00000E+00 0.00000E+00 0.00000E+00
 -1       364 0.00000E+00 0.00000E+00 0.00000E+00
 -1       365 0.00000E+00 0.00000E+00 0.00000E+00
 -1       366 0.00000E+00 0.00000E+00 0.00000E+00
 -1       367 0.00000E+00 0.00000E+00 0.00000E+00
 -1       368 0.00000E+00 0.00000E+00 0.00000E+00
 -1       369 0.00000E+00 0.00000E+00 0.00000E+00
 -1       370 0.00000E+00 0.00000E+00 0.00000E+00
 -1       371 0.00000E+00 0.00000E+00 0.00000E+00
 -1       372 0.00000E+00 0.00000E+00 0.00000E+00
 -1       373 0.00000E+00 0.00000E+00 0.00000E+00
 -1       374 0.00000E+00 0.00000E+00 0.00000E+00
 -1       375 0.00000E+00 0.00000E+00 0.00000E+00
 -1       376 0.00000E+00 0.00000E+00 0.00000E+00
 -1       377 0.00000E+00 0.00000E+00 0.00000E+00
 -1       378 0.00000E+00 0.00000E+00 0.00000E+00
 -1       379 0.00000E+00 0.00000E+00 0.00000E+00
 -1       380 0.00000E+00 0.00000E+00 0.00000E+00
 -1       381 6.69924E-02-1.08967E-01-1.36363E-04
 -1       382 6.36554E-02-9.60314E-02 6.33105E-04
 -1       383 6.15216E-02-8.47614E-02 9.29629E-04
 -1       384 5.85887E-02-7.46725E-02 9.45190E-04
 -1       385 5.49546E-02-6.53890E-02 1.01334E-03
 -1       386 5.06342E-02-5.69526E-02 1.08807E-03
 -1       387 4.58207E-02-4.93828E-02 1.17227E-03
 -1       388 4.06997E-02-4.27017E-02 1.25233E-03
 -1       389 3.54604E-02-3.69030E-02 1.32176E-03
 -1       390 3.02775E-02-3.19503E-02 1.37494E-03
 -1       391 2.53050E-02-2.77775E-02 1.40826E-03
 -1       392 2.06701E-02-2.42938E-02 1.41942E-03
 -1       393 1.64694E-02-2.13900E-02 1.40720E-03
 -1       394 1.27673E-02-1.89471E-02 1.37126E-03
 -1       395 9.59675E-03-1.68433E-02 1.31189E-03
 -1       396 6.96122E-03-1.49625E-02 1.22987E-03
 -1       397 4.83918E-03-1.32000E-02 1.12632E-03
 -1       398 3.18986E-03-1.14682E-02 1.00242E-03
 -1       399 1.96013E-03-9.69930E-03 8.58997E-04
 -1       400 1.09313E-03-7.84642E-03 6.96086E-04
 -1       401 5.30879E-04-5.88279E-03 5.10702E-04
 -1       402 2.29755E-04-3.81248E-03 3.02018E-04
 -1       403 7.50424E-05-1.70307E-03 7.18120E-05
 -1       404 7.68246E-02-1.09709E-01-7.30522E-04
 -1       405 7.32758E-02-9.43843E-02 1.86580E-04
 -1       406 6.93427E-02-8.18214E-02 5.71028E-04
 -1       407 6.51300E-02-7.08974E-02 7.23219E-04
 -1       408 6.03647E-02-6.10911E-02 8.27075E-04
 -1       409 5.50230E-02-5.23087E-02 9.13987E-04
 -1       410 4.92381E-02-4.45654E-02 9.93354E-04
 -1       411 4.31938E-02-3.78802E-02 1.06393E-03
 -1       412 3.70964E-02-3.22418E-02 1.12292E-03
 -1       413 3.11461E-02-2.75992E-02 1.16731E-03
 -1       414 2.55219E-02-2.38623E-02 1.19470E-03
 -1       415 2.03709E-02-2.09086E-02 1.20340E-03
 -1       416 1.58016E-02-1.85928E-02 1.19248E-03
 -1       417 1.18810E-02-1.67577E-02 1.16161E-03
 -1       418 8.63488E-03-1.52447E-02 1.11097E-03
 -1       419 6.05045E-03-1.39043E-02 1.04119E-03
 -1       420 4.08222E-03-1.26048E-02 9.53141E-04
 -1       421 2.65905E-03-1.12391E-02 8.47887E-04
 -1       422 1.69218E-03-9.72849E-03 7.26481E-04
 -1       423 1.08325E-03-8.02517E-03 5.89952E-04
 -1       424 7.26266E-04-6.11429E-03 4.39808E-04
 -1       425 5.09259E-04-4.02341E-03 2.81229E-04
 -1       426 2.93200E-04-1.87634E-03 1.31793E-04
 -1       427 8.41025E-02-1.07079E-01-8.27513E-04
 -1       428 8.09460E-02-9.21543E-02-7.37279E-05
 -1       429 7.65288E-02-7.90288E-02 3.28219E-04
 -1       430 7.14209E-02-6.74443E-02 5.35690E-04
 -1       431 6.56988E-02-5.71153E-02 6.63978E-04
 -1       432 5.94219E-02-4.79736E-02 7.57466E-04
 -1       433 5.27291E-02-4.00333E-02 8.33344E-04
 -1       434 4.58184E-02-3.33102E-02 8.96445E-04
 -1       435 3.89136E-02-2.77852E-02 9.47224E-04
 -1       436 3.22364E-02-2.33927E-02 9.84606E-04
 -1       437 2.59865E-02-2.00213E-02 1.00728E-03
 -1       438 2.03278E-02-1.75214E-02 1.01415E-03
 -1       439 1.53789E-02-1.57165E-02 1.00456E-03
 -1       440 1.12094E-02-1.44168E-02 9.78239E-04
 -1       441 7.83944E-03-1.34319E-02 9.35346E-04
 -1       442 5.24302E-03-1.25836E-02 8.76361E-04
 -1       443 3.35452E-03-1.17167E-02 8.02042E-04
 -1       444 2.07695E-03-1.07069E-02 7.13362E-04
 -1       445 1.29109E-03-9.46712E-03 6.11539E-04
 -1       446 8.63813E-04-7.95058E-03 4.98332E-04
 -1       447 6.53263E-04-6.15546E-03 3.77082E-04
 -1       448 5.10933E-04-4.13635E-03 2.56128E-04
 -1       449 3.06985E-04-2.02464E-03 1.48024E-04
 -1       450 9.08033E-02-1.05040E-01-6.59308E-04
 -1       451 8.79549E-02-9.03023E-02-1.61239E-04
 -1       452 8.32446E-02-7.65786E-02 1.82348E-04
 -1       453 7.74666E-02-6.42948E-02 3.92627E-04
 -1       454 7.09321E-02-5.34040E-02 5.26125E-04
 -1       455 6.38014E-02-4.38699E-02 6.19691E-04
 -1       456 5.62573E-02-3.57033E-02 6.90955E-04
 -1       457 4.85237E-02-2.89114E-02 7.47290E-04
 -1       458 4.08466E-02-2.34641E-02 7.91081E-04
 -1       459 3.34690E-02-1.92803E-02 8.22614E-04
 -1       460 2.66101E-02-1.62279E-02 8.41415E-04
 -1       461 2.04486E-02-1.41322E-02 8.46893E-04
 -1       462 1.51127E-02-1.27888E-02 8.38617E-04
 -1       463 1.06746E-02-1.19782E-02 8.16424E-04
 -1       464 7.14969E-03-1.14815E-02 7.80444E-04
 -1       465 4.50080E-03-1.10947E-02 7.31080E-04
 -1       466 2.64474E-03-1.06411E-02 6.68987E-04
 -1       467 1.46212E-03-9.98159E-03 5.95073E-04
 -1       468 8.07777E-04-9.02143E-03 5.10606E-04
 -1       469 5.20981E-04-7.71555E-03 4.17604E-04
 -1       470 4.34753E-04-6.07295E-03 3.19863E-04
 -1       471 3.86602E-04-4.16281E-03 2.25316E-04
 -1       472 2.54502E-04-2.10838E-03 1.41848E-04
 -1       473 9.71302E-02-1.03110E-01-5.25831E-04
 -1       474 9.43590E-02-8.83424E-02-1.79699E-04
 -1       475 8.94951E-02-7.41599E-02 9.75211E-05
 -1       476 8.32442E-02-6.12792E-02 2.86278E-04
 -1       477 7.60342E-02-4.98533E-02 4.11947E-04
 -1       478 6.81353E-02-3.99206E-02 4.99539E-04
 -1       479 5.97945E-02-3.15099E-02 5.64210E-04
 -1       480 5.12754E-02-2.46271E-02 6.13543E-04
 -1       481 4.28526E-02-1.92322E-02 6.50822E-04
 -1       482 3.47934E-02-1.52288E-02 6.77126E-04
 -1       483 2.73364E-02-1.24648E-02 6.92560E-04
 -1       484 2.06754E-02-1.07416E-02 6.96894E-04
 -1       485 1.49478E-02-9.82802E-03 6.89893E-04
 -1       486 1.02284E-02-9.47719E-03 6.71471E-04
 -1       487 6.52892E-03-9.44349E-03 6.41746E-04
 -1       488 3.80194E-03-9.49881E-03 6.01056E-04
 -1       489 1.94868E-03-9.44674E-03 5.49967E-04
 -1       490 8.29816E-04-9.13403E-03 4.89299E-04
 -1       491 2.77805E-04-8.45909E-03 4.20250E-04
 -1       492 1.09695E-04-7.37781E-03 3.44738E-04
 -1       493 1.40674E-04-5.90712E-03 2.66121E-04
 -1       494 2.01447E-04-4.12357E-03 1.90423E-04
 -1       495 1.72125E-04-2.13900E-03 1.22140E-04
 -1       496 1.03312E-01-1.01426E-01-4.06451E-04
 -1       497 1.00517E-01-8.64448E-02-1.68718E-04
 -1       498 9.54977E-02-7.18131E-02 4.55538E-05
 -1       499 8.88434E-02-5.83662E-02 2.04691E-04
 -1       500 8.10347E-02-4.64142E-02 3.15789E-04
 -1       501 7.24267E-02-3.60761E-02 3.93832E-04
 -1       502 6.33304E-02-2.74076E-02 4.50409E-04
 -1       503 5.40538E-02-2.04175E-02 4.92432E-04
 -1       504 4.49049E-02-1.50573E-02 5.23418E-04
 -1       505 3.61769E-02-1.12157E-02 5.44871E-04
 -1       506 2.81293E-02-8.72061E-03 5.57259E-04
 -1       507 2.09710E-02-7.34990E-03 5.60608E-04
 -1       508 1.48487E-02-6.84675E-03 5.54825E-04
 -1       509 9.84025E-03-6.93774E-03 5.39878E-04
 -1       510 5.95411E-03-7.35166E-03 5.15876E-04
 -1       511 3.13346E-03-7.83738E-03 4.83096E-04
 -1       512 1.26512E-03-8.17955E-03 4.42015E-04
 -1       513 1.91615E-04-8.21145E-03 3.93340E-04
 -1       514-2.74537E-04-7.82447E-03 3.38116E-04
 -1       515-3.35077E-04-6.97434E-03 2.77953E-04
 -1       516-1.88678E-04-5.68323E-03 2.15412E-04
 -1       517-1.02501E-05-4.03234E-03 1.54427E-04
 -1       518 7.67063E-05-2.12755E-03 9.70418E-05
 -1       519 1.09423E-01-9.99384E-02-3.14142E-04
 -1       520 1.06532E-01-8.45922E-02-1.50308E-04
 -1       521 1.01331E-01-6.94893E-02 1.19525E-05
 -1       522 9.43067E-02-5.54974E-02 1.40871E-04
 -1       523 8.59509E-02-4.30341E-02 2.34268E-04
 -1       524 7.66785E-02-3.22922E-02 3.00350E-04
 -1       525 6.68588E-02-2.33595E-02 3.47609E-04
 -1       526 5.68464E-02-1.62522E-02 3.81920E-04
 -1       527 4.69856E-02-1.09158E-02 4.06652E-04
 -1       528 3.75977E-02-7.22460E-03 4.23457E-04
 -1       529 2.89643E-02-4.98693E-03 4.32998E-04
 -1       530 2.13102E-02-3.95738E-03 4.35450E-04
 -1       531 1.47918E-02-3.85371E-03 4.30815E-04
 -1       532 9.49005E-03-4.37650E-03 4.19094E-04
 -1       533 5.41050E-03-5.22952E-03 4.00374E-04
 -1       534 2.48756E-03-6.13915E-03 3.74877E-04
 -1       535 5.94382E-04-6.87153E-03 3.42984E-04
 -1       536-4.43597E-04-7.24661E-03 3.05275E-04
 -1       537-8.32328E-04-7.14841E-03 2.62595E-04
 -1       538-7.90620E-04-6.53135E-03 2.16165E-04
 -1       539-5.29563E-04-5.42094E-03 1.67665E-04
 -1       540-2.30282E-04-3.90278E-03 1.19131E-04
 -1       541-2.29337E-05-2.08429E-03 7.07174E-05
 -1       542 1.15515E-01-9.86114E-02-2.41457E-04
 -1       543 1.12488E-01-8.27917E-02-1.31090E-04
 -1       544 1.07078E-01-6.71839E-02-1.13725E-05
 -1       545 9.96902E-02-5.26510E-02 8.89893E-05
 -1       546 9.08131E-02-3.96840E-02 1.63653E-04
 -1       547 8.09032E-02-2.85393E-02 2.16588E-04
 -1       548 7.03810E-02-1.93387E-02 2.53824E-04
 -1       549 5.96473E-02-1.21086E-02 2.80180E-04
 -1       550 4.90836E-02-6.79002E-03 2.98698E-04
 -1       551 3.90414E-02-3.24344E-03 3.11009E-04
 -1       552 2.98252E-02-1.25772E-03 3.17845E-04
 -1       553 2.16763E-02-5.64170E-04 3.19461E-04
 -1       554 1.47611E-02-8.55179E-04 3.15908E-04
 -1       555 9.16429E-03-1.80546E-03 3.07199E-04
 -1       556 4.88844E-03-3.09393E-03 2.93397E-04
 -1       557 1.85952E-03-4.42469E-03 2.74660E-04
 -1       558-6.25501E-05-5.54550E-03 2.51275E-04
 -1       559-1.06891E-03-6.26289E-03 2.23687E-04
 -1       560-1.38335E-03-6.45305E-03 1.92532E-04
 -1       561-1.24126E-03-6.06808E-03 1.58639E-04
 -1       562-8.66283E-04-5.13566E-03 1.22887E-04
 -1       563-4.47056E-04-3.74668E-03 8.57095E-05
 -1       564-1.21176E-04-2.01745E-03 4.56367E-05
 -1       565 1.21621E-01-9.74108E-02-1.84936E-04
 -1       566 1.18432E-01-8.10361E-02-1.14143E-04
 -1       567 1.12787E-01-6.48870E-02-2.90970E-05
 -1       568 1.05031E-01-4.98075E-02 4.53231E-05
 -1       569 9.56435E-02-3.63394E-02 1.01401E-04
 -1       570 8.51112E-02-2.47933E-02 1.40700E-04
 -1       571 7.38996E-02-1.53239E-02 1.67526E-04
 -1       572 6.24533E-02-7.96915E-03 1.85786E-04
 -1       573 5.11921E-02-2.66641E-03 1.98132E-04
 -1       574 4.04984E-02 7.36950E-04 2.06067E-04
 -1       575 3.07007E-02 2.47161E-03 2.10308E-04
 -1       576 2.20576E-02 2.82967E-03 2.11129E-04
 -1       577 1.47458E-02 2.14424E-03 2.08596E-04
 -1       578 8.85381E-03 7.66626E-04 2.02717E-04
 -1       579 4.38155E-03-9.57221E-04 1.93521E-04
 -1       580 1.24658E-03-2.70905E-03 1.81105E-04
 -1       581-7.04340E-04-4.21817E-03 1.65661E-04
 -1       582-1.67880E-03-5.27747E-03 1.47499E-04
 -1       583-1.91843E-03-5.75489E-03 1.27052E-04
 -1       584-1.67555E-03-5.59939E-03 1.04808E-04
 -1       585-1.18752E-03-4.84011E-03 8.09909E-05
 -1       586-6.52073E-04-3.57430E-03 5.47542E-05
 -1       587-2.13809E-04-1.93364E-03 2.31691E-05
 -1       588 1.27761E-01-9.63081E-02-1.41146E-04
 -1       589 1.24394E-01-7.93172E-02-1.00212E-04
 -1       590 1.18492E-01-6.25920E-02-4.36527E-05
 -1       591 1.10359E-01-4.69544E-02 7.41264E-06
 -1       592 1.00463E-01-3.29837E-02 4.55086E-05
 -1       593 8.93147E-02-2.10368E-02 7.10977E-05
 -1       594 7.74193E-02-1.12991E-02 8.73756E-05
 -1       595 6.52641E-02-3.82023E-03 9.75164E-05
 -1       596 5.33070E-02 1.46543E-03 1.03769E-04
 -1       597 4.19622E-02 4.72361E-03 1.07446E-04
 -1       598 3.15831E-02 6.20457E-03 1.09190E-04
 -1       599 2.24459E-02 6.22411E-03 1.09250E-04
 -1       600 1.47382E-02 5.14113E-03 1.07683E-04
 -1       601 8.55234E-03 3.33320E-03 1.04479E-04
 -1       602 3.88565E-03 1.17141E-03 9.96265E-05
 -1       603 6.47201E-04-1.00343E-03 9.31598E-05
 -1       604-1.32950E-03-2.90197E-03 8.51770E-05
 -1       605-2.26871E-03-4.30325E-03 7.58594E-05
 -1       606-2.43031E-03-5.06652E-03 6.54616E-05
 -1       607-2.08451E-03-5.13706E-03 5.41926E-05
 -1       608-1.48411E-03-4.54500E-03 4.18079E-05
 -1       609-8.38054E-04-3.39472E-03 2.65098E-05
 -1       610-2.97127E-04-1.83832E-03 4.09261E-06
 -1       611 1.33950E-01-9.52804E-02-1.07465E-04
 -1       612 1.30395E-01-7.76262E-02-8.92163E-05
 -1       613 1.24219E-01-6.02927E-02-5.63659E-05
 -1       614 1.15697E-01-4.40820E-02-2.63811E-05
 -1       615 1.05288E-01-2.96041E-02-5.49933E-06
 -1       616 9.35238E-02-1.72561E-02 6.53837E-06
 -1       617 8.09451E-02-7.25167E-03 1.22977E-05
 -1       618 6.80805E-02 3.48698E-04 1.43816E-05
 -1       619 5.54262E-02 5.61361E-03 1.46503E-05
 -1       620 4.34288E-02 8.72197E-03 1.41901E-05
 -1       621 3.24671E-02 9.94389E-03 1.35288E-05
 -1       622 2.28357E-02 9.61915E-03 1.28613E-05
 -1       623 1.47331E-02 8.13288E-03 1.22151E-05
 -1       624 8.25560E-03 5.88928E-03 1.15506E-05
 -1       625 3.39798E-03 3.28499E-03 1.08166E-05
 -1       626 6.06398E-05 6.83662E-04 9.98116E-06
 -1       627-1.93650E-03-1.60639E-03 9.05135E-06
 -1       628-2.83477E-03-3.35008E-03 8.08697E-06
 -1       629-2.91302E-03-4.39770E-03 7.18754E-06
 -1       630-2.46059E-03-4.69056E-03 6.36058E-06
 -1       631-1.74793E-03-4.25947E-03 5.08535E-06
 -1       632-9.97900E-04-3.21621E-03 9.71415E-07
 -1       633-3.67336E-04-1.73634E-03-1.11707E-05
 -1       634 1.40194E-01-9.43093E-02-8.17281E-05
 -1       635 1.36446E-01-7.59549E-02-8.06631E-05
 -1       636 1.29984E-01-5.79831E-02-6.78846E-05
 -1       637 1.21062E-01-4.11826E-02-5.71352E-05
 -1       638 1.10134E-01-2.61907E-02-5.27231E-05
 -1       639 9.77481E-02-1.34409E-02-5.39717E-05
 -1       640 8.44820E-02-3.17183E-03-5.85987E-05
 -1       641 7.09039E-02 4.54586E-03-6.44437E-05
 -1       642 5.75487E-02 9.78442E-03-7.00187E-05
 -1       643 4.48955E-02 1.27363E-02-7.44857E-05
 -1       644 3.33492E-02 1.36916E-02-7.74602E-05
 -1       645 2.32230E-02 1.30148E-02-7.88221E-05
 -1       646 1.47267E-02 1.11175E-02-7.85859E-05
 -1       647 7.96066E-03 8.43104E-03-7.68257E-05
 -1       648 2.91683E-03 5.37814E-03-7.36370E-05
 -1       649-5.13311E-04 2.34569E-03-6.91163E-05
 -1       650-2.52381E-03-3.38711E-04-6.33459E-05
 -1       651-3.37363E-03-2.42558E-03-5.63810E-05
 -1       652-3.36147E-03-3.75611E-03-4.82543E-05
 -1       653-2.79718E-03-4.26756E-03-3.90906E-05
 -1       654-1.97125E-03-3.99133E-03-2.94995E-05
 -1       655-1.12398E-03-3.04647E-03-2.20651E-05
 -1       656-4.20029E-04-1.63237E-03-2.24333E-05
 -1       657 1.46499E-01-9.33805E-02-6.20772E-05
 -1       658 1.42556E-01-7.42959E-02-7.38821E-05
 -1       659 1.35800E-01-5.56578E-02-7.84879E-05
 -1       660 1.26469E-01-3.82495E-02-8.55771E-05
 -1       661 1.15011E-01-2.27357E-02-9.69952E-05
 -1       662 1.01996E-01-9.58270E-03-1.11226E-04
 -1       663 8.80348E-02 9.48066E-04-1.26041E-04
 -1       664 7.37365E-02 8.77769E-03-1.39637E-04
 -1       665 5.96742E-02 1.39828E-02-1.50890E-04
 -1       666 4.63607E-02 1.67697E-02-1.59225E-04
 -1       667 3.42269E-02 1.74494E-02-1.64419E-04
 -1       668 2.36050E-02 1.64109E-02-1.66440E-04
 -1       669 1.47165E-02 1.40933E-02-1.65353E-04
 -1       670 7.66551E-03 1.09555E-02-1.61268E-04
 -1       671 2.44109E-03 7.44664E-03-1.54328E-04
 -1       672-1.07457E-03 3.97752E-03-1.44691E-04
 -1       673-3.08996E-03 8.95341E-04-1.32528E-04
 -1       674-3.88239E-03-1.53578E-03-1.18005E-04
 -1       675-3.77126E-03-3.14785E-03-1.01269E-04
 -1       676-3.08833E-03-3.87421E-03-8.25265E-05
 -1       677-2.14648E-03-3.74719E-03-6.23124E-05
 -1       678-1.20762E-03-2.89275E-03-4.29748E-05
 -1       679-4.49523E-04-1.53150E-03-2.97073E-05
 -1       680 1.52863E-01-9.24822E-02-4.68021E-05
 -1       681 1.48729E-01-7.26424E-02-6.81094E-05
 -1       682 1.41678E-01-5.33114E-02-8.82361E-05
 -1       683 1.31929E-01-3.52769E-02-1.12203E-04
 -1       684 1.19931E-01-1.92326E-02-1.38957E-04
 -1       685 1.06275E-01-5.67514E-03-1.65869E-04
 -1       686 9.16081E-02 5.11397E-03-1.90635E-04
 -1       687 7.65802E-02 1.30492E-02-2.11770E-04
 -1       688 6.18033E-02 1.82125E-02-2.28513E-04
 -1       689 4.78235E-02 2.08249E-02-2.40569E-04
 -1       690 3.50986E-02 2.12185E-02-2.47887E-04
 -1       691 2.39801E-02 1.98076E-02-2.50532E-04
 -1       692 1.47008E-02 1.70590E-02-2.48619E-04
 -1       693 7.36895E-03 1.34602E-02-2.42301E-04
 -1       694 1.97027E-03 9.48724E-03-2.31761E-04
 -1       695-1.62267E-03 5.57520E-03-2.17224E-04
 -1       696-3.63344E-03 2.09139E-03-1.98945E-04
 -1       697-4.35837E-03-6.85225E-04-1.77201E-04
 -1       698-4.13848E-03-2.57753E-03-1.52248E-04
 -1       699-3.32866E-03-3.51532E-03-1.24344E-04
 -1       700-2.26614E-03-3.53241E-03-9.38167E-05
 -1       701-1.23882E-03-2.76150E-03-6.23400E-05
 -1       702-4.47788E-04-1.43995E-03-3.33426E-05
 -1       703 1.59284E-01-9.16053E-02-3.43538E-05
 -1       704 1.54970E-01-7.09879E-02-6.26128E-05
 -1       705 1.47625E-01-5.09384E-02-9.71230E-05
 -1       706 1.37451E-01-3.22595E-02-1.37386E-04
 -1       707 1.24902E-01-1.56759E-02-1.79108E-04
 -1       708 1.10591E-01-1.71272E-03-2.18405E-04
 -1       709 9.52059E-02 9.33078E-03-2.52849E-04
 -1       710 7.94370E-02 1.73644E-02-2.81277E-04
 -1       711 6.39361E-02 2.24766E-02-3.03306E-04
 -1       712 4.92832E-02 2.49039E-02-3.18927E-04
 -1       713 3.59630E-02 2.49997E-02-3.28272E-04
 -1       714 2.43465E-02 2.32046E-02-3.31502E-04
 -1       715 1.46780E-02 2.00137E-02-3.28786E-04
 -1       716 7.06965E-03 1.59431E-02-3.20313E-04
 -1       717 1.50365E-03 1.14970E-02-3.06310E-04
 -1       718-2.15761E-03 7.13518E-03-2.87062E-04
 -1       719-4.15332E-03 3.24542E-03-2.62912E-04
 -1       720-4.79963E-03 1.21773E-04-2.34245E-04
 -1       721-4.45999E-03-2.04958E-03-2.01426E-04
 -1       722-3.51338E-03-3.19535E-03-1.64763E-04
 -1       723-2.32280E-03-3.35156E-03-1.24296E-04
 -1       724-1.20650E-03-2.65798E-03-8.06500E-05
 -1       725-4.02541E-04-1.36627E-03-3.42593E-05
 -1       726 1.65756E-01-9.07417E-02-2.29085E-05
 -1       727 1.61279E-01-6.93257E-02-5.64541E-05
 -1       728 1.53648E-01-4.85332E-02-1.04964E-04
 -1       729 1.43045E-01-2.91927E-02-1.61374E-04
 -1       730 1.29931E-01-1.20616E-02-2.17884E-04
 -1       731 1.14951E-01 2.30785E-03-2.69321E-04
 -1       732 9.88328E-02 1.36012E-02-3.13174E-04
 -1       733 8.23100E-02 2.17253E-02-3.48639E-04
 -1       734 6.60747E-02 2.67767E-02-3.75740E-04
 -1       735 5.07411E-02 2.90075E-02-3.94773E-04
 -1       736 3.68212E-02 2.87936E-02-4.06051E-04
 -1       737 2.47051E-02 2.66019E-02-4.09833E-04
 -1       738 1.46491E-02 2.29565E-02-4.06340E-04
 -1       739 6.76885E-03 1.84033E-02-3.95794E-04
 -1       740 1.04277E-03 1.34747E-02-3.78467E-04
 -1       741-2.67737E-03 8.65598E-03-3.54704E-04
 -1       742-4.64710E-03 4.35595E-03-3.24942E-04
 -1       743-5.20310E-03 8.83956E-04-2.89688E-04
 -1       744-4.73210E-03-1.56482E-03-2.49443E-04
 -1       745-3.63794E-03-2.91454E-03-2.04580E-04
 -1       746-2.31020E-03-3.20462E-03-1.54810E-04
 -1       747-1.10035E-03-2.58411E-03-9.93500E-05
 -1       748-2.93880E-04-1.32203E-03-3.57182E-05
 -1       749 1.72271E-01-8.98846E-02-1.18000E-05
 -1       750 1.67660E-01-6.76489E-02-4.95708E-05
 -1       751 1.59757E-01-4.60890E-02-1.12007E-04
 -1       752 1.48720E-01-2.60689E-02-1.84508E-04
 -1       753 1.35027E-01-8.38184E-03-2.55592E-04
 -1       754 1.19359E-01 6.39435E-03-3.18857E-04
 -1       755 1.02489E-01 1.79324E-02-3.71786E-04
 -1       756 8.51964E-02 2.61383E-02-4.13994E-04
 -1       757 6.82142E-02 3.11175E-02-4.45935E-04
 -1       758 5.21909E-02 3.31391E-02-4.68214E-04
 -1       759 3.76656E-02 3.26016E-02-4.81326E-04
 -1       760 2.50483E-02 2.99993E-02-4.85619E-04
 -1       761 1.46065E-02 2.58857E-02-4.81357E-04
 -1       762 6.45957E-03 2.08371E-02-4.68793E-04
 -1       763 5.81689E-04 1.54151E-02-4.48233E-04
 -1       764-3.18663E-03 1.01311E-02-4.20081E-04
 -1       765-5.11796E-03 5.41549E-03-3.84854E-04
 -1       766-5.57038E-03 1.59298E-03-3.43167E-04
 -1       767-4.95461E-03-1.13247E-03-2.95636E-04
 -1       768-3.69987E-03-2.68316E-03-2.42639E-04
 -1       769-2.22194E-03-3.10361E-03-1.83666E-04
 -1       770-9.05148E-04-2.55430E-03-1.16896E-04
 -1       771-8.32375E-05-1.32436E-03-4.10184E-05
 -1       772 6.88514E-02-1.24072E-01-2.27863E-03
 -1       773 5.84476E-02-1.12241E-01 6.09048E-04
 -1       774 6.51760E-02-1.03091E-01 6.39260E-04
 -1       775 5.90667E-02-9.79610E-02 1.36602E-03
 -1       776 6.25429E-02-9.05405E-02 8.83695E-04
 -1       777 5.74764E-02-8.66592E-02 1.15106E-03
 -1       778 6.00164E-02-7.97495E-02 9.62321E-04
 -1       779 5.53740E-02-7.67840E-02 1.10155E-03
 -1       780 5.67503E-02-7.00368E-02 9.86777E-04
 -1       781 5.22617E-02-6.77102E-02 1.11485E-03
 -1       782 5.27674E-02-6.11702E-02 1.05538E-03
 -1       783 4.84693E-02-5.94311E-02 1.18412E-03
 -1       784 4.81969E-02-5.31647E-02 1.13482E-03
 -1       785 4.41590E-02-5.19389E-02 1.26873E-03
 -1       786 4.32254E-02-4.60387E-02 1.21771E-03
 -1       787 3.95258E-02-4.52455E-02 1.35447E-03
 -1       788 3.80418E-02-3.97988E-02 1.29330E-03
 -1       789 3.47417E-02-3.93437E-02 1.42984E-03
 -1       790 3.28279E-02-3.44237E-02 1.35531E-03
 -1       791 2.99648E-02-3.42047E-02 1.48814E-03
 -1       792 2.77481E-02-2.98619E-02 1.39908E-03
 -1       793 2.53328E-02-2.97762E-02 1.52491E-03
 -1       794 2.29431E-02-2.60348E-02 1.42162E-03
 -1       795 2.09610E-02-2.59858E-02 1.53753E-03
 -1       796 1.85247E-02-2.28424E-02 1.42119E-03
 -1       797 1.69388E-02-2.27458E-02 1.52469E-03
 -1       798 1.45732E-02-2.01703E-02 1.39704E-03
 -1       799 1.33295E-02-1.99592E-02 1.48602E-03
 -1       800 1.11372E-02-1.78981E-02 1.34916E-03
 -1       801 1.01705E-02-1.75257E-02 1.42190E-03
 -1       802 8.23484E-03-1.59067E-02 1.27811E-03
 -1       803 7.47491E-03-1.53480E-02 1.33323E-03
 -1       804 5.85682E-03-1.40858E-02 1.18486E-03
 -1       805 5.23541E-03-1.33370E-02 1.22129E-03
 -1       806 3.97186E-03-1.23392E-02 1.07062E-03
 -1       807 3.42863E-03-1.14161E-02 1.08737E-03
 -1       808 2.53286E-03-1.05894E-02 9.36463E-04
 -1       809 2.02152E-03-9.52341E-03 9.32403E-04
 -1       810 1.48464E-03-8.77890E-03 7.83040E-04
 -1       811 9.78607E-04-7.61366E-03 7.55564E-04
 -1       812 7.71072E-04-6.87098E-03 6.08646E-04
 -1       813 2.73242E-04-5.65434E-03 5.53540E-04
 -1       814 3.41188E-04-4.85014E-03 4.12561E-04
 -1       815-1.16934E-04-3.64487E-03 3.16268E-04
 -1       816 1.38379E-04-2.73377E-03 1.85943E-04
 -1       817-1.59407E-04-1.58592E-03 5.71462E-05
 -1       818 3.84109E-05-7.14946E-04 1.80547E-05
 -1       819 7.71240E-02-1.17946E-01-1.86901E-03
 -1       820 7.24831E-02-1.09576E-01-7.45326E-04
 -1       821 7.47530E-02-1.01193E-01-1.72558E-04
 -1       822 6.86353E-02-9.50858E-02 4.12462E-04
 -1       823 7.10282E-02-8.77306E-02 4.32544E-04
 -1       824 6.54544E-02-8.32364E-02 7.23548E-04
 -1       825 6.71002E-02-7.62341E-02 6.65615E-04
 -1       826 6.18758E-02-7.27290E-02 8.34357E-04
 -1       827 6.26705E-02-6.59438E-02 7.83167E-04
 -1       828 5.76586E-02-6.31926E-02 9.16509E-04
 -1       829 5.76398E-02-5.66694E-02 8.75911E-04
 -1       830 5.28239E-02-5.45849E-02 9.99358E-04
 -1       831 5.20812E-02-4.84121E-02 9.58655E-04
 -1       832 4.75166E-02-4.69311E-02 1.08034E-03
 -1       833 4.61639E-02-4.12000E-02 1.03401E-03
 -1       834 4.19262E-02-4.02523E-02 1.15544E-03
 -1       835 4.00879E-02-3.50409E-02 1.09937E-03
 -1       836 3.62501E-02-3.45406E-02 1.21928E-03
 -1       837 3.40587E-02-2.99046E-02 1.15159E-03
 -1       838 3.06771E-02-2.97521E-02 1.26781E-03
 -1       839 2.82671E-02-2.57204E-02 1.18787E-03
 -1       840 2.53746E-02-2.58081E-02 1.29799E-03
 -1       841 2.28769E-02-2.23818E-02 1.20616E-03
 -1       842 2.04802E-02-2.26014E-02 1.30783E-03
 -1       843 1.80162E-02-1.97542E-02 1.20514E-03
 -1       844 1.60969E-02-2.00038E-02 1.29626E-03
 -1       845 1.37727E-02-1.76858E-02 1.18418E-03
 -1       846 1.22903E-02-1.78761E-02 1.26292E-03
 -1       847 1.01927E-02-1.60180E-02 1.14322E-03
 -1       848 9.08951E-03-1.60776E-02 1.20805E-03
 -1       849 7.28233E-03-1.45965E-02 1.08269E-03
 -1       850 6.48943E-03-1.44746E-02 1.13234E-03
 -1       851 5.01208E-03-1.32804E-02 1.00336E-03
 -1       852 4.45593E-03-1.29485E-02 1.03677E-03
 -1       853 3.32324E-03-1.19501E-02 9.06219E-04
 -1       854 2.93238E-03-1.14014E-02 9.22446E-04
 -1       855 2.13554E-03-1.05125E-02 7.92372E-04
 -1       856 1.84725E-03-9.76000E-03 7.90371E-04
 -1       857 1.35549E-03-8.90446E-03 6.62888E-04
 -1       858 1.12177E-03-7.97635E-03 6.40805E-04
 -1       859 8.81724E-04-7.09380E-03 5.18931E-04
 -1       860 6.74826E-04-6.03005E-03 4.74078E-04
 -1       861 6.08227E-04-5.08430E-03 3.63428E-04
 -1       862 4.19153E-04-3.93349E-03 2.90329E-04
 -1       863 4.06400E-04-2.94093E-03 2.07871E-04
 -1       864 2.30111E-04-1.79243E-03 1.09510E-04
 -1       865 1.50167E-04-8.81646E-04 8.73102E-05
 -1       866 8.43925E-02-1.14864E-01-1.30243E-03
 -1       867 8.05745E-02-1.08436E-01-8.58501E-04
 -1       868 8.27065E-02-9.96223E-02-3.88978E-04
 -1       869 7.72718E-02-9.32686E-02 3.42452E-05
 -1       870 7.87181E-02-8.55063E-02 1.62421E-04
 -1       871 7.30113E-02-8.03840E-02 4.34409E-04
 -1       872 7.39016E-02-7.31685E-02 4.50657E-04
 -1       873 6.83073E-02-6.91302E-02 6.23725E-04
 -1       874 6.84928E-02-6.22290E-02 6.09647E-04
 -1       875 6.30427E-02-5.90660E-02 7.42485E-04
 -1       876 6.25004E-02-5.25018E-02 7.17260E-04
 -1       877 5.72234E-02-5.01077E-02 8.33318E-04
 -1       878 5.60150E-02-4.39636E-02 8.00872E-04
 -1       879 5.09768E-02-4.22694E-02 9.11024E-04
 -1       880 4.92079E-02-3.66345E-02 8.70322E-04
 -1       881 4.44932E-02-3.55694E-02 9.77679E-04
 -1       882 4.22926E-02-3.05150E-02 9.27534E-04
 -1       883 3.79869E-02-2.99928E-02 1.03235E-03
 -1       884 3.54941E-02-2.55632E-02 9.71965E-04
 -1       885 3.16691E-02-2.54814E-02 1.07305E-03
 -1       886 2.90246E-02-2.16905E-02 1.00228E-03
 -1       887 2.57295E-02-2.19344E-02 1.09795E-03
 -1       888 2.30669E-02-1.87657E-02 1.01725E-03
 -1       889 2.03238E-02-1.92152E-02 1.10568E-03
 -1       890 1.77627E-02-1.66248E-02 1.01595E-03
 -1       891 1.55659E-02-1.71626E-02 1.09541E-03
 -1       892 1.32063E-02-1.50838E-02 9.97926E-04
 -1       893 1.15239E-02-1.56024E-02 1.06688E-03
 -1       894 9.44218E-03-1.39518E-02 9.63137E-04
 -1       895 8.22064E-03-1.43597E-02 1.02023E-03
 -1       896 6.46717E-03-1.30437E-02 9.11908E-04
 -1       897 5.63652E-03-1.32702E-02 9.56013E-04
 -1       898 4.23488E-03-1.21922E-02 8.44879E-04
 -1       899 3.71556E-03-1.21900E-02 8.75038E-04
 -1       900 2.66343E-03-1.12572E-02 7.62938E-04
 -1       901 2.37317E-03-1.10032E-02 7.78318E-04
 -1       902 1.64425E-03-1.01328E-02 6.67204E-04
 -1       903 1.50485E-03-9.62669E-03 6.66995E-04
 -1       904 1.05110E-03-8.75153E-03 5.59172E-04
 -1       905 9.93726E-04-8.01298E-03 5.42521E-04
 -1       906 7.46779E-04-7.08824E-03 4.41382E-04
 -1       907 7.14949E-04-6.15382E-03 4.07558E-04
 -1       908 5.86695E-04-5.16570E-03 3.19435E-04
 -1       909 5.33733E-04-4.09058E-03 2.69168E-04
 -1       910 4.24964E-04-3.07531E-03 2.08169E-04
 -1       911 3.13876E-04-1.95905E-03 1.45611E-04
 -1       912 1.71477E-04-9.95692E-04 1.15812E-04
 -1       913 9.09897E-02-1.12216E-01-9.57676E-04
 -1       914 8.75163E-02-1.06039E-01-7.54497E-04
 -1       915 8.94852E-02-9.76735E-02-4.02465E-04
 -1       916 8.45419E-02-9.12375E-02-1.32847E-04
 -1       917 8.55653E-02-8.33003E-02 3.21416E-05
 -1       918 7.99469E-02-7.77838E-02 2.45540E-04
 -1       919 8.02782E-02-7.03196E-02 3.04342E-04
 -1       920 7.44764E-02-6.58438E-02 4.59390E-04
 -1       921 7.41238E-02-5.87666E-02 4.70116E-04
 -1       922 6.83302E-02-5.52335E-02 5.92017E-04
 -1       923 6.72956E-02-4.85717E-02 5.80245E-04
 -1       924 6.16158E-02-4.58980E-02 6.86338E-04
 -1       925 5.99566E-02-3.97293E-02 6.61272E-04
 -1       926 5.44904E-02-3.78475E-02 7.60083E-04
 -1       927 5.23112E-02-3.22558E-02 7.24642E-04
 -1       928 4.71633E-02-3.10933E-02 8.19772E-04
 -1       929 4.45968E-02-2.61434E-02 7.74734E-04
 -1       930 3.98685E-02-2.56109E-02 8.66951E-04
 -1       931 3.70604E-02-2.13378E-02 8.12577E-04
 -1       932 3.28384E-02-2.13270E-02 9.01299E-04
 -1       933 2.99350E-02-1.77322E-02 8.37935E-04
 -1       934 2.62823E-02-1.81198E-02 9.21951E-04
 -1       935 2.34208E-02-1.51727E-02 8.50204E-04
 -1       936 2.03717E-02-1.58270E-02 9.28086E-04
 -1       937 1.76720E-02-1.34684E-02 8.48841E-04
 -1       938 1.52301E-02-1.42578E-02 9.19153E-04
 -1       939 1.27889E-02-1.24064E-02 8.33539E-04
 -1       940 1.09282E-02-1.32073E-02 8.94947E-04
 -1       941 8.81501E-03-1.17663E-02 8.04282E-04
 -1       942 7.48391E-03-1.24704E-02 8.55602E-04
 -1       943 5.73914E-03-1.13357E-02 7.61343E-04
 -1       944 4.86529E-03-1.18560E-02 8.01561E-04
 -1       945 3.50031E-03-1.09236E-02 7.05267E-04
 -1       946 2.99772E-03-1.11976E-02 7.33525E-04
 -1       947 1.99650E-03-1.03713E-02 6.36852E-04
 -1       948 1.77261E-03-1.03635E-02 6.52436E-04
 -1       949 1.09473E-03-9.56143E-03 5.57207E-04
 -1       950 1.05732E-03-9.26264E-03 5.59555E-04
 -1       951 6.41539E-04-8.42370E-03 4.67972E-04
 -1       952 7.04088E-04-7.84907E-03 4.56810E-04
 -1       953 4.72498E-04-6.93928E-03 3.72113E-04
 -1       954 5.57312E-04-6.12679E-03 3.47983E-04
 -1       955 4.21025E-04-5.14613E-03 2.75540E-04
 -1       956 4.59818E-04-4.15858E-03 2.41255E-04
 -1       957 3.38812E-04-3.14363E-03 1.90486E-04
 -1       958 2.86371E-04-2.07462E-03 1.48074E-04
 -1       959 1.53355E-04-1.06315E-03 1.13533E-04
 -1       960 9.73432E-02-1.10206E-01-6.93778E-04
 -1       961 9.39920E-02-1.04048E-01-5.93499E-04
 -1       962 9.58741E-02-9.58115E-02-3.50770E-04
 -1       963 9.12058E-02-8.93227E-02-1.76090E-04
 -1       964 9.19620E-02-8.11838E-02-2.87375E-05
 -1       965 8.64125E-02-7.53608E-02 1.34297E-04
 -1       966 8.63399E-02-6.76261E-02 2.03519E-04
 -1       967 8.03832E-02-6.27715E-02 3.35672E-04
 -1       968 7.95822E-02-5.54801E-02 3.57820E-04
 -1       969 7.34974E-02-5.16115E-02 4.66485E-04
 -1       970 7.20160E-02-4.48097E-02 4.62434E-04
 -1       971 6.59738E-02-4.18791E-02 5.57631E-04
 -1       972 6.38865E-02-3.56446E-02 5.37537E-04
 -1       973 5.80254E-02-3.35925E-02 6.25817E-04
 -1       974 5.54456E-02-2.80047E-02 5.94170E-04
 -1       975 4.98950E-02-2.67576E-02 6.78679E-04
 -1       976 4.69628E-02-2.18751E-02 6.37456E-04
 -1       977 4.18423E-02-2.13392E-02 7.19172E-04
 -1       978 3.87110E-02-1.71885E-02 6.69367E-04
 -1       979 3.41220E-02-1.72485E-02 7.48028E-04
 -1       980 3.09445E-02-1.38203E-02 6.90379E-04
 -1       981 2.69629E-02-1.43434E-02 7.65095E-04
 -1       982 2.38810E-02-1.15943E-02 7.00361E-04
 -1       983 2.05513E-02-1.24371E-02 7.69975E-04
 -1       984 1.76868E-02-1.02945E-02 6.99049E-04
 -1       985 1.50200E-02-1.13117E-02 7.62344E-04
 -1       986 1.24681E-02-9.68040E-03 6.86270E-04
 -1       987 1.04425E-02-1.07339E-02 7.42077E-04
 -1       988 8.26806E-03-9.50454E-03 6.62035E-04
 -1       989 6.83227E-03-1.04711E-02 7.09298E-04
 -1       990 5.06824E-03-9.52883E-03 6.26579E-04
 -1       991 4.14686E-03-1.03073E-02 6.64377E-04
 -1       992 2.79472E-03-9.54004E-03 5.80366E-04
 -1       993 2.29511E-03-1.00557E-02 6.07925E-04
 -1       994 1.32747E-03-9.36257E-03 5.24100E-04
 -1       995 1.14740E-03-9.56988E-03 5.40807E-04
 -1       996 5.12078E-04-8.86843E-03 4.58811E-04
 -1       997 5.47010E-04-8.75182E-03 4.64271E-04
 -1       998 1.72294E-04-7.98422E-03 3.86070E-04
 -1       999 3.21557E-04-7.55696E-03 3.80311E-04
 -1      1000 1.22953E-04-6.69597E-03 3.08602E-04
 -1      1001 2.94403E-04-5.99871E-03 2.92624E-04
 -1      1002 1.84314E-04-5.05125E-03 2.31365E-04
 -1      1003 2.99092E-04-4.15052E-03 2.08148E-04
 -1      1004 2.07125E-04-3.15057E-03 1.63090E-04
 -1      1005 2.15916E-04-2.13020E-03 1.33500E-04
 -1      1006 1.17128E-04-1.09427E-03 9.69608E-05
 -1      1007 1.03570E-01-1.08608E-01-5.12866E-04
 -1      1008 1.00234E-01-1.02241E-01-4.63311E-04
 -1      1009 1.02027E-01-9.40359E-02-2.91795E-04
 -1      1010 9.74628E-02-8.73900E-02-1.76434E-04
 -1      1011 9.80558E-02-7.90839E-02-5.54537E-05
 -1      1012 9.25234E-02-7.29822E-02 6.82896E-05
 -1      1013 9.21565E-02-6.49977E-02 1.33546E-04
 -1      1014 8.60639E-02-5.98142E-02 2.42825E-04
 -1      1015 8.48896E-02-5.22936E-02 2.67829E-04
 -1      1016 7.85461E-02-4.81233E-02 3.61833E-04
 -1      1017 7.66617E-02-4.11541E-02 3.61127E-04
 -1      1018 7.02861E-02-3.79882E-02 4.45031E-04
 -1      1019 6.77945E-02-3.16579E-02 4.27609E-04
 -1      1020 6.15630E-02-2.94498E-02 5.05822E-04
 -1      1021 5.85934E-02-2.38371E-02 4.76543E-04
 -1      1022 5.26621E-02-2.25150E-02 5.51546E-04
 -1      1023 4.93664E-02-1.76733E-02 5.12973E-04
 -1      1024 4.38742E-02-1.71392E-02 5.85662E-04
 -1      1025 4.04153E-02-1.30874E-02 5.39256E-04
 -1      1026 3.54793E-02-1.32186E-02 6.09505E-04
 -1      1027 3.20180E-02-9.93726E-03 5.56276E-04
 -1      1028 2.77262E-02-1.05909E-02 6.23384E-04
 -1      1029 2.44101E-02-8.02491E-03 5.64214E-04
 -1      1030 2.08163E-02-9.04588E-03 6.27210E-04
 -1      1031 1.77700E-02-7.10949E-03 5.63005E-04
 -1      1032 1.48916E-02-8.33937E-03 6.20826E-04
 -1      1033 1.22104E-02-6.92436E-03 5.52569E-04
 -1      1034 1.00284E-02-8.21115E-03 6.04176E-04
 -1      1035 7.77402E-03-7.19572E-03 5.32940E-04
 -1      1036 6.23678E-03-8.40272E-03 5.77372E-04
 -1      1037 4.43616E-03-7.66105E-03 5.04313E-04
 -1      1038 3.46445E-03-8.67436E-03 5.40725E-04
 -1      1039 2.11083E-03-8.08596E-03 4.67074E-04
 -1      1040 1.60534E-03-8.82010E-03 4.94753E-04
 -1      1041 6.61526E-04-8.27853E-03 4.21824E-04
 -1      1042 5.10882E-04-8.67991E-03 4.40224E-04
 -1      1043-8.55278E-05-8.10044E-03 3.69458E-04
 -1      1044 3.31994E-06-8.14873E-03 3.78269E-04
 -1      1045-3.26409E-04-7.47480E-03 3.11326E-04
 -1      1046-1.10013E-04-7.18250E-03 3.10664E-04
 -1      1047-2.63170E-04-6.39062E-03 2.49615E-04
 -1      1048-2.11840E-05-5.80109E-03 2.40417E-04
 -1      1049-8.53073E-05-4.90155E-03 1.87828E-04
 -1      1050 9.76120E-05-4.08359E-03 1.72436E-04
 -1      1051 5.51465E-05-3.10862E-03 1.31340E-04
 -1      1052 1.25528E-04-2.13826E-03 1.10164E-04
 -1      1053 7.22593E-05-1.09837E-03 7.35936E-05
 -1      1054 1.09735E-01-1.07320E-01-3.79170E-04
 -1      1055 1.06372E-01-1.00660E-01-3.57776E-04
 -1      1056 1.08080E-01-9.23706E-02-2.37457E-04
 -1      1057 1.03536E-01-8.55131E-02-1.60035E-04
 -1      1058 1.03992E-01-7.70156E-02-6.61629E-05
 -1      1059 9.84302E-02-7.06488E-02 2.69421E-05
 -1      1060 9.78234E-02-6.24101E-02 8.23954E-05
 -1      1061 9.15884E-02-5.69276E-02 1.70951E-04
 -1      1062 9.00916E-02-4.91661E-02 1.93715E-04
 -1      1063 8.35013E-02-4.47186E-02 2.73456E-04
 -1      1064 8.12495E-02-3.75630E-02 2.72859E-04
 -1      1065 7.45567E-02-3.41784E-02 3.45735E-04
 -1      1066 7.16817E-02-2.77309E-02 3.29031E-04
 -1      1067 6.50955E-02-2.53785E-02 3.97770E-04
 -1      1068 6.17465E-02-1.97199E-02 3.69573E-04
 -1      1069 5.54487E-02-1.83308E-02 4.35975E-04
 -1      1070 5.17925E-02-1.35111E-02 3.99048E-04
 -1      1071 4.59424E-02-1.29836E-02 4.63828E-04
 -1      1072 4.21534E-02-9.01447E-03 4.19874E-04
 -1      1073 3.68836E-02-9.21820E-03 4.82934E-04
 -1      1074 3.31322E-02-6.07080E-03 4.33130E-04
 -1      1075 2.85426E-02-6.85286E-03 4.93877E-04
 -1      1076 2.49829E-02-4.46044E-03 4.39184E-04
 -1      1077 2.11363E-02-5.65374E-03 4.96767E-04
 -1      1078 1.78970E-02-3.91804E-03 4.38094E-04
 -1      1079 1.48160E-02-5.35128E-03 4.91567E-04
 -1      1080 1.19934E-02-4.15112E-03 4.29844E-04
 -1      1081 9.66133E-03-5.65904E-03 4.78262E-04
 -1      1082 7.31512E-03-4.86021E-03 4.14473E-04
 -1      1083 5.67907E-03-6.29326E-03 4.56951E-04
 -1      1084 3.83132E-03-5.75887E-03 3.92137E-04
 -1      1085 2.80802E-03-6.99149E-03 4.27885E-04
 -1      1086 1.44472E-03-6.59209E-03 3.63140E-04
 -1      1087 9.28106E-04-7.52912E-03 3.91492E-04
 -1      1088 3.23693E-06-7.15194E-03 3.27970E-04
 -1      1089-1.26803E-04-7.73275E-03 3.48417E-04
 -1      1090-6.84980E-04-7.28971E-03 2.87354E-04
 -1      1091-5.53544E-04-7.49013E-03 2.99610E-04
 -1      1092-8.34168E-04-6.92427E-03 2.42350E-04
 -1      1093-5.62537E-04-6.75648E-03 2.46490E-04
 -1      1094-6.61500E-04-6.04601E-03 1.94511E-04
 -1      1095-3.58729E-04-5.55586E-03 1.91186E-04
 -1      1096-3.65607E-04-4.71307E-03 1.45875E-04
 -1      1097-1.20032E-04-3.97163E-03 1.36614E-04
 -1      1098-1.03424E-04-3.02952E-03 9.88926E-05
 -1      1099 2.71132E-05-2.10967E-03 8.39210E-05
 -1      1100 2.39556E-05-1.08229E-03 4.79073E-05
 -1      1101 1.15884E-01-1.06264E-01-2.79357E-04
 -1      1102 1.12469E-01-9.92571E-02-2.75583E-04
 -1      1103 1.14094E-01-9.08028E-02-1.91876E-04
 -1      1104 1.09514E-01-8.36865E-02-1.40624E-04
 -1      1105 1.09848E-01-7.49729E-02-7.01206E-05
 -1      1106 1.04213E-01-6.83354E-02-7.23215E-07
 -1      1107 1.03399E-01-5.98394E-02 4.30487E-05
 -1      1108 9.70062E-02-5.40728E-02 1.13666E-04
 -1      1109 9.52225E-02-4.60645E-02 1.31350E-04
 -1      1110 8.83874E-02-4.13570E-02 1.97757E-04
 -1      1111 8.57952E-02-3.40029E-02 1.95034E-04
 -1      1112 7.87936E-02-3.04134E-02 2.57375E-04
 -1      1113 7.55521E-02-2.38338E-02 2.39865E-04
 -1      1114 6.86205E-02-2.13471E-02 2.99691E-04
 -1      1115 6.49009E-02-1.56278E-02 2.71514E-04
 -1      1116 5.82460E-02-1.41789E-02 3.30048E-04
 -1      1117 5.42319E-02-9.36804E-03 2.93933E-04
 -1      1118 4.80329E-02-8.85185E-03 3.51668E-04
 -1      1119 4.39123E-02-4.95472E-03 3.09405E-04
 -1      1120 3.83174E-02-5.23339E-03 3.66208E-04
 -1      1121 3.42712E-02-2.21175E-03 3.19053E-04
 -1      1122 2.93923E-02-3.12208E-03 3.74381E-04
 -1      1123 2.55826E-02-8.97898E-04 3.23328E-04
 -1      1124 2.14907E-02-2.26086E-03 3.76409E-04
 -1      1125 1.80511E-02-7.23374E-04 3.22355E-04
 -1      1126 1.47739E-02-2.35483E-03 3.72323E-04
 -1      1127 1.18023E-02-1.36993E-03 3.16150E-04
 -1      1128 9.32474E-03-3.09162E-03 3.62132E-04
 -1      1129 6.87955E-03-2.51260E-03 3.04745E-04
 -1      1130 5.14722E-03-4.16259E-03 3.45914E-04
 -1      1131 3.24637E-03-3.84126E-03 2.88249E-04
 -1      1132 2.17151E-03-5.28295E-03 3.23857E-04
 -1      1133 7.94437E-04-5.08044E-03 2.66885E-04
 -1      1134 2.64121E-04-6.20966E-03 2.96296E-04
 -1      1135-6.43431E-04-6.00624E-03 2.41021E-04
 -1      1136-7.57837E-04-6.75596E-03 2.63744E-04
 -1      1137-1.27656E-03-6.45932E-03 2.11204E-04
 -1      1138-1.10928E-03-6.80204E-03 2.26942E-04
 -1      1139-1.33670E-03-6.35361E-03 1.78188E-04
 -1      1140-1.01730E-03-6.30125E-03 1.86913E-04
 -1      1141-1.05585E-03-5.67962E-03 1.42906E-04
 -1      1142-6.99199E-04-5.28034E-03 1.44922E-04
 -1      1143-6.42490E-04-4.49935E-03 1.06108E-04
 -1      1144-3.39647E-04-3.82743E-03 1.02157E-04
 -1      1145-2.59997E-04-2.92347E-03 6.78139E-05
 -1      1146-7.24450E-05-2.05366E-03 5.79048E-05
 -1      1147-2.43841E-05-1.05103E-03 2.25093E-05
 -1      1148 1.22045E-01-1.05381E-01-2.03538E-04
 -1      1149 1.18565E-01-9.79972E-02-2.11432E-04
 -1      1150 1.20110E-01-8.93166E-02-1.54906E-04
 -1      1151 1.15459E-01-8.19092E-02-1.22306E-04
 -1      1152 1.15676E-01-7.29520E-02-7.14833E-05
 -1      1153 1.09935E-01-6.60351E-02-2.08057E-05
 -1      1154 1.08931E-01-5.72729E-02 1.11990E-05
 -1      1155 1.02364E-01-5.12298E-02 6.62771E-05
 -1      1156 1.00315E-01-4.29679E-02 7.74944E-05
 -1      1157 9.32310E-02-3.80121E-02 1.31610E-04
 -1      1158 9.03168E-02-3.04504E-02 1.25350E-04
 -1      1159 8.30085E-02-2.66665E-02 1.77765E-04
 -1      1160 7.94131E-02-1.99442E-02 1.58345E-04
 -1      1161 7.21405E-02-1.73316E-02 2.09829E-04
 -1      1162 6.80569E-02-1.15416E-02 1.80842E-04
 -1      1163 6.10497E-02-1.00393E-02 2.32146E-04
 -1      1164 5.66798E-02-5.22859E-03 1.96173E-04
 -1      1165 5.01368E-02-4.72863E-03 2.47570E-04
 -1      1166 4.56835E-02-8.96736E-04 2.06387E-04
 -1      1167 3.97687E-02-1.25361E-03 2.57677E-04
 -1      1168 3.54246E-02 1.64682E-03 2.12553E-04
 -1      1169 3.02617E-02 6.06692E-04 2.63203E-04
 -1      1170 2.61976E-02 2.66498E-03 2.15130E-04
 -1      1171 2.18656E-02 1.13267E-03 2.64417E-04
 -1      1172 1.82207E-02 2.47214E-03 2.14266E-04
 -1      1173 1.47521E-02 6.44647E-04 2.61381E-04
 -1      1174 1.16267E-02 1.41244E-03 2.09985E-04
 -1      1175 9.00757E-03-5.19112E-04 2.54108E-04
 -1      1176 6.45937E-03-1.63588E-04 2.02297E-04
 -1      1177 4.63339E-03-2.02511E-03 2.42645E-04
 -1      1178 2.67662E-03-1.92207E-03 1.91261E-04
 -1      1179 1.55128E-03-3.56628E-03 2.27119E-04
 -1      1180 1.59200E-04-3.56707E-03 1.77019E-04
 -1      1181-3.85417E-04-4.88117E-03 2.07770E-04
 -1      1182-1.27503E-03-4.85857E-03 1.59818E-04
 -1      1183-1.37606E-03-5.76953E-03 1.84975E-04
 -1      1184-1.85277E-03-5.62631E-03 1.40030E-04
 -1      1185-1.65335E-03-6.10348E-03 1.59267E-04
 -1      1186-1.82341E-03-5.77861E-03 1.18122E-04
 -1      1187-1.46104E-03-5.83362E-03 1.31298E-04
 -1      1188-1.43445E-03-5.30526E-03 9.45000E-05
 -1      1189-1.02945E-03-4.98847E-03 1.01592E-04
 -1      1190-9.05727E-04-4.27193E-03 6.88631E-05
 -1      1191-5.51512E-04-3.66197E-03 6.99236E-05
 -1      1192-4.08171E-04-2.79917E-03 3.92810E-05
 -1      1193-1.68385E-04-1.97757E-03 3.39368E-05
 -1      1194-7.02449E-05-1.00826E-03-8.95865E-07
 -1      1195 1.28239E-01-1.04631E-01-1.45862E-04
 -1      1196 1.24686E-01-9.68487E-02-1.61626E-04
 -1      1197 1.26154E-01-8.78959E-02-1.25566E-04
 -1      1198 1.21409E-01-8.01728E-02-1.06822E-04
 -1      1199 1.21509E-01-7.09469E-02-7.22510E-05
 -1      1200 1.15638E-01-6.37399E-02-3.67047E-05
 -1      1201 1.14452E-01-5.47008E-02-1.58016E-05
 -1      1202 1.07695E-01-4.83829E-02 2.57440E-05
 -1      1203 1.05393E-01-3.98609E-02 2.98891E-05
 -1      1204 9.80536E-02-3.46638E-02 7.27513E-05
 -1      1205 9.48297E-02-2.68876E-02 6.20625E-05
 -1      1206 8.72129E-02-2.29172E-02 1.05193E-04
 -1      1207 8.32721E-02-1.60449E-02 8.30660E-05
 -1      1208 7.56590E-02-1.33136E-02 1.26753E-04
 -1      1209 7.12158E-02-7.44599E-03 9.63172E-05
 -1      1210 6.38581E-02-5.89656E-03 1.40950E-04
 -1      1211 5.91334E-02-1.08064E-03 1.04588E-04
 -1      1212 5.22489E-02-6.02051E-04 1.50238E-04
 -1      1213 4.74616E-02 3.16826E-03 1.09647E-04
 -1      1214 4.12297E-02 2.72914E-03 1.56028E-04
 -1      1215 3.65851E-02 5.51022E-03 1.12441E-04
 -1      1216 3.11414E-02 4.33746E-03 1.59009E-04
 -1      1217 2.68197E-02 6.22995E-03 1.13390E-04
 -1      1218 2.22512E-02 4.52681E-03 1.59445E-04
 -1      1219 1.83978E-02 5.66675E-03 1.12627E-04
 -1      1220 1.47414E-02 3.64318E-03 1.57402E-04
 -1      1221 1.14596E-02 4.19093E-03 1.10163E-04
 -1      1222 8.70225E-03 2.05093E-03 1.52878E-04
 -1      1223 6.04924E-03 2.17886E-03 1.05979E-04
 -1      1224 4.13243E-03 1.08566E-04 1.45885E-04
 -1      1225 2.11910E-03-1.16521E-05 1.00083E-04
 -1      1226 9.45265E-04-1.85443E-03 1.36487E-04
 -1      1227-4.61068E-04-2.06396E-03 9.25323E-05
 -1      1228-1.01908E-03-3.55805E-03 1.24828E-04
 -1      1229-1.88853E-03-3.72176E-03 8.34575E-05
 -1      1230-1.97649E-03-4.78831E-03 1.11156E-04
 -1      1231-2.40763E-03-4.80354E-03 7.30661E-05
 -1      1232-2.17765E-03-5.40883E-03 9.58088E-05
 -1      1233-2.28601E-03-5.21154E-03 6.15799E-05
 -1      1234-1.88370E-03-5.36680E-03 7.91301E-05
 -1      1235-1.78800E-03-4.93421E-03 4.90007E-05
 -1      1236-1.33944E-03-4.69191E-03 6.10709E-05
 -1      1237-1.14687E-03-4.04081E-03 3.42575E-05
 -1      1238-7.47911E-04-3.48489E-03 4.03154E-05
 -1      1239-5.42330E-04-2.66418E-03 1.39272E-05
 -1      1240-2.56837E-04-1.88736E-03 1.30365E-05
 -1      1241-1.11474E-04-9.56803E-04-2.10897E-05
 -1      1242 1.34479E-01-1.03981E-01-1.02280E-04
 -1      1243 1.30849E-01-9.57860E-02-1.23188E-04
 -1      1244 1.32243E-01-8.65261E-02-1.02579E-04
 -1      1245 1.27389E-01-7.84688E-02-9.43931E-05
 -1      1246 1.27371E-01-6.89515E-02-7.32101E-05
 -1      1247 1.21352E-01-6.14434E-02-5.02129E-05
 -1      1248 1.19987E-01-5.21154E-02-3.95342E-05
 -1      1249 1.13025E-01-4.55213E-02-9.93796E-06
 -1      1250 1.10478E-01-3.67319E-02-1.30578E-05
 -1      1251 1.02874E-01-3.12975E-02 1.94617E-05
 -1      1252 9.93477E-02-2.33010E-02 3.80367E-06
 -1      1253 9.14179E-02-1.91502E-02 3.82512E-05
 -1      1254 8.71367E-02-1.21227E-02 1.28660E-05
 -1      1255 7.91811E-02-9.27886E-03 4.92606E-05
 -1      1256 7.43806E-02-3.32950E-03 1.69030E-05
 -1      1257 6.66715E-02-1.73880E-03 5.53610E-05
 -1      1258 6.15920E-02 3.08518E-03 1.81997E-05
 -1      1259 5.43661E-02 3.53706E-03 5.86058E-05
 -1      1260 4.92433E-02 7.24709E-03 1.82230E-05
 -1      1261 4.26954E-02 6.72105E-03 6.01981E-05
 -1      1262 3.77479E-02 9.38252E-03 1.77571E-05
 -1      1263 3.20251E-02 8.07330E-03 6.07277E-05
 -1      1264 2.74434E-02 9.79835E-03 1.71419E-05
 -1      1265 2.26409E-02 7.92156E-03 6.04200E-05
 -1      1266 1.85769E-02 8.85911E-03 1.64736E-05
 -1      1267 1.47356E-02 6.63778E-03 5.93188E-05
 -1      1268 1.12960E-02 6.96170E-03 1.57357E-05
 -1      1269 8.40359E-03 4.61280E-03 5.73997E-05
 -1      1270 5.64553E-03 4.50868E-03 1.48757E-05
 -1      1271 3.64092E-03 2.23044E-03 5.46330E-05
 -1      1272 1.57200E-03 1.88217E-03 1.38446E-05
 -1      1273 3.52353E-04-1.57136E-04 5.10189E-05
 -1      1274-1.06601E-03-5.80212E-04 1.26197E-05
 -1      1275-1.63535E-03-2.25112E-03 4.66098E-05
 -1      1276-2.48122E-03-2.60557E-03 1.12188E-05
 -1      1277-2.55492E-03-3.82353E-03 4.15258E-05
 -1      1278-2.93617E-03-4.00090E-03 9.70014E-06
 -1      1279-2.67564E-03-4.72915E-03 3.59392E-05
 -1      1280-2.71766E-03-4.66204E-03 8.08938E-06
 -1      1281-2.27710E-03-4.91132E-03 2.99556E-05
 -1      1282-2.10852E-03-4.57578E-03 6.11443E-06
 -1      1283-1.62064E-03-4.40053E-03 2.31444E-05
 -1      1284-1.35806E-03-3.81484E-03 2.24445E-06
 -1      1285-9.21764E-04-3.30482E-03 1.34439E-05
 -1      1286-6.56792E-04-2.52540E-03-7.94545E-06
 -1      1287-3.34118E-04-1.78813E-03-4.22665E-06
 -1      1288-1.45945E-04-8.98886E-04-3.70778E-05
 -1      1289 1.40772E-01-1.03404E-01-6.98614E-05
 -1      1290 1.37064E-01-9.47887E-02-9.37314E-05
 -1      1291 1.38385E-01-8.51949E-02-8.46353E-05
 -1      1292 1.33413E-01-7.67886E-02-8.46906E-05
 -1      1293 1.33277E-01-6.69596E-02-7.45487E-05
 -1      1294 1.27096E-01-5.91396E-02-6.22677E-05
 -1      1295 1.25554E-01-4.95102E-02-6.09521E-05
 -1      1296 1.18375E-01-4.26362E-02-4.20977E-05
 -1      1297 1.15585E-01-3.35719E-02-5.24781E-05
 -1      1298 1.07708E-01-2.79021E-02-2.95333E-05
 -1      1299 1.03883E-01-1.96803E-02-5.04845E-05
 -1      1300 9.56335E-02-1.53534E-02-2.41724E-05
 -1      1301 9.10140E-02-8.16716E-03-5.31946E-05
 -1      1302 8.27118E-02-5.21630E-03-2.36263E-05
 -1      1303 7.75542E-02 8.17042E-04-5.82517E-05
 -1      1304 6.94912E-02 2.44333E-03-2.55258E-05
 -1      1305 6.40557E-02 7.27622E-03-6.37958E-05
 -1      1306 5.64870E-02 7.69587E-03-2.81982E-05
 -1      1307 5.10265E-02 1.13450E-02-6.86713E-05
 -1      1308 4.41623E-02 1.07269E-02-3.06788E-05
 -1      1309 3.89096E-02 1.32669E-02-7.22848E-05
 -1      1310 3.29086E-02 1.18166E-02-3.25084E-05
 -1      1311 2.80648E-02 1.33712E-02-7.43999E-05
 -1      1312 2.30298E-02 1.13169E-02-3.35275E-05
 -1      1313 1.87541E-02 1.20482E-02-7.49754E-05
 -1      1314 1.47302E-02 9.62617E-03-3.37282E-05
 -1      1315 1.11326E-02 9.72177E-03-7.40633E-05
 -1      1316 8.10806E-03 7.16215E-03-3.31670E-05
 -1      1317 5.24584E-03 6.82121E-03-7.17553E-05
 -1      1318 3.15669E-03 4.33440E-03-3.19169E-05
 -1      1319 1.03429E-03 3.75335E-03-6.81557E-05
 -1      1320-2.27897E-04 1.51815E-03-3.00425E-05
 -1      1321-1.65499E-03 8.77177E-04-6.33666E-05
 -1      1322-2.23269E-03-9.68687E-04-2.75817E-05
 -1      1323-3.05068E-03-1.51755E-03-5.74773E-05
 -1      1324-3.10777E-03-2.88385E-03-2.45324E-05
 -1      1325-3.43416E-03-3.22609E-03-5.05633E-05
 -1      1326-3.14181E-03-4.07310E-03-2.08665E-05
 -1      1327-3.11248E-03-4.13777E-03-4.27498E-05
 -1      1328-2.63422E-03-4.47571E-03-1.66411E-05
 -1      1329-2.38879E-03-4.23769E-03-3.44551E-05
 -1      1330-1.86516E-03-4.12281E-03-1.24776E-05
 -1      1331-1.53143E-03-3.60187E-03-2.73470E-05
 -1      1332-1.06578E-03-3.12971E-03-1.07978E-05
 -1      1333-7.45135E-04-2.38952E-03-2.62679E-05
 -1      1334-3.96205E-04-1.68457E-03-1.75648E-05
 -1      1335-1.71266E-04-8.36435E-04-4.79183E-05
 -1      1336 1.47122E-01-1.02881E-01-4.63194E-05
 -1      1337 1.43339E-01-9.38403E-02-7.12624E-05
 -1      1338 1.44588E-01-8.38918E-02-7.04529E-05
 -1      1339 1.39493E-01-7.51243E-02-7.71117E-05
 -1      1340 1.39238E-01-6.49653E-02-7.61333E-05
 -1      1341 1.32885E-01-5.68229E-02-7.33044E-05
 -1      1342 1.31166E-01-4.68792E-02-8.06201E-05
 -1      1343 1.23759E-01-3.97207E-02-7.16174E-05
 -1      1344 1.20728E-01-3.03738E-02-8.91851E-05
 -1      1345 1.12568E-01-2.44689E-02-7.51888E-05
 -1      1346 1.08445E-01-1.60172E-02-1.01628E-04
 -1      1347 9.98686E-02-1.15176E-02-8.29652E-05
 -1      1348 9.49107E-02-4.17029E-03-1.15880E-04
 -1      1349 8.62561E-02-1.11728E-03-9.27131E-05
 -1      1350 8.07401E-02 5.00075E-03-1.29851E-04
 -1      1351 7.23190E-02 6.65712E-03-1.02458E-04
 -1      1352 6.65254E-02 1.14982E-02-1.42066E-04
 -1      1353 5.86111E-02 1.18799E-02-1.10894E-04
 -1      1354 5.28105E-02 1.54662E-02-1.51687E-04
 -1      1355 4.56284E-02 1.47504E-02-1.17313E-04
 -1      1356 4.00683E-02 1.71658E-02-1.58330E-04
 -1      1357 3.37887E-02 1.55692E-02-1.21409E-04
 -1      1358 2.86813E-02 1.69493E-02-1.61880E-04
 -1      1359 2.34148E-02 1.47128E-02-1.23105E-04
 -1      1360 1.89267E-02 1.52332E-02-1.62359E-04
 -1      1361 1.47222E-02 1.26065E-02-1.22440E-04
 -1      1362 1.09671E-02 1.24688E-02-1.59862E-04
 -1      1363 7.81322E-03 9.69558E-03-1.19506E-04
 -1      1364 4.84859E-03 9.11281E-03-1.54520E-04
 -1      1365 2.67834E-03 6.41569E-03-1.14422E-04
 -1      1366 5.05468E-04 5.59719E-03-1.46491E-04
 -1      1367-7.95527E-04 3.16564E-03-1.07316E-04
 -1      1368-2.22723E-03 2.30276E-03-1.35956E-04
 -1      1369-2.80960E-03 2.82815E-04-9.83143E-05
 -1      1370-3.59470E-03-4.63556E-04-1.23104E-04
 -1      1371-3.63193E-03-1.97603E-03-8.75275E-05
 -1      1372-3.89792E-03-2.48514E-03-1.08134E-04
 -1      1373-3.57144E-03-3.44751E-03-7.50513E-05
 -1      1374-3.46530E-03-3.64484E-03-9.12832E-05
 -1      1375-2.94879E-03-4.06685E-03-6.10440E-05
 -1      1376-2.62204E-03-3.92625E-03-7.30033E-05
 -1      1377-2.06537E-03-3.86595E-03-4.61432E-05
 -1      1378-1.65867E-03-3.40878E-03-5.47890E-05
 -1      1379-1.17187E-03-2.96705E-03-3.26985E-05
 -1      1380-7.99480E-04-2.26340E-03-4.11873E-05
 -1      1381-4.38169E-04-1.58147E-03-2.68970E-05
 -1      1382-1.84396E-04-7.71329E-04-5.25806E-05
 -1      1383 1.53528E-01-1.02397E-01-2.97363E-05
 -1      1384 1.49673E-01-9.29279E-02-5.40129E-05
 -1      1385 1.50852E-01-8.26082E-02-5.87962E-05
 -1      1386 1.45634E-01-7.34688E-02-7.09288E-05
 -1      1387 1.45262E-01-6.29628E-02-7.76746E-05
 -1      1388 1.38731E-01-5.44877E-02-8.34758E-05
 -1      1389 1.36835E-01-4.42171E-02-9.88762E-05
 -1      1390 1.29191E-01-3.67686E-02-9.90957E-05
 -1      1391 1.25919E-01-2.71312E-02-1.23781E-04
 -1      1392 1.17465E-01-2.09906E-02-1.18233E-04
 -1      1393 1.13043E-01-1.23050E-02-1.50278E-04
 -1      1394 1.04131E-01-7.63547E-03-1.38841E-04
 -1      1395 9.88325E-02-1.25675E-04-1.75811E-04
 -1      1396 8.98186E-02 3.02495E-03-1.58663E-04
 -1      1397 8.39414E-02 9.22722E-03-1.98472E-04
 -1      1398 7.51569E-02 1.09082E-02-1.76057E-04
 -1      1399 6.90019E-02 1.57556E-02-2.17157E-04
 -1      1400 6.07384E-02 1.60935E-02-1.90080E-04
 -1      1401 5.45946E-02 1.96138E-02-2.31355E-04
 -1      1402 4.70925E-02 1.87945E-02-2.00294E-04
 -1      1403 4.12225E-02 2.10812E-02-2.40905E-04
 -1      1404 3.46636E-02 1.93325E-02-2.06563E-04
 -1      1405 2.92910E-02 2.05333E-02-2.45822E-04
 -1      1406 2.37936E-02 1.81092E-02-2.08900E-04
 -1      1407 1.90926E-02 1.84133E-02-2.46198E-04
 -1      1408 1.47094E-02 1.55775E-02-2.07398E-04
 -1      1409 1.07977E-02 1.52010E-02-2.42169E-04
 -1      1410 7.51750E-03 1.22104E-02-2.02186E-04
 -1      1411 4.45272E-03 1.13806E-02-2.33907E-04
 -1      1412 2.20512E-03 8.47062E-03-1.93429E-04
 -1      1413-1.47020E-05 7.40993E-03-2.21623E-04
 -1      1414-1.35026E-03 4.78085E-03-1.81318E-04
 -1      1415-2.78195E-03 3.69217E-03-2.05569E-04
 -1      1416-3.36459E-03 1.49837E-03-1.66067E-04
 -1      1417-4.11135E-03 5.51687E-04-1.86035E-04
 -1      1418-4.12460E-03-1.10533E-03-1.47896E-04
 -1      1419-4.32430E-03-1.78290E-03-1.63330E-04
 -1      1420-3.96039E-03-2.85768E-03-1.27012E-04
 -1      1421-3.77156E-03-3.18814E-03-1.37778E-04
 -1      1422-3.21516E-03-3.69019E-03-1.03634E-04
 -1      1423-2.80195E-03-3.64655E-03-1.09777E-04
 -1      1424-2.21371E-03-3.63593E-03-7.82686E-05
 -1      1425-1.73110E-03-3.24140E-03-8.03960E-05
 -1      1426-1.23069E-03-2.82376E-03-5.27389E-05
 -1      1427-8.09621E-04-2.15430E-03-5.30860E-05
 -1      1428-4.53360E-04-1.48440E-03-3.23951E-05
 -1      1429-1.81051E-04-7.05821E-04-4.97897E-05
 -1      1430 1.59986E-01-1.01938E-01-1.82615E-05
 -1      1431 1.56067E-01-9.20413E-02-4.03584E-05
 -1      1432 1.57179E-01-8.13365E-02-4.84223E-05
 -1      1433 1.51841E-01-7.18156E-02-6.53892E-05
 -1      1434 1.51354E-01-6.09464E-02-7.87854E-05
 -1      1435 1.44642E-01-5.21286E-02-9.27980E-05
 -1      1436 1.42571E-01-4.15186E-02-1.15912E-04
 -1      1437 1.34681E-01-3.37742E-02-1.24959E-04
 -1      1438 1.31166E-01-2.38388E-02-1.56722E-04
 -1      1439 1.22409E-01-1.74613E-02-1.59232E-04
 -1      1440 1.17684E-01-8.53847E-03-1.96966E-04
 -1      1441 1.08428E-01-3.70107E-03-1.92372E-04
 -1      1442 1.02785E-01 3.97163E-03-2.33506E-04
 -1      1443 9.34037E-02 7.21578E-03-2.22012E-04
 -1      1444 8.71613E-02 1.35007E-02-2.64605E-04
 -1      1445 7.80069E-02 1.52011E-02-2.46825E-04
 -1      1446 7.14869E-02 2.00517E-02-2.89537E-04
 -1      1447 6.28692E-02 2.03401E-02-2.66238E-04
 -1      1448 5.63792E-02 2.37903E-02-3.08132E-04
 -1      1449 4.85538E-02 2.28613E-02-2.80096E-04
 -1      1450 4.23717E-02 2.50143E-02-3.20462E-04
 -1      1451 3.55318E-02 2.31075E-02-2.88440E-04
 -1      1452 2.98929E-02 2.41234E-02-3.26676E-04
 -1      1453 2.41645E-02 2.15061E-02-2.91383E-04
 -1      1454 1.92509E-02 2.15881E-02-3.26937E-04
 -1      1455 1.46903E-02 1.85378E-02-2.89066E-04
 -1      1456 1.06238E-02 1.79168E-02-3.21422E-04
 -1      1457 7.21966E-03 1.47045E-02-2.81662E-04
 -1      1458 4.05786E-03 1.36222E-02-3.10340E-04
 -1      1459 1.73642E-03 1.04961E-02-2.69375E-04
 -1      1460-5.25934E-04 9.18874E-03-2.93951E-04
 -1      1461-1.89184E-03 6.36005E-03-2.52461E-04
 -1      1462-3.31805E-03 5.04214E-03-2.72579E-04
 -1      1463-3.89643E-03 2.67382E-03-2.31220E-04
 -1      1464-4.59865E-03 1.52472E-03-2.46608E-04
 -1      1465-4.58348E-03-2.76132E-04-2.05981E-04
 -1      1466-4.71035E-03-1.12286E-03-2.16455E-04
 -1      1467-4.30514E-03-2.30813E-03-1.77061E-04
 -1      1468-4.02716E-03-2.77108E-03-1.82516E-04
 -1      1469-3.42825E-03-3.35035E-03-1.44722E-04
 -1      1470-2.92267E-03-3.40214E-03-1.45087E-04
 -1      1471-2.30273E-03-3.43766E-03-1.09228E-04
 -1      1472-1.73986E-03-3.10423E-03-1.04624E-04
 -1      1473-1.23159E-03-2.70585E-03-7.14759E-05
 -1      1474-7.61973E-04-2.06956E-03-6.27543E-05
 -1      1475-4.32008E-04-1.40057E-03-3.46471E-05
 -1      1476-1.54520E-04-6.43337E-04-3.79591E-05
 -1      1477 1.66488E-01-1.01495E-01-1.01595E-05
 -1      1478 1.62514E-01-9.11719E-02-2.86155E-05
 -1      1479 1.63566E-01-8.00695E-02-3.82368E-05
 -1      1480 1.58116E-01-7.01581E-02-5.96505E-05
 -1      1481 1.57521E-01-5.89099E-02-7.91678E-05
 -1      1482 1.50627E-01-4.97402E-02-1.01168E-04
 -1      1483 1.48381E-01-3.87781E-02-1.31896E-04
 -1      1484 1.40239E-01-3.07327E-02-1.49510E-04
 -1      1485 1.36478E-01-2.04915E-02-1.88376E-04
 -1      1486 1.27409E-01-1.38763E-02-1.98646E-04
 -1      1487 1.22377E-01-4.71265E-03-2.42098E-04
 -1      1488 1.12766E-01 2.89950E-04-2.44047E-04
 -1      1489 1.06773E-01 8.12611E-03-2.89352E-04
 -1      1490 9.70156E-02 1.14590E-02-2.83233E-04
 -1      1491 9.04020E-02 1.78249E-02-3.28603E-04
 -1      1492 8.08715E-02 1.95389E-02-3.15214E-04
 -1      1493 7.39808E-02 2.43896E-02-3.59533E-04
 -1      1494 6.50048E-02 2.46220E-02-3.39806E-04
 -1      1495 5.81635E-02 2.79977E-02-3.82332E-04
 -1      1496 5.00126E-02 2.69525E-02-3.57154E-04
 -1      1497 4.35144E-02 2.89665E-02-3.97310E-04
 -1      1498 3.63931E-02 2.68950E-02-3.67478E-04
 -1      1499 3.04853E-02 2.77201E-02-4.04748E-04
 -1      1500 2.45271E-02 2.49032E-02-3.70989E-04
 -1      1501 1.93998E-02 2.47569E-02-4.04876E-04
 -1      1502 1.46645E-02 2.14866E-02-3.67883E-04
 -1      1503 1.04435E-02 2.06148E-02-3.97909E-04
 -1      1504 6.91966E-03 1.71762E-02-3.58365E-04
 -1      1505 3.66281E-03 1.58356E-02-3.84088E-04
 -1      1506 1.27268E-03 1.24901E-02-3.42687E-04
 -1      1507-1.02882E-03 1.09307E-02-3.63716E-04
 -1      1508-2.41925E-03 7.90073E-03-3.21163E-04
 -1      1509-3.83539E-03 6.34927E-03-3.37184E-04
 -1      1510-4.40340E-03 3.80642E-03-2.94183E-04
 -1      1511-5.05562E-03 2.45178E-03-3.04963E-04
 -1      1512-5.00608E-03 5.08793E-04-2.62193E-04
 -1      1513-5.05412E-03-5.08965E-04-2.67573E-04
 -1      1514-4.60228E-03-1.80145E-03-2.25630E-04
 -1      1515-4.22892E-03-2.39772E-03-2.25468E-04
 -1      1516-3.58334E-03-3.04969E-03-1.84814E-04
 -1      1517-2.97900E-03-3.19728E-03-1.78859E-04
 -1      1518-2.32558E-03-3.27341E-03-1.39683E-04
 -1      1519-1.67573E-03-3.00183E-03-1.27470E-04
 -1      1520-1.16351E-03-2.61712E-03-8.99131E-05
 -1      1521-6.38860E-04-2.01526E-03-7.08516E-05
 -1      1522-3.58744E-04-1.33993E-03-3.56281E-05
 -1      1523-9.27615E-05-5.90298E-04-1.50053E-05
 -1      1524 1.73020E-01-1.01061E-01-3.05424E-06
 -1      1525 1.69009E-01-9.03125E-02-1.74885E-05
 -1      1526 1.70010E-01-7.87996E-02-2.68159E-05
 -1      1527 1.64460E-01-6.84896E-02-5.31928E-05
 -1      1528 1.63765E-01-5.68470E-02-7.83401E-05
 -1      1529 1.56691E-01-4.73163E-02-1.08603E-04
 -1      1530 1.54274E-01-3.59914E-02-1.46888E-04
 -1      1531 1.45872E-01-2.76380E-02-1.73036E-04
 -1      1532 1.41863E-01-1.70864E-02-2.19087E-04
 -1      1533 1.32470E-01-1.02298E-02-2.36842E-04
 -1      1534 1.27127E-01-8.25807E-04-2.86142E-04
 -1      1535 1.17149E-01 4.34307E-03-2.94223E-04
 -1      1536 1.10801E-01 1.23388E-02-3.43861E-04
 -1      1537 1.00657E-01 1.57595E-02-3.42651E-04
 -1      1538 9.36682E-02 2.22006E-02-3.90994E-04
 -1      1539 8.37510E-02 2.39256E-02-3.81520E-04
 -1      1540 7.64874E-02 2.87695E-02-4.27685E-04
 -1      1541 6.71438E-02 2.89422E-02-4.11068E-04
 -1      1542 5.99509E-02 3.22362E-02-4.54505E-04
 -1      1543 5.14664E-02 3.10699E-02-4.31743E-04
 -1      1544 4.46537E-02 3.29378E-02-4.72008E-04
 -1      1545 3.72445E-02 3.06959E-02-4.43949E-04
 -1      1546 3.10711E-02 3.13233E-02-4.80604E-04
 -1      1547 2.48780E-02 2.83006E-02-4.47992E-04
 -1      1548 1.95420E-02 2.79197E-02-4.80587E-04
 -1      1549 1.46289E-02 2.44227E-02-4.44113E-04
 -1      1550 1.02599E-02 2.32947E-02-4.72202E-04
 -1      1551 6.61467E-03 1.96234E-02-4.32552E-04
 -1      1552 3.27048E-03 1.80204E-02-4.55718E-04
 -1      1553 8.11698E-04 1.44494E-02-4.13597E-04
 -1      1554-1.52033E-03 1.26356E-02-4.31483E-04
 -1      1555-2.93382E-03 9.39899E-03-3.87624E-04
 -1      1556-4.33080E-03 7.61346E-03-3.99952E-04
 -1      1557-4.88586E-03 4.89177E-03-3.55111E-04
 -1      1558-5.47892E-03 3.33301E-03-3.61687E-04
 -1      1559-5.39167E-03 1.24471E-03-3.16617E-04
 -1      1560-5.35203E-03 5.93313E-05-3.17334E-04
 -1      1561-4.84992E-03-1.34258E-03-2.72701E-04
 -1      1562-4.37287E-03-2.06680E-03-2.67422E-04
 -1      1563-3.67697E-03-2.79338E-03-2.23730E-04
 -1      1564-2.96591E-03-3.02962E-03-2.12212E-04
 -1      1565-2.27607E-03-3.14908E-03-1.69321E-04
 -1      1566-1.53103E-03-2.93016E-03-1.50498E-04
 -1      1567-1.01338E-03-2.56572E-03-1.08054E-04
 -1      1568-4.24494E-04-1.98764E-03-7.96194E-05
 -1      1569-2.05698E-04-1.31708E-03-3.85143E-05
 -1      1570 2.91105E-05-5.60089E-04 1.94984E-05
 -1      1571 1.75541E-01-8.94539E-02-5.69843E-06
 -1      1572 1.70877E-01-6.68017E-02-4.57698E-05
 -1      1573 1.62844E-01-4.48505E-02-1.15265E-04
 -1      1574 1.51589E-01-2.44853E-02-1.95874E-04
 -1      1575 1.37601E-01-6.51779E-03-2.74208E-04
 -1      1576 1.21582E-01 8.46158E-03-3.43305E-04
 -1      1577 1.04329E-01 2.01199E-02-4.00681E-04
 -1      1578 8.66459E-02 2.83635E-02-4.46182E-04
 -1      1579 6.92856E-02 3.33026E-02-4.80489E-04
 -1      1580 5.29141E-02 3.52149E-02-5.04365E-04
 -1      1581 3.80841E-02 3.45107E-02-5.18393E-04
 -1      1582 2.52155E-02 3.16979E-02-5.22969E-04
 -1      1583 1.45815E-02 2.73453E-02-5.18381E-04
 -1      1584 6.30321E-03 2.20445E-02-5.04903E-04
 -1      1585 3.52478E-04 1.63720E-02-4.82867E-04
 -1      1586-3.43595E-03 1.08525E-02-4.52723E-04
 -1      1587-5.34344E-03 5.92743E-03-4.15058E-04
 -1      1588-5.73905E-03 1.92939E-03-3.70592E-04
 -1      1589-5.04587E-03-9.33108E-04-3.20100E-04
 -1      1590-3.70562E-03-2.58160E-03-2.64176E-04
 -1      1591-2.14838E-03-3.06253E-03-2.02695E-04
 -1      1592-7.69402E-04-2.54416E-03-1.34083E-04
 -1      1593 5.11068E-05-1.31953E-03-5.92769E-05
 -1      1594 6.70782E-02-1.30977E-01-2.59007E-03
 -1      1595 6.62493E-02-1.30562E-01-1.05181E-03
 -1      1596 6.61164E-02-1.30484E-01-1.06660E-13
 -1      1597 6.62493E-02-1.30562E-01 1.05181E-03
 -1      1598 6.70782E-02-1.30977E-01 2.59007E-03
 -1      1599 7.61347E-02-1.25574E-01-1.67771E-03
 -1      1600 7.56582E-02-1.25546E-01-9.26163E-04
 -1      1601 7.55647E-02-1.25538E-01-1.07610E-13
 -1      1602 7.56582E-02-1.25546E-01 9.26163E-04
 -1      1603 7.61347E-02-1.25574E-01 1.67771E-03
 -1      1604 8.38694E-02-1.20901E-01-1.19618E-03
 -1      1605 8.36726E-02-1.20845E-01-6.27924E-04
 -1      1606 8.36098E-02-1.20861E-01-1.16645E-13
 -1      1607 8.36726E-02-1.20845E-01 6.27924E-04
 -1      1608 8.38694E-02-1.20901E-01 1.19618E-03
 -1      1609 9.07146E-02-1.18300E-01-8.08510E-04
 -1      1610 9.06060E-02-1.18247E-01-4.18606E-04
 -1      1611 9.05721E-02-1.18233E-01-1.25846E-13
 -1      1612 9.06060E-02-1.18247E-01 4.18606E-04
 -1      1613 9.07146E-02-1.18300E-01 8.08510E-04
 -1      1614 9.72617E-02-1.16385E-01-5.63427E-04
 -1      1615 9.72077E-02-1.16337E-01-2.87249E-04
 -1      1616 9.71885E-02-1.16325E-01-1.34081E-13
 -1      1617 9.72077E-02-1.16337E-01 2.87249E-04
 -1      1618 9.72617E-02-1.16385E-01 5.63427E-04
 -1      1619 1.03625E-01-1.15044E-01-3.99443E-04
 -1      1620 1.03595E-01-1.15005E-01-2.01703E-04
 -1      1621 1.03584E-01-1.14993E-01-1.41680E-13
 -1      1622 1.03595E-01-1.15005E-01 2.01703E-04
 -1      1623 1.03625E-01-1.15044E-01 3.99443E-04
 -1      1624 1.09902E-01-1.14074E-01-2.84392E-04
 -1      1625 1.09886E-01-1.14044E-01-1.43191E-04
 -1      1626 1.09880E-01-1.14034E-01-1.49356E-13
 -1      1627 1.09886E-01-1.14044E-01 1.43191E-04
 -1      1628 1.09902E-01-1.14074E-01 2.84392E-04
 -1      1629 1.16146E-01-1.13384E-01-2.00732E-04
 -1      1630 1.16138E-01-1.13360E-01-1.00879E-04
 -1      1631 1.16135E-01-1.13353E-01-1.56784E-13
 -1      1632 1.16138E-01-1.13360E-01 1.00879E-04
 -1      1633 1.16146E-01-1.13384E-01 2.00732E-04
 -1      1634 1.22390E-01-1.12902E-01-1.38274E-04
 -1      1635 1.22387E-01-1.12883E-01-6.94859E-05
 -1      1636 1.22386E-01-1.12877E-01-1.64148E-13
 -1      1637 1.22387E-01-1.12883E-01 6.94859E-05
 -1      1638 1.22390E-01-1.12902E-01 1.38274E-04
 -1      1639 1.28657E-01-1.12577E-01-9.14099E-05
 -1      1640 1.28658E-01-1.12562E-01-4.59572E-05
 -1      1641 1.28658E-01-1.12558E-01-1.71322E-13
 -1      1642 1.28658E-01-1.12562E-01 4.59572E-05
 -1      1643 1.28657E-01-1.12577E-01 9.14099E-05
 -1      1644 1.34962E-01-1.12369E-01-5.65377E-05
 -1      1645 1.34965E-01-1.12358E-01-2.84700E-05
 -1      1646 1.34966E-01-1.12354E-01-1.78222E-13
 -1      1647 1.34965E-01-1.12358E-01 2.84700E-05
 -1      1648 1.34962E-01-1.12369E-01 5.65377E-05
 -1      1649 1.41313E-01-1.12248E-01-3.12723E-05
 -1      1650 1.41318E-01-1.12240E-01-1.58052E-05
 -1      1651 1.41319E-01-1.12237E-01-1.85060E-13
 -1      1652 1.41318E-01-1.12240E-01 1.58052E-05
 -1      1653 1.41313E-01-1.12248E-01 3.12723E-05
 -1      1654 1.47715E-01-1.12189E-01-1.39049E-05
 -1      1655 1.47720E-01-1.12183E-01-7.10314E-06
 -1      1656 1.47721E-01-1.12181E-01-1.92448E-13
 -1      1657 1.47720E-01-1.12183E-01 7.10314E-06
 -1      1658 1.47715E-01-1.12189E-01 1.39049E-05
 -1      1659 1.54166E-01-1.12170E-01-3.13607E-06
 -1      1660 1.54171E-01-1.12166E-01-1.70473E-06
 -1      1661 1.54172E-01-1.12165E-01-1.99473E-13
 -1      1662 1.54171E-01-1.12166E-01 1.70473E-06
 -1      1663 1.54166E-01-1.12170E-01 3.13607E-06
 -1      1664 1.60663E-01-1.12174E-01 2.19790E-06
 -1      1665 1.60667E-01-1.12171E-01 9.83952E-07
 -1      1666 1.60668E-01-1.12170E-01-2.06291E-13
 -1      1667 1.60667E-01-1.12171E-01-9.83953E-07
 -1      1668 1.60663E-01-1.12174E-01-2.19790E-06
 -1      1669 1.67196E-01-1.12186E-01 3.45207E-06
 -1      1670 1.67199E-01-1.12184E-01 1.67122E-06
 -1      1671 1.67200E-01-1.12183E-01-2.13507E-13
 -1      1672 1.67199E-01-1.12184E-01-1.67122E-06
 -1      1673 1.67196E-01-1.12186E-01-3.45207E-06
 -1      1674 1.73754E-01-1.12195E-01 2.52889E-06
 -1      1675 1.73755E-01-1.12193E-01 1.41124E-06
 -1      1676 1.73755E-01-1.12193E-01-2.21401E-13
 -1      1677 1.73755E-01-1.12193E-01-1.41125E-06
 -1      1678 1.73754E-01-1.12195E-01-2.52889E-06
 -1      1679 6.76981E-02-1.31178E-01-4.04339E-03
 -1      1680 6.02036E-02-1.43179E-01-2.58757E-03
 -1      1681 6.64856E-02-1.31087E-01-1.76595E-03
 -1      1682 5.96788E-02-1.42491E-01-1.17360E-03
 -1      1683 6.61389E-02-1.30829E-01-5.22467E-04
 -1      1684 5.95723E-02-1.42304E-01-1.18113E-13
 -1      1685 6.61389E-02-1.30829E-01 5.22467E-04
 -1      1686 5.96788E-02-1.42491E-01 1.17360E-03
 -1      1687 6.64856E-02-1.31087E-01 1.76595E-03
 -1      1688 6.02036E-02-1.43179E-01 2.58757E-03
 -1      1689 6.76981E-02-1.31178E-01 4.04339E-03
 -1      1690 7.62951E-02-1.25615E-01-2.23243E-03
 -1      1691 7.13647E-02-1.27624E-01-2.34746E-03
 -1      1692 7.58878E-02-1.25437E-01-1.31200E-03
 -1      1693 7.09157E-02-1.27582E-01-1.04066E-03
 -1      1694 7.55767E-02-1.25458E-01-4.57083E-04
 -1      1695 7.07248E-02-1.27566E-01-1.03427E-13
 -1      1696 7.55767E-02-1.25458E-01 4.57083E-04
 -1      1697 7.09157E-02-1.27582E-01 1.04066E-03
 -1      1698 7.58878E-02-1.25437E-01 1.31200E-03
 -1      1699 7.13647E-02-1.27624E-01 2.34746E-03
 -1      1700 7.62951E-02-1.25615E-01 2.23243E-03
 -1      1701 8.40295E-02-1.20995E-01-1.52508E-03
 -1      1702 8.02237E-02-1.22973E-01-1.48721E-03
 -1      1703 8.37486E-02-1.20892E-01-9.09316E-04
 -1      1704 7.99354E-02-1.22956E-01-7.32987E-04
 -1      1705 8.36240E-02-1.20869E-01-3.16014E-04
 -1      1706 7.98355E-02-1.22943E-01-1.12779E-13
 -1      1707 8.36240E-02-1.20869E-01 3.16014E-04
 -1      1708 7.99354E-02-1.22956E-01 7.32987E-04
 -1      1709 8.37486E-02-1.20892E-01 9.09316E-04
 -1      1710 8.02237E-02-1.22973E-01 1.48721E-03
 -1      1711 8.40295E-02-1.20995E-01 1.52508E-03
 -1      1712 9.07785E-02-1.18349E-01-1.00876E-03
 -1      1713 8.73133E-02-1.19464E-01-1.00516E-03
 -1      1714 9.06540E-02-1.18256E-01-6.16578E-04
 -1      1715 8.71771E-02-1.19415E-01-5.02760E-04
 -1      1716 9.05800E-02-1.18229E-01-2.09852E-04
 -1      1717 8.71276E-02-1.19406E-01-1.21876E-13
 -1      1718 9.05800E-02-1.18229E-01 2.09852E-04
 -1      1719 8.71771E-02-1.19415E-01 5.02760E-04
 -1      1720 9.06540E-02-1.18256E-01 6.16578E-04
 -1      1721 8.73133E-02-1.19464E-01 1.00516E-03
 -1      1722 9.07785E-02-1.18349E-01 1.00876E-03
 -1      1723 9.73014E-02-1.16434E-01-7.02637E-04
 -1      1724 9.40208E-02-1.17257E-01-6.77740E-04
 -1      1725 9.72305E-02-1.16358E-01-4.25314E-04
 -1      1726 9.39455E-02-1.17206E-01-3.42085E-04
 -1      1727 9.71932E-02-1.16328E-01-1.43928E-04
 -1      1728 9.39187E-02-1.17191E-01-1.30159E-13
 -1      1729 9.71932E-02-1.16328E-01 1.43928E-04
 -1      1730 9.39455E-02-1.17206E-01 3.42085E-04
 -1      1731 9.72305E-02-1.16358E-01 4.25314E-04
 -1      1732 9.40208E-02-1.17257E-01 6.77740E-04
 -1      1733 9.73014E-02-1.16434E-01 7.02637E-04
 -1      1734 1.03646E-01-1.15076E-01-4.97747E-04
 -1      1735 1.00457E-01-1.15657E-01-4.75402E-04
 -1      1736 1.03608E-01-1.15019E-01-3.00864E-04
 -1      1737 1.00417E-01-1.15614E-01-2.39316E-04
 -1      1738 1.03587E-01-1.14994E-01-1.00954E-04
 -1      1739 1.00403E-01-1.15601E-01-1.37897E-13
 -1      1740 1.03587E-01-1.14994E-01 1.00954E-04
 -1      1741 1.00417E-01-1.15614E-01 2.39316E-04
 -1      1742 1.03608E-01-1.15019E-01 3.00864E-04
 -1      1743 1.00457E-01-1.15657E-01 4.75402E-04
 -1      1744 1.03646E-01-1.15076E-01 4.97747E-04
 -1      1745 1.09914E-01-1.14100E-01-3.54470E-04
 -1      1746 1.06770E-01-1.14518E-01-3.37474E-04
 -1      1747 1.09893E-01-1.14056E-01-2.13779E-04
 -1      1748 1.06748E-01-1.14483E-01-1.69671E-04
 -1      1749 1.09882E-01-1.14036E-01-7.16292E-05
 -1      1750 1.06740E-01-1.14472E-01-1.45530E-13
 -1      1751 1.09882E-01-1.14036E-01 7.16292E-05
 -1      1752 1.06748E-01-1.14483E-01 1.69671E-04
 -1      1753 1.09893E-01-1.14056E-01 2.13779E-04
 -1      1754 1.06770E-01-1.14518E-01 3.37474E-04
 -1      1755 1.09914E-01-1.14100E-01 3.54470E-04
 -1      1756 1.16151E-01-1.13404E-01-2.50238E-04
 -1      1757 1.13025E-01-1.13699E-01-2.39535E-04
 -1      1758 1.16141E-01-1.13370E-01-1.50810E-04
 -1      1759 1.13014E-01-1.13672E-01-1.20345E-04
 -1      1760 1.16136E-01-1.13354E-01-5.04518E-05
 -1      1761 1.13010E-01-1.13663E-01-1.53111E-13
 -1      1762 1.16136E-01-1.13354E-01 5.04518E-05
 -1      1763 1.13014E-01-1.13672E-01 1.20345E-04
 -1      1764 1.16141E-01-1.13370E-01 1.50810E-04
 -1      1765 1.13025E-01-1.13699E-01 2.39535E-04
 -1      1766 1.16151E-01-1.13404E-01 2.50238E-04
 -1      1767 1.22391E-01-1.12917E-01-1.72345E-04
 -1      1768 1.19266E-01-1.13120E-01-1.67285E-04
 -1      1769 1.22388E-01-1.12891E-01-1.03860E-04
 -1      1770 1.19261E-01-1.13099E-01-8.40302E-05
 -1      1771 1.22386E-01-1.12879E-01-3.47460E-05
 -1      1772 1.19259E-01-1.13093E-01-1.60483E-13
 -1      1773 1.22386E-01-1.12879E-01 3.47460E-05
 -1      1774 1.19261E-01-1.13099E-01 8.40302E-05
 -1      1775 1.22388E-01-1.12891E-01 1.03860E-04
 -1      1776 1.19266E-01-1.13120E-01 1.67285E-04
 -1      1777 1.22391E-01-1.12917E-01 1.72345E-04
 -1      1778 1.28656E-01-1.12588E-01-1.13892E-04
 -1      1779 1.25519E-01-1.12722E-01-1.13159E-04
 -1      1780 1.28658E-01-1.12568E-01-6.86654E-05
 -1      1781 1.25518E-01-1.12706E-01-5.68664E-05
 -1      1782 1.28658E-01-1.12559E-01-2.29784E-05
 -1      1783 1.25518E-01-1.12700E-01-1.67705E-13
 -1      1784 1.28658E-01-1.12559E-01 2.29784E-05
 -1      1785 1.25518E-01-1.12706E-01 5.68664E-05
 -1      1786 1.28658E-01-1.12568E-01 6.86654E-05
 -1      1787 1.25519E-01-1.12722E-01 1.13159E-04
 -1      1788 1.28656E-01-1.12588E-01 1.13892E-04
 -1      1789 1.34960E-01-1.12378E-01-7.03774E-05
 -1      1790 1.31804E-01-1.12460E-01-7.26444E-05
 -1      1791 1.34964E-01-1.12362E-01-4.24854E-05
 -1      1792 1.31806E-01-1.12447E-01-3.65452E-05
 -1      1793 1.34966E-01-1.12355E-01-1.42333E-05
 -1      1794 1.31807E-01-1.12443E-01-1.74785E-13
 -1      1795 1.34966E-01-1.12355E-01 1.42333E-05
 -1      1796 1.31806E-01-1.12447E-01 3.65452E-05
 -1      1797 1.34964E-01-1.12362E-01 4.24854E-05
 -1      1798 1.31804E-01-1.12460E-01 7.26444E-05
 -1      1799 1.34960E-01-1.12378E-01 7.03773E-05
 -1      1800 1.41310E-01-1.12255E-01-3.88442E-05
 -1      1801 1.38132E-01-1.12299E-01-4.28258E-05
 -1      1802 1.41316E-01-1.12243E-01-2.35226E-05
 -1      1803 1.38135E-01-1.12290E-01-2.15964E-05
 -1      1804 1.41319E-01-1.12238E-01-7.90064E-06
 -1      1805 1.38136E-01-1.12287E-01-1.81649E-13
 -1      1806 1.41319E-01-1.12238E-01 7.90064E-06
 -1      1807 1.38135E-01-1.12290E-01 2.15963E-05
 -1      1808 1.41316E-01-1.12243E-01 2.35226E-05
 -1      1809 1.38132E-01-1.12299E-01 4.28258E-05
 -1      1810 1.41310E-01-1.12255E-01 3.88442E-05
 -1      1811 1.47711E-01-1.12194E-01-1.71673E-05
 -1      1812 1.44508E-01-1.12212E-01-2.16969E-05
 -1      1813 1.47718E-01-1.12186E-01-1.04913E-05
 -1      1814 1.44512E-01-1.12205E-01-1.10072E-05
 -1      1815 1.47721E-01-1.12182E-01-3.55018E-06
 -1      1816 1.44514E-01-1.12203E-01-1.88802E-13
 -1      1817 1.47721E-01-1.12182E-01 3.55017E-06
 -1      1818 1.44512E-01-1.12205E-01 1.10072E-05
 -1      1819 1.47718E-01-1.12186E-01 1.04913E-05
 -1      1820 1.44508E-01-1.12212E-01 2.16969E-05
 -1      1821 1.47711E-01-1.12194E-01 1.71673E-05
 -1      1822 1.54163E-01-1.12173E-01-3.71779E-06
 -1      1823 1.50935E-01-1.12176E-01-7.78333E-06
 -1      1824 1.54169E-01-1.12168E-01-2.41264E-06
 -1      1825 1.50939E-01-1.12171E-01-4.03444E-06
 -1      1826 1.54172E-01-1.12165E-01-8.52032E-07
 -1      1827 1.50941E-01-1.12169E-01-1.95964E-13
 -1      1828 1.54172E-01-1.12165E-01 8.52032E-07
 -1      1829 1.50939E-01-1.12171E-01 4.03444E-06
 -1      1830 1.54169E-01-1.12168E-01 2.41264E-06
 -1      1831 1.50935E-01-1.12176E-01 7.78333E-06
 -1      1832 1.54163E-01-1.12173E-01 3.71779E-06
 -1      1833 1.60660E-01-1.12176E-01 2.87871E-06
 -1      1834 1.57409E-01-1.12170E-01 1.09196E-07
 -1      1835 1.60665E-01-1.12173E-01 1.59552E-06
 -1      1836 1.57414E-01-1.12167E-01-7.09888E-08
 -1      1837 1.60668E-01-1.12171E-01 4.91716E-07
 -1      1838 1.57415E-01-1.12165E-01-2.02942E-13
 -1      1839 1.60668E-01-1.12171E-01-4.91717E-07
 -1      1840 1.57414E-01-1.12167E-01 7.09884E-08
 -1      1841 1.60665E-01-1.12173E-01-1.59552E-06
 -1      1842 1.57409E-01-1.12170E-01-1.09197E-07
 -1      1843 1.60660E-01-1.12176E-01-2.87871E-06
 -1      1844 1.67194E-01-1.12187E-01 4.44551E-06
 -1      1845 1.63926E-01-1.12179E-01 3.21294E-06
 -1      1846 1.67198E-01-1.12185E-01 2.56415E-06
 -1      1847 1.63929E-01-1.12177E-01 1.51837E-06
 -1      1848 1.67200E-01-1.12183E-01 8.36522E-07
 -1      1849 1.63930E-01-1.12176E-01-2.09832E-13
 -1      1850 1.67200E-01-1.12183E-01-8.36523E-07
 -1      1851 1.63929E-01-1.12177E-01-1.51837E-06
 -1      1852 1.67198E-01-1.12185E-01-2.56415E-06
 -1      1853 1.63926E-01-1.12179E-01-3.21294E-06
 -1      1854 1.67194E-01-1.12187E-01-4.44551E-06
 -1      1855 1.73753E-01-1.12196E-01 2.75485E-06
 -1      1856 1.70473E-01-1.12190E-01 3.11396E-06
 -1      1857 1.73754E-01-1.12194E-01 1.99158E-06
 -1      1858 1.70475E-01-1.12189E-01 1.58645E-06
 -1      1859 1.73755E-01-1.12193E-01 7.15624E-07
 -1      1860 1.70476E-01-1.12188E-01-2.17410E-13
 -1      1861 1.73755E-01-1.12193E-01-7.15624E-07
 -1      1862 1.70475E-01-1.12189E-01-1.58645E-06
 -1      1863 1.73754E-01-1.12194E-01-1.99158E-06
 -1      1864 1.70473E-01-1.12190E-01-3.11396E-06
 -1      1865 1.73753E-01-1.12196E-01-2.75485E-06
 -1      1866 1.77036E-01-1.12195E-01 2.40610E-06
 -1      1867 1.77037E-01-1.12194E-01 1.40827E-06
 -1      1868 1.77038E-01-1.12194E-01-2.25100E-13
 -1      1869 1.77037E-01-1.12194E-01-1.40827E-06
 -1      1870 1.77036E-01-1.12195E-01-2.40610E-06
 -1      1871 1.78818E-01-8.90159E-02 9.89259E-07
 -1      1872 1.78820E-01-8.90123E-02 4.21742E-07
 -1      1873 1.78821E-01-8.90111E-02-2.73230E-13
 -1      1874 1.78820E-01-8.90123E-02-4.21742E-07
 -1      1875 1.78818E-01-8.90159E-02-9.89260E-07
 -1      1876 1.74122E-01-6.59414E-02-2.72125E-05
 -1      1877 1.74125E-01-6.59382E-02-1.36404E-05
 -1      1878 1.74126E-01-6.59372E-02-3.14527E-13
 -1      1879 1.74125E-01-6.59382E-02 1.36404E-05
 -1      1880 1.74122E-01-6.59414E-02 2.72125E-05
 -1      1881 1.65968E-01-4.35975E-02-7.85403E-05
 -1      1882 1.65974E-01-4.35971E-02-3.93181E-05
 -1      1883 1.65976E-01-4.35970E-02-3.50421E-13
 -1      1884 1.65974E-01-4.35971E-02 3.93181E-05
 -1      1885 1.65968E-01-4.35975E-02 7.85403E-05
 -1      1886 1.54498E-01-2.28882E-02-1.37899E-04
 -1      1887 1.54507E-01-2.28908E-02-6.90130E-05
 -1      1888 1.54509E-01-2.28917E-02-3.80077E-13
 -1      1889 1.54507E-01-2.28908E-02 6.90130E-05
 -1      1890 1.54498E-01-2.28882E-02 1.37899E-04
 -1      1891 1.40214E-01-4.64280E-03-1.95117E-04
 -1      1892 1.40225E-01-4.64784E-03-9.76283E-05
 -1      1893 1.40228E-01-4.64954E-03-4.00164E-13
 -1      1894 1.40225E-01-4.64784E-03 9.76283E-05
 -1      1895 1.40214E-01-4.64280E-03 1.95117E-04
 -1      1896 1.23842E-01 1.05369E-02-2.45156E-04
 -1      1897 1.23855E-01 1.05305E-02-1.22647E-04
 -1      1898 1.23859E-01 1.05283E-02-4.10187E-13
 -1      1899 1.23855E-01 1.05305E-02 1.22647E-04
 -1      1900 1.23842E-01 1.05369E-02 2.45156E-04
 -1      1901 1.06205E-01 2.23131E-02-2.86401E-04
 -1      1902 1.06220E-01 2.23062E-02-1.43268E-04
 -1      1903 1.06225E-01 2.23039E-02-4.07594E-13
 -1      1904 1.06220E-01 2.23062E-02 1.43268E-04
 -1      1905 1.06205E-01 2.23131E-02 2.86401E-04
 -1      1906 8.81293E-02 3.05923E-02-3.18920E-04
 -1      1907 8.81465E-02 3.05858E-02-1.59531E-04
 -1      1908 8.81523E-02 3.05836E-02-3.95897E-13
 -1      1909 8.81465E-02 3.05858E-02 1.59531E-04
 -1      1910 8.81293E-02 3.05923E-02 3.18920E-04
 -1      1911 7.03899E-02 3.54898E-02-3.43329E-04
 -1      1912 7.04087E-02 3.54844E-02-1.71749E-04
 -1      1913 7.04150E-02 3.54825E-02-3.75826E-13
 -1      1914 7.04087E-02 3.54844E-02 1.71749E-04
 -1      1915 7.03899E-02 3.54898E-02 3.43329E-04
 -1      1916 5.36695E-02 3.72919E-02-3.60245E-04
 -1      1917 5.36896E-02 3.72880E-02-1.80234E-04
 -1      1918 5.36963E-02 3.72867E-02-3.49979E-13
 -1      1919 5.36896E-02 3.72880E-02 1.80234E-04
 -1      1920 5.36695E-02 3.72919E-02 3.60245E-04
 -1      1921 3.85346E-02 3.64203E-02-3.70114E-04
 -1      1922 3.85554E-02 3.64183E-02-1.85213E-04
 -1      1923 3.85623E-02 3.64176E-02-3.20088E-13
 -1      1924 3.85554E-02 3.64183E-02 1.85213E-04
 -1      1925 3.85346E-02 3.64203E-02 3.70114E-04
 -1      1926 2.54145E-02 3.33966E-02-3.73223E-04
 -1      1927 2.54355E-02 3.33966E-02-1.86833E-04
 -1      1928 2.54426E-02 3.33965E-02-2.85792E-13
 -1      1929 2.54355E-02 3.33966E-02 1.86833E-04
 -1      1930 2.54145E-02 3.33966E-02 3.73223E-04
 -1      1931 1.45883E-02 2.88044E-02-3.69765E-04
 -1      1932 1.46089E-02 2.88065E-02-1.85199E-04
 -1      1933 1.46159E-02 2.88071E-02-2.48261E-13
 -1      1934 1.46089E-02 2.88065E-02 1.85199E-04
 -1      1935 1.45883E-02 2.88044E-02 3.69765E-04
 -1      1936 6.17868E-03 2.32510E-02-3.59913E-04
 -1      1937 6.19843E-03 2.32551E-02-1.80404E-04
 -1      1938 6.20524E-03 2.32563E-02-2.09443E-13
 -1      1939 6.19843E-03 2.32551E-02 1.80404E-04
 -1      1940 6.17868E-03 2.32510E-02 3.59913E-04
 -1      1941 1.55298E-04 1.73278E-02-3.43877E-04
 -1      1942 1.73694E-04 1.73334E-02-1.72564E-04
 -1      1943 1.80154E-04 1.73352E-02-1.70304E-13
 -1      1944 1.73694E-04 1.73334E-02 1.72564E-04
 -1      1945 1.55298E-04 1.73278E-02 3.43877E-04
 -1      1946-3.65295E-03 1.15727E-02-3.21938E-04
 -1      1947-3.63633E-03 1.15796E-02-1.61829E-04
 -1      1948-3.63032E-03 1.15818E-02-1.32677E-13
 -1      1949-3.63633E-03 1.15796E-02 1.61829E-04
 -1      1950-3.65295E-03 1.15727E-02 3.21938E-04
 -1      1951-5.53624E-03 6.43797E-03-2.94465E-04
 -1      1952-5.52171E-03 6.44567E-03-1.48392E-04
 -1      1953-5.51622E-03 6.44815E-03-9.78544E-14
 -1      1954-5.52171E-03 6.44567E-03 1.48392E-04
 -1      1955-5.53624E-03 6.43797E-03 2.94465E-04
 -1      1956-5.87458E-03 2.26441E-03-2.61913E-04
 -1      1957-5.86238E-03 2.27236E-03-1.32469E-04
 -1      1958-5.85744E-03 2.27498E-03-6.70242E-14
 -1      1959-5.86238E-03 2.27236E-03 1.32469E-04
 -1      1960-5.87458E-03 2.26441E-03 2.61913E-04
 -1      1961-5.10307E-03-7.35189E-04-2.24733E-04
 -1      1962-5.09335E-03-7.27553E-04-1.14237E-04
 -1      1963-5.08900E-03-7.24950E-04-4.12899E-14
 -1      1964-5.09335E-03-7.27553E-04 1.14237E-04
 -1      1965-5.10307E-03-7.35189E-04 2.24733E-04
 -1      1966-3.67619E-03-2.48126E-03-1.83252E-04
 -1      1967-3.66910E-03-2.47455E-03-9.36930E-05
 -1      1968-3.66541E-03-2.47213E-03-2.13584E-14
 -1      1969-3.66910E-03-2.47455E-03 9.36930E-05
 -1      1970-3.67619E-03-2.48126E-03 1.83252E-04
 -1      1971-2.03397E-03-3.02378E-03-1.37145E-04
 -1      1972-2.02961E-03-3.01876E-03-7.02791E-05
 -1      1973-2.02681E-03-3.01675E-03-7.66653E-15
 -1      1974-2.02961E-03-3.01876E-03 7.02791E-05
 -1      1975-2.03397E-03-3.02378E-03 1.37145E-04
 -1      1976-5.90536E-04-2.53419E-03-8.56300E-05
 -1      1977-5.88323E-04-2.53203E-03-4.27849E-05
 -1      1978-5.86828E-04-2.53094E-03-1.56029E-16
 -1      1979-5.88323E-04-2.53203E-03 4.27849E-05
 -1      1980-5.90536E-04-2.53419E-03 8.56300E-05
 -1      1981 2.74614E-04-1.32106E-03-3.26645E-05
 -1      1982 2.80142E-04-1.32228E-03-1.29924E-05
 -1      1983 2.81496E-04-1.32285E-03 1.69171E-15
 -1      1984 2.80142E-04-1.32228E-03 1.29924E-05
 -1      1985 2.74614E-04-1.32106E-03 3.26645E-05
 -1      1986 1.78817E-01-8.90186E-02 7.67125E-07
 -1      1987 1.79946E-01-1.00604E-01 2.53674E-06
 -1      1988 1.78819E-01-8.90138E-02 6.71609E-07
 -1      1989 1.79947E-01-1.00602E-01 1.27162E-06
 -1      1990 1.78820E-01-8.90114E-02 1.95701E-07
 -1      1991 1.79948E-01-1.00601E-01-2.51209E-13
 -1      1992 1.78820E-01-8.90114E-02-1.95701E-07
 -1      1993 1.79947E-01-1.00602E-01-1.27162E-06
 -1      1994 1.78819E-01-8.90138E-02-6.71609E-07
 -1      1995 1.79946E-01-1.00604E-01-2.53675E-06
 -1      1996 1.78817E-01-8.90186E-02-7.67126E-07
 -1      1997 1.74119E-01-6.59438E-02-3.44260E-05
 -1      1998 1.76891E-01-7.74380E-02-9.22699E-06
 -1      1999 1.74124E-01-6.59395E-02-2.04292E-05
 -1      2000 1.76893E-01-7.74340E-02-4.68480E-06
 -1      2001 1.74126E-01-6.59374E-02-6.82234E-06
 -1      2002 1.76894E-01-7.74327E-02-2.94258E-13
 -1      2003 1.74126E-01-6.59374E-02 6.82234E-06
 -1      2004 1.76893E-01-7.74340E-02 4.68480E-06
 -1      2005 1.74124E-01-6.59395E-02 2.04291E-05
 -1      2006 1.76891E-01-7.74380E-02 9.22698E-06
 -1      2007 1.74119E-01-6.59438E-02 3.44260E-05
 -1      2008 1.65964E-01-4.35980E-02-9.84678E-05
 -1      2009 1.70474E-01-5.46245E-02-5.11899E-05
 -1      2010 1.65972E-01-4.35972E-02-5.89316E-05
 -1      2011 1.70479E-01-5.46225E-02-2.56105E-05
 -1      2012 1.65975E-01-4.35970E-02-1.96604E-05
 -1      2013 1.70480E-01-5.46219E-02-3.33142E-13
 -1      2014 1.65975E-01-4.35970E-02 1.96604E-05
 -1      2015 1.70479E-01-5.46225E-02 2.56105E-05
 -1      2016 1.65972E-01-4.35972E-02 5.89316E-05
 -1      2017 1.70474E-01-5.46245E-02 5.11899E-05
 -1      2018 1.65964E-01-4.35980E-02 9.84678E-05
 -1      2019 1.54492E-01-2.28864E-02-1.72517E-04
 -1      2020 1.60621E-01-3.29874E-02-1.08151E-04
 -1      2021 1.54503E-01-2.28897E-02-1.03454E-04
 -1      2022 1.60628E-01-3.29884E-02-5.40542E-05
 -1      2023 1.54509E-01-2.28915E-02-3.45060E-05
 -1      2024 1.60630E-01-3.29888E-02-3.66464E-13
 -1      2025 1.54509E-01-2.28915E-02 3.45060E-05
 -1      2026 1.60628E-01-3.29884E-02 5.40542E-05
 -1      2027 1.54503E-01-2.28897E-02 1.03454E-04
 -1      2028 1.60621E-01-3.29874E-02 1.08151E-04
 -1      2029 1.54492E-01-2.28864E-02 1.72517E-04
 -1      2030 1.40206E-01-4.63924E-03-2.43917E-04
 -1      2031 1.47666E-01-1.34210E-02-1.67327E-04
 -1      2032 1.40220E-01-4.64571E-03-1.46371E-04
 -1      2033 1.47675E-01-1.34249E-02-8.36279E-05
 -1      2034 1.40227E-01-4.64911E-03-4.88137E-05
 -1      2035 1.47678E-01-1.34263E-02-3.91503E-13
 -1      2036 1.40227E-01-4.64911E-03 4.88137E-05
 -1      2037 1.47675E-01-1.34249E-02 8.36279E-05
 -1      2038 1.40220E-01-4.64571E-03 1.46371E-04
 -1      2039 1.47666E-01-1.34210E-02 1.67327E-04
 -1      2040 1.40206E-01-4.63924E-03 2.43917E-04
 -1      2041 1.23832E-01 1.05416E-02-3.06380E-04
 -1      2042 1.32241E-01 3.34899E-03-2.21281E-04
 -1      2043 1.23849E-01 1.05332E-02-1.83900E-04
 -1      2044 1.32253E-01 3.34319E-03-1.10607E-04
 -1      2045 1.23858E-01 1.05289E-02-6.13233E-05
 -1      2046 1.32257E-01 3.34121E-03-4.06614E-13
 -1      2047 1.23858E-01 1.05289E-02 6.13233E-05
 -1      2048 1.32253E-01 3.34319E-03 1.10607E-04
 -1      2049 1.23849E-01 1.05332E-02 1.83900E-04
 -1      2050 1.32241E-01 3.34899E-03 2.21281E-04
 -1      2051 1.23832E-01 1.05416E-02 3.06380E-04
 -1      2052 1.06193E-01 2.23181E-02-3.57890E-04
 -1      2053 1.15134E-01 1.68529E-02-2.66948E-04
 -1      2054 1.06213E-01 2.23091E-02-2.14834E-04
 -1      2055 1.15148E-01 1.68462E-02-1.33448E-04
 -1      2056 1.06224E-01 2.23044E-02-7.16342E-05
 -1      2057 1.15153E-01 1.68439E-02-4.10298E-13
 -1      2058 1.06224E-01 2.23044E-02 7.16342E-05
 -1      2059 1.15148E-01 1.68462E-02 1.33448E-04
 -1      2060 1.06213E-01 2.23091E-02 2.14834E-04
 -1      2061 1.15134E-01 1.68529E-02 2.66948E-04
 -1      2062 1.06193E-01 2.23181E-02 3.57890E-04
 -1      2063 8.81165E-02 3.05970E-02-3.98525E-04
 -1      2064 9.71794E-02 2.68789E-02-3.03749E-04
 -1      2065 8.81394E-02 3.05885E-02-2.39226E-04
 -1      2066 9.71957E-02 2.68722E-02-1.51856E-04
 -1      2067 8.81509E-02 3.05842E-02-7.97661E-05
 -1      2068 9.72011E-02 2.68699E-02-4.03073E-13
 -1      2069 8.81509E-02 3.05842E-02 7.97661E-05
 -1      2070 9.71957E-02 2.68722E-02 1.51856E-04
 -1      2071 8.81394E-02 3.05885E-02 2.39226E-04
 -1      2072 9.71794E-02 2.68789E-02 3.03749E-04
 -1      2073 8.81165E-02 3.05970E-02 3.98525E-04
 -1      2074 7.03758E-02 3.54938E-02-4.29050E-04
 -1      2075 7.91824E-02 3.34425E-02-3.32130E-04
 -1      2076 7.04009E-02 3.54866E-02-2.57540E-04
 -1      2077 7.92005E-02 3.34365E-02-1.66048E-04
 -1      2078 7.04134E-02 3.54830E-02-8.58752E-05
 -1      2079 7.92065E-02 3.34345E-02-3.87102E-13
 -1      2080 7.04134E-02 3.54830E-02 8.58752E-05
 -1      2081 7.92005E-02 3.34365E-02 1.66048E-04
 -1      2082 7.04009E-02 3.54866E-02 2.57540E-04
 -1      2083 7.91824E-02 3.34425E-02 3.32130E-04
 -1      2084 7.03758E-02 3.54938E-02 4.29050E-04
 -1      2085 5.36546E-02 3.72947E-02-4.50232E-04
 -1      2086 6.18755E-02 3.67489E-02-3.52750E-04
 -1      2087 5.36812E-02 3.72896E-02-2.70240E-04
 -1      2088 6.18950E-02 3.67442E-02-1.76352E-04
 -1      2089 5.36946E-02 3.72870E-02-9.01178E-05
 -1      2090 6.19015E-02 3.67426E-02-3.63898E-13
 -1      2091 5.36946E-02 3.72870E-02 9.01178E-05
 -1      2092 6.18950E-02 3.67442E-02 1.76352E-04
 -1      2093 5.36812E-02 3.72896E-02 2.70240E-04
 -1      2094 6.18755E-02 3.67489E-02 3.52750E-04
 -1      2095 5.36546E-02 3.72947E-02 4.50232E-04
 -1      2096 3.85191E-02 3.64218E-02-4.62631E-04
 -1      2097 4.58864E-02 3.71564E-02-3.66148E-04
 -1      2098 3.85467E-02 3.64192E-02-2.77664E-04
 -1      2099 4.59068E-02 3.71534E-02-1.83036E-04
 -1      2100 3.85606E-02 3.64178E-02-9.26074E-05
 -1      2101 4.59136E-02 3.71524E-02-3.35785E-13
 -1      2102 3.85606E-02 3.64178E-02 9.26074E-05
 -1      2103 4.59068E-02 3.71534E-02 1.83036E-04
 -1      2104 3.85467E-02 3.64192E-02 2.77664E-04
 -1      2105 4.58864E-02 3.71564E-02 3.66148E-04
 -1      2106 3.85191E-02 3.64218E-02 4.62631E-04
 -1      2107 2.53989E-02 3.33965E-02-4.66612E-04
 -1      2108 3.17149E-02 3.51409E-02-3.72690E-04
 -1      2109 2.54267E-02 3.33966E-02-2.80029E-04
 -1      2110 3.17358E-02 3.51399E-02-1.86281E-04
 -1      2111 2.54408E-02 3.33966E-02-9.34178E-05
 -1      2112 3.17428E-02 3.51395E-02-3.03495E-13
 -1      2113 2.54408E-02 3.33966E-02 9.34178E-05
 -1      2114 3.17358E-02 3.51399E-02 1.86281E-04
 -1      2115 2.54267E-02 3.33966E-02 2.80029E-04
 -1      2116 3.17149E-02 3.51409E-02 3.72690E-04
 -1      2117 2.53989E-02 3.33965E-02 4.66612E-04
 -1      2118 1.45729E-02 2.88029E-02-4.62427E-04
 -1      2119 1.97165E-02 3.12598E-02-3.72613E-04
 -1      2120 1.46003E-02 2.88056E-02-2.77483E-04
 -1      2121 1.97374E-02 3.12608E-02-1.86203E-04
 -1      2122 1.46141E-02 2.88070E-02-9.26006E-05
 -1      2123 1.97444E-02 3.12612E-02-2.67283E-13
 -1      2124 1.46141E-02 2.88070E-02 9.26006E-05
 -1      2125 1.97374E-02 3.12608E-02 1.86203E-04
 -1      2126 1.46003E-02 2.88056E-02 2.77483E-04
 -1      2127 1.97165E-02 3.12598E-02 3.72613E-04
 -1      2128 1.45729E-02 2.88029E-02 4.62427E-04
 -1      2129 6.16388E-03 2.32481E-02-4.50308E-04
 -1      2130 1.00924E-02 2.61134E-02-3.66105E-04
 -1      2131 6.19021E-03 2.32534E-02-2.70159E-04
 -1      2132 1.01128E-02 2.61164E-02-1.82894E-04
 -1      2133 6.20350E-03 2.32560E-02-9.02031E-05
 -1      2134 1.01195E-02 2.61174E-02-2.28908E-13
 -1      2135 6.20350E-03 2.32560E-02 9.02031E-05
 -1      2136 1.01128E-02 2.61164E-02 1.82894E-04
 -1      2137 6.19021E-03 2.32534E-02 2.70159E-04
 -1      2138 1.00924E-02 2.61134E-02 3.66105E-04
 -1      2139 6.16388E-03 2.32481E-02 4.50308E-04
 -1      2140 1.41435E-04 1.73236E-02-4.30542E-04
 -1      2141 2.88773E-03 2.03055E-02-3.53370E-04
 -1      2142 1.66042E-04 1.73310E-02-2.58221E-04
 -1      2143 2.90707E-03 2.03103E-02-1.76449E-04
 -1      2144 1.78480E-04 1.73348E-02-8.62829E-05
 -1      2145 2.91341E-03 2.03120E-02-1.89823E-13
 -1      2146 1.78480E-04 1.73348E-02 8.62829E-05
 -1      2147 2.90707E-03 2.03103E-02 1.76449E-04
 -1      2148 1.66042E-04 1.73310E-02 2.58221E-04
 -1      2149 2.88773E-03 2.03055E-02 3.53370E-04
 -1      2150 1.41435E-04 1.73236E-02 4.30542E-04
 -1      2151-3.66561E-03 1.15676E-02-4.03514E-04
 -1      2152-2.00034E-03 1.44053E-02-3.34676E-04
 -1      2153-3.64323E-03 1.15767E-02-2.41884E-04
 -1      2154-1.98241E-03 1.44115E-02-1.66999E-04
 -1      2155-3.63190E-03 1.15812E-02-8.09156E-05
 -1      2156-1.97662E-03 1.44137E-02-1.51219E-13
 -1      2157-3.63190E-03 1.15812E-02 8.09156E-05
 -1      2158-1.98241E-03 1.44115E-02 1.66999E-04
 -1      2159-3.64323E-03 1.15767E-02 2.41884E-04
 -1      2160-2.00034E-03 1.44053E-02 3.34676E-04
 -1      2161-3.66561E-03 1.15676E-02 4.03514E-04
 -1      2162-5.54752E-03 6.43236E-03-3.69737E-04
 -1      2163-4.80556E-03 8.91141E-03-3.10384E-04
 -1      2164-5.52772E-03 6.44243E-03-2.21429E-04
 -1      2165-4.78936E-03 8.91862E-03-1.54718E-04
 -1      2166-5.51771E-03 6.44755E-03-7.41969E-05
 -1      2167-4.78423E-03 8.92112E-03-1.14825E-13
 -1      2168-5.51771E-03 6.44755E-03 7.41969E-05
 -1      2169-4.78936E-03 8.91862E-03 1.54718E-04
 -1      2170-5.52772E-03 6.44243E-03 2.21429E-04
 -1      2171-4.80556E-03 8.91141E-03 3.10384E-04
 -1      2172-5.54752E-03 6.43236E-03 3.69737E-04
 -1      2173-5.88444E-03 2.25860E-03-3.29856E-04
 -1      2174-5.86703E-03 4.22288E-03-2.80954E-04
 -1      2175-5.86738E-03 2.26902E-03-1.97191E-04
 -1      2176-5.85270E-03 4.23063E-03-1.39835E-04
 -1      2177-5.85882E-03 2.27433E-03-6.62355E-05
 -1      2178-5.84831E-03 4.23330E-03-8.18776E-14
 -1      2179-5.85882E-03 2.27433E-03 6.62355E-05
 -1      2180-5.85270E-03 4.23063E-03 1.39835E-04
 -1      2181-5.86738E-03 2.26902E-03 1.97191E-04
 -1      2182-5.86703E-03 4.22288E-03 2.80954E-04
 -1      2183-5.88444E-03 2.25860E-03 3.29856E-04
 -1      2184-5.11162E-03-7.40792E-04-2.84549E-04
 -1      2185-5.59682E-03 6.17735E-04-2.46914E-04
 -1      2186-5.09727E-03-7.30759E-04-1.69484E-04
 -1      2187-5.58437E-03 6.25522E-04-1.22623E-04
 -1      2188-5.09026E-03-7.25613E-04-5.71188E-05
 -1      2189-5.58072E-03 6.28163E-04-5.34933E-14
 -1      2190-5.09026E-03-7.25613E-04 5.71188E-05
 -1      2191-5.58437E-03 6.25522E-04 1.22623E-04
 -1      2192-5.09727E-03-7.30759E-04 1.69484E-04
 -1      2193-5.59682E-03 6.17735E-04 2.46914E-04
 -1      2194-5.11162E-03-7.40792E-04 2.84549E-04
 -1      2195-3.68389E-03-2.48625E-03-2.34439E-04
 -1      2196-4.44412E-03-1.75789E-03-2.08718E-04
 -1      2197-3.67186E-03-2.47734E-03-1.38474E-04
 -1      2198-4.43331E-03-1.75059E-03-1.03349E-04
 -1      2199-3.66649E-03-2.47276E-03-4.68470E-05
 -1      2200-4.43036E-03-1.74817E-03-3.05824E-14
 -1      2201-3.66649E-03-2.47276E-03 4.68470E-05
 -1      2202-4.43331E-03-1.75059E-03 1.03349E-04
 -1      2203-3.67186E-03-2.47734E-03 1.38474E-04
 -1      2204-4.44412E-03-1.75789E-03 2.08718E-04
 -1      2205-3.68389E-03-2.48625E-03 2.34439E-04
 -1      2206-2.04159E-03-3.02789E-03-1.79344E-04
 -1      2207-2.86024E-03-2.89097E-03-1.66527E-04
 -1      2208-2.03110E-03-3.02086E-03-1.03702E-04
 -1      2209-2.85057E-03-2.88464E-03-8.22137E-05
 -1      2210-2.02758E-03-3.01733E-03-3.51360E-05
 -1      2211-2.84810E-03-2.88263E-03-1.37180E-14
 -1      2212-2.02758E-03-3.01733E-03 3.51360E-05
 -1      2213-2.85057E-03-2.88464E-03 8.22137E-05
 -1      2214-2.03110E-03-3.02086E-03 1.03702E-04
 -1      2215-2.86024E-03-2.89097E-03 1.66527E-04
 -1      2216-2.04159E-03-3.02789E-03 1.79344E-04
 -1      2217-6.00621E-04-2.53711E-03-1.18672E-04
 -1      2218-1.27251E-03-2.89208E-03-1.18875E-04
 -1      2219-5.88892E-04-2.53271E-03-6.42363E-05
 -1      2220-1.26322E-03-2.88741E-03-5.87678E-05
 -1      2221-5.86985E-04-2.53111E-03-2.13981E-05
 -1      2222-1.26083E-03-2.88603E-03-3.14261E-15
 -1      2223-5.86985E-04-2.53111E-03 2.13981E-05
 -1      2224-1.26322E-03-2.88741E-03 5.87678E-05
 -1      2225-5.88892E-04-2.53271E-03 6.42363E-05
 -1      2226-1.27251E-03-2.89208E-03 1.18875E-04
 -1      2227-6.00621E-04-2.53711E-03 1.18672E-04
 -1      2228 2.61396E-04-1.32524E-03-5.48737E-05
 -1      2229-7.26379E-05-2.00336E-03-6.18681E-05
 -1      2230 2.78265E-04-1.32218E-03-2.27908E-05
 -1      2231-6.31649E-05-2.00111E-03-3.16701E-05
 -1      2232 2.81328E-04-1.32300E-03-6.49219E-06
 -1      2233-6.01999E-05-2.00053E-03 1.40597E-15
 -1      2234 2.81328E-04-1.32300E-03 6.49219E-06
 -1      2235-6.31649E-05-2.00111E-03 3.16701E-05
 -1      2236 2.78265E-04-1.32218E-03 2.27908E-05
 -1      2237-7.26379E-05-2.00336E-03 6.18681E-05
 -1      2238 2.61396E-04-1.32524E-03 5.48737E-05
 -1      2239 3.27185E-04-6.17538E-04 4.22381E-05
 -1      2240 3.29172E-04-6.27103E-04 1.85470E-05
 -1      2241 3.29769E-04-6.29776E-04 1.06190E-15
 -1      2242 3.29172E-04-6.27103E-04-1.85470E-05
 -1      2243 3.27185E-04-6.17538E-04-4.22381E-05
 -1      2244 0.00000E+00 0.00000E+00 0.00000E+00
 -1      2245 0.00000E+00 0.00000E+00 0.00000E+00
 -1      2246 0.00000E+00 0.00000E+00 0.00000E+00
 -1      2247 0.00000E+00 0.00000E+00 0.00000E+00
 -1      2248 0.00000E+00 0.00000E+00 0.00000E+00
 -1      2249 0.00000E+00 0.00000E+00 0.00000E+00
 -1      2250 0.00000E+00 0.00000E+00 0.00000E+00
 -1      2251 0.00000E+00 0.00000E+00 0.00000E+00
 -1      2252 0.00000E+00 0.00000E+00 0.00000E+00
 -1      2253 0.00000E+00 0.00000E+00 0.00000E+00
 -1      2254 0.00000E+00 0.00000E+00 0.00000E+00
 -1      2255 0.00000E+00 0.00000E+00 0.00000E+00
 -1      2256 0.00000E+00 0.00000E+00 0.00000E+00
 -1      2257 0.00000E+00 0.00000E+00 0.00000E+00
 -1      2258 0.00000E+00 0.00000E+00 0.00000E+00
 -1      2259 0.00000E+00 0.00000E+00 0.00000E+00
 -1      2260 0.00000E+00 0.00000E+00 0.00000E+00
 -1      2261 0.00000E+00 0.00000E+00 0.00000E+00
 -1      2262 0.00000E+00 0.00000E+00 0.00000E+00
 -1      2263 0.00000E+00 0.00000E+00 0.00000E+00
 -1      2264 0.00000E+00 0.00000E+00 0.00000E+00
 -1      2265 0.00000E+00 0.00000E+00 0.00000E+00
 -1      2266 0.00000E+00 0.00000E+00 0.00000E+00
 -1      2267 0.00000E+00 0.00000E+00 0.00000E+00
 -1      2268 0.00000E+00 0.00000E+00 0.00000E+00
 -1      2269 0.00000E+00 0.00000E+00 0.00000E+00
 -1      2270 0.00000E+00 0.00000E+00 0.00000E+00
 -1      2271 0.00000E+00 0.00000E+00 0.00000E+00
 -1      2272 0.00000E+00 0.00000E+00 0.00000E+00
 -1      2273 0.00000E+00 0.00000E+00 0.00000E+00
 -1      2274 0.00000E+00 0.00000E+00 0.00000E+00
 -1      2275 0.00000E+00 0.00000E+00 0.00000E+00
 -1      2276 0.00000E+00 0.00000E+00 0.00000E+00
 -1      2277 0.00000E+00 0.00000E+00 0.00000E+00
 -1      2278 0.00000E+00 0.00000E+00 0.00000E+00
 -1      2279 0.00000E+00 0.00000E+00 0.00000E+00
 -1      2280 0.00000E+00 0.00000E+00 0.00000E+00
 -1      2281 0.00000E+00 0.00000E+00 0.00000E+00
 -1      2282 0.00000E+00 0.00000E+00 0.00000E+00
 -1      2283 0.00000E+00 0.00000E+00 0.00000E+00
 -1      2284 0.00000E+00 0.00000E+00 0.00000E+00
 -1      2285 0.00000E+00 0.00000E+00 0.00000E+00
 -1      2286 0.00000E+00 0.00000E+00 0.00000E+00
 -1      2287 0.00000E+00 0.00000E+00 0.00000E+00
 -1      2288 0.00000E+00 0.00000E+00 0.00000E+00
 -1      2289 0.00000E+00 0.00000E+00 0.00000E+00
 -1      2290 0.00000E+00 0.00000E+00 0.00000E+00
 -1      2291 0.00000E+00 0.00000E+00 0.00000E+00
 -1      2292 0.00000E+00 0.00000E+00 0.00000E+00
 -1      2293 0.00000E+00 0.00000E+00 0.00000E+00
 -1      2294 0.00000E+00 0.00000E+00 0.00000E+00
 -1      2295 0.00000E+00 0.00000E+00 0.00000E+00
 -1      2296 0.00000E+00 0.00000E+00 0.00000E+00
 -1      2297 0.00000E+00 0.00000E+00 0.00000E+00
 -1      2298 0.00000E+00 0.00000E+00 0.00000E+00
 -1      2299 0.00000E+00 0.00000E+00 0.00000E+00
 -1      2300 0.00000E+00 0.00000E+00 0.00000E+00
 -1      2301 0.00000E+00 0.00000E+00 0.00000E+00
 -1      2302 0.00000E+00 0.00000E+00 0.00000E+00
 -1      2303 0.00000E+00 0.00000E+00 0.00000E+00
 -1      2304 0.00000E+00 0.00000E+00 0.00000E+00
 -1      2305 0.00000E+00 0.00000E+00 0.00000E+00
 -1      2306 0.00000E+00 0.00000E+00 0.00000E+00
 -1      2307 0.00000E+00 0.00000E+00 0.00000E+00
 -1      2308 0.00000E+00 0.00000E+00 0.00000E+00
 -1      2309 0.00000E+00 0.00000E+00 0.00000E+00
 -1      2310 0.00000E+00 0.00000E+00 0.00000E+00
 -1      2311 0.00000E+00 0.00000E+00 0.00000E+00
 -1      2312 0.00000E+00 0.00000E+00 0.00000E+00
 -1      2313 0.00000E+00 0.00000E+00 0.00000E+00
 -1      2314 0.00000E+00 0.00000E+00 0.00000E+00
 -1      2315 0.00000E+00 0.00000E+00 0.00000E+00
 -1      2316 0.00000E+00 0.00000E+00 0.00000E+00
 -1      2317 0.00000E+00 0.00000E+00 0.00000E+00
 -1      2318 0.00000E+00 0.00000E+00 0.00000E+00
 -1      2319 0.00000E+00 0.00000E+00 0.00000E+00
 -1      2320 0.00000E+00 0.00000E+00 0.00000E+00
 -1      2321 0.00000E+00 0.00000E+00 0.00000E+00
 -1      2322 0.00000E+00 0.00000E+00 0.00000E+00
 -1      2323 0.00000E+00 0.00000E+00 0.00000E+00
 -1      2324 0.00000E+00 0.00000E+00 0.00000E+00
 -1      2325 0.00000E+00 0.00000E+00 0.00000E+00
 -1      2326 0.00000E+00 0.00000E+00 0.00000E+00
 -1      2327 0.00000E+00 0.00000E+00 0.00000E+00
 -1      2328 0.00000E+00 0.00000E+00 0.00000E+00
 -1      2329 0.00000E+00 0.00000E+00 0.00000E+00
 -1      2330 0.00000E+00 0.00000E+00 0.00000E+00
 -1      2331 0.00000E+00 0.00000E+00 0.00000E+00
 -1      2332 0.00000E+00 0.00000E+00 0.00000E+00
 -1      2333 0.00000E+00 0.00000E+00 0.00000E+00
 -1      2334 0.00000E+00 0.00000E+00 0.00000E+00
 -1      2335 0.00000E+00 0.00000E+00 0.00000E+00
 -1      2336 0.00000E+00 0.00000E+00 0.00000E+00
 -1      2337 0.00000E+00 0.00000E+00 0.00000E+00
 -1      2338 0.00000E+00 0.00000E+00 0.00000E+00
 -1      2339 0.00000E+00 0.00000E+00 0.00000E+00
 -1      2340 0.00000E+00 0.00000E+00 0.00000E+00
 -1      2341 0.00000E+00 0.00000E+00 0.00000E+00
 -1      2342 0.00000E+00 0.00000E+00 0.00000E+00
 -1      2343 0.00000E+00 0.00000E+00 0.00000E+00
 -1      2344 0.00000E+00 0.00000E+00 0.00000E+00
 -1      2345 0.00000E+00 0.00000E+00 0.00000E+00
 -1      2346 0.00000E+00 0.00000E+00 0.00000E+00
 -1      2347 0.00000E+00 0.00000E+00 0.00000E+00
 -1      2348 0.00000E+00 0.00000E+00 0.00000E+00
 -1      2349 0.00000E+00 0.00000E+00 0.00000E+00
 -1      2350 0.00000E+00 0.00000E+00 0.00000E+00
 -1      2351 0.00000E+00 0.00000E+00 0.00000E+00
 -1      2352 0.00000E+00 0.00000E+00 0.00000E+00
 -1      2353 0.00000E+00 0.00000E+00 0.00000E+00
 -1      2354 0.00000E+00 0.00000E+00 0.00000E+00
 -1      2355 0.00000E+00 0.00000E+00 0.00000E+00
 -1      2356 0.00000E+00 0.00000E+00 0.00000E+00
 -1      2357 0.00000E+00 0.00000E+00 0.00000E+00
 -1      2358 0.00000E+00 0.00000E+00 0.00000E+00
 -1      2359 0.00000E+00 0.00000E+00 0.00000E+00
 -1      2360 0.00000E+00 0.00000E+00 0.00000E+00
 -1      2361 0.00000E+00 0.00000E+00 0.00000E+00
 -1      2362 0.00000E+00 0.00000E+00 0.00000E+00
 -1      2363 0.00000E+00 0.00000E+00 0.00000E+00
 -1      2364 0.00000E+00 0.00000E+00 0.00000E+00
 -1      2365 0.00000E+00 0.00000E+00 0.00000E+00
 -1      2366 0.00000E+00 0.00000E+00 0.00000E+00
 -1      2367 0.00000E+00 0.00000E+00 0.00000E+00
 -1      2368 0.00000E+00 0.00000E+00 0.00000E+00
 -1      2369 0.00000E+00 0.00000E+00 0.00000E+00
 -1      2370 0.00000E+00 0.00000E+00 0.00000E+00
 -1      2371 0.00000E+00 0.00000E+00 0.00000E+00
 -1      2372 0.00000E+00 0.00000E+00 0.00000E+00
 -1      2373 0.00000E+00 0.00000E+00 0.00000E+00
 -1      2374 0.00000E+00 0.00000E+00 0.00000E+00
 -1      2375 0.00000E+00 0.00000E+00 0.00000E+00
 -1      2376 0.00000E+00 0.00000E+00 0.00000E+00
 -1      2377 0.00000E+00 0.00000E+00 0.00000E+00
 -1      2378 0.00000E+00 0.00000E+00 0.00000E+00
 -1      2379 0.00000E+00 0.00000E+00 0.00000E+00
 -1      2380 0.00000E+00 0.00000E+00 0.00000E+00
 -1      2381 0.00000E+00 0.00000E+00 0.00000E+00
 -1      2382 0.00000E+00 0.00000E+00 0.00000E+00
 -1      2383 0.00000E+00 0.00000E+00 0.00000E+00
 -1      2384 0.00000E+00 0.00000E+00 0.00000E+00
 -1      2385 0.00000E+00 0.00000E+00 0.00000E+00
 -1      2386 0.00000E+00 0.00000E+00 0.00000E+00
 -1      2387 0.00000E+00 0.00000E+00 0.00000E+00
 -1      2388 0.00000E+00 0.00000E+00 0.00000E+00
 -1      2389 0.00000E+00 0.00000E+00 0.00000E+00
 -1      2390 0.00000E+00 0.00000E+00 0.00000E+00
 -1      2391 0.00000E+00 0.00000E+00 0.00000E+00
 -1      2392 0.00000E+00 0.00000E+00 0.00000E+00
 -1      2393 0.00000E+00 0.00000E+00 0.00000E+00
 -1      2394 0.00000E+00 0.00000E+00 0.00000E+00
 -1      2395 0.00000E+00 0.00000E+00 0.00000E+00
 -1      2396 0.00000E+00 0.00000E+00 0.00000E+00
 -1      2397 0.00000E+00 0.00000E+00 0.00000E+00
 -1      2398 0.00000E+00 0.00000E+00 0.00000E+00
 -1      2399 0.00000E+00 0.00000E+00 0.00000E+00
 -1      2400 0.00000E+00 0.00000E+00 0.00000E+00
 -1      2401 0.00000E+00 0.00000E+00 0.00000E+00
 -1      2402 0.00000E+00 0.00000E+00 0.00000E+00
 -1      2403 0.00000E+00 0.00000E+00 0.00000E+00
 -1      2404 0.00000E+00 0.00000E+00 0.00000E+00
 -1      2405 0.00000E+00 0.00000E+00 0.00000E+00
 -1      2406 0.00000E+00 0.00000E+00 0.00000E+00
 -1      2407 0.00000E+00 0.00000E+00 0.00000E+00
 -1      2408 0.00000E+00 0.00000E+00 0.00000E+00
 -1      2409 0.00000E+00 0.00000E+00 0.00000E+00
 -1      2410 0.00000E+00 0.00000E+00 0.00000E+00
 -1      2411 0.00000E+00 0.00000E+00 0.00000E+00
 -1      2412 0.00000E+00 0.00000E+00 0.00000E+00
 -1      2413 0.00000E+00 0.00000E+00 0.00000E+00
 -1      2414 0.00000E+00 0.00000E+00 0.00000E+00
 -1      2415 0.00000E+00 0.00000E+00 0.00000E+00
 -1      2416 0.00000E+00 0.00000E+00 0.00000E+00
 -1      2417 0.00000E+00 0.00000E+00 0.00000E+00
 -1      2418 0.00000E+00 0.00000E+00 0.00000E+00
 -1      2419 0.00000E+00 0.00000E+00 0.00000E+00
 -1      2420 0.00000E+00 0.00000E+00 0.00000E+00
 -1      2421 0.00000E+00 0.00000E+00 0.00000E+00
 -1      2422 0.00000E+00 0.00000E+00 0.00000E+00
 -1      2423 0.00000E+00 0.00000E+00 0.00000E+00
 -1      2424 0.00000E+00 0.00000E+00 0.00000E+00
 -1      2425 0.00000E+00 0.00000E+00 0.00000E+00
 -1      2426 0.00000E+00 0.00000E+00 0.00000E+00
 -1      2427 0.00000E+00 0.00000E+00 0.00000E+00
 -1      2428 0.00000E+00 0.00000E+00 0.00000E+00
 -1      2429 0.00000E+00 0.00000E+00 0.00000E+00
 -1      2430 0.00000E+00 0.00000E+00 0.00000E+00
 -1      2431 0.00000E+00 0.00000E+00 0.00000E+00
 -1      2432 0.00000E+00 0.00000E+00 0.00000E+00
 -1      2433 0.00000E+00 0.00000E+00 0.00000E+00
 -1      2434 0.00000E+00 0.00000E+00 0.00000E+00
 -1      2435 0.00000E+00 0.00000E+00 0.00000E+00
 -1      2436 0.00000E+00 0.00000E+00 0.00000E+00
 -1      2437 0.00000E+00 0.00000E+00 0.00000E+00
 -1      2438 0.00000E+00 0.00000E+00 0.00000E+00
 -1      2439 0.00000E+00 0.00000E+00 0.00000E+00
 -1      2440 0.00000E+00 0.00000E+00 0.00000E+00
 -1      2441 0.00000E+00 0.00000E+00 0.00000E+00
 -1      2442 0.00000E+00 0.00000E+00 0.00000E+00
 -1      2443 0.00000E+00 0.00000E+00 0.00000E+00
 -1      2444 0.00000E+00 0.00000E+00 0.00000E+00
 -1      2445 0.00000E+00 0.00000E+00 0.00000E+00
 -1      2446 0.00000E+00 0.00000E+00 0.00000E+00
 -1      2447 0.00000E+00 0.00000E+00 0.00000E+00
 -1      2448 0.00000E+00 0.00000E+00 0.00000E+00
 -1      2449 0.00000E+00 0.00000E+00 0.00000E+00
 -1      2450 0.00000E+00 0.00000E+00 0.00000E+00
 -1      2451 0.00000E+00 0.00000E+00 0.00000E+00
 -1      2452 0.00000E+00 0.00000E+00 0.00000E+00
 -1      2453 0.00000E+00 0.00000E+00 0.00000E+00
 -1      2454 0.00000E+00 0.00000E+00 0.00000E+00
 -1      2455 0.00000E+00 0.00000E+00 0.00000E+00
 -1      2456 0.00000E+00 0.00000E+00 0.00000E+00
 -1      2457 0.00000E+00 0.00000E+00 0.00000E+00
 -1      2458 0.00000E+00 0.00000E+00 0.00000E+00
 -1      2459 0.00000E+00 0.00000E+00 0.00000E+00
 -1      2460 0.00000E+00 0.00000E+00 0.00000E+00
 -1      2461 0.00000E+00 0.00000E+00 0.00000E+00
 -1      2462 0.00000E+00 0.00000E+00 0.00000E+00
 -1      2463 0.00000E+00 0.00000E+00 0.00000E+00
 -1      2464 0.00000E+00 0.00000E+00 0.00000E+00
 -1      2465 0.00000E+00 0.00000E+00 0.00000E+00
 -1      2466 0.00000E+00 0.00000E+00 0.00000E+00
 -1      2467 0.00000E+00 0.00000E+00 0.00000E+00
 -1      2468 0.00000E+00 0.00000E+00 0.00000E+00
 -1      2469 0.00000E+00 0.00000E+00 0.00000E+00
 -1      2470 0.00000E+00 0.00000E+00 0.00000E+00
 -1      2471 0.00000E+00 0.00000E+00 0.00000E+00
 -1      2472 0.00000E+00 0.00000E+00 0.00000E+00
 -1      2473 0.00000E+00 0.00000E+00 0.00000E+00
 -1      2474 0.00000E+00 0.00000E+00 0.00000E+00
 -1      2475 0.00000E+00 0.00000E+00 0.00000E+00
 -1      2476 0.00000E+00 0.00000E+00 0.00000E+00
 -1      2477 0.00000E+00 0.00000E+00 0.00000E+00
 -1      2478 0.00000E+00 0.00000E+00 0.00000E+00
 -1      2479 0.00000E+00 0.00000E+00 0.00000E+00
 -1      2480 0.00000E+00 0.00000E+00 0.00000E+00
 -1      2481 0.00000E+00 0.00000E+00 0.00000E+00
 -1      2482 0.00000E+00 0.00000E+00 0.00000E+00
 -1      2483 0.00000E+00 0.00000E+00 0.00000E+00
 -1      2484 0.00000E+00 0.00000E+00 0.00000E+00
 -1      2485 0.00000E+00 0.00000E+00 0.00000E+00
 -1      2486 0.00000E+00 0.00000E+00 0.00000E+00
 -1      2487 0.00000E+00 0.00000E+00 0.00000E+00
 -1      2488 0.00000E+00 0.00000E+00 0.00000E+00
 -1      2489 0.00000E+00 0.00000E+00 0.00000E+00
 -1      2490 0.00000E+00 0.00000E+00 0.00000E+00
 -1      2491 0.00000E+00 0.00000E+00 0.00000E+00
 -1      2492 0.00000E+00 0.00000E+00 0.00000E+00
 -1      2493 0.00000E+00 0.00000E+00 0.00000E+00
 -1      2494 0.00000E+00 0.00000E+00 0.00000E+00
 -1      2495 0.00000E+00 0.00000E+00 0.00000E+00
 -1      2496 0.00000E+00 0.00000E+00 0.00000E+00
 -1      2497 0.00000E+00 0.00000E+00 0.00000E+00
 -1      2498 0.00000E+00 0.00000E+00 0.00000E+00
 -1      2499 0.00000E+00 0.00000E+00 0.00000E+00
 -1      2500 0.00000E+00 0.00000E+00 0.00000E+00
 -1      2501 0.00000E+00 0.00000E+00 0.00000E+00
 -1      2502 0.00000E+00 0.00000E+00 0.00000E+00
 -1      2503 0.00000E+00 0.00000E+00 0.00000E+00
 -1      2504 0.00000E+00 0.00000E+00 0.00000E+00
 -1      2505 0.00000E+00 0.00000E+00 0.00000E+00
 -1      2506 0.00000E+00 0.00000E+00 0.00000E+00
 -1      2507 0.00000E+00 0.00000E+00 0.00000E+00
 -1      2508 0.00000E+00 0.00000E+00 0.00000E+00
 -1      2509 0.00000E+00 0.00000E+00 0.00000E+00
 -1      2510 0.00000E+00 0.00000E+00 0.00000E+00
 -1      2511 0.00000E+00 0.00000E+00 0.00000E+00
 -1      2512 0.00000E+00 0.00000E+00 0.00000E+00
 -1      2513 0.00000E+00 0.00000E+00 0.00000E+00
 -1      2514 0.00000E+00 0.00000E+00 0.00000E+00
 -1      2515 0.00000E+00 0.00000E+00 0.00000E+00
 -1      2516 0.00000E+00 0.00000E+00 0.00000E+00
 -1      2517 0.00000E+00 0.00000E+00 0.00000E+00
 -1      2518 0.00000E+00 0.00000E+00 0.00000E+00
 -1      2519 0.00000E+00 0.00000E+00 0.00000E+00
 -1      2520 0.00000E+00 0.00000E+00 0.00000E+00
 -1      2521 5.23494E-02-1.14434E-01 1.37972E-03
 -1      2522 5.20105E-02-1.15369E-01 2.08337E-04
 -1      2523 5.19820E-02-1.15278E-01-1.10228E-13
 -1      2524 5.20105E-02-1.15369E-01-2.08337E-04
 -1      2525 5.23494E-02-1.14434E-01-1.37972E-03
 -1      2526 5.36660E-02-1.00127E-01 1.08360E-03
 -1      2527 5.36045E-02-1.00601E-01 4.82703E-04
 -1      2528 5.35730E-02-1.00568E-01-1.21465E-13
 -1      2529 5.36045E-02-1.00601E-01-4.82703E-04
 -1      2530 5.36660E-02-1.00127E-01-1.08360E-03
 -1      2531 5.38348E-02-8.86779E-02 9.23706E-04
 -1      2532 5.38619E-02-8.88790E-02 4.71668E-04
 -1      2533 5.38422E-02-8.88962E-02-1.27725E-13
 -1      2534 5.38619E-02-8.88790E-02-4.71668E-04
 -1      2535 5.38348E-02-8.86779E-02-9.23706E-04
 -1      2536 5.21974E-02-7.90619E-02 8.03635E-04
 -1      2537 5.22312E-02-7.91566E-02 4.12276E-04
 -1      2538 5.22292E-02-7.91696E-02-1.33852E-13
 -1      2539 5.22312E-02-7.91566E-02-4.12276E-04
 -1      2540 5.21974E-02-7.90619E-02-8.03635E-04
 -1      2541 4.96376E-02-7.02145E-02 8.07232E-04
 -1      2542 4.96651E-02-7.02755E-02 4.08989E-04
 -1      2543 4.96686E-02-7.02910E-02-1.37640E-13
 -1      2544 4.96651E-02-7.02755E-02-4.08989E-04
 -1      2545 4.96376E-02-7.02145E-02-8.07232E-04
 -1      2546 4.63607E-02-6.21106E-02 8.49956E-04
 -1      2547 4.63885E-02-6.21611E-02 4.27022E-04
 -1      2548 4.63956E-02-6.21760E-02-1.39971E-13
 -1      2549 4.63885E-02-6.21611E-02-4.27022E-04
 -1      2550 4.63607E-02-6.21106E-02-8.49956E-04
 -1      2551 4.25862E-02-5.46999E-02 9.10212E-04
 -1      2552 4.26197E-02-5.47457E-02 4.55746E-04
 -1      2553 4.26301E-02-5.47602E-02-1.39645E-13
 -1      2554 4.26197E-02-5.47457E-02-4.55746E-04
 -1      2555 4.25862E-02-5.46999E-02-9.10212E-04
 -1      2556 3.84807E-02-4.79809E-02 9.71801E-04
 -1      2557 3.85226E-02-4.80218E-02 4.85845E-04
 -1      2558 3.85362E-02-4.80349E-02-1.38091E-13
 -1      2559 3.85226E-02-4.80218E-02-4.85845E-04
 -1      2560 3.84807E-02-4.79809E-02-9.71801E-04
 -1      2561 3.41939E-02-4.19460E-02 1.02652E-03
 -1      2562 3.42445E-02-4.19797E-02 5.12902E-04
 -1      2563 3.42610E-02-4.19905E-02-1.34392E-13
 -1      2564 3.42445E-02-4.19797E-02-5.12902E-04
 -1      2565 3.41939E-02-4.19460E-02-1.02652E-03
 -1      2566 2.98582E-02-3.65759E-02 1.06900E-03
 -1      2567 2.99163E-02-3.66001E-02 5.33990E-04
 -1      2568 2.99352E-02-3.66078E-02-1.28224E-13
 -1      2569 2.99163E-02-3.66001E-02-5.33990E-04
 -1      2570 2.98582E-02-3.65759E-02-1.06900E-03
 -1      2571 2.55904E-02-3.18363E-02 1.09593E-03
 -1      2572 2.56535E-02-3.18489E-02 5.47386E-04
 -1      2573 2.56741E-02-3.18529E-02-1.20283E-13
 -1      2574 2.56535E-02-3.18489E-02-5.47386E-04
 -1      2575 2.55904E-02-3.18363E-02-1.09593E-03
 -1      2576 2.14902E-02-2.76780E-02 1.10538E-03
 -1      2577 2.15552E-02-2.76778E-02 5.52082E-04
 -1      2578 2.15763E-02-2.76777E-02-1.11161E-13
 -1      2579 2.15552E-02-2.76778E-02-5.52082E-04
 -1      2580 2.14902E-02-2.76780E-02-1.10538E-03
 -1      2581 1.76388E-02-2.40394E-02 1.09641E-03
 -1      2582 1.77022E-02-2.40262E-02 5.47591E-04
 -1      2583 1.77229E-02-2.40220E-02-1.01192E-13
 -1      2584 1.77022E-02-2.40262E-02-5.47591E-04
 -1      2585 1.76388E-02-2.40394E-02-1.09641E-03
 -1      2586 1.40985E-02-2.08505E-02 1.06878E-03
 -1      2587 1.41571E-02-2.08250E-02 5.33792E-04
 -1      2588 1.41761E-02-2.08169E-02-8.98452E-14
 -1      2589 1.41571E-02-2.08250E-02-5.33792E-04
 -1      2590 1.40985E-02-2.08505E-02-1.06878E-03
 -1      2591 1.09127E-02-1.80365E-02 1.02280E-03
 -1      2592 1.09633E-02-1.80005E-02 5.10834E-04
 -1      2593 1.09798E-02-1.79889E-02-7.76920E-14
 -1      2594 1.09633E-02-1.80005E-02-5.10834E-04
 -1      2595 1.09127E-02-1.80365E-02-1.02280E-03
 -1      2596 8.10689E-03-1.55228E-02 9.59165E-04
 -1      2597 8.14697E-03-1.54785E-02 4.79060E-04
 -1      2598 8.16012E-03-1.54643E-02-6.54245E-14
 -1      2599 8.14697E-03-1.54785E-02-4.79060E-04
 -1      2600 8.10689E-03-1.55228E-02-9.59165E-04
 -1      2601 5.69097E-03-1.32382E-02 8.78783E-04
 -1      2602 5.71871E-03-1.31886E-02 4.38937E-04
 -1      2603 5.72789E-03-1.31727E-02-5.61675E-14
 -1      2604 5.71871E-03-1.31886E-02-4.38937E-04
 -1      2605 5.69097E-03-1.32382E-02-8.78783E-04
 -1      2606 3.66238E-03-1.11184E-02 7.82574E-04
 -1      2607 3.67669E-03-1.10667E-02 3.90941E-04
 -1      2608 3.68152E-03-1.10502E-02-4.47717E-14
 -1      2609 3.67669E-03-1.10667E-02-3.90941E-04
 -1      2610 3.66238E-03-1.11184E-02-7.82574E-04
 -1      2611 2.01080E-03-9.10861E-03 6.70952E-04
 -1      2612 2.01119E-03-9.05837E-03 3.35319E-04
 -1      2613 2.01146E-03-9.04232E-03-3.22841E-14
 -1      2614 2.01119E-03-9.05837E-03-3.35319E-04
 -1      2615 2.01080E-03-9.10861E-03-6.70952E-04
 -1      2616 7.23728E-04-7.16337E-03 5.42776E-04
 -1      2617 7.10429E-04-7.11829E-03 2.71599E-04
 -1      2618 7.06114E-04-7.10404E-03-2.28338E-14
 -1      2619 7.10429E-04-7.11829E-03-2.71599E-04
 -1      2620 7.23728E-04-7.16337E-03-5.42776E-04
 -1      2621-2.01481E-04-5.25371E-03 3.92601E-04
 -1      2622-2.27339E-04-5.21949E-03 1.97175E-04
 -1      2623-2.35854E-04-5.20903E-03-1.33625E-14
 -1      2624-2.27339E-04-5.21949E-03-1.97175E-04
 -1      2625-2.01481E-04-5.25371E-03-3.92601E-04
 -1      2626-7.45061E-04-3.35956E-03 2.10352E-04
 -1      2627-7.76313E-04-3.34259E-03 1.07761E-04
 -1      2628-7.87130E-04-3.33814E-03-5.68575E-15
 -1      2629-7.76313E-04-3.34259E-03-1.07761E-04
 -1      2630-7.45061E-04-3.35956E-03-2.10352E-04
 -1      2631-8.29902E-04-1.52392E-03-5.00349E-06
 -1      2632-8.43466E-04-1.53838E-03 3.97276E-06
 -1      2633-8.48102E-04-1.54190E-03-4.84196E-15
 -1      2634-8.43466E-04-1.53838E-03-3.97276E-06
 -1      2635-8.29902E-04-1.52392E-03 5.00349E-06
 -1      2636 4.57188E-02-1.23877E-01-1.54498E-03
 -1      2637 5.31363E-02-1.15419E-01 2.36471E-03
 -1      2638 4.58845E-02-1.23336E-01-6.99429E-04
 -1      2639 5.20801E-02-1.15356E-01 6.89753E-04
 -1      2640 4.59214E-02-1.23318E-01-1.16721E-13
 -1      2641 5.19770E-02-1.15702E-01 7.02438E-05
 -1      2642 4.58845E-02-1.23336E-01 6.99429E-04
 -1      2643 5.19770E-02-1.15702E-01-7.02438E-05
 -1      2644 4.57188E-02-1.23877E-01 1.54498E-03
 -1      2645 5.20801E-02-1.15356E-01-6.89753E-04
 -1      2646 5.31363E-02-1.15419E-01-2.36471E-03
 -1      2647 5.36231E-02-1.06399E-01 1.19633E-03
 -1      2648 5.37096E-02-1.00104E-01 1.36895E-03
 -1      2649 5.32932E-02-1.06518E-01 6.28868E-04
 -1      2650 5.36647E-02-1.00265E-01 8.14710E-04
 -1      2651 5.31652E-02-1.06706E-01-1.10117E-13
 -1      2652 5.35744E-02-1.00509E-01 2.48543E-04
 -1      2653 5.32932E-02-1.06518E-01-6.28868E-04
 -1      2654 5.35744E-02-1.00509E-01-2.48543E-04
 -1      2655 5.36231E-02-1.06399E-01-1.19633E-03
 -1      2656 5.36647E-02-1.00265E-01-8.14710E-04
 -1      2657 5.37096E-02-1.00104E-01-1.36895E-03
 -1      2658 5.39650E-02-9.40275E-02 1.03351E-03
 -1      2659 5.38530E-02-8.86819E-02 1.21700E-03
 -1      2660 5.39063E-02-9.41772E-02 5.22474E-04
 -1      2661 5.38470E-02-8.88209E-02 6.91546E-04
 -1      2662 5.38862E-02-9.42613E-02-1.23305E-13
 -1      2663 5.38499E-02-8.89255E-02 2.34165E-04
 -1      2664 5.39063E-02-9.41772E-02-5.22474E-04
 -1      2665 5.38499E-02-8.89255E-02-2.34165E-04
 -1      2666 5.39650E-02-9.40275E-02-1.03351E-03
 -1      2667 5.38470E-02-8.88209E-02-6.91546E-04
 -1      2668 5.38530E-02-8.86819E-02-1.21700E-03
 -1      2669 5.32026E-02-8.37779E-02 8.65979E-04
 -1      2670 5.21833E-02-7.90249E-02 1.01426E-03
 -1      2671 5.32025E-02-8.38579E-02 4.34177E-04
 -1      2672 5.22194E-02-7.91045E-02 6.11724E-04
 -1      2673 5.32078E-02-8.39022E-02-1.29795E-13
 -1      2674 5.22326E-02-7.91617E-02 2.07315E-04
 -1      2675 5.32025E-02-8.38579E-02-4.34177E-04
 -1      2676 5.22326E-02-7.91617E-02-2.07315E-04
 -1      2677 5.32026E-02-8.37779E-02-8.65979E-04
 -1      2678 5.22194E-02-7.91045E-02-6.11724E-04
 -1      2679 5.21833E-02-7.90249E-02-1.01426E-03
 -1      2680 5.10227E-02-7.45485E-02 8.08416E-04
 -1      2681 4.96234E-02-7.01832E-02 1.01655E-03
 -1      2682 5.10416E-02-7.46058E-02 4.03110E-04
 -1      2683 4.96529E-02-7.02520E-02 6.07596E-04
 -1      2684 5.10503E-02-7.46292E-02-1.35430E-13
 -1      2685 4.96684E-02-7.02899E-02 2.04394E-04
 -1      2686 5.10416E-02-7.46058E-02-4.03110E-04
 -1      2687 4.96684E-02-7.02899E-02-2.04394E-04
 -1      2688 5.10227E-02-7.45485E-02-8.08416E-04
 -1      2689 4.96529E-02-7.02520E-02-6.07596E-04
 -1      2690 4.96234E-02-7.01832E-02-1.01655E-03
 -1      2691 4.80783E-02-6.60787E-02 8.29477E-04
 -1      2692 4.63428E-02-6.20750E-02 1.06486E-03
 -1      2693 4.81000E-02-6.61282E-02 4.14006E-04
 -1      2694 4.63768E-02-6.21393E-02 6.38817E-04
 -1      2695 4.81088E-02-6.61460E-02-1.38903E-13
 -1      2696 4.63943E-02-6.21719E-02 2.13612E-04
 -1      2697 4.81000E-02-6.61282E-02-4.14006E-04
 -1      2698 4.63943E-02-6.21719E-02-2.13612E-04
 -1      2699 4.80783E-02-6.60787E-02-8.29477E-04
 -1      2700 4.63768E-02-6.21393E-02-6.38817E-04
 -1      2701 4.63428E-02-6.20750E-02-1.06486E-03
 -1      2702 4.45263E-02-5.83214E-02 8.80974E-04
 -1      2703 4.25623E-02-5.46655E-02 1.13922E-03
 -1      2704 4.45547E-02-5.83679E-02 4.39926E-04
 -1      2705 4.26056E-02-5.47271E-02 6.82909E-04
 -1      2706 4.45648E-02-5.83834E-02-1.40009E-13
 -1      2707 4.26275E-02-5.47569E-02 2.27847E-04
 -1      2708 4.45547E-02-5.83679E-02-4.39926E-04
 -1      2709 4.26275E-02-5.47569E-02-2.27847E-04
 -1      2710 4.45263E-02-5.83214E-02-8.80974E-04
 -1      2711 4.26056E-02-5.47271E-02-6.82909E-04
 -1      2712 4.25623E-02-5.46655E-02-1.13922E-03
 -1      2713 4.05664E-02-5.12562E-02 9.42143E-04
 -1      2714 3.84495E-02-4.79490E-02 1.21576E-03
 -1      2715 4.06032E-02-5.12994E-02 4.70575E-04
 -1      2716 3.85052E-02-4.80051E-02 7.28791E-04
 -1      2717 4.06157E-02-5.13134E-02-1.38931E-13
 -1      2718 3.85328E-02-4.80316E-02 2.42896E-04
 -1      2719 4.06032E-02-5.12994E-02-4.70575E-04
 -1      2720 3.85328E-02-4.80316E-02-2.42896E-04
 -1      2721 4.05664E-02-5.12562E-02-9.42143E-04
 -1      2722 3.85052E-02-4.80051E-02-7.28791E-04
 -1      2723 3.84495E-02-4.79490E-02-1.21576E-03
 -1      2724 3.63526E-02-4.48805E-02 1.00071E-03
 -1      2725 3.41554E-02-4.19193E-02 1.28411E-03
 -1      2726 3.63987E-02-4.49180E-02 4.99829E-04
 -1      2727 3.42235E-02-4.19660E-02 7.69631E-04
 -1      2728 3.64139E-02-4.49301E-02-1.36683E-13
 -1      2729 3.42569E-02-4.19879E-02 2.56405E-04
 -1      2730 3.63987E-02-4.49180E-02-4.99829E-04
 -1      2731 3.42569E-02-4.19879E-02-2.56405E-04
 -1      2732 3.63526E-02-4.48805E-02-1.00071E-03
 -1      2733 3.42235E-02-4.19660E-02-7.69631E-04
 -1      2734 3.41554E-02-4.19193E-02-1.28411E-03
 -1      2735 3.20258E-02-3.91809E-02 1.04968E-03
 -1      2736 2.98136E-02-3.65567E-02 1.33724E-03
 -1      2737 3.20804E-02-3.92101E-02 5.24264E-04
 -1      2738 2.98923E-02-3.65902E-02 8.01405E-04
 -1      2739 3.20983E-02-3.92195E-02-1.31549E-13
 -1      2740 2.99305E-02-3.66059E-02 2.66942E-04
 -1      2741 3.20804E-02-3.92101E-02-5.24264E-04
 -1      2742 2.99305E-02-3.66059E-02-2.66942E-04
 -1      2743 3.20258E-02-3.91809E-02-1.04968E-03
 -1      2744 2.98923E-02-3.65902E-02-8.01405E-04
 -1      2745 2.98136E-02-3.65567E-02-1.33724E-03
 -1      2746 2.77107E-02-3.41308E-02 1.08464E-03
 -1      2747 2.55418E-02-3.18263E-02 1.37093E-03
 -1      2748 2.77717E-02-3.41494E-02 5.41706E-04
 -1      2749 2.56275E-02-3.18438E-02 8.21559E-04
 -1      2750 2.77916E-02-3.41553E-02-1.24321E-13
 -1      2751 2.56689E-02-3.18519E-02 2.73636E-04
 -1      2752 2.77717E-02-3.41494E-02-5.41706E-04
 -1      2753 2.56689E-02-3.18519E-02-2.73636E-04
 -1      2754 2.77107E-02-3.41308E-02-1.08464E-03
 -1      2755 2.56275E-02-3.18438E-02-8.21559E-04
 -1      2756 2.55418E-02-3.18263E-02-1.37093E-03
 -1      2757 2.35155E-02-2.96883E-02 1.10298E-03
 -1      2758 2.14401E-02-2.76781E-02 1.38276E-03
 -1      2759 2.35800E-02-2.96946E-02 5.50855E-04
 -1      2760 2.15284E-02-2.76779E-02 8.28629E-04
 -1      2761 2.36010E-02-2.96966E-02-1.15758E-13
 -1      2762 2.15710E-02-2.76777E-02 2.75982E-04
 -1      2763 2.35800E-02-2.96946E-02-5.50855E-04
 -1      2764 2.15710E-02-2.76777E-02-2.75982E-04
 -1      2765 2.35155E-02-2.96883E-02-1.10298E-03
 -1      2766 2.15284E-02-2.76779E-02-8.28629E-04
 -1      2767 2.14401E-02-2.76781E-02-1.38276E-03
 -1      2768 1.95307E-02-2.57976E-02 1.10328E-03
 -1      2769 1.75899E-02-2.40498E-02 1.37154E-03
 -1      2770 1.95953E-02-2.57909E-02 5.50997E-04
 -1      2771 1.76761E-02-2.40316E-02 8.21896E-04
 -1      2772 1.96164E-02-2.57887E-02-1.06296E-13
 -1      2773 1.77178E-02-2.40230E-02 2.73736E-04
 -1      2774 1.95953E-02-2.57909E-02-5.50997E-04
 -1      2775 1.77178E-02-2.40230E-02-2.73736E-04
 -1      2776 1.95307E-02-2.57976E-02-1.10328E-03
 -1      2777 1.76761E-02-2.40316E-02-8.21896E-04
 -1      2778 1.75899E-02-2.40498E-02-1.37154E-03
 -1      2779 1.58281E-02-2.23924E-02 1.08497E-03
 -1      2780 1.40535E-02-2.08706E-02 1.33698E-03
 -1      2781 1.58895E-02-2.23730E-02 5.41849E-04
 -1      2782 1.41329E-02-2.08354E-02 8.01185E-04
 -1      2783 1.59095E-02-2.23667E-02-9.57847E-14
 -1      2784 1.41714E-02-2.08189E-02 2.66838E-04
 -1      2785 1.58895E-02-2.23730E-02-5.41849E-04
 -1      2786 1.41714E-02-2.08189E-02-2.66838E-04
 -1      2787 1.58281E-02-2.23924E-02-1.08497E-03
 -1      2788 1.41329E-02-2.08354E-02-8.01185E-04
 -1      2789 1.40535E-02-2.08706E-02-1.33698E-03
 -1      2790 1.24605E-02-1.93999E-02 1.04810E-03
 -1      2791 1.08740E-02-1.80650E-02 1.27948E-03
 -1      2792 1.25154E-02-1.93689E-02 5.23436E-04
 -1      2793 1.09424E-02-1.80151E-02 7.66723E-04
 -1      2794 1.25333E-02-1.93590E-02-8.41363E-14
 -1      2795 1.09757E-02-1.79917E-02 2.55362E-04
 -1      2796 1.25154E-02-1.93689E-02-5.23436E-04
 -1      2797 1.09757E-02-1.79917E-02-2.55362E-04
 -1      2798 1.24605E-02-1.93999E-02-1.04810E-03
 -1      2799 1.09424E-02-1.80151E-02-7.66723E-04
 -1      2800 1.08740E-02-1.80650E-02-1.27948E-03
 -1      2801 9.46206E-03-1.67448E-02 9.93200E-04
 -1      2802 8.07649E-03-1.55578E-02 1.19988E-03
 -1      2803 9.50767E-03-1.67043E-02 4.96013E-04
 -1      2804 8.13032E-03-1.54965E-02 7.19024E-04
 -1      2805 9.52262E-03-1.66913E-02-7.16461E-14
 -1      2806 8.15680E-03-1.54678E-02 2.39478E-04
 -1      2807 9.50767E-03-1.67043E-02-4.96013E-04
 -1      2808 8.15680E-03-1.54678E-02-2.39478E-04
 -1      2809 9.46206E-03-1.67448E-02-9.93200E-04
 -1      2810 8.13032E-03-1.54965E-02-7.19024E-04
 -1      2811 8.07649E-03-1.55578E-02-1.19988E-03
 -1      2812 6.85027E-03-1.43538E-02 9.21089E-04
 -1      2813 5.67032E-03-1.32774E-02 1.09938E-03
 -1      2814 6.88438E-03-1.43065E-02 4.59989E-04
 -1      2815 5.70707E-03-1.32088E-02 6.58779E-04
 -1      2816 6.89564E-03-1.42913E-02-6.00753E-14
 -1      2817 5.72554E-03-1.31766E-02 2.19421E-04
 -1      2818 6.88438E-03-1.43065E-02-4.59989E-04
 -1      2819 5.72554E-03-1.31766E-02-2.19421E-04
 -1      2820 6.85027E-03-1.43538E-02-9.21089E-04
 -1      2821 5.70707E-03-1.32088E-02-6.58779E-04
 -1      2822 5.67032E-03-1.32774E-02-1.09938E-03
 -1      2823 4.62831E-03-1.21590E-02 8.32755E-04
 -1      2824 3.65240E-03-1.11593E-02 9.79163E-04
 -1      2825 4.64942E-03-1.21079E-02 4.15842E-04
 -1      2826 3.67052E-03-1.10877E-02 5.86678E-04
 -1      2827 4.65652E-03-1.20916E-02-5.10917E-14
 -1      2828 3.68023E-03-1.10542E-02 1.95425E-04
 -1      2829 4.64942E-03-1.21079E-02-4.15842E-04
 -1      2830 3.68023E-03-1.10542E-02-1.95425E-04
 -1      2831 4.62831E-03-1.21590E-02-8.32755E-04
 -1      2832 3.67052E-03-1.10877E-02-5.86678E-04
 -1      2833 3.65240E-03-1.11593E-02-9.79163E-04
 -1      2834 2.78912E-03-1.01003E-02 7.29019E-04
 -1      2835 2.01181E-03-9.14839E-03 8.39875E-04
 -1      2836 2.79643E-03-1.00489E-02 3.63952E-04
 -1      2837 2.01068E-03-9.07878E-03 5.03073E-04
 -1      2838 2.79913E-03-1.00325E-02-3.84173E-14
 -1      2839 2.01133E-03-9.04623E-03 1.67623E-04
 -1      2840 2.79643E-03-1.00489E-02-3.63952E-04
 -1      2841 2.01133E-03-9.04623E-03-1.67623E-04
 -1      2842 2.78912E-03-1.01003E-02-7.29019E-04
 -1      2843 2.01068E-03-9.07878E-03-5.03073E-04
 -1      2844 2.01181E-03-9.14839E-03-8.39875E-04
 -1      2845 1.32034E-03-8.12802E-03 6.09846E-04
 -1      2846 7.36162E-04-7.19897E-03 6.80576E-04
 -1      2847 1.31362E-03-8.07998E-03 3.04199E-04
 -1      2848 7.15401E-04-7.13650E-03 4.07016E-04
 -1      2849 1.31189E-03-8.06466E-03-2.84116E-14
 -1      2850 7.07053E-04-7.10746E-03 1.35717E-04
 -1      2851 1.31362E-03-8.07998E-03-3.04199E-04
 -1      2852 7.07053E-04-7.10746E-03-1.35717E-04
 -1      2853 1.32034E-03-8.12802E-03-6.09846E-04
 -1      2854 7.15401E-04-7.13650E-03-4.07016E-04
 -1      2855 7.36162E-04-7.19897E-03-6.80576E-04
 -1      2856 2.12217E-04-6.20341E-03 4.72969E-04
 -1      2857-1.78420E-04-5.28138E-03 4.95172E-04
 -1      2858 1.91675E-04-6.16319E-03 2.35235E-04
 -1      2859-2.17382E-04-5.23330E-03 2.94892E-04
 -1      2860 1.85796E-04-6.15047E-03-1.91807E-14
 -1      2861-2.33661E-04-5.21151E-03 9.85757E-05
 -1      2862 1.91675E-04-6.16319E-03-2.35235E-04
 -1      2863-2.33661E-04-5.21151E-03-9.85757E-05
 -1      2864 2.12217E-04-6.20341E-03-4.72969E-04
 -1      2865-2.17382E-04-5.23330E-03-2.94892E-04
 -1      2866-1.78420E-04-5.28138E-03-4.95172E-04
 -1      2867-5.25973E-04-4.30480E-03 3.10154E-04
 -1      2868-7.11633E-04-3.37074E-03 2.73967E-04
 -1      2869-5.57659E-04-4.27907E-03 1.52537E-04
 -1      2870-7.65703E-04-3.34881E-03 1.57589E-04
 -1      2871-5.66258E-04-4.27112E-03-1.12313E-14
 -1      2872-7.84808E-04-3.33907E-03 5.33270E-05
 -1      2873-5.57659E-04-4.27907E-03-1.52537E-04
 -1      2874-7.84808E-04-3.33907E-03-5.33270E-05
 -1      2875-5.25973E-04-4.30480E-03-3.10154E-04
 -1      2876-7.65703E-04-3.34881E-03-1.57589E-04
 -1      2877-7.11633E-04-3.37074E-03-2.73967E-04
 -1      2878-8.68321E-04-2.44250E-03 1.15265E-04
 -1      2879-8.01162E-04-1.51301E-03 1.35289E-05
 -1      2880-9.01188E-04-2.44283E-03 5.31961E-05
 -1      2881-8.39586E-04-1.53375E-03 1.98405E-06
 -1      2882-9.07926E-04-2.44279E-03-3.77229E-15
 -1      2883-8.46827E-04-1.54128E-03 2.94359E-06
 -1      2884-9.01188E-04-2.44283E-03-5.31961E-05
 -1      2885-8.46827E-04-1.54128E-03-2.94359E-06
 -1      2886-8.68321E-04-2.44250E-03-1.15265E-04
 -1      2887-8.39586E-04-1.53375E-03-1.98405E-06
 -1      2888-8.01162E-04-1.51301E-03-1.35289E-05
 -1      2889-5.11506E-04-7.01947E-04-6.24519E-05
 -1      2890-5.25392E-04-7.18674E-04-1.96841E-05
 -1      2891-5.28998E-04-7.22137E-04-3.62674E-15
 -1      2892-5.25392E-04-7.18674E-04 1.96841E-05
 -1      2893-5.11506E-04-7.01947E-04 6.24519E-05
 -1      2894 6.69924E-02-1.08967E-01 1.36363E-04
 -1      2895 6.36554E-02-9.60314E-02-6.33105E-04
 -1      2896 6.15216E-02-8.47614E-02-9.29629E-04
 -1      2897 5.85887E-02-7.46725E-02-9.45190E-04
 -1      2898 5.49546E-02-6.53890E-02-1.01334E-03
 -1      2899 5.06342E-02-5.69526E-02-1.08807E-03
 -1      2900 4.58207E-02-4.93828E-02-1.17227E-03
 -1      2901 4.06997E-02-4.27017E-02-1.25233E-03
 -1      2902 3.54604E-02-3.69030E-02-1.32176E-03
 -1      2903 3.02775E-02-3.19503E-02-1.37494E-03
 -1      2904 2.53050E-02-2.77775E-02-1.40826E-03
 -1      2905 2.06701E-02-2.42938E-02-1.41942E-03
 -1      2906 1.64694E-02-2.13900E-02-1.40720E-03
 -1      2907 1.27673E-02-1.89471E-02-1.37126E-03
 -1      2908 9.59675E-03-1.68433E-02-1.31189E-03
 -1      2909 6.96122E-03-1.49625E-02-1.22987E-03
 -1      2910 4.83918E-03-1.32000E-02-1.12632E-03
 -1      2911 3.18986E-03-1.14682E-02-1.00242E-03
 -1      2912 1.96013E-03-9.69930E-03-8.58997E-04
 -1      2913 1.09313E-03-7.84642E-03-6.96086E-04
 -1      2914 5.30879E-04-5.88279E-03-5.10702E-04
 -1      2915 2.29755E-04-3.81248E-03-3.02018E-04
 -1      2916 7.50424E-05-1.70307E-03-7.18120E-05
 -1      2917 7.68246E-02-1.09709E-01 7.30522E-04
 -1      2918 7.32758E-02-9.43843E-02-1.86580E-04
 -1      2919 6.93427E-02-8.18214E-02-5.71028E-04
 -1      2920 6.51300E-02-7.08974E-02-7.23219E-04
 -1      2921 6.03647E-02-6.10911E-02-8.27075E-04
 -1      2922 5.50230E-02-5.23087E-02-9.13987E-04
 -1      2923 4.92381E-02-4.45654E-02-9.93354E-04
 -1      2924 4.31938E-02-3.78802E-02-1.06393E-03
 -1      2925 3.70964E-02-3.22418E-02-1.12292E-03
 -1      2926 3.11461E-02-2.75992E-02-1.16731E-03
 -1      2927 2.55219E-02-2.38623E-02-1.19470E-03
 -1      2928 2.03709E-02-2.09086E-02-1.20340E-03
 -1      2929 1.58016E-02-1.85928E-02-1.19248E-03
 -1      2930 1.18810E-02-1.67577E-02-1.16161E-03
 -1      2931 8.63488E-03-1.52447E-02-1.11097E-03
 -1      2932 6.05045E-03-1.39043E-02-1.04119E-03
 -1      2933 4.08222E-03-1.26048E-02-9.53141E-04
 -1      2934 2.65905E-03-1.12391E-02-8.47887E-04
 -1      2935 1.69218E-03-9.72849E-03-7.26481E-04
 -1      2936 1.08325E-03-8.02517E-03-5.89952E-04
 -1      2937 7.26266E-04-6.11429E-03-4.39808E-04
 -1      2938 5.09259E-04-4.02341E-03-2.81229E-04
 -1      2939 2.93200E-04-1.87634E-03-1.31793E-04
 -1      2940 8.41025E-02-1.07079E-01 8.27513E-04
 -1      2941 8.09460E-02-9.21543E-02 7.37279E-05
 -1      2942 7.65288E-02-7.90288E-02-3.28219E-04
 -1      2943 7.14209E-02-6.74443E-02-5.35690E-04
 -1      2944 6.56988E-02-5.71153E-02-6.63978E-04
 -1      2945 5.94219E-02-4.79736E-02-7.57466E-04
 -1      2946 5.27291E-02-4.00333E-02-8.33344E-04
 -1      2947 4.58184E-02-3.33102E-02-8.96445E-04
 -1      2948 3.89136E-02-2.77852E-02-9.47224E-04
 -1      2949 3.22364E-02-2.33927E-02-9.84606E-04
 -1      2950 2.59865E-02-2.00213E-02-1.00728E-03
 -1      2951 2.03278E-02-1.75214E-02-1.01415E-03
 -1      2952 1.53789E-02-1.57165E-02-1.00456E-03
 -1      2953 1.12094E-02-1.44168E-02-9.78239E-04
 -1      2954 7.83944E-03-1.34319E-02-9.35346E-04
 -1      2955 5.24302E-03-1.25836E-02-8.76361E-04
 -1      2956 3.35452E-03-1.17167E-02-8.02042E-04
 -1      2957 2.07695E-03-1.07069E-02-7.13362E-04
 -1      2958 1.29109E-03-9.46712E-03-6.11539E-04
 -1      2959 8.63813E-04-7.95058E-03-4.98332E-04
 -1      2960 6.53263E-04-6.15546E-03-3.77082E-04
 -1      2961 5.10933E-04-4.13635E-03-2.56128E-04
 -1      2962 3.06985E-04-2.02464E-03-1.48024E-04
 -1      2963 9.08033E-02-1.05040E-01 6.59308E-04
 -1      2964 8.79549E-02-9.03023E-02 1.61239E-04
 -1      2965 8.32446E-02-7.65786E-02-1.82348E-04
 -1      2966 7.74666E-02-6.42948E-02-3.92627E-04
 -1      2967 7.09321E-02-5.34040E-02-5.26125E-04
 -1      2968 6.38014E-02-4.38699E-02-6.19691E-04
 -1      2969 5.62573E-02-3.57033E-02-6.90955E-04
 -1      2970 4.85237E-02-2.89114E-02-7.47290E-04
 -1      2971 4.08466E-02-2.34641E-02-7.91081E-04
 -1      2972 3.34690E-02-1.92803E-02-8.22614E-04
 -1      2973 2.66101E-02-1.62279E-02-8.41415E-04
 -1      2974 2.04486E-02-1.41322E-02-8.46893E-04
 -1      2975 1.51127E-02-1.27888E-02-8.38617E-04
 -1      2976 1.06746E-02-1.19782E-02-8.16424E-04
 -1      2977 7.14969E-03-1.14815E-02-7.80444E-04
 -1      2978 4.50080E-03-1.10947E-02-7.31080E-04
 -1      2979 2.64474E-03-1.06411E-02-6.68987E-04
 -1      2980 1.46212E-03-9.98159E-03-5.95073E-04
 -1      2981 8.07777E-04-9.02143E-03-5.10606E-04
 -1      2982 5.20981E-04-7.71555E-03-4.17604E-04
 -1      2983 4.34753E-04-6.07295E-03-3.19863E-04
 -1      2984 3.86602E-04-4.16281E-03-2.25316E-04
 -1      2985 2.54502E-04-2.10838E-03-1.41848E-04
 -1      2986 9.71302E-02-1.03110E-01 5.25831E-04
 -1      2987 9.43590E-02-8.83424E-02 1.79699E-04
 -1      2988 8.94951E-02-7.41599E-02-9.75211E-05
 -1      2989 8.32442E-02-6.12792E-02-2.86278E-04
 -1      2990 7.60342E-02-4.98533E-02-4.11947E-04
 -1      2991 6.81353E-02-3.99206E-02-4.99539E-04
 -1      2992 5.97945E-02-3.15099E-02-5.64210E-04
 -1      2993 5.12754E-02-2.46271E-02-6.13543E-04
 -1      2994 4.28526E-02-1.92322E-02-6.50822E-04
 -1      2995 3.47934E-02-1.52288E-02-6.77126E-04
 -1      2996 2.73364E-02-1.24648E-02-6.92560E-04
 -1      2997 2.06754E-02-1.07416E-02-6.96894E-04
 -1      2998 1.49478E-02-9.82802E-03-6.89893E-04
 -1      2999 1.02284E-02-9.47719E-03-6.71471E-04
 -1      3000 6.52892E-03-9.44349E-03-6.41746E-04
 -1      3001 3.80194E-03-9.49881E-03-6.01056E-04
 -1      3002 1.94868E-03-9.44674E-03-5.49967E-04
 -1      3003 8.29816E-04-9.13403E-03-4.89299E-04
 -1      3004 2.77805E-04-8.45909E-03-4.20250E-04
 -1      3005 1.09695E-04-7.37781E-03-3.44738E-04
 -1      3006 1.40674E-04-5.90712E-03-2.66121E-04
 -1      3007 2.01447E-04-4.12357E-03-1.90423E-04
 -1      3008 1.72125E-04-2.13900E-03-1.22140E-04
 -1      3009 1.03312E-01-1.01426E-01 4.06451E-04
 -1      3010 1.00517E-01-8.64448E-02 1.68718E-04
 -1      3011 9.54977E-02-7.18131E-02-4.55538E-05
 -1      3012 8.88434E-02-5.83662E-02-2.04691E-04
 -1      3013 8.10347E-02-4.64142E-02-3.15789E-04
 -1      3014 7.24267E-02-3.60761E-02-3.93832E-04
 -1      3015 6.33304E-02-2.74076E-02-4.50409E-04
 -1      3016 5.40538E-02-2.04175E-02-4.92432E-04
 -1      3017 4.49049E-02-1.50573E-02-5.23418E-04
 -1      3018 3.61769E-02-1.12157E-02-5.44871E-04
 -1      3019 2.81293E-02-8.72061E-03-5.57259E-04
 -1      3020 2.09710E-02-7.34990E-03-5.60608E-04
 -1      3021 1.48487E-02-6.84675E-03-5.54825E-04
 -1      3022 9.84025E-03-6.93774E-03-5.39878E-04
 -1      3023 5.95411E-03-7.35166E-03-5.15876E-04
 -1      3024 3.13346E-03-7.83738E-03-4.83096E-04
 -1      3025 1.26512E-03-8.17955E-03-4.42015E-04
 -1      3026 1.91615E-04-8.21145E-03-3.93340E-04
 -1      3027-2.74537E-04-7.82447E-03-3.38116E-04
 -1      3028-3.35077E-04-6.97434E-03-2.77953E-04
 -1      3029-1.88678E-04-5.68323E-03-2.15412E-04
 -1      3030-1.02501E-05-4.03234E-03-1.54427E-04
 -1      3031 7.67063E-05-2.12755E-03-9.70418E-05
 -1      3032 1.09423E-01-9.99384E-02 3.14142E-04
 -1      3033 1.06532E-01-8.45922E-02 1.50308E-04
 -1      3034 1.01331E-01-6.94893E-02-1.19525E-05
 -1      3035 9.43067E-02-5.54974E-02-1.40871E-04
 -1      3036 8.59509E-02-4.30341E-02-2.34268E-04
 -1      3037 7.66785E-02-3.22922E-02-3.00350E-04
 -1      3038 6.68588E-02-2.33595E-02-3.47609E-04
 -1      3039 5.68464E-02-1.62522E-02-3.81920E-04
 -1      3040 4.69856E-02-1.09158E-02-4.06652E-04
 -1      3041 3.75977E-02-7.22460E-03-4.23457E-04
 -1      3042 2.89643E-02-4.98693E-03-4.32998E-04
 -1      3043 2.13102E-02-3.95738E-03-4.35450E-04
 -1      3044 1.47918E-02-3.85371E-03-4.30815E-04
 -1      3045 9.49005E-03-4.37650E-03-4.19094E-04
 -1      3046 5.41050E-03-5.22952E-03-4.00374E-04
 -1      3047 2.48756E-03-6.13915E-03-3.74877E-04
 -1      3048 5.94382E-04-6.87153E-03-3.42984E-04
 -1      3049-4.43597E-04-7.24661E-03-3.05275E-04
 -1      3050-8.32328E-04-7.14841E-03-2.62595E-04
 -1      3051-7.90620E-04-6.53135E-03-2.16165E-04
 -1      3052-5.29563E-04-5.42094E-03-1.67665E-04
 -1      3053-2.30282E-04-3.90278E-03-1.19131E-04
 -1      3054-2.29337E-05-2.08429E-03-7.07174E-05
 -1      3055 1.15515E-01-9.86114E-02 2.41457E-04
 -1      3056 1.12488E-01-8.27917E-02 1.31090E-04
 -1      3057 1.07078E-01-6.71839E-02 1.13725E-05
 -1      3058 9.96902E-02-5.26510E-02-8.89893E-05
 -1      3059 9.08131E-02-3.96840E-02-1.63653E-04
 -1      3060 8.09032E-02-2.85393E-02-2.16588E-04
 -1      3061 7.03810E-02-1.93387E-02-2.53824E-04
 -1      3062 5.96473E-02-1.21086E-02-2.80180E-04
 -1      3063 4.90836E-02-6.79002E-03-2.98698E-04
 -1      3064 3.90414E-02-3.24344E-03-3.11009E-04
 -1      3065 2.98252E-02-1.25772E-03-3.17845E-04
 -1      3066 2.16763E-02-5.64170E-04-3.19461E-04
 -1      3067 1.47611E-02-8.55179E-04-3.15908E-04
 -1      3068 9.16429E-03-1.80546E-03-3.07199E-04
 -1      3069 4.88844E-03-3.09393E-03-2.93397E-04
 -1      3070 1.85952E-03-4.42469E-03-2.74660E-04
 -1      3071-6.25501E-05-5.54550E-03-2.51275E-04
 -1      3072-1.06891E-03-6.26289E-03-2.23687E-04
 -1      3073-1.38335E-03-6.45305E-03-1.92532E-04
 -1      3074-1.24126E-03-6.06808E-03-1.58639E-04
 -1      3075-8.66283E-04-5.13566E-03-1.22887E-04
 -1      3076-4.47056E-04-3.74668E-03-8.57095E-05
 -1      3077-1.21176E-04-2.01745E-03-4.56367E-05
 -1      3078 1.21621E-01-9.74108E-02 1.84936E-04
 -1      3079 1.18432E-01-8.10361E-02 1.14143E-04
 -1      3080 1.12787E-01-6.48870E-02 2.90970E-05
 -1      3081 1.05031E-01-4.98075E-02-4.53231E-05
 -1      3082 9.56435E-02-3.63394E-02-1.01401E-04
 -1      3083 8.51112E-02-2.47933E-02-1.40700E-04
 -1      3084 7.38996E-02-1.53239E-02-1.67526E-04
 -1      3085 6.24533E-02-7.96915E-03-1.85786E-04
 -1      3086 5.11921E-02-2.66641E-03-1.98132E-04
 -1      3087 4.04984E-02 7.36950E-04-2.06067E-04
 -1      3088 3.07007E-02 2.47161E-03-2.10308E-04
 -1      3089 2.20576E-02 2.82967E-03-2.11129E-04
 -1      3090 1.47458E-02 2.14424E-03-2.08596E-04
 -1      3091 8.85381E-03 7.66626E-04-2.02717E-04
 -1      3092 4.38155E-03-9.57221E-04-1.93521E-04
 -1      3093 1.24658E-03-2.70905E-03-1.81105E-04
 -1      3094-7.04340E-04-4.21817E-03-1.65661E-04
 -1      3095-1.67880E-03-5.27747E-03-1.47499E-04
 -1      3096-1.91843E-03-5.75489E-03-1.27052E-04
 -1      3097-1.67555E-03-5.59939E-03-1.04808E-04
 -1      3098-1.18752E-03-4.84011E-03-8.09909E-05
 -1      3099-6.52073E-04-3.57430E-03-5.47542E-05
 -1      3100-2.13809E-04-1.93364E-03-2.31691E-05
 -1      3101 1.27761E-01-9.63081E-02 1.41146E-04
 -1      3102 1.24394E-01-7.93172E-02 1.00212E-04
 -1      3103 1.18492E-01-6.25920E-02 4.36527E-05
 -1      3104 1.10359E-01-4.69544E-02-7.41265E-06
 -1      3105 1.00463E-01-3.29837E-02-4.55086E-05
 -1      3106 8.93147E-02-2.10368E-02-7.10977E-05
 -1      3107 7.74193E-02-1.12991E-02-8.73756E-05
 -1      3108 6.52641E-02-3.82023E-03-9.75164E-05
 -1      3109 5.33070E-02 1.46543E-03-1.03769E-04
 -1      3110 4.19622E-02 4.72361E-03-1.07446E-04
 -1      3111 3.15831E-02 6.20457E-03-1.09190E-04
 -1      3112 2.24459E-02 6.22411E-03-1.09250E-04
 -1      3113 1.47382E-02 5.14113E-03-1.07683E-04
 -1      3114 8.55234E-03 3.33320E-03-1.04479E-04
 -1      3115 3.88565E-03 1.17141E-03-9.96265E-05
 -1      3116 6.47201E-04-1.00343E-03-9.31598E-05
 -1      3117-1.32950E-03-2.90197E-03-8.51770E-05
 -1      3118-2.26871E-03-4.30325E-03-7.58594E-05
 -1      3119-2.43031E-03-5.06652E-03-6.54616E-05
 -1      3120-2.08451E-03-5.13706E-03-5.41926E-05
 -1      3121-1.48411E-03-4.54500E-03-4.18079E-05
 -1      3122-8.38054E-04-3.39472E-03-2.65098E-05
 -1      3123-2.97127E-04-1.83832E-03-4.09261E-06
 -1      3124 1.33950E-01-9.52804E-02 1.07465E-04
 -1      3125 1.30395E-01-7.76262E-02 8.92163E-05
 -1      3126 1.24219E-01-6.02927E-02 5.63659E-05
 -1      3127 1.15697E-01-4.40820E-02 2.63811E-05
 -1      3128 1.05288E-01-2.96041E-02 5.49933E-06
 -1      3129 9.35238E-02-1.72561E-02-6.53837E-06
 -1      3130 8.09451E-02-7.25167E-03-1.22977E-05
 -1      3131 6.80805E-02 3.48698E-04-1.43817E-05
 -1      3132 5.54262E-02 5.61361E-03-1.46503E-05
 -1      3133 4.34288E-02 8.72197E-03-1.41901E-05
 -1      3134 3.24671E-02 9.94389E-03-1.35288E-05
 -1      3135 2.28357E-02 9.61915E-03-1.28613E-05
 -1      3136 1.47331E-02 8.13288E-03-1.22151E-05
 -1      3137 8.25560E-03 5.88928E-03-1.15506E-05
 -1      3138 3.39798E-03 3.28499E-03-1.08166E-05
 -1      3139 6.06398E-05 6.83662E-04-9.98116E-06
 -1      3140-1.93650E-03-1.60639E-03-9.05135E-06
 -1      3141-2.83477E-03-3.35008E-03-8.08697E-06
 -1      3142-2.91302E-03-4.39770E-03-7.18754E-06
 -1      3143-2.46059E-03-4.69056E-03-6.36058E-06
 -1      3144-1.74793E-03-4.25947E-03-5.08535E-06
 -1      3145-9.97900E-04-3.21621E-03-9.71415E-07
 -1      3146-3.67336E-04-1.73634E-03 1.11707E-05
 -1      3147 1.40194E-01-9.43093E-02 8.17281E-05
 -1      3148 1.36446E-01-7.59549E-02 8.06631E-05
 -1      3149 1.29984E-01-5.79831E-02 6.78846E-05
 -1      3150 1.21062E-01-4.11826E-02 5.71352E-05
 -1      3151 1.10134E-01-2.61907E-02 5.27231E-05
 -1      3152 9.77481E-02-1.34409E-02 5.39717E-05
 -1      3153 8.44820E-02-3.17183E-03 5.85987E-05
 -1      3154 7.09039E-02 4.54586E-03 6.44437E-05
 -1      3155 5.75487E-02 9.78442E-03 7.00187E-05
 -1      3156 4.48955E-02 1.27363E-02 7.44857E-05
 -1      3157 3.33492E-02 1.36916E-02 7.74602E-05
 -1      3158 2.32230E-02 1.30148E-02 7.88221E-05
 -1      3159 1.47267E-02 1.11175E-02 7.85859E-05
 -1      3160 7.96066E-03 8.43104E-03 7.68257E-05
 -1      3161 2.91683E-03 5.37814E-03 7.36370E-05
 -1      3162-5.13311E-04 2.34569E-03 6.91163E-05
 -1      3163-2.52381E-03-3.38711E-04 6.33459E-05
 -1      3164-3.37363E-03-2.42558E-03 5.63810E-05
 -1      3165-3.36147E-03-3.75611E-03 4.82543E-05
 -1      3166-2.79718E-03-4.26756E-03 3.90906E-05
 -1      3167-1.97125E-03-3.99133E-03 2.94995E-05
 -1      3168-1.12398E-03-3.04647E-03 2.20651E-05
 -1      3169-4.20029E-04-1.63237E-03 2.24333E-05
 -1      3170 1.46499E-01-9.33805E-02 6.20772E-05
 -1      3171 1.42556E-01-7.42959E-02 7.38821E-05
 -1      3172 1.35800E-01-5.56578E-02 7.84879E-05
 -1      3173 1.26469E-01-3.82495E-02 8.55771E-05
 -1      3174 1.15011E-01-2.27357E-02 9.69952E-05
 -1      3175 1.01996E-01-9.58270E-03 1.11226E-04
 -1      3176 8.80348E-02 9.48066E-04 1.26041E-04
 -1      3177 7.37365E-02 8.77769E-03 1.39637E-04
 -1      3178 5.96742E-02 1.39828E-02 1.50890E-04
 -1      3179 4.63607E-02 1.67697E-02 1.59225E-04
 -1      3180 3.42269E-02 1.74494E-02 1.64419E-04
 -1      3181 2.36050E-02 1.64109E-02 1.66440E-04
 -1      3182 1.47165E-02 1.40933E-02 1.65353E-04
 -1      3183 7.66551E-03 1.09555E-02 1.61268E-04
 -1      3184 2.44109E-03 7.44664E-03 1.54328E-04
 -1      3185-1.07457E-03 3.97752E-03 1.44691E-04
 -1      3186-3.08996E-03 8.95341E-04 1.32528E-04
 -1      3187-3.88239E-03-1.53578E-03 1.18005E-04
 -1      3188-3.77126E-03-3.14785E-03 1.01269E-04
 -1      3189-3.08833E-03-3.87421E-03 8.25265E-05
 -1      3190-2.14648E-03-3.74719E-03 6.23124E-05
 -1      3191-1.20762E-03-2.89275E-03 4.29748E-05
 -1      3192-4.49523E-04-1.53150E-03 2.97073E-05
 -1      3193 1.52863E-01-9.24822E-02 4.68021E-05
 -1      3194 1.48729E-01-7.26424E-02 6.81094E-05
 -1      3195 1.41678E-01-5.33114E-02 8.82361E-05
 -1      3196 1.31929E-01-3.52769E-02 1.12203E-04
 -1      3197 1.19931E-01-1.92326E-02 1.38957E-04
 -1      3198 1.06275E-01-5.67514E-03 1.65869E-04
 -1      3199 9.16081E-02 5.11397E-03 1.90635E-04
 -1      3200 7.65802E-02 1.30492E-02 2.11770E-04
 -1      3201 6.18033E-02 1.82125E-02 2.28513E-04
 -1      3202 4.78235E-02 2.08249E-02 2.40569E-04
 -1      3203 3.50986E-02 2.12185E-02 2.47887E-04
 -1      3204 2.39801E-02 1.98076E-02 2.50532E-04
 -1      3205 1.47008E-02 1.70590E-02 2.48619E-04
 -1      3206 7.36895E-03 1.34602E-02 2.42301E-04
 -1      3207 1.97027E-03 9.48724E-03 2.31761E-04
 -1      3208-1.62267E-03 5.57520E-03 2.17224E-04
 -1      3209-3.63344E-03 2.09139E-03 1.98945E-04
 -1      3210-4.35837E-03-6.85225E-04 1.77201E-04
 -1      3211-4.13848E-03-2.57753E-03 1.52248E-04
 -1      3212-3.32866E-03-3.51532E-03 1.24344E-04
 -1      3213-2.26614E-03-3.53241E-03 9.38167E-05
 -1      3214-1.23882E-03-2.76150E-03 6.23400E-05
 -1      3215-4.47788E-04-1.43995E-03 3.33426E-05
 -1      3216 1.59284E-01-9.16053E-02 3.43538E-05
 -1      3217 1.54970E-01-7.09879E-02 6.26128E-05
 -1      3218 1.47625E-01-5.09384E-02 9.71230E-05
 -1      3219 1.37451E-01-3.22595E-02 1.37386E-04
 -1      3220 1.24902E-01-1.56759E-02 1.79108E-04
 -1      3221 1.10591E-01-1.71272E-03 2.18405E-04
 -1      3222 9.52059E-02 9.33078E-03 2.52849E-04
 -1      3223 7.94370E-02 1.73644E-02 2.81277E-04
 -1      3224 6.39361E-02 2.24766E-02 3.03306E-04
 -1      3225 4.92832E-02 2.49039E-02 3.18927E-04
 -1      3226 3.59630E-02 2.49997E-02 3.28272E-04
 -1      3227 2.43465E-02 2.32046E-02 3.31502E-04
 -1      3228 1.46780E-02 2.00137E-02 3.28786E-04
 -1      3229 7.06965E-03 1.59431E-02 3.20313E-04
 -1      3230 1.50365E-03 1.14970E-02 3.06310E-04
 -1      3231-2.15761E-03 7.13518E-03 2.87062E-04
 -1      3232-4.15332E-03 3.24542E-03 2.62912E-04
 -1      3233-4.79963E-03 1.21773E-04 2.34245E-04
 -1      3234-4.45999E-03-2.04958E-03 2.01426E-04
 -1      3235-3.51338E-03-3.19535E-03 1.64763E-04
 -1      3236-2.32280E-03-3.35156E-03 1.24296E-04
 -1      3237-1.20650E-03-2.65798E-03 8.06500E-05
 -1      3238-4.02541E-04-1.36627E-03 3.42593E-05
 -1      3239 1.65756E-01-9.07417E-02 2.29085E-05
 -1      3240 1.61279E-01-6.93257E-02 5.64541E-05
 -1      3241 1.53648E-01-4.85332E-02 1.04964E-04
 -1      3242 1.43045E-01-2.91927E-02 1.61374E-04
 -1      3243 1.29931E-01-1.20616E-02 2.17884E-04
 -1      3244 1.14951E-01 2.30785E-03 2.69321E-04
 -1      3245 9.88328E-02 1.36012E-02 3.13174E-04
 -1      3246 8.23100E-02 2.17253E-02 3.48639E-04
 -1      3247 6.60747E-02 2.67767E-02 3.75740E-04
 -1      3248 5.07411E-02 2.90075E-02 3.94773E-04
 -1      3249 3.68212E-02 2.87936E-02 4.06051E-04
 -1      3250 2.47051E-02 2.66019E-02 4.09833E-04
 -1      3251 1.46491E-02 2.29565E-02 4.06340E-04
 -1      3252 6.76885E-03 1.84033E-02 3.95794E-04
 -1      3253 1.04277E-03 1.34747E-02 3.78467E-04
 -1      3254-2.67737E-03 8.65598E-03 3.54704E-04
 -1      3255-4.64710E-03 4.35595E-03 3.24942E-04
 -1      3256-5.20310E-03 8.83956E-04 2.89688E-04
 -1      3257-4.73210E-03-1.56482E-03 2.49443E-04
 -1      3258-3.63794E-03-2.91454E-03 2.04580E-04
 -1      3259-2.31020E-03-3.20462E-03 1.54810E-04
 -1      3260-1.10035E-03-2.58411E-03 9.93500E-05
 -1      3261-2.93880E-04-1.32203E-03 3.57182E-05
 -1      3262 1.72271E-01-8.98846E-02 1.18000E-05
 -1      3263 1.67660E-01-6.76489E-02 4.95708E-05
 -1      3264 1.59757E-01-4.60890E-02 1.12007E-04
 -1      3265 1.48720E-01-2.60689E-02 1.84508E-04
 -1      3266 1.35027E-01-8.38184E-03 2.55592E-04
 -1      3267 1.19359E-01 6.39435E-03 3.18857E-04
 -1      3268 1.02489E-01 1.79324E-02 3.71786E-04
 -1      3269 8.51964E-02 2.61383E-02 4.13994E-04
 -1      3270 6.82142E-02 3.11175E-02 4.45935E-04
 -1      3271 5.21909E-02 3.31391E-02 4.68214E-04
 -1      3272 3.76656E-02 3.26016E-02 4.81326E-04
 -1      3273 2.50483E-02 2.99993E-02 4.85619E-04
 -1      3274 1.46065E-02 2.58857E-02 4.81357E-04
 -1      3275 6.45957E-03 2.08371E-02 4.68793E-04
 -1      3276 5.81689E-04 1.54151E-02 4.48233E-04
 -1      3277-3.18663E-03 1.01311E-02 4.20081E-04
 -1      3278-5.11796E-03 5.41549E-03 3.84854E-04
 -1      3279-5.57038E-03 1.59298E-03 3.43167E-04
 -1      3280-4.95461E-03-1.13247E-03 2.95636E-04
 -1      3281-3.69987E-03-2.68316E-03 2.42639E-04
 -1      3282-2.22194E-03-3.10361E-03 1.83666E-04
 -1      3283-9.05148E-04-2.55430E-03 1.16896E-04
 -1      3284-8.32375E-05-1.32436E-03 4.10184E-05
 -1      3285 6.88514E-02-1.24072E-01 2.27863E-03
 -1      3286 5.84476E-02-1.12241E-01-6.09048E-04
 -1      3287 6.51760E-02-1.03091E-01-6.39260E-04
 -1      3288 5.90667E-02-9.79610E-02-1.36602E-03
 -1      3289 6.25429E-02-9.05405E-02-8.83695E-04
 -1      3290 5.74764E-02-8.66592E-02-1.15106E-03
 -1      3291 6.00164E-02-7.97495E-02-9.62321E-04
 -1      3292 5.53740E-02-7.67840E-02-1.10155E-03
 -1      3293 5.67503E-02-7.00368E-02-9.86777E-04
 -1      3294 5.22617E-02-6.77102E-02-1.11485E-03
 -1      3295 5.27674E-02-6.11702E-02-1.05538E-03
 -1      3296 4.84693E-02-5.94311E-02-1.18412E-03
 -1      3297 4.81969E-02-5.31647E-02-1.13482E-03
 -1      3298 4.41590E-02-5.19389E-02-1.26873E-03
 -1      3299 4.32254E-02-4.60387E-02-1.21771E-03
 -1      3300 3.95258E-02-4.52455E-02-1.35447E-03
 -1      3301 3.80418E-02-3.97988E-02-1.29330E-03
 -1      3302 3.47417E-02-3.93437E-02-1.42984E-03
 -1      3303 3.28279E-02-3.44237E-02-1.35531E-03
 -1      3304 2.99648E-02-3.42047E-02-1.48814E-03
 -1      3305 2.77481E-02-2.98619E-02-1.39908E-03
 -1      3306 2.53328E-02-2.97762E-02-1.52491E-03
 -1      3307 2.29431E-02-2.60348E-02-1.42162E-03
 -1      3308 2.09610E-02-2.59858E-02-1.53753E-03
 -1      3309 1.85247E-02-2.28424E-02-1.42119E-03
 -1      3310 1.69388E-02-2.27458E-02-1.52469E-03
 -1      3311 1.45732E-02-2.01703E-02-1.39704E-03
 -1      3312 1.33295E-02-1.99592E-02-1.48602E-03
 -1      3313 1.11372E-02-1.78981E-02-1.34916E-03
 -1      3314 1.01705E-02-1.75257E-02-1.42190E-03
 -1      3315 8.23484E-03-1.59067E-02-1.27811E-03
 -1      3316 7.47491E-03-1.53480E-02-1.33323E-03
 -1      3317 5.85682E-03-1.40858E-02-1.18486E-03
 -1      3318 5.23541E-03-1.33370E-02-1.22129E-03
 -1      3319 3.97186E-03-1.23392E-02-1.07062E-03
 -1      3320 3.42863E-03-1.14161E-02-1.08737E-03
 -1      3321 2.53286E-03-1.05894E-02-9.36463E-04
 -1      3322 2.02152E-03-9.52341E-03-9.32403E-04
 -1      3323 1.48464E-03-8.77890E-03-7.83040E-04
 -1      3324 9.78607E-04-7.61366E-03-7.55564E-04
 -1      3325 7.71072E-04-6.87098E-03-6.08646E-04
 -1      3326 2.73242E-04-5.65434E-03-5.53540E-04
 -1      3327 3.41188E-04-4.85014E-03-4.12561E-04
 -1      3328-1.16934E-04-3.64487E-03-3.16268E-04
 -1      3329 1.38379E-04-2.73377E-03-1.85943E-04
 -1      3330-1.59407E-04-1.58592E-03-5.71462E-05
 -1      3331 3.84109E-05-7.14946E-04-1.80547E-05
 -1      3332 7.71240E-02-1.17946E-01 1.86901E-03
 -1      3333 7.24831E-02-1.09576E-01 7.45326E-04
 -1      3334 7.47530E-02-1.01193E-01 1.72558E-04
 -1      3335 6.86353E-02-9.50858E-02-4.12462E-04
 -1      3336 7.10282E-02-8.77306E-02-4.32544E-04
 -1      3337 6.54544E-02-8.32364E-02-7.23548E-04
 -1      3338 6.71002E-02-7.62341E-02-6.65615E-04
 -1      3339 6.18758E-02-7.27290E-02-8.34357E-04
 -1      3340 6.26705E-02-6.59438E-02-7.83167E-04
 -1      3341 5.76586E-02-6.31926E-02-9.16509E-04
 -1      3342 5.76398E-02-5.66694E-02-8.75911E-04
 -1      3343 5.28239E-02-5.45849E-02-9.99358E-04
 -1      3344 5.20812E-02-4.84121E-02-9.58655E-04
 -1      3345 4.75166E-02-4.69311E-02-1.08034E-03
 -1      3346 4.61639E-02-4.12000E-02-1.03401E-03
 -1      3347 4.19262E-02-4.02523E-02-1.15544E-03
 -1      3348 4.00879E-02-3.50409E-02-1.09937E-03
 -1      3349 3.62501E-02-3.45406E-02-1.21928E-03
 -1      3350 3.40587E-02-2.99046E-02-1.15159E-03
 -1      3351 3.06771E-02-2.97521E-02-1.26781E-03
 -1      3352 2.82671E-02-2.57204E-02-1.18787E-03
 -1      3353 2.53746E-02-2.58081E-02-1.29799E-03
 -1      3354 2.28769E-02-2.23818E-02-1.20616E-03
 -1      3355 2.04802E-02-2.26014E-02-1.30783E-03
 -1      3356 1.80162E-02-1.97542E-02-1.20514E-03
 -1      3357 1.60969E-02-2.00038E-02-1.29626E-03
 -1      3358 1.37727E-02-1.76858E-02-1.18418E-03
 -1      3359 1.22903E-02-1.78761E-02-1.26292E-03
 -1      3360 1.01927E-02-1.60180E-02-1.14322E-03
 -1      3361 9.08951E-03-1.60776E-02-1.20805E-03
 -1      3362 7.28233E-03-1.45965E-02-1.08269E-03
 -1      3363 6.48943E-03-1.44746E-02-1.13234E-03
 -1      3364 5.01208E-03-1.32804E-02-1.00336E-03
 -1      3365 4.45593E-03-1.29485E-02-1.03677E-03
 -1      3366 3.32324E-03-1.19501E-02-9.06219E-04
 -1      3367 2.93238E-03-1.14014E-02-9.22446E-04
 -1      3368 2.13554E-03-1.05125E-02-7.92372E-04
 -1      3369 1.84725E-03-9.76000E-03-7.90371E-04
 -1      3370 1.35549E-03-8.90446E-03-6.62888E-04
 -1      3371 1.12177E-03-7.97635E-03-6.40805E-04
 -1      3372 8.81724E-04-7.09380E-03-5.18931E-04
 -1      3373 6.74826E-04-6.03005E-03-4.74078E-04
 -1      3374 6.08227E-04-5.08430E-03-3.63428E-04
 -1      3375 4.19153E-04-3.93349E-03-2.90329E-04
 -1      3376 4.06400E-04-2.94093E-03-2.07871E-04
 -1      3377 2.30111E-04-1.79243E-03-1.09510E-04
 -1      3378 1.50167E-04-8.81646E-04-8.73102E-05
 -1      3379 8.43925E-02-1.14864E-01 1.30243E-03
 -1      3380 8.05745E-02-1.08436E-01 8.58501E-04
 -1      3381 8.27065E-02-9.96223E-02 3.88978E-04
 -1      3382 7.72718E-02-9.32686E-02-3.42452E-05
 -1      3383 7.87181E-02-8.55063E-02-1.62421E-04
 -1      3384 7.30113E-02-8.03840E-02-4.34409E-04
 -1      3385 7.39016E-02-7.31685E-02-4.50657E-04
 -1      3386 6.83073E-02-6.91302E-02-6.23725E-04
 -1      3387 6.84928E-02-6.22290E-02-6.09647E-04
 -1      3388 6.30427E-02-5.90660E-02-7.42485E-04
 -1      3389 6.25004E-02-5.25018E-02-7.17260E-04
 -1      3390 5.72234E-02-5.01077E-02-8.33318E-04
 -1      3391 5.60150E-02-4.39636E-02-8.00872E-04
 -1      3392 5.09768E-02-4.22694E-02-9.11024E-04
 -1      3393 4.92079E-02-3.66345E-02-8.70322E-04
 -1      3394 4.44932E-02-3.55694E-02-9.77679E-04
 -1      3395 4.22926E-02-3.05150E-02-9.27534E-04
 -1      3396 3.79869E-02-2.99928E-02-1.03235E-03
 -1      3397 3.54941E-02-2.55632E-02-9.71965E-04
 -1      3398 3.16691E-02-2.54814E-02-1.07305E-03
 -1      3399 2.90246E-02-2.16905E-02-1.00228E-03
 -1      3400 2.57295E-02-2.19344E-02-1.09795E-03
 -1      3401 2.30669E-02-1.87657E-02-1.01725E-03
 -1      3402 2.03238E-02-1.92152E-02-1.10568E-03
 -1      3403 1.77627E-02-1.66248E-02-1.01595E-03
 -1      3404 1.55659E-02-1.71626E-02-1.09541E-03
 -1      3405 1.32063E-02-1.50838E-02-9.97926E-04
 -1      3406 1.15239E-02-1.56024E-02-1.06688E-03
 -1      3407 9.44218E-03-1.39518E-02-9.63137E-04
 -1      3408 8.22064E-03-1.43597E-02-1.02023E-03
 -1      3409 6.46717E-03-1.30437E-02-9.11908E-04
 -1      3410 5.63652E-03-1.32702E-02-9.56013E-04
 -1      3411 4.23488E-03-1.21922E-02-8.44879E-04
 -1      3412 3.71556E-03-1.21900E-02-8.75038E-04
 -1      3413 2.66343E-03-1.12572E-02-7.62938E-04
 -1      3414 2.37317E-03-1.10032E-02-7.78318E-04
 -1      3415 1.64425E-03-1.01328E-02-6.67204E-04
 -1      3416 1.50485E-03-9.62669E-03-6.66995E-04
 -1      3417 1.05110E-03-8.75153E-03-5.59172E-04
 -1      3418 9.93726E-04-8.01298E-03-5.42521E-04
 -1      3419 7.46779E-04-7.08824E-03-4.41382E-04
 -1      3420 7.14949E-04-6.15382E-03-4.07558E-04
 -1      3421 5.86695E-04-5.16570E-03-3.19435E-04
 -1      3422 5.33733E-04-4.09058E-03-2.69168E-04
 -1      3423 4.24964E-04-3.07531E-03-2.08169E-04
 -1      3424 3.13876E-04-1.95905E-03-1.45611E-04
 -1      3425 1.71477E-04-9.95692E-04-1.15812E-04
 -1      3426 9.09897E-02-1.12216E-01 9.57676E-04
 -1      3427 8.75163E-02-1.06039E-01 7.54497E-04
 -1      3428 8.94852E-02-9.76735E-02 4.02465E-04
 -1      3429 8.45419E-02-9.12375E-02 1.32847E-04
 -1      3430 8.55653E-02-8.33003E-02-3.21416E-05
 -1      3431 7.99469E-02-7.77838E-02-2.45540E-04
 -1      3432 8.02782E-02-7.03196E-02-3.04342E-04
 -1      3433 7.44764E-02-6.58438E-02-4.59390E-04
 -1      3434 7.41238E-02-5.87666E-02-4.70116E-04
 -1      3435 6.83302E-02-5.52335E-02-5.92017E-04
 -1      3436 6.72956E-02-4.85717E-02-5.80245E-04
 -1      3437 6.16158E-02-4.58980E-02-6.86338E-04
 -1      3438 5.99566E-02-3.97293E-02-6.61272E-04
 -1      3439 5.44904E-02-3.78475E-02-7.60083E-04
 -1      3440 5.23112E-02-3.22558E-02-7.24642E-04
 -1      3441 4.71633E-02-3.10933E-02-8.19772E-04
 -1      3442 4.45968E-02-2.61434E-02-7.74734E-04
 -1      3443 3.98685E-02-2.56109E-02-8.66951E-04
 -1      3444 3.70604E-02-2.13378E-02-8.12577E-04
 -1      3445 3.28384E-02-2.13270E-02-9.01299E-04
 -1      3446 2.99350E-02-1.77322E-02-8.37935E-04
 -1      3447 2.62823E-02-1.81198E-02-9.21951E-04
 -1      3448 2.34208E-02-1.51727E-02-8.50204E-04
 -1      3449 2.03717E-02-1.58270E-02-9.28086E-04
 -1      3450 1.76720E-02-1.34684E-02-8.48841E-04
 -1      3451 1.52301E-02-1.42578E-02-9.19153E-04
 -1      3452 1.27889E-02-1.24064E-02-8.33539E-04
 -1      3453 1.09282E-02-1.32073E-02-8.94947E-04
 -1      3454 8.81501E-03-1.17663E-02-8.04282E-04
 -1      3455 7.48391E-03-1.24704E-02-8.55602E-04
 -1      3456 5.73914E-03-1.13357E-02-7.61343E-04
 -1      3457 4.86529E-03-1.18560E-02-8.01561E-04
 -1      3458 3.50031E-03-1.09236E-02-7.05267E-04
 -1      3459 2.99772E-03-1.11976E-02-7.33525E-04
 -1      3460 1.99650E-03-1.03713E-02-6.36852E-04
 -1      3461 1.77261E-03-1.03635E-02-6.52436E-04
 -1      3462 1.09473E-03-9.56143E-03-5.57207E-04
 -1      3463 1.05732E-03-9.26264E-03-5.59555E-04
 -1      3464 6.41539E-04-8.42370E-03-4.67972E-04
 -1      3465 7.04088E-04-7.84907E-03-4.56810E-04
 -1      3466 4.72498E-04-6.93928E-03-3.72113E-04
 -1      3467 5.57312E-04-6.12679E-03-3.47983E-04
 -1      3468 4.21025E-04-5.14613E-03-2.75540E-04
 -1      3469 4.59818E-04-4.15858E-03-2.41255E-04
 -1      3470 3.38812E-04-3.14363E-03-1.90486E-04
 -1      3471 2.86371E-04-2.07462E-03-1.48074E-04
 -1      3472 1.53355E-04-1.06315E-03-1.13533E-04
 -1      3473 9.73432E-02-1.10206E-01 6.93778E-04
 -1      3474 9.39920E-02-1.04048E-01 5.93499E-04
 -1      3475 9.58741E-02-9.58115E-02 3.50770E-04
 -1      3476 9.12058E-02-8.93227E-02 1.76090E-04
 -1      3477 9.19620E-02-8.11838E-02 2.87375E-05
 -1      3478 8.64125E-02-7.53608E-02-1.34297E-04
 -1      3479 8.63399E-02-6.76261E-02-2.03519E-04
 -1      3480 8.03832E-02-6.27715E-02-3.35672E-04
 -1      3481 7.95822E-02-5.54801E-02-3.57820E-04
 -1      3482 7.34974E-02-5.16115E-02-4.66485E-04
 -1      3483 7.20160E-02-4.48097E-02-4.62434E-04
 -1      3484 6.59738E-02-4.18791E-02-5.57631E-04
 -1      3485 6.38865E-02-3.56446E-02-5.37537E-04
 -1      3486 5.80254E-02-3.35925E-02-6.25817E-04
 -1      3487 5.54456E-02-2.80047E-02-5.94170E-04
 -1      3488 4.98950E-02-2.67576E-02-6.78679E-04
 -1      3489 4.69628E-02-2.18751E-02-6.37456E-04
 -1      3490 4.18423E-02-2.13392E-02-7.19172E-04
 -1      3491 3.87110E-02-1.71885E-02-6.69367E-04
 -1      3492 3.41220E-02-1.72485E-02-7.48028E-04
 -1      3493 3.09445E-02-1.38203E-02-6.90379E-04
 -1      3494 2.69629E-02-1.43434E-02-7.65095E-04
 -1      3495 2.38810E-02-1.15943E-02-7.00361E-04
 -1      3496 2.05513E-02-1.24371E-02-7.69975E-04
 -1      3497 1.76868E-02-1.02945E-02-6.99049E-04
 -1      3498 1.50200E-02-1.13117E-02-7.62344E-04
 -1      3499 1.24681E-02-9.68040E-03-6.86270E-04
 -1      3500 1.04425E-02-1.07339E-02-7.42077E-04
 -1      3501 8.26806E-03-9.50454E-03-6.62035E-04
 -1      3502 6.83227E-03-1.04711E-02-7.09298E-04
 -1      3503 5.06824E-03-9.52883E-03-6.26579E-04
 -1      3504 4.14686E-03-1.03073E-02-6.64377E-04
 -1      3505 2.79472E-03-9.54004E-03-5.80366E-04
 -1      3506 2.29511E-03-1.00557E-02-6.07925E-04
 -1      3507 1.32747E-03-9.36257E-03-5.24100E-04
 -1      3508 1.14740E-03-9.56988E-03-5.40807E-04
 -1      3509 5.12078E-04-8.86843E-03-4.58811E-04
 -1      3510 5.47010E-04-8.75182E-03-4.64271E-04
 -1      3511 1.72294E-04-7.98422E-03-3.86070E-04
 -1      3512 3.21557E-04-7.55696E-03-3.80311E-04
 -1      3513 1.22953E-04-6.69597E-03-3.08602E-04
 -1      3514 2.94403E-04-5.99871E-03-2.92624E-04
 -1      3515 1.84314E-04-5.05125E-03-2.31365E-04
 -1      3516 2.99092E-04-4.15052E-03-2.08148E-04
 -1      3517 2.07125E-04-3.15057E-03-1.63090E-04
 -1      3518 2.15916E-04-2.13020E-03-1.33500E-04
 -1      3519 1.17128E-04-1.09427E-03-9.69608E-05
 -1      3520 1.03570E-01-1.08608E-01 5.12866E-04
 -1      3521 1.00234E-01-1.02241E-01 4.63311E-04
 -1      3522 1.02027E-01-9.40359E-02 2.91795E-04
 -1      3523 9.74628E-02-8.73900E-02 1.76434E-04
 -1      3524 9.80558E-02-7.90839E-02 5.54537E-05
 -1      3525 9.25234E-02-7.29822E-02-6.82896E-05
 -1      3526 9.21565E-02-6.49977E-02-1.33546E-04
 -1      3527 8.60639E-02-5.98142E-02-2.42825E-04
 -1      3528 8.48896E-02-5.22936E-02-2.67829E-04
 -1      3529 7.85461E-02-4.81233E-02-3.61833E-04
 -1      3530 7.66617E-02-4.11541E-02-3.61127E-04
 -1      3531 7.02861E-02-3.79882E-02-4.45031E-04
 -1      3532 6.77945E-02-3.16579E-02-4.27609E-04
 -1      3533 6.15630E-02-2.94498E-02-5.05822E-04
 -1      3534 5.85934E-02-2.38371E-02-4.76543E-04
 -1      3535 5.26621E-02-2.25150E-02-5.51546E-04
 -1      3536 4.93664E-02-1.76733E-02-5.12973E-04
 -1      3537 4.38742E-02-1.71392E-02-5.85662E-04
 -1      3538 4.04153E-02-1.30874E-02-5.39256E-04
 -1      3539 3.54793E-02-1.32186E-02-6.09505E-04
 -1      3540 3.20180E-02-9.93726E-03-5.56276E-04
 -1      3541 2.77262E-02-1.05909E-02-6.23384E-04
 -1      3542 2.44101E-02-8.02491E-03-5.64214E-04
 -1      3543 2.08163E-02-9.04588E-03-6.27210E-04
 -1      3544 1.77700E-02-7.10949E-03-5.63005E-04
 -1      3545 1.48916E-02-8.33937E-03-6.20826E-04
 -1      3546 1.22104E-02-6.92436E-03-5.52569E-04
 -1      3547 1.00284E-02-8.21115E-03-6.04176E-04
 -1      3548 7.77402E-03-7.19572E-03-5.32940E-04
 -1      3549 6.23678E-03-8.40272E-03-5.77372E-04
 -1      3550 4.43616E-03-7.66105E-03-5.04313E-04
 -1      3551 3.46445E-03-8.67436E-03-5.40725E-04
 -1      3552 2.11083E-03-8.08596E-03-4.67074E-04
 -1      3553 1.60534E-03-8.82010E-03-4.94753E-04
 -1      3554 6.61526E-04-8.27853E-03-4.21824E-04
 -1      3555 5.10882E-04-8.67991E-03-4.40224E-04
 -1      3556-8.55278E-05-8.10044E-03-3.69458E-04
 -1      3557 3.31994E-06-8.14873E-03-3.78269E-04
 -1      3558-3.26409E-04-7.47480E-03-3.11326E-04
 -1      3559-1.10013E-04-7.18250E-03-3.10664E-04
 -1      3560-2.63170E-04-6.39062E-03-2.49615E-04
 -1      3561-2.11840E-05-5.80109E-03-2.40417E-04
 -1      3562-8.53073E-05-4.90155E-03-1.87828E-04
 -1      3563 9.76120E-05-4.08359E-03-1.72436E-04
 -1      3564 5.51465E-05-3.10862E-03-1.31340E-04
 -1      3565 1.25528E-04-2.13826E-03-1.10164E-04
 -1      3566 7.22593E-05-1.09837E-03-7.35936E-05
 -1      3567 1.09735E-01-1.07320E-01 3.79170E-04
 -1      3568 1.06372E-01-1.00660E-01 3.57776E-04
 -1      3569 1.08080E-01-9.23706E-02 2.37457E-04
 -1      3570 1.03536E-01-8.55131E-02 1.60035E-04
 -1      3571 1.03992E-01-7.70156E-02 6.61629E-05
 -1      3572 9.84302E-02-7.06488E-02-2.69421E-05
 -1      3573 9.78234E-02-6.24101E-02-8.23954E-05
 -1      3574 9.15884E-02-5.69276E-02-1.70951E-04
 -1      3575 9.00916E-02-4.91661E-02-1.93715E-04
 -1      3576 8.35013E-02-4.47186E-02-2.73456E-04
 -1      3577 8.12495E-02-3.75630E-02-2.72859E-04
 -1      3578 7.45567E-02-3.41784E-02-3.45735E-04
 -1      3579 7.16817E-02-2.77309E-02-3.29031E-04
 -1      3580 6.50955E-02-2.53785E-02-3.97770E-04
 -1      3581 6.17465E-02-1.97199E-02-3.69573E-04
 -1      3582 5.54487E-02-1.83308E-02-4.35975E-04
 -1      3583 5.17925E-02-1.35111E-02-3.99048E-04
 -1      3584 4.59424E-02-1.29836E-02-4.63828E-04
 -1      3585 4.21534E-02-9.01447E-03-4.19874E-04
 -1      3586 3.68836E-02-9.21820E-03-4.82934E-04
 -1      3587 3.31322E-02-6.07080E-03-4.33130E-04
 -1      3588 2.85426E-02-6.85286E-03-4.93877E-04
 -1      3589 2.49829E-02-4.46044E-03-4.39184E-04
 -1      3590 2.11363E-02-5.65374E-03-4.96767E-04
 -1      3591 1.78970E-02-3.91804E-03-4.38094E-04
 -1      3592 1.48160E-02-5.35128E-03-4.91567E-04
 -1      3593 1.19934E-02-4.15112E-03-4.29844E-04
 -1      3594 9.66133E-03-5.65904E-03-4.78262E-04
 -1      3595 7.31512E-03-4.86021E-03-4.14473E-04
 -1      3596 5.67907E-03-6.29326E-03-4.56951E-04
 -1      3597 3.83132E-03-5.75887E-03-3.92137E-04
 -1      3598 2.80802E-03-6.99149E-03-4.27885E-04
 -1      3599 1.44472E-03-6.59209E-03-3.63140E-04
 -1      3600 9.28106E-04-7.52912E-03-3.91492E-04
 -1      3601 3.23693E-06-7.15194E-03-3.27970E-04
 -1      3602-1.26803E-04-7.73275E-03-3.48417E-04
 -1      3603-6.84980E-04-7.28971E-03-2.87354E-04
 -1      3604-5.53544E-04-7.49013E-03-2.99610E-04
 -1      3605-8.34168E-04-6.92427E-03-2.42350E-04
 -1      3606-5.62537E-04-6.75648E-03-2.46490E-04
 -1      3607-6.61500E-04-6.04601E-03-1.94511E-04
 -1      3608-3.58729E-04-5.55586E-03-1.91186E-04
 -1      3609-3.65607E-04-4.71307E-03-1.45875E-04
 -1      3610-1.20032E-04-3.97163E-03-1.36614E-04
 -1      3611-1.03424E-04-3.02952E-03-9.88926E-05
 -1      3612 2.71132E-05-2.10967E-03-8.39210E-05
 -1      3613 2.39556E-05-1.08229E-03-4.79073E-05
 -1      3614 1.15884E-01-1.06264E-01 2.79357E-04
 -1      3615 1.12469E-01-9.92571E-02 2.75583E-04
 -1      3616 1.14094E-01-9.08028E-02 1.91876E-04
 -1      3617 1.09514E-01-8.36865E-02 1.40624E-04
 -1      3618 1.09848E-01-7.49729E-02 7.01206E-05
 -1      3619 1.04213E-01-6.83354E-02 7.23215E-07
 -1      3620 1.03399E-01-5.98394E-02-4.30487E-05
 -1      3621 9.70062E-02-5.40728E-02-1.13666E-04
 -1      3622 9.52225E-02-4.60645E-02-1.31350E-04
 -1      3623 8.83874E-02-4.13570E-02-1.97757E-04
 -1      3624 8.57952E-02-3.40029E-02-1.95034E-04
 -1      3625 7.87936E-02-3.04134E-02-2.57375E-04
 -1      3626 7.55521E-02-2.38338E-02-2.39865E-04
 -1      3627 6.86205E-02-2.13471E-02-2.99691E-04
 -1      3628 6.49009E-02-1.56278E-02-2.71514E-04
 -1      3629 5.82460E-02-1.41789E-02-3.30048E-04
 -1      3630 5.42319E-02-9.36804E-03-2.93933E-04
 -1      3631 4.80329E-02-8.85185E-03-3.51668E-04
 -1      3632 4.39123E-02-4.95472E-03-3.09405E-04
 -1      3633 3.83174E-02-5.23339E-03-3.66208E-04
 -1      3634 3.42712E-02-2.21175E-03-3.19053E-04
 -1      3635 2.93923E-02-3.12208E-03-3.74381E-04
 -1      3636 2.55826E-02-8.97898E-04-3.23328E-04
 -1      3637 2.14907E-02-2.26086E-03-3.76409E-04
 -1      3638 1.80511E-02-7.23374E-04-3.22355E-04
 -1      3639 1.47739E-02-2.35483E-03-3.72323E-04
 -1      3640 1.18023E-02-1.36993E-03-3.16150E-04
 -1      3641 9.32474E-03-3.09162E-03-3.62132E-04
 -1      3642 6.87955E-03-2.51260E-03-3.04745E-04
 -1      3643 5.14722E-03-4.16259E-03-3.45914E-04
 -1      3644 3.24637E-03-3.84126E-03-2.88249E-04
 -1      3645 2.17151E-03-5.28295E-03-3.23857E-04
 -1      3646 7.94437E-04-5.08044E-03-2.66885E-04
 -1      3647 2.64121E-04-6.20966E-03-2.96296E-04
 -1      3648-6.43431E-04-6.00624E-03-2.41021E-04
 -1      3649-7.57837E-04-6.75596E-03-2.63744E-04
 -1      3650-1.27656E-03-6.45932E-03-2.11204E-04
 -1      3651-1.10928E-03-6.80204E-03-2.26942E-04
 -1      3652-1.33670E-03-6.35361E-03-1.78188E-04
 -1      3653-1.01730E-03-6.30125E-03-1.86913E-04
 -1      3654-1.05585E-03-5.67962E-03-1.42906E-04
 -1      3655-6.99199E-04-5.28034E-03-1.44922E-04
 -1      3656-6.42490E-04-4.49935E-03-1.06108E-04
 -1      3657-3.39647E-04-3.82743E-03-1.02157E-04
 -1      3658-2.59997E-04-2.92347E-03-6.78139E-05
 -1      3659-7.24450E-05-2.05366E-03-5.79048E-05
 -1      3660-2.43841E-05-1.05103E-03-2.25093E-05
 -1      3661 1.22045E-01-1.05381E-01 2.03538E-04
 -1      3662 1.18565E-01-9.79972E-02 2.11432E-04
 -1      3663 1.20110E-01-8.93166E-02 1.54906E-04
 -1      3664 1.15459E-01-8.19092E-02 1.22306E-04
 -1      3665 1.15676E-01-7.29520E-02 7.14833E-05
 -1      3666 1.09935E-01-6.60351E-02 2.08057E-05
 -1      3667 1.08931E-01-5.72729E-02-1.11990E-05
 -1      3668 1.02364E-01-5.12298E-02-6.62771E-05
 -1      3669 1.00315E-01-4.29679E-02-7.74944E-05
 -1      3670 9.32310E-02-3.80121E-02-1.31610E-04
 -1      3671 9.03168E-02-3.04504E-02-1.25350E-04
 -1      3672 8.30085E-02-2.66665E-02-1.77765E-04
 -1      3673 7.94131E-02-1.99442E-02-1.58345E-04
 -1      3674 7.21405E-02-1.73316E-02-2.09829E-04
 -1      3675 6.80569E-02-1.15416E-02-1.80842E-04
 -1      3676 6.10497E-02-1.00393E-02-2.32146E-04
 -1      3677 5.66798E-02-5.22859E-03-1.96173E-04
 -1      3678 5.01368E-02-4.72863E-03-2.47570E-04
 -1      3679 4.56835E-02-8.96736E-04-2.06387E-04
 -1      3680 3.97687E-02-1.25361E-03-2.57677E-04
 -1      3681 3.54246E-02 1.64682E-03-2.12553E-04
 -1      3682 3.02617E-02 6.06692E-04-2.63203E-04
 -1      3683 2.61976E-02 2.66498E-03-2.15130E-04
 -1      3684 2.18656E-02 1.13267E-03-2.64417E-04
 -1      3685 1.82207E-02 2.47214E-03-2.14266E-04
 -1      3686 1.47521E-02 6.44647E-04-2.61381E-04
 -1      3687 1.16267E-02 1.41244E-03-2.09985E-04
 -1      3688 9.00757E-03-5.19112E-04-2.54108E-04
 -1      3689 6.45937E-03-1.63588E-04-2.02297E-04
 -1      3690 4.63339E-03-2.02511E-03-2.42645E-04
 -1      3691 2.67662E-03-1.92207E-03-1.91261E-04
 -1      3692 1.55128E-03-3.56628E-03-2.27119E-04
 -1      3693 1.59200E-04-3.56707E-03-1.77019E-04
 -1      3694-3.85417E-04-4.88117E-03-2.07770E-04
 -1      3695-1.27503E-03-4.85857E-03-1.59818E-04
 -1      3696-1.37606E-03-5.76953E-03-1.84975E-04
 -1      3697-1.85277E-03-5.62631E-03-1.40030E-04
 -1      3698-1.65335E-03-6.10348E-03-1.59267E-04
 -1      3699-1.82341E-03-5.77861E-03-1.18122E-04
 -1      3700-1.46104E-03-5.83362E-03-1.31298E-04
 -1      3701-1.43445E-03-5.30526E-03-9.45000E-05
 -1      3702-1.02945E-03-4.98847E-03-1.01592E-04
 -1      3703-9.05727E-04-4.27193E-03-6.88631E-05
 -1      3704-5.51512E-04-3.66197E-03-6.99236E-05
 -1      3705-4.08171E-04-2.79917E-03-3.92810E-05
 -1      3706-1.68385E-04-1.97757E-03-3.39368E-05
 -1      3707-7.02449E-05-1.00826E-03 8.95865E-07
 -1      3708 1.28239E-01-1.04631E-01 1.45862E-04
 -1      3709 1.24686E-01-9.68487E-02 1.61626E-04
 -1      3710 1.26154E-01-8.78959E-02 1.25566E-04
 -1      3711 1.21409E-01-8.01728E-02 1.06822E-04
 -1      3712 1.21509E-01-7.09469E-02 7.22510E-05
 -1      3713 1.15638E-01-6.37399E-02 3.67047E-05
 -1      3714 1.14452E-01-5.47008E-02 1.58016E-05
 -1      3715 1.07695E-01-4.83829E-02-2.57440E-05
 -1      3716 1.05393E-01-3.98609E-02-2.98891E-05
 -1      3717 9.80536E-02-3.46638E-02-7.27513E-05
 -1      3718 9.48297E-02-2.68876E-02-6.20625E-05
 -1      3719 8.72129E-02-2.29172E-02-1.05193E-04
 -1      3720 8.32721E-02-1.60449E-02-8.30660E-05
 -1      3721 7.56590E-02-1.33136E-02-1.26753E-04
 -1      3722 7.12158E-02-7.44599E-03-9.63172E-05
 -1      3723 6.38581E-02-5.89656E-03-1.40950E-04
 -1      3724 5.91334E-02-1.08064E-03-1.04588E-04
 -1      3725 5.22489E-02-6.02051E-04-1.50238E-04
 -1      3726 4.74616E-02 3.16826E-03-1.09647E-04
 -1      3727 4.12297E-02 2.72914E-03-1.56028E-04
 -1      3728 3.65851E-02 5.51022E-03-1.12441E-04
 -1      3729 3.11414E-02 4.33746E-03-1.59009E-04
 -1      3730 2.68197E-02 6.22995E-03-1.13390E-04
 -1      3731 2.22512E-02 4.52681E-03-1.59445E-04
 -1      3732 1.83978E-02 5.66675E-03-1.12627E-04
 -1      3733 1.47414E-02 3.64318E-03-1.57402E-04
 -1      3734 1.14596E-02 4.19093E-03-1.10163E-04
 -1      3735 8.70225E-03 2.05093E-03-1.52878E-04
 -1      3736 6.04924E-03 2.17886E-03-1.05979E-04
 -1      3737 4.13243E-03 1.08566E-04-1.45885E-04
 -1      3738 2.11910E-03-1.16521E-05-1.00083E-04
 -1      3739 9.45265E-04-1.85443E-03-1.36487E-04
 -1      3740-4.61068E-04-2.06396E-03-9.25323E-05
 -1      3741-1.01908E-03-3.55805E-03-1.24828E-04
 -1      3742-1.88853E-03-3.72176E-03-8.34575E-05
 -1      3743-1.97649E-03-4.78831E-03-1.11156E-04
 -1      3744-2.40763E-03-4.80354E-03-7.30661E-05
 -1      3745-2.17765E-03-5.40883E-03-9.58088E-05
 -1      3746-2.28601E-03-5.21154E-03-6.15799E-05
 -1      3747-1.88370E-03-5.36680E-03-7.91301E-05
 -1      3748-1.78800E-03-4.93421E-03-4.90007E-05
 -1      3749-1.33944E-03-4.69191E-03-6.10709E-05
 -1      3750-1.14687E-03-4.04081E-03-3.42575E-05
 -1      3751-7.47911E-04-3.48489E-03-4.03154E-05
 -1      3752-5.42330E-04-2.66418E-03-1.39272E-05
 -1      3753-2.56837E-04-1.88736E-03-1.30365E-05
 -1      3754-1.11474E-04-9.56803E-04 2.10897E-05
 -1      3755 1.34479E-01-1.03981E-01 1.02280E-04
 -1      3756 1.30849E-01-9.57860E-02 1.23188E-04
 -1      3757 1.32243E-01-8.65261E-02 1.02579E-04
 -1      3758 1.27389E-01-7.84688E-02 9.43931E-05
 -1      3759 1.27371E-01-6.89515E-02 7.32101E-05
 -1      3760 1.21352E-01-6.14434E-02 5.02129E-05
 -1      3761 1.19987E-01-5.21154E-02 3.95342E-05
 -1      3762 1.13025E-01-4.55213E-02 9.93795E-06
 -1      3763 1.10478E-01-3.67319E-02 1.30578E-05
 -1      3764 1.02874E-01-3.12975E-02-1.94617E-05
 -1      3765 9.93477E-02-2.33010E-02-3.80367E-06
 -1      3766 9.14179E-02-1.91502E-02-3.82512E-05
 -1      3767 8.71367E-02-1.21227E-02-1.28660E-05
 -1      3768 7.91811E-02-9.27886E-03-4.92606E-05
 -1      3769 7.43806E-02-3.32950E-03-1.69030E-05
 -1      3770 6.66715E-02-1.73880E-03-5.53610E-05
 -1      3771 6.15920E-02 3.08518E-03-1.81997E-05
 -1      3772 5.43661E-02 3.53706E-03-5.86058E-05
 -1      3773 4.92433E-02 7.24709E-03-1.82230E-05
 -1      3774 4.26954E-02 6.72105E-03-6.01981E-05
 -1      3775 3.77479E-02 9.38252E-03-1.77571E-05
 -1      3776 3.20251E-02 8.07330E-03-6.07277E-05
 -1      3777 2.74434E-02 9.79835E-03-1.71419E-05
 -1      3778 2.26409E-02 7.92156E-03-6.04200E-05
 -1      3779 1.85769E-02 8.85911E-03-1.64736E-05
 -1      3780 1.47356E-02 6.63778E-03-5.93188E-05
 -1      3781 1.12960E-02 6.96170E-03-1.57357E-05
 -1      3782 8.40359E-03 4.61280E-03-5.73997E-05
 -1      3783 5.64553E-03 4.50868E-03-1.48757E-05
 -1      3784 3.64092E-03 2.23044E-03-5.46330E-05
 -1      3785 1.57200E-03 1.88217E-03-1.38446E-05
 -1      3786 3.52353E-04-1.57136E-04-5.10189E-05
 -1      3787-1.06601E-03-5.80212E-04-1.26197E-05
 -1      3788-1.63535E-03-2.25112E-03-4.66098E-05
 -1      3789-2.48122E-03-2.60557E-03-1.12188E-05
 -1      3790-2.55492E-03-3.82353E-03-4.15258E-05
 -1      3791-2.93617E-03-4.00090E-03-9.70014E-06
 -1      3792-2.67564E-03-4.72915E-03-3.59392E-05
 -1      3793-2.71766E-03-4.66204E-03-8.08938E-06
 -1      3794-2.27710E-03-4.91132E-03-2.99556E-05
 -1      3795-2.10852E-03-4.57578E-03-6.11443E-06
 -1      3796-1.62064E-03-4.40053E-03-2.31444E-05
 -1      3797-1.35806E-03-3.81484E-03-2.24445E-06
 -1      3798-9.21764E-04-3.30482E-03-1.34439E-05
 -1      3799-6.56792E-04-2.52540E-03 7.94545E-06
 -1      3800-3.34118E-04-1.78813E-03 4.22665E-06
 -1      3801-1.45945E-04-8.98886E-04 3.70778E-05
 -1      3802 1.40772E-01-1.03404E-01 6.98614E-05
 -1      3803 1.37064E-01-9.47887E-02 9.37314E-05
 -1      3804 1.38385E-01-8.51949E-02 8.46353E-05
 -1      3805 1.33413E-01-7.67886E-02 8.46906E-05
 -1      3806 1.33277E-01-6.69596E-02 7.45487E-05
 -1      3807 1.27096E-01-5.91396E-02 6.22677E-05
 -1      3808 1.25554E-01-4.95102E-02 6.09521E-05
 -1      3809 1.18375E-01-4.26362E-02 4.20977E-05
 -1      3810 1.15585E-01-3.35719E-02 5.24781E-05
 -1      3811 1.07708E-01-2.79021E-02 2.95333E-05
 -1      3812 1.03883E-01-1.96803E-02 5.04845E-05
 -1      3813 9.56335E-02-1.53534E-02 2.41724E-05
 -1      3814 9.10140E-02-8.16716E-03 5.31946E-05
 -1      3815 8.27118E-02-5.21630E-03 2.36263E-05
 -1      3816 7.75542E-02 8.17042E-04 5.82517E-05
 -1      3817 6.94912E-02 2.44333E-03 2.55258E-05
 -1      3818 6.40557E-02 7.27622E-03 6.37958E-05
 -1      3819 5.64870E-02 7.69587E-03 2.81982E-05
 -1      3820 5.10265E-02 1.13450E-02 6.86713E-05
 -1      3821 4.41623E-02 1.07269E-02 3.06788E-05
 -1      3822 3.89096E-02 1.32669E-02 7.22848E-05
 -1      3823 3.29086E-02 1.18166E-02 3.25084E-05
 -1      3824 2.80648E-02 1.33712E-02 7.43999E-05
 -1      3825 2.30298E-02 1.13169E-02 3.35275E-05
 -1      3826 1.87541E-02 1.20482E-02 7.49754E-05
 -1      3827 1.47302E-02 9.62617E-03 3.37282E-05
 -1      3828 1.11326E-02 9.72177E-03 7.40633E-05
 -1      3829 8.10806E-03 7.16215E-03 3.31670E-05
 -1      3830 5.24584E-03 6.82121E-03 7.17553E-05
 -1      3831 3.15669E-03 4.33440E-03 3.19169E-05
 -1      3832 1.03429E-03 3.75335E-03 6.81557E-05
 -1      3833-2.27897E-04 1.51815E-03 3.00425E-05
 -1      3834-1.65499E-03 8.77177E-04 6.33666E-05
 -1      3835-2.23269E-03-9.68687E-04 2.75817E-05
 -1      3836-3.05068E-03-1.51755E-03 5.74773E-05
 -1      3837-3.10777E-03-2.88385E-03 2.45324E-05
 -1      3838-3.43416E-03-3.22609E-03 5.05633E-05
 -1      3839-3.14181E-03-4.07310E-03 2.08665E-05
 -1      3840-3.11248E-03-4.13777E-03 4.27498E-05
 -1      3841-2.63422E-03-4.47571E-03 1.66411E-05
 -1      3842-2.38879E-03-4.23769E-03 3.44551E-05
 -1      3843-1.86516E-03-4.12281E-03 1.24776E-05
 -1      3844-1.53143E-03-3.60187E-03 2.73470E-05
 -1      3845-1.06578E-03-3.12971E-03 1.07978E-05
 -1      3846-7.45135E-04-2.38952E-03 2.62679E-05
 -1      3847-3.96205E-04-1.68457E-03 1.75648E-05
 -1      3848-1.71266E-04-8.36435E-04 4.79183E-05
 -1      3849 1.47122E-01-1.02881E-01 4.63194E-05
 -1      3850 1.43339E-01-9.38403E-02 7.12624E-05
 -1      3851 1.44588E-01-8.38918E-02 7.04529E-05
 -1      3852 1.39493E-01-7.51243E-02 7.71117E-05
 -1      3853 1.39238E-01-6.49653E-02 7.61333E-05
 -1      3854 1.32885E-01-5.68229E-02 7.33044E-05
 -1      3855 1.31166E-01-4.68792E-02 8.06201E-05
 -1      3856 1.23759E-01-3.97207E-02 7.16174E-05
 -1      3857 1.20728E-01-3.03738E-02 8.91851E-05
 -1      3858 1.12568E-01-2.44689E-02 7.51888E-05
 -1      3859 1.08445E-01-1.60172E-02 1.01628E-04
 -1      3860 9.98686E-02-1.15176E-02 8.29652E-05
 -1      3861 9.49107E-02-4.17029E-03 1.15880E-04
 -1      3862 8.62561E-02-1.11728E-03 9.27131E-05
 -1      3863 8.07401E-02 5.00075E-03 1.29851E-04
 -1      3864 7.23190E-02 6.65712E-03 1.02458E-04
 -1      3865 6.65254E-02 1.14982E-02 1.42066E-04
 -1      3866 5.86111E-02 1.18799E-02 1.10894E-04
 -1      3867 5.28105E-02 1.54662E-02 1.51687E-04
 -1      3868 4.56284E-02 1.47504E-02 1.17313E-04
 -1      3869 4.00683E-02 1.71658E-02 1.58330E-04
 -1      3870 3.37887E-02 1.55692E-02 1.21409E-04
 -1      3871 2.86813E-02 1.69493E-02 1.61880E-04
 -1      3872 2.34148E-02 1.47128E-02 1.23105E-04
 -1      3873 1.89267E-02 1.52332E-02 1.62359E-04
 -1      3874 1.47222E-02 1.26065E-02 1.22440E-04
 -1      3875 1.09671E-02 1.24688E-02 1.59862E-04
 -1      3876 7.81322E-03 9.69558E-03 1.19506E-04
 -1      3877 4.84859E-03 9.11281E-03 1.54520E-04
 -1      3878 2.67834E-03 6.41569E-03 1.14422E-04
 -1      3879 5.05468E-04 5.59719E-03 1.46491E-04
 -1      3880-7.95527E-04 3.16564E-03 1.07316E-04
 -1      3881-2.22723E-03 2.30276E-03 1.35956E-04
 -1      3882-2.80960E-03 2.82815E-04 9.83143E-05
 -1      3883-3.59470E-03-4.63556E-04 1.23104E-04
 -1      3884-3.63193E-03-1.97603E-03 8.75275E-05
 -1      3885-3.89792E-03-2.48514E-03 1.08134E-04
 -1      3886-3.57144E-03-3.44751E-03 7.50513E-05
 -1      3887-3.46530E-03-3.64484E-03 9.12832E-05
 -1      3888-2.94879E-03-4.06685E-03 6.10440E-05
 -1      3889-2.62204E-03-3.92625E-03 7.30033E-05
 -1      3890-2.06537E-03-3.86595E-03 4.61432E-05
 -1      3891-1.65867E-03-3.40878E-03 5.47890E-05
 -1      3892-1.17187E-03-2.96705E-03 3.26985E-05
 -1      3893-7.99480E-04-2.26340E-03 4.11873E-05
 -1      3894-4.38169E-04-1.58147E-03 2.68970E-05
 -1      3895-1.84396E-04-7.71329E-04 5.25806E-05
 -1      3896 1.53528E-01-1.02397E-01 2.97363E-05
 -1      3897 1.49673E-01-9.29279E-02 5.40129E-05
 -1      3898 1.50852E-01-8.26082E-02 5.87962E-05
 -1      3899 1.45634E-01-7.34688E-02 7.09288E-05
 -1      3900 1.45262E-01-6.29628E-02 7.76746E-05
 -1      3901 1.38731E-01-5.44877E-02 8.34758E-05
 -1      3902 1.36835E-01-4.42171E-02 9.88762E-05
 -1      3903 1.29191E-01-3.67686E-02 9.90957E-05
 -1      3904 1.25919E-01-2.71312E-02 1.23781E-04
 -1      3905 1.17465E-01-2.09906E-02 1.18233E-04
 -1      3906 1.13043E-01-1.23050E-02 1.50278E-04
 -1      3907 1.04131E-01-7.63547E-03 1.38841E-04
 -1      3908 9.88325E-02-1.25675E-04 1.75811E-04
 -1      3909 8.98186E-02 3.02495E-03 1.58663E-04
 -1      3910 8.39414E-02 9.22722E-03 1.98472E-04
 -1      3911 7.51569E-02 1.09082E-02 1.76057E-04
 -1      3912 6.90019E-02 1.57556E-02 2.17157E-04
 -1      3913 6.07384E-02 1.60935E-02 1.90080E-04
 -1      3914 5.45946E-02 1.96138E-02 2.31355E-04
 -1      3915 4.70925E-02 1.87945E-02 2.00294E-04
 -1      3916 4.12225E-02 2.10812E-02 2.40905E-04
 -1      3917 3.46636E-02 1.93325E-02 2.06563E-04
 -1      3918 2.92910E-02 2.05333E-02 2.45822E-04
 -1      3919 2.37936E-02 1.81092E-02 2.08900E-04
 -1      3920 1.90926E-02 1.84133E-02 2.46198E-04
 -1      3921 1.47094E-02 1.55775E-02 2.07398E-04
 -1      3922 1.07977E-02 1.52010E-02 2.42169E-04
 -1      3923 7.51750E-03 1.22104E-02 2.02186E-04
 -1      3924 4.45272E-03 1.13806E-02 2.33907E-04
 -1      3925 2.20512E-03 8.47062E-03 1.93429E-04
 -1      3926-1.47020E-05 7.40993E-03 2.21623E-04
 -1      3927-1.35026E-03 4.78085E-03 1.81318E-04
 -1      3928-2.78195E-03 3.69217E-03 2.05569E-04
 -1      3929-3.36459E-03 1.49837E-03 1.66067E-04
 -1      3930-4.11135E-03 5.51687E-04 1.86035E-04
 -1      3931-4.12460E-03-1.10533E-03 1.47896E-04
 -1      3932-4.32430E-03-1.78290E-03 1.63330E-04
 -1      3933-3.96039E-03-2.85768E-03 1.27012E-04
 -1      3934-3.77156E-03-3.18814E-03 1.37778E-04
 -1      3935-3.21516E-03-3.69019E-03 1.03634E-04
 -1      3936-2.80195E-03-3.64655E-03 1.09777E-04
 -1      3937-2.21371E-03-3.63593E-03 7.82686E-05
 -1      3938-1.73110E-03-3.24140E-03 8.03960E-05
 -1      3939-1.23069E-03-2.82376E-03 5.27389E-05
 -1      3940-8.09621E-04-2.15430E-03 5.30860E-05
 -1      3941-4.53360E-04-1.48440E-03 3.23951E-05
 -1      3942-1.81051E-04-7.05821E-04 4.97897E-05
 -1      3943 1.59986E-01-1.01938E-01 1.82615E-05
 -1      3944 1.56067E-01-9.20413E-02 4.03584E-05
 -1      3945 1.57179E-01-8.13365E-02 4.84223E-05
 -1      3946 1.51841E-01-7.18156E-02 6.53892E-05
 -1      3947 1.51354E-01-6.09464E-02 7.87854E-05
 -1      3948 1.44642E-01-5.21286E-02 9.27980E-05
 -1      3949 1.42571E-01-4.15186E-02 1.15912E-04
 -1      3950 1.34681E-01-3.37742E-02 1.24959E-04
 -1      3951 1.31166E-01-2.38388E-02 1.56722E-04
 -1      3952 1.22409E-01-1.74613E-02 1.59232E-04
 -1      3953 1.17684E-01-8.53847E-03 1.96966E-04
 -1      3954 1.08428E-01-3.70107E-03 1.92372E-04
 -1      3955 1.02785E-01 3.97163E-03 2.33506E-04
 -1      3956 9.34037E-02 7.21578E-03 2.22012E-04
 -1      3957 8.71613E-02 1.35007E-02 2.64605E-04
 -1      3958 7.80069E-02 1.52011E-02 2.46825E-04
 -1      3959 7.14869E-02 2.00517E-02 2.89537E-04
 -1      3960 6.28692E-02 2.03401E-02 2.66238E-04
 -1      3961 5.63792E-02 2.37903E-02 3.08132E-04
 -1      3962 4.85538E-02 2.28613E-02 2.80096E-04
 -1      3963 4.23717E-02 2.50143E-02 3.20462E-04
 -1      3964 3.55318E-02 2.31075E-02 2.88440E-04
 -1      3965 2.98929E-02 2.41234E-02 3.26676E-04
 -1      3966 2.41645E-02 2.15061E-02 2.91383E-04
 -1      3967 1.92509E-02 2.15881E-02 3.26937E-04
 -1      3968 1.46903E-02 1.85378E-02 2.89066E-04
 -1      3969 1.06238E-02 1.79168E-02 3.21422E-04
 -1      3970 7.21966E-03 1.47045E-02 2.81662E-04
 -1      3971 4.05786E-03 1.36222E-02 3.10340E-04
 -1      3972 1.73642E-03 1.04961E-02 2.69375E-04
 -1      3973-5.25934E-04 9.18874E-03 2.93951E-04
 -1      3974-1.89184E-03 6.36005E-03 2.52461E-04
 -1      3975-3.31805E-03 5.04214E-03 2.72579E-04
 -1      3976-3.89643E-03 2.67382E-03 2.31220E-04
 -1      3977-4.59865E-03 1.52472E-03 2.46608E-04
 -1      3978-4.58348E-03-2.76132E-04 2.05981E-04
 -1      3979-4.71035E-03-1.12286E-03 2.16455E-04
 -1      3980-4.30514E-03-2.30813E-03 1.77061E-04
 -1      3981-4.02716E-03-2.77108E-03 1.82516E-04
 -1      3982-3.42825E-03-3.35035E-03 1.44722E-04
 -1      3983-2.92267E-03-3.40214E-03 1.45087E-04
 -1      3984-2.30273E-03-3.43766E-03 1.09228E-04
 -1      3985-1.73986E-03-3.10423E-03 1.04624E-04
 -1      3986-1.23159E-03-2.70585E-03 7.14759E-05
 -1      3987-7.61973E-04-2.06956E-03 6.27543E-05
 -1      3988-4.32008E-04-1.40057E-03 3.46471E-05
 -1      3989-1.54520E-04-6.43337E-04 3.79591E-05
 -1      3990 1.66488E-01-1.01495E-01 1.01595E-05
 -1      3991 1.62514E-01-9.11719E-02 2.86155E-05
 -1      3992 1.63566E-01-8.00695E-02 3.82368E-05
 -1      3993 1.58116E-01-7.01581E-02 5.96505E-05
 -1      3994 1.57521E-01-5.89099E-02 7.91678E-05
 -1      3995 1.50627E-01-4.97402E-02 1.01168E-04
 -1      3996 1.48381E-01-3.87781E-02 1.31896E-04
 -1      3997 1.40239E-01-3.07327E-02 1.49510E-04
 -1      3998 1.36478E-01-2.04915E-02 1.88376E-04
 -1      3999 1.27409E-01-1.38763E-02 1.98646E-04
 -1      4000 1.22377E-01-4.71265E-03 2.42098E-04
 -1      4001 1.12766E-01 2.89950E-04 2.44047E-04
 -1      4002 1.06773E-01 8.12611E-03 2.89352E-04
 -1      4003 9.70156E-02 1.14590E-02 2.83233E-04
 -1      4004 9.04020E-02 1.78249E-02 3.28603E-04
 -1      4005 8.08715E-02 1.95389E-02 3.15214E-04
 -1      4006 7.39808E-02 2.43896E-02 3.59533E-04
 -1      4007 6.50048E-02 2.46220E-02 3.39806E-04
 -1      4008 5.81635E-02 2.79977E-02 3.82332E-04
 -1      4009 5.00126E-02 2.69525E-02 3.57154E-04
 -1      4010 4.35144E-02 2.89665E-02 3.97310E-04
 -1      4011 3.63931E-02 2.68950E-02 3.67478E-04
 -1      4012 3.04853E-02 2.77201E-02 4.04748E-04
 -1      4013 2.45271E-02 2.49032E-02 3.70989E-04
 -1      4014 1.93998E-02 2.47569E-02 4.04876E-04
 -1      4015 1.46645E-02 2.14866E-02 3.67883E-04
 -1      4016 1.04435E-02 2.06148E-02 3.97909E-04
 -1      4017 6.91966E-03 1.71762E-02 3.58365E-04
 -1      4018 3.66281E-03 1.58356E-02 3.84088E-04
 -1      4019 1.27268E-03 1.24901E-02 3.42687E-04
 -1      4020-1.02882E-03 1.09307E-02 3.63716E-04
 -1      4021-2.41925E-03 7.90073E-03 3.21163E-04
 -1      4022-3.83539E-03 6.34927E-03 3.37184E-04
 -1      4023-4.40340E-03 3.80642E-03 2.94183E-04
 -1      4024-5.05562E-03 2.45178E-03 3.04963E-04
 -1      4025-5.00608E-03 5.08793E-04 2.62193E-04
 -1      4026-5.05412E-03-5.08965E-04 2.67573E-04
 -1      4027-4.60228E-03-1.80145E-03 2.25630E-04
 -1      4028-4.22892E-03-2.39772E-03 2.25468E-04
 -1      4029-3.58334E-03-3.04969E-03 1.84814E-04
 -1      4030-2.97900E-03-3.19728E-03 1.78859E-04
 -1      4031-2.32558E-03-3.27341E-03 1.39683E-04
 -1      4032-1.67573E-03-3.00183E-03 1.27470E-04
 -1      4033-1.16351E-03-2.61712E-03 8.99131E-05
 -1      4034-6.38860E-04-2.01526E-03 7.08516E-05
 -1      4035-3.58744E-04-1.33993E-03 3.56281E-05
 -1      4036-9.27615E-05-5.90298E-04 1.50053E-05
 -1      4037 1.73020E-01-1.01061E-01 3.05424E-06
 -1      4038 1.69009E-01-9.03125E-02 1.74885E-05
 -1      4039 1.70010E-01-7.87996E-02 2.68159E-05
 -1      4040 1.64460E-01-6.84896E-02 5.31928E-05
 -1      4041 1.63765E-01-5.68470E-02 7.83401E-05
 -1      4042 1.56691E-01-4.73163E-02 1.08603E-04
 -1      4043 1.54274E-01-3.59914E-02 1.46888E-04
 -1      4044 1.45872E-01-2.76380E-02 1.73036E-04
 -1      4045 1.41863E-01-1.70864E-02 2.19087E-04
 -1      4046 1.32470E-01-1.02298E-02 2.36842E-04
 -1      4047 1.27127E-01-8.25807E-04 2.86142E-04
 -1      4048 1.17149E-01 4.34307E-03 2.94223E-04
 -1      4049 1.10801E-01 1.23388E-02 3.43861E-04
 -1      4050 1.00657E-01 1.57595E-02 3.42651E-04
 -1      4051 9.36682E-02 2.22006E-02 3.90994E-04
 -1      4052 8.37510E-02 2.39256E-02 3.81520E-04
 -1      4053 7.64874E-02 2.87695E-02 4.27685E-04
 -1      4054 6.71438E-02 2.89422E-02 4.11068E-04
 -1      4055 5.99509E-02 3.22362E-02 4.54505E-04
 -1      4056 5.14664E-02 3.10699E-02 4.31743E-04
 -1      4057 4.46537E-02 3.29378E-02 4.72008E-04
 -1      4058 3.72445E-02 3.06959E-02 4.43949E-04
 -1      4059 3.10711E-02 3.13233E-02 4.80604E-04
 -1      4060 2.48780E-02 2.83006E-02 4.47992E-04
 -1      4061 1.95420E-02 2.79197E-02 4.80587E-04
 -1      4062 1.46289E-02 2.44227E-02 4.44113E-04
 -1      4063 1.02599E-02 2.32947E-02 4.72202E-04
 -1      4064 6.61467E-03 1.96234E-02 4.32552E-04
 -1      4065 3.27048E-03 1.80204E-02 4.55718E-04
 -1      4066 8.11698E-04 1.44494E-02 4.13597E-04
 -1      4067-1.52033E-03 1.26356E-02 4.31483E-04
 -1      4068-2.93382E-03 9.39899E-03 3.87624E-04
 -1      4069-4.33080E-03 7.61346E-03 3.99952E-04
 -1      4070-4.88586E-03 4.89177E-03 3.55111E-04
 -1      4071-5.47892E-03 3.33301E-03 3.61687E-04
 -1      4072-5.39167E-03 1.24471E-03 3.16617E-04
 -1      4073-5.35203E-03 5.93313E-05 3.17334E-04
 -1      4074-4.84992E-03-1.34258E-03 2.72701E-04
 -1      4075-4.37287E-03-2.06680E-03 2.67422E-04
 -1      4076-3.67697E-03-2.79338E-03 2.23730E-04
 -1      4077-2.96591E-03-3.02962E-03 2.12212E-04
 -1      4078-2.27607E-03-3.14908E-03 1.69321E-04
 -1      4079-1.53103E-03-2.93016E-03 1.50498E-04
 -1      4080-1.01338E-03-2.56572E-03 1.08054E-04
 -1      4081-4.24494E-04-1.98764E-03 7.96194E-05
 -1      4082-2.05698E-04-1.31708E-03 3.85143E-05
 -1      4083 2.91105E-05-5.60089E-04-1.94984E-05
 -1      4084 1.75541E-01-8.94539E-02 5.69843E-06
 -1      4085 1.70877E-01-6.68017E-02 4.57698E-05
 -1      4086 1.62844E-01-4.48505E-02 1.15265E-04
 -1      4087 1.51589E-01-2.44853E-02 1.95874E-04
 -1      4088 1.37601E-01-6.51779E-03 2.74208E-04
 -1      4089 1.21582E-01 8.46158E-03 3.43305E-04
 -1      4090 1.04329E-01 2.01199E-02 4.00681E-04
 -1      4091 8.66459E-02 2.83635E-02 4.46182E-04
 -1      4092 6.92856E-02 3.33026E-02 4.80489E-04
 -1      4093 5.29141E-02 3.52149E-02 5.04365E-04
 -1      4094 3.80841E-02 3.45107E-02 5.18393E-04
 -1      4095 2.52155E-02 3.16979E-02 5.22969E-04
 -1      4096 1.45815E-02 2.73453E-02 5.18381E-04
 -1      4097 6.30321E-03 2.20445E-02 5.04903E-04
 -1      4098 3.52478E-04 1.63720E-02 4.82867E-04
 -1      4099-3.43595E-03 1.08525E-02 4.52723E-04
 -1      4100-5.34344E-03 5.92743E-03 4.15058E-04
 -1      4101-5.73905E-03 1.92939E-03 3.70592E-04
 -1      4102-5.04587E-03-9.33108E-04 3.20100E-04
 -1      4103-3.70562E-03-2.58160E-03 2.64176E-04
 -1      4104-2.14838E-03-3.06253E-03 2.02695E-04
 -1      4105-7.69402E-04-2.54416E-03 1.34083E-04
 -1      4106 5.11068E-05-1.31953E-03 5.92769E-05
 -1      4107 6.62211E-02-1.10369E-01-2.12330E-04
 -1      4108 6.57729E-02-1.10297E-01-4.37489E-05
 -1      4109 6.56219E-02-1.10374E-01-1.21239E-13
 -1      4110 6.57729E-02-1.10297E-01 4.37489E-05
 -1      4111 6.62211E-02-1.10369E-01 2.12330E-04
 -1      4112 6.37118E-02-9.66175E-02 5.17986E-04
 -1      4113 6.35556E-02-9.67215E-02 3.02946E-04
 -1      4114 6.35079E-02-9.68034E-02-1.31434E-13
 -1      4115 6.35556E-02-9.67215E-02-3.02946E-04
 -1      4116 6.37118E-02-9.66175E-02-5.17986E-04
 -1      4117 6.15933E-02-8.50286E-02 6.26993E-04
 -1      4118 6.15763E-02-8.51112E-02 3.23413E-04
 -1      4119 6.15784E-02-8.51627E-02-1.38582E-13
 -1      4120 6.15763E-02-8.51112E-02-3.23413E-04
 -1      4121 6.15933E-02-8.50286E-02-6.26993E-04
 -1      4122 5.86489E-02-7.48080E-02 6.40744E-04
 -1      4123 5.86620E-02-7.48665E-02 3.23679E-04
 -1      4124 5.86708E-02-7.48958E-02-1.45581E-13
 -1      4125 5.86620E-02-7.48665E-02-3.23679E-04
 -1      4126 5.86489E-02-7.48080E-02-6.40744E-04
 -1      4127 5.49971E-02-6.54844E-02 6.77211E-04
 -1      4128 5.50154E-02-6.55342E-02 3.38704E-04
 -1      4129 5.50243E-02-6.55539E-02-1.51173E-13
 -1      4130 5.50154E-02-6.55342E-02-3.38704E-04
 -1      4131 5.49971E-02-6.54844E-02-6.77211E-04
 -1      4132 5.06769E-02-5.70353E-02 7.26976E-04
 -1      4133 5.06998E-02-5.70815E-02 3.63605E-04
 -1      4134 5.07086E-02-5.70979E-02-1.53950E-13
 -1      4135 5.06998E-02-5.70815E-02-3.63605E-04
 -1      4136 5.06769E-02-5.70353E-02-7.26976E-04
 -1      4137 4.58730E-02-4.94591E-02 7.82512E-04
 -1      4138 4.59029E-02-4.95028E-02 3.91390E-04
 -1      4139 4.59133E-02-4.95174E-02-1.53540E-13
 -1      4140 4.59029E-02-4.95028E-02-3.91390E-04
 -1      4141 4.58730E-02-4.94591E-02-7.82512E-04
 -1      4142 4.07662E-02-4.27702E-02 8.35948E-04
 -1      4143 4.08045E-02-4.28096E-02 4.18253E-04
 -1      4144 4.08173E-02-4.28225E-02-1.52045E-13
 -1      4145 4.08045E-02-4.28096E-02-4.18253E-04
 -1      4146 4.07662E-02-4.27702E-02-8.35948E-04
 -1      4147 3.55415E-02-3.69597E-02 8.82287E-04
 -1      4148 3.55884E-02-3.69923E-02 4.41503E-04
 -1      4149 3.56038E-02-3.70029E-02-1.47375E-13
 -1      4150 3.55884E-02-3.69923E-02-4.41503E-04
 -1      4151 3.55415E-02-3.69597E-02-8.82287E-04
 -1      4152 3.03711E-02-3.19909E-02 9.17822E-04
 -1      4153 3.04250E-02-3.20143E-02 4.59329E-04
 -1      4154 3.04427E-02-3.20219E-02-1.40403E-13
 -1      4155 3.04250E-02-3.20143E-02-4.59329E-04
 -1      4156 3.03711E-02-3.19909E-02-9.17822E-04
 -1      4157 2.54070E-02-2.77987E-02 9.40094E-04
 -1      4158 2.54657E-02-2.78109E-02 4.70499E-04
 -1      4159 2.54848E-02-2.78148E-02-1.31660E-13
 -1      4160 2.54657E-02-2.78109E-02-4.70499E-04
 -1      4161 2.54070E-02-2.77987E-02-9.40094E-04
 -1      4162 2.07752E-02-2.42936E-02 9.47562E-04
 -1      4163 2.08356E-02-2.42934E-02 4.74250E-04
 -1      4164 2.08553E-02-2.42933E-02-1.20990E-13
 -1      4165 2.08356E-02-2.42934E-02-4.74250E-04
 -1      4166 2.07752E-02-2.42936E-02-9.47562E-04
 -1      4167 1.65718E-02-2.13681E-02 9.39421E-04
 -1      4168 1.66308E-02-2.13554E-02 4.70184E-04
 -1      4169 1.66500E-02-2.13513E-02-1.10059E-13
 -1      4170 1.66308E-02-2.13554E-02-4.70184E-04
 -1      4171 1.65718E-02-2.13681E-02-9.39421E-04
 -1      4172 1.28616E-02-1.89046E-02 9.15437E-04
 -1      4173 1.29157E-02-1.88802E-02 4.58184E-04
 -1      4174 1.29334E-02-1.88722E-02-9.74458E-14
 -1      4175 1.29157E-02-1.88802E-02-4.58184E-04
 -1      4176 1.28616E-02-1.89046E-02-9.15437E-04
 -1      4177 9.67768E-03-1.67832E-02 8.75809E-04
 -1      4178 9.72415E-03-1.67485E-02 4.38353E-04
 -1      4179 9.73932E-03-1.67372E-02-8.38726E-14
 -1      4180 9.72415E-03-1.67485E-02-4.38353E-04
 -1      4181 9.67768E-03-1.67832E-02-8.75809E-04
 -1      4182 7.02462E-03-1.48886E-02 8.21070E-04
 -1      4183 7.06098E-03-1.48460E-02 4.10958E-04
 -1      4184 7.07286E-03-1.48321E-02-7.07496E-14
 -1      4185 7.06098E-03-1.48460E-02-4.10958E-04
 -1      4186 7.02462E-03-1.48886E-02-8.21070E-04
 -1      4187 4.88198E-03-1.31173E-02 7.51965E-04
 -1      4188 4.90644E-03-1.30696E-02 3.76372E-04
 -1      4189 4.91444E-03-1.30541E-02-5.87607E-14
 -1      4190 4.90644E-03-1.30696E-02-3.76372E-04
 -1      4191 4.88198E-03-1.31173E-02-7.51965E-04
 -1      4192 3.21021E-03-1.13821E-02 6.69306E-04
 -1      4193 3.22165E-03-1.13326E-02 3.35001E-04
 -1      4194 3.22541E-03-1.13164E-02-4.80672E-14
 -1      4195 3.22165E-03-1.13326E-02-3.35001E-04
 -1      4196 3.21021E-03-1.13821E-02-6.69306E-04
 -1      4197 1.95725E-03-9.61565E-03 5.73702E-04
 -1      4198 1.95515E-03-9.56765E-03 2.87144E-04
 -1      4199 1.95451E-03-9.55205E-03-3.44336E-14
 -1      4200 1.95515E-03-9.56765E-03-2.87144E-04
 -1      4201 1.95725E-03-9.61565E-03-5.73702E-04
 -1      4202 1.06680E-03-7.77138E-03 4.65067E-04
 -1      4203 1.05107E-03-7.72874E-03 2.32703E-04
 -1      4204 1.04605E-03-7.71494E-03-2.48393E-14
 -1      4205 1.05107E-03-7.72874E-03-2.32703E-04
 -1      4206 1.06680E-03-7.77138E-03-4.65067E-04
 -1      4207 4.81935E-04-5.82500E-03 3.41769E-04
 -1      4208 4.53295E-04-5.79291E-03 1.70789E-04
 -1      4209 4.44258E-04-5.78255E-03-1.59073E-14
 -1      4210 4.53295E-04-5.79291E-03-1.70789E-04
 -1      4211 4.81935E-04-5.82500E-03-3.41769E-04
 -1      4212 1.61455E-04-3.78266E-03 2.01145E-04
 -1      4213 1.25082E-04-3.76709E-03 9.96557E-05
 -1      4214 1.14255E-04-3.76192E-03-8.42572E-15
 -1      4215 1.25082E-04-3.76709E-03-9.96557E-05
 -1      4216 1.61455E-04-3.78266E-03-2.01145E-04
 -1      4217 1.53148E-05-1.72114E-03 5.07698E-05
 -1      4218-1.23815E-05-1.72696E-03 2.53035E-05
 -1      4219-1.98758E-05-1.72668E-03-5.72730E-15
 -1      4220-1.23815E-05-1.72696E-03-2.53035E-05
 -1      4221 1.53148E-05-1.72114E-03-5.07698E-05
 -1      4222 7.62403E-02-1.09654E-01-5.25065E-04
 -1      4223 7.59492E-02-1.09741E-01-2.59806E-04
 -1      4224 7.58476E-02-1.09724E-01-1.28831E-13
 -1      4225 7.59492E-02-1.09741E-01 2.59806E-04
 -1      4226 7.62403E-02-1.09654E-01 5.25065E-04
 -1      4227 7.30578E-02-9.45149E-02 1.57377E-04
 -1      4228 7.29696E-02-9.46346E-02 7.36447E-05
 -1      4229 7.29281E-02-9.46662E-02-1.43210E-13
 -1      4230 7.29696E-02-9.46346E-02-7.36447E-05
 -1      4231 7.30578E-02-9.45149E-02-1.57377E-04
 -1      4232 6.93016E-02-8.19397E-02 3.85154E-04
 -1      4233 6.92906E-02-8.20445E-02 1.89543E-04
 -1      4234 6.92826E-02-8.20710E-02-1.51708E-13
 -1      4235 6.92906E-02-8.20445E-02-1.89543E-04
 -1      4236 6.93016E-02-8.19397E-02-3.85154E-04
 -1      4237 6.51349E-02-7.09920E-02 4.84445E-04
 -1      4238 6.51487E-02-7.10600E-02 2.40721E-04
 -1      4239 6.51499E-02-7.10795E-02-1.59340E-13
 -1      4240 6.51487E-02-7.10600E-02-2.40721E-04
 -1      4241 6.51349E-02-7.09920E-02-4.84445E-04
 -1      4242 6.03868E-02-6.11702E-02 5.51832E-04
 -1      4243 6.04047E-02-6.12230E-02 2.75080E-04
 -1      4244 6.04095E-02-6.12388E-02-1.65164E-13
 -1      4245 6.04047E-02-6.12230E-02-2.75080E-04
 -1      4246 6.03868E-02-6.11702E-02-5.51832E-04
 -1      4247 5.50574E-02-5.23814E-02 6.09708E-04
 -1      4248 5.50800E-02-5.24262E-02 3.04642E-04
 -1      4249 5.50868E-02-5.24405E-02-1.68064E-13
 -1      4250 5.50800E-02-5.24262E-02-3.04642E-04
 -1      4251 5.50574E-02-5.23814E-02-6.09708E-04
 -1      4252 4.92853E-02-4.46324E-02 6.62640E-04
 -1      4253 4.93141E-02-4.46727E-02 3.31336E-04
 -1      4254 4.93234E-02-4.46858E-02-1.67850E-13
 -1      4255 4.93141E-02-4.46727E-02-3.31336E-04
 -1      4256 4.92853E-02-4.46324E-02-6.62640E-04
 -1      4257 4.32546E-02-3.79397E-02 7.09766E-04
 -1      4258 4.32909E-02-3.79751E-02 3.55040E-04
 -1      4259 4.33027E-02-3.79867E-02-1.65738E-13
 -1      4260 4.32909E-02-3.79751E-02-3.55040E-04
 -1      4261 4.32546E-02-3.79397E-02-7.09766E-04
 -1      4262 3.71701E-02-3.22906E-02 7.49163E-04
 -1      4263 3.72137E-02-3.23194E-02 3.74805E-04
 -1      4264 3.72281E-02-3.23289E-02-1.60484E-13
 -1      4265 3.72137E-02-3.23194E-02-3.74805E-04
 -1      4266 3.71701E-02-3.22906E-02-7.49163E-04
 -1      4267 3.12304E-02-2.76339E-02 7.78809E-04
 -1      4268 3.12801E-02-2.76544E-02 3.89669E-04
 -1      4269 3.12965E-02-2.76612E-02-1.52697E-13
 -1      4270 3.12801E-02-2.76544E-02-3.89669E-04
 -1      4271 3.12304E-02-2.76339E-02-7.78809E-04
 -1      4272 2.56131E-02-2.38802E-02 7.97099E-04
 -1      4273 2.56669E-02-2.38908E-02 3.98837E-04
 -1      4274 2.56846E-02-2.38943E-02-1.42845E-13
 -1      4275 2.56669E-02-2.38908E-02-3.98837E-04
 -1      4276 2.56131E-02-2.38802E-02-7.97099E-04
 -1      4277 2.04646E-02-2.09082E-02 8.02921E-04
 -1      4278 2.05199E-02-2.09080E-02 4.01759E-04
 -1      4279 2.05381E-02-2.09080E-02-1.31053E-13
 -1      4280 2.05199E-02-2.09080E-02-4.01759E-04
 -1      4281 2.04646E-02-2.09082E-02-8.02921E-04
 -1      4282 1.58930E-02-1.85740E-02 7.95642E-04
 -1      4283 1.59469E-02-1.85628E-02 3.98121E-04
 -1      4284 1.59647E-02-1.85591E-02-1.18673E-13
 -1      4285 1.59469E-02-1.85628E-02-3.98121E-04
 -1      4286 1.58930E-02-1.85740E-02-7.95642E-04
 -1      4287 1.19654E-02-1.67214E-02 7.75048E-04
 -1      4288 1.20151E-02-1.66999E-02 3.87818E-04
 -1      4289 1.20315E-02-1.66929E-02-1.04822E-13
 -1      4290 1.20151E-02-1.66999E-02-3.87818E-04
 -1      4291 1.19654E-02-1.67214E-02-7.75048E-04
 -1      4292 8.70785E-03-1.51933E-02 7.41272E-04
 -1      4293 8.75077E-03-1.51629E-02 3.70918E-04
 -1      4294 8.76492E-03-1.51529E-02-9.00007E-14
 -1      4295 8.75077E-03-1.51629E-02-3.70918E-04
 -1      4296 8.70785E-03-1.51933E-02-7.41272E-04
 -1      4297 6.10843E-03-1.38412E-02 6.94721E-04
 -1      4298 6.14249E-03-1.38040E-02 3.47622E-04
 -1      4299 6.15372E-03-1.37917E-02-7.55090E-14
 -1      4300 6.14249E-03-1.38040E-02-3.47622E-04
 -1      4301 6.10843E-03-1.38412E-02-6.94721E-04
 -1      4302 4.12260E-03-1.25343E-02 6.36003E-04
 -1      4303 4.14624E-03-1.24926E-02 3.18234E-04
 -1      4304 4.15403E-03-1.24789E-02-6.20133E-14
 -1      4305 4.14624E-03-1.24926E-02-3.18234E-04
 -1      4306 4.12260E-03-1.25343E-02-6.36003E-04
 -1      4307 2.68026E-03-1.11659E-02 5.65839E-04
 -1      4308 2.69254E-03-1.11226E-02 2.83107E-04
 -1      4309 2.69659E-03-1.11084E-02-5.00628E-14
 -1      4310 2.69254E-03-1.11226E-02-2.83107E-04
 -1      4311 2.68026E-03-1.11659E-02-5.65839E-04
 -1      4312 1.69370E-03-9.65779E-03 4.84986E-04
 -1      4313 1.69429E-03-9.61607E-03 2.42603E-04
 -1      4314 1.69450E-03-9.60234E-03-3.66355E-14
 -1      4315 1.69429E-03-9.61607E-03-2.42603E-04
 -1      4316 1.69370E-03-9.65779E-03-4.84986E-04
 -1      4317 1.06558E-03-7.96269E-03 3.94207E-04
 -1      4318 1.05476E-03-7.92597E-03 1.97037E-04
 -1      4319 1.05128E-03-7.91389E-03-2.56206E-14
 -1      4320 1.05476E-03-7.92597E-03-1.97037E-04
 -1      4321 1.06558E-03-7.96269E-03-3.94207E-04
 -1      4322 6.91397E-04-6.06703E-03 2.94660E-04
 -1      4323 6.70362E-04-6.03951E-03 1.46866E-04
 -1      4324 6.63718E-04-6.03046E-03-1.64884E-14
 -1      4325 6.70362E-04-6.03951E-03-1.46866E-04
 -1      4326 6.91397E-04-6.06703E-03-2.94660E-04
 -1      4327 4.63510E-04-4.00004E-03 1.90108E-04
 -1      4328 4.36277E-04-3.98628E-03 9.36125E-05
 -1      4329 4.28113E-04-3.98154E-03-9.24421E-15
 -1      4330 4.36277E-04-3.98628E-03-9.36125E-05
 -1      4331 4.63510E-04-4.00004E-03-1.90108E-04
 -1      4332 2.55539E-04-1.88223E-03 9.28887E-05
 -1      4333 2.30971E-04-1.88156E-03 4.43178E-05
 -1      4334 2.24051E-04-1.88058E-03-4.61794E-15
 -1      4335 2.30971E-04-1.88156E-03-4.43178E-05
 -1      4336 2.55539E-04-1.88223E-03-9.28887E-05
 -1      4337 8.38262E-02-1.07104E-01-5.48138E-04
 -1      4338 8.36477E-02-1.07085E-01-2.58166E-04
 -1      4339 8.35880E-02-1.07082E-01-1.37623E-13
 -1      4340 8.36477E-02-1.07085E-01 2.58166E-04
 -1      4341 8.38262E-02-1.07104E-01 5.48138E-04
 -1      4342 8.08368E-02-9.22959E-02-4.42330E-05
 -1      4343 8.07415E-02-9.23568E-02-1.74436E-05
 -1      4344 8.07114E-02-9.23787E-02-1.53069E-13
 -1      4345 8.07415E-02-9.23568E-02 1.74436E-05
 -1      4346 8.08368E-02-9.22959E-02 4.42330E-05
 -1      4347 7.64957E-02-7.91563E-02 2.16553E-04
 -1      4348 7.64655E-02-7.92194E-02 1.10772E-04
 -1      4349 7.64566E-02-7.92423E-02-1.64002E-13
 -1      4350 7.64655E-02-7.92194E-02-1.10772E-04
 -1      4351 7.64957E-02-7.91563E-02-2.16553E-04
 -1      4352 7.14251E-02-6.75406E-02 3.55913E-04
 -1      4353 7.14220E-02-6.75931E-02 1.79006E-04
 -1      4354 7.14220E-02-6.76119E-02-1.72673E-13
 -1      4355 7.14220E-02-6.75931E-02-1.79006E-04
 -1      4356 7.14251E-02-6.75406E-02-3.55913E-04
 -1      4357 6.57192E-02-5.71932E-02 4.41889E-04
 -1      4358 6.57290E-02-5.72373E-02 2.21445E-04
 -1      4359 6.57329E-02-5.72528E-02-1.78895E-13
 -1      4360 6.57290E-02-5.72373E-02-2.21445E-04
 -1      4361 6.57192E-02-5.71932E-02-4.41889E-04
 -1      4362 5.94543E-02-4.80407E-02 5.04691E-04
 -1      4363 5.94725E-02-4.80800E-02 2.52610E-04
 -1      4364 5.94789E-02-4.80935E-02-1.82159E-13
 -1      4365 5.94725E-02-4.80800E-02-2.52610E-04
 -1      4366 5.94543E-02-4.80407E-02-5.04691E-04
 -1      4367 5.27730E-02-4.00930E-02 5.55503E-04
 -1      4368 5.27988E-02-4.01284E-02 2.77909E-04
 -1      4369 5.28076E-02-4.01403E-02-1.82256E-13
 -1      4370 5.27988E-02-4.01284E-02-2.77909E-04
 -1      4371 5.27730E-02-4.00930E-02-5.55503E-04
 -1      4372 4.58740E-02-3.33620E-02 5.97688E-04
 -1      4373 4.59070E-02-3.33928E-02 2.98960E-04
 -1      4374 4.59181E-02-3.34031E-02-1.79377E-13
 -1      4375 4.59070E-02-3.33928E-02-2.98960E-04
 -1      4376 4.58740E-02-3.33620E-02-5.97688E-04
 -1      4377 3.89800E-02-2.78270E-02 6.31602E-04
 -1      4378 3.90196E-02-2.78520E-02 3.15902E-04
 -1      4379 3.90328E-02-2.78603E-02-1.73610E-13
 -1      4380 3.90196E-02-2.78520E-02-3.15902E-04
 -1      4381 3.89800E-02-2.78270E-02-6.31602E-04
 -1      4382 3.23116E-02-2.34222E-02 6.56556E-04
 -1      4383 3.23564E-02-2.34398E-02 3.28377E-04
 -1      4384 3.23714E-02-2.34457E-02-1.65003E-13
 -1      4385 3.23564E-02-2.34398E-02-3.28377E-04
 -1      4386 3.23116E-02-2.34222E-02-6.56556E-04
 -1      4387 2.60675E-02-2.00365E-02 6.71688E-04
 -1      4388 2.61158E-02-2.00455E-02 3.35943E-04
 -1      4389 2.61318E-02-2.00485E-02-1.53988E-13
 -1      4390 2.61158E-02-2.00455E-02-3.35943E-04
 -1      4391 2.60675E-02-2.00365E-02-6.71688E-04
 -1      4392 2.04107E-02-1.75210E-02 6.76281E-04
 -1      4393 2.04602E-02-1.75207E-02 3.38240E-04
 -1      4394 2.04767E-02-1.75207E-02-1.41193E-13
 -1      4395 2.04602E-02-1.75207E-02-3.38240E-04
 -1      4396 2.04107E-02-1.75210E-02-6.76281E-04
 -1      4397 1.54598E-02-1.57005E-02 6.69887E-04
 -1      4398 1.55081E-02-1.56909E-02 3.35041E-04
 -1      4399 1.55242E-02-1.56877E-02-1.27105E-13
 -1      4400 1.55081E-02-1.56909E-02-3.35041E-04
 -1      4401 1.54598E-02-1.57005E-02-6.69887E-04
 -1      4402 1.12843E-02-1.43860E-02 6.52342E-04
 -1      4403 1.13290E-02-1.43676E-02 3.26265E-04
 -1      4404 1.13439E-02-1.43615E-02-1.11903E-13
 -1      4405 1.13290E-02-1.43676E-02-3.26265E-04
 -1      4406 1.12843E-02-1.43860E-02-6.52342E-04
 -1      4407 7.90465E-03-1.33884E-02 6.23748E-04
 -1      4408 7.94355E-03-1.33624E-02 3.11959E-04
 -1      4409 7.95648E-03-1.33538E-02-9.59972E-14
 -1      4410 7.94355E-03-1.33624E-02-3.11959E-04
 -1      4411 7.90465E-03-1.33884E-02-6.23748E-04
 -1      4412 5.29553E-03-1.25303E-02 5.84434E-04
 -1      4413 5.32684E-03-1.24985E-02 2.92286E-04
 -1      4414 5.33725E-03-1.24879E-02-8.02661E-14
 -1      4415 5.32684E-03-1.24985E-02-2.92286E-04
 -1      4416 5.29553E-03-1.25303E-02-5.84434E-04
 -1      4417 3.39212E-03-1.16572E-02 5.34917E-04
 -1      4418 3.41452E-03-1.16216E-02 2.67498E-04
 -1      4419 3.42197E-03-1.16098E-02-6.55896E-14
 -1      4420 3.41452E-03-1.16216E-02-2.67498E-04
 -1      4421 3.39212E-03-1.16572E-02-5.34917E-04
 -1      4422 2.09839E-03-1.06453E-02 4.75877E-04
 -1      4423 2.11110E-03-1.06084E-02 2.37920E-04
 -1      4424 2.11535E-03-1.05962E-02-5.17045E-14
 -1      4425 2.11110E-03-1.06084E-02-2.37920E-04
 -1      4426 2.09839E-03-1.06453E-02-4.75877E-04
 -1      4427 1.29612E-03-9.40777E-03 4.08189E-04
 -1      4428 1.29897E-03-9.37237E-03 2.03958E-04
 -1      4429 1.30001E-03-9.36062E-03-3.83559E-14
 -1      4430 1.29897E-03-9.37237E-03-2.03958E-04
 -1      4431 1.29612E-03-9.40777E-03-4.08189E-04
 -1      4432 8.53396E-04-7.89840E-03 3.33164E-04
 -1      4433 8.46911E-04-7.86737E-03 1.66200E-04
 -1      4434 8.44969E-04-7.85706E-03-2.65917E-14
 -1      4435 8.46911E-04-7.86737E-03-1.66200E-04
 -1      4436 8.53396E-04-7.89840E-03-3.33164E-04
 -1      4437 6.30171E-04-6.11576E-03 2.53367E-04
 -1      4438 6.15870E-04-6.09240E-03 1.25800E-04
 -1      4439 6.11586E-04-6.08458E-03-1.69157E-14
 -1      4440 6.15870E-04-6.09240E-03-1.25800E-04
 -1      4441 6.30171E-04-6.11576E-03-2.53367E-04
 -1      4442 4.81755E-04-4.11441E-03 1.75128E-04
 -1      4443 4.62533E-04-4.10162E-03 8.58866E-05
 -1      4444 4.57053E-04-4.09716E-03-9.35777E-15
 -1      4445 4.62533E-04-4.10162E-03-8.58866E-05
 -1      4446 4.81755E-04-4.11441E-03-1.75128E-04
 -1      4447 2.82574E-04-2.02028E-03 1.08392E-04
 -1      4448 2.61218E-04-2.01719E-03 5.22208E-05
 -1      4449 2.55213E-04-2.01568E-03-3.80827E-15
 -1      4450 2.61218E-04-2.01719E-03-5.22208E-05
 -1      4451 2.82574E-04-2.02028E-03-1.08392E-04
 -1      4452 9.06333E-02-1.04994E-01-4.42744E-04
 -1      4453 9.05298E-02-1.04969E-01-2.19331E-04
 -1      4454 9.04932E-02-1.04958E-01-1.46177E-13
 -1      4455 9.05298E-02-1.04969E-01 2.19331E-04
 -1      4456 9.06333E-02-1.04994E-01 4.42744E-04
 -1      4457 8.78374E-02-9.03476E-02-1.05262E-04
 -1      4458 8.77722E-02-9.03764E-02-5.34887E-05
 -1      4459 8.77493E-02-9.03861E-02-1.63303E-13
 -1      4460 8.77722E-02-9.03764E-02 5.34887E-05
 -1      4461 8.78374E-02-9.03476E-02 1.05262E-04
 -1      4462 8.31913E-02-7.66493E-02 1.22245E-04
 -1      4463 8.31628E-02-7.66950E-02 6.08171E-05
 -1      4464 8.31530E-02-7.67098E-02-1.76276E-13
 -1      4465 8.31628E-02-7.66950E-02-6.08171E-05
 -1      4466 8.31913E-02-7.66493E-02-1.22245E-04
 -1      4467 7.74538E-02-6.43648E-02 2.62286E-04
 -1      4468 7.74485E-02-6.44088E-02 1.30766E-04
 -1      4469 7.74464E-02-6.44232E-02-1.86065E-13
 -1      4470 7.74485E-02-6.44088E-02-1.30766E-04
 -1      4471 7.74538E-02-6.43648E-02-2.62286E-04
 -1      4472 7.09426E-02-5.34677E-02 3.51026E-04
 -1      4473 7.09502E-02-5.35070E-02 1.75291E-04
 -1      4474 7.09525E-02-5.35199E-02-1.92856E-13
 -1      4475 7.09502E-02-5.35070E-02-1.75291E-04
 -1      4476 7.09426E-02-5.34677E-02-3.51026E-04
 -1      4477 6.38276E-02-4.39277E-02 4.13291E-04
 -1      4478 6.38440E-02-4.39628E-02 2.06522E-04
 -1      4479 6.38494E-02-4.39744E-02-1.96350E-13
 -1      4480 6.38440E-02-4.39628E-02-2.06522E-04
 -1      4481 6.38276E-02-4.39277E-02-4.13291E-04
 -1      4482 5.62962E-02-3.57551E-02 4.60732E-04
 -1      4483 5.63199E-02-3.57865E-02 2.30310E-04
 -1      4484 5.63277E-02-3.57968E-02-1.96487E-13
 -1      4485 5.63199E-02-3.57865E-02-2.30310E-04
 -1      4486 5.62962E-02-3.57551E-02-4.60732E-04
 -1      4487 4.85739E-02-2.89563E-02 4.98253E-04
 -1      4488 4.86041E-02-2.89832E-02 2.49107E-04
 -1      4489 4.86142E-02-2.89922E-02-1.93280E-13
 -1      4490 4.86041E-02-2.89832E-02-2.49107E-04
 -1      4491 4.85739E-02-2.89563E-02-4.98253E-04
 -1      4492 4.09064E-02-2.35002E-02 5.27429E-04
 -1      4493 4.09424E-02-2.35218E-02 2.63715E-04
 -1      4494 4.09544E-02-2.35290E-02-1.86799E-13
 -1      4495 4.09424E-02-2.35218E-02-2.63715E-04
 -1      4496 4.09064E-02-2.35002E-02-5.27429E-04
 -1      4497 3.35365E-02-1.93056E-02 5.48442E-04
 -1      4498 3.35770E-02-1.93208E-02 2.74232E-04
 -1      4499 3.35905E-02-1.93258E-02-1.77280E-13
 -1      4500 3.35770E-02-1.93208E-02-2.74232E-04
 -1      4501 3.35365E-02-1.93056E-02-5.48442E-04
 -1      4502 2.66824E-02-1.62408E-02 5.60973E-04
 -1      4503 2.67258E-02-1.62486E-02 2.80503E-04
 -1      4504 2.67403E-02-1.62511E-02-1.65186E-13
 -1      4505 2.67258E-02-1.62486E-02-2.80503E-04
 -1      4506 2.66824E-02-1.62408E-02-5.60973E-04
 -1      4507 2.05226E-02-1.41318E-02 5.64623E-04
 -1      4508 2.05670E-02-1.41316E-02 2.82330E-04
 -1      4509 2.05818E-02-1.41315E-02-1.51078E-13
 -1      4510 2.05670E-02-1.41316E-02-2.82330E-04
 -1      4511 2.05226E-02-1.41318E-02-5.64623E-04
 -1      4512 1.51849E-02-1.27750E-02 5.59107E-04
 -1      4513 1.52282E-02-1.27668E-02 2.79572E-04
 -1      4514 1.52427E-02-1.27640E-02-1.35564E-13
 -1      4515 1.52282E-02-1.27668E-02-2.79572E-04
 -1      4516 1.51849E-02-1.27750E-02-5.59107E-04
 -1      4517 1.07416E-02-1.19519E-02 5.44317E-04
 -1      4518 1.07818E-02-1.19361E-02 2.72173E-04
 -1      4519 1.07952E-02-1.19309E-02-1.18982E-13
 -1      4520 1.07818E-02-1.19361E-02-2.72173E-04
 -1      4521 1.07416E-02-1.19519E-02-5.44317E-04
 -1      4522 7.20846E-03-1.14444E-02 5.20340E-04
 -1      4523 7.24369E-03-1.14221E-02 2.60177E-04
 -1      4524 7.25543E-03-1.14147E-02-1.01789E-13
 -1      4525 7.24369E-03-1.14221E-02-2.60177E-04
 -1      4526 7.20846E-03-1.14444E-02-5.20340E-04
 -1      4527 4.54872E-03-1.10492E-02 4.87455E-04
 -1      4528 4.57744E-03-1.10220E-02 2.43718E-04
 -1      4529 4.58702E-03-1.10129E-02-8.48132E-14
 -1      4530 4.57744E-03-1.10220E-02-2.43718E-04
 -1      4531 4.54872E-03-1.10492E-02-4.87455E-04
 -1      4532 2.67996E-03-1.05904E-02 4.46110E-04
 -1      4533 2.70106E-03-1.05600E-02 2.23014E-04
 -1      4534 2.70811E-03-1.05499E-02-6.87318E-14
 -1      4535 2.70106E-03-1.05600E-02-2.23014E-04
 -1      4536 2.67996E-03-1.05904E-02-4.46110E-04
 -1      4537 1.48361E-03-9.92917E-03 3.96943E-04
 -1      4538 1.49645E-03-9.89775E-03 1.98365E-04
 -1      4539 1.50079E-03-9.88730E-03-5.36428E-14
 -1      4540 1.49645E-03-9.89775E-03-1.98365E-04
 -1      4541 1.48361E-03-9.92917E-03-3.96943E-04
 -1      4542 8.15473E-04-8.97109E-03 3.40859E-04
 -1      4543 8.20012E-04-8.94094E-03 1.70193E-04
 -1      4544 8.21646E-04-8.93091E-03-3.96165E-14
 -1      4545 8.20012E-04-8.94094E-03-1.70193E-04
 -1      4546 8.15473E-04-8.97109E-03-3.40859E-04
 -1      4547 5.16018E-04-7.67124E-03 2.79344E-04
 -1      4548 5.12870E-04-7.64479E-03 1.39178E-04
 -1      4549 5.12073E-04-7.63596E-03-2.72674E-14
 -1      4550 5.12870E-04-7.64479E-03-1.39178E-04
 -1      4551 5.16018E-04-7.67124E-03-2.79344E-04
 -1      4552 4.19997E-04-6.03852E-03 2.15230E-04
 -1      4553 4.10704E-04-6.01814E-03 1.06648E-04
 -1      4554 4.08100E-04-6.01130E-03-1.70652E-14
 -1      4555 4.10704E-04-6.01814E-03-1.06648E-04
 -1      4556 4.19997E-04-6.03852E-03-2.15230E-04
 -1      4557 3.67748E-04-4.14099E-03 1.54695E-04
 -1      4558 3.54526E-04-4.12836E-03 7.57822E-05
 -1      4559 3.50953E-04-4.12402E-03-9.08758E-15
 -1      4560 3.54526E-04-4.12836E-03-7.57822E-05
 -1      4561 3.67748E-04-4.14099E-03-1.54695E-04
 -1      4562 2.38141E-04-2.09786E-03 1.04407E-04
 -1      4563 2.20794E-04-2.09216E-03 5.09163E-05
 -1      4564 2.15826E-04-2.09018E-03-3.24136E-15
 -1      4565 2.20794E-04-2.09216E-03-5.09163E-05
 -1      4566 2.38141E-04-2.09786E-03-1.04407E-04
 -1      4567 9.70319E-02-1.03064E-01-3.49186E-04
 -1      4568 9.69690E-02-1.03036E-01-1.73009E-04
 -1      4569 9.69477E-02-1.03026E-01-1.55289E-13
 -1      4570 9.69690E-02-1.03036E-01 1.73009E-04
 -1      4571 9.70319E-02-1.03064E-01 3.49186E-04
 -1      4572 9.42815E-02-8.83654E-02-1.19435E-04
 -1      4573 9.42326E-02-8.83779E-02-5.94066E-05
 -1      4574 9.42166E-02-8.83823E-02-1.73692E-13
 -1      4575 9.42326E-02-8.83779E-02 5.94066E-05
 -1      4576 9.42815E-02-8.83654E-02 1.19435E-04
 -1      4577 8.94543E-02-7.42125E-02 6.46624E-05
 -1      4578 8.94288E-02-7.42430E-02 3.25092E-05
 -1      4579 8.94204E-02-7.42533E-02-1.88195E-13
 -1      4580 8.94288E-02-7.42430E-02-3.25092E-05
 -1      4581 8.94543E-02-7.42125E-02-6.46624E-05
 -1      4582 8.32335E-02-6.13372E-02 1.90507E-04
 -1      4583 8.32262E-02-6.13714E-02 9.53465E-05
 -1      4584 8.32238E-02-6.13830E-02-1.99264E-13
 -1      4585 8.32262E-02-6.13714E-02-9.53465E-05
 -1      4586 8.32335E-02-6.13372E-02-1.90507E-04
 -1      4587 7.60437E-02-4.99088E-02 2.74387E-04
 -1      4588 7.60489E-02-4.99417E-02 1.37273E-04
 -1      4589 7.60507E-02-4.99527E-02-2.06840E-13
 -1      4590 7.60489E-02-4.99417E-02-1.37273E-04
 -1      4591 7.60437E-02-4.99088E-02-2.74387E-04
 -1      4592 6.81595E-02-3.99716E-02 3.32888E-04
 -1      4593 6.81737E-02-4.00020E-02 1.66506E-04
 -1      4594 6.81785E-02-4.00122E-02-2.10748E-13
 -1      4595 6.81737E-02-4.00020E-02-1.66506E-04
 -1      4596 6.81595E-02-3.99716E-02-3.32888E-04
 -1      4597 5.98305E-02-3.15556E-02 3.76063E-04
 -1      4598 5.98520E-02-3.15830E-02 1.88072E-04
 -1      4599 5.98592E-02-3.15921E-02-2.10806E-13
 -1      4600 5.98520E-02-3.15830E-02-1.88072E-04
 -1      4601 5.98305E-02-3.15556E-02-3.76063E-04
 -1      4602 5.13215E-02-2.46664E-02 4.08985E-04
 -1      4603 5.13491E-02-2.46900E-02 2.04518E-04
 -1      4604 5.13584E-02-2.46978E-02-2.07247E-13
 -1      4605 5.13491E-02-2.46900E-02-2.04518E-04
 -1      4606 5.13215E-02-2.46664E-02-4.08985E-04
 -1      4607 4.29074E-02-1.92636E-02 4.33855E-04
 -1      4608 4.29402E-02-1.92825E-02 2.16942E-04
 -1      4609 4.29511E-02-1.92888E-02-2.00019E-13
 -1      4610 4.29402E-02-1.92825E-02-2.16942E-04
 -1      4611 4.29074E-02-1.92636E-02-4.33855E-04
 -1      4612 3.48547E-02-1.52508E-02 4.51399E-04
 -1      4613 3.48915E-02-1.52640E-02 2.25709E-04
 -1      4614 3.49038E-02-1.52683E-02-1.89585E-13
 -1      4615 3.48915E-02-1.52640E-02-2.25709E-04
 -1      4616 3.48547E-02-1.52508E-02-4.51399E-04
 -1      4617 2.74019E-02-1.24760E-02 4.61693E-04
 -1      4618 2.74412E-02-1.24827E-02 2.30852E-04
 -1      4619 2.74543E-02-1.24850E-02-1.76337E-13
 -1      4620 2.74412E-02-1.24827E-02-2.30852E-04
 -1      4621 2.74019E-02-1.24760E-02-4.61693E-04
 -1      4622 2.07423E-02-1.07413E-02 4.64586E-04
 -1      4623 2.07824E-02-1.07411E-02 2.32296E-04
 -1      4624 2.07958E-02-1.07410E-02-1.60912E-13
 -1      4625 2.07824E-02-1.07411E-02-2.32296E-04
 -1      4626 2.07423E-02-1.07413E-02-4.64586E-04
 -1      4627 1.50131E-02-9.81615E-03 4.59924E-04
 -1      4628 1.50523E-02-9.80902E-03 2.29962E-04
 -1      4629 1.50653E-02-9.80665E-03-1.43978E-13
 -1      4630 1.50523E-02-9.80902E-03-2.29962E-04
 -1      4631 1.50131E-02-9.81615E-03-4.59924E-04
 -1      4632 1.02892E-02-9.45452E-03 4.47650E-04
 -1      4633 1.03257E-02-9.44091E-03 2.23820E-04
 -1      4634 1.03378E-02-9.43638E-03-1.25984E-13
 -1      4635 1.03257E-02-9.44091E-03-2.23820E-04
 -1      4636 1.02892E-02-9.45452E-03-4.47650E-04
 -1      4637 6.58256E-03-9.41150E-03 4.27848E-04
 -1      4638 6.61474E-03-9.39231E-03 2.13910E-04
 -1      4639 6.62547E-03-9.38592E-03-1.07446E-13
 -1      4640 6.61474E-03-9.39231E-03-2.13910E-04
 -1      4641 6.58256E-03-9.41150E-03-4.27848E-04
 -1      4642 3.84622E-03-9.45965E-03 4.00751E-04
 -1      4643 3.87278E-03-9.43616E-03 2.00345E-04
 -1      4644 3.88165E-03-9.42834E-03-8.91594E-14
 -1      4645 3.87278E-03-9.43616E-03-2.00345E-04
 -1      4646 3.84622E-03-9.45965E-03-4.00751E-04
 -1      4647 1.98202E-03-9.40309E-03 3.66749E-04
 -1      4648 2.00201E-03-9.37691E-03 1.83310E-04
 -1      4649 2.00870E-03-9.36819E-03-7.17647E-14
 -1      4650 2.00201E-03-9.37691E-03-1.83310E-04
 -1      4651 1.98202E-03-9.40309E-03-3.66749E-04
 -1      4652 8.51375E-04-9.08893E-03 3.26417E-04
 -1      4653 8.64275E-04-9.06189E-03 1.63079E-04
 -1      4654 8.68641E-04-9.05288E-03-5.55061E-14
 -1      4655 8.64275E-04-9.06189E-03-1.63079E-04
 -1      4656 8.51375E-04-9.08893E-03-3.26417E-04
 -1      4657 2.87621E-04-8.41578E-03 2.80606E-04
 -1      4658 2.93440E-04-8.38983E-03 1.40048E-04
 -1      4659 2.95510E-04-8.38119E-03-4.06900E-14
 -1      4660 2.93440E-04-8.38983E-03-1.40048E-04
 -1      4661 2.87621E-04-8.41578E-03-2.80606E-04
 -1      4662 1.08883E-04-7.33951E-03 2.30712E-04
 -1      4663 1.08234E-04-7.31663E-03 1.14867E-04
 -1      4664 1.08268E-04-7.30899E-03-2.77408E-14
 -1      4665 1.08234E-04-7.31663E-03-1.14867E-04
 -1      4666 1.08883E-04-7.33951E-03-2.30712E-04
 -1      4667 1.31781E-04-5.87662E-03 1.79219E-04
 -1      4668 1.26025E-04-5.85854E-03 8.87189E-05
 -1      4669 1.24566E-04-5.85246E-03-1.70632E-14
 -1      4670 1.26025E-04-5.85854E-03-8.87189E-05
 -1      4671 1.31781E-04-5.87662E-03-1.79219E-04
 -1      4672 1.89005E-04-4.10223E-03 1.30884E-04
 -1      4673 1.79819E-04-4.08985E-03 6.41448E-05
 -1      4674 1.77478E-04-4.08563E-03-8.75804E-15
 -1      4675 1.79819E-04-4.08985E-03-6.41448E-05
 -1      4676 1.89005E-04-4.10223E-03-1.30884E-04
 -1      4677 1.60591E-04-2.12545E-03 8.99149E-05
 -1      4678 1.47040E-04-2.11822E-03 4.42014E-05
 -1      4679 1.43104E-04-2.11584E-03-2.85604E-15
 -1      4680 1.47040E-04-2.11822E-03-4.42014E-05
 -1      4681 1.60591E-04-2.12545E-03-8.99149E-05
 -1      4682 1.03252E-01-1.01386E-01-2.70503E-04
 -1      4683 1.03213E-01-1.01362E-01-1.34633E-04
 -1      4684 1.03200E-01-1.01354E-01-1.64381E-13
 -1      4685 1.03213E-01-1.01362E-01 1.34633E-04
 -1      4686 1.03252E-01-1.01386E-01 2.70503E-04
 -1      4687 1.00460E-01-8.64526E-02-1.12428E-04
 -1      4688 1.00426E-01-8.64569E-02-5.62486E-05
 -1      4689 1.00415E-01-8.64583E-02-1.84360E-13
 -1      4690 1.00426E-01-8.64569E-02 5.62486E-05
 -1      4691 1.00460E-01-8.64526E-02 1.12428E-04
 -1      4692 9.54634E-02-7.18479E-02 3.02817E-05
 -1      4693 9.54431E-02-7.18688E-02 1.51203E-05
 -1      4694 9.54363E-02-7.18758E-02-2.00306E-13
 -1      4695 9.54431E-02-7.18688E-02-1.51203E-05
 -1      4696 9.54634E-02-7.18479E-02-3.02817E-05
 -1      4697 8.88324E-02-5.84109E-02 1.36444E-04
 -1      4698 8.88261E-02-5.84378E-02 6.81956E-05
 -1      4699 8.88239E-02-5.84468E-02-2.12565E-13
 -1      4700 8.88261E-02-5.84378E-02-6.81956E-05
 -1      4701 8.88324E-02-5.84109E-02-1.36444E-04
 -1      4702 8.10421E-02-4.64602E-02 2.10534E-04
 -1      4703 8.10467E-02-4.64879E-02 1.05256E-04
 -1      4704 8.10483E-02-4.64971E-02-2.20928E-13
 -1      4705 8.10467E-02-4.64879E-02-1.05256E-04
 -1      4706 8.10421E-02-4.64602E-02-2.10534E-04
 -1      4707 7.24483E-02-3.61199E-02 2.62564E-04
 -1      4708 7.24614E-02-3.61463E-02 1.31273E-04
 -1      4709 7.24658E-02-3.61551E-02-2.25228E-13
 -1      4710 7.24614E-02-3.61463E-02-1.31273E-04
 -1      4711 7.24483E-02-3.61199E-02-2.62564E-04
 -1      4712 6.33634E-02-2.74476E-02 3.00275E-04
 -1      4713 6.33833E-02-2.74716E-02 1.50131E-04
 -1      4714 6.33899E-02-2.74796E-02-2.25361E-13
 -1      4715 6.33833E-02-2.74716E-02-1.50131E-04
 -1      4716 6.33634E-02-2.74476E-02-3.00275E-04
 -1      4717 5.40963E-02-2.04520E-02 3.28285E-04
 -1      4718 5.41219E-02-2.04727E-02 1.64139E-04
 -1      4719 5.41304E-02-2.04796E-02-2.21382E-13
 -1      4720 5.41219E-02-2.04727E-02-1.64139E-04
 -1      4721 5.40963E-02-2.04520E-02-3.28285E-04
 -1      4722 4.49552E-02-1.50849E-02 3.48938E-04
 -1      4723 4.49855E-02-1.51015E-02 1.74467E-04
 -1      4724 4.49955E-02-1.51070E-02-2.13441E-13
 -1      4725 4.49855E-02-1.51015E-02-1.74467E-04
 -1      4726 4.49552E-02-1.50849E-02-3.48938E-04
 -1      4727 3.62331E-02-1.12349E-02 3.63237E-04
 -1      4728 3.62669E-02-1.12465E-02 1.81617E-04
 -1      4729 3.62781E-02-1.12503E-02-2.01991E-13
 -1      4730 3.62669E-02-1.12465E-02-1.81617E-04
 -1      4731 3.62331E-02-1.12349E-02-3.63237E-04
 -1      4732 2.81892E-02-8.73040E-03 3.71496E-04
 -1      4733 2.82251E-02-8.73627E-03 1.85747E-04
 -1      4734 2.82371E-02-8.73823E-03-1.87525E-13
 -1      4735 2.82251E-02-8.73627E-03-1.85747E-04
 -1      4736 2.81892E-02-8.73040E-03-3.71496E-04
 -1      4737 2.10321E-02-7.34962E-03 3.73729E-04
 -1      4738 2.10687E-02-7.34945E-03 1.86863E-04
 -1      4739 2.10810E-02-7.34939E-03-1.70819E-13
 -1      4740 2.10687E-02-7.34945E-03-1.86863E-04
 -1      4741 2.10321E-02-7.34962E-03-3.73729E-04
 -1      4742 1.49084E-02-6.83639E-03 3.69877E-04
 -1      4743 1.49442E-02-6.83017E-03 1.84935E-04
 -1      4744 1.49562E-02-6.82810E-03-1.52399E-13
 -1      4745 1.49442E-02-6.83017E-03-1.84935E-04
 -1      4746 1.49084E-02-6.83639E-03-3.69877E-04
 -1      4747 9.89603E-03-6.91797E-03 3.59920E-04
 -1      4748 9.92949E-03-6.90611E-03 1.79952E-04
 -1      4749 9.94065E-03-6.90216E-03-1.32889E-13
 -1      4750 9.92949E-03-6.90611E-03-1.79952E-04
 -1      4751 9.89603E-03-6.91797E-03-3.59920E-04
 -1      4752 6.00363E-03-7.32379E-03 3.43933E-04
 -1      4753 6.03334E-03-7.30707E-03 1.71950E-04
 -1      4754 6.04326E-03-7.30150E-03-1.12965E-13
 -1      4755 6.03334E-03-7.30707E-03-1.71950E-04
 -1      4756 6.00363E-03-7.32379E-03-3.43933E-04
 -1      4757 3.17482E-03-7.80329E-03 3.22108E-04
 -1      4758 3.19964E-03-7.78283E-03 1.61022E-04
 -1      4759 3.20792E-03-7.77602E-03-9.33108E-14
 -1      4760 3.19964E-03-7.78283E-03-1.61022E-04
 -1      4761 3.17482E-03-7.80329E-03-3.22108E-04
 -1      4762 1.29697E-03-8.14157E-03 2.94772E-04
 -1      4763 1.31607E-03-8.11878E-03 1.47324E-04
 -1      4764 1.32246E-03-8.11119E-03-7.46136E-14
 -1      4765 1.31607E-03-8.11878E-03-1.47324E-04
 -1      4766 1.29697E-03-8.14157E-03-2.94772E-04
 -1      4767 2.13246E-04-8.17221E-03 2.62419E-04
 -1      4768 2.26193E-04-8.14868E-03 1.31092E-04
 -1      4769 2.30569E-04-8.14085E-03-5.72657E-14
 -1      4770 2.26193E-04-8.14868E-03-1.31092E-04
 -1      4771 2.13246E-04-8.17221E-03-2.62419E-04
 -1      4772-2.63047E-04-7.78675E-03 2.25784E-04
 -1      4773-2.56214E-04-7.76415E-03 1.12673E-04
 -1      4774-2.53824E-04-7.75662E-03-4.16160E-14
 -1      4775-2.56214E-04-7.76415E-03-1.12673E-04
 -1      4776-2.63047E-04-7.78675E-03-2.25784E-04
 -1      4777-3.32734E-04-6.94080E-03 1.86023E-04
 -1      4778-3.31457E-04-6.92075E-03 9.26141E-05
 -1      4779-3.30829E-04-6.91405E-03-2.80719E-14
 -1      4780-3.31457E-04-6.92075E-03-9.26141E-05
 -1      4781-3.32734E-04-6.94080E-03-1.86023E-04
 -1      4782-1.93393E-04-5.65594E-03 1.45006E-04
 -1      4783-1.96547E-04-5.63973E-03 7.18147E-05
 -1      4784-1.97242E-04-5.63429E-03-1.69626E-14
 -1      4785-1.96547E-04-5.63973E-03-7.18147E-05
 -1      4786-1.93393E-04-5.65594E-03-1.45006E-04
 -1      4787-1.86181E-05-4.01206E-03 1.05858E-04
 -1      4788-2.49162E-05-4.00016E-03 5.19897E-05
 -1      4789-2.64823E-05-3.99615E-03-8.41879E-15
 -1      4790-2.49162E-05-4.00016E-03-5.19897E-05
 -1      4791-1.86181E-05-4.01206E-03-1.05858E-04
 -1      4792 6.79313E-05-2.11314E-03 7.07737E-05
 -1      4793 5.78135E-05-2.10522E-03 3.49759E-05
 -1      4794 5.48171E-05-2.10267E-03-2.56256E-15
 -1      4795 5.78135E-05-2.10522E-03-3.49759E-05
 -1      4796 6.79313E-05-2.11314E-03-7.07737E-05
 -1      4797 1.09386E-01-9.99057E-02-2.08937E-04
 -1      4798 1.09362E-01-9.98858E-02-1.04126E-04
 -1      4799 1.09354E-01-9.98790E-02-1.73629E-13
 -1      4800 1.09362E-01-9.98858E-02 1.04126E-04
 -1      4801 1.09386E-01-9.99057E-02 2.08937E-04
 -1      4802 1.06492E-01-8.45937E-02-1.00191E-04
 -1      4803 1.06468E-01-8.45943E-02-5.00718E-05
 -1      4804 1.06460E-01-8.45946E-02-1.94946E-13
 -1      4805 1.06468E-01-8.45943E-02 5.00718E-05
 -1      4806 1.06492E-01-8.45937E-02 1.00191E-04
 -1      4807 1.01306E-01-6.95140E-02 7.91564E-06
 -1      4808 1.01290E-01-6.95287E-02 3.96899E-06
 -1      4809 1.01285E-01-6.95336E-02-2.12377E-13
 -1      4810 1.01290E-01-6.95287E-02-3.96899E-06
 -1      4811 1.01306E-01-6.95140E-02-7.91564E-06
 -1      4812 9.42989E-02-5.55330E-02 9.38522E-05
 -1      4813 9.42941E-02-5.55543E-02 4.69369E-05
 -1      4814 9.42925E-02-5.55614E-02-2.25822E-13
 -1      4815 9.42941E-02-5.55543E-02-4.69369E-05
 -1      4816 9.42989E-02-5.55330E-02-9.38522E-05
 -1      4817 8.59587E-02-4.30730E-02 1.56118E-04
 -1      4818 8.59633E-02-4.30962E-02 7.80715E-05
 -1      4819 8.59649E-02-4.31040E-02-2.35170E-13
 -1      4820 8.59633E-02-4.30962E-02-7.80715E-05
 -1      4821 8.59587E-02-4.30730E-02-1.56118E-04
 -1      4822 7.66991E-02-3.23303E-02 2.00184E-04
 -1      4823 7.67114E-02-3.23531E-02 1.00104E-04
 -1      4824 7.67155E-02-3.23607E-02-2.39977E-13
 -1      4825 7.67114E-02-3.23531E-02-1.00104E-04
 -1      4826 7.66991E-02-3.23303E-02-2.00184E-04
 -1      4827 6.68899E-02-2.33946E-02 2.31702E-04
 -1      4828 6.69084E-02-2.34157E-02 1.15862E-04
 -1      4829 6.69146E-02-2.34227E-02-2.40032E-13
 -1      4830 6.69084E-02-2.34157E-02-1.15862E-04
 -1      4831 6.68899E-02-2.33946E-02-2.31702E-04
 -1      4832 5.68862E-02-1.62827E-02 2.54585E-04
 -1      4833 5.69100E-02-1.63009E-02 1.27301E-04
 -1      4834 5.69179E-02-1.63070E-02-2.35545E-13
 -1      4835 5.69100E-02-1.63009E-02-1.27301E-04
 -1      4836 5.68862E-02-1.62827E-02-2.54585E-04
 -1      4837 4.70324E-02-1.09402E-02 2.71079E-04
 -1      4838 4.70604E-02-1.09548E-02 1.35546E-04
 -1      4839 4.70698E-02-1.09597E-02-2.26756E-13
 -1      4840 4.70604E-02-1.09548E-02-1.35546E-04
 -1      4841 4.70324E-02-1.09402E-02-2.71079E-04
 -1      4842 3.76498E-02-7.24159E-03 2.82287E-04
 -1      4843 3.76810E-02-7.25179E-03 1.41148E-04
 -1      4844 3.76915E-02-7.25519E-03-2.14277E-13
 -1      4845 3.76810E-02-7.25179E-03-1.41148E-04
 -1      4846 3.76498E-02-7.24159E-03-2.82287E-04
 -1      4847 2.90197E-02-4.99557E-03 2.88650E-04
 -1      4848 2.90529E-02-5.00075E-03 1.44328E-04
 -1      4849 2.90639E-02-5.00248E-03-1.98632E-13
 -1      4850 2.90529E-02-5.00075E-03-1.44328E-04
 -1      4851 2.90197E-02-4.99557E-03-2.88650E-04
 -1      4852 2.13666E-02-3.95714E-03 2.90288E-04
 -1      4853 2.14005E-02-3.95699E-03 1.45145E-04
 -1      4854 2.14118E-02-3.95694E-03-1.80584E-13
 -1      4855 2.14005E-02-3.95699E-03-1.45145E-04
 -1      4856 2.13666E-02-3.95714E-03-2.90288E-04
 -1      4857 1.48469E-02-3.84460E-03 2.87202E-04
 -1      4858 1.48800E-02-3.83913E-03 1.43599E-04
 -1      4859 1.48910E-02-3.83731E-03-1.60706E-13
 -1      4860 1.48800E-02-3.83913E-03-1.43599E-04
 -1      4861 1.48469E-02-3.84460E-03-2.87202E-04
 -1      4862 9.54173E-03-4.35912E-03 2.79394E-04
 -1      4863 9.57273E-03-4.34869E-03 1.39692E-04
 -1      4864 9.58307E-03-4.34522E-03-1.39746E-13
 -1      4865 9.57273E-03-4.34869E-03-1.39692E-04
 -1      4866 9.54173E-03-4.35912E-03-2.79394E-04
 -1      4867 5.45667E-03-5.20503E-03 2.66926E-04
 -1      4868 5.48437E-03-5.19033E-03 1.33451E-04
 -1      4869 5.49361E-03-5.18544E-03-1.18359E-13
 -1      4870 5.48437E-03-5.19033E-03-1.33451E-04
 -1      4871 5.45667E-03-5.20503E-03-2.66926E-04
 -1      4872 2.52655E-03-6.10920E-03 2.49948E-04
 -1      4873 2.54994E-03-6.09123E-03 1.24951E-04
 -1      4874 2.55775E-03-6.08524E-03-9.73199E-14
 -1      4875 2.54994E-03-6.09123E-03-1.24951E-04
 -1      4876 2.52655E-03-6.10920E-03-2.49948E-04
 -1      4877 6.25022E-04-6.83817E-03 2.28721E-04
 -1      4878 6.43395E-04-6.81815E-03 1.14317E-04
 -1      4879 6.49542E-04-6.81149E-03-7.73304E-14
 -1      4880 6.43395E-04-6.81815E-03-1.14317E-04
 -1      4881 6.25022E-04-6.83817E-03-2.28721E-04
 -1      4882-4.21908E-04-7.21214E-03 2.03646E-04
 -1      4883-4.08916E-04-7.19147E-03 1.01743E-04
 -1      4884-4.04545E-04-7.18458E-03-5.88733E-14
 -1      4885-4.08916E-04-7.19147E-03-1.01743E-04
 -1      4886-4.21908E-04-7.21214E-03-2.03646E-04
 -1      4887-8.19511E-04-7.11524E-03 1.75307E-04
 -1      4888-8.11860E-04-7.09536E-03 8.75103E-05
 -1      4889-8.09237E-04-7.08873E-03-4.23775E-14
 -1      4890-8.11860E-04-7.09536E-03-8.75103E-05
 -1      4891-8.19511E-04-7.11524E-03-1.75307E-04
 -1      4892-7.85840E-04-6.50171E-03 1.44564E-04
 -1      4893-7.83048E-04-6.48397E-03 7.20322E-05
 -1      4894-7.81992E-04-6.47805E-03-2.82467E-14
 -1      4895-7.83048E-04-6.48397E-03-7.20322E-05
 -1      4896-7.85840E-04-6.50171E-03-1.44564E-04
 -1      4897-5.31196E-04-5.39649E-03 1.12619E-04
 -1      4898-5.32364E-04-5.38189E-03 5.58934E-05
 -1      4899-5.32538E-04-5.37701E-03-1.67622E-14
 -1      4900-5.32364E-04-5.38189E-03-5.58934E-05
 -1      4901-5.31196E-04-5.39649E-03-1.12619E-04
 -1      4902-2.35922E-04-3.88403E-03 8.10937E-05
 -1      4903-2.40032E-04-3.87287E-03 3.99987E-05
 -1      4904-2.41086E-04-3.86914E-03-8.07953E-15
 -1      4905-2.40032E-04-3.87287E-03-3.99987E-05
 -1      4906-2.35922E-04-3.88403E-03-8.10937E-05
 -1      4907-3.03936E-05-2.07035E-03 5.04705E-05
 -1      4908-3.75588E-05-2.06241E-03 2.49769E-05
 -1      4909-3.97127E-05-2.05987E-03-2.32023E-15
 -1      4910-3.75588E-05-2.06241E-03-2.49769E-05
 -1      4911-3.03936E-05-2.07035E-03-5.04705E-05
 -1      4912 1.15493E-01-9.85852E-02-1.60730E-04
 -1      4913 1.15478E-01-9.85691E-02-8.01737E-05
 -1      4914 1.15474E-01-9.85636E-02-1.82603E-13
 -1      4915 1.15478E-01-9.85691E-02 8.01737E-05
 -1      4916 1.15493E-01-9.85852E-02 1.60730E-04
 -1      4917 1.12461E-01-8.27904E-02-8.74021E-05
 -1      4918 1.12445E-01-8.27894E-02-4.36903E-05
 -1      4919 1.12439E-01-8.27890E-02-2.05626E-13
 -1      4920 1.12445E-01-8.27894E-02 4.36903E-05
 -1      4921 1.12461E-01-8.27904E-02 8.74021E-05
 -1      4922 1.07060E-01-6.72017E-02-7.61861E-06
 -1      4923 1.07049E-01-6.72123E-02-3.80425E-06
 -1      4924 1.07045E-01-6.72159E-02-2.24595E-13
 -1      4925 1.07049E-01-6.72123E-02 3.80425E-06
 -1      4926 1.07060E-01-6.72017E-02 7.61861E-06
 -1      4927 9.96854E-02-5.26794E-02 5.92857E-05
 -1      4928 9.96825E-02-5.26964E-02 2.96462E-05
 -1      4929 9.96815E-02-5.27021E-02-2.39326E-13
 -1      4930 9.96825E-02-5.26964E-02-2.96462E-05
 -1      4931 9.96854E-02-5.26794E-02-5.92857E-05
 -1      4932 9.08215E-02-3.97166E-02 1.09067E-04
 -1      4933 9.08265E-02-3.97362E-02 5.45386E-05
 -1      4934 9.08282E-02-3.97427E-02-2.49565E-13
 -1      4935 9.08265E-02-3.97362E-02-5.45386E-05
 -1      4936 9.08215E-02-3.97166E-02-1.09067E-04
 -1      4937 8.09229E-02-2.85722E-02 1.44364E-04
 -1      4938 8.09348E-02-2.85920E-02 7.21873E-05
 -1      4939 8.09387E-02-2.85985E-02-2.54713E-13
 -1      4940 8.09348E-02-2.85920E-02-7.21873E-05
 -1      4941 8.09229E-02-2.85722E-02-1.44364E-04
 -1      4942 7.04104E-02-1.93695E-02 1.69193E-04
 -1      4943 7.04280E-02-1.93880E-02 8.46018E-05
 -1      4944 7.04339E-02-1.93942E-02-2.54733E-13
 -1      4945 7.04280E-02-1.93880E-02-8.46018E-05
 -1      4946 7.04104E-02-1.93695E-02-1.69193E-04
 -1      4947 5.96847E-02-1.21356E-02 1.86767E-04
 -1      4948 5.97071E-02-1.21518E-02 9.33882E-05
 -1      4949 5.97146E-02-1.21572E-02-2.49869E-13
 -1      4950 5.97071E-02-1.21518E-02-9.33882E-05
 -1      4951 5.96847E-02-1.21356E-02-1.86767E-04
 -1      4952 4.91274E-02-6.81165E-03 1.99115E-04
 -1      4953 4.91537E-02-6.82463E-03 9.95614E-05
 -1      4954 4.91625E-02-6.82895E-03-2.40206E-13
 -1      4955 4.91537E-02-6.82463E-03-9.95614E-05
 -1      4956 4.91274E-02-6.81165E-03-1.99115E-04
 -1      4957 3.90900E-02-3.25854E-03 2.07323E-04
 -1      4958 3.91192E-02-3.26759E-03 1.03665E-04
 -1      4959 3.91289E-02-3.27061E-03-2.26644E-13
 -1      4960 3.91192E-02-3.26759E-03-1.03665E-04
 -1      4961 3.90900E-02-3.25854E-03-2.07323E-04
 -1      4962 2.98767E-02-1.26540E-03 2.11882E-04
 -1      4963 2.99077E-02-1.27001E-03 1.05944E-04
 -1      4964 2.99180E-02-1.27155E-03-2.09733E-13
 -1      4965 2.99077E-02-1.27001E-03-1.05944E-04
 -1      4966 2.98767E-02-1.26540E-03-2.11882E-04
 -1      4967 2.17288E-02-5.63966E-04 2.12960E-04
 -1      4968 2.17603E-02-5.63844E-04 1.06482E-04
 -1      4969 2.17708E-02-5.63803E-04-1.90375E-13
 -1      4970 2.17603E-02-5.63844E-04-1.06482E-04
 -1      4971 2.17288E-02-5.63966E-04-2.12960E-04
 -1      4972 1.48125E-02-8.47112E-04 2.10593E-04
 -1      4973 1.48433E-02-8.42272E-04 1.05298E-04
 -1      4974 1.48536E-02-8.40659E-04-1.68991E-13
 -1      4975 1.48433E-02-8.42272E-04-1.05298E-04
 -1      4976 1.48125E-02-8.47112E-04-2.10593E-04
 -1      4977 9.21257E-03-1.79006E-03 2.04789E-04
 -1      4978 9.24154E-03-1.78082E-03 1.02395E-04
 -1      4979 9.25119E-03-1.77775E-03-1.46495E-13
 -1      4980 9.24154E-03-1.78082E-03-1.02395E-04
 -1      4981 9.21257E-03-1.79006E-03-2.04789E-04
 -1      4982 4.93183E-03-3.07224E-03 1.95591E-04
 -1      4983 4.95787E-03-3.05922E-03 9.77937E-05
 -1      4984 4.96655E-03-3.05489E-03-1.23623E-13
 -1      4985 4.95787E-03-3.05922E-03-9.77937E-05
 -1      4986 4.93183E-03-3.07224E-03-1.95591E-04
 -1      4987 1.89656E-03-4.39817E-03 1.83106E-04
 -1      4988 1.91878E-03-4.38226E-03 9.15478E-05
 -1      4989 1.92619E-03-4.37695E-03-1.01177E-13
 -1      4990 1.91878E-03-4.38226E-03-9.15478E-05
 -1      4991 1.89656E-03-4.39817E-03-1.83106E-04
 -1      4992-3.29077E-05-5.51597E-03 1.67527E-04
 -1      4993-1.51234E-05-5.49824E-03 8.37524E-05
 -1      4994-9.18963E-06-5.49234E-03-7.98837E-14
 -1      4995-1.51234E-05-5.49824E-03-8.37524E-05
 -1      4996-3.29077E-05-5.51597E-03-1.67527E-04
 -1      4997-1.04718E-03-6.23237E-03 1.49152E-04
 -1      4998-1.03415E-03-6.21406E-03 7.45554E-05
 -1      4999-1.02979E-03-6.20796E-03-6.03498E-14
 -1      5000-1.03415E-03-6.21406E-03-7.45554E-05
 -1      5001-1.04718E-03-6.23237E-03-1.49152E-04
 -1      5002-1.36947E-03-6.42365E-03 1.28411E-04
 -1      5003-1.36115E-03-6.40601E-03 6.41679E-05
 -1      5004-1.35836E-03-6.40013E-03-4.30155E-14
 -1      5005-1.36115E-03-6.40601E-03-6.41679E-05
 -1      5006-1.36947E-03-6.42365E-03-1.28411E-04
 -1      5007-1.23456E-03-6.04173E-03 1.05865E-04
 -1      5008-1.23053E-03-6.02592E-03 5.28668E-05
 -1      5009-1.22916E-03-6.02065E-03-2.83137E-14
 -1      5010-1.23053E-03-6.02592E-03-5.28668E-05
 -1      5011-1.23456E-03-6.04173E-03-1.05865E-04
 -1      5012-8.65554E-04-5.11379E-03 8.21074E-05
 -1      5013-8.65111E-04-5.10063E-03 4.09393E-05
 -1      5014-8.64913E-04-5.09625E-03-1.64901E-14
 -1      5015-8.65111E-04-5.10063E-03-4.09393E-05
 -1      5016-8.65554E-04-5.11379E-03-8.21074E-05
 -1      5017-4.50748E-04-3.72975E-03 5.74833E-05
 -1      5018-4.53049E-04-3.71950E-03 2.85692E-05
 -1      5019-4.53728E-04-3.71611E-03-7.72339E-15
 -1      5020-4.53049E-04-3.71950E-03-2.85692E-05
 -1      5021-4.50748E-04-3.72975E-03-5.74833E-05
 -1      5022-1.28290E-04-2.00476E-03 3.09877E-05
 -1      5023-1.33005E-04-1.99728E-03 1.52439E-05
 -1      5024-1.34430E-04-1.99489E-03-2.11001E-15
 -1      5025-1.33005E-04-1.99728E-03-1.52439E-05
 -1      5026-1.28290E-04-2.00476E-03-3.09877E-05
 -1      5027 1.21608E-01-9.73897E-02-1.23168E-04
 -1      5028 1.21600E-01-9.73769E-02-6.14809E-05
 -1      5029 1.21597E-01-9.73726E-02-1.91752E-13
 -1      5030 1.21600E-01-9.73769E-02 6.14809E-05
 -1      5031 1.21608E-01-9.73897E-02 1.23168E-04
 -1      5032 1.18414E-01-8.10336E-02-7.60977E-05
 -1      5033 1.18403E-01-8.10320E-02-3.80415E-05
 -1      5034 1.18400E-01-8.10314E-02-2.16460E-13
 -1      5035 1.18403E-01-8.10320E-02 3.80415E-05
 -1      5036 1.18414E-01-8.10336E-02 7.60977E-05
 -1      5037 1.12774E-01-6.49002E-02-1.94163E-05
 -1      5038 1.12767E-01-6.49081E-02-9.70496E-06
 -1      5039 1.12765E-01-6.49107E-02-2.36794E-13
 -1      5040 1.12767E-01-6.49081E-02 9.70496E-06
 -1      5041 1.12774E-01-6.49002E-02 1.94163E-05
 -1      5042 1.05029E-01-4.98305E-02 3.01856E-05
 -1      5043 1.05028E-01-4.98442E-02 1.50960E-05
 -1      5044 1.05028E-01-4.98488E-02-2.52927E-13
 -1      5045 1.05028E-01-4.98442E-02-1.50960E-05
 -1      5046 1.05029E-01-4.98305E-02-3.01856E-05
 -1      5047 9.56529E-02-3.63669E-02 6.75672E-05
 -1      5048 9.56585E-02-3.63835E-02 3.37883E-05
 -1      5049 9.56604E-02-3.63890E-02-2.64127E-13
 -1      5050 9.56585E-02-3.63835E-02-3.37883E-05
 -1      5051 9.56529E-02-3.63669E-02-6.75672E-05
 -1      5052 8.51307E-02-2.48219E-02 9.37680E-05
 -1      5053 8.51424E-02-2.48390E-02 4.68896E-05
 -1      5054 8.51463E-02-2.48448E-02-2.69640E-13
 -1      5055 8.51424E-02-2.48390E-02-4.68896E-05
 -1      5056 8.51307E-02-2.48219E-02-9.37680E-05
 -1      5057 7.39278E-02-1.53511E-02 1.11655E-04
 -1      5058 7.39448E-02-1.53674E-02 5.58335E-05
 -1      5059 7.39504E-02-1.53728E-02-2.69697E-13
 -1      5060 7.39448E-02-1.53674E-02-5.58335E-05
 -1      5061 7.39278E-02-1.53511E-02-1.11655E-04
 -1      5062 6.24888E-02-7.99310E-03 1.23832E-04
 -1      5063 6.25101E-02-8.00746E-03 6.19219E-05
 -1      5064 6.25172E-02-8.01225E-03-2.64219E-13
 -1      5065 6.25101E-02-8.00746E-03-6.19219E-05
 -1      5066 6.24888E-02-7.99310E-03-1.23832E-04
 -1      5067 5.12335E-02-2.68570E-03 1.32065E-04
 -1      5068 5.12583E-02-2.69727E-03 6.60384E-05
 -1      5069 5.12666E-02-2.70113E-03-2.53673E-13
 -1      5070 5.12583E-02-2.69727E-03-6.60384E-05
 -1      5071 5.12335E-02-2.68570E-03-1.32065E-04
 -1      5072 4.05441E-02 7.23466E-04 1.37357E-04
 -1      5073 4.05715E-02 7.15376E-04 6.86839E-05
 -1      5074 4.05806E-02 7.12679E-04-2.38957E-13
 -1      5075 4.05715E-02 7.15376E-04-6.86839E-05
 -1      5076 4.05441E-02 7.23466E-04-1.37357E-04
 -1      5077 3.07490E-02 2.46474E-03 1.40185E-04
 -1      5078 3.07780E-02 2.46062E-03 7.00980E-05
 -1      5079 3.07877E-02 2.45924E-03-2.20734E-13
 -1      5080 3.07780E-02 2.46062E-03-7.00980E-05
 -1      5081 3.07490E-02 2.46474E-03-1.40185E-04
 -1      5082 2.21068E-02 2.82984E-03 1.40731E-04
 -1      5083 2.21363E-02 2.82994E-03 7.03718E-05
 -1      5084 2.21461E-02 2.82997E-03-1.99970E-13
 -1      5085 2.21363E-02 2.82994E-03-7.03718E-05
 -1      5086 2.21068E-02 2.82984E-03-1.40731E-04
 -1      5087 1.47940E-02 2.15143E-03 1.39041E-04
 -1      5088 1.48229E-02 2.15575E-03 6.95278E-05
 -1      5089 1.48326E-02 2.15719E-03-1.77112E-13
 -1      5090 1.48229E-02 2.15575E-03-6.95278E-05
 -1      5091 1.47940E-02 2.15143E-03-1.39041E-04
 -1      5092 8.89924E-03 7.80354E-04 1.35118E-04
 -1      5093 8.92650E-03 7.88591E-04 6.75686E-05
 -1      5094 8.93559E-03 7.91338E-04-1.53125E-13
 -1      5095 8.92650E-03 7.88591E-04-6.75686E-05
 -1      5096 8.89924E-03 7.80354E-04-1.35118E-04
 -1      5097 4.42262E-03-9.37877E-04 1.28980E-04
 -1      5098 4.44727E-03-9.26271E-04 6.45041E-05
 -1      5099 4.45548E-03-9.22399E-04-1.28767E-13
 -1      5100 4.44727E-03-9.26271E-04-6.45041E-05
 -1      5101 4.42262E-03-9.37877E-04-1.28980E-04
 -1      5102 1.28198E-03-2.68540E-03 1.20691E-04
 -1      5103 1.30323E-03-2.67121E-03 6.03667E-05
 -1      5104 1.31030E-03-2.66648E-03-1.04908E-13
 -1      5105 1.30323E-03-2.67121E-03-6.03667E-05
 -1      5106 1.28198E-03-2.68540E-03-1.20691E-04
 -1      5107-6.75537E-04-4.19183E-03 1.10373E-04
 -1      5108-6.58239E-04-4.17603E-03 5.52203E-05
 -1      5109-6.52492E-04-4.17076E-03-8.23139E-14
 -1      5110-6.58239E-04-4.17603E-03-5.52203E-05
 -1      5111-6.75537E-04-4.19183E-03-1.10373E-04
 -1      5112-1.65705E-03-5.25027E-03 9.82268E-05
 -1      5113-1.64397E-03-5.23393E-03 4.91680E-05
 -1      5114-1.63965E-03-5.22848E-03-6.16790E-14
 -1      5115-1.64397E-03-5.23393E-03-4.91680E-05
 -1      5116-1.65705E-03-5.25027E-03-9.82268E-05
 -1      5117-1.90370E-03-5.72868E-03 8.45288E-05
 -1      5118-1.89480E-03-5.71291E-03 4.23520E-05
 -1      5119-1.89189E-03-5.70766E-03-4.35046E-14
 -1      5120-1.89480E-03-5.71291E-03-4.23520E-05
 -1      5121-1.90370E-03-5.72868E-03-8.45288E-05
 -1      5122-1.66730E-03-5.57588E-03 6.95784E-05
 -1      5123-1.66224E-03-5.56170E-03 3.49246E-05
 -1      5124-1.66064E-03-5.55699E-03-2.82332E-14
 -1      5125-1.66224E-03-5.56170E-03-3.49246E-05
 -1      5126-1.66730E-03-5.57588E-03-6.95784E-05
 -1      5127-1.18490E-03-4.82060E-03 5.34702E-05
 -1      5128-1.18308E-03-4.80874E-03 2.69190E-05
 -1      5129-1.18259E-03-4.80483E-03-1.61396E-14
 -1      5130-1.18308E-03-4.80874E-03-2.69190E-05
 -1      5131-1.18490E-03-4.82060E-03-5.34702E-05
 -1      5132-6.54259E-04-3.55933E-03 3.55229E-05
 -1      5133-6.54963E-04-3.55009E-03 1.79111E-05
 -1      5134-6.55317E-04-3.54707E-03-7.36126E-15
 -1      5135-6.54963E-04-3.55009E-03-1.79111E-05
 -1      5136-6.54259E-04-3.55933E-03-3.55229E-05
 -1      5137-2.21152E-04-1.92267E-03 1.34827E-05
 -1      5138-2.23899E-04-1.91596E-03 6.39923E-06
 -1      5139-2.24710E-04-1.91384E-03-1.91965E-15
 -1      5140-2.23899E-04-1.91596E-03-6.39923E-06
 -1      5141-2.21152E-04-1.92267E-03-1.34827E-05
 -1      5142 1.27755E-01-9.62913E-02-9.40534E-05
 -1      5143 1.27751E-01-9.62811E-02-4.69707E-05
 -1      5144 1.27750E-01-9.62777E-02-2.00749E-13
 -1      5145 1.27751E-01-9.62811E-02 4.69707E-05
 -1      5146 1.27755E-01-9.62913E-02 9.40534E-05
 -1      5147 1.24383E-01-7.93143E-02-6.68050E-05
 -1      5148 1.24376E-01-7.93125E-02-3.33961E-05
 -1      5149 1.24374E-01-7.93119E-02-2.27182E-13
 -1      5150 1.24376E-01-7.93125E-02 3.33961E-05
 -1      5151 1.24383E-01-7.93143E-02 6.68050E-05
 -1      5152 1.18485E-01-6.26020E-02-2.91117E-05
 -1      5153 1.18480E-01-6.26079E-02-1.45532E-05
 -1      5154 1.18479E-01-6.26099E-02-2.48988E-13
 -1      5155 1.18480E-01-6.26079E-02 1.45532E-05
 -1      5156 1.18485E-01-6.26020E-02 2.91117E-05
 -1      5157 1.10360E-01-4.69732E-02 4.91855E-06
 -1      5158 1.10360E-01-4.69844E-02 2.46136E-06
 -1      5159 1.10361E-01-4.69881E-02-2.66591E-13
 -1      5160 1.10360E-01-4.69844E-02-2.46136E-06
 -1      5161 1.10360E-01-4.69732E-02-4.91855E-06
 -1      5162 1.00473E-01-3.30071E-02 3.03101E-05
 -1      5163 1.00480E-01-3.30211E-02 1.51583E-05
 -1      5164 1.00482E-01-3.30258E-02-2.78816E-13
 -1      5165 1.00480E-01-3.30211E-02-1.51583E-05
 -1      5166 1.00473E-01-3.30071E-02-3.03101E-05
 -1      5167 8.93341E-02-2.10617E-02 4.73684E-05
 -1      5168 8.93458E-02-2.10766E-02 2.36887E-05
 -1      5169 8.93497E-02-2.10816E-02-2.84780E-13
 -1      5170 8.93458E-02-2.10766E-02-2.36887E-05
 -1      5171 8.93341E-02-2.10617E-02-4.73684E-05
 -1      5172 7.74467E-02-1.13231E-02 5.82220E-05
 -1      5173 7.74631E-02-1.13375E-02 2.91164E-05
 -1      5174 7.74686E-02-1.13423E-02-2.84564E-13
 -1      5175 7.74631E-02-1.13375E-02-2.91164E-05
 -1      5176 7.74467E-02-1.13231E-02-5.82220E-05
 -1      5177 6.52981E-02-3.84157E-03 6.49844E-05
 -1      5178 6.53185E-02-3.85438E-03 3.24983E-05
 -1      5179 6.53253E-02-3.85865E-03-2.78568E-13
 -1      5180 6.53185E-02-3.85438E-03-3.24983E-05
 -1      5181 6.52981E-02-3.84157E-03-6.49844E-05
 -1      5182 5.33463E-02 1.44816E-03 6.91540E-05
 -1      5183 5.33699E-02 1.43780E-03 3.45836E-05
 -1      5184 5.33778E-02 1.43434E-03-2.67226E-13
 -1      5185 5.33699E-02 1.43780E-03-3.45836E-05
 -1      5186 5.33463E-02 1.44816E-03-6.91540E-05
 -1      5187 4.20055E-02 4.71150E-03 7.16052E-05
 -1      5188 4.20314E-02 4.70424E-03 3.58100E-05
 -1      5189 4.20401E-02 4.70182E-03-2.51362E-13
 -1      5190 4.20314E-02 4.70424E-03-3.58100E-05
 -1      5191 4.20055E-02 4.71150E-03-7.16052E-05
 -1      5192 3.16287E-02 6.19840E-03 7.27662E-05
 -1      5193 3.16561E-02 6.19469E-03 3.63918E-05
 -1      5194 3.16652E-02 6.19346E-03-2.31819E-13
 -1      5195 3.16561E-02 6.19469E-03-3.63918E-05
 -1      5196 3.16287E-02 6.19840E-03-7.27662E-05
 -1      5197 2.24923E-02 6.22425E-03 7.28027E-05
 -1      5198 2.25202E-02 6.22433E-03 3.64125E-05
 -1      5199 2.25294E-02 6.22436E-03-2.09578E-13
 -1      5200 2.25202E-02 6.22433E-03-3.64125E-05
 -1      5201 2.24923E-02 6.22425E-03-7.28027E-05
 -1      5202 1.47837E-02 5.14758E-03 7.17513E-05
 -1      5203 1.48110E-02 5.15144E-03 3.58911E-05
 -1      5204 1.48201E-02 5.15273E-03-1.85240E-13
 -1      5205 1.48110E-02 5.15144E-03-3.58911E-05
 -1      5206 1.47837E-02 5.14758E-03-7.17513E-05
 -1      5207 8.59536E-03 3.34551E-03 6.96025E-05
 -1      5208 8.62119E-03 3.35290E-03 3.48241E-05
 -1      5209 8.62978E-03 3.35537E-03-1.59715E-13
 -1      5210 8.62119E-03 3.35290E-03-3.48241E-05
 -1      5211 8.59536E-03 3.34551E-03-6.96025E-05
 -1      5212 3.92475E-03 1.18877E-03 6.63474E-05
 -1      5213 3.94822E-03 1.19918E-03 3.32087E-05
 -1      5214 3.95603E-03 1.20266E-03-1.33804E-13
 -1      5215 3.94822E-03 1.19918E-03-3.32087E-05
 -1      5216 3.92475E-03 1.18877E-03-6.63474E-05
 -1      5217 6.81208E-04-9.82222E-04 6.20018E-05
 -1      5218 7.01636E-04-9.69490E-04 3.10559E-05
 -1      5219 7.08416E-04-9.65238E-04-1.08488E-13
 -1      5220 7.01636E-04-9.69490E-04-3.10559E-05
 -1      5221 6.81208E-04-9.82222E-04-6.20018E-05
 -1      5222-1.30141E-03-2.87836E-03 5.66222E-05
 -1      5223-1.28452E-03-2.86418E-03 2.83988E-05
 -1      5224-1.27894E-03-2.85944E-03-8.45963E-14
 -1      5225-1.28452E-03-2.86418E-03-2.83988E-05
 -1      5226-1.30141E-03-2.87836E-03-5.66222E-05
 -1      5227-2.24695E-03-4.27886E-03 5.03135E-05
 -1      5228-2.23383E-03-4.26419E-03 2.52966E-05
 -1      5229-2.22954E-03-4.25929E-03-6.28800E-14
 -1      5230-2.23383E-03-4.26419E-03-2.52966E-05
 -1      5231-2.24695E-03-4.27886E-03-5.03135E-05
 -1      5232-2.41487E-03-5.04301E-03 4.32170E-05
 -1      5233-2.40549E-03-5.02884E-03 2.18287E-05
 -1      5234-2.40249E-03-5.02413E-03-4.38871E-14
 -1      5235-2.40549E-03-5.02884E-03-2.18287E-05
 -1      5236-2.41487E-03-5.04301E-03-4.32170E-05
 -1      5237-2.07498E-03-5.11602E-03 3.54199E-05
 -1      5238-2.06902E-03-5.10324E-03 1.80430E-05
 -1      5239-2.06723E-03-5.09902E-03-2.80576E-14
 -1      5240-2.06902E-03-5.10324E-03-1.80430E-05
 -1      5241-2.07498E-03-5.11602E-03-3.54199E-05
 -1      5242-1.47991E-03-4.52765E-03 2.66502E-05
 -1      5243-1.47687E-03-4.51698E-03 1.37758E-05
 -1      5244-1.47614E-03-4.51349E-03-1.57003E-14
 -1      5245-1.47687E-03-4.51698E-03-1.37758E-05
 -1      5246-1.47991E-03-4.52765E-03-2.66502E-05
 -1      5247-8.38964E-04-3.38173E-03 1.54608E-05
 -1      5248-8.38194E-04-3.37354E-03 8.12383E-06
 -1      5249-8.38228E-04-3.37091E-03-6.94183E-15
 -1      5250-8.38194E-04-3.37354E-03-8.12383E-06
 -1      5251-8.38964E-04-3.38173E-03-1.54608E-05
 -1      5252-3.04908E-04-1.82936E-03-1.36253E-06
 -1      5253-3.06116E-04-1.82366E-03-1.17089E-06
 -1      5254-3.06423E-04-1.82186E-03-1.72334E-15
 -1      5255-3.06116E-04-1.82366E-03 1.17089E-06
 -1      5256-3.04908E-04-1.82936E-03 1.36253E-06
 -1      5257 1.33948E-01-9.52670E-02-7.16460E-05
 -1      5258 1.33946E-01-9.52590E-02-3.57966E-05
 -1      5259 1.33946E-01-9.52563E-02-2.09661E-13
 -1      5260 1.33946E-01-9.52590E-02 3.57966E-05
 -1      5261 1.33948E-01-9.52670E-02 7.16460E-05
 -1      5262 1.30389E-01-7.76233E-02-5.94682E-05
 -1      5263 1.30385E-01-7.76214E-02-2.97285E-05
 -1      5264 1.30383E-01-7.76208E-02-2.37792E-13
 -1      5265 1.30385E-01-7.76214E-02 2.97285E-05
 -1      5266 1.30389E-01-7.76233E-02 5.94682E-05
 -1      5267 1.24215E-01-6.03002E-02-3.75791E-05
 -1      5268 1.24213E-01-6.03047E-02-1.87877E-05
 -1      5269 1.24213E-01-6.03062E-02-2.61334E-13
 -1      5270 1.24213E-01-6.03047E-02 1.87877E-05
 -1      5271 1.24215E-01-6.03002E-02 3.75791E-05
 -1      5272 1.15700E-01-4.40974E-02-1.76038E-05
 -1      5273 1.15702E-01-4.41066E-02-8.80080E-06
 -1      5274 1.15703E-01-4.41097E-02-2.80606E-13
 -1      5275 1.15702E-01-4.41066E-02 8.80079E-06
 -1      5276 1.15700E-01-4.40974E-02 1.76038E-05
 -1      5277 1.05300E-01-2.96240E-02-3.69125E-06
 -1      5278 1.05307E-01-2.96360E-02-1.84335E-06
 -1      5279 1.05309E-01-2.96400E-02-2.93552E-13
 -1      5280 1.05307E-01-2.96360E-02 1.84335E-06
 -1      5281 1.05300E-01-2.96240E-02 3.69124E-06
 -1      5282 9.35434E-02-1.72779E-02 4.32986E-06
 -1      5283 9.35551E-02-1.72909E-02 2.16878E-06
 -1      5284 9.35591E-02-1.72953E-02-2.99948E-13
 -1      5285 9.35551E-02-1.72909E-02-2.16878E-06
 -1      5286 9.35434E-02-1.72779E-02-4.32986E-06
 -1      5287 8.09718E-02-7.27297E-03 8.16853E-06
 -1      5288 8.09878E-02-7.28574E-03 4.08970E-06
 -1      5289 8.09932E-02-7.29000E-03-2.99646E-13
 -1      5290 8.09878E-02-7.28574E-03-4.08970E-06
 -1      5291 8.09718E-02-7.27297E-03-8.16854E-06
 -1      5292 6.81132E-02 3.29601E-04 9.55802E-06
 -1      5293 6.81329E-02 3.18142E-04 4.78585E-06
 -1      5294 6.81394E-02 3.14324E-04-2.93119E-13
 -1      5295 6.81329E-02 3.18142E-04-4.78585E-06
 -1      5296 6.81132E-02 3.29601E-04-9.55802E-06
 -1      5297 5.54638E-02 5.59808E-03 9.73690E-06
 -1      5298 5.54863E-02 5.58876E-03 4.87674E-06
 -1      5299 5.54939E-02 5.58565E-03-2.80863E-13
 -1      5300 5.54863E-02 5.58876E-03-4.87674E-06
 -1      5301 5.54638E-02 5.59808E-03-9.73690E-06
 -1      5302 4.34700E-02 8.71105E-03 9.42845E-06
 -1      5303 4.34947E-02 8.70450E-03 4.72443E-06
 -1      5304 4.35029E-02 8.70232E-03-2.63803E-13
 -1      5305 4.34947E-02 8.70450E-03-4.72443E-06
 -1      5306 4.34700E-02 8.71105E-03-9.42845E-06
 -1      5307 3.25104E-02 9.93831E-03 8.98349E-06
 -1      5308 3.25364E-02 9.93496E-03 4.50492E-06
 -1      5309 3.25451E-02 9.93384E-03-2.42870E-13
 -1      5310 3.25364E-02 9.93496E-03-4.50492E-06
 -1      5311 3.25104E-02 9.93831E-03-8.98349E-06
 -1      5312 2.28797E-02 9.61927E-03 8.53087E-06
 -1      5313 2.29061E-02 9.61933E-03 4.28345E-06
 -1      5314 2.29149E-02 9.61936E-03-2.19125E-13
 -1      5315 2.29061E-02 9.61933E-03-4.28345E-06
 -1      5316 2.28797E-02 9.61927E-03-8.53087E-06
 -1      5317 1.47763E-02 8.13868E-03 8.08697E-06
 -1      5318 1.48022E-02 8.14216E-03 4.06943E-06
 -1      5319 1.48108E-02 8.14333E-03-1.93282E-13
 -1      5320 1.48022E-02 8.14216E-03-4.06943E-06
 -1      5321 1.47763E-02 8.13868E-03-8.08697E-06
 -1      5322 8.29656E-03 5.90038E-03 7.62227E-06
 -1      5323 8.32116E-03 5.90704E-03 3.84996E-06
 -1      5324 8.32934E-03 5.90928E-03-1.66204E-13
 -1      5325 8.32116E-03 5.90704E-03-3.84996E-06
 -1      5326 8.29656E-03 5.90038E-03-7.62227E-06
 -1      5327 3.43540E-03 3.30064E-03 7.09754E-06
 -1      5328 3.45788E-03 3.31003E-03 3.60833E-06
 -1      5329 3.46534E-03 3.31317E-03-1.38721E-13
 -1      5330 3.45788E-03 3.31003E-03-3.60833E-06
 -1      5331 3.43540E-03 3.30064E-03-7.09754E-06
 -1      5332 9.34580E-05 7.02788E-04 6.48288E-06
 -1      5333 1.13189E-04 7.14274E-04 3.33411E-06
 -1      5334 1.19715E-04 7.18116E-04-1.11926E-13
 -1      5335 1.13189E-04 7.14274E-04-3.33411E-06
 -1      5336 9.34580E-05 7.02788E-04-6.48288E-06
 -1      5337-1.90903E-03-1.58510E-03 5.76907E-06
 -1      5338-1.89248E-03-1.57230E-03 3.02947E-06
 -1      5339-1.88705E-03-1.56802E-03-8.67204E-14
 -1      5340-1.89248E-03-1.57230E-03-3.02947E-06
 -1      5341-1.90903E-03-1.58510E-03-5.76907E-06
 -1      5342-2.81301E-03-3.32809E-03 4.97259E-06
 -1      5343-2.79985E-03-3.31484E-03 2.71209E-06
 -1      5344-2.79560E-03-3.31042E-03-6.39108E-14
 -1      5345-2.79985E-03-3.31484E-03-2.71209E-06
 -1      5346-2.81301E-03-3.32809E-03-4.97259E-06
 -1      5347-2.89699E-03-4.37653E-03 4.11915E-06
 -1      5348-2.88718E-03-4.36372E-03 2.40562E-06
 -1      5349-2.88411E-03-4.35947E-03-4.40855E-14
 -1      5350-2.88718E-03-4.36372E-03-2.40562E-06
 -1      5351-2.89699E-03-4.37653E-03-4.11915E-06
 -1      5352-2.44997E-03-4.67167E-03 3.14022E-06
 -1      5353-2.44322E-03-4.66011E-03 2.07757E-06
 -1      5354-2.44127E-03-4.65632E-03-2.77323E-14
 -1      5355-2.44322E-03-4.66011E-03-2.07757E-06
 -1      5356-2.44997E-03-4.67167E-03-3.14022E-06
 -1      5357-1.74234E-03-4.24408E-03 1.53891E-06
 -1      5358-1.73820E-03-4.23447E-03 1.43200E-06
 -1      5359-1.73723E-03-4.23136E-03-1.51604E-14
 -1      5360-1.73820E-03-4.23447E-03-1.43200E-06
 -1      5361-1.74234E-03-4.24408E-03-1.53891E-06
 -1      5362-9.97609E-04-3.20513E-03-2.61759E-06
 -1      5363-9.95456E-04-3.19799E-03-7.63030E-07
 -1      5364-9.95151E-04-3.19572E-03-6.47143E-15
 -1      5365-9.95456E-04-3.19799E-03 7.63030E-07
 -1      5366-9.97609E-04-3.20513E-03 2.61759E-06
 -1      5367-3.75416E-04-1.72955E-03-1.31416E-05
 -1      5368-3.75431E-04-1.72503E-03-7.22173E-06
 -1      5369-3.75329E-04-1.72362E-03-1.51473E-15
 -1      5370-3.75431E-04-1.72503E-03 7.22173E-06
 -1      5371-3.75416E-04-1.72955E-03 1.31416E-05
 -1      5372 1.40195E-01-9.42988E-02-5.45166E-05
 -1      5373 1.40196E-01-9.42924E-02-2.72503E-05
 -1      5374 1.40196E-01-9.42903E-02-2.18460E-13
 -1      5375 1.40196E-01-9.42924E-02 2.72503E-05
 -1      5376 1.40195E-01-9.42988E-02 5.45166E-05
 -1      5377 1.36443E-01-7.59520E-02-5.37610E-05
 -1      5378 1.36442E-01-7.59502E-02-2.68748E-05
 -1      5379 1.36441E-01-7.59496E-02-2.48613E-13
 -1      5380 1.36442E-01-7.59502E-02 2.68748E-05
 -1      5381 1.36443E-01-7.59520E-02 5.37610E-05
 -1      5382 1.29984E-01-5.79888E-02-4.52520E-05
 -1      5383 1.29984E-01-5.79922E-02-2.26242E-05
 -1      5384 1.29984E-01-5.79933E-02-2.74192E-13
 -1      5385 1.29984E-01-5.79922E-02 2.26242E-05
 -1      5386 1.29984E-01-5.79888E-02 4.52520E-05
 -1      5387 1.21068E-01-4.11952E-02-3.81013E-05
 -1      5388 1.21071E-01-4.12028E-02-1.90501E-05
 -1      5389 1.21072E-01-4.12053E-02-2.94631E-13
 -1      5390 1.21071E-01-4.12028E-02 1.90501E-05
 -1      5391 1.21068E-01-4.11952E-02 3.81013E-05
 -1      5392 1.10147E-01-2.62078E-02-3.51709E-05
 -1      5393 1.10154E-01-2.62181E-02-1.75839E-05
 -1      5394 1.10157E-01-2.62215E-02-3.08428E-13
 -1      5395 1.10154E-01-2.62181E-02 1.75839E-05
 -1      5396 1.10147E-01-2.62078E-02 3.51709E-05
 -1      5397 9.77680E-02-1.34599E-02-3.60096E-05
 -1      5398 9.77799E-02-1.34714E-02-1.80014E-05
 -1      5399 9.77839E-02-1.34752E-02-3.15283E-13
 -1      5400 9.77799E-02-1.34714E-02 1.80014E-05
 -1      5401 9.77680E-02-1.34599E-02 3.60096E-05
 -1      5402 8.45082E-02-3.19079E-03-3.90971E-05
 -1      5403 8.45240E-02-3.20216E-03-1.95430E-05
 -1      5404 8.45292E-02-3.20595E-03-3.14924E-13
 -1      5405 8.45240E-02-3.20216E-03 1.95430E-05
 -1      5406 8.45082E-02-3.19079E-03 3.90971E-05
 -1      5407 7.09357E-02 4.52870E-03-4.29951E-05
 -1      5408 7.09547E-02 4.51841E-03-2.14898E-05
 -1      5409 7.09611E-02 4.51498E-03-3.07556E-13
 -1      5410 7.09547E-02 4.51841E-03 2.14898E-05
 -1      5411 7.09357E-02 4.52870E-03 4.29951E-05
 -1      5412 5.75848E-02 9.77040E-03-4.67136E-05
 -1      5413 5.76065E-02 9.76198E-03-2.33466E-05
 -1      5414 5.76137E-02 9.75918E-03-2.94312E-13
 -1      5415 5.76065E-02 9.76198E-03 2.33466E-05
 -1      5416 5.75848E-02 9.77040E-03 4.67136E-05
 -1      5417 4.49349E-02 1.27264E-02-4.96953E-05
 -1      5418 4.49585E-02 1.27204E-02-2.48342E-05
 -1      5419 4.49664E-02 1.27185E-02-2.76254E-13
 -1      5420 4.49585E-02 1.27204E-02 2.48342E-05
 -1      5421 4.49349E-02 1.27264E-02 4.96953E-05
 -1      5422 3.33905E-02 1.36866E-02-5.16852E-05
 -1      5423 3.34153E-02 1.36835E-02-2.58244E-05
 -1      5424 3.34236E-02 1.36825E-02-2.53890E-13
 -1      5425 3.34153E-02 1.36835E-02 2.58244E-05
 -1      5426 3.33905E-02 1.36866E-02 5.16852E-05
 -1      5427 2.32649E-02 1.30149E-02-5.26050E-05
 -1      5428 2.32901E-02 1.30149E-02-2.62770E-05
 -1      5429 2.32985E-02 1.30149E-02-2.28736E-13
 -1      5430 2.32901E-02 1.30149E-02 2.62770E-05
 -1      5431 2.32649E-02 1.30149E-02 5.26050E-05
 -1      5432 1.47679E-02 1.11227E-02-5.24670E-05
 -1      5433 1.47927E-02 1.11259E-02-2.61963E-05
 -1      5434 1.48009E-02 1.11269E-02-2.01298E-13
 -1      5435 1.47927E-02 1.11259E-02 2.61963E-05
 -1      5436 1.47679E-02 1.11227E-02 5.24670E-05
 -1      5437 7.99985E-03 8.44110E-03-5.13247E-05
 -1      5438 8.02339E-03 8.44714E-03-2.56067E-05
 -1      5439 8.03121E-03 8.44916E-03-1.72570E-13
 -1      5440 8.02339E-03 8.44714E-03 2.56067E-05
 -1      5441 7.99985E-03 8.44110E-03 5.13247E-05
 -1      5442 2.95280E-03 5.39232E-03-4.92486E-05
 -1      5443 2.97442E-03 5.40083E-03-2.45399E-05
 -1      5444 2.98158E-03 5.40369E-03-1.43527E-13
 -1      5445 2.97442E-03 5.40083E-03 2.45399E-05
 -1      5446 2.95280E-03 5.39232E-03 4.92486E-05
 -1      5447-4.81519E-04 2.36302E-03-4.63136E-05
 -1      5448-4.62386E-04 2.37344E-03-2.30277E-05
 -1      5449-4.56080E-04 2.37692E-03-1.15250E-13
 -1      5450-4.62386E-04 2.37344E-03 2.30277E-05
 -1      5451-4.81519E-04 2.36302E-03 4.63136E-05
 -1      5452-2.49687E-03-3.19422E-04-4.25920E-05
 -1      5453-2.48061E-03-3.07809E-04-2.10982E-05
 -1      5454-2.47530E-03-3.03926E-04-8.87227E-14
 -1      5455-2.48061E-03-3.07809E-04 2.10982E-05
 -1      5456-2.49687E-03-3.19422E-04 4.25920E-05
 -1      5457-3.35189E-03-2.40567E-03-3.81490E-05
 -1      5458-3.33869E-03-2.39364E-03-1.87737E-05
 -1      5459-3.33447E-03-2.38963E-03-6.47941E-14
 -1      5460-3.33869E-03-2.39364E-03 1.87737E-05
 -1      5461-3.35189E-03-2.40567E-03 3.81490E-05
 -1      5462-3.34494E-03-3.73697E-03-3.30553E-05
 -1      5463-3.33475E-03-3.72532E-03-1.60790E-05
 -1      5464-3.33162E-03-3.72147E-03-4.41448E-14
 -1      5465-3.33475E-03-3.72532E-03 1.60790E-05
 -1      5466-3.34494E-03-3.73697E-03 3.30553E-05
 -1      5467-2.78560E-03-4.25053E-03-2.74814E-05
 -1      5468-2.77816E-03-4.24003E-03-1.31035E-05
 -1      5469-2.77606E-03-4.23660E-03-2.72751E-14
 -1      5470-2.77816E-03-4.24003E-03 1.31035E-05
 -1      5471-2.78560E-03-4.25053E-03 2.74814E-05
 -1      5472-1.96440E-03-3.97766E-03-2.20090E-05
 -1      5473-1.95925E-03-3.96901E-03-1.02065E-05
 -1      5474-1.95804E-03-3.96624E-03-1.45063E-14
 -1      5475-1.95925E-03-3.96901E-03 1.02065E-05
 -1      5476-1.96440E-03-3.97766E-03 2.20090E-05
 -1      5477-1.12244E-03-3.03714E-03-1.87470E-05
 -1      5478-1.11900E-03-3.03099E-03-8.77159E-06
 -1      5479-1.11833E-03-3.02907E-03-5.91844E-15
 -1      5480-1.11900E-03-3.03099E-03 8.77159E-06
 -1      5481-1.12244E-03-3.03714E-03 1.87470E-05
 -1      5482-4.27899E-04-1.62785E-03-2.16189E-05
 -1      5483-4.26961E-04-1.62466E-03-1.15971E-05
 -1      5484-4.26523E-04-1.62368E-03-1.26999E-15
 -1      5485-4.26961E-04-1.62466E-03 1.15971E-05
 -1      5486-4.27899E-04-1.62785E-03 2.16189E-05
 -1      5487 1.46501E-01-9.33720E-02-4.14296E-05
 -1      5488 1.46503E-01-9.33669E-02-2.07191E-05
 -1      5489 1.46503E-01-9.33652E-02-2.27581E-13
 -1      5490 1.46503E-01-9.33669E-02 2.07191E-05
 -1      5491 1.46501E-01-9.33720E-02 4.14296E-05
 -1      5492 1.42556E-01-7.42929E-02-4.92332E-05
 -1      5493 1.42556E-01-7.42911E-02-2.46107E-05
 -1      5494 1.42556E-01-7.42905E-02-2.59451E-13
 -1      5495 1.42556E-01-7.42911E-02 2.46107E-05
 -1      5496 1.42556E-01-7.42929E-02 4.92332E-05
 -1      5497 1.35803E-01-5.56619E-02-5.23134E-05
 -1      5498 1.35805E-01-5.56644E-02-2.61550E-05
 -1      5499 1.35805E-01-5.56652E-02-2.86576E-13
 -1      5500 1.35805E-01-5.56644E-02 2.61550E-05
 -1      5501 1.35803E-01-5.56619E-02 5.23134E-05
 -1      5502 1.26477E-01-3.82599E-02-5.70572E-05
 -1      5503 1.26481E-01-3.82661E-02-2.85286E-05
 -1      5504 1.26483E-01-3.82682E-02-3.08621E-13
 -1      5505 1.26481E-01-3.82661E-02 2.85286E-05
 -1      5506 1.26477E-01-3.82599E-02 5.70572E-05
 -1      5507 1.15025E-01-2.27504E-02-6.46832E-05
 -1      5508 1.15034E-01-2.27592E-02-3.23406E-05
 -1      5509 1.15036E-01-2.27622E-02-3.23615E-13
 -1      5510 1.15034E-01-2.27592E-02 3.23406E-05
 -1      5511 1.15025E-01-2.27504E-02 6.46832E-05
 -1      5512 1.02016E-01-9.59951E-03-7.41795E-05
 -1      5513 1.02028E-01-9.60959E-03-3.70866E-05
 -1      5514 1.02032E-01-9.61295E-03-3.30691E-13
 -1      5515 1.02028E-01-9.60959E-03 3.70866E-05
 -1      5516 1.02016E-01-9.59951E-03 7.41795E-05
 -1      5517 8.80607E-02 9.31118E-04-8.40610E-05
 -1      5518 8.80763E-02 9.20948E-04-4.20245E-05
 -1      5519 8.80815E-02 9.17561E-04-3.30186E-13
 -1      5520 8.80763E-02 9.20948E-04 4.20245E-05
 -1      5521 8.80607E-02 9.31118E-04 8.40610E-05
 -1      5522 7.37674E-02 8.76222E-03-9.31285E-05
 -1      5523 7.37859E-02 8.75293E-03-4.65551E-05
 -1      5524 7.37921E-02 8.74984E-03-3.22212E-13
 -1      5525 7.37859E-02 8.75293E-03 4.65551E-05
 -1      5526 7.37674E-02 8.76222E-03 9.31285E-05
 -1      5527 5.97091E-02 1.39701E-02-1.00634E-04
 -1      5528 5.97301E-02 1.39624E-02-5.03042E-05
 -1      5529 5.97371E-02 1.39599E-02-3.07930E-13
 -1      5530 5.97301E-02 1.39624E-02 5.03042E-05
 -1      5531 5.97091E-02 1.39701E-02 1.00634E-04
 -1      5532 4.63985E-02 1.67607E-02-1.06196E-04
 -1      5533 4.64212E-02 1.67553E-02-5.30808E-05
 -1      5534 4.64288E-02 1.67535E-02-2.88695E-13
 -1      5535 4.64212E-02 1.67553E-02 5.30808E-05
 -1      5536 4.63985E-02 1.67607E-02 1.06196E-04
 -1      5537 3.42665E-02 1.74448E-02-1.09668E-04
 -1      5538 3.42903E-02 1.74420E-02-5.48105E-05
 -1      5539 3.42982E-02 1.74411E-02-2.64971E-13
 -1      5540 3.42903E-02 1.74420E-02 5.48105E-05
 -1      5541 3.42665E-02 1.74448E-02 1.09668E-04
 -1      5542 2.36452E-02 1.64110E-02-1.11032E-04
 -1      5543 2.36694E-02 1.64111E-02-5.54825E-05
 -1      5544 2.36774E-02 1.64111E-02-2.38269E-13
 -1      5545 2.36694E-02 1.64111E-02 5.54825E-05
 -1      5546 2.36452E-02 1.64110E-02 1.11032E-04
 -1      5547 1.47560E-02 1.40980E-02-1.10332E-04
 -1      5548 1.47797E-02 1.41009E-02-5.51176E-05
 -1      5549 1.47876E-02 1.41019E-02-2.09266E-13
 -1      5550 1.47797E-02 1.41009E-02 5.51176E-05
 -1      5551 1.47560E-02 1.40980E-02 1.10332E-04
 -1      5552 7.70316E-03 1.09646E-02-1.07648E-04
 -1      5553 7.72578E-03 1.09701E-02-5.37529E-05
 -1      5554 7.73328E-03 1.09719E-02-1.78896E-13
 -1      5555 7.72578E-03 1.09701E-02 5.37529E-05
 -1      5556 7.70316E-03 1.09646E-02 1.07648E-04
 -1      5557 2.47580E-03 7.45955E-03-1.03081E-04
 -1      5558 2.49667E-03 7.46730E-03-5.14349E-05
 -1      5559 2.50357E-03 7.46990E-03-1.48236E-13
 -1      5560 2.49667E-03 7.46730E-03 5.14349E-05
 -1      5561 2.47580E-03 7.45955E-03 1.03081E-04
 -1      5562-1.04367E-03 3.99329E-03-9.67506E-05
 -1      5563-1.02505E-03 4.00278E-03-4.82171E-05
 -1      5564-1.01894E-03 4.00596E-03-1.18440E-13
 -1      5565-1.02505E-03 4.00278E-03 4.82171E-05
 -1      5566-1.04367E-03 3.99329E-03 9.67506E-05
 -1      5567-3.06348E-03 9.12897E-04-8.87884E-05
 -1      5568-3.04748E-03 9.23479E-04-4.41575E-05
 -1      5569-3.04229E-03 9.27018E-04-9.05764E-14
 -1      5570-3.04748E-03 9.23479E-04 4.41575E-05
 -1      5571-3.06348E-03 9.12897E-04 8.87884E-05
 -1      5572-3.86065E-03-1.51766E-03-7.93356E-05
 -1      5573-3.84743E-03-1.50669E-03-3.93167E-05
 -1      5574-3.84323E-03-1.50304E-03-6.55346E-14
 -1      5575-3.84743E-03-1.50669E-03 3.93167E-05
 -1      5576-3.86065E-03-1.51766E-03 7.93356E-05
 -1      5577-3.75428E-03-3.13044E-03-6.85426E-05
 -1      5578-3.74378E-03-3.11982E-03-3.37620E-05
 -1      5579-3.74059E-03-3.11631E-03-4.40548E-14
 -1      5580-3.74378E-03-3.11982E-03 3.37620E-05
 -1      5581-3.75428E-03-3.13044E-03 6.85426E-05
 -1      5582-3.07590E-03-3.85878E-03-5.66388E-05
 -1      5583-3.06786E-03-3.84922E-03-2.76190E-05
 -1      5584-3.06560E-03-3.84611E-03-2.66710E-14
 -1      5585-3.06786E-03-3.84922E-03 2.76190E-05
 -1      5586-3.07590E-03-3.85878E-03 5.66388E-05
 -1      5587-2.13843E-03-3.73497E-03-4.41624E-05
 -1      5588-2.13240E-03-3.72718E-03-2.12430E-05
 -1      5589-2.13092E-03-3.72470E-03-1.37178E-14
 -1      5590-2.13240E-03-3.72718E-03 2.12430E-05
 -1      5591-2.13843E-03-3.73497E-03 4.41624E-05
 -1      5592-1.20467E-03-2.88490E-03-3.30644E-05
 -1      5593-1.20008E-03-2.87967E-03-1.59659E-05
 -1      5594-1.19902E-03-2.87805E-03-5.26212E-15
 -1      5595-1.20008E-03-2.87967E-03 1.59659E-05
 -1      5596-1.20467E-03-2.88490E-03 3.30644E-05
 -1      5597-4.56246E-04-1.52927E-03-2.66924E-05
 -1      5598-4.54463E-04-1.52751E-03-1.42055E-05
 -1      5599-4.53730E-04-1.52699E-03-9.75996E-16
 -1      5600-4.54463E-04-1.52751E-03 1.42055E-05
 -1      5601-4.56246E-04-1.52927E-03 2.66924E-05
 -1      5602 1.52866E-01-9.24751E-02-3.12595E-05
 -1      5603 1.52868E-01-9.24710E-02-1.56397E-05
 -1      5604 1.52869E-01-9.24696E-02-2.36890E-13
 -1      5605 1.52868E-01-9.24710E-02 1.56397E-05
 -1      5606 1.52866E-01-9.24751E-02 3.12595E-05
 -1      5607 1.48732E-01-7.26391E-02-4.53827E-05
 -1      5608 1.48733E-01-7.26371E-02-2.26835E-05
 -1      5609 1.48733E-01-7.26365E-02-2.70435E-13
 -1      5610 1.48733E-01-7.26371E-02 2.26835E-05
 -1      5611 1.48732E-01-7.26391E-02 4.53827E-05
 -1      5612 1.41683E-01-5.33142E-02-5.88088E-05
 -1      5613 1.41686E-01-5.33158E-02-2.94015E-05
 -1      5614 1.41687E-01-5.33163E-02-2.99272E-13
 -1      5615 1.41686E-01-5.33158E-02 2.94015E-05
 -1      5616 1.41683E-01-5.33142E-02 5.88088E-05
 -1      5617 1.31938E-01-3.52854E-02-7.48047E-05
 -1      5618 1.31944E-01-3.52905E-02-3.74023E-05
 -1      5619 1.31946E-01-3.52922E-02-3.22849E-13
 -1      5620 1.31944E-01-3.52905E-02 3.74023E-05
 -1      5621 1.31938E-01-3.52854E-02 7.48047E-05
 -1      5622 1.19946E-01-1.92453E-02-9.26547E-05
 -1      5623 1.19955E-01-1.92529E-02-4.63268E-05
 -1      5624 1.19958E-01-1.92554E-02-3.38938E-13
 -1      5625 1.19955E-01-1.92529E-02 4.63268E-05
 -1      5626 1.19946E-01-1.92453E-02 9.26547E-05
 -1      5627 1.06295E-01-5.69000E-03-1.10605E-04
 -1      5628 1.06308E-01-5.69892E-03-5.52998E-05
 -1      5629 1.06312E-01-5.70189E-03-3.46407E-13
 -1      5630 1.06308E-01-5.69892E-03 5.52998E-05
 -1      5631 1.06295E-01-5.69000E-03 1.10605E-04
 -1      5632 9.16338E-02 5.09875E-03-1.27121E-04
 -1      5633 9.16493E-02 5.08961E-03-6.35541E-05
 -1      5634 9.16544E-02 5.08657E-03-3.45452E-13
 -1      5635 9.16493E-02 5.08961E-03 6.35541E-05
 -1      5636 9.16338E-02 5.09875E-03 1.27121E-04
 -1      5637 7.66104E-02 1.30351E-02-1.41214E-04
 -1      5638 7.66286E-02 1.30267E-02-7.05970E-05
 -1      5639 7.66346E-02 1.30239E-02-3.36864E-13
 -1      5640 7.66286E-02 1.30267E-02 7.05970E-05
 -1      5641 7.66104E-02 1.30351E-02 1.41214E-04
 -1      5642 6.18372E-02 1.82009E-02-1.52381E-04
 -1      5643 6.18575E-02 1.81940E-02-7.61759E-05
 -1      5644 6.18642E-02 1.81916E-02-3.21470E-13
 -1      5645 6.18575E-02 1.81940E-02 7.61759E-05
 -1      5646 6.18372E-02 1.82009E-02 1.52381E-04
 -1      5647 4.78601E-02 2.08167E-02-1.60424E-04
 -1      5648 4.78820E-02 2.08118E-02-8.01925E-05
 -1      5649 4.78893E-02 2.08101E-02-3.01020E-13
 -1      5650 4.78820E-02 2.08118E-02 8.01925E-05
 -1      5651 4.78601E-02 2.08167E-02 1.60424E-04
 -1      5652 3.51368E-02 2.12142E-02-1.65314E-04
 -1      5653 3.51597E-02 2.12117E-02-8.26299E-05
 -1      5654 3.51673E-02 2.12108E-02-2.76058E-13
 -1      5655 3.51597E-02 2.12117E-02 8.26299E-05
 -1      5656 3.51368E-02 2.12142E-02 1.65314E-04
 -1      5657 2.40188E-02 1.98076E-02-1.67094E-04
 -1      5658 2.40420E-02 1.98077E-02-8.35094E-05
 -1      5659 2.40497E-02 1.98077E-02-2.47839E-13
 -1      5660 2.40420E-02 1.98077E-02 8.35094E-05
 -1      5661 2.40188E-02 1.98076E-02 1.67094E-04
 -1      5662 1.47388E-02 1.70634E-02-1.65846E-04
 -1      5663 1.47617E-02 1.70660E-02-8.28693E-05
 -1      5664 1.47692E-02 1.70669E-02-2.17206E-13
 -1      5665 1.47617E-02 1.70660E-02 8.28693E-05
 -1      5666 1.47388E-02 1.70634E-02 1.65846E-04
 -1      5667 7.40525E-03 1.34685E-02-1.61675E-04
 -1      5668 7.42708E-03 1.34736E-02-8.07597E-05
 -1      5669 7.43431E-03 1.34753E-02-1.85159E-13
 -1      5670 7.42708E-03 1.34736E-02 8.07597E-05
 -1      5671 7.40525E-03 1.34685E-02 1.61675E-04
 -1      5672 2.00389E-03 9.49903E-03-1.54712E-04
 -1      5673 2.02411E-03 9.50612E-03-7.72422E-05
 -1      5674 2.03079E-03 9.50850E-03-1.52848E-13
 -1      5675 2.02411E-03 9.50612E-03 7.72422E-05
 -1      5676 2.00389E-03 9.49903E-03 1.54712E-04
 -1      5677-1.59255E-03 5.58962E-03-1.45116E-04
 -1      5678-1.57439E-03 5.59830E-03-7.23912E-05
 -1      5679-1.56844E-03 5.60120E-03-1.21530E-13
 -1      5680-1.57439E-03 5.59830E-03 7.23912E-05
 -1      5681-1.59255E-03 5.58962E-03 1.45116E-04
 -1      5682-3.60737E-03 2.10744E-03-1.33078E-04
 -1      5683-3.59160E-03 2.11713E-03-6.62943E-05
 -1      5684-3.58649E-03 2.12037E-03-9.23156E-14
 -1      5685-3.59160E-03 2.11713E-03 6.62943E-05
 -1      5686-3.60737E-03 2.10744E-03 1.33078E-04
 -1      5687-4.33664E-03-6.68658E-04-1.18810E-04
 -1      5688-4.32341E-03-6.58610E-04-5.90498E-05
 -1      5689-4.31921E-03-6.55271E-04-6.61419E-14
 -1      5690-4.32341E-03-6.58610E-04 5.90498E-05
 -1      5691-4.33664E-03-6.68658E-04 1.18810E-04
 -1      5692-4.12111E-03-2.56161E-03-1.02529E-04
 -1      5693-4.11036E-03-2.55187E-03-5.07629E-05
 -1      5694-4.10707E-03-2.54867E-03-4.38225E-14
 -1      5695-4.11036E-03-2.55187E-03 5.07629E-05
 -1      5696-4.12111E-03-2.56161E-03 1.02529E-04
 -1      5697-3.31544E-03-3.50123E-03-8.44959E-05
 -1      5698-3.30691E-03-3.49248E-03-4.15804E-05
 -1      5699-3.30447E-03-3.48963E-03-2.59220E-14
 -1      5700-3.30691E-03-3.49248E-03 4.15804E-05
 -1      5701-3.31544E-03-3.50123E-03 8.44959E-05
 -1      5702-2.25688E-03-3.52135E-03-6.50932E-05
 -1      5703-2.25011E-03-3.51431E-03-3.17892E-05
 -1      5704-2.24835E-03-3.51207E-03-1.28113E-14
 -1      5705-2.25011E-03-3.51431E-03 3.17892E-05
 -1      5706-2.25688E-03-3.52135E-03 6.50932E-05
 -1      5707-1.23421E-03-2.75480E-03-4.57704E-05
 -1      5708-1.22868E-03-2.75036E-03-2.24466E-05
 -1      5709-1.22724E-03-2.74897E-03-4.51121E-15
 -1      5710-1.22868E-03-2.75036E-03 2.24466E-05
 -1      5711-1.23421E-03-2.75480E-03 4.57704E-05
 -1      5712-4.51892E-04-1.43989E-03-2.84254E-05
 -1      5713-4.49202E-04-1.43961E-03-1.50516E-05
 -1      5714-4.48174E-04-1.43957E-03-6.20776E-16
 -1      5715-4.49202E-04-1.43961E-03 1.50516E-05
 -1      5716-4.51892E-04-1.43989E-03 2.84254E-05
 -1      5717 1.59288E-01-9.15990E-02-2.29119E-05
 -1      5718 1.59290E-01-9.15954E-02-1.14664E-05
 -1      5719 1.59291E-01-9.15941E-02-2.45650E-13
 -1      5720 1.59290E-01-9.15954E-02 1.14664E-05
 -1      5721 1.59288E-01-9.15990E-02 2.29119E-05
 -1      5722 1.54974E-01-7.09840E-02-4.16792E-05
 -1      5723 1.54976E-01-7.09818E-02-2.08280E-05
 -1      5724 1.54977E-01-7.09810E-02-2.81057E-13
 -1      5725 1.54976E-01-7.09818E-02 2.08280E-05
 -1      5726 1.54974E-01-7.09840E-02 4.16792E-05
 -1      5727 1.47632E-01-5.09398E-02-6.47076E-05
 -1      5728 1.47636E-01-5.09407E-02-3.23495E-05
 -1      5729 1.47637E-01-5.09410E-02-3.11860E-13
 -1      5730 1.47636E-01-5.09407E-02 3.23495E-05
 -1      5731 1.47632E-01-5.09398E-02 6.47076E-05
 -1      5732 1.37462E-01-3.22664E-02-9.15800E-05
 -1      5733 1.37469E-01-3.22705E-02-4.57906E-05
 -1      5734 1.37471E-01-3.22719E-02-3.36951E-13
 -1      5735 1.37469E-01-3.22705E-02 4.57906E-05
 -1      5736 1.37462E-01-3.22664E-02 9.15800E-05
 -1      5737 1.24918E-01-1.56868E-02-1.19419E-04
 -1      5738 1.24927E-01-1.56934E-02-5.97094E-05
 -1      5739 1.24931E-01-1.56956E-02-3.54133E-13
 -1      5740 1.24927E-01-1.56934E-02 5.97094E-05
 -1      5741 1.24918E-01-1.56868E-02 1.19419E-04
 -1      5742 1.10612E-01-1.72592E-03-1.45631E-04
 -1      5743 1.10625E-01-1.73386E-03-7.28120E-05
 -1      5744 1.10629E-01-1.73650E-03-3.62240E-13
 -1      5745 1.10625E-01-1.73386E-03 7.28120E-05
 -1      5746 1.10612E-01-1.72592E-03 1.45631E-04
 -1      5747 9.52315E-02 9.31705E-03-1.68602E-04
 -1      5748 9.52469E-02 9.30880E-03-8.42925E-05
 -1      5749 9.52520E-02 9.30606E-03-3.60814E-13
 -1      5750 9.52469E-02 9.30880E-03 8.42925E-05
 -1      5751 9.52315E-02 9.31705E-03 1.68602E-04
 -1      5752 7.94666E-02 1.73516E-02-1.87559E-04
 -1      5753 7.94844E-02 1.73439E-02-9.37655E-05
 -1      5754 7.94904E-02 1.73414E-02-3.51361E-13
 -1      5755 7.94844E-02 1.73439E-02 9.37655E-05
 -1      5756 7.94666E-02 1.73516E-02 1.87559E-04
 -1      5757 6.39690E-02 2.24660E-02-2.02250E-04
 -1      5758 6.39888E-02 2.24597E-02-1.01105E-04
 -1      5759 6.39954E-02 2.24576E-02-3.35000E-13
 -1      5760 6.39888E-02 2.24597E-02 1.01105E-04
 -1      5761 6.39690E-02 2.24660E-02 2.02250E-04
 -1      5762 4.93185E-02 2.48963E-02-2.12671E-04
 -1      5763 4.93398E-02 2.48918E-02-1.06309E-04
 -1      5764 4.93468E-02 2.48903E-02-3.13355E-13
 -1      5765 4.93398E-02 2.48918E-02 1.06309E-04
 -1      5766 4.93185E-02 2.48963E-02 2.12671E-04
 -1      5767 3.59999E-02 2.49958E-02-2.18911E-04
 -1      5768 3.60220E-02 2.49935E-02-1.09422E-04
 -1      5769 3.60294E-02 2.49927E-02-2.87069E-13
 -1      5770 3.60220E-02 2.49935E-02 1.09422E-04
 -1      5771 3.59999E-02 2.49958E-02 2.18911E-04
 -1      5772 2.43838E-02 2.32046E-02-2.21080E-04
 -1      5773 2.44062E-02 2.32047E-02-1.10496E-04
 -1      5774 2.44137E-02 2.32047E-02-2.57396E-13
 -1      5775 2.44062E-02 2.32047E-02 1.10496E-04
 -1      5776 2.43838E-02 2.32046E-02 2.21080E-04
 -1      5777 1.47147E-02 2.00176E-02-2.19294E-04
 -1      5778 1.47368E-02 2.00200E-02-1.09589E-04
 -1      5779 1.47441E-02 2.00208E-02-2.25070E-13
 -1      5780 1.47368E-02 2.00200E-02 1.09589E-04
 -1      5781 1.47147E-02 2.00176E-02 2.19294E-04
 -1      5782 7.10478E-03 1.59508E-02-2.13682E-04
 -1      5783 7.12591E-03 1.59554E-02-1.06762E-04
 -1      5784 7.13291E-03 1.59570E-02-1.91347E-13
 -1      5785 7.12591E-03 1.59554E-02 1.06762E-04
 -1      5786 7.10478E-03 1.59508E-02 2.13682E-04
 -1      5787 1.53630E-03 1.15079E-02-2.04402E-04
 -1      5788 1.55595E-03 1.15144E-02-1.02092E-04
 -1      5789 1.56245E-03 1.15166E-02-1.57376E-13
 -1      5790 1.55595E-03 1.15144E-02 1.02092E-04
 -1      5791 1.53630E-03 1.15079E-02 2.04402E-04
 -1      5792-2.12816E-03 7.14842E-03-1.91652E-04
 -1      5793-2.11041E-03 7.15640E-03-9.56734E-05
 -1      5794-2.10458E-03 7.15907E-03-1.24506E-13
 -1      5795-2.11041E-03 7.15640E-03 9.56734E-05
 -1      5796-2.12816E-03 7.14842E-03 1.91652E-04
 -1      5797-4.12760E-03 3.26017E-03-1.75676E-04
 -1      5798-4.11205E-03 3.26907E-03-8.76232E-05
 -1      5799-4.10699E-03 3.27205E-03-9.39033E-14
 -1      5800-4.11205E-03 3.26907E-03 8.76232E-05
 -1      5801-4.12760E-03 3.26017E-03 1.75676E-04
 -1      5802-4.77789E-03 1.37010E-04-1.56751E-04
 -1      5803-4.76468E-03 1.46231E-04-7.80766E-05
 -1      5804-4.76045E-03 1.49303E-04-6.65782E-14
 -1      5805-4.76468E-03 1.46231E-04 7.80766E-05
 -1      5806-4.77789E-03 1.37010E-04 1.56751E-04
 -1      5807-4.44223E-03-2.03492E-03-1.35160E-04
 -1      5808-4.43131E-03-2.02601E-03-6.71744E-05
 -1      5809-4.42791E-03-2.02305E-03-4.34154E-14
 -1      5810-4.43131E-03-2.02601E-03 6.71744E-05
 -1      5811-4.44223E-03-2.03492E-03 1.35160E-04
 -1      5812-3.49938E-03-3.18233E-03-1.11177E-04
 -1      5813-3.49050E-03-3.17436E-03-5.50750E-05
 -1      5814-3.48784E-03-3.17173E-03-2.50153E-14
 -1      5815-3.49050E-03-3.17436E-03 5.50750E-05
 -1      5816-3.49938E-03-3.18233E-03 1.11177E-04
 -1      5817-2.31228E-03-3.34131E-03-8.49469E-05
 -1      5818-2.30499E-03-3.33498E-03-4.19362E-05
 -1      5819-2.30291E-03-3.33291E-03-1.17479E-14
 -1      5820-2.30499E-03-3.33498E-03 4.19362E-05
 -1      5821-2.31228E-03-3.34131E-03 8.49469E-05
 -1      5822-1.19979E-03-2.65198E-03-5.70885E-05
 -1      5823-1.19368E-03-2.64823E-03-2.82941E-05
 -1      5824-1.19190E-03-2.64700E-03-3.62813E-15
 -1      5825-1.19368E-03-2.64823E-03 2.82941E-05
 -1      5826-1.19979E-03-2.65198E-03 5.70885E-05
 -1      5827-4.01794E-04-1.36788E-03-2.73466E-05
 -1      5828-3.97959E-04-1.36908E-03-1.43188E-05
 -1      5829-3.96590E-04-1.36947E-03-1.85698E-16
 -1      5830-3.97959E-04-1.36908E-03 1.43188E-05
 -1      5831-4.01794E-04-1.36788E-03 2.73466E-05
 -1      5832 1.65759E-01-9.07356E-02-1.53200E-05
 -1      5833 1.65761E-01-9.07320E-02-7.65628E-06
 -1      5834 1.65762E-01-9.07309E-02-2.54653E-13
 -1      5835 1.65761E-01-9.07320E-02 7.65628E-06
 -1      5836 1.65759E-01-9.07356E-02 1.53200E-05
 -1      5837 1.61284E-01-6.93210E-02-3.76036E-05
 -1      5838 1.61287E-01-6.93184E-02-1.87810E-05
 -1      5839 1.61288E-01-6.93176E-02-2.92180E-13
 -1      5840 1.61287E-01-6.93184E-02 1.87810E-05
 -1      5841 1.61284E-01-6.93210E-02 3.76036E-05
 -1      5842 1.53657E-01-4.85334E-02-6.99543E-05
 -1      5843 1.53662E-01-4.85337E-02-3.49660E-05
 -1      5844 1.53663E-01-4.85337E-02-3.24940E-13
 -1      5845 1.53662E-01-4.85337E-02 3.49660E-05
 -1      5846 1.53657E-01-4.85334E-02 6.99543E-05
 -1      5847 1.43058E-01-2.91981E-02-1.07576E-04
 -1      5848 1.43065E-01-2.92014E-02-5.37844E-05
 -1      5849 1.43068E-01-2.92025E-02-3.51485E-13
 -1      5850 1.43065E-01-2.92014E-02 5.37844E-05
 -1      5851 1.43058E-01-2.91981E-02 1.07576E-04
 -1      5852 1.29948E-01-1.20710E-02-1.45255E-04
 -1      5853 1.29959E-01-1.20767E-02-7.26253E-05
 -1      5854 1.29962E-01-1.20786E-02-3.69493E-13
 -1      5855 1.29959E-01-1.20767E-02 7.26253E-05
 -1      5856 1.29948E-01-1.20710E-02 1.45255E-04
 -1      5857 1.14973E-01 2.29604E-03-1.79543E-04
 -1      5858 1.14986E-01 2.28893E-03-8.97670E-05
 -1      5859 1.14990E-01 2.28656E-03-3.78189E-13
 -1      5860 1.14986E-01 2.28893E-03 8.97670E-05
 -1      5861 1.14973E-01 2.29604E-03 1.79543E-04
 -1      5862 9.88583E-02 1.35887E-02-2.08771E-04
 -1      5863 9.88737E-02 1.35812E-02-1.04377E-04
 -1      5864 9.88788E-02 1.35787E-02-3.76632E-13
 -1      5865 9.88737E-02 1.35812E-02 1.04377E-04
 -1      5866 9.88583E-02 1.35887E-02 2.08771E-04
 -1      5867 8.23392E-02 2.17136E-02-2.32406E-04
 -1      5868 8.23567E-02 2.17066E-02-1.16191E-04
 -1      5869 8.23626E-02 2.17043E-02-3.66258E-13
 -1      5870 8.23567E-02 2.17066E-02 1.16191E-04
 -1      5871 8.23392E-02 2.17136E-02 2.32406E-04
 -1      5872 6.61069E-02 2.67669E-02-2.50466E-04
 -1      5873 6.61262E-02 2.67610E-02-1.25218E-04
 -1      5874 6.61326E-02 2.67591E-02-3.48796E-13
 -1      5875 6.61262E-02 2.67610E-02 1.25218E-04
 -1      5876 6.61069E-02 2.67669E-02 2.50466E-04
 -1      5877 5.07755E-02 2.90005E-02-2.63150E-04
 -1      5878 5.07962E-02 2.89963E-02-1.31558E-04
 -1      5879 5.08031E-02 2.89949E-02-3.25715E-13
 -1      5880 5.07962E-02 2.89963E-02 1.31558E-04
 -1      5881 5.07755E-02 2.90005E-02 2.63150E-04
 -1      5882 3.68569E-02 2.87899E-02-2.70667E-04
 -1      5883 3.68784E-02 2.87878E-02-1.35314E-04
 -1      5884 3.68855E-02 2.87870E-02-2.98137E-13
 -1      5885 3.68784E-02 2.87878E-02 1.35314E-04
 -1      5886 3.68569E-02 2.87899E-02 2.70667E-04
 -1      5887 2.47413E-02 2.66019E-02-2.73191E-04
 -1      5888 2.47630E-02 2.66019E-02-1.36573E-04
 -1      5889 2.47703E-02 2.66019E-02-2.66938E-13
 -1      5890 2.47630E-02 2.66019E-02 1.36573E-04
 -1      5891 2.47413E-02 2.66019E-02 2.73191E-04
 -1      5892 1.46847E-02 2.29602E-02-2.70867E-04
 -1      5893 1.47061E-02 2.29624E-02-1.35407E-04
 -1      5894 1.47132E-02 2.29631E-02-2.32871E-13
 -1      5895 1.47061E-02 2.29624E-02 1.35407E-04
 -1      5896 1.46847E-02 2.29602E-02 2.70867E-04
 -1      5897 6.80298E-03 1.84104E-02-2.63846E-04
 -1      5898 6.82351E-03 1.84146E-02-1.31891E-04
 -1      5899 6.83035E-03 1.84161E-02-1.97425E-13
 -1      5900 6.82351E-03 1.84146E-02 1.31891E-04
 -1      5901 6.80298E-03 1.84104E-02 2.63846E-04
 -1      5902 1.07462E-03 1.34847E-02-2.52309E-04
 -1      5903 1.09377E-03 1.34907E-02-1.26113E-04
 -1      5904 1.10015E-03 1.34927E-02-1.61802E-13
 -1      5905 1.09377E-03 1.34907E-02 1.26113E-04
 -1      5906 1.07462E-03 1.34847E-02 2.52309E-04
 -1      5907-2.64848E-03 8.66820E-03-2.36490E-04
 -1      5908-2.63109E-03 8.67557E-03-1.18191E-04
 -1      5909-2.62532E-03 8.67804E-03-1.27333E-13
 -1      5910-2.63109E-03 8.67557E-03 1.18191E-04
 -1      5911-2.64848E-03 8.66820E-03 2.36490E-04
 -1      5912-4.62163E-03 4.36958E-03-2.16683E-04
 -1      5913-4.60630E-03 4.37781E-03-1.08268E-04
 -1      5914-4.60123E-03 4.38055E-03-9.53522E-14
 -1      5915-4.60630E-03 4.37781E-03 1.08268E-04
 -1      5916-4.62163E-03 4.36958E-03 2.16683E-04
 -1      5917-5.18128E-03 8.98069E-04-1.93237E-04
 -1      5918-5.16814E-03 9.06608E-04-9.65196E-05
 -1      5919-5.16381E-03 9.09447E-04-6.68878E-14
 -1      5920-5.16814E-03 9.06608E-04 9.65196E-05
 -1      5921-5.18128E-03 8.98069E-04 1.93237E-04
 -1      5922-4.71389E-03-1.55117E-03-1.66498E-04
 -1      5923-4.70291E-03-1.54290E-03-8.31236E-05
 -1      5924-4.69931E-03-1.54016E-03-4.28736E-14
 -1      5925-4.70291E-03-1.54290E-03 8.31236E-05
 -1      5926-4.71389E-03-1.55117E-03 1.66498E-04
 -1      5927-3.62311E-03-2.90226E-03-1.36744E-04
 -1      5928-3.61408E-03-2.89483E-03-6.82337E-05
 -1      5929-3.61114E-03-2.89237E-03-2.39699E-14
 -1      5930-3.61408E-03-2.89483E-03 6.82337E-05
 -1      5931-3.62311E-03-2.90226E-03 1.36744E-04
 -1      5932-2.29834E-03-3.19480E-03-1.03798E-04
 -1      5933-2.29094E-03-3.18886E-03-5.18027E-05
 -1      5934-2.28854E-03-3.18689E-03-1.05468E-14
 -1      5935-2.29094E-03-3.18886E-03 5.18027E-05
 -1      5936-2.29834E-03-3.19480E-03 1.03798E-04
 -1      5937-1.09103E-03-2.57850E-03-6.71040E-05
 -1      5938-1.08496E-03-2.57510E-03-3.35863E-05
 -1      5939-1.08297E-03-2.57395E-03-2.61697E-15
 -1      5940-1.08496E-03-2.57510E-03 3.35863E-05
 -1      5941-1.09103E-03-2.57850E-03 6.71040E-05
 -1      5942-2.85400E-04-1.32437E-03-2.48243E-05
 -1      5943-2.79992E-04-1.32662E-03-1.27159E-05
 -1      5944-2.78224E-04-1.32744E-03 3.37998E-16
 -1      5945-2.79992E-04-1.32662E-03 1.27159E-05
 -1      5946-2.85400E-04-1.32437E-03 2.48243E-05
 -1      5947 1.72273E-01-8.98783E-02-7.55177E-06
 -1      5948 1.72275E-01-8.98747E-02-3.73812E-06
 -1      5949 1.72276E-01-8.98736E-02-2.64284E-13
 -1      5950 1.72275E-01-8.98747E-02 3.73811E-06
 -1      5951 1.72273E-01-8.98783E-02 7.55177E-06
 -1      5952 1.67666E-01-6.76435E-02-3.27970E-05
 -1      5953 1.67670E-01-6.76404E-02-1.63671E-05
 -1      5954 1.67671E-01-6.76395E-02-3.03690E-13
 -1      5955 1.67670E-01-6.76404E-02 1.63671E-05
 -1      5956 1.67666E-01-6.76435E-02 3.27970E-05
 -1      5957 1.59767E-01-4.60882E-02-7.45115E-05
 -1      5958 1.59772E-01-4.60878E-02-3.72485E-05
 -1      5959 1.59774E-01-4.60877E-02-3.37809E-13
 -1      5960 1.59772E-01-4.60878E-02 3.72485E-05
 -1      5961 1.59767E-01-4.60882E-02 7.45115E-05
 -1      5962 1.48734E-01-2.60731E-02-1.22928E-04
 -1      5963 1.48742E-01-2.60758E-02-6.14683E-05
 -1      5964 1.48745E-01-2.60767E-02-3.65745E-13
 -1      5965 1.48742E-01-2.60758E-02 6.14683E-05
 -1      5966 1.48734E-01-2.60731E-02 1.22928E-04
 -1      5967 1.35045E-01-8.39010E-03-1.70376E-04
 -1      5968 1.35055E-01-8.39520E-03-8.51920E-05
 -1      5969 1.35059E-01-8.39690E-03-3.84747E-13
 -1      5970 1.35055E-01-8.39520E-03 8.51920E-05
 -1      5971 1.35045E-01-8.39010E-03 1.70376E-04
 -1      5972 1.19381E-01 6.38368E-03-2.12589E-04
 -1      5973 1.19394E-01 6.37714E-03-1.06290E-04
 -1      5974 1.19398E-01 6.37497E-03-3.94033E-13
 -1      5975 1.19394E-01 6.37714E-03 1.06290E-04
 -1      5976 1.19381E-01 6.38368E-03 2.12589E-04
 -1      5977 1.02514E-01 1.79209E-02-2.47894E-04
 -1      5978 1.02530E-01 1.79140E-02-1.23932E-04
 -1      5979 1.02535E-01 1.79116E-02-3.92125E-13
 -1      5980 1.02530E-01 1.79140E-02 1.23932E-04
 -1      5981 1.02514E-01 1.79209E-02 2.47894E-04
 -1      5982 8.52252E-02 2.61275E-02-2.76041E-04
 -1      5983 8.52426E-02 2.61209E-02-1.37995E-04
 -1      5984 8.52484E-02 2.61187E-02-3.81191E-13
 -1      5985 8.52426E-02 2.61209E-02 1.37995E-04
 -1      5986 8.52252E-02 2.61275E-02 2.76041E-04
 -1      5987 6.82457E-02 3.11084E-02-2.97336E-04
 -1      5988 6.82648E-02 3.11029E-02-1.48635E-04
 -1      5989 6.82711E-02 3.11011E-02-3.62635E-13
 -1      5990 6.82648E-02 3.11029E-02 1.48635E-04
 -1      5991 6.82457E-02 3.11084E-02 2.97336E-04
 -1      5992 5.22245E-02 3.31326E-02-3.12187E-04
 -1      5993 5.22448E-02 3.31286E-02-1.56055E-04
 -1      5994 5.22515E-02 3.31273E-02-3.38091E-13
 -1      5995 5.22448E-02 3.31286E-02 1.56055E-04
 -1      5996 5.22245E-02 3.31326E-02 3.12187E-04
 -1      5997 3.77004E-02 3.25982E-02-3.20924E-04
 -1      5998 3.77215E-02 3.25962E-02-1.60422E-04
 -1      5999 3.77285E-02 3.25955E-02-3.09213E-13
 -1      6000 3.77215E-02 3.25962E-02 1.60422E-04
 -1      6001 3.77004E-02 3.25982E-02 3.20924E-04
 -1      6002 2.50835E-02 2.99993E-02-3.23779E-04
 -1      6003 2.51048E-02 2.99993E-02-1.61852E-04
 -1      6004 2.51119E-02 2.99993E-02-2.76336E-13
 -1      6005 2.51048E-02 2.99993E-02 1.61852E-04
 -1      6006 2.50835E-02 2.99993E-02 3.23779E-04
 -1      6007 1.46412E-02 2.58891E-02-3.20927E-04
 -1      6008 1.46622E-02 2.58912E-02-1.60433E-04
 -1      6009 1.46692E-02 2.58918E-02-2.40594E-13
 -1      6010 1.46622E-02 2.58912E-02 1.60433E-04
 -1      6011 1.46412E-02 2.58891E-02 3.20927E-04
 -1      6012 6.49297E-03 2.08437E-02-3.12536E-04
 -1      6013 6.51309E-03 2.08477E-02-1.56249E-04
 -1      6014 6.51983E-03 2.08490E-02-2.03468E-13
 -1      6015 6.51309E-03 2.08477E-02 1.56249E-04
 -1      6016 6.49297E-03 2.08437E-02 3.12536E-04
 -1      6017 6.12972E-04 1.54245E-02-2.98806E-04
 -1      6018 6.31781E-04 1.54302E-02-1.49404E-04
 -1      6019 6.38108E-04 1.54320E-02-1.66138E-13
 -1      6020 6.31781E-04 1.54302E-02 1.49404E-04
 -1      6021 6.12972E-04 1.54245E-02 2.98806E-04
 -1      6022-3.15807E-03 1.01427E-02-2.80003E-04
 -1      6023-3.14097E-03 1.01496E-02-1.40035E-04
 -1      6024-3.13517E-03 1.01519E-02-1.30064E-13
 -1      6025-3.14097E-03 1.01496E-02 1.40035E-04
 -1      6026-3.15807E-03 1.01427E-02 2.80003E-04
 -1      6027-5.09258E-03 5.42841E-03-2.56464E-04
 -1      6028-5.07745E-03 5.43613E-03-1.28315E-04
 -1      6029-5.07226E-03 5.43873E-03-9.66697E-14
 -1      6030-5.07745E-03 5.43613E-03 1.28315E-04
 -1      6031-5.09258E-03 5.42841E-03 2.56464E-04
 -1      6032-5.54837E-03 1.60649E-03-2.28586E-04
 -1      6033-5.53538E-03 1.61445E-03-1.14453E-04
 -1      6034-5.53084E-03 1.61717E-03-6.70384E-14
 -1      6035-5.53538E-03 1.61445E-03 1.14453E-04
 -1      6036-5.54837E-03 1.60649E-03 2.28586E-04
 -1      6037-4.93593E-03-1.11921E-03-1.96753E-04
 -1      6038-4.92511E-03-1.11159E-03-9.86452E-05
 -1      6039-4.92120E-03-1.10890E-03-4.21724E-14
 -1      6040-4.92511E-03-1.11159E-03 9.86452E-05
 -1      6041-4.93593E-03-1.11921E-03 1.96753E-04
 -1      6042-3.68416E-03-2.67103E-03-1.61155E-04
 -1      6043-3.67542E-03-2.66436E-03-8.09808E-05
 -1      6044-3.67212E-03-2.66188E-03-2.27473E-14
 -1      6045-3.67542E-03-2.66436E-03 8.09808E-05
 -1      6046-3.68416E-03-2.67103E-03 1.61155E-04
 -1      6047-2.20823E-03-3.09370E-03-1.21301E-04
 -1      6048-2.20144E-03-3.08878E-03-6.11287E-05
 -1      6049-2.19876E-03-3.08677E-03-9.17588E-15
 -1      6050-2.20144E-03-3.08878E-03 6.11287E-05
 -1      6051-2.20823E-03-3.09370E-03 1.21301E-04
 -1      6052-8.90923E-04-2.54840E-03-7.57336E-05
 -1      6053-8.85515E-04-2.54659E-03-3.81185E-05
 -1      6054-8.83492E-04-2.54558E-03-1.45893E-15
 -1      6055-8.85515E-04-2.54659E-03 3.81185E-05
 -1      6056-8.90923E-04-2.54840E-03 7.57336E-05
 -1      6057-6.26309E-05-1.32407E-03-2.44351E-05
 -1      6058-5.51022E-05-1.32806E-03-1.18181E-05
 -1      6059-5.28133E-05-1.32934E-03 9.61267E-16
 -1      6060-5.51022E-05-1.32806E-03 1.18181E-05
 -1      6061-6.26309E-05-1.32407E-03 2.44351E-05
 -1      6062 6.65761E-02-1.09537E-01-1.57568E-04
 -1      6063 6.77026E-02-1.23165E-01-1.10592E-03
 -1      6064 5.81837E-02-1.12323E-01 5.51009E-04
 -1      6065 6.59647E-02-1.10263E-01-1.26841E-04
 -1      6066 6.69103E-02-1.23168E-01-5.69812E-04
 -1      6067 5.76828E-02-1.12872E-01 8.96065E-05
 -1      6068 6.56556E-02-1.10251E-01-2.27917E-05
 -1      6069 6.67704E-02-1.23069E-01-1.15601E-13
 -1      6070 5.75850E-02-1.12827E-01-1.15665E-13
 -1      6071 6.56556E-02-1.10251E-01 2.27917E-05
 -1      6072 6.69103E-02-1.23168E-01 5.69812E-04
 -1      6073 5.76828E-02-1.12872E-01-8.96065E-05
 -1      6074 6.59647E-02-1.10263E-01 1.26841E-04
 -1      6075 6.77026E-02-1.23165E-01 1.10592E-03
 -1      6076 5.81837E-02-1.12323E-01-5.51009E-04
 -1      6077 6.65761E-02-1.09537E-01 1.57568E-04
 -1      6078 6.36962E-02-9.64008E-02 5.80951E-04
 -1      6079 6.46504E-02-1.03460E-01 3.97441E-04
 -1      6080 5.89372E-02-9.82312E-02 8.16952E-04
 -1      6081 6.36307E-02-9.67170E-02 4.16815E-04
 -1      6082 6.44504E-02-1.03705E-01 1.84704E-04
 -1      6083 5.88443E-02-9.84815E-02 3.98851E-04
 -1      6084 6.35229E-02-9.68029E-02 1.53644E-04
 -1      6085 6.43571E-02-1.03741E-01-1.27661E-13
 -1      6086 5.88057E-02-9.85112E-02-1.25917E-13
 -1      6087 6.35229E-02-9.68029E-02-1.53644E-04
 -1      6088 6.44504E-02-1.03705E-01-1.84704E-04
 -1      6089 5.88443E-02-9.84815E-02-3.98851E-04
 -1      6090 6.36307E-02-9.67170E-02-4.16815E-04
 -1      6091 6.46504E-02-1.03460E-01-3.97441E-04
 -1      6092 5.89372E-02-9.82312E-02-8.16952E-04
 -1      6093 6.36962E-02-9.64008E-02-5.80951E-04
 -1      6094 6.15635E-02-8.48901E-02 7.78598E-04
 -1      6095 6.25427E-02-9.07304E-02 6.19815E-04
 -1      6096 5.75738E-02-8.68058E-02 7.70106E-04
 -1      6097 6.15888E-02-8.50712E-02 4.76239E-04
 -1      6098 6.25182E-02-9.09065E-02 3.14767E-04
 -1      6099 5.75879E-02-8.69530E-02 3.96438E-04
 -1      6100 6.15774E-02-8.51393E-02 1.62471E-04
 -1      6101 6.24953E-02-9.09440E-02-1.35122E-13
 -1      6102 5.75798E-02-8.69847E-02-1.33369E-13
 -1      6103 6.15774E-02-8.51393E-02-1.62471E-04
 -1      6104 6.25182E-02-9.09065E-02-3.14767E-04
 -1      6105 5.75879E-02-8.69530E-02-3.96438E-04
 -1      6106 6.15888E-02-8.50712E-02-4.76239E-04
 -1      6107 6.25427E-02-9.07304E-02-6.19815E-04
 -1      6108 5.75738E-02-8.68058E-02-7.70106E-04
 -1      6109 6.15635E-02-8.48901E-02-7.78598E-04
 -1      6110 5.86212E-02-7.47485E-02 7.93091E-04
 -1      6111 6.00460E-02-7.98784E-02 6.39014E-04
 -1      6112 5.54225E-02-7.68840E-02 7.23218E-04
 -1      6113 5.86576E-02-7.48449E-02 4.82575E-04
 -1      6114 6.00705E-02-7.99730E-02 3.20373E-04
 -1      6115 5.54486E-02-7.69578E-02 3.68128E-04
 -1      6116 5.86683E-02-7.48887E-02 1.62022E-04
 -1      6117 6.00726E-02-7.99985E-02-1.42675E-13
 -1      6118 5.54529E-02-7.69790E-02-1.39614E-13
 -1      6119 5.86683E-02-7.48887E-02-1.62022E-04
 -1      6120 6.00705E-02-7.99730E-02-3.20373E-04
 -1      6121 5.54486E-02-7.69578E-02-3.68128E-04
 -1      6122 5.86576E-02-7.48449E-02-4.82575E-04
 -1      6123 6.00460E-02-7.98784E-02-6.39014E-04
 -1      6124 5.54225E-02-7.68840E-02-7.23218E-04
 -1      6125 5.86212E-02-7.47485E-02-7.93091E-04
 -1      6126 5.49776E-02-6.54402E-02 8.45207E-04
 -1      6127 5.67857E-02-7.01272E-02 6.58847E-04
 -1      6128 5.23028E-02-6.77946E-02 7.41461E-04
 -1      6129 5.50081E-02-6.55131E-02 5.08030E-04
 -1      6130 5.68103E-02-7.01892E-02 3.30373E-04
 -1      6131 5.23271E-02-6.78498E-02 3.73540E-04
 -1      6132 5.50216E-02-6.55479E-02 1.69423E-04
 -1      6133 5.68159E-02-7.02077E-02-1.48697E-13
 -1      6134 5.23335E-02-6.78672E-02-1.44459E-13
 -1      6135 5.50216E-02-6.55479E-02-1.69423E-04
 -1      6136 5.68103E-02-7.01892E-02-3.30373E-04
 -1      6137 5.23271E-02-6.78498E-02-3.73540E-04
 -1      6138 5.50081E-02-6.55131E-02-5.08030E-04
 -1      6139 5.67857E-02-7.01272E-02-6.58847E-04
 -1      6140 5.23028E-02-6.77946E-02-7.41461E-04
 -1      6141 5.49776E-02-6.54402E-02-8.45207E-04
 -1      6142 5.06575E-02-5.69984E-02 9.07593E-04
 -1      6143 5.28030E-02-6.12522E-02 7.03051E-04
 -1      6144 4.85099E-02-5.95130E-02 7.88313E-04
 -1      6145 5.06903E-02-5.70627E-02 5.45360E-04
 -1      6146 5.28264E-02-6.13027E-02 3.51786E-04
 -1      6147 4.85351E-02-5.95615E-02 3.95309E-04
 -1      6148 5.07062E-02-5.70938E-02 1.81832E-04
 -1      6149 5.28334E-02-6.13186E-02-1.52850E-13
 -1      6150 4.85430E-02-5.95771E-02-1.46950E-13
 -1      6151 5.07062E-02-5.70938E-02-1.81832E-04
 -1      6152 5.28264E-02-6.13027E-02-3.51786E-04
 -1      6153 4.85351E-02-5.95615E-02-3.95309E-04
 -1      6154 5.06903E-02-5.70627E-02-5.45360E-04
 -1      6155 5.28030E-02-6.12522E-02-7.03051E-04
 -1      6156 4.85099E-02-5.95130E-02-7.88313E-04
 -1      6157 5.06575E-02-5.69984E-02-9.07593E-04
 -1      6158 4.58496E-02-4.94251E-02 9.77510E-04
 -1      6159 4.82416E-02-5.32425E-02 7.56965E-04
 -1      6160 4.42109E-02-5.20181E-02 8.46079E-04
 -1      6161 4.58905E-02-4.94848E-02 5.87069E-04
 -1      6162 4.82689E-02-5.32885E-02 3.78827E-04
 -1      6163 4.42421E-02-5.20634E-02 4.23591E-04
 -1      6164 4.59106E-02-4.95137E-02 1.95741E-04
 -1      6165 4.82776E-02-5.33034E-02-1.53767E-13
 -1      6166 4.42524E-02-5.20780E-02-1.46560E-13
 -1      6167 4.59106E-02-4.95137E-02-1.95741E-04
 -1      6168 4.82689E-02-5.32885E-02-3.78827E-04
 -1      6169 4.42421E-02-5.20634E-02-4.23591E-04
 -1      6170 4.58905E-02-4.94848E-02-5.87069E-04
 -1      6171 4.82416E-02-5.32425E-02-7.56965E-04
 -1      6172 4.42109E-02-5.20181E-02-8.46079E-04
 -1      6173 4.58496E-02-4.94251E-02-9.77510E-04
 -1      6174 4.07366E-02-4.27398E-02 1.04431E-03
 -1      6175 4.32839E-02-4.61113E-02 8.12485E-04
 -1      6176 3.95932E-02-4.53182E-02 9.03631E-04
 -1      6177 4.07887E-02-4.27934E-02 6.27248E-04
 -1      6178 4.33184E-02-4.61534E-02 4.06578E-04
 -1      6179 3.96328E-02-4.53589E-02 4.52144E-04
 -1      6180 4.08141E-02-4.28194E-02 2.09179E-04
 -1      6181 4.33296E-02-4.61671E-02-1.52648E-13
 -1      6182 3.96458E-02-4.53721E-02-1.45053E-13
 -1      6183 4.08141E-02-4.28194E-02-2.09179E-04
 -1      6184 4.33184E-02-4.61534E-02-4.06578E-04
 -1      6185 3.96328E-02-4.53589E-02-4.52144E-04
 -1      6186 4.07887E-02-4.27934E-02-6.27248E-04
 -1      6187 4.32839E-02-4.61113E-02-8.12485E-04
 -1      6188 3.95932E-02-4.53182E-02-9.03631E-04
 -1      6189 4.07366E-02-4.27398E-02-1.04431E-03
 -1      6190 3.55055E-02-3.69345E-02 1.10223E-03
 -1      6191 3.81156E-02-3.98621E-02 8.63160E-04
 -1      6192 3.48251E-02-3.94044E-02 9.54135E-04
 -1      6193 3.55690E-02-3.69789E-02 6.62071E-04
 -1      6194 3.81585E-02-3.98985E-02 4.31962E-04
 -1      6195 3.48734E-02-3.94382E-02 4.77326E-04
 -1      6196 3.56000E-02-3.70003E-02 2.20813E-04
 -1      6197 3.81725E-02-3.99104E-02-1.49906E-13
 -1      6198 3.48893E-02-3.94491E-02-1.40903E-13
 -1      6199 3.56000E-02-3.70003E-02-2.20813E-04
 -1      6200 3.81585E-02-3.98985E-02-4.31962E-04
 -1      6201 3.48734E-02-3.94382E-02-4.77326E-04
 -1      6202 3.55690E-02-3.69789E-02-6.62071E-04
 -1      6203 3.81156E-02-3.98621E-02-8.63160E-04
 -1      6204 3.48251E-02-3.94044E-02-9.54135E-04
 -1      6205 3.55055E-02-3.69345E-02-1.10223E-03
 -1      6206 3.03296E-02-3.19729E-02 1.14661E-03
 -1      6207 3.29157E-02-3.44730E-02 9.04667E-04
 -1      6208 3.00617E-02-3.42484E-02 9.93131E-04
 -1      6209 3.04028E-02-3.20047E-02 6.88770E-04
 -1      6210 3.29665E-02-3.45013E-02 4.52749E-04
 -1      6211 3.01174E-02-3.42726E-02 4.96806E-04
 -1      6212 3.04383E-02-3.20200E-02 2.29732E-04
 -1      6213 3.29831E-02-3.45105E-02-1.43849E-13
 -1      6214 3.01356E-02-3.42804E-02-1.34279E-13
 -1      6215 3.04383E-02-3.20200E-02-2.29732E-04
 -1      6216 3.29665E-02-3.45013E-02-4.52749E-04
 -1      6217 3.01174E-02-3.42726E-02-4.96806E-04
 -1      6218 3.04028E-02-3.20047E-02-6.88770E-04
 -1      6219 3.29157E-02-3.44730E-02-9.04667E-04
 -1      6220 3.00617E-02-3.42484E-02-9.93131E-04
 -1      6221 3.03296E-02-3.19729E-02-1.14661E-03
 -1      6222 2.53618E-02-2.77893E-02 1.17442E-03
 -1      6223 2.78467E-02-2.98933E-02 9.33953E-04
 -1      6224 2.54389E-02-2.97991E-02 1.01772E-03
 -1      6225 2.54415E-02-2.78059E-02 7.05504E-04
 -1      6226 2.79034E-02-2.99113E-02 4.67421E-04
 -1      6227 2.54995E-02-2.98117E-02 5.09102E-04
 -1      6228 2.54801E-02-2.78138E-02 2.35321E-04
 -1      6229 2.79220E-02-2.99171E-02-1.36001E-13
 -1      6230 2.55193E-02-2.98157E-02-1.25987E-13
 -1      6231 2.54801E-02-2.78138E-02-2.35321E-04
 -1      6232 2.79034E-02-2.99113E-02-4.67421E-04
 -1      6233 2.54995E-02-2.98117E-02-5.09102E-04
 -1      6234 2.54415E-02-2.78059E-02-7.05504E-04
 -1      6235 2.78467E-02-2.98933E-02-9.33953E-04
 -1      6236 2.54389E-02-2.97991E-02-1.01772E-03
 -1      6237 2.53618E-02-2.77893E-02-1.17442E-03
 -1      6238 2.07287E-02-2.42937E-02 1.18374E-03
 -1      6239 2.30475E-02-2.60455E-02 9.49041E-04
 -1      6240 2.10704E-02-2.59857E-02 1.02617E-03
 -1      6241 2.08107E-02-2.42935E-02 7.11119E-04
 -1      6242 2.31076E-02-2.60516E-02 4.74982E-04
 -1      6243 2.11329E-02-2.59855E-02 5.13331E-04
 -1      6244 2.08504E-02-2.42933E-02 2.37199E-04
 -1      6245 2.31272E-02-2.60536E-02-1.26162E-13
 -1      6246 2.11533E-02-2.59855E-02-1.16072E-13
 -1      6247 2.08504E-02-2.42933E-02-2.37199E-04
 -1      6248 2.31076E-02-2.60516E-02-4.74982E-04
 -1      6249 2.11329E-02-2.59855E-02-5.13331E-04
 -1      6250 2.08107E-02-2.42935E-02-7.11119E-04
 -1      6251 2.30475E-02-2.60455E-02-9.49041E-04
 -1      6252 2.10704E-02-2.59857E-02-1.02617E-03
 -1      6253 2.07287E-02-2.42937E-02-1.18374E-03
 -1      6254 1.65265E-02-2.13778E-02 1.17357E-03
 -1      6255 1.86294E-02-2.28312E-02 9.48781E-04
 -1      6256 1.70455E-02-2.27224E-02 1.01762E-03
 -1      6257 1.66065E-02-2.13606E-02 7.05016E-04
 -1      6258 1.86896E-02-2.28248E-02 4.74859E-04
 -1      6259 1.71064E-02-2.27092E-02 5.09053E-04
 -1      6260 1.66452E-02-2.13523E-02 2.35166E-04
 -1      6261 1.87092E-02-2.28226E-02-1.15395E-13
 -1      6262 1.71263E-02-2.27049E-02-1.05656E-13
 -1      6263 1.66452E-02-2.13523E-02-2.35166E-04
 -1      6264 1.86896E-02-2.28248E-02-4.74859E-04
 -1      6265 1.71064E-02-2.27092E-02-5.09053E-04
 -1      6266 1.66065E-02-2.13606E-02-7.05016E-04
 -1      6267 1.86294E-02-2.28312E-02-9.48781E-04
 -1      6268 1.70455E-02-2.27224E-02-1.01762E-03
 -1      6269 1.65265E-02-2.13778E-02-1.17357E-03
 -1      6270 1.28199E-02-1.89235E-02 1.14360E-03
 -1      6271 1.46724E-02-2.01378E-02 9.32672E-04
 -1      6272 1.34274E-02-1.99137E-02 9.91815E-04
 -1      6273 1.28934E-02-1.88902E-02 6.87020E-04
 -1      6274 1.47294E-02-2.01190E-02 4.66801E-04
 -1      6275 1.34834E-02-1.98883E-02 4.96151E-04
 -1      6276 1.29290E-02-1.88742E-02 2.29165E-04
 -1      6277 1.47480E-02-2.01129E-02-1.03929E-13
 -1      6278 1.35016E-02-1.98801E-02-9.36688E-14
 -1      6279 1.29290E-02-1.88742E-02-2.29165E-04
 -1      6280 1.47294E-02-2.01190E-02-4.66801E-04
 -1      6281 1.34834E-02-1.98883E-02-4.96151E-04
 -1      6282 1.28934E-02-1.88902E-02-6.87020E-04
 -1      6283 1.46724E-02-2.01378E-02-9.32672E-04
 -1      6284 1.34274E-02-1.99137E-02-9.91815E-04
 -1      6285 1.28199E-02-1.89235E-02-1.14360E-03
 -1      6286 9.64190E-03-1.68098E-02 1.09409E-03
 -1      6287 1.12256E-02-1.78462E-02 9.00713E-04
 -1      6288 1.02541E-02-1.74611E-02 9.49025E-04
 -1      6289 9.70500E-03-1.67627E-02 6.57283E-04
 -1      6290 1.12763E-02-1.78163E-02 4.50809E-04
 -1      6291 1.03021E-02-1.74251E-02 4.74750E-04
 -1      6292 9.73557E-03-1.67400E-02 2.19247E-04
 -1      6293 1.12929E-02-1.78066E-02-9.05821E-14
 -1      6294 1.03178E-02-1.74135E-02-8.07795E-14
 -1      6295 9.73557E-03-1.67400E-02-2.19247E-04
 -1      6296 1.12763E-02-1.78163E-02-4.50809E-04
 -1      6297 1.03021E-02-1.74251E-02-4.74750E-04
 -1      6298 9.70500E-03-1.67627E-02-6.57283E-04
 -1      6299 1.12256E-02-1.78462E-02-9.00713E-04
 -1      6300 1.02541E-02-1.74611E-02-9.49025E-04
 -1      6301 9.64190E-03-1.68098E-02-1.09409E-03
 -1      6302 6.99662E-03-1.49213E-02 1.02570E-03
 -1      6303 8.30755E-03-1.58389E-02 8.53285E-04
 -1      6304 7.53972E-03-1.52687E-02 8.89853E-04
 -1      6305 7.04598E-03-1.48635E-02 6.16205E-04
 -1      6306 8.34929E-03-1.57999E-02 4.27075E-04
 -1      6307 7.57724E-03-1.52245E-02 4.45157E-04
 -1      6308 7.06990E-03-1.48355E-02 2.05545E-04
 -1      6309 8.36292E-03-1.57872E-02-7.71366E-14
 -1      6310 7.58954E-03-1.52102E-02-6.80610E-14
 -1      6311 7.06990E-03-1.48355E-02-2.05545E-04
 -1      6312 8.34929E-03-1.57999E-02-4.27075E-04
 -1      6313 7.57724E-03-1.52245E-02-4.45157E-04
 -1      6314 7.04598E-03-1.48635E-02-6.16205E-04
 -1      6315 8.30755E-03-1.58389E-02-8.53285E-04
 -1      6316 7.53972E-03-1.52687E-02-8.89853E-04
 -1      6317 6.99662E-03-1.49213E-02-1.02570E-03
 -1      6318 4.86313E-03-1.31540E-02 9.39350E-04
 -1      6319 5.91026E-03-1.40066E-02 7.91046E-04
 -1      6320 5.27814E-03-1.32482E-02 8.15131E-04
 -1      6321 4.89634E-03-1.30892E-02 5.64347E-04
 -1      6322 5.94089E-03-1.39610E-02 3.95931E-04
 -1      6323 5.30331E-03-1.31987E-02 4.07794E-04
 -1      6324 4.91244E-03-1.30579E-02 1.88248E-04
 -1      6325 5.95089E-03-1.39461E-02-6.38684E-14
 -1      6326 5.31163E-03-1.31828E-02-5.74800E-14
 -1      6327 4.91244E-03-1.30579E-02-1.88248E-04
 -1      6328 5.94089E-03-1.39610E-02-3.95931E-04
 -1      6329 5.30331E-03-1.31987E-02-4.07794E-04
 -1      6330 4.89634E-03-1.30892E-02-5.64347E-04
 -1      6331 5.91026E-03-1.40066E-02-7.91046E-04
 -1      6332 5.27814E-03-1.32482E-02-8.15131E-04
 -1      6333 4.86313E-03-1.31540E-02-9.39350E-04
 -1      6334 3.20133E-03-1.14203E-02 8.36055E-04
 -1      6335 4.00355E-03-1.22538E-02 7.14796E-04
 -1      6336 3.44728E-03-1.13237E-02 7.25721E-04
 -1      6337 3.21690E-03-1.13529E-02 5.02318E-04
 -1      6338 4.02162E-03-1.22047E-02 3.57780E-04
 -1      6339 3.45896E-03-1.12721E-02 3.63103E-04
 -1      6340 3.22445E-03-1.13204E-02 1.67558E-04
 -1      6341 4.02753E-03-1.21887E-02-5.39714E-14
 -1      6342 3.46291E-03-1.12555E-02-4.65768E-14
 -1      6343 3.22445E-03-1.13204E-02-1.67558E-04
 -1      6344 4.02162E-03-1.22047E-02-3.57780E-04
 -1      6345 3.45896E-03-1.12721E-02-3.63103E-04
 -1      6346 3.21690E-03-1.13529E-02-5.02318E-04
 -1      6347 4.00355E-03-1.22538E-02-7.14796E-04
 -1      6348 3.44728E-03-1.13237E-02-7.25721E-04
 -1      6349 3.20133E-03-1.14203E-02-8.36055E-04
 -1      6350 1.95874E-03-9.65275E-03 7.16532E-04
 -1      6351 2.54150E-03-1.05035E-02 6.25278E-04
 -1      6352 2.01511E-03-9.43341E-03 6.22148E-04
 -1      6353 1.95599E-03-9.58735E-03 4.30577E-04
 -1      6354 2.54623E-03-1.04541E-02 3.13001E-04
 -1      6355 2.01273E-03-9.38332E-03 3.11362E-04
 -1      6356 1.95462E-03-9.55585E-03 1.43624E-04
 -1      6357 2.54778E-03-1.04381E-02-4.09567E-14
 -1      6358 2.01211E-03-9.36726E-03-3.32092E-14
 -1      6359 1.95462E-03-9.55585E-03-1.43624E-04
 -1      6360 2.54623E-03-1.04541E-02-3.13001E-04
 -1      6361 2.01273E-03-9.38332E-03-3.11362E-04
 -1      6362 1.95599E-03-9.58735E-03-4.30577E-04
 -1      6363 2.54150E-03-1.05035E-02-6.25278E-04
 -1      6364 2.01511E-03-9.43341E-03-6.22148E-04
 -1      6365 1.95874E-03-9.65275E-03-7.16532E-04
 -1      6366 1.07863E-03-7.80448E-03 5.80760E-04
 -1      6367 1.46976E-03-8.69858E-03 5.22827E-04
 -1      6368 9.46781E-04-7.53264E-03 5.03770E-04
 -1      6369 1.05751E-03-7.74619E-03 3.49019E-04
 -1      6370 1.46084E-03-8.65257E-03 2.61755E-04
 -1      6371 9.30318E-04-7.48795E-03 2.52292E-04
 -1      6372 1.04723E-03-7.71830E-03 1.16397E-04
 -1      6373 1.45792E-03-8.63766E-03-2.92165E-14
 -1      6374 9.25097E-04-7.47371E-03-2.38835E-14
 -1      6375 1.04723E-03-7.71830E-03-1.16397E-04
 -1      6376 1.46084E-03-8.65257E-03-2.61755E-04
 -1      6377 9.30318E-04-7.48795E-03-2.52292E-04
 -1      6378 1.05751E-03-7.74619E-03-3.49019E-04
 -1      6379 1.46976E-03-8.69858E-03-5.22827E-04
 -1      6380 9.46781E-04-7.53264E-03-5.03770E-04
 -1      6381 1.07863E-03-7.80448E-03-5.80760E-04
 -1      6382 5.04097E-04-5.85063E-03 4.26385E-04
 -1      6383 7.32687E-04-6.80340E-03 4.06474E-04
 -1      6384 2.14835E-04-5.59103E-03 3.67104E-04
 -1      6385 4.64978E-04-5.80598E-03 2.56380E-04
 -1      6386 7.10428E-04-6.76511E-03 2.03544E-04
 -1      6387 1.84941E-04-5.55684E-03 1.84090E-04
 -1      6388 4.46345E-04-5.78502E-03 8.54146E-05
 -1      6389 7.03168E-04-6.75279E-03-1.99637E-14
 -1      6390 1.75458E-04-5.54617E-03-1.46675E-14
 -1      6391 4.46345E-04-5.78502E-03-8.54146E-05
 -1      6392 7.10428E-04-6.76511E-03-2.03544E-04
 -1      6393 1.84941E-04-5.55684E-03-1.84090E-04
 -1      6394 4.64978E-04-5.80598E-03-2.56380E-04
 -1      6395 7.32687E-04-6.80340E-03-4.06474E-04
 -1      6396 2.14835E-04-5.59103E-03-3.67104E-04
 -1      6397 5.04097E-04-5.85063E-03-4.26385E-04
 -1      6398 1.90406E-04-3.79475E-03 2.51742E-04
 -1      6399 2.80337E-04-4.80550E-03 2.74026E-04
 -1      6400-1.98750E-04-3.61239E-03 2.05578E-04
 -1      6401 1.39409E-04-3.77324E-03 1.50247E-04
 -1      6402 2.46577E-04-4.78056E-03 1.36925E-04
 -1      6403-2.36316E-04-3.59620E-03 1.03719E-04
 -1      6404 1.16653E-04-3.76332E-03 4.97329E-05
 -1      6405 2.35904E-04-4.77268E-03-1.15361E-14
 -1      6406-2.48004E-04-3.59139E-03-6.97914E-15
 -1      6407 1.16653E-04-3.76332E-03-4.97329E-05
 -1      6408 2.46577E-04-4.78056E-03-1.36925E-04
 -1      6409-2.36316E-04-3.59620E-03-1.03719E-04
 -1      6410 1.39409E-04-3.77324E-03-1.50247E-04
 -1      6411 2.80337E-04-4.80550E-03-2.74026E-04
 -1      6412-1.98750E-04-3.61239E-03-2.05578E-04
 -1      6413 1.90406E-04-3.79475E-03-2.51742E-04
 -1      6414 4.02995E-05-1.71773E-03 6.02127E-05
 -1      6415 6.55438E-05-2.72825E-03 1.22008E-04
 -1      6416-2.43984E-04-1.60673E-03 2.24041E-05
 -1      6417-2.02857E-06-1.72535E-03 3.76728E-05
 -1      6418 3.16046E-05-2.72350E-03 6.06762E-05
 -1      6419-2.66108E-04-1.61388E-03 1.34274E-05
 -1      6420-1.81942E-05-1.72680E-03 1.25930E-05
 -1      6421 2.17108E-05-2.72190E-03-6.34088E-15
 -1      6422-2.72223E-04-1.61474E-03-6.01492E-15
 -1      6423-1.81942E-05-1.72680E-03-1.25930E-05
 -1      6424 3.16046E-05-2.72350E-03-6.06762E-05
 -1      6425-2.66108E-04-1.61388E-03-1.34274E-05
 -1      6426-2.02857E-06-1.72535E-03-3.76728E-05
 -1      6427 6.55438E-05-2.72825E-03-1.22008E-04
 -1      6428-2.43984E-04-1.60673E-03-2.24041E-05
 -1      6429 4.02995E-05-1.71773E-03-6.02127E-05
 -1      6430 1.19884E-05-7.43812E-04 5.51207E-06
 -1      6431-1.44325E-06-7.43781E-04 2.30620E-06
 -1      6432-5.09976E-06-7.43089E-04-4.17971E-15
 -1      6433-1.44325E-06-7.43781E-04-2.30620E-06
 -1      6434 1.19884E-05-7.43812E-04-5.51207E-06
 -1      6435 7.65025E-02-1.09757E-01-6.24713E-04
 -1      6436 7.64934E-02-1.17900E-01-1.12622E-03
 -1      6437 7.18134E-02-1.10262E-01-4.20656E-04
 -1      6438 7.60637E-02-1.09729E-01-3.85628E-04
 -1      6439 7.61156E-02-1.17760E-01-5.64910E-04
 -1      6440 7.14162E-02-1.10213E-01-1.74971E-04
 -1      6441 7.58738E-02-1.09755E-01-1.28826E-04
 -1      6442 7.60139E-02-1.17756E-01-1.18020E-13
 -1      6443 7.12915E-02-1.10237E-01-1.27630E-13
 -1      6444 7.58738E-02-1.09755E-01 1.28826E-04
 -1      6445 7.61156E-02-1.17760E-01 5.64910E-04
 -1      6446 7.14162E-02-1.10213E-01 1.74971E-04
 -1      6447 7.60637E-02-1.09729E-01 3.85628E-04
 -1      6448 7.64934E-02-1.17900E-01 1.12622E-03
 -1      6449 7.18134E-02-1.10262E-01 4.20656E-04
 -1      6450 7.65025E-02-1.09757E-01 6.24713E-04
 -1      6451 7.31664E-02-9.44469E-02 1.72151E-04
 -1      6452 7.45129E-02-1.01458E-01-1.23002E-04
 -1      6453 6.85528E-02-9.54218E-02 3.06488E-04
 -1      6454 7.30091E-02-9.45802E-02 1.16890E-04
 -1      6455 7.42963E-02-1.01567E-01-3.88588E-05
 -1      6456 6.84242E-02-9.55536E-02 1.69603E-04
 -1      6457 7.29394E-02-9.46551E-02 3.79715E-05
 -1      6458 7.42231E-02-1.01597E-01-1.36983E-13
 -1      6459 6.83821E-02-9.56103E-02-1.36771E-13
 -1      6460 7.29394E-02-9.46551E-02-3.79715E-05
 -1      6461 7.42963E-02-1.01567E-01 3.88588E-05
 -1      6462 6.84242E-02-9.55536E-02-1.69603E-04
 -1      6463 7.30091E-02-9.45802E-02-1.16890E-04
 -1      6464 7.45129E-02-1.01458E-01 1.23002E-04
 -1      6465 6.85528E-02-9.54218E-02-3.06488E-04
 -1      6466 7.31664E-02-9.44469E-02-1.72151E-04
 -1      6467 6.93215E-02-8.18927E-02 4.78141E-04
 -1      6468 7.09749E-02-8.79554E-02 2.96874E-04
 -1      6469 6.54670E-02-8.34425E-02 4.95235E-04
 -1      6470 6.92949E-02-8.20017E-02 2.87732E-04
 -1      6471 7.09226E-02-8.80526E-02 1.54127E-04
 -1      6472 6.54563E-02-8.35307E-02 2.53078E-04
 -1      6473 6.92855E-02-8.20668E-02 9.48761E-05
 -1      6474 7.09047E-02-8.80897E-02-1.46938E-13
 -1      6475 6.54523E-02-8.35703E-02-1.45188E-13
 -1      6476 6.92855E-02-8.20668E-02-9.48761E-05
 -1      6477 7.09226E-02-8.80526E-02-1.54127E-04
 -1      6478 6.54563E-02-8.35307E-02-2.53078E-04
 -1      6479 6.92949E-02-8.20017E-02-2.87732E-04
 -1      6480 7.09749E-02-8.79554E-02-2.96874E-04
 -1      6481 6.54670E-02-8.34425E-02-4.95235E-04
 -1      6482 6.93215E-02-8.18927E-02-4.78141E-04
 -1      6483 6.51338E-02-7.09488E-02 6.03792E-04
 -1      6484 6.71158E-02-7.63683E-02 4.43382E-04
 -1      6485 6.19090E-02-7.28418E-02 5.60467E-04
 -1      6486 6.51429E-02-7.10307E-02 3.62711E-04
 -1      6487 6.71128E-02-7.64433E-02 2.24254E-04
 -1      6488 6.19213E-02-7.29079E-02 2.80134E-04
 -1      6489 6.51501E-02-7.10747E-02 1.20437E-04
 -1      6490 6.71132E-02-7.64704E-02-1.55288E-13
 -1      6491 6.19271E-02-7.29323E-02-1.52414E-13
 -1      6492 6.51501E-02-7.10747E-02-1.20437E-04
 -1      6493 6.71128E-02-7.64433E-02-2.24254E-04
 -1      6494 6.19213E-02-7.29079E-02-2.80134E-04
 -1      6495 6.51429E-02-7.10307E-02-3.62711E-04
 -1      6496 6.71158E-02-7.63683E-02-4.43382E-04
 -1      6497 6.19090E-02-7.28418E-02-5.60467E-04
 -1      6498 6.51338E-02-7.09488E-02-6.03792E-04
 -1      6499 6.03769E-02-6.11351E-02 6.89403E-04
 -1      6500 6.26959E-02-6.60408E-02 5.21908E-04
 -1      6501 5.76912E-02-6.32816E-02 6.12447E-04
 -1      6502 6.03970E-02-6.12009E-02 4.13418E-04
 -1      6503 6.27084E-02-6.60949E-02 2.61657E-04
 -1      6504 5.77099E-02-6.33326E-02 3.06143E-04
 -1      6505 6.04084E-02-6.12352E-02 1.37520E-04
 -1      6506 6.27132E-02-6.61144E-02-1.62120E-13
 -1      6507 5.77166E-02-6.33506E-02-1.58170E-13
 -1      6508 6.04084E-02-6.12352E-02-1.37520E-04
 -1      6509 6.27084E-02-6.60949E-02-2.61657E-04
 -1      6510 5.77099E-02-6.33326E-02-3.06143E-04
 -1      6511 6.03970E-02-6.12009E-02-4.13418E-04
 -1      6512 6.26959E-02-6.60408E-02-5.21908E-04
 -1      6513 5.76912E-02-6.32816E-02-6.12447E-04
 -1      6514 6.03769E-02-6.11351E-02-6.89403E-04
 -1      6515 5.50420E-02-5.23488E-02 7.61853E-04
 -1      6516 5.76724E-02-5.67485E-02 5.83744E-04
 -1      6517 5.28627E-02-5.46625E-02 6.67092E-04
 -1      6518 5.50705E-02-5.24075E-02 4.57204E-04
 -1      6519 5.76906E-02-5.67949E-02 2.92119E-04
 -1      6520 5.28854E-02-5.47085E-02 3.33383E-04
 -1      6521 5.50852E-02-5.24370E-02 1.52333E-04
 -1      6522 5.76973E-02-5.68108E-02-1.66633E-13
 -1      6523 5.28933E-02-5.47238E-02-1.61002E-13
 -1      6524 5.50852E-02-5.24370E-02-1.52333E-04
 -1      6525 5.76906E-02-5.67949E-02-2.92119E-04
 -1      6526 5.28854E-02-5.47085E-02-3.33383E-04
 -1      6527 5.50705E-02-5.24075E-02-4.57204E-04
 -1      6528 5.76724E-02-5.67485E-02-5.83744E-04
 -1      6529 5.28627E-02-5.46625E-02-6.67092E-04
 -1      6530 5.50420E-02-5.23488E-02-7.61853E-04
 -1      6531 4.92641E-02-4.46024E-02 8.28017E-04
 -1      6532 5.21235E-02-4.84834E-02 6.39265E-04
 -1      6533 4.75666E-02-4.70030E-02 7.21026E-04
 -1      6534 4.93021E-02-4.46559E-02 4.97028E-04
 -1      6535 5.21483E-02-4.85253E-02 3.19838E-04
 -1      6536 4.75961E-02-4.70451E-02 3.60629E-04
 -1      6537 4.93211E-02-4.46826E-02 1.65685E-04
 -1      6538 5.21567E-02-4.85394E-02-1.67903E-13
 -1      6539 4.76059E-02-4.70590E-02-1.60671E-13
 -1      6540 4.93211E-02-4.46826E-02-1.65685E-04
 -1      6541 5.21483E-02-4.85253E-02-3.19838E-04
 -1      6542 4.75961E-02-4.70451E-02-3.60629E-04
 -1      6543 4.93021E-02-4.46559E-02-4.97028E-04
 -1      6544 5.21235E-02-4.84834E-02-6.39265E-04
 -1      6545 4.75666E-02-4.70030E-02-7.21026E-04
 -1      6546 4.92641E-02-4.46024E-02-8.28017E-04
 -1      6547 4.32273E-02-3.79130E-02 8.86880E-04
 -1      6548 4.62186E-02-4.12641E-02 6.89698E-04
 -1      6549 4.19900E-02-4.03164E-02 7.71154E-04
 -1      6550 4.32758E-02-3.79604E-02 5.32465E-04
 -1      6551 4.62509E-02-4.13020E-02 3.45059E-04
 -1      6552 4.20274E-02-4.03539E-02 3.85806E-04
 -1      6553 4.32998E-02-3.79838E-02 1.77548E-04
 -1      6554 4.62616E-02-4.13146E-02-1.66748E-13
 -1      6555 4.20398E-02-4.03662E-02-1.58932E-13
 -1      6556 4.32998E-02-3.79838E-02-1.77548E-04
 -1      6557 4.62509E-02-4.13020E-02-3.45059E-04
 -1      6558 4.20274E-02-4.03539E-02-3.85806E-04
 -1      6559 4.32758E-02-3.79604E-02-5.32465E-04
 -1      6560 4.62186E-02-4.12641E-02-6.89698E-04
 -1      6561 4.19900E-02-4.03164E-02-7.71154E-04
 -1      6562 4.32273E-02-3.79130E-02-8.86880E-04
 -1      6563 3.71371E-02-3.22687E-02 9.36083E-04
 -1      6564 4.01557E-02-3.50957E-02 7.33402E-04
 -1      6565 3.63277E-02-3.45934E-02 8.13805E-04
 -1      6566 3.71956E-02-3.23075E-02 5.62058E-04
 -1      6567 4.01957E-02-3.51281E-02 3.66945E-04
 -1      6568 3.63730E-02-3.46242E-02 4.07224E-04
 -1      6569 3.72245E-02-3.23266E-02 1.87436E-04
 -1      6570 4.02089E-02-3.51388E-02-1.63196E-13
 -1      6571 3.63879E-02-3.46344E-02-1.53916E-13
 -1      6572 3.72245E-02-3.23266E-02-1.87436E-04
 -1      6573 4.01957E-02-3.51281E-02-3.66945E-04
 -1      6574 3.63730E-02-3.46242E-02-4.07224E-04
 -1      6575 3.71956E-02-3.23075E-02-5.62058E-04
 -1      6576 4.01557E-02-3.50957E-02-7.33402E-04
 -1      6577 3.63277E-02-3.45934E-02-8.13805E-04
 -1      6578 3.71371E-02-3.22687E-02-9.36083E-04
 -1      6579 3.11927E-02-2.76184E-02 9.73107E-04
 -1      6580 3.41383E-02-2.99469E-02 7.68304E-04
 -1      6581 3.07662E-02-2.97898E-02 8.46241E-04
 -1      6582 3.12595E-02-2.76459E-02 5.84323E-04
 -1      6583 3.41852E-02-2.99718E-02 3.84423E-04
 -1      6584 3.08182E-02-2.98118E-02 4.23493E-04
 -1      6585 3.12924E-02-2.76595E-02 1.94872E-04
 -1      6586 3.42007E-02-2.99801E-02-1.56563E-13
 -1      6587 3.08352E-02-2.98190E-02-1.46528E-13
 -1      6588 3.12924E-02-2.76595E-02-1.94872E-04
 -1      6589 3.41852E-02-2.99718E-02-3.84423E-04
 -1      6590 3.08182E-02-2.98118E-02-4.23493E-04
 -1      6591 3.12595E-02-2.76459E-02-5.84323E-04
 -1      6592 3.41383E-02-2.99469E-02-7.68304E-04
 -1      6593 3.07662E-02-2.97898E-02-8.46241E-04
 -1      6594 3.11927E-02-2.76184E-02-9.73107E-04
 -1      6595 2.55723E-02-2.38722E-02 9.95947E-04
 -1      6596 2.83556E-02-2.57471E-02 7.92553E-04
 -1      6597 2.54713E-02-2.58277E-02 8.66414E-04
 -1      6598 2.56446E-02-2.38864E-02 5.98057E-04
 -1      6599 2.84077E-02-2.57629E-02 3.96569E-04
 -1      6600 2.55277E-02-2.58391E-02 4.33611E-04
 -1      6601 2.56802E-02-2.38935E-02 1.99458E-04
 -1      6602 2.84249E-02-2.57681E-02-1.47751E-13
 -1      6603 2.55462E-02-2.58429E-02-1.37272E-13
 -1      6604 2.56802E-02-2.38935E-02-1.99458E-04
 -1      6605 2.84077E-02-2.57629E-02-3.96569E-04
 -1      6606 2.55277E-02-2.58391E-02-4.33611E-04
 -1      6607 2.56446E-02-2.38864E-02-5.98057E-04
 -1      6608 2.83556E-02-2.57471E-02-7.92553E-04
 -1      6609 2.54713E-02-2.58277E-02-8.66414E-04
 -1      6610 2.55723E-02-2.38722E-02-9.95947E-04
 -1      6611 2.04227E-02-2.09084E-02 1.00321E-03
 -1      6612 2.29703E-02-2.23908E-02 8.04779E-04
 -1      6613 2.05798E-02-2.26011E-02 8.73005E-04
 -1      6614 2.04970E-02-2.09081E-02 6.02432E-04
 -1      6615 2.30252E-02-2.23960E-02 4.02694E-04
 -1      6616 2.06378E-02-2.26009E-02 4.36921E-04
 -1      6617 2.05336E-02-2.09080E-02 2.00921E-04
 -1      6618 2.30433E-02-2.23978E-02-1.36860E-13
 -1      6619 2.06568E-02-2.26008E-02-1.25989E-13
 -1      6620 2.05336E-02-2.09080E-02-2.00921E-04
 -1      6621 2.30252E-02-2.23960E-02-4.02694E-04
 -1      6622 2.06378E-02-2.26009E-02-4.36921E-04
 -1      6623 2.04970E-02-2.09081E-02-6.02432E-04
 -1      6624 2.29703E-02-2.23908E-02-8.04779E-04
 -1      6625 2.05798E-02-2.26011E-02-8.73005E-04
 -1      6626 2.04227E-02-2.09084E-02-1.00321E-03
 -1      6627 1.58521E-02-1.85824E-02 9.94113E-04
 -1      6628 1.81097E-02-1.97445E-02 8.04109E-04
 -1      6629 1.61940E-02-1.99833E-02 8.65292E-04
 -1      6630 1.59246E-02-1.85674E-02 5.96974E-04
 -1      6631 1.81647E-02-1.97388E-02 4.02364E-04
 -1      6632 1.62505E-02-1.99714E-02 4.33067E-04
 -1      6633 1.59603E-02-1.85600E-02 1.99102E-04
 -1      6634 1.81828E-02-1.97369E-02-1.24737E-13
 -1      6635 1.62691E-02-1.99674E-02-1.14399E-13
 -1      6636 1.59603E-02-1.85600E-02-1.99102E-04
 -1      6637 1.81647E-02-1.97388E-02-4.02364E-04
 -1      6638 1.62505E-02-1.99714E-02-4.33067E-04
 -1      6639 1.59246E-02-1.85674E-02-5.96974E-04
 -1      6640 1.81097E-02-1.97445E-02-8.04109E-04
 -1      6641 1.61940E-02-1.99833E-02-8.65292E-04
 -1      6642 1.58521E-02-1.85824E-02-9.94113E-04
 -1      6643 1.19277E-02-1.67377E-02 9.68378E-04
 -1      6644 1.38615E-02-1.76578E-02 7.90129E-04
 -1      6645 1.23798E-02-1.78367E-02 8.43045E-04
 -1      6646 1.19945E-02-1.67088E-02 5.81524E-04
 -1      6647 1.39137E-02-1.76414E-02 3.95371E-04
 -1      6648 1.24318E-02-1.78137E-02 4.21937E-04
 -1      6649 1.20274E-02-1.66946E-02 1.93950E-04
 -1      6650 1.39309E-02-1.76359E-02-1.11744E-13
 -1      6651 1.24489E-02-1.78061E-02-1.01170E-13
 -1      6652 1.20274E-02-1.66946E-02-1.93950E-04
 -1      6653 1.39137E-02-1.76414E-02-3.95371E-04
 -1      6654 1.24318E-02-1.78137E-02-4.21937E-04
 -1      6655 1.19945E-02-1.67088E-02-5.81524E-04
 -1      6656 1.38615E-02-1.76578E-02-7.90129E-04
 -1      6657 1.23798E-02-1.78367E-02-8.43045E-04
 -1      6658 1.19277E-02-1.67377E-02-9.68378E-04
 -1      6659 8.67521E-03-1.52163E-02 9.26172E-04
 -1      6660 1.02721E-02-1.59736E-02 7.62805E-04
 -1      6661 9.16660E-03-1.60217E-02 8.06428E-04
 -1      6662 8.73300E-03-1.51755E-02 5.56182E-04
 -1      6663 1.03188E-02-1.59474E-02 3.81701E-04
 -1      6664 9.21141E-03-1.59891E-02 4.03611E-04
 -1      6665 8.76142E-03-1.51554E-02 1.85498E-04
 -1      6666 1.03342E-02-1.59388E-02-9.72540E-14
 -1      6667 9.22609E-03-1.59784E-02-8.69264E-14
 -1      6668 8.76142E-03-1.51554E-02-1.85498E-04
 -1      6669 1.03188E-02-1.59474E-02-3.81701E-04
 -1      6670 9.21141E-03-1.59891E-02-4.03611E-04
 -1      6671 8.73300E-03-1.51755E-02-5.56182E-04
 -1      6672 1.02721E-02-1.59736E-02-7.62805E-04
 -1      6673 9.16660E-03-1.60217E-02-8.06428E-04
 -1      6674 8.67521E-03-1.52163E-02-9.26172E-04
 -1      6675 6.08251E-03-1.38694E-02 8.68001E-04
 -1      6676 7.34837E-03-1.45386E-02 7.22418E-04
 -1      6677 6.55023E-03-1.44060E-02 7.55901E-04
 -1      6678 6.12839E-03-1.38194E-02 5.21254E-04
 -1      6679 7.38716E-03-1.45044E-02 3.61496E-04
 -1      6680 6.58552E-03-1.43660E-02 3.78324E-04
 -1      6681 6.15094E-03-1.37947E-02 1.73848E-04
 -1      6682 7.39995E-03-1.44931E-02-8.26112E-14
 -1      6683 6.59708E-03-1.43528E-02-7.31742E-14
 -1      6684 6.15094E-03-1.37947E-02-1.73848E-04
 -1      6685 7.38716E-03-1.45044E-02-3.61496E-04
 -1      6686 6.58552E-03-1.43660E-02-3.78324E-04
 -1      6687 6.12839E-03-1.38194E-02-5.21254E-04
 -1      6688 7.34837E-03-1.45386E-02-7.22418E-04
 -1      6689 6.55023E-03-1.44060E-02-7.55901E-04
 -1      6690 6.08251E-03-1.38694E-02-8.68001E-04
 -1      6691 4.10456E-03-1.25659E-02 7.94614E-04
 -1      6692 5.06163E-03-1.32128E-02 6.69484E-04
 -1      6693 4.49760E-03-1.28717E-02 6.92137E-04
 -1      6694 4.13646E-03-1.25099E-02 4.77195E-04
 -1      6695 5.09068E-03-1.31729E-02 3.35015E-04
 -1      6696 4.52170E-03-1.28269E-02 3.46409E-04
 -1      6697 4.15210E-03-1.24823E-02 1.59151E-04
 -1      6698 5.10024E-03-1.31597E-02-6.83717E-14
 -1      6699 4.52958E-03-1.28122E-02-6.02631E-14
 -1      6700 4.15210E-03-1.24823E-02-1.59151E-04
 -1      6701 5.09068E-03-1.31729E-02-3.35015E-04
 -1      6702 4.52170E-03-1.28269E-02-3.46409E-04
 -1      6703 4.13646E-03-1.25099E-02-4.77195E-04
 -1      6704 5.06163E-03-1.32128E-02-6.69484E-04
 -1      6705 4.49760E-03-1.28717E-02-6.92137E-04
 -1      6706 4.10456E-03-1.25659E-02-7.94614E-04
 -1      6707 2.67081E-03-1.11986E-02 7.06903E-04
 -1      6708 3.35420E-03-1.18773E-02 6.04673E-04
 -1      6709 2.95319E-03-1.13216E-02 6.15888E-04
 -1      6710 2.68748E-03-1.11406E-02 4.24546E-04
 -1      6711 3.37224E-03-1.18343E-02 3.02598E-04
 -1      6712 2.96505E-03-1.12751E-02 3.08240E-04
 -1      6713 2.69558E-03-1.11119E-02 1.41586E-04
 -1      6714 3.37817E-03-1.18202E-02-5.61622E-14
 -1      6715 2.96892E-03-1.12598E-02-4.92602E-14
 -1      6716 2.69558E-03-1.11119E-02-1.41586E-04
 -1      6717 3.37224E-03-1.18343E-02-3.02598E-04
 -1      6718 2.96505E-03-1.12751E-02-3.08240E-04
 -1      6719 2.68748E-03-1.11406E-02-4.24546E-04
 -1      6720 3.35420E-03-1.18773E-02-6.04673E-04
 -1      6721 2.95319E-03-1.13216E-02-6.15888E-04
 -1      6722 2.67081E-03-1.11986E-02-7.06903E-04
 -1      6723 1.69307E-03-9.68942E-03 6.05771E-04
 -1      6724 2.14687E-03-1.04396E-02 5.28709E-04
 -1      6725 1.84657E-03-9.68269E-03 5.27863E-04
 -1      6726 1.69408E-03-9.63336E-03 3.63859E-04
 -1      6727 2.15328E-03-1.03965E-02 2.64620E-04
 -1      6728 1.84577E-03-9.63769E-03 2.64157E-04
 -1      6729 1.69443E-03-9.60572E-03 1.21330E-04
 -1      6730 2.15535E-03-1.03823E-02-4.31796E-14
 -1      6731 1.84549E-03-9.62294E-03-3.55192E-14
 -1      6732 1.69443E-03-9.60572E-03-1.21330E-04
 -1      6733 2.15328E-03-1.03965E-02-2.64620E-04
 -1      6734 1.84577E-03-9.63769E-03-2.64157E-04
 -1      6735 1.69408E-03-9.63336E-03-3.63859E-04
 -1      6736 2.14687E-03-1.04396E-02-5.28709E-04
 -1      6737 1.84657E-03-9.68269E-03-5.27863E-04
 -1      6738 1.69307E-03-9.68942E-03-6.05771E-04
 -1      6739 1.07358E-03-7.99063E-03 4.92121E-04
 -1      6740 1.34717E-03-8.83681E-03 4.42292E-04
 -1      6741 1.09972E-03-7.90762E-03 4.28311E-04
 -1      6742 1.05930E-03-7.94117E-03 2.95701E-04
 -1      6743 1.34193E-03-8.79699E-03 2.21443E-04
 -1      6744 1.08632E-03-7.86783E-03 2.14245E-04
 -1      6745 1.05212E-03-7.91687E-03 9.85514E-05
 -1      6746 1.34013E-03-8.78387E-03-3.08056E-14
 -1      6747 1.08197E-03-7.85481E-03-2.52203E-14
 -1      6748 1.05212E-03-7.91687E-03-9.85514E-05
 -1      6749 1.34193E-03-8.79699E-03-2.21443E-04
 -1      6750 1.08632E-03-7.86783E-03-2.14245E-04
 -1      6751 1.05930E-03-7.94117E-03-2.95701E-04
 -1      6752 1.34717E-03-8.83681E-03-4.42292E-04
 -1      6753 1.09972E-03-7.90762E-03-4.28311E-04
 -1      6754 1.07358E-03-7.99063E-03-4.92121E-04
 -1      6755 7.06995E-04-6.08809E-03 3.67255E-04
 -1      6756 8.54871E-04-7.03782E-03 3.46076E-04
 -1      6757 6.32875E-04-5.97743E-03 3.17470E-04
 -1      6758 6.79109E-04-6.05087E-03 2.20776E-04
 -1      6759 8.38641E-04-7.00494E-03 1.73427E-04
 -1      6760 6.07954E-04-5.94764E-03 1.58474E-04
 -1      6761 6.65265E-04-6.03268E-03 7.34401E-05
 -1      6762 8.33170E-04-6.99414E-03-2.09017E-14
 -1      6763 5.99988E-04-5.93792E-03-1.62498E-14
 -1      6764 6.65265E-04-6.03268E-03-7.34401E-05
 -1      6765 8.38641E-04-7.00494E-03-1.73427E-04
 -1      6766 6.07954E-04-5.94764E-03-1.58474E-04
 -1      6767 6.79109E-04-6.05087E-03-2.20776E-04
 -1      6768 8.54871E-04-7.03782E-03-3.46076E-04
 -1      6769 6.32875E-04-5.97743E-03-3.17470E-04
 -1      6770 7.06995E-04-6.08809E-03-3.67255E-04
 -1      6771 4.84083E-04-4.01046E-03 2.35731E-04
 -1      6772 5.66152E-04-5.04799E-03 2.41762E-04
 -1      6773 3.62218E-04-3.90803E-03 1.95160E-04
 -1      6774 4.47637E-04-3.99203E-03 1.42008E-04
 -1      6775 5.41554E-04-5.02685E-03 1.21362E-04
 -1      6776 3.30052E-04-3.89339E-03 9.65041E-05
 -1      6777 4.29982E-04-3.98279E-03 4.68569E-05
 -1      6778 5.33286E-04-5.01992E-03-1.25756E-14
 -1      6779 3.20297E-04-3.88835E-03-8.99445E-15
 -1      6780 4.29982E-04-3.98279E-03-4.68569E-05
 -1      6781 5.41554E-04-5.02685E-03-1.21362E-04
 -1      6782 3.30052E-04-3.89339E-03-9.65041E-05
 -1      6783 4.47637E-04-3.99203E-03-1.42008E-04
 -1      6784 5.66152E-04-5.04799E-03-2.41762E-04
 -1      6785 3.62218E-04-3.90803E-03-1.95160E-04
 -1      6786 4.84083E-04-4.01046E-03-2.35731E-04
 -1      6787 2.70964E-04-1.88171E-03 1.11869E-04
 -1      6788 3.59772E-04-2.93511E-03 1.35463E-04
 -1      6789 1.81587E-04-1.80385E-03 7.55629E-05
 -1      6790 2.40708E-04-1.88248E-03 6.77124E-05
 -1      6791 3.33657E-04-2.92875E-03 6.81814E-05
 -1      6792 1.55615E-04-1.80598E-03 3.62301E-05
 -1      6793 2.25586E-04-1.88089E-03 2.18243E-05
 -1      6794 3.24974E-04-2.92639E-03-6.76476E-15
 -1      6795 1.48254E-04-1.80516E-03-5.27778E-15
 -1      6796 2.25586E-04-1.88089E-03-2.18243E-05
 -1      6797 3.33657E-04-2.92875E-03-6.81814E-05
 -1      6798 1.55615E-04-1.80598E-03-3.62301E-05
 -1      6799 2.40708E-04-1.88248E-03-6.77124E-05
 -1      6800 3.59772E-04-2.93511E-03-1.35463E-04
 -1      6801 1.81587E-04-1.80385E-03-7.55629E-05
 -1      6802 2.70964E-04-1.88171E-03-1.11869E-04
 -1      6803 1.15111E-04-8.93290E-04 4.59703E-05
 -1      6804 1.03505E-04-8.93935E-04 2.01490E-05
 -1      6805 1.00233E-04-8.93225E-04-2.41329E-15
 -1      6806 1.03505E-04-8.93935E-04-2.01490E-05
 -1      6807 1.15111E-04-8.93290E-04-4.59703E-05
 -1      6808 8.39524E-02-1.07078E-01-6.86896E-04
 -1      6809 8.40851E-02-1.14672E-01-8.52336E-04
 -1      6810 8.01856E-02-1.08391E-01-5.45212E-04
 -1      6811 8.37241E-02-1.07086E-01-4.02982E-04
 -1      6812 8.38739E-02-1.14613E-01-4.38934E-04
 -1      6813 7.99521E-02-1.08418E-01-2.79699E-04
 -1      6814 8.36025E-02-1.07076E-01-1.28434E-04
 -1      6815 8.38069E-02-1.14596E-01-1.27040E-13
 -1      6816 7.98751E-02-1.08414E-01-1.33548E-13
 -1      6817 8.36025E-02-1.07076E-01 1.28434E-04
 -1      6818 8.38739E-02-1.14613E-01 4.38934E-04
 -1      6819 7.99521E-02-1.08418E-01 2.79699E-04
 -1      6820 8.37241E-02-1.07086E-01 4.02982E-04
 -1      6821 8.40851E-02-1.14672E-01 8.52336E-04
 -1      6822 8.01856E-02-1.08391E-01 5.45212E-04
 -1      6823 8.39524E-02-1.07078E-01 6.86896E-04
 -1      6824 8.08847E-02-9.22360E-02-5.86085E-05
 -1      6825 8.24582E-02-9.96795E-02-2.56414E-04
 -1      6826 7.70933E-02-9.34028E-02 2.99718E-05
 -1      6827 8.07816E-02-9.23348E-02-3.00646E-05
 -1      6828 8.23289E-02-9.97157E-02-1.25977E-04
 -1      6829 7.70012E-02-9.34902E-02 1.72616E-05
 -1      6830 8.07191E-02-9.23751E-02-8.50051E-06
 -1      6831 8.22823E-02-9.97252E-02-1.45936E-13
 -1      6832 7.69664E-02-9.35147E-02-1.48084E-13
 -1      6833 8.07191E-02-9.23751E-02 8.50051E-06
 -1      6834 8.23289E-02-9.97157E-02 1.25977E-04
 -1      6835 7.70012E-02-9.34902E-02-1.72616E-05
 -1      6836 8.07816E-02-9.23348E-02 3.00646E-05
 -1      6837 8.24582E-02-9.96795E-02 2.56414E-04
 -1      6838 7.70933E-02-9.34028E-02-2.99718E-05
 -1      6839 8.08847E-02-9.22360E-02 5.86085E-05
 -1      6840 7.65105E-02-7.90974E-02 2.72579E-04
 -1      6841 7.86275E-02-8.56140E-02 1.14231E-04
 -1      6842 7.29715E-02-8.05056E-02 2.93381E-04
 -1      6843 7.64788E-02-7.91929E-02 1.63815E-04
 -1      6844 7.85747E-02-8.56868E-02 5.73229E-05
 -1      6845 7.29490E-02-8.05898E-02 1.45570E-04
 -1      6846 7.64589E-02-7.92359E-02 5.54789E-05
 -1      6847 7.85559E-02-8.57093E-02-1.58627E-13
 -1      6848 7.29398E-02-8.06148E-02-1.57936E-13
 -1      6849 7.64589E-02-7.92359E-02-5.54789E-05
 -1      6850 7.85747E-02-8.56868E-02-5.73229E-05
 -1      6851 7.29490E-02-8.05898E-02-1.45570E-04
 -1      6852 7.64788E-02-7.91929E-02-1.63815E-04
 -1      6853 7.86275E-02-8.56140E-02-1.14231E-04
 -1      6854 7.29715E-02-8.05056E-02-2.93381E-04
 -1      6855 7.65105E-02-7.90974E-02-2.72579E-04
 -1      6856 7.14228E-02-6.74970E-02 4.45755E-04
 -1      6857 7.38789E-02-7.32663E-02 3.01602E-04
 -1      6858 6.83102E-02-6.92270E-02 4.15881E-04
 -1      6859 7.14234E-02-6.75715E-02 2.67459E-04
 -1      6860 7.38690E-02-7.33283E-02 1.50484E-04
 -1      6861 6.83149E-02-6.92875E-02 2.07798E-04
 -1      6862 7.14220E-02-6.76072E-02 8.95027E-05
 -1      6863 7.38648E-02-7.33481E-02-1.68353E-13
 -1      6864 6.83156E-02-6.93067E-02-1.66032E-13
 -1      6865 7.14220E-02-6.76072E-02-8.95027E-05
 -1      6866 7.38690E-02-7.33283E-02-1.50484E-04
 -1      6867 6.83149E-02-6.92875E-02-2.07798E-04
 -1      6868 7.14234E-02-6.75715E-02-2.67459E-04
 -1      6869 7.38789E-02-7.32663E-02-3.01602E-04
 -1      6870 6.83102E-02-6.92270E-02-4.15881E-04
 -1      6871 7.14228E-02-6.74970E-02-4.45755E-04
 -1      6872 6.57099E-02-5.71580E-02 5.52945E-04
 -1      6873 6.85006E-02-6.23090E-02 4.06860E-04
 -1      6874 6.30636E-02-5.91447E-02 4.94907E-04
 -1      6875 6.57250E-02-5.72189E-02 3.31649E-04
 -1      6876 6.85072E-02-6.23592E-02 2.03061E-04
 -1      6877 6.30773E-02-5.91934E-02 2.47225E-04
 -1      6878 6.57318E-02-5.72488E-02 1.10719E-04
 -1      6879 6.85090E-02-6.23754E-02-1.75794E-13
 -1      6880 6.30815E-02-5.92091E-02-1.72031E-13
 -1      6881 6.57318E-02-5.72488E-02-1.10719E-04
 -1      6882 6.85072E-02-6.23592E-02-2.03061E-04
 -1      6883 6.30773E-02-5.91934E-02-2.47225E-04
 -1      6884 6.57250E-02-5.72189E-02-3.31649E-04
 -1      6885 6.85006E-02-6.23090E-02-4.06860E-04
 -1      6886 6.30636E-02-5.91447E-02-4.94907E-04
 -1      6887 6.57099E-02-5.71580E-02-5.52945E-04
 -1      6888 5.94396E-02-4.80105E-02 6.31078E-04
 -1      6889 6.25245E-02-5.25716E-02 4.78347E-04
 -1      6890 5.72567E-02-5.01777E-02 5.55578E-04
 -1      6891 5.94649E-02-4.80637E-02 3.78653E-04
 -1      6892 6.25399E-02-5.26142E-02 2.38992E-04
 -1      6893 5.72771E-02-5.02199E-02 2.77808E-04
 -1      6894 5.94772E-02-4.80901E-02 1.26306E-04
 -1      6895 6.25448E-02-5.26281E-02-1.80573E-13
 -1      6896 5.72837E-02-5.02338E-02-1.75106E-13
 -1      6897 5.94772E-02-4.80901E-02-1.26306E-04
 -1      6898 6.25399E-02-5.26142E-02-2.38992E-04
 -1      6899 5.72771E-02-5.02199E-02-2.77808E-04
 -1      6900 5.94649E-02-4.80637E-02-3.78653E-04
 -1      6901 6.25245E-02-5.25716E-02-4.78347E-04
 -1      6902 5.72567E-02-5.01777E-02-5.55578E-04
 -1      6903 5.94396E-02-4.80105E-02-6.31078E-04
 -1      6904 5.27532E-02-4.00662E-02 6.94430E-04
 -1      6905 5.60521E-02-4.40263E-02 5.34063E-04
 -1      6906 5.10223E-02-4.23327E-02 6.07502E-04
 -1      6907 5.27881E-02-4.01137E-02 4.16717E-04
 -1      6908 5.60748E-02-4.40641E-02 2.66980E-04
 -1      6909 5.10497E-02-4.23705E-02 3.03822E-04
 -1      6910 5.28054E-02-4.01373E-02 1.38961E-04
 -1      6911 5.60822E-02-4.40766E-02-1.82148E-13
 -1      6912 5.10587E-02-4.23830E-02-1.75040E-13
 -1      6913 5.28054E-02-4.01373E-02-1.38961E-04
 -1      6914 5.60748E-02-4.40641E-02-2.66980E-04
 -1      6915 5.10497E-02-4.23705E-02-3.03822E-04
 -1      6916 5.27881E-02-4.01137E-02-4.16717E-04
 -1      6917 5.60521E-02-4.40263E-02-5.34063E-04
 -1      6918 5.10223E-02-4.23327E-02-6.07502E-04
 -1      6919 5.27532E-02-4.00662E-02-6.94430E-04
 -1      6920 4.58490E-02-3.33387E-02 7.47076E-04
 -1      6921 4.92574E-02-3.66904E-02 5.80365E-04
 -1      6922 4.45514E-02-3.56248E-02 6.52032E-04
 -1      6923 4.58933E-02-3.33800E-02 4.48342E-04
 -1      6924 4.92871E-02-3.67238E-02 2.90201E-04
 -1      6925 4.45861E-02-3.56579E-02 3.26136E-04
 -1      6926 4.59153E-02-3.34005E-02 1.49489E-04
 -1      6927 4.92970E-02-3.67349E-02-1.80815E-13
 -1      6928 4.45976E-02-3.56688E-02-1.72535E-13
 -1      6929 4.59153E-02-3.34005E-02-1.49489E-04
 -1      6930 4.92871E-02-3.67238E-02-2.90201E-04
 -1      6931 4.45861E-02-3.56579E-02-3.26136E-04
 -1      6932 4.58933E-02-3.33800E-02-4.48342E-04
 -1      6933 4.92574E-02-3.66904E-02-5.80365E-04
 -1      6934 4.45514E-02-3.56248E-02-6.52032E-04
 -1      6935 4.58490E-02-3.33387E-02-7.47076E-04
 -1      6936 3.89502E-02-2.78082E-02 7.89423E-04
 -1      6937 4.23538E-02-3.05621E-02 6.18522E-04
 -1      6938 3.80569E-02-3.00379E-02 6.88540E-04
 -1      6939 3.90031E-02-2.78416E-02 4.73774E-04
 -1      6940 4.23904E-02-3.05903E-02 3.09318E-04
 -1      6941 3.80985E-02-3.00648E-02 3.44415E-04
 -1      6942 3.90295E-02-2.78582E-02 1.57962E-04
 -1      6943 4.24025E-02-3.05997E-02-1.76527E-13
 -1      6944 3.81123E-02-3.00737E-02-1.67033E-13
 -1      6945 3.90295E-02-2.78582E-02-1.57962E-04
 -1      6946 4.23904E-02-3.05903E-02-3.09318E-04
 -1      6947 3.80985E-02-3.00648E-02-3.44415E-04
 -1      6948 3.90031E-02-2.78416E-02-4.73774E-04
 -1      6949 4.23538E-02-3.05621E-02-6.18522E-04
 -1      6950 3.80569E-02-3.00379E-02-6.88540E-04
 -1      6951 3.89502E-02-2.78082E-02-7.89423E-04
 -1      6952 3.22778E-02-2.34090E-02 8.20593E-04
 -1      6953 3.55653E-02-2.55993E-02 6.48157E-04
 -1      6954 3.17487E-02-2.55134E-02 7.15713E-04
 -1      6955 3.23378E-02-2.34325E-02 4.92491E-04
 -1      6956 3.56079E-02-2.56208E-02 3.24157E-04
 -1      6957 3.17960E-02-2.55324E-02 3.58019E-04
 -1      6958 3.23677E-02-2.34442E-02 1.64200E-04
 -1      6959 3.56220E-02-2.56280E-02-1.69308E-13
 -1      6960 3.18117E-02-2.55387E-02-1.58840E-13
 -1      6961 3.23677E-02-2.34442E-02-1.64200E-04
 -1      6962 3.56079E-02-2.56208E-02-3.24157E-04
 -1      6963 3.17960E-02-2.55324E-02-3.58019E-04
 -1      6964 3.23378E-02-2.34325E-02-4.92491E-04
 -1      6965 3.55653E-02-2.55993E-02-6.48157E-04
 -1      6966 3.17487E-02-2.55134E-02-7.15713E-04
 -1      6967 3.22778E-02-2.34090E-02-8.20593E-04
 -1      6968 2.60311E-02-2.00297E-02 8.39495E-04
 -1      6969 2.91033E-02-2.17131E-02 6.68382E-04
 -1      6970 2.58154E-02-2.19509E-02 7.32335E-04
 -1      6971 2.60957E-02-2.00417E-02 5.03842E-04
 -1      6972 2.91503E-02-2.17266E-02 3.34282E-04
 -1      6973 2.58664E-02-2.19607E-02 3.66340E-04
 -1      6974 2.61278E-02-2.00478E-02 1.67984E-04
 -1      6975 2.91659E-02-2.17311E-02-1.59445E-13
 -1      6976 2.58833E-02-2.19639E-02-1.48422E-13
 -1      6977 2.61278E-02-2.00478E-02-1.67984E-04
 -1      6978 2.91503E-02-2.17266E-02-3.34282E-04
 -1      6979 2.58664E-02-2.19607E-02-3.66340E-04
 -1      6980 2.60957E-02-2.00417E-02-5.03842E-04
 -1      6981 2.91033E-02-2.17131E-02-6.68382E-04
 -1      6982 2.58154E-02-2.19509E-02-7.32335E-04
 -1      6983 2.60311E-02-2.00297E-02-8.39495E-04
 -1      6984 2.03735E-02-1.75211E-02 8.45230E-04
 -1      6985 2.31496E-02-1.87732E-02 6.78363E-04
 -1      6986 2.04120E-02-1.92149E-02 7.37497E-04
 -1      6987 2.04397E-02-1.75208E-02 5.07288E-04
 -1      6988 2.31989E-02-1.87776E-02 3.39278E-04
 -1      6989 2.04643E-02-1.92146E-02 3.68926E-04
 -1      6990 2.04726E-02-1.75207E-02 1.69133E-04
 -1      6991 2.32153E-02-1.87791E-02-1.47520E-13
 -1      6992 2.04817E-02-1.92146E-02-1.36129E-13
 -1      6993 2.04726E-02-1.75207E-02-1.69133E-04
 -1      6994 2.31989E-02-1.87776E-02-3.39278E-04
 -1      6995 2.04643E-02-1.92146E-02-3.68926E-04
 -1      6996 2.04397E-02-1.75208E-02-5.07288E-04
 -1      6997 2.31496E-02-1.87732E-02-6.78363E-04
 -1      6998 2.04120E-02-1.92149E-02-7.37497E-04
 -1      6999 2.03735E-02-1.75211E-02-8.45230E-04
 -1      7000 1.54235E-02-1.57077E-02 8.37235E-04
 -1      7001 1.78454E-02-1.66165E-02 6.77500E-04
 -1      7002 1.56518E-02-1.71452E-02 7.30659E-04
 -1      7003 1.54881E-02-1.56948E-02 5.02491E-04
 -1      7004 1.78948E-02-1.66115E-02 3.38850E-04
 -1      7005 1.57029E-02-1.71349E-02 3.65507E-04
 -1      7006 1.55202E-02-1.56885E-02 1.67534E-04
 -1      7007 1.79111E-02-1.66099E-02-1.34040E-13
 -1      7008 1.57198E-02-1.71314E-02-1.22899E-13
 -1      7009 1.55202E-02-1.56885E-02-1.67534E-04
 -1      7010 1.78948E-02-1.66115E-02-3.38850E-04
 -1      7011 1.57029E-02-1.71349E-02-3.65507E-04
 -1      7012 1.54881E-02-1.56948E-02-5.02491E-04
 -1      7013 1.78454E-02-1.66165E-02-6.77500E-04
 -1      7014 1.56518E-02-1.71452E-02-7.30659E-04
 -1      7015 1.54235E-02-1.57077E-02-8.37235E-04
 -1      7016 1.12507E-02-1.43998E-02 8.15303E-04
 -1      7017 1.32849E-02-1.50602E-02 6.65483E-04
 -1      7018 1.16033E-02-1.55690E-02 7.11631E-04
 -1      7019 1.13104E-02-1.43753E-02 4.89330E-04
 -1      7020 1.33318E-02-1.50460E-02 3.32841E-04
 -1      7021 1.16505E-02-1.55491E-02 3.55988E-04
 -1      7022 1.13402E-02-1.43630E-02 1.63145E-04
 -1      7023 1.33474E-02-1.50413E-02-1.19435E-13
 -1      7024 1.16662E-02-1.55425E-02-1.08359E-13
 -1      7025 1.13402E-02-1.43630E-02-1.63145E-04
 -1      7026 1.33318E-02-1.50460E-02-3.32841E-04
 -1      7027 1.16505E-02-1.55491E-02-3.55988E-04
 -1      7028 1.13104E-02-1.43753E-02-4.89330E-04
 -1      7029 1.32849E-02-1.50602E-02-6.65483E-04
 -1      7030 1.16033E-02-1.55690E-02-7.11631E-04
 -1      7031 1.12507E-02-1.43998E-02-8.15303E-04
 -1      7032 7.87536E-03-1.34079E-02 7.79559E-04
 -1      7033 9.51285E-03-1.39142E-02 6.42281E-04
 -1      7034 8.28960E-03-1.43124E-02 6.80524E-04
 -1      7035 7.92738E-03-1.33732E-02 4.67879E-04
 -1      7036 9.55502E-03-1.38918E-02 3.21239E-04
 -1      7037 8.33053E-03-1.42843E-02 3.40425E-04
 -1      7038 7.95327E-03-1.33559E-02 1.55992E-04
 -1      7039 9.56902E-03-1.38843E-02-1.03805E-13
 -1      7040 8.34408E-03-1.42750E-02-9.29972E-14
 -1      7041 7.95327E-03-1.33559E-02-1.55992E-04
 -1      7042 9.55502E-03-1.38918E-02-3.21239E-04
 -1      7043 8.33053E-03-1.42843E-02-3.40425E-04
 -1      7044 7.92738E-03-1.33732E-02-4.67879E-04
 -1      7045 9.51285E-03-1.39142E-02-6.42281E-04
 -1      7046 8.28960E-03-1.43124E-02-6.80524E-04
 -1      7047 7.87536E-03-1.34079E-02-7.79559E-04
 -1      7048 5.27194E-03-1.25543E-02 7.30409E-04
 -1      7049 6.52651E-03-1.29947E-02 6.08114E-04
 -1      7050 5.69169E-03-1.32122E-02 6.37704E-04
 -1      7051 5.31382E-03-1.25117E-02 4.38384E-04
 -1      7052 6.56191E-03-1.29654E-02 3.04155E-04
 -1      7053 5.72441E-03-1.31777E-02 3.18998E-04
 -1      7054 5.33466E-03-1.24905E-02 1.46155E-04
 -1      7055 6.57366E-03-1.29557E-02-8.79021E-14
 -1      7056 5.73524E-03-1.31663E-02-7.79501E-14
 -1      7057 5.33466E-03-1.24905E-02-1.46155E-04
 -1      7058 6.56191E-03-1.29654E-02-3.04155E-04
 -1      7059 5.72441E-03-1.31777E-02-3.18998E-04
 -1      7060 5.31382E-03-1.25117E-02-4.38384E-04
 -1      7061 6.52651E-03-1.29947E-02-6.08114E-04
 -1      7062 5.69169E-03-1.32122E-02-6.37704E-04
 -1      7063 5.27194E-03-1.25543E-02-7.30409E-04
 -1      7064 3.37524E-03-1.16839E-02 6.68490E-04
 -1      7065 4.28025E-03-1.21351E-02 5.63404E-04
 -1      7066 3.75453E-03-1.21252E-02 5.83728E-04
 -1      7067 3.40521E-03-1.16364E-02 4.01230E-04
 -1      7068 4.30730E-03-1.21010E-02 2.81801E-04
 -1      7069 3.77760E-03-1.20867E-02 2.91982E-04
 -1      7070 3.42011E-03-1.16127E-02 1.33760E-04
 -1      7071 4.31628E-03-1.20896E-02-7.26635E-14
 -1      7072 3.78523E-03-1.20739E-02-6.37978E-14
 -1      7073 3.42011E-03-1.16127E-02-1.33760E-04
 -1      7074 4.30730E-03-1.21010E-02-2.81801E-04
 -1      7075 3.77760E-03-1.20867E-02-2.91982E-04
 -1      7076 3.40521E-03-1.16364E-02-4.01230E-04
 -1      7077 4.28025E-03-1.21351E-02-5.63404E-04
 -1      7078 3.75453E-03-1.21252E-02-5.83728E-04
 -1      7079 3.37524E-03-1.16839E-02-6.68490E-04
 -1      7080 2.08876E-03-1.06730E-02 5.94630E-04
 -1      7081 2.69307E-03-1.11959E-02 5.08738E-04
 -1      7082 2.39453E-03-1.09361E-02 5.19292E-04
 -1      7083 2.10582E-03-1.06238E-02 3.56920E-04
 -1      7084 2.71073E-03-1.11592E-02 2.54479E-04
 -1      7085 2.40710E-03-1.08961E-02 2.59714E-04
 -1      7086 2.11429E-03-1.05992E-02 1.18970E-04
 -1      7087 2.71657E-03-1.11470E-02-5.85137E-14
 -1      7088 2.41127E-03-1.08829E-02-5.09038E-14
 -1      7089 2.11429E-03-1.05992E-02-1.18970E-04
 -1      7090 2.71073E-03-1.11592E-02-2.54479E-04
 -1      7091 2.40710E-03-1.08961E-02-2.59714E-04
 -1      7092 2.10582E-03-1.06238E-02-3.56920E-04
 -1      7093 2.69307E-03-1.11959E-02-5.08738E-04
 -1      7094 2.39453E-03-1.09361E-02-5.19292E-04
 -1      7095 2.08876E-03-1.06730E-02-5.94630E-04
 -1      7096 1.29387E-03-9.43444E-03 5.09871E-04
 -1      7097 1.65740E-03-1.00715E-02 4.44845E-04
 -1      7098 1.50823E-03-9.56195E-03 4.45218E-04
 -1      7099 1.29779E-03-9.38708E-03 3.06090E-04
 -1      7100 1.66520E-03-1.00349E-02 2.22563E-04
 -1      7101 1.51005E-03-9.52348E-03 2.22580E-04
 -1      7102 1.29973E-03-9.36353E-03 1.01987E-04
 -1      7103 1.66774E-03-1.00227E-02-4.48653E-14
 -1      7104 1.51070E-03-9.51075E-03-3.75053E-14
 -1      7105 1.29973E-03-9.36353E-03-1.01987E-04
 -1      7106 1.66520E-03-1.00349E-02-2.22563E-04
 -1      7107 1.51005E-03-9.52348E-03-2.22580E-04
 -1      7108 1.29779E-03-9.38708E-03-3.06090E-04
 -1      7109 1.65740E-03-1.00715E-02-4.44845E-04
 -1      7110 1.50823E-03-9.56195E-03-4.45218E-04
 -1      7111 1.29387E-03-9.43444E-03-5.09871E-04
 -1      7112 8.58114E-04-7.92183E-03 4.15765E-04
 -1      7113 1.04806E-03-8.69500E-03 3.72688E-04
 -1      7114 9.79884E-04-7.95595E-03 3.62587E-04
 -1      7115 8.49639E-04-7.88025E-03 2.49717E-04
 -1      7116 1.04620E-03-8.66124E-03 1.86564E-04
 -1      7117 9.71366E-04-7.92219E-03 1.81058E-04
 -1      7118 8.45406E-04-7.85961E-03 8.31148E-05
 -1      7119 1.04549E-03-8.65002E-03-3.21640E-14
 -1      7120 9.68682E-04-7.91101E-03-2.61360E-14
 -1      7121 8.45406E-04-7.85961E-03-8.31148E-05
 -1      7122 1.04620E-03-8.66124E-03-1.86564E-04
 -1      7123 9.71366E-04-7.92219E-03-1.81058E-04
 -1      7124 8.49639E-04-7.88025E-03-2.49717E-04
 -1      7125 1.04806E-03-8.69500E-03-3.72688E-04
 -1      7126 9.79884E-04-7.95595E-03-3.62587E-04
 -1      7127 8.58114E-04-7.92183E-03-4.15765E-04
 -1      7128 6.40469E-04-6.13360E-03 3.15214E-04
 -1      7129 7.29265E-04-7.04167E-03 2.93862E-04
 -1      7130 6.86387E-04-6.11072E-03 2.73391E-04
 -1      7131 6.21792E-04-6.10208E-03 1.89553E-04
 -1      7132 7.18773E-04-7.01386E-03 1.47312E-04
 -1      7133 6.68963E-04-6.08540E-03 1.36012E-04
 -1      7134 6.12518E-04-6.08651E-03 6.28889E-05
 -1      7135 7.15107E-04-7.00464E-03-2.14574E-14
 -1      7136 6.63553E-04-6.07699E-03-1.67354E-14
 -1      7137 6.12518E-04-6.08651E-03-6.28889E-05
 -1      7138 7.18773E-04-7.01386E-03-1.47312E-04
 -1      7139 6.68963E-04-6.08540E-03-1.36012E-04
 -1      7140 6.21792E-04-6.10208E-03-1.89553E-04
 -1      7141 7.29265E-04-7.04167E-03-2.93862E-04
 -1      7142 6.86387E-04-6.11072E-03-2.73391E-04
 -1      7143 6.40469E-04-6.13360E-03-3.15214E-04
 -1      7144 4.95214E-04-4.12429E-03 2.15729E-04
 -1      7145 5.58945E-04-5.13483E-03 2.11920E-04
 -1      7146 4.97241E-04-4.06830E-03 1.83086E-04
 -1      7147 4.70845E-04-4.10694E-03 1.30755E-04
 -1      7148 5.42502E-04-5.11620E-03 1.06721E-04
 -1      7149 4.74336E-04-4.05515E-03 9.00426E-05
 -1      7150 4.58308E-04-4.09833E-03 4.30396E-05
 -1      7151 5.36669E-04-5.11007E-03-1.28460E-14
 -1      7152 4.67539E-04-4.05056E-03-9.36094E-15
 -1      7153 4.58308E-04-4.09833E-03-4.30396E-05
 -1      7154 5.42502E-04-5.11620E-03-1.06721E-04
 -1      7155 4.74336E-04-4.05515E-03-9.00426E-05
 -1      7156 4.70845E-04-4.10694E-03-1.30755E-04
 -1      7157 5.58945E-04-5.13483E-03-2.11920E-04
 -1      7158 4.97241E-04-4.06830E-03-1.83086E-04
 -1      7159 4.95214E-04-4.12429E-03-2.15729E-04
 -1      7160 2.92676E-04-2.02278E-03 1.28040E-04
 -1      7161 3.94898E-04-3.06435E-03 1.36024E-04
 -1      7162 2.83193E-04-1.95931E-03 1.04151E-04
 -1      7163 2.69772E-04-2.01867E-03 7.95876E-05
 -1      7164 3.76792E-04-3.05656E-03 6.91122E-05
 -1      7165 2.60212E-04-1.95749E-03 4.99018E-05
 -1      7166 2.56548E-04-2.01613E-03 2.58117E-05
 -1      7167 3.70033E-04-3.05390E-03-6.40199E-15
 -1      7168 2.53683E-04-1.95627E-03-4.23860E-15
 -1      7169 2.56548E-04-2.01613E-03-2.58117E-05
 -1      7170 3.76792E-04-3.05656E-03-6.91122E-05
 -1      7171 2.60212E-04-1.95749E-03-4.99018E-05
 -1      7172 2.69772E-04-2.01867E-03-7.95876E-05
 -1      7173 3.94898E-04-3.06435E-03-1.36024E-04
 -1      7174 2.83193E-04-1.95931E-03-1.04151E-04
 -1      7175 2.92676E-04-2.02278E-03-1.28040E-04
 -1      7176 1.36166E-04-9.97109E-04 6.29677E-05
 -1      7177 1.25870E-04-9.95793E-04 2.85560E-05
 -1      7178 1.23026E-04-9.95209E-04-1.50473E-15
 -1      7179 1.25870E-04-9.95793E-04-2.85560E-05
 -1      7180 1.36166E-04-9.97109E-04-6.29677E-05
 -1      7181 9.07110E-02-1.05020E-01-5.50436E-04
 -1      7182 9.08161E-02-1.12089E-01-6.29121E-04
 -1      7183 8.73050E-02-1.06026E-01-4.94808E-04
 -1      7184 9.05728E-02-1.04981E-01-3.29945E-04
 -1      7185 9.07045E-02-1.12021E-01-3.17254E-04
 -1      7186 8.71679E-02-1.05999E-01-2.44217E-04
 -1      7187 9.05026E-02-1.04962E-01-1.09428E-04
 -1      7188 9.06671E-02-1.12004E-01-1.35917E-13
 -1      7189 8.71217E-02-1.05993E-01-1.41715E-13
 -1      7190 9.05026E-02-1.04962E-01 1.09428E-04
 -1      7191 9.07045E-02-1.12021E-01 3.17254E-04
 -1      7192 8.71679E-02-1.05999E-01 2.44217E-04
 -1      7193 9.05728E-02-1.04981E-01 3.29945E-04
 -1      7194 9.08161E-02-1.12089E-01 6.29121E-04
 -1      7195 8.73050E-02-1.06026E-01 4.94808E-04
 -1      7196 9.07110E-02-1.05020E-01 5.50436E-04
 -1      7197 8.78907E-02-9.03262E-02-1.33368E-04
 -1      7198 8.93461E-02-9.76862E-02-2.67620E-04
 -1      7199 8.44266E-02-9.13230E-02-8.73264E-05
 -1      7200 8.77994E-02-9.03643E-02-7.93985E-05
 -1      7201 8.92552E-02-9.76941E-02-1.31156E-04
 -1      7202 8.43459E-02-9.13666E-02-4.09092E-05
 -1      7203 8.77551E-02-9.03837E-02-2.66774E-05
 -1      7204 8.92251E-02-9.76962E-02-1.55008E-13
 -1      7205 8.43196E-02-9.13811E-02-1.58242E-13
 -1      7206 8.77551E-02-9.03837E-02 2.66774E-05
 -1      7207 8.92552E-02-9.76941E-02 1.31156E-04
 -1      7208 8.43459E-02-9.13666E-02 4.09092E-05
 -1      7209 8.77994E-02-9.03643E-02 7.93985E-05
 -1      7210 8.93461E-02-9.76862E-02 2.67620E-04
 -1      7211 8.44266E-02-9.13230E-02 8.73264E-05
 -1      7212 8.78907E-02-9.03262E-02 1.33368E-04
 -1      7213 8.32154E-02-7.66180E-02 1.52204E-04
 -1      7214 8.54909E-02-8.33741E-02 2.17133E-05
 -1      7215 7.99021E-02-7.78829E-02 1.63132E-04
 -1      7216 8.31747E-02-7.66761E-02 9.15685E-05
 -1      7217 8.54442E-02-8.34158E-02 1.12220E-05
 -1      7218 7.98721E-02-7.79363E-02 8.24060E-05
 -1      7219 8.31556E-02-7.67064E-02 3.04259E-05
 -1      7220 8.54287E-02-8.34300E-02-1.69954E-13
 -1      7221 7.98624E-02-7.79551E-02-1.70157E-13
 -1      7222 8.31556E-02-7.67064E-02-3.04259E-05
 -1      7223 8.54442E-02-8.34158E-02-1.12220E-05
 -1      7224 7.98721E-02-7.79363E-02-8.24060E-05
 -1      7225 8.31747E-02-7.66761E-02-9.15685E-05
 -1      7226 8.54909E-02-8.33741E-02-2.17133E-05
 -1      7227 7.99021E-02-7.78829E-02-1.63132E-04
 -1      7228 8.32154E-02-7.66180E-02-1.52204E-04
 -1      7229 7.74597E-02-6.43334E-02 3.27448E-04
 -1      7230 8.02537E-02-7.03974E-02 2.02329E-04
 -1      7231 7.44711E-02-6.59265E-02 3.05753E-04
 -1      7232 7.74507E-02-6.43904E-02 1.96495E-04
 -1      7233 8.02375E-02-7.04432E-02 1.01423E-04
 -1      7234 7.44663E-02-6.59748E-02 1.53196E-04
 -1      7235 7.74470E-02-6.44196E-02 6.53740E-05
 -1      7236 8.02324E-02-7.04585E-02-1.81136E-13
 -1      7237 7.44651E-02-6.59914E-02-1.79386E-13
 -1      7238 7.74470E-02-6.44196E-02-6.53740E-05
 -1      7239 8.02375E-02-7.04432E-02-1.01423E-04
 -1      7240 7.44663E-02-6.59748E-02-1.53196E-04
 -1      7241 7.74507E-02-6.43904E-02-1.96495E-04
 -1      7242 8.02537E-02-7.03974E-02-2.02329E-04
 -1      7243 7.44711E-02-6.59265E-02-3.05753E-04
 -1      7244 7.74597E-02-6.43334E-02-3.27448E-04
 -1      7245 7.09379E-02-5.34391E-02 4.38560E-04
 -1      7246 7.41272E-02-5.88366E-02 3.13106E-04
 -1      7247 6.83454E-02-5.53044E-02 3.94455E-04
 -1      7248 7.09470E-02-5.34906E-02 2.63157E-04
 -1      7249 7.41285E-02-5.88779E-02 1.56635E-04
 -1      7250 6.83539E-02-5.53462E-02 1.97372E-04
 -1      7251 7.09520E-02-5.35167E-02 8.76437E-05
 -1      7252 7.41291E-02-5.88918E-02-1.89423E-13
 -1      7253 6.83569E-02-5.53604E-02-1.85856E-13
 -1      7254 7.09520E-02-5.35167E-02-8.76437E-05
 -1      7255 7.41285E-02-5.88779E-02-1.56635E-04
 -1      7256 6.83539E-02-5.53462E-02-1.97372E-04
 -1      7257 7.09470E-02-5.34906E-02-2.63157E-04
 -1      7258 7.41272E-02-5.88366E-02-3.13106E-04
 -1      7259 6.83454E-02-5.53044E-02-3.94455E-04
 -1      7260 7.09379E-02-5.34391E-02-4.38560E-04
 -1      7261 6.38158E-02-4.39017E-02 5.16489E-04
 -1      7262 6.73161E-02-4.86337E-02 3.86680E-04
 -1      7263 6.16450E-02-4.59604E-02 4.57484E-04
 -1      7264 6.38372E-02-4.39482E-02 3.09905E-04
 -1      7265 6.73281E-02-4.86707E-02 1.93413E-04
 -1      7266 6.16622E-02-4.59977E-02 2.28805E-04
 -1      7267 6.38481E-02-4.39715E-02 1.03261E-04
 -1      7268 6.73321E-02-4.86831E-02-1.94682E-13
 -1      7269 6.16681E-02-4.60102E-02-1.89234E-13
 -1      7270 6.38481E-02-4.39715E-02-1.03261E-04
 -1      7271 6.73281E-02-4.86707E-02-1.93413E-04
 -1      7272 6.16622E-02-4.59977E-02-2.28805E-04
 -1      7273 6.38372E-02-4.39482E-02-3.09905E-04
 -1      7274 6.73161E-02-4.86337E-02-3.86680E-04
 -1      7275 6.16450E-02-4.59604E-02-4.57484E-04
 -1      7276 6.38158E-02-4.39017E-02-5.16489E-04
 -1      7277 5.62787E-02-3.57318E-02 5.75842E-04
 -1      7278 5.99903E-02-3.97848E-02 4.40790E-04
 -1      7279 5.45318E-02-3.79032E-02 5.06728E-04
 -1      7280 5.63101E-02-3.57734E-02 3.45523E-04
 -1      7281 6.00103E-02-3.98180E-02 2.20440E-04
 -1      7282 5.45565E-02-3.79364E-02 2.53410E-04
 -1      7283 5.63258E-02-3.57942E-02 1.15155E-04
 -1      7284 6.00170E-02-3.98291E-02-1.96481E-13
 -1      7285 5.45648E-02-3.79476E-02-1.89353E-13
 -1      7286 5.63258E-02-3.57942E-02-1.15155E-04
 -1      7287 6.00103E-02-3.98180E-02-2.20440E-04
 -1      7288 5.45565E-02-3.79364E-02-2.53410E-04
 -1      7289 5.63101E-02-3.57734E-02-3.45523E-04
 -1      7290 5.99903E-02-3.97848E-02-4.40790E-04
 -1      7291 5.45318E-02-3.79032E-02-5.06728E-04
 -1      7292 5.62787E-02-3.57318E-02-5.75842E-04
 -1      7293 4.85513E-02-2.89361E-02 6.22770E-04
 -1      7294 5.23564E-02-3.23047E-02 4.83085E-04
 -1      7295 4.72161E-02-3.11414E-02 5.46556E-04
 -1      7296 4.85915E-02-2.89720E-02 3.73682E-04
 -1      7297 5.23834E-02-3.23340E-02 2.41576E-04
 -1      7298 4.72477E-02-3.11703E-02 2.73317E-04
 -1      7299 4.86117E-02-2.89900E-02 1.24555E-04
 -1      7300 5.23924E-02-3.23438E-02-1.94873E-13
 -1      7301 4.72583E-02-3.11799E-02-1.86327E-13
 -1      7302 4.86117E-02-2.89900E-02-1.24555E-04
 -1      7303 5.23834E-02-3.23340E-02-2.41576E-04
 -1      7304 4.72477E-02-3.11703E-02-2.73317E-04
 -1      7305 4.85915E-02-2.89720E-02-3.73682E-04
 -1      7306 5.23564E-02-3.23047E-02-4.83085E-04
 -1      7307 4.72161E-02-3.11414E-02-5.46556E-04
 -1      7308 4.85513E-02-2.89361E-02-6.22770E-04
 -1      7309 4.08795E-02-2.34840E-02 6.59254E-04
 -1      7310 4.46523E-02-2.61844E-02 5.16502E-04
 -1      7311 3.99316E-02-2.56497E-02 5.78026E-04
 -1      7312 4.09274E-02-2.35128E-02 3.95575E-04
 -1      7313 4.46856E-02-2.62089E-02 2.58277E-04
 -1      7314 3.99693E-02-2.56729E-02 2.89054E-04
 -1      7315 4.09514E-02-2.35272E-02 1.31859E-04
 -1      7316 4.46967E-02-2.62171E-02-1.90052E-13
 -1      7317 3.99818E-02-2.56807E-02-1.80167E-13
 -1      7318 4.09514E-02-2.35272E-02-1.31859E-04
 -1      7319 4.46856E-02-2.62089E-02-2.58277E-04
 -1      7320 3.99693E-02-2.56729E-02-2.89054E-04
 -1      7321 4.09274E-02-2.35128E-02-3.95575E-04
 -1      7322 4.46523E-02-2.61844E-02-5.16502E-04
 -1      7323 3.99316E-02-2.56497E-02-5.78026E-04
 -1      7324 4.08795E-02-2.34840E-02-6.59254E-04
 -1      7325 3.35061E-02-1.92942E-02 6.85527E-04
 -1      7326 3.71246E-02-2.13688E-02 5.41743E-04
 -1      7327 3.29095E-02-2.13543E-02 6.00935E-04
 -1      7328 3.35601E-02-1.93144E-02 4.11341E-04
 -1      7329 3.71631E-02-2.13874E-02 2.70895E-04
 -1      7330 3.29521E-02-2.13706E-02 3.00510E-04
 -1      7331 3.35871E-02-1.93246E-02 1.37118E-04
 -1      7332 3.71759E-02-2.13937E-02-1.81999E-13
 -1      7333 3.29663E-02-2.13761E-02-1.71135E-13
 -1      7334 3.35871E-02-1.93246E-02-1.37118E-04
 -1      7335 3.71631E-02-2.13874E-02-2.70895E-04
 -1      7336 3.29521E-02-2.13706E-02-3.00510E-04
 -1      7337 3.35601E-02-1.93144E-02-4.11341E-04
 -1      7338 3.71246E-02-2.13688E-02-5.41743E-04
 -1      7339 3.29095E-02-2.13543E-02-6.00935E-04
 -1      7340 3.35061E-02-1.92942E-02-6.85527E-04
 -1      7341 2.66499E-02-1.62350E-02 7.01193E-04
 -1      7342 3.00056E-02-1.77516E-02 5.58656E-04
 -1      7343 2.63587E-02-1.81338E-02 6.14709E-04
 -1      7344 2.67077E-02-1.62453E-02 4.20742E-04
 -1      7345 3.00478E-02-1.77632E-02 2.79350E-04
 -1      7346 2.64045E-02-1.81422E-02 3.07399E-04
 -1      7347 2.67367E-02-1.62505E-02 1.40254E-04
 -1      7348 3.00619E-02-1.77671E-02-1.71195E-13
 -1      7349 2.64197E-02-1.81450E-02-1.59581E-13
 -1      7350 2.67367E-02-1.62505E-02-1.40254E-04
 -1      7351 3.00478E-02-1.77632E-02-2.79350E-04
 -1      7352 2.64045E-02-1.81422E-02-3.07399E-04
 -1      7353 2.67077E-02-1.62453E-02-4.20742E-04
 -1      7354 3.00056E-02-1.77516E-02-5.58656E-04
 -1      7355 2.63587E-02-1.81338E-02-6.14709E-04
 -1      7356 2.66499E-02-1.62350E-02-7.01193E-04
 -1      7357 2.04893E-02-1.41320E-02 7.05757E-04
 -1      7358 2.34947E-02-1.51790E-02 5.66839E-04
 -1      7359 2.04500E-02-1.58266E-02 6.18802E-04
 -1      7360 2.05485E-02-1.41317E-02 4.23481E-04
 -1      7361 2.35389E-02-1.51828E-02 2.83441E-04
 -1      7362 2.04968E-02-1.58264E-02 3.09446E-04
 -1      7363 2.05781E-02-1.41316E-02 1.41168E-04
 -1      7364 2.35537E-02-1.51841E-02-1.58041E-13
 -1      7365 2.05124E-02-1.58263E-02-1.46161E-13
 -1      7366 2.05781E-02-1.41316E-02-1.41168E-04
 -1      7367 2.35389E-02-1.51828E-02-2.83441E-04
 -1      7368 2.04968E-02-1.58264E-02-3.09446E-04
 -1      7369 2.05485E-02-1.41317E-02-4.23481E-04
 -1      7370 2.34947E-02-1.51790E-02-5.66839E-04
 -1      7371 2.04500E-02-1.58266E-02-6.18802E-04
 -1      7372 2.04893E-02-1.41320E-02-7.05757E-04
 -1      7373 1.51524E-02-1.27812E-02 6.98861E-04
 -1      7374 1.77458E-02-1.34613E-02 5.65931E-04
 -1      7375 1.53064E-02-1.42430E-02 6.12849E-04
 -1      7376 1.52102E-02-1.27702E-02 4.19343E-04
 -1      7377 1.77900E-02-1.34570E-02 2.82987E-04
 -1      7378 1.53521E-02-1.42341E-02 3.06469E-04
 -1      7379 1.52391E-02-1.27647E-02 1.39788E-04
 -1      7380 1.78048E-02-1.34556E-02-1.43229E-13
 -1      7381 1.53673E-02-1.42311E-02-1.31338E-13
 -1      7382 1.52391E-02-1.27647E-02-1.39788E-04
 -1      7383 1.77900E-02-1.34570E-02-2.82987E-04
 -1      7384 1.53521E-02-1.42341E-02-3.06469E-04
 -1      7385 1.52102E-02-1.27702E-02-4.19343E-04
 -1      7386 1.77458E-02-1.34613E-02-5.65931E-04
 -1      7387 1.53064E-02-1.42430E-02-6.12849E-04
 -1      7388 1.51524E-02-1.27812E-02-6.98861E-04
 -1      7389 1.07114E-02-1.19637E-02 6.80369E-04
 -1      7390 1.28591E-02-1.23861E-02 5.55728E-04
 -1      7391 1.09990E-02-1.31789E-02 5.96714E-04
 -1      7392 1.07651E-02-1.19427E-02 4.08249E-04
 -1      7393 1.29012E-02-1.23740E-02 2.77886E-04
 -1      7394 1.10413E-02-1.31619E-02 2.98398E-04
 -1      7395 1.07919E-02-1.19322E-02 1.36089E-04
 -1      7396 1.29153E-02-1.23699E-02-1.27170E-13
 -1      7397 1.10554E-02-1.31562E-02-1.15446E-13
 -1      7398 1.07919E-02-1.19322E-02-1.36089E-04
 -1      7399 1.29012E-02-1.23740E-02-2.77886E-04
 -1      7400 1.10413E-02-1.31619E-02-2.98398E-04
 -1      7401 1.07651E-02-1.19427E-02-4.08249E-04
 -1      7402 1.28591E-02-1.23861E-02-5.55728E-04
 -1      7403 1.09990E-02-1.31789E-02-5.96714E-04
 -1      7404 1.07114E-02-1.19637E-02-6.80369E-04
 -1      7405 7.18203E-03-1.14611E-02 6.50391E-04
 -1      7406 8.87846E-03-1.17342E-02 5.36218E-04
 -1      7407 7.54573E-03-1.24303E-02 5.70492E-04
 -1      7408 7.22903E-03-1.14314E-02 3.90263E-04
 -1      7409 8.91649E-03-1.17150E-02 2.68133E-04
 -1      7410 7.58273E-03-1.24063E-02 2.85279E-04
 -1      7411 7.25251E-03-1.14166E-02 1.30091E-04
 -1      7412 8.92916E-03-1.17086E-02-1.10236E-13
 -1      7413 7.59505E-03-1.23983E-02-9.89036E-14
 -1      7414 7.25251E-03-1.14166E-02-1.30091E-04
 -1      7415 8.91649E-03-1.17150E-02-2.68133E-04
 -1      7416 7.58273E-03-1.24063E-02-2.85279E-04
 -1      7417 7.22903E-03-1.14314E-02-3.90263E-04
 -1      7418 8.87846E-03-1.17342E-02-5.36218E-04
 -1      7419 7.54573E-03-1.24303E-02-5.70492E-04
 -1      7420 7.18203E-03-1.14611E-02-6.50391E-04
 -1      7421 4.52716E-03-1.10697E-02 6.09267E-04
 -1      7422 5.79290E-03-1.12939E-02 5.07582E-04
 -1      7423 4.91539E-03-1.18068E-02 5.34481E-04
 -1      7424 4.56549E-03-1.10333E-02 3.65590E-04
 -1      7425 5.82513E-03-1.12689E-02 2.53819E-04
 -1      7426 4.94536E-03-1.17774E-02 2.67259E-04
 -1      7427 4.58464E-03-1.10152E-02 1.21861E-04
 -1      7428 5.83586E-03-1.12605E-02-9.30811E-14
 -1      7429 4.95534E-03-1.17676E-02-8.25774E-14
 -1      7430 4.58464E-03-1.10152E-02-1.21861E-04
 -1      7431 5.82513E-03-1.12689E-02-2.53819E-04
 -1      7432 4.94536E-03-1.17774E-02-2.67259E-04
 -1      7433 4.56549E-03-1.10333E-02-3.65590E-04
 -1      7434 5.79290E-03-1.12939E-02-5.07582E-04
 -1      7435 4.91539E-03-1.18068E-02-5.34481E-04
 -1      7436 4.52716E-03-1.10697E-02-6.09267E-04
 -1      7437 2.66412E-03-1.06132E-02 5.57548E-04
 -1      7438 3.54215E-03-1.08749E-02 4.70179E-04
 -1      7439 3.03407E-03-1.11427E-02 4.89165E-04
 -1      7440 2.69228E-03-1.05727E-02 3.34565E-04
 -1      7441 3.56723E-03-1.08457E-02 2.35126E-04
 -1      7442 3.05580E-03-1.11099E-02 2.44571E-04
 -1      7443 2.70635E-03-1.05524E-02 1.11509E-04
 -1      7444 3.57558E-03-1.08360E-02-7.65579E-14
 -1      7445 3.06305E-03-1.10990E-02-6.71706E-14
 -1      7446 2.70635E-03-1.05524E-02-1.11509E-04
 -1      7447 3.56723E-03-1.08457E-02-2.35126E-04
 -1      7448 3.05580E-03-1.11099E-02-2.44571E-04
 -1      7449 2.69228E-03-1.05727E-02-3.34565E-04
 -1      7450 3.54215E-03-1.08749E-02-4.70179E-04
 -1      7451 3.03407E-03-1.11427E-02-4.89165E-04
 -1      7452 2.66412E-03-1.06132E-02-5.57548E-04
 -1      7453 1.47394E-03-9.95275E-03 4.96007E-04
 -1      7454 2.02495E-03-1.03190E-02 4.24532E-04
 -1      7455 1.79408E-03-1.03067E-02 4.35202E-04
 -1      7456 1.49111E-03-9.91083E-03 2.97658E-04
 -1      7457 2.04202E-03-1.02877E-02 2.12322E-04
 -1      7458 1.80688E-03-1.02728E-02 2.17528E-04
 -1      7459 1.49969E-03-9.88990E-03 9.91848E-05
 -1      7460 2.04768E-03-1.02773E-02-6.10011E-14
 -1      7461 1.81119E-03-1.02615E-02-5.26836E-14
 -1      7462 1.49969E-03-9.88990E-03-9.91848E-05
 -1      7463 2.04202E-03-1.02877E-02-2.12322E-04
 -1      7464 1.80688E-03-1.02728E-02-2.17528E-04
 -1      7465 1.49111E-03-9.91083E-03-2.97658E-04
 -1      7466 2.02495E-03-1.03190E-02-4.24532E-04
 -1      7467 1.79408E-03-1.03067E-02-4.35202E-04
 -1      7468 1.47394E-03-9.95275E-03-4.96007E-04
 -1      7469 8.11999E-04-8.99373E-03 4.25731E-04
 -1      7470 1.10923E-03-9.50939E-03 3.71360E-04
 -1      7471 1.06376E-03-9.20807E-03 3.73492E-04
 -1      7472 8.18121E-04-8.95348E-03 2.55526E-04
 -1      7473 1.11794E-03-9.47818E-03 1.85778E-04
 -1      7474 1.06751E-03-9.17544E-03 1.86550E-04
 -1      7475 8.21206E-04-8.93340E-03 8.50967E-05
 -1      7476 1.12079E-03-9.46778E-03-4.64328E-14
 -1      7477 1.06887E-03-9.16459E-03-3.90075E-14
 -1      7478 8.21206E-04-8.93340E-03-8.50967E-05
 -1      7479 1.11794E-03-9.47818E-03-1.85778E-04
 -1      7480 1.06751E-03-9.17544E-03-1.86550E-04
 -1      7481 8.18121E-04-8.95348E-03-2.55526E-04
 -1      7482 1.10923E-03-9.50939E-03-3.71360E-04
 -1      7483 1.06376E-03-9.20807E-03-3.73492E-04
 -1      7484 8.11999E-04-8.99373E-03-4.25731E-04
 -1      7485 5.18262E-04-7.69117E-03 3.48477E-04
 -1      7486 6.42584E-04-8.37579E-03 3.11722E-04
 -1      7487 6.96589E-04-7.80110E-03 3.05466E-04
 -1      7488 5.14202E-04-7.65579E-03 2.09279E-04
 -1      7489 6.43245E-04-8.34705E-03 1.56048E-04
 -1      7490 6.91893E-04-7.77249E-03 1.52287E-04
 -1      7491 5.12219E-04-7.63816E-03 6.95961E-05
 -1      7492 6.43377E-04-8.33747E-03-3.31653E-14
 -1      7493 6.90564E-04-7.76296E-03-2.69607E-14
 -1      7494 5.12219E-04-7.63816E-03-6.95961E-05
 -1      7495 6.43245E-04-8.34705E-03-1.56048E-04
 -1      7496 6.91893E-04-7.77249E-03-1.52287E-04
 -1      7497 5.14202E-04-7.65579E-03-2.09279E-04
 -1      7498 6.42584E-04-8.37579E-03-3.11722E-04
 -1      7499 6.96589E-04-7.80110E-03-3.05466E-04
 -1      7500 5.18262E-04-7.69117E-03-3.48477E-04
 -1      7501 4.26540E-04-6.05400E-03 2.67536E-04
 -1      7502 4.61983E-04-6.89958E-03 2.47498E-04
 -1      7503 5.38722E-04-6.08997E-03 2.33946E-04
 -1      7504 4.14546E-04-6.02661E-03 1.60901E-04
 -1      7505 4.55723E-04-6.87571E-03 1.24111E-04
 -1      7506 5.27137E-04-6.06822E-03 1.16039E-04
 -1      7507 4.08614E-04-6.01300E-03 5.33082E-05
 -1      7508 4.53460E-04-6.86778E-03-2.18778E-14
 -1      7509 5.23762E-04-6.06092E-03-1.70132E-14
 -1      7510 4.08614E-04-6.01300E-03-5.33082E-05
 -1      7511 4.55723E-04-6.87571E-03-1.24111E-04
 -1      7512 5.27137E-04-6.06822E-03-1.16039E-04
 -1      7513 4.14546E-04-6.02661E-03-1.60901E-04
 -1      7514 4.61983E-04-6.89958E-03-2.47498E-04
 -1      7515 5.38722E-04-6.08997E-03-2.33946E-04
 -1      7516 4.26540E-04-6.05400E-03-2.67536E-04
 -1      7517 3.76547E-04-4.15089E-03 1.90058E-04
 -1      7518 4.02901E-04-5.11833E-03 1.82563E-04
 -1      7519 4.36538E-04-4.13676E-03 1.65328E-04
 -1      7520 3.60364E-04-4.13363E-03 1.15457E-04
 -1      7521 3.92185E-04-5.10152E-03 9.20324E-05
 -1      7522 4.20646E-04-4.12407E-03 8.10729E-05
 -1      7523 3.51775E-04-4.12514E-03 3.79846E-05
 -1      7524 3.88237E-04-5.09596E-03-1.28119E-14
 -1      7525 4.16201E-04-4.11968E-03-9.24256E-15
 -1      7526 3.51775E-04-4.12514E-03-3.79846E-05
 -1      7527 3.92185E-04-5.10152E-03-9.20324E-05
 -1      7528 4.20646E-04-4.12407E-03-8.10729E-05
 -1      7529 3.60364E-04-4.13363E-03-1.15457E-04
 -1      7530 4.02901E-04-5.11833E-03-1.82563E-04
 -1      7531 4.36538E-04-4.13676E-03-1.65328E-04
 -1      7532 3.76547E-04-4.15089E-03-1.90058E-04
 -1      7533 2.44746E-04-2.10246E-03 1.23101E-04
 -1      7534 3.18524E-04-3.12901E-03 1.24618E-04
 -1      7535 2.66153E-04-2.06661E-03 1.08532E-04
 -1      7536 2.27805E-04-2.09451E-03 7.71775E-05
 -1      7537 3.05992E-04-3.11983E-03 6.35624E-05
 -1      7538 2.46820E-04-2.06216E-03 5.26370E-05
 -1      7539 2.16942E-04-2.09069E-03 2.52490E-05
 -1      7540 3.01031E-04-3.11684E-03-5.93725E-15
 -1      7541 2.41330E-04-2.06043E-03-3.50236E-15
 -1      7542 2.16942E-04-2.09069E-03-2.52490E-05
 -1      7543 3.05992E-04-3.11983E-03-6.35624E-05
 -1      7544 2.46820E-04-2.06216E-03-5.26370E-05
 -1      7545 2.27805E-04-2.09451E-03-7.71775E-05
 -1      7546 3.18524E-04-3.12901E-03-1.24618E-04
 -1      7547 2.66153E-04-2.06661E-03-1.08532E-04
 -1      7548 2.44746E-04-2.10246E-03-1.23101E-04
 -1      7549 1.21369E-04-1.05779E-03 6.38137E-05
 -1      7550 1.12304E-04-1.05496E-03 2.93842E-05
 -1      7551 1.09845E-04-1.05405E-03-1.12680E-15
 -1      7552 1.12304E-04-1.05496E-03-2.93842E-05
 -1      7553 1.21369E-04-1.05779E-03-6.38137E-05
 -1      7554 9.70770E-02-1.03084E-01-4.37242E-04
 -1      7555 9.72500E-02-1.10110E-01-4.59718E-04
 -1      7556 9.38638E-02-1.03999E-01-3.93450E-04
 -1      7557 9.69956E-02-1.03047E-01-2.60840E-04
 -1      7558 9.71868E-02-1.10058E-01-2.30517E-04
 -1      7559 9.37831E-02-1.03971E-01-1.96706E-04
 -1      7560 9.69529E-02-1.03028E-01-8.63383E-05
 -1      7561 9.71650E-02-1.10042E-01-1.44461E-13
 -1      7562 9.37554E-02-1.03961E-01-1.50658E-13
 -1      7563 9.69529E-02-1.03028E-01 8.63383E-05
 -1      7564 9.71868E-02-1.10058E-01 2.30517E-04
 -1      7565 9.37831E-02-1.03971E-01 1.96706E-04
 -1      7566 9.69956E-02-1.03047E-01 2.60840E-04
 -1      7567 9.72500E-02-1.10110E-01 4.59718E-04
 -1      7568 9.38638E-02-1.03999E-01 3.93450E-04
 -1      7569 9.70770E-02-1.03084E-01 4.37242E-04
 -1      7570 9.43160E-02-8.83553E-02-1.49617E-04
 -1      7571 9.57770E-02-9.58014E-02-2.33358E-04
 -1      7572 9.11082E-02-8.93543E-02-1.17135E-04
 -1      7573 9.42529E-02-8.83731E-02-8.94153E-05
 -1      7574 9.57193E-02-9.57961E-02-1.16306E-04
 -1      7575 9.10518E-02-8.93732E-02-5.85386E-05
 -1      7576 9.42205E-02-8.83815E-02-2.97062E-05
 -1      7577 9.56994E-02-9.57943E-02-1.64633E-13
 -1      7578 9.10325E-02-8.93796E-02-1.68492E-13
 -1      7579 9.42205E-02-8.83815E-02 2.97062E-05
 -1      7580 9.57193E-02-9.57961E-02 1.16306E-04
 -1      7581 9.10518E-02-8.93732E-02 5.85386E-05
 -1      7582 9.42529E-02-8.83731E-02 8.94153E-05
 -1      7583 9.57770E-02-9.58014E-02 2.33358E-04
 -1      7584 9.11082E-02-8.93543E-02 1.17135E-04
 -1      7585 9.43160E-02-8.83553E-02 1.49617E-04
 -1      7586 8.94726E-02-7.41888E-02 8.11265E-05
 -1      7587 9.18993E-02-8.12236E-02-1.89821E-05
 -1      7588 8.63648E-02-7.54209E-02 8.98173E-05
 -1      7589 8.94395E-02-7.42303E-02 4.85789E-05
 -1      7590 9.18622E-02-8.12484E-02-9.59184E-06
 -1      7591 8.63374E-02-7.54584E-02 4.47121E-05
 -1      7592 8.94225E-02-7.42507E-02 1.62522E-05
 -1      7593 9.18498E-02-8.12566E-02-1.81167E-13
 -1      7594 8.63281E-02-7.54708E-02-1.82275E-13
 -1      7595 8.94225E-02-7.42507E-02-1.62522E-05
 -1      7596 9.18622E-02-8.12484E-02 9.59184E-06
 -1      7597 8.63374E-02-7.54584E-02-4.47121E-05
 -1      7598 8.94395E-02-7.42303E-02-4.85789E-05
 -1      7599 9.18993E-02-8.12236E-02 1.89821E-05
 -1      7600 8.63648E-02-7.54209E-02-8.98173E-05
 -1      7601 8.94726E-02-7.41888E-02-8.11265E-05
 -1      7602 8.32383E-02-6.13111E-02 2.38382E-04
 -1      7603 8.63130E-02-6.76819E-02 1.35807E-04
 -1      7604 8.03707E-02-6.28353E-02 2.23862E-04
 -1      7605 8.32292E-02-6.13572E-02 1.42924E-04
 -1      7606 8.62976E-02-6.77158E-02 6.78302E-05
 -1      7607 8.03641E-02-6.28741E-02 1.11811E-04
 -1      7608 8.32244E-02-6.13801E-02 4.76711E-05
 -1      7609 8.62923E-02-6.77270E-02-1.93852E-13
 -1      7610 8.03618E-02-6.28870E-02-1.92681E-13
 -1      7611 8.32244E-02-6.13801E-02-4.76711E-05
 -1      7612 8.62976E-02-6.77158E-02-6.78302E-05
 -1      7613 8.03641E-02-6.28741E-02-1.11811E-04
 -1      7614 8.32292E-02-6.13572E-02-1.42924E-04
 -1      7615 8.63130E-02-6.76819E-02-1.35807E-04
 -1      7616 8.03707E-02-6.28353E-02-2.23862E-04
 -1      7617 8.32383E-02-6.13111E-02-2.38382E-04
 -1      7618 7.60394E-02-4.98838E-02 3.43172E-04
 -1      7619 7.95813E-02-5.55367E-02 2.38673E-04
 -1      7620 7.35072E-02-5.16710E-02 3.11025E-04
 -1      7621 7.60468E-02-4.99280E-02 2.05828E-04
 -1      7622 7.95810E-02-5.55709E-02 1.19280E-04
 -1      7623 7.35134E-02-5.17070E-02 1.55436E-04
 -1      7624 7.60503E-02-4.99500E-02 6.86355E-05
 -1      7625 7.95809E-02-5.55822E-02-2.03190E-13
 -1      7626 7.35154E-02-5.17190E-02-1.99837E-13
 -1      7627 7.60503E-02-4.99500E-02-6.86355E-05
 -1      7628 7.95810E-02-5.55709E-02-1.19280E-04
 -1      7629 7.35134E-02-5.17070E-02-1.55436E-04
 -1      7630 7.60468E-02-4.99280E-02-2.05828E-04
 -1      7631 7.95813E-02-5.55367E-02-2.38673E-04
 -1      7632 7.35072E-02-5.16710E-02-3.11025E-04
 -1      7633 7.60394E-02-4.98838E-02-3.43172E-04
 -1      7634 6.81486E-02-3.99486E-02 4.16214E-04
 -1      7635 7.20327E-02-4.48627E-02 3.08367E-04
 -1      7636 6.59988E-02-4.19335E-02 3.71769E-04
 -1      7637 6.81678E-02-3.99893E-02 2.49697E-04
 -1      7638 7.20429E-02-4.48948E-02 1.54142E-04
 -1      7639 6.60141E-02-4.19662E-02 1.85853E-04
 -1      7640 6.81773E-02-4.00096E-02 8.32526E-05
 -1      7641 7.20463E-02-4.49054E-02-2.08858E-13
 -1      7642 6.60191E-02-4.19770E-02-2.03539E-13
 -1      7643 6.81773E-02-4.00096E-02-8.32526E-05
 -1      7644 7.20429E-02-4.48948E-02-1.54142E-04
 -1      7645 6.60141E-02-4.19662E-02-1.85853E-04
 -1      7646 6.81678E-02-3.99893E-02-2.49697E-04
 -1      7647 7.20327E-02-4.48627E-02-3.08367E-04
 -1      7648 6.59988E-02-4.19335E-02-3.71769E-04
 -1      7649 6.81486E-02-3.99486E-02-4.16214E-04
 -1      7650 5.98143E-02-3.15351E-02 4.70137E-04
 -1      7651 6.39166E-02-3.56931E-02 3.58406E-04
 -1      7652 5.80628E-02-3.36412E-02 4.17219E-04
 -1      7653 5.98431E-02-3.15716E-02 2.82068E-04
 -1      7654 6.39348E-02-3.57222E-02 1.79177E-04
 -1      7655 5.80854E-02-3.36705E-02 2.08599E-04
 -1      7656 5.98574E-02-3.15898E-02 9.40363E-05
 -1      7657 6.39408E-02-3.57319E-02-2.10857E-13
 -1      7658 5.80928E-02-3.36802E-02-2.03619E-13
 -1      7659 5.98574E-02-3.15898E-02-9.40363E-05
 -1      7660 6.39348E-02-3.57222E-02-1.79177E-04
 -1      7661 5.80854E-02-3.36705E-02-2.08599E-04
 -1      7662 5.98431E-02-3.15716E-02-2.82068E-04
 -1      7663 6.39166E-02-3.56931E-02-3.58406E-04
 -1      7664 5.80628E-02-3.36412E-02-4.17219E-04
 -1      7665 5.98143E-02-3.15351E-02-4.70137E-04
 -1      7666 5.13007E-02-2.46487E-02 5.11264E-04
 -1      7667 5.54868E-02-2.80475E-02 3.96140E-04
 -1      7668 4.99431E-02-2.67996E-02 4.52456E-04
 -1      7669 5.13376E-02-2.46802E-02 3.06751E-04
 -1      7670 5.55116E-02-2.80732E-02 1.98055E-04
 -1      7671 4.99720E-02-2.68248E-02 2.26228E-04
 -1      7672 5.13561E-02-2.46959E-02 1.02259E-04
 -1      7673 5.55198E-02-2.80818E-02-2.09124E-13
 -1      7674 4.99816E-02-2.68332E-02-2.00267E-13
 -1      7675 5.13561E-02-2.46959E-02-1.02259E-04
 -1      7676 5.55116E-02-2.80732E-02-1.98055E-04
 -1      7677 4.99720E-02-2.68248E-02-2.26228E-04
 -1      7678 5.13376E-02-2.46802E-02-3.06751E-04
 -1      7679 5.54868E-02-2.80475E-02-3.96140E-04
 -1      7680 4.99431E-02-2.67996E-02-4.52456E-04
 -1      7681 5.13007E-02-2.46487E-02-5.11264E-04
 -1      7682 4.28827E-02-1.92495E-02 5.42338E-04
 -1      7683 4.70135E-02-2.19108E-02 4.24986E-04
 -1      7684 4.18995E-02-2.13728E-02 4.79449E-04
 -1      7685 4.29265E-02-1.92746E-02 3.25398E-04
 -1      7686 4.70440E-02-2.19323E-02 2.12485E-04
 -1      7687 4.19338E-02-2.13930E-02 2.39729E-04
 -1      7688 4.29484E-02-1.92872E-02 1.08471E-04
 -1      7689 4.70541E-02-2.19394E-02-2.03660E-13
 -1      7690 4.19452E-02-2.13997E-02-1.93382E-13
 -1      7691 4.29484E-02-1.92872E-02-1.08471E-04
 -1      7692 4.70440E-02-2.19323E-02-2.12485E-04
 -1      7693 4.19338E-02-2.13930E-02-2.39729E-04
 -1      7694 4.29265E-02-1.92746E-02-3.25398E-04
 -1      7695 4.70135E-02-2.19108E-02-4.24986E-04
 -1      7696 4.18995E-02-2.13728E-02-4.79449E-04
 -1      7697 4.28827E-02-1.92495E-02-5.42338E-04
 -1      7698 3.48271E-02-1.52409E-02 5.64262E-04
 -1      7699 3.87694E-02-1.72154E-02 4.46255E-04
 -1      7700 3.41862E-02-1.72720E-02 4.98686E-04
 -1      7701 3.48762E-02-1.52585E-02 3.38554E-04
 -1      7702 3.88044E-02-1.72316E-02 2.23124E-04
 -1      7703 3.42247E-02-1.72861E-02 2.49349E-04
 -1      7704 3.49007E-02-1.52673E-02 1.12855E-04
 -1      7705 3.88161E-02-1.72370E-02-1.94839E-13
 -1      7706 3.42376E-02-1.72908E-02-1.83442E-13
 -1      7707 3.49007E-02-1.52673E-02-1.12855E-04
 -1      7708 3.88044E-02-1.72316E-02-2.23124E-04
 -1      7709 3.42247E-02-1.72861E-02-2.49349E-04
 -1      7710 3.48762E-02-1.52585E-02-3.38554E-04
 -1      7711 3.87694E-02-1.72154E-02-4.46255E-04
 -1      7712 3.41862E-02-1.72720E-02-4.98686E-04
 -1      7713 3.48271E-02-1.52409E-02-5.64262E-04
 -1      7714 2.73724E-02-1.24710E-02 5.77126E-04
 -1      7715 3.10084E-02-1.38370E-02 4.60259E-04
 -1      7716 2.70316E-02-1.43554E-02 5.10063E-04
 -1      7717 2.74248E-02-1.24799E-02 3.46273E-04
 -1      7718 3.10468E-02-1.38471E-02 2.30128E-04
 -1      7719 2.70728E-02-1.43626E-02 2.55039E-04
 -1      7720 2.74510E-02-1.24844E-02 1.15426E-04
 -1      7721 3.10595E-02-1.38505E-02-1.82923E-13
 -1      7722 2.70866E-02-1.43650E-02-1.70757E-13
 -1      7723 2.74510E-02-1.24844E-02-1.15426E-04
 -1      7724 3.10468E-02-1.38471E-02-2.30128E-04
 -1      7725 2.70728E-02-1.43626E-02-2.55039E-04
 -1      7726 2.74248E-02-1.24799E-02-3.46273E-04
 -1      7727 3.10084E-02-1.38370E-02-4.60259E-04
 -1      7728 2.70316E-02-1.43554E-02-5.10063E-04
 -1      7729 2.73724E-02-1.24710E-02-5.77126E-04
 -1      7730 2.07122E-02-1.07414E-02 5.80739E-04
 -1      7731 2.39478E-02-1.15998E-02 4.66913E-04
 -1      7732 2.06216E-02-1.24367E-02 5.13318E-04
 -1      7733 2.07657E-02-1.07412E-02 3.48441E-04
 -1      7734 2.39878E-02-1.16031E-02 2.33456E-04
 -1      7735 2.06637E-02-1.24365E-02 2.56665E-04
 -1      7736 2.07925E-02-1.07410E-02 1.16148E-04
 -1      7737 2.40012E-02-1.16042E-02-1.68559E-13
 -1      7738 2.06777E-02-1.24364E-02-1.55998E-13
 -1      7739 2.07925E-02-1.07410E-02-1.16148E-04
 -1      7740 2.39878E-02-1.16031E-02-2.33456E-04
 -1      7741 2.06637E-02-1.24365E-02-2.56665E-04
 -1      7742 2.07657E-02-1.07412E-02-3.48441E-04
 -1      7743 2.39478E-02-1.15998E-02-4.66913E-04
 -1      7744 2.06216E-02-1.24367E-02-5.13318E-04
 -1      7745 2.07122E-02-1.07414E-02-5.80739E-04
 -1      7746 1.49837E-02-9.82149E-03 5.74908E-04
 -1      7747 1.77534E-02-1.02883E-02 4.66036E-04
 -1      7748 1.50886E-02-1.12989E-02 5.08233E-04
 -1      7749 1.50360E-02-9.81199E-03 3.44943E-04
 -1      7750 1.77934E-02-1.02846E-02 2.33020E-04
 -1      7751 1.51297E-02-1.12913E-02 2.54121E-04
 -1      7752 1.50621E-02-9.80724E-03 1.14981E-04
 -1      7753 1.78068E-02-1.02833E-02-1.52352E-13
 -1      7754 1.51434E-02-1.12887E-02-1.39772E-13
 -1      7755 1.50621E-02-9.80724E-03-1.14981E-04
 -1      7756 1.77934E-02-1.02846E-02-2.33020E-04
 -1      7757 1.51297E-02-1.12913E-02-2.54121E-04
 -1      7758 1.50360E-02-9.81199E-03-3.44943E-04
 -1      7759 1.77534E-02-1.02883E-02-4.66036E-04
 -1      7760 1.50886E-02-1.12989E-02-5.08233E-04
 -1      7761 1.49837E-02-9.82149E-03-5.74908E-04
 -1      7762 1.02618E-02-9.46471E-03 5.59560E-04
 -1      7763 1.25317E-02-9.66292E-03 4.57514E-04
 -1      7764 1.05062E-02-1.07095E-02 4.94728E-04
 -1      7765 1.03105E-02-9.44657E-03 3.35735E-04
 -1      7766 1.25698E-02-9.65242E-03 2.28760E-04
 -1      7767 1.05445E-02-1.06949E-02 2.47365E-04
 -1      7768 1.03348E-02-9.43750E-03 1.11910E-04
 -1      7769 1.25825E-02-9.64892E-03-1.34871E-13
 -1      7770 1.05572E-02-1.06900E-02-1.22499E-13
 -1      7771 1.03348E-02-9.43750E-03-1.11910E-04
 -1      7772 1.25698E-02-9.65242E-03-2.28760E-04
 -1      7773 1.05445E-02-1.06949E-02-2.47365E-04
 -1      7774 1.03105E-02-9.44657E-03-3.35735E-04
 -1      7775 1.25317E-02-9.66292E-03-4.57514E-04
 -1      7776 1.05062E-02-1.07095E-02-4.94728E-04
 -1      7777 1.02618E-02-9.46471E-03-5.59560E-04
 -1      7778 6.55843E-03-9.42589E-03 5.34796E-04
 -1      7779 8.32573E-03-9.47687E-03 4.41352E-04
 -1      7780 6.88833E-03-1.04367E-02 4.72888E-04
 -1      7781 6.60134E-03-9.40030E-03 3.20879E-04
 -1      7782 8.36034E-03-9.46026E-03 2.20682E-04
 -1      7783 6.92196E-03-1.04161E-02 2.36437E-04
 -1      7784 6.62280E-03-9.38751E-03 1.06955E-04
 -1      7785 8.37188E-03-9.45473E-03-1.16541E-13
 -1      7786 6.93317E-03-1.04092E-02-1.04629E-13
 -1      7787 6.62280E-03-9.38751E-03-1.06955E-04
 -1      7788 8.36034E-03-9.46026E-03-2.20682E-04
 -1      7789 6.92196E-03-1.04161E-02-2.36437E-04
 -1      7790 6.60134E-03-9.40030E-03-3.20879E-04
 -1      7791 8.32573E-03-9.47687E-03-4.41352E-04
 -1      7792 6.88833E-03-1.04367E-02-4.72888E-04
 -1      7793 6.55843E-03-9.42589E-03-5.34796E-04
 -1      7794 3.82630E-03-9.47726E-03 5.00903E-04
 -1      7795 5.11756E-03-9.49281E-03 4.17705E-04
 -1      7796 4.19285E-03-1.02652E-02 4.42968E-04
 -1      7797 3.86172E-03-9.44594E-03 3.00548E-04
 -1      7798 5.14715E-03-9.47120E-03 2.08864E-04
 -1      7799 4.22044E-03-1.02399E-02 2.21460E-04
 -1      7800 3.87944E-03-9.43028E-03 1.00172E-04
 -1      7801 5.15701E-03-9.46399E-03-9.80762E-14
 -1      7802 4.22965E-03-1.02315E-02-8.70122E-14
 -1      7803 3.87944E-03-9.43028E-03-1.00172E-04
 -1      7804 5.14715E-03-9.47120E-03-2.08864E-04
 -1      7805 4.22044E-03-1.02399E-02-2.21460E-04
 -1      7806 3.86172E-03-9.44594E-03-3.00548E-04
 -1      7807 5.11756E-03-9.49281E-03-4.17705E-04
 -1      7808 4.19285E-03-1.02652E-02-4.42968E-04
 -1      7809 3.82630E-03-9.47726E-03-5.00903E-04
 -1      7810 1.96702E-03-9.42272E-03 4.58357E-04
 -1      7811 2.83375E-03-9.49811E-03 3.86877E-04
 -1      7812 2.32933E-03-1.00087E-02 4.05388E-04
 -1      7813 1.99369E-03-9.38780E-03 2.75029E-04
 -1      7814 2.85718E-03-9.47296E-03 1.93461E-04
 -1      7815 2.34985E-03-9.98051E-03 2.02637E-04
 -1      7816 2.00703E-03-9.37035E-03 9.16550E-05
 -1      7817 2.86498E-03-9.46457E-03-8.02074E-14
 -1      7818 2.35671E-03-9.97113E-03-7.02589E-14
 -1      7819 2.00703E-03-9.37035E-03-9.16550E-05
 -1      7820 2.85718E-03-9.47296E-03-1.93461E-04
 -1      7821 2.34985E-03-9.98051E-03-2.02637E-04
 -1      7822 1.99369E-03-9.38780E-03-2.75029E-04
 -1      7823 2.83375E-03-9.49811E-03-3.86877E-04
 -1      7824 2.32933E-03-1.00087E-02-4.05388E-04
 -1      7825 1.96702E-03-9.42272E-03-4.58357E-04
 -1      7826 8.41673E-04-9.10922E-03 4.07857E-04
 -1      7827 1.35500E-03-9.31764E-03 3.49329E-04
 -1      7828 1.16892E-03-9.52133E-03 3.60753E-04
 -1      7829 8.58904E-04-9.07314E-03 2.44748E-04
 -1      7830 1.37153E-03-9.29067E-03 1.74709E-04
 -1      7831 1.18180E-03-9.49222E-03 1.80256E-04
 -1      7832 8.67537E-04-9.05512E-03 8.15397E-05
 -1      7833 1.37701E-03-9.28168E-03-6.34044E-14
 -1      7834 1.18615E-03-9.48253E-03-5.45998E-14
 -1      7835 8.67537E-04-9.05512E-03-8.15397E-05
 -1      7836 1.37153E-03-9.29067E-03-1.74709E-04
 -1      7837 1.18180E-03-9.49222E-03-1.80256E-04
 -1      7838 8.58904E-04-9.07314E-03-2.44748E-04
 -1      7839 1.35500E-03-9.31764E-03-3.49329E-04
 -1      7840 1.16892E-03-9.52133E-03-3.60753E-04
 -1      7841 8.41673E-04-9.10922E-03-4.07857E-04
 -1      7842 2.83193E-04-8.43526E-03 3.50427E-04
 -1      7843 5.27672E-04-8.82368E-03 3.05729E-04
 -1      7844 5.55827E-04-8.70520E-03 3.09955E-04
 -1      7845 2.91014E-04-8.40063E-03 2.10324E-04
 -1      7846 5.37055E-04-8.79682E-03 1.52952E-04
 -1      7847 5.61046E-04-8.67728E-03 1.54728E-04
 -1      7848 2.94959E-04-8.38333E-03 7.00227E-05
 -1      7849 5.40139E-04-8.78786E-03-4.78569E-14
 -1      7850 5.62913E-04-8.66798E-03-4.01663E-14
 -1      7851 2.94959E-04-8.38333E-03-7.00227E-05
 -1      7852 5.37055E-04-8.79682E-03-1.52952E-04
 -1      7853 5.61046E-04-8.67728E-03-1.54728E-04
 -1      7854 2.91014E-04-8.40063E-03-2.10324E-04
 -1      7855 5.27672E-04-8.82368E-03-3.05729E-04
 -1      7856 5.55827E-04-8.70520E-03-3.09955E-04
 -1      7857 2.83193E-04-8.43526E-03-3.50427E-04
 -1      7858 1.09252E-04-7.35674E-03 2.87726E-04
 -1      7859 1.76500E-04-7.94298E-03 2.57091E-04
 -1      7860 3.18816E-04-7.51586E-03 2.54448E-04
 -1      7861 1.08521E-04-7.32615E-03 1.72799E-04
 -1      7862 1.79077E-04-7.91820E-03 1.28717E-04
 -1      7863 3.17008E-04-7.49130E-03 1.26730E-04
 -1      7864 1.08206E-04-7.31089E-03 5.74375E-05
 -1      7865 1.79849E-04-7.90994E-03-3.39319E-14
 -1      7866 3.16657E-04-7.48311E-03-2.75278E-14
 -1      7867 1.08206E-04-7.31089E-03-5.74375E-05
 -1      7868 1.79077E-04-7.91820E-03-1.28717E-04
 -1      7869 3.17008E-04-7.49130E-03-1.26730E-04
 -1      7870 1.08521E-04-7.32615E-03-1.72799E-04
 -1      7871 1.76500E-04-7.94298E-03-2.57091E-04
 -1      7872 3.18816E-04-7.51586E-03-2.54448E-04
 -1      7873 1.09252E-04-7.35674E-03-2.87726E-04
 -1      7874 1.35703E-04-5.89033E-03 2.22663E-04
 -1      7875 1.17540E-04-6.66140E-03 2.05154E-04
 -1      7876 2.82822E-04-5.96638E-03 1.96973E-04
 -1      7877 1.28401E-04-5.86605E-03 1.33939E-04
 -1      7878 1.14376E-04-6.64058E-03 1.02904E-04
 -1      7879 2.75446E-04-5.94723E-03 9.75545E-05
 -1      7880 1.24809E-04-5.85398E-03 4.43461E-05
 -1      7881 1.13154E-04-6.63366E-03-2.21043E-14
 -1      7882 2.73466E-04-5.94079E-03-1.70825E-14
 -1      7883 1.24809E-04-5.85398E-03-4.43461E-05
 -1      7884 1.14376E-04-6.64058E-03-1.02904E-04
 -1      7885 2.75446E-04-5.94723E-03-9.75545E-05
 -1      7886 1.28401E-04-5.86605E-03-1.33939E-04
 -1      7887 1.17540E-04-6.66140E-03-2.05154E-04
 -1      7888 2.82822E-04-5.96638E-03-1.96973E-04
 -1      7889 1.35703E-04-5.89033E-03-2.22663E-04
 -1      7890 1.94828E-04-4.11192E-03 1.60682E-04
 -1      7891 1.72579E-04-5.02569E-03 1.53167E-04
 -1      7892 2.83868E-04-4.12889E-03 1.42984E-04
 -1      7893 1.83924E-04-4.09501E-03 9.76706E-05
 -1      7894 1.65743E-04-5.01024E-03 7.72317E-05
 -1      7895 2.72903E-04-4.11635E-03 7.00679E-05
 -1      7896 1.78020E-04-4.08670E-03 3.21430E-05
 -1      7897 1.63133E-04-5.00513E-03-1.26247E-14
 -1      7898 2.70017E-04-4.11207E-03-8.92670E-15
 -1      7899 1.78020E-04-4.08670E-03-3.21430E-05
 -1      7900 1.65743E-04-5.01024E-03-7.72317E-05
 -1      7901 2.72903E-04-4.11635E-03-7.00679E-05
 -1      7902 1.83924E-04-4.09501E-03-9.76706E-05
 -1      7903 1.72579E-04-5.02569E-03-1.53167E-04
 -1      7904 2.83868E-04-4.12889E-03-1.42984E-04
 -1      7905 1.94828E-04-4.11192E-03-1.60682E-04
 -1      7906 1.65152E-04-2.13119E-03 1.06033E-04
 -1      7907 1.92752E-04-3.13405E-03 1.06663E-04
 -1      7908 2.02111E-04-2.11776E-03 9.82282E-05
 -1      7909 1.52531E-04-2.12111E-03 6.67457E-05
 -1      7910 1.84092E-04-3.12408E-03 5.43687E-05
 -1      7911 1.86700E-04-2.11117E-03 4.81119E-05
 -1      7912 1.43990E-04-2.11642E-03 2.19617E-05
 -1      7913 1.80539E-04-3.12084E-03-5.51473E-15
 -1      7914 1.82256E-04-2.10897E-03-3.03502E-15
 -1      7915 1.43990E-04-2.11642E-03-2.19617E-05
 -1      7916 1.84092E-04-3.12408E-03-5.43687E-05
 -1      7917 1.86700E-04-2.11117E-03-4.81119E-05
 -1      7918 1.52531E-04-2.12111E-03-6.67457E-05
 -1      7919 1.92752E-04-3.13405E-03-1.06663E-04
 -1      7920 2.02111E-04-2.11776E-03-9.82282E-05
 -1      7921 1.65152E-04-2.13119E-03-1.06033E-04
 -1      7922 9.06488E-05-1.08539E-03 5.55571E-05
 -1      7923 8.29279E-05-1.08131E-03 2.58642E-05
 -1      7924 8.08510E-05-1.08011E-03-8.80026E-16
 -1      7925 8.29279E-05-1.08131E-03-2.58642E-05
 -1      7926 9.06488E-05-1.08539E-03-5.55571E-05
 -1      7927 1.03279E-01-1.01405E-01-3.38308E-04
 -1      7928 1.03515E-01-1.08537E-01-3.39455E-04
 -1      7929 1.00157E-01-1.02198E-01-3.07357E-04
 -1      7930 1.03229E-01-1.01372E-01-2.02276E-04
 -1      7931 1.03479E-01-1.08496E-01-1.69486E-04
 -1      7932 1.00108E-01-1.02171E-01-1.53105E-04
 -1      7933 1.03203E-01-1.01356E-01-6.72174E-05
 -1      7934 1.03466E-01-1.08483E-01-1.53100E-13
 -1      7935 1.00091E-01-1.02163E-01-1.59777E-13
 -1      7936 1.03203E-01-1.01356E-01 6.72174E-05
 -1      7937 1.03479E-01-1.08496E-01 1.69486E-04
 -1      7938 1.00108E-01-1.02171E-01 1.53105E-04
 -1      7939 1.03229E-01-1.01372E-01 2.02276E-04
 -1      7940 1.03515E-01-1.08537E-01 3.39455E-04
 -1      7941 1.00157E-01-1.02198E-01 3.07357E-04
 -1      7942 1.03279E-01-1.01405E-01 3.38308E-04
 -1      7943 1.00485E-01-8.64490E-02-1.40607E-04
 -1      7944 1.01964E-01-9.40203E-02-1.94192E-04
 -1      7945 9.73964E-02-8.74037E-02-1.17602E-04
 -1      7946 1.00440E-01-8.64552E-02-8.43816E-05
 -1      7947 1.01926E-01-9.40115E-02-9.68047E-05
 -1      7948 9.73554E-02-8.74113E-02-5.85661E-05
 -1      7949 1.00417E-01-8.64581E-02-2.81334E-05
 -1      7950 1.01913E-01-9.40086E-02-1.74517E-13
 -1      7951 9.73419E-02-8.74139E-02-1.79010E-13
 -1      7952 1.00417E-01-8.64581E-02 2.81334E-05
 -1      7953 1.01926E-01-9.40115E-02 9.68047E-05
 -1      7954 9.73554E-02-8.74113E-02 5.85661E-05
 -1      7955 1.00440E-01-8.64552E-02 8.43816E-05
 -1      7956 1.01964E-01-9.40203E-02 1.94192E-04
 -1      7957 9.73964E-02-8.74037E-02 1.17602E-04
 -1      7958 1.00485E-01-8.64490E-02 1.40607E-04
 -1      7959 9.54788E-02-7.18323E-02 3.79100E-05
 -1      7960 9.80092E-02-7.91082E-02-3.69396E-05
 -1      7961 9.24857E-02-7.30251E-02 4.53464E-05
 -1      7962 9.54515E-02-7.18602E-02 2.27095E-05
 -1      7963 9.79812E-02-7.91228E-02-1.84838E-05
 -1      7964 9.24627E-02-7.30502E-02 2.27245E-05
 -1      7965 9.54380E-02-7.18741E-02 7.56214E-06
 -1      7966 9.79719E-02-7.91277E-02-1.92450E-13
 -1      7967 9.24551E-02-7.30587E-02-1.94252E-13
 -1      7968 9.54380E-02-7.18741E-02-7.56214E-06
 -1      7969 9.79812E-02-7.91228E-02 1.84838E-05
 -1      7970 9.24627E-02-7.30502E-02-2.27245E-05
 -1      7971 9.54515E-02-7.18602E-02-2.27095E-05
 -1      7972 9.80092E-02-7.91082E-02 3.69396E-05
 -1      7973 9.24857E-02-7.30251E-02-4.53464E-05
 -1      7974 9.54788E-02-7.18323E-02-3.79100E-05
 -1      7975 8.88374E-02-5.83908E-02 1.70565E-04
 -1      7976 9.21348E-02-6.50396E-02 8.90057E-05
 -1      7977 8.60527E-02-5.98652E-02 1.61695E-04
 -1      7978 8.88287E-02-5.84266E-02 1.02313E-04
 -1      7979 9.21216E-02-6.50648E-02 4.45107E-05
 -1      7980 8.60457E-02-5.98955E-02 8.08860E-05
 -1      7981 8.88245E-02-5.84446E-02 3.40959E-05
 -1      7982 9.21172E-02-6.50732E-02-2.06488E-13
 -1      7983 8.60434E-02-5.99057E-02-2.05931E-13
 -1      7984 8.88245E-02-5.84446E-02-3.40959E-05
 -1      7985 9.21216E-02-6.50648E-02-4.45107E-05
 -1      7986 8.60457E-02-5.98955E-02-8.08860E-05
 -1      7987 8.88287E-02-5.84266E-02-1.02313E-04
 -1      7988 9.21348E-02-6.50396E-02-8.90057E-05
 -1      7989 8.60527E-02-5.98652E-02-1.61695E-04
 -1      7990 8.88374E-02-5.83908E-02-1.70565E-04
 -1      7991 8.10388E-02-4.64395E-02 2.63160E-04
 -1      7992 8.48889E-02-5.23402E-02 1.78531E-04
 -1      7993 7.85544E-02-4.81739E-02 2.41107E-04
 -1      7994 8.10448E-02-4.64764E-02 1.57895E-04
 -1      7995 8.48884E-02-5.23681E-02 8.92632E-05
 -1      7996 7.85592E-02-4.82041E-02 1.20587E-04
 -1      7997 8.10479E-02-4.64948E-02 5.26277E-05
 -1      7998 8.48882E-02-5.23774E-02-2.16785E-13
 -1      7999 7.85608E-02-4.82142E-02-2.13887E-13
 -1      8000 8.10479E-02-4.64948E-02-5.26277E-05
 -1      8001 8.48884E-02-5.23681E-02-8.92632E-05
 -1      8002 7.85592E-02-4.82041E-02-1.20587E-04
 -1      8003 8.10448E-02-4.64764E-02-1.57895E-04
 -1      8004 8.48889E-02-5.23402E-02-1.78531E-04
 -1      8005 7.85544E-02-4.81739E-02-2.41107E-04
 -1      8006 8.10388E-02-4.64395E-02-2.63160E-04
 -1      8007 7.24386E-02-3.61002E-02 3.28198E-04
 -1      8008 7.66770E-02-4.11998E-02 2.40738E-04
 -1      8009 7.03089E-02-3.80355E-02 2.96623E-04
 -1      8010 7.24560E-02-3.61353E-02 1.96918E-04
 -1      8011 7.66861E-02-4.12272E-02 1.20372E-04
 -1      8012 7.03225E-02-3.80638E-02 1.48338E-04
 -1      8013 7.24647E-02-3.61529E-02 6.56364E-05
 -1      8014 7.66891E-02-4.12363E-02-2.23218E-13
 -1      8015 7.03271E-02-3.80733E-02-2.17965E-13
 -1      8016 7.24647E-02-3.61529E-02-6.56364E-05
 -1      8017 7.66861E-02-4.12272E-02-1.20372E-04
 -1      8018 7.03225E-02-3.80638E-02-1.48338E-04
 -1      8019 7.24560E-02-3.61353E-02-1.96918E-04
 -1      8020 7.66770E-02-4.11998E-02-2.40738E-04
 -1      8021 7.03089E-02-3.80355E-02-2.96623E-04
 -1      8022 7.24386E-02-3.61002E-02-3.28198E-04
 -1      8023 6.33486E-02-2.74296E-02 3.75342E-04
 -1      8024 6.78223E-02-3.17003E-02 2.85065E-04
 -1      8025 6.15975E-02-2.94926E-02 3.37178E-04
 -1      8026 6.33750E-02-2.74616E-02 2.25203E-04
 -1      8027 6.78390E-02-3.17257E-02 1.42536E-04
 -1      8028 6.16181E-02-2.95182E-02 1.68606E-04
 -1      8029 6.33883E-02-2.74776E-02 7.50656E-05
 -1      8030 6.78445E-02-3.17341E-02-2.25354E-13
 -1      8031 6.16250E-02-2.95267E-02-2.18079E-13
 -1      8032 6.33883E-02-2.74776E-02-7.50656E-05
 -1      8033 6.78390E-02-3.17257E-02-1.42536E-04
 -1      8034 6.16181E-02-2.95182E-02-1.68606E-04
 -1      8035 6.33750E-02-2.74616E-02-2.25203E-04
 -1      8036 6.78223E-02-3.17003E-02-2.85065E-04
 -1      8037 6.15975E-02-2.94926E-02-3.37178E-04
 -1      8038 6.33486E-02-2.74296E-02-3.75342E-04
 -1      8039 5.40772E-02-2.04365E-02 4.10358E-04
 -1      8040 5.86316E-02-2.38747E-02 3.17692E-04
 -1      8041 5.27063E-02-2.25518E-02 3.67674E-04
 -1      8042 5.41113E-02-2.04641E-02 2.46212E-04
 -1      8043 5.86545E-02-2.38972E-02 1.58848E-04
 -1      8044 5.27329E-02-2.25739E-02 1.83847E-04
 -1      8045 5.41283E-02-2.04779E-02 8.20692E-05
 -1      8046 5.86621E-02-2.39048E-02-2.23400E-13
 -1      8047 5.27417E-02-2.25812E-02-2.14284E-13
 -1      8048 5.41283E-02-2.04779E-02-8.20692E-05
 -1      8049 5.86545E-02-2.38972E-02-1.58848E-04
 -1      8050 5.27329E-02-2.25739E-02-1.83847E-04
 -1      8051 5.41113E-02-2.04641E-02-2.46212E-04
 -1      8052 5.86316E-02-2.38747E-02-3.17692E-04
 -1      8053 5.27063E-02-2.25518E-02-3.67674E-04
 -1      8054 5.40772E-02-2.04365E-02-4.10358E-04
 -1      8055 4.49326E-02-1.50725E-02 4.36178E-04
 -1      8056 4.94132E-02-1.77047E-02 3.41981E-04
 -1      8057 4.39266E-02-1.71686E-02 3.90424E-04
 -1      8058 4.49729E-02-1.50946E-02 2.61702E-04
 -1      8059 4.94412E-02-1.77235E-02 1.70991E-04
 -1      8060 4.39581E-02-1.71863E-02 1.95217E-04
 -1      8061 4.49930E-02-1.51056E-02 8.72332E-05
 -1      8062 4.94506E-02-1.77298E-02-2.17375E-13
 -1      8063 4.39685E-02-1.71922E-02-2.06722E-13
 -1      8064 4.49930E-02-1.51056E-02-8.72332E-05
 -1      8065 4.94412E-02-1.77235E-02-1.70991E-04
 -1      8066 4.39581E-02-1.71863E-02-1.95217E-04
 -1      8067 4.49729E-02-1.50946E-02-2.61702E-04
 -1      8068 4.94132E-02-1.77047E-02-3.41981E-04
 -1      8069 4.39266E-02-1.71686E-02-3.90424E-04
 -1      8070 4.49326E-02-1.50725E-02-4.36178E-04
 -1      8071 3.62079E-02-1.12263E-02 4.54054E-04
 -1      8072 4.04690E-02-1.31111E-02 3.59505E-04
 -1      8073 3.55379E-02-1.32391E-02 4.06322E-04
 -1      8074 3.62528E-02-1.12417E-02 2.72427E-04
 -1      8075 4.05012E-02-1.31253E-02 1.79752E-04
 -1      8076 3.55731E-02-1.32514E-02 2.03164E-04
 -1      8077 3.62753E-02-1.12494E-02 9.08086E-05
 -1      8078 4.05119E-02-1.31300E-02-2.07649E-13
 -1      8079 3.55848E-02-1.32555E-02-1.95781E-13
 -1      8080 3.62753E-02-1.12494E-02-9.08086E-05
 -1      8081 4.05012E-02-1.31253E-02-1.79752E-04
 -1      8082 3.55731E-02-1.32514E-02-2.03164E-04
 -1      8083 3.62528E-02-1.12417E-02-2.72427E-04
 -1      8084 4.04690E-02-1.31111E-02-3.59505E-04
 -1      8085 3.55379E-02-1.32391E-02-4.06322E-04
 -1      8086 3.62079E-02-1.12263E-02-4.54054E-04
 -1      8087 2.81622E-02-8.72600E-03 4.64377E-04
 -1      8088 3.20765E-02-9.95194E-03 3.70851E-04
 -1      8089 2.77887E-02-1.06014E-02 4.15576E-04
 -1      8090 2.82102E-02-8.73382E-03 2.78621E-04
 -1      8091 3.21116E-02-9.96075E-03 1.85425E-04
 -1      8092 2.78263E-02-1.06077E-02 2.07790E-04
 -1      8093 2.82341E-02-8.73774E-03 9.28733E-05
 -1      8094 3.21233E-02-9.96369E-03-1.94649E-13
 -1      8095 2.78388E-02-1.06097E-02-1.81943E-13
 -1      8096 2.82341E-02-8.73774E-03-9.28733E-05
 -1      8097 3.21116E-02-9.96075E-03-1.85425E-04
 -1      8098 2.78263E-02-1.06077E-02-2.07790E-04
 -1      8099 2.82102E-02-8.73382E-03-2.78621E-04
 -1      8100 3.20765E-02-9.95194E-03-3.70851E-04
 -1      8101 2.77887E-02-1.06014E-02-4.15576E-04
 -1      8102 2.81622E-02-8.72600E-03-4.64377E-04
 -1      8103 2.10046E-02-7.34975E-03 4.67168E-04
 -1      8104 2.44710E-02-8.02972E-03 3.76144E-04
 -1      8105 2.08801E-02-9.04556E-03 4.18129E-04
 -1      8106 2.10535E-02-7.34952E-03 2.80295E-04
 -1      8107 2.45076E-02-8.03260E-03 1.88071E-04
 -1      8108 2.09185E-02-9.04538E-03 2.09064E-04
 -1      8109 2.10779E-02-7.34940E-03 9.34312E-05
 -1      8110 2.45198E-02-8.03357E-03-1.79038E-13
 -1      8111 2.09312E-02-9.04532E-03-1.65862E-13
 -1      8112 2.10779E-02-7.34940E-03-9.34312E-05
 -1      8113 2.45076E-02-8.03260E-03-1.88071E-04
 -1      8114 2.09185E-02-9.04538E-03-2.09064E-04
 -1      8115 2.10535E-02-7.34952E-03-2.80295E-04
 -1      8116 2.44710E-02-8.02972E-03-3.76144E-04
 -1      8117 2.08801E-02-9.04556E-03-4.18129E-04
 -1      8118 2.10046E-02-7.34975E-03-4.67168E-04
 -1      8119 1.48815E-02-6.84105E-03 4.62350E-04
 -1      8120 1.78309E-02-7.10410E-03 3.75336E-04
 -1      8121 1.49540E-02-8.32829E-03 4.13877E-04
 -1      8122 1.49293E-02-6.83276E-03 2.77406E-04
 -1      8123 1.78674E-02-7.10087E-03 1.87668E-04
 -1      8124 1.49914E-02-8.32164E-03 2.06936E-04
 -1      8125 1.49532E-02-6.82862E-03 9.24672E-05
 -1      8126 1.78796E-02-7.09979E-03-1.61465E-13
 -1      8127 1.50039E-02-8.31942E-03-1.48197E-13
 -1      8128 1.49532E-02-6.82862E-03-9.24672E-05
 -1      8129 1.78674E-02-7.10087E-03-1.87668E-04
 -1      8130 1.49914E-02-8.32164E-03-2.06936E-04
 -1      8131 1.49293E-02-6.83276E-03-2.77406E-04
 -1      8132 1.78309E-02-7.10410E-03-3.75336E-04
 -1      8133 1.49540E-02-8.32829E-03-4.13877E-04
 -1      8134 1.48815E-02-6.84105E-03-4.62350E-04
 -1      8135 9.87094E-03-6.92686E-03 4.49899E-04
 -1      8136 1.22686E-02-6.90911E-03 3.68377E-04
 -1      8137 1.00866E-02-8.19001E-03 4.02785E-04
 -1      8138 9.91556E-03-6.91105E-03 2.69936E-04
 -1      8139 1.23035E-02-6.89996E-03 1.84190E-04
 -1      8140 1.01215E-02-8.17732E-03 2.01385E-04
 -1      8141 9.93787E-03-6.90314E-03 8.99759E-05
 -1      8142 1.23151E-02-6.89691E-03-1.42498E-13
 -1      8143 1.01331E-02-8.17309E-03-1.29450E-13
 -1      8144 9.93787E-03-6.90314E-03-8.99759E-05
 -1      8145 1.23035E-02-6.89996E-03-1.84190E-04
 -1      8146 1.01215E-02-8.17732E-03-2.01385E-04
 -1      8147 9.91556E-03-6.91105E-03-2.69936E-04
 -1      8148 1.22686E-02-6.90911E-03-3.68377E-04
 -1      8149 1.00866E-02-8.19001E-03-4.02785E-04
 -1      8150 9.87094E-03-6.92686E-03-4.49899E-04
 -1      8151 5.98135E-03-7.33632E-03 4.29904E-04
 -1      8152 7.82707E-03-7.17161E-03 3.55286E-04
 -1      8153 6.28825E-03-8.37291E-03 3.84931E-04
 -1      8154 6.02097E-03-7.31403E-03 2.57941E-04
 -1      8155 7.85890E-03-7.15714E-03 1.77647E-04
 -1      8156 6.31913E-03-8.35501E-03 1.92449E-04
 -1      8157 6.04079E-03-7.30289E-03 8.59749E-05
 -1      8158 7.86951E-03-7.15231E-03-1.22743E-13
 -1      8159 6.32943E-03-8.34905E-03-1.10217E-13
 -1      8160 6.04079E-03-7.30289E-03-8.59749E-05
 -1      8161 7.85890E-03-7.15714E-03-1.77647E-04
 -1      8162 6.31913E-03-8.35501E-03-1.92449E-04
 -1      8163 6.02097E-03-7.31403E-03-2.57941E-04
 -1      8164 7.82707E-03-7.17161E-03-3.55286E-04
 -1      8165 6.28825E-03-8.37291E-03-3.84931E-04
 -1      8166 5.98135E-03-7.33632E-03-4.29904E-04
 -1      8167 3.15622E-03-7.81862E-03 4.02602E-04
 -1      8168 4.48191E-03-7.62968E-03 3.36192E-04
 -1      8169 3.50719E-03-8.63787E-03 3.60528E-04
 -1      8170 3.18931E-03-7.79134E-03 2.41565E-04
 -1      8171 4.50936E-03-7.61085E-03 1.68106E-04
 -1      8172 3.53283E-03-8.61597E-03 1.80231E-04
 -1      8173 3.20586E-03-7.77771E-03 8.05107E-05
 -1      8174 4.51851E-03-7.60458E-03-1.02907E-13
 -1      8175 3.54140E-03-8.60868E-03-9.12613E-14
 -1      8176 3.20586E-03-7.77771E-03-8.05107E-05
 -1      8177 4.50936E-03-7.61085E-03-1.68106E-04
 -1      8178 3.53283E-03-8.61597E-03-1.80231E-04
 -1      8179 3.18931E-03-7.79134E-03-2.41565E-04
 -1      8180 4.48191E-03-7.62968E-03-3.36192E-04
 -1      8181 3.50719E-03-8.63787E-03-3.60528E-04
 -1      8182 3.15622E-03-7.81862E-03-4.02602E-04
 -1      8183 1.28264E-03-8.15865E-03 3.68393E-04
 -1      8184 2.14762E-03-8.04947E-03 3.11348E-04
 -1      8185 1.63789E-03-8.77943E-03 3.29934E-04
 -1      8186 1.30811E-03-8.12826E-03 2.21048E-04
 -1      8187 2.16971E-03-8.02757E-03 1.55694E-04
 -1      8188 1.65741E-03-8.75503E-03 1.64903E-04
 -1      8189 1.32086E-03-8.11308E-03 7.36618E-05
 -1      8190 2.17707E-03-8.02026E-03-8.37066E-14
 -1      8191 1.66395E-03-8.74691E-03-7.31990E-14
 -1      8192 1.32086E-03-8.11308E-03-7.36618E-05
 -1      8193 2.16971E-03-8.02757E-03-1.55694E-04
 -1      8194 1.65741E-03-8.75503E-03-1.64903E-04
 -1      8195 1.30811E-03-8.12826E-03-2.21048E-04
 -1      8196 2.14762E-03-8.04947E-03-3.11348E-04
 -1      8197 1.63789E-03-8.77943E-03-3.29934E-04
 -1      8198 1.28264E-03-8.15865E-03-3.68393E-04
 -1      8199 2.03512E-04-8.18986E-03 3.27879E-04
 -1      8200 6.88326E-04-8.23944E-03 2.81148E-04
 -1      8201 5.32477E-04-8.63790E-03 2.93686E-04
 -1      8202 2.20802E-04-8.15847E-03 1.96756E-04
 -1      8203 7.04420E-04-8.21598E-03 1.40614E-04
 -1      8204 5.45402E-04-8.61271E-03 1.46719E-04
 -1      8205 2.29463E-04-8.14279E-03 6.55461E-05
 -1      8206 7.09765E-04-8.20815E-03-6.56745E-14
 -1      8207 5.49773E-04-8.60432E-03-5.64066E-14
 -1      8208 2.29463E-04-8.14279E-03-6.55461E-05
 -1      8209 7.04420E-04-8.21598E-03-1.40614E-04
 -1      8210 5.45402E-04-8.61271E-03-1.46719E-04
 -1      8211 2.20802E-04-8.15847E-03-1.96756E-04
 -1      8212 6.88326E-04-8.23944E-03-2.81148E-04
 -1      8213 5.32477E-04-8.63790E-03-2.93686E-04
 -1      8214 2.03512E-04-8.18986E-03-3.27879E-04
 -1      8215-2.68226E-04-7.80371E-03 2.81950E-04
 -1      8216-6.90533E-05-8.06150E-03 2.46174E-04
 -1      8217 1.40215E-05-8.10837E-03 2.52585E-04
 -1      8218-2.59062E-04-7.77355E-03 1.69227E-04
 -1      8219-5.91452E-05-8.03813E-03 1.23162E-04
 -1      8220 2.03767E-05-8.08419E-03 1.26055E-04
 -1      8221-2.54450E-04-7.75849E-03 5.63358E-05
 -1      8222-5.58811E-05-8.03033E-03-4.91478E-14
 -1      8223 2.26166E-05-8.07613E-03-4.11657E-14
 -1      8224-2.54450E-04-7.75849E-03-5.63358E-05
 -1      8225-5.91452E-05-8.03813E-03-1.23162E-04
 -1      8226 2.03767E-05-8.08419E-03-1.26055E-04
 -1      8227-2.59062E-04-7.77355E-03-1.69227E-04
 -1      8228-6.90533E-05-8.06150E-03-2.46174E-04
 -1      8229 1.40215E-05-8.10837E-03-2.52585E-04
 -1      8230-2.68226E-04-7.80371E-03-2.81950E-04
 -1      8231-3.33787E-04-6.95589E-03 2.31989E-04
 -1      8232-3.19744E-04-7.43881E-03 2.07303E-04
 -1      8233-1.09141E-04-7.14671E-03 2.07911E-04
 -1      8234-3.31978E-04-6.92909E-03 1.39325E-04
 -1      8235-3.15700E-04-7.41720E-03 1.03793E-04
 -1      8236-1.08763E-04-7.12533E-03 1.03511E-04
 -1      8237-3.31030E-04-6.91572E-03 4.63095E-05
 -1      8238-3.14424E-04-7.40999E-03-3.45206E-14
 -1      8239-1.08409E-04-7.11818E-03-2.79257E-14
 -1      8240-3.31030E-04-6.91572E-03-4.63095E-05
 -1      8241-3.15700E-04-7.41720E-03-1.03793E-04
 -1      8242-1.08763E-04-7.12533E-03-1.03511E-04
 -1      8243-3.31978E-04-6.92909E-03-1.39325E-04
 -1      8244-3.19744E-04-7.43881E-03-2.07303E-04
 -1      8245-1.09141E-04-7.14671E-03-2.07911E-04
 -1      8246-3.33787E-04-6.95589E-03-2.31989E-04
 -1      8247-1.91333E-04-5.66820E-03 1.80203E-04
 -1      8248-2.64803E-04-6.36008E-03 1.65935E-04
 -1      8249-2.78235E-05-5.77227E-03 1.61879E-04
 -1      8250-1.95249E-04-5.64647E-03 1.08390E-04
 -1      8251-2.65709E-04-6.34170E-03 8.32246E-05
 -1      8252-3.21807E-05-5.75517E-03 8.01501E-05
 -1      8253-1.97161E-04-5.63565E-03 3.58982E-05
 -1      8254-2.66142E-04-6.33559E-03-2.21890E-14
 -1      8255-3.32246E-05-5.74942E-03-1.70244E-14
 -1      8256-1.97161E-04-5.63565E-03-3.58982E-05
 -1      8257-2.65709E-04-6.34170E-03-8.32246E-05
 -1      8258-3.21807E-05-5.75517E-03-8.01501E-05
 -1      8259-1.95249E-04-5.64647E-03-1.08390E-04
 -1      8260-2.64803E-04-6.36008E-03-1.65935E-04
 -1      8261-2.78235E-05-5.77227E-03-1.61879E-04
 -1      8262-1.91333E-04-5.66820E-03-1.80203E-04
 -1      8263-1.47099E-05-4.02127E-03 1.30156E-04
 -1      8264-9.26666E-05-4.87803E-03 1.24364E-04
 -1      8265 8.74355E-05-4.06272E-03 1.18369E-04
 -1      8266-2.20940E-05-4.00513E-03 7.90208E-05
 -1      8267-9.68856E-05-4.86384E-03 6.26581E-05
 -1      8268 7.98425E-05-4.05054E-03 5.80636E-05
 -1      8269-2.61155E-05-3.99716E-03 2.60399E-05
 -1      8270-9.85353E-05-4.85914E-03-1.23752E-14
 -1      8271 7.79393E-05-4.04641E-03-8.58886E-15
 -1      8272-2.61155E-05-3.99716E-03-2.60399E-05
 -1      8273-9.68856E-05-4.86384E-03-6.26581E-05
 -1      8274 7.98425E-05-4.05054E-03-5.80636E-05
 -1      8275-2.20940E-05-4.00513E-03-7.90208E-05
 -1      8276-9.26666E-05-4.87803E-03-1.24364E-04
 -1      8277 8.74355E-05-4.06272E-03-1.18369E-04
 -1      8278-1.47099E-05-4.02127E-03-1.30156E-04
 -1      8279 7.13530E-05-2.11921E-03 8.39028E-05
 -1      8280 4.45986E-05-3.09168E-03 8.59745E-05
 -1      8281 1.15498E-04-2.12403E-03 8.07730E-05
 -1      8282 6.19060E-05-2.10837E-03 5.26786E-05
 -1      8283 3.84603E-05-3.08159E-03 4.36995E-05
 -1      8284 1.03711E-04-2.11634E-03 3.98198E-05
 -1      8285 5.54931E-05-2.10327E-03 1.74004E-05
 -1      8286 3.59555E-05-3.07830E-03-5.15332E-15
 -1      8287 1.00257E-04-2.11384E-03-2.69937E-15
 -1      8288 5.54931E-05-2.10327E-03-1.74004E-05
 -1      8289 3.84603E-05-3.08159E-03-4.36995E-05
 -1      8290 1.03711E-04-2.11634E-03-3.98198E-05
 -1      8291 6.19060E-05-2.10837E-03-5.26786E-05
 -1      8292 4.45986E-05-3.09168E-03-8.59745E-05
 -1      8293 1.15498E-04-2.12403E-03-8.07730E-05
 -1      8294 7.13530E-05-2.11921E-03-8.39028E-05
 -1      8295 5.20076E-05-1.08794E-03 4.28741E-05
 -1      8296 4.57821E-05-1.08321E-03 2.01107E-05
 -1      8297 4.41006E-05-1.08182E-03-7.17239E-16
 -1      8298 4.57821E-05-1.08321E-03-2.01107E-05
 -1      8299 5.20076E-05-1.08794E-03-4.28741E-05
 -1      8300 1.09403E-01-9.99205E-02-2.61452E-04
 -1      8301 1.09704E-01-1.07267E-01-2.51221E-04
 -1      8302 1.06325E-01-1.00624E-01-2.37818E-04
 -1      8303 1.09372E-01-9.98940E-02-1.56385E-04
 -1      8304 1.09683E-01-1.07236E-01-1.25228E-04
 -1      8305 1.06295E-01-1.00602E-01-1.18576E-04
 -1      8306 1.09356E-01-9.98806E-02-5.19952E-05
 -1      8307 1.09676E-01-1.07226E-01-1.61517E-13
 -1      8308 1.06284E-01-1.00594E-01-1.68997E-13
 -1      8309 1.09356E-01-9.98806E-02 5.19952E-05
 -1      8310 1.09683E-01-1.07236E-01 1.25228E-04
 -1      8311 1.06295E-01-1.00602E-01 1.18576E-04
 -1      8312 1.09372E-01-9.98940E-02 1.56385E-04
 -1      8313 1.09704E-01-1.07267E-01 2.51221E-04
 -1      8314 1.06325E-01-1.00624E-01 2.37818E-04
 -1      8315 1.09403E-01-9.99205E-02 2.61452E-04
 -1      8316 1.06510E-01-8.45930E-02-1.25269E-04
 -1      8317 1.08038E-01-9.23547E-02-1.58121E-04
 -1      8318 1.03489E-01-8.55171E-02-1.06730E-04
 -1      8319 1.06478E-01-8.45942E-02-7.51537E-05
 -1      8320 1.08013E-01-9.23454E-02-7.89598E-05
 -1      8321 1.03460E-01-8.55191E-02-5.33408E-05
 -1      8322 1.06462E-01-8.45946E-02-2.50450E-05
 -1      8323 1.08004E-01-9.23423E-02-1.84470E-13
 -1      8324 1.03451E-01-8.55197E-02-1.89699E-13
 -1      8325 1.06462E-01-8.45946E-02 2.50450E-05
 -1      8326 1.08013E-01-9.23454E-02 7.89598E-05
 -1      8327 1.03460E-01-8.55191E-02 5.33408E-05
 -1      8328 1.06478E-01-8.45942E-02 7.51537E-05
 -1      8329 1.08038E-01-9.23547E-02 1.58121E-04
 -1      8330 1.03489E-01-8.55171E-02 1.06730E-04
 -1      8331 1.06510E-01-8.45930E-02 1.25269E-04
 -1      8332 1.01317E-01-6.95029E-02 9.94141E-06
 -1      8333 1.03958E-01-7.70302E-02-4.41064E-05
 -1      8334 9.84004E-02-7.06780E-02 1.79066E-05
 -1      8335 1.01297E-01-6.95226E-02 5.94619E-06
 -1      8336 1.03938E-01-7.70392E-02-2.20671E-05
 -1      8337 9.83826E-02-7.06955E-02 8.94007E-06
 -1      8338 1.01287E-01-6.95324E-02 1.98605E-06
 -1      8339 1.03931E-01-7.70421E-02-2.03843E-13
 -1      8340 9.83767E-02-7.07013E-02-2.06328E-13
 -1      8341 1.01287E-01-6.95324E-02-1.98605E-06
 -1      8342 1.03938E-01-7.70392E-02 2.20671E-05
 -1      8343 9.83826E-02-7.06955E-02-8.94007E-06
 -1      8344 1.01297E-01-6.95226E-02-5.94619E-06
 -1      8345 1.03958E-01-7.70302E-02 4.41064E-05
 -1      8346 9.84004E-02-7.06780E-02-1.79066E-05
 -1      8347 1.01317E-01-6.95029E-02-9.94141E-06
 -1      8348 9.43024E-02-5.55170E-02 1.17360E-04
 -1      8349 9.78064E-02-6.24416E-02 5.49472E-05
 -1      8350 9.15788E-02-5.69674E-02 1.13926E-04
 -1      8351 9.42961E-02-5.55454E-02 7.03925E-05
 -1      8352 9.77963E-02-6.24606E-02 2.74630E-05
 -1      8353 9.15732E-02-5.69913E-02 5.69574E-05
 -1      8354 9.42929E-02-5.55596E-02 2.34675E-05
 -1      8355 9.77929E-02-6.24669E-02-2.19183E-13
 -1      8356 9.15713E-02-5.69993E-02-2.19192E-13
 -1      8357 9.42929E-02-5.55596E-02-2.34675E-05
 -1      8358 9.77963E-02-6.24606E-02-2.74630E-05
 -1      8359 9.15732E-02-5.69913E-02-5.69574E-05
 -1      8360 9.42961E-02-5.55454E-02-7.03925E-05
 -1      8361 9.78064E-02-6.24416E-02-5.49472E-05
 -1      8362 9.15788E-02-5.69674E-02-1.13926E-04
 -1      8363 9.43024E-02-5.55170E-02-1.17360E-04
 -1      8364 8.59552E-02-4.30555E-02 1.95194E-04
 -1      8365 9.00918E-02-4.92041E-02 1.29173E-04
 -1      8366 8.35088E-02-4.47608E-02 1.82280E-04
 -1      8367 8.59614E-02-4.30866E-02 1.17095E-04
 -1      8368 9.00919E-02-4.92270E-02 6.45791E-05
 -1      8369 8.35134E-02-4.47862E-02 9.11402E-05
 -1      8370 8.59645E-02-4.31021E-02 3.90359E-05
 -1      8371 9.00919E-02-4.92346E-02-2.30607E-13
 -1      8372 8.35149E-02-4.47947E-02-2.28029E-13
 -1      8373 8.59645E-02-4.31021E-02-3.90359E-05
 -1      8374 9.00919E-02-4.92270E-02-6.45791E-05
 -1      8375 8.35134E-02-4.47862E-02-9.11402E-05
 -1      8376 8.59614E-02-4.30866E-02-1.17095E-04
 -1      8377 9.00918E-02-4.92041E-02-1.29173E-04
 -1      8378 8.35088E-02-4.47608E-02-1.82280E-04
 -1      8379 8.59552E-02-4.30555E-02-1.95194E-04
 -1      8380 7.66898E-02-3.23131E-02 2.50267E-04
 -1      8381 8.12638E-02-3.76019E-02 1.81934E-04
 -1      8382 7.45777E-02-3.42193E-02 2.30471E-04
 -1      8383 7.67063E-02-3.23436E-02 1.50144E-04
 -1      8384 8.12725E-02-3.76253E-02 9.09607E-05
 -1      8385 7.45904E-02-3.42439E-02 1.15237E-04
 -1      8386 7.67144E-02-3.23588E-02 5.00520E-05
 -1      8387 8.12754E-02-3.76331E-02-2.37594E-13
 -1      8388 7.45946E-02-3.42520E-02-2.32588E-13
 -1      8389 7.67144E-02-3.23588E-02-5.00520E-05
 -1      8390 8.12725E-02-3.76253E-02-9.09607E-05
 -1      8391 7.45904E-02-3.42439E-02-1.15237E-04
 -1      8392 7.67063E-02-3.23436E-02-1.50144E-04
 -1      8393 8.12638E-02-3.76019E-02-1.81934E-04
 -1      8394 7.45777E-02-3.42193E-02-2.30471E-04
 -1      8395 7.66898E-02-3.23131E-02-2.50267E-04
 -1      8396 6.68759E-02-2.33788E-02 2.89656E-04
 -1      8397 7.17077E-02-2.77678E-02 2.19375E-04
 -1      8398 6.51274E-02-2.54160E-02 2.65164E-04
 -1      8399 6.69007E-02-2.34069E-02 1.73782E-04
 -1      8400 7.17233E-02-2.77900E-02 1.09682E-04
 -1      8401 6.51466E-02-2.54384E-02 1.32584E-04
 -1      8402 6.69131E-02-2.34209E-02 5.79308E-05
 -1      8403 7.17285E-02-2.77974E-02-2.40088E-13
 -1      8404 6.51530E-02-2.54459E-02-2.32677E-13
 -1      8405 6.69131E-02-2.34209E-02-5.79308E-05
 -1      8406 7.17233E-02-2.77900E-02-1.09682E-04
 -1      8407 6.51466E-02-2.54384E-02-1.32584E-04
 -1      8408 6.69007E-02-2.34069E-02-1.73782E-04
 -1      8409 7.17077E-02-2.77678E-02-2.19375E-04
 -1      8410 6.51274E-02-2.54160E-02-2.65164E-04
 -1      8411 6.68759E-02-2.33788E-02-2.89656E-04
 -1      8412 5.68683E-02-1.62690E-02 3.18253E-04
 -1      8413 6.17821E-02-1.97530E-02 2.46397E-04
 -1      8414 5.54898E-02-1.83632E-02 2.90635E-04
 -1      8415 5.69001E-02-1.62933E-02 1.90943E-04
 -1      8416 6.18035E-02-1.97729E-02 1.23193E-04
 -1      8417 5.55144E-02-1.83826E-02 1.45320E-04
 -1      8418 5.69160E-02-1.63055E-02 6.36506E-05
 -1      8419 6.18106E-02-1.97795E-02-2.37842E-13
 -1      8420 5.55227E-02-1.83891E-02-2.28465E-13
 -1      8421 5.69160E-02-1.63055E-02-6.36506E-05
 -1      8422 6.18035E-02-1.97729E-02-1.23193E-04
 -1      8423 5.55144E-02-1.83826E-02-1.45320E-04
 -1      8424 5.69001E-02-1.62933E-02-1.90943E-04
 -1      8425 6.17821E-02-1.97530E-02-2.46397E-04
 -1      8426 5.54898E-02-1.83632E-02-2.90635E-04
 -1      8427 5.68683E-02-1.62690E-02-3.18253E-04
 -1      8428 4.70113E-02-1.09292E-02 3.38866E-04
 -1      8429 5.18360E-02-1.35388E-02 2.66042E-04
 -1      8430 4.59909E-02-1.30095E-02 3.09204E-04
 -1      8431 4.70487E-02-1.09487E-02 2.03313E-04
 -1      8432 5.18622E-02-1.35554E-02 1.33017E-04
 -1      8433 4.60200E-02-1.30250E-02 1.54604E-04
 -1      8434 4.70674E-02-1.09585E-02 6.77730E-05
 -1      8435 5.18709E-02-1.35609E-02-2.31175E-13
 -1      8436 4.60297E-02-1.30302E-02-2.20096E-13
 -1      8437 4.70674E-02-1.09585E-02-6.77730E-05
 -1      8438 5.18622E-02-1.35554E-02-1.33017E-04
 -1      8439 4.60200E-02-1.30250E-02-1.54604E-04
 -1      8440 4.70487E-02-1.09487E-02-2.03313E-04
 -1      8441 5.18360E-02-1.35388E-02-2.66042E-04
 -1      8442 4.59909E-02-1.30095E-02-3.09204E-04
 -1      8443 4.70113E-02-1.09292E-02-3.38866E-04
 -1      8444 3.76264E-02-7.23395E-03 3.52872E-04
 -1      8445 4.22032E-02-9.03537E-03 2.79924E-04
 -1      8446 3.69377E-02-9.23627E-03 3.21942E-04
 -1      8447 3.76680E-02-7.24754E-03 2.11717E-04
 -1      8448 4.22331E-02-9.04792E-03 1.39959E-04
 -1      8449 3.69701E-02-9.24711E-03 1.60973E-04
 -1      8450 3.76889E-02-7.25434E-03 7.05738E-05
 -1      8451 4.22430E-02-9.05210E-03-2.20526E-13
 -1      8452 3.69809E-02-9.25072E-03-2.08147E-13
 -1      8453 3.76889E-02-7.25434E-03-7.05738E-05
 -1      8454 4.22331E-02-9.04792E-03-1.39959E-04
 -1      8455 3.69701E-02-9.24711E-03-1.60973E-04
 -1      8456 3.76680E-02-7.24754E-03-2.11717E-04
 -1      8457 4.22032E-02-9.03537E-03-2.79924E-04
 -1      8458 3.69377E-02-9.23627E-03-3.21942E-04
 -1      8459 3.76264E-02-7.23395E-03-3.52872E-04
 -1      8460 2.89948E-02-4.99169E-03 3.60824E-04
 -1      8461 3.31863E-02-6.08377E-03 2.88760E-04
 -1      8462 2.86001E-02-6.86204E-03 3.29239E-04
 -1      8463 2.90390E-02-4.99859E-03 2.16489E-04
 -1      8464 3.32187E-02-6.09155E-03 1.44377E-04
 -1      8465 2.86346E-02-6.86755E-03 1.64620E-04
 -1      8466 2.90612E-02-5.00205E-03 7.21638E-05
 -1      8467 3.32295E-02-6.09414E-03-2.06389E-13
 -1      8468 2.86461E-02-6.86939E-03-1.93104E-13
 -1      8469 2.90612E-02-5.00205E-03-7.21638E-05
 -1      8470 3.32187E-02-6.09155E-03-1.44377E-04
 -1      8471 2.86346E-02-6.86755E-03-1.64620E-04
 -1      8472 2.90390E-02-4.99859E-03-2.16489E-04
 -1      8473 3.31863E-02-6.08377E-03-2.88760E-04
 -1      8474 2.86001E-02-6.86204E-03-3.29239E-04
 -1      8475 2.89948E-02-4.99169E-03-3.60824E-04
 -1      8476 2.13413E-02-3.95725E-03 3.62869E-04
 -1      8477 2.50392E-02-4.46469E-03 2.92794E-04
 -1      8478 2.11949E-02-5.65347E-03 3.31168E-04
 -1      8479 2.13864E-02-3.95705E-03 2.17716E-04
 -1      8480 2.50730E-02-4.46723E-03 1.46396E-04
 -1      8481 2.12301E-02-5.65332E-03 1.65583E-04
 -1      8482 2.14089E-02-3.95695E-03 7.25723E-05
 -1      8483 2.50842E-02-4.46808E-03-1.89537E-13
 -1      8484 2.12418E-02-5.65326E-03-1.75689E-13
 -1      8485 2.14089E-02-3.95695E-03-7.25723E-05
 -1      8486 2.50730E-02-4.46723E-03-1.46396E-04
 -1      8487 2.12301E-02-5.65332E-03-1.65583E-04
 -1      8488 2.13864E-02-3.95705E-03-2.17716E-04
 -1      8489 2.50392E-02-4.46469E-03-2.92794E-04
 -1      8490 2.11949E-02-5.65347E-03-3.31168E-04
 -1      8491 2.13413E-02-3.95725E-03-3.62869E-04
 -1      8492 1.48221E-02-3.84870E-03 3.59008E-04
 -1      8493 1.79532E-02-3.91331E-03 2.92066E-04
 -1      8494 1.48733E-02-5.34158E-03 3.27705E-04
 -1      8495 1.48662E-02-3.84141E-03 2.15400E-04
 -1      8496 1.79869E-02-3.91047E-03 1.46032E-04
 -1      8497 1.49077E-02-5.33576E-03 1.63849E-04
 -1      8498 1.48883E-02-3.83777E-03 7.17996E-05
 -1      8499 1.79982E-02-3.90952E-03-1.70566E-13
 -1      8500 1.49192E-02-5.33382E-03-1.56564E-13
 -1      8501 1.48883E-02-3.83777E-03-7.17996E-05
 -1      8502 1.79869E-02-3.91047E-03-1.46032E-04
 -1      8503 1.49077E-02-5.33576E-03-1.63849E-04
 -1      8504 1.48662E-02-3.84141E-03-2.15400E-04
 -1      8505 1.79532E-02-3.91331E-03-2.92066E-04
 -1      8506 1.48733E-02-5.34158E-03-3.27705E-04
 -1      8507 1.48221E-02-3.84870E-03-3.59008E-04
 -1      8508 9.51848E-03-4.36694E-03 3.49244E-04
 -1      8509 1.20472E-02-4.13771E-03 2.86564E-04
 -1      8510 9.71495E-03-5.64053E-03 3.18842E-04
 -1      8511 9.55982E-03-4.35303E-03 2.09543E-04
 -1      8512 1.20795E-02-4.12967E-03 1.43283E-04
 -1      8513 9.74713E-03-5.62942E-03 1.59414E-04
 -1      8514 9.58049E-03-4.34608E-03 6.98458E-05
 -1      8515 1.20903E-02-4.12698E-03-1.50059E-13
 -1      8516 9.75785E-03-5.62572E-03-1.36331E-13
 -1      8517 9.58049E-03-4.34608E-03-6.98458E-05
 -1      8518 1.20795E-02-4.12967E-03-1.43283E-04
 -1      8519 9.74713E-03-5.62942E-03-1.59414E-04
 -1      8520 9.55982E-03-4.35303E-03-2.09543E-04
 -1      8521 1.20472E-02-4.13771E-03-2.86564E-04
 -1      8522 9.71495E-03-5.64053E-03-3.18842E-04
 -1      8523 9.51848E-03-4.36694E-03-3.49244E-04
 -1      8524 5.43590E-03-5.21604E-03 3.33650E-04
 -1      8525 7.36439E-03-4.83901E-03 2.76312E-04
 -1      8526 5.72683E-03-6.26716E-03 3.04647E-04
 -1      8527 5.47284E-03-5.19645E-03 2.00188E-04
 -1      8528 7.39396E-03-4.82629E-03 1.38159E-04
 -1      8529 5.75549E-03-6.25150E-03 1.52309E-04
 -1      8530 5.49131E-03-5.18665E-03 6.67255E-05
 -1      8531 7.40381E-03-4.82205E-03-1.28854E-13
 -1      8532 5.76505E-03-6.24629E-03-1.15675E-13
 -1      8533 5.49131E-03-5.18665E-03-6.67255E-05
 -1      8534 7.39396E-03-4.82629E-03-1.38159E-04
 -1      8535 5.75549E-03-6.25150E-03-1.52309E-04
 -1      8536 5.47284E-03-5.19645E-03-2.00188E-04
 -1      8537 7.36439E-03-4.83901E-03-2.76312E-04
 -1      8538 5.72683E-03-6.26716E-03-3.04647E-04
 -1      8539 5.43590E-03-5.21604E-03-3.33650E-04
 -1      8540 2.50901E-03-6.12267E-03 3.12412E-04
 -1      8541 3.87417E-03-5.73130E-03 2.61414E-04
 -1      8542 2.84814E-03-6.95957E-03 2.85294E-04
 -1      8543 2.54020E-03-6.09870E-03 1.87449E-04
 -1      8544 3.89988E-03-5.71476E-03 1.30714E-04
 -1      8545 2.87221E-03-6.94042E-03 1.42619E-04
 -1      8546 2.55580E-03-6.08673E-03 6.24753E-05
 -1      8547 3.90845E-03-5.70924E-03-1.07593E-13
 -1      8548 2.88024E-03-6.93404E-03-9.53336E-14
 -1      8549 2.55580E-03-6.08673E-03-6.24753E-05
 -1      8550 3.89988E-03-5.71476E-03-1.30714E-04
 -1      8551 2.87221E-03-6.94042E-03-1.42619E-04
 -1      8552 2.54020E-03-6.09870E-03-1.87449E-04
 -1      8553 3.87417E-03-5.73130E-03-2.61414E-04
 -1      8554 2.84814E-03-6.95957E-03-2.85294E-04
 -1      8555 2.50901E-03-6.12267E-03-3.12412E-04
 -1      8556 6.11237E-04-6.85317E-03 2.85853E-04
 -1      8557 1.47970E-03-6.56004E-03 2.42070E-04
 -1      8558 9.59319E-04-7.49356E-03 2.61075E-04
 -1      8559 6.35744E-04-6.82648E-03 1.71519E-04
 -1      8560 1.50070E-03-6.54080E-03 1.21050E-04
 -1      8561 9.78034E-04-7.47223E-03 1.30485E-04
 -1      8562 6.48003E-04-6.81314E-03 5.71584E-05
 -1      8563 1.50769E-03-6.53438E-03-8.70441E-14
 -1      8564 9.84299E-04-7.46513E-03-7.59881E-14
 -1      8565 6.48003E-04-6.81314E-03-5.71584E-05
 -1      8566 1.50070E-03-6.54080E-03-1.21050E-04
 -1      8567 9.78034E-04-7.47223E-03-1.30485E-04
 -1      8568 6.35744E-04-6.82648E-03-1.71519E-04
 -1      8569 1.47970E-03-6.56004E-03-2.42070E-04
 -1      8570 9.59319E-04-7.49356E-03-2.61075E-04
 -1      8571 6.11237E-04-6.85317E-03-2.85853E-04
 -1      8572-4.31668E-04-7.22764E-03 2.54460E-04
 -1      8573 2.94535E-05-7.11760E-03 2.18601E-04
 -1      8574-1.05141E-04-7.69601E-03 2.32439E-04
 -1      8575-4.14328E-04-7.20007E-03 1.52695E-04
 -1      8576 4.51929E-05-7.09700E-03 1.09328E-04
 -1      8577-9.21707E-05-7.67398E-03 1.16121E-04
 -1      8578-4.05646E-04-7.18629E-03 5.08716E-05
 -1      8579 5.04250E-05-7.09012E-03-6.78120E-14
 -1      8580-8.77968E-05-7.66665E-03-5.80864E-14
 -1      8581-4.05646E-04-7.18629E-03-5.08716E-05
 -1      8582 4.51929E-05-7.09700E-03-1.09328E-04
 -1      8583-9.21707E-05-7.67398E-03-1.16121E-04
 -1      8584-4.14328E-04-7.20007E-03-1.52695E-04
 -1      8585 2.94535E-05-7.11760E-03-2.18601E-04
 -1      8586-1.05141E-04-7.69601E-03-2.32439E-04
 -1      8587-4.31668E-04-7.22764E-03-2.54460E-04
 -1      8588-8.25285E-04-7.13015E-03 2.18950E-04
 -1      8589-6.67800E-04-7.25548E-03 1.91482E-04
 -1      8590-5.41353E-04-7.45480E-03 2.00049E-04
 -1      8591-8.15049E-04-7.10363E-03 1.31408E-04
 -1      8592-6.57478E-04-7.23494E-03 9.57919E-05
 -1      8593-5.34089E-04-7.43363E-03 9.98436E-05
 -1      8594-8.09912E-04-7.09037E-03 4.37546E-05
 -1      8595-6.54063E-04-7.22809E-03-5.03185E-14
 -1      8596-5.31575E-04-7.42657E-03-4.20116E-14
 -1      8597-8.09912E-04-7.09037E-03-4.37546E-05
 -1      8598-6.57478E-04-7.23494E-03-9.57919E-05
 -1      8599-5.34089E-04-7.43363E-03-9.98436E-05
 -1      8600-8.15049E-04-7.10363E-03-1.31408E-04
 -1      8601-6.67800E-04-7.25548E-03-1.91482E-04
 -1      8602-5.41353E-04-7.45480E-03-2.00049E-04
 -1      8603-8.25285E-04-7.13015E-03-2.18950E-04
 -1      8604-7.87990E-04-6.51505E-03 1.80366E-04
 -1      8605-8.25572E-04-6.89254E-03 1.61408E-04
 -1      8606-5.58900E-04-6.72499E-03 1.64914E-04
 -1      8607-7.84206E-04-6.49135E-03 1.08302E-04
 -1      8608-8.20387E-04-6.87348E-03 8.07954E-05
 -1      8609-5.56820E-04-6.70615E-03 8.21327E-05
 -1      8610-7.82285E-04-6.47952E-03 3.60175E-05
 -1      8611-8.18704E-04-6.86713E-03-3.49815E-14
 -1      8612-5.55962E-04-6.69986E-03-2.81782E-14
 -1      8613-7.82285E-04-6.47952E-03-3.60175E-05
 -1      8614-8.20387E-04-6.87348E-03-8.07954E-05
 -1      8615-5.56820E-04-6.70615E-03-8.21327E-05
 -1      8616-7.84206E-04-6.49135E-03-1.08302E-04
 -1      8617-8.25572E-04-6.89254E-03-1.61408E-04
 -1      8618-5.58900E-04-6.72499E-03-1.64914E-04
 -1      8619-7.87990E-04-6.51505E-03-1.80366E-04
 -1      8620-5.30506E-04-5.40747E-03 1.40137E-04
 -1      8621-6.60257E-04-6.01881E-03 1.29377E-04
 -1      8622-3.61795E-04-5.53004E-03 1.28579E-04
 -1      8623-5.31891E-04-5.38797E-03 8.42443E-05
 -1      8624-6.59465E-04-6.00246E-03 6.48467E-05
 -1      8625-3.63892E-04-5.51467E-03 6.37381E-05
 -1      8626-5.32553E-04-5.37823E-03 2.79412E-05
 -1      8627-6.59282E-04-5.99702E-03-2.21663E-14
 -1      8628-3.64306E-04-5.50951E-03-1.68710E-14
 -1      8629-5.32553E-04-5.37823E-03-2.79412E-05
 -1      8630-6.59465E-04-6.00246E-03-6.48467E-05
 -1      8631-3.63892E-04-5.51467E-03-6.37381E-05
 -1      8632-5.31891E-04-5.38797E-03-8.42443E-05
 -1      8633-6.60257E-04-6.01881E-03-1.29377E-04
 -1      8634-3.61795E-04-5.53004E-03-1.28579E-04
 -1      8635-5.30506E-04-5.40747E-03-1.40137E-04
 -1      8636-2.33287E-04-3.89255E-03 1.00125E-04
 -1      8637-3.69776E-04-4.69154E-03 9.67316E-05
 -1      8638-1.26920E-04-3.95208E-03 9.33521E-05
 -1      8639-2.38202E-04-3.87754E-03 6.06002E-05
 -1      8640-3.72152E-04-4.67859E-03 4.86437E-05
 -1      8641-1.32037E-04-3.94052E-03 4.59263E-05
 -1      8642-2.40838E-04-3.87008E-03 2.00242E-05
 -1      8643-3.73085E-04-4.67429E-03-1.20764E-14
 -1      8644-1.33316E-04-3.93664E-03-8.24887E-15
 -1      8645-2.40838E-04-3.87008E-03-2.00242E-05
 -1      8646-3.72152E-04-4.67859E-03-4.86437E-05
 -1      8647-1.32037E-04-3.94052E-03-4.59263E-05
 -1      8648-2.38202E-04-3.87754E-03-6.06002E-05
 -1      8649-3.69776E-04-4.69154E-03-9.67316E-05
 -1      8650-1.26920E-04-3.95208E-03-9.33521E-05
 -1      8651-2.33287E-04-3.89255E-03-1.00125E-04
 -1      8652-2.74668E-05-2.07622E-03 6.05604E-05
 -1      8653-1.11260E-04-3.01314E-03 6.49769E-05
 -1      8654 1.91073E-05-2.09534E-03 6.06794E-05
 -1      8655-3.46850E-05-2.06557E-03 3.76012E-05
 -1      8656-1.15763E-04-3.00346E-03 3.28783E-05
 -1      8657 1.05173E-05-2.08733E-03 3.00183E-05
 -1      8658-3.92305E-05-2.06046E-03 1.24357E-05
 -1      8659-1.17519E-04-3.00026E-03-4.82991E-15
 -1      8660 7.95566E-06-2.08476E-03-2.43462E-15
 -1      8661-3.92305E-05-2.06046E-03-1.24357E-05
 -1      8662-1.15763E-04-3.00346E-03-3.28783E-05
 -1      8663 1.05173E-05-2.08733E-03-3.00183E-05
 -1      8664-3.46850E-05-2.06557E-03-3.76012E-05
 -1      8665-1.11260E-04-3.01314E-03-6.49769E-05
 -1      8666 1.91073E-05-2.09534E-03-6.06794E-05
 -1      8667-2.74668E-05-2.07622E-03-6.05604E-05
 -1      8668 9.87490E-06-1.07154E-03 2.83650E-05
 -1      8669 5.20895E-06-1.06663E-03 1.34118E-05
 -1      8670 3.93503E-06-1.06517E-03-5.98498E-16
 -1      8671 5.20895E-06-1.06663E-03-1.34118E-05
 -1      8672 9.87490E-06-1.07154E-03-2.83650E-05
 -1      8673 1.15503E-01-9.85970E-02-2.01043E-04
 -1      8674 1.15867E-01-1.06223E-01-1.85084E-04
 -1      8675 1.12440E-01-9.92278E-02-1.83332E-04
 -1      8676 1.15484E-01-9.85757E-02-1.20347E-04
 -1      8677 1.15855E-01-1.06199E-01-9.22040E-05
 -1      8678 1.12421E-01-9.92099E-02-9.14495E-05
 -1      8679 1.15475E-01-9.85649E-02-4.00439E-05
 -1      8680 1.15851E-01-1.06191E-01-1.69814E-13
 -1      8681 1.12415E-01-9.92038E-02-1.78149E-13
 -1      8682 1.15475E-01-9.85649E-02 4.00439E-05
 -1      8683 1.15855E-01-1.06199E-01 9.22040E-05
 -1      8684 1.12421E-01-9.92099E-02 9.14495E-05
 -1      8685 1.15484E-01-9.85757E-02 1.20347E-04
 -1      8686 1.15867E-01-1.06223E-01 1.85084E-04
 -1      8687 1.12440E-01-9.92278E-02 1.83332E-04
 -1      8688 1.15503E-01-9.85970E-02 2.01043E-04
 -1      8689 1.12473E-01-8.27909E-02-1.09258E-04
 -1      8690 1.14066E-01-9.07883E-02-1.27824E-04
 -1      8691 1.09481E-01-8.36863E-02-9.37580E-05
 -1      8692 1.12451E-01-8.27898E-02-6.55672E-05
 -1      8693 1.14050E-01-9.07799E-02-6.38646E-05
 -1      8694 1.09461E-01-8.36859E-02-4.68519E-05
 -1      8695 1.12440E-01-8.27891E-02-2.18526E-05
 -1      8696 1.14044E-01-9.07770E-02-1.94425E-13
 -1      8697 1.09455E-01-8.36857E-02-2.00333E-13
 -1      8698 1.12440E-01-8.27891E-02 2.18526E-05
 -1      8699 1.14050E-01-9.07799E-02 6.38646E-05
 -1      8700 1.09461E-01-8.36859E-02 4.68519E-05
 -1      8701 1.12451E-01-8.27898E-02 6.55672E-05
 -1      8702 1.14066E-01-9.07883E-02 1.27824E-04
 -1      8703 1.09481E-01-8.36863E-02 9.37580E-05
 -1      8704 1.12473E-01-8.27909E-02 1.09258E-04
 -1      8705 1.07068E-01-6.71937E-02-9.49380E-06
 -1      8706 1.09824E-01-7.49821E-02-4.67390E-05
 -1      8707 1.04191E-01-6.83563E-02-5.21755E-07
 -1      8708 1.07053E-01-6.72079E-02-5.70605E-06
 -1      8709 1.09809E-01-7.49877E-02-2.33761E-05
 -1      8710 1.04178E-01-6.83687E-02-2.54709E-07
 -1      8711 1.07046E-01-6.72150E-02-1.90029E-06
 -1      8712 1.09805E-01-7.49896E-02-2.15267E-13
 -1      8713 1.04173E-01-6.83729E-02-2.18475E-13
 -1      8714 1.07046E-01-6.72150E-02 1.90029E-06
 -1      8715 1.09809E-01-7.49877E-02 2.33761E-05
 -1      8716 1.04178E-01-6.83687E-02 2.54709E-07
 -1      8717 1.07053E-01-6.72079E-02 5.70605E-06
 -1      8718 1.09824E-01-7.49821E-02 4.67390E-05
 -1      8719 1.04191E-01-6.83563E-02 5.21755E-07
 -1      8720 1.07068E-01-6.71937E-02 9.49380E-06
 -1      8721 9.96876E-02-5.26667E-02 7.41368E-05
 -1      8722 1.03387E-01-5.98636E-02 2.87172E-05
 -1      8723 9.69999E-02-5.41046E-02 7.57270E-05
 -1      8724 9.96837E-02-5.26894E-02 4.44643E-05
 -1      8725 1.03380E-01-5.98782E-02 1.43565E-05
 -1      8726 9.69960E-02-5.41236E-02 3.78713E-05
 -1      8727 9.96817E-02-5.27007E-02 1.48225E-05
 -1      8728 1.03378E-01-5.98830E-02-2.31936E-13
 -1      8729 9.69947E-02-5.41300E-02-2.32555E-13
 -1      8730 9.96817E-02-5.27007E-02-1.48225E-05
 -1      8731 1.03380E-01-5.98782E-02-1.43565E-05
 -1      8732 9.69960E-02-5.41236E-02-3.78713E-05
 -1      8733 9.96837E-02-5.26894E-02-4.44643E-05
 -1      8734 1.03387E-01-5.98636E-02-2.87172E-05
 -1      8735 9.69999E-02-5.41046E-02-7.57270E-05
 -1      8736 9.96876E-02-5.26667E-02-7.41368E-05
 -1      8737 9.08177E-02-3.97019E-02 1.36360E-04
 -1      8738 9.52244E-02-4.60958E-02 8.75856E-05
 -1      8739 8.83954E-02-4.13925E-02 1.31791E-04
 -1      8740 9.08244E-02-3.97280E-02 8.18031E-05
 -1      8741 9.52255E-02-4.61146E-02 4.37902E-05
 -1      8742 8.84002E-02-4.14138E-02 6.59043E-05
 -1      8743 9.08277E-02-3.97411E-02 2.72694E-05
 -1      8744 9.52259E-02-4.61209E-02-2.44517E-13
 -1      8745 8.84018E-02-4.14210E-02-2.42352E-13
 -1      8746 9.08277E-02-3.97411E-02-2.72694E-05
 -1      8747 9.52255E-02-4.61146E-02-4.37902E-05
 -1      8748 8.84002E-02-4.14138E-02-6.59043E-05
 -1      8749 9.08244E-02-3.97280E-02-8.18031E-05
 -1      8750 9.52244E-02-4.60958E-02-8.75856E-05
 -1      8751 8.83954E-02-4.13925E-02-1.31791E-04
 -1      8752 9.08177E-02-3.97019E-02-1.36360E-04
 -1      8753 8.09140E-02-2.85574E-02 1.80476E-04
 -1      8754 8.58095E-02-3.40363E-02 1.30038E-04
 -1      8755 7.88137E-02-3.04488E-02 1.71545E-04
 -1      8756 8.09298E-02-2.85837E-02 1.08275E-04
 -1      8757 8.58181E-02-3.40563E-02 6.50163E-05
 -1      8758 7.88257E-02-3.04701E-02 8.57810E-05
 -1      8759 8.09378E-02-2.85969E-02 3.60936E-05
 -1      8760 8.58210E-02-3.40629E-02-2.52253E-13
 -1      8761 7.88297E-02-3.04771E-02-2.47328E-13
 -1      8762 8.09378E-02-2.85969E-02-3.60936E-05
 -1      8763 8.58181E-02-3.40563E-02-6.50163E-05
 -1      8764 7.88257E-02-3.04701E-02-8.57810E-05
 -1      8765 8.09298E-02-2.85837E-02-1.08275E-04
 -1      8766 8.58095E-02-3.40363E-02-1.30038E-04
 -1      8767 7.88137E-02-3.04488E-02-1.71545E-04
 -1      8768 8.09140E-02-2.85574E-02-1.80476E-04
 -1      8769 7.03972E-02-1.93557E-02 2.11509E-04
 -1      8770 7.55770E-02-2.38661E-02 1.59921E-04
 -1      8771 6.86507E-02-2.13800E-02 1.99764E-04
 -1      8772 7.04207E-02-1.93803E-02 1.26898E-04
 -1      8773 7.55919E-02-2.38854E-02 7.99580E-05
 -1      8774 6.86688E-02-2.13997E-02 9.98901E-05
 -1      8775 7.04325E-02-1.93927E-02 4.23009E-05
 -1      8776 7.55969E-02-2.38919E-02-2.54877E-13
 -1      8777 6.86748E-02-2.14063E-02-2.47384E-13
 -1      8778 7.04325E-02-1.93927E-02-4.23009E-05
 -1      8779 7.55919E-02-2.38854E-02-7.99580E-05
 -1      8780 6.86688E-02-2.13997E-02-9.98901E-05
 -1      8781 7.04207E-02-1.93803E-02-1.26898E-04
 -1      8782 7.55770E-02-2.38661E-02-1.59921E-04
 -1      8783 6.86507E-02-2.13800E-02-1.99764E-04
 -1      8784 7.03972E-02-1.93557E-02-2.11509E-04
 -1      8785 5.96678E-02-1.21235E-02 2.33474E-04
 -1      8786 6.49346E-02-1.56571E-02 1.81019E-04
 -1      8787 5.82845E-02-1.42075E-02 2.20009E-04
 -1      8788 5.96978E-02-1.21450E-02 1.40078E-04
 -1      8789 6.49548E-02-1.56746E-02 9.05071E-05
 -1      8790 5.83076E-02-1.42247E-02 1.10011E-04
 -1      8791 5.97127E-02-1.21558E-02 4.66941E-05
 -1      8792 6.49615E-02-1.56804E-02-2.52410E-13
 -1      8793 5.83153E-02-1.42304E-02-2.42682E-13
 -1      8794 5.97127E-02-1.21558E-02-4.66941E-05
 -1      8795 6.49548E-02-1.56746E-02-9.05071E-05
 -1      8796 5.83076E-02-1.42247E-02-1.10011E-04
 -1      8797 5.96978E-02-1.21450E-02-1.40078E-04
 -1      8798 6.49346E-02-1.56571E-02-1.81019E-04
 -1      8799 5.82845E-02-1.42075E-02-2.20009E-04
 -1      8800 5.96678E-02-1.21235E-02-2.33474E-04
 -1      8801 4.91077E-02-6.80192E-03 2.48907E-04
 -1      8802 5.42728E-02-9.39261E-03 1.95964E-04
 -1      8803 4.80781E-02-8.87479E-03 2.34426E-04
 -1      8804 4.91428E-02-6.81923E-03 1.49338E-04
 -1      8805 5.42974E-02-9.40735E-03 9.79798E-05
 -1      8806 4.81053E-02-8.88856E-03 1.17218E-04
 -1      8807 4.91603E-02-6.82788E-03 4.97807E-05
 -1      8808 5.43056E-02-9.41226E-03-2.45034E-13
 -1      8809 4.81143E-02-8.89315E-03-2.33482E-13
 -1      8810 4.91603E-02-6.82788E-03-4.97807E-05
 -1      8811 5.42974E-02-9.40735E-03-9.79798E-05
 -1      8812 4.81053E-02-8.88856E-03-1.17218E-04
 -1      8813 4.91428E-02-6.81923E-03-1.49338E-04
 -1      8814 5.42728E-02-9.39261E-03-1.95964E-04
 -1      8815 4.80781E-02-8.87479E-03-2.34426E-04
 -1      8816 4.91077E-02-6.80192E-03-2.48907E-04
 -1      8817 3.90682E-02-3.25175E-03 2.59166E-04
 -1      8818 4.39589E-02-4.97329E-03 2.06278E-04
 -1      8819 3.83676E-02-5.24939E-03 2.44122E-04
 -1      8820 3.91071E-02-3.26383E-03 1.55494E-04
 -1      8821 4.39868E-02-4.98444E-03 1.03137E-04
 -1      8822 3.83978E-02-5.25899E-03 1.22065E-04
 -1      8823 3.91265E-02-3.26986E-03 5.18324E-05
 -1      8824 4.39961E-02-4.98815E-03-2.33386E-13
 -1      8825 3.84078E-02-5.26219E-03-2.20481E-13
 -1      8826 3.91265E-02-3.26986E-03-5.18324E-05
 -1      8827 4.39868E-02-4.98444E-03-1.03137E-04
 -1      8828 3.83978E-02-5.25899E-03-1.22065E-04
 -1      8829 3.91071E-02-3.26383E-03-1.55494E-04
 -1      8830 4.39589E-02-4.97329E-03-2.06278E-04
 -1      8831 3.83676E-02-5.24939E-03-2.44122E-04
 -1      8832 3.90682E-02-3.25175E-03-2.59166E-04
 -1      8833 2.98536E-02-1.26195E-03 2.64863E-04
 -1      8834 3.43217E-02-2.22327E-03 2.12709E-04
 -1      8835 2.94457E-02-3.13021E-03 2.49573E-04
 -1      8836 2.98948E-02-1.26809E-03 1.58913E-04
 -1      8837 3.43519E-02-2.23018E-03 1.06353E-04
 -1      8838 2.94777E-02-3.13509E-03 1.24789E-04
 -1      8839 2.99154E-02-1.27116E-03 5.29718E-05
 -1      8840 3.43620E-02-2.23249E-03-2.18087E-13
 -1      8841 2.94883E-02-3.13672E-03-2.04195E-13
 -1      8842 2.99154E-02-1.27116E-03-5.29718E-05
 -1      8843 3.43519E-02-2.23018E-03-1.06353E-04
 -1      8844 2.94777E-02-3.13509E-03-1.24789E-04
 -1      8845 2.98948E-02-1.26809E-03-1.58913E-04
 -1      8846 3.43217E-02-2.22327E-03-2.12709E-04
 -1      8847 2.94457E-02-3.13021E-03-2.49573E-04
 -1      8848 2.98536E-02-1.26195E-03-2.64863E-04
 -1      8849 2.17052E-02-5.64058E-04 2.66211E-04
 -1      8850 2.56350E-02-9.01679E-04 2.15559E-04
 -1      8851 2.15451E-02-2.26064E-03 2.50926E-04
 -1      8852 2.17472E-02-5.63895E-04 1.59721E-04
 -1      8853 2.56664E-02-9.03948E-04 1.07778E-04
 -1      8854 2.15777E-02-2.26050E-03 1.25465E-04
 -1      8855 2.17682E-02-5.63813E-04 5.32411E-05
 -1      8856 2.56769E-02-9.04705E-04-1.99936E-13
 -1      8857 2.15885E-02-2.26046E-03-1.85475E-13
 -1      8858 2.17682E-02-5.63813E-04-5.32411E-05
 -1      8859 2.56664E-02-9.03948E-04-1.07778E-04
 -1      8860 2.15777E-02-2.26050E-03-1.25465E-04
 -1      8861 2.17472E-02-5.63895E-04-1.59721E-04
 -1      8862 2.56350E-02-9.01679E-04-2.15559E-04
 -1      8863 2.15451E-02-2.26064E-03-2.50926E-04
 -1      8864 2.17052E-02-5.64058E-04-2.66211E-04
 -1      8865 1.47894E-02-8.50740E-04 2.63251E-04
 -1      8866 1.81034E-02-7.19187E-04 2.14909E-04
 -1      8867 1.48271E-02-2.34626E-03 2.48205E-04
 -1      8868 1.48305E-02-8.44286E-04 1.57945E-04
 -1      8869 1.81348E-02-7.16674E-04 1.07454E-04
 -1      8870 1.48590E-02-2.34112E-03 1.24103E-04
 -1      8871 1.48510E-02-8.41060E-04 5.26489E-05
 -1      8872 1.81452E-02-7.15836E-04-1.79526E-13
 -1      8873 1.48696E-02-2.33941E-03-1.64858E-13
 -1      8874 1.48510E-02-8.41060E-04-5.26489E-05
 -1      8875 1.81348E-02-7.16674E-04-1.07454E-04
 -1      8876 1.48590E-02-2.34112E-03-1.24103E-04
 -1      8877 1.48305E-02-8.44286E-04-1.57945E-04
 -1      8878 1.81034E-02-7.19187E-04-2.14909E-04
 -1      8879 1.48271E-02-2.34626E-03-2.48205E-04
 -1      8880 1.47894E-02-8.50740E-04-2.63251E-04
 -1      8881 9.19085E-03-1.79698E-03 2.55994E-04
 -1      8882 1.18525E-02-1.35805E-03 2.10772E-04
 -1      8883 9.37464E-03-3.07528E-03 2.41416E-04
 -1      8884 9.22947E-03-1.78467E-03 1.53592E-04
 -1      8885 1.18826E-02-1.35093E-03 1.05385E-04
 -1      8886 9.40458E-03-3.06548E-03 1.20705E-04
 -1      8887 9.24879E-03-1.77851E-03 5.11974E-05
 -1      8888 1.18926E-02-1.34855E-03-1.57543E-13
 -1      8889 9.41456E-03-3.06221E-03-1.43140E-13
 -1      8890 9.24879E-03-1.77851E-03-5.11974E-05
 -1      8891 1.18826E-02-1.35093E-03-1.05385E-04
 -1      8892 9.40458E-03-3.06548E-03-1.20705E-04
 -1      8893 9.22947E-03-1.78467E-03-1.53592E-04
 -1      8894 1.18525E-02-1.35805E-03-2.10772E-04
 -1      8895 9.37464E-03-3.07528E-03-2.41416E-04
 -1      8896 9.19085E-03-1.79698E-03-2.55994E-04
 -1      8897 4.91231E-03-3.08199E-03 2.44494E-04
 -1      8898 6.92570E-03-2.49382E-03 2.03167E-04
 -1      8899 5.19194E-03-4.13956E-03 2.30611E-04
 -1      8900 4.94703E-03-3.06464E-03 1.46692E-04
 -1      8901 6.95338E-03-2.48255E-03 1.01584E-04
 -1      8902 5.21876E-03-4.12575E-03 1.15299E-04
 -1      8903 4.96439E-03-3.05596E-03 4.88968E-05
 -1      8904 6.96261E-03-2.47880E-03-1.34840E-13
 -1      8905 5.22771E-03-4.12114E-03-1.21002E-13
 -1      8906 4.96439E-03-3.05596E-03-4.88968E-05
 -1      8907 6.95338E-03-2.48255E-03-1.01584E-04
 -1      8908 5.21876E-03-4.12575E-03-1.15299E-04
 -1      8909 4.94703E-03-3.06464E-03-1.46692E-04
 -1      8910 6.92570E-03-2.49382E-03-2.03167E-04
 -1      8911 5.19194E-03-4.13956E-03-2.30611E-04
 -1      8912 4.91231E-03-3.08199E-03-2.44494E-04
 -1      8913 1.87990E-03-4.41010E-03 2.28883E-04
 -1      8914 3.28683E-03-3.81684E-03 1.92167E-04
 -1      8915 2.20948E-03-5.25479E-03 2.15920E-04
 -1      8916 1.90953E-03-4.38888E-03 1.37327E-04
 -1      8917 3.31110E-03-3.80219E-03 9.60850E-05
 -1      8918 2.23226E-03-5.23790E-03 1.07946E-04
 -1      8919 1.92434E-03-4.37827E-03 4.57739E-05
 -1      8920 3.31919E-03-3.79730E-03-1.12146E-13
 -1      8921 2.23986E-03-5.23227E-03-9.92667E-14
 -1      8922 1.92434E-03-4.37827E-03-4.57739E-05
 -1      8923 3.31110E-03-3.80219E-03-9.60850E-05
 -1      8924 2.23226E-03-5.23790E-03-1.07946E-04
 -1      8925 1.90953E-03-4.38888E-03-1.37327E-04
 -1      8926 3.28683E-03-3.81684E-03-1.92167E-04
 -1      8927 2.20948E-03-5.25479E-03-2.15920E-04
 -1      8928 1.87990E-03-4.41010E-03-2.28883E-04
 -1      8929-4.62443E-05-5.52925E-03 2.09401E-04
 -1      8930 8.27927E-04-5.05205E-03 1.77921E-04
 -1      8931 2.94240E-04-6.17830E-03 1.97569E-04
 -1      8932-2.25307E-05-5.50562E-03 1.25640E-04
 -1      8933 8.48022E-04-5.03501E-03 8.89638E-05
 -1      8934 3.12304E-04-6.15948E-03 9.87572E-05
 -1      8935-1.06717E-05-5.49380E-03 4.18761E-05
 -1      8936 8.54718E-04-5.02933E-03-9.02439E-14
 -1      8937 3.18340E-04-6.15321E-03-7.86243E-14
 -1      8938-1.06717E-05-5.49380E-03-4.18761E-05
 -1      8939 8.48022E-04-5.03501E-03-8.89638E-05
 -1      8940 3.12304E-04-6.15948E-03-9.87572E-05
 -1      8941-2.25307E-05-5.50562E-03-1.25640E-04
 -1      8942 8.27927E-04-5.05205E-03-1.77921E-04
 -1      8943 2.94240E-04-6.17830E-03-1.97569E-04
 -1      8944-4.62443E-05-5.52925E-03-2.09401E-04
 -1      8945-1.05696E-03-6.24609E-03 1.86420E-04
 -1      8946-6.17696E-04-5.97582E-03 1.60671E-04
 -1      8947-7.36127E-04-6.72356E-03 1.75908E-04
 -1      8948-1.03958E-03-6.22168E-03 1.11854E-04
 -1      8949-6.02255E-04-5.95757E-03 8.03429E-05
 -1      8950-7.23112E-04-6.70413E-03 8.79039E-05
 -1      8951-1.03088E-03-6.20947E-03 3.72777E-05
 -1      8952-5.97111E-04-5.95149E-03-6.98100E-14
 -1      8953-7.18748E-04-6.69765E-03-5.96290E-14
 -1      8954-1.03088E-03-6.20947E-03-3.72777E-05
 -1      8955-6.02255E-04-5.95757E-03-8.03429E-05
 -1      8956-7.23112E-04-6.70413E-03-8.79039E-05
 -1      8957-1.03958E-03-6.22168E-03-1.11854E-04
 -1      8958-6.17696E-04-5.97582E-03-1.60671E-04
 -1      8959-7.36127E-04-6.72356E-03-1.75908E-04
 -1      8960-1.05696E-03-6.24609E-03-1.86420E-04
 -1      8961-1.37572E-03-6.43687E-03 1.60471E-04
 -1      8962-1.25881E-03-6.42898E-03 1.40783E-04
 -1      8963-1.09590E-03-6.77084E-03 1.51446E-04
 -1      8964-1.36462E-03-6.41335E-03 9.62889E-05
 -1      8965-1.24816E-03-6.41078E-03 7.04047E-05
 -1      8966-1.08790E-03-6.75213E-03 7.56324E-05
 -1      8967-1.35906E-03-6.40159E-03 3.20837E-05
 -1      8968-1.24462E-03-6.40471E-03-5.13434E-14
 -1      8969-1.08518E-03-6.74589E-03-4.27133E-14
 -1      8970-1.35906E-03-6.40159E-03-3.20837E-05
 -1      8971-1.24816E-03-6.41078E-03-7.04047E-05
 -1      8972-1.08790E-03-6.75213E-03-7.56324E-05
 -1      8973-1.36462E-03-6.41335E-03-9.62889E-05
 -1      8974-1.25881E-03-6.42898E-03-1.40783E-04
 -1      8975-1.09590E-03-6.77084E-03-1.51446E-04
 -1      8976-1.37572E-03-6.43687E-03-1.60471E-04
 -1      8977-1.23757E-03-6.05358E-03 1.32254E-04
 -1      8978-1.32656E-03-6.32540E-03 1.18755E-04
 -1      8979-1.01151E-03-6.27333E-03 1.24888E-04
 -1      8980-1.23221E-03-6.03250E-03 7.93679E-05
 -1      8981-1.32047E-03-6.30847E-03 5.94015E-05
 -1      8982-1.00807E-03-6.25659E-03 6.22859E-05
 -1      8983-1.22951E-03-6.02196E-03 2.64341E-05
 -1      8984-1.31845E-03-6.30283E-03-3.53006E-14
 -1      8985-1.00684E-03-6.25101E-03-2.82962E-14
 -1      8986-1.22951E-03-6.02196E-03-2.64341E-05
 -1      8987-1.32047E-03-6.30847E-03-5.94015E-05
 -1      8988-1.00807E-03-6.25659E-03-6.22859E-05
 -1      8989-1.23221E-03-6.03250E-03-7.93679E-05
 -1      8990-1.32656E-03-6.32540E-03-1.18755E-04
 -1      8991-1.01151E-03-6.27333E-03-1.24888E-04
 -1      8992-1.23757E-03-6.05358E-03-1.32254E-04
 -1      8993-8.65913E-04-5.12361E-03 1.02491E-04
 -1      8994-1.05233E-03-5.65526E-03 9.52010E-05
 -1      8995-6.99578E-04-5.25722E-03 9.71293E-05
 -1      8996-8.65311E-04-5.10611E-03 6.15161E-05
 -1      8997-1.05023E-03-5.64065E-03 4.76413E-05
 -1      8998-6.99899E-04-5.24336E-03 4.83002E-05
 -1      8999-8.64983E-04-5.09734E-03 2.04667E-05
 -1      9000-1.04955E-03-5.63578E-03-2.20335E-14
 -1      9001-6.99875E-04-5.23873E-03-1.66362E-14
 -1      9002-8.64983E-04-5.09734E-03-2.04667E-05
 -1      9003-1.05023E-03-5.64065E-03-4.76413E-05
 -1      9004-6.99899E-04-5.24336E-03-4.83002E-05
 -1      9005-8.65311E-04-5.10611E-03-6.15161E-05
 -1      9006-1.05233E-03-5.65526E-03-9.52010E-05
 -1      9007-6.99578E-04-5.25722E-03-9.71293E-05
 -1      9008-8.65913E-04-5.12361E-03-1.02491E-04
 -1      9009-4.49000E-04-3.73743E-03 7.16155E-05
 -1      9010-6.44164E-04-4.47979E-03 7.06341E-05
 -1      9011-3.44260E-04-3.80957E-03 6.91012E-05
 -1      9012-4.52048E-04-3.72379E-03 4.30545E-05
 -1      9013-6.45170E-04-4.46808E-03 3.53957E-05
 -1      9014-3.47419E-04-3.79885E-03 3.41844E-05
 -1      9015-4.53573E-04-3.71696E-03 1.42959E-05
 -1      9016-6.45539E-04-4.46417E-03-1.17433E-14
 -1      9017-3.48268E-04-3.79528E-03-7.90172E-15
 -1      9018-4.53573E-04-3.71696E-03-1.42959E-05
 -1      9019-6.45170E-04-4.46808E-03-3.53957E-05
 -1      9020-3.47419E-04-3.79885E-03-3.41844E-05
 -1      9021-4.52048E-04-3.72379E-03-4.30545E-05
 -1      9022-6.44164E-04-4.47979E-03-7.06341E-05
 -1      9023-3.44260E-04-3.80957E-03-6.91012E-05
 -1      9024-4.49000E-04-3.73743E-03-7.16155E-05
 -1      9025-1.25427E-04-2.01011E-03 3.82465E-05
 -1      9026-2.65682E-04-2.90829E-03 4.50193E-05
 -1      9027-7.96368E-05-2.04025E-03 4.05659E-05
 -1      9028-1.31152E-04-2.00026E-03 2.30367E-05
 -1      9029-2.69121E-04-2.89936E-03 2.26375E-05
 -1      9030-8.55265E-05-2.03248E-03 2.00387E-05
 -1      9031-1.34119E-04-1.99544E-03 7.59150E-06
 -1      9032-2.70344E-04-2.89639E-03-4.52728E-15
 -1      9033-8.73023E-05-2.03000E-03-2.21220E-15
 -1      9034-1.34119E-04-1.99544E-03-7.59150E-06
 -1      9035-2.69121E-04-2.89936E-03-2.26375E-05
 -1      9036-8.55265E-05-2.03248E-03-2.00387E-05
 -1      9037-1.31152E-04-2.00026E-03-2.30367E-05
 -1      9038-2.65682E-04-2.90829E-03-4.50193E-05
 -1      9039-7.96368E-05-2.04025E-03-4.05659E-05
 -1      9040-1.25427E-04-2.01011E-03-3.82465E-05
 -1      9041-3.28068E-05-1.04073E-03 1.36557E-05
 -1      9042-3.59354E-05-1.03599E-03 6.54446E-06
 -1      9043-3.68042E-05-1.03457E-03-5.06961E-16
 -1      9044-3.59354E-05-1.03599E-03-6.54446E-06
 -1      9045-3.28068E-05-1.04073E-03-1.36557E-05
 -1      9046 1.21614E-01-9.73992E-02-1.54024E-04
 -1      9047 1.22038E-01-1.05350E-01-1.34839E-04
 -1      9048 1.18548E-01-9.79736E-02-1.40771E-04
 -1      9049 1.21603E-01-9.73822E-02-9.22584E-05
 -1      9050 1.22032E-01-1.05332E-01-6.71423E-05
 -1      9051 1.18537E-01-9.79593E-02-7.02547E-05
 -1      9052 1.21598E-01-9.73736E-02-3.07111E-05
 -1      9053 1.22030E-01-1.05326E-01-1.77778E-13
 -1      9054 1.18533E-01-9.79544E-02-1.87214E-13
 -1      9055 1.21598E-01-9.73736E-02 3.07111E-05
 -1      9056 1.22032E-01-1.05332E-01 6.71423E-05
 -1      9057 1.18537E-01-9.79593E-02 7.02547E-05
 -1      9058 1.21603E-01-9.73822E-02 9.22584E-05
 -1      9059 1.22038E-01-1.05350E-01 1.34839E-04
 -1      9060 1.18548E-01-9.79736E-02 1.40771E-04
 -1      9061 1.21614E-01-9.73992E-02 1.54024E-04
 -1      9062 1.18422E-01-8.10347E-02-9.51276E-05
 -1      9063 1.20093E-01-8.93042E-02-1.03232E-04
 -1      9064 1.15437E-01-8.19071E-02-8.15470E-05
 -1      9065 1.18408E-01-8.10327E-02-5.70845E-05
 -1      9066 1.20082E-01-8.92969E-02-5.15984E-05
 -1      9067 1.15424E-01-8.19057E-02-4.07617E-05
 -1      9068 1.18400E-01-8.10316E-02-1.90269E-05
 -1      9069 1.20079E-01-8.92944E-02-2.04178E-13
 -1      9070 1.15419E-01-8.19052E-02-2.11018E-13
 -1      9071 1.18400E-01-8.10316E-02 1.90269E-05
 -1      9072 1.20082E-01-8.92969E-02 5.15984E-05
 -1      9073 1.15424E-01-8.19057E-02 4.07617E-05
 -1      9074 1.18408E-01-8.10327E-02 5.70845E-05
 -1      9075 1.20093E-01-8.93042E-02 1.03232E-04
 -1      9076 1.15437E-01-8.19071E-02 8.15470E-05
 -1      9077 1.18422E-01-8.10347E-02 9.51276E-05
 -1      9078 1.12780E-01-6.48943E-02-2.42545E-05
 -1      9079 1.15659E-01-7.29579E-02-4.76535E-05
 -1      9080 1.09920E-01-6.60504E-02-1.38966E-05
 -1      9081 1.12770E-01-6.49048E-02-1.45567E-05
 -1      9082 1.15649E-01-7.29615E-02-2.38295E-05
 -1      9083 1.09911E-01-6.60595E-02-6.94477E-06
 -1      9084 1.12765E-01-6.49101E-02-4.85084E-06
 -1      9085 1.15646E-01-7.29627E-02-2.26746E-13
 -1      9086 1.09908E-01-6.60625E-02-2.30711E-13
 -1      9087 1.12765E-01-6.49101E-02 4.85084E-06
 -1      9088 1.15649E-01-7.29615E-02 2.38295E-05
 -1      9089 1.09911E-01-6.60595E-02 6.94477E-06
 -1      9090 1.12770E-01-6.49048E-02 1.45567E-05
 -1      9091 1.15659E-01-7.29579E-02 4.76535E-05
 -1      9092 1.09920E-01-6.60504E-02 1.38966E-05
 -1      9093 1.12780E-01-6.48943E-02 2.42545E-05
 -1      9094 1.05030E-01-4.98202E-02 3.77539E-05
 -1      9095 1.08924E-01-5.72918E-02 7.47915E-06
 -1      9096 1.02361E-01-5.12553E-02 4.41497E-05
 -1      9097 1.05028E-01-4.98385E-02 2.26397E-05
 -1      9098 1.08919E-01-5.73032E-02 3.73835E-06
 -1      9099 1.02359E-01-5.12706E-02 2.20784E-05
 -1      9100 1.05028E-01-4.98477E-02 7.54755E-06
 -1      9101 1.08918E-01-5.73070E-02-2.44821E-13
 -1      9102 1.02358E-01-5.12757E-02-2.46130E-13
 -1      9103 1.05028E-01-4.98477E-02-7.54755E-06
 -1      9104 1.08919E-01-5.73032E-02-3.73835E-06
 -1      9105 1.02359E-01-5.12706E-02-2.20784E-05
 -1      9106 1.05028E-01-4.98385E-02-2.26397E-05
 -1      9107 1.08924E-01-5.72918E-02-7.47915E-06
 -1      9108 1.02361E-01-5.12553E-02-4.41497E-05
 -1      9109 1.05030E-01-4.98202E-02-3.77539E-05
 -1      9110 9.56487E-02-3.63546E-02 8.44842E-05
 -1      9111 1.00318E-01-4.29939E-02 5.16792E-05
 -1      9112 9.32398E-02-3.80420E-02 8.77058E-05
 -1      9113 9.56562E-02-3.63766E-02 5.06780E-05
 -1      9114 1.00321E-01-4.30095E-02 2.58376E-05
 -1      9115 9.32451E-02-3.80600E-02 4.38576E-05
 -1      9116 9.56599E-02-3.63876E-02 1.68942E-05
 -1      9117 1.00321E-01-4.30147E-02-2.58598E-13
 -1      9118 9.32469E-02-3.80660E-02-2.56822E-13
 -1      9119 9.56599E-02-3.63876E-02-1.68942E-05
 -1      9120 1.00321E-01-4.30095E-02-2.58376E-05
 -1      9121 9.32451E-02-3.80600E-02-4.38576E-05
 -1      9122 9.56562E-02-3.63766E-02-5.06780E-05
 -1      9123 1.00318E-01-4.29939E-02-5.16792E-05
 -1      9124 9.32398E-02-3.80420E-02-8.77058E-05
 -1      9125 9.56487E-02-3.63546E-02-8.44842E-05
 -1      9126 8.51220E-02-2.48090E-02 1.17234E-04
 -1      9127 9.03314E-02-3.04790E-02 8.35834E-05
 -1      9128 8.30281E-02-2.66972E-02 1.18480E-04
 -1      9129 8.51376E-02-2.48319E-02 7.03287E-05
 -1      9130 9.03401E-02-3.04962E-02 4.17892E-05
 -1      9131 8.30398E-02-2.67156E-02 5.92455E-05
 -1      9132 8.51454E-02-2.48433E-02 2.34448E-05
 -1      9133 9.03431E-02-3.05019E-02-2.67048E-13
 -1      9134 8.30438E-02-2.67218E-02-2.62149E-13
 -1      9135 8.51454E-02-2.48433E-02-2.34448E-05
 -1      9136 9.03401E-02-3.04962E-02-4.17892E-05
 -1      9137 8.30398E-02-2.67156E-02-5.92455E-05
 -1      9138 8.51376E-02-2.48319E-02-7.03287E-05
 -1      9139 9.03314E-02-3.04790E-02-8.35834E-05
 -1      9140 8.30281E-02-2.66972E-02-1.18480E-04
 -1      9141 8.51220E-02-2.48090E-02-1.17234E-04
 -1      9142 7.39151E-02-1.53389E-02 1.39590E-04
 -1      9143 7.94372E-02-1.99725E-02 1.05578E-04
 -1      9144 7.21692E-02-1.73605E-02 1.39860E-04
 -1      9145 7.39377E-02-1.53606E-02 8.37443E-05
 -1      9146 7.94516E-02-1.99894E-02 5.27861E-05
 -1      9147 7.21865E-02-1.73779E-02 6.99356E-05
 -1      9148 7.39490E-02-1.53715E-02 2.79168E-05
 -1      9149 7.94564E-02-1.99951E-02-2.69757E-13
 -1      9150 7.21922E-02-1.73837E-02-2.62204E-13
 -1      9151 7.39490E-02-1.53715E-02-2.79168E-05
 -1      9152 7.94516E-02-1.99894E-02-5.27861E-05
 -1      9153 7.21865E-02-1.73779E-02-6.99356E-05
 -1      9154 7.39377E-02-1.53606E-02-8.37443E-05
 -1      9155 7.94372E-02-1.99725E-02-1.05578E-04
 -1      9156 7.21692E-02-1.73605E-02-1.39860E-04
 -1      9157 7.39151E-02-1.53389E-02-1.39590E-04
 -1      9158 6.24728E-02-7.98233E-03 1.54809E-04
 -1      9159 6.80889E-02-1.15674E-02 1.20575E-04
 -1      9160 6.10861E-02-1.00647E-02 1.54742E-04
 -1      9161 6.25013E-02-8.00148E-03 9.28768E-05
 -1      9162 6.81082E-02-1.15829E-02 6.02843E-05
 -1      9163 6.11079E-02-1.00799E-02 7.73762E-05
 -1      9164 6.25155E-02-8.01106E-03 3.09609E-05
 -1      9165 6.81146E-02-1.15881E-02-2.66995E-13
 -1      9166 6.11152E-02-1.00850E-02-2.57027E-13
 -1      9167 6.25155E-02-8.01106E-03-3.09609E-05
 -1      9168 6.81082E-02-1.15829E-02-6.02843E-05
 -1      9169 6.11079E-02-1.00799E-02-7.73762E-05
 -1      9170 6.25013E-02-8.00148E-03-9.28768E-05
 -1      9171 6.80889E-02-1.15674E-02-1.20575E-04
 -1      9172 6.10861E-02-1.00647E-02-1.54742E-04
 -1      9173 6.24728E-02-7.98233E-03-1.54809E-04
 -1      9174 5.12148E-02-2.67703E-03 1.65099E-04
 -1      9175 5.67185E-02-5.25046E-03 1.30794E-04
 -1      9176 5.01794E-02-4.74904E-03 1.65027E-04
 -1      9177 5.12480E-02-2.69245E-03 9.90518E-05
 -1      9178 5.67417E-02-5.26358E-03 6.53939E-05
 -1      9179 5.02049E-02-4.76129E-03 8.25183E-05
 -1      9180 5.12645E-02-2.70017E-03 3.30192E-05
 -1      9181 5.67494E-02-5.26796E-03-2.58995E-13
 -1      9182 5.02134E-02-4.76537E-03-2.46912E-13
 -1      9183 5.12645E-02-2.70017E-03-3.30192E-05
 -1      9184 5.67417E-02-5.26358E-03-6.53939E-05
 -1      9185 5.02049E-02-4.76129E-03-8.25183E-05
 -1      9186 5.12480E-02-2.69245E-03-9.90518E-05
 -1      9187 5.67185E-02-5.25046E-03-1.30794E-04
 -1      9188 5.01794E-02-4.74904E-03-1.65027E-04
 -1      9189 5.12148E-02-2.67703E-03-1.65099E-04
 -1      9190 4.05235E-02 7.29530E-04 1.71712E-04
 -1      9191 4.57274E-02-9.13315E-04 1.37602E-04
 -1      9192 3.98158E-02-1.26787E-03 1.71767E-04
 -1      9193 4.05601E-02 7.18743E-04 1.03020E-04
 -1      9194 4.57537E-02-9.23262E-04 6.87982E-05
 -1      9195 3.98440E-02-1.27643E-03 8.58877E-05
 -1      9196 4.05784E-02 7.13349E-04 3.43419E-05
 -1      9197 4.57624E-02-9.26578E-04-2.46363E-13
 -1      9198 3.98534E-02-1.27928E-03-2.32815E-13
 -1      9199 4.05784E-02 7.13349E-04-3.43419E-05
 -1      9200 4.57537E-02-9.23262E-04-6.87982E-05
 -1      9201 3.98440E-02-1.27643E-03-8.58877E-05
 -1      9202 4.05601E-02 7.18743E-04-1.03020E-04
 -1      9203 4.57274E-02-9.13315E-04-1.37602E-04
 -1      9204 3.98158E-02-1.26787E-03-1.71767E-04
 -1      9205 4.05235E-02 7.29530E-04-1.71712E-04
 -1      9206 3.07273E-02 2.46783E-03 1.75246E-04
 -1      9207 3.54720E-02 1.63653E-03 1.41712E-04
 -1      9208 3.03115E-02 5.99436E-04 1.75451E-04
 -1      9209 3.07660E-02 2.46233E-03 1.05141E-04
 -1      9210 3.55004E-02 1.63035E-03 7.08531E-05
 -1      9211 3.03414E-02 5.95082E-04 8.77297E-05
 -1      9212 3.07853E-02 2.45959E-03 3.50490E-05
 -1      9213 3.55099E-02 1.62829E-03-2.29801E-13
 -1      9214 3.03514E-02 5.93631E-04-2.15224E-13
 -1      9215 3.07853E-02 2.45959E-03-3.50490E-05
 -1      9216 3.55004E-02 1.63035E-03-7.08531E-05
 -1      9217 3.03414E-02 5.95082E-04-8.77297E-05
 -1      9218 3.07660E-02 2.46233E-03-1.05141E-04
 -1      9219 3.54720E-02 1.63653E-03-1.41712E-04
 -1      9220 3.03115E-02 5.99436E-04-1.75451E-04
 -1      9221 3.07273E-02 2.46783E-03-1.75246E-04
 -1      9222 2.20846E-02 2.82976E-03 1.75930E-04
 -1      9223 2.62467E-02 2.66159E-03 1.43430E-04
 -1      9224 2.19164E-02 1.13286E-03 1.76260E-04
 -1      9225 2.21240E-02 2.82990E-03 1.05551E-04
 -1      9226 2.62762E-02 2.65956E-03 7.17122E-05
 -1      9227 2.19468E-02 1.13297E-03 8.81343E-05
 -1      9228 2.21437E-02 2.82996E-03 3.51859E-05
 -1      9229 2.62860E-02 2.65888E-03-2.10271E-13
 -1      9230 2.19570E-02 1.13301E-03-1.95204E-13
 -1      9231 2.21437E-02 2.82996E-03-3.51859E-05
 -1      9232 2.62762E-02 2.65956E-03-7.17122E-05
 -1      9233 2.19468E-02 1.13297E-03-8.81343E-05
 -1      9234 2.21240E-02 2.82990E-03-1.05551E-04
 -1      9235 2.62467E-02 2.66159E-03-1.43430E-04
 -1      9236 2.19164E-02 1.13286E-03-1.76260E-04
 -1      9237 2.20846E-02 2.82976E-03-1.75930E-04
 -1      9238 1.47723E-02 2.14820E-03 1.73818E-04
 -1      9239 1.82697E-02 2.47587E-03 1.42855E-04
 -1      9240 1.48018E-02 6.52256E-04 1.74236E-04
 -1      9241 1.48109E-02 2.15395E-03 1.04284E-04
 -1      9242 1.82991E-02 2.47811E-03 7.14242E-05
 -1      9243 1.48316E-02 6.56822E-04 8.71226E-05
 -1      9244 1.48302E-02 2.15683E-03 3.47639E-05
 -1      9245 1.83090E-02 2.47885E-03-1.88436E-13
 -1      9246 1.48416E-02 6.58344E-04-1.73055E-13
 -1      9247 1.48302E-02 2.15683E-03-3.47639E-05
 -1      9248 1.82991E-02 2.47811E-03-7.14242E-05
 -1      9249 1.48316E-02 6.56822E-04-8.71226E-05
 -1      9250 1.48109E-02 2.15395E-03-1.04284E-04
 -1      9251 1.82697E-02 2.47587E-03-1.42855E-04
 -1      9252 1.48018E-02 6.52256E-04-1.74236E-04
 -1      9253 1.47723E-02 2.14820E-03-1.73818E-04
 -1      9254 8.87880E-03 7.74181E-04 1.68917E-04
 -1      9255 1.16738E-02 1.42303E-03 1.40002E-04
 -1      9256 9.05436E-03-5.04586E-04 1.69387E-04
 -1      9257 8.91515E-03 7.85164E-04 1.01343E-04
 -1      9258 1.17021E-02 1.42939E-03 6.99968E-05
 -1      9259 9.08244E-03-4.95871E-04 8.46985E-05
 -1      9260 8.93332E-03 7.90656E-04 3.37843E-05
 -1      9261 1.17115E-02 1.43150E-03-1.64952E-13
 -1      9262 9.09180E-03-4.92965E-04-1.49819E-13
 -1      9263 8.93332E-03 7.90656E-04-3.37843E-05
 -1      9264 1.17021E-02 1.42939E-03-6.99968E-05
 -1      9265 9.08244E-03-4.95871E-04-8.46985E-05
 -1      9266 8.91515E-03 7.85164E-04-1.01343E-04
 -1      9267 1.16738E-02 1.42303E-03-1.40002E-04
 -1      9268 9.05436E-03-5.04586E-04-1.69387E-04
 -1      9269 8.87880E-03 7.74181E-04-1.68917E-04
 -1      9270 4.40415E-03-9.46575E-04 1.61251E-04
 -1      9271 6.50290E-03-1.46837E-04 1.34879E-04
 -1      9272 4.67558E-03-2.00464E-03 1.61743E-04
 -1      9273 4.43700E-03-9.31100E-04 9.67421E-05
 -1      9274 6.52902E-03-1.36787E-04 6.74338E-05
 -1      9275 4.70089E-03-1.99236E-03 8.08777E-05
 -1      9276 4.45343E-03-9.23361E-04 3.22521E-05
 -1      9277 6.53773E-03-1.33438E-04-1.40729E-13
 -1      9278 4.70932E-03-1.98827E-03-1.26209E-13
 -1      9279 4.45343E-03-9.23361E-04-3.22521E-05
 -1      9280 6.52902E-03-1.36787E-04-6.74338E-05
 -1      9281 4.70089E-03-1.99236E-03-8.08777E-05
 -1      9282 4.43700E-03-9.31100E-04-9.67421E-05
 -1      9283 6.50290E-03-1.46837E-04-1.34879E-04
 -1      9284 4.67558E-03-2.00464E-03-1.61743E-04
 -1      9285 4.40415E-03-9.46575E-04-1.61251E-04
 -1      9286 1.26605E-03-2.69604E-03 1.50898E-04
 -1      9287 2.71507E-03-1.90029E-03 1.27526E-04
 -1      9288 1.58747E-03-3.54126E-03 1.51390E-04
 -1      9289 1.29438E-03-2.67712E-03 9.05286E-05
 -1      9290 2.73813E-03-1.88723E-03 6.37547E-05
 -1      9291 1.60918E-03-3.52624E-03 7.57029E-05
 -1      9292 1.30854E-03-2.66766E-03 3.01833E-05
 -1      9293 2.74582E-03-1.88287E-03-1.16559E-13
 -1      9294 1.61641E-03-3.52124E-03-1.03060E-13
 -1      9295 1.30854E-03-2.66766E-03-3.01833E-05
 -1      9296 2.73813E-03-1.88723E-03-6.37547E-05
 -1      9297 1.60918E-03-3.52624E-03-7.57029E-05
 -1      9298 1.29438E-03-2.67712E-03-9.05286E-05
 -1      9299 2.71507E-03-1.90029E-03-1.27526E-04
 -1      9300 1.58747E-03-3.54126E-03-1.51390E-04
 -1      9301 1.26605E-03-2.69604E-03-1.50898E-04
 -1      9302-6.88496E-04-4.20367E-03 1.38017E-04
 -1      9303 1.91439E-04-3.54174E-03 1.18039E-04
 -1      9304-3.56212E-04-4.85331E-03 1.38485E-04
 -1      9305-6.65445E-04-4.18261E-03 8.27965E-05
 -1      9306 2.10776E-04-3.52655E-03 5.90066E-05
 -1      9307-3.38682E-04-4.83659E-03 6.92539E-05
 -1      9308-6.53923E-04-4.17207E-03 2.76101E-05
 -1      9309 2.17229E-04-3.52149E-03-9.32949E-14
 -1      9310-3.32845E-04-4.83101E-03-8.11146E-14
 -1      9311-6.53923E-04-4.17207E-03-2.76101E-05
 -1      9312 2.10776E-04-3.52655E-03-5.90066E-05
 -1      9313-3.38682E-04-4.83659E-03-6.92539E-05
 -1      9314-6.65445E-04-4.18261E-03-8.27965E-05
 -1      9315 1.91439E-04-3.54174E-03-1.18039E-04
 -1      9316-3.56212E-04-4.85331E-03-1.38485E-04
 -1      9317-6.88496E-04-4.20367E-03-1.38017E-04
 -1      9318-1.66684E-03-5.26250E-03 1.22863E-04
 -1      9319-1.24970E-03-4.83143E-03 1.06586E-04
 -1      9320-1.35433E-03-5.74074E-03 1.23278E-04
 -1      9321-1.64942E-03-5.24073E-03 7.36975E-05
 -1      9322-1.23452E-03-4.81516E-03 5.32721E-05
 -1      9323-1.34127E-03-5.72346E-03 6.16560E-05
 -1      9324-1.64072E-03-5.22984E-03 2.45840E-05
 -1      9325-1.22944E-03-4.80973E-03-7.16551E-14
 -1      9326-1.33693E-03-5.71770E-03-6.10329E-14
 -1      9327-1.64072E-03-5.22984E-03-2.45840E-05
 -1      9328-1.23452E-03-4.81516E-03-5.32721E-05
 -1      9329-1.34127E-03-5.72346E-03-6.16560E-05
 -1      9330-1.64942E-03-5.24073E-03-7.36975E-05
 -1      9331-1.24970E-03-4.83143E-03-1.06586E-04
 -1      9332-1.35433E-03-5.74074E-03-1.23278E-04
 -1      9333-1.66684E-03-5.26250E-03-1.22863E-04
 -1      9334-1.91033E-03-5.74046E-03 1.05790E-04
 -1      9335-1.83456E-03-5.59922E-03 9.34179E-05
 -1      9336-1.63902E-03-6.07574E-03 1.06120E-04
 -1      9337-1.89851E-03-5.71947E-03 6.34400E-05
 -1      9338-1.82365E-03-5.58297E-03 4.66751E-05
 -1      9339-1.63040E-03-6.05908E-03 5.30852E-05
 -1      9340-1.89261E-03-5.70896E-03 2.11759E-05
 -1      9341-1.81999E-03-5.57756E-03-5.22311E-14
 -1      9342-1.62754E-03-6.05353E-03-4.32767E-14
 -1      9343-1.89261E-03-5.70896E-03-2.11759E-05
 -1      9344-1.82365E-03-5.58297E-03-4.66751E-05
 -1      9345-1.63040E-03-6.05908E-03-5.30852E-05
 -1      9346-1.89851E-03-5.71947E-03-6.34400E-05
 -1      9347-1.83456E-03-5.59922E-03-9.34179E-05
 -1      9348-1.63902E-03-6.07574E-03-1.06120E-04
 -1      9349-1.91033E-03-5.74046E-03-1.05790E-04
 -1      9350-1.67101E-03-5.58645E-03 8.71957E-05
 -1      9351-1.81200E-03-5.75337E-03 7.88559E-05
 -1      9352-1.45353E-03-5.80875E-03 8.74377E-05
 -1      9353-1.66436E-03-5.56761E-03 5.22528E-05
 -1      9354-1.80519E-03-5.73824E-03 3.93739E-05
 -1      9355-1.44896E-03-5.79378E-03 4.37535E-05
 -1      9356-1.66103E-03-5.55816E-03 1.74626E-05
 -1      9357-1.80289E-03-5.73320E-03-3.54990E-14
 -1      9358-1.44747E-03-5.78880E-03-2.82897E-14
 -1      9359-1.66103E-03-5.55816E-03-1.74626E-05
 -1      9360-1.80519E-03-5.73824E-03-3.93739E-05
 -1      9361-1.44896E-03-5.79378E-03-4.37535E-05
 -1      9362-1.66436E-03-5.56761E-03-5.22528E-05
 -1      9363-1.81200E-03-5.75337E-03-7.88559E-05
 -1      9364-1.45353E-03-5.80875E-03-8.74377E-05
 -1      9365-1.67101E-03-5.58645E-03-8.71957E-05
 -1      9366-1.18610E-03-4.82935E-03 6.72227E-05
 -1      9367-1.42907E-03-5.28337E-03 6.31830E-05
 -1      9368-1.02773E-03-4.96781E-03 6.75595E-05
 -1      9369-1.18386E-03-4.81368E-03 4.01894E-05
 -1      9370-1.42592E-03-5.27029E-03 3.15085E-05
 -1      9371-1.02657E-03-4.95532E-03 3.38153E-05
 -1      9372-1.18270E-03-4.80580E-03 1.34578E-05
 -1      9373-1.42482E-03-5.26591E-03-2.17963E-14
 -1      9374-1.02622E-03-4.95118E-03-1.63263E-14
 -1      9375-1.18270E-03-4.80580E-03-1.34578E-05
 -1      9376-1.42592E-03-5.27029E-03-3.15085E-05
 -1      9377-1.02657E-03-4.95532E-03-3.38153E-05
 -1      9378-1.18386E-03-4.81368E-03-4.01894E-05
 -1      9379-1.42907E-03-5.28337E-03-6.31830E-05
 -1      9380-1.02773E-03-4.96781E-03-6.75595E-05
 -1      9381-1.18610E-03-4.82935E-03-6.72227E-05
 -1      9382-6.53176E-04-3.56611E-03 4.51674E-05
 -1      9383-9.05312E-04-4.25426E-03 4.62503E-05
 -1      9384-5.54432E-04-3.64601E-03 4.62896E-05
 -1      9385-6.54692E-04-3.55397E-03 2.67330E-05
 -1      9386-9.05229E-04-4.24377E-03 2.30207E-05
 -1      9387-5.55915E-04-3.63626E-03 2.31288E-05
 -1      9388-6.55250E-04-3.54782E-03 8.95930E-06
 -1      9389-9.05132E-04-4.24025E-03-1.13476E-14
 -1      9390-5.56422E-04-3.63306E-03-7.54578E-15
 -1      9391-6.55250E-04-3.54782E-03-8.95930E-06
 -1      9392-9.05229E-04-4.24377E-03-2.30207E-05
 -1      9393-5.55915E-04-3.63626E-03-2.31288E-05
 -1      9394-6.54692E-04-3.55397E-03-2.67330E-05
 -1      9395-9.05312E-04-4.25426E-03-4.62503E-05
 -1      9396-5.54432E-04-3.64601E-03-4.62896E-05
 -1      9397-6.53176E-04-3.56611E-03-4.51674E-05
 -1      9398-2.18095E-04-1.92730E-03 1.82314E-05
 -1      9399-4.11951E-04-2.78555E-03 2.68140E-05
 -1      9400-1.75537E-04-1.96567E-03 2.19348E-05
 -1      9401-2.22870E-04-1.91865E-03 9.88480E-06
 -1      9402-4.14649E-04-2.77760E-03 1.33532E-05
 -1      9403-1.79223E-04-1.95854E-03 1.06783E-05
 -1      9404-2.24546E-04-1.91432E-03 3.18232E-06
 -1      9405-4.15490E-04-2.77493E-03-4.22429E-15
 -1      9406-1.80328E-04-1.95627E-03-2.01343E-15
 -1      9407-2.24546E-04-1.91432E-03-3.18232E-06
 -1      9408-4.14649E-04-2.77760E-03-1.33532E-05
 -1      9409-1.79223E-04-1.95854E-03-1.06783E-05
 -1      9410-2.22870E-04-1.91865E-03-9.88480E-06
 -1      9411-4.11951E-04-2.78555E-03-2.68140E-05
 -1      9412-1.75537E-04-1.96567E-03-2.19348E-05
 -1      9413-2.18095E-04-1.92730E-03-1.82314E-05
 -1      9414-7.37667E-05-9.98975E-04-1.68057E-07
 -1      9415-7.54573E-05-9.94664E-04 3.72947E-08
 -1      9416-7.59395E-05-9.93356E-04-4.29912E-16
 -1      9417-7.54573E-05-9.94664E-04-3.72947E-08
 -1      9418-7.37667E-05-9.98975E-04 1.68057E-07
 -1      9419 1.27758E-01-9.62988E-02-1.17583E-04
 -1      9420 1.28238E-01-1.04607E-01-9.65803E-05
 -1      9421 1.24676E-01-9.68298E-02-1.07674E-04
 -1      9422 1.27753E-01-9.62853E-02-7.04658E-05
 -1      9423 1.28236E-01-1.04593E-01-4.80662E-05
 -1      9424 1.24671E-01-9.68184E-02-5.37642E-05
 -1      9425 1.27750E-01-9.62785E-02-2.34650E-05
 -1      9426 1.28235E-01-1.04588E-01-1.85779E-13
 -1      9427 1.24669E-01-9.68146E-02-1.96237E-13
 -1      9428 1.27750E-01-9.62785E-02 2.34650E-05
 -1      9429 1.28236E-01-1.04593E-01 4.80662E-05
 -1      9430 1.24671E-01-9.68184E-02 5.37642E-05
 -1      9431 1.27753E-01-9.62853E-02 7.04658E-05
 -1      9432 1.28238E-01-1.04607E-01 9.65803E-05
 -1      9433 1.24676E-01-9.68298E-02 1.07674E-04
 -1      9434 1.27758E-01-9.62988E-02 1.17583E-04
 -1      9435 1.24388E-01-7.93156E-02-8.35130E-05
 -1      9436 1.26144E-01-8.78855E-02-8.36999E-05
 -1      9437 1.21395E-01-8.01701E-02-7.12148E-05
 -1      9438 1.24379E-01-7.93133E-02-5.01122E-05
 -1      9439 1.26138E-01-8.78793E-02-4.18461E-05
 -1      9440 1.21387E-01-8.01683E-02-3.55995E-05
 -1      9441 1.24375E-01-7.93121E-02-1.67029E-05
 -1      9442 1.26136E-01-8.78773E-02-2.13991E-13
 -1      9443 1.21384E-01-8.01677E-02-2.21742E-13
 -1      9444 1.24375E-01-7.93121E-02 1.67029E-05
 -1      9445 1.26138E-01-8.78793E-02 4.18461E-05
 -1      9446 1.21387E-01-8.01683E-02 3.55995E-05
 -1      9447 1.24379E-01-7.93133E-02 5.01122E-05
 -1      9448 1.26144E-01-8.78855E-02 8.36999E-05
 -1      9449 1.21395E-01-8.01701E-02 7.12148E-05
 -1      9450 1.24388E-01-7.93156E-02 8.35130E-05
 -1      9451 1.18488E-01-6.25975E-02-3.63812E-05
 -1      9452 1.21499E-01-7.09508E-02-4.81681E-05
 -1      9453 1.15629E-01-6.37513E-02-2.44837E-05
 -1      9454 1.18482E-01-6.26055E-02-2.18293E-05
 -1      9455 1.21492E-01-7.09532E-02-2.40861E-05
 -1      9456 1.15623E-01-6.37581E-02-1.22391E-05
 -1      9457 1.18479E-01-6.26094E-02-7.27527E-06
 -1      9458 1.21490E-01-7.09539E-02-2.38219E-13
 -1      9459 1.15621E-01-6.37604E-02-2.42923E-13
 -1      9460 1.18479E-01-6.26094E-02 7.27527E-06
 -1      9461 1.21492E-01-7.09532E-02 2.40861E-05
 -1      9462 1.15623E-01-6.37581E-02 1.22391E-05
 -1      9463 1.18482E-01-6.26055E-02 2.18293E-05
 -1      9464 1.21499E-01-7.09508E-02 4.81681E-05
 -1      9465 1.15629E-01-6.37513E-02 2.44837E-05
 -1      9466 1.18488E-01-6.25975E-02 3.63812E-05
 -1      9467 1.10359E-01-4.69648E-02 6.16532E-06
 -1      9468 1.14449E-01-5.47158E-02-1.05246E-05
 -1      9469 1.07695E-01-4.84036E-02 1.71364E-05
 -1      9470 1.10360E-01-4.69797E-02 3.68911E-06
 -1      9471 1.14446E-01-5.47247E-02-5.26293E-06
 -1      9472 1.07694E-01-4.84160E-02 8.57087E-06
 -1      9473 1.10361E-01-4.69872E-02 1.23034E-06
 -1      9474 1.14446E-01-5.47277E-02-2.57860E-13
 -1      9475 1.07694E-01-4.84202E-02-2.59765E-13
 -1      9476 1.10361E-01-4.69872E-02-1.23034E-06
 -1      9477 1.14446E-01-5.47247E-02 5.26293E-06
 -1      9478 1.07694E-01-4.84160E-02-8.57087E-06
 -1      9479 1.10360E-01-4.69797E-02-3.68911E-06
 -1      9480 1.14449E-01-5.47158E-02 1.05246E-05
 -1      9481 1.07695E-01-4.84036E-02-1.71364E-05
 -1      9482 1.10359E-01-4.69648E-02-6.16532E-06
 -1      9483 1.00469E-01-3.29966E-02 3.79094E-05
 -1      9484 1.05399E-01-3.98825E-02 1.99397E-05
 -1      9485 9.80635E-02-3.46892E-02 4.84700E-05
 -1      9486 1.00477E-01-3.30153E-02 2.27344E-05
 -1      9487 1.05402E-01-3.98955E-02 9.96860E-06
 -1      9488 9.80694E-02-3.47044E-02 2.42389E-05
 -1      9489 1.00481E-01-3.30246E-02 7.57925E-06
 -1      9490 1.05403E-01-3.98999E-02-2.72845E-13
 -1      9491 9.80714E-02-3.47095E-02-2.71458E-13
 -1      9492 1.00481E-01-3.30246E-02-7.57925E-06
 -1      9493 1.05402E-01-3.98955E-02-9.96860E-06
 -1      9494 9.80694E-02-3.47044E-02-2.42389E-05
 -1      9495 1.00477E-01-3.30153E-02-2.27344E-05
 -1      9496 1.05399E-01-3.98825E-02-1.99397E-05
 -1      9497 9.80635E-02-3.46892E-02-4.84700E-05
 -1      9498 1.00469E-01-3.29966E-02-3.79094E-05
 -1      9499 8.93254E-02-2.10505E-02 5.92330E-05
 -1      9500 9.48448E-02-2.69122E-02 4.13900E-05
 -1      9501 8.72323E-02-2.29439E-02 7.00980E-05
 -1      9502 8.93409E-02-2.10704E-02 3.55285E-05
 -1      9503 9.48538E-02-2.69270E-02 2.06931E-05
 -1      9504 8.72440E-02-2.29599E-02 3.50540E-05
 -1      9505 8.93487E-02-2.10804E-02 1.18443E-05
 -1      9506 9.48569E-02-2.69319E-02-2.81880E-13
 -1      9507 8.72479E-02-2.29652E-02-2.77158E-13
 -1      9508 8.93487E-02-2.10804E-02-1.18443E-05
 -1      9509 9.48538E-02-2.69270E-02-2.06931E-05
 -1      9510 8.72440E-02-2.29599E-02-3.50540E-05
 -1      9511 8.93409E-02-2.10704E-02-3.55285E-05
 -1      9512 9.48448E-02-2.69122E-02-4.13900E-05
 -1      9513 8.72323E-02-2.29439E-02-7.00980E-05
 -1      9514 8.93254E-02-2.10505E-02-5.92330E-05
 -1      9515 7.74344E-02-1.13123E-02 7.27988E-05
 -1      9516 8.32956E-02-1.60697E-02 5.53918E-05
 -1      9517 7.56868E-02-1.33391E-02 8.44732E-05
 -1      9518 7.74563E-02-1.13315E-02 4.36692E-05
 -1      9519 8.33098E-02-1.60846E-02 2.76934E-05
 -1      9520 7.57034E-02-1.33545E-02 4.22423E-05
 -1      9521 7.74672E-02-1.13411E-02 1.45582E-05
 -1      9522 8.33145E-02-1.60896E-02-2.84825E-13
 -1      9523 7.57090E-02-1.33596E-02-2.77154E-13
 -1      9524 7.74672E-02-1.13411E-02-1.45582E-05
 -1      9525 8.33098E-02-1.60846E-02-2.76934E-05
 -1      9526 7.57034E-02-1.33545E-02-4.22423E-05
 -1      9527 7.74563E-02-1.13315E-02-4.36692E-05
 -1      9528 8.32956E-02-1.60697E-02-5.53918E-05
 -1      9529 7.56868E-02-1.33391E-02-8.44732E-05
 -1      9530 7.74344E-02-1.13123E-02-7.27988E-05
 -1      9531 6.52828E-02-3.83198E-03 8.12504E-05
 -1      9532 7.12467E-02-7.46897E-03 6.42249E-05
 -1      9533 6.38928E-02-5.91916E-03 9.39412E-05
 -1      9534 6.53100E-02-3.84905E-03 4.87413E-05
 -1      9535 7.12652E-02-7.48276E-03 3.21096E-05
 -1      9536 6.39136E-02-5.93271E-03 4.69766E-05
 -1      9537 6.53236E-02-3.85759E-03 1.62491E-05
 -1      9538 7.12714E-02-7.48736E-03-2.81733E-13
 -1      9539 6.39206E-02-5.93723E-03-2.71378E-13
 -1      9540 6.53236E-02-3.85759E-03-1.62491E-05
 -1      9541 7.12652E-02-7.48276E-03-3.21096E-05
 -1      9542 6.39136E-02-5.93271E-03-4.69766E-05
 -1      9543 6.53100E-02-3.84905E-03-4.87413E-05
 -1      9544 7.12467E-02-7.46897E-03-6.42249E-05
 -1      9545 6.38928E-02-5.91916E-03-9.39412E-05
 -1      9546 6.52828E-02-3.83198E-03-8.12504E-05
 -1      9547 5.33286E-02 1.45592E-03 8.64615E-05
 -1      9548 5.91703E-02-1.10019E-03 6.97379E-05
 -1      9549 5.22892E-02-6.20292E-04 1.00135E-04
 -1      9550 5.33601E-02 1.44211E-03 5.18688E-05
 -1      9551 5.91924E-02-1.11192E-03 3.48658E-05
 -1      9552 5.23134E-02-6.31235E-04 5.00735E-05
 -1      9553 5.33758E-02 1.43520E-03 1.72918E-05
 -1      9554 5.91998E-02-1.11583E-03-2.72969E-13
 -1      9555 5.23214E-02-6.34883E-04-2.60440E-13
 -1      9556 5.33758E-02 1.43520E-03-1.72918E-05
 -1      9557 5.91924E-02-1.11192E-03-3.48658E-05
 -1      9558 5.23134E-02-6.31235E-04-5.00735E-05
 -1      9559 5.33601E-02 1.44211E-03-5.18688E-05
 -1      9560 5.91703E-02-1.10019E-03-6.97379E-05
 -1      9561 5.22892E-02-6.20292E-04-1.00135E-04
 -1      9562 5.33286E-02 1.45592E-03-8.64615E-05
 -1      9563 4.19860E-02 4.71694E-03 8.95254E-05
 -1      9564 4.75032E-02 3.15340E-03 7.31101E-05
 -1      9565 4.12742E-02 2.71637E-03 1.03996E-04
 -1      9566 4.20206E-02 4.70726E-03 5.37076E-05
 -1      9567 4.75281E-02 3.14448E-03 3.65517E-05
 -1      9568 4.13008E-02 2.70871E-03 5.20044E-05
 -1      9569 4.20379E-02 4.70242E-03 1.79050E-05
 -1      9570 4.75364E-02 3.14150E-03-2.59312E-13
 -1      9571 4.13097E-02 2.70616E-03-2.45130E-13
 -1      9572 4.20379E-02 4.70242E-03-1.79050E-05
 -1      9573 4.75281E-02 3.14448E-03-3.65517E-05
 -1      9574 4.13008E-02 2.70871E-03-5.20044E-05
 -1      9575 4.20206E-02 4.70726E-03-5.37076E-05
 -1      9576 4.75032E-02 3.15340E-03-7.31101E-05
 -1      9577 4.12742E-02 2.71637E-03-1.03996E-04
 -1      9578 4.19860E-02 4.71694E-03-8.95254E-05
 -1      9579 3.16082E-02 6.20118E-03 9.09779E-05
 -1      9580 3.66299E-02 5.50096E-03 7.49735E-05
 -1      9581 3.11883E-02 4.33095E-03 1.05982E-04
 -1      9582 3.16447E-02 6.19623E-03 5.45790E-05
 -1      9583 3.66567E-02 5.49541E-03 3.74829E-05
 -1      9584 3.12165E-02 4.32704E-03 5.29984E-05
 -1      9585 3.16630E-02 6.19376E-03 1.81959E-05
 -1      9586 3.66657E-02 5.49356E-03-2.41490E-13
 -1      9587 3.12259E-02 4.32574E-03-2.26295E-13
 -1      9588 3.16630E-02 6.19376E-03-1.81959E-05
 -1      9589 3.66567E-02 5.49541E-03-3.74829E-05
 -1      9590 3.12165E-02 4.32704E-03-5.29984E-05
 -1      9591 3.16447E-02 6.19623E-03-5.45790E-05
 -1      9592 3.66299E-02 5.50096E-03-7.49735E-05
 -1      9593 3.11883E-02 4.33095E-03-1.05982E-04
 -1      9594 3.16082E-02 6.20118E-03-9.09779E-05
 -1      9595 2.24714E-02 6.22419E-03 9.10263E-05
 -1      9596 2.68660E-02 6.22689E-03 7.56074E-05
 -1      9597 2.22990E-02 4.52697E-03 1.06271E-04
 -1      9598 2.25086E-02 6.22430E-03 5.46076E-05
 -1      9599 2.68938E-02 6.22506E-03 3.77989E-05
 -1      9600 2.23276E-02 4.52706E-03 5.31442E-05
 -1      9601 2.25271E-02 6.22436E-03 1.82063E-05
 -1      9602 2.69031E-02 6.22445E-03-2.20554E-13
 -1      9603 2.23372E-02 4.52709E-03-2.04768E-13
 -1      9604 2.25271E-02 6.22436E-03-1.82063E-05
 -1      9605 2.68938E-02 6.22506E-03-3.77989E-05
 -1      9606 2.23276E-02 4.52706E-03-5.31442E-05
 -1      9607 2.25086E-02 6.22430E-03-5.46076E-05
 -1      9608 2.68660E-02 6.22689E-03-7.56074E-05
 -1      9609 2.22990E-02 4.52697E-03-1.06271E-04
 -1      9610 2.24714E-02 6.22419E-03-9.10263E-05
 -1      9611 1.47633E-02 5.14468E-03 8.97173E-05
 -1      9612 1.84441E-02 5.67009E-03 7.51012E-05
 -1      9613 1.47882E-02 3.64998E-03 1.04904E-04
 -1      9614 1.47997E-02 5.14983E-03 5.38212E-05
 -1      9615 1.84719E-02 5.67209E-03 3.75442E-05
 -1      9616 1.48163E-02 3.65406E-03 5.24636E-05
 -1      9617 1.48179E-02 5.15241E-03 1.79456E-05
 -1      9618 1.84811E-02 5.67276E-03-1.97232E-13
 -1      9619 1.48257E-02 3.65542E-03-1.81184E-13
 -1      9620 1.48179E-02 5.15241E-03-1.79456E-05
 -1      9621 1.84719E-02 5.67209E-03-3.75442E-05
 -1      9622 1.48163E-02 3.65406E-03-5.24636E-05
 -1      9623 1.47997E-02 5.14983E-03-5.38212E-05
 -1      9624 1.84441E-02 5.67009E-03-7.51012E-05
 -1      9625 1.47882E-02 3.64998E-03-1.04904E-04
 -1      9626 1.47633E-02 5.14468E-03-8.97173E-05
 -1      9627 8.57601E-03 3.33997E-03 8.70405E-05
 -1      9628 1.15041E-02 4.20043E-03 7.34627E-05
 -1      9629 8.74643E-03 2.06392E-03 1.01880E-04
 -1      9630 8.61043E-03 3.34982E-03 5.22133E-05
 -1      9631 1.15308E-02 4.20613E-03 3.67223E-05
 -1      9632 8.77294E-03 2.07172E-03 5.09565E-05
 -1      9633 8.62764E-03 3.35475E-03 1.74120E-05
 -1      9634 1.15398E-02 4.20803E-03-1.72250E-13
 -1      9635 8.78177E-03 2.07432E-03-1.56427E-13
 -1      9636 8.62764E-03 3.35475E-03-1.74120E-05
 -1      9637 1.15308E-02 4.20613E-03-3.67223E-05
 -1      9638 8.77294E-03 2.07172E-03-5.09565E-05
 -1      9639 8.61043E-03 3.34982E-03-5.22133E-05
 -1      9640 1.15041E-02 4.20043E-03-7.34627E-05
 -1      9641 8.74643E-03 2.06392E-03-1.01880E-04
 -1      9642 8.57601E-03 3.33997E-03-8.70405E-05
 -1      9643 3.90716E-03 1.18096E-03 8.29869E-05
 -1      9644 6.09055E-03 2.19389E-03 7.06814E-05
 -1      9645 4.17247E-03 1.26873E-04 9.72046E-05
 -1      9646 3.93844E-03 1.19485E-03 4.97780E-05
 -1      9647 6.11534E-03 2.20291E-03 3.53270E-05
 -1      9648 4.19651E-03 1.37859E-04 4.86268E-05
 -1      9649 3.95409E-03 1.20179E-03 1.66043E-05
 -1      9650 6.12360E-03 2.20591E-03-1.46493E-13
 -1      9651 4.20451E-03 1.41526E-04-1.31302E-13
 -1      9652 3.95409E-03 1.20179E-03-1.66043E-05
 -1      9653 6.11534E-03 2.20291E-03-3.53270E-05
 -1      9654 4.19651E-03 1.37859E-04-4.86268E-05
 -1      9655 3.93844E-03 1.19485E-03-4.97780E-05
 -1      9656 6.09055E-03 2.19389E-03-7.06814E-05
 -1      9657 4.17247E-03 1.26873E-04-9.72046E-05
 -1      9658 3.90716E-03 1.18096E-03-8.29869E-05
 -1      9659 6.65910E-04-9.91758E-04 7.75808E-05
 -1      9660 2.15585E-03 7.89262E-06 6.67634E-05
 -1      9661 9.79939E-04-1.83205E-03 9.09158E-05
 -1      9662 6.93127E-04-9.74787E-04 4.65289E-05
 -1      9663 2.17789E-03 1.96180E-05 3.33604E-05
 -1      9664 1.00076E-03-1.81862E-03 4.54961E-05
 -1      9665 7.06731E-04-9.66295E-04 1.55280E-05
 -1      9666 2.18525E-03 2.35223E-05-1.20843E-13
 -1      9667 1.00768E-03-1.81413E-03-1.06713E-13
 -1      9668 7.06731E-04-9.66295E-04-1.55280E-05
 -1      9669 2.17789E-03 1.96180E-05-3.33604E-05
 -1      9670 1.00076E-03-1.81862E-03-4.54961E-05
 -1      9671 6.93127E-04-9.74787E-04-4.65289E-05
 -1      9672 2.15585E-03 7.89262E-06-6.67634E-05
 -1      9673 9.79939E-04-1.83205E-03-9.09158E-05
 -1      9674 6.65910E-04-9.91758E-04-7.75808E-05
 -1      9675-1.31405E-03-2.88898E-03 7.08995E-05
 -1      9676-4.29888E-04-2.04123E-03 6.17511E-05
 -1      9677-9.90650E-04-3.53313E-03 8.31041E-05
 -1      9678-1.29156E-03-2.87008E-03 4.25105E-05
 -1      9679-4.11194E-04-2.02760E-03 3.08418E-05
 -1      9680-9.73564E-04-3.51817E-03 4.16128E-05
 -1      9681-1.28032E-03-2.86062E-03 1.41994E-05
 -1      9682-4.04945E-04-2.02306E-03-9.61898E-14
 -1      9683-9.67902E-04-3.51318E-03-8.34719E-14
 -1      9684-1.28032E-03-2.86062E-03-1.41994E-05
 -1      9685-4.11194E-04-2.02760E-03-3.08418E-05
 -1      9686-9.73564E-04-3.51817E-03-4.16128E-05
 -1      9687-1.29156E-03-2.87008E-03-4.25105E-05
 -1      9688-4.29888E-04-2.04123E-03-6.17511E-05
 -1      9689-9.90650E-04-3.53313E-03-8.31041E-05
 -1      9690-1.31405E-03-2.88898E-03-7.08995E-05
 -1      9691-2.25674E-03-4.28982E-03 6.30867E-05
 -1      9692-1.86355E-03-3.69740E-03 5.57374E-05
 -1      9693-1.95474E-03-4.76257E-03 7.39215E-05
 -1      9694-2.23930E-03-4.27029E-03 3.78052E-05
 -1      9695-1.84858E-03-3.68279E-03 2.78148E-05
 -1      9696-1.94164E-03-4.74710E-03 3.70579E-05
 -1      9697-2.23060E-03-4.26051E-03 1.26483E-05
 -1      9698-1.84356E-03-3.67792E-03-7.33506E-14
 -1      9699-1.93733E-03-4.74194E-03-6.23013E-14
 -1      9700-2.23060E-03-4.26051E-03-1.26483E-05
 -1      9701-1.84858E-03-3.68279E-03-2.78148E-05
 -1      9702-1.94164E-03-4.74710E-03-3.70579E-05
 -1      9703-2.23930E-03-4.27029E-03-3.78052E-05
 -1      9704-1.86355E-03-3.69740E-03-5.57374E-05
 -1      9705-1.95474E-03-4.76257E-03-7.39215E-05
 -1      9706-2.25674E-03-4.28982E-03-6.30867E-05
 -1      9707-2.42182E-03-5.05358E-03 5.43386E-05
 -1      9708-2.38903E-03-4.77920E-03 4.88704E-05
 -1      9709-2.16255E-03-5.38403E-03 6.35744E-05
 -1      9710-2.40941E-03-5.03474E-03 3.25225E-05
 -1      9711-2.37791E-03-4.76461E-03 2.43492E-05
 -1      9712-2.15340E-03-5.36909E-03 3.19411E-05
 -1      9713-2.40321E-03-5.02530E-03 1.09143E-05
 -1      9714-2.37416E-03-4.75975E-03-5.29681E-14
 -1      9715-2.15044E-03-5.36412E-03-4.37117E-14
 -1      9716-2.40321E-03-5.02530E-03-1.09143E-05
 -1      9717-2.37791E-03-4.76461E-03-2.43492E-05
 -1      9718-2.15340E-03-5.36909E-03-3.19411E-05
 -1      9719-2.40941E-03-5.03474E-03-3.25225E-05
 -1      9720-2.38903E-03-4.77920E-03-4.88704E-05
 -1      9721-2.16255E-03-5.38403E-03-6.35744E-05
 -1      9722-2.42182E-03-5.05358E-03-5.43386E-05
 -1      9723-2.07926E-03-5.12548E-03 4.48093E-05
 -1      9724-2.27354E-03-5.18882E-03 4.13171E-05
 -1      9725-1.87478E-03-5.34457E-03 5.22521E-05
 -1      9726-2.07152E-03-5.10856E-03 2.67325E-05
 -1      9727-2.26614E-03-5.17524E-03 2.05240E-05
 -1      9728-1.86925E-03-5.33111E-03 2.63601E-05
 -1      9729-2.06765E-03-5.10007E-03 9.02166E-06
 -1      9730-2.26359E-03-5.17070E-03-3.55430E-14
 -1      9731-1.86755E-03-5.32666E-03-2.81619E-14
 -1      9732-2.06765E-03-5.10007E-03-9.02166E-06
 -1      9733-2.26614E-03-5.17524E-03-2.05240E-05
 -1      9734-1.86925E-03-5.33111E-03-2.63601E-05
 -1      9735-2.07152E-03-5.10856E-03-2.67325E-05
 -1      9736-2.27354E-03-5.18882E-03-4.13171E-05
 -1      9737-1.87478E-03-5.34457E-03-5.22521E-05
 -1      9738-2.07926E-03-5.12548E-03-4.48093E-05
 -1      9739-1.48181E-03-4.53542E-03 3.42196E-05
 -1      9740-1.78103E-03-4.91448E-03 3.31082E-05
 -1      9741-1.33600E-03-4.67351E-03 3.98424E-05
 -1      9742-1.47817E-03-4.52142E-03 2.02081E-05
 -1      9743-1.77700E-03-4.90274E-03 1.63528E-05
 -1      9744-1.33355E-03-4.66225E-03 2.02390E-05
 -1      9745-1.47628E-03-4.51434E-03 6.88661E-06
 -1      9746-1.77554E-03-4.89881E-03-2.14481E-14
 -1      9747-1.33294E-03-4.65856E-03-1.59325E-14
 -1      9748-1.47628E-03-4.51434E-03-6.88661E-06
 -1      9749-1.77700E-03-4.90274E-03-1.63528E-05
 -1      9750-1.33355E-03-4.66225E-03-2.02390E-05
 -1      9751-1.47817E-03-4.52142E-03-2.02081E-05
 -1      9752-1.78103E-03-4.91448E-03-3.31082E-05
 -1      9753-1.33600E-03-4.67351E-03-3.98424E-05
 -1      9754-1.48181E-03-4.53542E-03-3.42196E-05
 -1      9755-8.38429E-04-3.38760E-03 2.10233E-05
 -1      9756-1.14460E-03-4.02497E-03 2.36179E-05
 -1      9757-7.49458E-04-3.47092E-03 2.52764E-05
 -1      9758-8.38591E-04-3.37698E-03 1.18050E-05
 -1      9759-1.14359E-03-4.01564E-03 1.15510E-05
 -1      9760-7.49422E-04-3.46220E-03 1.29067E-05
 -1      9761-8.38253E-04-3.37156E-03 4.06257E-06
 -1      9762-1.14309E-03-4.01248E-03-1.08967E-14
 -1      9763-7.49613E-04-3.45938E-03-7.15907E-15
 -1      9764-8.38253E-04-3.37156E-03-4.06257E-06
 -1      9765-1.14359E-03-4.01564E-03-1.15510E-05
 -1      9766-7.49422E-04-3.46220E-03-1.29067E-05
 -1      9767-8.38591E-04-3.37698E-03-1.18050E-05
 -1      9768-1.14460E-03-4.02497E-03-2.36179E-05
 -1      9769-7.49458E-04-3.47092E-03-2.52764E-05
 -1      9770-8.38429E-04-3.38760E-03-2.10233E-05
 -1      9771-3.01567E-04-1.83315E-03 1.24903E-06
 -1      9772-5.44269E-04-2.65233E-03 1.07057E-05
 -1      9773-2.64343E-04-1.87735E-03 5.66857E-06
 -1      9774-3.05733E-04-1.82595E-03-1.31293E-06
 -1      9775-5.46360E-04-2.64549E-03 5.19781E-06
 -1      9776-2.66282E-04-1.87111E-03 2.42293E-06
 -1      9777-3.06381E-04-1.82226E-03-5.95990E-07
 -1      9778-5.46908E-04-2.64317E-03-3.90739E-15
 -1      9779-2.66830E-04-1.86914E-03-1.82171E-15
 -1      9780-3.06381E-04-1.82226E-03 5.95990E-07
 -1      9781-5.46360E-04-2.64549E-03-5.19781E-06
 -1      9782-2.66282E-04-1.87111E-03-2.42293E-06
 -1      9783-3.05733E-04-1.82595E-03 1.31293E-06
 -1      9784-5.44269E-04-2.65233E-03-1.07057E-05
 -1      9785-2.64343E-04-1.87735E-03-5.66857E-06
 -1      9786-3.01567E-04-1.83315E-03-1.24903E-06
 -1      9787-1.10980E-04-9.48955E-04-1.22989E-05
 -1      9788-1.11390E-04-9.45283E-04-5.71437E-06
 -1      9789-1.11520E-04-9.44152E-04-3.62330E-16
 -1      9790-1.11390E-04-9.45283E-04 5.71437E-06
 -1      9791-1.10980E-04-9.48955E-04 1.22989E-05
 -1      9792 1.33949E-01-9.52730E-02-8.95467E-05
 -1      9793 1.34482E-01-1.03963E-01-6.76599E-05
 -1      9794 1.30845E-01-9.57710E-02-8.21102E-05
 -1      9795 1.33947E-01-9.52623E-02-5.36887E-05
 -1      9796 1.34482E-01-1.03952E-01-3.36459E-05
 -1      9797 1.30842E-01-9.57620E-02-4.10166E-05
 -1      9798 1.33946E-01-9.52569E-02-1.78835E-05
 -1      9799 1.34482E-01-1.03948E-01-1.93913E-13
 -1      9800 1.30841E-01-9.57589E-02-2.05197E-13
 -1      9801 1.33946E-01-9.52569E-02 1.78835E-05
 -1      9802 1.34482E-01-1.03952E-01 3.36459E-05
 -1      9803 1.30842E-01-9.57620E-02 4.10166E-05
 -1      9804 1.33947E-01-9.52623E-02 5.36887E-05
 -1      9805 1.34482E-01-1.03963E-01 6.76599E-05
 -1      9806 1.30845E-01-9.57710E-02 8.21102E-05
 -1      9807 1.33949E-01-9.52730E-02 8.95467E-05
 -1      9808 1.30391E-01-7.76246E-02-7.43449E-05
 -1      9809 1.32237E-01-8.65175E-02-6.83891E-05
 -1      9810 1.27380E-01-7.84659E-02-6.29222E-05
 -1      9811 1.30386E-01-7.76222E-02-4.46072E-05
 -1      9812 1.32234E-01-8.65123E-02-3.41967E-05
 -1      9813 1.27375E-01-7.84641E-02-3.14547E-05
 -1      9814 1.30384E-01-7.76210E-02-1.48681E-05
 -1      9815 1.32233E-01-8.65106E-02-2.23912E-13
 -1      9816 1.27373E-01-7.84635E-02-2.32482E-13
 -1      9817 1.30384E-01-7.76210E-02 1.48681E-05
 -1      9818 1.32234E-01-8.65123E-02 3.41967E-05
 -1      9819 1.27375E-01-7.84641E-02 3.14547E-05
 -1      9820 1.30386E-01-7.76222E-02 4.46072E-05
 -1      9821 1.32237E-01-8.65175E-02 6.83891E-05
 -1      9822 1.27380E-01-7.84659E-02 6.29222E-05
 -1      9823 1.30391E-01-7.76246E-02 7.43449E-05
 -1      9824 1.24217E-01-6.02968E-02-4.69719E-05
 -1      9825 1.27365E-01-6.89540E-02-4.88110E-05
 -1      9826 1.21346E-01-6.14521E-02-3.34813E-05
 -1      9827 1.24214E-01-6.03028E-02-2.81810E-05
 -1      9828 1.27362E-01-6.89555E-02-2.44071E-05
 -1      9829 1.21343E-01-6.14572E-02-1.67385E-05
 -1      9830 1.24213E-01-6.03058E-02-9.39280E-06
 -1      9831 1.27361E-01-6.89560E-02-2.49746E-13
 -1      9832 1.21342E-01-6.14589E-02-2.55188E-13
 -1      9833 1.24213E-01-6.03058E-02 9.39280E-06
 -1      9834 1.27362E-01-6.89555E-02 2.44071E-05
 -1      9835 1.21343E-01-6.14572E-02 1.67385E-05
 -1      9836 1.24214E-01-6.03028E-02 2.81810E-05
 -1      9837 1.27365E-01-6.89540E-02 4.88110E-05
 -1      9838 1.21346E-01-6.14521E-02 3.34813E-05
 -1      9839 1.24217E-01-6.02968E-02 4.69719E-05
 -1      9840 1.15698E-01-4.40905E-02-2.19926E-05
 -1      9841 1.19987E-01-5.21273E-02-2.63505E-05
 -1      9842 1.13028E-01-4.55382E-02-6.64498E-06
 -1      9843 1.15701E-01-4.41028E-02-1.32029E-05
 -1      9844 1.19987E-01-5.21345E-02-1.31754E-05
 -1      9845 1.13029E-01-4.55484E-02-3.32089E-06
 -1      9846 1.15703E-01-4.41089E-02-4.40068E-06
 -1      9847 1.19986E-01-5.21369E-02-2.71009E-13
 -1      9848 1.13029E-01-4.55517E-02-2.73555E-13
 -1      9849 1.15703E-01-4.41089E-02 4.40067E-06
 -1      9850 1.19987E-01-5.21345E-02 1.31754E-05
 -1      9851 1.13029E-01-4.55484E-02 3.32089E-06
 -1      9852 1.15701E-01-4.41028E-02 1.32029E-05
 -1      9853 1.19987E-01-5.21273E-02 2.63505E-05
 -1      9854 1.13028E-01-4.55382E-02 6.64498E-06
 -1      9855 1.15698E-01-4.40905E-02 2.19926E-05
 -1      9856 1.05295E-01-2.96151E-02-4.59524E-06
 -1      9857 1.10485E-01-3.67500E-02-8.69432E-06
 -1      9858 1.02885E-01-3.13191E-02 1.29476E-05
 -1      9859 1.05304E-01-2.96310E-02-2.76713E-06
 -1      9860 1.10490E-01-3.67609E-02-4.34789E-06
 -1      9861 1.02892E-01-3.13321E-02 6.47652E-06
 -1      9862 1.05309E-01-2.96390E-02-9.21601E-07
 -1      9863 1.10491E-01-3.67646E-02-2.87169E-13
 -1      9864 1.02894E-01-3.13364E-02-2.86186E-13
 -1      9865 1.05309E-01-2.96390E-02 9.21600E-07
 -1      9866 1.10490E-01-3.67609E-02 4.34789E-06
 -1      9867 1.02892E-01-3.13321E-02-6.47652E-06
 -1      9868 1.05304E-01-2.96310E-02 2.76713E-06
 -1      9869 1.10485E-01-3.67500E-02 8.69432E-06
 -1      9870 1.02885E-01-3.13191E-02-1.29476E-05
 -1      9871 1.05295E-01-2.96151E-02 4.59524E-06
 -1      9872 9.35346E-02-1.72681E-02 5.43410E-06
 -1      9873 9.93634E-02-2.33223E-02 2.54965E-06
 -1      9874 9.14374E-02-1.91734E-02 2.54715E-05
 -1      9875 9.35502E-02-1.72855E-02 3.24927E-06
 -1      9876 9.93728E-02-2.33351E-02 1.27335E-06
 -1      9877 9.14491E-02-1.91874E-02 1.27399E-05
 -1      9878 9.35581E-02-1.72942E-02 1.08437E-06
 -1      9879 9.93760E-02-2.33394E-02-2.96817E-13
 -1      9880 9.14531E-02-1.91920E-02-2.92302E-13
 -1      9881 9.35581E-02-1.72942E-02-1.08437E-06
 -1      9882 9.93728E-02-2.33351E-02-1.27335E-06
 -1      9883 9.14491E-02-1.91874E-02-1.27399E-05
 -1      9884 9.35502E-02-1.72855E-02-3.24927E-06
 -1      9885 9.93634E-02-2.33223E-02-2.54965E-06
 -1      9886 9.14374E-02-1.91734E-02-2.54715E-05
 -1      9887 9.35346E-02-1.72681E-02-5.43410E-06
 -1      9888 8.09598E-02-7.26339E-03 1.02331E-05
 -1      9889 8.71600E-02-1.21446E-02 8.59203E-06
 -1      9890 7.92082E-02-9.30146E-03 3.28114E-05
 -1      9891 8.09812E-02-7.28043E-03 6.12912E-06
 -1      9892 8.71739E-02-1.21577E-02 4.29368E-06
 -1      9893 7.92243E-02-9.31502E-03 1.64111E-05
 -1      9894 8.09918E-02-7.28894E-03 2.04485E-06
 -1      9895 8.71786E-02-1.21621E-02-2.99915E-13
 -1      9896 7.92297E-02-9.31954E-03-2.92110E-13
 -1      9897 8.09918E-02-7.28894E-03-2.04485E-06
 -1      9898 8.71739E-02-1.21577E-02-4.29368E-06
 -1      9899 7.92243E-02-9.31502E-03-1.64111E-05
 -1      9900 8.09812E-02-7.28043E-03-6.12912E-06
 -1      9901 8.71600E-02-1.21446E-02-8.59203E-06
 -1      9902 7.92082E-02-9.30146E-03-3.28114E-05
 -1      9903 8.09598E-02-7.26339E-03-1.02331E-05
 -1      9904 6.80985E-02 3.38187E-04 1.19698E-05
 -1      9905 7.44105E-02-3.34998E-03 1.12833E-05
 -1      9906 6.67048E-02-1.75898E-03 3.68794E-05
 -1      9907 6.81247E-02 3.22909E-04 7.17192E-06
 -1      9908 7.44284E-02-3.36228E-03 5.63859E-06
 -1      9909 6.67248E-02-1.77109E-03 1.84461E-05
 -1      9910 6.81378E-02 3.15271E-04 2.39292E-06
 -1      9911 7.44344E-02-3.36637E-03-2.96500E-13
 -1      9912 6.67315E-02-1.77512E-03-2.85832E-13
 -1      9913 6.81378E-02 3.15271E-04-2.39292E-06
 -1      9914 7.44284E-02-3.36228E-03-5.63859E-06
 -1      9915 6.67248E-02-1.77109E-03-1.84461E-05
 -1      9916 6.81247E-02 3.22909E-04-7.17192E-06
 -1      9917 7.44105E-02-3.34998E-03-1.12833E-05
 -1      9918 6.67048E-02-1.75898E-03-3.68794E-05
 -1      9919 6.80985E-02 3.38187E-04-1.19698E-05
 -1      9920 5.54469E-02 5.60506E-03 1.21936E-05
 -1      9921 6.16274E-02 3.06764E-03 1.21477E-05
 -1      9922 5.44046E-02 3.52070E-03 3.90431E-05
 -1      9923 5.54769E-02 5.59263E-03 7.30682E-06
 -1      9924 6.16486E-02 3.05711E-03 6.07008E-06
 -1      9925 5.44276E-02 3.51088E-03 1.95290E-05
 -1      9926 5.54920E-02 5.58642E-03 2.43837E-06
 -1      9927 6.16557E-02 3.05361E-03-2.86936E-13
 -1      9928 5.44353E-02 3.50760E-03-2.74022E-13
 -1      9929 5.54920E-02 5.58642E-03-2.43837E-06
 -1      9930 6.16486E-02 3.05711E-03-6.07008E-06
 -1      9931 5.44276E-02 3.51088E-03-1.95290E-05
 -1      9932 5.54769E-02 5.59263E-03-7.30682E-06
 -1      9933 6.16274E-02 3.06764E-03-1.21477E-05
 -1      9934 5.44046E-02 3.52070E-03-3.90431E-05
 -1      9935 5.54469E-02 5.60506E-03-1.21936E-05
 -1      9936 4.34515E-02 8.71596E-03 1.18093E-05
 -1      9937 4.92829E-02 7.23370E-03 1.21636E-05
 -1      9938 4.27375E-02 6.70956E-03 4.01038E-05
 -1      9939 4.34844E-02 8.70723E-03 7.07643E-06
 -1      9940 4.93067E-02 7.22566E-03 6.07724E-06
 -1      9941 4.27628E-02 6.70267E-03 2.00607E-05
 -1      9942 4.35009E-02 8.70286E-03 2.36221E-06
 -1      9943 4.93146E-02 7.22298E-03-2.72259E-13
 -1      9944 4.27713E-02 6.70037E-03-2.57579E-13
 -1      9945 4.35009E-02 8.70286E-03-2.36221E-06
 -1      9946 4.93067E-02 7.22566E-03-6.07724E-06
 -1      9947 4.27628E-02 6.70267E-03-2.00607E-05
 -1      9948 4.34844E-02 8.70723E-03-7.07643E-06
 -1      9949 4.92829E-02 7.23370E-03-1.21636E-05
 -1      9950 4.27375E-02 6.70956E-03-4.01038E-05
 -1      9951 4.34515E-02 8.71596E-03-1.18093E-05
 -1      9952 3.24909E-02 9.94082E-03 1.12561E-05
 -1      9953 3.77904E-02 9.37417E-03 1.18542E-05
 -1      9954 3.20696E-02 8.06743E-03 4.04541E-05
 -1      9955 3.25256E-02 9.93635E-03 6.74419E-06
 -1      9956 3.78159E-02 9.36916E-03 5.92144E-06
 -1      9957 3.20962E-02 8.06391E-03 2.02380E-05
 -1      9958 3.25429E-02 9.93412E-03 2.25245E-06
 -1      9959 3.78244E-02 9.36749E-03-2.53200E-13
 -1      9960 3.21051E-02 8.06274E-03-2.37365E-13
 -1      9961 3.25429E-02 9.93412E-03-2.25245E-06
 -1      9962 3.78159E-02 9.36916E-03-5.92144E-06
 -1      9963 3.20962E-02 8.06391E-03-2.02380E-05
 -1      9964 3.25256E-02 9.93635E-03-6.74419E-06
 -1      9965 3.77904E-02 9.37417E-03-1.18542E-05
 -1      9966 3.20696E-02 8.06743E-03-4.04541E-05
 -1      9967 3.24909E-02 9.94082E-03-1.12561E-05
 -1      9968 2.28599E-02 9.61921E-03 1.06961E-05
 -1      9969 2.74874E-02 9.79558E-03 1.14469E-05
 -1      9970 2.26860E-02 7.92168E-03 4.02432E-05
 -1      9971 2.28951E-02 9.61931E-03 6.40715E-06
 -1      9972 2.75137E-02 9.79392E-03 5.71593E-06
 -1      9973 2.27132E-02 7.92176E-03 2.01362E-05
 -1      9974 2.29127E-02 9.61936E-03 2.14172E-06
 -1      9975 2.75225E-02 9.79337E-03-2.30839E-13
 -1      9976 2.27222E-02 7.92179E-03-2.14322E-13
 -1      9977 2.29127E-02 9.61936E-03-2.14172E-06
 -1      9978 2.75137E-02 9.79392E-03-5.71593E-06
 -1      9979 2.27132E-02 7.92176E-03-2.01362E-05
 -1      9980 2.28951E-02 9.61931E-03-6.40715E-06
 -1      9981 2.74874E-02 9.79558E-03-1.14469E-05
 -1      9982 2.26860E-02 7.92168E-03-4.02432E-05
 -1      9983 2.28599E-02 9.61921E-03-1.06961E-05
 -1      9984 1.47568E-02 8.13607E-03 1.01510E-05
 -1      9985 1.86209E-02 8.86212E-03 1.10062E-05
 -1      9986 1.47799E-02 6.64389E-03 3.94990E-05
 -1      9987 1.47914E-02 8.14071E-03 6.07819E-06
 -1      9988 1.86472E-02 8.86392E-03 5.49257E-06
 -1      9989 1.48065E-02 6.64756E-03 1.97702E-05
 -1      9990 1.48087E-02 8.14304E-03 2.03471E-06
 -1      9991 1.86560E-02 8.86452E-03-2.06057E-13
 -1      9992 1.48154E-02 6.64879E-03-1.89279E-13
 -1      9993 1.48087E-02 8.14304E-03-2.03471E-06
 -1      9994 1.86472E-02 8.86392E-03-5.49257E-06
 -1      9995 1.48065E-02 6.64756E-03-1.97702E-05
 -1      9996 1.47914E-02 8.14071E-03-6.07819E-06
 -1      9997 1.86209E-02 8.86212E-03-1.10062E-05
 -1      9998 1.47799E-02 6.64389E-03-3.94990E-05
 -1      9999 1.47568E-02 8.13607E-03-1.01510E-05
 -1     10000 8.27814E-03 5.89539E-03 9.58641E-06
 -1     10001 1.13384E-02 6.97027E-03 1.05225E-05
 -1     10002 8.44555E-03 4.62449E-03 3.82027E-05
 -1     10003 8.31092E-03 5.90427E-03 5.73610E-06
 -1     10004 1.13638E-02 6.97541E-03 5.24582E-06
 -1     10005 8.47073E-03 4.63150E-03 1.91321E-05
 -1     10006 8.32730E-03 5.90872E-03 1.92498E-06
 -1     10007 1.13722E-02 6.97712E-03-1.79520E-13
 -1     10008 8.47911E-03 4.63384E-03-1.62965E-13
 -1     10009 8.32730E-03 5.90872E-03-1.92498E-06
 -1     10010 1.13638E-02 6.97541E-03-5.24582E-06
 -1     10011 8.47073E-03 4.63150E-03-1.91321E-05
 -1     10012 8.31092E-03 5.90427E-03-5.73610E-06
 -1     10013 1.13384E-02 6.97027E-03-1.05225E-05
 -1     10014 8.44555E-03 4.62449E-03-3.82027E-05
 -1     10015 8.27814E-03 5.89539E-03-9.58641E-06
 -1     10016 3.41857E-03 3.29360E-03 8.95708E-06
 -1     10017 5.68496E-03 4.52224E-03 9.96268E-06
 -1     10018 3.67915E-03 2.24691E-03 3.63303E-05
 -1     10019 3.44852E-03 3.30612E-03 5.35292E-06
 -1     10020 5.70860E-03 4.53038E-03 4.95794E-06
 -1     10021 3.70210E-03 2.25679E-03 1.82124E-05
 -1     10022 3.46349E-03 3.31239E-03 1.80416E-06
 -1     10023 5.71650E-03 4.53308E-03-1.52173E-13
 -1     10024 3.70973E-03 2.26009E-03-1.36272E-13
 -1     10025 3.46349E-03 3.31239E-03-1.80416E-06
 -1     10026 5.70860E-03 4.53038E-03-4.95794E-06
 -1     10027 3.70210E-03 2.25679E-03-1.82124E-05
 -1     10028 3.44852E-03 3.30612E-03-5.35292E-06
 -1     10029 5.68496E-03 4.52224E-03-9.96268E-06
 -1     10030 3.67915E-03 2.24691E-03-3.63303E-05
 -1     10031 3.41857E-03 3.29360E-03-8.95708E-06
 -1     10032 7.86945E-05 6.94189E-04 8.23204E-06
 -1     10033 1.60731E-03 1.89981E-03 9.29723E-06
 -1     10034 3.85743E-04-1.37008E-04 3.38748E-05
 -1     10035 1.04969E-04 7.09496E-04 4.90849E-06
 -1     10036 1.62847E-03 1.91039E-03 4.61245E-06
 -1     10037 4.05808E-04-1.24924E-04 1.70112E-05
 -1     10038 1.18097E-04 7.17160E-04 1.66706E-06
 -1     10039 1.63555E-03 1.91391E-03-1.25011E-13
 -1     10040 4.12457E-04-1.20884E-04-1.10223E-13
 -1     10041 1.18097E-04 7.17160E-04-1.66706E-06
 -1     10042 1.62847E-03 1.91039E-03-4.61245E-06
 -1     10043 4.05808E-04-1.24924E-04-1.70112E-05
 -1     10044 1.04969E-04 7.09496E-04-4.90849E-06
 -1     10045 1.60731E-03 1.89981E-03-9.29723E-06
 -1     10046 3.85743E-04-1.37008E-04-3.38748E-05
 -1     10047 7.86945E-05 6.94189E-04-8.23204E-06
 -1     10048-1.92139E-03-1.59467E-03 7.41014E-06
 -1     10049-1.03573E-03-5.59694E-04 8.51632E-06
 -1     10050-1.60758E-03-2.22872E-03 3.08596E-05
 -1     10051-1.89938E-03-1.57763E-03 4.39922E-06
 -1     10052-1.01759E-03-5.47391E-04 4.20165E-06
 -1     10053-1.59087E-03-2.21525E-03 1.55460E-05
 -1     10054-1.88839E-03-1.56909E-03 1.51473E-06
 -1     10055-1.01151E-03-5.43297E-04-9.89658E-14
 -1     10056-1.58537E-03-2.21075E-03-8.56744E-14
 -1     10057-1.88839E-03-1.56909E-03-1.51473E-06
 -1     10058-1.01759E-03-5.47391E-04-4.20165E-06
 -1     10059-1.59087E-03-2.21525E-03-1.55460E-05
 -1     10060-1.89938E-03-1.57763E-03-4.39922E-06
 -1     10061-1.03573E-03-5.59694E-04-8.51632E-06
 -1     10062-1.60758E-03-2.22872E-03-3.08596E-05
 -1     10063-1.92139E-03-1.59467E-03-7.41014E-06
 -1     10064-2.82280E-03-3.33798E-03 6.53006E-06
 -1     10065-2.45654E-03-2.58357E-03 7.64058E-06
 -1     10066-2.53317E-03-3.80038E-03 2.73450E-05
 -1     10067-2.80534E-03-3.32036E-03 3.84241E-06
 -1     10068-2.44177E-03-2.57039E-03 3.73184E-06
 -1     10069-2.52002E-03-3.78645E-03 1.38552E-05
 -1     10070-2.79664E-03-3.31152E-03 1.35606E-06
 -1     10071-2.43679E-03-2.56600E-03-7.49236E-14
 -1     10072-2.51575E-03-3.78181E-03-6.34152E-14
 -1     10073-2.79664E-03-3.31152E-03-1.35606E-06
 -1     10074-2.44177E-03-2.57039E-03-3.73184E-06
 -1     10075-2.52002E-03-3.78645E-03-1.38552E-05
 -1     10076-2.80534E-03-3.32036E-03-3.84241E-06
 -1     10077-2.45654E-03-2.58357E-03-7.64058E-06
 -1     10078-2.53317E-03-3.80038E-03-2.73450E-05
 -1     10079-2.82280E-03-3.33798E-03-6.53006E-06
 -1     10080-2.90420E-03-4.38604E-03 5.65252E-06
 -1     10081-2.91724E-03-3.97890E-03 6.72323E-06
 -1     10082-2.65989E-03-4.70686E-03 2.34114E-05
 -1     10083-2.89128E-03-4.36905E-03 3.26192E-06
 -1     10084-2.90596E-03-3.96573E-03 3.22405E-06
 -1     10085-2.65028E-03-4.69340E-03 1.19888E-05
 -1     10086-2.88484E-03-4.36052E-03 1.20272E-06
 -1     10087-2.90211E-03-3.96134E-03-5.35727E-14
 -1     10088-2.64725E-03-4.68892E-03-4.40037E-14
 -1     10089-2.88484E-03-4.36052E-03-1.20272E-06
 -1     10090-2.90596E-03-3.96573E-03-3.22405E-06
 -1     10091-2.65028E-03-4.69340E-03-1.19888E-05
 -1     10092-2.89128E-03-4.36905E-03-3.26192E-06
 -1     10093-2.91724E-03-3.97890E-03-6.72323E-06
 -1     10094-2.65989E-03-4.70686E-03-2.34114E-05
 -1     10095-2.90420E-03-4.38604E-03-5.65252E-06
 -1     10096-2.45474E-03-4.68016E-03 4.75392E-06
 -1     10097-2.70427E-03-4.64149E-03 5.80803E-06
 -1     10098-2.26700E-03-4.89139E-03 1.90660E-05
 -1     10099-2.44606E-03-4.66493E-03 2.60993E-06
 -1     10100-2.69637E-03-4.62923E-03 2.69479E-06
 -1     10101-2.26063E-03-4.87925E-03 9.95319E-06
 -1     10102-2.44171E-03-4.65725E-03 1.03889E-06
 -1     10103-2.69361E-03-4.62513E-03-3.54582E-14
 -1     10104-2.25876E-03-4.87525E-03-2.79125E-14
 -1     10105-2.44171E-03-4.65725E-03-1.03889E-06
 -1     10106-2.69637E-03-4.62923E-03-2.69479E-06
 -1     10107-2.26063E-03-4.87925E-03-9.95319E-06
 -1     10108-2.44606E-03-4.66493E-03-2.60993E-06
 -1     10109-2.70427E-03-4.64149E-03-5.80803E-06
 -1     10110-2.26700E-03-4.89139E-03-1.90660E-05
 -1     10111-2.45474E-03-4.68016E-03-4.75392E-06
 -1     10112-1.74486E-03-4.25097E-03 3.30170E-06
 -1     10113-2.10015E-03-4.55796E-03 4.75671E-06
 -1     10114-1.61572E-03-4.38419E-03 1.38938E-05
 -1     10115-1.73997E-03-4.23847E-03 1.47983E-06
 -1     10116-2.09537E-03-4.54741E-03 2.07623E-06
 -1     10117-1.61212E-03-4.37406E-03 7.50369E-06
 -1     10118-1.73741E-03-4.23211E-03 7.14516E-07
 -1     10119-2.09360E-03-4.54385E-03-2.09833E-14
 -1     10120-1.61126E-03-4.37077E-03-1.54421E-14
 -1     10121-1.73741E-03-4.23211E-03-7.14516E-07
 -1     10122-2.09537E-03-4.54741E-03-2.07623E-06
 -1     10123-1.61212E-03-4.37406E-03-7.50369E-06
 -1     10124-1.73997E-03-4.23847E-03-1.47983E-06
 -1     10125-2.10015E-03-4.55796E-03-4.75671E-06
 -1     10126-1.61572E-03-4.38419E-03-1.38938E-05
 -1     10127-1.74486E-03-4.25097E-03-3.30170E-06
 -1     10128-9.97583E-04-3.21012E-03-7.78715E-07
 -1     10129-1.35408E-03-3.80071E-03 2.66683E-06
 -1     10130-9.22082E-04-3.29280E-03 6.22210E-06
 -1     10131-9.96469E-04-3.20099E-03-1.67626E-06
 -1     10132-1.35223E-03-3.79246E-03 9.61971E-07
 -1     10133-9.20627E-04-3.28514E-03 3.57912E-06
 -1     10134-9.95273E-04-3.19627E-03-3.81170E-07
 -1     10135-1.35138E-03-3.78965E-03-1.03609E-14
 -1     10136-9.20492E-04-3.28269E-03-6.71598E-15
 -1     10137-9.95273E-04-3.19627E-03 3.81170E-07
 -1     10138-1.35223E-03-3.79246E-03-9.61971E-07
 -1     10139-9.20627E-04-3.28514E-03-3.57912E-06
 -1     10140-9.96469E-04-3.20099E-03 1.67626E-06
 -1     10141-1.35408E-03-3.80071E-03-2.66683E-06
 -1     10142-9.22082E-04-3.29280E-03-6.22210E-06
 -1     10143-9.97583E-04-3.21012E-03 7.78715E-07
 -1     10144-3.71859E-04-1.73243E-03-1.22844E-05
 -1     10145-6.56852E-04-2.51545E-03-3.18380E-06
 -1     10146-3.42016E-04-1.78022E-03-7.70970E-06
 -1     10147-3.75545E-04-1.72686E-03-1.02249E-05
 -1     10148-6.58317E-04-2.50977E-03-1.77810E-06
 -1     10149-3.42599E-04-1.77508E-03-4.42266E-06
 -1     10150-3.75387E-04-1.72394E-03-3.61867E-06
 -1     10151-6.58609E-04-2.50782E-03-3.55159E-15
 -1     10152-3.42693E-04-1.77347E-03-1.62149E-15
 -1     10153-3.75387E-04-1.72394E-03 3.61867E-06
 -1     10154-6.58317E-04-2.50977E-03 1.77810E-06
 -1     10155-3.42599E-04-1.77508E-03 4.42266E-06
 -1     10156-3.75545E-04-1.72686E-03 1.02249E-05
 -1     10157-6.56852E-04-2.51545E-03 3.18380E-06
 -1     10158-3.42016E-04-1.78022E-03 7.70970E-06
 -1     10159-3.71859E-04-1.73243E-03 1.22844E-05
 -1     10160-1.42385E-04-8.92867E-04-2.20634E-05
 -1     10161-1.41716E-04-8.90020E-04-1.03771E-05
 -1     10162-1.41537E-04-8.89127E-04-2.92076E-16
 -1     10163-1.41716E-04-8.90020E-04 1.03771E-05
 -1     10164-1.42385E-04-8.92867E-04 2.20634E-05
 -1     10165 1.40195E-01-9.43035E-02-6.81174E-05
 -1     10166 1.40777E-01-1.03391E-01-4.61460E-05
 -1     10167 1.37064E-01-9.47768E-02-6.25081E-05
 -1     10168 1.40195E-01-9.42950E-02-4.08595E-05
 -1     10169 1.40779E-01-1.03382E-01-2.29203E-05
 -1     10170 1.37064E-01-9.47696E-02-3.12382E-05
 -1     10171 1.40196E-01-9.42908E-02-1.36142E-05
 -1     10172 1.40780E-01-1.03380E-01-2.01943E-13
 -1     10173 1.37064E-01-9.47673E-02-2.14121E-13
 -1     10174 1.40196E-01-9.42908E-02 1.36142E-05
 -1     10175 1.40779E-01-1.03382E-01 2.29203E-05
 -1     10176 1.37064E-01-9.47696E-02 3.12382E-05
 -1     10177 1.40195E-01-9.42950E-02 4.08595E-05
 -1     10178 1.40777E-01-1.03391E-01 4.61460E-05
 -1     10179 1.37064E-01-9.47768E-02 6.25081E-05
 -1     10180 1.40195E-01-9.43035E-02 6.81174E-05
 -1     10181 1.36444E-01-7.59533E-02-6.72135E-05
 -1     10182 1.38383E-01-8.51876E-02-5.64325E-05
 -1     10183 1.33409E-01-7.67856E-02-5.64482E-05
 -1     10184 1.36442E-01-7.59509E-02-4.03247E-05
 -1     10185 1.38382E-01-8.51833E-02-2.82212E-05
 -1     10186 1.33407E-01-7.67839E-02-2.82182E-05
 -1     10187 1.36441E-01-7.59497E-02-1.34404E-05
 -1     10188 1.38382E-01-8.51819E-02-2.33716E-13
 -1     10189 1.33406E-01-7.67832E-02-2.43184E-13
 -1     10190 1.36441E-01-7.59497E-02 1.34404E-05
 -1     10191 1.38382E-01-8.51833E-02 2.82212E-05
 -1     10192 1.33407E-01-7.67839E-02 2.82182E-05
 -1     10193 1.36442E-01-7.59509E-02 4.03247E-05
 -1     10194 1.38383E-01-8.51876E-02 5.64325E-05
 -1     10195 1.33409E-01-7.67856E-02 5.64482E-05
 -1     10196 1.36444E-01-7.59533E-02 6.72135E-05
 -1     10197 1.29984E-01-5.79862E-02-5.65680E-05
 -1     10198 1.33275E-01-6.69610E-02-4.97066E-05
 -1     10199 1.27094E-01-5.91462E-02-4.15107E-05
 -1     10200 1.29984E-01-5.79908E-02-3.39363E-05
 -1     10201 1.33274E-01-6.69619E-02-2.48550E-05
 -1     10202 1.27093E-01-5.91501E-02-2.07536E-05
 -1     10203 1.29984E-01-5.79930E-02-1.13113E-05
 -1     10204 1.33273E-01-6.69622E-02-2.61131E-13
 -1     10205 1.27093E-01-5.91514E-02-2.67785E-13
 -1     10206 1.29984E-01-5.79930E-02 1.13113E-05
 -1     10207 1.33274E-01-6.69619E-02 2.48550E-05
 -1     10208 1.27093E-01-5.91501E-02 2.07536E-05
 -1     10209 1.29984E-01-5.79908E-02 3.39363E-05
 -1     10210 1.33275E-01-6.69610E-02 4.97066E-05
 -1     10211 1.27094E-01-5.91462E-02 4.15107E-05
 -1     10212 1.29984E-01-5.79862E-02 5.65680E-05
 -1     10213 1.21065E-01-4.11895E-02-4.76183E-05
 -1     10214 1.25556E-01-4.95197E-02-4.06324E-05
 -1     10215 1.18380E-01-4.26501E-02-2.80788E-05
 -1     10216 1.21070E-01-4.11997E-02-2.85762E-05
 -1     10217 1.25558E-01-4.95254E-02-2.03163E-05
 -1     10218 1.18382E-01-4.26585E-02-1.40386E-05
 -1     10219 1.21072E-01-4.12047E-02-9.52527E-06
 -1     10220 1.25558E-01-4.95273E-02-2.84291E-13
 -1     10221 1.18383E-01-4.26613E-02-2.87621E-13
 -1     10222 1.21072E-01-4.12047E-02 9.52527E-06
 -1     10223 1.25558E-01-4.95254E-02 2.03163E-05
 -1     10224 1.18382E-01-4.26585E-02 1.40386E-05
 -1     10225 1.21070E-01-4.11997E-02 2.85762E-05
 -1     10226 1.25556E-01-4.95197E-02 4.06324E-05
 -1     10227 1.18380E-01-4.26501E-02 2.80788E-05
 -1     10228 1.21065E-01-4.11895E-02 4.76183E-05
 -1     10229 1.10141E-01-2.62001E-02-4.39470E-05
 -1     10230 1.15594E-01-3.35872E-02-3.49766E-05
 -1     10231 1.07720E-01-2.79206E-02-1.97123E-05
 -1     10232 1.10151E-01-2.62138E-02-2.63772E-05
 -1     10233 1.15600E-01-3.35964E-02-1.74887E-05
 -1     10234 1.07727E-01-2.79317E-02-9.85429E-06
 -1     10235 1.10156E-01-2.62206E-02-8.79187E-06
 -1     10236 1.15602E-01-3.35995E-02-3.01702E-13
 -1     10237 1.07730E-01-2.79354E-02-3.00945E-13
 -1     10238 1.10156E-01-2.62206E-02 8.79187E-06
 -1     10239 1.15600E-01-3.35964E-02 1.74887E-05
 -1     10240 1.07727E-01-2.79317E-02 9.85429E-06
 -1     10241 1.10151E-01-2.62138E-02 2.63772E-05
 -1     10242 1.15594E-01-3.35872E-02 3.49766E-05
 -1     10243 1.07720E-01-2.79206E-02 1.97123E-05
 -1     10244 1.10141E-01-2.62001E-02 4.39470E-05
 -1     10245 9.77590E-02-1.34514E-02-4.49907E-05
 -1     10246 1.03899E-01-1.96988E-02-3.36433E-05
 -1     10247 9.56533E-02-1.53737E-02-1.61435E-05
 -1     10248 9.77749E-02-1.34666E-02-2.70055E-05
 -1     10249 1.03909E-01-1.97099E-02-1.68228E-05
 -1     10250 9.56651E-02-1.53860E-02-8.06816E-06
 -1     10251 9.77829E-02-1.34743E-02-9.00072E-06
 -1     10252 1.03912E-01-1.97136E-02-3.12036E-13
 -1     10253 9.56690E-02-1.53900E-02-3.07591E-13
 -1     10254 9.77829E-02-1.34743E-02 9.00072E-06
 -1     10255 1.03909E-01-1.97099E-02 1.68228E-05
 -1     10256 9.56651E-02-1.53860E-02 8.06816E-06
 -1     10257 9.77749E-02-1.34666E-02 2.70055E-05
 -1     10258 1.03899E-01-1.96988E-02 3.36433E-05
 -1     10259 9.56533E-02-1.53737E-02 1.61435E-05
 -1     10260 9.77590E-02-1.34514E-02 4.49907E-05
 -1     10261 8.44964E-02-3.18226E-03-4.88479E-05
 -1     10262 9.10372E-02-8.18652E-03-3.54482E-05
 -1     10263 8.27383E-02-5.23638E-03-1.57813E-05
 -1     10264 8.45174E-02-3.19743E-03-2.93200E-05
 -1     10265 9.10511E-02-8.19813E-03-1.77263E-05
 -1     10266 8.27542E-02-5.24843E-03-7.88518E-06
 -1     10267 8.45279E-02-3.20501E-03-9.77149E-06
 -1     10268 9.10557E-02-8.20200E-03-3.15179E-13
 -1     10269 8.27595E-02-5.25245E-03-3.07295E-13
 -1     10270 8.45279E-02-3.20501E-03 9.77149E-06
 -1     10271 9.10511E-02-8.19813E-03 1.77263E-05
 -1     10272 8.27542E-02-5.24843E-03 7.88518E-06
 -1     10273 8.45174E-02-3.19743E-03 2.93200E-05
 -1     10274 9.10372E-02-8.18652E-03 3.54482E-05
 -1     10275 8.27383E-02-5.23638E-03 1.57813E-05
 -1     10276 8.44964E-02-3.18226E-03 4.88479E-05
 -1     10277 7.09214E-02 4.53642E-03-5.37194E-05
 -1     10278 7.75834E-02 7.98710E-04-3.88188E-05
 -1     10279 6.95234E-02 2.42524E-03-1.70482E-05
 -1     10280 7.09468E-02 4.52269E-03-3.22425E-05
 -1     10281 7.76009E-02 7.87710E-04-1.94127E-05
 -1     10282 6.95427E-02 2.41438E-03-8.51686E-06
 -1     10283 7.09595E-02 4.51583E-03-1.07449E-05
 -1     10284 7.76067E-02 7.84043E-04-3.11424E-13
 -1     10285 6.95492E-02 2.41077E-03-3.00302E-13
 -1     10286 7.09595E-02 4.51583E-03 1.07449E-05
 -1     10287 7.76009E-02 7.87710E-04 1.94127E-05
 -1     10288 6.95427E-02 2.41438E-03 8.51686E-06
 -1     10289 7.09468E-02 4.52269E-03 3.22425E-05
 -1     10290 7.75834E-02 7.98710E-04 3.88188E-05
 -1     10291 6.95234E-02 2.42524E-03 1.70482E-05
 -1     10292 7.09214E-02 4.53642E-03 5.37194E-05
 -1     10293 5.75685E-02 9.77670E-03-5.83662E-05
 -1     10294 6.40899E-02 7.26042E-03-4.25143E-05
 -1     10295 5.65239E-02 7.68112E-03-1.88309E-05
 -1     10296 5.75975E-02 9.76548E-03-3.50301E-05
 -1     10297 6.41103E-02 7.25093E-03-2.12616E-05
 -1     10298 5.65460E-02 7.67226E-03-9.40624E-06
 -1     10299 5.76119E-02 9.75988E-03-1.16733E-05
 -1     10300 6.41172E-02 7.24777E-03-3.01014E-13
 -1     10301 5.65533E-02 7.66932E-03-2.87553E-13
 -1     10302 5.76119E-02 9.75988E-03 1.16733E-05
 -1     10303 6.41103E-02 7.25093E-03 2.12616E-05
 -1     10304 5.65460E-02 7.67226E-03 9.40624E-06
 -1     10305 5.75975E-02 9.76548E-03 3.50301E-05
 -1     10306 6.40899E-02 7.26042E-03 4.25143E-05
 -1     10307 5.65239E-02 7.68112E-03 1.88309E-05
 -1     10308 5.75685E-02 9.77670E-03 5.83662E-05
 -1     10309 4.49172E-02 1.27308E-02-6.20905E-05
 -1     10310 5.10645E-02 1.13329E-02-4.57634E-05
 -1     10311 4.42025E-02 1.07165E-02-2.04873E-05
 -1     10312 4.49487E-02 1.27229E-02-3.72648E-05
 -1     10313 5.10873E-02 1.13257E-02-2.28875E-05
 -1     10314 4.42267E-02 1.07103E-02-1.02319E-05
 -1     10315 4.49644E-02 1.27189E-02-1.24171E-05
 -1     10316 5.10949E-02 1.13232E-02-2.85261E-13
 -1     10317 4.42347E-02 1.07082E-02-2.70009E-13
 -1     10318 4.49644E-02 1.27189E-02 1.24171E-05
 -1     10319 5.10873E-02 1.13257E-02 2.28875E-05
 -1     10320 4.42267E-02 1.07103E-02 1.02319E-05
 -1     10321 4.49487E-02 1.27229E-02 3.72648E-05
 -1     10322 5.10645E-02 1.13329E-02 4.57634E-05
 -1     10323 4.42025E-02 1.07165E-02 2.04873E-05
 -1     10324 4.49172E-02 1.27308E-02 6.20905E-05
 -1     10325 3.33719E-02 1.36888E-02-6.45728E-05
 -1     10326 3.89502E-02 1.32593E-02-4.81699E-05
 -1     10327 3.29509E-02 1.18113E-02-2.17125E-05
 -1     10328 3.34050E-02 1.36848E-02-3.87549E-05
 -1     10329 3.89746E-02 1.32548E-02-2.40927E-05
 -1     10330 3.29763E-02 1.18081E-02-1.08406E-05
 -1     10331 3.34216E-02 1.36828E-02-1.29122E-05
 -1     10332 3.89827E-02 1.32533E-02-2.64956E-13
 -1     10333 3.29847E-02 1.18070E-02-2.48387E-13
 -1     10334 3.34216E-02 1.36828E-02 1.29122E-05
 -1     10335 3.89746E-02 1.32548E-02 2.40927E-05
 -1     10336 3.29763E-02 1.18081E-02 1.08406E-05
 -1     10337 3.34050E-02 1.36848E-02 3.87549E-05
 -1     10338 3.89502E-02 1.32593E-02 4.81699E-05
 -1     10339 3.29509E-02 1.18113E-02 2.17125E-05
 -1     10340 3.33719E-02 1.36888E-02 6.45728E-05
 -1     10341 2.32460E-02 1.30148E-02-6.57136E-05
 -1     10342 2.81067E-02 1.33687E-02-4.95756E-05
 -1     10343 2.30728E-02 1.13170E-02-2.24016E-05
 -1     10344 2.32796E-02 1.30149E-02-3.94410E-05
 -1     10345 2.81319E-02 1.33672E-02-2.47984E-05
 -1     10346 2.30986E-02 1.13171E-02-1.11791E-05
 -1     10347 2.32964E-02 1.30149E-02-1.31385E-05
 -1     10348 2.81403E-02 1.33667E-02-2.41147E-13
 -1     10349 2.31072E-02 1.13171E-02-2.23939E-13
 -1     10350 2.32964E-02 1.30149E-02 1.31385E-05
 -1     10351 2.81319E-02 1.33672E-02 2.47984E-05
 -1     10352 2.30986E-02 1.13171E-02 1.11791E-05
 -1     10353 2.32796E-02 1.30149E-02 3.94410E-05
 -1     10354 2.81067E-02 1.33687E-02 4.95756E-05
 -1     10355 2.30728E-02 1.13170E-02 2.24016E-05
 -1     10356 2.32460E-02 1.30148E-02 6.57136E-05
 -1     10357 1.47494E-02 1.11203E-02-6.55265E-05
 -1     10358 1.87960E-02 1.20509E-02-4.99518E-05
 -1     10359 1.47724E-02 9.63169E-03-2.25517E-05
 -1     10360 1.47823E-02 1.11245E-02-3.93317E-05
 -1     10361 1.88211E-02 1.20525E-02-2.49910E-05
 -1     10362 1.47977E-02 9.63500E-03-1.12443E-05
 -1     10363 1.47988E-02 1.11267E-02-1.30981E-05
 -1     10364 1.88295E-02 1.20531E-02-2.14850E-13
 -1     10365 1.48062E-02 9.63611E-03-1.97300E-13
 -1     10366 1.47988E-02 1.11267E-02 1.30981E-05
 -1     10367 1.88211E-02 1.20525E-02 2.49910E-05
 -1     10368 1.47977E-02 9.63500E-03 1.12443E-05
 -1     10369 1.47823E-02 1.11245E-02 3.93317E-05
 -1     10370 1.87960E-02 1.20509E-02 4.99518E-05
 -1     10371 1.47724E-02 9.63169E-03 2.25517E-05
 -1     10372 1.47494E-02 1.11203E-02 6.55265E-05
 -1     10373 7.98222E-03 8.43658E-03-6.40752E-05
 -1     10374 1.11731E-02 9.72954E-03-4.93317E-05
 -1     10375 8.14810E-03 7.17271E-03-2.22040E-05
 -1     10376 8.01359E-03 8.44462E-03-3.84658E-05
 -1     10377 1.11974E-02 9.73420E-03-2.46881E-05
 -1     10378 8.17215E-03 7.17905E-03-1.10548E-05
 -1     10379 8.02926E-03 8.44866E-03-1.28034E-05
 -1     10380 1.12055E-02 9.73575E-03-1.86729E-13
 -1     10381 8.18014E-03 7.18117E-03-1.69394E-13
 -1     10382 8.02926E-03 8.44866E-03 1.28034E-05
 -1     10383 1.11974E-02 9.73420E-03 2.46881E-05
 -1     10384 8.17215E-03 7.17905E-03 1.10548E-05
 -1     10385 8.01359E-03 8.44462E-03 3.84658E-05
 -1     10386 1.11731E-02 9.72954E-03 4.93317E-05
 -1     10387 8.14810E-03 7.17271E-03 2.22040E-05
 -1     10388 7.98222E-03 8.43658E-03 6.40752E-05
 -1     10389 2.93662E-03 5.38595E-03-6.14428E-05
 -1     10390 5.28364E-03 6.83351E-03-4.77739E-05
 -1     10391 3.19336E-03 4.34929E-03-2.14132E-05
 -1     10392 2.96542E-03 5.39729E-03-3.68943E-05
 -1     10393 5.30630E-03 6.84088E-03-2.39204E-05
 -1     10394 3.21539E-03 4.35822E-03-1.06347E-05
 -1     10395 2.97980E-03 5.40298E-03-1.22699E-05
 -1     10396 5.31387E-03 6.84333E-03-1.57772E-13
 -1     10397 3.22269E-03 4.36122E-03-1.41136E-13
 -1     10398 2.97980E-03 5.40298E-03 1.22699E-05
 -1     10399 5.30630E-03 6.84088E-03 2.39204E-05
 -1     10400 3.21539E-03 4.35822E-03 1.06347E-05
 -1     10401 2.96542E-03 5.39729E-03 3.68943E-05
 -1     10402 5.28364E-03 6.83351E-03 4.77739E-05
 -1     10403 3.19336E-03 4.34929E-03 2.14132E-05
 -1     10404 2.93662E-03 5.38595E-03 6.14428E-05
 -1     10405-4.95820E-04 2.35523E-03-5.77150E-05
 -1     10406 1.06835E-03 3.76935E-03-4.53437E-05
 -1     10407-1.95610E-04 1.53634E-03-2.02318E-05
 -1     10408-4.70358E-04 2.36910E-03-3.46707E-05
 -1     10409 1.08876E-03 3.77894E-03-2.27229E-05
 -1     10410-1.76189E-04 1.54728E-03-1.00051E-05
 -1     10411-4.57639E-04 2.37605E-03-1.15138E-05
 -1     10412 1.09560E-03 3.78213E-03-1.29050E-13
 -1     10413-1.69777E-04 1.55093E-03-1.13602E-13
 -1     10414-4.57639E-04 2.37605E-03 1.15138E-05
 -1     10415 1.08876E-03 3.77894E-03 2.27229E-05
 -1     10416-1.76189E-04 1.54728E-03 1.00051E-05
 -1     10417-4.70358E-04 2.36910E-03 3.46707E-05
 -1     10418 1.06835E-03 3.76935E-03 4.53437E-05
 -1     10419-1.95610E-04 1.53634E-03 2.02318E-05
 -1     10420-4.95820E-04 2.35523E-03 5.77150E-05
 -1     10421-2.50899E-03-3.28092E-04-5.29690E-05
 -1     10422-1.62549E-03 8.95793E-04-4.21026E-05
 -1     10423-2.20550E-03-9.48432E-04-1.87009E-05
 -1     10424-2.48739E-03-3.12640E-04-3.18451E-05
 -1     10425-1.60783E-03 9.06950E-04-2.11295E-05
 -1     10426-2.18910E-03-9.36247E-04-9.17914E-06
 -1     10427-2.47661E-03-3.04893E-04-1.05491E-05
 -1     10428-1.60190E-03 9.10661E-04-1.01604E-13
 -1     10429-2.18373E-03-9.32174E-04-8.77390E-14
 -1     10430-2.47661E-03-3.04893E-04 1.05491E-05
 -1     10431-1.60783E-03 9.06950E-04 2.11295E-05
 -1     10432-2.18910E-03-9.36247E-04 9.17914E-06
 -1     10433-2.48739E-03-3.12640E-04 3.18451E-05
 -1     10434-1.62549E-03 8.95793E-04 4.21026E-05
 -1     10435-2.20550E-03-9.48432E-04 1.87009E-05
 -1     10436-2.50899E-03-3.28092E-04 5.29690E-05
 -1     10437-3.36167E-03-2.41462E-03-4.72647E-05
 -1     10438-3.02625E-03-1.49758E-03-3.80995E-05
 -1     10439-3.08602E-03-2.86294E-03-1.68451E-05
 -1     10440-3.34420E-03-2.39865E-03-2.84613E-05
 -1     10441-3.01165E-03-1.48562E-03-1.91694E-05
 -1     10442-3.07284E-03-2.85032E-03-8.15926E-06
 -1     10443-3.33549E-03-2.39063E-03-9.38682E-06
 -1     10444-3.00672E-03-1.48164E-03-7.63373E-14
 -1     10445-3.06860E-03-2.84612E-03-6.43720E-14
 -1     10446-3.33549E-03-2.39063E-03 9.38682E-06
 -1     10447-3.01165E-03-1.48562E-03 1.91694E-05
 -1     10448-3.07284E-03-2.85032E-03 8.15926E-06
 -1     10449-3.34420E-03-2.39865E-03 2.84613E-05
 -1     10450-3.02625E-03-1.49758E-03 3.80995E-05
 -1     10451-3.08602E-03-2.86294E-03 1.68451E-05
 -1     10452-3.36167E-03-2.41462E-03 4.72647E-05
 -1     10453-3.35237E-03-3.74557E-03-4.06556E-05
 -1     10454-3.41495E-03-3.20610E-03-3.33671E-05
 -1     10455-3.12551E-03-4.05298E-03-1.46900E-05
 -1     10456-3.33901E-03-3.73017E-03-2.45677E-05
 -1     10457-3.40352E-03-3.19417E-03-1.68650E-05
 -1     10458-3.11551E-03-4.04077E-03-6.94770E-06
 -1     10459-3.33236E-03-3.72242E-03-8.03963E-06
 -1     10460-3.39960E-03-3.19018E-03-5.40194E-14
 -1     10461-3.11241E-03-4.03673E-03-4.41324E-14
 -1     10462-3.33236E-03-3.72242E-03 8.03963E-06
 -1     10463-3.40352E-03-3.19417E-03 1.68650E-05
 -1     10464-3.11551E-03-4.04077E-03 6.94770E-06
 -1     10465-3.33901E-03-3.73017E-03 2.45677E-05
 -1     10466-3.41495E-03-3.20610E-03 3.33671E-05
 -1     10467-3.12551E-03-4.05298E-03 1.46900E-05
 -1     10468-3.35237E-03-3.74557E-03 4.06556E-05
 -1     10469-2.79080E-03-4.25817E-03-3.32824E-05
 -1     10470-3.09829E-03-4.11910E-03-2.79573E-05
 -1     10471-2.62310E-03-4.45778E-03-1.23547E-05
 -1     10472-2.78130E-03-4.24441E-03-2.02914E-05
 -1     10473-3.08995E-03-4.10800E-03-1.42468E-05
 -1     10474-2.61600E-03-4.44677E-03-5.60502E-06
 -1     10475-2.77653E-03-4.23744E-03-6.55159E-06
 -1     10476-3.08701E-03-4.10428E-03-3.52330E-14
 -1     10477-2.61397E-03-4.44317E-03-2.75230E-14
 -1     10478-2.77653E-03-4.23744E-03 6.55159E-06
 -1     10479-3.08995E-03-4.10800E-03 1.42468E-05
 -1     10480-2.61600E-03-4.44677E-03 5.60502E-06
 -1     10481-2.78130E-03-4.24441E-03 2.02914E-05
 -1     10482-3.09829E-03-4.11910E-03 2.79573E-05
 -1     10483-2.62310E-03-4.45778E-03 1.23547E-05
 -1     10484-2.79080E-03-4.25817E-03 3.32824E-05
 -1     10485-1.96748E-03-3.98377E-03-2.57647E-05
 -1     10486-2.37917E-03-4.22154E-03-2.20970E-05
 -1     10487-1.85893E-03-4.10830E-03-1.04151E-05
 -1     10488-1.96146E-03-3.97262E-03-1.61141E-05
 -1     10489-2.37371E-03-4.21204E-03-1.14222E-05
 -1     10490-1.85428E-03-4.09919E-03-4.47738E-06
 -1     10491-1.95827E-03-3.96691E-03-5.10509E-06
 -1     10492-2.37167E-03-4.20882E-03-2.03941E-14
 -1     10493-1.85318E-03-4.09625E-03-1.48491E-14
 -1     10494-1.95827E-03-3.96691E-03 5.10509E-06
 -1     10495-2.37371E-03-4.21204E-03 1.14222E-05
 -1     10496-1.85428E-03-4.09919E-03 4.47738E-06
 -1     10497-1.96146E-03-3.97262E-03 1.61141E-05
 -1     10498-2.37917E-03-4.22154E-03 2.20970E-05
 -1     10499-1.85893E-03-4.10830E-03 1.04151E-05
 -1     10500-1.96748E-03-3.98377E-03 2.57647E-05
 -1     10501-1.12295E-03-3.04132E-03-2.03592E-05
 -1     10502-1.52581E-03-3.58932E-03-1.67600E-05
 -1     10503-1.06488E-03-3.11953E-03-1.08492E-05
 -1     10504-1.12057E-03-3.03357E-03-1.37423E-05
 -1     10505-1.52315E-03-3.58205E-03-8.81580E-06
 -1     10506-1.06209E-03-3.11290E-03-4.85118E-06
 -1     10507-1.11855E-03-3.02953E-03-4.38440E-06
 -1     10508-1.52198E-03-3.57957E-03-9.72633E-15
 -1     10509-1.06161E-03-3.11081E-03-6.20496E-15
 -1     10510-1.11855E-03-3.02953E-03 4.38440E-06
 -1     10511-1.52315E-03-3.58205E-03 8.81580E-06
 -1     10512-1.06209E-03-3.11290E-03 4.85118E-06
 -1     10513-1.12057E-03-3.03357E-03 1.37423E-05
 -1     10514-1.52581E-03-3.58932E-03 1.67600E-05
 -1     10515-1.06488E-03-3.11953E-03 1.08492E-05
 -1     10516-1.12295E-03-3.04132E-03 2.03592E-05
 -1     10517-4.24367E-04-1.62978E-03-2.21562E-05
 -1     10518-7.43219E-04-2.38150E-03-1.48903E-05
 -1     10519-4.04176E-04-1.67888E-03-1.78910E-05
 -1     10520-4.27466E-04-1.62596E-03-1.66505E-05
 -1     10521-7.43915E-04-2.37698E-03-7.60736E-06
 -1     10522-4.03699E-04-1.67500E-03-9.66402E-06
 -1     10523-4.26661E-04-1.62390E-03-5.80566E-06
 -1     10524-7.43940E-04-2.37542E-03-3.14102E-15
 -1     10525-4.03423E-04-1.67380E-03-1.39678E-15
 -1     10526-4.26661E-04-1.62390E-03 5.80566E-06
 -1     10527-7.43915E-04-2.37698E-03 7.60736E-06
 -1     10528-4.03699E-04-1.67500E-03 9.66402E-06
 -1     10529-4.27466E-04-1.62596E-03 1.66505E-05
 -1     10530-7.43219E-04-2.38150E-03 1.48903E-05
 -1     10531-4.04176E-04-1.67888E-03 1.78910E-05
 -1     10532-4.24367E-04-1.62978E-03 2.21562E-05
 -1     10533-1.65615E-04-8.32650E-04-2.88203E-05
 -1     10534-1.64093E-04-8.30815E-04-1.36311E-05
 -1     10535-1.63660E-04-8.30217E-04-2.10765E-16
 -1     10536-1.64093E-04-8.30815E-04 1.36311E-05
 -1     10537-1.65615E-04-8.32650E-04 2.88203E-05
 -1     10538 1.46500E-01-9.33758E-02-5.17510E-05
 -1     10539 1.47128E-01-1.02872E-01-3.05326E-05
 -1     10540 1.43341E-01-9.38308E-02-4.75486E-05
 -1     10541 1.46502E-01-9.33690E-02-3.10566E-05
 -1     10542 1.47131E-01-1.02866E-01-1.51394E-05
 -1     10543 1.43342E-01-9.38252E-02-2.37733E-05
 -1     10544 1.46503E-01-9.33656E-02-1.03513E-05
 -1     10545 1.47132E-01-1.02864E-01-2.09721E-13
 -1     10546 1.43342E-01-9.38233E-02-2.23024E-13
 -1     10547 1.46503E-01-9.33656E-02 1.03513E-05
 -1     10548 1.47131E-01-1.02866E-01 1.51394E-05
 -1     10549 1.43342E-01-9.38252E-02 2.37733E-05
 -1     10550 1.46502E-01-9.33690E-02 3.10566E-05
 -1     10551 1.47128E-01-1.02872E-01 3.05326E-05
 -1     10552 1.43341E-01-9.38308E-02 4.75486E-05
 -1     10553 1.46500E-01-9.33758E-02 5.17510E-05
 -1     10554 1.42556E-01-7.42942E-02-6.15584E-05
 -1     10555 1.44588E-01-8.38856E-02-4.69816E-05
 -1     10556 1.39492E-01-7.51213E-02-5.13899E-05
 -1     10557 1.42556E-01-7.42918E-02-3.69272E-05
 -1     10558 1.44588E-01-8.38819E-02-2.34965E-05
 -1     10559 1.39491E-01-7.51195E-02-2.56890E-05
 -1     10560 1.42556E-01-7.42906E-02-1.23077E-05
 -1     10561 1.44588E-01-8.38807E-02-2.43409E-13
 -1     10562 1.39491E-01-7.51189E-02-2.53985E-13
 -1     10563 1.42556E-01-7.42906E-02 1.23077E-05
 -1     10564 1.44588E-01-8.38819E-02 2.34965E-05
 -1     10565 1.39491E-01-7.51195E-02 2.56890E-05
 -1     10566 1.42556E-01-7.42918E-02 3.69271E-05
 -1     10567 1.44588E-01-8.38856E-02 4.69816E-05
 -1     10568 1.39492E-01-7.51213E-02 5.13899E-05
 -1     10569 1.42556E-01-7.42942E-02 6.15584E-05
 -1     10570 1.35802E-01-5.56601E-02-6.54006E-05
 -1     10571 1.39239E-01-6.49658E-02-5.07669E-05
 -1     10572 1.32886E-01-5.68277E-02-4.88616E-05
 -1     10573 1.35804E-01-5.56634E-02-3.92328E-05
 -1     10574 1.39239E-01-6.49661E-02-2.53853E-05
 -1     10575 1.32887E-01-5.68306E-02-2.44291E-05
 -1     10576 1.35805E-01-5.56650E-02-1.30768E-05
 -1     10577 1.39239E-01-6.49663E-02-2.72854E-13
 -1     10578 1.32887E-01-5.68316E-02-2.80415E-13
 -1     10579 1.35805E-01-5.56650E-02 1.30768E-05
 -1     10580 1.39239E-01-6.49661E-02 2.53853E-05
 -1     10581 1.32887E-01-5.68306E-02 2.44291E-05
 -1     10582 1.35804E-01-5.56634E-02 3.92328E-05
 -1     10583 1.39239E-01-6.49658E-02 5.07669E-05
 -1     10584 1.32886E-01-5.68277E-02 4.88616E-05
 -1     10585 1.35802E-01-5.56601E-02 6.54006E-05
 -1     10586 1.26473E-01-3.82552E-02-7.13172E-05
 -1     10587 1.31171E-01-4.68868E-02-5.37478E-05
 -1     10588 1.23766E-01-3.97322E-02-4.77534E-05
 -1     10589 1.26479E-01-3.82635E-02-4.27933E-05
 -1     10590 1.31174E-01-4.68913E-02-2.68738E-05
 -1     10591 1.23770E-01-3.97390E-02-2.38764E-05
 -1     10592 1.26482E-01-3.82677E-02-1.42644E-05
 -1     10593 1.31175E-01-4.68928E-02-2.97664E-13
 -1     10594 1.23772E-01-3.97413E-02-3.01601E-13
 -1     10595 1.26482E-01-3.82677E-02 1.42644E-05
 -1     10596 1.31174E-01-4.68913E-02 2.68738E-05
 -1     10597 1.23770E-01-3.97390E-02 2.38764E-05
 -1     10598 1.26479E-01-3.82635E-02 4.27933E-05
 -1     10599 1.31171E-01-4.68868E-02 5.37478E-05
 -1     10600 1.23766E-01-3.97322E-02 4.77534E-05
 -1     10601 1.26473E-01-3.82552E-02 7.13172E-05
 -1     10602 1.15019E-01-2.27438E-02-8.08392E-05
 -1     10603 1.20739E-01-3.03867E-02-5.94497E-05
 -1     10604 1.12581E-01-2.44847E-02-5.01467E-05
 -1     10605 1.15030E-01-2.27556E-02-4.85118E-05
 -1     10606 1.20746E-01-3.03944E-02-2.97249E-05
 -1     10607 1.12589E-01-2.44942E-02-2.50721E-05
 -1     10608 1.15036E-01-2.27614E-02-1.61703E-05
 -1     10609 1.20748E-01-3.03970E-02-3.16322E-13
 -1     10610 1.12592E-01-2.44974E-02-3.16044E-13
 -1     10611 1.15036E-01-2.27614E-02 1.61703E-05
 -1     10612 1.20746E-01-3.03944E-02 2.97249E-05
 -1     10613 1.12589E-01-2.44942E-02 2.50721E-05
 -1     10614 1.15030E-01-2.27556E-02 4.85118E-05
 -1     10615 1.20739E-01-3.03867E-02 5.94497E-05
 -1     10616 1.12581E-01-2.44847E-02 5.01467E-05
 -1     10617 1.15019E-01-2.27438E-02 8.08392E-05
 -1     10618 1.02007E-01-9.59195E-03-9.27028E-05
 -1     10619 1.08462E-01-1.60333E-02-6.77393E-05
 -1     10620 9.98887E-02-1.15355E-02-5.53386E-05
 -1     10621 1.02023E-01-9.60540E-03-5.56330E-05
 -1     10622 1.08472E-01-1.60430E-02-3.38705E-05
 -1     10623 9.99007E-02-1.15462E-02-2.76661E-05
 -1     10624 1.02031E-01-9.61212E-03-1.85433E-05
 -1     10625 1.08475E-01-1.60462E-02-3.27263E-13
 -1     10626 9.99047E-02-1.15498E-02-3.23005E-13
 -1     10627 1.02031E-01-9.61212E-03 1.85433E-05
 -1     10628 1.08472E-01-1.60430E-02 3.38705E-05
 -1     10629 9.99007E-02-1.15462E-02 2.76661E-05
 -1     10630 1.02023E-01-9.60540E-03 5.56330E-05
 -1     10631 1.08462E-01-1.60333E-02 6.77393E-05
 -1     10632 9.98887E-02-1.15355E-02 5.53386E-05
 -1     10633 1.02007E-01-9.59195E-03 9.27028E-05
 -1     10634 8.80490E-02 9.38736E-04-1.05051E-04
 -1     10635 9.49338E-02-4.18748E-03-7.72377E-05
 -1     10636 8.62822E-02-1.13520E-03-6.18411E-05
 -1     10637 8.80698E-02 9.25177E-04-6.30427E-05
 -1     10638 9.49477E-02-4.19780E-03-3.86210E-05
 -1     10639 8.62978E-02-1.14595E-03-3.09148E-05
 -1     10640 8.80802E-02 9.18398E-04-2.10122E-05
 -1     10641 9.49524E-02-4.20124E-03-3.30582E-13
 -1     10642 8.63031E-02-1.14953E-03-3.22566E-13
 -1     10643 8.80802E-02 9.18398E-04 2.10122E-05
 -1     10644 9.49477E-02-4.19780E-03 3.86210E-05
 -1     10645 8.62978E-02-1.14595E-03 3.09148E-05
 -1     10646 8.80698E-02 9.25177E-04 6.30427E-05
 -1     10647 9.49338E-02-4.18748E-03 7.72377E-05
 -1     10648 8.62822E-02-1.13520E-03 6.18411E-05
 -1     10649 8.80490E-02 9.38736E-04 1.05051E-04
 -1     10650 7.37535E-02 8.76918E-03-1.16383E-04
 -1     10651 8.07687E-02 4.98428E-03-8.65500E-05
 -1     10652 7.23503E-02 6.64083E-03-6.83402E-05
 -1     10653 7.37782E-02 8.75679E-03-6.98418E-05
 -1     10654 8.07858E-02 4.97439E-03-4.32786E-05
 -1     10655 7.23690E-02 6.63106E-03-3.41617E-05
 -1     10656 7.37905E-02 8.75061E-03-2.32776E-05
 -1     10657 8.07915E-02 4.97110E-03-3.26312E-13
 -1     10658 7.23753E-02 6.62780E-03-3.14849E-13
 -1     10659 7.37905E-02 8.75061E-03 2.32776E-05
 -1     10660 8.07858E-02 4.97439E-03 4.32786E-05
 -1     10661 7.23690E-02 6.63106E-03 3.41617E-05
 -1     10662 7.37782E-02 8.75679E-03 6.98418E-05
 -1     10663 8.07687E-02 4.98428E-03 8.65500E-05
 -1     10664 7.23503E-02 6.64083E-03 6.83402E-05
 -1     10665 7.37535E-02 8.76918E-03 1.16383E-04
 -1     10666 5.96934E-02 1.39758E-02-1.25762E-04
 -1     10667 6.65584E-02 1.14839E-02-9.46916E-05
 -1     10668 5.86466E-02 1.18666E-02-7.39669E-05
 -1     10669 5.97214E-02 1.39656E-02-7.54690E-05
 -1     10670 6.65783E-02 1.14753E-02-4.73510E-05
 -1     10671 5.86679E-02 1.18586E-02-3.69721E-05
 -1     10672 5.97353E-02 1.39605E-02-2.51521E-05
 -1     10673 6.65849E-02 1.14724E-02-3.15009E-13
 -1     10674 5.86750E-02 1.18559E-02-3.01114E-13
 -1     10675 5.97353E-02 1.39605E-02 2.51521E-05
 -1     10676 6.65783E-02 1.14753E-02 4.73510E-05
 -1     10677 5.86679E-02 1.18586E-02 3.69721E-05
 -1     10678 5.97214E-02 1.39656E-02 7.54690E-05
 -1     10679 6.65584E-02 1.14839E-02 9.46916E-05
 -1     10680 5.86466E-02 1.18666E-02 7.39669E-05
 -1     10681 5.96934E-02 1.39758E-02 1.25762E-04
 -1     10682 4.63815E-02 1.67648E-02-1.32710E-04
 -1     10683 5.28471E-02 1.54552E-02-1.01103E-04
 -1     10684 4.56670E-02 1.47410E-02-7.82509E-05
 -1     10685 4.64118E-02 1.67576E-02-7.96385E-05
 -1     10686 5.28690E-02 1.54486E-02-5.05588E-05
 -1     10687 4.56901E-02 1.47353E-02-3.91102E-05
 -1     10688 4.64269E-02 1.67540E-02-2.65404E-05
 -1     10689 5.28763E-02 1.54464E-02-2.98202E-13
 -1     10690 4.56978E-02 1.47335E-02-2.82480E-13
 -1     10691 4.64269E-02 1.67540E-02 2.65404E-05
 -1     10692 5.28690E-02 1.54486E-02 5.05588E-05
 -1     10693 4.56901E-02 1.47353E-02 3.91102E-05
 -1     10694 4.64118E-02 1.67576E-02 7.96385E-05
 -1     10695 5.28471E-02 1.54552E-02 1.01103E-04
 -1     10696 4.56670E-02 1.47410E-02 7.82509E-05
 -1     10697 4.63815E-02 1.67648E-02 1.32710E-04
 -1     10698 3.42487E-02 1.74469E-02-1.37044E-04
 -1     10699 4.01073E-02 1.71589E-02-1.05529E-04
 -1     10700 3.38292E-02 1.55644E-02-8.09900E-05
 -1     10701 3.42804E-02 1.74432E-02-8.22395E-05
 -1     10702 4.01307E-02 1.71548E-02-5.27741E-05
 -1     10703 3.38534E-02 1.55615E-02-4.04741E-05
 -1     10704 3.42962E-02 1.74413E-02-2.74053E-05
 -1     10705 4.01385E-02 1.71534E-02-2.76702E-13
 -1     10706 3.38615E-02 1.55605E-02-2.59456E-13
 -1     10707 3.42962E-02 1.74413E-02 2.74053E-05
 -1     10708 4.01307E-02 1.71548E-02 5.27741E-05
 -1     10709 3.38534E-02 1.55615E-02 4.04741E-05
 -1     10710 3.42804E-02 1.74432E-02 8.22395E-05
 -1     10711 4.01073E-02 1.71589E-02 1.05529E-04
 -1     10712 3.38292E-02 1.55644E-02 8.09900E-05
 -1     10713 3.42487E-02 1.74469E-02 1.37044E-04
 -1     10714 2.36271E-02 1.64110E-02-1.38736E-04
 -1     10715 2.87215E-02 1.69470E-02-1.07889E-04
 -1     10716 2.34558E-02 1.47129E-02-8.21346E-05
 -1     10717 2.36593E-02 1.64110E-02-8.32571E-05
 -1     10718 2.87456E-02 1.69456E-02-5.39582E-05
 -1     10719 2.34805E-02 1.47129E-02-4.10379E-05
 -1     10720 2.36754E-02 1.64111E-02-2.77412E-05
 -1     10721 2.87536E-02 1.69452E-02-2.51467E-13
 -1     10722 2.34887E-02 1.47130E-02-2.33499E-13
 -1     10723 2.36754E-02 1.64111E-02 2.77412E-05
 -1     10724 2.87456E-02 1.69456E-02 5.39582E-05
 -1     10725 2.34805E-02 1.47129E-02 4.10379E-05
 -1     10726 2.36593E-02 1.64110E-02 8.32571E-05
 -1     10727 2.87215E-02 1.69470E-02 1.07889E-04
 -1     10728 2.34558E-02 1.47129E-02 8.21346E-05
 -1     10729 2.36271E-02 1.64110E-02 1.38736E-04
 -1     10730 1.47382E-02 1.40959E-02-1.37842E-04
 -1     10731 1.89668E-02 1.52356E-02-1.08199E-04
 -1     10732 1.47625E-02 1.26115E-02-8.17132E-05
 -1     10733 1.47698E-02 1.40997E-02-8.27245E-05
 -1     10734 1.89908E-02 1.52371E-02-5.41190E-05
 -1     10735 1.47868E-02 1.26145E-02-4.08140E-05
 -1     10736 1.47856E-02 1.41016E-02-2.75588E-05
 -1     10737 1.89988E-02 1.52376E-02-2.23602E-13
 -1     10738 1.47948E-02 1.26156E-02-2.05284E-13
 -1     10739 1.47856E-02 1.41016E-02 2.75588E-05
 -1     10740 1.89908E-02 1.52371E-02 5.41190E-05
 -1     10741 1.47868E-02 1.26145E-02 4.08140E-05
 -1     10742 1.47698E-02 1.40997E-02 8.27245E-05
 -1     10743 1.89668E-02 1.52356E-02 1.08199E-04
 -1     10744 1.47625E-02 1.26115E-02 8.17132E-05
 -1     10745 1.47382E-02 1.40959E-02 1.37842E-04
 -1     10746 7.68622E-03 1.09605E-02-1.34458E-04
 -1     10747 1.10059E-02 1.24759E-02-1.06519E-04
 -1     10748 7.85161E-03 9.70517E-03-7.97924E-05
 -1     10749 7.71636E-03 1.09678E-02-8.07002E-05
 -1     10750 1.10292E-02 1.24801E-02-5.32879E-05
 -1     10751 7.87468E-03 9.71092E-03-3.98330E-05
 -1     10752 7.73142E-03 1.09715E-02-2.68764E-05
 -1     10753 1.10370E-02 1.24815E-02-1.93869E-13
 -1     10754 7.88233E-03 9.71285E-03-1.75743E-13
 -1     10755 7.73142E-03 1.09715E-02 2.68764E-05
 -1     10756 1.10292E-02 1.24801E-02 5.32879E-05
 -1     10757 7.87468E-03 9.71092E-03 3.98330E-05
 -1     10758 7.71636E-03 1.09678E-02 8.07002E-05
 -1     10759 1.10059E-02 1.24759E-02 1.06519E-04
 -1     10760 7.85161E-03 9.70517E-03 7.97924E-05
 -1     10761 7.68622E-03 1.09605E-02 1.34458E-04
 -1     10762 2.46018E-03 7.45375E-03-1.28704E-04
 -1     10763 4.88498E-03 9.12401E-03-1.02934E-04
 -1     10764 2.71366E-03 6.42921E-03-7.64579E-05
 -1     10765 2.48797E-03 7.46408E-03-7.72580E-05
 -1     10766 4.90679E-03 9.13072E-03-5.15091E-05
 -1     10767 2.73489E-03 6.43733E-03-3.81340E-05
 -1     10768 2.50186E-03 7.46925E-03-2.57174E-05
 -1     10769 4.91409E-03 9.13295E-03-1.63271E-13
 -1     10770 2.74192E-03 6.44006E-03-1.45893E-13
 -1     10771 2.50186E-03 7.46925E-03 2.57174E-05
 -1     10772 4.90679E-03 9.13072E-03 5.15091E-05
 -1     10773 2.73489E-03 6.43733E-03 3.81340E-05
 -1     10774 2.48797E-03 7.46408E-03 7.72580E-05
 -1     10775 4.88498E-03 9.12401E-03 1.02934E-04
 -1     10776 2.71366E-03 6.42921E-03 7.64579E-05
 -1     10777 2.46018E-03 7.45375E-03 1.28704E-04
 -1     10778-1.05757E-03 3.98620E-03-1.20721E-04
 -1     10779 5.38447E-04 5.61177E-03-9.75447E-05
 -1     10780-7.64197E-04 3.18217E-03-7.18068E-05
 -1     10781-1.03281E-03 3.99883E-03-7.24839E-05
 -1     10782 5.58205E-04 5.62050E-03-4.88355E-05
 -1     10783-7.45332E-04 3.19210E-03-3.57598E-05
 -1     10784-1.02045E-03 4.00516E-03-2.41086E-05
 -1     10785 5.64827E-04 5.62341E-03-1.32990E-13
 -1     10786-7.39126E-04 3.19543E-03-1.16861E-13
 -1     10787-1.02045E-03 4.00516E-03 2.41086E-05
 -1     10788 5.58205E-04 5.62050E-03 4.88355E-05
 -1     10789-7.45332E-04 3.19210E-03 3.57598E-05
 -1     10790-1.03281E-03 3.99883E-03 7.24839E-05
 -1     10791 5.38447E-04 5.61177E-03 9.75447E-05
 -1     10792-7.64197E-04 3.18217E-03 7.18068E-05
 -1     10793-1.05757E-03 3.98620E-03 1.20721E-04
 -1     10794-3.07539E-03 9.05007E-04-1.10658E-04
 -1     10795-2.19841E-03 2.31972E-03-9.04638E-05
 -1     10796-2.78290E-03 3.01207E-04-6.59416E-05
 -1     10797-3.05416E-03 9.19076E-04-6.64730E-05
 -1     10798-2.18116E-03 2.32989E-03-4.53266E-05
 -1     10799-2.76678E-03 3.12287E-04-3.27536E-05
 -1     10800-3.04356E-03 9.26137E-04-2.20787E-05
 -1     10801-2.17536E-03 2.33327E-03-1.04103E-13
 -1     10802-2.76153E-03 3.15992E-04-8.96673E-14
 -1     10803-3.04356E-03 9.26137E-04 2.20787E-05
 -1     10804-2.18116E-03 2.32989E-03 4.53266E-05
 -1     10805-2.76678E-03 3.12287E-04 3.27536E-05
 -1     10806-3.05416E-03 9.19076E-04 6.64730E-05
 -1     10807-2.19841E-03 2.31972E-03 9.04638E-05
 -1     10808-2.78290E-03 3.01207E-04 6.59416E-05
 -1     10809-3.07539E-03 9.05007E-04 1.10658E-04
 -1     10810-3.87043E-03-1.52580E-03-9.86701E-05
 -1     10811-3.57050E-03-4.45345E-04-8.18072E-05
 -1     10812-3.61019E-03-1.95705E-03-5.89653E-05
 -1     10813-3.85295E-03-1.51126E-03-5.93261E-05
 -1     10814-3.55604E-03-4.34452E-04-4.10453E-05
 -1     10815-3.59697E-03-1.94557E-03-2.91567E-05
 -1     10816-3.84424E-03-1.50395E-03-1.96583E-05
 -1     10817-3.55114E-03-4.30823E-04-7.76073E-14
 -1     10818-3.59276E-03-1.94175E-03-6.51803E-14
 -1     10819-3.84424E-03-1.50395E-03 1.96583E-05
 -1     10820-3.55604E-03-4.34452E-04 4.10453E-05
 -1     10821-3.59697E-03-1.94557E-03 2.91567E-05
 -1     10822-3.85295E-03-1.51126E-03 5.93261E-05
 -1     10823-3.57050E-03-4.45345E-04 8.18072E-05
 -1     10824-3.61019E-03-1.95705E-03 5.89653E-05
 -1     10825-3.87043E-03-1.52580E-03 9.86701E-05
 -1     10826-3.76192E-03-3.13826E-03-8.49066E-05
 -1     10827-3.87847E-03-2.46691E-03-7.16870E-05
 -1     10828-3.55467E-03-3.42926E-03-5.09919E-05
 -1     10829-3.74818E-03-3.12424E-03-5.11529E-05
 -1     10830-3.86692E-03-2.45603E-03-3.60530E-05
 -1     10831-3.54433E-03-3.41814E-03-2.50171E-05
 -1     10832-3.74133E-03-3.11718E-03-1.68811E-05
 -1     10833-3.86294E-03-2.45240E-03-5.43094E-14
 -1     10834-3.54116E-03-3.41447E-03-4.41181E-14
 -1     10835-3.74133E-03-3.11718E-03 1.68811E-05
 -1     10836-3.86692E-03-2.45603E-03 3.60530E-05
 -1     10837-3.54433E-03-3.41814E-03 2.50171E-05
 -1     10838-3.74818E-03-3.12424E-03 5.11529E-05
 -1     10839-3.87847E-03-2.46691E-03 7.16870E-05
 -1     10840-3.55467E-03-3.42926E-03 5.09919E-05
 -1     10841-3.76192E-03-3.13826E-03 8.49066E-05
 -1     10842-3.08148E-03-3.86570E-03-6.95793E-05
 -1     10843-3.45041E-03-3.62781E-03-6.02294E-05
 -1     10844-2.93677E-03-4.05065E-03-4.22169E-05
 -1     10845-3.07125E-03-3.85321E-03-4.21278E-05
 -1     10846-3.44168E-03-3.61771E-03-3.04155E-05
 -1     10847-2.92903E-03-4.04063E-03-2.04397E-05
 -1     10848-3.06610E-03-3.84687E-03-1.38093E-05
 -1     10849-3.43859E-03-3.61431E-03-3.48498E-14
 -1     10850-2.92685E-03-4.03737E-03-2.69908E-14
 -1     10851-3.06610E-03-3.84687E-03 1.38093E-05
 -1     10852-3.44168E-03-3.61771E-03 3.04155E-05
 -1     10853-2.92903E-03-4.04063E-03 2.04397E-05
 -1     10854-3.07125E-03-3.85321E-03 4.21278E-05
 -1     10855-3.45041E-03-3.62781E-03 6.02294E-05
 -1     10856-2.93677E-03-4.05065E-03 4.22169E-05
 -1     10857-3.08148E-03-3.86570E-03 6.95793E-05
 -1     10858-2.14205E-03-3.74044E-03-5.32469E-05
 -1     10859-2.61129E-03-3.91159E-03-4.76792E-05
 -1     10860-2.05790E-03-3.85303E-03-3.32440E-05
 -1     10861-2.13498E-03-3.73043E-03-3.27092E-05
 -1     10862-2.60521E-03-3.90298E-03-2.42440E-05
 -1     10863-2.05231E-03-3.84483E-03-1.58040E-05
 -1     10864-2.13122E-03-3.72530E-03-1.06236E-05
 -1     10865-2.60294E-03-3.90006E-03-1.96719E-14
 -1     10866-2.05096E-03-3.84220E-03-1.41270E-14
 -1     10867-2.13122E-03-3.72530E-03 1.06236E-05
 -1     10868-2.60521E-03-3.90298E-03 2.42440E-05
 -1     10869-2.05231E-03-3.84483E-03 1.58040E-05
 -1     10870-2.13498E-03-3.73043E-03 3.27092E-05
 -1     10871-2.61129E-03-3.91159E-03 4.76792E-05
 -1     10872-2.05790E-03-3.85303E-03 3.32440E-05
 -1     10873-2.14205E-03-3.74044E-03 5.32469E-05
 -1     10874-1.20580E-03-2.88839E-03-3.79750E-05
 -1     10875-1.65150E-03-3.39766E-03-3.48898E-05
 -1     10876-1.16963E-03-2.95850E-03-2.60224E-05
 -1     10877-1.20214E-03-2.88186E-03-2.44965E-05
 -1     10878-1.64801E-03-3.39125E-03-1.78893E-05
 -1     10879-1.16562E-03-2.95284E-03-1.24268E-05
 -1     10880-1.19935E-03-2.87843E-03-7.98033E-06
 -1     10881-1.64656E-03-3.38905E-03-8.98591E-15
 -1     10882-1.16477E-03-2.95107E-03-5.60480E-15
 -1     10883-1.19935E-03-2.87843E-03 7.98033E-06
 -1     10884-1.64801E-03-3.39125E-03 1.78893E-05
 -1     10885-1.16562E-03-2.95284E-03 1.24268E-05
 -1     10886-1.20214E-03-2.88186E-03 2.44965E-05
 -1     10887-1.65150E-03-3.39766E-03 3.48898E-05
 -1     10888-1.16963E-03-2.95850E-03 2.60224E-05
 -1     10889-1.20580E-03-2.88839E-03 3.79750E-05
 -1     10890-4.53180E-04-1.53027E-03-2.83206E-05
 -1     10891-7.95473E-04-2.25725E-03-2.45960E-05
 -1     10892-4.45495E-04-1.57807E-03-2.47121E-05
 -1     10893-4.55306E-04-1.52826E-03-2.04892E-05
 -1     10894-7.95147E-04-2.25383E-03-1.24005E-05
 -1     10895-4.44135E-04-1.57558E-03-1.31800E-05
 -1     10896-4.53937E-04-1.52712E-03-7.10949E-06
 -1     10897-7.94852E-04-2.25264E-03-2.66116E-15
 -1     10898-4.43549E-04-1.57483E-03-1.12984E-15
 -1     10899-4.53937E-04-1.52712E-03 7.10949E-06
 -1     10900-7.95147E-04-2.25383E-03 1.24005E-05
 -1     10901-4.44135E-04-1.57558E-03 1.31800E-05
 -1     10902-4.55306E-04-1.52826E-03 2.04892E-05
 -1     10903-7.95473E-04-2.25725E-03 2.45960E-05
 -1     10904-4.45495E-04-1.57807E-03 2.47121E-05
 -1     10905-4.53180E-04-1.53027E-03 2.83206E-05
 -1     10906-1.77636E-04-7.70249E-04-3.18706E-05
 -1     10907-1.75497E-04-7.69628E-04-1.51287E-05
 -1     10908-1.74867E-04-7.69386E-04-1.13855E-16
 -1     10909-1.75497E-04-7.69628E-04 1.51287E-05
 -1     10910-1.77636E-04-7.70249E-04 3.18706E-05
 -1     10911 1.52865E-01-9.24783E-02-3.90297E-05
 -1     10912 1.53534E-01-1.02390E-01-1.95430E-05
 -1     10913 1.49676E-01-9.29203E-02-3.60611E-05
 -1     10914 1.52868E-01-9.24727E-02-2.34361E-05
 -1     10915 1.53537E-01-1.02386E-01-9.66931E-06
 -1     10916 1.49678E-01-9.29157E-02-1.80385E-05
 -1     10917 1.52869E-01-9.24699E-02-7.81353E-06
 -1     10918 1.53538E-01-1.02384E-01-2.17446E-13
 -1     10919 1.49679E-01-9.29141E-02-2.32232E-13
 -1     10920 1.52869E-01-9.24699E-02 7.81353E-06
 -1     10921 1.53537E-01-1.02386E-01 9.66931E-06
 -1     10922 1.49678E-01-9.29157E-02 1.80385E-05
 -1     10923 1.52868E-01-9.24727E-02 2.34361E-05
 -1     10924 1.53534E-01-1.02390E-01 1.95430E-05
 -1     10925 1.49676E-01-9.29203E-02 3.60611E-05
 -1     10926 1.52865E-01-9.24783E-02 3.90297E-05
 -1     10927 1.48731E-01-7.26406E-02-5.67463E-05
 -1     10928 1.50854E-01-8.26026E-02-3.92070E-05
 -1     10929 1.45636E-01-7.34657E-02-4.72643E-05
 -1     10930 1.48732E-01-7.26379E-02-3.40368E-05
 -1     10931 1.50856E-01-8.25993E-02-1.96084E-05
 -1     10932 1.45636E-01-7.34638E-02-2.36254E-05
 -1     10933 1.48733E-01-7.26366E-02-1.13434E-05
 -1     10934 1.50856E-01-8.25982E-02-2.53129E-13
 -1     10935 1.45637E-01-7.34632E-02-2.64878E-13
 -1     10936 1.48733E-01-7.26366E-02 1.13434E-05
 -1     10937 1.50856E-01-8.25993E-02 1.96084E-05
 -1     10938 1.45636E-01-7.34638E-02 2.36254E-05
 -1     10939 1.48732E-01-7.26379E-02 3.40368E-05
 -1     10940 1.50854E-01-8.26026E-02 3.92070E-05
 -1     10941 1.45636E-01-7.34657E-02 4.72643E-05
 -1     10942 1.48731E-01-7.26406E-02 5.67463E-05
 -1     10943 1.41681E-01-5.33129E-02-7.35225E-05
 -1     10944 1.45265E-01-6.29625E-02-5.17939E-05
 -1     10945 1.38735E-01-5.44911E-02-5.56372E-05
 -1     10946 1.41685E-01-5.33151E-02-4.41040E-05
 -1     10947 1.45267E-01-6.29623E-02-2.58986E-05
 -1     10948 1.38737E-01-5.44931E-02-2.78164E-05
 -1     10949 1.41687E-01-5.33162E-02-1.47002E-05
 -1     10950 1.45267E-01-6.29622E-02-2.84536E-13
 -1     10951 1.38738E-01-5.44938E-02-2.92925E-13
 -1     10952 1.41687E-01-5.33162E-02 1.47002E-05
 -1     10953 1.45267E-01-6.29623E-02 2.58986E-05
 -1     10954 1.38737E-01-5.44931E-02 2.78164E-05
 -1     10955 1.41685E-01-5.33151E-02 4.41040E-05
 -1     10956 1.45265E-01-6.29625E-02 5.17939E-05
 -1     10957 1.38735E-01-5.44911E-02 5.56372E-05
 -1     10958 1.41681E-01-5.33129E-02 7.35225E-05
 -1     10959 1.31934E-01-3.52816E-02-9.35039E-05
 -1     10960 1.36842E-01-4.42229E-02-6.59195E-05
 -1     10961 1.29200E-01-3.67780E-02-6.60682E-05
 -1     10962 1.31941E-01-3.52884E-02-5.61037E-05
 -1     10963 1.36847E-01-4.42264E-02-3.29593E-05
 -1     10964 1.29205E-01-3.67836E-02-3.30341E-05
 -1     10965 1.31945E-01-3.52918E-02-1.87013E-05
 -1     10966 1.36848E-01-4.42276E-02-3.11001E-13
 -1     10967 1.29207E-01-3.67855E-02-3.15725E-13
 -1     10968 1.31945E-01-3.52918E-02 1.87013E-05
 -1     10969 1.36847E-01-4.42264E-02 3.29593E-05
 -1     10970 1.29205E-01-3.67836E-02 3.30341E-05
 -1     10971 1.31941E-01-3.52884E-02 5.61037E-05
 -1     10972 1.36842E-01-4.42229E-02 6.59195E-05
 -1     10973 1.29200E-01-3.67780E-02 6.60682E-05
 -1     10974 1.31934E-01-3.52816E-02 9.35039E-05
 -1     10975 1.19939E-01-1.92396E-02-1.15806E-04
 -1     10976 1.25931E-01-2.71421E-02-8.25142E-05
 -1     10977 1.17480E-01-2.10042E-02-7.88406E-05
 -1     10978 1.19951E-01-1.92497E-02-6.94907E-05
 -1     10979 1.25938E-01-2.71486E-02-4.12564E-05
 -1     10980 1.17489E-01-2.10124E-02-3.94197E-05
 -1     10981 1.19957E-01-1.92548E-02-2.31633E-05
 -1     10982 1.25941E-01-2.71508E-02-3.30955E-13
 -1     10983 1.17492E-01-2.10151E-02-3.31278E-13
 -1     10984 1.19957E-01-1.92548E-02 2.31633E-05
 -1     10985 1.25938E-01-2.71486E-02 4.12564E-05
 -1     10986 1.17489E-01-2.10124E-02 3.94197E-05
 -1     10987 1.19951E-01-1.92497E-02 6.94907E-05
 -1     10988 1.25931E-01-2.71421E-02 8.25142E-05
 -1     10989 1.17480E-01-2.10042E-02 7.88406E-05
 -1     10990 1.19939E-01-1.92396E-02 1.15806E-04
 -1     10991 1.06286E-01-5.68332E-03-1.38237E-04
 -1     10992 1.13060E-01-1.23191E-02-1.00173E-04
 -1     10993 1.04152E-01-7.65126E-03-9.25884E-05
 -1     10994 1.06303E-01-5.69521E-03-8.29526E-05
 -1     10995 1.13071E-01-1.23276E-02-5.00867E-05
 -1     10996 1.04164E-01-7.66074E-03-4.62913E-05
 -1     10997 1.06311E-01-5.70116E-03-2.76498E-05
 -1     10998 1.13075E-01-1.23304E-02-3.42740E-13
 -1     10999 1.04168E-01-7.66389E-03-3.38536E-13
 -1     11000 1.06311E-01-5.70116E-03 2.76498E-05
 -1     11001 1.13071E-01-1.23276E-02 5.00867E-05
 -1     11002 1.04164E-01-7.66074E-03 4.62913E-05
 -1     11003 1.06303E-01-5.69521E-03 8.29526E-05
 -1     11004 1.13060E-01-1.23191E-02 1.00173E-04
 -1     11005 1.04152E-01-7.65126E-03 9.25884E-05
 -1     11006 1.06286E-01-5.68332E-03 1.38237E-04
 -1     11007 9.16222E-02 5.10559E-03-1.58878E-04
 -1     11008 9.88558E-02-1.41012E-04-1.17191E-04
 -1     11009 8.98445E-02 3.00890E-03-1.05808E-04
 -1     11010 9.16428E-02 5.09341E-03-9.53374E-05
 -1     11011 9.88697E-02-1.50213E-04-5.85971E-05
 -1     11012 8.98600E-02 2.99926E-03-5.28980E-05
 -1     11013 9.16531E-02 5.08732E-03-3.17770E-05
 -1     11014 9.88744E-02-1.53282E-04-3.46023E-13
 -1     11015 8.98651E-02 2.99606E-03-3.37813E-13
 -1     11016 9.16531E-02 5.08732E-03 3.17770E-05
 -1     11017 9.88697E-02-1.50213E-04 5.85971E-05
 -1     11018 8.98600E-02 2.99926E-03 5.28980E-05
 -1     11019 9.16428E-02 5.09341E-03 9.53374E-05
 -1     11020 9.88558E-02-1.41012E-04 1.17191E-04
 -1     11021 8.98445E-02 3.00890E-03 1.05808E-04
 -1     11022 9.16222E-02 5.10559E-03 1.58878E-04
 -1     11023 7.65969E-02 1.30415E-02-1.76492E-04
 -1     11024 8.39695E-02 9.21235E-03-1.32297E-04
 -1     11025 7.51874E-02 1.08935E-02-1.17408E-04
 -1     11026 7.66210E-02 1.30302E-02-1.05906E-04
 -1     11027 8.39863E-02 9.20343E-03-6.61513E-05
 -1     11028 7.52057E-02 1.08847E-02-5.86944E-05
 -1     11029 7.66331E-02 1.30246E-02-3.52984E-05
 -1     11030 8.39919E-02 9.20045E-03-3.41341E-13
 -1     11031 7.52118E-02 1.08817E-02-3.29508E-13
 -1     11032 7.66331E-02 1.30246E-02 3.52984E-05
 -1     11033 8.39863E-02 9.20343E-03 6.61513E-05
 -1     11034 7.52057E-02 1.08847E-02 5.86944E-05
 -1     11035 7.66210E-02 1.30302E-02 1.05906E-04
 -1     11036 8.39695E-02 9.21235E-03 1.32297E-04
 -1     11037 7.51874E-02 1.08935E-02 1.17408E-04
 -1     11038 7.65969E-02 1.30415E-02 1.76492E-04
 -1     11039 6.18219E-02 1.82061E-02-1.90447E-04
 -1     11040 6.90341E-02 1.57426E-02-1.44751E-04
 -1     11041 6.07727E-02 1.60814E-02-1.26760E-04
 -1     11042 6.18490E-02 1.81969E-02-1.14278E-04
 -1     11043 6.90534E-02 1.57348E-02-7.23803E-05
 -1     11044 6.07933E-02 1.60741E-02-6.33666E-05
 -1     11045 6.18625E-02 1.81922E-02-3.80879E-05
 -1     11046 6.90598E-02 1.57322E-02-3.29150E-13
 -1     11047 6.08002E-02 1.60717E-02-3.14717E-13
 -1     11048 6.18625E-02 1.81922E-02 3.80879E-05
 -1     11049 6.90534E-02 1.57348E-02 7.23803E-05
 -1     11050 6.07933E-02 1.60741E-02 6.33666E-05
 -1     11051 6.18490E-02 1.81969E-02 1.14278E-04
 -1     11052 6.90341E-02 1.57426E-02 1.44751E-04
 -1     11053 6.07727E-02 1.60814E-02 1.26760E-04
 -1     11054 6.18219E-02 1.82061E-02 1.90447E-04
 -1     11055 4.78436E-02 2.08204E-02-2.00497E-04
 -1     11056 5.46300E-02 1.96038E-02-1.54214E-04
 -1     11057 4.71296E-02 1.87859E-02-1.33575E-04
 -1     11058 4.78728E-02 2.08138E-02-1.20308E-04
 -1     11059 5.46512E-02 1.95978E-02-7.71137E-05
 -1     11060 4.71519E-02 1.87807E-02-6.67696E-05
 -1     11061 4.78875E-02 2.08105E-02-4.00961E-05
 -1     11062 5.46583E-02 1.95958E-02-3.11225E-13
 -1     11063 4.71594E-02 1.87790E-02-2.94850E-13
 -1     11064 4.78875E-02 2.08105E-02 4.00961E-05
 -1     11065 5.46512E-02 1.95978E-02 7.71137E-05
 -1     11066 4.71519E-02 1.87807E-02 6.67696E-05
 -1     11067 4.78728E-02 2.08138E-02 1.20308E-04
 -1     11068 5.46300E-02 1.96038E-02 1.54214E-04
 -1     11069 4.71296E-02 1.87859E-02 1.33575E-04
 -1     11070 4.78436E-02 2.08204E-02 2.00497E-04
 -1     11071 3.51196E-02 2.12161E-02-2.06601E-04
 -1     11072 4.12601E-02 2.10748E-02-1.60577E-04
 -1     11073 3.47025E-02 1.93281E-02-1.37765E-04
 -1     11074 3.51502E-02 2.12127E-02-1.23972E-04
 -1     11075 4.12826E-02 2.10711E-02-8.02980E-05
 -1     11076 3.47258E-02 1.93254E-02-6.88572E-05
 -1     11077 3.51654E-02 2.12110E-02-4.13148E-05
 -1     11078 4.12901E-02 2.10698E-02-2.88421E-13
 -1     11079 3.47336E-02 1.93245E-02-2.70536E-13
 -1     11080 3.51654E-02 2.12110E-02 4.13148E-05
 -1     11081 4.12826E-02 2.10711E-02 8.02980E-05
 -1     11082 3.47258E-02 1.93254E-02 6.88572E-05
 -1     11083 3.51502E-02 2.12127E-02 1.23972E-04
 -1     11084 4.12601E-02 2.10748E-02 1.60577E-04
 -1     11085 3.47025E-02 1.93281E-02 1.37765E-04
 -1     11086 3.51196E-02 2.12161E-02 2.06601E-04
 -1     11087 2.40014E-02 1.98076E-02-2.08813E-04
 -1     11088 2.93296E-02 2.05312E-02-1.63848E-04
 -1     11089 2.38330E-02 1.81093E-02-1.39340E-04
 -1     11090 2.40323E-02 1.98077E-02-1.25302E-04
 -1     11091 2.93528E-02 2.05299E-02-8.19377E-05
 -1     11092 2.38566E-02 1.81093E-02-6.96345E-05
 -1     11093 2.40478E-02 1.98077E-02-4.17545E-05
 -1     11094 2.93605E-02 2.05295E-02-2.61779E-13
 -1     11095 2.38645E-02 1.81093E-02-2.43041E-13
 -1     11096 2.40478E-02 1.98077E-02 4.17545E-05
 -1     11097 2.93528E-02 2.05299E-02 8.19377E-05
 -1     11098 2.38566E-02 1.81093E-02 6.96345E-05
 -1     11099 2.40323E-02 1.98077E-02 1.25302E-04
 -1     11100 2.93296E-02 2.05312E-02 1.63848E-04
 -1     11101 2.38330E-02 1.81093E-02 1.39340E-04
 -1     11102 2.40014E-02 1.98076E-02 2.08813E-04
 -1     11103 1.47217E-02 1.70614E-02-2.07233E-04
 -1     11104 1.91312E-02 1.84156E-02-1.64088E-04
 -1     11105 1.47482E-02 1.55820E-02-1.38364E-04
 -1     11106 1.47521E-02 1.70649E-02-1.24357E-04
 -1     11107 1.91543E-02 1.84169E-02-8.20641E-05
 -1     11108 1.47714E-02 1.55848E-02-6.91312E-05
 -1     11109 1.47674E-02 1.70667E-02-4.14345E-05
 -1     11110 1.91620E-02 1.84174E-02-2.32306E-13
 -1     11111 1.47792E-02 1.55857E-02-2.13256E-13
 -1     11112 1.47674E-02 1.70667E-02 4.14345E-05
 -1     11113 1.91543E-02 1.84169E-02 8.20641E-05
 -1     11114 1.47714E-02 1.55848E-02 6.91312E-05
 -1     11115 1.47521E-02 1.70649E-02 1.24357E-04
 -1     11116 1.91312E-02 1.84156E-02 1.64088E-04
 -1     11117 1.47482E-02 1.55820E-02 1.38364E-04
 -1     11118 1.47217E-02 1.70614E-02 2.07233E-04
 -1     11119 7.38892E-03 1.34648E-02-2.01988E-04
 -1     11120 1.08351E-02 1.52074E-02-1.61385E-04
 -1     11121 7.55445E-03 1.22192E-02-1.34929E-04
 -1     11122 7.41799E-03 1.34715E-02-1.21217E-04
 -1     11123 1.08575E-02 1.52113E-02-8.07226E-05
 -1     11124 7.57666E-03 1.22244E-02-6.73907E-05
 -1     11125 7.43251E-03 1.34748E-02-4.03797E-05
 -1     11126 1.08650E-02 1.52126E-02-2.00917E-13
 -1     11127 7.58403E-03 1.22262E-02-1.82035E-13
 -1     11128 7.43251E-03 1.34748E-02 4.03797E-05
 -1     11129 1.08575E-02 1.52113E-02 8.07226E-05
 -1     11130 7.57666E-03 1.22244E-02 6.73907E-05
 -1     11131 7.41799E-03 1.34715E-02 1.21217E-04
 -1     11132 1.08351E-02 1.52074E-02 1.61385E-04
 -1     11133 7.55445E-03 1.22192E-02 1.34929E-04
 -1     11134 7.38892E-03 1.34648E-02 2.01988E-04
 -1     11135 1.98876E-03 9.49373E-03-1.93236E-04
 -1     11136 4.48787E-03 1.13908E-02-1.55853E-04
 -1     11137 2.23926E-03 8.48295E-03-1.29153E-04
 -1     11138 2.01568E-03 9.50317E-03-1.15977E-04
 -1     11139 4.50895E-03 1.13969E-02-7.79707E-05
 -1     11140 2.25980E-03 8.49035E-03-6.44672E-05
 -1     11141 2.02913E-03 9.50791E-03-3.86210E-05
 -1     11142 4.51600E-03 1.13990E-02-1.68701E-13
 -1     11143 2.26659E-03 8.49284E-03-1.50560E-13
 -1     11144 2.02913E-03 9.50791E-03 3.86210E-05
 -1     11145 4.50895E-03 1.13969E-02 7.79707E-05
 -1     11146 2.25980E-03 8.49035E-03 6.44672E-05
 -1     11147 2.01568E-03 9.50317E-03 1.15977E-04
 -1     11148 4.48787E-03 1.13908E-02 1.55853E-04
 -1     11149 2.23926E-03 8.48295E-03 1.29153E-04
 -1     11150 1.98876E-03 9.49373E-03 1.93236E-04
 -1     11151-1.60610E-03 5.58314E-03-1.81170E-04
 -1     11152 1.73311E-05 7.42327E-03-1.47625E-04
 -1     11153-1.31976E-03 4.79592E-03-1.21174E-04
 -1     11154-1.58196E-03 5.59468E-03-1.08754E-04
 -1     11155 3.65202E-05 7.43126E-03-7.38786E-05
 -1     11156-1.30138E-03 4.80499E-03-6.04247E-05
 -1     11157-1.56991E-03 5.60048E-03-3.61955E-05
 -1     11158 4.29555E-05 7.43391E-03-1.36805E-13
 -1     11159-1.29535E-03 4.80803E-03-1.19999E-13
 -1     11160-1.56991E-03 5.60048E-03 3.61955E-05
 -1     11161 3.65202E-05 7.43126E-03 7.38786E-05
 -1     11162-1.30138E-03 4.80499E-03 6.04247E-05
 -1     11163-1.58196E-03 5.59468E-03 1.08754E-04
 -1     11164 1.73311E-05 7.42327E-03 1.47625E-04
 -1     11165-1.31976E-03 4.79592E-03 1.21174E-04
 -1     11166-1.60610E-03 5.58314E-03 1.81170E-04
 -1     11167-3.61910E-03 2.10023E-03-1.66012E-04
 -1     11168-2.75372E-03 3.70769E-03-1.36865E-04
 -1     11169-3.33832E-03 1.51515E-03-1.11154E-04
 -1     11170-3.59818E-03 2.11310E-03-9.96861E-05
 -1     11171-2.73683E-03 3.71699E-03-6.85303E-05
 -1     11172-3.32244E-03 1.52527E-03-5.53363E-05
 -1     11173-3.58774E-03 2.11956E-03-3.31471E-05
 -1     11174-2.73114E-03 3.72008E-03-1.06481E-13
 -1     11175-3.31729E-03 1.52865E-03-9.14624E-14
 -1     11176-3.58774E-03 2.11956E-03 3.31471E-05
 -1     11177-2.73683E-03 3.71699E-03 6.85303E-05
 -1     11178-3.32244E-03 1.52527E-03 5.53363E-05
 -1     11179-3.59818E-03 2.11310E-03 9.96861E-05
 -1     11180-2.75372E-03 3.70769E-03 1.36865E-04
 -1     11181-3.33832E-03 1.51515E-03 1.11154E-04
 -1     11182-3.61910E-03 2.10023E-03 1.66012E-04
 -1     11183-4.34642E-03-6.76101E-04-1.48005E-04
 -1     11184-4.08734E-03 5.68356E-04-1.23753E-04
 -1     11185-4.10287E-03-1.08801E-03-9.92677E-05
 -1     11186-4.32893E-03-6.62793E-04-8.89295E-05
 -1     11187-4.07302E-03 5.78320E-04-6.20209E-05
 -1     11188-4.08963E-03-1.07752E-03-4.92811E-05
 -1     11189-4.32022E-03-6.56099E-04-2.95248E-05
 -1     11190-4.06815E-03 5.81641E-04-7.87347E-14
 -1     11191-4.08544E-03-1.07403E-03-6.58535E-14
 -1     11192-4.32022E-03-6.56099E-04 2.95248E-05
 -1     11193-4.07302E-03 5.78320E-04 6.20209E-05
 -1     11194-4.08963E-03-1.07752E-03 4.92811E-05
 -1     11195-4.32893E-03-6.62793E-04 8.89295E-05
 -1     11196-4.08734E-03 5.68356E-04 1.23753E-04
 -1     11197-4.10287E-03-1.08801E-03 9.92677E-05
 -1     11198-4.34642E-03-6.76101E-04 1.48005E-04
 -1     11199-4.12892E-03-2.56876E-03-1.27389E-04
 -1     11200-4.30464E-03-1.76621E-03-1.08479E-04
 -1     11201-3.94321E-03-2.84105E-03-8.57048E-05
 -1     11202-4.11486E-03-2.55593E-03-7.66463E-05
 -1     11203-4.29297E-03-1.75626E-03-5.44482E-05
 -1     11204-3.93258E-03-2.83088E-03-4.23471E-05
 -1     11205-4.10784E-03-2.54946E-03-2.53815E-05
 -1     11206-4.28895E-03-1.75293E-03-5.44440E-14
 -1     11207-3.92934E-03-2.82753E-03-4.39604E-14
 -1     11208-4.10784E-03-2.54946E-03 2.53815E-05
 -1     11209-4.29297E-03-1.75626E-03 5.44482E-05
 -1     11210-3.93258E-03-2.83088E-03 4.23471E-05
 -1     11211-4.11486E-03-2.55593E-03 7.66463E-05
 -1     11212-4.30464E-03-1.76621E-03 1.08479E-04
 -1     11213-3.94321E-03-2.84105E-03 8.57048E-05
 -1     11214-4.12892E-03-2.56876E-03 1.27389E-04
 -1     11215-3.32137E-03-3.50754E-03-1.04417E-04
 -1     11216-3.75607E-03-3.17255E-03-9.12286E-05
 -1     11217-3.20233E-03-3.67546E-03-7.06994E-05
 -1     11218-3.31050E-03-3.49612E-03-6.30372E-05
 -1     11219-3.74697E-03-3.16331E-03-4.59064E-05
 -1     11220-3.19404E-03-3.66632E-03-3.46660E-05
 -1     11221-3.30502E-03-3.49033E-03-2.07900E-05
 -1     11222-3.74377E-03-3.16020E-03-3.43152E-14
 -1     11223-3.19169E-03-3.66335E-03-2.63137E-14
 -1     11224-3.30502E-03-3.49033E-03 2.07900E-05
 -1     11225-3.74697E-03-3.16331E-03 4.59064E-05
 -1     11226-3.19404E-03-3.66632E-03 3.46660E-05
 -1     11227-3.31050E-03-3.49612E-03 6.30372E-05
 -1     11228-3.75607E-03-3.17255E-03 9.12286E-05
 -1     11229-3.20233E-03-3.67546E-03 7.06994E-05
 -1     11230-3.32137E-03-3.50754E-03 1.04417E-04
 -1     11231-2.26103E-03-3.52631E-03-7.94624E-05
 -1     11232-2.79018E-03-3.63319E-03-7.22119E-05
 -1     11233-2.20504E-03-3.62431E-03-5.47656E-05
 -1     11234-2.25301E-03-3.51726E-03-4.84469E-05
 -1     11235-2.78350E-03-3.62535E-03-3.64845E-05
 -1     11236-2.19864E-03-3.61691E-03-2.65849E-05
 -1     11237-2.24873E-03-3.51261E-03-1.58965E-05
 -1     11238-2.78105E-03-3.62269E-03-1.88068E-14
 -1     11239-2.19701E-03-3.61455E-03-1.32821E-14
 -1     11240-2.24873E-03-3.51261E-03 1.58965E-05
 -1     11241-2.78350E-03-3.62535E-03 3.64845E-05
 -1     11242-2.19864E-03-3.61691E-03 2.65849E-05
 -1     11243-2.25301E-03-3.51726E-03 4.84469E-05
 -1     11244-2.79018E-03-3.63319E-03 7.22119E-05
 -1     11245-2.20504E-03-3.62431E-03 5.47656E-05
 -1     11246-2.26103E-03-3.52631E-03 7.94624E-05
 -1     11247-1.23610E-03-2.75774E-03-5.40183E-05
 -1     11248-1.72246E-03-3.23154E-03-5.20131E-05
 -1     11249-1.22691E-03-2.81654E-03-3.94661E-05
 -1     11250-1.23112E-03-2.75219E-03-3.40913E-05
 -1     11251-1.71811E-03-3.22586E-03-2.63935E-05
 -1     11252-1.22185E-03-2.81173E-03-1.92306E-05
 -1     11253-1.22767E-03-2.74928E-03-1.12203E-05
 -1     11254-1.71640E-03-3.22391E-03-8.11288E-15
 -1     11255-1.22061E-03-2.81024E-03-4.90036E-15
 -1     11256-1.22767E-03-2.74928E-03 1.12203E-05
 -1     11257-1.71811E-03-3.22586E-03 2.63935E-05
 -1     11258-1.22185E-03-2.81173E-03 1.92306E-05
 -1     11259-1.23112E-03-2.75219E-03 3.40913E-05
 -1     11260-1.72246E-03-3.23154E-03 5.20131E-05
 -1     11261-1.22691E-03-2.81654E-03 3.94661E-05
 -1     11262-1.23610E-03-2.75774E-03 5.40183E-05
 -1     11263-4.49980E-04-1.44003E-03-3.09820E-05
 -1     11264-8.03440E-04-2.14984E-03-3.26768E-05
 -1     11265-4.58845E-04-1.48323E-03-2.81486E-05
 -1     11266-4.50402E-04-1.43979E-03-2.17709E-05
 -1     11267-8.01751E-04-2.14737E-03-1.63612E-05
 -1     11268-4.56628E-04-1.48221E-03-1.49240E-05
 -1     11269-4.48449E-04-1.43960E-03-7.53094E-06
 -1     11270-8.01047E-04-2.14651E-03-2.09021E-15
 -1     11271-4.55753E-04-1.48193E-03-8.07832E-16
 -1     11272-4.48449E-04-1.43960E-03 7.53094E-06
 -1     11273-8.01751E-04-2.14737E-03 1.63612E-05
 -1     11274-4.56628E-04-1.48221E-03 1.49240E-05
 -1     11275-4.50402E-04-1.43979E-03 2.17709E-05
 -1     11276-8.03440E-04-2.14984E-03 3.26768E-05
 -1     11277-4.58845E-04-1.48323E-03 2.81486E-05
 -1     11278-4.49980E-04-1.44003E-03 3.09820E-05
 -1     11279-1.74143E-04-7.08023E-04-3.03729E-05
 -1     11280-1.71608E-04-7.08829E-04-1.44441E-05
 -1     11281-1.70832E-04-7.08993E-04 1.14979E-17
 -1     11282-1.71608E-04-7.08829E-04 1.44441E-05
 -1     11283-1.74143E-04-7.08023E-04 3.03729E-05
 -1     11284 1.59286E-01-9.16018E-02-2.86321E-05
 -1     11285 1.59991E-01-1.01933E-01-1.19848E-05
 -1     11286 1.56070E-01-9.20348E-02-2.69398E-05
 -1     11287 1.59289E-01-9.15969E-02-1.71787E-05
 -1     11288 1.59994E-01-1.01930E-01-5.91217E-06
 -1     11289 1.56072E-01-9.20309E-02-1.34813E-05
 -1     11290 1.59290E-01-9.15944E-02-5.72820E-06
 -1     11291 1.59995E-01-1.01929E-01-2.25859E-13
 -1     11292 1.56073E-01-9.20296E-02-2.41261E-13
 -1     11293 1.59290E-01-9.15944E-02 5.72820E-06
 -1     11294 1.59994E-01-1.01930E-01 5.91217E-06
 -1     11295 1.56072E-01-9.20309E-02 1.34813E-05
 -1     11296 1.59289E-01-9.15969E-02 1.71787E-05
 -1     11297 1.59991E-01-1.01933E-01 1.19848E-05
 -1     11298 1.56070E-01-9.20348E-02 2.69398E-05
 -1     11299 1.59286E-01-9.16018E-02 2.86321E-05
 -1     11300 1.54972E-01-7.09857E-02-5.21451E-05
 -1     11301 1.57182E-01-8.13311E-02-3.22968E-05
 -1     11302 1.51844E-01-7.18121E-02-4.35521E-05
 -1     11303 1.54975E-01-7.09827E-02-3.12547E-05
 -1     11304 1.57184E-01-8.13278E-02-1.61477E-05
 -1     11305 1.51846E-01-7.18100E-02-2.17669E-05
 -1     11306 1.54976E-01-7.09812E-02-1.04145E-05
 -1     11307 1.57185E-01-8.13267E-02-2.63300E-13
 -1     11308 1.51847E-01-7.18093E-02-2.75801E-13
 -1     11309 1.54976E-01-7.09812E-02 1.04145E-05
 -1     11310 1.57184E-01-8.13278E-02 1.61477E-05
 -1     11311 1.51846E-01-7.18100E-02 2.17669E-05
 -1     11312 1.54975E-01-7.09827E-02 3.12547E-05
 -1     11313 1.57182E-01-8.13311E-02 3.22968E-05
 -1     11314 1.51844E-01-7.18121E-02 4.35521E-05
 -1     11315 1.54972E-01-7.09857E-02 5.21451E-05
 -1     11316 1.47629E-01-5.09392E-02-8.09150E-05
 -1     11317 1.51359E-01-6.09452E-02-5.25411E-05
 -1     11318 1.44648E-01-5.21307E-02-6.18377E-05
 -1     11319 1.47634E-01-5.09403E-02-4.85272E-05
 -1     11320 1.51362E-01-6.09444E-02-2.62689E-05
 -1     11321 1.44652E-01-5.21320E-02-3.09157E-05
 -1     11322 1.47637E-01-5.09409E-02-1.61741E-05
 -1     11323 1.51363E-01-6.09442E-02-2.96500E-13
 -1     11324 1.44653E-01-5.21324E-02-3.05516E-13
 -1     11325 1.47637E-01-5.09409E-02 1.61741E-05
 -1     11326 1.51362E-01-6.09444E-02 2.62689E-05
 -1     11327 1.44652E-01-5.21320E-02 3.09157E-05
 -1     11328 1.47634E-01-5.09403E-02 4.85272E-05
 -1     11329 1.51359E-01-6.09452E-02 5.25411E-05
 -1     11330 1.44648E-01-5.21307E-02 6.18377E-05
 -1     11331 1.47629E-01-5.09392E-02 8.09150E-05
 -1     11332 1.37457E-01-3.22633E-02-1.14483E-04
 -1     11333 1.42580E-01-4.15229E-02-7.72818E-05
 -1     11334 1.34692E-01-3.37818E-02-8.33023E-05
 -1     11335 1.37466E-01-3.22688E-02-6.86851E-05
 -1     11336 1.42585E-01-4.15255E-02-3.86380E-05
 -1     11337 1.34698E-01-3.37864E-02-4.16517E-05
 -1     11338 1.37471E-01-3.22715E-02-2.28952E-05
 -1     11339 1.42587E-01-4.15264E-02-3.24618E-13
 -1     11340 1.34700E-01-3.37880E-02-3.29928E-13
 -1     11341 1.37471E-01-3.22715E-02 2.28952E-05
 -1     11342 1.42585E-01-4.15255E-02 3.86380E-05
 -1     11343 1.34698E-01-3.37864E-02 4.16517E-05
 -1     11344 1.37466E-01-3.22688E-02 6.86851E-05
 -1     11345 1.42580E-01-4.15229E-02 7.72818E-05
 -1     11346 1.34692E-01-3.37818E-02 8.33023E-05
 -1     11347 1.37457E-01-3.22633E-02 1.14483E-04
 -1     11348 1.24910E-01-1.56819E-02-1.49263E-04
 -1     11349 1.31179E-01-2.38480E-02-1.04475E-04
 -1     11350 1.22425E-01-1.74731E-02-1.06170E-04
 -1     11351 1.24923E-01-1.56907E-02-8.95635E-05
 -1     11352 1.31188E-01-2.38535E-02-5.22347E-05
 -1     11353 1.22434E-01-1.74801E-02-5.30851E-05
 -1     11354 1.24930E-01-1.56950E-02-2.98545E-05
 -1     11355 1.31190E-01-2.38553E-02-3.45831E-13
 -1     11356 1.22438E-01-1.74825E-02-3.46485E-13
 -1     11357 1.24930E-01-1.56950E-02 2.98545E-05
 -1     11358 1.31188E-01-2.38535E-02 5.22347E-05
 -1     11359 1.22434E-01-1.74801E-02 5.30851E-05
 -1     11360 1.24923E-01-1.56907E-02 8.95635E-05
 -1     11361 1.31179E-01-2.38480E-02 1.04475E-04
 -1     11362 1.22425E-01-1.74731E-02 1.06170E-04
 -1     11363 1.24910E-01-1.56819E-02 1.49263E-04
 -1     11364 1.10603E-01-1.71999E-03-1.82018E-04
 -1     11365 1.17703E-01-8.55085E-03-1.31294E-04
 -1     11366 1.08449E-01-3.71507E-03-1.28275E-04
 -1     11367 1.10620E-01-1.73056E-03-1.09221E-04
 -1     11368 1.17714E-01-8.55827E-03-6.56447E-05
 -1     11369 1.08461E-01-3.72347E-03-6.41347E-05
 -1     11370 1.10628E-01-1.73585E-03-3.64057E-05
 -1     11371 1.17718E-01-8.56075E-03-3.58335E-13
 -1     11372 1.08465E-01-3.72627E-03-3.54285E-13
 -1     11373 1.10628E-01-1.73585E-03 3.64057E-05
 -1     11374 1.17714E-01-8.55827E-03 6.56447E-05
 -1     11375 1.08461E-01-3.72347E-03 6.41347E-05
 -1     11376 1.10620E-01-1.73056E-03 1.09221E-04
 -1     11377 1.17703E-01-8.55085E-03 1.31294E-04
 -1     11378 1.08449E-01-3.71507E-03 1.28275E-04
 -1     11379 1.10603E-01-1.71999E-03 1.82018E-04
 -1     11380 9.52199E-02 9.32322E-03-2.10725E-04
 -1     11381 1.02808E-01 3.95788E-03-1.55646E-04
 -1     11382 9.34294E-02 7.20134E-03-1.48042E-04
 -1     11383 9.52405E-02 9.31223E-03-1.26447E-04
 -1     11384 1.02822E-01 3.94963E-03-7.78222E-05
 -1     11385 9.34448E-02 7.19266E-03-7.40140E-05
 -1     11386 9.52507E-02 9.30673E-03-4.21458E-05
 -1     11387 1.02827E-01 3.94688E-03-3.61863E-13
 -1     11388 9.34499E-02 7.18978E-03-3.53101E-13
 -1     11389 9.52507E-02 9.30673E-03 4.21458E-05
 -1     11390 1.02822E-01 3.94963E-03 7.78222E-05
 -1     11391 9.34448E-02 7.19266E-03 7.40140E-05
 -1     11392 9.52405E-02 9.31223E-03 1.26447E-04
 -1     11393 1.02808E-01 3.95788E-03 1.55646E-04
 -1     11394 9.34294E-02 7.20134E-03 1.48042E-04
 -1     11395 9.52199E-02 9.32322E-03 2.10725E-04
 -1     11396 7.94533E-02 1.73573E-02-2.34418E-04
 -1     11397 8.71890E-02 1.34872E-02-1.76374E-04
 -1     11398 7.80368E-02 1.51878E-02-1.64589E-04
 -1     11399 7.94770E-02 1.73471E-02-1.40661E-04
 -1     11400 8.72056E-02 1.34791E-02-8.81873E-05
 -1     11401 7.80547E-02 1.51797E-02-8.22828E-05
 -1     11402 7.94889E-02 1.73420E-02-4.68822E-05
 -1     11403 8.72112E-02 1.34764E-02-3.56477E-13
 -1     11404 7.80607E-02 1.51771E-02-3.44103E-13
 -1     11405 7.94889E-02 1.73420E-02 4.68822E-05
 -1     11406 8.72056E-02 1.34791E-02 8.81873E-05
 -1     11407 7.80547E-02 1.51797E-02 8.22828E-05
 -1     11408 7.94770E-02 1.73471E-02 1.40661E-04
 -1     11409 8.71890E-02 1.34872E-02 1.76374E-04
 -1     11410 7.80368E-02 1.51878E-02 1.64589E-04
 -1     11411 7.94533E-02 1.73573E-02 2.34418E-04
 -1     11412 6.39542E-02 2.24708E-02-2.52777E-04
 -1     11413 7.15183E-02 2.00398E-02-1.92990E-04
 -1     11414 6.29025E-02 2.03291E-02-1.77535E-04
 -1     11415 6.39805E-02 2.24623E-02-1.51676E-04
 -1     11416 7.15371E-02 2.00327E-02-9.64973E-05
 -1     11417 6.29226E-02 2.03224E-02-8.87511E-05
 -1     11418 6.39937E-02 2.24581E-02-5.05519E-05
 -1     11419 7.15434E-02 2.00303E-02-3.43447E-13
 -1     11420 6.29293E-02 2.03202E-02-3.28237E-13
 -1     11421 6.39937E-02 2.24581E-02 5.05519E-05
 -1     11422 7.15371E-02 2.00327E-02 9.64973E-05
 -1     11423 6.29226E-02 2.03224E-02 8.87511E-05
 -1     11424 6.39805E-02 2.24623E-02 1.51676E-04
 -1     11425 7.15183E-02 2.00398E-02 1.92990E-04
 -1     11426 6.29025E-02 2.03291E-02 1.77535E-04
 -1     11427 6.39542E-02 2.24708E-02 2.52777E-04
 -1     11428 4.93026E-02 2.48997E-02-2.65798E-04
 -1     11429 5.64135E-02 2.37811E-02-2.05383E-04
 -1     11430 4.85897E-02 2.28535E-02-1.86781E-04
 -1     11431 4.93309E-02 2.48937E-02-1.59489E-04
 -1     11432 5.64341E-02 2.37756E-02-1.02696E-04
 -1     11433 4.86112E-02 2.28487E-02-9.33682E-05
 -1     11434 4.93451E-02 2.48906E-02-5.31540E-05
 -1     11435 5.64410E-02 2.37737E-02-3.24261E-13
 -1     11436 4.86184E-02 2.28472E-02-3.07192E-13
 -1     11437 4.93451E-02 2.48906E-02 5.31540E-05
 -1     11438 5.64341E-02 2.37756E-02 1.02696E-04
 -1     11439 4.86112E-02 2.28487E-02 9.33682E-05
 -1     11440 4.93309E-02 2.48937E-02 1.59489E-04
 -1     11441 5.64135E-02 2.37811E-02 2.05383E-04
 -1     11442 4.85897E-02 2.28535E-02 1.86781E-04
 -1     11443 4.93026E-02 2.48997E-02 2.65798E-04
 -1     11444 3.59833E-02 2.49976E-02-2.73591E-04
 -1     11445 4.24080E-02 2.50085E-02-2.13598E-04
 -1     11446 3.55693E-02 2.31035E-02-1.92354E-04
 -1     11447 3.60128E-02 2.49944E-02-1.64165E-04
 -1     11448 4.24298E-02 2.50050E-02-1.06806E-04
 -1     11449 3.55918E-02 2.31010E-02-9.61475E-05
 -1     11450 3.60275E-02 2.49929E-02-5.47103E-05
 -1     11451 4.24370E-02 2.50038E-02-3.00162E-13
 -1     11452 3.55993E-02 2.31002E-02-2.81584E-13
 -1     11453 3.60275E-02 2.49929E-02 5.47103E-05
 -1     11454 4.24298E-02 2.50050E-02 1.06806E-04
 -1     11455 3.55918E-02 2.31010E-02 9.61475E-05
 -1     11456 3.60128E-02 2.49944E-02 1.64165E-04
 -1     11457 4.24080E-02 2.50085E-02 2.13598E-04
 -1     11458 3.55693E-02 2.31035E-02 1.92354E-04
 -1     11459 3.59833E-02 2.49976E-02 2.73591E-04
 -1     11460 2.43670E-02 2.32046E-02-2.76291E-04
 -1     11461 2.99302E-02 2.41215E-02-2.17734E-04
 -1     11462 2.42024E-02 2.15061E-02-1.94332E-04
 -1     11463 2.43969E-02 2.32047E-02-1.65787E-04
 -1     11464 2.99526E-02 2.41203E-02-1.08878E-04
 -1     11465 2.42252E-02 2.15061E-02-9.71261E-05
 -1     11466 2.44118E-02 2.32047E-02-5.52475E-05
 -1     11467 2.99600E-02 2.41199E-02-2.72107E-13
 -1     11468 2.42328E-02 2.15061E-02-2.52611E-13
 -1     11469 2.44118E-02 2.32047E-02 5.52475E-05
 -1     11470 2.99526E-02 2.41203E-02 1.08878E-04
 -1     11471 2.42252E-02 2.15061E-02 9.71261E-05
 -1     11472 2.43969E-02 2.32047E-02 1.65787E-04
 -1     11473 2.99302E-02 2.41215E-02 2.17734E-04
 -1     11474 2.42024E-02 2.15061E-02 1.94332E-04
 -1     11475 2.43670E-02 2.32046E-02 2.76290E-04
 -1     11476 1.46982E-02 2.00158E-02-2.74040E-04
 -1     11477 1.92881E-02 2.15902E-02-2.17898E-04
 -1     11478 1.47277E-02 1.85420E-02-1.92814E-04
 -1     11479 1.47276E-02 2.00190E-02-1.64440E-04
 -1     11480 1.93105E-02 2.15914E-02-1.08966E-04
 -1     11481 1.47501E-02 1.85445E-02-9.63517E-05
 -1     11482 1.47423E-02 2.00206E-02-5.47938E-05
 -1     11483 1.93179E-02 2.15918E-02-2.40994E-13
 -1     11484 1.47576E-02 1.85453E-02-2.21144E-13
 -1     11485 1.47423E-02 2.00206E-02 5.47938E-05
 -1     11486 1.93105E-02 2.15914E-02 1.08966E-04
 -1     11487 1.47501E-02 1.85445E-02 9.63517E-05
 -1     11488 1.47276E-02 2.00190E-02 1.64440E-04
 -1     11489 1.92881E-02 2.15902E-02 2.17898E-04
 -1     11490 1.47277E-02 1.85420E-02 1.92814E-04
 -1     11491 1.46982E-02 2.00158E-02 2.74040E-04
 -1     11492 7.08897E-03 1.59474E-02-2.66997E-04
 -1     11493 1.06599E-02 1.79227E-02-2.14207E-04
 -1     11494 7.25536E-03 1.47125E-02-1.87916E-04
 -1     11495 7.11711E-03 1.59535E-02-1.60221E-04
 -1     11496 1.06815E-02 1.79262E-02-1.07129E-04
 -1     11497 7.27682E-03 1.47173E-02-9.38805E-05
 -1     11498 7.13117E-03 1.59566E-02-5.33804E-05
 -1     11499 1.06888E-02 1.79274E-02-2.07911E-13
 -1     11500 7.28393E-03 1.47189E-02-1.88259E-13
 -1     11501 7.13117E-03 1.59566E-02 5.33804E-05
 -1     11502 1.06815E-02 1.79262E-02 1.07129E-04
 -1     11503 7.27682E-03 1.47173E-02 9.38805E-05
 -1     11504 7.11711E-03 1.59535E-02 1.60221E-04
 -1     11505 1.06599E-02 1.79227E-02 2.14207E-04
 -1     11506 7.25536E-03 1.47125E-02 1.87916E-04
 -1     11507 7.08897E-03 1.59474E-02 2.66997E-04
 -1     11508 1.52161E-03 1.15030E-02-2.55355E-04
 -1     11509 4.09193E-03 1.36316E-02-2.06798E-04
 -1     11510 1.76954E-03 1.05074E-02-1.79784E-04
 -1     11511 1.54776E-03 1.15117E-02-1.53246E-04
 -1     11512 4.11236E-03 1.36372E-02-1.03437E-04
 -1     11513 1.78947E-03 1.05142E-02-8.97814E-05
 -1     11514 1.56084E-03 1.15160E-02-5.10452E-05
 -1     11515 4.11920E-03 1.36391E-02-1.74011E-13
 -1     11516 1.79605E-03 1.05165E-02-1.55124E-13
 -1     11517 1.56084E-03 1.15160E-02 5.10452E-05
 -1     11518 4.11236E-03 1.36372E-02 1.03437E-04
 -1     11519 1.78947E-03 1.05142E-02 8.97814E-05
 -1     11520 1.54776E-03 1.15117E-02 1.53246E-04
 -1     11521 4.09193E-03 1.36316E-02 2.06798E-04
 -1     11522 1.76954E-03 1.05074E-02 1.79784E-04
 -1     11523 1.52161E-03 1.15030E-02 2.55355E-04
 -1     11524-2.14141E-03 7.14247E-03-2.39357E-04
 -1     11525-4.94733E-04 9.20097E-03-1.95839E-04
 -1     11526-1.86207E-03 6.37386E-03-1.68598E-04
 -1     11527-2.11781E-03 7.15308E-03-1.43662E-04
 -1     11528-4.76032E-04 9.20831E-03-9.79760E-05
 -1     11529-1.84412E-03 6.38217E-03-8.41396E-05
 -1     11530-2.10602E-03 7.15840E-03-4.78360E-05
 -1     11531-4.69762E-04 9.21075E-03-1.40527E-13
 -1     11532-1.83823E-03 6.38496E-03-1.23029E-13
 -1     11533-2.10602E-03 7.15840E-03 4.78360E-05
 -1     11534-4.76032E-04 9.20831E-03 9.79760E-05
 -1     11535-1.84412E-03 6.38217E-03 8.41396E-05
 -1     11536-2.11781E-03 7.15308E-03 1.43662E-04
 -1     11537-4.94733E-04 9.20097E-03 1.95839E-04
 -1     11538-1.86207E-03 6.37386E-03 1.68598E-04
 -1     11539-2.14141E-03 7.14247E-03 2.39357E-04
 -1     11540-4.13917E-03 3.25354E-03-2.19293E-04
 -1     11541-3.29034E-03 5.05639E-03-1.81543E-04
 -1     11542-3.87054E-03 2.68919E-03-1.54572E-04
 -1     11543-4.11854E-03 3.26537E-03-1.31648E-04
 -1     11544-3.27375E-03 5.06493E-03-9.08541E-05
 -1     11545-3.85488E-03 2.69847E-03-7.70571E-05
 -1     11546-4.10823E-03 3.27131E-03-4.38110E-05
 -1     11547-3.26817E-03 5.06778E-03-1.08729E-13
 -1     11548-3.84980E-03 2.70157E-03-9.31277E-14
 -1     11549-4.10823E-03 3.27131E-03 4.38110E-05
 -1     11550-3.27375E-03 5.06493E-03 9.08541E-05
 -1     11551-3.85488E-03 2.69847E-03 7.70571E-05
 -1     11552-4.11854E-03 3.26537E-03 1.31648E-04
 -1     11553-3.29034E-03 5.05639E-03 1.81543E-04
 -1     11554-3.87054E-03 2.68919E-03 1.54572E-04
 -1     11555-4.13917E-03 3.25354E-03 2.19293E-04
 -1     11556-4.78767E-03 1.30163E-04-1.95497E-04
 -1     11557-4.57483E-03 1.54002E-03-1.64156E-04
 -1     11558-4.56175E-03-2.60253E-04-1.37953E-04
 -1     11559-4.77020E-03 1.42393E-04-1.17413E-04
 -1     11560-4.56059E-03 1.54918E-03-8.21975E-05
 -1     11561-4.54853E-03-2.50633E-04-6.86502E-05
 -1     11562-4.76147E-03 1.48540E-04-3.90377E-05
 -1     11563-4.55577E-03 1.55224E-03-7.97260E-14
 -1     11564-4.54431E-03-2.47433E-04-6.63804E-14
 -1     11565-4.76147E-03 1.48540E-04 3.90377E-05
 -1     11566-4.56059E-03 1.54918E-03 8.21975E-05
 -1     11567-4.54853E-03-2.50633E-04 6.86502E-05
 -1     11568-4.77020E-03 1.42393E-04 1.17413E-04
 -1     11569-4.57483E-03 1.54002E-03 1.64156E-04
 -1     11570-4.56175E-03-2.60253E-04 1.37953E-04
 -1     11571-4.78767E-03 1.30163E-04 1.95497E-04
 -1     11572-4.45022E-03-2.04151E-03-1.68293E-04
 -1     11573-4.69052E-03-1.10753E-03-1.43943E-04
 -1     11574-4.28757E-03-2.29286E-03-1.18995E-04
 -1     11575-4.43588E-03-2.02972E-03-1.01166E-04
 -1     11576-4.67871E-03-1.09837E-03-7.21401E-05
 -1     11577-4.27674E-03-2.28355E-03-5.90441E-05
 -1     11578-4.42872E-03-2.02378E-03-3.35868E-05
 -1     11579-4.67467E-03-1.09531E-03-5.44438E-14
 -1     11580-4.27339E-03-2.28048E-03-4.36367E-14
 -1     11581-4.42872E-03-2.02378E-03 3.35868E-05
 -1     11582-4.67871E-03-1.09837E-03 7.21401E-05
 -1     11583-4.27674E-03-2.28355E-03 5.90441E-05
 -1     11584-4.43588E-03-2.02972E-03 1.01166E-04
 -1     11585-4.69052E-03-1.10753E-03 1.43943E-04
 -1     11586-4.28757E-03-2.29286E-03 1.18995E-04
 -1     11587-4.45022E-03-2.04151E-03 1.68293E-04
 -1     11588-3.50567E-03-3.18816E-03-1.37968E-04
 -1     11589-4.01115E-03-2.75677E-03-1.21145E-04
 -1     11590-3.41462E-03-3.33682E-03-9.79475E-05
 -1     11591-3.49423E-03-3.17767E-03-8.31251E-05
 -1     11592-4.00170E-03-2.74825E-03-6.08006E-05
 -1     11593-3.40592E-03-3.32847E-03-4.83839E-05
 -1     11594-3.48847E-03-3.17237E-03-2.75371E-05
 -1     11595-3.99842E-03-2.74539E-03-3.36348E-14
 -1     11596-3.40337E-03-3.32575E-03-2.54891E-14
 -1     11597-3.48847E-03-3.17237E-03 2.75371E-05
 -1     11598-4.00170E-03-2.74825E-03 6.08006E-05
 -1     11599-3.40592E-03-3.32847E-03 4.83839E-05
 -1     11600-3.49423E-03-3.17767E-03 8.31251E-05
 -1     11601-4.01115E-03-2.75677E-03 1.21145E-04
 -1     11602-3.41462E-03-3.33682E-03 9.79475E-05
 -1     11603-3.50567E-03-3.18816E-03 1.37968E-04
 -1     11604-2.31700E-03-3.34593E-03-1.04625E-04
 -1     11605-2.91003E-03-3.38996E-03-9.59127E-05
 -1     11606-2.29283E-03-3.42703E-03-7.51398E-05
 -1     11607-2.30809E-03-3.33763E-03-6.34448E-05
 -1     11608-2.90275E-03-3.38273E-03-4.82379E-05
 -1     11609-2.28580E-03-3.42036E-03-3.69220E-05
 -1     11610-2.30340E-03-3.33343E-03-2.09692E-05
 -1     11611-2.90015E-03-3.38029E-03-1.77923E-14
 -1     11612-2.28388E-03-3.41820E-03-1.22980E-14
 -1     11613-2.30340E-03-3.33343E-03 2.09692E-05
 -1     11614-2.90275E-03-3.38273E-03 4.82379E-05
 -1     11615-2.28580E-03-3.42036E-03 3.69220E-05
 -1     11616-2.30809E-03-3.33763E-03 6.34448E-05
 -1     11617-2.91003E-03-3.38996E-03 9.59127E-05
 -1     11618-2.29283E-03-3.42703E-03 7.51398E-05
 -1     11619-2.31700E-03-3.34593E-03 1.04625E-04
 -1     11620-1.20266E-03-2.65458E-03-6.88461E-05
 -1     11621-1.72992E-03-3.09550E-03-6.84642E-05
 -1     11622-1.22591E-03-2.69956E-03-5.14023E-05
 -1     11623-1.19631E-03-2.64974E-03-4.26805E-05
 -1     11624-1.72462E-03-3.09036E-03-3.44909E-05
 -1     11625-1.22007E-03-2.69550E-03-2.53580E-05
 -1     11626-1.19239E-03-2.64727E-03-1.41451E-05
 -1     11627-1.72267E-03-3.08863E-03-7.11690E-15
 -1     11628-1.21847E-03-2.69420E-03-4.08673E-15
 -1     11629-1.19239E-03-2.64727E-03 1.41451E-05
 -1     11630-1.72462E-03-3.09036E-03 3.44909E-05
 -1     11631-1.22007E-03-2.69550E-03 2.53580E-05
 -1     11632-1.19631E-03-2.64974E-03 4.26805E-05
 -1     11633-1.72992E-03-3.09550E-03 6.84642E-05
 -1     11634-1.22591E-03-2.69956E-03 5.14023E-05
 -1     11635-1.20266E-03-2.65458E-03 6.88461E-05
 -1     11636-4.02081E-04-1.36742E-03-3.08626E-05
 -1     11637-7.53745E-04-2.06643E-03-3.97429E-05
 -1     11638-4.33803E-04-1.40135E-03-2.84665E-05
 -1     11639-3.99602E-04-1.36869E-03-2.08498E-05
 -1     11640-7.50299E-04-2.06460E-03-1.98381E-05
 -1     11641-4.30582E-04-1.40183E-03-1.49728E-05
 -1     11642-3.96939E-04-1.36942E-03-7.16092E-06
 -1     11643-7.49075E-04-2.06400E-03-1.41894E-15
 -1     11644-4.29394E-04-1.40201E-03-4.13424E-16
 -1     11645-3.96939E-04-1.36942E-03 7.16092E-06
 -1     11646-7.50299E-04-2.06460E-03 1.98381E-05
 -1     11647-4.30582E-04-1.40183E-03 1.49728E-05
 -1     11648-3.99602E-04-1.36869E-03 2.08498E-05
 -1     11649-7.53745E-04-2.06643E-03 3.97429E-05
 -1     11650-4.33803E-04-1.40135E-03 2.84665E-05
 -1     11651-4.02081E-04-1.36742E-03 3.08626E-05
 -1     11652-1.48349E-04-6.49498E-04-2.32466E-05
 -1     11653-1.45573E-04-6.51874E-04-1.10718E-05
 -1     11654-1.44692E-04-6.52492E-04 1.74720E-16
 -1     11655-1.45573E-04-6.51874E-04 1.10718E-05
 -1     11656-1.48349E-04-6.49498E-04 2.32466E-05
 -1     11657 1.65758E-01-9.07383E-02-1.91114E-05
 -1     11658 1.66491E-01-1.01491E-01-6.60360E-06
 -1     11659 1.62518E-01-9.11658E-02-1.91031E-05
 -1     11660 1.65760E-01-9.07335E-02-1.14779E-05
 -1     11661 1.66494E-01-1.01489E-01-3.24652E-06
 -1     11662 1.62520E-01-9.11622E-02-9.55542E-06
 -1     11663 1.65762E-01-9.07312E-02-3.82360E-06
 -1     11664 1.66494E-01-1.01489E-01-2.34267E-13
 -1     11665 1.62521E-01-9.11611E-02-2.50174E-13
 -1     11666 1.65762E-01-9.07312E-02 3.82360E-06
 -1     11667 1.66494E-01-1.01489E-01 3.24652E-06
 -1     11668 1.62520E-01-9.11622E-02 9.55542E-06
 -1     11669 1.65760E-01-9.07335E-02 1.14779E-05
 -1     11670 1.66491E-01-1.01491E-01 6.60360E-06
 -1     11671 1.62518E-01-9.11658E-02 1.91031E-05
 -1     11672 1.65758E-01-9.07383E-02 1.91114E-05
 -1     11673 1.61282E-01-6.93231E-02-4.70260E-05
 -1     11674 1.63570E-01-8.00639E-02-2.54444E-05
 -1     11675 1.58120E-01-7.01539E-02-3.97231E-05
 -1     11676 1.61286E-01-6.93195E-02-2.81886E-05
 -1     11677 1.63572E-01-8.00605E-02-1.27064E-05
 -1     11678 1.58123E-01-7.01515E-02-1.98465E-05
 -1     11679 1.61288E-01-6.93177E-02-9.38890E-06
 -1     11680 1.63573E-01-8.00594E-02-2.73447E-13
 -1     11681 1.58124E-01-7.01507E-02-2.86615E-13
 -1     11682 1.61288E-01-6.93177E-02 9.38890E-06
 -1     11683 1.63572E-01-8.00605E-02 1.27064E-05
 -1     11684 1.58123E-01-7.01515E-02 1.98465E-05
 -1     11685 1.61286E-01-6.93195E-02 2.81886E-05
 -1     11686 1.63570E-01-8.00639E-02 2.54444E-05
 -1     11687 1.58120E-01-7.01539E-02 3.97231E-05
 -1     11688 1.61282E-01-6.93231E-02 4.70260E-05
 -1     11689 1.53653E-01-4.85333E-02-8.74577E-05
 -1     11690 1.57527E-01-5.89077E-02-5.27559E-05
 -1     11691 1.50634E-01-4.97410E-02-6.74142E-05
 -1     11692 1.53660E-01-4.85336E-02-5.24574E-05
 -1     11693 1.57531E-01-5.89064E-02-2.63687E-05
 -1     11694 1.50639E-01-4.97416E-02-3.37001E-05
 -1     11695 1.53663E-01-4.85337E-02-1.74818E-05
 -1     11696 1.57532E-01-5.89060E-02-3.08395E-13
 -1     11697 1.50640E-01-4.97418E-02-3.18399E-13
 -1     11698 1.53663E-01-4.85337E-02 1.74818E-05
 -1     11699 1.57531E-01-5.89064E-02 2.63687E-05
 -1     11700 1.50639E-01-4.97416E-02 3.37001E-05
 -1     11701 1.53660E-01-4.85336E-02 5.24574E-05
 -1     11702 1.57527E-01-5.89077E-02 5.27559E-05
 -1     11703 1.50634E-01-4.97410E-02 6.74142E-05
 -1     11704 1.53653E-01-4.85333E-02 8.74577E-05
 -1     11705 1.43052E-01-2.91956E-02-1.34474E-04
 -1     11706 1.48392E-01-3.87811E-02-8.79179E-05
 -1     11707 1.40251E-01-3.07388E-02-9.96651E-05
 -1     11708 1.43062E-01-2.92000E-02-8.06789E-05
 -1     11709 1.48398E-01-3.87830E-02-4.39524E-05
 -1     11710 1.40258E-01-3.07425E-02-4.98316E-05
 -1     11711 1.43067E-01-2.92022E-02-2.68917E-05
 -1     11712 1.48400E-01-3.87836E-02-3.38179E-13
 -1     11713 1.40260E-01-3.07437E-02-3.44233E-13
 -1     11714 1.43067E-01-2.92022E-02 2.68917E-05
 -1     11715 1.48398E-01-3.87830E-02 4.39524E-05
 -1     11716 1.40258E-01-3.07425E-02 4.98316E-05
 -1     11717 1.43062E-01-2.92000E-02 8.06789E-05
 -1     11718 1.48392E-01-3.87811E-02 8.79179E-05
 -1     11719 1.40251E-01-3.07388E-02 9.96651E-05
 -1     11720 1.43052E-01-2.91956E-02 1.34474E-04
 -1     11721 1.29941E-01-1.20668E-02-1.81569E-04
 -1     11722 1.36493E-01-2.04992E-02-1.25572E-04
 -1     11723 1.27425E-01-1.38865E-02-1.32437E-04
 -1     11724 1.29954E-01-1.20744E-02-1.08939E-04
 -1     11725 1.36502E-01-2.05039E-02-6.27800E-05
 -1     11726 1.27435E-01-1.38926E-02-6.62182E-05
 -1     11727 1.29961E-01-1.20782E-02-3.63121E-05
 -1     11728 1.36505E-01-2.05054E-02-3.60608E-13
 -1     11729 1.27439E-01-1.38946E-02-3.61760E-13
 -1     11730 1.29961E-01-1.20782E-02 3.63121E-05
 -1     11731 1.36502E-01-2.05039E-02 6.27800E-05
 -1     11732 1.27435E-01-1.38926E-02 6.62182E-05
 -1     11733 1.29954E-01-1.20744E-02 1.08939E-04
 -1     11734 1.36493E-01-2.04992E-02 1.25572E-04
 -1     11735 1.27425E-01-1.38865E-02 1.32437E-04
 -1     11736 1.29941E-01-1.20668E-02 1.81569E-04
 -1     11737 1.14963E-01 2.30135E-03-2.24431E-04
 -1     11738 1.22396E-01-4.72358E-03-1.61383E-04
 -1     11739 1.12787E-01 2.77481E-04-1.62710E-04
 -1     11740 1.14980E-01 2.29189E-03-1.34653E-04
 -1     11741 1.22408E-01-4.73015E-03-8.06849E-05
 -1     11742 1.12800E-01 2.69982E-04-8.13517E-05
 -1     11743 1.14989E-01 2.28715E-03-4.48827E-05
 -1     11744 1.22411E-01-4.73235E-03-3.74016E-13
 -1     11745 1.12804E-01 2.67485E-04-3.70238E-13
 -1     11746 1.14989E-01 2.28715E-03 4.48827E-05
 -1     11747 1.22408E-01-4.73015E-03 8.06849E-05
 -1     11748 1.12800E-01 2.69982E-04 8.13517E-05
 -1     11749 1.14980E-01 2.29189E-03 1.34653E-04
 -1     11750 1.22396E-01-4.72358E-03 1.61383E-04
 -1     11751 1.12787E-01 2.77481E-04 1.62710E-04
 -1     11752 1.14963E-01 2.30135E-03 2.24431E-04
 -1     11753 9.88468E-02 1.35943E-02-2.60971E-04
 -1     11754 1.06796E-01 8.11370E-03-1.92882E-04
 -1     11755 9.70412E-02 1.14459E-02-1.88835E-04
 -1     11756 9.88673E-02 1.35843E-02-1.56571E-04
 -1     11757 1.06810E-01 8.10624E-03-9.64329E-05
 -1     11758 9.70566E-02 1.14381E-02-9.44095E-05
 -1     11759 9.88775E-02 1.35793E-02-5.21873E-05
 -1     11760 1.06815E-01 8.10375E-03-3.77553E-13
 -1     11761 9.70617E-02 1.14354E-02-3.68664E-13
 -1     11762 9.88775E-02 1.35793E-02 5.21873E-05
 -1     11763 1.06810E-01 8.10624E-03 9.64329E-05
 -1     11764 9.70566E-02 1.14381E-02 9.44095E-05
 -1     11765 9.88673E-02 1.35843E-02 1.56571E-04
 -1     11766 1.06796E-01 8.11370E-03 1.92882E-04
 -1     11767 9.70412E-02 1.14459E-02 1.88835E-04
 -1     11768 9.88468E-02 1.35943E-02 2.60971E-04
 -1     11769 8.23261E-02 2.17189E-02-2.90521E-04
 -1     11770 9.04295E-02 1.78126E-02-2.19045E-04
 -1     11771 8.09009E-02 1.95267E-02-2.10154E-04
 -1     11772 8.23494E-02 2.17095E-02-1.74295E-04
 -1     11773 9.04460E-02 1.78052E-02-1.09513E-04
 -1     11774 8.09186E-02 1.95194E-02-1.05065E-04
 -1     11775 8.23611E-02 2.17048E-02-5.80939E-05
 -1     11776 9.04515E-02 1.78028E-02-3.71532E-13
 -1     11777 8.09245E-02 1.95169E-02-3.58819E-13
 -1     11778 8.23611E-02 2.17048E-02 5.80939E-05
 -1     11779 9.04460E-02 1.78052E-02 1.09513E-04
 -1     11780 8.09186E-02 1.95194E-02 1.05065E-04
 -1     11781 8.23494E-02 2.17095E-02 1.74295E-04
 -1     11782 9.04295E-02 1.78126E-02 2.19045E-04
 -1     11783 8.09009E-02 1.95267E-02 2.10154E-04
 -1     11784 8.23261E-02 2.17189E-02 2.90521E-04
 -1     11785 6.60924E-02 2.67713E-02-3.13101E-04
 -1     11786 7.40116E-02 2.43787E-02-2.39663E-04
 -1     11787 6.50373E-02 2.46118E-02-2.26548E-04
 -1     11788 6.61181E-02 2.67635E-02-1.87838E-04
 -1     11789 7.40301E-02 2.43721E-02-1.19820E-04
 -1     11790 6.50569E-02 2.46057E-02-1.13258E-04
 -1     11791 6.61310E-02 2.67596E-02-6.26073E-05
 -1     11792 7.40362E-02 2.43699E-02-3.57605E-13
 -1     11793 6.50634E-02 2.46037E-02-3.41885E-13
 -1     11794 6.61310E-02 2.67596E-02 6.26073E-05
 -1     11795 7.40301E-02 2.43721E-02 1.19820E-04
 -1     11796 6.50569E-02 2.46057E-02 1.13258E-04
 -1     11797 6.61181E-02 2.67635E-02 1.87838E-04
 -1     11798 7.40116E-02 2.43787E-02 2.39663E-04
 -1     11799 6.50373E-02 2.46118E-02 2.26548E-04
 -1     11800 6.60924E-02 2.67713E-02 3.13101E-04
 -1     11801 5.07600E-02 2.90036E-02-3.28959E-04
 -1     11802 5.81969E-02 2.79892E-02-2.54860E-04
 -1     11803 5.00474E-02 2.69452E-02-2.38114E-04
 -1     11804 5.07876E-02 2.89980E-02-1.97350E-04
 -1     11805 5.82170E-02 2.79841E-02-1.27418E-04
 -1     11806 5.00683E-02 2.69408E-02-1.19037E-04
 -1     11807 5.08014E-02 2.89952E-02-6.57770E-05
 -1     11808 5.82237E-02 2.79824E-02-3.37223E-13
 -1     11809 5.00753E-02 2.69394E-02-3.19570E-13
 -1     11810 5.08014E-02 2.89952E-02 6.57770E-05
 -1     11811 5.82170E-02 2.79841E-02 1.27418E-04
 -1     11812 5.00683E-02 2.69408E-02 1.19037E-04
 -1     11813 5.07876E-02 2.89980E-02 1.97350E-04
 -1     11814 5.81969E-02 2.79892E-02 2.54860E-04
 -1     11815 5.00474E-02 2.69452E-02 2.38114E-04
 -1     11816 5.07600E-02 2.90036E-02 3.28959E-04
 -1     11817 3.68408E-02 2.87916E-02-3.38357E-04
 -1     11818 4.35496E-02 2.89611E-02-2.64844E-04
 -1     11819 3.64294E-02 2.68912E-02-2.45001E-04
 -1     11820 3.68694E-02 2.87887E-02-2.02987E-04
 -1     11821 4.35708E-02 2.89579E-02-1.32410E-04
 -1     11822 3.64512E-02 2.68890E-02-1.22475E-04
 -1     11823 3.68837E-02 2.87872E-02-6.76551E-05
 -1     11824 4.35779E-02 2.89568E-02-3.11810E-13
 -1     11825 3.64584E-02 2.68882E-02-2.92604E-13
 -1     11826 3.68837E-02 2.87872E-02 6.76551E-05
 -1     11827 4.35708E-02 2.89579E-02 1.32410E-04
 -1     11828 3.64512E-02 2.68890E-02 1.22475E-04
 -1     11829 3.68694E-02 2.87887E-02 2.02987E-04
 -1     11830 4.35496E-02 2.89611E-02 2.64844E-04
 -1     11831 3.64294E-02 2.68912E-02 2.45001E-04
 -1     11832 3.68408E-02 2.87916E-02 3.38357E-04
 -1     11833 2.47250E-02 2.66019E-02-3.41510E-04
 -1     11834 3.05214E-02 2.77183E-02-2.69801E-04
 -1     11835 2.45637E-02 2.49033E-02-2.47351E-04
 -1     11836 2.47540E-02 2.66019E-02-2.04878E-04
 -1     11837 3.05431E-02 2.77172E-02-1.34889E-04
 -1     11838 2.45858E-02 2.49033E-02-1.23644E-04
 -1     11839 2.47685E-02 2.66019E-02-6.82846E-05
 -1     11840 3.05504E-02 2.77169E-02-2.82367E-13
 -1     11841 2.45931E-02 2.49033E-02-2.62162E-13
 -1     11842 2.47685E-02 2.66019E-02 6.82846E-05
 -1     11843 3.05431E-02 2.77172E-02 1.34889E-04
 -1     11844 2.45858E-02 2.49033E-02 1.23644E-04
 -1     11845 2.47540E-02 2.66019E-02 2.04878E-04
 -1     11846 3.05214E-02 2.77183E-02 2.69801E-04
 -1     11847 2.45637E-02 2.49033E-02 2.47351E-04
 -1     11848 2.47250E-02 2.66019E-02 3.41510E-04
 -1     11849 1.46686E-02 2.29585E-02-3.38601E-04
 -1     11850 1.94358E-02 2.47588E-02-2.69885E-04
 -1     11851 1.47007E-02 2.14904E-02-2.45295E-04
 -1     11852 1.46972E-02 2.29615E-02-2.03133E-04
 -1     11853 1.94575E-02 2.47599E-02-1.34932E-04
 -1     11854 1.47224E-02 2.14927E-02-1.22607E-04
 -1     11855 1.47114E-02 2.29629E-02-6.77017E-05
 -1     11856 1.94647E-02 2.47603E-02-2.49621E-13
 -1     11857 1.47296E-02 2.14935E-02-2.28979E-13
 -1     11858 1.47114E-02 2.29629E-02 6.77017E-05
 -1     11859 1.94575E-02 2.47599E-02 1.34932E-04
 -1     11860 1.47224E-02 2.14927E-02 1.22607E-04
 -1     11861 1.46972E-02 2.29615E-02 2.03133E-04
 -1     11862 1.94358E-02 2.47588E-02 2.69885E-04
 -1     11863 1.47007E-02 2.14904E-02 2.45295E-04
 -1     11864 1.46686E-02 2.29585E-02 3.38601E-04
 -1     11865 6.78761E-03 1.84072E-02-3.29818E-04
 -1     11866 1.04785E-02 2.06202E-02-2.65237E-04
 -1     11867 6.95427E-03 1.71836E-02-2.38973E-04
 -1     11868 6.81495E-03 1.84129E-02-1.97864E-04
 -1     11869 1.04996E-02 2.06235E-02-1.32610E-04
 -1     11870 6.97508E-03 1.71880E-02-1.19433E-04
 -1     11871 6.82864E-03 1.84157E-02-6.59436E-05
 -1     11872 1.05066E-02 2.06246E-02-2.14861E-13
 -1     11873 6.98200E-03 1.71895E-02-1.94393E-13
 -1     11874 6.82864E-03 1.84157E-02 6.59436E-05
 -1     11875 1.04996E-02 2.06235E-02 1.32610E-04
 -1     11876 6.97508E-03 1.71880E-02 1.19433E-04
 -1     11877 6.81495E-03 1.84129E-02 1.97864E-04
 -1     11878 1.04785E-02 2.06202E-02 2.65237E-04
 -1     11879 6.95427E-03 1.71836E-02 2.38973E-04
 -1     11880 6.78761E-03 1.84072E-02 3.29818E-04
 -1     11881 1.06028E-03 1.34802E-02-3.15385E-04
 -1     11882 3.69594E-03 1.58442E-02-2.56019E-04
 -1     11883 1.30491E-03 1.25005E-02-2.28556E-04
 -1     11884 1.08579E-03 1.34882E-02-1.89207E-04
 -1     11885 3.71586E-03 1.58494E-02-1.28005E-04
 -1     11886 1.32430E-03 1.25067E-02-1.14204E-04
 -1     11887 1.09856E-03 1.34922E-02-6.30549E-05
 -1     11888 3.72252E-03 1.58512E-02-1.79282E-13
 -1     11889 1.33073E-03 1.25088E-02-1.59604E-13
 -1     11890 1.09856E-03 1.34922E-02 6.30549E-05
 -1     11891 3.71586E-03 1.58494E-02 1.28005E-04
 -1     11892 1.32430E-03 1.25067E-02 1.14204E-04
 -1     11893 1.08579E-03 1.34882E-02 1.89207E-04
 -1     11894 3.69594E-03 1.58442E-02 2.56019E-04
 -1     11895 1.30491E-03 1.25005E-02 2.28556E-04
 -1     11896 1.06028E-03 1.34802E-02 3.15385E-04
 -1     11897-2.66148E-03 8.66270E-03-2.95595E-04
 -1     11898-9.98338E-04 1.09420E-02-2.42431E-04
 -1     11899-2.39009E-03 7.91344E-03-2.14259E-04
 -1     11900-2.63834E-03 8.67250E-03-1.77337E-04
 -1     11901-9.80018E-04 1.09488E-02-1.21218E-04
 -1     11902-2.37254E-03 7.92110E-03-1.07027E-04
 -1     11903-2.62676E-03 8.67742E-03-5.90936E-05
 -1     11904-9.73895E-04 1.09510E-02-1.44130E-13
 -1     11905-2.36674E-03 7.92367E-03-1.25934E-13
 -1     11906-2.62676E-03 8.67742E-03 5.90936E-05
 -1     11907-9.80018E-04 1.09488E-02 1.21218E-04
 -1     11908-2.37254E-03 7.92110E-03 1.07027E-04
 -1     11909-2.63834E-03 8.67250E-03 1.77337E-04
 -1     11910-9.98338E-04 1.09420E-02 2.42431E-04
 -1     11911-2.39009E-03 7.91344E-03 2.14259E-04
 -1     11912-2.66148E-03 8.66270E-03 2.95595E-04
 -1     11913-4.63309E-03 4.36345E-03-2.70811E-04
 -1     11914-3.80814E-03 6.36241E-03-2.24732E-04
 -1     11915-4.37781E-03 3.82059E-03-1.96352E-04
 -1     11916-4.61269E-03 4.37438E-03-1.62472E-04
 -1     11917-3.79177E-03 6.37031E-03-1.12378E-04
 -1     11918-4.36238E-03 3.82914E-03-9.80329E-05
 -1     11919-4.60249E-03 4.37987E-03-5.41325E-05
 -1     11920-3.78629E-03 6.37295E-03-1.10853E-13
 -1     11921-4.35731E-03 3.83199E-03-9.46432E-14
 -1     11922-4.60249E-03 4.37987E-03 5.41325E-05
 -1     11923-3.79177E-03 6.37031E-03 1.12378E-04
 -1     11924-4.36238E-03 3.82914E-03 9.80329E-05
 -1     11925-4.61269E-03 4.37438E-03 1.62472E-04
 -1     11926-3.80814E-03 6.36241E-03 2.24732E-04
 -1     11927-4.37781E-03 3.82059E-03 1.96352E-04
 -1     11928-4.63309E-03 4.36345E-03 2.70811E-04
 -1     11929-5.19111E-03 8.91720E-04-2.41461E-04
 -1     11930-5.03197E-03 2.46589E-03-2.03234E-04
 -1     11931-4.98430E-03 5.23444E-04-1.75146E-04
 -1     11932-5.17362E-03 9.03052E-04-1.44875E-04
 -1     11933-5.01777E-03 2.47437E-03-1.01642E-04
 -1     11934-4.97113E-03 5.32307E-04-8.73752E-05
 -1     11935-5.16488E-03 9.08744E-04-4.82584E-05
 -1     11936-5.01301E-03 2.47721E-03-8.05676E-14
 -1     11937-4.96685E-03 5.35256E-04-6.67534E-14
 -1     11938-5.16488E-03 9.08744E-04 4.82584E-05
 -1     11939-5.01777E-03 2.47437E-03 1.01642E-04
 -1     11940-4.97113E-03 5.32307E-04 8.73752E-05
 -1     11941-5.17362E-03 9.03052E-04 1.44875E-04
 -1     11942-5.03197E-03 2.46589E-03 2.03234E-04
 -1     11943-4.98430E-03 5.23444E-04 1.75146E-04
 -1     11944-5.19111E-03 8.91720E-04 2.41461E-04
 -1     11945-4.72209E-03-1.55731E-03-2.07970E-04
 -1     11946-5.03417E-03-4.94841E-04-1.78279E-04
 -1     11947-4.58430E-03-1.78731E-03-1.50961E-04
 -1     11948-4.70750E-03-1.54634E-03-1.24809E-04
 -1     11949-5.02220E-03-4.86363E-04-8.91811E-05
 -1     11950-4.57335E-03-1.77874E-03-7.52158E-05
 -1     11951-4.70020E-03-1.54084E-03-4.15607E-05
 -1     11952-5.01818E-03-4.83523E-04-5.42830E-14
 -1     11953-4.56984E-03-1.77589E-03-4.31638E-14
 -1     11954-4.70020E-03-1.54084E-03 4.15607E-05
 -1     11955-5.02220E-03-4.86363E-04 8.91811E-05
 -1     11956-4.57335E-03-1.77874E-03 7.52158E-05
 -1     11957-4.70750E-03-1.54634E-03 1.24809E-04
 -1     11958-5.03417E-03-4.94841E-04 1.78279E-04
 -1     11959-4.58430E-03-1.78731E-03 1.50961E-04
 -1     11960-4.72209E-03-1.55731E-03 2.07970E-04
 -1     11961-3.62978E-03-2.90778E-03-1.70661E-04
 -1     11962-4.21251E-03-2.38459E-03-1.50158E-04
 -1     11963-3.56891E-03-3.03706E-03-1.24052E-04
 -1     11964-3.61786E-03-2.89792E-03-1.02487E-04
 -1     11965-4.20269E-03-2.37670E-03-7.51369E-05
 -1     11966-3.55995E-03-3.02938E-03-6.17013E-05
 -1     11967-3.61187E-03-2.89297E-03-3.41160E-05
 -1     11968-4.19939E-03-2.37406E-03-3.27935E-14
 -1     11969-3.55715E-03-3.02684E-03-2.45137E-14
 -1     11970-3.61187E-03-2.89297E-03 3.41160E-05
 -1     11971-4.20269E-03-2.37670E-03 7.51369E-05
 -1     11972-3.55995E-03-3.02938E-03 6.17013E-05
 -1     11973-3.61786E-03-2.89792E-03 1.02487E-04
 -1     11974-4.21251E-03-2.38459E-03 1.50158E-04
 -1     11975-3.56891E-03-3.03706E-03 1.24052E-04
 -1     11976-3.62978E-03-2.90778E-03 1.70661E-04
 -1     11977-2.30367E-03-3.19926E-03-1.29304E-04
 -1     11978-2.96564E-03-3.18618E-03-1.19001E-04
 -1     11979-2.31438E-03-3.26340E-03-9.44684E-05
 -1     11980-2.29404E-03-3.19136E-03-7.78009E-05
 -1     11981-2.95772E-03-3.17953E-03-5.95633E-05
 -1     11982-2.30703E-03-3.25728E-03-4.69172E-05
 -1     11983-2.28914E-03-3.18740E-03-2.59014E-05
 -1     11984-2.95504E-03-3.17730E-03-1.66214E-14
 -1     11985-2.30479E-03-3.25526E-03-1.11664E-14
 -1     11986-2.28914E-03-3.18740E-03 2.59014E-05
 -1     11987-2.95772E-03-3.17953E-03 5.95633E-05
 -1     11988-2.30703E-03-3.25728E-03 4.69172E-05
 -1     11989-2.29404E-03-3.19136E-03 7.78009E-05
 -1     11990-2.96564E-03-3.18618E-03 1.19001E-04
 -1     11991-2.31438E-03-3.26340E-03 9.44684E-05
 -1     11992-2.30367E-03-3.19926E-03 1.29304E-04
 -1     11993-1.09519E-03-2.58088E-03-8.32245E-05
 -1     11994-1.66467E-03-2.99406E-03-8.46185E-05
 -1     11995-1.15544E-03-2.61137E-03-6.20114E-05
 -1     11996-1.08750E-03-2.57643E-03-5.03447E-05
 -1     11997-1.65824E-03-2.98944E-03-4.23414E-05
 -1     11998-1.14932E-03-2.60783E-03-3.08981E-05
 -1     11999-1.08347E-03-2.57418E-03-1.67937E-05
 -1     12000-1.65607E-03-2.98789E-03-5.97549E-15
 -1     12001-1.14742E-03-2.60665E-03-3.13917E-15
 -1     12002-1.08347E-03-2.57418E-03 1.67937E-05
 -1     12003-1.65824E-03-2.98944E-03 4.23414E-05
 -1     12004-1.14932E-03-2.60783E-03 3.08981E-05
 -1     12005-1.08750E-03-2.57643E-03 5.03447E-05
 -1     12006-1.66467E-03-2.99406E-03 8.46185E-05
 -1     12007-1.15544E-03-2.61137E-03 6.20114E-05
 -1     12008-1.09519E-03-2.58088E-03 8.32245E-05
 -1     12009-2.89193E-04-1.32377E-03-3.02741E-05
 -1     12010-6.29052E-04-2.01279E-03-4.67538E-05
 -1     12011-3.54275E-04-1.34198E-03-2.65356E-05
 -1     12012-2.82249E-04-1.32586E-03-1.87730E-05
 -1     12013-6.23500E-04-2.01130E-03-2.33199E-05
 -1     12014-3.49707E-04-1.34374E-03-1.37375E-05
 -1     12015-2.78656E-04-1.32730E-03-6.35877E-06
 -1     12016-6.21655E-04-2.01083E-03-6.34029E-16
 -1     12017-3.48142E-04-1.34436E-03 6.27750E-17
 -1     12018-2.78656E-04-1.32730E-03 6.35877E-06
 -1     12019-6.23500E-04-2.01130E-03 2.33199E-05
 -1     12020-3.49707E-04-1.34374E-03 1.37375E-05
 -1     12021-2.82249E-04-1.32586E-03 1.87730E-05
 -1     12022-6.29052E-04-2.01279E-03 4.67538E-05
 -1     12023-3.54275E-04-1.34198E-03 2.65356E-05
 -1     12024-2.89193E-04-1.32377E-03 3.02741E-05
 -1     12025-8.78766E-05-6.00922E-04-9.47174E-06
 -1     12026-8.49441E-05-6.05083E-04-4.49810E-06
 -1     12027-8.39752E-05-6.06146E-04 3.91841E-16
 -1     12028-8.49441E-05-6.05083E-04 4.49810E-06
 -1     12029-8.78766E-05-6.00922E-04 9.47174E-06
 -1     12030 1.72272E-01-8.98811E-02-9.66257E-06
 -1     12031 1.73022E-01-1.01058E-01-2.12743E-06
 -1     12032 1.69012E-01-9.03063E-02-1.15044E-05
 -1     12033 1.72274E-01-8.98762E-02-5.63781E-06
 -1     12034 1.73024E-01-1.01056E-01-1.04798E-06
 -1     12035 1.69014E-01-9.03028E-02-5.72486E-06
 -1     12036 1.72275E-01-8.98739E-02-1.86776E-06
 -1     12037 1.73024E-01-1.01056E-01-2.42454E-13
 -1     12038 1.69014E-01-9.03017E-02-2.59534E-13
 -1     12039 1.72275E-01-8.98739E-02 1.86776E-06
 -1     12040 1.73024E-01-1.01056E-01 1.04798E-06
 -1     12041 1.69014E-01-9.03028E-02 5.72486E-06
 -1     12042 1.72274E-01-8.98762E-02 5.63780E-06
 -1     12043 1.73022E-01-1.01058E-01 2.12743E-06
 -1     12044 1.69012E-01-9.03063E-02 1.15044E-05
 -1     12045 1.72272E-01-8.98811E-02 9.66257E-06
 -1     12046 1.67663E-01-6.76459E-02-4.11694E-05
 -1     12047 1.70014E-01-7.87934E-02-1.79138E-05
 -1     12048 1.64466E-01-6.84846E-02-3.53145E-05
 -1     12049 1.67668E-01-6.76417E-02-2.45699E-05
 -1     12050 1.70016E-01-7.87897E-02-8.94332E-06
 -1     12051 1.64469E-01-6.84817E-02-1.76301E-05
 -1     12052 1.67670E-01-6.76397E-02-8.17928E-06
 -1     12053 1.70017E-01-7.87885E-02-2.83442E-13
 -1     12054 1.64470E-01-6.84808E-02-2.97888E-13
 -1     12055 1.67670E-01-6.76397E-02 8.17928E-06
 -1     12056 1.70016E-01-7.87897E-02 8.94332E-06
 -1     12057 1.64469E-01-6.84817E-02 1.76301E-05
 -1     12058 1.67668E-01-6.76417E-02 2.45699E-05
 -1     12059 1.70014E-01-7.87934E-02 1.79138E-05
 -1     12060 1.64466E-01-6.84846E-02 3.53145E-05
 -1     12061 1.67663E-01-6.76459E-02 4.11694E-05
 -1     12062 1.59762E-01-4.60885E-02-9.32537E-05
 -1     12063 1.63773E-01-5.68439E-02-5.22595E-05
 -1     12064 1.56701E-01-4.73160E-02-7.23066E-05
 -1     12065 1.59770E-01-4.60880E-02-5.58747E-05
 -1     12066 1.63778E-01-5.68421E-02-2.61117E-05
 -1     12067 1.56706E-01-4.73159E-02-3.61434E-05
 -1     12068 1.59774E-01-4.60878E-02-1.86224E-05
 -1     12069 1.63779E-01-5.68415E-02-3.20371E-13
 -1     12070 1.56708E-01-4.73159E-02-3.31413E-13
 -1     12071 1.59774E-01-4.60878E-02 1.86224E-05
 -1     12072 1.63778E-01-5.68421E-02 2.61117E-05
 -1     12073 1.56706E-01-4.73159E-02 3.61434E-05
 -1     12074 1.59770E-01-4.60880E-02 5.58747E-05
 -1     12075 1.63773E-01-5.68439E-02 5.22595E-05
 -1     12076 1.56701E-01-4.73160E-02 7.23065E-05
 -1     12077 1.59762E-01-4.60885E-02 9.32537E-05
 -1     12078 1.48728E-01-2.60712E-02-1.53715E-04
 -1     12079 1.54286E-01-3.59933E-02-9.79418E-05
 -1     12080 1.45885E-01-2.76428E-02-1.15314E-04
 -1     12081 1.48739E-01-2.60747E-02-9.21941E-05
 -1     12082 1.54293E-01-3.59945E-02-4.89536E-05
 -1     12083 1.45893E-01-2.76457E-02-5.76580E-05
 -1     12084 1.48744E-01-2.60765E-02-3.07326E-05
 -1     12085 1.54295E-01-3.59949E-02-3.51830E-13
 -1     12086 1.45896E-01-2.76467E-02-3.58541E-13
 -1     12087 1.48744E-01-2.60765E-02 3.07326E-05
 -1     12088 1.54293E-01-3.59945E-02 4.89536E-05
 -1     12089 1.45893E-01-2.76457E-02 5.76580E-05
 -1     12090 1.48739E-01-2.60747E-02 9.21941E-05
 -1     12091 1.54286E-01-3.59933E-02 9.79418E-05
 -1     12092 1.45885E-01-2.76428E-02 1.15314E-04
 -1     12093 1.48728E-01-2.60712E-02 1.53715E-04
 -1     12094 1.35037E-01-8.38638E-03-2.12980E-04
 -1     12095 1.41879E-01-1.70930E-02-1.46048E-04
 -1     12096 1.32488E-01-1.02386E-02-1.57884E-04
 -1     12097 1.35051E-01-8.39306E-03-1.27780E-04
 -1     12098 1.41889E-01-1.70970E-02-7.30061E-05
 -1     12099 1.32498E-01-1.02440E-02-7.89433E-05
 -1     12100 1.35058E-01-8.39648E-03-4.25945E-05
 -1     12101 1.41892E-01-1.70983E-02-3.75581E-13
 -1     12102 1.32502E-01-1.02458E-02-3.77211E-13
 -1     12103 1.35058E-01-8.39648E-03 4.25945E-05
 -1     12104 1.41889E-01-1.70970E-02 7.30061E-05
 -1     12105 1.32498E-01-1.02440E-02 7.89433E-05
 -1     12106 1.35051E-01-8.39306E-03 1.27780E-04
 -1     12107 1.41879E-01-1.70930E-02 1.46048E-04
 -1     12108 1.32488E-01-1.02386E-02 1.57884E-04
 -1     12109 1.35037E-01-8.38638E-03 2.12980E-04
 -1     12110 1.19371E-01 6.38849E-03-2.65718E-04
 -1     12111 1.27147E-01-8.35599E-04-1.90720E-04
 -1     12112 1.17170E-01 4.33188E-03-1.96154E-04
 -1     12113 1.19388E-01 6.37987E-03-1.59434E-04
 -1     12114 1.27159E-01-8.41518E-04-9.53421E-05
 -1     12115 1.17183E-01 4.32509E-03-9.80730E-05
 -1     12116 1.19397E-01 6.37551E-03-5.31431E-05
 -1     12117 1.27162E-01-8.43517E-04-3.89814E-13
 -1     12118 1.17188E-01 4.32283E-03-3.86012E-13
 -1     12119 1.19397E-01 6.37551E-03 5.31431E-05
 -1     12120 1.27159E-01-8.41518E-04 9.53421E-05
 -1     12121 1.17183E-01 4.32509E-03 9.80730E-05
 -1     12122 1.19388E-01 6.37987E-03 1.59434E-04
 -1     12123 1.27147E-01-8.35599E-04 1.90720E-04
 -1     12124 1.17170E-01 4.33188E-03 1.96154E-04
 -1     12125 1.19371E-01 6.38849E-03 2.65718E-04
 -1     12126 1.02503E-01 1.79261E-02-3.09834E-04
 -1     12127 1.10825E-01 1.23274E-02-2.29172E-04
 -1     12128 1.00682E-01 1.57475E-02-2.28443E-04
 -1     12129 1.02523E-01 1.79169E-02-1.85906E-04
 -1     12130 1.10839E-01 1.23206E-02-1.14568E-04
 -1     12131 1.00698E-01 1.57403E-02-1.14210E-04
 -1     12132 1.02534E-01 1.79122E-02-6.19633E-05
 -1     12133 1.10844E-01 1.23182E-02-3.93461E-13
 -1     12134 1.00703E-01 1.57379E-02-3.84327E-13
 -1     12135 1.02534E-01 1.79122E-02 6.19633E-05
 -1     12136 1.10839E-01 1.23206E-02 1.14568E-04
 -1     12137 1.00698E-01 1.57403E-02 1.14210E-04
 -1     12138 1.02523E-01 1.79169E-02 1.85906E-04
 -1     12139 1.10825E-01 1.23274E-02 2.29172E-04
 -1     12140 1.00682E-01 1.57475E-02 2.28443E-04
 -1     12141 1.02503E-01 1.79261E-02 3.09834E-04
 -1     12142 8.52122E-02 2.61324E-02-3.45009E-04
 -1     12143 9.36955E-02 2.21892E-02-2.60572E-04
 -1     12144 8.37800E-02 2.39144E-02-2.54355E-04
 -1     12145 8.52354E-02 2.61237E-02-2.07009E-04
 -1     12146 9.37119E-02 2.21823E-02-1.30268E-04
 -1     12147 8.37975E-02 2.39076E-02-1.27159E-04
 -1     12148 8.52470E-02 2.61193E-02-6.89941E-05
 -1     12149 9.37174E-02 2.21800E-02-3.86704E-13
 -1     12150 8.38033E-02 2.39053E-02-3.73707E-13
 -1     12151 8.52470E-02 2.61193E-02 6.89941E-05
 -1     12152 9.37119E-02 2.21823E-02 1.30268E-04
 -1     12153 8.37975E-02 2.39076E-02 1.27159E-04
 -1     12154 8.52354E-02 2.61237E-02 2.07009E-04
 -1     12155 9.36955E-02 2.21892E-02 2.60572E-04
 -1     12156 8.37800E-02 2.39144E-02 2.54355E-04
 -1     12157 8.52122E-02 2.61324E-02 3.45009E-04
 -1     12158 6.82315E-02 3.11125E-02-3.71626E-04
 -1     12159 7.65178E-02 2.87594E-02-2.85018E-04
 -1     12160 6.71756E-02 2.89328E-02-2.74050E-04
 -1     12161 6.82568E-02 3.11052E-02-2.22975E-04
 -1     12162 7.65360E-02 2.87532E-02-1.42490E-04
 -1     12163 6.71948E-02 2.89272E-02-1.37001E-04
 -1     12164 6.82696E-02 3.11015E-02-7.43136E-05
 -1     12165 7.65421E-02 2.87512E-02-3.71840E-13
 -1     12166 6.72012E-02 2.89253E-02-3.55758E-13
 -1     12167 6.82696E-02 3.11015E-02 7.43136E-05
 -1     12168 7.65360E-02 2.87532E-02 1.42490E-04
 -1     12169 6.71948E-02 2.89272E-02 1.37001E-04
 -1     12170 6.82568E-02 3.11052E-02 2.22975E-04
 -1     12171 7.65178E-02 2.87594E-02 2.85018E-04
 -1     12172 6.71756E-02 2.89328E-02 2.74050E-04
 -1     12173 6.82315E-02 3.11125E-02 3.71626E-04
 -1     12174 5.22093E-02 3.31355E-02-3.90190E-04
 -1     12175 5.99837E-02 3.22283E-02-3.02889E-04
 -1     12176 5.15004E-02 3.10632E-02-2.87830E-04
 -1     12177 5.22363E-02 3.31303E-02-2.34110E-04
 -1     12178 6.00034E-02 3.22235E-02-1.51425E-04
 -1     12179 5.15208E-02 3.10591E-02-1.43887E-04
 -1     12180 5.22498E-02 3.31276E-02-7.80236E-05
 -1     12181 6.00100E-02 3.22219E-02-3.50051E-13
 -1     12182 5.15277E-02 3.10578E-02-3.31888E-13
 -1     12183 5.22498E-02 3.31276E-02 7.80236E-05
 -1     12184 6.00034E-02 3.22235E-02 1.51425E-04
 -1     12185 5.15208E-02 3.10591E-02 1.43887E-04
 -1     12186 5.22363E-02 3.31303E-02 2.34110E-04
 -1     12187 5.99837E-02 3.22283E-02 3.02889E-04
 -1     12188 5.15004E-02 3.10632E-02 2.87830E-04
 -1     12189 5.22093E-02 3.31355E-02 3.90190E-04
 -1     12190 3.76847E-02 3.25998E-02-4.01113E-04
 -1     12191 4.46881E-02 3.29327E-02-3.14553E-04
 -1     12192 3.72797E-02 3.06924E-02-2.95964E-04
 -1     12193 3.77127E-02 3.25971E-02-2.40661E-04
 -1     12194 4.47088E-02 3.29297E-02-1.57256E-04
 -1     12195 3.73010E-02 3.06903E-02-1.47952E-04
 -1     12196 3.77268E-02 3.25957E-02-8.02068E-05
 -1     12197 4.47158E-02 3.29287E-02-3.23386E-13
 -1     12198 3.73080E-02 3.06896E-02-3.03672E-13
 -1     12199 3.77268E-02 3.25957E-02 8.02068E-05
 -1     12200 4.47088E-02 3.29297E-02 1.57256E-04
 -1     12201 3.73010E-02 3.06903E-02 1.47952E-04
 -1     12202 3.77127E-02 3.25971E-02 2.40661E-04
 -1     12203 4.46881E-02 3.29327E-02 3.14553E-04
 -1     12204 3.72797E-02 3.06924E-02 2.95964E-04
 -1     12205 3.76847E-02 3.25998E-02 4.01113E-04
 -1     12206 2.50676E-02 2.99993E-02-4.04687E-04
 -1     12207 3.11063E-02 3.13216E-02-3.20283E-04
 -1     12208 2.49137E-02 2.83006E-02-2.98656E-04
 -1     12209 2.50959E-02 2.99993E-02-2.42804E-04
 -1     12210 3.11275E-02 3.13205E-02-1.60120E-04
 -1     12211 2.49351E-02 2.83006E-02-1.49298E-04
 -1     12212 2.51101E-02 2.99993E-02-8.09216E-05
 -1     12213 3.11346E-02 3.13202E-02-2.92612E-13
 -1     12214 2.49423E-02 2.83006E-02-2.71642E-13
 -1     12215 2.51101E-02 2.99993E-02 8.09216E-05
 -1     12216 3.11275E-02 3.13205E-02 1.60120E-04
 -1     12217 2.49351E-02 2.83006E-02 1.49298E-04
 -1     12218 2.50959E-02 2.99993E-02 2.42804E-04
 -1     12219 3.11063E-02 3.13216E-02 3.20283E-04
 -1     12220 2.49137E-02 2.83006E-02 2.98656E-04
 -1     12221 2.50676E-02 2.99993E-02 4.04687E-04
 -1     12222 1.46256E-02 2.58875E-02-4.01130E-04
 -1     12223 1.95771E-02 2.79214E-02-3.20275E-04
 -1     12224 1.46640E-02 2.44263E-02-2.96068E-04
 -1     12225 1.46534E-02 2.58903E-02-2.40668E-04
 -1     12226 1.95983E-02 2.79224E-02-1.60113E-04
 -1     12227 1.46852E-02 2.44284E-02-1.48005E-04
 -1     12228 1.46674E-02 2.58917E-02-8.02120E-05
 -1     12229 1.96054E-02 2.79228E-02-2.58213E-13
 -1     12230 1.46922E-02 2.44291E-02-2.36727E-13
 -1     12231 1.46674E-02 2.58917E-02 8.02120E-05
 -1     12232 1.95983E-02 2.79224E-02 1.60113E-04
 -1     12233 1.46852E-02 2.44284E-02 1.48005E-04
 -1     12234 1.46534E-02 2.58903E-02 2.40668E-04
 -1     12235 1.95771E-02 2.79214E-02 3.20275E-04
 -1     12236 1.46640E-02 2.44263E-02 2.96068E-04
 -1     12237 1.46256E-02 2.58875E-02 4.01130E-04
 -1     12238 6.47792E-03 2.08407E-02-3.90653E-04
 -1     12239 1.02940E-02 2.32998E-02-3.14693E-04
 -1     12240 6.64840E-03 1.96302E-02-2.88357E-04
 -1     12241 6.50470E-03 2.08460E-02-2.34381E-04
 -1     12242 1.03146E-02 2.33029E-02-1.57318E-04
 -1     12243 6.66870E-03 1.96343E-02-1.44153E-04
 -1     12244 6.51814E-03 2.08487E-02-7.81203E-05
 -1     12245 1.03215E-02 2.33039E-02-2.21727E-13
 -1     12246 6.67548E-03 1.96357E-02-2.00456E-13
 -1     12247 6.51814E-03 2.08487E-02 7.81203E-05
 -1     12248 1.03146E-02 2.33029E-02 1.57318E-04
 -1     12249 6.66870E-03 1.96343E-02 1.44153E-04
 -1     12250 6.50470E-03 2.08460E-02 2.34381E-04
 -1     12251 1.02940E-02 2.32998E-02 3.14693E-04
 -1     12252 6.64840E-03 1.96302E-02 2.88357E-04
 -1     12253 6.47792E-03 2.08407E-02 3.90653E-04
 -1     12254 5.98870E-04 1.54202E-02-3.73509E-04
 -1     12255 3.30288E-03 1.80284E-02-3.03717E-04
 -1     12256 8.43234E-04 1.44590E-02-2.75717E-04
 -1     12257 6.23940E-04 1.54278E-02-2.24095E-04
 -1     12258 3.32242E-03 1.80333E-02-1.51824E-04
 -1     12259 8.62196E-04 1.44648E-02-1.37839E-04
 -1     12260 6.36519E-04 1.54316E-02-7.46981E-05
 -1     12261 3.32894E-03 1.80349E-02-1.84437E-13
 -1     12262 8.68541E-04 1.44668E-02-1.63981E-13
 -1     12263 6.36519E-04 1.54316E-02 7.46981E-05
 -1     12264 3.32242E-03 1.80333E-02 1.51824E-04
 -1     12265 8.62196E-04 1.44648E-02 1.37839E-04
 -1     12266 6.23940E-04 1.54278E-02 2.24095E-04
 -1     12267 3.30288E-03 1.80284E-02 3.03717E-04
 -1     12268 8.43234E-04 1.44590E-02 2.75717E-04
 -1     12269 5.98870E-04 1.54202E-02 3.73509E-04
 -1     12270-3.17095E-03 1.01375E-02-3.50032E-04
 -1     12271-1.49043E-03 1.26461E-02-2.87579E-04
 -1     12272-2.90512E-03 9.41083E-03-2.58396E-04
 -1     12273-3.14810E-03 1.01467E-02-2.10009E-04
 -1     12274-1.47238E-03 1.26524E-02-1.43745E-04
 -1     12275-2.88789E-03 9.41796E-03-1.29187E-04
 -1     12276-3.13664E-03 1.01513E-02-7.00136E-05
 -1     12277-1.46638E-03 1.26546E-02-1.47610E-13
 -1     12278-2.88211E-03 9.42034E-03-1.28711E-13
 -1     12279-3.13664E-03 1.01513E-02 7.00136E-05
 -1     12280-1.47238E-03 1.26524E-02 1.43745E-04
 -1     12281-2.88789E-03 9.41796E-03 1.29187E-04
 -1     12282-3.14810E-03 1.01467E-02 2.10009E-04
 -1     12283-1.49043E-03 1.26461E-02 2.87579E-04
 -1     12284-2.90512E-03 9.41083E-03 2.58396E-04
 -1     12285-3.17095E-03 1.01375E-02 3.50032E-04
 -1     12286-5.10402E-03 5.42258E-03-3.20649E-04
 -1     12287-4.30393E-03 7.62563E-03-2.66586E-04
 -1     12288-4.86044E-03 4.90500E-03-2.36711E-04
 -1     12289-5.08375E-03 5.43291E-03-1.92380E-04
 -1     12290-4.28769E-03 7.63305E-03-1.33231E-04
 -1     12291-4.84522E-03 4.91295E-03-1.18360E-04
 -1     12292-5.07358E-03 5.43808E-03-6.41541E-05
 -1     12293-4.28232E-03 7.63554E-03-1.12844E-13
 -1     12294-4.84009E-03 4.91561E-03-9.60277E-14
 -1     12295-5.07358E-03 5.43808E-03 6.41541E-05
 -1     12296-4.28769E-03 7.63305E-03 1.33231E-04
 -1     12297-4.84522E-03 4.91295E-03 1.18360E-04
 -1     12298-5.08375E-03 5.43291E-03 1.92380E-04
 -1     12299-4.30393E-03 7.62563E-03 2.66586E-04
 -1     12300-4.86044E-03 4.90500E-03 2.36711E-04
 -1     12301-5.10402E-03 5.42258E-03 3.20649E-04
 -1     12302-5.55830E-03 1.60038E-03-2.85868E-04
 -1     12303-5.45542E-03 3.34604E-03-2.41117E-04
 -1     12304-5.36975E-03 1.25848E-03-2.11033E-04
 -1     12305-5.54078E-03 1.61113E-03-1.71511E-04
 -1     12306-5.44119E-03 3.35402E-03-1.20470E-04
 -1     12307-5.35669E-03 1.26670E-03-1.05547E-04
 -1     12308-5.53201E-03 1.61648E-03-5.72233E-05
 -1     12309-5.43652E-03 3.35669E-03-8.12688E-14
 -1     12310-5.35225E-03 1.26947E-03-6.69817E-14
 -1     12311-5.53201E-03 1.61648E-03 5.72233E-05
 -1     12312-5.44119E-03 3.35402E-03 1.20470E-04
 -1     12313-5.35669E-03 1.26670E-03 1.05547E-04
 -1     12314-5.54078E-03 1.61113E-03 1.71511E-04
 -1     12315-5.45542E-03 3.34604E-03 2.41117E-04
 -1     12316-5.36975E-03 1.25848E-03 2.11033E-04
 -1     12317-5.55830E-03 1.60038E-03 2.85868E-04
 -1     12318-4.94435E-03-1.12522E-03-2.46187E-04
 -1     12319-5.33200E-03 7.23075E-05-2.11612E-04
 -1     12320-4.83147E-03-1.32916E-03-1.81730E-04
 -1     12321-4.92959E-03-1.11477E-03-1.47692E-04
 -1     12322-5.31982E-03 8.03249E-05-1.05675E-04
 -1     12323-4.82056E-03-1.32124E-03-9.09369E-05
 -1     12324-4.92223E-03-1.10960E-03-4.93197E-05
 -1     12325-5.31588E-03 8.29694E-05-5.39711E-14
 -1     12326-4.81680E-03-1.31854E-03-4.25407E-14
 -1     12327-4.92223E-03-1.10960E-03 4.93197E-05
 -1     12328-5.31982E-03 8.03249E-05 1.05675E-04
 -1     12329-4.82056E-03-1.32124E-03 9.09369E-05
 -1     12330-4.92959E-03-1.11477E-03 1.47692E-04
 -1     12331-5.33200E-03 7.23075E-05 2.11612E-04
 -1     12332-4.83147E-03-1.32916E-03 1.81730E-04
 -1     12333-4.94435E-03-1.12522E-03 2.46187E-04
 -1     12334-3.69126E-03-2.67652E-03-2.01892E-04
 -1     12335-4.35614E-03-2.05482E-03-1.78444E-04
 -1     12336-3.66168E-03-2.78121E-03-1.49023E-04
 -1     12337-3.67902E-03-2.66711E-03-1.21064E-04
 -1     12338-4.34588E-03-2.04729E-03-8.90337E-05
 -1     12339-3.65278E-03-2.77419E-03-7.46434E-05
 -1     12340-3.67301E-03-2.66253E-03-4.04888E-05
 -1     12341-4.34264E-03-2.04486E-03-3.17975E-14
 -1     12342-3.64965E-03-2.77173E-03-2.33788E-14
 -1     12343-3.67301E-03-2.66253E-03 4.04888E-05
 -1     12344-4.34588E-03-2.04729E-03 8.90337E-05
 -1     12345-3.65278E-03-2.77419E-03 7.46434E-05
 -1     12346-3.67902E-03-2.66711E-03 1.21064E-04
 -1     12347-4.35614E-03-2.05482E-03 1.78444E-04
 -1     12348-3.66168E-03-2.78121E-03 1.49023E-04
 -1     12349-3.69126E-03-2.67652E-03 2.01892E-04
 -1     12350-2.21441E-03-3.09823E-03-1.52478E-04
 -1     12351-2.95208E-03-3.01958E-03-1.41828E-04
 -1     12352-2.26325E-03-3.13927E-03-1.12614E-04
 -1     12353-2.20417E-03-3.09082E-03-9.12090E-05
 -1     12354-2.94338E-03-3.01310E-03-7.06614E-05
 -1     12355-2.25613E-03-3.13386E-03-5.64994E-05
 -1     12356-2.19945E-03-3.08734E-03-3.05613E-05
 -1     12357-2.94070E-03-3.01108E-03-1.52973E-14
 -1     12358-2.25358E-03-3.13188E-03-9.87790E-15
 -1     12359-2.19945E-03-3.08734E-03 3.05613E-05
 -1     12360-2.94338E-03-3.01310E-03 7.06614E-05
 -1     12361-2.25613E-03-3.13386E-03 5.64994E-05
 -1     12362-2.20417E-03-3.09082E-03 9.12090E-05
 -1     12363-2.95208E-03-3.01958E-03 1.41828E-04
 -1     12364-2.26325E-03-3.13927E-03 1.12614E-04
 -1     12365-2.21441E-03-3.09823E-03 1.52478E-04
 -1     12366-8.97569E-04-2.55095E-03-9.63305E-05
 -1     12367-1.51952E-03-2.92324E-03-1.01110E-04
 -1     12368-1.00155E-03-2.55996E-03-7.13454E-05
 -1     12369-8.87691E-04-2.54711E-03-5.69466E-05
 -1     12370-1.51172E-03-2.91845E-03-5.03191E-05
 -1     12371-9.95755E-04-2.55738E-03-3.58134E-05
 -1     12372-8.83945E-04-2.54573E-03-1.90677E-05
 -1     12373-1.50934E-03-2.91707E-03-4.68263E-15
 -1     12374-9.93730E-04-2.55631E-03-2.05737E-15
 -1     12375-8.83945E-04-2.54573E-03 1.90677E-05
 -1     12376-1.51172E-03-2.91845E-03 5.03191E-05
 -1     12377-9.95755E-04-2.55738E-03 3.58134E-05
 -1     12378-8.87691E-04-2.54711E-03 5.69466E-05
 -1     12379-1.51952E-03-2.92324E-03 1.01110E-04
 -1     12380-1.00155E-03-2.55996E-03 7.13454E-05
 -1     12381-8.97569E-04-2.55095E-03 9.63305E-05
 -1     12382-7.19996E-05-1.32477E-03-3.26933E-05
 -1     12383-4.15561E-04-1.98556E-03-5.46309E-05
 -1     12384-1.91160E-04-1.31826E-03-2.47678E-05
 -1     12385-5.81281E-05-1.32653E-03-1.81147E-05
 -1     12386-4.08063E-04-1.98327E-03-2.73708E-05
 -1     12387-1.84707E-04-1.32140E-03-1.23387E-05
 -1     12388-5.33677E-05-1.32908E-03-5.90344E-06
 -1     12389-4.05602E-04-1.98272E-03 2.81829E-16
 -1     12390-1.82652E-04-1.32246E-03 6.34438E-16
 -1     12391-5.33677E-05-1.32908E-03 5.90344E-06
 -1     12392-4.08063E-04-1.98327E-03 2.73708E-05
 -1     12393-1.84707E-04-1.32140E-03 1.23387E-05
 -1     12394-5.81281E-05-1.32653E-03 1.81147E-05
 -1     12395-4.15561E-04-1.98556E-03 5.46309E-05
 -1     12396-1.91160E-04-1.31826E-03 2.47678E-05
 -1     12397-7.19996E-05-1.32477E-03 3.26933E-05
 -1     12398 3.24524E-05-5.76412E-04 1.17763E-05
 -1     12399 3.54308E-05-5.82076E-04 5.55435E-06
 -1     12400 3.63222E-05-5.83570E-04 6.76657E-16
 -1     12401 3.54308E-05-5.82076E-04-5.55435E-06
 -1     12402 3.24524E-05-5.76412E-04-1.17763E-05
 -1     12403 1.75543E-01-8.94478E-02-3.25929E-06
 -1     12404 1.75544E-01-8.94442E-02-1.62236E-06
 -1     12405 1.75545E-01-8.94430E-02-2.68826E-13
 -1     12406 1.75544E-01-8.94442E-02 1.62236E-06
 -1     12407 1.75543E-01-8.94478E-02 3.25929E-06
 -1     12408 1.70883E-01-6.67961E-02-3.00424E-05
 -1     12409 1.70887E-01-6.67929E-02-1.50072E-05
 -1     12410 1.70888E-01-6.67919E-02-3.09056E-13
 -1     12411 1.70887E-01-6.67929E-02 1.50072E-05
 -1     12412 1.70883E-01-6.67961E-02 3.00424E-05
 -1     12413 1.62854E-01-4.48492E-02-7.65394E-05
 -1     12414 1.62860E-01-4.48488E-02-3.82820E-05
 -1     12415 1.62862E-01-4.48486E-02-3.44120E-13
 -1     12416 1.62860E-01-4.48488E-02 3.82820E-05
 -1     12417 1.62854E-01-4.48492E-02 7.65394E-05
 -1     12418 1.51604E-01-2.44890E-02-1.30429E-04
 -1     12419 1.51612E-01-2.44915E-02-6.52438E-05
 -1     12420 1.51615E-01-2.44924E-02-3.72854E-13
 -1     12421 1.51612E-01-2.44915E-02 6.52438E-05
 -1     12422 1.51604E-01-2.44890E-02 1.30429E-04
 -1     12423 1.37619E-01-6.52555E-03-1.82762E-04
 -1     12424 1.37630E-01-6.53049E-03-9.14134E-05
 -1     12425 1.37634E-01-6.53216E-03-3.92530E-13
 -1     12426 1.37630E-01-6.53049E-03 9.14134E-05
 -1     12427 1.37619E-01-6.52555E-03 1.82762E-04
 -1     12428 1.21604E-01 8.45138E-03-2.28893E-04
 -1     12429 1.21617E-01 8.44499E-03-1.14472E-04
 -1     12430 1.21621E-01 8.44285E-03-4.02019E-13
 -1     12431 1.21617E-01 8.44499E-03 1.14472E-04
 -1     12432 1.21604E-01 8.45138E-03 2.28893E-04
 -1     12433 1.04355E-01 2.01089E-02-2.67173E-04
 -1     12434 1.04370E-01 2.01020E-02-1.33604E-04
 -1     12435 1.04375E-01 2.00997E-02-3.99815E-13
 -1     12436 1.04370E-01 2.01020E-02 1.33604E-04
 -1     12437 1.04355E-01 2.01089E-02 2.67173E-04
 -1     12438 8.66747E-02 2.83530E-02-2.97511E-04
 -1     12439 8.66920E-02 2.83466E-02-1.48767E-04
 -1     12440 8.66978E-02 2.83444E-02-3.88515E-13
 -1     12441 8.66920E-02 2.83466E-02 1.48767E-04
 -1     12442 8.66747E-02 2.83530E-02 2.97511E-04
 -1     12443 6.93170E-02 3.32938E-02-3.20368E-04
 -1     12444 6.93359E-02 3.32883E-02-1.60196E-04
 -1     12445 6.93422E-02 3.32865E-02-3.69267E-13
 -1     12446 6.93359E-02 3.32883E-02 1.60196E-04
 -1     12447 6.93170E-02 3.32938E-02 3.20368E-04
 -1     12448 5.29474E-02 3.52086E-02-3.36254E-04
 -1     12449 5.29676E-02 3.52047E-02-1.68149E-04
 -1     12450 5.29743E-02 3.52033E-02-3.44028E-13
 -1     12451 5.29676E-02 3.52047E-02 1.68149E-04
 -1     12452 5.29474E-02 3.52086E-02 3.36254E-04
 -1     12453 3.81187E-02 3.45074E-02-3.45558E-04
 -1     12454 3.81396E-02 3.45054E-02-1.72822E-04
 -1     12455 3.81466E-02 3.45047E-02-3.14662E-13
 -1     12456 3.81396E-02 3.45054E-02 1.72822E-04
 -1     12457 3.81187E-02 3.45074E-02 3.45558E-04
 -1     12458 2.52504E-02 3.16979E-02-3.48541E-04
 -1     12459 2.52715E-02 3.16980E-02-1.74347E-04
 -1     12460 2.52786E-02 3.16979E-02-2.81075E-13
 -1     12461 2.52715E-02 3.16980E-02 1.74347E-04
 -1     12462 2.52504E-02 3.16979E-02 3.48541E-04
 -1     12463 1.46159E-02 2.73486E-02-3.45386E-04
 -1     12464 1.46367E-02 2.73507E-02-1.72820E-04
 -1     12465 1.46437E-02 2.73513E-02-2.44429E-13
 -1     12466 1.46367E-02 2.73507E-02 1.72820E-04
 -1     12467 1.46159E-02 2.73486E-02 3.45386E-04
 -1     12468 6.33630E-03 2.20509E-02-3.36263E-04
 -1     12469 6.35624E-03 2.20549E-02-1.68331E-04
 -1     12470 6.36301E-03 2.20561E-02-2.06458E-13
 -1     12471 6.35624E-03 2.20549E-02 1.68331E-04
 -1     12472 6.33630E-03 2.20509E-02 3.36263E-04
 -1     12473 3.83501E-04 1.63811E-02-3.21378E-04
 -1     12474 4.02116E-04 1.63867E-02-1.60988E-04
 -1     12475 4.08515E-04 1.63885E-02-1.68232E-13
 -1     12476 4.02116E-04 1.63867E-02 1.60988E-04
 -1     12477 3.83501E-04 1.63811E-02 3.21378E-04
 -1     12478-3.40758E-03 1.08637E-02-3.01005E-04
 -1     12479-3.39069E-03 1.08706E-02-1.50936E-04
 -1     12480-3.38478E-03 1.08728E-02-1.31390E-13
 -1     12481-3.39069E-03 1.08706E-02 1.50936E-04
 -1     12482-3.40758E-03 1.08637E-02 3.01005E-04
 -1     12483-5.31815E-03 5.93992E-03-2.75497E-04
 -1     12484-5.30327E-03 5.94756E-03-1.38357E-04
 -1     12485-5.29792E-03 5.95008E-03-9.72763E-14
 -1     12486-5.30327E-03 5.94756E-03 1.38357E-04
 -1     12487-5.31815E-03 5.93992E-03 2.75497E-04
 -1     12488-5.71698E-03 1.94238E-03-2.45277E-04
 -1     12489-5.70432E-03 1.95027E-03-1.23464E-04
 -1     12490-5.69956E-03 1.95292E-03-6.70519E-14
 -1     12491-5.70432E-03 1.95027E-03 1.23464E-04
 -1     12492-5.71698E-03 1.94238E-03 2.45277E-04
 -1     12493-5.02687E-03-9.20465E-04-2.10768E-04
 -1     12494-5.01651E-03-9.12906E-04-1.06444E-04
 -1     12495-5.01236E-03-9.10278E-04-4.17508E-14
 -1     12496-5.01651E-03-9.12906E-04 1.06444E-04
 -1     12497-5.02687E-03-9.20465E-04 2.10768E-04
 -1     12498-3.68910E-03-2.57014E-03-1.72217E-04
 -1     12499-3.68110E-03-2.56351E-03-8.73396E-05
 -1     12500-3.67758E-03-2.56107E-03-2.20743E-14
 -1     12501-3.68110E-03-2.56351E-03 8.73396E-05
 -1     12502-3.68910E-03-2.57014E-03 1.72217E-04
 -1     12503-2.13279E-03-3.05324E-03-1.29239E-04
 -1     12504-2.12706E-03-3.04834E-03-6.57052E-05
 -1     12505-2.12428E-03-3.04635E-03-8.44281E-15
 -1     12506-2.12706E-03-3.04834E-03 6.57052E-05
 -1     12507-2.13279E-03-3.05324E-03 1.29239E-04
 -1     12508-7.51799E-04-2.53786E-03-8.06538E-05
 -1     12509-7.47931E-04-2.53590E-03-4.04655E-05
 -1     12510-7.46143E-04-2.53486E-03-8.29793E-16
 -1     12511-7.47931E-04-2.53590E-03 4.04655E-05
 -1     12512-7.51799E-04-2.53786E-03 8.06538E-05
 -1     12513 7.82275E-05-1.31606E-03-2.85755E-05
 -1     12514 8.54465E-05-1.31877E-03-1.23686E-05
 -1     12515 8.74244E-05-1.31972E-03 1.30874E-15
 -1     12516 8.54465E-05-1.31877E-03 1.23686E-05
 -1     12517 7.82275E-05-1.31606E-03 2.85755E-05
 -3
    1PSTEP                         2           1           1          
  100CL  101 1.000000000       12517                     0    1           1
 -4  STRESS      6    1
 -5  SXX         1    4    1    1
 -5  SYY         1    4    2    2
 -5  SZZ         1    4    3    3
 -5  SXY         1    4    1    2
 -5  SYZ         1    4    2    3
 -5  SZX         1    4    3    1
 -1         1 2.80895E+02-1.25100E+03 9.56040E+01 4.99367E+02 3.05969E+02 7.09172E+01
 -1         2 1.04931E-01 1.01814E-02 2.32101E-03-1.18038E-02 8.94865E-04 9.96416E-03
 -1         3 1.23474E+01 3.52303E+00 2.23186E+00-3.14895E+00 1.45832E-01 1.36934E+00
 -1         4-4.42148E+01-1.69439E+01-1.25712E+01-1.13881E+01 1.26733E+00-8.30735E+00
 -1         5 2.80895E+02-1.25100E+03 9.56040E+01 4.99367E+02-3.05969E+02-7.09172E+01
 -1         6 1.04931E-01 1.01814E-02 2.32101E-03-1.18038E-02-8.94865E-04-9.96416E-03
 -1         7 1.23474E+01 3.52303E+00 2.23186E+00-3.14895E+00-1.45832E-01-1.36934E+00
 -1         8-4.42148E+01-1.69439E+01-1.25712E+01-1.13881E+01-1.26733E+00 8.30735E+00
 -1         9-1.96816E+02-4.54684E+02-5.06770E+01 6.30819E+01-7.24987E+01-1.65973E+01
 -1        10 1.67312E+01-1.91382E+02-1.14749E+01 4.63842E+01 2.90071E+01-8.01547E+00
 -1        11-3.55210E+00-1.28293E+02 2.67538E-01 6.21088E+00-4.60827E+00 8.86522E-01
 -1        12 2.66268E+00-8.73956E+01-9.66601E-01 5.57957E+00 1.50951E+00-5.51163E-01
 -1        13 9.47265E-01-6.23178E+01 1.05951E-01 2.67311E+00-3.64254E-01 9.93504E-02
 -1        14 9.79103E-01-4.49151E+01-6.86427E-02 1.78697E+00 5.26615E-02-3.23127E-02
 -1        15 7.67375E-01-3.23834E+01 1.25639E-02 1.20107E+00-5.44877E-02 9.57096E-03
 -1        16 6.54359E-01-2.31156E+01-3.76191E-03 8.57696E-01-1.63386E-02 1.76651E-04
 -1        17 5.69784E-01-1.61562E+01 1.74392E-03 6.23380E-01-1.66443E-02 2.19093E-03
 -1        18 5.04664E-01-1.09113E+01-1.52215E-04 4.50035E-01-9.04813E-03 1.09795E-03
 -1        19 4.53791E-01-6.99298E+00 1.88182E-05 3.10951E-01-5.30897E-03 7.78688E-04
 -1        20 4.10331E-01-4.13431E+00-4.28234E-04 1.90845E-01-1.78490E-03 2.77279E-04
 -1        21 3.69929E-01-2.14139E+00-7.96526E-04 8.07154E-02 1.18050E-03-8.60605E-05
 -1        22 3.29516E-01-8.61911E-01-1.23401E-03-2.35609E-02 3.99436E-03-7.35222E-04
 -1        23 2.76335E-01-1.62734E-01-2.17145E-03-1.19936E-01 6.93691E-03-3.71264E-04
 -1        24 2.39267E-01 9.71958E-02 7.97156E-05-1.96003E-01 8.87827E-03-2.69831E-03
 -1        25 1.52114E-01 7.73240E-02-3.79023E-04-2.00892E-01 9.16320E-03 2.09926E-03
 -1        26-7.24383E+01-9.00555E+02-4.81051E+01 3.46382E+02 1.52278E+02 5.93867E-01
 -1        27 3.01685E+01-2.65922E+02 3.80833E+01-8.64974E+00-5.07832E+01 1.22531E+01
 -1        28-1.18320E+00-1.69493E+02-7.11421E+00 2.47545E+01 7.94565E+00-2.30652E+00
 -1        29 2.02778E+00-1.06726E+02 2.59671E+00 5.68699E+00-3.43939E+00 8.28102E-01
 -1        30 1.36739E+00-7.55196E+01-5.86662E-01 4.06396E+00 3.81150E-01-1.65862E-01
 -1        31 1.01349E+00-5.36799E+01 1.69556E-01 2.26449E+00-2.97463E-01 5.49512E-02
 -1        32 8.43294E-01-3.87236E+01-4.64078E-02 1.49195E+00-1.64413E-02-6.12380E-03
 -1        33 7.05393E-01-2.77738E+01 9.45580E-03 1.03377E+00-4.59929E-02 5.81791E-03
 -1        34 6.06576E-01-1.96519E+01-5.28409E-03 7.41531E-01-1.79143E-02 1.57854E-03
 -1        35 5.34747E-01-1.35418E+01-5.95146E-04 5.37354E-01-1.36527E-02 1.71311E-03
 -1        36 4.77707E-01-8.95697E+00-1.34439E-03 3.80751E-01-7.32655E-03 9.63160E-04
 -1        37 4.31437E-01-5.56608E+00-7.20497E-04 2.50998E-01-3.63138E-03 5.30627E-04
 -1        38 3.90322E-01-3.13826E+00-4.58163E-04 1.35821E-01-3.13723E-04 8.95560E-05
 -1        39 3.50830E-01-1.49995E+00-1.55335E-04 2.89591E-02 2.44322E-03-3.81552E-04
 -1        40 3.05642E-01-5.07599E-01 4.33643E-04-7.11150E-02 5.71095E-03-5.30687E-04
 -1        41 2.60054E-01-2.85085E-02 6.94601E-04-1.55427E-01 7.61424E-03-1.24441E-03
 -1        42 1.97217E-01 8.88887E-02-2.15655E-04-1.89361E-01 1.06739E-02 1.00258E-03
 -1        43 1.20233E-01 2.83194E-02-4.02050E-03-1.18746E-01 3.46676E-03 4.41807E-03
 -1        44 3.06454E-01 2.90031E-02-5.53737E-03 3.52757E-02 2.07829E-03 8.50498E-03
 -1        45-2.69566E+00-1.25174E-01-5.27424E-03-6.39345E-01-1.48475E-03-5.58362E-03
 -1        46-7.46539E+00-1.14303E+00-3.15882E-03-2.96371E+00-3.46668E-03-1.00339E-02
 -1        47-1.15680E+01-3.66963E+00-8.27434E-04-6.55867E+00-4.45434E-03-7.39268E-03
 -1        48-1.37208E+01-7.86407E+00 5.69040E-04-1.04388E+01-4.35510E-03-5.16368E-03
 -1        49-1.36612E+01-1.34510E+01 1.37583E-03-1.36183E+01-3.67891E-03-2.91442E-03
 -1        50-1.17931E+01-1.98643E+01 1.63244E-03-1.53825E+01-2.83506E-03-1.40570E-03
 -1        51-8.82220E+00-2.64154E+01 1.62500E-03-1.53627E+01-2.02654E-03-4.23913E-04
 -1        52-5.52161E+00-3.24037E+01 1.48049E-03-1.35054E+01-1.28394E-03 1.62710E-04
 -1        53-2.59660E+00-3.71934E+01 1.27945E-03-1.00211E+01-5.62398E-04 4.87216E-04
 -1        54-6.04207E-01-4.02767E+01 1.03548E-03-5.32980E+00 1.89903E-04 5.97320E-04
 -1        55 1.00281E-01-4.13299E+01 7.28564E-04 3.51567E-04 1.00469E-03 4.89620E-04
 -1        56-6.03891E-01-4.02536E+01 3.12518E-04 5.32701E+00 1.89074E-03 1.25848E-04
 -1        57-2.59551E+00-3.71891E+01-2.92505E-04 1.00187E+01 2.84208E-03-5.62229E-04
 -1        58-5.53412E+00-3.25011E+01-1.19894E-03 1.35415E+01 3.84711E-03-1.66370E-03
 -1        59-8.91410E+00-2.67290E+01-2.65990E-03 1.55344E+01 4.90572E-03-3.38199E-03
 -1        60-1.21421E+01-2.05102E+01-4.97003E-03 1.58609E+01 6.00990E-03-5.87826E-03
 -1        61-1.46337E+01-1.44863E+01-9.22519E-03 1.46253E+01 7.27688E-03-1.02437E-02
 -1        62-1.58871E+01-9.21389E+00-1.62652E-02 1.21546E+01 8.44695E-03-1.60147E-02
 -1        63-1.55890E+01-5.06601E+00-3.11743E-02 8.91839E+00 1.07147E-02-3.21579E-02
 -1        64-1.34861E+01-2.26745E+00-6.17525E-02 5.53350E+00 8.83493E-03-4.70040E-02
 -1        65-9.66048E+00-6.07608E-01-1.27895E-01 2.29857E+00 1.89748E-02-1.60869E-01
 -1        66-3.40447E+00-7.31234E-01-3.86050E-01 7.08455E-01-7.28928E-02-2.11144E-01
 -1        67 2.01737E-01 3.18673E-03 1.95262E-03-3.16694E-02-1.14485E-03 5.67810E-03
 -1        68-1.10189E+00-2.83297E-02 1.76411E-03-2.43386E-01-9.85095E-04-3.89008E-03
 -1        69-5.08673E+00-6.15399E-01 1.88056E-03-1.76950E+00-2.10081E-03-3.41913E-03
 -1        70-9.55108E+00-2.37942E+00 6.52044E-04-4.74865E+00-2.70028E-03-5.28131E-03
 -1        71-1.26827E+01-5.74332E+00-3.33305E-05-8.50461E+00-2.82847E-03-4.10895E-03
 -1        72-1.37220E+01-1.06423E+01-6.72925E-04-1.20469E+01-2.64057E-03-3.10294E-03
 -1        73-1.27469E+01-1.66521E+01-9.78836E-04-1.45250E+01-2.32002E-03-2.06728E-03
 -1        74-1.03159E+01-2.31439E+01-1.12693E-03-1.53989E+01-1.96266E-03-1.28982E-03
 -1        75-7.16976E+00-2.94226E+01-1.15433E-03-1.44586E+01-1.60212E-03-7.05627E-04
 -1        76-4.04830E+00-3.48193E+01-1.12059E-03-1.17831E+01-1.24319E-03-2.88779E-04
 -1        77-1.58332E+00-3.87616E+01-1.04289E-03-7.68827E+00-8.86515E-04-1.53493E-06
 -1        78-2.31567E-01-4.08328E+01-9.23072E-04-2.66884E+00-5.41705E-04 1.79309E-04
 -1        79-2.31437E-01-4.08209E+01-7.46078E-04 2.66885E+00-2.29976E-04 2.77506E-04
 -1        80-1.58267E+00-3.87465E+01-4.85694E-04 7.68665E+00 1.73074E-05 3.24134E-04
 -1        81-4.05392E+00-3.48630E+01-9.05285E-05 1.18006E+01 1.62188E-04 3.75390E-04
 -1        82-7.22115E+00-2.96232E+01 5.01032E-04 1.45623E+01 1.62289E-04 5.04440E-04
 -1        83-1.05334E+01-2.36159E+01 1.48483E-03 1.57221E+01-3.23883E-05 9.09204E-04
 -1        84-1.33997E+01-1.74813E+01 2.96673E-03 1.52636E+01-4.52012E-04 1.66722E-03
 -1        85-1.52737E+01-1.18182E+01 5.96721E-03 1.34017E+01-1.24630E-03 3.91484E-03
 -1        86-1.57433E+01-7.08885E+00 1.03026E-02 1.05351E+01-2.00557E-03 6.29561E-03
 -1        87-1.45020E+01-3.59237E+00 2.14776E-02 7.20184E+00-4.43038E-03 1.91623E-02
 -1        88-1.14188E+01-1.29168E+00 4.12541E-02 3.86273E+00-5.51897E-04 2.05385E-02
 -1        89-5.90714E+00-3.72876E-01 8.94188E-02 1.42309E+00-1.67963E-02 1.31263E-01
 -1        90 3.63930E+00 8.56469E-01 2.99598E-01-1.10496E+00 9.96991E-02 1.12462E-02
 -1        91 2.44207E+00 6.33066E-01 2.16437E-01-3.21989E+00 2.16963E-01 4.21314E-01
 -1        92-9.16445E-01 3.02719E-01-1.80313E-01-4.44889E+00 1.27522E-01-7.44573E-02
 -1        93-2.87828E+00-3.90021E-01-4.84181E-01-5.46478E+00 9.71527E-02-4.26507E-01
 -1        94-3.93411E+00-8.55143E-01-6.89047E-01-6.57122E+00 7.01149E-02-6.33041E-01
 -1        95-4.33526E+00-1.09657E+00-7.82855E-01-7.73480E+00 4.92004E-02-7.27978E-01
 -1        96-4.20920E+00-1.13752E+00-7.79884E-01-8.94653E+00 2.95073E-02-7.24480E-01
 -1        97-3.62552E+00-1.00086E+00-6.82431E-01-1.02010E+01 9.90018E-03-6.29761E-01
 -1        98-2.62643E+00-7.04342E-01-4.91351E-01-1.14919E+01-1.02890E-02-4.45908E-01
 -1        99-1.23998E+00-2.61690E-01-2.04850E-01-1.28076E+01-3.10399E-02-1.72886E-01
 -1       100 5.07613E-01 3.13135E-01 1.78817E-01-1.41261E+01-5.18914E-02 1.89293E-01
 -1       101 2.57821E+00 9.99707E-01 6.58095E-01-1.54086E+01-7.16998E-02 6.37313E-01
 -1       102 4.90064E+00 1.76088E+00 1.22309E+00-1.65882E+01-8.83869E-02 1.15831E+00
 -1       103 7.32718E+00 2.52018E+00 1.83908E+00-1.75513E+01-9.67476E-02 1.71903E+00
 -1       104 9.55896E+00 3.12059E+00 2.43710E+00-1.81047E+01-8.88085E-02 2.23157E+00
 -1       105 1.09479E+01 3.24606E+00 2.80193E+00-1.78955E+01-2.65415E-02 2.51928E+00
 -1       106 9.86688E+00 2.00066E+00 2.59521E+00-1.65074E+01 9.90834E-02 1.97125E+00
 -1       107 5.63008E+00 9.30951E-01 1.87917E+00-1.21625E+01 7.17876E-01 2.66333E-01
 -1       108 7.23212E+00 1.59766E+00 1.03126E+00-2.93363E+00 2.67052E-01 9.01668E-01
 -1       109 9.18248E-01 9.48338E-01 2.08825E-01-4.06242E+00 1.18699E-01 1.69847E-01
 -1       110-1.87735E+00-2.28523E-03-3.13835E-01-4.96932E+00 1.07387E-01-2.50998E-01
 -1       111-3.40172E+00-6.16331E-01-5.83396E-01-6.02310E+00 7.47794E-02-5.30540E-01
 -1       112-4.13611E+00-9.82225E-01-7.38293E-01-7.15472E+00 5.47786E-02-6.80906E-01
 -1       113-4.27440E+00-1.12383E+00-7.84060E-01-8.34156E+00 3.58968E-02-7.26485E-01
 -1       114-3.91928E+00-1.07453E+00-7.33334E-01-9.57437E+00 1.72321E-02-6.77296E-01
 -1       115-3.12731E+00-8.56026E-01-5.88319E-01-1.08469E+01-2.21725E-03-5.37984E-01
 -1       116-1.93395E+00-4.84574E-01-3.48791E-01-1.21502E+01-2.25320E-02-3.09557E-01
 -1       117-3.66348E-01 2.61283E-02-1.29446E-02-1.34673E+01-4.34434E-02 7.98780E-03
 -1       118 1.54334E+00 6.59232E-01 4.19427E-01-1.47678E+01-6.42257E-02 4.12953E-01
 -1       119 3.74051E+00 1.38668E+00 9.42836E-01-1.59990E+01-8.33127E-02 8.97190E-01
 -1       120 6.11555E+00 2.15280E+00 1.53526E+00-1.70703E+01-9.82670E-02 1.43741E+00
 -1       121 8.44566E+00 2.84740E+00 2.14698E+00-1.78284E+01-1.00929E-01 1.97297E+00
 -1       122 1.02321E+01 3.20477E+00 2.61956E+00-1.80065E+01-8.63280E-02 2.36960E+00
 -1       123 1.03521E+01 2.77533E+00 2.72759E+00-1.71605E+01 3.79783E-02 2.24379E+00
 -1       124 6.30276E+00-1.59822E-01 1.31581E+00-1.47103E+01 1.29927E-01 1.08436E+00
 -1       125-1.77854E+01-6.62734E+00-4.48019E+00-1.14332E+01 1.31602E+00-3.97432E+00
 -1       126 2.02123E+02 3.44635E+02-2.51460E+01-1.14561E+02-7.50265E+01-1.99735E+01
 -1       127 1.24724E+02-2.56706E+01 1.58569E+01-2.00464E+01 9.17790E+00 6.92118E+00
 -1       128 8.29972E+01 2.14784E+01-7.30318E-01 2.83289E+01-5.05813E+00 8.84382E-01
 -1       129 6.73745E+01 1.93027E+01 1.66791E+00 3.56294E+01 8.48372E-01 1.02468E+00
 -1       130 5.56986E+01 3.26156E+01-7.21546E-02 4.24538E+01-2.95763E-01 1.65948E-01
 -1       131 4.67977E+01 4.66913E+01 1.44233E-01 4.65881E+01 1.10257E-01 1.30379E-01
 -1       132 3.70150E+01 6.31531E+01-3.30811E-03 4.82852E+01 2.22581E-02 4.55758E-02
 -1       133 2.67055E+01 8.03798E+01 7.14229E-03 4.61927E+01 4.63548E-02 2.83090E-02
 -1       134 1.65724E+01 9.65871E+01-5.39910E-03 3.98229E+01 3.36451E-02 1.19148E-02
 -1       135 7.97918E+00 1.09898E+02-6.03322E-03 2.93097E+01 2.61528E-02 2.96419E-03
 -1       136 2.20126E+00 1.18660E+02-7.20762E-03 1.55468E+01 1.43122E-02-2.88075E-03
 -1       137 1.67131E-01 1.21743E+02-7.37958E-03-7.54210E-03 1.99220E-03-5.00861E-03
 -1       138 2.21191E+00 1.18709E+02-7.34295E-03-1.55666E+01-1.04998E-02-3.73594E-03
 -1       139 7.99564E+00 1.09877E+02-7.08988E-03-2.93118E+01-2.20307E-02 7.78884E-04
 -1       140 1.65396E+01 9.62618E+01-6.61410E-03-3.96778E+01-3.18848E-02 8.08606E-03
 -1       141 2.63727E+01 7.94101E+01-5.86595E-03-4.55909E+01-3.94536E-02 1.79121E-02
 -1       142 3.57547E+01 6.11700E+01-4.00391E-03-4.66212E+01-4.45583E-02 2.91486E-02
 -1       143 4.29233E+01 4.34053E+01-2.69977E-03-4.30379E+01-4.68222E-02 4.47549E-02
 -1       144 4.63392E+01 2.77726E+01 1.26903E-02-3.57203E+01-4.96420E-02 5.79311E-02
 -1       145 4.47609E+01 1.53237E+01-4.65103E-03-2.61085E+01-4.21169E-02 1.05064E-01
 -1       146 3.73595E+01 7.16755E+00 1.85317E-01-1.56591E+01-8.08322E-02 1.52312E-01
 -1       147 2.33836E+01 1.61808E+00-8.90051E-02-6.90966E+00 4.26360E-02 4.52196E-01
 -1       148 2.69146E+00 4.08398E+00 2.98934E+00-5.74845E-01-3.67369E-01 2.27984E+00
 -1       149 3.06929E+02-3.11512E+02 6.24792E+01 2.83591E+01 9.36729E+01 3.96486E+01
 -1       150 1.06677E+02 1.78874E+01-2.56814E+01 6.95662E+01-1.56745E+01-1.27372E+01
 -1       151 1.01375E+02 3.27175E-03 5.03995E+00 2.53041E+01 5.95400E+00-4.72831E-01
 -1       152 6.97278E+01 1.73494E+01-2.52371E+00 3.68416E+01-1.48837E+00-1.58267E+00
 -1       153 6.12414E+01 2.67347E+01 4.47896E-01 3.98821E+01 3.78554E-01-7.82766E-02
 -1       154 5.08709E+01 3.96837E+01-2.09834E-01 4.47540E+01-1.15740E-01-1.11664E-01
 -1       155 4.18728E+01 5.50009E+01 2.27607E-02 4.74805E+01 4.83220E-02 9.29069E-03
 -1       156 3.18418E+01 7.17807E+01-2.37131E-02 4.72462E+01 2.22464E-02 8.89104E-03
 -1       157 2.16373E+01 8.84838E+01-8.82484E-03 4.30073E+01 3.45421E-02 1.12403E-02
 -1       158 1.22753E+01 1.03235E+02-1.25810E-02 3.45646E+01 2.73848E-02 4.55460E-03
 -1       159 5.08881E+00 1.14267E+02-1.25214E-02 2.24271E+01 1.92268E-02-7.54019E-04
 -1       160 1.18197E+00 1.20187E+02-1.31998E-02 7.76964E+00 7.77258E-03-4.08818E-03
 -1       161 1.18640E+00 1.20211E+02-1.33666E-02-7.78564E+00-4.34198E-03-4.32124E-03
 -1       162 5.09973E+00 1.14278E+02-1.32715E-02-2.24362E+01-1.61941E-02-1.40905E-03
 -1       163 1.22623E+01 1.03056E+02-1.29200E-02-3.44904E+01-2.67375E-02 4.41174E-03
 -1       164 2.14492E+01 8.78242E+01-1.24109E-02-4.26290E+01-3.52019E-02 1.26885E-02
 -1       165 3.10537E+01 7.02803E+01-1.18703E-02-4.61005E+01-4.10525E-02 2.24512E-02
 -1       166 3.93252E+01 5.22806E+01-1.20599E-02-4.48250E+01-4.38370E-02 3.38042E-02
 -1       167 4.46069E+01 3.55804E+01-1.17441E-02-3.93796E+01-4.41713E-02 4.18525E-02
 -1       168 4.55083E+01 2.15421E+01-2.49483E-02-3.09308E+01-4.02424E-02 5.93732E-02
 -1       169 4.10002E+01 1.11992E+01-3.68366E-03-2.09315E+01-4.83854E-02 4.10194E-02
 -1       170 3.00371E+01 4.13464E+00-2.11663E-01-1.15850E+01-1.00177E-02 1.16659E-01
 -1       171 1.24319E+01 2.64680E+00 2.28326E-01-3.65147E+00-2.09397E-01-1.05615E-01
 -1       172-1.96519E+01-5.83262E+00-3.12946E+00-5.70370E+00 4.59689E-01-1.23285E+00
 -1       173-1.96816E+02-4.54684E+02-5.06770E+01 6.30819E+01 7.24987E+01 1.65973E+01
 -1       174 1.67312E+01-1.91382E+02-1.14749E+01 4.63842E+01-2.90071E+01 8.01547E+00
 -1       175-3.55210E+00-1.28293E+02 2.67538E-01 6.21088E+00 4.60827E+00-8.86522E-01
 -1       176 2.66268E+00-8.73956E+01-9.66601E-01 5.57957E+00-1.50951E+00 5.51163E-01
 -1       177 9.47265E-01-6.23178E+01 1.05951E-01 2.67311E+00 3.64254E-01-9.93504E-02
 -1       178 9.79103E-01-4.49151E+01-6.86427E-02 1.78697E+00-5.26615E-02 3.23127E-02
 -1       179 7.67375E-01-3.23834E+01 1.25639E-02 1.20107E+00 5.44877E-02-9.57096E-03
 -1       180 6.54359E-01-2.31156E+01-3.76191E-03 8.57696E-01 1.63386E-02-1.76651E-04
 -1       181 5.69784E-01-1.61562E+01 1.74392E-03 6.23380E-01 1.66443E-02-2.19093E-03
 -1       182 5.04664E-01-1.09113E+01-1.52215E-04 4.50035E-01 9.04813E-03-1.09795E-03
 -1       183 4.53791E-01-6.99298E+00 1.88182E-05 3.10951E-01 5.30897E-03-7.78688E-04
 -1       184 4.10331E-01-4.13431E+00-4.28234E-04 1.90845E-01 1.78490E-03-2.77279E-04
 -1       185 3.69929E-01-2.14139E+00-7.96526E-04 8.07154E-02-1.18050E-03 8.60605E-05
 -1       186 3.29516E-01-8.61911E-01-1.23401E-03-2.35609E-02-3.99436E-03 7.35222E-04
 -1       187 2.76335E-01-1.62734E-01-2.17145E-03-1.19936E-01-6.93691E-03 3.71264E-04
 -1       188 2.39267E-01 9.71958E-02 7.97156E-05-1.96003E-01-8.87827E-03 2.69831E-03
 -1       189 1.52114E-01 7.73240E-02-3.79023E-04-2.00892E-01-9.16320E-03-2.09926E-03
 -1       190-7.24383E+01-9.00555E+02-4.81051E+01 3.46382E+02-1.52278E+02-5.93867E-01
 -1       191 3.01685E+01-2.65922E+02 3.80833E+01-8.64974E+00 5.07832E+01-1.22531E+01
 -1       192-1.18320E+00-1.69493E+02-7.11421E+00 2.47545E+01-7.94565E+00 2.30652E+00
 -1       193 2.02778E+00-1.06726E+02 2.59671E+00 5.68699E+00 3.43939E+00-8.28102E-01
 -1       194 1.36739E+00-7.55196E+01-5.86662E-01 4.06396E+00-3.81150E-01 1.65862E-01
 -1       195 1.01349E+00-5.36799E+01 1.69556E-01 2.26449E+00 2.97463E-01-5.49512E-02
 -1       196 8.43294E-01-3.87236E+01-4.64078E-02 1.49195E+00 1.64413E-02 6.12380E-03
 -1       197 7.05393E-01-2.77738E+01 9.45580E-03 1.03377E+00 4.59929E-02-5.81791E-03
 -1       198 6.06576E-01-1.96519E+01-5.28409E-03 7.41531E-01 1.79143E-02-1.57854E-03
 -1       199 5.34747E-01-1.35418E+01-5.95146E-04 5.37354E-01 1.36527E-02-1.71311E-03
 -1       200 4.77707E-01-8.95697E+00-1.34439E-03 3.80751E-01 7.32655E-03-9.63160E-04
 -1       201 4.31437E-01-5.56608E+00-7.20497E-04 2.50998E-01 3.63138E-03-5.30627E-04
 -1       202 3.90322E-01-3.13826E+00-4.58163E-04 1.35821E-01 3.13723E-04-8.95560E-05
 -1       203 3.50830E-01-1.49995E+00-1.55335E-04 2.89591E-02-2.44322E-03 3.81552E-04
 -1       204 3.05642E-01-5.07599E-01 4.33643E-04-7.11150E-02-5.71095E-03 5.30687E-04
 -1       205 2.60054E-01-2.85085E-02 6.94601E-04-1.55427E-01-7.61424E-03 1.24441E-03
 -1       206 1.97217E-01 8.88887E-02-2.15655E-04-1.89361E-01-1.06739E-02-1.00258E-03
 -1       207 1.20233E-01 2.83194E-02-4.02050E-03-1.18746E-01-3.46676E-03-4.41807E-03
 -1       208 3.06454E-01 2.90031E-02-5.53737E-03 3.52757E-02-2.07829E-03-8.50498E-03
 -1       209-2.69566E+00-1.25174E-01-5.27424E-03-6.39345E-01 1.48475E-03 5.58362E-03
 -1       210-7.46539E+00-1.14303E+00-3.15882E-03-2.96371E+00 3.46668E-03 1.00339E-02
 -1       211-1.15680E+01-3.66963E+00-8.27434E-04-6.55867E+00 4.45434E-03 7.39268E-03
 -1       212-1.37208E+01-7.86407E+00 5.69040E-04-1.04388E+01 4.35510E-03 5.16368E-03
 -1       213-1.36612E+01-1.34510E+01 1.37583E-03-1.36183E+01 3.67891E-03 2.91442E-03
 -1       214-1.17931E+01-1.98643E+01 1.63244E-03-1.53825E+01 2.83506E-03 1.40570E-03
 -1       215-8.82220E+00-2.64154E+01 1.62500E-03-1.53627E+01 2.02654E-03 4.23913E-04
 -1       216-5.52161E+00-3.24037E+01 1.48049E-03-1.35054E+01 1.28394E-03-1.62710E-04
 -1       217-2.59660E+00-3.71934E+01 1.27945E-03-1.00211E+01 5.62398E-04-4.87216E-04
 -1       218-6.04207E-01-4.02767E+01 1.03548E-03-5.32980E+00-1.89903E-04-5.97320E-04
 -1       219 1.00281E-01-4.13299E+01 7.28564E-04 3.51567E-04-1.00469E-03-4.89620E-04
 -1       220-6.03891E-01-4.02536E+01 3.12518E-04 5.32701E+00-1.89074E-03-1.25848E-04
 -1       221-2.59551E+00-3.71891E+01-2.92505E-04 1.00187E+01-2.84208E-03 5.62229E-04
 -1       222-5.53412E+00-3.25011E+01-1.19894E-03 1.35415E+01-3.84711E-03 1.66370E-03
 -1       223-8.91410E+00-2.67290E+01-2.65990E-03 1.55344E+01-4.90572E-03 3.38199E-03
 -1       224-1.21421E+01-2.05102E+01-4.97003E-03 1.58609E+01-6.00990E-03 5.87826E-03
 -1       225-1.46337E+01-1.44863E+01-9.22519E-03 1.46253E+01-7.27688E-03 1.02437E-02
 -1       226-1.58871E+01-9.21389E+00-1.62652E-02 1.21546E+01-8.44695E-03 1.60147E-02
 -1       227-1.55890E+01-5.06601E+00-3.11743E-02 8.91839E+00-1.07147E-02 3.21579E-02
 -1       228-1.34861E+01-2.26745E+00-6.17525E-02 5.53350E+00-8.83493E-03 4.70040E-02
 -1       229-9.66048E+00-6.07608E-01-1.27895E-01 2.29857E+00-1.89748E-02 1.60869E-01
 -1       230-3.40447E+00-7.31234E-01-3.86050E-01 7.08455E-01 7.28928E-02 2.11144E-01
 -1       231 2.01737E-01 3.18673E-03 1.95262E-03-3.16694E-02 1.14485E-03-5.67810E-03
 -1       232-1.10189E+00-2.83297E-02 1.76411E-03-2.43386E-01 9.85095E-04 3.89008E-03
 -1       233-5.08673E+00-6.15399E-01 1.88056E-03-1.76950E+00 2.10081E-03 3.41913E-03
 -1       234-9.55108E+00-2.37942E+00 6.52044E-04-4.74865E+00 2.70028E-03 5.28131E-03
 -1       235-1.26827E+01-5.74332E+00-3.33305E-05-8.50461E+00 2.82847E-03 4.10895E-03
 -1       236-1.37220E+01-1.06423E+01-6.72925E-04-1.20469E+01 2.64057E-03 3.10294E-03
 -1       237-1.27469E+01-1.66521E+01-9.78836E-04-1.45250E+01 2.32002E-03 2.06728E-03
 -1       238-1.03159E+01-2.31439E+01-1.12693E-03-1.53989E+01 1.96266E-03 1.28982E-03
 -1       239-7.16976E+00-2.94226E+01-1.15433E-03-1.44586E+01 1.60212E-03 7.05627E-04
 -1       240-4.04830E+00-3.48193E+01-1.12059E-03-1.17831E+01 1.24319E-03 2.88779E-04
 -1       241-1.58332E+00-3.87616E+01-1.04289E-03-7.68827E+00 8.86515E-04 1.53494E-06
 -1       242-2.31567E-01-4.08328E+01-9.23072E-04-2.66884E+00 5.41705E-04-1.79309E-04
 -1       243-2.31437E-01-4.08209E+01-7.46078E-04 2.66885E+00 2.29976E-04-2.77506E-04
 -1       244-1.58267E+00-3.87465E+01-4.85694E-04 7.68665E+00-1.73074E-05-3.24134E-04
 -1       245-4.05392E+00-3.48630E+01-9.05285E-05 1.18006E+01-1.62188E-04-3.75390E-04
 -1       246-7.22115E+00-2.96232E+01 5.01032E-04 1.45623E+01-1.62289E-04-5.04440E-04
 -1       247-1.05334E+01-2.36159E+01 1.48483E-03 1.57221E+01 3.23883E-05-9.09204E-04
 -1       248-1.33997E+01-1.74813E+01 2.96673E-03 1.52636E+01 4.52012E-04-1.66722E-03
 -1       249-1.52737E+01-1.18182E+01 5.96721E-03 1.34017E+01 1.24630E-03-3.91484E-03
 -1       250-1.57433E+01-7.08885E+00 1.03026E-02 1.05351E+01 2.00557E-03-6.29561E-03
 -1       251-1.45020E+01-3.59237E+00 2.14776E-02 7.20184E+00 4.43038E-03-1.91623E-02
 -1       252-1.14188E+01-1.29168E+00 4.12541E-02 3.86273E+00 5.51897E-04-2.05385E-02
 -1       253-5.90714E+00-3.72876E-01 8.94188E-02 1.42309E+00 1.67963E-02-1.31263E-01
 -1       254 3.63930E+00 8.56469E-01 2.99598E-01-1.10496E+00-9.96991E-02-1.12462E-02
 -1       255 2.44207E+00 6.33066E-01 2.16437E-01-3.21989E+00-2.16963E-01-4.21314E-01
 -1       256-9.16445E-01 3.02719E-01-1.80313E-01-4.44889E+00-1.27522E-01 7.44573E-02
 -1       257-2.87828E+00-3.90021E-01-4.84181E-01-5.46478E+00-9.71527E-02 4.26507E-01
 -1       258-3.93411E+00-8.55143E-01-6.89047E-01-6.57122E+00-7.01149E-02 6.33041E-01
 -1       259-4.33526E+00-1.09657E+00-7.82855E-01-7.73480E+00-4.92004E-02 7.27978E-01
 -1       260-4.20920E+00-1.13752E+00-7.79884E-01-8.94653E+00-2.95073E-02 7.24480E-01
 -1       261-3.62552E+00-1.00086E+00-6.82431E-01-1.02010E+01-9.90018E-03 6.29761E-01
 -1       262-2.62643E+00-7.04342E-01-4.91351E-01-1.14919E+01 1.02890E-02 4.45908E-01
 -1       263-1.23998E+00-2.61690E-01-2.04850E-01-1.28076E+01 3.10399E-02 1.72886E-01
 -1       264 5.07613E-01 3.13135E-01 1.78817E-01-1.41261E+01 5.18914E-02-1.89293E-01
 -1       265 2.57821E+00 9.99707E-01 6.58095E-01-1.54086E+01 7.16998E-02-6.37313E-01
 -1       266 4.90064E+00 1.76088E+00 1.22309E+00-1.65882E+01 8.83869E-02-1.15831E+00
 -1       267 7.32718E+00 2.52018E+00 1.83908E+00-1.75513E+01 9.67476E-02-1.71903E+00
 -1       268 9.55896E+00 3.12059E+00 2.43710E+00-1.81047E+01 8.88085E-02-2.23157E+00
 -1       269 1.09479E+01 3.24606E+00 2.80193E+00-1.78955E+01 2.65415E-02-2.51928E+00
 -1       270 9.86688E+00 2.00066E+00 2.59521E+00-1.65074E+01-9.90834E-02-1.97125E+00
 -1       271 5.63008E+00 9.30951E-01 1.87917E+00-1.21625E+01-7.17876E-01-2.66333E-01
 -1       272 7.23212E+00 1.59766E+00 1.03126E+00-2.93363E+00-2.67052E-01-9.01668E-01
 -1       273 9.18248E-01 9.48338E-01 2.08825E-01-4.06242E+00-1.18699E-01-1.69847E-01
 -1       274-1.87735E+00-2.28523E-03-3.13835E-01-4.96932E+00-1.07387E-01 2.50998E-01
 -1       275-3.40172E+00-6.16331E-01-5.83396E-01-6.02310E+00-7.47794E-02 5.30540E-01
 -1       276-4.13611E+00-9.82225E-01-7.38293E-01-7.15472E+00-5.47786E-02 6.80906E-01
 -1       277-4.27440E+00-1.12383E+00-7.84060E-01-8.34156E+00-3.58968E-02 7.26485E-01
 -1       278-3.91928E+00-1.07453E+00-7.33334E-01-9.57437E+00-1.72321E-02 6.77296E-01
 -1       279-3.12731E+00-8.56026E-01-5.88319E-01-1.08469E+01 2.21725E-03 5.37984E-01
 -1       280-1.93395E+00-4.84574E-01-3.48791E-01-1.21502E+01 2.25320E-02 3.09557E-01
 -1       281-3.66348E-01 2.61283E-02-1.29446E-02-1.34673E+01 4.34434E-02-7.98780E-03
 -1       282 1.54334E+00 6.59232E-01 4.19427E-01-1.47678E+01 6.42257E-02-4.12953E-01
 -1       283 3.74051E+00 1.38668E+00 9.42836E-01-1.59990E+01 8.33127E-02-8.97190E-01
 -1       284 6.11555E+00 2.15280E+00 1.53526E+00-1.70703E+01 9.82670E-02-1.43741E+00
 -1       285 8.44566E+00 2.84740E+00 2.14698E+00-1.78284E+01 1.00929E-01-1.97297E+00
 -1       286 1.02321E+01 3.20477E+00 2.61956E+00-1.80065E+01 8.63280E-02-2.36960E+00
 -1       287 1.03521E+01 2.77533E+00 2.72759E+00-1.71605E+01-3.79783E-02-2.24379E+00
 -1       288 6.30276E+00-1.59822E-01 1.31581E+00-1.47103E+01-1.29927E-01-1.08436E+00
 -1       289-1.77854E+01-6.62734E+00-4.48019E+00-1.14332E+01-1.31602E+00 3.97432E+00
 -1       290 2.69146E+00 4.08398E+00 2.98934E+00-5.74845E-01 3.67369E-01-2.27984E+00
 -1       291 2.33836E+01 1.61808E+00-8.90051E-02-6.90966E+00-4.26360E-02-4.52196E-01
 -1       292 3.73595E+01 7.16755E+00 1.85317E-01-1.56591E+01 8.08322E-02-1.52312E-01
 -1       293 4.47609E+01 1.53237E+01-4.65103E-03-2.61085E+01 4.21169E-02-1.05064E-01
 -1       294 4.63392E+01 2.77726E+01 1.26903E-02-3.57203E+01 4.96420E-02-5.79311E-02
 -1       295 4.29233E+01 4.34053E+01-2.69977E-03-4.30379E+01 4.68222E-02-4.47549E-02
 -1       296 3.57547E+01 6.11700E+01-4.00391E-03-4.66212E+01 4.45583E-02-2.91486E-02
 -1       297 2.63727E+01 7.94101E+01-5.86595E-03-4.55909E+01 3.94536E-02-1.79121E-02
 -1       298 1.65396E+01 9.62618E+01-6.61410E-03-3.96778E+01 3.18848E-02-8.08606E-03
 -1       299 7.99564E+00 1.09877E+02-7.08988E-03-2.93118E+01 2.20307E-02-7.78884E-04
 -1       300 2.21191E+00 1.18709E+02-7.34295E-03-1.55666E+01 1.04998E-02 3.73594E-03
 -1       301 1.67131E-01 1.21743E+02-7.37958E-03-7.54210E-03-1.99220E-03 5.00861E-03
 -1       302 2.20126E+00 1.18660E+02-7.20762E-03 1.55468E+01-1.43122E-02 2.88075E-03
 -1       303 7.97918E+00 1.09898E+02-6.03322E-03 2.93097E+01-2.61528E-02-2.96419E-03
 -1       304 1.65724E+01 9.65871E+01-5.39910E-03 3.98229E+01-3.36451E-02-1.19148E-02
 -1       305 2.67055E+01 8.03798E+01 7.14229E-03 4.61927E+01-4.63548E-02-2.83090E-02
 -1       306 3.70150E+01 6.31531E+01-3.30811E-03 4.82852E+01-2.22581E-02-4.55758E-02
 -1       307 4.67977E+01 4.66913E+01 1.44233E-01 4.65881E+01-1.10257E-01-1.30379E-01
 -1       308 5.56986E+01 3.26156E+01-7.21546E-02 4.24538E+01 2.95763E-01-1.65948E-01
 -1       309 6.73745E+01 1.93027E+01 1.66791E+00 3.56294E+01-8.48372E-01-1.02468E+00
 -1       310 8.29972E+01 2.14784E+01-7.30318E-01 2.83289E+01 5.05813E+00-8.84382E-01
 -1       311 1.24724E+02-2.56706E+01 1.58569E+01-2.00464E+01-9.17790E+00-6.92118E+00
 -1       312 2.02123E+02 3.44635E+02-2.51460E+01-1.14561E+02 7.50265E+01 1.99735E+01
 -1       313-1.96519E+01-5.83262E+00-3.12946E+00-5.70370E+00-4.59689E-01 1.23285E+00
 -1       314 1.24319E+01 2.64680E+00 2.28326E-01-3.65147E+00 2.09397E-01 1.05615E-01
 -1       315 3.00371E+01 4.13464E+00-2.11663E-01-1.15850E+01 1.00177E-02-1.16659E-01
 -1       316 4.10002E+01 1.11992E+01-3.68366E-03-2.09315E+01 4.83854E-02-4.10194E-02
 -1       317 4.55083E+01 2.15421E+01-2.49483E-02-3.09308E+01 4.02424E-02-5.93732E-02
 -1       318 4.46069E+01 3.55804E+01-1.17441E-02-3.93796E+01 4.41713E-02-4.18525E-02
 -1       319 3.93252E+01 5.22806E+01-1.20599E-02-4.48250E+01 4.38370E-02-3.38042E-02
 -1       320 3.10537E+01 7.02803E+01-1.18703E-02-4.61005E+01 4.10525E-02-2.24512E-02
 -1       321 2.14492E+01 8.78242E+01-1.24109E-02-4.26290E+01 3.52019E-02-1.26885E-02
 -1       322 1.22623E+01 1.03056E+02-1.29200E-02-3.44904E+01 2.67375E-02-4.41174E-03
 -1       323 5.09973E+00 1.14278E+02-1.32715E-02-2.24362E+01 1.61941E-02 1.40905E-03
 -1       324 1.18640E+00 1.20211E+02-1.33666E-02-7.78564E+00 4.34198E-03 4.32124E-03
 -1       325 1.18197E+00 1.20187E+02-1.31998E-02 7.76964E+00-7.77258E-03 4.08818E-03
 -1       326 5.08881E+00 1.14267E+02-1.25214E-02 2.24271E+01-1.92268E-02 7.54019E-04
 -1       327 1.22753E+01 1.03235E+02-1.25810E-02 3.45646E+01-2.73848E-02-4.55460E-03
 -1       328 2.16373E+01 8.84838E+01-8.82484E-03 4.30073E+01-3.45421E-02-1.12403E-02
 -1       329 3.18418E+01 7.17807E+01-2.37131E-02 4.72462E+01-2.22464E-02-8.89104E-03
 -1       330 4.18728E+01 5.50009E+01 2.27607E-02 4.74805E+01-4.83220E-02-9.29069E-03
 -1       331 5.08709E+01 3.96837E+01-2.09834E-01 4.47540E+01 1.15740E-01 1.11664E-01
 -1       332 6.12414E+01 2.67347E+01 4.47896E-01 3.98821E+01-3.78554E-01 7.82766E-02
 -1       333 6.97278E+01 1.73494E+01-2.52371E+00 3.68416E+01 1.48837E+00 1.58267E+00
 -1       334 1.01375E+02 3.27174E-03 5.03995E+00 2.53041E+01-5.95400E+00 4.72831E-01
 -1       335 1.06677E+02 1.78874E+01-2.56814E+01 6.95662E+01 1.56745E+01 1.27372E+01
 -1       336 3.06929E+02-3.11512E+02 6.24792E+01 2.83591E+01-9.36729E+01-3.96486E+01
 -1       337 2.52183E+02-5.88657E+02 6.23198E+01 1.98308E+02-8.57605E+00 7.88479E+01
 -1       338 2.15960E+02-7.19237E+02-4.01243E+01 2.65706E+02-1.18532E+00 1.26645E+01
 -1       339 2.19070E+02-6.96794E+02-5.88278E+01 2.52633E+02-1.94220E-10 2.19462E-10
 -1       340 2.15960E+02-7.19237E+02-4.01243E+01 2.65706E+02 1.18532E+00-1.26645E+01
 -1       341 2.52183E+02-5.88657E+02 6.23198E+01 1.98308E+02 8.57605E+00-7.88479E+01
 -1       342 2.91645E+02-8.90785E+02 1.03063E+02 3.40128E+02 7.48028E+01 9.73848E+01
 -1       343 2.09064E+02-6.81626E+02-1.11540E+01 2.40852E+02-2.65456E-01 2.11849E+01
 -1       344 2.17416E+02-7.09379E+02-5.13259E+01 2.59035E+02 1.65514E+00 8.35398E+00
 -1       345 2.17416E+02-7.09379E+02-5.13259E+01 2.59035E+02-1.65514E+00-8.35398E+00
 -1       346 2.09064E+02-6.81626E+02-1.11540E+01 2.40852E+02 2.65456E-01-2.11849E+01
 -1       347 2.91645E+02-8.90785E+02 1.03063E+02 3.40128E+02-7.48028E+01-9.73848E+01
 -1       348 1.18688E-01 4.94954E-03-2.38528E-02 1.45618E-03 1.92768E-03 2.75455E-02
 -1       349 1.08710E-01 4.29465E-03-7.00107E-02-2.06436E-03 2.41785E-03 1.55884E-02
 -1       350 1.09607E-01 4.31906E-03-8.81788E-02-2.34618E-03 1.17883E-11-1.51643E-11
 -1       351 1.08710E-01 4.29465E-03-7.00107E-02-2.06436E-03-2.41785E-03-1.55884E-02
 -1       352 1.18688E-01 4.94954E-03-2.38528E-02 1.45618E-03-1.92768E-03-2.75455E-02
 -1       353 1.13106E-01 7.70325E-03-7.75669E-03-4.44887E-03 1.44464E-03 2.06133E-02
 -1       354 1.13021E-01 4.96601E-03-4.84747E-02-8.65428E-04 2.78731E-03 2.01366E-02
 -1       355 1.08541E-01 3.82516E-03-8.05610E-02-2.36885E-03 1.34797E-03 7.23408E-03
 -1       356 1.08541E-01 3.82516E-03-8.05610E-02-2.36885E-03-1.34797E-03-7.23408E-03
 -1       357 1.13021E-01 4.96601E-03-4.84747E-02-8.65428E-04-2.78731E-03-2.01366E-02
 -1       358 1.13106E-01 7.70325E-03-7.75669E-03-4.44887E-03-1.44464E-03-2.06133E-02
 -1       359 1.22615E+01 3.42080E+00 2.70090E+00-3.61289E+00-3.45193E-02 7.09060E-01
 -1       360 1.26473E+01 3.70060E+00 3.61308E+00-3.76359E+00 1.09320E-02 3.46891E-01
 -1       361 1.27525E+01 3.77192E+00 3.85307E+00-3.80320E+00 2.90781E-13 1.02033E-11
 -1       362 1.26473E+01 3.70060E+00 3.61308E+00-3.76359E+00-1.09320E-02-3.46891E-01
 -1       363 1.22615E+01 3.42080E+00 2.70090E+00-3.61289E+00 3.45193E-02-7.09060E-01
 -1       364 1.21555E+01 3.32146E+00 2.11383E+00-3.38099E+00-2.38479E-02 9.90099E-01
 -1       365 1.25503E+01 3.65756E+00 3.38402E+00-3.68822E+00 3.98493E-02 5.74141E-01
 -1       366 1.27530E+01 3.78985E+00 3.85860E+00-3.78334E+00 1.30871E-02 1.75709E-01
 -1       367 1.27530E+01 3.78985E+00 3.85860E+00-3.78334E+00-1.30871E-02-1.75709E-01
 -1       368 1.25503E+01 3.65756E+00 3.38402E+00-3.68822E+00-3.98493E-02-5.74141E-01
 -1       369 1.21555E+01 3.32146E+00 2.11383E+00-3.38099E+00 2.38479E-02-9.90099E-01
 -1       370-4.50594E+01-1.69291E+01-1.48644E+01-1.42498E+01 3.01143E-02-2.79817E+00
 -1       371-4.77873E+01-1.84922E+01-1.85621E+01-1.47515E+01 6.02679E-02-1.06026E+00
 -1       372-4.83455E+01-1.87793E+01-1.91819E+01-1.48481E+01 1.70081E-11-8.46071E-11
 -1       373-4.77873E+01-1.84922E+01-1.85621E+01-1.47515E+01-6.02679E-02 1.06026E+00
 -1       374-4.50594E+01-1.69291E+01-1.48644E+01-1.42498E+01-3.01143E-02 2.79817E+00
 -1       375-4.41563E+01-1.63935E+01-1.23885E+01-1.28238E+01 4.87331E-01-5.43121E+00
 -1       376-4.68117E+01-1.81536E+01-1.78017E+01-1.44987E+01 1.73562E-01-2.07227E+00
 -1       377-4.81588E+01-1.87357E+01-1.91128E+01-1.47969E+01 4.86769E-02-5.15642E-01
 -1       378-4.81588E+01-1.87357E+01-1.91128E+01-1.47969E+01-4.86769E-02 5.15642E-01
 -1       379-4.68117E+01-1.81536E+01-1.78017E+01-1.44987E+01-1.73562E-01 2.07227E+00
 -1       380-4.41563E+01-1.63935E+01-1.23885E+01-1.28238E+01-4.87331E-01 5.43121E+00
 -1       381-9.43358E+01 6.63175E+01 1.02562E+01 3.38447E+01 2.20768E+01 2.74684E+00
 -1       382 3.19028E+01 2.38805E+01-2.07787E-01 1.25155E+01-8.01606E-01-2.58060E+00
 -1       383 5.10923E+01 1.53355E+01 2.83539E-01 1.03232E+01 7.81689E-01-2.43985E-01
 -1       384 4.76770E+01 2.26739E+01-6.31000E-02 2.32394E+01-1.21456E-01-3.31934E-01
 -1       385 4.16493E+01 3.28987E+01 4.73140E-04 2.84499E+01 4.75784E-02-1.24935E-02
 -1       386 3.54555E+01 4.45363E+01-6.26607E-03 3.14118E+01-1.02526E-02-3.97252E-02
 -1       387 2.94916E+01 5.65065E+01-2.98185E-03 3.15887E+01 6.24821E-03-1.37333E-02
 -1       388 2.37533E+01 6.80537E+01-4.15926E-04 2.93064E+01 2.78280E-03-1.79070E-02
 -1       389 1.85372E+01 7.83131E+01-1.20066E-04 2.46003E+01 4.14901E-03-1.81542E-02
 -1       390 1.43026E+01 8.64204E+01 4.82069E-04 1.77553E+01 2.94937E-03-2.01477E-02
 -1       391 1.15281E+01 9.16213E+01 5.87707E-04 9.29512E+00 1.64190E-03-2.13096E-02
 -1       392 1.05632E+01 9.33952E+01 7.04344E-04-2.08501E-02-1.08265E-04-2.19252E-02
 -1       393 1.15118E+01 9.15477E+01 7.30334E-04-9.29056E+00-1.90086E-03-2.18917E-02
 -1       394 1.41734E+01 8.62515E+01 7.34140E-04-1.75951E+01-3.59942E-03-2.13084E-02
 -1       395 1.80460E+01 7.80290E+01 6.98034E-04-2.41360E+01-5.07269E-03-2.02556E-02
 -1       396 2.23861E+01 6.76804E+01 6.59456E-04-2.83546E+01-6.12413E-03-1.89849E-02
 -1       397 2.63073E+01 5.61708E+01 3.67022E-04-3.00169E+01-7.03381E-03-1.73836E-02
 -1       398 2.88959E+01 4.45003E+01 6.97004E-04-2.92498E+01-6.41847E-03-1.70770E-02
 -1       399 2.93174E+01 3.35532E+01-3.46490E-03-2.65499E+01-9.36290E-03-1.49736E-02
 -1       400 2.68846E+01 2.40487E+01 5.64358E-03-2.27388E+01 1.88402E-03-2.54616E-02
 -1       401 2.12335E+01 1.60471E+01-5.79287E-02-1.91442E+01-3.68124E-02-1.77015E-02
 -1       402 1.24400E+01 1.01265E+01 9.73583E-02-1.71393E+01 1.15722E-01-5.83612E-02
 -1       403 4.67607E+00 4.64843E-01-4.69219E-01-1.94946E+01-8.77929E-02-2.84826E-02
 -1       404-5.03087E+01-3.06042E+01-7.39079E-01 6.25166E+01-7.99363E+00 5.08991E-01
 -1       405-4.18219E+00 2.27748E+01 1.37839E+00 1.94779E+00 2.61837E+00 5.20278E-01
 -1       406 2.26915E+01 1.99911E+01 2.07831E-01 3.57419E+00-7.68953E-01 3.44306E-02
 -1       407 2.87168E+01 2.48936E+01-5.04779E-02 1.21073E+01 1.40400E-01 5.81440E-02
 -1       408 2.85850E+01 3.25808E+01 4.51951E-02 1.73749E+01-6.99361E-02 1.85543E-02
 -1       409 2.61356E+01 4.11349E+01-1.04087E-02 1.96190E+01 6.02497E-03 4.87330E-03
 -1       410 2.35044E+01 4.95559E+01 3.88702E-03 1.95097E+01-5.72694E-03 3.52046E-04
 -1       411 2.10477E+01 5.71525E+01-1.12066E-03 1.76397E+01-5.59107E-05-2.64525E-03
 -1       412 1.90000E+01 6.35209E+01-6.36071E-07 1.44167E+01-4.35088E-04-3.47733E-03
 -1       413 1.74539E+01 6.83198E+01-4.04868E-04 1.01777E+01-4.86508E-05-4.08491E-03
 -1       414 1.64874E+01 7.12945E+01-3.80365E-04 5.25454E+00-5.50462E-05-4.31804E-03
 -1       415 1.61402E+01 7.22795E+01-4.33354E-04 4.57995E-03-6.72003E-05-4.45176E-03
 -1       416 1.63881E+01 7.12285E+01-4.46708E-04-5.19220E+00-1.02790E-04-4.50199E-03
 -1       417 1.71175E+01 6.82307E+01-4.63498E-04-9.96153E+00-1.37353E-04-4.51268E-03
 -1       418 1.81172E+01 6.35110E+01-4.81682E-04-1.39776E+01-1.46897E-04-4.51985E-03
 -1       419 1.90918E+01 5.74089E+01-5.79436E-04-1.70077E+01-1.31938E-04-4.52671E-03
 -1       420 1.96926E+01 5.03385E+01-7.85726E-04-1.89499E+01-3.87024E-06-4.78101E-03
 -1       421 1.95603E+01 4.27348E+01-1.30335E-03-1.98622E+01 1.87200E-04-4.96478E-03
 -1       422 1.83785E+01 3.49878E+01-3.87106E-03-1.99797E+01 3.82181E-04-7.64817E-03
 -1       423 1.59863E+01 2.73422E+01-2.42423E-03-1.97474E+01 1.93667E-03-7.86365E-03
 -1       424 1.24835E+01 1.97521E+01-3.91997E-02-1.97735E+01-6.16119E-03-2.97341E-02
 -1       425 9.22335E+00 1.16290E+01 2.26767E-02-2.05419E+01 3.50801E-02-4.02297E-02
 -1       426 7.63975E+00 1.93952E+00-6.05586E-01-2.06790E+01 1.10963E-02-4.23403E-01
 -1       427-1.88883E+01-4.07923E+01 1.49559E+00 4.86626E+01 1.07163E+00-1.93466E-01
 -1       428-2.17017E+01 1.47592E+01-7.08445E-01 2.14896E+01-3.36819E-01-2.00993E-01
 -1       429-1.05237E+00 2.46848E+01-2.27577E-01 8.62482E+00 1.26449E-01 1.25978E-03
 -1       430 1.17969E+01 2.78838E+01-5.01075E-02 8.32372E+00-4.02405E-04-7.70995E-03
 -1       431 1.65922E+01 3.24474E+01-6.31157E-04 1.02518E+01 1.55150E-02-2.28774E-03
 -1       432 1.79004E+01 3.79273E+01-2.29870E-03 1.12115E+01 3.63454E-03-1.58874E-03
 -1       433 1.81342E+01 4.32500E+01 2.81358E-03 1.07984E+01 2.04697E-03-1.14868E-03
 -1       434 1.81777E+01 4.78320E+01 1.88192E-03 9.36945E+00 8.63441E-04-4.94973E-04
 -1       435 1.83245E+01 5.14203E+01 2.58580E-03 7.32725E+00 3.50717E-04-3.82574E-04
 -1       436 1.85478E+01 5.39483E+01 2.67218E-03 4.97721E+00 1.99260E-04-2.74745E-04
 -1       437 1.87359E+01 5.54305E+01 2.83849E-03 2.50770E+00 7.96905E-05-2.62705E-04
 -1       438 1.87697E+01 5.59043E+01 2.89303E-03 2.20752E-02 2.43739E-05-2.51947E-04
 -1       439 1.85620E+01 5.54066E+01 2.87751E-03-2.42627E+00-2.17578E-05-2.46553E-04
 -1       440 1.80620E+01 5.39699E+01 2.78433E-03-4.80611E+00-3.85899E-05-2.42230E-04
 -1       441 1.72476E+01 5.16272E+01 2.58374E-03-7.09286E+00-2.21676E-05-2.63817E-04
 -1       442 1.61138E+01 4.84194E+01 2.30023E-03-9.26398E+00 8.37613E-05-3.43676E-04
 -1       443 1.46639E+01 4.43987E+01 1.60755E-03-1.13046E+01 2.53631E-04-6.78534E-04
 -1       444 1.29127E+01 3.96241E+01 1.07364E-03-1.32202E+01 7.83108E-04-1.25687E-03
 -1       445 1.09044E+01 3.41354E+01-2.35226E-03-1.50590E+01 1.06098E-03-3.91408E-03
 -1       446 8.80792E+00 2.79040E+01-3.13517E-03-1.69060E+01 3.23404E-03-6.15047E-03
 -1       447 7.01696E+00 2.07579E+01-2.54809E-02-1.88286E+01 1.06309E-03-2.90024E-02
 -1       448 6.40848E+00 1.23570E+01-7.85372E-02-2.04000E+01 1.90737E-02-5.39022E-02
 -1       449 6.75524E+00 3.55942E+00-6.30773E-01-1.99200E+01-2.30695E-03-5.40997E-01
 -1       450-1.38635E+01-3.80109E+01-2.66248E-01 3.61540E+01-4.86521E-01 8.40757E-04
 -1       451-1.95732E+01 8.03682E+00 7.43083E-02 2.48524E+01 2.15987E-01 2.79052E-02
 -1       452-8.94178E+00 2.36219E+01 1.91089E-01 1.13566E+01-1.84050E-02 1.15749E-02
 -1       453 1.40853E+00 2.80292E+01 2.28463E-02 6.68131E+00 5.99246E-03 5.16635E-03
 -1       454 7.68708E+00 3.13257E+01 4.28956E-03 5.74110E+00-5.92726E-03 8.66919E-05
 -1       455 1.11906E+01 3.45776E+01-3.79486E-04 5.32115E+00-2.20125E-03 6.42324E-04
 -1       456 1.34626E+01 3.75028E+01-2.86919E-05 4.51772E+00-1.34528E-03 3.94750E-04
 -1       457 1.53250E+01 3.97674E+01-9.21490E-05 3.39859E+00-7.77911E-04 2.67937E-04
 -1       458 1.70193E+01 4.12925E+01 2.81588E-04 2.24924E+00-3.90475E-04 2.37791E-04
 -1       459 1.84515E+01 4.21821E+01 3.51122E-04 1.28375E+00-2.41276E-04 2.12166E-04
 -1       460 1.94094E+01 4.26103E+01 4.46948E-04 5.67353E-01-1.09727E-04 2.11068E-04
 -1       461 1.96934E+01 4.27312E+01 4.69672E-04 2.69112E-02-2.02484E-05 2.04110E-04
 -1       462 1.91895E+01 4.26264E+01 4.64535E-04-4.99133E-01 6.96681E-05 1.83183E-04
 -1       463 1.78961E+01 4.22852E+01 4.16569E-04-1.20319E+00 1.65234E-04 1.36405E-04
 -1       464 1.59192E+01 4.16115E+01 3.03775E-04-2.25725E+00 2.89008E-04 3.42676E-05
 -1       465 1.34475E+01 4.04463E+01 9.86624E-05-3.77627E+00 4.60397E-04-1.53795E-04
 -1       466 1.07210E+01 3.85986E+01-3.81402E-04-5.79951E+00 7.42697E-04-6.30439E-04
 -1       467 8.00395E+00 3.58717E+01-1.10133E-03-8.28982E+00 1.13249E-03-1.36791E-03
 -1       468 5.57924E+00 3.20758E+01-3.34708E-03-1.11409E+01 1.83624E-03-4.07990E-03
 -1       469 3.78729E+00 2.70209E+01-6.35584E-03-1.41653E+01 2.36235E-03-6.32402E-03
 -1       470 3.06773E+00 2.05434E+01-2.18379E-02-1.70070E+01 4.35881E-03-2.78577E-02
 -1       471 3.80580E+00 1.27554E+01-7.21011E-02-1.88910E+01 2.07139E-03-4.21663E-02
 -1       472 4.83840E+00 4.89399E+00-5.39704E-01-1.87290E+01 7.85064E-03-4.87644E-01
 -1       473-8.20267E+00-3.11954E+01 9.35054E-02 2.77749E+01 9.60995E-02-3.89145E-02
 -1       474-1.72518E+01 4.10886E+00-4.95786E-02 2.43533E+01-1.81647E-02-2.27242E-02
 -1       475-1.35591E+01 2.10716E+01-3.37112E-03 1.31753E+01 5.50230E-06 5.76224E-03
 -1       476-5.76958E+00 2.70918E+01-2.29527E-02 6.22178E+00-8.79754E-05-1.29515E-03
 -1       477 8.83224E-01 2.96403E+01-3.48582E-03 2.97065E+00 2.00167E-03 1.01432E-03
 -1       478 5.68681E+00 3.12323E+01-1.10731E-03 1.22805E+00 1.27975E-03 1.67775E-04
 -1       479 9.39273E+00 3.22579E+01 1.12826E-04-2.98361E-02 5.28467E-04-2.05204E-06
 -1       480 1.25704E+01 3.26999E+01 3.52297E-04-9.68815E-01 2.79673E-04 7.07941E-06
 -1       481 1.53713E+01 3.26403E+01 4.27157E-04-1.46069E+00 7.61293E-05 3.38005E-05
 -1       482 1.76477E+01 3.23015E+01 4.47619E-04-1.40266E+00 3.08317E-05 7.12113E-05
 -1       483 1.91339E+01 3.19535E+01 4.64008E-04-8.40860E-01 1.44290E-05 9.39875E-05
 -1       484 1.95911E+01 3.18169E+01 4.58868E-04 2.18593E-02 3.24175E-05 1.02295E-04
 -1       485 1.88986E+01 3.19942E+01 4.34762E-04 8.76818E-01 6.74807E-05 9.31075E-05
 -1       486 1.70945E+01 3.24406E+01 3.77632E-04 1.38238E+00 1.25063E-04 5.90032E-05
 -1       487 1.43737E+01 3.29700E+01 2.64012E-04 1.23631E+00 2.15642E-04-2.62740E-05
 -1       488 1.10565E+01 3.32875E+01 5.87972E-05 2.33477E-01 3.57913E-04-1.94098E-04
 -1       489 7.54113E+00 3.30368E+01-3.53158E-04-1.69839E+00 5.86795E-04-6.11683E-04
 -1       490 4.25611E+00 3.18505E+01-1.09840E-03-4.48514E+00 9.06932E-04-1.27013E-03
 -1       491 1.62723E+00 2.93917E+01-2.86501E-03-7.90474E+00 1.47966E-03-3.51427E-03
 -1       492 6.37457E-02 2.53929E+01-6.28813E-03-1.15734E+01 1.64784E-03-5.35638E-03
 -1       493-7.76325E-02 1.97434E+01-2.02187E-02-1.48915E+01 4.40027E-03-2.27547E-02
 -1       494 1.25841E+00 1.27911E+01-5.98567E-02-1.70088E+01-3.45955E-03-3.31746E-02
 -1       495 2.74011E+00 5.70917E+00-3.98016E-01-1.73292E+01 1.02283E-02-3.73286E-01
 -1       496-6.10060E+00-2.46447E+01-1.95934E-02 2.19322E+01-2.34246E-02-1.65288E-02
 -1       497-1.48984E+01 2.45091E+00-1.70007E-02 2.21036E+01 2.25449E-02-5.31972E-03
 -1       498-1.49732E+01 1.86146E+01 1.33681E-02 1.33654E+01-1.98849E-03 2.73612E-03
 -1       499-9.80744E+00 2.51686E+01 9.20003E-03 5.77738E+00 3.06193E-03 5.34729E-04
 -1       500-3.84612E+00 2.73223E+01 4.54072E-03 1.10518E+00 3.28054E-04 4.29927E-04
 -1       501 1.39959E+00 2.77621E+01 1.08788E-03-1.65828E+00-6.45000E-05 2.82440E-05
 -1       502 5.94307E+00 2.73520E+01 4.30349E-04-3.33827E+00-1.47343E-04 9.33146E-05
 -1       503 9.99688E+00 2.63769E+01 2.17716E-04-4.18949E+00-1.32391E-04 7.51697E-05
 -1       504 1.35623E+01 2.50878E+01 2.09870E-04-4.20550E+00-8.36337E-05 7.57270E-05
 -1       505 1.64228E+01 2.38065E+01 2.31717E-04-3.38863E+00-4.99734E-05 6.96957E-05
 -1       506 1.82732E+01 2.28695E+01 2.49024E-04-1.88188E+00-1.72185E-05 6.47480E-05
 -1       507 1.88535E+01 2.25366E+01 2.51790E-04 1.24636E-02 1.44525E-05 5.63467E-05
 -1       508 1.80454E+01 2.29186E+01 2.35107E-04 1.88165E+00 5.28829E-05 3.89396E-05
 -1       509 1.59183E+01 2.39433E+01 1.90922E-04 3.28231E+00 1.04119E-04 3.36432E-06
 -1       510 1.27297E+01 2.53610E+01 1.02157E-04 3.82493E+00 1.79722E-04-7.31744E-05
 -1       511 8.88908E+00 2.67831E+01-6.00805E-05 3.24497E+00 2.88517E-04-2.16910E-04
 -1       512 4.89976E+00 2.77416E+01-3.71755E-04 1.45054E+00 4.65496E-04-5.51487E-04
 -1       513 1.29495E+00 2.77558E+01-9.29419E-04-1.45490E+00 6.54655E-04-1.06173E-03
 -1       514-1.42075E+00 2.63991E+01-2.22530E-03-5.16667E+00 1.12890E-03-2.71776E-03
 -1       515-2.82570E+00 2.33703E+01-4.60167E-03-9.17409E+00 7.90821E-04-3.93312E-03
 -1       516-2.67157E+00 1.86097E+01-1.44052E-02-1.27573E+01 3.71808E-03-1.60030E-02
 -1       517-1.10611E+00 1.25363E+01-4.19754E-02-1.50958E+01-6.51736E-03-2.09900E-02
 -1       518 7.01732E-01 6.10887E+00-2.61209E-01-1.58633E+01 1.15403E-02-2.50314E-01
 -1       519-4.65995E+00-1.89876E+01 3.62289E-03 1.76416E+01 1.21701E-02-1.03398E-02
 -1       520-1.29777E+01 1.85652E+00-1.03384E-02 1.94203E+01 4.74249E-03-6.86080E-03
 -1       521-1.52326E+01 1.62760E+01 5.14241E-03 1.26651E+01-8.62883E-04 1.98668E-03
 -1       522-1.22339E+01 2.28114E+01 2.08248E-04 5.19051E+00 5.11062E-04-1.39425E-04
 -1       523-7.21791E+00 2.46514E+01-4.38500E-05-2.60065E-01 1.24830E-04 3.53011E-04
 -1       524-1.96938E+00 2.42405E+01-1.90893E-04-3.75045E+00 2.59771E-04 1.43042E-04
 -1       525 3.01162E+00 2.27198E+01 1.40794E-04-5.77886E+00 1.46738E-04 1.03668E-04
 -1       526 7.61862E+00 2.06290E+01 2.04256E-04-6.59205E+00 8.96886E-05 4.85026E-05
 -1       527 1.16947E+01 1.83707E+01 2.46822E-04-6.26168E+00 3.98162E-05 3.20834E-05
 -1       528 1.49513E+01 1.63517E+01 2.59021E-04-4.87734E+00 2.11662E-05 2.63188E-05
 -1       529 1.70501E+01 1.49566E+01 2.62548E-04-2.66289E+00 1.66792E-05 2.53673E-05
 -1       530 1.77189E+01 1.44691E+01 2.57766E-04 2.37329E-03 2.51686E-05 2.19219E-05
 -1       531 1.68449E+01 1.50012E+01 2.41403E-04 2.63065E+00 4.33845E-05 1.14106E-05
 -1       532 1.45220E+01 1.64585E+01 2.08125E-04 4.70839E+00 7.24171E-05-1.22781E-05
 -1       533 1.10514E+01 1.85464E+01 1.46458E-04 5.78728E+00 1.16841E-04-6.33346E-05
 -1       534 6.90242E+00 2.08118E+01 4.17862E-05 5.56361E+00 1.77030E-04-1.55003E-04
 -1       535 2.64674E+00 2.27113E+01-1.60089E-04 3.93372E+00 2.78315E-04-3.64254E-04
 -1       536-1.11881E+00 2.36912E+01-4.80784E-04 1.02220E+00 3.49964E-04-6.49843E-04
 -1       537-3.85145E+00 2.32715E+01-1.33897E-03-2.81209E+00 6.69957E-04-1.64954E-03
 -1       538-5.14534E+00 2.11388E+01-2.52253E-03-6.98521E+00 1.16771E-04-2.06524E-03
 -1       539-4.84546E+00 1.72636E+01-8.55882E-03-1.07298E+01 2.81857E-03-9.42592E-03
 -1       540-3.20942E+00 1.20499E+01-2.03187E-02-1.32762E+01-7.94315E-03-7.73927E-03
 -1       541-1.15749E+00 6.21769E+00-1.40052E-01-1.44045E+01 1.11532E-02-1.36404E-01
 -1       542-3.80779E+00-1.43901E+01-1.42221E-03 1.43252E+01 1.70242E-03-6.23005E-03
 -1       543-1.14903E+01 1.74737E+00-6.60067E-03 1.67209E+01 5.25091E-03-4.63843E-03
 -1       544-1.49468E+01 1.42085E+01 1.65220E-03 1.14341E+01-8.59202E-04 9.73801E-04
 -1       545-1.35720E+01 2.02920E+01 1.37567E-03 4.40506E+00 6.33438E-04-6.63103E-05
 -1       546-9.54213E+00 2.17646E+01 1.26023E-03-1.37577E+00 2.23083E-04 2.52482E-04
 -1       547-4.57453E+00 2.06799E+01 7.67710E-04-5.32504E+00 1.88215E-04 9.54589E-05
 -1       548 5.41421E-01 1.82919E+01 4.66381E-04-7.60917E+00 6.75027E-05 7.47786E-05
 -1       549 5.44671E+00 1.53198E+01 3.16597E-04-8.40377E+00 2.29417E-05 4.54410E-05
 -1       550 9.83534E+00 1.22925E+01 2.63835E-04-7.81782E+00 3.67480E-06 3.71680E-05
 -1       551 1.33455E+01 9.68944E+00 2.46894E-04-6.00546E+00-1.29270E-06 3.16138E-05
 -1       552 1.56069E+01 7.93270E+00 2.43281E-04-3.25512E+00 8.65645E-07 2.83678E-05
 -1       553 1.63383E+01 7.32090E+00 2.41274E-04-5.69150E-03 6.63163E-06 2.45954E-05
 -1       554 1.54321E+01 7.96448E+00 2.35629E-04 3.20033E+00 1.49101E-05 1.84211E-05
 -1       555 1.30004E+01 9.75174E+00 2.24115E-04 5.80062E+00 2.47168E-05 8.13810E-06
 -1       556 9.37465E+00 1.23559E+01 2.02022E-04 7.30727E+00 3.70950E-05-1.12406E-05
 -1       557 5.06320E+00 1.52800E+01 1.73059E-04 7.39074E+00 4.68367E-05-3.76032E-05
 -1       558 6.80576E-01 1.79309E+01 1.03565E-04 5.93992E+00 7.20543E-05-1.05414E-04
 -1       559-3.14024E+00 1.97084E+01 6.95707E-05 3.09287E+00 3.92499E-05-1.31338E-04
 -1       560-5.84219E+00 2.01026E+01-2.89051E-04-7.60083E-01 2.11263E-04-4.98908E-04
 -1       561-7.04536E+00 1.87971E+01 1.26439E-05-5.00000E+00-4.68782E-04 8.11598E-05
 -1       562-6.66646E+00 1.57746E+01-2.94321E-03-8.85224E+00 1.88811E-03-3.41929E-03
 -1       563-5.01763E+00 1.13882E+01 1.81274E-03-1.15900E+01-8.51758E-03 5.79232E-03
 -1       564-2.78933E+00 6.13252E+00-4.08782E-02-1.29963E+01 9.90746E-03-3.98502E-02
 -1       565-3.23325E+00-1.07263E+01-4.23580E-04 1.16456E+01 2.81796E-03-3.75089E-03
 -1       566-1.03207E+01 1.81424E+00-4.39448E-03 1.41602E+01 2.83337E-03-3.89178E-03
 -1       567-1.44323E+01 1.23532E+01 1.17320E-03 9.94268E+00-4.65230E-04 6.46804E-04
 -1       568-1.42611E+01 1.77350E+01 7.21494E-04 3.46872E+00 2.52865E-04-1.33253E-04
 -1       569-1.11498E+01 1.87709E+01 7.46105E-04-2.36295E+00 7.11257E-05 1.72636E-04
 -1       570-6.60524E+00 1.71167E+01 4.14661E-04-6.56499E+00 9.97031E-05 8.41724E-05
 -1       571-1.55257E+00 1.40331E+01 3.07514E-04-9.01514E+00 5.58999E-05 7.48925E-05
 -1       572 3.46646E+00 1.03555E+01 2.61204E-04-9.79157E+00 3.79383E-05 4.88201E-05
 -1       573 8.01913E+00 6.71206E+00 2.48180E-04-9.01066E+00 1.85928E-05 3.64609E-05
 -1       574 1.16755E+01 3.64173E+00 2.43705E-04-6.87050E+00 6.31355E-06 2.91377E-05
 -1       575 1.40355E+01 1.59584E+00 2.44740E-04-3.70907E+00-2.81390E-06 2.66917E-05
 -1       576 1.48093E+01 8.83138E-01 2.48899E-04-1.07655E-02-1.05562E-05 2.72797E-05
 -1       577 1.38935E+01 1.61109E+00 2.56239E-04 3.64215E+00-2.01053E-05 3.11709E-05
 -1       578 1.14133E+01 3.65467E+00 2.69672E-04 6.65359E+00-3.52272E-05 4.13517E-05
 -1       579 7.71977E+00 6.66468E+00 2.91484E-04 8.50921E+00-5.88630E-05 6.23737E-05
 -1       580 3.34604E+00 1.01150E+01 3.42400E-04 8.86257E+00-9.94200E-05 1.12701E-04
 -1       581-1.06847E+00 1.33802E+01 4.07135E-04 7.59737E+00-1.44996E-04 1.93291E-04
 -1       582-4.87249E+00 1.58317E+01 6.57626E-04 4.85854E+00-2.58506E-04 4.37564E-04
 -1       583-7.50781E+00 1.69431E+01 7.71053E-04 1.05085E+00-2.12451E-04 6.33955E-04
 -1       584-8.62035E+00 1.63987E+01 2.62137E-03-3.19782E+00-9.12406E-04 2.25464E-03
 -1       585-8.17767E+00 1.41822E+01 2.22367E-03-7.12784E+00 9.87636E-04 1.73200E-03
 -1       586-6.51841E+00 1.05917E+01 2.27133E-02-1.00428E+01-8.44051E-03 1.87540E-02
 -1       587-4.16829E+00 5.92255E+00 3.54820E-02-1.16628E+01 8.00826E-03 3.66939E-02
 -1       588-2.83205E+00-7.85269E+00-4.25728E-04 9.40148E+00 1.31525E-03-2.35459E-03
 -1       589-9.38725E+00 1.90544E+00-3.14289E-03 1.17872E+01 1.96061E-03-3.08232E-03
 -1       590-1.38354E+01 1.06639E+01 4.03306E-04 8.34408E+00-3.70543E-04 3.32927E-04
 -1       591-1.45465E+01 1.52075E+01 4.24614E-04 2.43078E+00 1.21511E-04-1.54985E-04
 -1       592-1.22493E+01 1.57413E+01 5.83584E-04-3.28604E+00 2.68404E-05 1.03641E-04
 -1       593-8.19260E+00 1.35738E+01 4.47712E-04-7.58838E+00 6.52593E-05 6.06801E-05
 -1       594-3.33515E+00 9.91486E+00 3.63048E-04-1.01258E+01 4.25394E-05 6.13465E-05
 -1       595 1.66207E+00 5.66509E+00 3.00635E-04-1.08741E+01 2.62684E-05 4.40385E-05
 -1       596 6.26590E+00 1.52405E+00 2.66300E-04-9.93781E+00 8.50118E-06 3.52892E-05
 -1       597 9.98653E+00-1.92284E+00 2.51379E-04-7.54188E+00-6.47775E-06 3.03685E-05
 -1       598 1.23960E+01-4.20151E+00 2.50531E-04-4.06068E+00-2.16320E-05 3.07239E-05
 -1       599 1.31959E+01-4.99636E+00 2.60974E-04-1.25939E-02-4.00093E-05 3.70212E-05
 -1       600 1.22855E+01-4.20297E+00 2.83390E-04 3.99152E+00-6.58765E-05 5.27198E-05
 -1       601 9.79843E+00-1.95626E+00 3.24183E-04 7.33259E+00-1.04675E-04 8.59548E-05
 -1       602 6.09802E+00 1.37941E+00 3.91825E-04 9.47900E+00-1.61639E-04 1.50096E-04
 -1       603 1.73135E+00 5.25910E+00 5.22102E-04 1.00734E+01-2.45821E-04 2.78746E-04
 -1       604-2.64937E+00 9.03744E+00 7.16985E-04 8.99549E+00-3.49898E-04 5.00555E-04
 -1       605-6.38602E+00 1.20694E+01 1.23458E-03 6.39186E+00-5.19523E-04 9.99357E-04
 -1       606-8.92554E+00 1.38198E+01 1.78102E-03 2.66960E+00-5.76789E-04 1.67183E-03
 -1       607-9.93465E+00 1.39737E+01 5.05684E-03-1.55142E+00-1.21317E-03 4.26420E-03
 -1       608-9.41279E+00 1.25099E+01 6.74659E-03-5.53967E+00 1.51493E-04 5.89829E-03
 -1       609-7.71167E+00 9.68467E+00 4.07606E-02-8.62299E+00-7.78346E-03 3.03327E-02
 -1       610-5.27685E+00 5.63353E+00 8.99001E-02-1.04170E+01 5.60125E-03 9.27664E-02
 -1       611-2.53660E+00-5.62783E+00-2.69723E-04 7.47103E+00 8.47389E-04-1.41050E-03
 -1       612-8.61678E+00 1.95372E+00-2.36275E-03 9.61146E+00 1.10775E-03-2.50029E-03
 -1       613-1.32115E+01 9.09547E+00 1.39340E-04 6.72995E+00-2.58693E-04 1.61939E-04
 -1       614-1.45760E+01 1.27347E+01 2.50186E-04 1.33593E+00 1.00627E-05-1.74455E-04
 -1       615-1.29906E+01 1.27155E+01 4.41966E-04-4.17580E+00-2.48889E-05 4.88684E-05
 -1       616-9.44437E+00 1.00661E+01 3.82942E-04-8.47217E+00 1.97589E-05 4.02316E-05
 -1       617-4.86662E+00 5.91749E+00 3.29952E-04-1.10325E+01 1.90157E-05 5.12704E-05
 -1       618 1.22047E-02 1.19662E+00 2.84337E-04-1.17384E+01 1.34567E-05 4.13786E-05
 -1       619 4.58320E+00-3.34974E+00 2.60081E-04-1.06714E+01-5.34186E-07 3.46671E-05
 -1       620 8.30599E+00-7.10198E+00 2.52128E-04-8.07085E+00-1.83171E-05 3.12628E-05
 -1       621 1.07273E+01-9.56898E+00 2.58542E-04-4.33661E+00-4.10726E-05 3.46274E-05
 -1       622 1.15405E+01-1.04305E+01 2.79539E-04-1.16869E-02-7.12833E-05 4.76720E-05
 -1       623 1.06452E+01-9.58472E+00 3.18717E-04 4.27304E+00-1.13600E-04 7.65998E-05
 -1       624 8.18007E+00-7.17365E+00 3.86256E-04 7.88340E+00-1.74179E-04 1.33941E-04
 -1       625 4.51508E+00-3.57132E+00 4.96016E-04 1.02771E+01-2.59396E-04 2.40237E-04
 -1       626 2.03713E-01 6.66049E-01 6.95047E-04 1.10899E+01-3.76964E-04 4.41286E-04
 -1       627-4.09748E+00 4.88180E+00 1.00095E-03 1.01980E+01-5.23266E-04 7.85441E-04
 -1       628-7.73068E+00 8.42193E+00 1.73924E-03 7.74621E+00-7.22023E-04 1.49850E-03
 -1       629-1.01502E+01 1.07468E+01 2.66306E-03 4.13567E+00-8.61458E-04 2.54177E-03
 -1       630-1.10364E+01 1.15401E+01 7.11131E-03-3.18543E-02-1.36365E-03 5.92964E-03
 -1       631-1.04027E+01 1.07724E+01 1.04533E-02-4.06098E+00-6.20382E-04 8.99843E-03
 -1       632-8.60379E+00 8.67741E+00 5.46795E-02-7.30775E+00-6.51842E-03 3.97157E-02
 -1       633-6.09713E+00 5.29228E+00 1.23895E-01-9.26408E+00 2.69984E-03 1.28835E-01
 -1       634-2.30459E+00-3.92750E+00-1.10950E-04 5.78063E+00 3.57637E-04-7.91726E-04
 -1       635-7.94810E+00 1.93276E+00-1.80492E-03 7.63061E+00 4.76483E-04-1.98085E-03
 -1       636-1.25758E+01 7.61135E+00-1.09674E-04 5.15272E+00-2.09151E-04 2.85711E-05
 -1       637-1.44357E+01 1.03211E+01 1.23574E-04 2.16132E-01-7.19302E-05-1.83130E-04
 -1       638-1.34757E+01 9.71418E+00 3.23737E-04-5.04864E+00-6.24224E-05 6.20349E-06
 -1       639-1.04412E+01 6.60191E+00 3.36919E-04-9.26765E+00-1.25996E-05 2.41166E-05
 -1       640-6.19599E+00 2.02535E+00 3.14735E-04-1.18004E+01 2.41323E-06 4.25537E-05
 -1       641-1.50368E+00-3.08927E+00 2.83977E-04-1.24477E+01 2.57524E-06 3.82458E-05
 -1       642 2.97235E+00-7.96850E+00 2.63516E-04-1.12645E+01-1.06750E-05 3.36117E-05
 -1       643 6.65040E+00-1.19695E+01 2.57129E-04-8.49524E+00-3.23474E-05 3.23699E-05
 -1       644 9.05484E+00-1.45893E+01 2.66650E-04-4.55665E+00-6.21235E-05 3.94603E-05
 -1       645 9.87059E+00-1.55043E+01 2.94448E-04-8.81112E-03-1.02257E-04 5.95840E-05
 -1       646 8.99655E+00-1.46151E+01 3.45667E-04 4.50411E+00-1.57425E-04 1.01109E-04
 -1       647 6.57338E+00-1.20681E+01 4.32625E-04 8.33871E+00-2.33682E-04 1.79783E-04
 -1       648 2.97331E+00-8.24296E+00 5.73089E-04 1.09466E+01-3.37424E-04 3.20934E-04
 -1       649-1.24921E+00-3.70158E+00 8.21990E-04 1.19598E+01-4.73643E-04 5.78088E-04
 -1       650-5.43900E+00 8.94008E-01 1.21371E-03 1.12514E+01-6.42995E-04 1.01158E-03
 -1       651-8.94291E+00 4.88573E+00 2.11693E-03 8.96157E+00-8.45099E-04 1.87510E-03
 -1       652-1.12227E+01 7.73119E+00 3.35842E-03 5.48111E+00-1.05077E-03 3.16943E-03
 -1       653-1.19649E+01 9.10997E+00 8.57061E-03 1.38853E+00-1.35711E-03 7.08351E-03
 -1       654-1.11796E+01 8.98156E+00 1.31422E-02-2.66106E+00-1.34828E-03 1.09490E-02
 -1       655-9.20725E+00 7.56961E+00 6.33128E-02-6.06364E+00-4.52597E-03 4.60516E-02
 -1       656-6.60584E+00 4.90803E+00 1.38959E-01-8.20327E+00-8.01615E-04 1.45524E-01
 -1       657-2.10232E+00-2.64318E+00 9.05534E-05 4.28981E+00 1.31648E-05-3.33924E-04
 -1       658-7.32422E+00 1.83478E+00-1.30815E-03 5.83970E+00-9.90347E-05-1.54163E-03
 -1       659-1.19202E+01 6.18122E+00-2.97983E-04 3.64096E+00-1.88406E-04-9.07748E-05
 -1       660-1.41744E+01 7.96052E+00 5.12526E-05-9.08123E-01-1.50308E-04-2.04267E-04
 -1       661-1.37745E+01 6.74548E+00 2.44043E-04-5.91415E+00-9.89830E-05-3.88648E-05
 -1       662-1.12444E+01 3.18387E+00 2.96626E-04-1.00096E+01-4.44822E-05 2.33960E-06
 -1       663-7.36409E+00-1.77428E+00 2.95299E-04-1.24756E+01-1.59093E-05 2.91276E-05
 -1       664-2.90547E+00-7.22260E+00 2.78960E-04-1.30487E+01-9.81004E-06 3.10106E-05
 -1       665 1.43042E+00-1.23773E+01 2.67395E-04-1.17566E+01-2.12563E-05 2.90812E-05
 -1       666 5.02873E+00-1.65819E+01 2.68173E-04-8.84339E+00-4.50032E-05 3.02107E-05
 -1       667 7.39442E+00-1.93255E+01 2.84926E-04-4.73580E+00-7.93615E-05 4.07865E-05
 -1       668 8.20429E+00-2.02830E+01 3.21532E-04-4.89209E-03-1.25797E-04 6.69049E-05
 -1       669 7.35521E+00-1.93563E+01 3.84680E-04 4.69711E+00-1.88342E-04 1.18231E-04
 -1       670 4.98767E+00-1.66944E+01 4.88428E-04 8.72204E+00-2.72212E-04 2.12072E-04
 -1       671 1.47294E+00-1.26791E+01 6.53457E-04 1.15190E+01-3.83299E-04 3.75838E-04
 -1       672-2.63745E+00-7.87434E+00 9.37090E-04 1.27180E+01-5.23458E-04 6.65844E-04
 -1       673-6.69368E+00-2.94321E+00 1.38534E-03 1.21896E+01-6.98561E-04 1.14755E-03
 -1       674-1.00499E+01 1.45518E+00 2.35927E-03 1.00682E+01-8.80735E-04 2.08160E-03
 -1       675-1.21748E+01 4.77633E+00 3.77139E-03 6.73171E+00-1.13374E-03 3.48668E-03
 -1       676-1.27548E+01 6.69263E+00 9.03937E-03 2.73406E+00-1.18206E-03 7.54030E-03
 -1       677-1.17784E+01 7.14914E+00 1.46032E-02-1.30971E+00-2.05047E-03 1.16273E-02
 -1       678-9.54542E+00 6.35647E+00 6.53689E-02-4.84527E+00-1.59055E-03 4.83327E-02
 -1       679-6.77036E+00 4.46950E+00 1.35988E-01-7.22486E+00-5.11015E-03 1.42998E-01
 -1       680-1.89537E+00-1.68078E+00 2.60502E-04 2.98409E+00-2.84706E-04 4.30072E-07
 -1       681-6.68829E+00 1.65723E+00-9.33240E-04 4.23357E+00-6.58358E-04-1.04343E-03
 -1       682-1.12255E+01 4.77861E+00-4.89208E-04 2.20709E+00-1.78701E-04-1.49936E-04
 -1       683-1.38186E+01 5.64102E+00-3.75541E-06-2.02649E+00-2.05059E-04-1.68683E-04
 -1       684-1.39355E+01 3.80994E+00 2.08346E-04-6.77986E+00-1.06904E-04-3.11515E-05
 -1       685-1.19007E+01-1.88488E-01 2.88359E-04-1.07231E+01-4.94789E-05 1.53567E-05
 -1       686-8.40437E+00-5.49193E+00 2.89909E-04-1.30923E+01-1.34840E-05 3.70274E-05
 -1       687-4.21123E+00-1.12266E+01 2.68915E-04-1.35760E+01-6.74998E-06 3.60102E-05
 -1       688-4.75733E-02-1.66109E+01 2.50379E-04-1.21776E+01-1.93442E-05 3.16915E-05
 -1       689 3.44544E+00-2.09826E+01 2.45325E-04-9.13690E+00-4.54528E-05 3.20339E-05
 -1       690 5.75606E+00-2.38268E+01 2.57593E-04-4.88559E+00-8.20657E-05 4.31602E-05
 -1       691 6.55337E+00-2.48173E+01 2.89884E-04-8.86459E-04-1.29811E-04 7.09117E-05
 -1       692 5.73138E+00-2.38570E+01 3.46927E-04 4.86110E+00-1.91713E-04 1.24355E-04
 -1       693 3.42867E+00-2.10957E+01 4.39705E-04 9.05085E+00-2.71422E-04 2.19595E-04
 -1       694 1.31852E-02-1.69151E+01 5.85757E-04 1.20174E+01-3.73502E-04 3.81686E-04
 -1       695-3.96933E+00-1.18779E+01 8.34249E-04 1.33907E+01-4.95372E-04 6.62038E-04
 -1       696-7.87714E+00-6.64548E+00 1.23702E-03 1.30388E+01-6.49242E-04 1.11967E-03
 -1       697-1.10736E+01-1.87590E+00 2.10557E-03 1.10895E+01-7.75804E-04 1.99309E-03
 -1       698-1.30333E+01 1.88448E+00 3.51553E-03 7.90780E+00-1.06044E-03 3.29910E-03
 -1       699-1.34369E+01 4.29692E+00 8.22527E-03 4.02380E+00-8.15539E-04 6.99968E-03
 -1       700-1.22365E+01 5.29045E+00 1.53443E-02 1.95309E-02-2.78834E-03 1.09536E-02
 -1       701-9.66295E+00 5.04052E+00 5.93767E-02-3.59621E+00 2.73656E-03 4.53100E-02
 -1       702-6.54570E+00 3.93695E+00 1.15669E-01-6.30147E+00-1.08723E-02 1.20824E-01
 -1       703-1.63687E+00-9.63409E-01 4.15555E-04 1.87174E+00-5.58964E-04 3.91945E-04
 -1       704-5.97921E+00 1.39530E+00-3.23366E-04 2.80551E+00-1.22894E-03-7.65239E-04
 -1       705-1.04658E+01 3.37815E+00-5.96311E-04 8.51577E-01-2.69461E-04-3.85468E-04
 -1       706-1.33814E+01 3.34727E+00-8.69726E-05-3.13668E+00-3.40253E-04-3.27814E-04
 -1       707-1.39925E+01 9.02825E-01 1.27711E-04-7.65270E+00-1.97223E-04-1.46666E-04
 -1       708-1.24459E+01-3.51862E+00 2.97190E-04-1.14258E+01-1.25928E-04-4.15464E-05
 -1       709-9.34440E+00-9.13707E+00 3.72547E-04-1.36744E+01-6.96566E-05 1.94071E-05
 -1       710-5.43764E+00-1.51194E+01 4.06775E-04-1.40544E+01-4.78743E-05 4.46992E-05
 -1       711-1.46867E+00-2.06960E+01 4.21618E-04-1.25488E+01-4.70074E-05 5.64872E-05
 -1       712 1.90049E+00-2.52050E+01 4.34196E-04-9.39111E+00-6.02192E-05 6.64943E-05
 -1       713 4.14385E+00-2.81303E+01 4.53336E-04-5.01424E+00-8.24786E-05 8.25932E-05
 -1       714 4.92336E+00-2.91458E+01 4.85469E-04 2.42446E-03-1.12889E-04 1.10877E-04
 -1       715 4.12959E+00-2.81543E+01 5.37670E-04 5.00228E+00-1.53130E-04 1.59275E-04
 -1       716 1.89794E+00-2.53052E+01 6.21986E-04 9.33715E+00-2.05270E-04 2.41002E-04
 -1       717-1.40872E+00-2.09782E+01 7.58554E-04 1.24581E+01-2.73386E-04 3.76521E-04
 -1       718-5.25242E+00-1.57325E+01 9.92052E-04 1.39957E+01-3.51822E-04 6.06164E-04
 -1       719-9.00140E+00-1.02255E+01 1.38987E-03 1.38163E+01-4.63414E-04 9.78349E-04
 -1       720-1.20292E+01-5.11338E+00 2.16792E-03 1.20411E+01-5.21897E-04 1.66708E-03
 -1       721-1.38162E+01-9.44082E-01 3.59238E-03 9.02292E+00-8.53467E-04 2.69901E-03
 -1       722-1.40338E+01 1.92866E+00 7.10960E-03 5.27301E+00-3.57455E-04 5.48540E-03
 -1       723-1.25938E+01 3.42062E+00 1.48728E-02 1.35168E+00-3.32405E-03 9.06270E-03
 -1       724-9.64396E+00 3.64025E+00 3.85734E-02-2.26026E+00 8.99169E-03 3.43522E-02
 -1       725-5.87995E+00 3.22556E+00 7.46737E-02-5.36163E+00-1.86623E-02 7.58192E-02
 -1       726-1.26279E+00-4.36485E-01 1.18811E-03 9.81181E-01-1.08659E-03 1.98523E-04
 -1       727-5.13442E+00 1.03893E+00 2.73848E-04 1.54725E+00-1.62085E-03 4.39649E-04
 -1       728-9.61540E+00 1.95925E+00 4.64224E-05-4.34037E-01-2.55606E-04 3.20893E-04
 -1       729-1.28721E+01 1.06701E+00 9.97431E-05-4.24240E+00-1.27800E-04 3.55816E-04
 -1       730-1.39745E+01-1.97886E+00-9.27113E-05-8.54088E+00 6.00233E-05 3.46151E-04
 -1       731-1.29125E+01-6.80814E+00-1.97705E-04-1.21337E+01 1.05328E-04 3.06996E-04
 -1       732-1.02106E+01-1.27169E+01-2.74294E-04-1.42436E+01 1.11367E-04 2.65354E-04
 -1       733-6.60148E+00-1.89169E+01-3.16859E-04-1.45066E+01 8.73425E-05 2.31203E-04
 -1       734-2.84041E+00-2.46570E+01-3.38306E-04-1.28902E+01 5.72306E-05 2.10855E-04
 -1       735 3.93389E-01-2.92803E+01-3.46120E-04-9.62090E+00 2.90295E-05 2.01803E-04
 -1       736 2.56167E+00-3.22719E+01-3.45608E-04-5.12988E+00 5.93278E-06 2.01318E-04
 -1       737 3.31979E+00-3.33057E+01-3.39298E-04 4.19108E-03-1.24439E-05 2.07213E-04
 -1       738 2.55459E+00-3.22845E+01-3.28108E-04 5.12672E+00-2.75335E-05 2.18654E-04
 -1       739 3.97485E-01-2.93560E+01-3.11921E-04 9.59287E+00-3.97277E-05 2.36212E-04
 -1       740-2.79492E+00-2.48963E+01-2.90011E-04 1.28570E+01-5.33927E-05 2.60268E-04
 -1       741-6.49377E+00-1.94597E+01-2.57085E-04 1.45516E+01-6.07968E-05 2.96603E-04
 -1       742-1.00787E+01-1.36987E+01-2.00985E-04 1.45415E+01-1.10121E-04 3.46583E-04
 -1       743-1.29344E+01-8.26605E+00-6.83613E-05 1.29420E+01-7.63927E-05 4.68837E-04
 -1       744-1.45485E+01-3.71105E+00 3.20553E-04 1.00951E+01-5.24243E-04 7.23555E-04
 -1       745-1.45830E+01-4.02840E-01 1.12211E-03 6.49877E+00 4.81672E-04 1.75984E-03
 -1       746-1.29175E+01 1.56076E+00 4.53820E-03 2.69550E+00-3.13026E-03 4.67294E-03
 -1       747-9.59172E+00 2.20358E+00-3.18000E-04-8.33642E-01 1.92375E-02 1.02068E-02
 -1       748-4.72936E+00 2.25063E+00 3.81262E-02-4.23145E+00-3.44272E-02 9.19341E-03
 -1       749-6.80825E-01-9.33125E-02-1.30243E-03 3.46720E-01-1.68585E-03 1.33310E-03
 -1       750-4.08856E+00 5.57609E-01-7.93755E-04 4.31448E-01-1.44973E-03-4.88789E-04
 -1       751-8.64568E+00 4.84949E-01-1.06571E-03-1.67743E+00-8.82712E-04-3.97445E-04
 -1       752-1.22833E+01-1.23197E+00-3.02583E-04-5.35895E+00-6.00115E-04-1.10151E-04
 -1       753-1.38864E+01-4.85812E+00 1.71464E-04-9.45103E+00-4.81845E-04 1.79416E-04
 -1       754-1.33119E+01-1.00736E+01 5.15818E-04-1.28494E+01-4.01043E-04 4.40913E-04
 -1       755-1.10163E+01-1.62447E+01 7.06315E-04-1.48002E+01-3.48242E-04 6.42221E-04
 -1       756-7.71669E+00-2.26315E+01 7.96398E-04-1.49321E+01-2.96506E-04 7.94239E-04
 -1       757-4.17727E+00-2.85063E+01 8.28964E-04-1.32008E+01-2.34915E-04 9.06918E-04
 -1       758-1.09100E+00-3.32211E+01 8.31883E-04-9.82516E+00-1.55168E-04 9.87119E-04
 -1       759 9.93818E-01-3.62641E+01 8.19411E-04-5.23194E+00-5.67527E-05 1.03646E-03
 -1       760 1.72684E+00-3.73100E+01 7.96719E-04 4.02399E-03 5.71778E-05 1.05424E-03
 -1       761 9.91093E-01-3.62608E+01 7.64519E-04 5.23291E+00 1.80133E-04 1.03956E-03
 -1       762-1.08677E+00-3.32613E+01 7.22500E-04 9.81541E+00 3.06993E-04 9.91248E-04
 -1       763-4.15768E+00-2.86828E+01 6.69445E-04 1.32108E+01 4.25380E-04 9.14216E-04
 -1       764-7.70333E+00-2.30727E+01 6.09001E-04 1.50543E+01 5.50262E-04 8.03716E-04
 -1       765-1.11163E+01-1.70766E+01 5.16263E-04 1.52093E+01 6.25236E-04 7.06747E-04
 -1       766-1.37935E+01-1.13425E+01 3.88234E-04 1.37856E+01 9.00636E-04 5.24074E-04
 -1       767-1.52317E+01-6.42234E+00-1.57502E-04 1.11137E+01 8.01965E-04 6.44057E-04
 -1       768-1.50825E+01-2.69501E+00-1.51787E-03 7.68572E+00 3.29611E-03-4.83580E-04
 -1       769-1.32039E+01-2.96565E-01-8.20603E-03 4.02555E+00 1.34380E-03-4.34342E-04
 -1       770-9.47828E+00 7.89514E-01-2.97567E-02 6.93039E-01 2.89183E-02-3.28446E-02
 -1       771-3.39910E+00 1.05259E+00-3.32374E-02-2.52282E+00-7.28716E-02-8.88624E-02
 -1       772-1.94387E+02-1.25593E+02-1.66595E+01 1.20134E+02-1.54937E+01-1.13521E+01
 -1       773 3.78011E+01 2.12940E+02-5.32930E-01-7.22345E+01-3.41745E+01-6.06205E+00
 -1       774 1.31963E+01-1.31806E+01 2.24088E+00-3.71816E+01 1.74697E+00 2.54584E+00
 -1       775 8.44727E+01 1.31643E+01 1.14749E+01 2.46754E+00 7.15024E+00 1.27223E+00
 -1       776 4.31367E+01 1.27754E+01-9.02418E-01 2.46827E+00-6.04550E-01-4.24125E-01
 -1       777 6.90109E+01 1.81171E+01 9.00055E-01 1.71038E+01-3.06109E+00 7.61644E-01
 -1       778 5.16841E+01 1.63901E+01 2.70466E-01 1.50519E+01 1.03531E-01 4.35245E-01
 -1       779 5.74521E+01 2.15180E+01 7.59021E-01 2.99204E+01 5.71099E-01 2.37167E-01
 -1       780 4.48345E+01 2.72580E+01-4.80856E-02 2.53168E+01-4.75958E-02-2.13544E-02
 -1       781 4.89759E+01 3.28506E+01 1.14831E-01 3.53725E+01-1.90674E-01 1.26555E-01
 -1       782 3.87602E+01 3.84846E+01 1.86916E-02 2.98463E+01 1.52351E-02 4.32398E-02
 -1       783 4.10649E+01 4.56734E+01 5.68463E-02 3.90212E+01 6.02258E-02 2.94154E-02
 -1       784 3.25260E+01 5.04465E+01-1.11417E-04 3.14740E+01 1.86258E-03-6.14997E-03
 -1       785 3.32447E+01 5.98732E+01 9.90163E-03 3.99073E+01 6.00315E-03 1.50417E-02
 -1       786 2.66498E+01 6.22514E+01 1.47942E-03 3.04506E+01 7.28077E-03-7.98560E-03
 -1       787 2.52007E+01 7.42267E+01-3.83158E-04 3.77077E+01 2.06282E-02-1.56239E-03
 -1       788 2.11544E+01 7.31738E+01 5.16633E-04 2.69604E+01 5.11668E-03-1.53627E-02
 -1       789 1.75478E+01 8.74354E+01-5.86756E-03 3.21646E+01 1.44976E-02-8.09481E-03
 -1       790 1.64211E+01 8.23661E+01 2.18585E-04 2.11853E+01 4.37431E-03-1.82314E-02
 -1       791 1.11497E+01 9.81200E+01-7.97231E-03 2.34933E+01 1.13666E-02-1.33965E-02
 -1       792 1.29115E+01 8.90251E+01 1.52597E-04 1.35309E+01 2.68136E-03-2.03732E-02
 -1       793 6.88672E+00 1.05085E+02-9.01111E-03 1.23981E+01 6.13420E-03-1.63466E-02
 -1       794 1.10391E+01 9.25150E+01 9.44772E-05 4.63973E+00 9.34979E-04-2.14590E-02
 -1       795 5.39211E+00 1.07507E+02-9.42793E-03-1.57504E-02 6.73576E-04-1.75882E-02
 -1       796 1.10300E+01 9.24789E+01 9.65217E-05-4.65659E+00-9.27587E-04-2.18062E-02
 -1       797 6.88477E+00 1.05070E+02-9.49124E-03-1.24085E+01-4.87145E-03-1.71498E-02
 -1       798 1.28359E+01 8.89060E+01 9.90137E-05-1.34470E+01-2.71274E-03-2.15193E-02
 -1       799 1.10951E+01 9.80188E+01-9.29161E-03-2.34152E+01-9.99493E-03-1.52036E-02
 -1       800 1.61050E+01 8.21443E+01 1.13025E-04-2.08722E+01-4.32362E-03-2.07070E-02
 -1       801 1.72850E+01 8.71193E+01-8.88144E-03-3.18570E+01-1.43901E-02-1.19836E-02
 -1       802 2.02141E+01 7.28558E+01 1.29904E-04-2.62533E+01-5.63448E-03-1.95350E-02
 -1       803 2.43503E+01 7.35424E+01-8.21642E-03-3.69199E+01-1.77131E-02-7.64384E-03
 -1       804 2.43476E+01 6.19235E+01 1.79519E-04-2.91942E+01-6.72815E-03-1.80168E-02
 -1       805 3.09806E+01 5.86900E+01-7.37929E-03-3.82721E+01-2.01787E-02-2.79073E-03
 -1       806 2.76051E+01 5.03302E+01 2.96031E-04-2.96412E+01-7.10172E-03-1.68394E-02
 -1       807 3.58428E+01 4.39928E+01-5.51667E-03-3.61098E+01-2.03769E-02 3.90186E-03
 -1       808 2.91138E+01 3.90183E+01 2.83231E-04-2.79074E+01-9.01311E-03-1.45204E-02
 -1       809 3.77409E+01 3.07111E+01-4.01072E-03-3.11205E+01-2.46121E-02 8.50293E-03
 -1       810 2.81213E+01 2.87833E+01 2.63992E-03-2.46486E+01-4.88832E-03-1.70552E-02
 -1       811 3.57471E+01 1.97645E+01 6.95759E-03-2.44169E+01-9.96137E-03 2.75049E-02
 -1       812 2.41028E+01 2.00254E+01-5.46318E-03-2.09328E+01-2.50062E-02-3.76233E-03
 -1       813 2.91121E+01 1.16346E+01 1.68856E-02-1.74642E+01-6.58465E-02 4.23450E-02
 -1       814 1.70932E+01 1.29932E+01 4.55041E-02-1.79783E+01 3.70134E-02-2.78245E-02
 -1       815 1.79062E+01 6.30341E+00 1.64808E-01-1.19021E+01 1.32020E-01 1.81265E-01
 -1       816 8.35290E+00 5.66844E+00-1.38955E-01-1.79904E+01-1.68118E-01 1.00650E-01
 -1       817 3.38787E+00 1.89465E+00 1.03278E+00-1.08431E+01-2.98558E-01 1.05409E+00
 -1       818 5.04767E+00 4.56231E-01 6.11351E-01-1.62950E+01 5.08856E-01-5.86674E-02
 -1       819-6.29349E+00-1.21641E+02-4.38367E+00 4.80282E+01 1.05519E+01-3.14315E+00
 -1       820-5.58579E+01 9.09995E+00-3.45880E-01 8.14320E+01 1.22451E+01-9.88530E-01
 -1       821-3.12156E+01 4.66543E+00-1.81746E-01 3.34964E+01-2.85236E+00 5.43860E-01
 -1       822 6.69906E+00 8.52930E+00-3.91132E+00 5.07061E-02-1.19685E+00-4.77185E-02
 -1       823 5.01600E+00 2.17275E+01-4.60864E-01 6.11276E+00 7.99150E-01-2.58592E-01
 -1       824 3.45453E+01 1.68349E+01-1.23694E+00 9.06109E+00 7.32530E-01-4.99231E-01
 -1       825 2.43774E+01 2.35972E+01 1.65617E-01 9.30674E+00-1.34410E-01 2.16678E-02
 -1       826 3.80861E+01 2.28698E+01-2.24869E-01 1.72870E+01-1.31298E-01-3.41085E-02
 -1       827 2.80028E+01 2.90591E+01-5.84274E-02 1.50463E+01 6.34034E-02-1.88031E-02
 -1       828 3.48532E+01 3.25869E+01-1.28344E-01 2.29800E+01 3.77490E-02-3.97550E-02
 -1       829 2.71552E+01 3.70135E+01 1.72401E-02 1.85438E+01-4.77829E-03 4.73269E-04
 -1       830 3.08152E+01 4.27500E+01-2.06026E-02 2.55036E+01-7.53219E-03-3.94947E-03
 -1       831 2.47518E+01 4.53921E+01-4.19438E-03 1.95657E+01 5.56336E-03-4.29427E-03
 -1       832 2.65074E+01 5.29926E+01-9.04831E-03 2.55619E+01 6.14077E-03-5.08267E-03
 -1       833 2.22558E+01 5.33697E+01 1.50409E-03 1.85718E+01 5.01834E-04-3.10081E-03
 -1       834 2.24250E+01 6.25901E+01 2.64220E-03 2.34925E+01 4.55478E-03-3.80064E-03
 -1       835 2.00176E+01 6.03436E+01-1.07774E-04 1.60293E+01 6.57838E-04-3.97174E-03
 -1       836 1.87858E+01 7.09209E+01 5.82068E-03 1.95309E+01 5.13354E-03-5.40253E-03
 -1       837 1.82234E+01 6.59263E+01 2.17491E-04 1.23003E+01 2.31505E-04-4.11002E-03
 -1       838 1.58881E+01 7.73882E+01 7.84747E-03 1.39854E+01 3.86771E-03-6.74153E-03
 -1       839 1.69664E+01 6.98147E+01 1.23715E-04 7.71908E+00 1.09319E-04-4.35308E-03
 -1       840 1.40117E+01 8.14850E+01 8.79144E-03 7.28607E+00 2.19129E-03-7.77038E-03
 -1       841 1.63085E+01 7.17960E+01 1.58924E-04 2.63069E+00 9.47257E-06-4.45853E-03
 -1       842 1.33535E+01 8.28682E+01 9.24397E-03-6.97487E-03 1.34388E-04-8.21353E-03
 -1       843 1.62586E+01 7.17634E+01 1.71802E-04-2.59544E+00-7.20667E-05-4.51868E-03
 -1       844 1.39539E+01 8.14171E+01 9.34672E-03-7.25034E+00-1.97763E-03-8.04303E-03
 -1       845 1.67481E+01 6.97380E+01 1.89779E-04-7.58140E+00-1.43618E-04-4.52941E-03
 -1       846 1.56553E+01 7.72635E+01 9.19352E-03-1.37955E+01-3.96285E-03-7.29745E-03
 -1       847 1.76146E+01 6.58771E+01 2.13259E-04-1.19765E+01-2.10676E-04-4.51290E-03
 -1       848 1.81002E+01 7.07824E+01 8.83060E-03-1.90788E+01-5.65754E-03-6.05418E-03
 -1       849 1.86046E+01 6.04632E+01 2.39458E-04-1.55011E+01-2.88632E-04-4.45918E-03
 -1       850 2.07675E+01 6.25454E+01 8.30985E-03-2.27036E+01-6.91552E-03-4.50380E-03
 -1       851 1.93956E+01 5.38735E+01 3.46796E-04-1.79878E+01-3.65096E-04-4.43282E-03
 -1       852 2.30380E+01 5.32443E+01 7.60683E-03-2.45018E+01-7.73422E-03-2.66796E-03
 -1       853 1.96334E+01 4.65329E+01 5.02399E-04-1.94145E+01-5.43889E-04-4.19537E-03
 -1       854 2.42731E+01 4.35974E+01 6.72265E-03-2.45668E+01-7.77583E-03-1.57645E-03
 -1       855 1.89823E+01 3.88547E+01 9.10937E-04-1.99286E+01-7.26640E-04-4.49825E-03
 -1       856 2.39014E+01 3.42496E+01 5.64935E-03-2.32663E+01-8.32360E-03 4.10548E-04
 -1       857 1.72002E+01 3.11551E+01 3.06762E-03-1.98659E+01-1.14332E-03-2.34163E-03
 -1       858 2.14781E+01 2.56512E+01-4.65225E-04-2.12430E+01-5.76626E-03-5.20895E-03
 -1       859 1.42787E+01 2.35424E+01-1.49719E-03-1.97512E+01-2.41604E-03-6.20264E-03
 -1       860 1.69868E+01 1.79203E+01-2.34405E-03-1.94245E+01-1.70535E-02-1.92532E-03
 -1       861 1.08329E+01 1.57670E+01 3.87408E-02-2.01223E+01 5.36669E-03 1.90385E-02
 -1       862 1.08020E+01 1.04418E+01-1.03255E-01-1.89992E+01 3.95421E-02-3.56590E-02
 -1       863 8.33704E+00 7.17990E+00-8.39477E-02-2.06894E+01-2.78159E-02 3.23429E-03
 -1       864 6.50956E+00 1.63763E+00-2.96344E-01-1.94073E+01 1.86092E-02-1.62221E-01
 -1       865 8.79758E+00 1.49536E+00 7.05886E-01-1.85285E+01 1.19369E-01 4.64107E-01
 -1       866-1.30298E+01-8.59658E+01-1.78571E-01 3.22306E+01-1.64371E+00-1.51817E-01
 -1       867-3.51032E+01-3.49671E+01-9.85742E-01 5.40178E+01-1.54956E+00 2.70067E-01
 -1       868-2.29459E+01-9.77948E+00 4.96828E-01 3.18948E+01 3.28795E-01 1.64655E-01
 -1       869-1.23804E+01 1.94260E+01 9.45688E-01 1.30345E+01 3.34335E-01 4.84462E-02
 -1       870-8.59244E+00 1.89915E+01 2.69471E-01 1.37376E+01-8.14817E-02 1.10852E-02
 -1       871 1.13792E+01 2.40245E+01 6.20588E-01 6.00624E+00-1.23355E-01-2.36696E-02
 -1       872 6.68163E+00 2.55387E+01 5.56092E-02 8.19075E+00-6.69880E-03 6.48713E-03
 -1       873 2.04838E+01 2.68681E+01 2.02609E-01 1.00398E+01 3.09403E-03 3.05218E-02
 -1       874 1.44826E+01 2.99179E+01-1.06801E-03 9.26304E+00-1.12503E-02 3.74443E-03
 -1       875 2.25801E+01 3.26043E+01 4.15007E-02 1.37924E+01-7.66734E-03 5.42391E-04
 -1       876 1.73181E+01 3.51218E+01 4.77666E-03 1.07427E+01-3.79743E-03 9.01243E-04
 -1       877 2.20633E+01 3.95647E+01 2.19343E-02 1.53918E+01-8.42184E-04 4.20600E-03
 -1       878 1.80311E+01 4.05663E+01-8.05901E-04 1.10114E+01-1.33293E-03 1.04817E-03
 -1       879 2.08233E+01 4.64008E+01 2.96345E-03 1.51568E+01 4.49914E-04-1.20333E-03
 -1       880 1.81577E+01 4.55358E+01 1.41985E-03 1.00870E+01-6.66231E-04 1.33048E-04
 -1       881 1.96194E+01 5.24926E+01 2.07688E-03 1.35127E+01 8.03335E-04-1.06219E-03
 -1       882 1.82498E+01 4.96250E+01 1.32176E-03 8.35032E+00-4.81619E-05 6.50746E-05
 -1       883 1.86597E+01 5.74734E+01 2.25804E-04 1.08827E+01 8.27377E-04-2.06650E-03
 -1       884 1.84339E+01 5.26850E+01 1.74204E-03 6.15375E+00-1.03749E-05-1.29401E-04
 -1       885 1.79938E+01 6.11419E+01 8.14969E-05 7.58664E+00 6.43224E-04-2.34747E-03
 -1       886 1.86388E+01 5.46911E+01 1.90075E-03 3.74355E+00 5.02848E-05-1.89468E-04
 -1       887 1.76007E+01 6.33737E+01-8.95130E-05 3.88653E+00 3.48678E-04-2.62194E-03
 -1       888 1.87491E+01 5.56698E+01 2.00934E-03 1.26519E+00 6.31119E-06-2.31980E-04
 -1       889 1.74426E+01 6.41046E+01-1.16856E-04 1.36875E-02 1.38365E-05-2.71993E-03
 -1       890 1.86619E+01 5.56581E+01 2.05305E-03-1.20292E+00-4.15016E-05-2.40858E-04
 -1       891 1.74636E+01 6.33295E+01-1.37124E-04-3.81406E+00-3.27605E-04-2.71162E-03
 -1       892 1.83084E+01 5.46906E+01 2.05105E-03-3.61826E+00-1.05258E-04-2.26107E-04
 -1       893 1.75811E+01 6.11093E+01-1.56672E-04-7.39307E+00-6.34364E-04-2.60395E-03
 -1       894 1.76520E+01 5.28000E+01 2.01662E-03-5.95268E+00-1.77317E-04-1.86087E-04
 -1       895 1.76780E+01 5.75738E+01-1.96706E-04-1.05474E+01-8.69047E-04-2.43502E-03
 -1       896 1.66793E+01 5.00234E+01 1.99407E-03-8.18242E+00-2.56985E-04-1.05459E-04
 -1       897 1.76036E+01 5.29138E+01-3.02888E-04-1.31490E+01-9.94123E-04-2.25873E-03
 -1       898 1.53893E+01 4.64074E+01 1.94567E-03-1.02886E+01-3.84874E-04 2.59940E-05
 -1       899 1.71844E+01 4.73633E+01-5.13548E-04-1.51395E+01-9.27832E-04-2.23383E-03
 -1       900 1.37915E+01 4.20077E+01 2.29437E-03-1.22664E+01-5.24744E-04 3.77257E-04
 -1       901 1.62467E+01 4.11700E+01-1.10016E-03-1.65511E+01-7.13313E-04-2.46571E-03
 -1       902 1.19158E+01 3.68728E+01 2.05855E-03-1.41414E+01-8.89007E-04 7.42774E-04
 -1       903 1.46584E+01 3.45499E+01-2.43467E-03-1.75250E+01-1.62086E-05-4.45881E-03
 -1       904 9.87004E+00 3.10133E+01 5.77980E-03-1.59778E+01-1.12620E-03 3.23658E-03
 -1       905 1.24123E+01 2.76086E+01-4.93376E-03-1.83328E+01 7.34983E-04-6.15767E-03
 -1       906 7.92723E+00 2.43256E+01 2.01549E-03-1.78408E+01-2.41293E-03 2.52200E-03
 -1       907 9.79385E+00 2.02391E+01-2.44656E-02-1.92854E+01-5.82253E-04-2.67265E-02
 -1       908 6.74588E+00 1.66376E+01 3.26068E-02-1.95835E+01-4.71697E-04 2.87349E-02
 -1       909 7.82789E+00 1.19601E+01-4.25083E-02-2.04665E+01 1.97411E-02-4.47613E-02
 -1       910 6.97520E+00 8.35979E+00 4.39604E-02-2.02692E+01-1.19249E-02 1.45424E-02
 -1       911 7.17099E+00 2.71399E+00-6.30202E-01-2.01908E+01 5.85447E-04-4.78220E-01
 -1       912 8.39864E+00 2.93770E+00 5.76485E-01-1.88505E+01 2.77827E-02 5.73128E-01
 -1       913-4.39000E+00-6.41975E+01-4.29063E-01 2.11773E+01 6.58970E-01-2.44816E-01
 -1       914-1.62707E+01-3.91399E+01 1.63874E-01 4.26107E+01 7.48157E-01-1.23874E-01
 -1       915-1.70377E+01-1.30199E+01 2.02298E-01 3.04427E+01-2.10919E-01 3.46477E-02
 -1       916-2.03108E+01 1.13642E+01-1.28305E-01 2.28815E+01-7.58469E-02-6.24342E-02
 -1       917-1.46853E+01 1.54319E+01-2.08688E-01 1.76651E+01 1.42597E-02-1.96035E-02
 -1       918-5.13408E+00 2.37666E+01-2.06119E-01 1.01442E+01 4.98662E-02 3.69671E-03
 -1       919-3.96943E+00 2.56560E+01-1.49134E-02 9.05627E+00-7.78835E-03 1.83744E-03
 -1       920 6.50112E+00 2.78026E+01-8.84121E-02 7.56999E+00 6.38621E-03 5.77200E-04
 -1       921 4.42357E+00 2.96939E+01-7.44215E-03 6.31101E+00 3.76992E-03-8.21717E-05
 -1       922 1.20950E+01 3.18386E+01-2.48028E-02 8.01831E+00 1.61590E-03 6.47886E-06
 -1       923 9.37134E+00 3.29845E+01 6.98866E-04 5.57751E+00 1.74899E-03 9.45566E-05
 -1       924 1.45331E+01 3.62331E+01-1.06807E-02 8.27285E+00 1.63479E-03-3.39804E-04
 -1       925 1.22905E+01 3.60613E+01-2.65727E-04 4.93180E+00 6.18023E-04-2.70579E-04
 -1       926 1.57906E+01 4.03685E+01-3.17443E-03 7.66412E+00 1.95089E-04-1.42969E-04
 -1       927 1.43763E+01 3.86470E+01 4.88372E-04 3.96017E+00 4.29429E-04-6.75395E-05
 -1       928 1.67492E+01 4.37974E+01-7.03364E-04 6.38968E+00 2.87243E-04-1.72539E-04
 -1       929 1.61641E+01 4.05355E+01 1.40875E-04 2.82316E+00 4.61147E-05-4.90566E-06
 -1       930 1.76680E+01 4.63576E+01 1.77757E-04 4.79390E+00 1.35634E-04-2.13670E-04
 -1       931 1.77314E+01 4.17403E+01 2.16324E-04 1.76555E+00 1.83544E-05 7.97119E-05
 -1       932 1.84945E+01 4.80692E+01 6.35928E-04 3.13507E+00 1.14404E-04-2.51886E-04
 -1       933 1.89281E+01 4.23983E+01 1.63618E-04 9.24898E-01-2.51498E-05 1.27460E-04
 -1       934 1.90660E+01 4.90262E+01 8.00299E-04 1.54015E+00 5.81227E-05-2.93111E-04
 -1       935 1.95496E+01 4.26726E+01 1.69120E-04 2.96514E-01-6.40226E-06 1.55796E-04
 -1       936 1.92244E+01 4.93243E+01 8.84584E-04 2.46049E-02 8.80595E-06-3.10389E-04
 -1       937 1.94398E+01 4.26806E+01 1.68065E-04-2.37017E-01 1.46310E-05 1.67910E-04
 -1       938 1.88690E+01 4.90228E+01 8.94896E-04-1.46518E+00-3.81934E-05-3.15595E-04
 -1       939 1.85414E+01 4.24574E+01 1.79732E-04-8.52577E-01 3.67643E-05 1.70151E-04
 -1       940 1.79738E+01 4.81325E+01 8.53260E-04-3.00938E+00-6.30529E-05-3.14308E-04
 -1       941 1.69067E+01 4.19494E+01 2.04825E-04-1.73218E+00 4.43777E-05 1.70564E-04
 -1       942 1.65802E+01 4.66221E+01 7.43586E-04-4.68132E+00-4.69061E-05-3.36344E-04
 -1       943 1.46833E+01 4.10291E+01 2.68875E-04-3.01913E+00 2.14730E-05 1.96726E-04
 -1       944 1.47800E+01 4.44331E+01 5.25074E-04-6.52702E+00 4.74501E-05-4.21098E-04
 -1       945 1.20855E+01 3.95215E+01 3.78040E-04-4.79031E+00-4.23092E-05 2.58637E-04
 -1       946 1.26946E+01 4.14964E+01 7.10004E-05-8.55858E+00 2.53076E-04-7.67494E-04
 -1       947 9.36556E+00 3.72328E+01 7.31922E-04-7.04637E+00-2.01310E-04 5.62501E-04
 -1       948 1.04624E+01 3.77430E+01-7.72108E-04-1.07606E+01 6.89941E-04-1.36107E-03
 -1       949 6.79687E+00 3.39704E+01 1.05590E-03-9.71458E+00-3.99084E-04 8.53726E-04
 -1       950 8.24913E+00 3.30987E+01-3.30051E-03-1.31033E+01 1.20452E-03-4.01868E-03
 -1       951 4.68935E+00 2.95477E+01 3.22079E-03-1.26474E+01-8.90927E-04 3.21839E-03
 -1       952 6.30453E+00 2.74517E+01-6.59151E-03-1.55379E+01 2.48833E-03-6.11418E-03
 -1       953 3.42409E+00 2.37979E+01 3.47959E-03-1.55723E+01-1.05460E-03 2.57802E-03
 -1       954 5.04784E+00 2.06272E+01-3.02010E-02-1.79133E+01 2.82745E-03-2.82743E-02
 -1       955 3.44456E+00 1.67148E+01 2.24435E-02-1.79493E+01-3.10115E-03 2.54715E-02
 -1       956 5.12597E+00 1.25791E+01-6.41905E-02-1.96252E+01 4.78255E-03-4.76090E-02
 -1       957 4.76244E+00 9.08526E+00 4.41189E-02-1.88916E+01 5.32935E-05 9.01520E-03
 -1       958 5.78540E+00 4.23075E+00-5.80611E-01-1.93106E+01 1.37196E-02-5.12020E-01
 -1       959 6.74359E+00 3.66751E+00 4.98986E-01-1.83501E+01-1.78749E-02 5.03318E-01
 -1       960-3.38209E+00-4.76128E+01-1.50274E-02 1.56387E+01-9.51421E-02-2.63034E-02
 -1       961-1.09795E+01-3.43714E+01-5.02312E-02 3.19294E+01-1.03908E-01-3.90911E-02
 -1       962-1.33281E+01-1.27020E+01 5.76217E-02 2.60933E+01 3.03762E-04 2.01352E-02
 -1       963-1.83770E+01 6.06619E+00 2.61743E-03 2.45921E+01 6.38981E-02 2.56222E-03
 -1       964-1.54397E+01 1.28376E+01-6.19520E-04 1.83932E+01-1.69780E-03-1.87994E-03
 -1       965-1.13189E+01 2.21974E+01 2.19579E-02 1.23201E+01-6.55645E-03 6.65603E-03
 -1       966-9.44753E+00 2.39905E+01 2.05328E-02 9.57345E+00 7.55939E-05 2.35147E-03
 -1       967-2.13481E+00 2.76472E+01 4.17686E-02 6.44698E+00-6.25827E-04 7.56475E-04
 -1       968-2.30638E+00 2.82713E+01 3.77226E-03 4.60396E+00-1.15191E-03-6.07027E-04
 -1       969 4.30199E+00 3.05142E+01 1.50965E-02 4.35123E+00-2.15493E-04-1.27217E-05
 -1       970 3.32615E+00 3.03963E+01 1.24875E-03 2.12384E+00-1.13891E-03-1.70597E-04
 -1       971 8.44742E+00 3.29197E+01 6.76281E-03 3.27227E+00-4.91645E-04 8.36031E-05
 -1       972 7.54558E+00 3.17355E+01 3.00323E-04 6.14327E-01-3.85863E-04-2.58286E-05
 -1       973 1.14312E+01 3.48847E+01 2.43120E-03 2.24444E+00-1.45890E-04 4.98783E-05
 -1       974 1.09783E+01 3.24785E+01 7.28911E-05-4.92676E-01-3.04701E-04 5.19725E-05
 -1       975 1.39488E+01 3.62358E+01 9.58106E-04 1.21697E+00-1.69250E-04 1.68558E-05
 -1       976 1.39671E+01 3.26716E+01 3.20107E-05-1.21297E+00-1.13433E-04 8.34125E-05
 -1       977 1.61943E+01 3.69685E+01 4.09329E-04 3.96930E-01-8.03847E-05 3.25251E-05
 -1       978 1.65069E+01 3.24722E+01 4.65210E-05-1.43177E+00-7.20869E-05 9.28104E-05
 -1       979 1.80472E+01 3.72447E+01 2.30432E-04-5.71403E-02-6.02517E-05 3.18222E-05
 -1       980 1.83893E+01 3.21283E+01 4.80013E-05-1.12237E+00-3.40273E-05 9.66748E-05
 -1       981 1.92683E+01 3.72856E+01 1.67061E-04-1.35419E-01-2.25304E-05 3.75384E-05
 -1       982 1.93616E+01 3.18857E+01 5.89601E-05-4.10139E-01-2.11975E-05 9.91029E-05
 -1       983 1.96385E+01 3.72781E+01 1.42039E-04 2.43863E-02 9.09565E-06 3.61293E-05
 -1       984 1.92442E+01 3.19059E+01 6.77748E-05 4.48735E-01-1.55329E-05 1.01977E-04
 -1       985 1.90405E+01 3.73141E+01 1.15423E-04 1.87427E-01 5.09712E-05 2.36054E-05
 -1       986 1.79961E+01 3.22176E+01 8.51632E-05 1.12895E+00-2.09976E-05 1.09035E-04
 -1       987 1.74925E+01 3.73660E+01 6.78520E-05 8.69392E-02 1.08837E-04-9.31328E-06
 -1       988 1.57339E+01 3.27054E+01 1.15607E-04 1.30858E+00-4.03448E-05 1.26053E-04
 -1       989 1.51449E+01 3.72926E+01-2.94395E-05-5.13990E-01 2.00128E-04-9.14669E-05
 -1       990 1.27153E+01 3.31284E+01 1.81866E-04 7.34060E-01-8.36457E-05 1.75780E-04
 -1       991 1.22519E+01 3.68673E+01-2.16847E-04-1.77527E+00 3.45643E-04-2.54180E-04
 -1       992 9.29980E+00 3.31612E+01 2.95946E-04-7.33106E-01-1.58107E-04 2.68884E-04
 -1       993 9.13241E+00 3.58166E+01-6.29468E-04-3.75264E+00 5.92602E-04-6.86827E-04
 -1       994 5.90069E+00 3.24421E+01 5.85165E-04-3.09158E+00-2.98325E-04 5.68532E-04
 -1       995 6.13274E+00 3.38587E+01-1.34499E-03-6.39047E+00 9.46724E-04-1.36484E-03
 -1       996 2.94475E+00 3.06196E+01 9.96339E-04-6.19253E+00-4.51091E-04 8.91317E-04
 -1       997 3.60713E+00 3.07299E+01-3.41846E-03-9.52456E+00 1.59411E-03-3.82678E-03
 -1       998 8.48243E-01 2.73943E+01 2.54986E-03-9.73317E+00-8.95857E-04 2.84541E-03
 -1       999 1.93059E+00 2.62029E+01-6.40255E-03-1.28688E+01 1.86159E-03-5.87758E-03
 -1      1000-8.65423E-03 2.25850E+01 4.01568E-03-1.32262E+01-5.45531E-04 2.65135E-03
 -1      1001 1.49797E+00 2.01367E+01-2.24040E-02-1.59457E+01 4.67672E-03-2.51067E-02
 -1      1002 6.05960E-01 1.63185E+01 1.94056E-02-1.59627E+01-4.16040E-03 2.09750E-02
 -1      1003 2.53509E+00 1.27801E+01-6.34423E-02-1.79426E+01-2.92126E-03-3.80129E-02
 -1      1004 2.37113E+00 9.43231E+00 3.84661E-02-1.72243E+01 6.27128E-03 9.45236E-03
 -1      1005 3.78202E+00 5.29582E+00-4.69741E-01-1.80259E+01 1.24386E-02-4.29544E-01
 -1      1006 4.64109E+00 3.86525E+00 3.65377E-01-1.73859E+01-3.17677E-02 3.81383E-01
 -1      1007-2.28046E+00-3.53001E+01-5.43400E-02 1.19853E+01 5.14168E-02-4.13653E-02
 -1      1008-7.17624E+00-2.78803E+01 2.80834E-03 2.48682E+01 6.62308E-02-2.49677E-02
 -1      1009-1.07051E+01-1.06283E+01 3.71945E-02 2.21426E+01-2.57449E-02 1.14034E-02
 -1      1010-1.60227E+01 3.33989E+00 2.33185E-03 2.31808E+01 3.01911E-03-1.15716E-02
 -1      1011-1.50504E+01 1.07073E+01-1.34948E-02 1.75577E+01 3.89555E-03-4.03955E-03
 -1      1012-1.42496E+01 1.98312E+01 2.26705E-03 1.32731E+01-1.35957E-03 3.88349E-03
 -1      1013-1.23555E+01 2.18399E+01-5.02691E-03 9.47532E+00-2.74590E-03 5.06100E-04
 -1      1014-7.78241E+00 2.61180E+01-9.75670E-03 6.00753E+00 2.06165E-03 5.70721E-05
 -1      1015-6.79916E+00 2.61874E+01-4.28664E-03 3.43312E+00-3.47883E-04-3.97282E-04
 -1      1016-1.48858E+00 2.84716E+01-4.89114E-03 2.04665E+00 7.51232E-04 7.89755E-04
 -1      1017-1.22084E+00 2.75230E+01-7.24306E-04-2.60690E-01 1.44877E-05 4.52690E-05
 -1      1018 3.53968E+00 2.94931E+01-2.43671E-03-2.10872E-01 5.88198E-04 2.21563E-04
 -1      1019 3.66380E+00 2.75554E+01-2.94885E-04-2.48638E+00 6.72832E-05-4.08581E-05
 -1      1020 7.66580E+00 2.98036E+01-8.61765E-04-1.68135E+00 1.26608E-04 1.00472E-04
 -1      1021 7.96196E+00 2.68675E+01-5.81372E-05-3.75887E+00 6.82297E-05-6.99454E-06
 -1      1022 1.12823E+01 2.95384E+01-2.97305E-04-2.57700E+00 7.69400E-05 5.22955E-05
 -1      1023 1.17740E+01 2.57353E+01-4.11352E-05-4.19668E+00 3.29183E-05-3.71433E-06
 -1      1024 1.44654E+01 2.88651E+01-1.47073E-07-2.83125E+00-1.72866E-06 4.98077E-05
 -1      1025 1.49895E+01 2.44488E+01-4.54108E-05-3.79792E+00 1.75294E-05 1.03802E-05
 -1      1026 1.70336E+01 2.80558E+01 1.13024E-04-2.39423E+00-2.52587E-06 4.83473E-05
 -1      1027 1.73467E+01 2.33386E+01-5.53397E-05-2.63643E+00 4.61883E-06 1.87053E-05
 -1      1028 1.87016E+01 2.74138E+01 1.67168E-04-1.36060E+00 2.55728E-06 5.17253E-05
 -1      1029 1.85631E+01 2.27030E+01-5.87783E-05-9.35630E-01-2.74255E-06 2.58836E-05
 -1      1030 1.92202E+01 2.71793E+01 1.82228E-04 1.71451E-02 2.37157E-05 4.75859E-05
 -1      1031 1.84496E+01 2.27272E+01-5.54691E-05 9.46530E-01-1.13422E-05 3.25293E-05
 -1      1032 1.84700E+01 2.74588E+01 1.70352E-04 1.37839E+00 5.62725E-05 3.35410E-05
 -1      1033 1.69822E+01 2.34305E+01-4.14115E-05 2.58178E+00-2.42330E-05 4.28867E-05
 -1      1034 1.65049E+01 2.81939E+01 1.26799E-04 2.33078E+00 1.06665E-04-4.69874E-07
 -1      1035 1.43244E+01 2.46517E+01-1.21433E-05 3.55365E+00-4.61477E-05 6.24782E-05
 -1      1036 1.35509E+01 2.91668E+01 3.25243E-05 2.52856E+00 1.86483E-04-7.92457E-05
 -1      1037 1.08099E+01 2.60716E+01 4.63395E-05 3.53516E+00-8.51853E-05 1.09363E-04
 -1      1038 9.97285E+00 3.00357E+01-1.47297E-04 1.73696E+00 3.09381E-04-2.31902E-04
 -1      1039 6.89514E+00 2.72618E+01 1.47931E-04 2.34830E+00-1.42340E-04 1.91995E-04
 -1      1040 6.22132E+00 3.03887E+01-5.18522E-04-1.26074E-01 5.12173E-04-6.03668E-04
 -1      1041 3.09837E+00 2.77482E+01 3.68265E-04-8.40502E-04-2.53140E-04 4.28849E-04
 -1      1042 2.77718E+00 2.98018E+01-1.18269E-03-2.97171E+00 7.62402E-04-1.18768E-03
 -1      1043-6.21210E-02 2.70779E+01 6.90831E-04-3.30793E+00-3.20761E-04 6.80455E-04
 -1      1044 1.05323E-01 2.78931E+01-2.84646E-03-6.53661E+00 1.30632E-03-3.11817E-03
 -1      1045-2.12425E+00 2.48889E+01 1.80463E-03-7.16608E+00-7.37053E-04 2.09856E-03
 -1      1046-1.37854E+00 2.43790E+01-5.68527E-03-1.03732E+01 1.13127E-03-4.69069E-03
 -1      1047-2.75240E+00 2.10036E+01 2.75006E-03-1.09651E+01 3.99712E-05 1.89243E-03
 -1      1048-1.37249E+00 1.91752E+01-1.71136E-02-1.38219E+01 4.12893E-03-1.92910E-02
 -1      1049-1.87317E+00 1.56044E+01 1.35635E-02-1.39436E+01-3.93018E-03 1.48210E-02
 -1      1050 7.70993E-02 1.26676E+01-4.92450E-02-1.60496E+01-5.96623E-03-2.72597E-02
 -1      1051 6.85271E-02 9.43737E+00 2.65472E-02-1.55178E+01 9.23702E-03 5.54492E-03
 -1      1052 1.71703E+00 5.90429E+00-3.30740E-01-1.65951E+01 1.29889E-02-3.11365E-01
 -1      1053 2.51631E+00 3.77279E+00 2.40590E-01-1.61797E+01-3.58179E-02 2.57435E-01
 -1      1054-1.75873E+00-2.60429E+01-6.76743E-03 9.48003E+00-2.16239E-03-1.70406E-02
 -1      1055-5.37529E+00-2.17895E+01-4.73356E-04 1.97929E+01-3.13260E-04-1.56565E-02
 -1      1056-8.97752E+00-8.32023E+00 1.58308E-02 1.86488E+01-7.43962E-03 8.99119E-03
 -1      1057-1.39242E+01 2.18012E+00-5.05651E-03 2.07510E+01 1.26894E-02-5.90791E-03
 -1      1058-1.42137E+01 9.23493E+00-3.53483E-03 1.59531E+01 1.10036E-03-1.98327E-03
 -1      1059-1.51036E+01 1.74242E+01 2.10324E-04 1.30158E+01-1.10354E-03 2.11684E-03
 -1      1060-1.37173E+01 1.95524E+01 1.57610E-04 8.84198E+00-6.85210E-04 6.31269E-04
 -1      1061-1.10207E+01 2.39819E+01 1.32382E-03 5.48852E+00 1.28943E-03 1.69866E-04
 -1      1062-9.68449E+00 2.36984E+01 1.08794E-04 2.44125E+00 7.83288E-06-2.65417E-04
 -1      1063-5.53079E+00 2.59872E+01 2.38869E-03 4.25238E-01 2.17605E-04 3.54294E-04
 -1      1064-4.57095E+00 2.44233E+01 3.65003E-04-1.99921E+00-1.89263E-04-6.16511E-05
 -1      1065-2.82819E-01 2.60039E+01 1.74817E-03-2.70332E+00 1.09729E-04 3.42833E-05
 -1      1066 5.26919E-01 2.34715E+01 4.91003E-05-4.75511E+00-9.88663E-05-7.07948E-05
 -1      1067 4.47830E+00 2.50375E+01 9.34320E-04-4.55761E+00 4.25641E-05 5.01796E-05
 -1      1068 5.31364E+00 2.16730E+01-1.18467E-05-6.17988E+00-7.39115E-05-2.45715E-05
 -1      1069 8.80807E+00 2.35042E+01 5.31168E-04-5.38978E+00-5.58481E-06 3.48133E-05
 -1      1070 9.65385E+00 1.95006E+01-4.94139E-05-6.42508E+00-3.47532E-05-8.85596E-06
 -1      1071 1.26282E+01 2.17304E+01 3.21071E-04-5.23260E+00-1.01779E-05 3.10448E-05
 -1      1072 1.33211E+01 1.73618E+01-6.03491E-05-5.56978E+00-1.98952E-05 2.57085E-08
 -1      1073 1.56863E+01 2.00805E+01 2.34527E-04-4.13218E+00-8.90582E-06 3.07559E-05
 -1      1074 1.60001E+01 1.56541E+01-6.29481E-05-3.77103E+00-1.12490E-05 2.78790E-06
 -1      1075 1.76606E+01 1.89147E+01 1.96339E-04-2.27194E+00 2.60409E-06 2.91390E-05
 -1      1076 1.73848E+01 1.47122E+01-6.20746E-05-1.33102E+00-1.09173E-05 4.90642E-06
 -1      1077 1.82850E+01 1.85045E+01 1.74174E-04 7.38951E-03 2.04988E-05 2.42601E-05
 -1      1078 1.72827E+01 1.47341E+01-5.69652E-05 1.31622E+00-1.52936E-05 8.16388E-06
 -1      1079 1.74440E+01 1.89615E+01 1.49451E-04 2.25563E+00 4.71421E-05 1.09592E-05
 -1      1080 1.56843E+01 1.57288E+01-4.57427E-05 3.66974E+00-2.49778E-05 1.57363E-05
 -1      1081 1.52193E+01 2.02022E+01 1.08919E-04 3.99438E+00 8.58612E-05-1.79437E-05
 -1      1082 1.27875E+01 1.75016E+01-2.53240E-05 5.24847E+00-4.04017E-05 3.07987E-05
 -1      1083 1.18902E+01 2.19545E+01 3.44437E-05 4.80484E+00 1.44722E-04-8.08030E-05
 -1      1084 8.97749E+00 1.96785E+01 1.37032E-05 5.67641E+00-6.59518E-05 6.46126E-05
 -1      1085 7.89584E+00 2.37978E+01-9.71412E-05 4.40290E+00 2.28157E-04-1.97786E-04
 -1      1086 4.77497E+00 2.17613E+01 7.52221E-05 4.75001E+00-9.68395E-05 1.18962E-04
 -1      1087 3.77385E+00 2.52262E+01-3.57857E-04 2.69083E+00 3.67268E-04-4.67333E-04
 -1      1088 7.64084E-01 2.32014E+01 2.20345E-04 2.47992E+00-1.65552E-04 2.70454E-04
 -1      1089 8.91189E-02 2.57227E+01-7.99788E-04-2.17327E-01 4.94196E-04-8.67221E-04
 -1      1090-2.48588E+00 2.34829E+01 3.78069E-04-8.92187E-01-1.60895E-04 3.96207E-04
 -1      1091-2.63478E+00 2.48341E+01-1.89094E-03-3.98980E+00 9.01941E-04-2.18250E-03
 -1      1092-4.50111E+00 2.22099E+01 1.17604E-03-4.89606E+00-5.00613E-04 1.28976E-03
 -1      1093-3.98426E+00 2.22532E+01-3.67672E-03-8.07927E+00 4.14342E-04-3.02220E-03
 -1      1094-4.99976E+00 1.92108E+01 1.30229E-03-8.86010E+00 4.29707E-04 7.99851E-04
 -1      1095-3.75754E+00 1.79362E+01-1.13080E-02-1.17422E+01 3.34992E-03-1.26653E-02
 -1      1096-4.01672E+00 1.46719E+01 8.51828E-03-1.20202E+01-3.38021E-03 9.19025E-03
 -1      1097-2.15778E+00 1.22944E+01-3.05668E-02-1.41851E+01-7.82938E-03-1.45205E-02
 -1      1098-2.02607E+00 9.18664E+00 1.01440E-02-1.38689E+01 1.07088E-02-1.45310E-03
 -1      1099-2.29660E-01 6.16039E+00-2.01286E-01-1.51332E+01 1.24650E-02-1.93096E-01
 -1      1100 5.46980E-01 3.52821E+00 1.34645E-01-1.48666E+01-3.50257E-02 1.49418E-01
 -1      1101-1.42926E+00-1.90093E+01-8.87489E-03 7.61129E+00 5.71340E-03-1.44156E-02
 -1      1102-4.23745E+00-1.66850E+01-1.30027E-03 1.59870E+01 9.22633E-03-8.11167E-03
 -1      1103-7.74307E+00-6.17364E+00 9.72052E-03 1.56206E+01-6.66968E-03 6.53509E-03
 -1      1104-1.22270E+01 1.81807E+00-2.27547E-03 1.80649E+01 4.94665E-03-5.63563E-03
 -1      1105-1.33048E+01 8.10952E+00-1.69423E-03 1.40379E+01 1.27017E-03-1.40185E-03
 -1      1106-1.50853E+01 1.52405E+01 2.82353E-03 1.20468E+01-7.73827E-04 1.46395E-03
 -1      1107-1.42643E+01 1.72763E+01-4.41459E-04 7.85707E+00-5.61789E-04 3.34745E-04
 -1      1108-1.29001E+01 2.15483E+01-1.63635E-05 4.79880E+00 5.44008E-04-3.68197E-05
 -1      1109-1.15341E+01 2.10091E+01-7.89330E-04 1.48873E+00-8.82134E-05-2.03997E-04
 -1      1110-8.37868E+00 2.32069E+01 3.69562E-04-8.16123E-01 1.62227E-04 3.00073E-04
 -1      1111-7.04295E+00 2.12038E+01-4.22478E-04-3.35116E+00-1.41280E-04-3.18681E-05
 -1      1112-3.27180E+00 2.24598E+01 2.47500E-05-4.53617E+00 2.29010E-04 1.20207E-04
 -1      1113-2.01243E+00 1.94777E+01-2.46037E-04-6.46165E+00-4.97105E-05-4.28061E-05
 -1      1114 1.77627E+00 2.05059E+01 1.09239E-04-6.69281E+00 9.84543E-05 9.39390E-05
 -1      1115 2.99268E+00 1.68040E+01-1.30880E-04-8.00258E+00-1.99806E-05-1.83021E-05
 -1      1116 6.53230E+00 1.79748E+01 1.25638E-04-7.49695E+00 5.55492E-05 4.72508E-05
 -1      1117 7.63859E+00 1.38064E+01-9.26736E-05-8.10961E+00-5.61672E-06-1.38744E-05
 -1      1118 1.07645E+01 1.53322E+01 1.55879E-04-7.03898E+00 2.16324E-05 3.20837E-05
 -1      1119 1.15888E+01 1.09912E+01-7.76303E-05-6.91214E+00-6.91497E-07-9.42420E-06
 -1      1120 1.41478E+01 1.30214E+01 1.70083E-04-5.44084E+00 1.08843E-05 2.37653E-05
 -1      1121 1.44759E+01 8.81063E+00-7.35885E-05-4.63130E+00-2.08801E-07-7.19511E-06
 -1      1122 1.63278E+01 1.14457E+01 1.77872E-04-2.95871E+00 9.43488E-06 2.00337E-05
 -1      1123 1.59733E+01 7.62572E+00-7.22726E-05-1.63116E+00-1.71897E-06-5.20284E-06
 -1      1124 1.70278E+01 1.08961E+01 1.77537E-04-1.67784E-03 1.60066E-05 1.55520E-05
 -1      1125 1.58863E+01 7.64130E+00-7.05632E-05 1.59716E+00-4.48171E-06-2.87767E-06
 -1      1126 1.61378E+01 1.14838E+01 1.68424E-04 2.91516E+00 2.85354E-05 6.87283E-06
 -1      1127 1.42175E+01 8.85676E+00-6.66941E-05 4.50098E+00-8.27905E-06 9.65681E-07
 -1      1128 1.37607E+01 1.31060E+01 1.47507E-04 5.25389E+00 4.72440E-05-1.01110E-05
 -1      1129 1.11885E+01 1.10528E+01-6.03483E-05 6.55501E+00-1.24563E-05 6.81557E-06
 -1      1130 1.02128E+01 1.54517E+01 1.06437E-04 6.54646E+00 7.50395E-05-4.49604E-05
 -1      1131 7.21949E+00 1.38174E+01-4.64795E-05 7.35049E+00-1.90145E-05 1.92208E-05
 -1      1132 5.98288E+00 1.80461E+01 3.88567E-05 6.47629E+00 1.09327E-04-1.03739E-04
 -1      1133 2.87193E+00 1.66055E+01-3.51681E-05 6.66718E+00-2.00451E-05 3.10761E-05
 -1      1134 1.66404E+00 2.03210E+01-1.00944E-04 4.93600E+00 1.72652E-04-2.40762E-04
 -1      1135-1.23054E+00 1.88205E+01 2.51862E-05 4.51861E+00-4.42072E-05 8.54433E-05
 -1      1136-2.12890E+00 2.16993E+01-2.85083E-04 2.05692E+00 1.89308E-04-3.97970E-04
 -1      1137-4.49328E+00 1.99077E+01-1.92277E-05 1.16877E+00 1.89100E-05 4.84232E-05
 -1      1138-4.84604E+00 2.16864E+01-8.75133E-04-1.78632E+00 4.41571E-04-1.07343E-03
 -1      1139-6.44790E+00 1.94541E+01 4.50372E-04-2.87889E+00-2.31630E-04 4.68930E-04
 -1      1140-6.09461E+00 1.99674E+01-1.25497E-03-5.99235E+00-2.14389E-04-1.01251E-03
 -1      1141-6.86138E+00 1.72907E+01-5.49787E-04-6.93036E+00 7.42285E-04-5.96293E-04
 -1      1142-5.75543E+00 1.65191E+01-5.56763E-03-9.79030E+00 2.43916E-03-6.37618E-03
 -1      1143-5.83922E+00 1.35822E+01 4.30412E-03-1.02368E+01-2.72164E-03 4.34259E-03
 -1      1144-4.11377E+00 1.17191E+01-9.13493E-03-1.24327E+01-8.65095E-03-1.09781E-03
 -1      1145-3.85413E+00 8.75740E+00-7.97264E-03-1.23165E+01 1.10568E-02-1.06627E-02
 -1      1146-1.97420E+00 6.17353E+00-9.07763E-02-1.37000E+01 1.13034E-02-8.79423E-02
 -1      1147-1.18450E+00 3.21725E+00 5.22979E-02-1.35253E+01-3.18214E-02 6.27486E-02
 -1      1148-1.21335E+00-1.36403E+01-3.35389E-03 6.13468E+00 1.38835E-03-9.81362E-03
 -1      1149-3.52103E+00-1.25562E+01-2.61189E-04 1.29875E+01 2.57046E-03-5.18589E-03
 -1      1150-6.84225E+00-4.36145E+00 6.02289E-03 1.29820E+01-3.72973E-03 5.10792E-03
 -1      1151-1.09024E+01 1.78953E+00-2.61048E-03 1.54384E+01 4.11902E-03-4.25240E-03
 -1      1152-1.24472E+01 7.18767E+00-9.04091E-04 1.20389E+01 6.37674E-04-9.03475E-04
 -1      1153-1.46873E+01 1.32800E+01 1.08224E-03 1.06866E+01-5.37649E-04 7.56657E-04
 -1      1154-1.43624E+01 1.50790E+01-1.20201E-04 6.66122E+00-2.66480E-04 3.20126E-04
 -1      1155-1.39154E+01 1.90108E+01 1.05863E-04 3.93737E+00 4.07848E-04-1.09955E-04
 -1      1156-1.26921E+01 1.82461E+01-4.24140E-04 5.27369E-01-1.80773E-05-1.17699E-04
 -1      1157-1.03454E+01 2.02663E+01 4.67458E-04-1.86821E+00 1.32985E-04 2.02341E-04
 -1      1158-8.86390E+00 1.79302E+01-1.86370E-04-4.46935E+00-7.43904E-05-2.43098E-05
 -1      1159-5.58963E+00 1.88981E+01 4.46895E-04-5.94404E+00 1.31730E-04 8.67795E-05
 -1      1160-4.07287E+00 1.55669E+01-1.23734E-04-7.78764E+00-3.51397E-05-4.07810E-05
 -1      1161-5.05423E-01 1.61628E+01 4.02187E-04-8.31143E+00 6.36037E-05 6.72937E-05
 -1      1162 9.57736E-01 1.21913E+01-9.27373E-05-9.40058E+00-2.78050E-05-2.33367E-05
 -1      1163 4.45658E+00 1.28381E+01 3.18226E-04-9.09708E+00 3.35735E-05 3.91617E-05
 -1      1164 5.74181E+00 8.53311E+00-8.56609E-05-9.40008E+00-1.49416E-05-1.67753E-05
 -1      1165 8.92706E+00 9.50283E+00 2.60289E-04-8.41376E+00 1.41434E-05 2.89213E-05
 -1      1166 9.84659E+00 5.17653E+00-8.20492E-05-7.94094E+00-7.38511E-06-1.12471E-05
 -1      1167 1.25102E+01 6.66624E+00 2.26689E-04-6.43762E+00 4.42753E-06 2.29655E-05
 -1      1168 1.28557E+01 2.61793E+00-8.15042E-05-5.29063E+00-1.50109E-06-8.87584E-06
 -1      1169 1.48208E+01 4.76500E+00 2.09913E-04-3.48191E+00 5.00956E-08 2.04063E-05
 -1      1170 1.44234E+01 1.23809E+00-8.25478E-05-1.86053E+00 2.85392E-06-8.16626E-06
 -1      1171 1.55733E+01 4.10277E+00 2.02368E-04-8.24457E-03-1.74510E-06 1.90751E-05
 -1      1172 1.43528E+01 1.24545E+00-8.54102E-05 1.81572E+00 7.38136E-06-9.05670E-06
 -1      1173 1.46623E+01 4.78849E+00 1.98984E-04 3.42102E+00-3.08126E-06 1.81582E-05
 -1      1174 1.26548E+01 2.63131E+00-9.03827E-05 5.14862E+00 1.34975E-05-1.19476E-05
 -1      1175 1.22065E+01 6.70378E+00 1.98270E-04 6.22670E+00-6.37650E-06 1.83533E-05
 -1      1176 9.56761E+00 5.15850E+00-1.00433E-04 7.58278E+00 2.36018E-05-1.94504E-05
 -1      1177 8.54706E+00 9.51066E+00 1.97591E-04 7.90771E+00-1.25679E-05 1.95672E-05
 -1      1178 5.53341E+00 8.38930E+00-1.14541E-04 8.68773E+00 3.79534E-05-3.34161E-05
 -1      1179 4.20467E+00 1.26977E+01 2.07628E-04 8.12608E+00-2.86322E-05 3.17703E-05
 -1      1180 1.13851E+00 1.17478E+01-1.55928E-04 8.23210E+00 6.55971E-05-7.10227E-05
 -1      1181-1.93701E-01 1.56555E+01 2.03522E-04 6.76811E+00-3.88836E-05 3.94430E-05
 -1      1182-2.97184E+00 1.46072E+01-1.79997E-04 6.23019E+00 8.25695E-05-1.14397E-04
 -1      1183-4.00597E+00 1.77698E+01 3.07279E-04 3.97531E+00-1.14593E-04 1.47285E-04
 -1      1184-6.19319E+00 1.63898E+01-4.26523E-04 2.95657E+00 1.85692E-04-3.25164E-04
 -1      1185-6.67455E+00 1.85225E+01 2.00096E-04 1.45233E-01 1.73512E-06 6.99987E-05
 -1      1186-8.06938E+00 1.66742E+01-2.46632E-04-1.07338E+00 2.06395E-05-2.99181E-04
 -1      1187-7.83246E+00 1.75977E+01 1.33139E-03-4.09878E+00-7.24394E-04 1.14943E-03
 -1      1188-8.40633E+00 1.52909E+01-2.49287E-03-5.16758E+00 9.43349E-04-2.06922E-03
 -1      1189-7.42177E+00 1.49786E+01-1.88567E-04-7.98966E+00 1.52626E-03-7.99832E-04
 -1      1190-7.35525E+00 1.23747E+01 8.45204E-04-8.59855E+00-1.99698E-03 4.53733E-04
 -1      1191-5.76832E+00 1.09893E+01 1.21139E-02-1.08161E+01-8.83561E-03 1.21638E-02
 -1      1192-5.38777E+00 8.20570E+00-2.55622E-02-1.08739E+01 1.05437E-02-2.07041E-02
 -1      1193-3.47904E+00 6.02693E+00-2.73471E-03-1.23293E+01 9.56245E-03-1.42895E-03
 -1      1194-2.63979E+00 2.89153E+00-7.60150E-03-1.22023E+01-2.70940E-02-2.28624E-03
 -1      1195-1.06430E+00-9.54560E+00-2.70307E-03 4.91394E+00 1.44971E-03-7.70457E-03
 -1      1196-3.03325E+00-9.28939E+00-5.05026E-04 1.05248E+01 2.20641E-03-3.05371E-03
 -1      1197-6.15741E+00-2.90567E+00 4.03349E-03 1.06589E+01-2.52808E-03 3.91205E-03
 -1      1198-9.85249E+00 1.86466E+00-2.12354E-03 1.29729E+01 2.42760E-03-3.49367E-03
 -1      1199-1.16675E+01 6.36780E+00-4.49168E-04 1.00683E+01 4.65933E-04-5.90793E-04
 -1      1200-1.41324E+01 1.15088E+01 8.78770E-04 9.14211E+00-3.56321E-04 4.67107E-04
 -1      1201-1.42106E+01 1.29723E+01-1.69517E-05 5.35740E+00-1.44395E-04 2.58612E-04
 -1      1202-1.44027E+01 1.64700E+01 2.06624E-04 2.94967E+00 1.81259E-04-1.44822E-04
 -1      1203-1.33920E+01 1.54750E+01-3.10198E-04-4.50146E-01 6.15438E-06-7.25258E-05
 -1      1204-1.16989E+01 1.72552E+01 4.06752E-04-2.82394E+00 4.19561E-05 1.37146E-04
 -1      1205-1.02109E+01 1.46480E+01-2.11081E-04-5.44490E+00-4.42039E-05-1.62620E-05
 -1      1206-7.39861E+00 1.53450E+01 3.23771E-04-7.07604E+00 8.08623E-05 7.11165E-05
 -1      1207-5.75832E+00 1.17371E+01-1.70465E-04-8.85710E+00-2.63427E-05-3.20160E-05
 -1      1208-2.44377E+00 1.19740E+01 2.92123E-04-9.56989E+00 4.99289E-05 6.49411E-05
 -1      1209-8.35131E-01 7.78664E+00-1.31447E-04-1.04985E+01-1.95186E-05-2.04780E-05
 -1      1210 2.56420E+00 8.01054E+00 2.47051E-04-1.03324E+01 3.32772E-05 4.30911E-05
 -1      1211 3.96372E+00 3.59334E+00-1.09267E-04-1.04055E+01-9.16802E-06-1.59811E-05
 -1      1212 7.14234E+00 4.11841E+00 2.24101E-04-9.47387E+00 1.45797E-05 3.22003E-05
 -1      1213 8.12602E+00-2.00185E-01-9.75786E-05-8.74034E+00-1.20699E-06-1.20065E-05
 -1      1214 1.08308E+01 8.59889E-01 2.12510E-04-7.20593E+00 7.63271E-07 2.56267E-05
 -1      1215 1.11918E+01-3.06333E+00-9.39750E-05-5.80211E+00 6.34911E-06-1.07933E-05
 -1      1216 1.32154E+01-1.30233E+00 2.11001E-04-3.88474E+00-1.17469E-05 2.42411E-05
 -1      1217 1.27973E+01-4.60057E+00-9.62704E-05-2.03716E+00 1.45803E-05-1.20116E-05
 -1      1218 1.40023E+01-2.05609E+00 2.17198E-04-1.16882E-02-2.52463E-05 2.74624E-05
 -1      1219 1.27424E+01-4.60152E+00-1.04335E-04 1.98962E+00 2.54420E-05-1.68343E-05
 -1      1220 1.30892E+01-1.29545E+00 2.31577E-04 3.81669E+00-4.34342E-05 3.71991E-05
 -1      1221 1.10436E+01-3.08133E+00-1.19330E-04 5.66298E+00 4.11764E-05-2.76186E-05
 -1      1222 1.06056E+01 8.49604E-01 2.58695E-04 6.99282E+00-7.08833E-05 5.89552E-05
 -1      1223 7.94939E+00-2.89668E-01-1.46818E-04 8.40739E+00 6.50080E-05-5.01787E-05
 -1      1224 6.90879E+00 4.02232E+00 3.03694E-04 8.99375E+00-1.11646E-04 1.01767E-04
 -1      1225 3.91511E+00 3.31875E+00-1.89607E-04 9.77827E+00 9.86182E-05-9.19881E-05
 -1      1226 2.53873E+00 7.68718E+00 3.93999E-04 9.46761E+00-1.74632E-04 1.91301E-04
 -1      1227-4.59558E-01 7.14870E+00-2.82185E-04 9.53671E+00 1.50322E-04-1.79891E-04
 -1      1228-1.85876E+00 1.12088E+01 5.23505E-04 8.29607E+00-2.49582E-04 3.43563E-04
 -1      1229-4.51956E+00 1.05549E+01-3.87423E-04 7.69578E+00 2.01361E-04-3.14081E-04
 -1      1230-5.62900E+00 1.39503E+01 9.04588E-04 5.62494E+00-3.94011E-04 7.13357E-04
 -1      1231-7.65956E+00 1.29471E+01-8.21607E-04 4.53206E+00 3.27106E-04-6.91027E-04
 -1      1232-8.21641E+00 1.53813E+01 1.25182E-03 1.86011E+00-3.91918E-04 1.15635E-03
 -1      1233-9.43647E+00 1.38990E+01-9.00568E-04 5.58439E-01 2.43927E-04-9.81642E-04
 -1      1234-9.27731E+00 1.51861E+01 3.83643E-03-2.37458E+00-1.09431E-03 3.24247E-03
 -1      1235-9.68354E+00 1.32383E+01-4.31188E-03-3.55009E+00 1.03202E-03-3.45872E-03
 -1      1236-8.79506E+00 1.33465E+01 4.69598E-03-6.33358E+00 6.66159E-04 3.86169E-03
 -1      1237-8.58056E+00 1.10730E+01-1.99077E-03-7.09120E+00-1.22576E-03-2.51281E-03
 -1      1238-7.11538E+00 1.01370E+01 3.13917E-02-9.33261E+00-8.46125E-03 2.44347E-02
 -1      1239-6.61218E+00 7.56709E+00-4.08708E-02-9.54087E+00 9.27158E-03-3.03071E-02
 -1      1240-4.72247E+00 5.77812E+00 6.28559E-02-1.10397E+01 7.36423E-03 6.48722E-02
 -1      1241-3.79805E+00 2.58315E+00-4.75687E-02-1.09240E+01-2.12091E-02-4.73113E-02
 -1      1242-9.55136E-01-6.45245E+00-1.68939E-03 3.86965E+00 8.43328E-04-5.95934E-03
 -1      1243-2.68452E+00-6.74030E+00-2.39007E-04 8.43711E+00 1.06837E-03-1.89269E-03
 -1      1244-5.61468E+00-1.78158E+00 2.81316E-03 8.59601E+00-1.46066E-03 3.02369E-03
 -1      1245-9.00124E+00 1.93223E+00-1.86214E-03 1.06990E+01 1.56607E-03-2.79355E-03
 -1      1246-1.09589E+01 5.59240E+00-1.90344E-04 8.18238E+00 2.84524E-04-3.74789E-04
 -1      1247-1.35225E+01 9.87995E+00 3.98819E-04 7.53617E+00-2.66634E-04 2.27991E-04
 -1      1248-1.39146E+01 1.09501E+01 3.26052E-05 4.01368E+00-5.21859E-05 2.28176E-04
 -1      1249-1.45605E+01 1.39704E+01 1.56767E-04 1.88317E+00 6.92968E-05-1.72333E-04
 -1      1250-1.37827E+01 1.27302E+01-2.11578E-04-1.43901E+00 2.91366E-05-3.05600E-05
 -1      1251-1.26195E+01 1.42277E+01 3.05033E-04-3.73062E+00-1.80641E-06 7.23962E-05
 -1      1252-1.12107E+01 1.13847E+01-1.74640E-04-6.33280E+00-1.32632E-05-5.27749E-06
 -1      1253-8.81829E+00 1.18197E+01 2.97043E-04-8.02984E+00 3.96213E-05 4.83712E-05
 -1      1254-7.15060E+00 7.98569E+00-1.53009E-04-9.75426E+00-1.08929E-05-2.50709E-05
 -1      1255-4.10083E+00 7.91620E+00 2.90805E-04-1.05788E+01 3.02402E-05 5.38750E-05
 -1      1256-2.42528E+00 3.55360E+00-1.25177E-04-1.13852E+01-1.08541E-05-1.98052E-05
 -1      1257 8.37108E-01 3.43104E+00 2.64838E-04-1.13059E+01 2.03868E-05 3.98131E-05
 -1      1258 2.29815E+00-1.07821E+00-1.09303E-04-1.12049E+01-4.37982E-06-1.68394E-05
 -1      1259 5.42445E+00-9.12573E-01 2.43678E-04-1.03043E+01 4.92457E-06 3.14725E-05
 -1      1260 6.44497E+00-5.22703E+00-1.01721E-04-9.37172E+00 3.59227E-06-1.37577E-05
 -1      1261 9.14610E+00-4.51208E+00 2.31716E-04-7.80618E+00-1.16072E-05 2.69751E-05
 -1      1262 9.51761E+00-8.33690E+00-1.01491E-04-6.20450E+00 1.37640E-05-1.35439E-05
 -1      1263 1.15614E+01-6.88488E+00 2.31768E-04-4.19855E+00-3.09146E-05 2.86559E-05
 -1      1264 1.11355E+01-1.00015E+01-1.08080E-04-2.17457E+00 2.66822E-05-1.70247E-05
 -1      1265 1.23680E+01-7.71304E+00 2.44937E-04-1.21454E-02-5.56409E-05 3.82694E-05
 -1      1266 1.10947E+01-1.00096E+01-1.22726E-04 2.13096E+00 4.43103E-05-2.64515E-05
 -1      1267 1.14652E+01-6.89349E+00 2.74023E-04 4.13218E+00-9.01859E-05 6.06105E-05
 -1      1268 9.41434E+00-8.38100E+00-1.48138E-04 6.07930E+00 6.92849E-05-4.58443E-05
 -1      1269 8.98911E+00-4.56467E+00 3.27263E-04 7.60781E+00-1.40344E-04 1.05966E-04
 -1      1270 6.34877E+00-5.37376E+00-1.92146E-04 9.08199E+00 1.05172E-04-8.37632E-05
 -1      1271 5.30649E+00-1.09575E+00 4.15555E-04 9.87778E+00-2.11903E-04 1.91384E-04
 -1      1272 2.35975E+00-1.45309E+00-2.60856E-04 1.06857E+01 1.54476E-04-1.52123E-04
 -1      1273 9.67556E-01 2.96267E+00 5.79671E-04 1.05814E+01-3.13424E-04 3.56225E-04
 -1      1274-1.94765E+00 2.77450E+00-3.96657E-04 1.06462E+01 2.23388E-04-2.85634E-04
 -1      1275-3.37331E+00 6.95961E+00 8.30844E-04 9.59652E+00-4.38747E-04 6.40270E-04
 -1      1276-5.91632E+00 6.65355E+00-5.71371E-04 8.97404E+00 2.99247E-04-4.96556E-04
 -1      1277-7.05818E+00 1.02455E+01 1.45559E-03 7.06885E+00-6.25841E-04 1.24430E-03
 -1      1278-8.94474E+00 9.58681E+00-1.15755E-03 5.94177E+00 4.29648E-04-1.01299E-03
 -1      1279-9.53771E+00 1.22833E+01 2.21501E-03 3.40254E+00-7.15771E-04 2.11119E-03
 -1      1280-1.06006E+01 1.11448E+01-1.47193E-03 2.05072E+00 4.26946E-04-1.54244E-03
 -1      1281-1.04855E+01 1.27567E+01 6.02395E-03-7.91663E-01-1.32199E-03 5.07872E-03
 -1      1282-1.07322E+01 1.11497E+01-5.81749E-03-2.05045E+00 1.00406E-03-4.61189E-03
 -1      1283-9.90766E+00 1.16420E+01 8.91072E-03-4.80031E+00-1.18104E-04 7.50460E-03
 -1      1284-9.53308E+00 9.69032E+00-4.25645E-03-5.68972E+00-4.02565E-04-4.62508E-03
 -1      1285-8.15813E+00 9.17936E+00 4.72003E-02-7.96499E+00-7.54457E-03 3.48988E-02
 -1      1286-7.51733E+00 6.85928E+00-5.25296E-02-8.30775E+00 7.23826E-03-3.83232E-02
 -1      1287-5.68669E+00 5.46346E+00 1.07212E-01-9.84036E+00 4.74976E-03 1.10961E-01
 -1      1288-4.64266E+00 2.31222E+00-7.04773E-02-9.70499E+00-1.41763E-02-7.44573E-02
 -1      1289-8.70327E-01-4.15944E+00-1.22678E-03 2.95481E+00 5.68073E-04-4.71862E-03
 -1      1290-2.42067E+00-4.77778E+00-1.46206E-04 6.62653E+00 5.81734E-04-1.09390E-03
 -1      1291-5.15877E+00-9.46114E-01 1.93765E-03 6.75546E+00-6.85779E-04 2.28746E-03
 -1      1292-8.28205E+00 1.94452E+00-1.63697E-03 8.62092E+00 8.14194E-04-2.24458E-03
 -1      1293-1.02971E+01 4.82825E+00 1.59259E-05 6.40912E+00 1.83116E-04-2.10656E-04
 -1      1294-1.28930E+01 8.35362E+00 1.27433E-04 5.94075E+00-2.02286E-04 8.19955E-05
 -1      1295-1.35261E+01 8.99816E+00 5.70196E-05 2.67310E+00 1.78521E-05 1.98441E-04
 -1      1296-1.45053E+01 1.15275E+01 1.18442E-04 7.75818E-01-2.62713E-05-1.84711E-04
 -1      1297-1.39589E+01 1.00253E+01-1.37807E-04-2.43192E+00 4.80845E-05 1.50693E-06
 -1      1298-1.32328E+01 1.12144E+01 2.53140E-04-4.61208E+00-4.57114E-05 2.56039E-05
 -1      1299-1.19545E+01 8.15452E+00-1.51690E-04-7.16718E+00 1.04544E-05 3.24659E-06
 -1      1300-9.94263E+00 8.33384E+00 2.70494E-04-8.86963E+00 1.77076E-06 3.13607E-05
 -1      1301-8.31468E+00 4.30861E+00-1.48714E-04-1.05372E+01 7.35067E-07-1.89143E-05
 -1      1302-5.53126E+00 3.97143E+00 2.73465E-04-1.14162E+01 1.02245E-05 4.58143E-05
 -1      1303-3.84779E+00-5.35311E-01-1.32375E-04-1.21248E+01-3.43732E-06-1.80334E-05
 -1      1304-7.45757E-01-9.46200E-01 2.56478E-04-1.20928E+01 8.30863E-06 3.81846E-05
 -1      1305 7.35243E-01-5.53079E+00-1.19751E-04-1.18566E+01 9.84780E-07-1.63575E-05
 -1      1306 3.77770E+00-5.65893E+00 2.41521E-04-1.09678E+01-5.14371E-06 3.21811E-05
 -1      1307 4.81218E+00-9.97047E+00-1.13144E-04-9.88059E+00 9.85768E-06-1.43754E-05
 -1      1308 7.47808E+00-9.53552E+00 2.35402E-04-8.28291E+00-2.49629E-05 2.96884E-05
 -1      1309 7.85388E+00-1.32810E+01-1.13963E-04-6.52669E+00 2.25674E-05-1.55479E-05
 -1      1310 9.89094E+00-1.20789E+01 2.42353E-04-4.44656E+00-5.14200E-05 3.48413E-05
 -1      1311 9.46447E+00-1.50487E+01-1.23030E-04-2.28307E+00 3.95065E-05-2.15823E-05
 -1      1312 1.07054E+01-1.29671E+01 2.65388E-04-1.02512E-02-8.68139E-05 5.14048E-05
 -1      1313 9.43553E+00-1.50618E+01-1.42290E-04 2.24803E+00 6.25663E-05-3.55975E-05
 -1      1314 9.82073E+00-1.20997E+01 3.09601E-04 4.38850E+00-1.35791E-04 8.66634E-05
 -1      1315 7.78674E+00-1.33435E+01-1.75311E-04 6.42258E+00 9.45168E-05-6.28974E-05
 -1      1316 7.37663E+00-9.62069E+00 3.86559E-04 8.11092E+00-2.04452E-04 1.54730E-04
 -1      1317 4.77453E+00-1.01568E+01-2.31252E-04 9.64451E+00 1.38719E-04-1.13983E-04
 -1      1318 3.74416E+00-5.90699E+00 5.12404E-04 1.06117E+01-2.99161E-04 2.78633E-04
 -1      1319 8.62333E-01-5.97265E+00-3.19051E-04 1.14554E+01 1.97989E-04-2.03659E-04
 -1      1320-5.22720E-01-1.51769E+00 7.38109E-04 1.15246E+01-4.26433E-04 5.07670E-04
 -1      1321-3.34501E+00-1.40311E+00-4.86093E-04 1.16078E+01 2.75471E-04-3.71619E-04
 -1      1322-4.76815E+00 2.88792E+00 1.09171E-03 1.07246E+01-5.84179E-04 8.97362E-04
 -1      1323-7.19339E+00 2.89159E+00-7.17568E-04 1.01082E+01 3.66343E-04-6.37683E-04
 -1      1324-8.33667E+00 6.65377E+00 1.90887E-03 8.35375E+00-7.87728E-04 1.68303E-03
 -1      1325-1.00874E+01 6.31067E+00-1.41263E-03 7.22177E+00 4.85155E-04-1.25129E-03
 -1      1326-1.06864E+01 9.23902E+00 3.01497E-03 4.80831E+00-9.52228E-04 2.86051E-03
 -1      1327-1.16019E+01 8.42112E+00-1.94789E-03 3.43319E+00 5.64463E-04-1.94365E-03
 -1      1328-1.15007E+01 1.03246E+01 7.68983E-03 6.78266E-01-1.40152E-03 6.48434E-03
 -1      1329-1.15874E+01 9.03710E+00-6.82231E-03-6.39829E-01 8.57205E-04-5.39344E-03
 -1      1330-1.07911E+01 9.87843E+00 1.22503E-02-3.36117E+00-8.29413E-04 1.00494E-02
 -1      1331-1.02348E+01 8.23401E+00-6.00638E-03-4.36202E+00 5.05303E-04-5.92931E-03
 -1      1332-8.90602E+00 8.12138E+00 5.83051E-02-6.68523E+00-6.01789E-03 4.27223E-02
 -1      1333-8.09421E+00 6.08452E+00-5.93376E-02-7.15575E+00 4.31462E-03-4.37044E-02
 -1      1334-6.35105E+00 5.10100E+00 1.31856E-01-8.73335E+00 1.67026E-03 1.37384E-01
 -1      1335-5.15264E+00 2.09055E+00-7.90152E-02-8.55194E+00-5.71159E-03-8.57174E-02
 -1      1336-7.97224E-01-2.51121E+00-7.79442E-04 2.14312E+00 2.93832E-04-3.71496E-03
 -1      1337-2.20350E+00-3.28556E+00-4.53007E-05 5.03590E+00 1.46876E-04-5.48656E-04
 -1      1338-4.74185E+00-3.52990E-01 1.19200E-03 5.11484E+00-1.03115E-05 1.66503E-03
 -1      1339-7.63601E+00 1.88393E+00-1.48090E-03 6.73504E+00 2.21004E-04-1.76972E-03
 -1      1340-9.64954E+00 4.05483E+00 2.10662E-04 4.76155E+00 1.08109E-04-8.15329E-05
 -1      1341-1.22475E+01 6.89652E+00-6.29913E-05 4.39640E+00-1.79847E-04-4.09605E-05
 -1      1342-1.30666E+01 7.09903E+00 6.89890E-05 1.36077E+00 8.13922E-05 1.74873E-04
 -1      1343-1.43047E+01 9.14065E+00 6.96123E-05-3.46187E-01-1.05878E-04-1.99952E-04
 -1      1344-1.39804E+01 7.36170E+00-8.33411E-05-3.42377E+00 6.42672E-05 2.51710E-05
 -1      1345-1.36249E+01 8.22958E+00 2.01769E-04-5.48133E+00-8.23537E-05-1.86649E-05
 -1      1346-1.25081E+01 4.96306E+00-1.23558E-04-7.97071E+00 3.15165E-05 7.91160E-06
 -1      1347-1.08427E+01 4.89275E+00 2.46342E-04-9.63846E+00-3.01544E-05 1.19860E-05
 -1      1348-9.30141E+00 7.00832E-01-1.28653E-04-1.12467E+01 1.28949E-05-1.75486E-05
 -1      1349-6.78001E+00 1.25529E-01 2.60663E-04-1.21378E+01-7.35936E-06 3.45121E-05
 -1      1350-5.13277E+00-4.50154E+00-1.18943E-04-1.27637E+01 5.53050E-06-2.17092E-05
 -1      1351-2.20459E+00-5.15585E+00 2.54493E-04-1.27480E+01-3.38909E-06 3.26821E-05
 -1      1352-7.36244E-01-9.80198E+00-1.09402E-04-1.24036E+01 8.04575E-06-2.23920E-05
 -1      1353 2.20133E+00-1.01728E+01 2.46625E-04-1.15104E+01-1.54488E-05 2.88408E-05
 -1      1354 3.23080E+00-1.44812E+01-1.05206E-04-1.03009E+01 1.69707E-05-2.22999E-05
 -1      1355 5.83948E+00-1.42755E+01 2.46673E-04-8.66921E+00-3.82249E-05 2.83646E-05
 -1      1356 6.21319E+00-1.79555E+01-1.08626E-04-6.79038E+00 3.08294E-05-2.53443E-05
 -1      1357 8.22453E+00-1.69572E+01 2.60389E-04-4.64617E+00-7.05643E-05 3.69271E-05
 -1      1358 7.80137E+00-1.98064E+01-1.21179E-04-2.37064E+00 4.97365E-05-3.39517E-05
 -1      1359 9.03733E+00-1.78935E+01 2.92572E-04-6.84986E-03-1.14231E-04 5.98777E-05
 -1      1360 7.78189E+00-1.98219E+01-1.45416E-04 2.34657E+00 7.53044E-05-5.18273E-05
 -1      1361 8.17578E+00-1.69855E+01 3.49904E-04 4.60056E+00-1.73547E-04 1.06189E-04
 -1      1362 6.17333E+00-1.80273E+01-1.85700E-04 6.71086E+00 1.10118E-04-8.49933E-05
 -1      1363 5.78046E+00-1.43811E+01 4.45742E-04 8.53028E+00-2.54171E-04 1.92320E-04
 -1      1364 3.23155E+00-1.46881E+01-2.51980E-04 1.01225E+01 1.56988E-04-1.44860E-04
 -1      1365 2.22310E+00-1.04609E+01 5.99062E-04 1.12327E+01-3.62283E-04 3.44682E-04
 -1      1366-5.82004E-01-1.02772E+01-3.55309E-04 1.21209E+01 2.18881E-04-2.47518E-04
 -1      1367-1.94332E+00-5.78789E+00 8.64679E-04 1.23388E+01-5.01577E-04 6.17876E-04
 -1      1368-4.66661E+00-5.40818E+00-5.42748E-04 1.24561E+01 2.95527E-04-4.34321E-04
 -1      1369-6.06629E+00-1.02459E+00 1.28252E-03 1.17204E+01-6.74742E-04 1.07601E-03
 -1      1370-8.37446E+00-7.42389E-01-8.12681E-04 1.11306E+01 3.91385E-04-7.29001E-04
 -1      1371-9.49635E+00 3.17038E+00 2.20514E-03 9.51474E+00-8.71358E-04 1.97221E-03
 -1      1372-1.11172E+01 3.11777E+00-1.53749E-03 8.40009E+00 4.82399E-04-1.38393E-03
 -1      1373-1.16987E+01 6.25370E+00 3.53929E-03 6.10631E+00-1.09223E-03 3.33209E-03
 -1      1374-1.24730E+01 5.73453E+00-2.22437E-03 4.73078E+00 6.40911E-04-2.14961E-03
 -1      1375-1.23599E+01 7.90084E+00 8.64475E-03 2.06126E+00-1.31696E-03 7.28908E-03
 -1      1376-1.22828E+01 6.91143E+00-6.96329E-03 7.09112E-01 5.84375E-04-5.66072E-03
 -1      1377-1.14790E+01 8.06718E+00 1.44261E-02-1.98570E+00-1.48900E-03 1.13870E-02
 -1      1378-1.07150E+01 6.71032E+00-7.38063E-03-3.07171E+00 1.52323E-03-6.43028E-03
 -1      1379-9.37705E+00 6.96075E+00 6.35150E-02-5.45413E+00-3.72139E-03 4.69782E-02
 -1      1380-8.33477E+00 5.23187E+00-5.97883E-02-6.05333E+00 2.24550E-04-4.54197E-02
 -1      1381-6.68750E+00 4.68975E+00 1.38035E-01-7.71312E+00-1.98975E-03 1.44535E-01
 -1      1382-5.29560E+00 1.92175E+00-7.56600E-02-7.46597E+00 4.91520E-03-8.26228E-02
 -1      1383-7.22669E-01-1.38080E+00-4.39959E-04 1.42436E+00 9.33213E-06-2.78496E-03
 -1      1384-1.99901E+00-2.16249E+00 4.02041E-06 3.63762E+00-1.53376E-04-1.59839E-04
 -1      1385-4.31478E+00 3.96188E-02 5.71139E-04 3.66442E+00 6.38376E-04 1.04735E-03
 -1      1386-7.00634E+00 1.74498E+00-1.45088E-03 5.03637E+00-3.33657E-04-1.30185E-03
 -1      1387-8.97751E+00 3.25655E+00 3.89311E-04 3.24391E+00 6.19560E-05 4.85676E-05
 -1      1388-1.15725E+01 5.48030E+00-1.93700E-04 2.92368E+00-1.78188E-04-1.27697E-04
 -1      1389-1.25401E+01 5.23385E+00 8.87717E-05 8.86037E-02 1.52249E-04 1.69309E-04
 -1      1390-1.39963E+01 6.80067E+00 6.43445E-06-1.46746E+00-1.76249E-04-1.89850E-04
 -1      1391-1.38851E+01 4.73417E+00-5.84702E-05-4.41308E+00 8.34766E-05 5.23463E-05
 -1      1392-1.38549E+01 5.27756E+00 1.60289E-04-6.34698E+00-1.05285E-04-3.62887E-05
 -1      1393-1.29188E+01 1.81029E+00-1.25437E-04-8.75961E+00 5.10631E-05 1.90254E-05
 -1      1394-1.15725E+01 1.49760E+00 2.29196E-04-1.03662E+01-5.06191E-05 1.00413E-05
 -1      1395-1.01507E+01-2.84336E+00-1.36407E-04-1.19121E+01 2.22237E-05-7.56124E-06
 -1      1396-7.88421E+00-3.63310E+00 2.52675E-04-1.27839E+01-1.88905E-05 3.63760E-05
 -1      1397-6.30595E+00-8.36207E+00-1.26957E-04-1.33362E+01 1.13194E-05-1.39322E-05
 -1      1398-3.55836E+00-9.22453E+00 2.49527E-04-1.33122E+01-1.24119E-05 3.87690E-05
 -1      1399-2.12793E+00-1.39207E+01-1.14556E-04-1.28779E+01 1.17103E-05-1.51768E-05
 -1      1400 6.91397E-01-1.44940E+01 2.40766E-04-1.19670E+01-2.38997E-05 3.73291E-05
 -1      1401 1.70037E+00-1.87984E+01-1.07468E-04-1.06581E+01 2.00845E-05-1.57636E-05
 -1      1402 4.23704E+00-1.87821E+01 2.38950E-04-8.99008E+00-4.78640E-05 3.93648E-05
 -1      1403 4.60244E+00-2.24064E+01-1.08660E-04-7.01190E+00 3.37712E-05-1.96351E-05
 -1      1404 6.57518E+00-2.15760E+01 2.51082E-04-4.81066E+00-8.20739E-05 5.10685E-05
 -1      1405 6.15668E+00-2.43240E+01-1.19387E-04-2.44342E+00 5.23899E-05-2.92967E-05
 -1      1406 7.37876E+00-2.25501E+01 2.82263E-04-2.89040E-03-1.27708E-04 7.84163E-05
 -1      1407 6.14439E+00-2.43391E+01-1.41389E-04 2.43061E+00 7.70379E-05-4.82862E-05
 -1      1408 6.54323E+00-2.16066E+01 3.38874E-04 4.77907E+00-1.88401E-04 1.30846E-04
 -1      1409 4.58175E+00-2.24780E+01-1.77976E-04 6.95722E+00 1.09846E-04-8.22731E-05
 -1      1410 4.20811E+00-1.88949E+01 4.33581E-04 8.88638E+00-2.68653E-04 2.25149E-04
 -1      1411 1.72200E+00-1.90064E+01-2.37155E-04 1.05360E+01 1.52686E-04-1.41899E-04
 -1      1412 7.43030E-01-1.47971E+01 5.85798E-04 1.17681E+01-3.73617E-04 3.87769E-04
 -1      1413-1.97793E+00-1.43966E+01-3.29203E-04 1.27062E+01 2.08515E-04-2.41863E-04
 -1      1414-3.30339E+00-9.87613E+00 8.50348E-04 1.30543E+01-5.03050E-04 6.72403E-04
 -1      1415-5.92424E+00-9.26073E+00-4.93655E-04 1.32167E+01 2.72877E-04-4.20202E-04
 -1      1416-7.28537E+00-4.79438E+00 1.27990E-03 1.26142E+01-6.65082E-04 1.14211E-03
 -1      1417-9.47762E+00-4.25884E+00-7.45534E-04 1.20653E+01 3.61950E-04-6.98499E-04
 -1      1418-1.05617E+01-2.10379E-01 2.22473E-03 1.05788E+01-8.20818E-04 2.04238E-03
 -1      1419-1.20572E+01 6.15035E-03-1.38373E-03 9.49823E+00 4.06983E-04-1.30795E-03
 -1      1420-1.26039E+01 3.33046E+00 3.68371E-03 7.31976E+00-1.07969E-03 3.40321E-03
 -1      1421-1.32414E+01 3.09013E+00-2.18690E-03 5.96375E+00 6.53993E-04-2.02405E-03
 -1      1422-1.30956E+01 5.49526E+00 8.81915E-03 3.37902E+00-1.03156E-03 7.25271E-03
 -1      1423-1.28527E+01 4.78441E+00-6.19915E-03 2.02012E+00 2.07742E-04-5.21279E-03
 -1      1424-1.20079E+01 6.22031E+00 1.50167E-02-6.45657E-01-2.21149E-03 1.13725E-02
 -1      1425-1.10133E+01 5.12809E+00-9.18326E-03-1.78210E+00 2.66986E-03-6.19672E-03
 -1      1426-9.60543E+00 5.69703E+00 6.15154E-02-4.22126E+00-3.21772E-04 4.65784E-02
 -1      1427-8.23719E+00 4.28198E+00-5.14328E-02-4.94871E+00-5.50998E-03-4.20841E-02
 -1      1428-6.65702E+00 4.20411E+00 1.26669E-01-6.76051E+00-6.69416E-03 1.32273E-01
 -1      1429-5.01903E+00 1.79527E+00-6.37293E-02-6.44172E+00 1.89580E-02-6.61189E-02
 -1      1430-6.29709E-01-6.56600E-01 2.19410E-04 8.04464E-01-1.26810E-04-2.03733E-03
 -1      1431-1.76625E+00-1.32290E+00 4.65383E-05 2.42849E+00-5.31139E-04 2.04098E-04
 -1      1432-3.82185E+00 2.62890E-01 5.97797E-05 2.40376E+00 1.14484E-03 5.87067E-04
 -1      1433-6.33398E+00 1.52418E+00-1.30605E-03 3.51903E+00-9.12586E-04-9.32724E-04
 -1      1434-8.23860E+00 2.41806E+00 6.03963E-04 1.85351E+00 1.83555E-05 1.18215E-04
 -1      1435-1.08452E+01 4.07902E+00-2.20302E-04 1.52901E+00-2.25850E-04-3.03277E-04
 -1      1436-1.19416E+01 3.38345E+00 1.59729E-04-1.14162E+00 1.92774E-04 1.77987E-04
 -1      1437-1.35998E+01 4.49405E+00-3.36616E-05-2.58175E+00-2.95821E-04-2.67954E-04
 -1      1438-1.36971E+01 2.13392E+00 4.51644E-05-5.40242E+00 8.31659E-05 6.61655E-05
 -1      1439-1.39639E+01 2.35618E+00 1.15386E-04-7.21627E+00-1.68646E-04-1.04021E-04
 -1      1440-1.32223E+01-1.30688E+00-5.81869E-05-9.54689E+00 5.22230E-05 1.86057E-05
 -1      1441-1.21732E+01-1.85379E+00 2.00657E-04-1.10743E+01-9.93239E-05-2.37195E-05
 -1      1442-1.08948E+01-6.32988E+00-8.34774E-05-1.25552E+01 1.47227E-05-1.14709E-05
 -1      1443-8.87443E+00-7.31464E+00 2.47818E-04-1.33832E+01-4.73998E-05 1.81595E-05
 -1      1444-7.38969E+00-1.21308E+01-8.15620E-05-1.38676E+01 9.30751E-07-1.79556E-05
 -1      1445-4.82454E+00-1.31730E+01 2.69163E-04-1.38150E+01-2.97043E-05 2.98281E-05
 -1      1446-3.45149E+00-1.79101E+01-6.85783E-05-1.33038E+01 1.88661E-07-1.68752E-05
 -1      1447-7.58278E-01-1.86534E+01 2.80403E-04-1.23630E+01-3.38774E-05 3.26972E-05
 -1      1448 2.17947E-01-2.29531E+01-5.77591E-05-1.09717E+01 9.40676E-06-1.47873E-05
 -1      1449 2.67277E+00-2.30937E+01 2.92999E-04-9.26387E+00-5.30845E-05 3.71949E-05
 -1      1450 3.02468E+00-2.66706E+01-5.44404E-05-7.20387E+00 2.44444E-05-1.64974E-05
 -1      1451 4.94975E+00-2.59784E+01 3.14707E-04-4.94984E+00-8.27210E-05 5.02744E-05
 -1      1452 4.53647E+00-2.86414E+01-6.13939E-05-2.50627E+00 4.38256E-05-2.47128E-05
 -1      1453 5.73815E+00-2.69814E+01 3.52107E-04 7.75316E-04-1.22399E-04 7.77614E-05
 -1      1454 4.52935E+00-2.86534E+01-8.08939E-05 2.50303E+00 6.74087E-05-4.24982E-05
 -1      1455 4.93029E+00-2.60055E+01 4.13138E-04 4.93163E+00-1.74460E-04 1.27953E-04
 -1      1456 3.01624E+00-2.67328E+01-1.16567E-04 7.17145E+00 9.61589E-05-7.43867E-05
 -1      1457 2.66316E+00-2.32003E+01 5.11279E-04 9.19390E+00-2.42031E-04 2.15338E-04
 -1      1458 2.46252E-01-2.31441E+01-1.75865E-04 1.09002E+01 1.30323E-04-1.28695E-04
 -1      1459-6.97843E-01-1.89466E+01 6.67122E-04 1.22376E+01-3.29903E-04 3.62353E-04
 -1      1460-3.33010E+00-1.83567E+01-2.71370E-04 1.32300E+01 1.72735E-04-2.16884E-04
 -1      1461-4.61087E+00-1.38051E+01 9.30194E-04 1.36931E+01-4.35196E-04 6.14891E-04
 -1      1462-7.12787E+00-1.29793E+01-4.33785E-04 1.39092E+01 2.14564E-04-3.68041E-04
 -1      1463-8.43919E+00-8.43539E+00 1.35421E-03 1.34274E+01-5.76340E-04 1.02592E-03
 -1      1464-1.05179E+01-7.66887E+00-7.04300E-04 1.29314E+01 2.86120E-04-5.99208E-04
 -1      1465-1.15512E+01-3.49443E+00 2.22217E-03 1.15652E+01-6.83416E-04 1.80555E-03
 -1      1466-1.29273E+01-3.02805E+00-1.24705E-03 1.05337E+01 2.73589E-04-1.08000E-03
 -1      1467-1.34246E+01 4.69989E-01 3.53964E-03 8.46516E+00-9.98497E-04 2.97597E-03
 -1      1468-1.39329E+01 4.91543E-01-2.20669E-03 7.14837E+00 6.13884E-04-1.64658E-03
 -1      1469-1.37355E+01 3.11350E+00 7.81688E-03 4.64805E+00-6.30245E-04 6.24171E-03
 -1      1470-1.33327E+01 2.66792E+00-4.79757E-03 3.31015E+00-2.35566E-04-4.05521E-03
 -1      1471-1.24166E+01 4.34862E+00 1.26187E-02 6.85232E-01-2.98045E-03 1.00124E-02
 -1      1472-1.11753E+01 3.50306E+00-1.02299E-02-4.61736E-01 3.58614E-03-5.35160E-03
 -1      1473-9.65474E+00 4.34616E+00 5.01595E-02-2.93047E+00 5.04829E-03 3.97186E-02
 -1      1474-7.82144E+00 3.22409E+00-2.84051E-02-3.76107E+00-1.30083E-02-3.13710E-02
 -1      1475-6.21030E+00 3.58214E+00 9.68720E-02-5.82506E+00-1.27693E-02 9.86852E-02
 -1      1476-4.23583E+00 1.67093E+00-4.74320E-02-5.45994E+00 3.90743E-02-3.67806E-02
 -1      1477-4.85625E-01-2.42832E-01-5.90246E-04 3.10447E-01-3.87574E-04-8.25758E-04
 -1      1478-1.45052E+00-7.02125E-01-3.19385E-05 1.42673E+00-8.91016E-04 3.53008E-04
 -1      1479-3.19466E+00 3.32189E-01-6.79122E-04 1.33529E+00 1.17844E-03-9.91193E-05
 -1      1480-5.55728E+00 1.21331E+00-1.33133E-03 2.17571E+00-1.50751E-03-2.39242E-04
 -1      1481-7.38821E+00 1.51875E+00 4.57919E-05 5.80846E-01 8.17821E-05 4.87442E-04
 -1      1482-1.00407E+01 2.66872E+00-3.17519E-04 2.08823E-01-2.63657E-04-1.83069E-04
 -1      1483-1.12613E+01 1.52726E+00-1.24733E-04-2.33621E+00 3.32547E-04 4.48156E-04
 -1      1484-1.31268E+01 2.20719E+00-1.51356E-05-3.68964E+00-2.98875E-04-1.10325E-04
 -1      1485-1.34323E+01-4.50330E-01 3.07863E-05-6.39758E+00 2.35707E-04 3.38310E-04
 -1      1486-1.39833E+01-5.37537E-01 1.81789E-04-8.09705E+00-1.32252E-04 5.14912E-06
 -1      1487-1.34446E+01-4.39362E+00 7.56941E-05-1.03428E+01 1.70556E-04 2.44366E-04
 -1      1488-1.26789E+01-5.16299E+00 2.26276E-04-1.17801E+01-8.08350E-05 7.92861E-05
 -1      1489-1.15590E+01-9.76427E+00 1.10005E-04-1.31911E+01 8.84857E-05 1.96440E-04
 -1      1490-9.77712E+00-1.09267E+01 2.11083E-04-1.39593E+01-4.74018E-05 1.24627E-04
 -1      1491-8.40296E+00-1.58179E+01 1.24135E-04-1.43752E+01 3.57078E-05 1.86039E-04
 -1      1492-6.01913E+00-1.70181E+01 1.72871E-04-1.42808E+01-4.13760E-05 1.49667E-04
 -1      1493-4.71864E+00-2.17866E+01 1.29476E-04-1.36975E+01 7.03508E-06 1.91455E-04
 -1      1494-2.15409E+00-2.26765E+01 1.38084E-04-1.27197E+01-4.39526E-05 1.67285E-04
 -1      1495-1.22206E+00-2.69673E+01 1.29730E-04-1.12546E+01-3.45571E-06 2.00438E-04
 -1      1496 1.14740E+00-2.72428E+01 1.16016E-04-9.50617E+00-4.91037E-05 1.82987E-04
 -1      1497 1.47844E+00-3.07743E+01 1.27557E-04-7.37469E+00-4.38190E-06 2.06605E-04
 -1      1498 3.35323E+00-3.02012E+01 1.08239E-04-5.07214E+00-5.37398E-05 2.00024E-04
 -1      1499 2.94140E+00-3.27868E+01 1.23885E-04-2.56248E+00-1.38272E-06 2.08461E-04
 -1      1500 4.12203E+00-3.12259E+01 1.13231E-04 3.30331E-03-5.85631E-05 2.21039E-04
 -1      1501 2.93777E+00-3.27932E+01 1.18871E-04 2.56560E+00 2.22527E-06 2.06178E-04
 -1      1502 3.34250E+00-3.02196E+01 1.29617E-04 5.06457E+00-6.59431E-05 2.50152E-04
 -1      1503 1.47654E+00-3.08183E+01 1.12158E-04 7.35982E+00 5.43819E-06 2.00431E-04
 -1      1504 1.14805E+00-2.73308E+01 1.58180E-04 9.46514E+00-7.75683E-05 2.95133E-04
 -1      1505-1.19834E+00-2.71241E+01 1.03350E-04 1.12249E+01 6.78455E-06 1.90954E-04
 -1      1506-2.10159E+00-2.29375E+01 2.03257E-04 1.26577E+01-9.76690E-05 3.67217E-04
 -1      1507-4.64417E+00-2.21757E+01 9.06694E-05 1.37040E+01 1.16187E-05 1.77967E-04
 -1      1508-5.87299E+00-1.75963E+01 2.82256E-04 1.42738E+01-1.17439E-04 4.91984E-04
 -1      1509-8.28628E+00-1.65766E+01 7.20032E-05 1.45458E+01 5.93564E-06 1.54963E-04
 -1      1510-9.54007E+00-1.19625E+01 4.19994E-04 1.41790E+01-1.70092E-04 6.93768E-04
 -1      1511-1.15067E+01-1.09793E+01 2.71329E-05 1.37401E+01 5.42127E-05 1.20589E-04
 -1      1512-1.24821E+01-6.69022E+00 7.73988E-04 1.24917E+01-1.36170E-04 1.09756E-03
 -1      1513-1.37412E+01-5.98562E+00-4.84234E-05 1.15151E+01-4.14670E-05 1.76488E-05
 -1      1514-1.41825E+01-2.32917E+00 1.38395E-03 9.55919E+00-4.79220E-04 1.71431E-03
 -1      1515-1.45645E+01-2.05494E+00-4.40682E-04 8.29109E+00 4.78881E-04-2.10121E-04
 -1      1516-1.43096E+01 7.63691E-01 3.94358E-03 5.88587E+00 3.36567E-04 3.62179E-03
 -1      1517-1.37475E+01 5.74614E-01-6.44633E-04 4.58585E+00-1.10016E-03-1.10150E-03
 -1      1518-1.27547E+01 2.48076E+00 6.98008E-03 2.02690E+00-3.58060E-03 6.51522E-03
 -1      1519-1.12436E+01 1.86771E+00-4.62975E-03 9.16610E-01 3.75326E-03-3.45021E-03
 -1      1520-9.61577E+00 2.96010E+00 3.10224E-02-1.55554E+00 1.30450E-02 2.23945E-02
 -1      1521-7.18985E+00 2.07940E+00 7.09490E-03-2.38649E+00-2.27112E-02-6.71589E-03
 -1      1522-5.30349E+00 2.71750E+00 5.17230E-02-4.78397E+00-2.55801E-02 4.22604E-02
 -1      1523-2.81027E+00 1.42474E+00-4.97851E-02-4.45280E+00 6.46234E-02 1.71781E-03
 -1      1524-2.41435E-01-4.69231E-02 1.25120E-03-9.04477E-03-3.20057E-04-1.76345E-03
 -1      1525-9.74230E-01-2.64768E-01-3.46675E-04 6.65614E-01-1.07691E-03 1.26431E-03
 -1      1526-2.34916E+00 2.43696E-01 7.47473E-05 4.60929E-01-9.76421E-04 6.47375E-04
 -1      1527-4.60985E+00 7.95583E-01-7.66554E-04 9.83994E-01-2.37894E-03-8.99497E-04
 -1      1528-6.37972E+00 5.36640E-01 9.23188E-04-5.90152E-01-2.07565E-04 1.43117E-03
 -1      1529-9.12785E+00 1.21832E+00-8.21297E-04-1.05924E+00-9.22979E-04-1.24116E-03
 -1      1530-1.04905E+01-3.52362E-01 3.84537E-04-3.50720E+00 3.19207E-04 1.20421E-03
 -1      1531-1.25729E+01-8.73690E-02-2.31188E-04-4.80259E+00-9.13733E-04-9.48239E-04
 -1      1532-1.31078E+01-3.02870E+00 1.28530E-04-7.40858E+00 5.05085E-04 8.91101E-04
 -1      1533-1.39257E+01-3.42218E+00 2.39923E-04-8.99554E+00-6.93852E-04-5.81443E-04
 -1      1534-1.36138E+01-7.45658E+00-7.49944E-05-1.11607E+01 3.88523E-04 6.27676E-04
 -1      1535-1.31082E+01-8.44283E+00 6.03936E-04-1.24895E+01-5.48808E-04-2.52452E-04
 -1      1536-1.21713E+01-1.31560E+01-1.74806E-04-1.38372E+01 1.99900E-04 5.23366E-04
 -1      1537-1.06106E+01-1.44809E+01 8.17557E-04-1.45190E+01-4.19171E-04-2.36921E-05
 -1      1538-9.36802E+00-1.94397E+01-2.10123E-04-1.48782E+01 3.70344E-05 5.28596E-04
 -1      1539-7.15748E+00-2.07727E+01 9.33162E-04-1.47164E+01-3.20627E-04 1.28984E-04
 -1      1540-5.94431E+00-2.55742E+01-2.11123E-04-1.40772E+01-5.67112E-05 5.86720E-04
 -1      1541-3.50835E+00-2.65787E+01 9.86883E-04-1.30428E+01-2.36478E-04 2.29198E-04
 -1      1542-2.62819E+00-3.08722E+01-1.98550E-04-1.15215E+01-8.98467E-05 6.52664E-04
 -1      1543-3.49185E-01-3.12469E+01 1.00875E-03-9.72106E+00-1.54690E-04 2.94060E-04
 -1      1544-4.02700E-02-3.47535E+01-1.83178E-04-7.53403E+00-8.23219E-05 7.04614E-04
 -1      1545 1.77682E+00-3.42635E+01 1.01452E-03-5.17988E+00-6.83728E-05 3.30659E-04
 -1      1546 1.36991E+00-3.67992E+01-1.69111E-04-2.61578E+00-5.43485E-05 7.35863E-04
 -1      1547 2.52222E+00-3.53032E+01 1.01228E-03 4.06229E-03 2.32197E-05 3.40645E-04
 -1      1548 1.36849E+00-3.67976E+01-1.57011E-04 2.62056E+00-2.06172E-05 7.48067E-04
 -1      1549 1.77199E+00-3.42682E+01 1.00703E-03 5.17872E+00 1.15431E-04 3.23633E-04
 -1      1550-3.97554E-02-3.47719E+01-1.46525E-04 7.52994E+00 1.08492E-05 7.45602E-04
 -1      1551-3.44887E-01-3.13048E+01 1.00375E-03 9.70217E+00 2.02062E-04 2.79244E-04
 -1      1552-2.61675E+00-3.09804E+01-1.37441E-04 1.15218E+01 3.26077E-05 7.35081E-04
 -1      1553-3.47562E+00-2.67866E+01 1.01626E-03 1.30314E+01 2.67671E-04 2.09884E-04
 -1      1554-5.92839E+00-2.58829E+01-1.30266E-04 1.41431E+01 5.23476E-05 7.15599E-04
 -1      1555-7.09682E+00-2.12642E+01 1.05789E-03 1.48003E+01 3.14027E-04 1.16796E-04
 -1      1556-9.41127E+00-2.00765E+01-1.27355E-04 1.51429E+01 3.83552E-05 7.05312E-04
 -1      1557-1.05946E+01-1.53864E+01 1.18874E-03 1.48730E+01 2.67306E-04 2.41405E-05
 -1      1558-1.24593E+01-1.42088E+01-1.13779E-04 1.45082E+01 8.07912E-05 6.40520E-04
 -1      1559-1.33603E+01-9.80329E+00 1.40662E-03 1.33620E+01 2.82872E-04-8.68708E-05
 -1      1560-1.45189E+01-8.88046E+00-8.00152E-05 1.24597E+01-1.79491E-04 7.12840E-04
 -1      1561-1.48843E+01-5.06554E+00 1.93264E-03 1.06038E+01-2.82667E-04 1.37628E-07
 -1      1562-1.51622E+01-4.55502E+00 2.45519E-04 9.41040E+00 1.88663E-04 2.72030E-04
 -1      1563-1.48294E+01-1.54405E+00 2.44220E-03 7.09082E+00 8.65058E-04-7.30867E-05
 -1      1564-1.41425E+01-1.49448E+00 1.25100E-03 5.86707E+00-2.80559E-03 1.81522E-03
 -1      1565-1.30457E+01 6.32838E-01 2.13251E-03 3.36809E+00-2.65842E-03 1.18894E-03
 -1      1566-1.13061E+01 2.70524E-01 6.15837E-03 2.38180E+00 1.48130E-03 1.04030E-04
 -1      1567-9.54512E+00 1.53097E+00-5.85602E-03-1.04202E-01 2.39616E-02-1.02840E-02
 -1      1568-6.59049E+00 8.68065E-01 2.41368E-02-7.80015E-01-2.99310E-02 3.61792E-02
 -1      1569-4.08650E+00 1.48392E+00-5.82444E-02-3.29717E+00-3.26426E-02-4.38466E-02
 -1      1570-3.70405E-01 9.02981E-01 8.38629E-03-3.07849E+00 1.02394E-01 5.09401E-02
 -1      1571-1.85237E-01-3.18997E-02-2.40031E-03 1.87708E-01 9.72271E-05 4.32344E-03
 -1      1572-3.39385E+00 2.26080E-01-6.76784E-05-9.71529E-02-6.17632E-04-2.05234E-03
 -1      1573-8.05887E+00-3.23967E-01-1.57337E-03-2.31671E+00-1.82510E-03-3.81713E-03
 -1      1574-1.19303E+01-2.44505E+00-2.41377E-04-5.95679E+00-1.89047E-03-2.53317E-03
 -1      1575-1.38081E+01-6.35750E+00 7.89813E-05-9.94507E+00-1.85056E-03-1.54074E-03
 -1      1576-1.34903E+01-1.17605E+01 3.50481E-04-1.32354E+01-1.55148E-03-5.52775E-04
 -1      1577-1.14074E+01-1.80545E+01 4.03892E-04-1.50936E+01-1.21065E-03 1.13671E-04
 -1      1578-8.27114E+00-2.45249E+01 3.76069E-04-1.51499E+01-8.76085E-04 5.55440E-04
 -1      1579-4.85016E+00-3.04575E+01 2.98022E-04-1.33553E+01-5.57011E-04 8.28258E-04
 -1      1580-1.84373E+00-3.52106E+01 1.96315E-04-9.92481E+00-2.29767E-04 9.85606E-04
 -1      1581 1.95378E-01-3.82743E+01 7.21637E-05-5.28174E+00 1.27394E-04 1.04378E-03
 -1      1582 9.14300E-01-3.93240E+01-8.60484E-05 2.24775E-03 5.27109E-04 9.97134E-04
 -1      1583 1.94144E-01-3.82610E+01-3.02607E-04 5.28094E+00 9.72189E-04 8.25170E-04
 -1      1584-1.84113E+00-3.52284E+01-6.18320E-04 9.91881E+00 1.46148E-03 4.92703E-04
 -1      1585-4.84669E+00-3.05943E+01-1.09912E-03 1.33784E+01 1.99051E-03-4.33094E-05
 -1      1586-8.31041E+00-2.49024E+01-1.87157E-03 1.52967E+01 2.57657E-03-8.88299E-04
 -1      1587-1.16320E+01-1.87940E+01-3.14783E-03 1.55372E+01 3.20320E-03-2.10543E-03
 -1      1588-1.42168E+01-1.29149E+01-5.46467E-03 1.42069E+01 4.09764E-03-4.27847E-03
 -1      1589-1.55648E+01-7.81768E+00-9.55880E-03 1.16345E+01 4.83131E-03-7.02758E-03
 -1      1590-1.53372E+01-3.88631E+00-1.87412E-02 8.30355E+00 8.00992E-03-1.54951E-02
 -1      1591-1.33591E+01-1.27124E+00-3.53969E-02 4.76950E+00 6.23094E-03-2.28563E-02
 -1      1592-9.55581E+00 2.44966E-02-9.65134E-02 1.53929E+00 2.94703E-02-9.68466E-02
 -1      1593-3.38957E+00 3.36048E-01-1.51665E-01-1.00993E+00-1.02113E-01-1.47613E-01
 -1      1594-1.28452E+02-4.55556E+02-8.42293E+01 7.13605E+01 2.56668E+01-1.46846E+01
 -1      1595-1.26197E+02-4.06417E+02-8.86924E+01 5.31419E+01 6.09465E+00 3.24744E+00
 -1      1596-1.29368E+02-4.10632E+02-9.30872E+01 5.79651E+01-4.47171E-10 4.82760E-12
 -1      1597-1.26197E+02-4.06417E+02-8.86924E+01 5.31419E+01-6.09465E+00-3.24744E+00
 -1      1598-1.28452E+02-4.55556E+02-8.42293E+01 7.13605E+01-2.56668E+01 1.46846E+01
 -1      1599 8.09982E+00-1.85407E+02 4.46824E+00 1.65956E+01-1.54387E+01 1.65083E+00
 -1      1600 1.17921E+01-1.87448E+02 8.36599E+00 2.37406E+01-6.74529E+00 9.45375E-02
 -1      1601 1.12112E+01-1.89099E+02 5.23318E+00 2.19079E+01 2.02470E-10-5.03206E-11
 -1      1602 1.17921E+01-1.87448E+02 8.36599E+00 2.37406E+01 6.74529E+00-9.45375E-02
 -1      1603 8.09982E+00-1.85407E+02 4.46824E+00 1.65956E+01 1.54387E+01-1.65083E+00
 -1      1604 6.04011E-01-1.24185E+02-1.15839E-01 5.88127E+00-3.76222E+00-4.87139E-01
 -1      1605-1.55824E+00-1.25785E+02 8.69291E-01 4.71129E+00-1.79795E+00 2.85722E-01
 -1      1606-8.37154E-01-1.24854E+02 2.76158E+00 4.52725E+00 4.98203E-11-9.24116E-12
 -1      1607-1.55824E+00-1.25785E+02 8.69291E-01 4.71129E+00 1.79795E+00-2.85722E-01
 -1      1608 6.04011E-01-1.24185E+02-1.15839E-01 5.88127E+00 3.76222E+00 4.87139E-01
 -1      1609 2.07345E+00-8.48353E+01 1.16027E+00 3.43035E+00-2.36785E+00 6.47783E-03
 -1      1610 2.28852E+00-8.43158E+01 2.47323E+00 3.46021E+00-1.31119E+00-1.57461E-01
 -1      1611 2.27087E+00-8.40033E+01 2.54524E+00 3.18861E+00 1.58198E-11-2.03901E-12
 -1      1612 2.28852E+00-8.43158E+01 2.47323E+00 3.46021E+00 1.31119E+00 1.57461E-01
 -1      1613 2.07345E+00-8.48353E+01 1.16027E+00 3.43035E+00 2.36785E+00-6.47783E-03
 -1      1614 1.07860E+00-6.06667E+01 2.45461E-01 2.10976E+00-7.21638E-01-1.45941E-01
 -1      1615 9.05497E-01-6.00974E+01 7.49398E-01 1.89931E+00-4.73033E-01-5.78027E-02
 -1      1616 9.58800E-01-5.98366E+01 1.07990E+00 1.84734E+00 6.77556E-12 4.42735E-12
 -1      1617 9.05497E-01-6.00974E+01 7.49398E-01 1.89931E+00 4.73033E-01 5.78027E-02
 -1      1618 1.07860E+00-6.06667E+01 2.45461E-01 2.10976E+00 7.21638E-01 1.45941E-01
 -1      1619 9.52192E-01-4.38348E+01 2.21278E-01 1.39646E+00-3.93216E-01-7.84146E-02
 -1      1620 9.41423E-01-4.33150E+01 5.05627E-01 1.29653E+00-2.58924E-01-6.09092E-02
 -1      1621 9.34262E-01-4.31323E+01 5.91324E-01 1.25138E+00 5.48655E-13-3.50381E-13
 -1      1622 9.41423E-01-4.33150E+01 5.05627E-01 1.29653E+00 2.58924E-01 6.09092E-02
 -1      1623 9.52192E-01-4.38348E+01 2.21278E-01 1.39646E+00 3.93216E-01 7.84146E-02
 -1      1624 7.51781E-01-3.16561E+01 9.71727E-02 9.80019E-01-1.86935E-01-7.00240E-02
 -1      1625 7.26013E-01-3.12746E+01 2.52164E-01 9.10378E-01-1.34968E-01-4.36997E-02
 -1      1626 7.27982E-01-3.11452E+01 3.25014E-01 8.89031E-01 2.13613E-12-1.94206E-12
 -1      1627 7.26013E-01-3.12746E+01 2.52164E-01 9.10378E-01 1.34968E-01 4.36997E-02
 -1      1628 7.51781E-01-3.16561E+01 9.71727E-02 9.80019E-01 1.86935E-01 7.00240E-02
 -1      1629 6.43369E-01-2.25990E+01 7.19992E-02 7.15630E-01-1.15323E-01-5.22183E-02
 -1      1630 6.31333E-01-2.23126E+01 1.70796E-01 6.69513E-01-8.29534E-02-3.47297E-02
 -1      1631 6.29471E-01-2.22172E+01 2.10304E-01 6.54545E-01-2.80410E-12 9.57084E-13
 -1      1632 6.31333E-01-2.23126E+01 1.70796E-01 6.69513E-01 8.29534E-02 3.47297E-02
 -1      1633 6.43369E-01-2.25990E+01 7.19992E-02 7.15630E-01 1.15323E-01 5.22183E-02
 -1      1634 5.57533E-01-1.57694E+01 4.75809E-02 5.29989E-01-6.92090E-02-4.24501E-02
 -1      1635 5.47550E-01-1.55512E+01 1.16368E-01 4.98762E-01-5.12629E-02-2.80131E-02
 -1      1636 5.46868E-01-1.54789E+01 1.45824E-01 4.88983E-01 3.55364E-12 2.27446E-13
 -1      1637 5.47550E-01-1.55512E+01 1.16368E-01 4.98762E-01 5.12629E-02 2.80131E-02
 -1      1638 5.57533E-01-1.57694E+01 4.75809E-02 5.29989E-01 6.92090E-02 4.24501E-02
 -1      1639 4.94162E-01-1.06104E+01 3.60491E-02 3.89665E-01-4.15821E-02-3.47182E-02
 -1      1640 4.86472E-01-1.04386E+01 8.65047E-02 3.68523E-01-3.09103E-02-2.31442E-02
 -1      1641 4.85713E-01-1.03816E+01 1.07795E-01 3.61869E-01-7.90181E-12-8.47965E-12
 -1      1642 4.86472E-01-1.04386E+01 8.65047E-02 3.68523E-01 3.09103E-02 2.31442E-02
 -1      1643 4.94162E-01-1.06104E+01 3.60491E-02 3.89665E-01 4.15821E-02 3.47182E-02
 -1      1644 4.43182E-01-6.75174E+00 2.76210E-02 2.74752E-01-2.14860E-02-2.92017E-02
 -1      1645 4.36641E-01-6.61359E+00 6.64688E-02 2.61346E-01-1.61819E-02-1.95390E-02
 -1      1646 4.36072E-01-6.56777E+00 8.30448E-02 2.57066E-01-8.95788E-12-2.31642E-12
 -1      1647 4.36641E-01-6.61359E+00 6.64688E-02 2.61346E-01 1.61819E-02 1.95390E-02
 -1      1648 4.43182E-01-6.75174E+00 2.76210E-02 2.74752E-01 2.14860E-02 2.92017E-02
 -1      1649 3.99841E-01-3.93725E+00 2.21273E-02 1.74252E-01-5.95481E-03-2.49147E-02
 -1      1650 3.94082E-01-3.82470E+00 5.30500E-02 1.67205E-01-4.62302E-03-1.67062E-02
 -1      1651 3.93554E-01-3.78739E+00 6.62749E-02 1.64848E-01-8.55602E-12 1.29817E-12
 -1      1652 3.94082E-01-3.82470E+00 5.30500E-02 1.67205E-01 4.62302E-03 1.67062E-02
 -1      1653 3.99841E-01-3.93725E+00 2.21273E-02 1.74252E-01 5.95481E-03 2.49147E-02
 -1      1654 3.59368E-01-1.97949E+00 1.79174E-02 8.14302E-02 7.35921E-03-2.13974E-02
 -1      1655 3.54125E-01-1.88816E+00 4.33152E-02 8.01317E-02 5.35328E-03-1.43253E-02
 -1      1656 3.53657E-01-1.85800E+00 5.42614E-02 7.94675E-02-8.08930E-12 5.17596E-12
 -1      1657 3.54125E-01-1.88816E+00 4.33152E-02 8.01317E-02-5.35328E-03 1.43253E-02
 -1      1658 3.59368E-01-1.97949E+00 1.79174E-02 8.14302E-02-7.35921E-03 2.13974E-02
 -1      1659 3.18993E-01-7.31456E-01 1.49152E-02-6.05227E-03 2.02573E-02-1.81262E-02
 -1      1660 3.14356E-01-6.60017E-01 3.62146E-02-1.96620E-03 1.49015E-02-1.20221E-02
 -1      1661 3.13879E-01-6.36616E-01 4.52622E-02-1.05508E-03-4.41247E-12-3.26827E-11
 -1      1662 3.14356E-01-6.60017E-01 3.62146E-02-1.96620E-03-1.49015E-02 1.20221E-02
 -1      1663 3.18993E-01-7.31456E-01 1.49152E-02-6.05227E-03-2.02573E-02 1.81262E-02
 -1      1664 2.67304E-01-6.74249E-02 9.98870E-03-8.65521E-02 3.21932E-02-1.41088E-02
 -1      1665 2.62719E-01-1.68173E-02 2.56681E-02-7.73820E-02 2.36316E-02-9.23752E-03
 -1      1666 2.62454E-01-3.03168E-04 3.26195E-02-7.51060E-02-3.42940E-12 5.71734E-12
 -1      1667 2.62719E-01-1.68173E-02 2.56681E-02-7.73820E-02-2.36316E-02 9.23752E-03
 -1      1668 2.67304E-01-6.74249E-02 9.98870E-03-8.65521E-02-3.21932E-02 1.41088E-02
 -1      1669 2.27639E-01 1.51004E-01 7.21992E-03-1.48116E-01 4.13117E-02-8.88152E-03
 -1      1670 2.25376E-01 1.79177E-01 1.61106E-02-1.35748E-01 2.99311E-02-5.48651E-03
 -1      1671 2.24896E-01 1.88525E-01 1.92382E-02-1.32632E-01 4.90459E-12 3.45544E-13
 -1      1672 2.25376E-01 1.79177E-01 1.61106E-02-1.35748E-01-2.99311E-02 5.48651E-03
 -1      1673 2.27639E-01 1.51004E-01 7.21992E-03-1.48116E-01-4.13117E-02 8.88152E-03
 -1      1674 1.55791E-01 7.92369E-02-7.86300E-03-1.45553E-01 3.67251E-02-3.05525E-04
 -1      1675 1.48581E-01 8.89388E-02-2.18750E-02-1.34620E-01 2.49269E-02 1.24015E-03
 -1      1676 1.48046E-01 9.36888E-02-2.67914E-02-1.31975E-01 3.61601E-12 1.01190E-11
 -1      1677 1.48581E-01 8.89388E-02-2.18750E-02-1.34620E-01-2.49269E-02-1.24014E-03
 -1      1678 1.55791E-01 7.92369E-02-7.86300E-03-1.45553E-01-3.67251E-02 3.05525E-04
 -1      1679-1.62710E+02-4.51230E+02-7.10952E+01 6.64490E+01-2.68253E-01-2.18502E+01
 -1      1680-1.32729E+01-5.62797E+02-5.88811E+01 1.61849E+02 4.29669E+00 2.22537E+01
 -1      1681-1.26100E+02-4.34067E+02-8.20509E+01 6.30836E+01 1.03863E+01 1.73057E+00
 -1      1682-2.30299E+01-5.90929E+02-9.61836E+01 1.94236E+02 3.10802E+00 7.39969E+00
 -1      1683-1.28932E+02-4.09334E+02-9.16577E+01 5.54932E+01 2.14079E+00 2.90792E-01
 -1      1684-2.55144E+01-5.89107E+02-1.09183E+02 1.88887E+02-3.61723E-10 1.20228E-10
 -1      1685-1.28932E+02-4.09334E+02-9.16577E+01 5.54932E+01-2.14079E+00-2.90792E-01
 -1      1686-2.30299E+01-5.90929E+02-9.61836E+01 1.94236E+02-3.10802E+00-7.39969E+00
 -1      1687-1.26100E+02-4.34067E+02-8.20509E+01 6.30836E+01-1.03863E+01-1.73057E+00
 -1      1688-1.32729E+01-5.62797E+02-5.88811E+01 1.61849E+02-4.29669E+00-2.22537E+01
 -1      1689-1.62710E+02-4.51230E+02-7.10952E+01 6.64490E+01 2.68253E-01 2.18502E+01
 -1      1690 1.24841E+01-1.89609E+02-2.52971E+00 3.12224E+01-1.54225E+00-2.92575E+00
 -1      1691 2.20674E+01-2.72197E+02 9.85378E+00 1.24079E+01 4.97394E+00 3.86761E+00
 -1      1692 9.49729E+00-1.85522E+02 4.88134E+00 2.02042E+01-7.51104E+00 1.04294E-01
 -1      1693 1.57902E+01-2.65526E+02-4.97257E+00 2.56305E+00-9.87135E-01 2.57411E+00
 -1      1694 1.18818E+01-1.87964E+02 7.36173E+00 2.30558E+01-2.91964E+00 6.60301E-01
 -1      1695 1.77473E+01-2.59210E+02-6.12988E+00 4.11333E+00-6.33982E-11-3.01495E-11
 -1      1696 1.18818E+01-1.87964E+02 7.36173E+00 2.30558E+01 2.91964E+00-6.60301E-01
 -1      1697 1.57902E+01-2.65526E+02-4.97257E+00 2.56305E+00 9.87135E-01-2.57411E+00
 -1      1698 9.49729E+00-1.85522E+02 4.88134E+00 2.02042E+01 7.51104E+00-1.04294E-01
 -1      1699 2.20674E+01-2.72197E+02 9.85378E+00 1.24079E+01-4.97394E+00-3.86761E+00
 -1      1700 1.24841E+01-1.89609E+02-2.52971E+00 3.12224E+01 1.54225E+00 2.92575E+00
 -1      1701-2.18150E+00-1.26514E+02-1.84432E+00 6.01690E+00-2.03262E+00-8.49775E-02
 -1      1702-3.20156E+00-1.61515E+02-2.27716E-01 1.56079E+01-6.66331E+00 1.02843E-01
 -1      1703 2.32354E-01-1.24652E+02 2.15912E+00 5.35774E+00-3.72485E+00 4.43172E-01
 -1      1704-8.75469E-01-1.60289E+02 1.07971E+00 1.55296E+01-3.64124E+00-2.42700E-01
 -1      1705-1.19971E+00-1.25377E+02 1.95321E+00 4.58697E+00-1.16143E+00-1.78169E-01
 -1      1706-1.70288E+00-1.61465E+02-7.31113E-01 1.52870E+01 9.23193E-11-2.50328E-11
 -1      1707-1.19971E+00-1.25377E+02 1.95321E+00 4.58697E+00 1.16143E+00 1.78169E-01
 -1      1708-8.75469E-01-1.60289E+02 1.07971E+00 1.55296E+01 3.64124E+00 2.42700E-01
 -1      1709 2.32354E-01-1.24652E+02 2.15912E+00 5.35774E+00 3.72485E+00-4.43172E-01
 -1      1710-3.20156E+00-1.61515E+02-2.27716E-01 1.56079E+01 6.66331E+00-1.02843E-01
 -1      1711-2.18150E+00-1.26514E+02-1.84432E+00 6.01690E+00 2.03262E+00 8.49775E-02
 -1      1712 2.40553E+00-8.61061E+01 2.10095E-01 4.49316E+00-1.06211E+00-2.46338E-01
 -1      1713 2.26957E+00-1.04771E+02 1.38055E+00 4.57734E+00-1.96665E+00-2.67240E-01
 -1      1714 2.21478E+00-8.45158E+01 1.89908E+00 3.44008E+00-1.62747E+00-1.46235E-01
 -1      1715 1.65248E+00-1.04273E+02 2.08999E+00 3.75832E+00-1.99225E+00 1.35186E-01
 -1      1716 2.20844E+00-8.42287E+01 2.31364E+00 3.34141E+00-5.39399E-01-2.85696E-02
 -1      1717 1.63402E+00-1.04452E+02 3.07478E+00 3.84502E+00 3.98899E-11-9.58830E-12
 -1      1718 2.20844E+00-8.42287E+01 2.31364E+00 3.34141E+00 5.39399E-01 2.85696E-02
 -1      1719 1.65248E+00-1.04273E+02 2.08999E+00 3.75832E+00 1.99225E+00-1.35186E-01
 -1      1720 2.21478E+00-8.45158E+01 1.89908E+00 3.44008E+00 1.62747E+00 1.46235E-01
 -1      1721 2.26957E+00-1.04771E+02 1.38055E+00 4.57734E+00 1.96665E+00 2.67240E-01
 -1      1722 2.40553E+00-8.61061E+01 2.10095E-01 4.49316E+00 1.06211E+00 2.46338E-01
 -1      1723 9.36828E-01-6.15304E+01-1.98235E-02 2.38812E+00-3.84671E-01-4.99991E-02
 -1      1724 1.14064E+00-7.31405E+01 4.47437E-01 3.01569E+00-1.29447E+00-1.03633E-01
 -1      1725 1.05537E+00-6.03421E+01 6.51931E-01 2.00925E+00-6.71701E-01-5.93457E-02
 -1      1726 1.24111E+00-7.24675E+01 1.35335E+00 2.76468E+00-1.00868E+00-1.01074E-01
 -1      1727 9.44934E-01-5.99688E+01 9.55676E-01 1.87191E+00-2.65298E-01-4.71848E-02
 -1      1728 1.18422E+00-7.24185E+01 1.57772E+00 2.67047E+00 1.87030E-11 8.19440E-13
 -1      1729 9.44934E-01-5.99688E+01 9.55676E-01 1.87191E+00 2.65298E-01 4.71848E-02
 -1      1730 1.24111E+00-7.24675E+01 1.35335E+00 2.76468E+00 1.00868E+00 1.01074E-01
 -1      1731 1.05537E+00-6.03421E+01 6.51931E-01 2.00925E+00 6.71701E-01 5.93457E-02
 -1      1732 1.14064E+00-7.31405E+01 4.47437E-01 3.01569E+00 1.29447E+00 1.03633E-01
 -1      1733 9.36828E-01-6.15304E+01-1.98235E-02 2.38812E+00 3.84671E-01 4.99991E-02
 -1      1734 9.64364E-01-4.43731E+01 7.70340E-02 1.59052E+00-2.21113E-01-5.77760E-02
 -1      1735 1.01461E+00-5.23700E+01 2.59933E-01 1.75423E+00-4.77300E-01-1.26065E-01
 -1      1736 9.53151E-01-4.35701E+01 3.76818E-01 1.34670E+00-3.15953E-01-7.10941E-02
 -1      1737 9.40922E-01-5.17642E+01 6.18699E-01 1.59526E+00-4.13339E-01-5.25425E-02
 -1      1738 9.32782E-01-4.32304E+01 5.34393E-01 1.27494E+00-1.20253E-01-2.67995E-02
 -1      1739 9.33953E-01-5.16179E+01 8.28158E-01 1.56345E+00 5.00168E-12-1.36065E-13
 -1      1740 9.32782E-01-4.32304E+01 5.34393E-01 1.27494E+00 1.20253E-01 2.67995E-02
 -1      1741 9.40922E-01-5.17642E+01 6.18699E-01 1.59526E+00 4.13339E-01 5.25425E-02
 -1      1742 9.53151E-01-4.35701E+01 3.76818E-01 1.34670E+00 3.15953E-01 7.10941E-02
 -1      1743 1.01461E+00-5.23700E+01 2.59933E-01 1.75423E+00 4.77300E-01 1.26065E-01
 -1      1744 9.64364E-01-4.43731E+01 7.70340E-02 1.59052E+00 2.21113E-01 5.77760E-02
 -1      1745 7.48548E-01-3.20256E+01 3.01005E-02 1.08990E+00-1.10851E-01-3.67574E-02
 -1      1746 8.22915E-01-3.77945E+01 1.36062E-01 1.20109E+00-2.73975E-01-7.54984E-02
 -1      1747 7.45604E-01-3.14614E+01 1.89697E-01 9.45724E-01-1.69032E-01-5.08995E-02
 -1      1748 8.10251E-01-3.73360E+01 3.60466E-01 1.10763E+00-2.11430E-01-5.11789E-02
 -1      1749 7.31321E-01-3.12079E+01 2.98328E-01 8.99826E-01-6.96765E-02-2.18590E-02
 -1      1750 8.03298E-01-3.72009E+01 4.45506E-01 1.07812E+00 5.06883E-13 1.69053E-13
 -1      1751 7.31321E-01-3.12079E+01 2.98328E-01 8.99826E-01 6.96765E-02 2.18590E-02
 -1      1752 8.10251E-01-3.73360E+01 3.60466E-01 1.10763E+00 2.11430E-01 5.11789E-02
 -1      1753 7.45604E-01-3.14614E+01 1.89697E-01 9.45724E-01 1.69032E-01 5.08995E-02
 -1      1754 8.22915E-01-3.77945E+01 1.36062E-01 1.20109E+00 2.73975E-01 7.54984E-02
 -1      1755 7.48548E-01-3.20256E+01 3.01005E-02 1.08990E+00 1.10851E-01 3.67574E-02
 -1      1756 6.45258E-01-2.28589E+01 2.78419E-02 7.86357E-01-7.08226E-02-2.95284E-02
 -1      1757 6.90031E-01-2.71537E+01 8.17810E-02 8.49974E-01-1.45776E-01-6.24470E-02
 -1      1758 6.39128E-01-2.24551E+01 1.24386E-01 6.92767E-01-1.00445E-01-4.12740E-02
 -1      1759 6.72774E-01-2.68143E+01 2.06837E-01 7.91727E-01-1.12981E-01-3.88384E-02
 -1      1760 6.32230E-01-2.22640E+01 1.93839E-01 6.62139E-01-4.10283E-02-1.67533E-02
 -1      1761 6.71070E-01-2.67073E+01 2.63584E-01 7.74185E-01-1.37420E-13-1.53708E-12
 -1      1762 6.32230E-01-2.22640E+01 1.93839E-01 6.62139E-01 4.10283E-02 1.67533E-02
 -1      1763 6.72774E-01-2.68143E+01 2.06837E-01 7.91727E-01 1.12981E-01 3.88384E-02
 -1      1764 6.39128E-01-2.24551E+01 1.24386E-01 6.92767E-01 1.00445E-01 4.12740E-02
 -1      1765 6.90031E-01-2.71537E+01 8.17810E-02 8.49974E-01 1.45776E-01 6.24470E-02
 -1      1766 6.45258E-01-2.28589E+01 2.78419E-02 7.86357E-01 7.08226E-02 2.95284E-02
 -1      1767 5.60065E-01-1.59648E+01 1.78485E-02 5.76515E-01-4.29298E-02-2.33574E-02
 -1      1768 5.95583E-01-1.91971E+01 5.57388E-02 6.24137E-01-9.12362E-02-4.74468E-02
 -1      1769 5.54001E-01-1.56598E+01 8.45539E-02 5.14492E-01-6.21760E-02-3.31012E-02
 -1      1770 5.85267E-01-1.89436E+01 1.40351E-01 5.84905E-01-6.84333E-02-3.12998E-02
 -1      1771 5.49343E-01-1.55137E+01 1.35331E-01 4.93926E-01-2.58980E-02-1.35774E-02
 -1      1772 5.83741E-01-1.88612E+01 1.75462E-01 5.72776E-01 1.44568E-13-1.67393E-13
 -1      1773 5.49343E-01-1.55137E+01 1.35331E-01 4.93926E-01 2.58980E-02 1.35774E-02
 -1      1774 5.85267E-01-1.89436E+01 1.40351E-01 5.84905E-01 6.84333E-02 3.12998E-02
 -1      1775 5.54001E-01-1.56598E+01 8.45539E-02 5.14492E-01 6.21760E-02 3.31012E-02
 -1      1776 5.95583E-01-1.91971E+01 5.57388E-02 6.24137E-01 9.12362E-02 4.74468E-02
 -1      1777 5.60065E-01-1.59648E+01 1.78485E-02 5.76515E-01 4.29298E-02 2.33574E-02
 -1      1778 4.96988E-01-1.07622E+01 1.36570E-02 4.19784E-01-2.60655E-02-1.92807E-02
 -1      1779 5.23397E-01-1.31975E+01 4.00564E-02 4.60335E-01-5.50518E-02-3.86980E-02
 -1      1780 4.91150E-01-1.05243E+01 6.24959E-02 3.79144E-01-3.73002E-02-2.74471E-02
 -1      1781 5.14831E-01-1.30018E+01 9.97317E-02 4.34065E-01-4.13989E-02-2.55731E-02
 -1      1782 4.87685E-01-1.04090E+01 1.00222E-01 3.65213E-01-1.55474E-02-1.12398E-02
 -1      1783 5.14064E-01-1.29374E+01 1.25232E-01 4.25853E-01-5.04536E-13-3.93792E-12
 -1      1784 4.87685E-01-1.04090E+01 1.00222E-01 3.65213E-01 1.55474E-02 1.12398E-02
 -1      1785 5.14831E-01-1.30018E+01 9.97317E-02 4.34065E-01 4.13989E-02 2.55731E-02
 -1      1786 4.91150E-01-1.05243E+01 6.24959E-02 3.79144E-01 3.73002E-02 2.74471E-02
 -1      1787 5.23397E-01-1.31975E+01 4.00564E-02 4.60335E-01 5.50518E-02 3.86980E-02
 -1      1788 4.96988E-01-1.07622E+01 1.36570E-02 4.19784E-01 2.60655E-02 1.92807E-02
 -1      1789 4.46478E-01-6.87351E+00 1.02452E-02 2.92851E-01-1.35671E-02-1.62719E-02
 -1      1790 4.67303E-01-8.68541E+00 3.06750E-02 3.32431E-01-3.14794E-02-3.19858E-02
 -1      1791 4.40564E-01-6.68249E+00 4.79827E-02 2.68056E-01-1.95648E-02-2.31866E-02
 -1      1792 4.60315E-01-8.53015E+00 7.54670E-02 3.15104E-01-2.36525E-02-2.13464E-02
 -1      1793 4.37712E-01-6.58972E+00 7.73936E-02 2.59199E-01-8.19753E-03-9.49883E-03
 -1      1794 4.59661E-01-8.47880E+00 9.44796E-02 3.09651E-01-8.26395E-12-3.70373E-12
 -1      1795 4.37712E-01-6.58972E+00 7.73936E-02 2.59199E-01 8.19753E-03 9.49883E-03
 -1      1796 4.60315E-01-8.53015E+00 7.54670E-02 3.15104E-01 2.36525E-02 2.13464E-02
 -1      1797 4.40564E-01-6.68249E+00 4.79827E-02 2.68056E-01 1.95648E-02 2.31866E-02
 -1      1798 4.67303E-01-8.68541E+00 3.06750E-02 3.32431E-01 3.14794E-02 3.19858E-02
 -1      1799 4.46478E-01-6.87351E+00 1.02452E-02 2.92851E-01 1.35671E-02 1.62719E-02
 -1      1800 4.03476E-01-4.03669E+00 8.01056E-03 1.82603E-01-3.92731E-03-1.39980E-02
 -1      1801 4.20930E-01-5.34680E+00 2.43755E-02 2.24584E-01-1.37192E-02-2.70760E-02
 -1      1802 3.97451E-01-3.88087E+00 3.82420E-02 1.70702E-01-5.65641E-03-1.98959E-02
 -1      1803 4.14843E-01-5.22128E+00 5.93110E-02 2.14343E-01-1.04290E-02-1.81295E-02
 -1      1804 3.94940E-01-3.80525E+00 6.18481E-02 1.65998E-01-2.37985E-03-8.14188E-03
 -1      1805 4.14309E-01-5.17969E+00 7.42407E-02 2.11021E-01-1.10950E-11-2.07746E-13
 -1      1806 3.94940E-01-3.80525E+00 6.18481E-02 1.65998E-01 2.37985E-03 8.14188E-03
 -1      1807 4.14843E-01-5.22128E+00 5.93110E-02 2.14343E-01 1.04290E-02 1.81295E-02
 -1      1808 3.97451E-01-3.88087E+00 3.82420E-02 1.70702E-01 5.65641E-03 1.98959E-02
 -1      1809 4.20930E-01-5.34680E+00 2.43755E-02 2.24584E-01 1.37192E-02 2.70760E-02
 -1      1810 4.03476E-01-4.03669E+00 8.01056E-03 1.82603E-01 3.92731E-03 1.39980E-02
 -1      1811 3.63311E-01-2.06117E+00 6.16904E-03 8.11729E-02 4.34952E-03-1.21025E-02
 -1      1812 3.79795E-01-2.95876E+00 2.01625E-02 1.27892E-01 6.64816E-04-2.31664E-02
 -1      1813 3.57131E-01-1.93377E+00 3.11302E-02 8.07304E-02 6.32169E-03-1.71511E-02
 -1      1814 3.74321E-01-2.85675E+00 4.83366E-02 1.23697E-01 3.45046E-04-1.55186E-02
 -1      1815 3.54844E-01-1.87241E+00 5.06658E-02 7.97500E-02 2.64864E-03-6.99834E-03
 -1      1816 3.73830E-01-2.82300E+00 6.04325E-02 1.22185E-01-5.56970E-12 1.91121E-12
 -1      1817 3.54844E-01-1.87241E+00 5.06658E-02 7.97500E-02-2.64864E-03 6.99834E-03
 -1      1818 3.74321E-01-2.85675E+00 4.83366E-02 1.23697E-01-3.45046E-04 1.55186E-02
 -1      1819 3.57131E-01-1.93377E+00 3.11302E-02 8.07304E-02-6.32169E-03 1.71511E-02
 -1      1820 3.79795E-01-2.95876E+00 2.01625E-02 1.27892E-01-6.64816E-04 2.31664E-02
 -1      1821 3.63311E-01-2.06117E+00 6.16904E-03 8.11729E-02-4.34952E-03 1.21025E-02
 -1      1822 3.23144E-01-7.97250E-01 4.82689E-03-1.46405E-02 1.23379E-02-1.04969E-02
 -1      1823 3.40280E-01-1.35377E+00 1.72572E-02 3.78911E-02 1.37014E-02-1.97406E-02
 -1      1824 3.16997E-01-6.95715E-01 2.60057E-02-4.09984E-03 1.78330E-02-1.45371E-02
 -1      1825 3.35336E-01-1.27234E+00 4.05943E-02 3.93055E-02 1.00814E-02-1.31683E-02
 -1      1826 3.14906E-01-6.47771E-01 4.23113E-02-1.58610E-03 7.44612E-03-5.88595E-03
 -1      1827 3.34860E-01-1.24556E+00 5.05858E-02 3.94187E-02-1.01181E-11-1.23905E-11
 -1      1828 3.14906E-01-6.47771E-01 4.23113E-02-1.58610E-03-7.44612E-03 5.88595E-03
 -1      1829 3.35336E-01-1.27234E+00 4.05943E-02 3.93055E-02-1.00814E-02 1.31683E-02
 -1      1830 3.16997E-01-6.95715E-01 2.60057E-02-4.09984E-03-1.78330E-02 1.45371E-02
 -1      1831 3.40280E-01-1.35377E+00 1.72572E-02 3.78911E-02-1.37014E-02 1.97406E-02
 -1      1832 3.23144E-01-7.97250E-01 4.82689E-03-1.46405E-02-1.23379E-02 1.04969E-02
 -1      1833 2.71002E-01-1.15447E-01 2.37204E-03-1.03018E-01 1.98400E-02-7.96519E-03
 -1      1834 2.95838E-01-3.94662E-01 1.45734E-02-4.55104E-02 2.61852E-02-1.60843E-02
 -1      1835 2.65190E-01-4.21912E-02 1.80721E-02-8.20835E-02 2.84637E-02-1.13080E-02
 -1      1836 2.91213E-01-3.33614E-01 3.30124E-02-3.90102E-02 1.92409E-02-1.05996E-02
 -1      1837 2.63226E-01-8.12238E-03 3.04366E-02-7.63532E-02 1.18759E-02-4.56619E-03
 -1      1838 2.90823E-01-3.13661E-01 4.09738E-02-3.74373E-02-7.73693E-14-1.78033E-11
 -1      1839 2.63226E-01-8.12238E-03 3.04366E-02-7.63532E-02-1.18759E-02 4.56619E-03
 -1      1840 2.91213E-01-3.33614E-01 3.30124E-02-3.90102E-02-1.92409E-02 1.05996E-02
 -1      1841 2.65190E-01-4.21912E-02 1.80721E-02-8.20835E-02-2.84637E-02 1.13080E-02
 -1      1842 2.95838E-01-3.94662E-01 1.45734E-02-4.55104E-02-2.61852E-02 1.60843E-02
 -1      1843 2.71002E-01-1.15447E-01 2.37204E-03-1.03018E-01-1.98400E-02 7.96519E-03
 -1      1844 2.32854E-01 1.23802E-01 2.63281E-03-1.71692E-01 2.55443E-02-6.22875E-03
 -1      1845 2.49951E-01 4.64761E-02 1.04976E-02-1.16196E-01 3.67159E-02-1.12839E-02
 -1      1846 2.26742E-01 1.65106E-01 1.20138E-02-1.42124E-01 3.63505E-02-7.05381E-03
 -1      1847 2.46388E-01 8.59102E-02 2.26023E-02-1.05105E-01 2.66555E-02-7.28599E-03
 -1      1848 2.25501E-01 1.84133E-01 1.83429E-02-1.34365E-01 1.49258E-02-2.64804E-03
 -1      1849 2.45951E-01 9.88108E-02 2.75044E-02-1.02446E-01 2.13899E-13 2.56249E-12
 -1      1850 2.25501E-01 1.84133E-01 1.83429E-02-1.34365E-01-1.49258E-02 2.64804E-03
 -1      1851 2.46388E-01 8.59102E-02 2.26023E-02-1.05105E-01-2.66555E-02 7.28599E-03
 -1      1852 2.26742E-01 1.65106E-01 1.20138E-02-1.42124E-01-3.63505E-02 7.05381E-03
 -1      1853 2.49951E-01 4.64761E-02 1.04976E-02-1.16196E-01-3.67159E-02 1.12839E-02
 -1      1854 2.32854E-01 1.23802E-01 2.63281E-03-1.71692E-01-2.55443E-02 6.22875E-03
 -1      1855 1.54323E-01 7.82459E-02-2.77584E-03-1.72522E-01 2.40134E-02 4.49001E-04
 -1      1856 1.93778E-01 1.18515E-01 7.98178E-04-1.39459E-01 4.02672E-02-3.68004E-03
 -1      1857 1.51998E-01 8.42277E-02-1.56838E-02-1.40592E-01 3.09101E-02 1.00289E-03
 -1      1858 1.88521E-01 1.36525E-01-1.82922E-03-1.28103E-01 2.76802E-02-1.87714E-03
 -1      1859 1.48131E-01 9.12085E-02-2.48636E-02-1.33494E-01 1.23790E-02 5.44622E-04
 -1      1860 1.87939E-01 1.43616E-01-2.86008E-03-1.25185E-01 4.73753E-12 1.07425E-11
 -1      1861 1.48131E-01 9.12085E-02-2.48636E-02-1.33494E-01-1.23790E-02-5.44622E-04
 -1      1862 1.88521E-01 1.36525E-01-1.82922E-03-1.28103E-01-2.76802E-02 1.87714E-03
 -1      1863 1.51998E-01 8.42277E-02-1.56838E-02-1.40592E-01-3.09101E-02-1.00289E-03
 -1      1864 1.93778E-01 1.18515E-01 7.98178E-04-1.39459E-01-4.02672E-02 3.68004E-03
 -1      1865 1.54323E-01 7.82459E-02-2.77584E-03-1.72522E-01-2.40134E-02-4.49001E-04
 -1      1866 1.28319E-01 2.47059E-02-2.20199E-02-8.13851E-02 1.82701E-02 1.24462E-02
 -1      1867 1.20451E-01 3.01922E-02-5.17200E-02-7.76142E-02 1.36054E-02 8.05246E-03
 -1      1868 1.20814E-01 3.26323E-02-6.29177E-02-7.64097E-02 6.47717E-12-3.90607E-12
 -1      1869 1.20451E-01 3.01922E-02-5.17200E-02-7.76142E-02-1.36054E-02-8.05246E-03
 -1      1870 1.28319E-01 2.47059E-02-2.20199E-02-8.13851E-02-1.82701E-02-1.24462E-02
 -1      1871 3.50811E-01 3.46246E-02 1.38680E-02 5.17120E-02 9.63122E-04 2.72878E-02
 -1      1872 3.73333E-01 3.48070E-02 4.08156E-02 5.57275E-02 8.73620E-04 1.87287E-02
 -1      1873 3.78823E-01 3.50604E-02 5.11371E-02 5.68293E-02-4.11523E-12-2.39204E-13
 -1      1874 3.73333E-01 3.48070E-02 4.08156E-02 5.57275E-02-8.73620E-04-1.87287E-02
 -1      1875 3.50811E-01 3.46246E-02 1.38680E-02 5.17120E-02-9.63122E-04-2.72878E-02
 -1      1876-2.65947E+00-1.29185E-01-8.87844E-04-6.38926E-01-9.68330E-03-2.82284E-02
 -1      1877-2.63662E+00-1.27370E-01 1.01926E-02-6.32886E-01-6.01602E-03-1.88523E-02
 -1      1878-2.62995E+00-1.27144E-01 1.41684E-02-6.31216E-01-4.06568E-12-7.86281E-12
 -1      1879-2.63662E+00-1.27370E-01 1.01926E-02-6.32886E-01 6.01602E-03 1.88523E-02
 -1      1880-2.65947E+00-1.29185E-01-8.87844E-04-6.38926E-01 9.68330E-03 2.82284E-02
 -1      1881-7.43741E+00-1.15078E+00 6.03875E-04-2.96849E+00-1.53185E-02-3.46450E-02
 -1      1882-7.42550E+00-1.14936E+00 5.92567E-03-2.96476E+00-1.01330E-02-2.32749E-02
 -1      1883-7.42185E+00-1.14907E+00 7.88749E-03-2.96377E+00-3.11557E-12-6.09591E-12
 -1      1884-7.42550E+00-1.14936E+00 5.92567E-03-2.96476E+00 1.01330E-02 2.32749E-02
 -1      1885-7.43741E+00-1.15078E+00 6.03875E-04-2.96849E+00 1.53185E-02 3.46450E-02
 -1      1886-1.15472E+01-3.67894E+00 9.51014E-04-6.56106E+00-1.82683E-02-2.97874E-02
 -1      1887-1.15408E+01-3.67754E+00 3.23365E-03-6.55819E+00-1.21616E-02-2.00391E-02
 -1      1888-1.15384E+01-3.67717E+00 4.13462E-03-6.55731E+00-1.81472E-12-1.10762E-11
 -1      1889-1.15408E+01-3.67754E+00 3.23365E-03-6.55819E+00 1.21616E-02 2.00391E-02
 -1      1890-1.15472E+01-3.67894E+00 9.51014E-04-6.56106E+00 1.82683E-02 2.97874E-02
 -1      1891-1.37023E+01-7.87047E+00 2.64544E-03-1.04364E+01-1.75815E-02-2.11973E-02
 -1      1892-1.36966E+01-7.86809E+00 4.85893E-03-1.04329E+01-1.17837E-02-1.43839E-02
 -1      1893-1.36943E+01-7.86725E+00 5.73384E-03-1.04317E+01-1.75404E-12 8.16552E-12
 -1      1894-1.36966E+01-7.86809E+00 4.85893E-03-1.04329E+01 1.17837E-02 1.43839E-02
 -1      1895-1.37023E+01-7.87047E+00 2.64544E-03-1.04364E+01 1.75815E-02 2.11973E-02
 -1      1896-1.36445E+01-1.34510E+01 4.27550E-03-1.36103E+01-1.53363E-02-1.34285E-02
 -1      1897-1.36384E+01-1.34461E+01 7.69187E-03-1.36052E+01-1.02862E-02-9.20357E-03
 -1      1898-1.36359E+01-1.34442E+01 9.01162E-03-1.36033E+01 5.86190E-12-3.99400E-12
 -1      1899-1.36384E+01-1.34461E+01 7.69187E-03-1.36052E+01 1.02862E-02 9.20357E-03
 -1      1900-1.36445E+01-1.34510E+01 4.27550E-03-1.36103E+01 1.53363E-02 1.34285E-02
 -1      1901-1.17789E+01-1.98559E+01 5.60316E-03-1.53705E+01-1.26349E-02-7.58476E-03
 -1      1902-1.17728E+01-1.98470E+01 1.06113E-02-1.53636E+01-8.43604E-03-5.27887E-03
 -1      1903-1.17703E+01-1.98438E+01 1.25202E-02-1.53611E+01 2.51123E-12 3.65666E-12
 -1      1904-1.17728E+01-1.98470E+01 1.06113E-02-1.53636E+01 8.43604E-03 5.27887E-03
 -1      1905-1.17789E+01-1.98559E+01 5.60316E-03-1.53705E+01 1.26349E-02 7.58476E-03
 -1      1906-8.81133E+00-2.63981E+01 6.55129E-03-1.53488E+01-1.00318E-02-3.51338E-03
 -1      1907-8.80605E+00-2.63848E+01 1.30066E-02-1.53411E+01-6.60677E-03-2.53019E-03
 -1      1908-8.80405E+00-2.63799E+01 1.54540E-02-1.53383E+01 2.66232E-12 4.16243E-12
 -1      1909-8.80605E+00-2.63848E+01 1.30066E-02-1.53411E+01 6.60677E-03 2.53019E-03
 -1      1910-8.81133E+00-2.63981E+01 6.55129E-03-1.53488E+01 1.00318E-02 3.51338E-03
 -1      1911-5.51447E+00-3.23784E+01 7.17494E-03-1.34923E+01-7.57466E-03-7.36585E-04
 -1      1912-5.51066E+00-3.23608E+01 1.47512E-02-1.34849E+01-4.83940E-03-6.63442E-04
 -1      1913-5.50924E+00-3.23543E+01 1.76140E-02-1.34823E+01 8.65106E-12 8.49096E-12
 -1      1914-5.51066E+00-3.23608E+01 1.47512E-02-1.34849E+01 4.83940E-03 6.63442E-04
 -1      1915-5.51447E+00-3.23784E+01 7.17494E-03-1.34923E+01 7.57466E-03 7.36585E-04
 -1      1916-2.59280E+00-3.71617E+01 7.54903E-03-1.00110E+01-5.16297E-03 1.10885E-03
 -1      1917-2.59054E+00-3.71406E+01 1.58998E-02-1.00052E+01-3.07053E-03 5.45663E-04
 -1      1918-2.58967E+00-3.71329E+01 1.90430E-02-1.00034E+01 1.97309E-12-3.29007E-13
 -1      1919-2.59054E+00-3.71406E+01 1.58998E-02-1.00052E+01 3.07053E-03-5.45663E-04
 -1      1920-2.59280E+00-3.71617E+01 7.54903E-03-1.00110E+01 5.16297E-03-1.10885E-03
 -1      1921-6.02688E-01-4.02409E+01 7.72609E-03-5.32436E+00-2.71886E-03 2.21174E-03
 -1      1922-6.01591E-01-4.02176E+01 1.65503E-02-5.32109E+00-1.24807E-03 1.20702E-03
 -1      1923-6.01062E-01-4.02090E+01 1.98523E-02-5.32025E+00 2.47835E-12 1.02803E-12
 -1      1924-6.01591E-01-4.02176E+01 1.65503E-02-5.32109E+00 1.24807E-03-1.20702E-03
 -1      1925-6.02688E-01-4.02409E+01 7.72609E-03-5.32436E+00 2.71886E-03-2.21174E-03
 -1      1926 1.01070E-01-4.12925E+01 7.73422E-03 2.55425E-04-2.52792E-04 2.65052E-03
 -1      1927 1.01668E-01-4.12683E+01 1.67881E-02 5.40117E-04 6.23134E-04 1.35290E-03
 -1      1928 1.02192E-01-4.12594E+01 2.01474E-02 1.60084E-04 5.27566E-12-8.01297E-13
 -1      1929 1.01668E-01-4.12683E+01 1.67881E-02 5.40117E-04-6.23134E-04-1.35290E-03
 -1      1930 1.01070E-01-4.12925E+01 7.73422E-03 2.55425E-04 2.52792E-04-2.65052E-03
 -1      1931-6.02099E-01-4.02172E+01 7.58250E-03 5.32133E+00 2.14210E-03 2.47021E-03
 -1      1932-6.01252E-01-4.01935E+01 1.66739E-02 5.31861E+00 2.48047E-03 9.87378E-04
 -1      1933-6.00334E-01-4.01848E+01 2.00102E-02 5.31699E+00 4.19921E-12-9.52470E-13
 -1      1934-6.01252E-01-4.01935E+01 1.66739E-02 5.31861E+00-2.48047E-03-9.87378E-04
 -1      1935-6.02099E-01-4.02172E+01 7.58250E-03 5.32133E+00-2.14210E-03-2.47021E-03
 -1      1936-2.59107E+00-3.71558E+01 7.26162E-03 1.00082E+01 4.32243E-03 1.73745E-03
 -1      1937-2.58934E+00-3.71339E+01 1.62413E-02 1.00028E+01 4.21763E-03 1.22183E-04
 -1      1938-2.58762E+00-3.71258E+01 1.94982E-02 1.00001E+01 4.77340E-12-1.00885E-12
 -1      1939-2.58934E+00-3.71339E+01 1.62413E-02 1.00028E+01-4.21763E-03-1.22183E-04
 -1      1940-2.59107E+00-3.71558E+01 7.26162E-03 1.00082E+01-4.32243E-03-1.73745E-03
 -1      1941-5.52573E+00-3.24726E+01 6.75986E-03 1.35274E+01 6.12977E-03 5.70755E-04
 -1      1942-5.52277E+00-3.24535E+01 1.55199E-02 1.35202E+01 5.69789E-03-1.19820E-03
 -1      1943-5.51989E+00-3.24465E+01 1.86778E-02 1.35167E+01 2.58028E-12-1.32804E-12
 -1      1944-5.52277E+00-3.24535E+01 1.55199E-02 1.35202E+01-5.69789E-03 1.19820E-03
 -1      1945-5.52573E+00-3.24726E+01 6.75986E-03 1.35274E+01-6.12977E-03-5.70755E-04
 -1      1946-8.90078E+00-2.67061E+01 6.00603E-03 1.55186E+01 7.42446E-03-8.44972E-04
 -1      1947-8.89670E+00-2.66904E+01 1.44759E-02 1.55104E+01 6.75759E-03-2.86389E-03
 -1      1948-8.89239E+00-2.66847E+01 1.75767E-02 1.55066E+01 2.05192E-12-1.43541E-12
 -1      1949-8.89670E+00-2.66904E+01 1.44759E-02 1.55104E+01-6.75759E-03 2.86389E-03
 -1      1950-8.90078E+00-2.67061E+01 6.00603E-03 1.55186E+01-7.42446E-03 8.44972E-04
 -1      1951-1.21232E+01-2.04926E+01 4.98784E-03 1.58449E+01 8.13913E-03-2.28164E-03
 -1      1952-1.21187E+01-2.04808E+01 1.31605E-02 1.58369E+01 7.21810E-03-4.66284E-03
 -1      1953-1.21129E+01-2.04763E+01 1.63746E-02 1.58332E+01 1.63811E-12-9.34564E-13
 -1      1954-1.21187E+01-2.04808E+01 1.31605E-02 1.58369E+01-7.21810E-03 4.66284E-03
 -1      1955-1.21232E+01-2.04926E+01 4.98784E-03 1.58449E+01-8.13913E-03 2.28164E-03
 -1      1956-1.46076E+01-1.44725E+01 3.29645E-03 1.46106E+01 8.23866E-03-3.40179E-03
 -1      1957-1.46045E+01-1.44647E+01 1.12112E-02 1.46037E+01 6.83719E-03-6.11867E-03
 -1      1958-1.45975E+01-1.44613E+01 1.49118E-02 1.46009E+01 4.81439E-13-5.62208E-13
 -1      1959-1.46045E+01-1.44647E+01 1.12112E-02 1.46037E+01-6.83719E-03 6.11867E-03
 -1      1960-1.46076E+01-1.44725E+01 3.29645E-03 1.46106E+01-8.23866E-03 3.40179E-03
 -1      1961-1.58513E+01-9.20131E+00 8.47393E-04 1.21416E+01 8.22877E-03-4.47836E-03
 -1      1962-1.58531E+01-9.19748E+00 8.70037E-03 1.21366E+01 5.56716E-03-6.56998E-03
 -1      1963-1.58463E+01-9.19483E+00 1.37673E-02 1.21354E+01-9.50505E-13 7.32325E-13
 -1      1964-1.58531E+01-9.19748E+00 8.70037E-03 1.21366E+01-5.56716E-03 6.56998E-03
 -1      1965-1.58513E+01-9.20131E+00 8.47393E-04 1.21416E+01-8.22877E-03 4.47836E-03
 -1      1966-1.55309E+01-5.05015E+00-4.17777E-03 8.90911E+00 7.79751E-03-4.48646E-03
 -1      1967-1.55428E+01-5.05124E+00 4.11551E-03 8.90650E+00 3.11972E-03-3.81413E-03
 -1      1968-1.55394E+01-5.04912E+00 1.19027E-02 8.90758E+00-1.56408E-12 2.61564E-12
 -1      1969-1.55428E+01-5.05124E+00 4.11551E-03 8.90650E+00-3.11972E-03 3.81413E-03
 -1      1970-1.55309E+01-5.05015E+00-4.17777E-03 8.90911E+00-7.79751E-03 4.48646E-03
 -1      1971-1.33920E+01-2.24543E+00-2.16434E-02 5.52696E+00 1.18467E-02-1.67990E-02
 -1      1972-1.34210E+01-2.25062E+00-1.43623E-02 5.52284E+00 2.41489E-03-1.37543E-03
 -1      1973-1.34282E+01-2.24886E+00-1.47507E-03 5.52529E+00-2.08662E-12 4.30033E-12
 -1      1974-1.34210E+01-2.25062E+00-1.43623E-02 5.52284E+00-2.41489E-03 1.37543E-03
 -1      1975-1.33920E+01-2.24543E+00-2.16434E-02 5.52696E+00-1.18467E-02 1.67990E-02
 -1      1976-9.46725E+00-5.82455E-01-7.14407E-02 2.34271E+00 1.65206E-02-4.96915E-02
 -1      1977-9.48037E+00-6.02968E-01-7.82646E-02 2.33890E+00 6.86139E-03-1.11513E-02
 -1      1978-9.49915E+00-6.06137E-01-6.70704E-02 2.33951E+00-1.92086E-12 6.77627E-12
 -1      1979-9.48037E+00-6.02968E-01-7.82646E-02 2.33890E+00-6.86139E-03 1.11513E-02
 -1      1980-9.46725E+00-5.82455E-01-7.14407E-02 2.34271E+00-1.65206E-02 4.96915E-02
 -1      1981-3.54635E+00-7.89069E-01-6.07814E-01 8.89798E-01 2.83606E-02-3.57485E-01
 -1      1982-3.50137E+00-8.36937E-01-8.40821E-01 9.23355E-01 1.29467E-02-2.11011E-01
 -1      1983-3.49488E+00-8.59349E-01-9.18404E-01 9.28969E-01-1.46706E-12 1.06703E-11
 -1      1984-3.50137E+00-8.36937E-01-8.40821E-01 9.23355E-01-1.29467E-02 2.11011E-01
 -1      1985-3.54635E+00-7.89069E-01-6.07814E-01 8.89798E-01-2.83606E-02 3.57485E-01
 -1      1986 3.28755E-01 3.19168E-02 3.41707E-03 4.37881E-02 1.30093E-03 1.83347E-02
 -1      1987 2.20564E-01 7.31360E-04-2.07832E-03-1.62138E-02 6.70301E-04 3.49349E-02
 -1      1988 3.61905E-01 3.45292E-02 2.77660E-02 5.35338E-02 9.58106E-04 2.30699E-02
 -1      1989 2.28025E-01 1.13863E-03-6.64123E-03-1.42088E-02 1.26905E-03 2.14794E-02
 -1      1990 3.76122E-01 3.50173E-02 4.63004E-02 5.61700E-02 3.99084E-04 9.23684E-03
 -1      1991 2.30493E-01 9.35799E-04-9.60905E-03-1.36981E-02 1.13694E-13-8.99821E-12
 -1      1992 3.76122E-01 3.50173E-02 4.63004E-02 5.61700E-02-3.99084E-04-9.23684E-03
 -1      1993 2.28025E-01 1.13863E-03-6.64123E-03-1.42088E-02-1.26905E-03-2.14794E-02
 -1      1994 3.61905E-01 3.45292E-02 2.77660E-02 5.35338E-02-9.58106E-04-2.30699E-02
 -1      1995 2.20564E-01 7.31360E-04-2.07832E-03-1.62138E-02-6.70301E-04-3.49349E-02
 -1      1996 3.28755E-01 3.19168E-02 3.41707E-03 4.37881E-02-1.30093E-03-1.83347E-02
 -1      1997-2.67753E+00-1.27764E-01-3.98470E-03-6.39408E-01-6.31682E-03-1.78660E-02
 -1      1998-1.04687E+00-2.63652E-02 1.73753E-02-2.38061E-01-3.56080E-03-7.25430E-03
 -1      1999-2.64814E+00-1.27928E-01 5.08305E-03-6.35701E-01-7.55418E-03-2.30145E-02
 -1      2000-1.02480E+00-2.61218E-02 3.41203E-02-2.34841E-01-2.29354E-03-4.60883E-03
 -1      2001-2.63322E+00-1.27022E-01 1.26535E-02-6.31984E-01-2.99616E-03-9.15994E-03
 -1      2002-1.01764E+00-2.56145E-02 4.08766E-02-2.33769E-01-1.63805E-12-2.96657E-12
 -1      2003-2.63322E+00-1.27022E-01 1.26535E-02-6.31984E-01 2.99616E-03 9.15994E-03
 -1      2004-1.02480E+00-2.61218E-02 3.41203E-02-2.34841E-01 2.29354E-03 4.60883E-03
 -1      2005-2.64814E+00-1.27928E-01 5.08305E-03-6.35701E-01 7.55418E-03 2.30145E-02
 -1      2006-1.04687E+00-2.63652E-02 1.73753E-02-2.38061E-01 3.56080E-03 7.25430E-03
 -1      2007-2.67753E+00-1.27764E-01-3.98470E-03-6.39408E-01 6.31682E-03 1.78660E-02
 -1      2008-7.45108E+00-1.14722E+00-1.27039E-03-2.96641E+00-9.64179E-03-2.29819E-02
 -1      2009-5.05351E+00-6.19026E-01 7.35212E-03-1.76939E+00-1.24895E-02-3.07956E-02
 -1      2010-7.43171E+00-1.14986E+00 3.21629E-03-2.96639E+00-1.25058E-02-2.89056E-02
 -1      2011-5.03889E+00-6.17670E-01 1.51169E-02-1.76516E+00-8.23714E-03-2.05570E-02
 -1      2012-7.42373E+00-1.14911E+00 6.94798E-03-2.96419E+00-4.98728E-03-1.14980E-02
 -1      2013-5.03368E+00-6.17121E-01 1.82830E-02-1.76377E+00-2.27259E-12-4.04601E-12
 -1      2014-7.42373E+00-1.14911E+00 6.94798E-03-2.96419E+00 4.98728E-03 1.14980E-02
 -1      2015-5.03889E+00-6.17670E-01 1.51169E-02-1.76516E+00 8.23714E-03 2.05570E-02
 -1      2016-7.43171E+00-1.14986E+00 3.21629E-03-2.96639E+00 1.25058E-02 2.89056E-02
 -1      2017-5.05351E+00-6.19026E-01 7.35212E-03-1.76939E+00 1.24895E-02 3.07956E-02
 -1      2018-7.45108E+00-1.14722E+00-1.27039E-03-2.96641E+00 9.64179E-03 2.29819E-02
 -1      2019-1.15574E+01-3.67486E+00-3.29884E-04-6.56008E+00-1.18306E-02-1.94411E-02
 -1      2020-9.52858E+00-2.38673E+00 2.93992E-03-4.75120E+00-1.68266E-02-3.22758E-02
 -1      2021-1.15441E+01-3.67787E+00 2.24670E-03-6.55947E+00-1.50026E-02-2.45215E-02
 -1      2022-9.51941E+00-2.38558E+00 6.08890E-03-4.74819E+00-1.13388E-02-2.17830E-02
 -1      2023-1.15395E+01-3.67715E+00 3.92144E-03-6.55769E+00-5.98873E-03-9.83729E-03
 -1      2024-9.51609E+00-2.38512E+00 7.34726E-03-4.74710E+00-1.76129E-12-1.13218E-11
 -1      2025-1.15395E+01-3.67715E+00 3.92144E-03-6.55769E+00 5.98873E-03 9.83729E-03
 -1      2026-9.51941E+00-2.38558E+00 6.08890E-03-4.74819E+00 1.13388E-02 2.17830E-02
 -1      2027-1.15441E+01-3.67787E+00 2.24670E-03-6.55947E+00 1.50026E-02 2.45215E-02
 -1      2028-9.52858E+00-2.38673E+00 2.93992E-03-4.75120E+00 1.68266E-02 3.22758E-02
 -1      2029-1.15574E+01-3.67486E+00-3.29884E-04-6.56008E+00 1.18306E-02 1.94411E-02
 -1      2030-1.37115E+01-7.86782E+00 1.21962E-03-1.04377E+01-1.14046E-02-1.37744E-02
 -1      2031-1.26652E+01-5.75071E+00 7.91711E-04-8.50460E+00-1.79554E-02-2.57324E-02
 -1      2032-1.36995E+01-7.86889E+00 4.01207E-03-1.04346E+01-1.44744E-02-1.75164E-02
 -1      2033-1.26584E+01-5.74895E+00 2.39439E-03-8.50137E+00-1.20748E-02-1.73471E-02
 -1      2034-1.36955E+01-7.86752E+00 5.42412E-03-1.04323E+01-5.79622E-03-7.08981E-03
 -1      2035-1.26560E+01-5.74834E+00 3.03566E-03-8.50021E+00-9.26807E-13 1.94726E-12
 -1      2036-1.36955E+01-7.86752E+00 5.42412E-03-1.04323E+01 5.79622E-03 7.08981E-03
 -1      2037-1.26584E+01-5.74895E+00 2.39439E-03-8.50137E+00 1.20748E-02 1.73471E-02
 -1      2038-1.36995E+01-7.86889E+00 4.01207E-03-1.04346E+01 1.44744E-02 1.75164E-02
 -1      2039-1.26652E+01-5.75071E+00 7.91711E-04-8.50460E+00 1.79554E-02 2.57324E-02
 -1      2040-1.37115E+01-7.86782E+00 1.21962E-03-1.04377E+01 1.14046E-02 1.37744E-02
 -1      2041-1.36529E+01-1.34515E+01 2.34615E-03-1.36143E+01-9.93249E-03-8.56991E-03
 -1      2042-1.37059E+01-1.06457E+01 6.58687E-04-1.20422E+01-1.64891E-02-1.75974E-02
 -1      2043-1.36414E+01-1.34481E+01 6.36222E-03-1.36078E+01-1.26052E-02-1.11131E-02
 -1      2044-1.36992E+01-1.06420E+01 2.94340E-03-1.20375E+01-1.10647E-02-1.18837E-02
 -1      2045-1.36372E+01-1.34450E+01 8.45273E-03-1.36042E+01-5.05620E-03-4.55028E-03
 -1      2046-1.36970E+01-1.06407E+01 3.84926E-03-1.20359E+01-5.55403E-13-5.17468E-13
 -1      2047-1.36372E+01-1.34450E+01 8.45273E-03-1.36042E+01 5.05620E-03 4.55028E-03
 -1      2048-1.36992E+01-1.06420E+01 2.94340E-03-1.20375E+01 1.10647E-02 1.18837E-02
 -1      2049-1.36414E+01-1.34481E+01 6.36222E-03-1.36078E+01 1.26052E-02 1.11131E-02
 -1      2050-1.37059E+01-1.06457E+01 6.58687E-04-1.20422E+01 1.64891E-02 1.75974E-02
 -1      2051-1.36529E+01-1.34515E+01 2.34615E-03-1.36143E+01 9.93249E-03 8.56991E-03
 -1      2052-1.17861E+01-1.98605E+01 3.09521E-03-1.53765E+01-8.10775E-03-4.70712E-03
 -1      2053-1.27322E+01-1.66484E+01 1.47722E-03-1.45155E+01-1.39920E-02-1.07253E-02
 -1      2054-1.17757E+01-1.98511E+01 8.55846E-03-1.53671E+01-1.03415E-02-6.32720E-03
 -1      2055-1.27256E+01-1.66413E+01 5.31811E-03-1.45091E+01-9.36127E-03-7.28802E-03
 -1      2056-1.17715E+01-1.98453E+01 1.16371E-02-1.53623E+01-4.14465E-03-2.63084E-03
 -1      2057-1.27233E+01-1.66389E+01 6.84175E-03-1.45069E+01 5.28882E-12 1.72702E-12
 -1      2058-1.17715E+01-1.98453E+01 1.16371E-02-1.53623E+01 4.14465E-03 2.63084E-03
 -1      2059-1.27256E+01-1.66413E+01 5.31811E-03-1.45091E+01 9.36127E-03 7.28802E-03
 -1      2060-1.17757E+01-1.98511E+01 8.55846E-03-1.53671E+01 1.03415E-02 6.32720E-03
 -1      2061-1.27322E+01-1.66484E+01 1.47722E-03-1.45155E+01 1.39920E-02 1.07253E-02
 -1      2062-1.17861E+01-1.98605E+01 3.09521E-03-1.53765E+01 8.10775E-03 4.70712E-03
 -1      2063-8.81698E+00-2.64072E+01 3.51658E-03-1.53557E+01-6.33896E-03-2.04466E-03
 -1      2064-1.03036E+01-2.31316E+01 2.54926E-03-1.53863E+01-1.12653E-02-5.67139E-03
 -1      2065-8.80849E+00-2.63911E+01 1.02880E-02-1.53450E+01-8.15052E-03-2.99425E-03
 -1      2066-1.02977E+01-2.31202E+01 8.04015E-03-1.53787E+01-7.53585E-03-3.93396E-03
 -1      2067-8.80503E+00-2.63823E+01 1.42928E-02-1.53397E+01-3.24502E-03-1.28456E-03
 -1      2068-1.02957E+01-2.31164E+01 1.02183E-02-1.53761E+01 3.93767E-12 2.58984E-12
 -1      2069-8.80503E+00-2.63823E+01 1.42928E-02-1.53397E+01 3.24502E-03 1.28456E-03
 -1      2070-1.02977E+01-2.31202E+01 8.04015E-03-1.53787E+01 7.53585E-03 3.93396E-03
 -1      2071-8.80849E+00-2.63911E+01 1.02880E-02-1.53450E+01 8.15052E-03 2.99425E-03
 -1      2072-1.03036E+01-2.31316E+01 2.54926E-03-1.53863E+01 1.12653E-02 5.67139E-03
 -1      2073-8.81698E+00-2.64072E+01 3.51658E-03-1.53557E+01 6.33896E-03 2.04466E-03
 -1      2074-5.51834E+00-3.23914E+01 3.70423E-03-1.34988E+01-4.66574E-03-2.66367E-04
 -1      2075-7.16080E+00-2.94017E+01 3.51328E-03-1.44453E+01-8.60613E-03-2.16948E-03
 -1      2076-5.51231E+00-3.23693E+01 1.15297E-02-1.34886E+01-6.07423E-03-7.30360E-04
 -1      2077-7.15623E+00-2.93859E+01 1.03633E-02-1.44375E+01-5.79119E-03-1.62225E-03
 -1      2078-5.50992E+00-3.23575E+01 1.62394E-02-1.34836E+01-2.37617E-03-3.71287E-04
 -1      2079-7.15462E+00-2.93806E+01 1.30831E-02-1.44349E+01 6.39239E-12 4.81924E-12
 -1      2080-5.50992E+00-3.23575E+01 1.62394E-02-1.34836E+01 2.37617E-03 3.71287E-04
 -1      2081-7.15623E+00-2.93859E+01 1.03633E-02-1.44375E+01 5.79119E-03 1.62225E-03
 -1      2082-5.51231E+00-3.23693E+01 1.15297E-02-1.34886E+01 6.07423E-03 7.30360E-04
 -1      2083-7.16080E+00-2.94017E+01 3.51328E-03-1.44453E+01 8.60613E-03 2.16948E-03
 -1      2084-5.51834E+00-3.23914E+01 3.70423E-03-1.34988E+01 4.66574E-03 2.66367E-04
 -1      2085-2.59506E+00-3.71779E+01 3.72530E-03-1.00160E+01-3.02010E-03 8.80500E-04
 -1      2086-4.04283E+00-3.47912E+01 4.23630E-03-1.17716E+01-5.99541E-03 1.67948E-04
 -1      2087-2.59135E+00-3.71508E+01 1.23668E-02-1.00082E+01-4.02683E-03 7.61176E-04
 -1      2088-4.03987E+00-3.47714E+01 1.20533E-02-1.17650E+01-4.11209E-03-7.70428E-05
 -1      2089-2.59007E+00-3.71367E+01 1.75180E-02-1.00043E+01-1.50686E-03 2.17681E-04
 -1      2090-4.03879E+00-3.47648E+01 1.51640E-02-1.17627E+01 6.09719E-12 3.69605E-12
 -1      2091-2.59007E+00-3.71367E+01 1.75180E-02-1.00043E+01 1.50686E-03-2.17681E-04
 -1      2092-4.03987E+00-3.47714E+01 1.20533E-02-1.17650E+01 4.11209E-03 7.70428E-05
 -1      2093-2.59135E+00-3.71508E+01 1.23668E-02-1.00082E+01 4.02683E-03-7.61176E-04
 -1      2094-4.04283E+00-3.47912E+01 4.23630E-03-1.17716E+01 5.99541E-03-1.67948E-04
 -1      2095-2.59506E+00-3.71779E+01 3.72530E-03-1.00160E+01 3.02010E-03-8.80500E-04
 -1      2096-6.03868E-01-4.02592E+01 3.60784E-03-5.32705E+00-1.33892E-03 1.51988E-03
 -1      2097-1.58069E+00-3.87282E+01 4.71303E-03-7.68058E+00-3.34711E-03 1.59871E-03
 -1      2098-6.01752E-01-4.02289E+01 1.28875E-02-5.32274E+00-1.93960E-03 1.62761E-03
 -1      2099-1.57911E+00-3.87055E+01 1.31270E-02-7.67619E+00-2.43554E-03 8.87222E-04
 -1      2100-6.01294E-01-4.02133E+01 1.82250E-02-5.32067E+00-6.12227E-04 5.34258E-04
 -1      2101-1.57851E+00-3.86980E+01 1.64892E-02-7.67459E+00 1.10521E-12 2.69798E-13
 -1      2102-6.01294E-01-4.02133E+01 1.82250E-02-5.32067E+00 6.12227E-04-5.34258E-04
 -1      2103-1.57911E+00-3.87055E+01 1.31270E-02-7.67619E+00 2.43554E-03-8.87222E-04
 -1      2104-6.01752E-01-4.02289E+01 1.28875E-02-5.32274E+00 1.93960E-03-1.62761E-03
 -1      2105-1.58069E+00-3.87282E+01 4.71303E-03-7.68058E+00 3.34711E-03-1.59871E-03
 -1      2106-6.03868E-01-4.02592E+01 3.60784E-03-5.32705E+00 1.33892E-03-1.51988E-03
 -1      2107 1.00201E-01-4.13116E+01 3.34824E-03 2.99022E-04 3.85838E-04 1.69173E-03
 -1      2108-2.30522E-01-4.07966E+01 4.98290E-03-2.66625E+00-6.23685E-04 2.23856E-03
 -1      2109 1.01827E-01-4.12800E+01 1.31611E-02 4.00524E-04 1.83074E-04 1.92364E-03
 -1      2110-2.29699E-01-4.07723E+01 1.36824E-02-2.66480E+00-7.32087E-04 1.35791E-03
 -1      2111 1.01947E-01-4.12639E+01 1.84510E-02 3.51821E-04 3.03995E-04 5.93732E-04
 -1      2112-2.29405E-01-4.07642E+01 1.71819E-02-2.66412E+00 2.44931E-12 8.47378E-13
 -1      2113 1.01947E-01-4.12639E+01 1.84510E-02 3.51821E-04-3.03995E-04-5.93732E-04
 -1      2114-2.29699E-01-4.07723E+01 1.36824E-02-2.66480E+00 7.32087E-04-1.35791E-03
 -1      2115 1.01827E-01-4.12800E+01 1.31611E-02 4.00524E-04-1.83074E-04-1.92364E-03
 -1      2116-2.30522E-01-4.07966E+01 4.98290E-03-2.66625E+00 6.23685E-04-2.23856E-03
 -1      2117 1.00201E-01-4.13116E+01 3.34824E-03 2.99022E-04-3.85838E-04-1.69173E-03
 -1      2118-6.03523E-01-4.02359E+01 2.91711E-03 5.32414E+00 2.10862E-03 1.39985E-03
 -1      2119-2.30380E-01-4.07844E+01 5.09497E-03 2.66588E+00 2.13106E-03 2.12127E-03
 -1      2120-6.01136E-01-4.02048E+01 1.32355E-02 5.32000E+00 2.26659E-03 1.67378E-03
 -1      2121-2.29491E-01-4.07600E+01 1.38229E-02 2.66410E+00 9.72384E-04 1.37005E-03
 -1      2122-6.00804E-01-4.01892E+01 1.82652E-02 5.31781E+00 1.20941E-03 3.97803E-04
 -1      2123-2.29283E-01-4.07518E+01 1.73686E-02 2.66378E+00 5.03896E-12-7.00068E-13
 -1      2124-6.00804E-01-4.01892E+01 1.82652E-02 5.31781E+00-1.20941E-03-3.97803E-04
 -1      2125-2.29491E-01-4.07600E+01 1.38229E-02 2.66410E+00-9.72384E-04-1.37005E-03
 -1      2126-6.01136E-01-4.02048E+01 1.32355E-02 5.32000E+00-2.26659E-03-1.67378E-03
 -1      2127-2.30380E-01-4.07844E+01 5.09497E-03 2.66588E+00-2.13106E-03-2.12127E-03
 -1      2128-6.03523E-01-4.02359E+01 2.91711E-03 5.32414E+00-2.10862E-03-1.39985E-03
 -1      2129-2.59388E+00-3.71730E+01 2.25553E-03 1.00134E+01 3.75018E-03 6.43078E-04
 -1      2130-1.58000E+00-3.87123E+01 5.09265E-03 7.67846E+00 4.80505E-03 1.25827E-03
 -1      2131-2.58957E+00-3.71442E+01 1.31356E-02 1.00056E+01 4.18917E-03 9.18222E-04
 -1      2132-1.57818E+00-3.86891E+01 1.36298E-02 7.67361E+00 2.60807E-03 9.43787E-04
 -1      2133-2.58853E+00-3.71299E+01 1.77147E-02 1.00015E+01 2.05016E-03-4.73563E-05
 -1      2134-1.57784E+00-3.86813E+01 1.71452E-02 7.67235E+00 4.10569E-12-9.41454E-13
 -1      2135-2.58853E+00-3.71299E+01 1.77147E-02 1.00015E+01-2.05016E-03 4.73563E-05
 -1      2136-1.57818E+00-3.86891E+01 1.36298E-02 7.67361E+00-2.60807E-03-9.43787E-04
 -1      2137-2.58957E+00-3.71442E+01 1.31356E-02 1.00056E+01-4.18917E-03-9.18222E-04
 -1      2138-1.58000E+00-3.87123E+01 5.09265E-03 7.67846E+00-4.80505E-03-1.25827E-03
 -1      2139-2.59388E+00-3.71730E+01 2.25553E-03 1.00134E+01-3.75018E-03-6.43078E-04
 -1      2140-5.53060E+00-3.24876E+01 1.27796E-03 1.35344E+01 5.22201E-03-5.69716E-04
 -1      2141-4.04833E+00-3.48333E+01 5.02083E-03 1.17883E+01 7.24449E-03-3.23537E-04
 -1      2142-5.52348E+00-3.24622E+01 1.28813E-02 1.35239E+01 5.80677E-03-2.54312E-04
 -1      2143-4.04483E+00-3.48124E+01 1.31709E-02 1.17809E+01 4.08416E-03 1.14014E-04
 -1      2144-5.52142E+00-3.24500E+01 1.68599E-02 1.35185E+01 2.75772E-03-7.16471E-04
 -1      2145-4.04422E+00-3.48054E+01 1.65845E-02 1.17789E+01 3.62932E-12-1.71722E-12
 -1      2146-5.52142E+00-3.24500E+01 1.68599E-02 1.35185E+01-2.75772E-03 7.16471E-04
 -1      2147-4.04483E+00-3.48124E+01 1.31709E-02 1.17809E+01-4.08416E-03-1.14014E-04
 -1      2148-5.52348E+00-3.24622E+01 1.28813E-02 1.35239E+01-5.80677E-03 2.54312E-04
 -1      2149-4.04833E+00-3.48333E+01 5.02083E-03 1.17883E+01-7.24449E-03 3.23537E-04
 -1      2150-5.53060E+00-3.24876E+01 1.27796E-03 1.35344E+01-5.22201E-03 5.69716E-04
 -1      2151-8.90822E+00-2.67185E+01-1.92892E-04 1.55264E+01 6.44419E-03-2.24840E-03
 -1      2152-7.21192E+00-2.95994E+01 4.91195E-03 1.45475E+01 9.27608E-03-2.56041E-03
 -1      2153-8.89783E+00-2.66972E+01 1.24078E-02 1.55145E+01 6.97002E-03-1.69235E-03
 -1      2154-7.20618E+00-2.95817E+01 1.24828E-02 1.45384E+01 5.31048E-03-1.06575E-03
 -1      2155-8.89468E+00-2.66877E+01 1.57254E-02 1.55085E+01 3.25159E-03-1.55230E-03
 -1      2156-7.20523E+00-2.95757E+01 1.57117E-02 1.45358E+01 2.32269E-12-1.14594E-12
 -1      2157-8.89468E+00-2.66877E+01 1.57254E-02 1.55085E+01-3.25159E-03 1.55230E-03
 -1      2158-7.20618E+00-2.95817E+01 1.24828E-02 1.45384E+01-5.31048E-03 1.06575E-03
 -1      2159-8.89783E+00-2.66972E+01 1.24078E-02 1.55145E+01-6.97002E-03 1.69235E-03
 -1      2160-7.21192E+00-2.95994E+01 4.91195E-03 1.45475E+01-9.27608E-03 2.56041E-03
 -1      2161-8.90822E+00-2.67185E+01-1.92892E-04 1.55264E+01-6.44419E-03 2.24840E-03
 -1      2162-1.21336E+01-2.05026E+01-2.37071E-03 1.58529E+01 7.39422E-03-4.41479E-03
 -1      2163-1.05207E+01-2.35991E+01 4.86534E-03 1.57069E+01 1.07327E-02-5.34944E-03
 -1      2164-1.21199E+01-2.04854E+01 1.16929E-02 1.58409E+01 7.56097E-03-3.12013E-03
 -1      2165-1.05124E+01-2.35850E+01 1.16584E-02 1.56970E+01 6.22705E-03-2.53481E-03
 -1      2166-1.21160E+01-2.04786E+01 1.45283E-02 1.58351E+01 3.44459E-03-2.42847E-03
 -1      2167-1.05112E+01-2.35803E+01 1.45860E-02 1.56941E+01 1.65662E-12-1.15311E-12
 -1      2168-1.21160E+01-2.04786E+01 1.45283E-02 1.58351E+01-3.44459E-03 2.42847E-03
 -1      2169-1.05124E+01-2.35850E+01 1.16584E-02 1.56970E+01-6.22705E-03 2.53481E-03
 -1      2170-1.21199E+01-2.04854E+01 1.16929E-02 1.58409E+01-7.56097E-03 3.12013E-03
 -1      2171-1.05207E+01-2.35991E+01 4.86534E-03 1.57069E+01-1.07327E-02 5.34944E-03
 -1      2172-1.21336E+01-2.05026E+01-2.37071E-03 1.58529E+01-7.39422E-03 4.41479E-03
 -1      2173-1.46218E+01-1.44808E+01-5.91483E-03 1.46179E+01 8.01390E-03-7.38116E-03
 -1      2174-1.33847E+01-1.74718E+01 4.86479E-03 1.52501E+01 1.14191E-02-8.50632E-03
 -1      2175-1.46049E+01-1.44672E+01 1.01118E-02 1.46072E+01 7.46122E-03-4.17905E-03
 -1      2176-1.33738E+01-1.74613E+01 1.06082E-02 1.52405E+01 6.80200E-03-4.25332E-03
 -1      2177-1.46010E+01-1.44629E+01 1.31540E-02 1.46023E+01 3.22938E-03-3.10473E-03
 -1      2178-1.33723E+01-1.74579E+01 1.30090E-02 1.52375E+01 8.84690E-13-8.16581E-13
 -1      2179-1.46010E+01-1.44629E+01 1.31540E-02 1.46023E+01-3.22938E-03 3.10473E-03
 -1      2180-1.33738E+01-1.74613E+01 1.06082E-02 1.52405E+01-6.80200E-03 4.25332E-03
 -1      2181-1.46049E+01-1.44672E+01 1.01118E-02 1.46072E+01-7.46122E-03 4.17905E-03
 -1      2182-1.33847E+01-1.74718E+01 4.86479E-03 1.52501E+01-1.14191E-02 8.50632E-03
 -1      2183-1.46218E+01-1.44808E+01-5.91483E-03 1.46179E+01-8.01390E-03 7.38116E-03
 -1      2184-1.58707E+01-9.20947E+00-1.16050E-02 1.21481E+01 8.69723E-03-1.16120E-02
 -1      2185-1.52599E+01-1.18161E+01 5.40047E-03 1.33919E+01 1.12843E-02-1.19379E-02
 -1      2186-1.58512E+01-9.19816E+00 7.31246E-03 1.21391E+01 6.91515E-03-4.17016E-03
 -1      2187-1.52461E+01-1.18089E+01 9.69544E-03 1.33834E+01 7.13570E-03-6.36847E-03
 -1      2188-1.58492E+01-9.19552E+00 1.25913E-02 1.21360E+01 2.57745E-03-3.06083E-03
 -1      2189-1.52446E+01-1.18068E+01 1.11689E-02 1.33805E+01-1.42495E-13 6.32759E-14
 -1      2190-1.58492E+01-9.19552E+00 1.25913E-02 1.21360E+01-2.57745E-03 3.06083E-03
 -1      2191-1.52461E+01-1.18089E+01 9.69544E-03 1.33834E+01-7.13570E-03 6.36847E-03
 -1      2192-1.58512E+01-9.19816E+00 7.31246E-03 1.21391E+01-6.91515E-03 4.17016E-03
 -1      2193-1.52599E+01-1.18161E+01 5.40047E-03 1.33919E+01-1.12843E-02 1.19379E-02
 -1      2194-1.58707E+01-9.20947E+00-1.16050E-02 1.21481E+01-8.69723E-03 1.16120E-02
 -1      2195-1.55616E+01-5.05992E+00-2.15694E-02 8.91383E+00 8.54887E-03-1.96743E-02
 -1      2196-1.57356E+01-7.09375E+00 6.13885E-03 1.05315E+01 9.81490E-03-1.48557E-02
 -1      2197-1.55369E+01-5.05063E+00-1.25810E-04 8.90775E+00 5.96297E-03-2.80895E-03
 -1      2198-1.57185E+01-7.08942E+00 8.13690E-03 1.05251E+01 7.18466E-03-9.19144E-03
 -1      2199-1.55394E+01-5.04841E+00 1.19971E-02 8.90702E+00 1.50152E-03-1.35527E-03
 -1      2200-1.57165E+01-7.08872E+00 7.67711E-03 1.05223E+01-1.30667E-12 1.67930E-12
 -1      2201-1.55394E+01-5.04841E+00 1.19971E-02 8.90702E+00-1.50152E-03 1.35527E-03
 -1      2202-1.57185E+01-7.08942E+00 8.13690E-03 1.05251E+01-7.18466E-03 9.19144E-03
 -1      2203-1.55369E+01-5.05063E+00-1.25810E-04 8.90775E+00-5.96297E-03 2.80895E-03
 -1      2204-1.57356E+01-7.09375E+00 6.13885E-03 1.05315E+01-9.81490E-03 1.48557E-02
 -1      2205-1.55616E+01-5.05992E+00-2.15694E-02 8.91383E+00-8.54887E-03 1.96743E-02
 -1      2206-1.34405E+01-2.25841E+00-4.59337E-02 5.53040E+00 1.09874E-02-3.80928E-02
 -1      2207-1.45175E+01-3.60508E+00 9.44954E-03 7.20412E+00 7.77166E-03-1.85588E-02
 -1      2208-1.34097E+01-2.25075E+00-2.47266E-02 5.52478E+00 8.35160E-03-4.08047E-03
 -1      2209-1.44981E+01-3.60121E+00 7.39783E-03 7.20084E+00 7.20780E-03-1.43471E-02
 -1      2210-1.34201E+01-2.24505E+00 3.04082E-03 5.52401E+00 1.37759E-03 1.84572E-03
 -1      2211-1.44942E+01-3.60146E+00 3.51199E-03 7.19826E+00-1.83187E-12 3.60039E-12
 -1      2212-1.34201E+01-2.24505E+00 3.04082E-03 5.52401E+00-1.37759E-03-1.84572E-03
 -1      2213-1.44981E+01-3.60121E+00 7.39783E-03 7.20084E+00-7.20780E-03 1.43471E-02
 -1      2214-1.34097E+01-2.25075E+00-2.47266E-02 5.52478E+00-8.35160E-03 4.08047E-03
 -1      2215-1.45175E+01-3.60508E+00 9.44954E-03 7.20412E+00-7.77166E-03 1.85588E-02
 -1      2216-1.34405E+01-2.25841E+00-4.59337E-02 5.53040E+00-1.09874E-02 3.80928E-02
 -1      2217-9.55741E+00-5.87797E-01-8.21400E-02 2.32054E+00 6.02807E-03-9.54403E-02
 -1      2218-1.14726E+01-1.31248E+00 2.40948E-02 3.87564E+00 1.06624E-03-1.00214E-02
 -1      2219-9.48500E+00-6.04515E-01-1.02574E-01 2.34088E+00 1.62383E-02-4.34841E-02
 -1      2220-1.14551E+01-1.31075E+00 1.98404E-02 3.88190E+00 4.66138E-03-1.81415E-02
 -1      2221-9.48504E+00-5.99983E-01-6.24744E-02 2.33921E+00 5.73874E-03-5.52092E-03
 -1      2222-1.14478E+01-1.31213E+00 1.01931E-02 3.88148E+00-1.92613E-12 5.58350E-12
 -1      2223-9.48504E+00-5.99983E-01-6.24744E-02 2.33921E+00-5.73874E-03 5.52092E-03
 -1      2224-1.14551E+01-1.31075E+00 1.98404E-02 3.88190E+00-4.66138E-03 1.81415E-02
 -1      2225-9.48500E+00-6.04515E-01-1.02574E-01 2.34088E+00-1.62383E-02 4.34841E-02
 -1      2226-1.14726E+01-1.31248E+00 2.40948E-02 3.87564E+00-1.06624E-03 1.00214E-02
 -1      2227-9.55741E+00-5.87797E-01-8.21400E-02 2.32054E+00-6.02807E-03 9.54403E-02
 -1      2228-3.43381E+00-7.19168E-01-4.01385E-01 8.01371E-01 3.70381E-03-2.75328E-01
 -1      2229-6.04291E+00-3.83863E-01 6.91794E-02 1.38975E+00-3.75054E-03 6.93536E-03
 -1      2230-3.54485E+00-8.33434E-01-7.72182E-01 9.04867E-01 3.66361E-03-2.92816E-01
 -1      2231-6.07347E+00-3.66981E-01 8.31181E-02 1.39252E+00-2.18863E-03-6.07859E-03
 -1      2232-3.51873E+00-8.68695E-01-9.27296E-01 9.25627E-01 3.49197E-03-1.07118E-01
 -1      2233-6.07265E+00-3.63008E-01 8.02756E-02 1.39556E+00-1.60400E-12 8.43037E-12
 -1      2234-3.51873E+00-8.68695E-01-9.27296E-01 9.25627E-01-3.49198E-03 1.07118E-01
 -1      2235-6.07347E+00-3.66981E-01 8.31181E-02 1.39252E+00 2.18863E-03 6.07859E-03
 -1      2236-3.54485E+00-8.33434E-01-7.72182E-01 9.04867E-01-3.66361E-03 2.92816E-01
 -1      2237-6.04291E+00-3.83863E-01 6.91794E-02 1.38975E+00 3.75054E-03-6.93536E-03
 -1      2238-3.43381E+00-7.19168E-01-4.01385E-01 8.01371E-01-3.70381E-03 2.75328E-01
 -1      2239 4.04749E+00 8.91544E-01 5.41360E-01-1.11745E+00 1.79399E-02-1.71697E-02
 -1      2240 4.17850E+00 9.26351E-01 7.78342E-01-1.16091E+00 2.14120E-02-1.38788E-02
 -1      2241 4.22471E+00 9.44797E-01 8.74928E-01-1.17369E+00-7.33819E-13 1.05690E-11
 -1      2242 4.17850E+00 9.26351E-01 7.78342E-01-1.16091E+00-2.14120E-02 1.38788E-02
 -1      2243 4.04749E+00 8.91544E-01 5.41360E-01-1.11745E+00-1.79399E-02 1.71698E-02
 -1      2244 2.26145E+00 3.72821E-01 1.60971E-01-3.55827E+00 7.06652E-02 2.54422E-01
 -1      2245 2.34712E+00 3.72429E-01 2.86876E-01-3.64306E+00 6.13143E-02 1.42408E-01
 -1      2246 2.36836E+00 3.68262E-01 3.15520E-01-3.66397E+00-3.46524E-14 6.53515E-12
 -1      2247 2.34712E+00 3.72429E-01 2.86876E-01-3.64306E+00-6.13143E-02-1.42408E-01
 -1      2248 2.26145E+00 3.72821E-01 1.60971E-01-3.55827E+00-7.06652E-02-2.54422E-01
 -1      2249-8.46607E-01 1.93494E-01-2.17860E-01-4.68990E+00 5.18835E-02-3.83947E-02
 -1      2250-7.86779E-01 1.85759E-01-2.45144E-01-4.76124E+00 4.06126E-02-1.52660E-02
 -1      2251-7.67106E-01 1.84067E-01-2.56932E-01-4.77852E+00-6.82665E-13 4.65864E-12
 -1      2252-7.86779E-01 1.85759E-01-2.45144E-01-4.76124E+00-4.06126E-02 1.52660E-02
 -1      2253-8.46607E-01 1.93494E-01-2.17860E-01-4.68990E+00-5.18835E-02 3.83947E-02
 -1      2254-2.62383E+00-4.07792E-01-5.36536E-01-5.61666E+00 3.81616E-02-2.37275E-01
 -1      2255-2.61435E+00-4.81548E-01-7.17727E-01-5.66034E+00 2.63345E-02-1.25174E-01
 -1      2256-2.60497E+00-4.95678E-01-7.57701E-01-5.67091E+00-9.43326E-13 3.44564E-12
 -1      2257-2.61435E+00-4.81548E-01-7.17727E-01-5.66034E+00-2.63345E-02 1.25174E-01
 -1      2258-2.62383E+00-4.07792E-01-5.36536E-01-5.61666E+00-3.81616E-02 2.37275E-01
 -1      2259-3.54475E+00-8.11578E-01-7.29293E-01-6.64340E+00 2.91176E-02-3.55187E-01
 -1      2260-3.55677E+00-9.08145E-01-9.83216E-01-6.66334E+00 1.57873E-02-1.90311E-01
 -1      2261-3.55395E+00-9.28867E-01-1.03981E+00-6.66729E+00-9.49114E-13 2.70081E-12
 -1      2262-3.55677E+00-9.08145E-01-9.83216E-01-6.66334E+00-1.57873E-02 1.90311E-01
 -1      2263-3.54475E+00-8.11578E-01-7.29293E-01-6.64340E+00-2.91176E-02 3.55187E-01
 -1      2264-3.88538E+00-1.01816E+00-8.16270E-01-7.73758E+00 2.24072E-02-4.06208E-01
 -1      2265-3.91496E+00-1.12754E+00-1.10437E+00-7.73482E+00 8.98493E-03-2.18161E-01
 -1      2266-3.91666E+00-1.15017E+00-1.16618E+00-7.73268E+00-9.92729E-13 2.13603E-12
 -1      2267-3.91496E+00-1.12754E+00-1.10437E+00-7.73482E+00-8.98493E-03 2.18161E-01
 -1      2268-3.88538E+00-1.01816E+00-8.16270E-01-7.73758E+00-2.24072E-02 4.06208E-01
 -1      2269-3.77822E+00-1.05486E+00-8.13471E-01-8.88896E+00 1.68750E-02-4.01122E-01
 -1      2270-3.82490E+00-1.16593E+00-1.10019E+00-8.86599E+00 4.05398E-03-2.14469E-01
 -1      2271-3.83182E+00-1.18904E+00-1.16091E+00-8.85828E+00-1.08685E-12 1.84179E-12
 -1      2272-3.82490E+00-1.16593E+00-1.10019E+00-8.86599E+00-4.05398E-03 2.14469E-01
 -1      2273-3.77822E+00-1.05486E+00-8.13471E-01-8.88896E+00-1.68750E-02 4.01122E-01
 -1      2274-3.29859E+00-9.45815E-01-7.28198E-01-1.00897E+01 1.15578E-02-3.45528E-01
 -1      2275-3.36487E+00-1.05088E+00-9.83178E-01-1.00491E+01 1.59478E-04-1.82928E-01
 -1      2276-3.37812E+00-1.07301E+00-1.03700E+00-1.00366E+01-1.08072E-12 1.57074E-12
 -1      2277-3.36487E+00-1.05088E+00-9.83178E-01-1.00491E+01-1.59478E-04 1.82928E-01
 -1      2278-3.29859E+00-9.45815E-01-7.28198E-01-1.00897E+01-1.15578E-02 3.45528E-01
 -1      2279-2.49441E+00-7.10016E-01-5.64335E-01-1.13323E+01 6.27366E-03-2.42464E-01
 -1      2280-2.58329E+00-8.01910E-01-7.59434E-01-1.12765E+01-3.08176E-03-1.25643E-01
 -1      2281-2.60434E+00-8.22258E-01-8.01833E-01-1.12600E+01-1.16200E-12 1.28067E-12
 -1      2282-2.58329E+00-8.01910E-01-7.59434E-01-1.12765E+01 3.08176E-03 1.25643E-01
 -1      2283-2.49441E+00-7.10016E-01-5.64335E-01-1.13323E+01-6.27366E-03 2.42464E-01
 -1      2284-1.40055E+00-3.63236E-01-3.23696E-01-1.26051E+01 1.08624E-03-9.38966E-02
 -1      2285-1.51439E+00-4.34824E-01-4.32429E-01-1.25366E+01-5.76050E-03-4.41815E-02
 -1      2286-1.54471E+00-4.52772E-01-4.59801E-01-1.25169E+01-1.13789E-12 9.44608E-13
 -1      2287-1.51439E+00-4.34824E-01-4.32429E-01-1.25366E+01 5.76050E-03 4.41815E-02
 -1      2288-1.40055E+00-3.63236E-01-3.23696E-01-1.26051E+01-1.08624E-03 9.38966E-02
 -1      2289-4.91120E-02 7.87954E-02-8.01902E-03-1.38875E+01-3.80028E-03 9.77760E-02
 -1      2290-1.88674E-01 3.49270E-02-5.58167E-03-1.38097E+01-7.84258E-03 5.96041E-02
 -1      2291-2.29499E-01 1.98143E-02-1.53800E-02-1.37878E+01-1.23042E-12 2.47806E-13
 -1      2292-1.88674E-01 3.49270E-02-5.58167E-03-1.38097E+01 7.84258E-03-5.96041E-02
 -1      2293-4.91120E-02 7.87954E-02-8.01902E-03-1.38875E+01 3.80028E-03-9.77760E-02
 -1      2294 1.52036E+00 5.95796E-01 3.78577E-01-1.51449E+01-8.08210E-03 3.27838E-01
 -1      2295 1.35688E+00 5.87383E-01 5.14307E-01-1.50622E+01-9.16465E-03 1.82526E-01
 -1      2296 1.30462E+00 5.75256E-01 5.23278E-01-1.50395E+01-1.17722E-12-7.53254E-13
 -1      2297 1.35688E+00 5.87383E-01 5.14307E-01-1.50622E+01 9.16465E-03-1.82526E-01
 -1      2298 1.52036E+00 5.95796E-01 3.78577E-01-1.51449E+01 8.08210E-03-3.27838E-01
 -1      2299 3.24645E+00 1.15559E+00 8.25704E-01-1.63186E+01-1.12403E-02 5.86101E-01
 -1      2300 3.06387E+00 1.18973E+00 1.11105E+00-1.62379E+01-9.36709E-03 3.18233E-01
 -1      2301 2.99973E+00 1.18059E+00 1.13849E+00-1.62163E+01-1.06483E-12-2.51018E-12
 -1      2302 3.06387E+00 1.18973E+00 1.11105E+00-1.62379E+01 9.36709E-03-3.18233E-01
 -1      2303 3.24645E+00 1.15559E+00 8.25704E-01-1.63186E+01 1.12403E-02-5.86101E-01
 -1      2304 5.01859E+00 1.69915E+00 1.30707E+00-1.73111E+01-1.22723E-02 8.50121E-01
 -1      2305 4.82453E+00 1.78144E+00 1.74816E+00-1.72423E+01-7.31599E-03 4.53829E-01
 -1      2306 4.74727E+00 1.77320E+00 1.79024E+00-1.72244E+01-7.20752E-13-5.46117E-12
 -1      2307 4.82453E+00 1.78144E+00 1.74816E+00-1.72423E+01 7.31599E-03-4.53829E-01
 -1      2308 5.01859E+00 1.69915E+00 1.30707E+00-1.73111E+01 1.22723E-02-8.50121E-01
 -1      2309 6.62269E+00 2.10868E+00 1.76665E+00-1.79604E+01-7.64653E-03 1.07216E+00
 -1      2310 6.41612E+00 2.22657E+00 2.33690E+00-1.79184E+01-3.28280E-04 5.60687E-01
 -1      2311 6.32463E+00 2.21734E+00 2.38954E+00-1.79054E+01-8.81696E-14-1.10903E-11
 -1      2312 6.41612E+00 2.22657E+00 2.33690E+00-1.79184E+01 3.28280E-04-5.60687E-01
 -1      2313 6.62269E+00 2.10868E+00 1.76665E+00-1.79604E+01 7.64653E-03-1.07216E+00
 -1      2314 7.63057E+00 2.15446E+00 2.06794E+00-1.79756E+01 1.10971E-02 1.13794E+00
 -1      2315 7.39751E+00 2.29086E+00 2.71319E+00-1.79588E+01 2.09531E-02 5.79132E-01
 -1      2316 7.27779E+00 2.26452E+00 2.75492E+00-1.79518E+01 3.58760E-12-2.07257E-11
 -1      2317 7.39751E+00 2.29086E+00 2.71319E+00-1.79588E+01-2.09531E-02-5.79132E-01
 -1      2318 7.63057E+00 2.15446E+00 2.06794E+00-1.79756E+01-1.10971E-02-1.13794E+00
 -1      2319 6.66503E+00 1.04007E+00 1.79517E+00-1.69882E+01 5.49802E-02 8.15809E-01
 -1      2320 6.20768E+00 9.79486E-01 2.16665E+00-1.70133E+01 5.78817E-02 3.84765E-01
 -1      2321 6.03710E+00 9.21218E-01 2.17616E+00-1.69921E+01 1.43690E-11-5.12754E-11
 -1      2322 6.20768E+00 9.79486E-01 2.16665E+00-1.70133E+01-5.78817E-02-3.84765E-01
 -1      2323 6.66503E+00 1.04007E+00 1.79517E+00-1.69882E+01-5.49802E-02-8.15809E-01
 -1      2324 4.18977E+00 1.03751E+00 1.73367E+00-1.33548E+01 1.79898E-01-2.22227E-01
 -1      2325 3.43453E+00 9.05389E-01 1.74012E+00-1.32120E+01 1.43571E-01-1.54278E-01
 -1      2326 3.20240E+00 8.35395E-01 1.66753E+00-1.31676E+01 4.61640E-11-1.24171E-10
 -1      2327 3.43453E+00 9.05389E-01 1.74012E+00-1.32120E+01-1.43571E-01 1.54278E-01
 -1      2328 4.18977E+00 1.03751E+00 1.73367E+00-1.33548E+01-1.79898E-01 2.22227E-01
 -1      2329 2.33010E+00 4.81001E-01 1.37227E-01-3.38914E+00 8.95782E-02 3.11700E-01
 -1      2330 7.09006E+00 1.38681E+00 1.22651E+00-3.32976E+00 4.72239E-02 4.83985E-01
 -1      2331 2.31953E+00 3.87938E-01 2.59724E-01-3.60067E+00 1.08263E-01 2.22328E-01
 -1      2332 7.31195E+00 1.49035E+00 1.73055E+00-3.44591E+00 4.43894E-02 2.45333E-01
 -1      2333 2.36416E+00 3.76974E-01 3.16875E-01-3.65345E+00 3.53951E-02 7.13216E-02
 -1      2334 7.37114E+00 1.51352E+00 1.86055E+00-3.47519E+00 2.32370E-13 8.36420E-12
 -1      2335 2.36416E+00 3.76974E-01 3.16875E-01-3.65345E+00-3.53951E-02-7.13216E-02
 -1      2336 7.31195E+00 1.49035E+00 1.73055E+00-3.44591E+00-4.43894E-02-2.45333E-01
 -1      2337 2.31953E+00 3.87938E-01 2.59724E-01-3.60067E+00-1.08263E-01-2.22328E-01
 -1      2338 7.09006E+00 1.38681E+00 1.22651E+00-3.32976E+00-4.72239E-02-4.83985E-01
 -1      2339 2.33010E+00 4.81001E-01 1.37227E-01-3.38914E+00-8.95782E-02-3.11700E-01
 -1      2340-8.74102E-01 2.55529E-01-1.81767E-01-4.56954E+00 6.24873E-02-5.46600E-02
 -1      2341 8.60166E-01 7.68406E-01 1.62952E-01-4.36356E+00 5.24806E-02 1.07525E-01
 -1      2342-8.19171E-01 1.87156E-01-2.37261E-01-4.72549E+00 6.33646E-02-2.79887E-02
 -1      2343 9.48830E-01 8.05625E-01 2.29421E-01-4.44401E+00 5.18301E-02 6.36831E-02
 -1      2344-7.81889E-01 1.79961E-01-2.62598E-01-4.76981E+00 2.48691E-02-7.52223E-03
 -1      2345 9.73347E-01 8.13357E-01 2.42268E-01-4.46461E+00-4.21282E-13 5.60207E-12
 -1      2346-7.81889E-01 1.79961E-01-2.62598E-01-4.76981E+00-2.48691E-02 7.52223E-03
 -1      2347 9.48830E-01 8.05625E-01 2.29421E-01-4.44401E+00-5.18301E-02-6.36831E-02
 -1      2348-8.19171E-01 1.87156E-01-2.37261E-01-4.72549E+00-6.33646E-02 2.79887E-02
 -1      2349 8.60166E-01 7.68406E-01 1.62952E-01-4.36356E+00-5.24806E-02-1.07525E-01
 -1      2350-8.74102E-01 2.55529E-01-1.81767E-01-4.56954E+00-6.24873E-02 5.46600E-02
 -1      2351-2.71597E+00-3.63537E-01-4.27542E-01-5.54082E+00 5.24659E-02-3.10985E-01
 -1      2352-1.70843E+00-4.96188E-02-3.51903E-01-5.16432E+00 3.87930E-02-1.38394E-01
 -1      2353-2.64321E+00-4.68989E-01-6.84071E-01-5.63845E+00 4.16911E-02-1.99336E-01
 -1      2354-1.67760E+00-9.91319E-02-4.59918E-01-5.22183E+00 3.09347E-02-7.04502E-02
 -1      2355-2.62062E+00-4.99664E-01-7.63591E-01-5.66557E+00 1.53532E-02-6.37176E-02
 -1      2356-1.66312E+00-1.07267E-01-4.85881E-01-5.23533E+00-8.24819E-13 4.05658E-12
 -1      2357-2.62062E+00-4.99664E-01-7.63591E-01-5.66557E+00-1.53532E-02 6.37176E-02
 -1      2358-1.67760E+00-9.91319E-02-4.59918E-01-5.22183E+00-3.09347E-02 7.04502E-02
 -1      2359-2.64321E+00-4.68989E-01-6.84071E-01-5.63845E+00-4.16911E-02 1.99336E-01
 -1      2360-1.70843E+00-4.96188E-02-3.51903E-01-5.16432E+00-3.87930E-02 1.38394E-01
 -1      2361-2.71597E+00-3.63537E-01-4.27542E-01-5.54082E+00-5.24659E-02 3.10985E-01
 -1      2362-3.69115E+00-7.84626E-01-5.95003E-01-6.60736E+00 4.41440E-02-4.61221E-01
 -1      2363-3.07975E+00-6.03094E-01-6.29576E-01-6.13514E+00 2.95769E-02-2.96606E-01
 -1      2364-3.58453E+00-8.93932E-01-9.36056E-01-6.65335E+00 2.47002E-02-3.01735E-01
 -1      2365-3.08003E+00-6.85914E-01-8.46134E-01-6.16684E+00 1.89915E-02-1.57933E-01
 -1      2366-3.56987E+00-9.33170E-01-1.04588E+00-6.66529E+00 9.56359E-03-9.68392E-02
 -1      2367-3.07424E+00-7.03987E-01-8.94707E-01-6.17417E+00-9.72924E-13 3.07047E-12
 -1      2368-3.56987E+00-9.33170E-01-1.04588E+00-6.66529E+00-9.56359E-03 9.68392E-02
 -1      2369-3.08003E+00-6.85914E-01-8.46134E-01-6.16684E+00-1.89915E-02 1.57933E-01
 -1      2370-3.58453E+00-8.93932E-01-9.36056E-01-6.65335E+00-2.47002E-02 3.01735E-01
 -1      2371-3.07975E+00-6.03094E-01-6.29576E-01-6.13514E+00-2.95769E-02 2.96606E-01
 -1      2372-3.69115E+00-7.84626E-01-5.95003E-01-6.60736E+00-4.41440E-02 4.61221E-01
 -1      2373-4.05596E+00-1.00244E+00-6.70828E-01-7.73620E+00 3.67472E-02-5.29540E-01
 -1      2374-3.71532E+00-9.18790E-01-7.74035E-01-7.19140E+00 2.25562E-02-3.80960E-01
 -1      2375-3.93912E+00-1.11219E+00-1.05250E+00-7.73619E+00 1.37379E-02-3.45590E-01
 -1      2376-3.73628E+00-1.02214E+00-1.04521E+00-7.19995E+00 1.09621E-02-2.04357E-01
 -1      2377-3.93121E+00-1.15444E+00-1.17182E+00-7.73375E+00 5.35662E-03-1.11007E-01
 -1      2378-3.73559E+00-1.04355E+00-1.10429E+00-7.20081E+00-9.76732E-13 2.41448E-12
 -1      2379-3.93121E+00-1.15444E+00-1.17182E+00-7.73375E+00-5.35662E-03 1.11007E-01
 -1      2380-3.73628E+00-1.02214E+00-1.04521E+00-7.19995E+00-1.09621E-02 2.04357E-01
 -1      2381-3.93912E+00-1.11219E+00-1.05250E+00-7.73619E+00-1.37379E-02 3.45590E-01
 -1      2382-3.71532E+00-9.18790E-01-7.74035E-01-7.19140E+00-2.25562E-02 3.80960E-01
 -1      2383-4.05596E+00-1.00244E+00-6.70828E-01-7.73620E+00-3.67472E-02 5.29540E-01
 -1      2384-3.94069E+00-1.04253E+00-6.70836E-01-8.91772E+00 2.86519E-02-5.26694E-01
 -1      2385-3.83321E+00-1.04177E+00-8.16873E-01-8.31355E+00 1.75597E-02-4.03823E-01
 -1      2386-3.84001E+00-1.14929E+00-1.04801E+00-8.87749E+00 5.55451E-03-3.40374E-01
 -1      2387-3.87113E+00-1.15159E+00-1.10410E+00-8.30050E+00 5.49914E-03-2.16394E-01
 -1      2388-3.84293E+00-1.19225E+00-1.16521E+00-8.86215E+00 2.39769E-03-1.08963E-01
 -1      2389-3.87546E+00-1.17452E+00-1.16539E+00-8.29555E+00-1.06451E-12 1.98818E-12
 -1      2390-3.84293E+00-1.19225E+00-1.16521E+00-8.86215E+00-2.39769E-03 1.08963E-01
 -1      2391-3.87113E+00-1.15159E+00-1.10410E+00-8.30050E+00-5.49914E-03 2.16394E-01
 -1      2392-3.84001E+00-1.14929E+00-1.04801E+00-8.87749E+00-5.55451E-03 3.40374E-01
 -1      2393-3.83321E+00-1.04177E+00-8.16873E-01-8.31355E+00-1.75597E-02 4.03823E-01
 -1      2394-3.94069E+00-1.04253E+00-6.70836E-01-8.91772E+00-2.86519E-02 5.26694E-01
 -1      2395-3.41696E+00-9.27577E-01-5.97876E-01-1.01453E+01 1.93630E-02-4.58364E-01
 -1      2396-3.53983E+00-1.00475E+00-7.72587E-01-9.48942E+00 1.26714E-02-3.73440E-01
 -1      2397-3.36473E+00-1.03180E+00-9.34196E-01-1.00694E+01-1.07914E-03-2.91212E-01
 -1      2398-3.59616E+00-1.11256E+00-1.04331E+00-9.45743E+00 1.38660E-03-1.98754E-01
 -1      2399-3.38359E+00-1.07425E+00-1.03902E+00-1.00429E+01-1.66244E-05-9.26948E-02
 -1      2400-3.60619E+00-1.13508E+00-1.10054E+00-9.44728E+00-1.07459E-12 1.70599E-12
 -1      2401-3.38359E+00-1.07425E+00-1.03902E+00-1.00429E+01 1.66244E-05 9.26948E-02
 -1      2402-3.59616E+00-1.11256E+00-1.04331E+00-9.45743E+00-1.38660E-03 1.98754E-01
 -1      2403-3.36473E+00-1.03180E+00-9.34196E-01-1.00694E+01 1.07914E-03 2.91212E-01
 -1      2404-3.53983E+00-1.00475E+00-7.72587E-01-9.48942E+00-1.26714E-02 3.73440E-01
 -1      2405-3.41696E+00-9.27577E-01-5.97876E-01-1.01453E+01-1.93630E-02 4.58364E-01
 -1      2406-2.52954E+00-6.75667E-01-4.53682E-01-1.14120E+01 8.77931E-03-3.26484E-01
 -1      2407-2.89754E+00-8.30848E-01-6.47460E-01-1.07110E+01 7.66803E-03-2.94096E-01
 -1      2408-2.56145E+00-7.78984E-01-7.16025E-01-1.13045E+01-6.69262E-03-2.01073E-01
 -1      2409-2.97501E+00-9.29154E-01-8.72411E-01-1.06626E+01-2.03705E-03-1.54334E-01
 -1      2410-2.60210E+00-8.20574E-01-8.00655E-01-1.12683E+01-2.06558E-03-6.33195E-02
 -1      2411-2.99212E+00-9.50346E-01-9.20501E-01-1.06480E+01-1.12277E-12 1.42771E-12
 -1      2412-2.60210E+00-8.20574E-01-8.00655E-01-1.12683E+01 2.06558E-03 6.33195E-02
 -1      2413-2.97501E+00-9.29154E-01-8.72411E-01-1.06626E+01 2.03705E-03 1.54334E-01
 -1      2414-2.56145E+00-7.78984E-01-7.16025E-01-1.13045E+01 6.69262E-03 2.01073E-01
 -1      2415-2.89754E+00-8.30848E-01-6.47460E-01-1.07110E+01-7.66803E-03 2.94096E-01
 -1      2416-2.52954E+00-6.75667E-01-4.53682E-01-1.14120E+01-8.77931E-03 3.26484E-01
 -1      2417-1.30963E+00-3.01275E-01-2.37619E-01-1.27062E+01-2.90637E-03-1.31454E-01
 -1      2418-1.94806E+00-5.38020E-01-4.44610E-01-1.19686E+01 2.55894E-03-1.68288E-01
 -1      2419-1.46476E+00-4.06656E-01-3.96196E-01-1.25709E+01-1.13929E-02-7.20342E-02
 -1      2420-2.04935E+00-6.19690E-01-5.96481E-01-1.19062E+01-4.92422E-03-8.49637E-02
 -1      2421-1.53290E+00-4.47359E-01-4.54635E-01-1.25269E+01-3.81254E-03-2.17188E-02
 -1      2422-2.07501E+00-6.38808E-01-6.31350E-01-1.18881E+01-1.16548E-12 1.10960E-12
 -1      2423-1.53290E+00-4.47359E-01-4.54635E-01-1.25269E+01 3.81254E-03 2.17188E-02
 -1      2424-2.04935E+00-6.19690E-01-5.96481E-01-1.19062E+01 4.92422E-03 8.49637E-02
 -1      2425-1.46476E+00-4.06656E-01-3.96196E-01-1.25709E+01 1.13929E-02 7.20342E-02
 -1      2426-1.94806E+00-5.38020E-01-4.44610E-01-1.19686E+01-2.55894E-03 1.68288E-01
 -1      2427-1.30963E+00-3.01275E-01-2.37619E-01-1.27062E+01 2.90637E-03 1.31454E-01
 -1      2428 2.13973E-01 1.81096E-01 5.11136E-02-1.40066E+01-1.53263E-02 1.26189E-01
 -1      2429-7.24930E-01-1.41959E-01-1.65810E-01-1.32460E+01-2.46839E-03 1.79822E-03
 -1      2430-1.06018E-01 6.95496E-02 2.26187E-02-1.38488E+01-1.50839E-02 9.33764E-02
 -1      2431-8.51582E-01-1.99697E-01-2.18945E-01-1.31727E+01-7.28371E-03 7.64437E-03
 -1      2432-2.06684E-01 2.95514E-02-5.61437E-03-1.37989E+01-5.22854E-03 3.10702E-02
 -1      2433-8.87141E-01-2.16225E-01-2.37526E-01-1.31519E+01-1.17306E-12 5.99497E-13
 -1      2434-2.06684E-01 2.95514E-02-5.61437E-03-1.37989E+01 5.22854E-03-3.10702E-02
 -1      2435-8.51582E-01-1.99697E-01-2.18945E-01-1.31727E+01 7.28371E-03-7.64437E-03
 -1      2436-1.06018E-01 6.95496E-02 2.26187E-02-1.38488E+01 1.50839E-02-9.33764E-02
 -1      2437-7.24930E-01-1.41959E-01-1.65810E-01-1.32460E+01 2.46839E-03-1.79822E-03
 -1      2438 2.13973E-01 1.81096E-01 5.11136E-02-1.40066E+01 1.53263E-02-1.26189E-01
 -1      2439 2.00303E+00 7.51720E-01 4.11147E-01-1.52764E+01-2.78452E-02 4.43384E-01
 -1      2440 7.36035E-01 3.39574E-01 1.86085E-01-1.45157E+01-7.14929E-03 2.12590E-01
 -1      2441 1.47625E+00 6.29266E-01 5.34395E-01-1.51037E+01-1.74607E-02 2.90535E-01
 -1      2442 5.84524E-01 3.13309E-01 2.55135E-01-1.44352E+01-9.02121E-03 1.20962E-01
 -1      2443 1.33936E+00 5.89675E-01 5.38028E-01-1.50510E+01-6.21817E-03 9.33102E-02
 -1      2444 5.38002E-01 2.99712E-01 2.54735E-01-1.44129E+01-1.20684E-12-2.59466E-13
 -1      2445 1.33936E+00 5.89675E-01 5.38028E-01-1.50510E+01 6.21817E-03-9.33102E-02
 -1      2446 5.84524E-01 3.13309E-01 2.55135E-01-1.44352E+01 9.02121E-03-1.20962E-01
 -1      2447 1.47625E+00 6.29266E-01 5.34395E-01-1.51037E+01 1.74607E-02-2.90535E-01
 -1      2448 7.36035E-01 3.39574E-01 1.86085E-01-1.45157E+01 7.14929E-03-2.12590E-01
 -1      2449 2.00303E+00 7.51720E-01 4.11147E-01-1.52764E+01 2.78452E-02-4.43384E-01
 -1      2450 3.99264E+00 1.37733E+00 8.35629E-01-1.64530E+01-3.94136E-02 8.10123E-01
 -1      2451 2.38437E+00 8.80888E-01 6.03989E-01-1.57308E+01-1.11723E-02 4.56591E-01
 -1      2452 3.22119E+00 1.23904E+00 1.12362E+00-1.62785E+01-1.79240E-02 5.09948E-01
 -1      2453 2.21138E+00 8.93694E-01 8.14524E-01-1.56489E+01-9.87806E-03 2.50201E-01
 -1      2454 3.04667E+00 1.19968E+00 1.15830E+00-1.62273E+01-6.49587E-03 1.61651E-01
 -1      2455 2.15316E+00 8.82969E-01 8.32694E-01-1.56267E+01-1.13667E-12-1.63574E-12
 -1      2456 3.04667E+00 1.19968E+00 1.15830E+00-1.62273E+01 6.49587E-03-1.61651E-01
 -1      2457 2.21138E+00 8.93694E-01 8.14524E-01-1.56489E+01 9.87806E-03-2.50201E-01
 -1      2458 3.22119E+00 1.23904E+00 1.12362E+00-1.62785E+01 1.79240E-02-5.09948E-01
 -1      2459 2.38437E+00 8.80888E-01 6.03989E-01-1.57308E+01 1.11723E-02-4.56591E-01
 -1      2460 3.99264E+00 1.37733E+00 8.35629E-01-1.64530E+01 3.94136E-02-8.10123E-01
 -1      2461 6.05587E+00 1.99245E+00 1.29937E+00-1.74308E+01-4.75949E-02 1.20118E+00
 -1      2462 4.13390E+00 1.43741E+00 1.06982E+00-1.68130E+01-1.37944E-02 7.17419E-01
 -1      2463 5.01811E+00 1.83758E+00 1.75534E+00-1.72769E+01-1.47343E-02 7.31596E-01
 -1      2464 3.94541E+00 1.49509E+00 1.43282E+00-1.67382E+01-9.34062E-03 3.85687E-01
 -1      2465 4.80636E+00 1.79725E+00 1.81519E+00-1.72335E+01-5.60006E-03 2.29405E-01
 -1      2466 3.87497E+00 1.48700E+00 1.46784E+00-1.67184E+01-9.44621E-13-3.98982E-12
 -1      2467 4.80636E+00 1.79725E+00 1.81519E+00-1.72335E+01 5.60006E-03-2.29405E-01
 -1      2468 3.94541E+00 1.49509E+00 1.43282E+00-1.67382E+01 9.34062E-03-3.85687E-01
 -1      2469 5.01811E+00 1.83758E+00 1.75534E+00-1.72769E+01 1.47343E-02-7.31596E-01
 -1      2470 4.13390E+00 1.43741E+00 1.06982E+00-1.68130E+01 1.37944E-02-7.17419E-01
 -1      2471 6.05587E+00 1.99245E+00 1.29937E+00-1.74308E+01 4.75949E-02-1.20118E+00
 -1      2472 7.94298E+00 2.46655E+00 1.75610E+00-1.80323E+01-4.76680E-02 1.55324E+00
 -1      2473 5.82206E+00 1.92475E+00 1.54354E+00-1.76317E+01-1.41167E-02 9.59763E-01
 -1      2474 6.64190E+00 2.29120E+00 2.34116E+00-1.79396E+01-4.34567E-03 9.12896E-01
 -1      2475 5.62345E+00 2.02887E+00 2.05092E+00-1.75763E+01-5.40207E-03 5.06653E-01
 -1      2476 6.39572E+00 2.24648E+00 2.41960E+00-1.79120E+01-9.89077E-04 2.82127E-01
 -1      2477 5.53889E+00 2.01971E+00 2.09811E+00-1.75610E+01-4.09359E-13-8.29137E-12
 -1      2478 6.39572E+00 2.24648E+00 2.41960E+00-1.79120E+01 9.89077E-04-2.82127E-01
 -1      2479 5.62345E+00 2.02887E+00 2.05092E+00-1.75763E+01 5.40207E-03-5.06653E-01
 -1      2480 6.64190E+00 2.29120E+00 2.34116E+00-1.79396E+01 4.34567E-03-9.12896E-01
 -1      2481 5.82206E+00 1.92475E+00 1.54354E+00-1.76317E+01 1.41167E-02-9.59763E-01
 -1      2482 7.94298E+00 2.46655E+00 1.75610E+00-1.80323E+01 4.76680E-02-1.55324E+00
 -1      2483 9.11957E+00 2.53051E+00 2.03876E+00-1.79361E+01-2.19869E-02 1.72987E+00
 -1      2484 7.10812E+00 2.15633E+00 1.91917E+00-1.79685E+01-4.35049E-03 1.10315E+00
 -1      2485 7.65661E+00 2.36670E+00 2.72812E+00-1.79670E+01 3.00217E-02 9.57586E-01
 -1      2486 6.88489E+00 2.27637E+00 2.52376E+00-1.79409E+01 7.14658E-03 5.69141E-01
 -1      2487 7.36475E+00 2.30341E+00 2.79267E+00-1.79549E+01 9.30887E-03 2.89697E-01
 -1      2488 6.78127E+00 2.26286E+00 2.57282E+00-1.79310E+01 8.67752E-13-1.59394E-11
 -1      2489 7.36475E+00 2.30341E+00 2.79267E+00-1.79549E+01-9.30887E-03-2.89697E-01
 -1      2490 6.88489E+00 2.27637E+00 2.52376E+00-1.79409E+01-7.14658E-03-5.69141E-01
 -1      2491 7.65661E+00 2.36670E+00 2.72812E+00-1.79670E+01-3.00217E-02-9.57586E-01
 -1      2492 7.10812E+00 2.15633E+00 1.91917E+00-1.79685E+01 4.35049E-03-1.10315E+00
 -1      2493 9.11957E+00 2.53051E+00 2.03876E+00-1.79361E+01 2.19869E-02-1.72987E+00
 -1      2494 8.13160E+00 1.38883E+00 1.89107E+00-1.67508E+01 4.43022E-02 1.32257E+00
 -1      2495 7.08579E+00 1.71486E+00 1.94824E+00-1.74269E+01 2.41484E-02 9.76467E-01
 -1      2496 6.54460E+00 1.11724E+00 2.23088E+00-1.69990E+01 8.40698E-02 6.72404E-01
 -1      2497 6.75764E+00 1.79547E+00 2.47452E+00-1.74309E+01 3.72741E-02 4.82499E-01
 -1      2498 6.14851E+00 9.74430E-01 2.22555E+00-1.70015E+01 3.59036E-02 1.91692E-01
 -1      2499 6.61075E+00 1.74873E+00 2.49830E+00-1.74173E+01 8.27443E-12-3.60682E-11
 -1      2500 6.14851E+00 9.74430E-01 2.22555E+00-1.70015E+01-3.59036E-02-1.91692E-01
 -1      2501 6.75764E+00 1.79547E+00 2.47452E+00-1.74309E+01-3.72741E-02-4.82499E-01
 -1      2502 6.54460E+00 1.11724E+00 2.23088E+00-1.69990E+01-8.40698E-02-6.72404E-01
 -1      2503 7.08579E+00 1.71486E+00 1.94824E+00-1.74269E+01-2.41484E-02-9.76467E-01
 -1      2504 8.13160E+00 1.38883E+00 1.89107E+00-1.67508E+01-4.43022E-02-1.32257E+00
 -1      2505 4.82848E+00 9.07350E-01 1.63161E+00-1.27665E+01 3.52317E-01 3.36141E-02
 -1      2506 3.98218E+00-6.60311E-01 8.21135E-01-1.55894E+01 9.11629E-02 3.00311E-01
 -1      2507 3.87932E+00 1.03924E+00 1.89567E+00-1.32779E+01 2.68421E-01-1.99025E-01
 -1      2508 3.30772E+00-9.29703E-01 9.37734E-01-1.55581E+01 1.02472E-01 1.19998E-01
 -1      2509 3.33274E+00 8.79484E-01 1.71986E+00-1.31874E+01 6.63711E-02-7.74173E-02
 -1      2510 3.09508E+00-1.01611E+00 8.96125E-01-1.55299E+01 3.51100E-11-8.58817E-11
 -1      2511 3.33274E+00 8.79484E-01 1.71986E+00-1.31874E+01-6.63711E-02 7.74173E-02
 -1      2512 3.30772E+00-9.29703E-01 9.37734E-01-1.55581E+01-1.02472E-01-1.19998E-01
 -1      2513 3.87932E+00 1.03924E+00 1.89567E+00-1.32779E+01-2.68421E-01 1.99025E-01
 -1      2514 3.98218E+00-6.60311E-01 8.21135E-01-1.55894E+01-9.11629E-02-3.00311E-01
 -1      2515 4.82848E+00 9.07350E-01 1.63161E+00-1.27665E+01-3.52316E-01-3.36141E-02
 -1      2516-1.89211E+01-6.44910E+00-5.66226E+00-1.34457E+01 1.55411E-01-1.50868E+00
 -1      2517-2.06094E+01-7.16178E+00-7.45144E+00-1.35968E+01 1.09392E-01-6.10526E-01
 -1      2518-2.09935E+01-7.31776E+00-7.78753E+00-1.36176E+01 2.84278E-11-1.06100E-10
 -1      2519-2.06094E+01-7.16178E+00-7.45144E+00-1.35968E+01-1.09392E-01 6.10526E-01
 -1      2520-1.89211E+01-6.44910E+00-5.66226E+00-1.34457E+01-1.55411E-01 1.50868E+00
 -1      2521 2.95861E+02 1.68111E+02 4.39728E+01-5.67836E+01 9.05427E+00 5.07281E+00
 -1      2522 2.85701E+02 2.03887E+02 1.18464E+02-6.24008E+01 3.17148E+00 1.87483E+01
 -1      2523 2.79606E+02 1.97219E+02 1.33255E+02-6.11953E+01 1.31676E-10 2.57489E-10
 -1      2524 2.85701E+02 2.03887E+02 1.18464E+02-6.24008E+01-3.17148E+00-1.87483E+01
 -1      2525 2.95861E+02 1.68111E+02 4.39728E+01-5.67836E+01-9.05427E+00-5.07281E+00
 -1      2526 1.16349E+02 1.00269E+01 6.37289E+00 7.99262E+00-8.59951E+00-2.06002E+00
 -1      2527 1.24089E+02-8.77760E-01-2.39013E+00 2.86775E+00-1.76996E+00-9.16494E+00
 -1      2528 1.31836E+02 2.43663E+00-1.05786E+00 5.76887E+00-1.55120E-11-1.79185E-10
 -1      2529 1.24089E+02-8.77760E-01-2.39013E+00 2.86775E+00 1.76996E+00 9.16494E+00
 -1      2530 1.16349E+02 1.00269E+01 6.37289E+00 7.99262E+00 8.59951E+00 2.06002E+00
 -1      2531 7.89668E+01 1.22006E+01-2.02985E+00 3.41510E+01-5.13243E-01-4.00564E+00
 -1      2532 8.32951E+01 1.55667E+01-5.35580E-01 3.30743E+01-4.60332E-01-2.64849E+00
 -1      2533 8.44088E+01 1.55369E+01-1.54868E+00 3.44697E+01-8.11928E-12 7.06942E-12
 -1      2534 8.32951E+01 1.55667E+01-5.35580E-01 3.30743E+01 4.60332E-01 2.64849E+00
 -1      2535 7.89668E+01 1.22006E+01-2.02985E+00 3.41510E+01 5.13243E-01 4.00564E+00
 -1      2536 6.50354E+01 2.17451E+01 3.45846E-01 3.64439E+01-8.60749E-01-6.41776E-01
 -1      2537 6.58578E+01 2.09998E+01-9.42419E-01 3.62204E+01-4.20338E-01-7.03266E-01
 -1      2538 6.58660E+01 2.13364E+01-1.08737E+00 3.66031E+01 7.25076E-12-7.41963E-12
 -1      2539 6.58578E+01 2.09998E+01-9.42419E-01 3.62204E+01 4.20338E-01 7.03266E-01
 -1      2540 6.50354E+01 2.17451E+01 3.45846E-01 3.64439E+01 8.60749E-01 6.41776E-01
 -1      2541 5.51062E+01 3.23518E+01-3.00647E-01 4.28540E+01-9.49064E-02-2.65818E-01
 -1      2542 5.55491E+01 3.25201E+01-2.45203E-01 4.27483E+01-1.87696E-02-7.83393E-02
 -1      2543 5.54327E+01 3.25714E+01-3.54828E-01 4.28726E+01-1.80064E-14-7.61101E-12
 -1      2544 5.55491E+01 3.25201E+01-2.45203E-01 4.27483E+01 1.87696E-02 7.83393E-02
 -1      2545 5.51062E+01 3.23518E+01-3.00647E-01 4.28540E+01 9.49064E-02 2.65818E-01
 -1      2546 4.67921E+01 4.69134E+01 6.72716E-02 4.67111E+01 4.64135E-02 4.92200E-02
 -1      2547 4.69688E+01 4.69362E+01 1.74889E-02 4.67898E+01 5.64253E-02 5.27824E-02
 -1      2548 4.69374E+01 4.70000E+01 3.21730E-02 4.68345E+01 4.06668E-12 2.00837E-12
 -1      2549 4.69688E+01 4.69362E+01 1.74889E-02 4.67898E+01-5.64253E-02-5.27824E-02
 -1      2550 4.67921E+01 4.69134E+01 6.72716E-02 4.67111E+01-4.64135E-02-4.92200E-02
 -1      2551 3.71909E+01 6.33591E+01 4.28015E-02 4.85200E+01 1.53529E-01 7.46051E-02
 -1      2552 3.73435E+01 6.35256E+01 1.50078E-01 4.86425E+01 1.12036E-01 6.46031E-02
 -1      2553 3.73536E+01 6.35890E+01 1.82987E-01 4.86871E+01 3.26740E-13 8.65822E-12
 -1      2554 3.73435E+01 6.35256E+01 1.50078E-01 4.86425E+01-1.12036E-01-6.46031E-02
 -1      2555 3.71909E+01 6.33591E+01 4.28015E-02 4.85200E+01-1.53529E-01-7.46051E-02
 -1      2556 2.69113E+01 8.07516E+01 1.02839E-01 4.64697E+01 1.79967E-01 6.26940E-02
 -1      2557 2.70171E+01 8.10016E+01 2.44957E-01 4.66204E+01 1.21766E-01 4.69380E-02
 -1      2558 2.70405E+01 8.10896E+01 3.03377E-01 4.66672E+01-7.94382E-12-1.34525E-11
 -1      2559 2.70171E+01 8.10016E+01 2.44957E-01 4.66204E+01-1.21766E-01-4.69380E-02
 -1      2560 2.69113E+01 8.07516E+01 1.02839E-01 4.64697E+01-1.79967E-01-6.26940E-02
 -1      2561 1.67285E+01 9.71213E+01 1.21844E-01 4.01045E+01 1.68623E-01 2.31548E-02
 -1      2562 1.68019E+01 9.74615E+01 3.04742E-01 4.02478E+01 1.11205E-01 1.89530E-02
 -1      2563 1.68233E+01 9.75752E+01 3.75309E-01 4.02933E+01-1.07633E-12 2.35247E-12
 -1      2564 1.68019E+01 9.74615E+01 3.04742E-01 4.02478E+01-1.11205E-01-1.89530E-02
 -1      2565 1.67285E+01 9.71213E+01 1.21844E-01 4.01045E+01-1.68623E-01-2.31548E-02
 -1      2566 8.07021E+00 1.10578E+02 1.39873E-01 2.95366E+01 1.29137E-01-1.42087E-02
 -1      2567 8.11046E+00 1.10990E+02 3.44875E-01 2.96488E+01 8.43822E-02-6.13285E-03
 -1      2568 8.12469E+00 1.11127E+02 4.24791E-01 2.96847E+01 2.50220E-12 2.78347E-12
 -1      2569 8.11046E+00 1.10990E+02 3.44875E-01 2.96488E+01-8.43822E-02 6.13285E-03
 -1      2570 8.07021E+00 1.10578E+02 1.39873E-01 2.95366E+01-1.29137E-01 1.42087E-02
 -1      2571 2.24031E+00 1.19441E+02 1.49237E-01 1.56746E+01 7.32956E-02-4.07850E-02
 -1      2572 2.25778E+00 1.19902E+02 3.68437E-01 1.57363E+01 4.77511E-02-2.35618E-02
 -1      2573 2.26571E+00 1.20055E+02 4.53572E-01 1.57562E+01-3.82551E-12-3.89986E-12
 -1      2574 2.25778E+00 1.19902E+02 3.68437E-01 1.57363E+01-4.77511E-02 2.35618E-02
 -1      2575 2.24031E+00 1.19441E+02 1.49237E-01 1.56746E+01-7.32956E-02 4.07850E-02
 -1      2576 1.86484E-01 1.22566E+02 1.53821E-01-4.11530E-03 9.37294E-03-5.13269E-02
 -1      2577 1.95452E-01 1.23050E+02 3.79333E-01-3.87715E-03 6.22640E-03-3.04456E-02
 -1      2578 2.01015E-01 1.23210E+02 4.66983E-01-3.94709E-03-5.88962E-12 7.12847E-12
 -1      2579 1.95452E-01 1.23050E+02 3.79333E-01-3.87715E-03-6.22640E-03 3.04456E-02
 -1      2580 1.86484E-01 1.22566E+02 1.53821E-01-4.11530E-03-9.37294E-03 5.13269E-02
 -1      2581 2.25061E+00 1.19515E+02 1.54046E-01-1.56915E+01-5.56310E-02-4.45223E-02
 -1      2582 2.26805E+00 1.19991E+02 3.79880E-01-1.57547E+01-3.59158E-02-2.60626E-02
 -1      2583 2.27650E+00 1.20149E+02 4.67656E-01-1.57754E+01-1.88129E-12-1.36017E-12
 -1      2584 2.26805E+00 1.19991E+02 3.79880E-01-1.57547E+01 3.59158E-02 2.60626E-02
 -1      2585 2.25061E+00 1.19515E+02 1.54046E-01-1.56915E+01 5.56310E-02 4.45223E-02
 -1      2586 8.09043E+00 1.10611E+02 1.50802E-01-2.95487E+01-1.16109E-01-2.10451E-02
 -1      2587 8.13218E+00 1.11053E+02 3.71876E-01-2.96685E+01-7.51173E-02-1.08637E-02
 -1      2588 8.14858E+00 1.11200E+02 4.57830E-01-2.97077E+01-4.42323E-12-9.56443E-13
 -1      2589 8.13218E+00 1.11053E+02 3.71876E-01-2.96685E+01 7.51173E-02 1.08637E-02
 -1      2590 8.09043E+00 1.10611E+02 1.50802E-01-2.95487E+01 1.16109E-01 2.10451E-02
 -1      2591 1.67177E+01 9.68795E+01 1.44691E-01-3.99947E+01-1.67489E-01 1.69876E-02
 -1      2592 1.67956E+01 9.72675E+01 3.56773E-01-4.01573E+01-1.08494E-01 1.38115E-02
 -1      2593 1.68237E+01 9.73962E+01 4.39261E-01-4.02104E+01 1.01858E-11-3.08236E-12
 -1      2594 1.67956E+01 9.72675E+01 3.56773E-01-4.01573E+01 1.08494E-01-1.38115E-02
 -1      2595 1.67177E+01 9.68795E+01 1.44691E-01-3.99947E+01 1.67489E-01-1.69876E-02
 -1      2596 2.66471E+01 7.98861E+01 1.36173E-01-4.59462E+01-2.06337E-01 6.62775E-02
 -1      2597 2.67674E+01 8.02063E+01 3.35889E-01-4.61335E+01-1.33857E-01 4.59640E-02
 -1      2598 2.68090E+01 8.03125E+01 4.13606E-01-4.61946E+01 1.52201E-11-1.28758E-11
 -1      2599 2.67674E+01 8.02063E+01 3.35889E-01-4.61335E+01 1.33857E-01-4.59640E-02
 -1      2600 2.66471E+01 7.98861E+01 1.36173E-01-4.59462E+01 2.06337E-01-6.62775E-02
 -1      2601 3.61230E+01 6.14982E+01 1.27070E-01-4.69711E+01-2.30264E-01 1.23231E-01
 -1      2602 3.62856E+01 6.17457E+01 3.11980E-01-4.71641E+01-1.49951E-01 8.34975E-02
 -1      2603 3.63402E+01 6.18276E+01 3.84033E-01-4.72268E+01-2.02133E-11 3.35647E-11
 -1      2604 3.62856E+01 6.17457E+01 3.11980E-01-4.71641E+01 1.49951E-01-8.34975E-02
 -1      2605 3.61230E+01 6.14982E+01 1.27070E-01-4.69711E+01 2.30264E-01-1.23231E-01
 -1      2606 4.33708E+01 4.35964E+01 1.14958E-01-4.33455E+01-2.39061E-01 1.82149E-01
 -1      2607 4.35716E+01 4.37741E+01 2.85846E-01-4.35276E+01-1.56526E-01 1.24058E-01
 -1      2608 4.36364E+01 4.38326E+01 3.52429E-01-4.35863E+01 2.77462E-11-4.43231E-11
 -1      2609 4.35716E+01 4.37741E+01 2.85846E-01-4.35276E+01 1.56526E-01-1.24058E-01
 -1      2610 4.33708E+01 4.35964E+01 1.14958E-01-4.33455E+01 2.39061E-01-1.82149E-01
 -1      2611 4.68521E+01 2.78574E+01 1.22460E-01-3.59615E+01-2.34808E-01 2.47316E-01
 -1      2612 4.70861E+01 2.79762E+01 2.80151E-01-3.61193E+01-1.56651E-01 1.70776E-01
 -1      2613 4.71555E+01 2.80136E+01 3.42544E-01-3.61690E+01-1.20881E-11 1.79217E-11
 -1      2614 4.70861E+01 2.79762E+01 2.80151E-01-3.61193E+01 1.56651E-01-1.70776E-01
 -1      2615 4.68521E+01 2.78574E+01 1.22459E-01-3.59615E+01 2.34808E-01-2.47316E-01
 -1      2616 4.53258E+01 1.53065E+01 8.65915E-02-2.62813E+01-2.28813E-01 3.01918E-01
 -1      2617 4.55974E+01 1.53720E+01 2.65559E-01-2.64084E+01-1.54510E-01 2.27971E-01
 -1      2618 4.56632E+01 1.53882E+01 3.32499E-01-2.64477E+01 1.29152E-11-1.31696E-11
 -1      2619 4.55974E+01 1.53720E+01 2.65559E-01-2.64084E+01 1.54510E-01-2.27971E-01
 -1      2620 4.53258E+01 1.53065E+01 8.65915E-02-2.62813E+01 2.28813E-01-3.01918E-01
 -1      2621 3.80314E+01 7.12398E+00 3.22123E-01-1.57129E+01-2.34421E-01 5.01489E-01
 -1      2622 3.82924E+01 7.16695E+00 5.00439E-01-1.57663E+01-1.69595E-01 3.71727E-01
 -1      2623 3.83115E+01 7.16764E+00 5.80808E-01-1.57790E+01 5.58424E-12-1.65678E-11
 -1      2624 3.82924E+01 7.16695E+00 5.00439E-01-1.57663E+01 1.69595E-01-3.71727E-01
 -1      2625 3.80314E+01 7.12398E+00 3.22123E-01-1.57129E+01 2.34421E-01-5.01489E-01
 -1      2626 2.36824E+01 1.16055E+00-6.71890E-02-6.85793E+00-3.24978E-01 7.05594E-01
 -1      2627 2.38407E+01 1.14912E+00 4.30880E-01-6.79727E+00-1.95011E-01 6.48383E-01
 -1      2628 2.37379E+01 1.09716E+00 5.26640E-01-6.76246E+00 1.75777E-11-9.59312E-11
 -1      2629 2.38407E+01 1.14912E+00 4.30880E-01-6.79727E+00 1.95011E-01-6.48383E-01
 -1      2630 2.36824E+01 1.16055E+00-6.71890E-02-6.85793E+00 3.24978E-01-7.05594E-01
 -1      2631-5.24366E-01 3.78388E+00 2.18536E+00 1.07734E+00-7.86562E-02 2.44719E+00
 -1      2632-1.49165E+00 4.12554E+00 1.28431E+00 1.17905E+00-2.01801E-02 9.11110E-01
 -1      2633-1.64420E+00 4.20710E+00 8.42965E-01 1.20133E+00-9.35799E-12 1.43346E-10
 -1      2634-1.49165E+00 4.12554E+00 1.28431E+00 1.17905E+00 2.01801E-02-9.11110E-01
 -1      2635-5.24366E-01 3.78388E+00 2.18536E+00 1.07734E+00 7.86562E-02-2.44719E+00
 -1      2636 3.41949E+02-1.03637E+02 8.93245E+01-1.36276E+01-1.37054E+01 6.01794E+01
 -1      2637 2.47649E+02 2.48320E+02 1.11331E+00-8.62332E+01-1.06272E+01-1.41025E+01
 -1      2638 3.02085E+02-1.55712E+02 8.83393E+01-2.45184E+00 1.12561E+00 1.84563E+01
 -1      2639 2.91654E+02 1.93283E+02 8.88121E+01-5.93224E+01 2.24945E+00 2.00833E+01
 -1      2640 3.05247E+02-1.44279E+02 8.95525E+01-1.79672E+00-2.51816E-11 2.63633E-10
 -1      2641 2.83123E+02 2.01322E+02 1.26566E+02-6.15068E+01 1.23113E+00 8.01003E+00
 -1      2642 3.02085E+02-1.55712E+02 8.83393E+01-2.45184E+00-1.12561E+00-1.84563E+01
 -1      2643 2.83123E+02 2.01322E+02 1.26566E+02-6.15068E+01-1.23113E+00-8.01003E+00
 -1      2644 3.41949E+02-1.03637E+02 8.93245E+01-1.36276E+01 1.37054E+01-6.01794E+01
 -1      2645 2.91654E+02 1.93283E+02 8.88121E+01-5.93224E+01-2.24945E+00-2.00833E+01
 -1      2646 2.47649E+02 2.48320E+02 1.11331E+00-8.62332E+01 1.06272E+01 1.41025E+01
 -1      2647 1.28300E+02-1.86953E+01-1.08412E+01 5.67367E+01 1.22250E+01-1.57906E+01
 -1      2648 1.18609E+02-8.11300E+00 6.91689E+00-5.62456E+00-9.45481E+00 2.48402E+00
 -1      2649 1.50883E+02-2.31768E+00 7.84124E+00 6.20405E+01 8.97767E-01-1.23851E+00
 -1      2650 1.21956E+02 4.74311E+00 5.18580E+00 5.18876E+00-4.89340E-01-6.29050E+00
 -1      2651 1.49417E+02-6.05829E+00 1.09036E+01 6.12446E+01 3.73825E-11-7.87075E-11
 -1      2652 1.28153E+02 9.02082E-01-7.20410E-01 4.15738E+00-7.00479E-01-3.95654E+00
 -1      2653 1.50883E+02-2.31768E+00 7.84124E+00 6.20405E+01-8.97767E-01 1.23851E+00
 -1      2654 1.28153E+02 9.02082E-01-7.20410E-01 4.15738E+00 7.00479E-01 3.95654E+00
 -1      2655 1.28300E+02-1.86953E+01-1.08412E+01 5.67367E+01-1.22250E+01 1.57906E+01
 -1      2656 1.21956E+02 4.74311E+00 5.18580E+00 5.18876E+00 4.89340E-01 6.29050E+00
 -1      2657 1.18609E+02-8.11300E+00 6.91689E+00-5.62456E+00 9.45481E+00-2.48402E+00
 -1      2658 1.07790E+02 1.36581E+01 3.24006E+00 2.33060E+01-3.39427E+00-4.40286E+00
 -1      2659 8.12467E+01 1.68723E+01-3.69925E-01 3.12085E+01-9.44238E-01-1.56683E+00
 -1      2660 1.09091E+02 1.00924E+01 4.70080E-01 2.71845E+01-1.33222E+00-3.07115E+00
 -1      2661 8.13504E+01 1.43655E+01-8.82634E-01 3.36073E+01-7.08077E-01-3.11165E+00
 -1      2662 1.10665E+02 1.07680E+01 2.03304E+00 2.67749E+01 8.11173E-12-2.05822E-11
 -1      2663 8.33678E+01 1.50372E+01-2.45237E+00 3.38088E+01-6.52557E-01-1.58088E+00
 -1      2664 1.09091E+02 1.00924E+01 4.70080E-01 2.71845E+01 1.33222E+00 3.07115E+00
 -1      2665 8.33678E+01 1.50372E+01-2.45237E+00 3.38088E+01 6.52557E-01 1.58088E+00
 -1      2666 1.07790E+02 1.36581E+01 3.24006E+00 2.33060E+01 3.39427E+00 4.40286E+00
 -1      2667 8.13504E+01 1.43655E+01-8.82634E-01 3.36073E+01 7.08077E-01 3.11165E+00
 -1      2668 8.12467E+01 1.68723E+01-3.69925E-01 3.12085E+01 9.44238E-01 1.56683E+00
 -1      2669 7.02914E+01 1.54429E+01-2.17382E+00 3.65849E+01-1.47399E-01-2.16528E+00
 -1      2670 6.60871E+01 2.05318E+01 8.19841E-01 3.60294E+01-7.24316E-01 2.12883E-01
 -1      2671 7.17046E+01 1.68810E+01-1.86569E+00 3.73449E+01-4.73325E-01-1.22682E+00
 -1      2672 6.54580E+01 2.12840E+01-3.54636E-01 3.63436E+01-3.09731E-01-7.90203E-01
 -1      2673 7.21851E+01 1.67240E+01-2.12932E+00 3.73803E+01-4.57667E-12 6.24962E-12
 -1      2674 6.59683E+01 2.12486E+01-7.71505E-01 3.64076E+01-2.16122E-01-2.95009E-01
 -1      2675 7.17046E+01 1.68810E+01-1.86569E+00 3.73449E+01 4.73325E-01 1.22682E+00
 -1      2676 6.59683E+01 2.12486E+01-7.71505E-01 3.64076E+01 2.16122E-01 2.95009E-01
 -1      2677 7.02914E+01 1.54429E+01-2.17382E+00 3.65849E+01 1.47399E-01 2.16528E+00
 -1      2678 6.54580E+01 2.12840E+01-3.54636E-01 3.63436E+01 3.09731E-01 7.90203E-01
 -1      2679 6.60871E+01 2.05318E+01 8.19841E-01 3.60294E+01 7.24316E-01-2.12883E-01
 -1      2680 6.13313E+01 2.72903E+01 1.93039E-01 3.94036E+01-3.58160E-01-3.00826E-01
 -1      2681 5.54538E+01 3.25203E+01-3.16307E-02 4.26511E+01-6.18636E-02-3.66598E-02
 -1      2682 6.11116E+01 2.72489E+01-3.39976E-01 3.97588E+01-2.48303E-01-3.42309E-01
 -1      2683 5.53060E+01 3.24268E+01-3.38848E-01 4.28001E+01-5.37646E-02-1.67902E-01
 -1      2684 6.13536E+01 2.73031E+01-3.69252E-01 3.97414E+01-1.95316E-13 4.36667E-12
 -1      2685 5.54612E+01 3.25183E+01-3.88862E-01 4.28144E+01-5.66062E-02-3.87058E-02
 -1      2686 6.11116E+01 2.72489E+01-3.39976E-01 3.97588E+01 2.48303E-01 3.42309E-01
 -1      2687 5.54612E+01 3.25183E+01-3.88862E-01 4.28144E+01 5.66062E-02 3.87058E-02
 -1      2688 6.13313E+01 2.72903E+01 1.93039E-01 3.94036E+01 3.58160E-01 3.00826E-01
 -1      2689 5.53060E+01 3.24268E+01-3.38848E-01 4.28001E+01 5.37646E-02 1.67902E-01
 -1      2690 5.54538E+01 3.25203E+01-3.16307E-02 4.26511E+01 6.18636E-02 3.66598E-02
 -1      2691 5.09803E+01 3.95822E+01-1.76326E-01 4.47586E+01 5.07758E-02-2.42658E-02
 -1      2692 4.67926E+01 4.68009E+01 1.01747E-01 4.66471E+01 2.89315E-02 9.68723E-02
 -1      2693 5.10715E+01 3.97638E+01-1.47775E-01 4.48560E+01-5.40808E-03-4.02202E-02
 -1      2694 4.68663E+01 4.69102E+01 7.53183E-03 4.67527E+01 7.21015E-02 3.41527E-02
 -1      2695 5.11601E+01 3.97784E+01-1.81809E-01 4.48826E+01 3.35906E-12 4.66148E-12
 -1      2696 4.69695E+01 4.69842E+01 6.36843E-02 4.68125E+01 2.53509E-02 3.26046E-02
 -1      2697 5.10715E+01 3.97638E+01-1.47775E-01 4.48560E+01 5.40808E-03 4.02202E-02
 -1      2698 4.69695E+01 4.69842E+01 6.36843E-02 4.68125E+01-2.53509E-02-3.26046E-02
 -1      2699 5.09803E+01 3.95822E+01-1.76326E-01 4.47586E+01-5.07758E-02 2.42658E-02
 -1      2700 4.68663E+01 4.69102E+01 7.53183E-03 4.67527E+01-7.21015E-02-3.41527E-02
 -1      2701 4.67926E+01 4.68009E+01 1.01747E-01 4.66471E+01-2.89315E-02-9.68723E-02
 -1      2702 4.21103E+01 5.51214E+01 6.41167E-02 4.76008E+01 1.27178E-01 9.42128E-02
 -1      2703 3.71106E+01 6.32571E+01 3.35401E-02 4.84035E+01 1.02823E-01 6.51314E-02
 -1      2704 4.21700E+01 5.52620E+01 9.85964E-02 4.77239E+01 7.00195E-02 4.33112E-02
 -1      2705 3.72604E+01 6.34403E+01 8.40013E-02 4.85805E+01 1.31209E-01 6.67546E-02
 -1      2706 4.22317E+01 5.53084E+01 1.23249E-01 4.77618E+01 3.59936E-12 5.34673E-12
 -1      2707 3.73478E+01 6.35584E+01 1.65178E-01 4.86647E+01 5.10199E-02 3.41025E-02
 -1      2708 4.21700E+01 5.52620E+01 9.85964E-02 4.77239E+01-7.00195E-02-4.33112E-02
 -1      2709 3.73478E+01 6.35584E+01 1.65178E-01 4.86647E+01-5.10199E-02-3.41025E-02
 -1      2710 4.21103E+01 5.51214E+01 6.41167E-02 4.76008E+01-1.27178E-01-9.42128E-02
 -1      2711 3.72604E+01 6.34403E+01 8.40013E-02 4.85805E+01-1.31209E-01-6.67546E-02
 -1      2712 3.71106E+01 6.32571E+01 3.35401E-02 4.84035E+01-1.02823E-01-6.51314E-02
 -1      2713 3.20784E+01 7.20433E+01 6.92230E-02 4.74894E+01 1.80432E-01 8.15220E-02
 -1      2714 2.68086E+01 8.05615E+01 4.99181E-02 4.63330E+01 1.15669E-01 4.79944E-02
 -1      2715 3.21765E+01 7.22658E+01 1.97914E-01 4.76277E+01 1.10159E-01 4.91211E-02
 -1      2716 2.69614E+01 8.08773E+01 1.71757E-01 4.65437E+01 1.48406E-01 5.21764E-02
 -1      2717 3.22206E+01 7.23373E+01 2.43438E-01 4.76756E+01-4.35633E-12-3.72780E-12
 -1      2718 2.70313E+01 8.10491E+01 2.81381E-01 4.66432E+01 5.94861E-02 2.41675E-02
 -1      2719 3.21765E+01 7.22658E+01 1.97914E-01 4.76277E+01-1.10159E-01-4.91211E-02
 -1      2720 2.70313E+01 8.10491E+01 2.81381E-01 4.66432E+01-5.94861E-02-2.41675E-02
 -1      2721 3.20784E+01 7.20433E+01 6.92230E-02 4.74894E+01-1.80432E-01-8.15220E-02
 -1      2722 2.69614E+01 8.08773E+01 1.71757E-01 4.65437E+01-1.48406E-01-5.21764E-02
 -1      2723 2.68086E+01 8.05615E+01 4.99181E-02 4.63330E+01-1.15669E-01-4.79944E-02
 -1      2724 2.18344E+01 8.89245E+01 1.09933E-01 4.32861E+01 1.79496E-01 4.73230E-02
 -1      2725 1.66494E+01 9.68508E+01 5.17753E-02 3.99661E+01 1.07546E-01 1.81634E-02
 -1      2726 2.19120E+01 8.92249E+01 2.73330E-01 4.34311E+01 1.13243E-01 3.05112E-02
 -1      2727 1.67650E+01 9.72932E+01 2.16064E-01 4.01744E+01 1.36579E-01 2.09162E-02
 -1      2728 2.19442E+01 8.93249E+01 3.37318E-01 4.34799E+01-4.26119E-12-1.08148E-12
 -1      2729 1.68139E+01 9.75200E+01 3.43701E-01 4.02699E+01 5.43993E-02 9.93424E-03
 -1      2730 2.19120E+01 8.92249E+01 2.73330E-01 4.34311E+01-1.13243E-01-3.05112E-02
 -1      2731 1.68139E+01 9.75200E+01 3.43701E-01 4.02699E+01-5.43993E-02-9.93424E-03
 -1      2732 2.18344E+01 8.89245E+01 1.09933E-01 4.32861E+01-1.79496E-01-4.73230E-02
 -1      2733 1.67650E+01 9.72932E+01 2.16064E-01 4.01744E+01-1.36579E-01-2.09162E-02
 -1      2734 1.66494E+01 9.68508E+01 5.17753E-02 3.99661E+01-1.07546E-01-1.81634E-02
 -1      2735 1.24037E+01 1.03838E+02 1.26713E-01 3.48194E+01 1.50982E-01 6.13846E-03
 -1      2736 8.02147E+00 1.10235E+02 5.76587E-02 2.94252E+01 8.17576E-02-6.56288E-03
 -1      2737 1.24569E+01 1.04215E+02 3.21257E-01 3.49459E+01 9.63839E-02 5.64984E-03
 -1      2738 8.09177E+00 1.10786E+02 2.47316E-01 2.95912E+01 1.04131E-01-9.30931E-03
 -1      2739 1.24780E+01 1.04341E+02 3.96334E-01 3.49880E+01-7.71351E-13 1.11819E-12
 -1      2740 8.11937E+00 1.11060E+02 3.89152E-01 2.96662E+01 4.14657E-02-2.65790E-03
 -1      2741 1.24569E+01 1.04215E+02 3.21257E-01 3.49459E+01-9.63839E-02-5.64984E-03
 -1      2742 8.11937E+00 1.11060E+02 3.89152E-01 2.96662E+01-4.14657E-02 2.65790E-03
 -1      2743 1.24037E+01 1.03838E+02 1.26713E-01 3.48194E+01-1.50982E-01-6.13846E-03
 -1      2744 8.09177E+00 1.10786E+02 2.47316E-01 2.95912E+01-1.04131E-01 9.30931E-03
 -1      2745 8.02147E+00 1.10235E+02 5.76587E-02 2.94252E+01-8.17576E-02 6.56288E-03
 -1      2746 5.15529E+00 1.14996E+02 1.39488E-01 2.26051E+01 1.01928E-01-2.67479E-02
 -1      2747 2.21645E+00 1.19048E+02 6.09232E-02 1.56120E+01 4.63164E-02-2.37438E-02
 -1      2748 5.18301E+00 1.15433E+02 3.51757E-01 2.26913E+01 6.54413E-02-1.49946E-02
 -1      2749 2.25144E+00 1.19673E+02 2.64766E-01 1.57045E+01 5.90192E-02-3.05629E-02
 -1      2750 5.19516E+00 1.15578E+02 4.34178E-01 2.27198E+01-6.67647E-13 2.84220E-13
 -1      2751 2.26368E+00 1.19980E+02 4.15166E-01 1.57459E+01 2.34763E-02-1.13002E-02
 -1      2752 5.18301E+00 1.15433E+02 3.51757E-01 2.26913E+01-6.54413E-02 1.49946E-02
 -1      2753 2.26368E+00 1.19980E+02 4.15166E-01 1.57459E+01-2.34763E-02 1.13002E-02
 -1      2754 5.15529E+00 1.14996E+02 1.39488E-01 2.26051E+01-1.01928E-01 2.67479E-02
 -1      2755 2.25144E+00 1.19673E+02 2.64766E-01 1.57045E+01-5.90192E-02 3.05629E-02
 -1      2756 2.21645E+00 1.19048E+02 6.09232E-02 1.56120E+01-4.63164E-02 2.37438E-02
 -1      2757 1.21149E+00 1.20989E+02 1.45841E-01 7.83553E+00 4.15922E-02-4.55503E-02
 -1      2758 1.71965E-01 1.22152E+02 6.26456E-02-5.67946E-03 5.97128E-03-3.04706E-02
 -1      2759 1.22444E+00 1.21461E+02 3.68304E-01 7.86620E+00 2.67436E-02-2.69398E-02
 -1      2760 1.93751E-01 1.22809E+02 2.72901E-01-4.10527E-03 7.61255E-03-3.90107E-02
 -1      2761 1.23154E+00 1.21618E+02 4.54663E-01 7.87634E+00-4.09653E-12-5.87958E-13
 -1      2762 2.00293E-01 1.23131E+02 4.27409E-01-3.95231E-03 3.06326E-03-1.47205E-02
 -1      2763 1.22444E+00 1.21461E+02 3.68304E-01 7.86620E+00-2.67436E-02 2.69398E-02
 -1      2764 2.00293E-01 1.23131E+02 4.27409E-01-3.95231E-03-3.06326E-03 1.47205E-02
 -1      2765 1.21149E+00 1.20989E+02 1.45841E-01 7.83553E+00-4.15922E-02 4.55503E-02
 -1      2766 1.93751E-01 1.22809E+02 2.72901E-01-4.10527E-03-7.61255E-03 3.90107E-02
 -1      2767 1.71965E-01 1.22152E+02 6.26456E-02-5.67946E-03-5.97128E-03 3.04706E-02
 -1      2768 1.21546E+00 1.21025E+02 1.47927E-01-7.84622E+00-2.29923E-02-4.74883E-02
 -1      2769 2.22662E+00 1.19110E+02 6.27310E-02-1.56301E+01-3.49383E-02-2.62073E-02
 -1      2770 1.22866E+00 1.21505E+02 3.73662E-01-7.87781E+00-1.49055E-02-2.81305E-02
 -1      2771 2.26198E+00 1.19755E+02 2.73360E-01-1.57224E+01-4.46192E-02-3.35378E-02
 -1      2772 1.23579E+00 1.21664E+02 4.61363E-01-7.88811E+00-2.46452E-12 1.38382E-12
 -1      2773 2.27427E+00 1.20071E+02 4.27992E-01-1.57647E+01-1.76671E-02-1.25733E-02
 -1      2774 1.22866E+00 1.21505E+02 3.73662E-01-7.87781E+00 1.49055E-02 2.81305E-02
 -1      2775 2.27427E+00 1.20071E+02 4.27992E-01-1.57647E+01 1.76671E-02 1.25733E-02
 -1      2776 1.21546E+00 1.21025E+02 1.47927E-01-7.84622E+00 2.29923E-02 4.74883E-02
 -1      2777 2.26198E+00 1.19755E+02 2.73360E-01-1.57224E+01 4.46192E-02 3.35378E-02
 -1      2778 2.22662E+00 1.19110E+02 6.27310E-02-1.56301E+01 3.49383E-02 2.62073E-02
 -1      2779 5.16645E+00 1.15048E+02 1.46339E-01-2.26170E+01-8.57356E-02-3.23737E-02
 -1      2780 8.03921E+00 1.10241E+02 6.14597E-02-2.94322E+01-7.29743E-02-1.14255E-02
 -1      2781 5.19610E+00 1.15507E+02 3.69858E-01-2.27085E+01-5.54655E-02-1.83448E-02
 -1      2782 8.11337E+00 1.10834E+02 2.67590E-01-2.96072E+01-9.32168E-02-1.46775E-02
 -1      2783 5.20862E+00 1.15660E+02 4.56721E-01-2.27385E+01 7.92854E-13 9.44641E-13
 -1      2784 8.14214E+00 1.11128E+02 4.18998E-01-2.96875E+01-3.69543E-02-5.09598E-03
 -1      2785 5.19610E+00 1.15507E+02 3.69858E-01-2.27085E+01 5.54655E-02 1.83448E-02
 -1      2786 8.14214E+00 1.11128E+02 4.18998E-01-2.96875E+01 3.69543E-02 5.09598E-03
 -1      2787 5.16645E+00 1.15048E+02 1.46339E-01-2.26170E+01 8.57356E-02 3.23737E-02
 -1      2788 8.11337E+00 1.10834E+02 2.67590E-01-2.96072E+01 9.32168E-02 1.46775E-02
 -1      2789 8.03921E+00 1.10241E+02 6.14597E-02-2.94322E+01 7.29743E-02 1.14255E-02
 -1      2790 1.23988E+01 1.03731E+02 1.41730E-01-3.47673E+01-1.41678E-01-1.61435E-03
 -1      2791 1.66261E+01 9.65664E+01 5.91151E-02-3.98387E+01-1.05302E-01 1.25374E-02
 -1      2792 1.24586E+01 1.04147E+02 3.58386E-01-3.49084E+01-9.16582E-02 1.54206E-03
 -1      2793 1.67578E+01 9.70762E+01 2.56641E-01-4.00743E+01-1.34545E-01 1.58750E-02
 -1      2794 1.24810E+01 1.04284E+02 4.42605E-01-3.49546E+01 2.45867E-12 9.27676E-15
 -1      2795 1.68111E+01 9.73335E+01 4.02032E-01-4.01831E+01-5.33745E-02 7.04498E-03
 -1      2796 1.24586E+01 1.04147E+02 3.58386E-01-3.49084E+01 9.16582E-02-1.54206E-03
 -1      2797 1.68111E+01 9.73335E+01 4.02032E-01-4.01831E+01 5.33745E-02-7.04498E-03
 -1      2798 1.23988E+01 1.03731E+02 1.41730E-01-3.47673E+01 1.41678E-01 1.61435E-03
 -1      2799 1.67578E+01 9.70762E+01 2.56641E-01-4.00743E+01 1.34545E-01-1.58750E-02
 -1      2800 1.66261E+01 9.65664E+01 5.91151E-02-3.98387E+01 1.05302E-01-1.25374E-02
 -1      2801 2.16757E+01 8.83707E+01 1.34602E-01-4.29650E+01-1.86917E-01 4.21568E-02
 -1      2802 2.65089E+01 7.96428E+01 5.59725E-02-4.57710E+01-1.29826E-01 4.37225E-02
 -1      2803 2.17746E+01 8.87249E+01 3.40647E-01-4.31398E+01-1.20907E-01 2.98295E-02
 -1      2804 2.67073E+01 8.00496E+01 2.41371E-01-4.60381E+01-1.65860E-01 5.56217E-02
 -1      2805 2.18099E+01 8.88425E+01 4.20744E-01-4.31971E+01 1.29794E-11-6.38759E-12
 -1      2806 2.67892E+01 8.02613E+01 3.78589E-01-4.61633E+01-6.58553E-02 2.28950E-02
 -1      2807 2.17746E+01 8.87249E+01 3.40647E-01-4.31398E+01 1.20907E-01-2.98295E-02
 -1      2808 2.67892E+01 8.02613E+01 3.78589E-01-4.61633E+01 6.58553E-02-2.28950E-02
 -1      2809 2.16757E+01 8.83707E+01 1.34602E-01-4.29650E+01 1.86917E-01-4.21568E-02
 -1      2810 2.67073E+01 8.00496E+01 2.41371E-01-4.60381E+01 1.65860E-01-5.56217E-02
 -1      2811 2.65089E+01 7.96428E+01 5.59725E-02-4.57710E+01 1.29826E-01-4.37225E-02
 -1      2812 3.13759E+01 7.06820E+01 1.25705E-01-4.64528E+01-2.18671E-01 9.57672E-02
 -1      2813 3.59394E+01 6.13280E+01 5.33646E-02-4.67980E+01-1.45044E-01 7.99124E-02
 -1      2814 3.15167E+01 7.09658E+01 3.18264E-01-4.66427E+01-1.41394E-01 6.43663E-02
 -1      2815 3.62031E+01 6.16259E+01 2.23797E-01-4.70663E+01-1.85432E-01 1.01454E-01
 -1      2816 3.15658E+01 7.10603E+01 3.93104E-01-4.67050E+01-1.43436E-11 2.83243E-12
 -1      2817 3.63136E+01 6.17889E+01 3.51903E-01-4.71948E+01-7.37615E-02 4.13507E-02
 -1      2818 3.15167E+01 7.09658E+01 3.18264E-01-4.66427E+01 1.41394E-01-6.43663E-02
 -1      2819 3.63136E+01 6.17889E+01 3.51903E-01-4.71948E+01 7.37615E-02-4.13507E-02
 -1      2820 3.13759E+01 7.06820E+01 1.25705E-01-4.64528E+01 2.18671E-01-9.57672E-02
 -1      2821 3.62031E+01 6.16259E+01 2.23797E-01-4.70663E+01 1.85432E-01-1.01454E-01
 -1      2822 3.59394E+01 6.13280E+01 5.33646E-02-4.67980E+01 1.45044E-01-7.99124E-02
 -1      2823 3.97355E+01 5.25397E+01 1.15263E-01-4.51526E+01-2.36022E-01 1.55271E-01
 -1      2824 4.31495E+01 4.34946E+01 5.00582E-02-4.31927E+01-1.51143E-01 1.18713E-01
 -1      2825 3.99154E+01 5.27524E+01 2.93896E-01-4.53397E+01-1.52405E-01 1.02733E-01
 -1      2826 4.34686E+01 4.36892E+01 2.02994E-01-4.34360E+01-1.92882E-01 1.50649E-01
 -1      2827 3.99778E+01 5.28235E+01 3.63177E-01-4.54011E+01 1.32155E-11-7.72369E-12
 -1      2828 4.36042E+01 4.38057E+01 3.22617E-01-4.35566E+01-7.69654E-02 6.15512E-02
 -1      2829 3.99154E+01 5.27524E+01 2.93896E-01-4.53397E+01 1.52405E-01-1.02733E-01
 -1      2830 4.36042E+01 4.38057E+01 3.22617E-01-4.35566E+01 7.69654E-02-6.15512E-02
 -1      2831 3.97355E+01 5.25397E+01 1.15263E-01-4.51526E+01 2.36022E-01-1.55271E-01
 -1      2832 4.34686E+01 4.36892E+01 2.02994E-01-4.34360E+01 1.92882E-01-1.50649E-01
 -1      2833 4.31495E+01 4.34946E+01 5.00582E-02-4.31927E+01 1.51143E-01-1.18713E-01
 -1      2834 4.50923E+01 3.57173E+01 1.09651E-01-3.96503E+01-2.39691E-01 2.21601E-01
 -1      2835 4.65993E+01 2.78089E+01 6.28946E-02-3.58403E+01-1.48784E-01 1.61895E-01
 -1      2836 4.53033E+01 3.58653E+01 2.75383E-01-3.98201E+01-1.54688E-01 1.44305E-01
 -1      2837 4.69640E+01 2.79190E+01 1.99006E-01-3.60410E+01-1.91869E-01 2.02555E-01
 -1      2838 4.53774E+01 3.59152E+01 3.39535E-01-3.98754E+01 1.06415E-11-1.27453E-11
 -1      2839 4.71222E+01 2.79989E+01 3.18327E-01-3.61441E+01-7.70772E-02 8.43780E-02
 -1      2840 4.53033E+01 3.58653E+01 2.75383E-01-3.98201E+01 1.54688E-01-1.44305E-01
 -1      2841 4.71222E+01 2.79989E+01 3.18327E-01-3.61441E+01 7.70772E-02-8.43780E-02
 -1      2842 4.50923E+01 3.57173E+01 1.09651E-01-3.96503E+01 2.39691E-01-2.21601E-01
 -1      2843 4.69640E+01 2.79190E+01 1.99006E-01-3.60410E+01 1.91869E-01-2.02555E-01
 -1      2844 4.65993E+01 2.78089E+01 6.28946E-02-3.58403E+01 1.48784E-01-1.61895E-01
 -1      2845 4.60587E+01 2.15775E+01 9.44201E-02-3.11242E+01-2.38861E-01 2.95233E-01
 -1      2846 4.50551E+01 1.53148E+01 5.04363E-02-2.61941E+01-1.46238E-01 2.09932E-01
 -1      2847 4.62947E+01 2.16691E+01 2.65895E-01-3.12671E+01-1.53068E-01 1.93804E-01
 -1      2848 4.54525E+01 1.53390E+01 1.67798E-01-2.63455E+01-1.85241E-01 2.64976E-01
 -1      2849 4.63790E+01 2.17006E+01 3.30443E-01-3.13126E+01 8.97963E-12-1.24499E-11
 -1      2850 4.56276E+01 1.53806E+01 2.97841E-01-2.64282E+01-7.53586E-02 1.13678E-01
 -1      2851 4.62947E+01 2.16691E+01 2.65895E-01-3.12671E+01 1.53068E-01-1.93804E-01
 -1      2852 4.56276E+01 1.53806E+01 2.97841E-01-2.64282E+01 7.53586E-02-1.13678E-01
 -1      2853 4.60587E+01 2.15775E+01 9.44201E-02-3.11242E+01 2.38861E-01-2.95233E-01
 -1      2854 4.54525E+01 1.53390E+01 1.67798E-01-2.63455E+01 1.85241E-01-2.64976E-01
 -1      2855 4.50551E+01 1.53148E+01 5.04363E-02-2.61941E+01 1.46238E-01-2.09932E-01
 -1      2856 4.16546E+01 1.11848E+01 1.67943E-01-2.10224E+01-2.36950E-01 4.41147E-01
 -1      2857 3.77013E+01 7.13977E+00 2.43066E-01-1.56814E+01-1.49164E-01 3.50932E-01
 -1      2858 4.18687E+01 1.12320E+01 3.54940E-01-2.11190E+01-1.55212E-01 2.78647E-01
 -1      2859 3.81428E+01 7.13298E+00 3.78218E-01-1.57437E+01-2.10869E-01 4.10915E-01
 -1      2860 4.19502E+01 1.12508E+01 4.27612E-01-2.11456E+01 7.47849E-12-2.83519E-11
 -1      2861 3.83153E+01 7.18577E+00 5.84341E-01-1.57731E+01-8.57450E-02 1.85981E-01
 -1      2862 4.18687E+01 1.12320E+01 3.54940E-01-2.11190E+01 1.55212E-01-2.78647E-01
 -1      2863 3.83153E+01 7.18577E+00 5.84341E-01-1.57731E+01 8.57450E-02-1.85981E-01
 -1      2864 4.16546E+01 1.11848E+01 1.67943E-01-2.10224E+01 2.36950E-01-4.41147E-01
 -1      2865 3.81428E+01 7.13298E+00 3.78218E-01-1.57437E+01 2.10869E-01-4.10915E-01
 -1      2866 3.77013E+01 7.13977E+00 2.43066E-01-1.56814E+01 1.49164E-01-3.50932E-01
 -1      2867 3.06112E+01 3.96098E+00-2.79986E-02-1.15131E+01-2.87782E-01 7.09922E-01
 -1      2868 2.36166E+01 1.43445E+00 4.63884E-02-6.88236E+00-2.00710E-01 5.87140E-01
 -1      2869 3.06782E+01 3.93819E+00 2.86041E-01-1.15440E+01-1.71070E-01 4.89954E-01
 -1      2870 2.37245E+01 1.14950E+00 1.58638E-01-6.82510E+00-2.12550E-01 6.98530E-01
 -1      2871 3.07089E+01 3.93799E+00 3.79061E-01-1.15427E+01 1.21470E-11-2.54688E-11
 -1      2872 2.37428E+01 1.08334E+00 3.77482E-01-6.78380E+00-9.17512E-02 3.13896E-01
 -1      2873 3.06782E+01 3.93819E+00 2.86041E-01-1.15440E+01 1.71070E-01-4.89954E-01
 -1      2874 2.37428E+01 1.08334E+00 3.77482E-01-6.78380E+00 9.17512E-02-3.13896E-01
 -1      2875 3.06112E+01 3.96098E+00-2.79986E-02-1.15131E+01 2.87782E-01-7.09922E-01
 -1      2876 2.37245E+01 1.14950E+00 1.58638E-01-6.82510E+00 2.12550E-01-6.98530E-01
 -1      2877 2.36166E+01 1.43445E+00 4.63884E-02-6.88236E+00 2.00710E-01-5.87140E-01
 -1      2878 1.27685E+01 2.79606E+00 6.91867E-01-3.11216E+00-2.18753E-01 1.41299E+00
 -1      2879 9.32348E-01 3.76879E+00 2.23110E+00 2.87871E-01-1.83919E-01 2.44506E+00
 -1      2880 1.19275E+01 2.79880E+00 7.10508E-01-2.96999E+00-1.47938E-01 8.30810E-01
 -1      2881-8.87774E-01 4.09293E+00 2.03051E+00 1.09388E+00-7.69847E-02 1.59694E+00
 -1      2882 1.17125E+01 2.83152E+00 7.59065E-01-2.93250E+00-1.22449E-11 1.45137E-11
 -1      2883-1.53696E+00 4.19326E+00 1.12423E+00 1.18787E+00-1.59745E-02 4.46835E-01
 -1      2884 1.19275E+01 2.79880E+00 7.10508E-01-2.96999E+00 1.47938E-01-8.30810E-01
 -1      2885-1.53696E+00 4.19326E+00 1.12423E+00 1.18787E+00 1.59745E-02-4.46835E-01
 -1      2886 1.27685E+01 2.79606E+00 6.91867E-01-3.11216E+00 2.18753E-01-1.41299E+00
 -1      2887-8.87774E-01 4.09293E+00 2.03051E+00 1.09388E+00 7.69847E-02-1.59694E+00
 -1      2888 9.32348E-01 3.76879E+00 2.23110E+00 2.87871E-01 1.83919E-01-2.44506E+00
 -1      2889-2.36221E+01-6.59461E+00-5.72542E+00-6.11005E+00 1.85593E-02-1.90705E-01
 -1      2890-2.48126E+01-6.99672E+00-8.23506E+00-6.33068E+00 3.61462E-02-7.44873E-02
 -1      2891-2.52206E+01-7.16156E+00-8.99043E+00-6.36296E+00 8.11471E-12 4.23841E-11
 -1      2892-2.48126E+01-6.99672E+00-8.23506E+00-6.33068E+00-3.61462E-02 7.44873E-02
 -1      2893-2.36221E+01-6.59461E+00-5.72542E+00-6.11005E+00-1.85593E-02 1.90705E-01
 -1      2894-9.43358E+01 6.63175E+01 1.02562E+01 3.38447E+01-2.20768E+01-2.74684E+00
 -1      2895 3.19028E+01 2.38805E+01-2.07787E-01 1.25155E+01 8.01606E-01 2.58060E+00
 -1      2896 5.10923E+01 1.53355E+01 2.83539E-01 1.03232E+01-7.81689E-01 2.43985E-01
 -1      2897 4.76770E+01 2.26739E+01-6.31000E-02 2.32394E+01 1.21456E-01 3.31934E-01
 -1      2898 4.16493E+01 3.28987E+01 4.73140E-04 2.84499E+01-4.75784E-02 1.24935E-02
 -1      2899 3.54555E+01 4.45363E+01-6.26607E-03 3.14118E+01 1.02526E-02 3.97252E-02
 -1      2900 2.94916E+01 5.65065E+01-2.98185E-03 3.15887E+01-6.24821E-03 1.37333E-02
 -1      2901 2.37533E+01 6.80537E+01-4.15926E-04 2.93064E+01-2.78280E-03 1.79070E-02
 -1      2902 1.85372E+01 7.83131E+01-1.20066E-04 2.46003E+01-4.14901E-03 1.81542E-02
 -1      2903 1.43026E+01 8.64204E+01 4.82069E-04 1.77553E+01-2.94937E-03 2.01477E-02
 -1      2904 1.15281E+01 9.16213E+01 5.87707E-04 9.29512E+00-1.64190E-03 2.13096E-02
 -1      2905 1.05632E+01 9.33952E+01 7.04344E-04-2.08501E-02 1.08265E-04 2.19252E-02
 -1      2906 1.15118E+01 9.15477E+01 7.30334E-04-9.29056E+00 1.90086E-03 2.18917E-02
 -1      2907 1.41734E+01 8.62515E+01 7.34140E-04-1.75951E+01 3.59942E-03 2.13084E-02
 -1      2908 1.80460E+01 7.80290E+01 6.98034E-04-2.41360E+01 5.07269E-03 2.02556E-02
 -1      2909 2.23861E+01 6.76804E+01 6.59457E-04-2.83546E+01 6.12413E-03 1.89849E-02
 -1      2910 2.63073E+01 5.61708E+01 3.67022E-04-3.00169E+01 7.03381E-03 1.73836E-02
 -1      2911 2.88959E+01 4.45003E+01 6.97004E-04-2.92498E+01 6.41847E-03 1.70770E-02
 -1      2912 2.93174E+01 3.35532E+01-3.46490E-03-2.65499E+01 9.36290E-03 1.49736E-02
 -1      2913 2.68846E+01 2.40487E+01 5.64358E-03-2.27388E+01-1.88402E-03 2.54616E-02
 -1      2914 2.12335E+01 1.60471E+01-5.79287E-02-1.91442E+01 3.68124E-02 1.77015E-02
 -1      2915 1.24400E+01 1.01265E+01 9.73583E-02-1.71393E+01-1.15722E-01 5.83612E-02
 -1      2916 4.67607E+00 4.64843E-01-4.69219E-01-1.94946E+01 8.77929E-02 2.84826E-02
 -1      2917-5.03087E+01-3.06042E+01-7.39079E-01 6.25166E+01 7.99363E+00-5.08991E-01
 -1      2918-4.18219E+00 2.27748E+01 1.37839E+00 1.94779E+00-2.61837E+00-5.20278E-01
 -1      2919 2.26915E+01 1.99911E+01 2.07831E-01 3.57419E+00 7.68953E-01-3.44306E-02
 -1      2920 2.87168E+01 2.48936E+01-5.04779E-02 1.21073E+01-1.40400E-01-5.81440E-02
 -1      2921 2.85850E+01 3.25808E+01 4.51951E-02 1.73749E+01 6.99361E-02-1.85543E-02
 -1      2922 2.61356E+01 4.11349E+01-1.04087E-02 1.96190E+01-6.02497E-03-4.87330E-03
 -1      2923 2.35044E+01 4.95559E+01 3.88702E-03 1.95097E+01 5.72694E-03-3.52046E-04
 -1      2924 2.10477E+01 5.71525E+01-1.12066E-03 1.76397E+01 5.59106E-05 2.64525E-03
 -1      2925 1.90000E+01 6.35209E+01-6.36038E-07 1.44167E+01 4.35087E-04 3.47733E-03
 -1      2926 1.74539E+01 6.83198E+01-4.04868E-04 1.01777E+01 4.86508E-05 4.08491E-03
 -1      2927 1.64874E+01 7.12945E+01-3.80365E-04 5.25454E+00 5.50462E-05 4.31804E-03
 -1      2928 1.61402E+01 7.22795E+01-4.33354E-04 4.57995E-03 6.72003E-05 4.45176E-03
 -1      2929 1.63881E+01 7.12285E+01-4.46708E-04-5.19220E+00 1.02790E-04 4.50199E-03
 -1      2930 1.71175E+01 6.82307E+01-4.63498E-04-9.96153E+00 1.37353E-04 4.51268E-03
 -1      2931 1.81172E+01 6.35110E+01-4.81682E-04-1.39776E+01 1.46897E-04 4.51985E-03
 -1      2932 1.90918E+01 5.74089E+01-5.79436E-04-1.70077E+01 1.31938E-04 4.52671E-03
 -1      2933 1.96926E+01 5.03385E+01-7.85726E-04-1.89499E+01 3.87023E-06 4.78101E-03
 -1      2934 1.95603E+01 4.27348E+01-1.30335E-03-1.98622E+01-1.87200E-04 4.96478E-03
 -1      2935 1.83785E+01 3.49878E+01-3.87106E-03-1.99797E+01-3.82181E-04 7.64817E-03
 -1      2936 1.59863E+01 2.73422E+01-2.42423E-03-1.97474E+01-1.93667E-03 7.86365E-03
 -1      2937 1.24835E+01 1.97521E+01-3.91997E-02-1.97735E+01 6.16119E-03 2.97341E-02
 -1      2938 9.22335E+00 1.16290E+01 2.26767E-02-2.05419E+01-3.50801E-02 4.02297E-02
 -1      2939 7.63975E+00 1.93952E+00-6.05586E-01-2.06790E+01-1.10963E-02 4.23403E-01
 -1      2940-1.88883E+01-4.07923E+01 1.49559E+00 4.86626E+01-1.07163E+00 1.93466E-01
 -1      2941-2.17017E+01 1.47592E+01-7.08445E-01 2.14896E+01 3.36819E-01 2.00993E-01
 -1      2942-1.05237E+00 2.46848E+01-2.27577E-01 8.62482E+00-1.26449E-01-1.25978E-03
 -1      2943 1.17969E+01 2.78838E+01-5.01075E-02 8.32372E+00 4.02405E-04 7.70995E-03
 -1      2944 1.65922E+01 3.24474E+01-6.31157E-04 1.02518E+01-1.55150E-02 2.28774E-03
 -1      2945 1.79004E+01 3.79273E+01-2.29870E-03 1.12115E+01-3.63454E-03 1.58874E-03
 -1      2946 1.81342E+01 4.32500E+01 2.81358E-03 1.07984E+01-2.04697E-03 1.14868E-03
 -1      2947 1.81777E+01 4.78320E+01 1.88192E-03 9.36945E+00-8.63441E-04 4.94973E-04
 -1      2948 1.83245E+01 5.14203E+01 2.58580E-03 7.32725E+00-3.50717E-04 3.82574E-04
 -1      2949 1.85478E+01 5.39483E+01 2.67218E-03 4.97721E+00-1.99260E-04 2.74745E-04
 -1      2950 1.87359E+01 5.54305E+01 2.83849E-03 2.50770E+00-7.96905E-05 2.62705E-04
 -1      2951 1.87697E+01 5.59043E+01 2.89303E-03 2.20752E-02-2.43739E-05 2.51947E-04
 -1      2952 1.85620E+01 5.54066E+01 2.87751E-03-2.42627E+00 2.17578E-05 2.46553E-04
 -1      2953 1.80620E+01 5.39699E+01 2.78433E-03-4.80611E+00 3.85899E-05 2.42230E-04
 -1      2954 1.72476E+01 5.16272E+01 2.58374E-03-7.09286E+00 2.21676E-05 2.63817E-04
 -1      2955 1.61138E+01 4.84194E+01 2.30023E-03-9.26398E+00-8.37613E-05 3.43676E-04
 -1      2956 1.46639E+01 4.43987E+01 1.60755E-03-1.13046E+01-2.53631E-04 6.78534E-04
 -1      2957 1.29127E+01 3.96241E+01 1.07364E-03-1.32202E+01-7.83108E-04 1.25687E-03
 -1      2958 1.09044E+01 3.41354E+01-2.35226E-03-1.50590E+01-1.06098E-03 3.91408E-03
 -1      2959 8.80792E+00 2.79040E+01-3.13517E-03-1.69060E+01-3.23404E-03 6.15047E-03
 -1      2960 7.01696E+00 2.07579E+01-2.54809E-02-1.88286E+01-1.06309E-03 2.90024E-02
 -1      2961 6.40848E+00 1.23570E+01-7.85372E-02-2.04000E+01-1.90737E-02 5.39022E-02
 -1      2962 6.75524E+00 3.55942E+00-6.30773E-01-1.99200E+01 2.30695E-03 5.40997E-01
 -1      2963-1.38635E+01-3.80109E+01-2.66248E-01 3.61540E+01 4.86521E-01-8.40757E-04
 -1      2964-1.95732E+01 8.03682E+00 7.43083E-02 2.48524E+01-2.15987E-01-2.79052E-02
 -1      2965-8.94178E+00 2.36219E+01 1.91089E-01 1.13566E+01 1.84050E-02-1.15749E-02
 -1      2966 1.40853E+00 2.80292E+01 2.28463E-02 6.68131E+00-5.99246E-03-5.16635E-03
 -1      2967 7.68708E+00 3.13257E+01 4.28956E-03 5.74110E+00 5.92726E-03-8.66919E-05
 -1      2968 1.11906E+01 3.45776E+01-3.79486E-04 5.32115E+00 2.20125E-03-6.42324E-04
 -1      2969 1.34626E+01 3.75028E+01-2.86919E-05 4.51772E+00 1.34528E-03-3.94750E-04
 -1      2970 1.53250E+01 3.97674E+01-9.21490E-05 3.39859E+00 7.77911E-04-2.67937E-04
 -1      2971 1.70193E+01 4.12925E+01 2.81588E-04 2.24924E+00 3.90475E-04-2.37791E-04
 -1      2972 1.84515E+01 4.21821E+01 3.51122E-04 1.28375E+00 2.41276E-04-2.12166E-04
 -1      2973 1.94094E+01 4.26103E+01 4.46948E-04 5.67353E-01 1.09727E-04-2.11068E-04
 -1      2974 1.96934E+01 4.27312E+01 4.69672E-04 2.69112E-02 2.02484E-05-2.04110E-04
 -1      2975 1.91895E+01 4.26264E+01 4.64535E-04-4.99133E-01-6.96681E-05-1.83183E-04
 -1      2976 1.78961E+01 4.22852E+01 4.16569E-04-1.20319E+00-1.65234E-04-1.36405E-04
 -1      2977 1.59192E+01 4.16115E+01 3.03775E-04-2.25725E+00-2.89008E-04-3.42676E-05
 -1      2978 1.34475E+01 4.04463E+01 9.86624E-05-3.77627E+00-4.60398E-04 1.53795E-04
 -1      2979 1.07210E+01 3.85986E+01-3.81402E-04-5.79951E+00-7.42697E-04 6.30439E-04
 -1      2980 8.00395E+00 3.58717E+01-1.10133E-03-8.28982E+00-1.13249E-03 1.36791E-03
 -1      2981 5.57924E+00 3.20758E+01-3.34708E-03-1.11409E+01-1.83624E-03 4.07990E-03
 -1      2982 3.78729E+00 2.70209E+01-6.35584E-03-1.41653E+01-2.36235E-03 6.32402E-03
 -1      2983 3.06773E+00 2.05434E+01-2.18379E-02-1.70070E+01-4.35881E-03 2.78577E-02
 -1      2984 3.80580E+00 1.27554E+01-7.21011E-02-1.88910E+01-2.07139E-03 4.21663E-02
 -1      2985 4.83840E+00 4.89399E+00-5.39704E-01-1.87290E+01-7.85064E-03 4.87644E-01
 -1      2986-8.20267E+00-3.11954E+01 9.35054E-02 2.77749E+01-9.60995E-02 3.89145E-02
 -1      2987-1.72518E+01 4.10886E+00-4.95786E-02 2.43533E+01 1.81647E-02 2.27242E-02
 -1      2988-1.35591E+01 2.10716E+01-3.37112E-03 1.31753E+01-5.50229E-06-5.76224E-03
 -1      2989-5.76958E+00 2.70918E+01-2.29527E-02 6.22178E+00 8.79754E-05 1.29515E-03
 -1      2990 8.83224E-01 2.96403E+01-3.48582E-03 2.97065E+00-2.00167E-03-1.01432E-03
 -1      2991 5.68681E+00 3.12323E+01-1.10731E-03 1.22805E+00-1.27975E-03-1.67775E-04
 -1      2992 9.39273E+00 3.22579E+01 1.12826E-04-2.98361E-02-5.28467E-04 2.05204E-06
 -1      2993 1.25704E+01 3.26999E+01 3.52297E-04-9.68815E-01-2.79673E-04-7.07941E-06
 -1      2994 1.53713E+01 3.26403E+01 4.27157E-04-1.46069E+00-7.61293E-05-3.38005E-05
 -1      2995 1.76477E+01 3.23015E+01 4.47619E-04-1.40266E+00-3.08317E-05-7.12113E-05
 -1      2996 1.91339E+01 3.19535E+01 4.64008E-04-8.40860E-01-1.44290E-05-9.39875E-05
 -1      2997 1.95911E+01 3.18169E+01 4.58868E-04 2.18593E-02-3.24175E-05-1.02295E-04
 -1      2998 1.88986E+01 3.19942E+01 4.34762E-04 8.76818E-01-6.74807E-05-9.31075E-05
 -1      2999 1.70945E+01 3.24406E+01 3.77632E-04 1.38238E+00-1.25063E-04-5.90032E-05
 -1      3000 1.43737E+01 3.29700E+01 2.64012E-04 1.23631E+00-2.15642E-04 2.62740E-05
 -1      3001 1.10565E+01 3.32875E+01 5.87972E-05 2.33477E-01-3.57913E-04 1.94098E-04
 -1      3002 7.54113E+00 3.30368E+01-3.53158E-04-1.69839E+00-5.86795E-04 6.11683E-04
 -1      3003 4.25611E+00 3.18505E+01-1.09840E-03-4.48514E+00-9.06932E-04 1.27013E-03
 -1      3004 1.62723E+00 2.93917E+01-2.86501E-03-7.90474E+00-1.47966E-03 3.51427E-03
 -1      3005 6.37457E-02 2.53929E+01-6.28813E-03-1.15734E+01-1.64784E-03 5.35638E-03
 -1      3006-7.76325E-02 1.97434E+01-2.02187E-02-1.48915E+01-4.40027E-03 2.27547E-02
 -1      3007 1.25841E+00 1.27911E+01-5.98567E-02-1.70088E+01 3.45955E-03 3.31746E-02
 -1      3008 2.74011E+00 5.70917E+00-3.98016E-01-1.73292E+01-1.02283E-02 3.73286E-01
 -1      3009-6.10060E+00-2.46447E+01-1.95934E-02 2.19322E+01 2.34246E-02 1.65288E-02
 -1      3010-1.48984E+01 2.45091E+00-1.70007E-02 2.21036E+01-2.25449E-02 5.31972E-03
 -1      3011-1.49732E+01 1.86146E+01 1.33681E-02 1.33654E+01 1.98849E-03-2.73612E-03
 -1      3012-9.80744E+00 2.51686E+01 9.20003E-03 5.77738E+00-3.06193E-03-5.34729E-04
 -1      3013-3.84612E+00 2.73223E+01 4.54072E-03 1.10518E+00-3.28054E-04-4.29927E-04
 -1      3014 1.39959E+00 2.77621E+01 1.08788E-03-1.65828E+00 6.45000E-05-2.82440E-05
 -1      3015 5.94307E+00 2.73520E+01 4.30349E-04-3.33827E+00 1.47343E-04-9.33146E-05
 -1      3016 9.99688E+00 2.63769E+01 2.17716E-04-4.18949E+00 1.32391E-04-7.51697E-05
 -1      3017 1.35623E+01 2.50878E+01 2.09870E-04-4.20550E+00 8.36337E-05-7.57270E-05
 -1      3018 1.64228E+01 2.38065E+01 2.31717E-04-3.38863E+00 4.99734E-05-6.96957E-05
 -1      3019 1.82732E+01 2.28695E+01 2.49024E-04-1.88188E+00 1.72185E-05-6.47480E-05
 -1      3020 1.88535E+01 2.25366E+01 2.51790E-04 1.24636E-02-1.44525E-05-5.63467E-05
 -1      3021 1.80454E+01 2.29186E+01 2.35107E-04 1.88165E+00-5.28829E-05-3.89396E-05
 -1      3022 1.59183E+01 2.39433E+01 1.90922E-04 3.28231E+00-1.04119E-04-3.36432E-06
 -1      3023 1.27297E+01 2.53610E+01 1.02157E-04 3.82493E+00-1.79722E-04 7.31744E-05
 -1      3024 8.88908E+00 2.67831E+01-6.00805E-05 3.24497E+00-2.88517E-04 2.16910E-04
 -1      3025 4.89976E+00 2.77416E+01-3.71755E-04 1.45054E+00-4.65496E-04 5.51487E-04
 -1      3026 1.29495E+00 2.77558E+01-9.29419E-04-1.45490E+00-6.54655E-04 1.06173E-03
 -1      3027-1.42075E+00 2.63991E+01-2.22530E-03-5.16667E+00-1.12890E-03 2.71776E-03
 -1      3028-2.82570E+00 2.33703E+01-4.60167E-03-9.17409E+00-7.90821E-04 3.93312E-03
 -1      3029-2.67157E+00 1.86097E+01-1.44052E-02-1.27573E+01-3.71808E-03 1.60030E-02
 -1      3030-1.10611E+00 1.25363E+01-4.19754E-02-1.50958E+01 6.51736E-03 2.09900E-02
 -1      3031 7.01732E-01 6.10887E+00-2.61209E-01-1.58633E+01-1.15403E-02 2.50314E-01
 -1      3032-4.65995E+00-1.89876E+01 3.62289E-03 1.76416E+01-1.21701E-02 1.03398E-02
 -1      3033-1.29777E+01 1.85652E+00-1.03384E-02 1.94203E+01-4.74249E-03 6.86080E-03
 -1      3034-1.52326E+01 1.62760E+01 5.14241E-03 1.26651E+01 8.62883E-04-1.98668E-03
 -1      3035-1.22339E+01 2.28114E+01 2.08248E-04 5.19051E+00-5.11062E-04 1.39425E-04
 -1      3036-7.21791E+00 2.46514E+01-4.38500E-05-2.60065E-01-1.24830E-04-3.53011E-04
 -1      3037-1.96938E+00 2.42405E+01-1.90893E-04-3.75045E+00-2.59771E-04-1.43042E-04
 -1      3038 3.01162E+00 2.27198E+01 1.40794E-04-5.77886E+00-1.46738E-04-1.03668E-04
 -1      3039 7.61862E+00 2.06290E+01 2.04256E-04-6.59205E+00-8.96886E-05-4.85026E-05
 -1      3040 1.16947E+01 1.83707E+01 2.46822E-04-6.26168E+00-3.98162E-05-3.20834E-05
 -1      3041 1.49513E+01 1.63517E+01 2.59021E-04-4.87734E+00-2.11662E-05-2.63188E-05
 -1      3042 1.70501E+01 1.49566E+01 2.62548E-04-2.66289E+00-1.66792E-05-2.53673E-05
 -1      3043 1.77189E+01 1.44691E+01 2.57766E-04 2.37329E-03-2.51686E-05-2.19219E-05
 -1      3044 1.68449E+01 1.50012E+01 2.41403E-04 2.63065E+00-4.33845E-05-1.14106E-05
 -1      3045 1.45220E+01 1.64585E+01 2.08125E-04 4.70839E+00-7.24171E-05 1.22781E-05
 -1      3046 1.10514E+01 1.85464E+01 1.46458E-04 5.78728E+00-1.16841E-04 6.33346E-05
 -1      3047 6.90242E+00 2.08118E+01 4.17862E-05 5.56361E+00-1.77030E-04 1.55003E-04
 -1      3048 2.64674E+00 2.27113E+01-1.60089E-04 3.93372E+00-2.78315E-04 3.64254E-04
 -1      3049-1.11881E+00 2.36912E+01-4.80784E-04 1.02220E+00-3.49964E-04 6.49843E-04
 -1      3050-3.85145E+00 2.32715E+01-1.33897E-03-2.81209E+00-6.69957E-04 1.64954E-03
 -1      3051-5.14534E+00 2.11388E+01-2.52253E-03-6.98521E+00-1.16771E-04 2.06524E-03
 -1      3052-4.84546E+00 1.72636E+01-8.55882E-03-1.07298E+01-2.81857E-03 9.42592E-03
 -1      3053-3.20942E+00 1.20499E+01-2.03187E-02-1.32762E+01 7.94315E-03 7.73927E-03
 -1      3054-1.15749E+00 6.21769E+00-1.40052E-01-1.44045E+01-1.11532E-02 1.36404E-01
 -1      3055-3.80779E+00-1.43901E+01-1.42221E-03 1.43252E+01-1.70242E-03 6.23005E-03
 -1      3056-1.14903E+01 1.74737E+00-6.60067E-03 1.67209E+01-5.25091E-03 4.63843E-03
 -1      3057-1.49468E+01 1.42085E+01 1.65220E-03 1.14341E+01 8.59202E-04-9.73801E-04
 -1      3058-1.35720E+01 2.02920E+01 1.37567E-03 4.40506E+00-6.33438E-04 6.63103E-05
 -1      3059-9.54213E+00 2.17646E+01 1.26023E-03-1.37577E+00-2.23083E-04-2.52482E-04
 -1      3060-4.57453E+00 2.06799E+01 7.67710E-04-5.32504E+00-1.88215E-04-9.54589E-05
 -1      3061 5.41421E-01 1.82919E+01 4.66381E-04-7.60917E+00-6.75027E-05-7.47786E-05
 -1      3062 5.44671E+00 1.53198E+01 3.16597E-04-8.40377E+00-2.29417E-05-4.54410E-05
 -1      3063 9.83534E+00 1.22925E+01 2.63835E-04-7.81782E+00-3.67480E-06-3.71680E-05
 -1      3064 1.33455E+01 9.68944E+00 2.46894E-04-6.00546E+00 1.29270E-06-3.16138E-05
 -1      3065 1.56069E+01 7.93270E+00 2.43281E-04-3.25512E+00-8.65645E-07-2.83678E-05
 -1      3066 1.63383E+01 7.32090E+00 2.41274E-04-5.69150E-03-6.63163E-06-2.45954E-05
 -1      3067 1.54321E+01 7.96448E+00 2.35629E-04 3.20033E+00-1.49101E-05-1.84211E-05
 -1      3068 1.30004E+01 9.75174E+00 2.24115E-04 5.80062E+00-2.47168E-05-8.13810E-06
 -1      3069 9.37465E+00 1.23559E+01 2.02022E-04 7.30727E+00-3.70950E-05 1.12406E-05
 -1      3070 5.06320E+00 1.52800E+01 1.73059E-04 7.39074E+00-4.68367E-05 3.76032E-05
 -1      3071 6.80576E-01 1.79309E+01 1.03565E-04 5.93992E+00-7.20543E-05 1.05414E-04
 -1      3072-3.14024E+00 1.97084E+01 6.95707E-05 3.09287E+00-3.92499E-05 1.31338E-04
 -1      3073-5.84219E+00 2.01026E+01-2.89051E-04-7.60083E-01-2.11263E-04 4.98908E-04
 -1      3074-7.04536E+00 1.87971E+01 1.26439E-05-5.00000E+00 4.68782E-04-8.11598E-05
 -1      3075-6.66646E+00 1.57746E+01-2.94321E-03-8.85224E+00-1.88811E-03 3.41929E-03
 -1      3076-5.01763E+00 1.13882E+01 1.81274E-03-1.15900E+01 8.51758E-03-5.79232E-03
 -1      3077-2.78933E+00 6.13252E+00-4.08782E-02-1.29963E+01-9.90746E-03 3.98502E-02
 -1      3078-3.23325E+00-1.07263E+01-4.23580E-04 1.16456E+01-2.81796E-03 3.75089E-03
 -1      3079-1.03207E+01 1.81424E+00-4.39448E-03 1.41602E+01-2.83337E-03 3.89178E-03
 -1      3080-1.44323E+01 1.23532E+01 1.17320E-03 9.94268E+00 4.65230E-04-6.46804E-04
 -1      3081-1.42611E+01 1.77350E+01 7.21494E-04 3.46872E+00-2.52865E-04 1.33253E-04
 -1      3082-1.11498E+01 1.87709E+01 7.46105E-04-2.36295E+00-7.11257E-05-1.72636E-04
 -1      3083-6.60524E+00 1.71167E+01 4.14661E-04-6.56499E+00-9.97031E-05-8.41724E-05
 -1      3084-1.55257E+00 1.40331E+01 3.07514E-04-9.01514E+00-5.58999E-05-7.48925E-05
 -1      3085 3.46646E+00 1.03555E+01 2.61204E-04-9.79157E+00-3.79383E-05-4.88201E-05
 -1      3086 8.01913E+00 6.71206E+00 2.48180E-04-9.01066E+00-1.85928E-05-3.64609E-05
 -1      3087 1.16755E+01 3.64173E+00 2.43705E-04-6.87050E+00-6.31355E-06-2.91377E-05
 -1      3088 1.40355E+01 1.59584E+00 2.44740E-04-3.70907E+00 2.81390E-06-2.66917E-05
 -1      3089 1.48093E+01 8.83138E-01 2.48899E-04-1.07655E-02 1.05562E-05-2.72797E-05
 -1      3090 1.38935E+01 1.61109E+00 2.56239E-04 3.64215E+00 2.01053E-05-3.11708E-05
 -1      3091 1.14133E+01 3.65467E+00 2.69672E-04 6.65359E+00 3.52272E-05-4.13517E-05
 -1      3092 7.71977E+00 6.66468E+00 2.91484E-04 8.50921E+00 5.88630E-05-6.23737E-05
 -1      3093 3.34604E+00 1.01150E+01 3.42400E-04 8.86257E+00 9.94200E-05-1.12701E-04
 -1      3094-1.06847E+00 1.33802E+01 4.07135E-04 7.59737E+00 1.44996E-04-1.93291E-04
 -1      3095-4.87249E+00 1.58317E+01 6.57626E-04 4.85854E+00 2.58506E-04-4.37564E-04
 -1      3096-7.50781E+00 1.69431E+01 7.71053E-04 1.05085E+00 2.12451E-04-6.33955E-04
 -1      3097-8.62035E+00 1.63987E+01 2.62137E-03-3.19782E+00 9.12406E-04-2.25464E-03
 -1      3098-8.17767E+00 1.41822E+01 2.22367E-03-7.12784E+00-9.87636E-04-1.73200E-03
 -1      3099-6.51841E+00 1.05917E+01 2.27133E-02-1.00428E+01 8.44051E-03-1.87540E-02
 -1      3100-4.16829E+00 5.92255E+00 3.54820E-02-1.16628E+01-8.00826E-03-3.66939E-02
 -1      3101-2.83205E+00-7.85269E+00-4.25728E-04 9.40148E+00-1.31525E-03 2.35459E-03
 -1      3102-9.38725E+00 1.90544E+00-3.14289E-03 1.17872E+01-1.96061E-03 3.08232E-03
 -1      3103-1.38354E+01 1.06639E+01 4.03306E-04 8.34408E+00 3.70543E-04-3.32927E-04
 -1      3104-1.45465E+01 1.52075E+01 4.24614E-04 2.43078E+00-1.21511E-04 1.54985E-04
 -1      3105-1.22493E+01 1.57413E+01 5.83584E-04-3.28604E+00-2.68404E-05-1.03641E-04
 -1      3106-8.19260E+00 1.35738E+01 4.47712E-04-7.58838E+00-6.52593E-05-6.06801E-05
 -1      3107-3.33515E+00 9.91486E+00 3.63048E-04-1.01258E+01-4.25394E-05-6.13465E-05
 -1      3108 1.66207E+00 5.66509E+00 3.00635E-04-1.08741E+01-2.62684E-05-4.40385E-05
 -1      3109 6.26590E+00 1.52405E+00 2.66300E-04-9.93781E+00-8.50119E-06-3.52892E-05
 -1      3110 9.98653E+00-1.92284E+00 2.51379E-04-7.54188E+00 6.47775E-06-3.03685E-05
 -1      3111 1.23960E+01-4.20151E+00 2.50531E-04-4.06068E+00 2.16320E-05-3.07239E-05
 -1      3112 1.31959E+01-4.99636E+00 2.60974E-04-1.25939E-02 4.00093E-05-3.70212E-05
 -1      3113 1.22855E+01-4.20297E+00 2.83390E-04 3.99152E+00 6.58765E-05-5.27198E-05
 -1      3114 9.79843E+00-1.95626E+00 3.24183E-04 7.33259E+00 1.04675E-04-8.59548E-05
 -1      3115 6.09802E+00 1.37941E+00 3.91825E-04 9.47900E+00 1.61639E-04-1.50096E-04
 -1      3116 1.73135E+00 5.25910E+00 5.22102E-04 1.00734E+01 2.45821E-04-2.78746E-04
 -1      3117-2.64937E+00 9.03744E+00 7.16985E-04 8.99549E+00 3.49898E-04-5.00555E-04
 -1      3118-6.38602E+00 1.20694E+01 1.23458E-03 6.39186E+00 5.19523E-04-9.99357E-04
 -1      3119-8.92554E+00 1.38198E+01 1.78102E-03 2.66960E+00 5.76789E-04-1.67183E-03
 -1      3120-9.93465E+00 1.39737E+01 5.05684E-03-1.55142E+00 1.21317E-03-4.26420E-03
 -1      3121-9.41279E+00 1.25099E+01 6.74659E-03-5.53967E+00-1.51493E-04-5.89829E-03
 -1      3122-7.71167E+00 9.68467E+00 4.07606E-02-8.62299E+00 7.78346E-03-3.03327E-02
 -1      3123-5.27685E+00 5.63353E+00 8.99001E-02-1.04170E+01-5.60125E-03-9.27664E-02
 -1      3124-2.53660E+00-5.62783E+00-2.69723E-04 7.47103E+00-8.47389E-04 1.41050E-03
 -1      3125-8.61678E+00 1.95372E+00-2.36275E-03 9.61146E+00-1.10775E-03 2.50029E-03
 -1      3126-1.32115E+01 9.09547E+00 1.39340E-04 6.72995E+00 2.58693E-04-1.61939E-04
 -1      3127-1.45760E+01 1.27347E+01 2.50186E-04 1.33593E+00-1.00627E-05 1.74455E-04
 -1      3128-1.29906E+01 1.27155E+01 4.41966E-04-4.17580E+00 2.48889E-05-4.88684E-05
 -1      3129-9.44437E+00 1.00661E+01 3.82942E-04-8.47217E+00-1.97589E-05-4.02316E-05
 -1      3130-4.86662E+00 5.91749E+00 3.29952E-04-1.10325E+01-1.90157E-05-5.12704E-05
 -1      3131 1.22047E-02 1.19662E+00 2.84337E-04-1.17384E+01-1.34567E-05-4.13786E-05
 -1      3132 4.58320E+00-3.34974E+00 2.60081E-04-1.06714E+01 5.34186E-07-3.46671E-05
 -1      3133 8.30599E+00-7.10198E+00 2.52128E-04-8.07085E+00 1.83171E-05-3.12628E-05
 -1      3134 1.07273E+01-9.56898E+00 2.58542E-04-4.33661E+00 4.10726E-05-3.46274E-05
 -1      3135 1.15405E+01-1.04305E+01 2.79539E-04-1.16869E-02 7.12833E-05-4.76720E-05
 -1      3136 1.06452E+01-9.58472E+00 3.18717E-04 4.27304E+00 1.13600E-04-7.65998E-05
 -1      3137 8.18007E+00-7.17365E+00 3.86256E-04 7.88340E+00 1.74179E-04-1.33941E-04
 -1      3138 4.51508E+00-3.57132E+00 4.96016E-04 1.02771E+01 2.59396E-04-2.40237E-04
 -1      3139 2.03713E-01 6.66049E-01 6.95047E-04 1.10899E+01 3.76964E-04-4.41286E-04
 -1      3140-4.09748E+00 4.88180E+00 1.00095E-03 1.01980E+01 5.23266E-04-7.85441E-04
 -1      3141-7.73068E+00 8.42193E+00 1.73924E-03 7.74621E+00 7.22023E-04-1.49850E-03
 -1      3142-1.01502E+01 1.07468E+01 2.66306E-03 4.13567E+00 8.61458E-04-2.54177E-03
 -1      3143-1.10364E+01 1.15401E+01 7.11131E-03-3.18543E-02 1.36365E-03-5.92964E-03
 -1      3144-1.04027E+01 1.07724E+01 1.04533E-02-4.06098E+00 6.20382E-04-8.99843E-03
 -1      3145-8.60379E+00 8.67741E+00 5.46795E-02-7.30775E+00 6.51842E-03-3.97157E-02
 -1      3146-6.09713E+00 5.29228E+00 1.23895E-01-9.26408E+00-2.69984E-03-1.28835E-01
 -1      3147-2.30459E+00-3.92750E+00-1.10950E-04 5.78063E+00-3.57637E-04 7.91726E-04
 -1      3148-7.94810E+00 1.93276E+00-1.80492E-03 7.63061E+00-4.76483E-04 1.98085E-03
 -1      3149-1.25758E+01 7.61135E+00-1.09674E-04 5.15272E+00 2.09151E-04-2.85711E-05
 -1      3150-1.44357E+01 1.03211E+01 1.23574E-04 2.16132E-01 7.19302E-05 1.83130E-04
 -1      3151-1.34757E+01 9.71418E+00 3.23737E-04-5.04864E+00 6.24224E-05-6.20349E-06
 -1      3152-1.04412E+01 6.60191E+00 3.36919E-04-9.26765E+00 1.25996E-05-2.41166E-05
 -1      3153-6.19599E+00 2.02535E+00 3.14735E-04-1.18004E+01-2.41323E-06-4.25537E-05
 -1      3154-1.50368E+00-3.08927E+00 2.83977E-04-1.24477E+01-2.57524E-06-3.82458E-05
 -1      3155 2.97235E+00-7.96850E+00 2.63516E-04-1.12645E+01 1.06750E-05-3.36117E-05
 -1      3156 6.65040E+00-1.19695E+01 2.57129E-04-8.49524E+00 3.23474E-05-3.23699E-05
 -1      3157 9.05484E+00-1.45893E+01 2.66650E-04-4.55665E+00 6.21235E-05-3.94603E-05
 -1      3158 9.87059E+00-1.55043E+01 2.94448E-04-8.81112E-03 1.02257E-04-5.95840E-05
 -1      3159 8.99655E+00-1.46151E+01 3.45667E-04 4.50411E+00 1.57425E-04-1.01109E-04
 -1      3160 6.57338E+00-1.20681E+01 4.32625E-04 8.33871E+00 2.33682E-04-1.79783E-04
 -1      3161 2.97331E+00-8.24296E+00 5.73089E-04 1.09466E+01 3.37424E-04-3.20934E-04
 -1      3162-1.24921E+00-3.70158E+00 8.21990E-04 1.19598E+01 4.73643E-04-5.78088E-04
 -1      3163-5.43900E+00 8.94008E-01 1.21371E-03 1.12514E+01 6.42995E-04-1.01158E-03
 -1      3164-8.94291E+00 4.88573E+00 2.11693E-03 8.96157E+00 8.45099E-04-1.87510E-03
 -1      3165-1.12227E+01 7.73119E+00 3.35842E-03 5.48111E+00 1.05077E-03-3.16943E-03
 -1      3166-1.19649E+01 9.10997E+00 8.57061E-03 1.38853E+00 1.35711E-03-7.08351E-03
 -1      3167-1.11796E+01 8.98156E+00 1.31422E-02-2.66106E+00 1.34828E-03-1.09490E-02
 -1      3168-9.20725E+00 7.56961E+00 6.33128E-02-6.06364E+00 4.52597E-03-4.60516E-02
 -1      3169-6.60584E+00 4.90803E+00 1.38959E-01-8.20327E+00 8.01615E-04-1.45524E-01
 -1      3170-2.10232E+00-2.64318E+00 9.05533E-05 4.28981E+00-1.31648E-05 3.33924E-04
 -1      3171-7.32422E+00 1.83478E+00-1.30815E-03 5.83970E+00 9.90347E-05 1.54163E-03
 -1      3172-1.19202E+01 6.18122E+00-2.97983E-04 3.64096E+00 1.88406E-04 9.07748E-05
 -1      3173-1.41744E+01 7.96052E+00 5.12526E-05-9.08123E-01 1.50308E-04 2.04267E-04
 -1      3174-1.37745E+01 6.74548E+00 2.44043E-04-5.91415E+00 9.89830E-05 3.88648E-05
 -1      3175-1.12444E+01 3.18387E+00 2.96626E-04-1.00096E+01 4.44822E-05-2.33961E-06
 -1      3176-7.36409E+00-1.77428E+00 2.95299E-04-1.24756E+01 1.59093E-05-2.91276E-05
 -1      3177-2.90547E+00-7.22260E+00 2.78960E-04-1.30487E+01 9.81004E-06-3.10106E-05
 -1      3178 1.43042E+00-1.23773E+01 2.67395E-04-1.17566E+01 2.12563E-05-2.90812E-05
 -1      3179 5.02873E+00-1.65819E+01 2.68173E-04-8.84339E+00 4.50032E-05-3.02107E-05
 -1      3180 7.39442E+00-1.93255E+01 2.84926E-04-4.73580E+00 7.93615E-05-4.07865E-05
 -1      3181 8.20429E+00-2.02830E+01 3.21532E-04-4.89209E-03 1.25797E-04-6.69049E-05
 -1      3182 7.35521E+00-1.93563E+01 3.84680E-04 4.69711E+00 1.88342E-04-1.18231E-04
 -1      3183 4.98767E+00-1.66944E+01 4.88428E-04 8.72204E+00 2.72212E-04-2.12072E-04
 -1      3184 1.47294E+00-1.26791E+01 6.53457E-04 1.15190E+01 3.83299E-04-3.75838E-04
 -1      3185-2.63745E+00-7.87434E+00 9.37090E-04 1.27180E+01 5.23458E-04-6.65844E-04
 -1      3186-6.69368E+00-2.94321E+00 1.38534E-03 1.21896E+01 6.98561E-04-1.14755E-03
 -1      3187-1.00499E+01 1.45518E+00 2.35927E-03 1.00682E+01 8.80735E-04-2.08160E-03
 -1      3188-1.21748E+01 4.77633E+00 3.77139E-03 6.73171E+00 1.13374E-03-3.48668E-03
 -1      3189-1.27548E+01 6.69263E+00 9.03937E-03 2.73406E+00 1.18206E-03-7.54030E-03
 -1      3190-1.17784E+01 7.14914E+00 1.46032E-02-1.30971E+00 2.05047E-03-1.16273E-02
 -1      3191-9.54542E+00 6.35647E+00 6.53689E-02-4.84527E+00 1.59055E-03-4.83327E-02
 -1      3192-6.77036E+00 4.46950E+00 1.35988E-01-7.22486E+00 5.11015E-03-1.42998E-01
 -1      3193-1.89537E+00-1.68078E+00 2.60502E-04 2.98409E+00 2.84706E-04-4.30079E-07
 -1      3194-6.68829E+00 1.65723E+00-9.33240E-04 4.23357E+00 6.58358E-04 1.04343E-03
 -1      3195-1.12255E+01 4.77861E+00-4.89208E-04 2.20709E+00 1.78701E-04 1.49936E-04
 -1      3196-1.38186E+01 5.64102E+00-3.75541E-06-2.02649E+00 2.05059E-04 1.68683E-04
 -1      3197-1.39355E+01 3.80994E+00 2.08346E-04-6.77986E+00 1.06904E-04 3.11516E-05
 -1      3198-1.19007E+01-1.88488E-01 2.88359E-04-1.07231E+01 4.94789E-05-1.53568E-05
 -1      3199-8.40437E+00-5.49193E+00 2.89909E-04-1.30923E+01 1.34840E-05-3.70274E-05
 -1      3200-4.21123E+00-1.12266E+01 2.68915E-04-1.35760E+01 6.74998E-06-3.60102E-05
 -1      3201-4.75733E-02-1.66109E+01 2.50379E-04-1.21776E+01 1.93442E-05-3.16915E-05
 -1      3202 3.44544E+00-2.09826E+01 2.45325E-04-9.13690E+00 4.54528E-05-3.20339E-05
 -1      3203 5.75606E+00-2.38268E+01 2.57593E-04-4.88559E+00 8.20657E-05-4.31602E-05
 -1      3204 6.55337E+00-2.48173E+01 2.89884E-04-8.86459E-04 1.29811E-04-7.09117E-05
 -1      3205 5.73138E+00-2.38570E+01 3.46927E-04 4.86110E+00 1.91713E-04-1.24355E-04
 -1      3206 3.42867E+00-2.10957E+01 4.39705E-04 9.05085E+00 2.71422E-04-2.19595E-04
 -1      3207 1.31852E-02-1.69151E+01 5.85757E-04 1.20174E+01 3.73502E-04-3.81686E-04
 -1      3208-3.96933E+00-1.18779E+01 8.34249E-04 1.33907E+01 4.95372E-04-6.62038E-04
 -1      3209-7.87714E+00-6.64548E+00 1.23702E-03 1.30388E+01 6.49242E-04-1.11967E-03
 -1      3210-1.10736E+01-1.87590E+00 2.10557E-03 1.10895E+01 7.75804E-04-1.99309E-03
 -1      3211-1.30333E+01 1.88448E+00 3.51553E-03 7.90780E+00 1.06044E-03-3.29910E-03
 -1      3212-1.34369E+01 4.29692E+00 8.22527E-03 4.02380E+00 8.15539E-04-6.99968E-03
 -1      3213-1.22365E+01 5.29045E+00 1.53443E-02 1.95309E-02 2.78834E-03-1.09536E-02
 -1      3214-9.66295E+00 5.04052E+00 5.93767E-02-3.59621E+00-2.73656E-03-4.53100E-02
 -1      3215-6.54570E+00 3.93695E+00 1.15669E-01-6.30147E+00 1.08723E-02-1.20824E-01
 -1      3216-1.63687E+00-9.63409E-01 4.15555E-04 1.87174E+00 5.58964E-04-3.91945E-04
 -1      3217-5.97921E+00 1.39530E+00-3.23366E-04 2.80551E+00 1.22894E-03 7.65239E-04
 -1      3218-1.04658E+01 3.37815E+00-5.96311E-04 8.51577E-01 2.69461E-04 3.85468E-04
 -1      3219-1.33814E+01 3.34727E+00-8.69726E-05-3.13668E+00 3.40253E-04 3.27814E-04
 -1      3220-1.39925E+01 9.02825E-01 1.27711E-04-7.65270E+00 1.97223E-04 1.46666E-04
 -1      3221-1.24459E+01-3.51862E+00 2.97190E-04-1.14258E+01 1.25928E-04 4.15464E-05
 -1      3222-9.34440E+00-9.13707E+00 3.72547E-04-1.36744E+01 6.96566E-05-1.94071E-05
 -1      3223-5.43764E+00-1.51194E+01 4.06775E-04-1.40544E+01 4.78743E-05-4.46992E-05
 -1      3224-1.46867E+00-2.06960E+01 4.21618E-04-1.25488E+01 4.70074E-05-5.64872E-05
 -1      3225 1.90049E+00-2.52050E+01 4.34196E-04-9.39111E+00 6.02192E-05-6.64943E-05
 -1      3226 4.14385E+00-2.81303E+01 4.53336E-04-5.01424E+00 8.24786E-05-8.25932E-05
 -1      3227 4.92336E+00-2.91458E+01 4.85469E-04 2.42446E-03 1.12889E-04-1.10877E-04
 -1      3228 4.12959E+00-2.81543E+01 5.37670E-04 5.00228E+00 1.53130E-04-1.59275E-04
 -1      3229 1.89794E+00-2.53052E+01 6.21986E-04 9.33715E+00 2.05270E-04-2.41002E-04
 -1      3230-1.40872E+00-2.09782E+01 7.58554E-04 1.24581E+01 2.73386E-04-3.76521E-04
 -1      3231-5.25242E+00-1.57325E+01 9.92052E-04 1.39957E+01 3.51822E-04-6.06164E-04
 -1      3232-9.00140E+00-1.02255E+01 1.38987E-03 1.38163E+01 4.63414E-04-9.78349E-04
 -1      3233-1.20292E+01-5.11338E+00 2.16792E-03 1.20411E+01 5.21897E-04-1.66708E-03
 -1      3234-1.38162E+01-9.44082E-01 3.59238E-03 9.02292E+00 8.53467E-04-2.69901E-03
 -1      3235-1.40338E+01 1.92866E+00 7.10960E-03 5.27301E+00 3.57455E-04-5.48540E-03
 -1      3236-1.25938E+01 3.42062E+00 1.48728E-02 1.35168E+00 3.32405E-03-9.06270E-03
 -1      3237-9.64396E+00 3.64025E+00 3.85734E-02-2.26026E+00-8.99169E-03-3.43522E-02
 -1      3238-5.87995E+00 3.22556E+00 7.46737E-02-5.36163E+00 1.86623E-02-7.58192E-02
 -1      3239-1.26279E+00-4.36485E-01 1.18811E-03 9.81181E-01 1.08659E-03-1.98523E-04
 -1      3240-5.13442E+00 1.03893E+00 2.73848E-04 1.54725E+00 1.62085E-03-4.39649E-04
 -1      3241-9.61540E+00 1.95925E+00 4.64224E-05-4.34037E-01 2.55606E-04-3.20893E-04
 -1      3242-1.28721E+01 1.06701E+00 9.97431E-05-4.24240E+00 1.27800E-04-3.55816E-04
 -1      3243-1.39745E+01-1.97886E+00-9.27113E-05-8.54088E+00-6.00233E-05-3.46151E-04
 -1      3244-1.29125E+01-6.80814E+00-1.97705E-04-1.21337E+01-1.05328E-04-3.06996E-04
 -1      3245-1.02106E+01-1.27169E+01-2.74294E-04-1.42436E+01-1.11367E-04-2.65354E-04
 -1      3246-6.60148E+00-1.89169E+01-3.16859E-04-1.45066E+01-8.73425E-05-2.31203E-04
 -1      3247-2.84041E+00-2.46570E+01-3.38306E-04-1.28902E+01-5.72306E-05-2.10855E-04
 -1      3248 3.93389E-01-2.92803E+01-3.46120E-04-9.62090E+00-2.90295E-05-2.01803E-04
 -1      3249 2.56167E+00-3.22719E+01-3.45608E-04-5.12988E+00-5.93278E-06-2.01318E-04
 -1      3250 3.31979E+00-3.33057E+01-3.39298E-04 4.19108E-03 1.24439E-05-2.07213E-04
 -1      3251 2.55459E+00-3.22845E+01-3.28108E-04 5.12672E+00 2.75335E-05-2.18654E-04
 -1      3252 3.97485E-01-2.93560E+01-3.11921E-04 9.59287E+00 3.97277E-05-2.36212E-04
 -1      3253-2.79492E+00-2.48963E+01-2.90011E-04 1.28570E+01 5.33927E-05-2.60268E-04
 -1      3254-6.49377E+00-1.94597E+01-2.57085E-04 1.45516E+01 6.07968E-05-2.96603E-04
 -1      3255-1.00787E+01-1.36987E+01-2.00985E-04 1.45415E+01 1.10121E-04-3.46583E-04
 -1      3256-1.29344E+01-8.26605E+00-6.83613E-05 1.29420E+01 7.63927E-05-4.68837E-04
 -1      3257-1.45485E+01-3.71105E+00 3.20553E-04 1.00951E+01 5.24243E-04-7.23555E-04
 -1      3258-1.45830E+01-4.02840E-01 1.12211E-03 6.49877E+00-4.81672E-04-1.75984E-03
 -1      3259-1.29175E+01 1.56076E+00 4.53820E-03 2.69550E+00 3.13026E-03-4.67294E-03
 -1      3260-9.59172E+00 2.20358E+00-3.18000E-04-8.33642E-01-1.92375E-02-1.02068E-02
 -1      3261-4.72936E+00 2.25063E+00 3.81262E-02-4.23145E+00 3.44272E-02-9.19341E-03
 -1      3262-6.80825E-01-9.33125E-02-1.30243E-03 3.46720E-01 1.68585E-03-1.33310E-03
 -1      3263-4.08856E+00 5.57609E-01-7.93755E-04 4.31448E-01 1.44973E-03 4.88789E-04
 -1      3264-8.64568E+00 4.84949E-01-1.06571E-03-1.67743E+00 8.82713E-04 3.97445E-04
 -1      3265-1.22833E+01-1.23197E+00-3.02583E-04-5.35895E+00 6.00115E-04 1.10151E-04
 -1      3266-1.38864E+01-4.85812E+00 1.71464E-04-9.45103E+00 4.81845E-04-1.79416E-04
 -1      3267-1.33119E+01-1.00736E+01 5.15818E-04-1.28494E+01 4.01043E-04-4.40913E-04
 -1      3268-1.10163E+01-1.62447E+01 7.06315E-04-1.48002E+01 3.48242E-04-6.42221E-04
 -1      3269-7.71669E+00-2.26315E+01 7.96398E-04-1.49321E+01 2.96506E-04-7.94239E-04
 -1      3270-4.17727E+00-2.85063E+01 8.28964E-04-1.32008E+01 2.34915E-04-9.06918E-04
 -1      3271-1.09100E+00-3.32211E+01 8.31883E-04-9.82516E+00 1.55168E-04-9.87119E-04
 -1      3272 9.93818E-01-3.62641E+01 8.19411E-04-5.23194E+00 5.67527E-05-1.03646E-03
 -1      3273 1.72684E+00-3.73100E+01 7.96719E-04 4.02399E-03-5.71778E-05-1.05424E-03
 -1      3274 9.91093E-01-3.62608E+01 7.64519E-04 5.23291E+00-1.80133E-04-1.03956E-03
 -1      3275-1.08677E+00-3.32613E+01 7.22500E-04 9.81541E+00-3.06993E-04-9.91248E-04
 -1      3276-4.15768E+00-2.86828E+01 6.69445E-04 1.32108E+01-4.25380E-04-9.14216E-04
 -1      3277-7.70333E+00-2.30727E+01 6.09001E-04 1.50543E+01-5.50262E-04-8.03716E-04
 -1      3278-1.11163E+01-1.70766E+01 5.16263E-04 1.52093E+01-6.25236E-04-7.06747E-04
 -1      3279-1.37935E+01-1.13425E+01 3.88234E-04 1.37856E+01-9.00636E-04-5.24074E-04
 -1      3280-1.52317E+01-6.42234E+00-1.57502E-04 1.11137E+01-8.01965E-04-6.44057E-04
 -1      3281-1.50825E+01-2.69501E+00-1.51787E-03 7.68572E+00-3.29611E-03 4.83580E-04
 -1      3282-1.32039E+01-2.96565E-01-8.20603E-03 4.02555E+00-1.34380E-03 4.34342E-04
 -1      3283-9.47828E+00 7.89514E-01-2.97567E-02 6.93039E-01-2.89183E-02 3.28446E-02
 -1      3284-3.39910E+00 1.05259E+00-3.32374E-02-2.52282E+00 7.28716E-02 8.88624E-02
 -1      3285-1.94387E+02-1.25593E+02-1.66595E+01 1.20134E+02 1.54937E+01 1.13521E+01
 -1      3286 3.78011E+01 2.12940E+02-5.32930E-01-7.22345E+01 3.41745E+01 6.06205E+00
 -1      3287 1.31963E+01-1.31806E+01 2.24088E+00-3.71816E+01-1.74697E+00-2.54584E+00
 -1      3288 8.44727E+01 1.31643E+01 1.14749E+01 2.46754E+00-7.15024E+00-1.27223E+00
 -1      3289 4.31367E+01 1.27754E+01-9.02418E-01 2.46827E+00 6.04550E-01 4.24125E-01
 -1      3290 6.90109E+01 1.81171E+01 9.00055E-01 1.71038E+01 3.06109E+00-7.61644E-01
 -1      3291 5.16841E+01 1.63901E+01 2.70466E-01 1.50519E+01-1.03531E-01-4.35245E-01
 -1      3292 5.74521E+01 2.15180E+01 7.59021E-01 2.99204E+01-5.71099E-01-2.37167E-01
 -1      3293 4.48345E+01 2.72580E+01-4.80856E-02 2.53168E+01 4.75958E-02 2.13544E-02
 -1      3294 4.89759E+01 3.28506E+01 1.14831E-01 3.53725E+01 1.90674E-01-1.26555E-01
 -1      3295 3.87602E+01 3.84846E+01 1.86916E-02 2.98463E+01-1.52351E-02-4.32398E-02
 -1      3296 4.10649E+01 4.56734E+01 5.68463E-02 3.90212E+01-6.02258E-02-2.94154E-02
 -1      3297 3.25260E+01 5.04465E+01-1.11417E-04 3.14740E+01-1.86258E-03 6.14997E-03
 -1      3298 3.32447E+01 5.98732E+01 9.90163E-03 3.99073E+01-6.00315E-03-1.50417E-02
 -1      3299 2.66498E+01 6.22514E+01 1.47942E-03 3.04506E+01-7.28077E-03 7.98560E-03
 -1      3300 2.52007E+01 7.42267E+01-3.83158E-04 3.77077E+01-2.06282E-02 1.56239E-03
 -1      3301 2.11544E+01 7.31738E+01 5.16633E-04 2.69604E+01-5.11668E-03 1.53627E-02
 -1      3302 1.75478E+01 8.74354E+01-5.86756E-03 3.21646E+01-1.44976E-02 8.09481E-03
 -1      3303 1.64211E+01 8.23661E+01 2.18585E-04 2.11853E+01-4.37431E-03 1.82314E-02
 -1      3304 1.11497E+01 9.81200E+01-7.97231E-03 2.34933E+01-1.13666E-02 1.33965E-02
 -1      3305 1.29115E+01 8.90251E+01 1.52597E-04 1.35309E+01-2.68136E-03 2.03732E-02
 -1      3306 6.88672E+00 1.05085E+02-9.01111E-03 1.23981E+01-6.13420E-03 1.63466E-02
 -1      3307 1.10391E+01 9.25150E+01 9.44771E-05 4.63973E+00-9.34979E-04 2.14590E-02
 -1      3308 5.39211E+00 1.07507E+02-9.42793E-03-1.57504E-02-6.73576E-04 1.75882E-02
 -1      3309 1.10300E+01 9.24789E+01 9.65217E-05-4.65659E+00 9.27587E-04 2.18062E-02
 -1      3310 6.88477E+00 1.05070E+02-9.49124E-03-1.24085E+01 4.87145E-03 1.71498E-02
 -1      3311 1.28359E+01 8.89060E+01 9.90138E-05-1.34470E+01 2.71274E-03 2.15193E-02
 -1      3312 1.10951E+01 9.80188E+01-9.29161E-03-2.34152E+01 9.99493E-03 1.52036E-02
 -1      3313 1.61050E+01 8.21443E+01 1.13025E-04-2.08722E+01 4.32362E-03 2.07070E-02
 -1      3314 1.72850E+01 8.71193E+01-8.88144E-03-3.18570E+01 1.43901E-02 1.19836E-02
 -1      3315 2.02141E+01 7.28558E+01 1.29904E-04-2.62533E+01 5.63448E-03 1.95350E-02
 -1      3316 2.43503E+01 7.35424E+01-8.21642E-03-3.69199E+01 1.77131E-02 7.64384E-03
 -1      3317 2.43476E+01 6.19235E+01 1.79519E-04-2.91942E+01 6.72815E-03 1.80168E-02
 -1      3318 3.09806E+01 5.86900E+01-7.37929E-03-3.82721E+01 2.01787E-02 2.79073E-03
 -1      3319 2.76051E+01 5.03302E+01 2.96030E-04-2.96412E+01 7.10172E-03 1.68394E-02
 -1      3320 3.58428E+01 4.39928E+01-5.51667E-03-3.61098E+01 2.03769E-02-3.90186E-03
 -1      3321 2.91138E+01 3.90183E+01 2.83232E-04-2.79074E+01 9.01311E-03 1.45204E-02
 -1      3322 3.77409E+01 3.07111E+01-4.01072E-03-3.11205E+01 2.46121E-02-8.50293E-03
 -1      3323 2.81213E+01 2.87833E+01 2.63992E-03-2.46486E+01 4.88832E-03 1.70552E-02
 -1      3324 3.57471E+01 1.97645E+01 6.95759E-03-2.44169E+01 9.96137E-03-2.75049E-02
 -1      3325 2.41028E+01 2.00254E+01-5.46318E-03-2.09328E+01 2.50062E-02 3.76233E-03
 -1      3326 2.91121E+01 1.16346E+01 1.68856E-02-1.74642E+01 6.58465E-02-4.23450E-02
 -1      3327 1.70932E+01 1.29932E+01 4.55041E-02-1.79783E+01-3.70134E-02 2.78245E-02
 -1      3328 1.79062E+01 6.30341E+00 1.64808E-01-1.19021E+01-1.32020E-01-1.81265E-01
 -1      3329 8.35290E+00 5.66844E+00-1.38955E-01-1.79904E+01 1.68118E-01-1.00650E-01
 -1      3330 3.38787E+00 1.89465E+00 1.03278E+00-1.08431E+01 2.98558E-01-1.05409E+00
 -1      3331 5.04767E+00 4.56231E-01 6.11351E-01-1.62950E+01-5.08856E-01 5.86674E-02
 -1      3332-6.29349E+00-1.21641E+02-4.38367E+00 4.80282E+01-1.05519E+01 3.14315E+00
 -1      3333-5.58579E+01 9.09995E+00-3.45880E-01 8.14320E+01-1.22451E+01 9.88530E-01
 -1      3334-3.12156E+01 4.66543E+00-1.81746E-01 3.34964E+01 2.85236E+00-5.43860E-01
 -1      3335 6.69906E+00 8.52930E+00-3.91132E+00 5.07061E-02 1.19685E+00 4.77185E-02
 -1      3336 5.01600E+00 2.17275E+01-4.60864E-01 6.11276E+00-7.99150E-01 2.58592E-01
 -1      3337 3.45453E+01 1.68349E+01-1.23694E+00 9.06109E+00-7.32530E-01 4.99231E-01
 -1      3338 2.43774E+01 2.35972E+01 1.65617E-01 9.30674E+00 1.34410E-01-2.16678E-02
 -1      3339 3.80861E+01 2.28698E+01-2.24869E-01 1.72870E+01 1.31298E-01 3.41085E-02
 -1      3340 2.80028E+01 2.90591E+01-5.84274E-02 1.50463E+01-6.34034E-02 1.88031E-02
 -1      3341 3.48532E+01 3.25869E+01-1.28344E-01 2.29800E+01-3.77490E-02 3.97550E-02
 -1      3342 2.71552E+01 3.70135E+01 1.72401E-02 1.85438E+01 4.77829E-03-4.73269E-04
 -1      3343 3.08152E+01 4.27500E+01-2.06026E-02 2.55036E+01 7.53219E-03 3.94947E-03
 -1      3344 2.47518E+01 4.53921E+01-4.19438E-03 1.95657E+01-5.56336E-03 4.29427E-03
 -1      3345 2.65074E+01 5.29926E+01-9.04831E-03 2.55619E+01-6.14077E-03 5.08267E-03
 -1      3346 2.22558E+01 5.33697E+01 1.50409E-03 1.85718E+01-5.01834E-04 3.10081E-03
 -1      3347 2.24250E+01 6.25901E+01 2.64220E-03 2.34925E+01-4.55478E-03 3.80064E-03
 -1      3348 2.00176E+01 6.03436E+01-1.07774E-04 1.60293E+01-6.57838E-04 3.97174E-03
 -1      3349 1.87858E+01 7.09209E+01 5.82068E-03 1.95309E+01-5.13354E-03 5.40253E-03
 -1      3350 1.82234E+01 6.59263E+01 2.17491E-04 1.23003E+01-2.31505E-04 4.11002E-03
 -1      3351 1.58881E+01 7.73882E+01 7.84747E-03 1.39854E+01-3.86771E-03 6.74153E-03
 -1      3352 1.69664E+01 6.98147E+01 1.23715E-04 7.71908E+00-1.09319E-04 4.35308E-03
 -1      3353 1.40117E+01 8.14850E+01 8.79144E-03 7.28607E+00-2.19129E-03 7.77038E-03
 -1      3354 1.63085E+01 7.17960E+01 1.58924E-04 2.63069E+00-9.47252E-06 4.45853E-03
 -1      3355 1.33535E+01 8.28682E+01 9.24397E-03-6.97487E-03-1.34388E-04 8.21353E-03
 -1      3356 1.62586E+01 7.17634E+01 1.71802E-04-2.59544E+00 7.20666E-05 4.51868E-03
 -1      3357 1.39539E+01 8.14171E+01 9.34672E-03-7.25034E+00 1.97763E-03 8.04303E-03
 -1      3358 1.67481E+01 6.97380E+01 1.89779E-04-7.58140E+00 1.43618E-04 4.52941E-03
 -1      3359 1.56553E+01 7.72635E+01 9.19352E-03-1.37955E+01 3.96285E-03 7.29745E-03
 -1      3360 1.76146E+01 6.58771E+01 2.13259E-04-1.19765E+01 2.10676E-04 4.51290E-03
 -1      3361 1.81002E+01 7.07824E+01 8.83060E-03-1.90788E+01 5.65754E-03 6.05418E-03
 -1      3362 1.86046E+01 6.04632E+01 2.39458E-04-1.55011E+01 2.88632E-04 4.45918E-03
 -1      3363 2.07675E+01 6.25454E+01 8.30985E-03-2.27036E+01 6.91552E-03 4.50380E-03
 -1      3364 1.93956E+01 5.38735E+01 3.46796E-04-1.79878E+01 3.65096E-04 4.43282E-03
 -1      3365 2.30380E+01 5.32443E+01 7.60683E-03-2.45018E+01 7.73422E-03 2.66796E-03
 -1      3366 1.96334E+01 4.65329E+01 5.02399E-04-1.94145E+01 5.43889E-04 4.19537E-03
 -1      3367 2.42731E+01 4.35974E+01 6.72264E-03-2.45668E+01 7.77583E-03 1.57645E-03
 -1      3368 1.89823E+01 3.88547E+01 9.10937E-04-1.99286E+01 7.26640E-04 4.49825E-03
 -1      3369 2.39014E+01 3.42496E+01 5.64935E-03-2.32663E+01 8.32360E-03-4.10548E-04
 -1      3370 1.72002E+01 3.11551E+01 3.06762E-03-1.98659E+01 1.14332E-03 2.34163E-03
 -1      3371 2.14781E+01 2.56512E+01-4.65225E-04-2.12430E+01 5.76626E-03 5.20895E-03
 -1      3372 1.42787E+01 2.35424E+01-1.49719E-03-1.97512E+01 2.41604E-03 6.20264E-03
 -1      3373 1.69868E+01 1.79203E+01-2.34405E-03-1.94245E+01 1.70535E-02 1.92532E-03
 -1      3374 1.08329E+01 1.57670E+01 3.87408E-02-2.01223E+01-5.36669E-03-1.90385E-02
 -1      3375 1.08020E+01 1.04418E+01-1.03255E-01-1.89992E+01-3.95421E-02 3.56590E-02
 -1      3376 8.33704E+00 7.17990E+00-8.39477E-02-2.06894E+01 2.78159E-02-3.23429E-03
 -1      3377 6.50956E+00 1.63763E+00-2.96344E-01-1.94073E+01-1.86092E-02 1.62221E-01
 -1      3378 8.79758E+00 1.49536E+00 7.05886E-01-1.85285E+01-1.19369E-01-4.64107E-01
 -1      3379-1.30298E+01-8.59658E+01-1.78571E-01 3.22306E+01 1.64371E+00 1.51817E-01
 -1      3380-3.51032E+01-3.49671E+01-9.85742E-01 5.40178E+01 1.54956E+00-2.70067E-01
 -1      3381-2.29459E+01-9.77948E+00 4.96828E-01 3.18948E+01-3.28795E-01-1.64655E-01
 -1      3382-1.23804E+01 1.94260E+01 9.45688E-01 1.30345E+01-3.34335E-01-4.84462E-02
 -1      3383-8.59244E+00 1.89915E+01 2.69471E-01 1.37376E+01 8.14817E-02-1.10852E-02
 -1      3384 1.13792E+01 2.40245E+01 6.20588E-01 6.00624E+00 1.23355E-01 2.36696E-02
 -1      3385 6.68163E+00 2.55387E+01 5.56092E-02 8.19075E+00 6.69880E-03-6.48713E-03
 -1      3386 2.04838E+01 2.68681E+01 2.02609E-01 1.00398E+01-3.09403E-03-3.05218E-02
 -1      3387 1.44826E+01 2.99179E+01-1.06801E-03 9.26304E+00 1.12503E-02-3.74443E-03
 -1      3388 2.25801E+01 3.26043E+01 4.15007E-02 1.37924E+01 7.66734E-03-5.42391E-04
 -1      3389 1.73181E+01 3.51218E+01 4.77666E-03 1.07427E+01 3.79743E-03-9.01243E-04
 -1      3390 2.20633E+01 3.95647E+01 2.19343E-02 1.53918E+01 8.42184E-04-4.20600E-03
 -1      3391 1.80311E+01 4.05663E+01-8.05901E-04 1.10114E+01 1.33293E-03-1.04817E-03
 -1      3392 2.08233E+01 4.64008E+01 2.96345E-03 1.51568E+01-4.49914E-04 1.20333E-03
 -1      3393 1.81577E+01 4.55358E+01 1.41985E-03 1.00870E+01 6.66231E-04-1.33048E-04
 -1      3394 1.96194E+01 5.24926E+01 2.07688E-03 1.35127E+01-8.03335E-04 1.06219E-03
 -1      3395 1.82498E+01 4.96250E+01 1.32176E-03 8.35032E+00 4.81619E-05-6.50746E-05
 -1      3396 1.86597E+01 5.74734E+01 2.25804E-04 1.08827E+01-8.27377E-04 2.06650E-03
 -1      3397 1.84339E+01 5.26850E+01 1.74204E-03 6.15375E+00 1.03749E-05 1.29401E-04
 -1      3398 1.79938E+01 6.11419E+01 8.14969E-05 7.58664E+00-6.43224E-04 2.34747E-03
 -1      3399 1.86388E+01 5.46911E+01 1.90075E-03 3.74355E+00-5.02848E-05 1.89468E-04
 -1      3400 1.76007E+01 6.33737E+01-8.95130E-05 3.88653E+00-3.48678E-04 2.62194E-03
 -1      3401 1.87491E+01 5.56698E+01 2.00934E-03 1.26519E+00-6.31120E-06 2.31980E-04
 -1      3402 1.74426E+01 6.41046E+01-1.16856E-04 1.36875E-02-1.38365E-05 2.71993E-03
 -1      3403 1.86619E+01 5.56581E+01 2.05305E-03-1.20292E+00 4.15016E-05 2.40858E-04
 -1      3404 1.74636E+01 6.33295E+01-1.37124E-04-3.81406E+00 3.27605E-04 2.71162E-03
 -1      3405 1.83084E+01 5.46906E+01 2.05105E-03-3.61826E+00 1.05258E-04 2.26107E-04
 -1      3406 1.75811E+01 6.11093E+01-1.56671E-04-7.39307E+00 6.34364E-04 2.60395E-03
 -1      3407 1.76520E+01 5.28000E+01 2.01662E-03-5.95268E+00 1.77317E-04 1.86087E-04
 -1      3408 1.76780E+01 5.75738E+01-1.96706E-04-1.05474E+01 8.69047E-04 2.43502E-03
 -1      3409 1.66793E+01 5.00234E+01 1.99407E-03-8.18242E+00 2.56985E-04 1.05459E-04
 -1      3410 1.76036E+01 5.29138E+01-3.02889E-04-1.31490E+01 9.94123E-04 2.25873E-03
 -1      3411 1.53893E+01 4.64074E+01 1.94567E-03-1.02886E+01 3.84874E-04-2.59940E-05
 -1      3412 1.71844E+01 4.73633E+01-5.13548E-04-1.51395E+01 9.27832E-04 2.23383E-03
 -1      3413 1.37915E+01 4.20077E+01 2.29437E-03-1.22664E+01 5.24744E-04-3.77257E-04
 -1      3414 1.62467E+01 4.11700E+01-1.10016E-03-1.65511E+01 7.13313E-04 2.46571E-03
 -1      3415 1.19158E+01 3.68728E+01 2.05855E-03-1.41414E+01 8.89007E-04-7.42773E-04
 -1      3416 1.46584E+01 3.45499E+01-2.43467E-03-1.75250E+01 1.62086E-05 4.45881E-03
 -1      3417 9.87004E+00 3.10133E+01 5.77980E-03-1.59778E+01 1.12620E-03-3.23658E-03
 -1      3418 1.24123E+01 2.76086E+01-4.93376E-03-1.83328E+01-7.34983E-04 6.15767E-03
 -1      3419 7.92723E+00 2.43256E+01 2.01549E-03-1.78408E+01 2.41293E-03-2.52200E-03
 -1      3420 9.79385E+00 2.02391E+01-2.44656E-02-1.92854E+01 5.82253E-04 2.67265E-02
 -1      3421 6.74588E+00 1.66376E+01 3.26068E-02-1.95835E+01 4.71697E-04-2.87349E-02
 -1      3422 7.82789E+00 1.19601E+01-4.25083E-02-2.04665E+01-1.97411E-02 4.47613E-02
 -1      3423 6.97520E+00 8.35979E+00 4.39604E-02-2.02692E+01 1.19249E-02-1.45424E-02
 -1      3424 7.17099E+00 2.71399E+00-6.30202E-01-2.01908E+01-5.85447E-04 4.78220E-01
 -1      3425 8.39864E+00 2.93770E+00 5.76485E-01-1.88505E+01-2.77827E-02-5.73128E-01
 -1      3426-4.39000E+00-6.41975E+01-4.29063E-01 2.11773E+01-6.58970E-01 2.44816E-01
 -1      3427-1.62707E+01-3.91399E+01 1.63874E-01 4.26107E+01-7.48157E-01 1.23874E-01
 -1      3428-1.70377E+01-1.30199E+01 2.02298E-01 3.04427E+01 2.10919E-01-3.46477E-02
 -1      3429-2.03108E+01 1.13642E+01-1.28305E-01 2.28815E+01 7.58469E-02 6.24342E-02
 -1      3430-1.46853E+01 1.54319E+01-2.08688E-01 1.76651E+01-1.42597E-02 1.96035E-02
 -1      3431-5.13408E+00 2.37666E+01-2.06119E-01 1.01442E+01-4.98662E-02-3.69671E-03
 -1      3432-3.96943E+00 2.56560E+01-1.49134E-02 9.05627E+00 7.78835E-03-1.83744E-03
 -1      3433 6.50112E+00 2.78026E+01-8.84121E-02 7.56999E+00-6.38621E-03-5.77200E-04
 -1      3434 4.42357E+00 2.96939E+01-7.44215E-03 6.31101E+00-3.76992E-03 8.21717E-05
 -1      3435 1.20950E+01 3.18386E+01-2.48028E-02 8.01831E+00-1.61590E-03-6.47886E-06
 -1      3436 9.37134E+00 3.29845E+01 6.98866E-04 5.57751E+00-1.74899E-03-9.45566E-05
 -1      3437 1.45331E+01 3.62331E+01-1.06807E-02 8.27285E+00-1.63479E-03 3.39804E-04
 -1      3438 1.22905E+01 3.60613E+01-2.65727E-04 4.93180E+00-6.18023E-04 2.70579E-04
 -1      3439 1.57906E+01 4.03685E+01-3.17443E-03 7.66412E+00-1.95089E-04 1.42969E-04
 -1      3440 1.43763E+01 3.86470E+01 4.88372E-04 3.96017E+00-4.29429E-04 6.75395E-05
 -1      3441 1.67492E+01 4.37974E+01-7.03364E-04 6.38968E+00-2.87243E-04 1.72539E-04
 -1      3442 1.61641E+01 4.05355E+01 1.40875E-04 2.82316E+00-4.61147E-05 4.90566E-06
 -1      3443 1.76680E+01 4.63576E+01 1.77757E-04 4.79390E+00-1.35634E-04 2.13670E-04
 -1      3444 1.77314E+01 4.17403E+01 2.16324E-04 1.76555E+00-1.83544E-05-7.97119E-05
 -1      3445 1.84945E+01 4.80692E+01 6.35928E-04 3.13507E+00-1.14404E-04 2.51886E-04
 -1      3446 1.89281E+01 4.23983E+01 1.63618E-04 9.24898E-01 2.51498E-05-1.27460E-04
 -1      3447 1.90660E+01 4.90262E+01 8.00299E-04 1.54015E+00-5.81227E-05 2.93111E-04
 -1      3448 1.95496E+01 4.26726E+01 1.69120E-04 2.96514E-01 6.40226E-06-1.55796E-04
 -1      3449 1.92244E+01 4.93243E+01 8.84584E-04 2.46049E-02-8.80595E-06 3.10389E-04
 -1      3450 1.94398E+01 4.26806E+01 1.68065E-04-2.37017E-01-1.46310E-05-1.67910E-04
 -1      3451 1.88690E+01 4.90228E+01 8.94896E-04-1.46518E+00 3.81934E-05 3.15595E-04
 -1      3452 1.85414E+01 4.24574E+01 1.79732E-04-8.52577E-01-3.67643E-05-1.70151E-04
 -1      3453 1.79738E+01 4.81325E+01 8.53260E-04-3.00938E+00 6.30529E-05 3.14308E-04
 -1      3454 1.69067E+01 4.19494E+01 2.04825E-04-1.73218E+00-4.43777E-05-1.70564E-04
 -1      3455 1.65802E+01 4.66221E+01 7.43586E-04-4.68132E+00 4.69061E-05 3.36344E-04
 -1      3456 1.46833E+01 4.10291E+01 2.68875E-04-3.01913E+00-2.14730E-05-1.96726E-04
 -1      3457 1.47800E+01 4.44331E+01 5.25074E-04-6.52702E+00-4.74501E-05 4.21098E-04
 -1      3458 1.20855E+01 3.95215E+01 3.78040E-04-4.79031E+00 4.23092E-05-2.58637E-04
 -1      3459 1.26946E+01 4.14964E+01 7.10004E-05-8.55858E+00-2.53076E-04 7.67494E-04
 -1      3460 9.36556E+00 3.72328E+01 7.31922E-04-7.04637E+00 2.01310E-04-5.62501E-04
 -1      3461 1.04624E+01 3.77430E+01-7.72108E-04-1.07606E+01-6.89941E-04 1.36107E-03
 -1      3462 6.79687E+00 3.39704E+01 1.05590E-03-9.71458E+00 3.99084E-04-8.53726E-04
 -1      3463 8.24913E+00 3.30987E+01-3.30051E-03-1.31033E+01-1.20452E-03 4.01868E-03
 -1      3464 4.68935E+00 2.95477E+01 3.22079E-03-1.26474E+01 8.90927E-04-3.21839E-03
 -1      3465 6.30453E+00 2.74517E+01-6.59151E-03-1.55379E+01-2.48833E-03 6.11418E-03
 -1      3466 3.42409E+00 2.37979E+01 3.47959E-03-1.55723E+01 1.05460E-03-2.57802E-03
 -1      3467 5.04784E+00 2.06272E+01-3.02010E-02-1.79133E+01-2.82745E-03 2.82743E-02
 -1      3468 3.44456E+00 1.67148E+01 2.24435E-02-1.79493E+01 3.10115E-03-2.54715E-02
 -1      3469 5.12597E+00 1.25791E+01-6.41905E-02-1.96252E+01-4.78255E-03 4.76090E-02
 -1      3470 4.76244E+00 9.08526E+00 4.41189E-02-1.88916E+01-5.32935E-05-9.01520E-03
 -1      3471 5.78540E+00 4.23075E+00-5.80611E-01-1.93106E+01-1.37196E-02 5.12020E-01
 -1      3472 6.74359E+00 3.66751E+00 4.98986E-01-1.83501E+01 1.78749E-02-5.03318E-01
 -1      3473-3.38209E+00-4.76128E+01-1.50274E-02 1.56387E+01 9.51421E-02 2.63034E-02
 -1      3474-1.09795E+01-3.43714E+01-5.02312E-02 3.19294E+01 1.03908E-01 3.90911E-02
 -1      3475-1.33281E+01-1.27020E+01 5.76217E-02 2.60933E+01-3.03762E-04-2.01352E-02
 -1      3476-1.83770E+01 6.06619E+00 2.61743E-03 2.45921E+01-6.38981E-02-2.56222E-03
 -1      3477-1.54397E+01 1.28376E+01-6.19520E-04 1.83932E+01 1.69780E-03 1.87994E-03
 -1      3478-1.13189E+01 2.21974E+01 2.19579E-02 1.23201E+01 6.55645E-03-6.65603E-03
 -1      3479-9.44753E+00 2.39905E+01 2.05328E-02 9.57345E+00-7.55939E-05-2.35147E-03
 -1      3480-2.13481E+00 2.76472E+01 4.17686E-02 6.44698E+00 6.25827E-04-7.56475E-04
 -1      3481-2.30638E+00 2.82713E+01 3.77226E-03 4.60396E+00 1.15191E-03 6.07027E-04
 -1      3482 4.30199E+00 3.05142E+01 1.50965E-02 4.35123E+00 2.15493E-04 1.27217E-05
 -1      3483 3.32615E+00 3.03963E+01 1.24875E-03 2.12384E+00 1.13891E-03 1.70597E-04
 -1      3484 8.44742E+00 3.29197E+01 6.76281E-03 3.27227E+00 4.91645E-04-8.36031E-05
 -1      3485 7.54558E+00 3.17355E+01 3.00323E-04 6.14327E-01 3.85863E-04 2.58286E-05
 -1      3486 1.14312E+01 3.48847E+01 2.43120E-03 2.24444E+00 1.45890E-04-4.98783E-05
 -1      3487 1.09783E+01 3.24785E+01 7.28911E-05-4.92676E-01 3.04701E-04-5.19725E-05
 -1      3488 1.39488E+01 3.62358E+01 9.58106E-04 1.21697E+00 1.69250E-04-1.68558E-05
 -1      3489 1.39671E+01 3.26716E+01 3.20107E-05-1.21297E+00 1.13433E-04-8.34125E-05
 -1      3490 1.61943E+01 3.69685E+01 4.09329E-04 3.96930E-01 8.03847E-05-3.25251E-05
 -1      3491 1.65069E+01 3.24722E+01 4.65210E-05-1.43177E+00 7.20869E-05-9.28104E-05
 -1      3492 1.80472E+01 3.72447E+01 2.30432E-04-5.71403E-02 6.02517E-05-3.18222E-05
 -1      3493 1.83893E+01 3.21283E+01 4.80013E-05-1.12237E+00 3.40273E-05-9.66748E-05
 -1      3494 1.92683E+01 3.72856E+01 1.67061E-04-1.35419E-01 2.25304E-05-3.75384E-05
 -1      3495 1.93616E+01 3.18857E+01 5.89601E-05-4.10139E-01 2.11975E-05-9.91029E-05
 -1      3496 1.96385E+01 3.72781E+01 1.42039E-04 2.43863E-02-9.09565E-06-3.61292E-05
 -1      3497 1.92442E+01 3.19059E+01 6.77748E-05 4.48735E-01 1.55329E-05-1.01977E-04
 -1      3498 1.90405E+01 3.73141E+01 1.15423E-04 1.87427E-01-5.09711E-05-2.36054E-05
 -1      3499 1.79961E+01 3.22176E+01 8.51632E-05 1.12895E+00 2.09976E-05-1.09035E-04
 -1      3500 1.74925E+01 3.73660E+01 6.78520E-05 8.69392E-02-1.08837E-04 9.31328E-06
 -1      3501 1.57339E+01 3.27054E+01 1.15607E-04 1.30858E+00 4.03448E-05-1.26053E-04
 -1      3502 1.51449E+01 3.72926E+01-2.94395E-05-5.13990E-01-2.00128E-04 9.14669E-05
 -1      3503 1.27153E+01 3.31284E+01 1.81866E-04 7.34060E-01 8.36457E-05-1.75780E-04
 -1      3504 1.22519E+01 3.68673E+01-2.16847E-04-1.77527E+00-3.45643E-04 2.54180E-04
 -1      3505 9.29980E+00 3.31612E+01 2.95946E-04-7.33106E-01 1.58107E-04-2.68884E-04
 -1      3506 9.13241E+00 3.58166E+01-6.29468E-04-3.75264E+00-5.92602E-04 6.86827E-04
 -1      3507 5.90069E+00 3.24421E+01 5.85165E-04-3.09158E+00 2.98325E-04-5.68532E-04
 -1      3508 6.13274E+00 3.38587E+01-1.34499E-03-6.39047E+00-9.46724E-04 1.36484E-03
 -1      3509 2.94475E+00 3.06196E+01 9.96339E-04-6.19253E+00 4.51091E-04-8.91317E-04
 -1      3510 3.60713E+00 3.07299E+01-3.41846E-03-9.52456E+00-1.59411E-03 3.82678E-03
 -1      3511 8.48243E-01 2.73943E+01 2.54986E-03-9.73317E+00 8.95857E-04-2.84541E-03
 -1      3512 1.93059E+00 2.62029E+01-6.40255E-03-1.28688E+01-1.86159E-03 5.87758E-03
 -1      3513-8.65423E-03 2.25850E+01 4.01568E-03-1.32262E+01 5.45531E-04-2.65135E-03
 -1      3514 1.49797E+00 2.01367E+01-2.24040E-02-1.59457E+01-4.67672E-03 2.51067E-02
 -1      3515 6.05960E-01 1.63185E+01 1.94056E-02-1.59627E+01 4.16040E-03-2.09750E-02
 -1      3516 2.53509E+00 1.27801E+01-6.34423E-02-1.79426E+01 2.92126E-03 3.80129E-02
 -1      3517 2.37113E+00 9.43231E+00 3.84661E-02-1.72243E+01-6.27128E-03-9.45236E-03
 -1      3518 3.78202E+00 5.29582E+00-4.69741E-01-1.80259E+01-1.24386E-02 4.29544E-01
 -1      3519 4.64109E+00 3.86525E+00 3.65377E-01-1.73859E+01 3.17677E-02-3.81383E-01
 -1      3520-2.28046E+00-3.53001E+01-5.43400E-02 1.19853E+01-5.14168E-02 4.13653E-02
 -1      3521-7.17624E+00-2.78803E+01 2.80834E-03 2.48682E+01-6.62308E-02 2.49677E-02
 -1      3522-1.07051E+01-1.06283E+01 3.71945E-02 2.21426E+01 2.57449E-02-1.14034E-02
 -1      3523-1.60227E+01 3.33989E+00 2.33185E-03 2.31808E+01-3.01911E-03 1.15716E-02
 -1      3524-1.50504E+01 1.07073E+01-1.34948E-02 1.75577E+01-3.89555E-03 4.03955E-03
 -1      3525-1.42496E+01 1.98312E+01 2.26705E-03 1.32731E+01 1.35957E-03-3.88349E-03
 -1      3526-1.23555E+01 2.18399E+01-5.02691E-03 9.47532E+00 2.74590E-03-5.06100E-04
 -1      3527-7.78241E+00 2.61180E+01-9.75670E-03 6.00753E+00-2.06165E-03-5.70721E-05
 -1      3528-6.79916E+00 2.61874E+01-4.28664E-03 3.43312E+00 3.47883E-04 3.97282E-04
 -1      3529-1.48858E+00 2.84716E+01-4.89114E-03 2.04665E+00-7.51232E-04-7.89755E-04
 -1      3530-1.22084E+00 2.75230E+01-7.24306E-04-2.60690E-01-1.44877E-05-4.52691E-05
 -1      3531 3.53968E+00 2.94931E+01-2.43671E-03-2.10872E-01-5.88198E-04-2.21563E-04
 -1      3532 3.66380E+00 2.75554E+01-2.94885E-04-2.48638E+00-6.72832E-05 4.08581E-05
 -1      3533 7.66580E+00 2.98036E+01-8.61765E-04-1.68135E+00-1.26608E-04-1.00472E-04
 -1      3534 7.96196E+00 2.68675E+01-5.81372E-05-3.75887E+00-6.82297E-05 6.99453E-06
 -1      3535 1.12823E+01 2.95384E+01-2.97305E-04-2.57700E+00-7.69400E-05-5.22955E-05
 -1      3536 1.17740E+01 2.57353E+01-4.11352E-05-4.19668E+00-3.29183E-05 3.71433E-06
 -1      3537 1.44654E+01 2.88651E+01-1.47072E-07-2.83125E+00 1.72866E-06-4.98077E-05
 -1      3538 1.49895E+01 2.44488E+01-4.54108E-05-3.79792E+00-1.75294E-05-1.03802E-05
 -1      3539 1.70336E+01 2.80558E+01 1.13024E-04-2.39423E+00 2.52587E-06-4.83473E-05
 -1      3540 1.73467E+01 2.33386E+01-5.53397E-05-2.63643E+00-4.61883E-06-1.87053E-05
 -1      3541 1.87016E+01 2.74138E+01 1.67168E-04-1.36060E+00-2.55728E-06-5.17253E-05
 -1      3542 1.85631E+01 2.27030E+01-5.87783E-05-9.35630E-01 2.74255E-06-2.58836E-05
 -1      3543 1.92202E+01 2.71793E+01 1.82228E-04 1.71451E-02-2.37157E-05-4.75859E-05
 -1      3544 1.84496E+01 2.27272E+01-5.54691E-05 9.46530E-01 1.13422E-05-3.25293E-05
 -1      3545 1.84700E+01 2.74588E+01 1.70352E-04 1.37839E+00-5.62725E-05-3.35410E-05
 -1      3546 1.69822E+01 2.34305E+01-4.14115E-05 2.58178E+00 2.42330E-05-4.28867E-05
 -1      3547 1.65049E+01 2.81939E+01 1.26799E-04 2.33078E+00-1.06665E-04 4.69874E-07
 -1      3548 1.43244E+01 2.46517E+01-1.21433E-05 3.55365E+00 4.61477E-05-6.24782E-05
 -1      3549 1.35509E+01 2.91668E+01 3.25243E-05 2.52856E+00-1.86483E-04 7.92457E-05
 -1      3550 1.08099E+01 2.60716E+01 4.63395E-05 3.53516E+00 8.51853E-05-1.09363E-04
 -1      3551 9.97285E+00 3.00357E+01-1.47297E-04 1.73696E+00-3.09381E-04 2.31902E-04
 -1      3552 6.89514E+00 2.72618E+01 1.47931E-04 2.34830E+00 1.42340E-04-1.91995E-04
 -1      3553 6.22132E+00 3.03887E+01-5.18522E-04-1.26074E-01-5.12173E-04 6.03668E-04
 -1      3554 3.09837E+00 2.77482E+01 3.68265E-04-8.40502E-04 2.53140E-04-4.28849E-04
 -1      3555 2.77718E+00 2.98018E+01-1.18269E-03-2.97171E+00-7.62402E-04 1.18768E-03
 -1      3556-6.21210E-02 2.70779E+01 6.90831E-04-3.30793E+00 3.20761E-04-6.80455E-04
 -1      3557 1.05323E-01 2.78931E+01-2.84646E-03-6.53661E+00-1.30632E-03 3.11817E-03
 -1      3558-2.12425E+00 2.48889E+01 1.80463E-03-7.16608E+00 7.37053E-04-2.09856E-03
 -1      3559-1.37854E+00 2.43790E+01-5.68527E-03-1.03732E+01-1.13127E-03 4.69069E-03
 -1      3560-2.75240E+00 2.10036E+01 2.75006E-03-1.09651E+01-3.99712E-05-1.89243E-03
 -1      3561-1.37249E+00 1.91752E+01-1.71136E-02-1.38219E+01-4.12893E-03 1.92910E-02
 -1      3562-1.87317E+00 1.56044E+01 1.35635E-02-1.39436E+01 3.93018E-03-1.48210E-02
 -1      3563 7.70993E-02 1.26676E+01-4.92450E-02-1.60496E+01 5.96623E-03 2.72597E-02
 -1      3564 6.85271E-02 9.43737E+00 2.65472E-02-1.55178E+01-9.23702E-03-5.54492E-03
 -1      3565 1.71703E+00 5.90429E+00-3.30740E-01-1.65951E+01-1.29889E-02 3.11365E-01
 -1      3566 2.51631E+00 3.77279E+00 2.40590E-01-1.61797E+01 3.58179E-02-2.57435E-01
 -1      3567-1.75873E+00-2.60429E+01-6.76743E-03 9.48003E+00 2.16239E-03 1.70406E-02
 -1      3568-5.37529E+00-2.17895E+01-4.73356E-04 1.97929E+01 3.13260E-04 1.56565E-02
 -1      3569-8.97752E+00-8.32023E+00 1.58308E-02 1.86488E+01 7.43962E-03-8.99119E-03
 -1      3570-1.39242E+01 2.18012E+00-5.05651E-03 2.07510E+01-1.26894E-02 5.90791E-03
 -1      3571-1.42137E+01 9.23493E+00-3.53483E-03 1.59531E+01-1.10036E-03 1.98327E-03
 -1      3572-1.51036E+01 1.74242E+01 2.10324E-04 1.30158E+01 1.10354E-03-2.11684E-03
 -1      3573-1.37173E+01 1.95524E+01 1.57610E-04 8.84198E+00 6.85210E-04-6.31269E-04
 -1      3574-1.10207E+01 2.39819E+01 1.32382E-03 5.48852E+00-1.28943E-03-1.69866E-04
 -1      3575-9.68449E+00 2.36984E+01 1.08794E-04 2.44125E+00-7.83288E-06 2.65417E-04
 -1      3576-5.53079E+00 2.59872E+01 2.38869E-03 4.25238E-01-2.17605E-04-3.54294E-04
 -1      3577-4.57095E+00 2.44233E+01 3.65003E-04-1.99921E+00 1.89263E-04 6.16511E-05
 -1      3578-2.82819E-01 2.60039E+01 1.74817E-03-2.70332E+00-1.09729E-04-3.42833E-05
 -1      3579 5.26919E-01 2.34715E+01 4.91003E-05-4.75511E+00 9.88663E-05 7.07948E-05
 -1      3580 4.47830E+00 2.50375E+01 9.34320E-04-4.55761E+00-4.25641E-05-5.01796E-05
 -1      3581 5.31364E+00 2.16730E+01-1.18467E-05-6.17988E+00 7.39115E-05 2.45715E-05
 -1      3582 8.80807E+00 2.35042E+01 5.31168E-04-5.38978E+00 5.58481E-06-3.48133E-05
 -1      3583 9.65385E+00 1.95006E+01-4.94139E-05-6.42508E+00 3.47532E-05 8.85596E-06
 -1      3584 1.26282E+01 2.17304E+01 3.21071E-04-5.23260E+00 1.01779E-05-3.10448E-05
 -1      3585 1.33211E+01 1.73618E+01-6.03491E-05-5.56978E+00 1.98952E-05-2.57104E-08
 -1      3586 1.56863E+01 2.00805E+01 2.34527E-04-4.13218E+00 8.90582E-06-3.07559E-05
 -1      3587 1.60001E+01 1.56541E+01-6.29481E-05-3.77103E+00 1.12490E-05-2.78790E-06
 -1      3588 1.76606E+01 1.89147E+01 1.96339E-04-2.27194E+00-2.60409E-06-2.91390E-05
 -1      3589 1.73848E+01 1.47122E+01-6.20746E-05-1.33102E+00 1.09173E-05-4.90643E-06
 -1      3590 1.82850E+01 1.85045E+01 1.74174E-04 7.38951E-03-2.04988E-05-2.42601E-05
 -1      3591 1.72827E+01 1.47341E+01-5.69652E-05 1.31622E+00 1.52936E-05-8.16388E-06
 -1      3592 1.74440E+01 1.89615E+01 1.49451E-04 2.25563E+00-4.71421E-05-1.09592E-05
 -1      3593 1.56843E+01 1.57288E+01-4.57427E-05 3.66974E+00 2.49778E-05-1.57363E-05
 -1      3594 1.52193E+01 2.02022E+01 1.08919E-04 3.99438E+00-8.58612E-05 1.79437E-05
 -1      3595 1.27875E+01 1.75016E+01-2.53240E-05 5.24847E+00 4.04017E-05-3.07987E-05
 -1      3596 1.18902E+01 2.19545E+01 3.44437E-05 4.80484E+00-1.44722E-04 8.08030E-05
 -1      3597 8.97749E+00 1.96785E+01 1.37032E-05 5.67641E+00 6.59518E-05-6.46126E-05
 -1      3598 7.89584E+00 2.37978E+01-9.71412E-05 4.40290E+00-2.28157E-04 1.97786E-04
 -1      3599 4.77497E+00 2.17613E+01 7.52221E-05 4.75001E+00 9.68395E-05-1.18962E-04
 -1      3600 3.77385E+00 2.52262E+01-3.57857E-04 2.69083E+00-3.67268E-04 4.67333E-04
 -1      3601 7.64084E-01 2.32014E+01 2.20345E-04 2.47992E+00 1.65552E-04-2.70454E-04
 -1      3602 8.91189E-02 2.57227E+01-7.99788E-04-2.17327E-01-4.94196E-04 8.67221E-04
 -1      3603-2.48588E+00 2.34829E+01 3.78069E-04-8.92187E-01 1.60895E-04-3.96207E-04
 -1      3604-2.63478E+00 2.48341E+01-1.89094E-03-3.98980E+00-9.01941E-04 2.18250E-03
 -1      3605-4.50111E+00 2.22099E+01 1.17604E-03-4.89606E+00 5.00613E-04-1.28976E-03
 -1      3606-3.98426E+00 2.22532E+01-3.67672E-03-8.07927E+00-4.14342E-04 3.02220E-03
 -1      3607-4.99976E+00 1.92108E+01 1.30229E-03-8.86010E+00-4.29707E-04-7.99851E-04
 -1      3608-3.75754E+00 1.79362E+01-1.13080E-02-1.17422E+01-3.34992E-03 1.26653E-02
 -1      3609-4.01672E+00 1.46719E+01 8.51828E-03-1.20202E+01 3.38021E-03-9.19025E-03
 -1      3610-2.15778E+00 1.22944E+01-3.05668E-02-1.41851E+01 7.82938E-03 1.45205E-02
 -1      3611-2.02607E+00 9.18664E+00 1.01440E-02-1.38689E+01-1.07088E-02 1.45310E-03
 -1      3612-2.29660E-01 6.16039E+00-2.01286E-01-1.51332E+01-1.24650E-02 1.93096E-01
 -1      3613 5.46980E-01 3.52821E+00 1.34645E-01-1.48666E+01 3.50257E-02-1.49418E-01
 -1      3614-1.42926E+00-1.90093E+01-8.87489E-03 7.61129E+00-5.71340E-03 1.44156E-02
 -1      3615-4.23745E+00-1.66850E+01-1.30027E-03 1.59870E+01-9.22633E-03 8.11167E-03
 -1      3616-7.74307E+00-6.17364E+00 9.72052E-03 1.56206E+01 6.66968E-03-6.53509E-03
 -1      3617-1.22270E+01 1.81807E+00-2.27547E-03 1.80649E+01-4.94665E-03 5.63563E-03
 -1      3618-1.33048E+01 8.10952E+00-1.69423E-03 1.40379E+01-1.27017E-03 1.40185E-03
 -1      3619-1.50853E+01 1.52405E+01 2.82353E-03 1.20468E+01 7.73827E-04-1.46395E-03
 -1      3620-1.42643E+01 1.72763E+01-4.41459E-04 7.85707E+00 5.61789E-04-3.34745E-04
 -1      3621-1.29001E+01 2.15483E+01-1.63635E-05 4.79880E+00-5.44008E-04 3.68197E-05
 -1      3622-1.15341E+01 2.10091E+01-7.89330E-04 1.48873E+00 8.82134E-05 2.03997E-04
 -1      3623-8.37868E+00 2.32069E+01 3.69562E-04-8.16123E-01-1.62227E-04-3.00073E-04
 -1      3624-7.04295E+00 2.12038E+01-4.22478E-04-3.35116E+00 1.41280E-04 3.18681E-05
 -1      3625-3.27180E+00 2.24598E+01 2.47500E-05-4.53617E+00-2.29010E-04-1.20207E-04
 -1      3626-2.01243E+00 1.94777E+01-2.46037E-04-6.46165E+00 4.97105E-05 4.28061E-05
 -1      3627 1.77627E+00 2.05059E+01 1.09239E-04-6.69281E+00-9.84543E-05-9.39390E-05
 -1      3628 2.99268E+00 1.68040E+01-1.30880E-04-8.00258E+00 1.99806E-05 1.83021E-05
 -1      3629 6.53230E+00 1.79748E+01 1.25638E-04-7.49695E+00-5.55492E-05-4.72508E-05
 -1      3630 7.63859E+00 1.38064E+01-9.26736E-05-8.10961E+00 5.61672E-06 1.38744E-05
 -1      3631 1.07645E+01 1.53322E+01 1.55879E-04-7.03898E+00-2.16324E-05-3.20837E-05
 -1      3632 1.15888E+01 1.09912E+01-7.76303E-05-6.91214E+00 6.91499E-07 9.42420E-06
 -1      3633 1.41478E+01 1.30214E+01 1.70083E-04-5.44084E+00-1.08843E-05-2.37653E-05
 -1      3634 1.44759E+01 8.81063E+00-7.35885E-05-4.63130E+00 2.08801E-07 7.19511E-06
 -1      3635 1.63278E+01 1.14457E+01 1.77872E-04-2.95871E+00-9.43488E-06-2.00337E-05
 -1      3636 1.59733E+01 7.62572E+00-7.22726E-05-1.63116E+00 1.71897E-06 5.20284E-06
 -1      3637 1.70278E+01 1.08961E+01 1.77537E-04-1.67784E-03-1.60066E-05-1.55520E-05
 -1      3638 1.58863E+01 7.64130E+00-7.05632E-05 1.59716E+00 4.48171E-06 2.87767E-06
 -1      3639 1.61378E+01 1.14838E+01 1.68424E-04 2.91516E+00-2.85354E-05-6.87283E-06
 -1      3640 1.42175E+01 8.85676E+00-6.66941E-05 4.50098E+00 8.27905E-06-9.65681E-07
 -1      3641 1.37607E+01 1.31060E+01 1.47507E-04 5.25389E+00-4.72440E-05 1.01110E-05
 -1      3642 1.11885E+01 1.10528E+01-6.03483E-05 6.55501E+00 1.24563E-05-6.81557E-06
 -1      3643 1.02128E+01 1.54517E+01 1.06437E-04 6.54646E+00-7.50395E-05 4.49604E-05
 -1      3644 7.21949E+00 1.38174E+01-4.64795E-05 7.35049E+00 1.90145E-05-1.92208E-05
 -1      3645 5.98288E+00 1.80461E+01 3.88567E-05 6.47629E+00-1.09327E-04 1.03739E-04
 -1      3646 2.87193E+00 1.66055E+01-3.51681E-05 6.66718E+00 2.00451E-05-3.10761E-05
 -1      3647 1.66404E+00 2.03210E+01-1.00944E-04 4.93600E+00-1.72652E-04 2.40762E-04
 -1      3648-1.23054E+00 1.88205E+01 2.51862E-05 4.51861E+00 4.42072E-05-8.54433E-05
 -1      3649-2.12890E+00 2.16993E+01-2.85083E-04 2.05692E+00-1.89308E-04 3.97970E-04
 -1      3650-4.49328E+00 1.99077E+01-1.92277E-05 1.16877E+00-1.89100E-05-4.84232E-05
 -1      3651-4.84604E+00 2.16864E+01-8.75133E-04-1.78632E+00-4.41571E-04 1.07343E-03
 -1      3652-6.44790E+00 1.94541E+01 4.50372E-04-2.87889E+00 2.31630E-04-4.68930E-04
 -1      3653-6.09461E+00 1.99674E+01-1.25497E-03-5.99235E+00 2.14389E-04 1.01251E-03
 -1      3654-6.86138E+00 1.72907E+01-5.49787E-04-6.93036E+00-7.42285E-04 5.96293E-04
 -1      3655-5.75543E+00 1.65191E+01-5.56763E-03-9.79030E+00-2.43916E-03 6.37618E-03
 -1      3656-5.83922E+00 1.35822E+01 4.30412E-03-1.02368E+01 2.72164E-03-4.34259E-03
 -1      3657-4.11377E+00 1.17191E+01-9.13493E-03-1.24327E+01 8.65095E-03 1.09781E-03
 -1      3658-3.85413E+00 8.75740E+00-7.97264E-03-1.23165E+01-1.10568E-02 1.06627E-02
 -1      3659-1.97420E+00 6.17353E+00-9.07763E-02-1.37000E+01-1.13034E-02 8.79423E-02
 -1      3660-1.18450E+00 3.21725E+00 5.22979E-02-1.35253E+01 3.18214E-02-6.27486E-02
 -1      3661-1.21335E+00-1.36403E+01-3.35389E-03 6.13468E+00-1.38835E-03 9.81362E-03
 -1      3662-3.52103E+00-1.25562E+01-2.61189E-04 1.29875E+01-2.57046E-03 5.18589E-03
 -1      3663-6.84225E+00-4.36145E+00 6.02289E-03 1.29820E+01 3.72973E-03-5.10792E-03
 -1      3664-1.09024E+01 1.78953E+00-2.61048E-03 1.54384E+01-4.11902E-03 4.25240E-03
 -1      3665-1.24472E+01 7.18767E+00-9.04091E-04 1.20389E+01-6.37674E-04 9.03475E-04
 -1      3666-1.46873E+01 1.32800E+01 1.08224E-03 1.06866E+01 5.37649E-04-7.56657E-04
 -1      3667-1.43624E+01 1.50790E+01-1.20201E-04 6.66122E+00 2.66480E-04-3.20126E-04
 -1      3668-1.39154E+01 1.90108E+01 1.05863E-04 3.93737E+00-4.07848E-04 1.09955E-04
 -1      3669-1.26921E+01 1.82461E+01-4.24140E-04 5.27369E-01 1.80773E-05 1.17699E-04
 -1      3670-1.03454E+01 2.02663E+01 4.67458E-04-1.86821E+00-1.32985E-04-2.02341E-04
 -1      3671-8.86390E+00 1.79302E+01-1.86370E-04-4.46935E+00 7.43904E-05 2.43097E-05
 -1      3672-5.58963E+00 1.88981E+01 4.46895E-04-5.94404E+00-1.31730E-04-8.67795E-05
 -1      3673-4.07287E+00 1.55669E+01-1.23734E-04-7.78764E+00 3.51397E-05 4.07810E-05
 -1      3674-5.05423E-01 1.61628E+01 4.02187E-04-8.31143E+00-6.36037E-05-6.72937E-05
 -1      3675 9.57736E-01 1.21913E+01-9.27373E-05-9.40058E+00 2.78050E-05 2.33367E-05
 -1      3676 4.45658E+00 1.28381E+01 3.18226E-04-9.09708E+00-3.35735E-05-3.91617E-05
 -1      3677 5.74181E+00 8.53311E+00-8.56609E-05-9.40008E+00 1.49416E-05 1.67753E-05
 -1      3678 8.92706E+00 9.50283E+00 2.60289E-04-8.41376E+00-1.41434E-05-2.89213E-05
 -1      3679 9.84659E+00 5.17653E+00-8.20492E-05-7.94094E+00 7.38511E-06 1.12471E-05
 -1      3680 1.25102E+01 6.66624E+00 2.26689E-04-6.43762E+00-4.42753E-06-2.29655E-05
 -1      3681 1.28557E+01 2.61793E+00-8.15042E-05-5.29063E+00 1.50109E-06 8.87583E-06
 -1      3682 1.48208E+01 4.76500E+00 2.09913E-04-3.48191E+00-5.00952E-08-2.04063E-05
 -1      3683 1.44234E+01 1.23809E+00-8.25478E-05-1.86053E+00-2.85392E-06 8.16626E-06
 -1      3684 1.55733E+01 4.10277E+00 2.02368E-04-8.24457E-03 1.74510E-06-1.90751E-05
 -1      3685 1.43528E+01 1.24545E+00-8.54102E-05 1.81572E+00-7.38136E-06 9.05670E-06
 -1      3686 1.46623E+01 4.78849E+00 1.98984E-04 3.42102E+00 3.08126E-06-1.81582E-05
 -1      3687 1.26548E+01 2.63131E+00-9.03827E-05 5.14862E+00-1.34975E-05 1.19476E-05
 -1      3688 1.22065E+01 6.70378E+00 1.98270E-04 6.22670E+00 6.37650E-06-1.83533E-05
 -1      3689 9.56761E+00 5.15850E+00-1.00433E-04 7.58278E+00-2.36018E-05 1.94504E-05
 -1      3690 8.54706E+00 9.51066E+00 1.97591E-04 7.90771E+00 1.25679E-05-1.95672E-05
 -1      3691 5.53341E+00 8.38930E+00-1.14541E-04 8.68773E+00-3.79534E-05 3.34161E-05
 -1      3692 4.20467E+00 1.26977E+01 2.07628E-04 8.12608E+00 2.86322E-05-3.17703E-05
 -1      3693 1.13851E+00 1.17478E+01-1.55928E-04 8.23210E+00-6.55971E-05 7.10227E-05
 -1      3694-1.93701E-01 1.56555E+01 2.03522E-04 6.76811E+00 3.88836E-05-3.94430E-05
 -1      3695-2.97184E+00 1.46072E+01-1.79997E-04 6.23019E+00-8.25695E-05 1.14397E-04
 -1      3696-4.00597E+00 1.77698E+01 3.07279E-04 3.97531E+00 1.14593E-04-1.47285E-04
 -1      3697-6.19319E+00 1.63898E+01-4.26523E-04 2.95657E+00-1.85692E-04 3.25164E-04
 -1      3698-6.67455E+00 1.85225E+01 2.00096E-04 1.45233E-01-1.73512E-06-6.99987E-05
 -1      3699-8.06938E+00 1.66742E+01-2.46632E-04-1.07338E+00-2.06395E-05 2.99181E-04
 -1      3700-7.83246E+00 1.75977E+01 1.33139E-03-4.09878E+00 7.24394E-04-1.14943E-03
 -1      3701-8.40633E+00 1.52909E+01-2.49287E-03-5.16758E+00-9.43349E-04 2.06922E-03
 -1      3702-7.42177E+00 1.49786E+01-1.88567E-04-7.98966E+00-1.52626E-03 7.99832E-04
 -1      3703-7.35525E+00 1.23747E+01 8.45204E-04-8.59855E+00 1.99698E-03-4.53733E-04
 -1      3704-5.76832E+00 1.09893E+01 1.21139E-02-1.08161E+01 8.83561E-03-1.21638E-02
 -1      3705-5.38777E+00 8.20570E+00-2.55622E-02-1.08739E+01-1.05437E-02 2.07041E-02
 -1      3706-3.47904E+00 6.02693E+00-2.73471E-03-1.23293E+01-9.56245E-03 1.42895E-03
 -1      3707-2.63979E+00 2.89153E+00-7.60150E-03-1.22023E+01 2.70940E-02 2.28624E-03
 -1      3708-1.06430E+00-9.54560E+00-2.70307E-03 4.91394E+00-1.44971E-03 7.70457E-03
 -1      3709-3.03325E+00-9.28939E+00-5.05026E-04 1.05248E+01-2.20641E-03 3.05371E-03
 -1      3710-6.15741E+00-2.90567E+00 4.03349E-03 1.06589E+01 2.52808E-03-3.91205E-03
 -1      3711-9.85249E+00 1.86466E+00-2.12354E-03 1.29729E+01-2.42760E-03 3.49367E-03
 -1      3712-1.16675E+01 6.36780E+00-4.49168E-04 1.00683E+01-4.65933E-04 5.90793E-04
 -1      3713-1.41324E+01 1.15088E+01 8.78770E-04 9.14211E+00 3.56321E-04-4.67107E-04
 -1      3714-1.42106E+01 1.29723E+01-1.69517E-05 5.35740E+00 1.44395E-04-2.58612E-04
 -1      3715-1.44027E+01 1.64700E+01 2.06624E-04 2.94967E+00-1.81259E-04 1.44822E-04
 -1      3716-1.33920E+01 1.54750E+01-3.10198E-04-4.50146E-01-6.15438E-06 7.25258E-05
 -1      3717-1.16989E+01 1.72552E+01 4.06752E-04-2.82394E+00-4.19561E-05-1.37146E-04
 -1      3718-1.02109E+01 1.46480E+01-2.11081E-04-5.44490E+00 4.42039E-05 1.62620E-05
 -1      3719-7.39861E+00 1.53450E+01 3.23771E-04-7.07604E+00-8.08623E-05-7.11165E-05
 -1      3720-5.75832E+00 1.17371E+01-1.70465E-04-8.85710E+00 2.63427E-05 3.20160E-05
 -1      3721-2.44377E+00 1.19740E+01 2.92123E-04-9.56989E+00-4.99289E-05-6.49411E-05
 -1      3722-8.35131E-01 7.78664E+00-1.31447E-04-1.04985E+01 1.95186E-05 2.04780E-05
 -1      3723 2.56420E+00 8.01054E+00 2.47051E-04-1.03324E+01-3.32772E-05-4.30911E-05
 -1      3724 3.96372E+00 3.59334E+00-1.09267E-04-1.04055E+01 9.16802E-06 1.59811E-05
 -1      3725 7.14234E+00 4.11841E+00 2.24101E-04-9.47387E+00-1.45797E-05-3.22003E-05
 -1      3726 8.12602E+00-2.00185E-01-9.75786E-05-8.74034E+00 1.20698E-06 1.20065E-05
 -1      3727 1.08308E+01 8.59889E-01 2.12510E-04-7.20593E+00-7.63271E-07-2.56267E-05
 -1      3728 1.11918E+01-3.06333E+00-9.39750E-05-5.80211E+00-6.34911E-06 1.07933E-05
 -1      3729 1.32154E+01-1.30233E+00 2.11001E-04-3.88474E+00 1.17469E-05-2.42411E-05
 -1      3730 1.27973E+01-4.60057E+00-9.62704E-05-2.03716E+00-1.45803E-05 1.20116E-05
 -1      3731 1.40023E+01-2.05609E+00 2.17198E-04-1.16882E-02 2.52463E-05-2.74624E-05
 -1      3732 1.27424E+01-4.60152E+00-1.04335E-04 1.98962E+00-2.54420E-05 1.68343E-05
 -1      3733 1.30892E+01-1.29545E+00 2.31577E-04 3.81669E+00 4.34342E-05-3.71991E-05
 -1      3734 1.10436E+01-3.08133E+00-1.19330E-04 5.66298E+00-4.11764E-05 2.76186E-05
 -1      3735 1.06056E+01 8.49604E-01 2.58695E-04 6.99282E+00 7.08833E-05-5.89552E-05
 -1      3736 7.94939E+00-2.89668E-01-1.46818E-04 8.40739E+00-6.50080E-05 5.01787E-05
 -1      3737 6.90879E+00 4.02232E+00 3.03694E-04 8.99375E+00 1.11646E-04-1.01767E-04
 -1      3738 3.91511E+00 3.31875E+00-1.89607E-04 9.77827E+00-9.86182E-05 9.19881E-05
 -1      3739 2.53873E+00 7.68718E+00 3.93999E-04 9.46761E+00 1.74632E-04-1.91301E-04
 -1      3740-4.59558E-01 7.14870E+00-2.82185E-04 9.53671E+00-1.50322E-04 1.79891E-04
 -1      3741-1.85876E+00 1.12088E+01 5.23505E-04 8.29607E+00 2.49582E-04-3.43563E-04
 -1      3742-4.51956E+00 1.05549E+01-3.87423E-04 7.69578E+00-2.01361E-04 3.14081E-04
 -1      3743-5.62900E+00 1.39503E+01 9.04588E-04 5.62494E+00 3.94011E-04-7.13357E-04
 -1      3744-7.65956E+00 1.29471E+01-8.21607E-04 4.53206E+00-3.27106E-04 6.91027E-04
 -1      3745-8.21641E+00 1.53813E+01 1.25182E-03 1.86011E+00 3.91918E-04-1.15635E-03
 -1      3746-9.43647E+00 1.38990E+01-9.00568E-04 5.58439E-01-2.43927E-04 9.81642E-04
 -1      3747-9.27731E+00 1.51861E+01 3.83643E-03-2.37458E+00 1.09431E-03-3.24247E-03
 -1      3748-9.68354E+00 1.32383E+01-4.31188E-03-3.55009E+00-1.03202E-03 3.45872E-03
 -1      3749-8.79506E+00 1.33465E+01 4.69598E-03-6.33358E+00-6.66159E-04-3.86169E-03
 -1      3750-8.58056E+00 1.10730E+01-1.99077E-03-7.09120E+00 1.22576E-03 2.51281E-03
 -1      3751-7.11538E+00 1.01370E+01 3.13917E-02-9.33261E+00 8.46125E-03-2.44347E-02
 -1      3752-6.61218E+00 7.56709E+00-4.08708E-02-9.54087E+00-9.27158E-03 3.03071E-02
 -1      3753-4.72247E+00 5.77812E+00 6.28559E-02-1.10397E+01-7.36423E-03-6.48722E-02
 -1      3754-3.79805E+00 2.58315E+00-4.75687E-02-1.09240E+01 2.12091E-02 4.73113E-02
 -1      3755-9.55136E-01-6.45245E+00-1.68939E-03 3.86965E+00-8.43328E-04 5.95934E-03
 -1      3756-2.68452E+00-6.74030E+00-2.39007E-04 8.43711E+00-1.06837E-03 1.89269E-03
 -1      3757-5.61468E+00-1.78158E+00 2.81316E-03 8.59601E+00 1.46066E-03-3.02369E-03
 -1      3758-9.00124E+00 1.93223E+00-1.86214E-03 1.06990E+01-1.56607E-03 2.79355E-03
 -1      3759-1.09589E+01 5.59240E+00-1.90344E-04 8.18238E+00-2.84524E-04 3.74789E-04
 -1      3760-1.35225E+01 9.87995E+00 3.98819E-04 7.53617E+00 2.66634E-04-2.27991E-04
 -1      3761-1.39146E+01 1.09501E+01 3.26052E-05 4.01368E+00 5.21859E-05-2.28176E-04
 -1      3762-1.45605E+01 1.39704E+01 1.56767E-04 1.88317E+00-6.92967E-05 1.72333E-04
 -1      3763-1.37827E+01 1.27302E+01-2.11578E-04-1.43901E+00-2.91366E-05 3.05600E-05
 -1      3764-1.26195E+01 1.42277E+01 3.05033E-04-3.73062E+00 1.80641E-06-7.23962E-05
 -1      3765-1.12107E+01 1.13847E+01-1.74640E-04-6.33280E+00 1.32632E-05 5.27749E-06
 -1      3766-8.81829E+00 1.18197E+01 2.97043E-04-8.02984E+00-3.96213E-05-4.83712E-05
 -1      3767-7.15060E+00 7.98569E+00-1.53009E-04-9.75426E+00 1.08929E-05 2.50709E-05
 -1      3768-4.10083E+00 7.91620E+00 2.90805E-04-1.05788E+01-3.02402E-05-5.38750E-05
 -1      3769-2.42528E+00 3.55360E+00-1.25177E-04-1.13852E+01 1.08541E-05 1.98052E-05
 -1      3770 8.37108E-01 3.43104E+00 2.64838E-04-1.13059E+01-2.03868E-05-3.98131E-05
 -1      3771 2.29815E+00-1.07821E+00-1.09303E-04-1.12049E+01 4.37982E-06 1.68394E-05
 -1      3772 5.42445E+00-9.12573E-01 2.43678E-04-1.03043E+01-4.92457E-06-3.14725E-05
 -1      3773 6.44497E+00-5.22703E+00-1.01721E-04-9.37172E+00-3.59227E-06 1.37577E-05
 -1      3774 9.14610E+00-4.51208E+00 2.31716E-04-7.80618E+00 1.16072E-05-2.69751E-05
 -1      3775 9.51761E+00-8.33690E+00-1.01491E-04-6.20450E+00-1.37640E-05 1.35439E-05
 -1      3776 1.15614E+01-6.88488E+00 2.31768E-04-4.19855E+00 3.09146E-05-2.86559E-05
 -1      3777 1.11355E+01-1.00015E+01-1.08080E-04-2.17457E+00-2.66822E-05 1.70247E-05
 -1      3778 1.23680E+01-7.71304E+00 2.44937E-04-1.21454E-02 5.56409E-05-3.82694E-05
 -1      3779 1.10947E+01-1.00096E+01-1.22726E-04 2.13096E+00-4.43103E-05 2.64515E-05
 -1      3780 1.14652E+01-6.89349E+00 2.74023E-04 4.13218E+00 9.01859E-05-6.06105E-05
 -1      3781 9.41434E+00-8.38100E+00-1.48138E-04 6.07930E+00-6.92849E-05 4.58443E-05
 -1      3782 8.98911E+00-4.56467E+00 3.27263E-04 7.60781E+00 1.40344E-04-1.05966E-04
 -1      3783 6.34877E+00-5.37376E+00-1.92146E-04 9.08199E+00-1.05172E-04 8.37632E-05
 -1      3784 5.30649E+00-1.09575E+00 4.15555E-04 9.87778E+00 2.11903E-04-1.91384E-04
 -1      3785 2.35975E+00-1.45309E+00-2.60856E-04 1.06857E+01-1.54476E-04 1.52123E-04
 -1      3786 9.67556E-01 2.96267E+00 5.79671E-04 1.05814E+01 3.13424E-04-3.56225E-04
 -1      3787-1.94765E+00 2.77450E+00-3.96657E-04 1.06462E+01-2.23388E-04 2.85634E-04
 -1      3788-3.37331E+00 6.95961E+00 8.30844E-04 9.59652E+00 4.38747E-04-6.40270E-04
 -1      3789-5.91632E+00 6.65355E+00-5.71371E-04 8.97404E+00-2.99247E-04 4.96556E-04
 -1      3790-7.05818E+00 1.02455E+01 1.45559E-03 7.06885E+00 6.25841E-04-1.24430E-03
 -1      3791-8.94474E+00 9.58681E+00-1.15755E-03 5.94177E+00-4.29648E-04 1.01299E-03
 -1      3792-9.53771E+00 1.22833E+01 2.21501E-03 3.40254E+00 7.15771E-04-2.11119E-03
 -1      3793-1.06006E+01 1.11448E+01-1.47193E-03 2.05072E+00-4.26946E-04 1.54244E-03
 -1      3794-1.04855E+01 1.27567E+01 6.02395E-03-7.91663E-01 1.32199E-03-5.07872E-03
 -1      3795-1.07322E+01 1.11497E+01-5.81749E-03-2.05045E+00-1.00406E-03 4.61189E-03
 -1      3796-9.90766E+00 1.16420E+01 8.91072E-03-4.80031E+00 1.18104E-04-7.50460E-03
 -1      3797-9.53308E+00 9.69032E+00-4.25645E-03-5.68972E+00 4.02565E-04 4.62508E-03
 -1      3798-8.15813E+00 9.17936E+00 4.72003E-02-7.96499E+00 7.54457E-03-3.48988E-02
 -1      3799-7.51733E+00 6.85928E+00-5.25296E-02-8.30775E+00-7.23826E-03 3.83232E-02
 -1      3800-5.68669E+00 5.46346E+00 1.07212E-01-9.84036E+00-4.74976E-03-1.10961E-01
 -1      3801-4.64266E+00 2.31222E+00-7.04773E-02-9.70499E+00 1.41763E-02 7.44573E-02
 -1      3802-8.70327E-01-4.15944E+00-1.22678E-03 2.95481E+00-5.68073E-04 4.71862E-03
 -1      3803-2.42067E+00-4.77778E+00-1.46206E-04 6.62653E+00-5.81734E-04 1.09390E-03
 -1      3804-5.15877E+00-9.46114E-01 1.93765E-03 6.75546E+00 6.85779E-04-2.28746E-03
 -1      3805-8.28205E+00 1.94452E+00-1.63697E-03 8.62092E+00-8.14194E-04 2.24458E-03
 -1      3806-1.02971E+01 4.82825E+00 1.59259E-05 6.40912E+00-1.83116E-04 2.10656E-04
 -1      3807-1.28930E+01 8.35362E+00 1.27433E-04 5.94075E+00 2.02286E-04-8.19955E-05
 -1      3808-1.35261E+01 8.99816E+00 5.70196E-05 2.67310E+00-1.78522E-05-1.98441E-04
 -1      3809-1.45053E+01 1.15275E+01 1.18442E-04 7.75818E-01 2.62713E-05 1.84711E-04
 -1      3810-1.39589E+01 1.00253E+01-1.37807E-04-2.43192E+00-4.80845E-05-1.50693E-06
 -1      3811-1.32328E+01 1.12144E+01 2.53140E-04-4.61208E+00 4.57114E-05-2.56039E-05
 -1      3812-1.19545E+01 8.15452E+00-1.51690E-04-7.16718E+00-1.04544E-05-3.24658E-06
 -1      3813-9.94263E+00 8.33384E+00 2.70494E-04-8.86963E+00-1.77075E-06-3.13607E-05
 -1      3814-8.31468E+00 4.30861E+00-1.48714E-04-1.05372E+01-7.35066E-07 1.89143E-05
 -1      3815-5.53126E+00 3.97143E+00 2.73465E-04-1.14162E+01-1.02245E-05-4.58143E-05
 -1      3816-3.84779E+00-5.35311E-01-1.32375E-04-1.21248E+01 3.43732E-06 1.80334E-05
 -1      3817-7.45757E-01-9.46200E-01 2.56478E-04-1.20928E+01-8.30863E-06-3.81846E-05
 -1      3818 7.35243E-01-5.53079E+00-1.19751E-04-1.18566E+01-9.84780E-07 1.63575E-05
 -1      3819 3.77770E+00-5.65893E+00 2.41521E-04-1.09678E+01 5.14371E-06-3.21811E-05
 -1      3820 4.81218E+00-9.97047E+00-1.13144E-04-9.88059E+00-9.85768E-06 1.43754E-05
 -1      3821 7.47808E+00-9.53552E+00 2.35402E-04-8.28291E+00 2.49629E-05-2.96884E-05
 -1      3822 7.85388E+00-1.32810E+01-1.13963E-04-6.52669E+00-2.25674E-05 1.55479E-05
 -1      3823 9.89094E+00-1.20789E+01 2.42353E-04-4.44656E+00 5.14200E-05-3.48413E-05
 -1      3824 9.46447E+00-1.50487E+01-1.23030E-04-2.28307E+00-3.95065E-05 2.15823E-05
 -1      3825 1.07054E+01-1.29671E+01 2.65388E-04-1.02512E-02 8.68139E-05-5.14048E-05
 -1      3826 9.43553E+00-1.50618E+01-1.42290E-04 2.24803E+00-6.25663E-05 3.55975E-05
 -1      3827 9.82073E+00-1.20997E+01 3.09601E-04 4.38850E+00 1.35791E-04-8.66634E-05
 -1      3828 7.78674E+00-1.33435E+01-1.75311E-04 6.42258E+00-9.45168E-05 6.28974E-05
 -1      3829 7.37663E+00-9.62069E+00 3.86559E-04 8.11092E+00 2.04452E-04-1.54730E-04
 -1      3830 4.77453E+00-1.01568E+01-2.31252E-04 9.64451E+00-1.38719E-04 1.13983E-04
 -1      3831 3.74416E+00-5.90699E+00 5.12404E-04 1.06117E+01 2.99161E-04-2.78633E-04
 -1      3832 8.62333E-01-5.97265E+00-3.19051E-04 1.14554E+01-1.97989E-04 2.03659E-04
 -1      3833-5.22720E-01-1.51769E+00 7.38109E-04 1.15246E+01 4.26433E-04-5.07670E-04
 -1      3834-3.34501E+00-1.40311E+00-4.86093E-04 1.16078E+01-2.75471E-04 3.71619E-04
 -1      3835-4.76815E+00 2.88792E+00 1.09171E-03 1.07246E+01 5.84179E-04-8.97362E-04
 -1      3836-7.19339E+00 2.89159E+00-7.17568E-04 1.01082E+01-3.66343E-04 6.37683E-04
 -1      3837-8.33667E+00 6.65377E+00 1.90887E-03 8.35375E+00 7.87728E-04-1.68303E-03
 -1      3838-1.00874E+01 6.31067E+00-1.41263E-03 7.22177E+00-4.85155E-04 1.25129E-03
 -1      3839-1.06864E+01 9.23902E+00 3.01497E-03 4.80831E+00 9.52228E-04-2.86051E-03
 -1      3840-1.16019E+01 8.42112E+00-1.94789E-03 3.43319E+00-5.64463E-04 1.94365E-03
 -1      3841-1.15007E+01 1.03246E+01 7.68983E-03 6.78266E-01 1.40152E-03-6.48434E-03
 -1      3842-1.15874E+01 9.03710E+00-6.82231E-03-6.39829E-01-8.57205E-04 5.39344E-03
 -1      3843-1.07911E+01 9.87843E+00 1.22503E-02-3.36117E+00 8.29413E-04-1.00494E-02
 -1      3844-1.02348E+01 8.23401E+00-6.00638E-03-4.36202E+00-5.05303E-04 5.92931E-03
 -1      3845-8.90602E+00 8.12138E+00 5.83051E-02-6.68523E+00 6.01789E-03-4.27223E-02
 -1      3846-8.09421E+00 6.08452E+00-5.93376E-02-7.15575E+00-4.31462E-03 4.37044E-02
 -1      3847-6.35105E+00 5.10100E+00 1.31856E-01-8.73335E+00-1.67026E-03-1.37384E-01
 -1      3848-5.15264E+00 2.09055E+00-7.90152E-02-8.55194E+00 5.71159E-03 8.57174E-02
 -1      3849-7.97224E-01-2.51121E+00-7.79442E-04 2.14312E+00-2.93832E-04 3.71496E-03
 -1      3850-2.20350E+00-3.28556E+00-4.53007E-05 5.03590E+00-1.46876E-04 5.48656E-04
 -1      3851-4.74185E+00-3.52990E-01 1.19200E-03 5.11484E+00 1.03115E-05-1.66503E-03
 -1      3852-7.63601E+00 1.88393E+00-1.48090E-03 6.73504E+00-2.21004E-04 1.76972E-03
 -1      3853-9.64954E+00 4.05483E+00 2.10662E-04 4.76155E+00-1.08109E-04 8.15329E-05
 -1      3854-1.22475E+01 6.89652E+00-6.29913E-05 4.39640E+00 1.79847E-04 4.09605E-05
 -1      3855-1.30666E+01 7.09903E+00 6.89890E-05 1.36077E+00-8.13922E-05-1.74873E-04
 -1      3856-1.43047E+01 9.14065E+00 6.96123E-05-3.46187E-01 1.05878E-04 1.99952E-04
 -1      3857-1.39804E+01 7.36170E+00-8.33411E-05-3.42377E+00-6.42672E-05-2.51711E-05
 -1      3858-1.36249E+01 8.22958E+00 2.01769E-04-5.48133E+00 8.23537E-05 1.86649E-05
 -1      3859-1.25081E+01 4.96306E+00-1.23558E-04-7.97071E+00-3.15165E-05-7.91161E-06
 -1      3860-1.08427E+01 4.89275E+00 2.46342E-04-9.63846E+00 3.01544E-05-1.19860E-05
 -1      3861-9.30141E+00 7.00832E-01-1.28653E-04-1.12467E+01-1.28949E-05 1.75486E-05
 -1      3862-6.78001E+00 1.25529E-01 2.60663E-04-1.21378E+01 7.35936E-06-3.45121E-05
 -1      3863-5.13277E+00-4.50154E+00-1.18943E-04-1.27637E+01-5.53050E-06 2.17092E-05
 -1      3864-2.20459E+00-5.15585E+00 2.54493E-04-1.27480E+01 3.38909E-06-3.26821E-05
 -1      3865-7.36244E-01-9.80198E+00-1.09402E-04-1.24036E+01-8.04575E-06 2.23920E-05
 -1      3866 2.20133E+00-1.01728E+01 2.46625E-04-1.15104E+01 1.54488E-05-2.88408E-05
 -1      3867 3.23080E+00-1.44812E+01-1.05206E-04-1.03009E+01-1.69707E-05 2.22999E-05
 -1      3868 5.83948E+00-1.42755E+01 2.46673E-04-8.66921E+00 3.82249E-05-2.83646E-05
 -1      3869 6.21319E+00-1.79555E+01-1.08626E-04-6.79038E+00-3.08294E-05 2.53443E-05
 -1      3870 8.22453E+00-1.69572E+01 2.60389E-04-4.64617E+00 7.05643E-05-3.69271E-05
 -1      3871 7.80137E+00-1.98064E+01-1.21179E-04-2.37064E+00-4.97365E-05 3.39517E-05
 -1      3872 9.03733E+00-1.78935E+01 2.92572E-04-6.84986E-03 1.14231E-04-5.98777E-05
 -1      3873 7.78189E+00-1.98219E+01-1.45416E-04 2.34657E+00-7.53044E-05 5.18273E-05
 -1      3874 8.17578E+00-1.69855E+01 3.49904E-04 4.60056E+00 1.73547E-04-1.06189E-04
 -1      3875 6.17333E+00-1.80273E+01-1.85700E-04 6.71086E+00-1.10118E-04 8.49933E-05
 -1      3876 5.78046E+00-1.43811E+01 4.45742E-04 8.53028E+00 2.54171E-04-1.92320E-04
 -1      3877 3.23155E+00-1.46881E+01-2.51980E-04 1.01225E+01-1.56988E-04 1.44860E-04
 -1      3878 2.22310E+00-1.04609E+01 5.99062E-04 1.12327E+01 3.62283E-04-3.44682E-04
 -1      3879-5.82004E-01-1.02772E+01-3.55309E-04 1.21209E+01-2.18881E-04 2.47518E-04
 -1      3880-1.94332E+00-5.78789E+00 8.64679E-04 1.23388E+01 5.01577E-04-6.17876E-04
 -1      3881-4.66661E+00-5.40818E+00-5.42748E-04 1.24561E+01-2.95527E-04 4.34321E-04
 -1      3882-6.06629E+00-1.02459E+00 1.28252E-03 1.17204E+01 6.74742E-04-1.07601E-03
 -1      3883-8.37446E+00-7.42389E-01-8.12681E-04 1.11306E+01-3.91385E-04 7.29001E-04
 -1      3884-9.49635E+00 3.17038E+00 2.20514E-03 9.51474E+00 8.71358E-04-1.97221E-03
 -1      3885-1.11172E+01 3.11777E+00-1.53749E-03 8.40009E+00-4.82399E-04 1.38393E-03
 -1      3886-1.16987E+01 6.25370E+00 3.53929E-03 6.10631E+00 1.09223E-03-3.33209E-03
 -1      3887-1.24730E+01 5.73453E+00-2.22437E-03 4.73078E+00-6.40911E-04 2.14961E-03
 -1      3888-1.23599E+01 7.90084E+00 8.64475E-03 2.06126E+00 1.31696E-03-7.28908E-03
 -1      3889-1.22828E+01 6.91143E+00-6.96329E-03 7.09112E-01-5.84375E-04 5.66072E-03
 -1      3890-1.14790E+01 8.06718E+00 1.44261E-02-1.98570E+00 1.48900E-03-1.13870E-02
 -1      3891-1.07150E+01 6.71032E+00-7.38063E-03-3.07171E+00-1.52323E-03 6.43028E-03
 -1      3892-9.37705E+00 6.96075E+00 6.35150E-02-5.45413E+00 3.72139E-03-4.69782E-02
 -1      3893-8.33477E+00 5.23187E+00-5.97883E-02-6.05333E+00-2.24550E-04 4.54197E-02
 -1      3894-6.68750E+00 4.68975E+00 1.38035E-01-7.71312E+00 1.98975E-03-1.44535E-01
 -1      3895-5.29560E+00 1.92175E+00-7.56600E-02-7.46597E+00-4.91520E-03 8.26228E-02
 -1      3896-7.22669E-01-1.38080E+00-4.39959E-04 1.42436E+00-9.33213E-06 2.78496E-03
 -1      3897-1.99901E+00-2.16249E+00 4.02042E-06 3.63762E+00 1.53376E-04 1.59839E-04
 -1      3898-4.31478E+00 3.96188E-02 5.71139E-04 3.66442E+00-6.38376E-04-1.04735E-03
 -1      3899-7.00634E+00 1.74498E+00-1.45088E-03 5.03637E+00 3.33657E-04 1.30185E-03
 -1      3900-8.97751E+00 3.25655E+00 3.89311E-04 3.24391E+00-6.19560E-05-4.85676E-05
 -1      3901-1.15725E+01 5.48030E+00-1.93700E-04 2.92368E+00 1.78188E-04 1.27697E-04
 -1      3902-1.25401E+01 5.23385E+00 8.87718E-05 8.86037E-02-1.52249E-04-1.69309E-04
 -1      3903-1.39963E+01 6.80067E+00 6.43445E-06-1.46746E+00 1.76249E-04 1.89850E-04
 -1      3904-1.38851E+01 4.73417E+00-5.84701E-05-4.41308E+00-8.34766E-05-5.23463E-05
 -1      3905-1.38549E+01 5.27756E+00 1.60289E-04-6.34698E+00 1.05285E-04 3.62887E-05
 -1      3906-1.29188E+01 1.81029E+00-1.25437E-04-8.75961E+00-5.10631E-05-1.90254E-05
 -1      3907-1.15725E+01 1.49760E+00 2.29196E-04-1.03662E+01 5.06191E-05-1.00413E-05
 -1      3908-1.01507E+01-2.84336E+00-1.36407E-04-1.19121E+01-2.22237E-05 7.56123E-06
 -1      3909-7.88421E+00-3.63310E+00 2.52675E-04-1.27839E+01 1.88905E-05-3.63760E-05
 -1      3910-6.30595E+00-8.36207E+00-1.26957E-04-1.33362E+01-1.13194E-05 1.39322E-05
 -1      3911-3.55836E+00-9.22453E+00 2.49527E-04-1.33122E+01 1.24119E-05-3.87690E-05
 -1      3912-2.12793E+00-1.39207E+01-1.14556E-04-1.28779E+01-1.17103E-05 1.51768E-05
 -1      3913 6.91397E-01-1.44940E+01 2.40766E-04-1.19670E+01 2.38997E-05-3.73291E-05
 -1      3914 1.70037E+00-1.87984E+01-1.07468E-04-1.06581E+01-2.00845E-05 1.57636E-05
 -1      3915 4.23704E+00-1.87821E+01 2.38950E-04-8.99008E+00 4.78640E-05-3.93648E-05
 -1      3916 4.60244E+00-2.24064E+01-1.08660E-04-7.01190E+00-3.37712E-05 1.96351E-05
 -1      3917 6.57518E+00-2.15760E+01 2.51082E-04-4.81066E+00 8.20739E-05-5.10685E-05
 -1      3918 6.15668E+00-2.43240E+01-1.19387E-04-2.44342E+00-5.23899E-05 2.92967E-05
 -1      3919 7.37876E+00-2.25501E+01 2.82263E-04-2.89040E-03 1.27708E-04-7.84163E-05
 -1      3920 6.14439E+00-2.43391E+01-1.41389E-04 2.43061E+00-7.70379E-05 4.82862E-05
 -1      3921 6.54323E+00-2.16066E+01 3.38874E-04 4.77907E+00 1.88401E-04-1.30846E-04
 -1      3922 4.58175E+00-2.24780E+01-1.77976E-04 6.95722E+00-1.09846E-04 8.22731E-05
 -1      3923 4.20811E+00-1.88949E+01 4.33581E-04 8.88638E+00 2.68653E-04-2.25149E-04
 -1      3924 1.72200E+00-1.90064E+01-2.37155E-04 1.05360E+01-1.52686E-04 1.41899E-04
 -1      3925 7.43030E-01-1.47971E+01 5.85798E-04 1.17681E+01 3.73617E-04-3.87769E-04
 -1      3926-1.97793E+00-1.43966E+01-3.29203E-04 1.27062E+01-2.08515E-04 2.41863E-04
 -1      3927-3.30339E+00-9.87613E+00 8.50348E-04 1.30543E+01 5.03050E-04-6.72403E-04
 -1      3928-5.92424E+00-9.26073E+00-4.93655E-04 1.32167E+01-2.72877E-04 4.20202E-04
 -1      3929-7.28537E+00-4.79438E+00 1.27990E-03 1.26142E+01 6.65082E-04-1.14211E-03
 -1      3930-9.47762E+00-4.25884E+00-7.45534E-04 1.20653E+01-3.61950E-04 6.98499E-04
 -1      3931-1.05617E+01-2.10379E-01 2.22473E-03 1.05788E+01 8.20818E-04-2.04238E-03
 -1      3932-1.20572E+01 6.15035E-03-1.38373E-03 9.49823E+00-4.06983E-04 1.30795E-03
 -1      3933-1.26039E+01 3.33046E+00 3.68371E-03 7.31976E+00 1.07969E-03-3.40321E-03
 -1      3934-1.32414E+01 3.09013E+00-2.18690E-03 5.96375E+00-6.53993E-04 2.02405E-03
 -1      3935-1.30956E+01 5.49526E+00 8.81915E-03 3.37902E+00 1.03156E-03-7.25271E-03
 -1      3936-1.28527E+01 4.78441E+00-6.19915E-03 2.02012E+00-2.07742E-04 5.21279E-03
 -1      3937-1.20079E+01 6.22031E+00 1.50167E-02-6.45657E-01 2.21149E-03-1.13725E-02
 -1      3938-1.10133E+01 5.12809E+00-9.18326E-03-1.78210E+00-2.66986E-03 6.19672E-03
 -1      3939-9.60543E+00 5.69703E+00 6.15154E-02-4.22126E+00 3.21772E-04-4.65784E-02
 -1      3940-8.23719E+00 4.28198E+00-5.14328E-02-4.94871E+00 5.50998E-03 4.20841E-02
 -1      3941-6.65702E+00 4.20411E+00 1.26669E-01-6.76051E+00 6.69416E-03-1.32273E-01
 -1      3942-5.01903E+00 1.79527E+00-6.37293E-02-6.44172E+00-1.89580E-02 6.61189E-02
 -1      3943-6.29709E-01-6.56600E-01 2.19410E-04 8.04464E-01 1.26810E-04 2.03733E-03
 -1      3944-1.76625E+00-1.32290E+00 4.65383E-05 2.42849E+00 5.31139E-04-2.04098E-04
 -1      3945-3.82185E+00 2.62890E-01 5.97797E-05 2.40376E+00-1.14484E-03-5.87067E-04
 -1      3946-6.33398E+00 1.52418E+00-1.30605E-03 3.51903E+00 9.12586E-04 9.32724E-04
 -1      3947-8.23860E+00 2.41806E+00 6.03963E-04 1.85351E+00-1.83555E-05-1.18215E-04
 -1      3948-1.08452E+01 4.07902E+00-2.20302E-04 1.52901E+00 2.25850E-04 3.03277E-04
 -1      3949-1.19416E+01 3.38345E+00 1.59729E-04-1.14162E+00-1.92774E-04-1.77987E-04
 -1      3950-1.35998E+01 4.49405E+00-3.36616E-05-2.58175E+00 2.95821E-04 2.67954E-04
 -1      3951-1.36971E+01 2.13392E+00 4.51644E-05-5.40242E+00-8.31659E-05-6.61655E-05
 -1      3952-1.39639E+01 2.35618E+00 1.15386E-04-7.21627E+00 1.68646E-04 1.04021E-04
 -1      3953-1.32223E+01-1.30688E+00-5.81869E-05-9.54689E+00-5.22230E-05-1.86057E-05
 -1      3954-1.21732E+01-1.85379E+00 2.00657E-04-1.10743E+01 9.93239E-05 2.37194E-05
 -1      3955-1.08948E+01-6.32988E+00-8.34774E-05-1.25552E+01-1.47227E-05 1.14709E-05
 -1      3956-8.87443E+00-7.31464E+00 2.47818E-04-1.33832E+01 4.73998E-05-1.81595E-05
 -1      3957-7.38969E+00-1.21308E+01-8.15620E-05-1.38676E+01-9.30752E-07 1.79556E-05
 -1      3958-4.82454E+00-1.31730E+01 2.69163E-04-1.38150E+01 2.97043E-05-2.98281E-05
 -1      3959-3.45149E+00-1.79101E+01-6.85783E-05-1.33038E+01-1.88660E-07 1.68752E-05
 -1      3960-7.58278E-01-1.86534E+01 2.80403E-04-1.23630E+01 3.38774E-05-3.26972E-05
 -1      3961 2.17947E-01-2.29531E+01-5.77591E-05-1.09717E+01-9.40675E-06 1.47873E-05
 -1      3962 2.67277E+00-2.30937E+01 2.92999E-04-9.26387E+00 5.30845E-05-3.71949E-05
 -1      3963 3.02468E+00-2.66706E+01-5.44404E-05-7.20387E+00-2.44444E-05 1.64974E-05
 -1      3964 4.94975E+00-2.59784E+01 3.14707E-04-4.94984E+00 8.27210E-05-5.02744E-05
 -1      3965 4.53647E+00-2.86414E+01-6.13939E-05-2.50627E+00-4.38256E-05 2.47128E-05
 -1      3966 5.73815E+00-2.69814E+01 3.52107E-04 7.75316E-04 1.22399E-04-7.77614E-05
 -1      3967 4.52935E+00-2.86534E+01-8.08939E-05 2.50303E+00-6.74087E-05 4.24982E-05
 -1      3968 4.93029E+00-2.60055E+01 4.13138E-04 4.93163E+00 1.74460E-04-1.27953E-04
 -1      3969 3.01624E+00-2.67328E+01-1.16567E-04 7.17145E+00-9.61589E-05 7.43867E-05
 -1      3970 2.66316E+00-2.32003E+01 5.11279E-04 9.19390E+00 2.42031E-04-2.15338E-04
 -1      3971 2.46252E-01-2.31441E+01-1.75865E-04 1.09002E+01-1.30323E-04 1.28695E-04
 -1      3972-6.97843E-01-1.89466E+01 6.67122E-04 1.22376E+01 3.29903E-04-3.62353E-04
 -1      3973-3.33010E+00-1.83567E+01-2.71370E-04 1.32300E+01-1.72735E-04 2.16884E-04
 -1      3974-4.61087E+00-1.38051E+01 9.30194E-04 1.36931E+01 4.35196E-04-6.14891E-04
 -1      3975-7.12787E+00-1.29793E+01-4.33785E-04 1.39092E+01-2.14564E-04 3.68041E-04
 -1      3976-8.43919E+00-8.43539E+00 1.35421E-03 1.34274E+01 5.76340E-04-1.02592E-03
 -1      3977-1.05179E+01-7.66887E+00-7.04300E-04 1.29314E+01-2.86120E-04 5.99208E-04
 -1      3978-1.15512E+01-3.49443E+00 2.22217E-03 1.15652E+01 6.83416E-04-1.80555E-03
 -1      3979-1.29273E+01-3.02805E+00-1.24705E-03 1.05337E+01-2.73589E-04 1.08000E-03
 -1      3980-1.34246E+01 4.69989E-01 3.53964E-03 8.46516E+00 9.98497E-04-2.97597E-03
 -1      3981-1.39329E+01 4.91543E-01-2.20669E-03 7.14837E+00-6.13884E-04 1.64658E-03
 -1      3982-1.37355E+01 3.11350E+00 7.81688E-03 4.64805E+00 6.30245E-04-6.24171E-03
 -1      3983-1.33327E+01 2.66792E+00-4.79757E-03 3.31015E+00 2.35566E-04 4.05521E-03
 -1      3984-1.24166E+01 4.34862E+00 1.26187E-02 6.85232E-01 2.98045E-03-1.00124E-02
 -1      3985-1.11753E+01 3.50306E+00-1.02299E-02-4.61736E-01-3.58614E-03 5.35160E-03
 -1      3986-9.65474E+00 4.34616E+00 5.01595E-02-2.93047E+00-5.04829E-03-3.97186E-02
 -1      3987-7.82144E+00 3.22409E+00-2.84051E-02-3.76107E+00 1.30083E-02 3.13710E-02
 -1      3988-6.21030E+00 3.58214E+00 9.68720E-02-5.82506E+00 1.27693E-02-9.86852E-02
 -1      3989-4.23583E+00 1.67093E+00-4.74320E-02-5.45994E+00-3.90743E-02 3.67806E-02
 -1      3990-4.85625E-01-2.42832E-01-5.90246E-04 3.10447E-01 3.87574E-04 8.25758E-04
 -1      3991-1.45052E+00-7.02125E-01-3.19385E-05 1.42673E+00 8.91016E-04-3.53008E-04
 -1      3992-3.19466E+00 3.32189E-01-6.79122E-04 1.33529E+00-1.17844E-03 9.91193E-05
 -1      3993-5.55728E+00 1.21331E+00-1.33133E-03 2.17571E+00 1.50751E-03 2.39242E-04
 -1      3994-7.38821E+00 1.51875E+00 4.57920E-05 5.80846E-01-8.17821E-05-4.87442E-04
 -1      3995-1.00407E+01 2.66872E+00-3.17519E-04 2.08823E-01 2.63657E-04 1.83069E-04
 -1      3996-1.12613E+01 1.52726E+00-1.24733E-04-2.33621E+00-3.32547E-04-4.48156E-04
 -1      3997-1.31268E+01 2.20719E+00-1.51356E-05-3.68964E+00 2.98875E-04 1.10325E-04
 -1      3998-1.34323E+01-4.50330E-01 3.07863E-05-6.39758E+00-2.35707E-04-3.38310E-04
 -1      3999-1.39833E+01-5.37537E-01 1.81789E-04-8.09705E+00 1.32252E-04-5.14913E-06
 -1      4000-1.34446E+01-4.39362E+00 7.56941E-05-1.03428E+01-1.70556E-04-2.44366E-04
 -1      4001-1.26789E+01-5.16299E+00 2.26276E-04-1.17801E+01 8.08350E-05-7.92861E-05
 -1      4002-1.15590E+01-9.76427E+00 1.10005E-04-1.31911E+01-8.84857E-05-1.96440E-04
 -1      4003-9.77712E+00-1.09267E+01 2.11083E-04-1.39593E+01 4.74018E-05-1.24627E-04
 -1      4004-8.40296E+00-1.58179E+01 1.24135E-04-1.43752E+01-3.57078E-05-1.86039E-04
 -1      4005-6.01913E+00-1.70181E+01 1.72871E-04-1.42808E+01 4.13760E-05-1.49667E-04
 -1      4006-4.71864E+00-2.17866E+01 1.29476E-04-1.36975E+01-7.03508E-06-1.91455E-04
 -1      4007-2.15409E+00-2.26765E+01 1.38084E-04-1.27197E+01 4.39526E-05-1.67285E-04
 -1      4008-1.22206E+00-2.69673E+01 1.29730E-04-1.12546E+01 3.45571E-06-2.00438E-04
 -1      4009 1.14740E+00-2.72428E+01 1.16016E-04-9.50617E+00 4.91037E-05-1.82987E-04
 -1      4010 1.47844E+00-3.07743E+01 1.27557E-04-7.37469E+00 4.38190E-06-2.06605E-04
 -1      4011 3.35323E+00-3.02012E+01 1.08239E-04-5.07214E+00 5.37398E-05-2.00024E-04
 -1      4012 2.94140E+00-3.27868E+01 1.23885E-04-2.56248E+00 1.38272E-06-2.08461E-04
 -1      4013 4.12203E+00-3.12259E+01 1.13231E-04 3.30331E-03 5.85631E-05-2.21039E-04
 -1      4014 2.93777E+00-3.27932E+01 1.18871E-04 2.56560E+00-2.22527E-06-2.06178E-04
 -1      4015 3.34250E+00-3.02196E+01 1.29617E-04 5.06457E+00 6.59431E-05-2.50152E-04
 -1      4016 1.47654E+00-3.08183E+01 1.12158E-04 7.35982E+00-5.43820E-06-2.00431E-04
 -1      4017 1.14805E+00-2.73308E+01 1.58180E-04 9.46514E+00 7.75683E-05-2.95133E-04
 -1      4018-1.19834E+00-2.71241E+01 1.03350E-04 1.12249E+01-6.78455E-06-1.90954E-04
 -1      4019-2.10159E+00-2.29375E+01 2.03257E-04 1.26577E+01 9.76690E-05-3.67217E-04
 -1      4020-4.64417E+00-2.21757E+01 9.06694E-05 1.37040E+01-1.16187E-05-1.77967E-04
 -1      4021-5.87299E+00-1.75963E+01 2.82256E-04 1.42738E+01 1.17439E-04-4.91984E-04
 -1      4022-8.28628E+00-1.65766E+01 7.20032E-05 1.45458E+01-5.93564E-06-1.54963E-04
 -1      4023-9.54007E+00-1.19625E+01 4.19994E-04 1.41790E+01 1.70092E-04-6.93768E-04
 -1      4024-1.15067E+01-1.09793E+01 2.71329E-05 1.37401E+01-5.42127E-05-1.20589E-04
 -1      4025-1.24821E+01-6.69022E+00 7.73988E-04 1.24917E+01 1.36170E-04-1.09756E-03
 -1      4026-1.37412E+01-5.98562E+00-4.84234E-05 1.15151E+01 4.14670E-05-1.76488E-05
 -1      4027-1.41825E+01-2.32917E+00 1.38395E-03 9.55919E+00 4.79220E-04-1.71431E-03
 -1      4028-1.45645E+01-2.05494E+00-4.40682E-04 8.29109E+00-4.78881E-04 2.10121E-04
 -1      4029-1.43096E+01 7.63691E-01 3.94358E-03 5.88587E+00-3.36567E-04-3.62179E-03
 -1      4030-1.37475E+01 5.74614E-01-6.44633E-04 4.58585E+00 1.10016E-03 1.10150E-03
 -1      4031-1.27547E+01 2.48076E+00 6.98008E-03 2.02690E+00 3.58060E-03-6.51522E-03
 -1      4032-1.12436E+01 1.86771E+00-4.62975E-03 9.16610E-01-3.75326E-03 3.45021E-03
 -1      4033-9.61577E+00 2.96010E+00 3.10224E-02-1.55554E+00-1.30450E-02-2.23945E-02
 -1      4034-7.18985E+00 2.07940E+00 7.09490E-03-2.38649E+00 2.27112E-02 6.71589E-03
 -1      4035-5.30349E+00 2.71750E+00 5.17230E-02-4.78397E+00 2.55801E-02-4.22604E-02
 -1      4036-2.81027E+00 1.42474E+00-4.97851E-02-4.45280E+00-6.46234E-02-1.71781E-03
 -1      4037-2.41435E-01-4.69231E-02 1.25120E-03-9.04477E-03 3.20057E-04 1.76345E-03
 -1      4038-9.74230E-01-2.64768E-01-3.46675E-04 6.65614E-01 1.07691E-03-1.26431E-03
 -1      4039-2.34916E+00 2.43696E-01 7.47473E-05 4.60929E-01 9.76421E-04-6.47375E-04
 -1      4040-4.60985E+00 7.95583E-01-7.66554E-04 9.83994E-01 2.37894E-03 8.99497E-04
 -1      4041-6.37972E+00 5.36640E-01 9.23188E-04-5.90152E-01 2.07565E-04-1.43117E-03
 -1      4042-9.12785E+00 1.21832E+00-8.21297E-04-1.05924E+00 9.22979E-04 1.24116E-03
 -1      4043-1.04905E+01-3.52362E-01 3.84537E-04-3.50720E+00-3.19207E-04-1.20421E-03
 -1      4044-1.25729E+01-8.73690E-02-2.31188E-04-4.80259E+00 9.13733E-04 9.48239E-04
 -1      4045-1.31078E+01-3.02870E+00 1.28530E-04-7.40858E+00-5.05085E-04-8.91101E-04
 -1      4046-1.39257E+01-3.42218E+00 2.39923E-04-8.99554E+00 6.93852E-04 5.81443E-04
 -1      4047-1.36138E+01-7.45658E+00-7.49944E-05-1.11607E+01-3.88523E-04-6.27676E-04
 -1      4048-1.31082E+01-8.44283E+00 6.03936E-04-1.24895E+01 5.48808E-04 2.52452E-04
 -1      4049-1.21713E+01-1.31560E+01-1.74806E-04-1.38372E+01-1.99900E-04-5.23366E-04
 -1      4050-1.06106E+01-1.44809E+01 8.17557E-04-1.45190E+01 4.19171E-04 2.36921E-05
 -1      4051-9.36802E+00-1.94397E+01-2.10123E-04-1.48782E+01-3.70344E-05-5.28596E-04
 -1      4052-7.15748E+00-2.07727E+01 9.33162E-04-1.47164E+01 3.20627E-04-1.28984E-04
 -1      4053-5.94431E+00-2.55742E+01-2.11123E-04-1.40772E+01 5.67112E-05-5.86720E-04
 -1      4054-3.50835E+00-2.65787E+01 9.86883E-04-1.30428E+01 2.36478E-04-2.29198E-04
 -1      4055-2.62819E+00-3.08722E+01-1.98550E-04-1.15215E+01 8.98467E-05-6.52664E-04
 -1      4056-3.49185E-01-3.12469E+01 1.00875E-03-9.72106E+00 1.54690E-04-2.94060E-04
 -1      4057-4.02700E-02-3.47535E+01-1.83178E-04-7.53403E+00 8.23219E-05-7.04614E-04
 -1      4058 1.77682E+00-3.42635E+01 1.01452E-03-5.17988E+00 6.83728E-05-3.30659E-04
 -1      4059 1.36991E+00-3.67992E+01-1.69111E-04-2.61578E+00 5.43485E-05-7.35863E-04
 -1      4060 2.52222E+00-3.53032E+01 1.01228E-03 4.06229E-03-2.32197E-05-3.40645E-04
 -1      4061 1.36849E+00-3.67976E+01-1.57011E-04 2.62056E+00 2.06172E-05-7.48067E-04
 -1      4062 1.77199E+00-3.42682E+01 1.00703E-03 5.17872E+00-1.15431E-04-3.23633E-04
 -1      4063-3.97554E-02-3.47719E+01-1.46525E-04 7.52994E+00-1.08492E-05-7.45602E-04
 -1      4064-3.44887E-01-3.13048E+01 1.00375E-03 9.70217E+00-2.02062E-04-2.79244E-04
 -1      4065-2.61675E+00-3.09804E+01-1.37441E-04 1.15218E+01-3.26077E-05-7.35081E-04
 -1      4066-3.47562E+00-2.67866E+01 1.01626E-03 1.30314E+01-2.67671E-04-2.09884E-04
 -1      4067-5.92839E+00-2.58829E+01-1.30266E-04 1.41431E+01-5.23476E-05-7.15599E-04
 -1      4068-7.09682E+00-2.12642E+01 1.05789E-03 1.48003E+01-3.14027E-04-1.16796E-04
 -1      4069-9.41127E+00-2.00765E+01-1.27355E-04 1.51429E+01-3.83552E-05-7.05312E-04
 -1      4070-1.05946E+01-1.53864E+01 1.18874E-03 1.48730E+01-2.67306E-04-2.41405E-05
 -1      4071-1.24593E+01-1.42088E+01-1.13779E-04 1.45082E+01-8.07912E-05-6.40520E-04
 -1      4072-1.33603E+01-9.80329E+00 1.40662E-03 1.33620E+01-2.82872E-04 8.68708E-05
 -1      4073-1.45189E+01-8.88046E+00-8.00152E-05 1.24597E+01 1.79491E-04-7.12840E-04
 -1      4074-1.48843E+01-5.06554E+00 1.93264E-03 1.06038E+01 2.82667E-04-1.37628E-07
 -1      4075-1.51622E+01-4.55502E+00 2.45519E-04 9.41040E+00-1.88663E-04-2.72030E-04
 -1      4076-1.48294E+01-1.54405E+00 2.44220E-03 7.09082E+00-8.65058E-04 7.30867E-05
 -1      4077-1.41425E+01-1.49448E+00 1.25100E-03 5.86707E+00 2.80559E-03-1.81522E-03
 -1      4078-1.30457E+01 6.32838E-01 2.13251E-03 3.36809E+00 2.65842E-03-1.18894E-03
 -1      4079-1.13061E+01 2.70524E-01 6.15837E-03 2.38180E+00-1.48130E-03-1.04030E-04
 -1      4080-9.54512E+00 1.53097E+00-5.85602E-03-1.04202E-01-2.39616E-02 1.02840E-02
 -1      4081-6.59049E+00 8.68065E-01 2.41368E-02-7.80015E-01 2.99310E-02-3.61792E-02
 -1      4082-4.08650E+00 1.48392E+00-5.82444E-02-3.29717E+00 3.26426E-02 4.38466E-02
 -1      4083-3.70405E-01 9.02981E-01 8.38629E-03-3.07849E+00-1.02394E-01-5.09401E-02
 -1      4084-1.85237E-01-3.18997E-02-2.40031E-03 1.87708E-01-9.72271E-05-4.32344E-03
 -1      4085-3.39385E+00 2.26080E-01-6.76784E-05-9.71529E-02 6.17632E-04 2.05234E-03
 -1      4086-8.05887E+00-3.23967E-01-1.57337E-03-2.31671E+00 1.82510E-03 3.81713E-03
 -1      4087-1.19303E+01-2.44505E+00-2.41377E-04-5.95679E+00 1.89047E-03 2.53317E-03
 -1      4088-1.38081E+01-6.35750E+00 7.89813E-05-9.94507E+00 1.85056E-03 1.54074E-03
 -1      4089-1.34903E+01-1.17605E+01 3.50481E-04-1.32354E+01 1.55148E-03 5.52775E-04
 -1      4090-1.14074E+01-1.80545E+01 4.03892E-04-1.50936E+01 1.21065E-03-1.13671E-04
 -1      4091-8.27114E+00-2.45249E+01 3.76069E-04-1.51499E+01 8.76085E-04-5.55440E-04
 -1      4092-4.85016E+00-3.04575E+01 2.98022E-04-1.33553E+01 5.57011E-04-8.28258E-04
 -1      4093-1.84373E+00-3.52106E+01 1.96315E-04-9.92481E+00 2.29767E-04-9.85606E-04
 -1      4094 1.95378E-01-3.82743E+01 7.21637E-05-5.28174E+00-1.27394E-04-1.04378E-03
 -1      4095 9.14300E-01-3.93240E+01-8.60484E-05 2.24775E-03-5.27109E-04-9.97134E-04
 -1      4096 1.94144E-01-3.82610E+01-3.02607E-04 5.28094E+00-9.72189E-04-8.25170E-04
 -1      4097-1.84113E+00-3.52284E+01-6.18320E-04 9.91881E+00-1.46148E-03-4.92703E-04
 -1      4098-4.84669E+00-3.05943E+01-1.09912E-03 1.33784E+01-1.99051E-03 4.33094E-05
 -1      4099-8.31041E+00-2.49024E+01-1.87157E-03 1.52967E+01-2.57657E-03 8.88299E-04
 -1      4100-1.16320E+01-1.87940E+01-3.14783E-03 1.55372E+01-3.20320E-03 2.10543E-03
 -1      4101-1.42168E+01-1.29149E+01-5.46467E-03 1.42069E+01-4.09764E-03 4.27847E-03
 -1      4102-1.55648E+01-7.81768E+00-9.55880E-03 1.16345E+01-4.83131E-03 7.02758E-03
 -1      4103-1.53372E+01-3.88631E+00-1.87412E-02 8.30355E+00-8.00992E-03 1.54951E-02
 -1      4104-1.33591E+01-1.27124E+00-3.53969E-02 4.76950E+00-6.23094E-03 2.28563E-02
 -1      4105-9.55581E+00 2.44966E-02-9.65134E-02 1.53929E+00-2.94703E-02 9.68466E-02
 -1      4106-3.38957E+00 3.36048E-01-1.51665E-01-1.00993E+00 1.02113E-01 1.47613E-01
 -1      4107-6.67761E+01 6.41854E+01 5.01897E+00 1.95421E+01 7.39547E+00-8.57405E-01
 -1      4108-4.70609E+01 5.17382E+01 3.12620E+00 1.54064E+01 4.51161E+00-7.57464E-01
 -1      4109-4.40206E+01 5.40569E+01 5.76776E+00 1.39229E+01 2.09434E-10-7.37825E-11
 -1      4110-4.70609E+01 5.17382E+01 3.12620E+00 1.54064E+01-4.51161E+00 7.57464E-01
 -1      4111-6.67761E+01 6.41854E+01 5.01897E+00 1.95421E+01-7.39547E+00 8.57405E-01
 -1      4112 4.15692E+01 8.65328E+00-3.67336E+00 1.00766E+01 2.42293E+00-4.63058E+00
 -1      4113 4.71891E+01 1.31097E+01-2.64505E+00 1.35953E+01 1.53754E+00-2.34116E+00
 -1      4114 4.85821E+01 1.20129E+01-3.40318E+00 1.32904E+01-3.16469E-11 5.55344E-11
 -1      4115 4.71891E+01 1.31097E+01-2.64505E+00 1.35953E+01-1.53754E+00 2.34116E+00
 -1      4116 4.15692E+01 8.65328E+00-3.67336E+00 1.00766E+01-2.42293E+00 4.63058E+00
 -1      4117 5.21521E+01 1.76635E+01 6.76106E-01 1.12749E+01-7.31807E-02-9.52992E-01
 -1      4118 5.19360E+01 1.75872E+01-3.14484E-01 1.31364E+01-6.92795E-02-7.38417E-01
 -1      4119 5.24703E+01 1.75409E+01-4.54969E-01 1.31958E+01 1.04713E-11-9.94737E-12
 -1      4120 5.19360E+01 1.75872E+01-3.14484E-01 1.31364E+01 6.92795E-02 7.38417E-01
 -1      4121 5.21521E+01 1.76635E+01 6.76106E-01 1.12749E+01 7.31807E-02 9.52992E-01
 -1      4122 4.75699E+01 2.19591E+01-3.03522E-01 2.34771E+01-2.43561E-02-1.71392E-01
 -1      4123 4.70631E+01 2.27085E+01-3.24724E-01 2.39949E+01-1.51026E-02-9.50050E-02
 -1      4124 4.70957E+01 2.25964E+01-4.18304E-01 2.40135E+01 3.95258E-12-1.25384E-12
 -1      4125 4.70631E+01 2.27085E+01-3.24724E-01 2.39949E+01 1.51026E-02 9.50050E-02
 -1      4126 4.75699E+01 2.19591E+01-3.03522E-01 2.34771E+01 2.43561E-02 1.71392E-01
 -1      4127 4.16719E+01 3.29557E+01 4.80811E-02 2.84867E+01 2.79667E-02 1.16981E-02
 -1      4128 4.14173E+01 3.30962E+01-1.90350E-02 2.86560E+01-4.43932E-03 9.02442E-03
 -1      4129 4.14371E+01 3.30765E+01-3.89599E-02 2.86747E+01-3.40047E-13 7.64723E-13
 -1      4130 4.14173E+01 3.30962E+01-1.90350E-02 2.86560E+01 4.43932E-03-9.02442E-03
 -1      4131 4.16719E+01 3.29557E+01 4.80811E-02 2.84867E+01-2.79667E-02-1.16981E-02
 -1      4132 3.56293E+01 4.43789E+01-3.13851E-02 3.15737E+01 5.70110E-02-5.14708E-03
 -1      4133 3.56323E+01 4.44514E+01-4.04869E-02 3.16665E+01 4.46488E-02-1.07457E-04
 -1      4134 3.56688E+01 4.44357E+01-5.19105E-02 3.16922E+01-2.64545E-12 1.08758E-11
 -1      4135 3.56323E+01 4.44514E+01-4.04869E-02 3.16665E+01-4.46488E-02 1.07457E-04
 -1      4136 3.56293E+01 4.43789E+01-3.13851E-02 3.15737E+01-5.70110E-02 5.14708E-03
 -1      4137 2.97166E+01 5.64482E+01-1.56783E-02 3.18493E+01 7.39193E-02-4.12870E-02
 -1      4138 2.98015E+01 5.64906E+01-3.92902E-02 3.19807E+01 5.73213E-02-2.45833E-02
 -1      4139 2.98413E+01 5.64996E+01-4.84926E-02 3.20229E+01 1.12193E-11-1.24464E-12
 -1      4140 2.98015E+01 5.64906E+01-3.92902E-02 3.19807E+01-5.73213E-02 2.45833E-02
 -1      4141 2.97166E+01 5.64482E+01-1.56783E-02 3.18493E+01-7.39193E-02 4.12870E-02
 -1      4142 2.39097E+01 6.81238E+01-2.51832E-02 2.96524E+01 7.49047E-02-7.58523E-02
 -1      4143 2.39978E+01 6.82201E+01-5.06691E-02 2.98175E+01 6.22141E-02-5.10040E-02
 -1      4144 2.40315E+01 6.82534E+01-5.94315E-02 2.98693E+01-1.05271E-11-6.79624E-12
 -1      4145 2.39978E+01 6.82201E+01-5.06691E-02 2.98175E+01-6.22141E-02 5.10040E-02
 -1      4146 2.39097E+01 6.81238E+01-2.51832E-02 2.96524E+01-7.49047E-02 7.58523E-02
 -1      4147 1.85773E+01 7.85525E+01-2.78945E-02 2.49568E+01 6.61322E-02-1.05782E-01
 -1      4148 1.86232E+01 7.87269E+01-5.81634E-02 2.51275E+01 5.54419E-02-7.39020E-02
 -1      4149 1.86422E+01 7.87878E+01-6.75380E-02 2.51798E+01 6.43425E-12 5.08158E-12
 -1      4150 1.86232E+01 7.87269E+01-5.81634E-02 2.51275E+01-5.54419E-02 7.39020E-02
 -1      4151 1.85773E+01 7.85525E+01-2.78945E-02 2.49568E+01-6.61322E-02 1.05782E-01
 -1      4152 1.42176E+01 8.68182E+01-3.10123E-02 1.80483E+01 4.91223E-02-1.28468E-01
 -1      4153 1.42117E+01 8.70703E+01-6.40806E-02 1.81887E+01 4.16493E-02-9.20429E-02
 -1      4154 1.42152E+01 8.71557E+01-7.39327E-02 1.82310E+01-2.15278E-12-4.48440E-13
 -1      4155 1.42117E+01 8.70703E+01-6.40806E-02 1.81887E+01-4.16493E-02 9.20429E-02
 -1      4156 1.42176E+01 8.68182E+01-3.10123E-02 1.80483E+01-4.91223E-02 1.28468E-01
 -1      4157 1.13504E+01 9.21328E+01-3.28201E-02 9.46307E+00 2.68633E-02-1.43214E-01
 -1      4158 1.13039E+01 9.24415E+01-6.79636E-02 9.54317E+00 2.29473E-02-1.03894E-01
 -1      4159 1.12955E+01 9.25444E+01-7.83159E-02 9.56715E+00 6.38523E-12 7.32594E-13
 -1      4160 1.13039E+01 9.24415E+01-6.79636E-02 9.54317E+00-2.29473E-02 1.03894E-01
 -1      4161 1.13504E+01 9.21328E+01-3.28201E-02 9.46307E+00-2.68633E-02 1.43214E-01
 -1      4162 1.03485E+01 9.39537E+01-3.37722E-02-1.34626E-02 1.94511E-03-1.49717E-01
 -1      4163 1.02861E+01 9.42862E+01-6.99831E-02-1.12910E-02 1.86802E-03-1.09107E-01
 -1      4164 1.02732E+01 9.43965E+01-8.06150E-02-1.07903E-02 1.41329E-12-3.83299E-12
 -1      4165 1.02861E+01 9.42862E+01-6.99831E-02-1.12910E-02-1.86802E-03 1.09107E-01
 -1      4166 1.03485E+01 9.39537E+01-3.37722E-02-1.34626E-02-1.94511E-03 1.49717E-01
 -1      4167 1.13254E+01 9.20787E+01-3.38733E-02-9.44881E+00-2.32650E-02-1.48340E-01
 -1      4168 1.12771E+01 9.23980E+01-7.03007E-02-9.52750E+00-1.95294E-02-1.07791E-01
 -1      4169 1.12684E+01 9.25044E+01-8.10087E-02-9.55132E+00-8.50088E-12 4.02308E-12
 -1      4170 1.12771E+01 9.23980E+01-7.03007E-02-9.52750E+00 1.95294E-02 1.07791E-01
 -1      4171 1.13254E+01 9.20787E+01-3.38733E-02-9.44881E+00 2.32650E-02 1.48340E-01
 -1      4172 1.40766E+01 8.66861E+01-3.32496E-02-1.78948E+01-4.67478E-02-1.39873E-01
 -1      4173 1.40708E+01 8.69577E+01-6.91028E-02-1.80430E+01-3.94726E-02-1.00541E-01
 -1      4174 1.40746E+01 8.70498E+01-7.96705E-02-1.80878E+01 9.96830E-12-4.77281E-13
 -1      4175 1.40708E+01 8.69577E+01-6.91028E-02-1.80430E+01 3.94726E-02 1.00541E-01
 -1      4176 1.40766E+01 8.66861E+01-3.32496E-02-1.78948E+01 4.67478E-02 1.39873E-01
 -1      4177 1.80850E+01 7.83147E+01-3.19959E-02-2.45292E+01-6.68459E-02-1.25499E-01
 -1      4178 1.81434E+01 7.85118E+01-6.66144E-02-2.47241E+01-5.65216E-02-8.83050E-02
 -1      4179 1.81660E+01 7.85815E+01-7.68430E-02-2.47831E+01-1.66270E-12-4.53800E-12
 -1      4180 1.81434E+01 7.85118E+01-6.66144E-02-2.47241E+01 5.65216E-02 8.83050E-02
 -1      4181 1.80850E+01 7.83147E+01-3.19959E-02-2.45292E+01 6.68459E-02 1.25499E-01
 -1      4182 2.25846E+01 6.77881E+01-3.02621E-02-2.87790E+01-8.23521E-02-1.06722E-01
 -1      4183 2.27184E+01 6.78957E+01-6.30702E-02-2.89902E+01-6.96006E-02-7.23497E-02
 -1      4184 2.27631E+01 6.79382E+01-7.28361E-02-2.90546E+01 1.49826E-11-2.29882E-11
 -1      4185 2.27184E+01 6.78957E+01-6.30702E-02-2.89902E+01 6.96006E-02 7.23497E-02
 -1      4186 2.25846E+01 6.77881E+01-3.02621E-02-2.87790E+01 8.23521E-02 1.06722E-01
 -1      4187 2.66652E+01 5.60980E+01-2.82193E-02-3.04057E+01-9.25132E-02-8.56364E-02
 -1      4188 2.68741E+01 5.61136E+01-5.89566E-02-3.06013E+01-7.80520E-02-5.43301E-02
 -1      4189 2.69411E+01 5.61280E+01-6.80649E-02-3.06615E+01-2.62899E-11 2.96387E-11
 -1      4190 2.68741E+01 5.61136E+01-5.89566E-02-3.06013E+01 7.80520E-02 5.43301E-02
 -1      4191 2.66652E+01 5.60980E+01-2.82193E-02-3.04057E+01 9.25132E-02 8.56364E-02
 -1      4192 2.93913E+01 4.42677E+01-2.59847E-02-2.95431E+01-9.81368E-02-6.41088E-02
 -1      4193 2.96658E+01 4.42011E+01-5.41123E-02-2.96932E+01-8.21514E-02-3.60842E-02
 -1      4194 2.97526E+01 4.41901E+01-6.27439E-02-2.97404E+01 3.69823E-11-1.42468E-11
 -1      4195 2.96658E+01 4.42011E+01-5.41123E-02-2.96932E+01 8.21514E-02 3.60842E-02
 -1      4196 2.93913E+01 4.42677E+01-2.59847E-02-2.95431E+01 9.81368E-02 6.41088E-02
 -1      4197 2.99245E+01 3.31993E+01-2.55167E-02-2.66974E+01-9.88861E-02-4.67710E-02
 -1      4198 3.02520E+01 3.30660E+01-5.14221E-02-2.67778E+01-8.24213E-02-1.97980E-02
 -1      4199 3.03553E+01 3.30341E+01-5.84914E-02-2.68046E+01-1.55689E-11-2.22324E-11
 -1      4200 3.02520E+01 3.30660E+01-5.14221E-02-2.67778E+01 8.24213E-02 1.97980E-02
 -1      4201 2.99245E+01 3.31993E+01-2.55167E-02-2.66974E+01 9.88861E-02 4.67710E-02
 -1      4202 2.75786E+01 2.36053E+01-1.73866E-02-2.27002E+01-1.08998E-01-2.36025E-02
 -1      4203 2.79443E+01 2.34316E+01-3.37909E-02-2.26828E+01-8.59604E-02-1.41284E-03
 -1      4204 2.80600E+01 2.33862E+01-3.84352E-02-2.26800E+01 2.13579E-12 2.15919E-12
 -1      4205 2.79443E+01 2.34316E+01-3.37909E-02-2.26828E+01 8.59604E-02 1.41284E-03
 -1      4206 2.75786E+01 2.36053E+01-1.73866E-02-2.27002E+01 1.08998E-01 2.36025E-02
 -1      4207 2.20249E+01 1.55665E+01-4.12149E-02-1.88068E+01-9.92757E-02-5.40734E-03
 -1      4208 2.24003E+01 1.53526E+01-3.98216E-02-1.86522E+01-8.25013E-02 3.48701E-02
 -1      4209 2.25099E+01 1.52947E+01-3.15565E-02-1.86083E+01 3.33946E-12-1.68536E-11
 -1      4210 2.24003E+01 1.53526E+01-3.98216E-02-1.86522E+01 8.25013E-02-3.48701E-02
 -1      4211 2.20249E+01 1.55665E+01-4.12149E-02-1.88068E+01 9.92757E-02 5.40734E-03
 -1      4212 1.31056E+01 9.62897E+00 8.50727E-02-1.63812E+01-1.33356E-01 2.40720E-01
 -1      4213 1.32079E+01 9.52464E+00 1.97899E-01-1.60279E+01-7.44366E-02 2.15527E-01
 -1      4214 1.32040E+01 9.50388E+00 2.51196E-01-1.59250E+01-2.44552E-11 1.82774E-12
 -1      4215 1.32079E+01 9.52464E+00 1.97899E-01-1.60279E+01 7.44366E-02-2.15527E-01
 -1      4216 1.31056E+01 9.62897E+00 8.50727E-02-1.63812E+01 1.33356E-01-2.40720E-01
 -1      4217 3.10186E+00 1.90728E-01-5.27911E-01-1.83277E+01 6.20321E-01 4.20259E-01
 -1      4218 2.34760E+00 4.30992E-02-6.94612E-01-1.83009E+01 3.45119E-01 3.82380E-01
 -1      4219 2.10330E+00 2.76319E-03-7.62937E-01-1.83210E+01 8.36453E-11 7.41411E-11
 -1      4220 2.34760E+00 4.30992E-02-6.94612E-01-1.83009E+01-3.45119E-01-3.82380E-01
 -1      4221 3.10186E+00 1.90728E-01-5.27911E-01-1.83277E+01-6.20321E-01-4.20259E-01
 -1      4222-3.31722E+01-3.95245E+01-4.90245E-01 5.80756E+01 4.38597E+00-2.71434E-01
 -1      4223-3.15371E+01-3.95878E+01-4.46117E+00 5.17040E+01 2.66207E+00 2.96778E-01
 -1      4224-2.99304E+01-3.92143E+01-4.69143E+00 5.06984E+01-1.23131E-10-3.85685E-11
 -1      4225-3.15371E+01-3.95878E+01-4.46117E+00 5.17040E+01-2.66207E+00-2.96778E-01
 -1      4226-3.31722E+01-3.95245E+01-4.90245E-01 5.80756E+01-4.38597E+00 2.71434E-01
 -1      4227-3.29081E+00 2.17689E+01 1.01624E+00 5.27798E+00 4.75095E-01-6.89658E-01
 -1      4228 6.84361E-01 1.89141E+01 3.28812E-01 5.94465E+00 5.54357E-01-9.76732E-01
 -1      4229 1.97067E+00 1.83780E+01-1.11369E-01 6.18227E+00 1.84593E-11 4.95661E-11
 -1      4230 6.84361E-01 1.89141E+01 3.28812E-01 5.94465E+00-5.54357E-01 9.76732E-01
 -1      4231-3.29081E+00 2.17689E+01 1.01624E+00 5.27798E+00-4.75095E-01 6.89658E-01
 -1      4232 2.23964E+01 1.92384E+01-1.53280E-01 6.15553E+00 3.85767E-02-9.09990E-02
 -1      4233 2.31810E+01 1.91977E+01-2.35263E-01 6.96736E+00 9.69509E-02-2.50229E-01
 -1      4234 2.34287E+01 1.90894E+01-3.30256E-01 7.25671E+00 1.40410E-11 2.41748E-13
 -1      4235 2.31810E+01 1.91977E+01-2.35263E-01 6.96736E+00-9.69509E-02 2.50229E-01
 -1      4236 2.23964E+01 1.92384E+01-1.53280E-01 6.15553E+00-3.85767E-02 9.09990E-02
 -1      4237 2.80891E+01 2.53780E+01-2.79679E-02 1.29131E+01-2.03851E-02 2.71797E-03
 -1      4238 2.82080E+01 2.52189E+01-6.45656E-02 1.33292E+01-4.02960E-02-6.28884E-02
 -1      4239 2.81723E+01 2.52523E+01-1.06673E-01 1.35104E+01 1.36710E-11-1.31673E-11
 -1      4240 2.82080E+01 2.52189E+01-6.45656E-02 1.33292E+01 4.02960E-02 6.28884E-02
 -1      4241 2.80891E+01 2.53780E+01-2.79679E-02 1.29131E+01 2.03851E-02-2.71797E-03
 -1      4242 2.83428E+01 3.26350E+01 1.39685E-02 1.77741E+01-1.31169E-02 4.41115E-02
 -1      4243 2.83556E+01 3.26338E+01 2.03996E-02 1.79498E+01-1.26431E-03 2.16219E-03
 -1      4244 2.83330E+01 3.26518E+01 1.38936E-02 1.80245E+01-7.31321E-12-4.89263E-12
 -1      4245 2.83556E+01 3.26338E+01 2.03996E-02 1.79498E+01 1.26431E-03-2.16219E-03
 -1      4246 2.83428E+01 3.26350E+01 1.39685E-02 1.77741E+01 1.31169E-02-4.41115E-02
 -1      4247 2.61376E+01 4.11389E+01-5.81295E-03 1.98555E+01 1.69871E-02 3.64960E-03
 -1      4248 2.61906E+01 4.10928E+01-1.52255E-02 1.99960E+01 9.54893E-03-4.02417E-03
 -1      4249 2.61887E+01 4.11016E+01-2.09742E-02 2.00450E+01 1.57288E-13 7.55004E-12
 -1      4250 2.61906E+01 4.10928E+01-1.52255E-02 1.99960E+01-9.54893E-03 4.02417E-03
 -1      4251 2.61376E+01 4.11389E+01-5.81295E-03 1.98555E+01-1.69871E-02-3.64960E-03
 -1      4252 2.35445E+01 4.95237E+01-6.76725E-03 1.97858E+01 2.10437E-02-1.11362E-02
 -1      4253 2.35996E+01 4.95062E+01-2.26923E-02 1.99387E+01 1.82793E-02-1.42956E-02
 -1      4254 2.36125E+01 4.95105E+01-3.00266E-02 1.99880E+01 5.33417E-12-7.68709E-12
 -1      4255 2.35996E+01 4.95062E+01-2.26923E-02 1.99387E+01-1.82793E-02 1.42956E-02
 -1      4256 2.35445E+01 4.95237E+01-6.76725E-03 1.97858E+01-2.10437E-02 1.11362E-02
 -1      4257 2.10404E+01 5.71935E+01-1.19514E-02 1.79491E+01 2.40852E-02-2.72715E-02
 -1      4258 2.10605E+01 5.72253E+01-3.49726E-02 1.81213E+01 1.99309E-02-2.44014E-02
 -1      4259 2.10671E+01 5.72420E+01-4.48825E-02 1.81752E+01-7.67408E-12 2.78414E-12
 -1      4260 2.10605E+01 5.72253E+01-3.49726E-02 1.81213E+01-1.99309E-02 2.44014E-02
 -1      4261 2.10404E+01 5.71935E+01-1.19514E-02 1.79491E+01-2.40852E-02 2.72715E-02
 -1      4262 1.88885E+01 6.36722E+01-1.45859E-02 1.47226E+01 2.13292E-02-3.79993E-02
 -1      4263 1.88532E+01 6.37718E+01-4.19746E-02 1.48907E+01 1.81678E-02-3.31920E-02
 -1      4264 1.88449E+01 6.38080E+01-5.37258E-02 1.49437E+01 5.58806E-12 1.66168E-12
 -1      4265 1.88532E+01 6.37718E+01-4.19746E-02 1.48907E+01-1.81678E-02 3.31920E-02
 -1      4266 1.88885E+01 6.36722E+01-1.45859E-02 1.47226E+01-2.13292E-02 3.79993E-02
 -1      4267 1.72351E+01 6.85846E+01-1.64995E-02 1.04239E+01 1.60504E-02-4.62690E-02
 -1      4268 1.71424E+01 6.87494E+01-4.71326E-02 1.05589E+01 1.36665E-02-3.98599E-02
 -1      4269 1.71170E+01 6.88059E+01-6.02849E-02 1.06015E+01-1.88310E-12-1.69622E-12
 -1      4270 1.71424E+01 6.87494E+01-4.71326E-02 1.05589E+01-1.36665E-02 3.98599E-02
 -1      4271 1.72351E+01 6.85846E+01-1.64995E-02 1.04239E+01-1.60504E-02 4.62690E-02
 -1      4272 1.61880E+01 7.16428E+01-1.77103E-02 5.39345E+00 8.72947E-03-5.14447E-02
 -1      4273 1.60527E+01 7.18553E+01-5.03300E-02 5.46945E+00 7.46563E-03-4.42305E-02
 -1      4274 1.60143E+01 7.19267E+01-6.43502E-02 5.49344E+00 3.19533E-12 3.12480E-12
 -1      4275 1.60527E+01 7.18553E+01-5.03300E-02 5.46945E+00-7.46563E-03 4.42305E-02
 -1      4276 1.61880E+01 7.16428E+01-1.77103E-02 5.39345E+00-8.72947E-03 5.14447E-02
 -1      4277 1.58085E+01 7.26617E+01-1.83039E-02 7.52929E-03 4.76213E-04-5.37666E-02
 -1      4278 1.56563E+01 7.28935E+01-5.19322E-02 8.94871E-03 4.07389E-04-4.61840E-02
 -1      4279 1.56127E+01 7.29711E+01-6.63968E-02 9.26751E-03-7.63447E-13-9.44447E-12
 -1      4280 1.56563E+01 7.28935E+01-5.19322E-02 8.94871E-03-4.07389E-04 4.61840E-02
 -1      4281 1.58085E+01 7.26617E+01-1.83039E-02 7.52929E-03-4.76213E-04 5.37666E-02
 -1      4282 1.60803E+01 7.15869E+01-1.84123E-02-5.32966E+00-7.93587E-03-5.33674E-02
 -1      4283 1.59415E+01 7.18056E+01-5.21684E-02-5.40523E+00-6.78975E-03-4.58420E-02
 -1      4284 1.59023E+01 7.18790E+01-6.66959E-02-5.42943E+00-4.35647E-12 5.67642E-12
 -1      4285 1.59415E+01 7.18056E+01-5.21684E-02-5.40523E+00 6.78975E-03 4.58420E-02
 -1      4286 1.60803E+01 7.15869E+01-1.84123E-02-5.32966E+00 7.93587E-03 5.33674E-02
 -1      4287 1.68867E+01 6.85110E+01-1.80967E-02-1.02199E+01-1.58031E-02-5.05519E-02
 -1      4288 1.67901E+01 6.86860E+01-5.12400E-02-1.03618E+01-1.35166E-02-4.34398E-02
 -1      4289 1.67643E+01 6.87453E+01-6.55083E-02-1.04071E+01 8.00679E-12 3.40901E-12
 -1      4290 1.67901E+01 6.86860E+01-5.12400E-02-1.03618E+01 1.35166E-02 4.34398E-02
 -1      4291 1.68867E+01 6.85110E+01-1.80967E-02-1.02199E+01 1.58031E-02 5.05519E-02
 -1      4292 1.80044E+01 6.36713E+01-1.74439E-02-1.43179E+01-2.25810E-02-4.57224E-02
 -1      4293 1.79720E+01 6.37790E+01-4.93279E-02-1.45043E+01-1.92850E-02-3.93346E-02
 -1      4294 1.79667E+01 6.38166E+01-6.30710E-02-1.45639E+01-1.30480E-13-5.74520E-12
 -1      4295 1.79720E+01 6.37790E+01-4.93279E-02-1.45043E+01 1.92850E-02 3.93346E-02
 -1      4296 1.80044E+01 6.36713E+01-1.74439E-02-1.43179E+01 2.25810E-02 4.57224E-02
 -1      4297 1.91195E+01 5.74260E+01-1.65200E-02-1.73782E+01-2.78621E-02-3.93851E-02
 -1      4298 1.91636E+01 5.74530E+01-4.67034E-02-1.75807E+01-2.37232E-02-3.39957E-02
 -1      4299 1.91826E+01 5.74646E+01-5.97088E-02-1.76453E+01 3.14655E-12-1.44466E-11
 -1      4300 1.91636E+01 5.74530E+01-4.67034E-02-1.75807E+01 2.37232E-02 3.39957E-02
 -1      4301 1.91195E+01 5.74260E+01-1.65200E-02-1.73782E+01 2.78621E-02 3.93851E-02
 -1      4302 1.98627E+01 5.02099E+01-1.55926E-02-1.92949E+01-3.15591E-02-3.22090E-02
 -1      4303 1.99841E+01 5.01548E+01-4.35876E-02-1.94825E+01-2.66696E-02-2.80845E-02
 -1      4304 2.00278E+01 5.01398E+01-5.57639E-02-1.95422E+01-2.02208E-11 1.01537E-12
 -1      4305 1.99841E+01 5.01548E+01-4.35876E-02-1.94825E+01 2.66696E-02 2.80845E-02
 -1      4306 1.98627E+01 5.02099E+01-1.55926E-02-1.92949E+01 3.15591E-02 3.22090E-02
 -1      4307 1.98559E+01 4.24783E+01-1.43084E-02-2.01292E+01-3.36147E-02-2.47603E-02
 -1      4308 2.00452E+01 4.23500E+01-4.06995E-02-2.02727E+01-2.80877E-02-2.23777E-02
 -1      4309 2.01111E+01 4.23114E+01-5.20487E-02-2.03183E+01 2.71532E-11 1.28207E-11
 -1      4310 2.00452E+01 4.23500E+01-4.06995E-02-2.02727E+01 2.80877E-02 2.23777E-02
 -1      4311 1.98559E+01 4.24783E+01-1.43084E-02-2.01292E+01 3.36147E-02 2.47603E-02
 -1      4312 1.87706E+01 3.46325E+01-1.58082E-02-2.01247E+01-3.60021E-02-1.83580E-02
 -1      4313 1.90126E+01 3.44493E+01-3.90200E-02-2.01976E+01-2.90704E-02-1.83467E-02
 -1      4314 1.90966E+01 3.43930E+01-4.98142E-02-2.02203E+01-4.78121E-12-1.97492E-11
 -1      4315 1.90126E+01 3.44493E+01-3.90200E-02-2.01976E+01 2.90704E-02 1.83467E-02
 -1      4316 1.87706E+01 3.46325E+01-1.58082E-02-2.01247E+01 3.60021E-02 1.83580E-02
 -1      4317 1.64409E+01 2.69349E+01-8.64444E-03-1.97220E+01-3.70569E-02-9.92401E-03
 -1      4318 1.67121E+01 2.67185E+01-3.42559E-02-1.96997E+01-2.92439E-02-1.47539E-02
 -1      4319 1.68089E+01 2.66522E+01-4.43252E-02-1.96913E+01-6.21718E-12 9.67720E-13
 -1      4320 1.67121E+01 2.67185E+01-3.42559E-02-1.96997E+01 2.92439E-02 1.47539E-02
 -1      4321 1.64409E+01 2.69349E+01-8.64444E-03-1.97220E+01 3.70569E-02 9.92401E-03
 -1      4322 1.29490E+01 1.93421E+01-3.40291E-02-1.95210E+01-4.66116E-02 6.20447E-03
 -1      4323 1.32037E+01 1.91369E+01-3.90057E-02-1.93609E+01-3.35915E-02-7.59761E-03
 -1      4324 1.33003E+01 1.90774E+01-4.45380E-02-1.93080E+01 1.13082E-12-4.22179E-12
 -1      4325 1.32037E+01 1.91369E+01-3.90057E-02-1.93609E+01 3.35915E-02 7.59761E-03
 -1      4326 1.29490E+01 1.93421E+01-3.40291E-02-1.95210E+01 4.66116E-02-6.20447E-03
 -1      4327 9.58294E+00 1.14363E+01 7.99019E-02-1.99351E+01 2.95535E-03 5.91011E-02
 -1      4328 9.66382E+00 1.13022E+01 6.35598E-02-1.96488E+01 1.14073E-02 4.00351E-02
 -1      4329 9.70543E+00 1.12743E+01 7.80032E-02-1.95617E+01 1.14159E-12 7.16299E-12
 -1      4330 9.66382E+00 1.13022E+01 6.35598E-02-1.96488E+01-1.14073E-02-4.00351E-02
 -1      4331 9.58294E+00 1.14363E+01 7.99019E-02-1.99351E+01-2.95535E-03-5.91011E-02
 -1      4332 8.09909E+00 2.64653E+00-1.20542E-01-2.02137E+01 3.41104E-01 4.79104E-02
 -1      4333 7.82178E+00 2.70144E+00 1.50655E-01-2.00755E+01 2.22285E-01 1.41987E-01
 -1      4334 7.68349E+00 2.69184E+00 2.64282E-01-2.00458E+01 4.95828E-11 1.49873E-12
 -1      4335 7.82178E+00 2.70144E+00 1.50655E-01-2.00755E+01-2.22285E-01-1.41987E-01
 -1      4336 8.09909E+00 2.64653E+00-1.20542E-01-2.02137E+01-3.41104E-01-4.79104E-02
 -1      4337-1.93942E+01-4.32537E+01-4.10594E-01 4.34152E+01 6.19648E-01-2.90233E-01
 -1      4338-1.65860E+01-4.35863E+01-4.30700E-01 4.10434E+01 2.02979E-01-3.85917E-01
 -1      4339-1.60674E+01-4.40180E+01-8.96595E-01 4.01942E+01-2.43701E-11-3.41572E-11
 -1      4340-1.65860E+01-4.35863E+01-4.30700E-01 4.10434E+01-2.02979E-01 3.85917E-01
 -1      4341-1.93942E+01-4.32537E+01-4.10594E-01 4.34152E+01-6.19648E-01 2.90233E-01
 -1      4342-1.77646E+01 1.19867E+01-4.03961E-01 2.11801E+01 2.07375E-01-2.44264E-01
 -1      4343-1.63164E+01 1.06634E+01-6.22191E-01 2.09978E+01 2.64322E-01-1.21107E-01
 -1      4344-1.57085E+01 1.02840E+01-6.69014E-01 2.09009E+01-1.60611E-11 2.51938E-11
 -1      4345-1.63164E+01 1.06634E+01-6.22191E-01 2.09978E+01-2.64322E-01 1.21107E-01
 -1      4346-1.77646E+01 1.19867E+01-4.03961E-01 2.11801E+01-2.07375E-01 2.44264E-01
 -1      4347 2.34849E-01 2.37702E+01-2.22287E-01 9.27516E+00 7.99522E-02-9.62133E-02
 -1      4348 7.97629E-01 2.31196E+01-3.21384E-01 9.77250E+00 3.27972E-02-5.43170E-02
 -1      4349 1.01840E+00 2.29265E+01-3.49990E-01 9.91177E+00 7.45091E-12 3.58690E-12
 -1      4350 7.97629E-01 2.31196E+01-3.21384E-01 9.77250E+00-3.27972E-02 5.43170E-02
 -1      4351 2.34849E-01 2.37702E+01-2.22287E-01 9.27516E+00-7.99522E-02 9.62133E-02
 -1      4352 1.21940E+01 2.75097E+01-2.51292E-02 8.85304E+00-2.40020E-02-5.99888E-03
 -1      4353 1.22617E+01 2.73726E+01-5.24942E-02 9.20187E+00-7.41473E-03 7.94638E-03
 -1      4354 1.23179E+01 2.73218E+01-5.03673E-02 9.31397E+00 5.28826E-12-3.38375E-12
 -1      4355 1.22617E+01 2.73726E+01-5.24942E-02 9.20187E+00 7.41473E-03-7.94638E-03
 -1      4356 1.21940E+01 2.75097E+01-2.51292E-02 8.85304E+00 2.40020E-02 5.99888E-03
 -1      4357 1.67597E+01 3.23247E+01 4.36244E-03 1.05529E+01 2.65651E-03-1.88537E-03
 -1      4358 1.67714E+01 3.22767E+01 3.38848E-03 1.07626E+01-4.48299E-04 1.14366E-02
 -1      4359 1.67886E+01 3.22546E+01 6.62326E-03 1.08252E+01-3.37594E-12 3.01615E-12
 -1      4360 1.67714E+01 3.22767E+01 3.38848E-03 1.07626E+01 4.48299E-04-1.14366E-02
 -1      4361 1.67597E+01 3.23247E+01 4.36244E-03 1.05529E+01-2.65651E-03 1.88537E-03
 -1      4362 1.79943E+01 3.78324E+01-4.77321E-03 1.14657E+01-1.00559E-03-2.38557E-03
 -1      4363 1.80204E+01 3.78040E+01-7.73346E-03 1.16164E+01 2.75637E-03 2.93475E-03
 -1      4364 1.80356E+01 3.77876E+01-7.25947E-03 1.16656E+01-1.88933E-12 3.19009E-13
 -1      4365 1.80204E+01 3.78040E+01-7.73346E-03 1.16164E+01-2.75637E-03-2.93475E-03
 -1      4366 1.79943E+01 3.78324E+01-4.77321E-03 1.14657E+01 1.00559E-03 2.38557E-03
 -1      4367 1.81834E+01 4.32047E+01-8.20842E-04 1.10522E+01 3.93753E-03-4.83525E-03
 -1      4368 1.82002E+01 4.31906E+01-6.21513E-03 1.12006E+01 4.84927E-03-1.89270E-03
 -1      4369 1.82102E+01 4.31827E+01-8.19271E-03 1.12490E+01 2.29762E-12-3.80062E-12
 -1      4370 1.82002E+01 4.31906E+01-6.21513E-03 1.12006E+01-4.84927E-03 1.89270E-03
 -1      4371 1.81834E+01 4.32047E+01-8.20842E-04 1.10522E+01-3.93753E-03 4.83525E-03
 -1      4372 1.81513E+01 4.78565E+01-4.09024E-03 9.63456E+00 4.00338E-03-7.06718E-03
 -1      4373 1.81368E+01 4.78797E+01-1.15653E-02 9.78763E+00 4.97527E-03-5.69587E-03
 -1      4374 1.81345E+01 4.78859E+01-1.48204E-02 9.83830E+00-1.11296E-12 1.97837E-12
 -1      4375 1.81368E+01 4.78797E+01-1.15653E-02 9.78763E+00-4.97527E-03 5.69587E-03
 -1      4376 1.81513E+01 4.78565E+01-4.09024E-03 9.63456E+00-4.00338E-03 7.06718E-03
 -1      4377 1.82084E+01 5.15345E+01-4.04310E-03 7.57661E+00 4.10640E-03-9.02252E-03
 -1      4378 1.81456E+01 5.16076E+01-1.32236E-02 7.72098E+00 4.48834E-03-8.21034E-03
 -1      4379 1.81272E+01 5.16316E+01-1.73853E-02 7.76864E+00 1.52056E-12 1.25048E-12
 -1      4380 1.81456E+01 5.16076E+01-1.32236E-02 7.72098E+00-4.48834E-03 8.21034E-03
 -1      4381 1.82084E+01 5.15345E+01-4.04310E-03 7.57661E+00-4.10640E-03 9.02252E-03
 -1      4382 1.83448E+01 5.41486E+01-4.77131E-03 5.17342E+00 3.09369E-03-1.06245E-02
 -1      4383 1.82337E+01 5.42717E+01-1.50433E-02 5.28721E+00 3.32318E-03-1.00340E-02
 -1      4384 1.81991E+01 5.43126E+01-1.97368E-02 5.32476E+00 1.76273E-12 9.16281E-14
 -1      4385 1.82337E+01 5.42717E+01-1.50433E-02 5.28721E+00-3.32318E-03 1.00340E-02
 -1      4386 1.83448E+01 5.41486E+01-4.77131E-03 5.17342E+00-3.09369E-03 1.06245E-02
 -1      4387 1.84700E+01 5.56936E+01-4.99529E-03 2.61658E+00 1.69798E-03-1.16765E-02
 -1      4388 1.83231E+01 5.58532E+01-1.59908E-02 2.67975E+00 1.80728E-03-1.11626E-02
 -1      4389 1.82767E+01 5.59065E+01-2.10230E-02 2.70058E+00 2.57110E-12 2.48262E-12
 -1      4390 1.83231E+01 5.58532E+01-1.59908E-02 2.67975E+00-1.80728E-03 1.11626E-02
 -1      4391 1.84700E+01 5.56936E+01-4.99529E-03 2.61658E+00-1.69798E-03 1.16765E-02
 -1      4392 1.84789E+01 5.61921E+01-5.16170E-03 2.26954E-02 1.65427E-05-1.21528E-02
 -1      4393 1.83179E+01 5.63661E+01-1.65031E-02 2.28569E-02 9.14091E-05-1.16667E-02
 -1      4394 1.82669E+01 5.64243E+01-2.16958E-02 2.29522E-02 5.60167E-13-3.95440E-12
 -1      4395 1.83179E+01 5.63661E+01-1.65031E-02 2.28569E-02-9.14091E-05 1.16667E-02
 -1      4396 1.84789E+01 5.61921E+01-5.16170E-03 2.26954E-02-1.65427E-05 1.21528E-02
 -1      4397 1.82907E+01 5.56749E+01-5.17319E-03-2.53694E+00-1.71892E-03-1.20637E-02
 -1      4398 1.81413E+01 5.58374E+01-1.65617E-02-2.60164E+00-1.64461E-03-1.15954E-02
 -1      4399 1.80941E+01 5.58918E+01-2.17784E-02-2.62287E+00-8.62975E-13 2.66252E-12
 -1      4400 1.81413E+01 5.58374E+01-1.65617E-02-2.60164E+00 1.64461E-03 1.15954E-02
 -1      4401 1.82907E+01 5.56749E+01-5.17319E-03-2.53694E+00 1.71892E-03 1.20637E-02
 -1      4402 1.78524E+01 5.41765E+01-5.07974E-03-5.01278E+00-3.37290E-03-1.14597E-02
 -1      4403 1.77390E+01 5.43027E+01-1.62546E-02-5.13343E+00-3.25940E-03-1.10229E-02
 -1      4404 1.77037E+01 5.43452E+01-2.13787E-02-5.17304E+00 3.27188E-12 9.90844E-13
 -1      4405 1.77390E+01 5.43027E+01-1.62546E-02-5.13343E+00 3.25940E-03 1.10229E-02
 -1      4406 1.78524E+01 5.41765E+01-5.07974E-03-5.01278E+00 3.37290E-03 1.14597E-02
 -1      4407 1.71325E+01 5.17394E+01-4.90405E-03-7.36481E+00-4.83056E-03-1.04105E-02
 -1      4408 1.70740E+01 5.18100E+01-1.56420E-02-7.52343E+00-4.62654E-03-1.00477E-02
 -1      4409 1.70568E+01 5.18342E+01-2.05793E-02-7.57552E+00 3.11800E-12-5.64981E-12
 -1      4410 1.70740E+01 5.18100E+01-1.56420E-02-7.52343E+00 4.62654E-03 1.00477E-02
 -1      4411 1.71325E+01 5.17394E+01-4.90405E-03-7.36481E+00 4.83056E-03 1.04105E-02
 -1      4412 1.61116E+01 4.84188E+01-4.63031E-03-9.56034E+00-6.04954E-03-8.97932E-03
 -1      4413 1.61188E+01 4.84230E+01-1.47673E-02-9.73296E+00-5.65698E-03-8.80882E-03
 -1      4414 1.61233E+01 4.84253E+01-1.94518E-02-9.78968E+00-2.19243E-12-6.28974E-12
 -1      4415 1.61188E+01 4.84230E+01-1.47673E-02-9.73296E+00 5.65698E-03 8.80882E-03
 -1      4416 1.61116E+01 4.84188E+01-4.63031E-03-9.56034E+00 6.04954E-03 8.97932E-03
 -1      4417 1.47767E+01 4.42834E+01-4.47247E-03-1.15806E+01-6.99704E-03-7.23382E-03
 -1      4418 1.48505E+01 4.42199E+01-1.38352E-02-1.17410E+01-6.26529E-03-7.51212E-03
 -1      4419 1.48773E+01 4.42000E+01-1.82354E-02-1.17937E+01-6.59877E-12-9.46770E-13
 -1      4420 1.48505E+01 4.42199E+01-1.38352E-02-1.17410E+01 6.26529E-03 7.51212E-03
 -1      4421 1.47767E+01 4.42834E+01-4.47247E-03-1.15806E+01 6.99704E-03 7.23382E-03
 -1      4422 1.31268E+01 3.94078E+01-3.92848E-03-1.34332E+01-7.91868E-03-5.12191E-03
 -1      4423 1.32588E+01 3.92849E+01-1.26955E-02-1.35561E+01-6.53474E-03-6.50040E-03
 -1      4424 1.33056E+01 3.92455E+01-1.68794E-02-1.35966E+01 9.58680E-12 5.95154E-12
 -1      4425 1.32588E+01 3.92849E+01-1.26955E-02-1.35561E+01 6.53474E-03 6.50040E-03
 -1      4426 1.31268E+01 3.94078E+01-3.92848E-03-1.34332E+01 7.91868E-03 5.12191E-03
 -1      4427 1.11927E+01 3.38461E+01-5.01689E-03-1.51706E+01-8.82035E-03-2.38595E-03
 -1      4428 1.13668E+01 3.36798E+01-1.24925E-02-1.52337E+01-6.48665E-03-6.25150E-03
 -1      4429 1.14296E+01 3.36263E+01-1.65052E-02-1.52545E+01-1.28310E-14-9.85140E-12
 -1      4430 1.13668E+01 3.36798E+01-1.24925E-02-1.52337E+01 6.48665E-03 6.25150E-03
 -1      4431 1.11927E+01 3.38461E+01-5.01689E-03-1.51706E+01 8.82035E-03 2.38595E-03
 -1      4432 9.13328E+00 2.75827E+01-2.61381E-03-1.68812E+01-1.10164E-02 1.19568E-03
 -1      4433 9.32330E+00 2.73972E+01-1.21166E-02-1.68636E+01-7.05852E-03-7.63587E-03
 -1      4434 9.39604E+00 2.73386E+01-1.62679E-02-1.68576E+01-3.41305E-12-3.50301E-12
 -1      4435 9.32330E+00 2.73972E+01-1.21166E-02-1.68636E+01 7.05852E-03 7.63587E-03
 -1      4436 9.13328E+00 2.75827E+01-2.61381E-03-1.68812E+01 1.10164E-02-1.19568E-03
 -1      4437 7.31974E+00 2.04822E+01-9.76379E-03-1.86323E+01-1.16557E-02 1.31437E-02
 -1      4438 7.47757E+00 2.03207E+01-6.90852E-03-1.85148E+01-6.96899E-03-6.20564E-03
 -1      4439 7.54961E+00 2.02732E+01-7.58783E-03-1.84749E+01 8.40214E-14-2.71174E-13
 -1      4440 7.47757E+00 2.03207E+01-6.90852E-03-1.85148E+01 6.96899E-03 6.20564E-03
 -1      4441 7.31974E+00 2.04822E+01-9.76379E-03-1.86323E+01 1.16557E-02-1.31437E-02
 -1      4442 6.63370E+00 1.23098E+01-2.08154E-02-2.00299E+01 5.44243E-03-2.33974E-03
 -1      4443 6.66215E+00 1.22268E+01-6.55678E-02-1.98273E+01 5.59801E-03-1.77270E-02
 -1      4444 6.70500E+00 1.22130E+01-6.29039E-02-1.97619E+01 4.82166E-12 1.76245E-12
 -1      4445 6.66215E+00 1.22268E+01-6.55678E-02-1.98273E+01-5.59801E-03 1.77270E-02
 -1      4446 6.63370E+00 1.23098E+01-2.08154E-02-2.00299E+01-5.44243E-03 2.33974E-03
 -1      4447 7.77764E+00 4.33042E+00-1.76599E-01-1.96582E+01 9.64126E-02-1.44248E-01
 -1      4448 7.76809E+00 4.47016E+00 4.69028E-02-1.95357E+01 6.79525E-02 3.30653E-02
 -1      4449 7.69887E+00 4.49587E+00 1.68841E-01-1.94951E+01 2.27062E-11-1.38559E-11
 -1      4450 7.76809E+00 4.47016E+00 4.69028E-02-1.95357E+01-6.79525E-02-3.30653E-02
 -1      4451 7.77764E+00 4.33042E+00-1.76599E-01-1.96582E+01-9.64126E-02 1.44248E-01
 -1      4452-1.23516E+01-3.84713E+01-2.78194E-01 3.36518E+01 3.37033E-01-3.34069E-01
 -1      4453-1.19067E+01-3.86107E+01-6.93451E-01 3.19612E+01 1.10447E-01-1.99680E-01
 -1      4454-1.16416E+01-3.87299E+01-6.89335E-01 3.14933E+01 1.47483E-13-1.06905E-11
 -1      4455-1.19067E+01-3.86107E+01-6.93451E-01 3.19612E+01-1.10447E-01 1.99680E-01
 -1      4456-1.23516E+01-3.84713E+01-2.78194E-01 3.36518E+01-3.37033E-01 3.34069E-01
 -1      4457-1.83526E+01 6.56973E+00 6.26541E-03 2.42120E+01-1.17549E-02-2.43898E-02
 -1      4458-1.73821E+01 5.63351E+00-5.63902E-02 2.38392E+01 2.58551E-02-5.10725E-02
 -1      4459-1.70907E+01 5.37874E+00-1.09967E-01 2.37152E+01-1.17605E-11 7.18040E-12
 -1      4460-1.73821E+01 5.63351E+00-5.63902E-02 2.38392E+01-2.58551E-02 5.10725E-02
 -1      4461-1.83526E+01 6.56973E+00 6.26541E-03 2.42120E+01 1.17549E-02 2.43898E-02
 -1      4462-8.28358E+00 2.26465E+01 1.39410E-01 1.17088E+01 4.08207E-03 1.89136E-02
 -1      4463-7.81250E+00 2.21676E+01 1.13762E-01 1.18930E+01-1.64034E-04 1.41079E-03
 -1      4464-7.65639E+00 2.19879E+01 9.93799E-02 1.19532E+01 1.61919E-12 6.50974E-12
 -1      4465-7.81250E+00 2.21676E+01 1.13762E-01 1.18930E+01 1.64034E-04-1.41079E-03
 -1      4466-8.28358E+00 2.26465E+01 1.39410E-01 1.17088E+01-4.08207E-03-1.89136E-02
 -1      4467 1.66302E+00 2.77256E+01 1.35272E-02 7.05142E+00-4.88252E-03 1.23384E-02
 -1      4468 1.87344E+00 2.75142E+01 2.83628E-02 7.27601E+00-5.41986E-03 4.32165E-03
 -1      4469 1.93406E+00 2.74437E+01 2.79761E-02 7.35048E+00 5.74155E-13-3.52151E-12
 -1      4470 1.87344E+00 2.75142E+01 2.83628E-02 7.27601E+00 5.41986E-03-4.32165E-03
 -1      4471 1.66302E+00 2.77256E+01 1.35272E-02 7.05142E+00 4.88252E-03-1.23384E-02
 -1      4472 7.79764E+00 3.11798E+01 2.41499E-03 6.02851E+00-2.81362E-03 6.71679E-03
 -1      4473 7.89256E+00 3.10898E+01 6.09114E-03 6.19392E+00-1.61353E-03 2.00946E-03
 -1      4474 7.91982E+00 3.10582E+01 6.15338E-03 6.25062E+00 6.54574E-13 1.16978E-12
 -1      4475 7.89256E+00 3.10898E+01 6.09114E-03 6.19392E+00 1.61353E-03-2.00946E-03
 -1      4476 7.79764E+00 3.11798E+01 2.41499E-03 6.02851E+00 2.81362E-03-6.71679E-03
 -1      4477 1.12558E+01 3.45069E+01-7.77620E-05 5.55137E+00 6.42787E-04 2.69893E-03
 -1      4478 1.13088E+01 3.44545E+01 1.51810E-03 5.69006E+00-2.42551E-04 1.17151E-04
 -1      4479 1.13233E+01 3.44390E+01 1.06496E-03 5.73643E+00 1.05778E-12 6.95023E-13
 -1      4480 1.13088E+01 3.44545E+01 1.51810E-03 5.69006E+00 2.42551E-04-1.17151E-04
 -1      4481 1.12558E+01 3.45069E+01-7.77620E-05 5.55137E+00-6.42787E-04-2.69893E-03
 -1      4482 1.34868E+01 3.74732E+01-4.17220E-04 4.73918E+00 3.55064E-04 6.67289E-04
 -1      4483 1.35087E+01 3.74521E+01-1.05057E-03 4.87207E+00 1.66213E-04-6.93059E-04
 -1      4484 1.35145E+01 3.74464E+01-1.70534E-03 4.91637E+00 1.11173E-13-7.62656E-13
 -1      4485 1.35087E+01 3.74521E+01-1.05057E-03 4.87207E+00-1.66213E-04 6.93059E-04
 -1      4486 1.34868E+01 3.74732E+01-4.17220E-04 4.73918E+00-3.55064E-04-6.67289E-04
 -1      4487 1.52928E+01 3.97959E+01-5.27860E-04 3.61729E+00 7.13301E-04-2.48238E-04
 -1      4488 1.52775E+01 3.98113E+01-2.06338E-03 3.74890E+00 4.12488E-04-1.02561E-03
 -1      4489 1.52718E+01 3.98174E+01-2.97401E-03 3.79238E+00 3.41556E-12 8.97205E-13
 -1      4490 1.52775E+01 3.98113E+01-2.06338E-03 3.74890E+00-4.12488E-04 1.02561E-03
 -1      4491 1.52928E+01 3.97959E+01-5.27860E-04 3.61729E+00-7.13301E-04 2.48238E-04
 -1      4492 1.69185E+01 4.13893E+01-4.86531E-04 2.44941E+00 5.36260E-04-7.35296E-04
 -1      4493 1.68607E+01 4.14469E+01-2.51227E-03 2.56944E+00 4.37612E-04-1.25277E-03
 -1      4494 1.68415E+01 4.14666E+01-3.54251E-03 2.60912E+00-2.53682E-13-2.01992E-12
 -1      4495 1.68607E+01 4.14469E+01-2.51227E-03 2.56944E+00-4.37612E-04 1.25277E-03
 -1      4496 1.69185E+01 4.13893E+01-4.86531E-04 2.44941E+00-5.36260E-04 7.35296E-04
 -1      4497 1.82848E+01 4.23444E+01-5.46916E-04 1.43872E+00 4.11283E-04-1.03709E-03
 -1      4498 1.81873E+01 4.24417E+01-2.86747E-03 1.53152E+00 3.60275E-04-1.44479E-03
 -1      4499 1.81551E+01 4.24745E+01-4.01222E-03 1.56219E+00 2.17614E-12 1.22741E-12
 -1      4500 1.81873E+01 4.24417E+01-2.86747E-03 1.53152E+00-3.60275E-04 1.44479E-03
 -1      4501 1.82848E+01 4.23444E+01-5.46916E-04 1.43872E+00-4.11283E-04 1.03709E-03
 -1      4502 1.91951E+01 4.28200E+01-5.59301E-04 6.52195E-01 2.10741E-04-1.19425E-03
 -1      4503 1.90690E+01 4.29459E+01-3.04668E-03 7.02981E-01 1.97429E-04-1.57049E-03
 -1      4504 1.90275E+01 4.29880E+01-4.26050E-03 7.19753E-01 2.20417E-12-9.50266E-13
 -1      4505 1.90690E+01 4.29459E+01-3.04668E-03 7.02981E-01-1.97429E-04 1.57049E-03
 -1      4506 1.91951E+01 4.28200E+01-5.59301E-04 6.52195E-01-2.10741E-04 1.19425E-03
 -1      4507 1.94609E+01 4.29591E+01-5.77251E-04 2.60855E-02 1.21910E-06-1.26136E-03
 -1      4508 1.93238E+01 4.30959E+01-3.14234E-03 2.56904E-02-4.20150E-06-1.62881E-03
 -1      4509 1.92787E+01 4.31415E+01-4.39325E-03 2.55059E-02 2.57065E-12-1.46729E-13
 -1      4510 1.93238E+01 4.30959E+01-3.14234E-03 2.56904E-02 4.20150E-06 1.62881E-03
 -1      4511 1.94609E+01 4.29591E+01-5.77251E-04 2.60855E-02-1.21909E-06 1.26136E-03
 -1      4512 1.89731E+01 4.28381E+01-5.79440E-04-5.87678E-01-2.18416E-04-1.24594E-03
 -1      4513 1.88457E+01 4.29652E+01-3.14900E-03-6.40422E-01-2.14253E-04-1.61816E-03
 -1      4514 1.88038E+01 4.30077E+01-4.40555E-03-6.57971E-01-3.08630E-13 2.58013E-13
 -1      4515 1.88457E+01 4.29652E+01-3.14900E-03-6.40422E-01 2.14253E-04 1.61816E-03
 -1      4516 1.89731E+01 4.28381E+01-5.79440E-04-5.87678E-01 2.18416E-04 1.24594E-03
 -1      4517 1.77289E+01 4.24479E+01-5.72384E-04-1.36735E+00-4.39871E-04-1.15574E-03
 -1      4518 1.76307E+01 4.25457E+01-3.08615E-03-1.46519E+00-4.04045E-04-1.55045E-03
 -1      4519 1.75986E+01 4.25784E+01-4.32238E-03-1.49772E+00 3.43999E-12-2.88318E-15
 -1      4520 1.76307E+01 4.25457E+01-3.08615E-03-1.46519E+00 4.04045E-04 1.55045E-03
 -1      4521 1.77289E+01 4.24479E+01-5.72384E-04-1.36735E+00 4.39871E-04 1.15574E-03
 -1      4522 1.58269E+01 4.16993E+01-5.67723E-04-2.47282E+00-6.68044E-04-9.80793E-04
 -1      4523 1.57733E+01 4.17525E+01-2.96190E-03-2.60127E+00-5.47594E-04-1.44824E-03
 -1      4524 1.57561E+01 4.17704E+01-4.15930E-03-2.64400E+00 1.64111E-12-3.78771E-12
 -1      4525 1.57733E+01 4.17525E+01-2.96190E-03-2.60127E+00 5.47594E-04 1.44824E-03
 -1      4526 1.58269E+01 4.16993E+01-5.67722E-04-2.47282E+00 6.68044E-04 9.80793E-04
 -1      4527 1.34449E+01 4.04448E+01-5.42233E-04-4.01082E+00-9.17903E-04-6.88677E-04
 -1      4528 1.34446E+01 4.04446E+01-2.78882E-03-4.15054E+00-6.19596E-04-1.35116E-03
 -1      4529 1.34452E+01 4.04448E+01-3.93493E-03-4.19707E+00-1.16372E-12-3.90222E-12
 -1      4530 1.34446E+01 4.04446E+01-2.78882E-03-4.15054E+00 6.19596E-04 1.35116E-03
 -1      4531 1.34449E+01 4.04448E+01-5.42233E-04-4.01082E+00 9.17903E-04 6.88677E-04
 -1      4532 1.08093E+01 3.85064E+01-6.15306E-04-6.01730E+00-1.23504E-03-1.79801E-04
 -1      4533 1.08631E+01 3.84519E+01-2.56729E-03-6.14691E+00-5.97505E-04-1.33612E-03
 -1      4534 1.08821E+01 3.84342E+01-3.67123E-03-6.19021E+00-1.63791E-12-6.15543E-13
 -1      4535 1.08631E+01 3.84519E+01-2.56729E-03-6.14691E+00 5.97505E-04 1.33612E-03
 -1      4536 1.08093E+01 3.85064E+01-6.15306E-04-6.01730E+00 1.23504E-03 1.79801E-04
 -1      4537 8.17174E+00 3.57005E+01-4.89866E-04-8.45618E+00-1.64193E-03 6.66264E-04
 -1      4538 8.27216E+00 3.55988E+01-2.42881E-03-8.55510E+00-4.65057E-04-1.57548E-03
 -1      4539 8.30764E+00 3.55655E+01-3.52112E-03-8.58835E+00 1.91056E-12 2.04277E-13
 -1      4540 8.27216E+00 3.55988E+01-2.42881E-03-8.55510E+00 4.65057E-04 1.57548E-03
 -1      4541 8.17174E+00 3.57005E+01-4.89866E-04-8.45618E+00 1.64193E-03-6.66264E-04
 -1      4542 5.80267E+00 3.18501E+01-1.17629E-03-1.12256E+01-2.35639E-03 2.53625E-03
 -1      4543 5.93485E+00 3.17157E+01-1.82693E-03-1.12757E+01-3.02585E-04-2.19272E-03
 -1      4544 5.98293E+00 3.16719E+01-2.88019E-03-1.12928E+01 1.36588E-12-3.95825E-12
 -1      4545 5.93485E+00 3.17157E+01-1.82693E-03-1.12757E+01 3.02585E-04 2.19272E-03
 -1      4546 5.80267E+00 3.18501E+01-1.17629E-03-1.12256E+01 2.35639E-03-2.53625E-03
 -1      4547 4.02966E+00 2.67793E+01 2.06662E-04-1.41437E+01-3.17404E-03 5.16357E-03
 -1      4548 4.16866E+00 2.66334E+01-3.65657E-03-1.41309E+01-3.79465E-04-4.13555E-03
 -1      4549 4.22339E+00 2.65870E+01-4.99039E-03-1.41268E+01-1.60275E-12-3.12692E-12
 -1      4550 4.16866E+00 2.66334E+01-3.65657E-03-1.41309E+01 3.79465E-04 4.13555E-03
 -1      4551 4.02966E+00 2.67793E+01 2.06662E-04-1.41437E+01 3.17404E-03-5.16357E-03
 -1      4552 3.28133E+00 2.03528E+01-5.97241E-03-1.68667E+01-4.46898E-03 1.31921E-02
 -1      4553 3.38613E+00 2.02347E+01 2.43836E-03-1.67830E+01-7.88658E-04-3.96084E-03
 -1      4554 3.43783E+00 2.01999E+01 4.42361E-03-1.67551E+01-1.85923E-13-1.21748E-12
 -1      4555 3.38613E+00 2.02347E+01 2.43836E-03-1.67830E+01 7.88658E-04 3.96084E-03
 -1      4556 3.28133E+00 2.03528E+01-5.97241E-03-1.68667E+01 4.46898E-03-1.31921E-02
 -1      4557 3.97983E+00 1.27533E+01-5.46734E-03-1.86703E+01 1.83081E-03-6.21953E-03
 -1      4558 3.98502E+00 1.26912E+01-5.52387E-02-1.85393E+01-9.41958E-04-2.04339E-02
 -1      4559 4.01622E+00 1.26833E+01-5.73181E-02-1.84949E+01 4.09446E-12-2.07601E-12
 -1      4560 3.98502E+00 1.26912E+01-5.52387E-02-1.85393E+01 9.41958E-04 2.04339E-02
 -1      4561 3.97983E+00 1.27533E+01-5.46734E-03-1.86703E+01-1.83081E-03 6.21953E-03
 -1      4562 5.87431E+00 5.48599E+00-1.93030E-01-1.85752E+01-7.46632E-03-1.83839E-01
 -1      4563 5.97194E+00 5.62175E+00-4.71300E-02-1.84660E+01-7.20643E-03-1.59475E-02
 -1      4564 5.94377E+00 5.65333E+00 3.98902E-02-1.84293E+01 6.91396E-12-1.39502E-11
 -1      4565 5.97194E+00 5.62175E+00-4.71300E-02-1.84660E+01 7.20643E-03 1.59475E-02
 -1      4566 5.87431E+00 5.48599E+00-1.93030E-01-1.85752E+01 7.46632E-03 1.83839E-01
 -1      4567-8.24640E+00-3.11652E+01-1.08741E-01 2.62283E+01 1.18588E-01-2.09611E-01
 -1      4568-7.93914E+00-3.10848E+01-1.99793E-01 2.52887E+01 4.86336E-02-1.73878E-01
 -1      4569-7.86685E+00-3.10904E+01-2.81713E-01 2.49732E+01-3.18950E-12-1.47235E-11
 -1      4570-7.93914E+00-3.10848E+01-1.99793E-01 2.52887E+01-4.86336E-02 1.73878E-01
 -1      4571-8.24640E+00-3.11652E+01-1.08741E-01 2.62283E+01-1.18588E-01 2.09611E-01
 -1      4572-1.64472E+01 3.32150E+00-1.38214E-02 2.37275E+01-9.33666E-03-4.27390E-03
 -1      4573-1.60154E+01 2.85036E+00-3.29441E-02 2.33604E+01 3.92218E-03-4.84815E-03
 -1      4574-1.58499E+01 2.69578E+00-3.68680E-02 2.32393E+01-6.89957E-12 7.74450E-12
 -1      4575-1.60154E+01 2.85036E+00-3.29441E-02 2.33604E+01-3.92218E-03 4.84815E-03
 -1      4576-1.64472E+01 3.32150E+00-1.38214E-02 2.37275E+01 9.33666E-03 4.27390E-03
 -1      4577-1.29257E+01 2.04626E+01-8.62452E-03 1.31873E+01-7.07293E-04 6.98317E-04
 -1      4578-1.25607E+01 2.00730E+01-3.85384E-03 1.32096E+01-4.17676E-03 4.19520E-03
 -1      4579-1.24374E+01 1.99461E+01-9.25661E-04 1.32155E+01-1.49554E-12 3.96144E-12
 -1      4580-1.25607E+01 2.00730E+01-3.85384E-03 1.32096E+01 4.17676E-03-4.19520E-03
 -1      4581-1.29257E+01 2.04626E+01-8.62452E-03 1.31873E+01 7.07293E-04-6.98317E-04
 -1      4582-5.39974E+00 2.67438E+01-1.05849E-02 6.42583E+00-2.14086E-03 1.54101E-03
 -1      4583-5.20090E+00 2.65370E+01-1.08146E-02 6.54990E+00-8.24390E-04 2.54384E-03
 -1      4584-5.13246E+00 2.64680E+01-9.45155E-03 6.59167E+00-3.92389E-13 3.10762E-12
 -1      4585-5.20090E+00 2.65370E+01-1.08146E-02 6.54990E+00 8.24390E-04-2.54384E-03
 -1      4586-5.39974E+00 2.67438E+01-1.05849E-02 6.42583E+00 2.14086E-03-1.54101E-03
 -1      4587 1.07208E+00 2.94624E+01-2.35990E-03 3.18073E+00 3.51150E-04-3.67146E-04
 -1      4588 1.17400E+00 2.93554E+01-2.18247E-03 3.30974E+00-2.77157E-04 8.87201E-04
 -1      4589 1.20944E+00 2.93204E+01-1.47087E-03 3.35207E+00 1.29385E-12-4.89779E-13
 -1      4590 1.17400E+00 2.93554E+01-2.18247E-03 3.30974E+00 2.77157E-04-8.87201E-04
 -1      4591 1.07208E+00 2.94624E+01-2.35990E-03 3.18073E+00-3.51150E-04 3.67146E-04
 -1      4592 5.78593E+00 3.11362E+01-4.46393E-04 1.42592E+00-5.06545E-04-4.66244E-04
 -1      4593 5.83922E+00 3.10818E+01-8.71829E-04 1.54458E+00-1.33385E-04 3.95257E-04
 -1      4594 5.85775E+00 3.10632E+01-7.26774E-04 1.58410E+00-8.37688E-13-6.68951E-13
 -1      4595 5.83922E+00 3.10818E+01-8.71829E-04 1.54458E+00 1.33385E-04-3.95257E-04
 -1      4596 5.78593E+00 3.11362E+01-4.46393E-04 1.42592E+00 5.06545E-04 4.66244E-04
 -1      4597 9.43012E+00 3.22211E+01-9.46416E-05 1.61656E-01-2.99312E-04-3.56646E-04
 -1      4598 9.44958E+00 3.22007E+01-3.71326E-04 2.76330E-01-3.80123E-05 1.91901E-04
 -1      4599 9.45666E+00 3.21936E+01-3.25997E-04 3.14449E-01 1.60895E-12-2.51635E-12
 -1      4600 9.44958E+00 3.22007E+01-3.71326E-04 2.76330E-01 3.80123E-05-1.91901E-04
 -1      4601 9.43012E+00 3.22211E+01-9.46416E-05 1.61656E-01 2.99312E-04 3.56646E-04
 -1      4602 1.25493E+01 3.27203E+01 1.68977E-04-7.83948E-01-3.31497E-04 1.31229E-06
 -1      4603 1.25352E+01 3.27335E+01-6.93873E-05-6.73521E-01-2.63570E-05 1.96451E-04
 -1      4604 1.25309E+01 3.27375E+01-1.22494E-04-6.36662E-01 6.02953E-13-2.76248E-12
 -1      4605 1.25352E+01 3.27335E+01-6.93873E-05-6.73521E-01 2.63570E-05-1.96451E-04
 -1      4606 1.25493E+01 3.27203E+01 1.68977E-04-7.83948E-01 3.31497E-04-1.31228E-06
 -1      4607 1.52907E+01 3.27196E+01 2.33840E-04-1.29575E+00-2.31317E-04 1.51343E-04
 -1      4608 1.52418E+01 3.27676E+01 3.24823E-05-1.19714E+00-1.80460E-05 1.73298E-04
 -1      4609 1.52257E+01 3.27834E+01-5.38881E-05-1.16422E+00 1.59820E-12 1.63807E-13
 -1      4610 1.52418E+01 3.27676E+01 3.24823E-05-1.19714E+00 1.80460E-05-1.73298E-04
 -1      4611 1.52907E+01 3.27196E+01 2.33840E-04-1.29575E+00 2.31317E-04-1.51343E-04
 -1      4612 1.75137E+01 3.24338E+01 2.84997E-04-1.27708E+00-1.62807E-04 2.66860E-04
 -1      4613 1.74331E+01 3.25134E+01 8.21115E-05-1.20196E+00-1.41437E-05 1.72857E-04
 -1      4614 1.74063E+01 3.25398E+01-3.42076E-05-1.17687E+00 5.25204E-13 2.08536E-12
 -1      4615 1.74331E+01 3.25134E+01 8.21115E-05-1.20196E+00 1.41437E-05-1.72857E-04
 -1      4616 1.75137E+01 3.24338E+01 2.84997E-04-1.27708E+00 1.62807E-04-2.66860E-04
 -1      4617 1.89624E+01 3.21233E+01 3.18218E-04-7.72959E-01-9.66442E-05 3.20365E-04
 -1      4618 1.88594E+01 3.22252E+01 1.14196E-04-7.32339E-01-1.26213E-06 1.72839E-04
 -1      4619 1.88251E+01 3.22591E+01-1.61756E-05-7.18769E-01 1.04280E-12-2.25875E-12
 -1      4620 1.88594E+01 3.22252E+01 1.14196E-04-7.32339E-01 1.26213E-06-1.72839E-04
 -1      4621 1.89624E+01 3.21233E+01 3.18218E-04-7.72959E-01 9.66442E-05-3.20365E-04
 -1      4622 1.94056E+01 3.20005E+01 3.33732E-04 2.07043E-02-4.55845E-05 3.50628E-04
 -1      4623 1.92943E+01 3.21107E+01 1.28576E-04 1.99566E-02 2.02342E-05 1.72426E-04
 -1      4624 1.92573E+01 3.21474E+01-1.00741E-05 1.97216E-02 1.52995E-12 1.57697E-12
 -1      4625 1.92943E+01 3.21107E+01 1.28576E-04 1.99566E-02-2.02342E-05-1.72426E-04
 -1      4626 1.94056E+01 3.20005E+01 3.33732E-04 2.07043E-02 4.55845E-05-3.50628E-04
 -1      4627 1.87265E+01 3.21644E+01 3.37583E-04 8.05476E-01-1.07846E-05 3.64959E-04
 -1      4628 1.86233E+01 3.22665E+01 1.38169E-04 7.62658E-01 5.13566E-05 1.64189E-04
 -1      4629 1.85890E+01 3.23005E+01-3.95170E-06 7.48380E-01 1.34820E-12 1.72080E-13
 -1      4630 1.86233E+01 3.22665E+01 1.38169E-04 7.62658E-01-5.13566E-05-1.64189E-04
 -1      4631 1.87265E+01 3.21644E+01 3.37583E-04 8.05476E-01 1.07846E-05-3.64959E-04
 -1      4632 1.69620E+01 3.25713E+01 3.29880E-04 1.25071E+00-1.25076E-06 3.79879E-04
 -1      4633 1.68825E+01 3.26496E+01 1.42719E-04 1.17173E+00 9.31491E-05 1.41604E-04
 -1      4634 1.68561E+01 3.26758E+01-1.21471E-06 1.14537E+00 1.36313E-12-1.24063E-12
 -1      4635 1.68825E+01 3.26496E+01 1.42719E-04 1.17173E+00-9.31491E-05-1.41604E-04
 -1      4636 1.69620E+01 3.25713E+01 3.29880E-04 1.25071E+00 1.25076E-06-3.79879E-04
 -1      4637 1.43013E+01 3.30407E+01 3.06363E-04 1.06377E+00-3.07291E-05 4.20173E-04
 -1      4638 1.42578E+01 3.30830E+01 1.48225E-04 9.60281E-01 1.50409E-04 9.37962E-05
 -1      4639 1.42435E+01 3.30972E+01 1.79544E-06 9.25705E-01 1.65266E-12-2.52245E-12
 -1      4640 1.42578E+01 3.30830E+01 1.48225E-04 9.60281E-01-1.50409E-04-9.37962E-05
 -1      4641 1.43013E+01 3.30407E+01 3.06363E-04 1.06377E+00 3.07291E-05-4.20173E-04
 -1      4642 1.10559E+01 3.32865E+01 2.80002E-04 4.60894E-02-1.17759E-04 5.29881E-04
 -1      4643 1.10552E+01 3.32859E+01 1.51016E-04-6.62833E-02 2.31550E-04-4.29386E-06
 -1      4644 1.10554E+01 3.32859E+01-4.56504E-06-1.03899E-01-1.59017E-13-2.55288E-12
 -1      4645 1.10552E+01 3.32859E+01 1.51016E-04-6.62833E-02-2.31550E-04 4.29385E-06
 -1      4646 1.10559E+01 3.32865E+01 2.80002E-04 4.60894E-02 1.17759E-04-5.29881E-04
 -1      4647 7.61316E+00 3.29633E+01 1.93331E-04-1.87177E+00-2.95599E-04 8.15600E-04
 -1      4648 7.65586E+00 3.29192E+01 1.94499E-04-1.97574E+00 3.48185E-04-1.87827E-04
 -1      4649 7.67091E+00 3.29048E+01 2.74464E-05-2.01066E+00-6.59680E-13-1.06176E-12
 -1      4650 7.65586E+00 3.29192E+01 1.94499E-04-1.97574E+00-3.48185E-04 1.87827E-04
 -1      4651 7.61316E+00 3.29633E+01 1.93331E-04-1.87177E+00 2.95599E-04-8.15600E-04
 -1      4652 4.39077E+00 3.17146E+01 1.84555E-04-4.61664E+00-5.65233E-04 1.41122E-03
 -1      4653 4.47045E+00 3.16330E+01 1.13053E-04-4.69555E+00 5.07666E-04-5.86969E-04
 -1      4654 4.49872E+00 3.16062E+01-1.19024E-04-4.72223E+00 6.09521E-13-5.43020E-13
 -1      4655 4.47045E+00 3.16330E+01 1.13053E-04-4.69555E+00-5.07666E-04 5.86969E-04
 -1      4656 4.39077E+00 3.17146E+01 1.84555E-04-4.61664E+00 5.65233E-04-1.41122E-03
 -1      4657 1.80397E+00 2.92147E+01-3.48792E-04-7.97073E+00-1.03602E-03 2.83340E-03
 -1      4658 1.90760E+00 2.91083E+01 5.24588E-04-8.01045E+00 6.78047E-04-1.17136E-03
 -1      4659 1.94560E+00 2.90735E+01 4.10161E-04-8.02411E+00 5.21680E-13-2.62005E-12
 -1      4660 1.90760E+00 2.91083E+01 5.24588E-04-8.01045E+00-6.78047E-04 1.17136E-03
 -1      4661 1.80397E+00 2.92147E+01-3.48792E-04-7.97073E+00 1.03602E-03-2.83340E-03
 -1      4662 2.51273E-01 2.52085E+01 4.09985E-04-1.15580E+01-1.35412E-03 5.24836E-03
 -1      4663 3.56847E-01 2.50954E+01-1.09454E-03-1.15494E+01 6.63509E-04-2.52805E-03
 -1      4664 3.99043E-01 2.50593E+01-1.53934E-03-1.15468E+01-1.17139E-12-2.50169E-12
 -1      4665 3.56847E-01 2.50954E+01-1.09454E-03-1.15494E+01-6.63509E-04 2.52805E-03
 -1      4666 2.51273E-01 2.52085E+01 4.09985E-04-1.15580E+01 1.35412E-03-5.24836E-03
 -1      4667 8.32920E-02 1.96031E+01-6.47566E-03-1.47957E+01-2.38656E-03 1.10914E-02
 -1      4668 1.58163E-01 1.95132E+01 9.29309E-04-1.47385E+01 7.65850E-05-1.55602E-03
 -1      4669 1.96195E-01 1.94870E+01 4.00076E-03-1.47193E+01 3.01432E-13-1.99931E-12
 -1      4670 1.58163E-01 1.95132E+01 9.29309E-04-1.47385E+01-7.65850E-05 1.55602E-03
 -1      4671 8.32920E-02 1.96031E+01-6.47566E-03-1.47957E+01 2.38656E-03-1.10914E-02
 -1      4672 1.40212E+00 1.27843E+01-3.41445E-03-1.68750E+01 6.25896E-04-2.25461E-03
 -1      4673 1.39986E+00 1.27302E+01-4.07263E-02-1.67922E+01-2.80180E-03-1.12989E-02
 -1      4674 1.42013E+00 1.27215E+01-4.28095E-02-1.67635E+01 1.59017E-12-3.59286E-12
 -1      4675 1.39986E+00 1.27302E+01-4.07263E-02-1.67922E+01 2.80180E-03 1.12989E-02
 -1      4676 1.40212E+00 1.27843E+01-3.41445E-03-1.68750E+01-6.25896E-04 2.25461E-03
 -1      4677 3.56948E+00 6.10125E+00-1.59551E-01-1.72307E+01-4.21343E-02-1.59941E-01
 -1      4678 3.69237E+00 6.19107E+00-7.76320E-02-1.71413E+01-3.25598E-02-2.93535E-02
 -1      4679 3.68545E+00 6.21324E+00-2.16578E-02-1.71088E+01 1.05828E-12-1.12185E-11
 -1      4680 3.69237E+00 6.19107E+00-7.76320E-02-1.71413E+01 3.25598E-02 2.93535E-02
 -1      4681 3.56948E+00 6.10125E+00-1.59551E-01-1.72307E+01 4.21343E-02 1.59941E-01
 -1      4682-6.12648E+00-2.45011E+01-8.10372E-02 2.10199E+01 8.66963E-02-1.28555E-01
 -1      4683-6.08625E+00-2.43896E+01-1.91761E-01 2.04358E+01 4.86149E-02-1.00614E-01
 -1      4684-6.05240E+00-2.43573E+01-2.18957E-01 2.02457E+01-1.91147E-12-9.82222E-12
 -1      4685-6.08625E+00-2.43896E+01-1.91761E-01 2.04358E+01-4.86149E-02 1.00614E-01
 -1      4686-6.12648E+00-2.45011E+01-8.10372E-02 2.10199E+01-8.66963E-02 1.28555E-01
 -1      4687-1.44874E+01 2.03051E+00-1.21432E-02 2.15922E+01-8.90392E-03 2.14586E-03
 -1      4688-1.42328E+01 1.77147E+00-8.36478E-03 2.12953E+01-3.07269E-03-1.22760E-03
 -1      4689-1.41525E+01 1.68783E+00-1.22980E-02 2.11970E+01-3.34121E-12 4.87304E-12
 -1      4690-1.42328E+01 1.77147E+00-8.36478E-03 2.12953E+01 3.07269E-03 1.22760E-03
 -1      4691-1.44874E+01 2.03051E+00-1.21432E-02 2.15922E+01 8.90392E-03-2.14586E-03
 -1      4692-1.45304E+01 1.81536E+01 1.37189E-02 1.32847E+01 4.12611E-04 1.83560E-03
 -1      4693-1.42665E+01 1.78838E+01 1.17267E-02 1.32376E+01-1.71672E-03 1.80718E-03
 -1      4694-1.41792E+01 1.77920E+01 1.18833E-02 1.32226E+01 4.25892E-14 2.36973E-12
 -1      4695-1.42665E+01 1.78838E+01 1.17267E-02 1.32376E+01 1.71672E-03-1.80718E-03
 -1      4696-1.45304E+01 1.81536E+01 1.37189E-02 1.32847E+01-4.12611E-04-1.83560E-03
 -1      4697-9.51490E+00 2.48683E+01 7.59875E-03 5.88390E+00-3.65184E-04 1.49345E-03
 -1      4698-9.33647E+00 2.46880E+01 9.23217E-03 5.94951E+00-5.66388E-04 8.75360E-04
 -1      4699-9.27770E+00 2.46281E+01 9.30234E-03 5.97107E+00-7.18228E-13-3.32340E-13
 -1      4700-9.33647E+00 2.46880E+01 9.23217E-03 5.94951E+00 5.66388E-04-8.75360E-04
 -1      4701-9.51490E+00 2.48683E+01 7.59875E-03 5.88390E+00 3.65184E-04-1.49345E-03
 -1      4702-3.67704E+00 2.71479E+01 3.68243E-03 1.26230E+00-7.46272E-05 4.27515E-04
 -1      4703-3.57307E+00 2.70446E+01 3.87211E-03 1.35635E+00-1.57170E-04 2.73351E-04
 -1      4704-3.53875E+00 2.70097E+01 3.86240E-03 1.38779E+00-1.53578E-13 1.33072E-12
 -1      4705-3.57307E+00 2.70446E+01 3.87211E-03 1.35635E+00 1.57170E-04-2.73351E-04
 -1      4706-3.67704E+00 2.71479E+01 3.68243E-03 1.26230E+00 7.46272E-05-4.27515E-04
 -1      4707 1.49103E+00 2.76688E+01 6.83700E-04-1.49510E+00-8.70638E-05 1.93583E-04
 -1      4708 1.54792E+00 2.76124E+01 1.03108E-03-1.39693E+00-9.00381E-05 4.70643E-05
 -1      4709 1.56659E+00 2.75936E+01 1.02407E-03-1.36427E+00 3.74836E-13-1.06283E-12
 -1      4710 1.54792E+00 2.76124E+01 1.03108E-03-1.39693E+00 9.00381E-05-4.70643E-05
 -1      4711 1.49103E+00 2.76688E+01 6.83700E-04-1.49510E+00 8.70638E-05-1.93583E-04
 -1      4712 5.97794E+00 2.73160E+01 3.49571E-04-3.17620E+00-8.99144E-05 2.06283E-04
 -1      4713 6.00006E+00 2.72940E+01 4.75511E-04-3.07881E+00-8.20266E-05 6.15386E-05
 -1      4714 6.00723E+00 2.72866E+01 4.62314E-04-3.04632E+00 1.16705E-13 2.31467E-12
 -1      4715 6.00006E+00 2.72940E+01 4.75511E-04-3.07881E+00 8.20266E-05-6.15386E-05
 -1      4716 5.97794E+00 2.73160E+01 3.49571E-04-3.17620E+00 8.99144E-05-2.06283E-04
 -1      4717 9.98035E+00 2.63929E+01 2.45243E-04-4.03445E+00-6.82996E-05 1.99279E-04
 -1      4718 9.97100E+00 2.64021E+01 3.61925E-04-3.94115E+00-8.44881E-05 9.72489E-05
 -1      4719 9.96774E+00 2.64052E+01 3.66690E-04-3.91008E+00 4.87240E-13-2.45984E-12
 -1      4720 9.97100E+00 2.64021E+01 3.61925E-04-3.94115E+00 8.44881E-05-9.72489E-05
 -1      4721 9.98035E+00 2.63929E+01 2.45243E-04-4.03445E+00 6.82996E-05-1.99279E-04
 -1      4722 1.34960E+01 2.51536E+01 2.86039E-04-4.06891E+00-6.42188E-05 2.10375E-04
 -1      4723 1.34564E+01 2.51929E+01 3.75358E-04-3.98673E+00-7.52486E-05 1.32859E-04
 -1      4724 1.34432E+01 2.52060E+01 3.91813E-04-3.95936E+00 7.04961E-13-1.26570E-13
 -1      4725 1.34564E+01 2.51929E+01 3.75358E-04-3.98673E+00 7.52486E-05-1.32859E-04
 -1      4726 1.34960E+01 2.51536E+01 2.86039E-04-4.06891E+00 6.42188E-05-2.10375E-04
 -1      4727 1.63131E+01 2.39158E+01 3.29674E-04-3.28572E+00-4.83809E-05 2.20177E-04
 -1      4728 1.62473E+01 2.39812E+01 4.19018E-04-3.22382E+00-5.32712E-05 1.61895E-04
 -1      4729 1.62253E+01 2.40030E+01 4.43318E-04-3.20321E+00 9.03086E-13-2.25082E-12
 -1      4730 1.62473E+01 2.39812E+01 4.19018E-04-3.22382E+00 5.32712E-05-1.61895E-04
 -1      4731 1.63131E+01 2.39158E+01 3.29674E-04-3.28572E+00 4.83809E-05-2.20177E-04
 -1      4732 1.81334E+01 2.30088E+01 3.59476E-04-1.82676E+00-3.44271E-05 2.30562E-04
 -1      4733 1.80495E+01 2.30923E+01 4.50115E-04-1.79359E+00-2.50856E-05 1.80090E-04
 -1      4734 1.80215E+01 2.31202E+01 4.79054E-04-1.78256E+00 5.05496E-13 4.43744E-13
 -1      4735 1.80495E+01 2.30923E+01 4.50115E-04-1.79359E+00 2.50856E-05-1.80090E-04
 -1      4736 1.81334E+01 2.30088E+01 3.59476E-04-1.82676E+00 3.44271E-05-2.30562E-04
 -1      4737 1.87030E+01 2.26867E+01 3.75337E-04 1.11355E-02-2.05404E-05 2.38753E-04
 -1      4738 1.86125E+01 2.27767E+01 4.69729E-04 1.03915E-02 8.86738E-06 1.86798E-04
 -1      4739 1.85823E+01 2.28067E+01 5.00075E-04 1.01167E-02 1.23143E-12-1.92728E-12
 -1      4740 1.86125E+01 2.27767E+01 4.69729E-04 1.03915E-02-8.86737E-06-1.86798E-04
 -1      4741 1.87030E+01 2.26867E+01 3.75337E-04 1.11355E-02 2.05404E-05-2.38753E-04
 -1      4742 1.79061E+01 2.30574E+01 3.77874E-04 1.82328E+00-1.46997E-05 2.47324E-04
 -1      4743 1.78224E+01 2.31407E+01 4.76680E-04 1.78827E+00 4.73669E-05 1.80499E-04
 -1      4744 1.77945E+01 2.31685E+01 5.05951E-04 1.77657E+00 1.08987E-12-7.78190E-13
 -1      4745 1.78224E+01 2.31407E+01 4.76680E-04 1.78827E+00-4.73669E-05-1.80499E-04
 -1      4746 1.79061E+01 2.30574E+01 3.77874E-04 1.82328E+00 1.46997E-05-2.47324E-04
 -1      4747 1.58114E+01 2.40497E+01 3.69056E-04 3.17505E+00-2.40117E-05 2.63851E-04
 -1      4748 1.57471E+01 2.41135E+01 4.73148E-04 3.11070E+00 9.18759E-05 1.57662E-04
 -1      4749 1.57257E+01 2.41349E+01 4.98368E-04 3.08918E+00 1.28011E-12-4.04879E-13
 -1      4750 1.57471E+01 2.41135E+01 4.73148E-04 3.11070E+00-9.18759E-05-1.57662E-04
 -1      4751 1.58114E+01 2.40497E+01 3.69056E-04 3.17505E+00 2.40117E-05-2.63851E-04
 -1      4752 1.26718E+01 2.54185E+01 3.46739E-04 3.68465E+00-5.98086E-05 3.06163E-04
 -1      4753 1.26368E+01 2.54530E+01 4.64684E-04 3.60048E+00 1.45268E-04 1.11056E-04
 -1      4754 1.26253E+01 2.54646E+01 4.82313E-04 3.57232E+00 6.38673E-13-1.72521E-12
 -1      4755 1.26368E+01 2.54530E+01 4.64684E-04 3.60048E+00-1.45268E-04-1.11056E-04
 -1      4756 1.26718E+01 2.54185E+01 3.46739E-04 3.68465E+00 5.98086E-05-3.06163E-04
 -1      4757 8.88940E+00 2.67825E+01 3.17358E-04 3.09290E+00-1.32687E-04 4.06466E-04
 -1      4758 8.88926E+00 2.67820E+01 4.46977E-04 3.00164E+00 2.13056E-04 2.27560E-05
 -1      4759 8.88952E+00 2.67819E+01 4.49974E-04 2.97106E+00 2.79278E-13-2.01868E-12
 -1      4760 8.88926E+00 2.67820E+01 4.46977E-04 3.00164E+00-2.13056E-04-2.27560E-05
 -1      4761 8.88940E+00 2.67825E+01 3.17358E-04 3.09290E+00 1.32687E-04-4.06466E-04
 -1      4762 4.95890E+00 2.76822E+01 2.48390E-04 1.31018E+00-2.64606E-04 6.37782E-04
 -1      4763 4.99388E+00 2.76464E+01 4.59172E-04 1.22594E+00 2.98972E-04-1.30477E-04
 -1      4764 5.00618E+00 2.76347E+01 4.47128E-04 1.19764E+00-3.63718E-13-1.29301E-12
 -1      4765 4.99388E+00 2.76464E+01 4.59172E-04 1.22594E+00-2.98972E-04 1.30477E-04
 -1      4766 4.95890E+00 2.76822E+01 2.48390E-04 1.31018E+00 2.64606E-04-6.37782E-04
 -1      4767 1.40428E+00 2.76465E+01 2.29217E-04-1.56099E+00-4.34611E-04 1.09753E-03
 -1      4768 1.46891E+00 2.75807E+01 3.89490E-04-1.62474E+00 4.08789E-04-4.29494E-04
 -1      4769 1.49178E+00 2.75590E+01 3.29016E-04-1.64627E+00 1.84591E-13-1.40555E-12
 -1      4770 1.46891E+00 2.75807E+01 3.89490E-04-1.62474E+00-4.08789E-04 4.29494E-04
 -1      4771 1.40428E+00 2.76465E+01 2.29217E-04-1.56099E+00 4.34611E-04-1.09753E-03
 -1      4772-1.27872E+00 2.62578E+01-1.53407E-04-5.22019E+00-7.34614E-04 2.11201E-03
 -1      4773-1.19542E+00 2.61727E+01 6.32030E-04-5.25248E+00 5.00952E-04-8.26411E-04
 -1      4774-1.16511E+00 2.61448E+01 6.81108E-04-5.26352E+00 2.68248E-13-1.99576E-12
 -1      4775-1.19542E+00 2.61727E+01 6.32030E-04-5.25248E+00-5.00952E-04 8.26411E-04
 -1      4776-1.27872E+00 2.62578E+01-1.53407E-04-5.22019E+00 7.34614E-04-2.11201E-03
 -1      4777-2.67655E+00 2.32247E+01 4.85190E-04-9.16495E+00-7.02724E-04 3.81591E-03
 -1      4778-2.59244E+00 2.31351E+01-2.26125E-04-9.15996E+00 5.38629E-04-1.60310E-03
 -1      4779-2.55950E+00 2.31065E+01-3.22797E-04-9.15842E+00-2.62654E-13-2.16443E-12
 -1      4780-2.59244E+00 2.31351E+01-2.26125E-04-9.15996E+00-5.38629E-04 1.60310E-03
 -1      4781-2.67655E+00 2.32247E+01 4.85190E-04-9.16495E+00 7.02724E-04-3.81591E-03
 -1      4782-2.54288E+00 1.84980E+01-3.84124E-03-1.26920E+01-1.45937E-03 8.19790E-03
 -1      4783-2.48273E+00 1.84258E+01 1.33279E-03-1.26530E+01 5.82284E-05-5.81923E-05
 -1      4784-2.45402E+00 1.84044E+01 3.97193E-03-1.26399E+01-7.73608E-13-2.20754E-12
 -1      4785-2.48273E+00 1.84258E+01 1.33279E-03-1.26530E+01-5.82284E-05 5.81923E-05
 -1      4786-2.54288E+00 1.84980E+01-3.84124E-03-1.26920E+01 1.45937E-03-8.19790E-03
 -1      4787-9.86895E-01 1.25124E+01-1.03696E-03-1.50119E+01 1.97758E-03 6.94821E-04
 -1      4788-9.82509E-01 1.24626E+01-2.45434E-02-1.49587E+01-1.35584E-03-3.95157E-03
 -1      4789-9.68540E-01 1.24520E+01-2.53076E-02-1.49403E+01-4.12865E-14-3.79298E-12
 -1      4790-9.82509E-01 1.24626E+01-2.45434E-02-1.49587E+01 1.35584E-03 3.95157E-03
 -1      4791-9.86895E-01 1.25124E+01-1.03696E-03-1.50119E+01-1.97758E-03-6.94821E-04
 -1      4792 1.27674E+00 6.33248E+00-1.05675E-01-1.57965E+01-4.99505E-02-1.08013E-01
 -1      4793 1.37939E+00 6.37703E+00-6.12525E-02-1.57235E+01-3.75231E-02-2.26814E-02
 -1      4794 1.38070E+00 6.38692E+00-2.84471E-02-1.56963E+01-1.76763E-12-8.62502E-12
 -1      4795 1.37939E+00 6.37703E+00-6.12525E-02-1.57235E+01 3.75231E-02 2.26814E-02
 -1      4796 1.27674E+00 6.33248E+00-1.05675E-01-1.57965E+01 4.99505E-02 1.08013E-01
 -1      4797-4.79213E+00-1.88474E+01-4.99709E-02 1.70573E+01 4.55398E-02-7.62755E-02
 -1      4798-4.80143E+00-1.87433E+01-1.12369E-01 1.66884E+01 3.03878E-02-6.30186E-02
 -1      4799-4.80157E+00-1.87091E+01-1.41823E-01 1.65648E+01-2.47904E-12-1.69124E-14
 -1      4800-4.80143E+00-1.87433E+01-1.12369E-01 1.66884E+01-3.03878E-02 6.30186E-02
 -1      4801-4.79213E+00-1.88474E+01-4.99709E-02 1.70573E+01-4.55398E-02 7.62755E-02
 -1      4802-1.27428E+01 1.62342E+00-3.32066E-03 1.90328E+01-2.04644E-03 2.22922E-03
 -1      4803-1.26077E+01 1.48125E+00-1.85883E-03 1.88030E+01-6.69344E-04 1.15597E-03
 -1      4804-1.25612E+01 1.43383E+00-1.41735E-03 1.87274E+01 3.66401E-12-1.16273E-11
 -1      4805-1.26077E+01 1.48125E+00-1.85883E-03 1.88030E+01 6.69343E-04-1.15597E-03
 -1      4806-1.27428E+01 1.62342E+00-3.32066E-03 1.90328E+01 2.04644E-03-2.22922E-03
 -1      4807-1.49162E+01 1.59588E+01 2.87617E-03 1.25492E+01 5.73503E-04-1.95606E-05
 -1      4808-1.47274E+01 1.57663E+01 2.93966E-03 1.24823E+01-4.93738E-04 5.14084E-04
 -1      4809-1.46642E+01 1.57026E+01 3.35750E-03 1.24598E+01-5.84732E-13 6.29818E-12
 -1      4810-1.47274E+01 1.57663E+01 2.93966E-03 1.24823E+01 4.93738E-04-5.14084E-04
 -1      4811-1.49162E+01 1.59588E+01 2.87617E-03 1.25492E+01-5.73503E-04 1.95606E-05
 -1      4812-1.19836E+01 2.25632E+01 1.58402E-03 5.23800E+00-6.85171E-05 2.71600E-04
 -1      4813-1.18354E+01 2.24146E+01 2.03270E-03 5.26722E+00-8.39064E-05 3.10187E-04
 -1      4814-1.17857E+01 2.23648E+01 2.26653E-03 5.27695E+00-1.00031E-12-4.38514E-12
 -1      4815-1.18354E+01 2.24146E+01 2.03270E-03 5.26722E+00 8.39064E-05-3.10187E-04
 -1      4816-1.19836E+01 2.25632E+01 1.58402E-03 5.23800E+00 6.85171E-05-2.71600E-04
 -1      4817-7.05646E+00 2.44914E+01 3.15509E-05-1.47835E-01 1.69821E-04-1.75623E-04
 -1      4818-6.96051E+00 2.43953E+01 1.31530E-04-8.01033E-02 2.04134E-05-1.83021E-05
 -1      4819-6.92834E+00 2.43633E+01 2.16678E-04-5.76236E-02 3.63773E-12-7.21857E-14
 -1      4820-6.96051E+00 2.43953E+01 1.31530E-04-8.01033E-02-2.04134E-05 1.83021E-05
 -1      4821-7.05646E+00 2.44914E+01 3.15509E-05-1.47835E-01-1.69821E-04 1.75623E-04
 -1      4822-1.87700E+00 2.41489E+01 3.65465E-05-3.61779E+00 7.31966E-07-7.69569E-05
 -1      4823-1.82224E+00 2.40940E+01 7.12450E-06-3.53819E+00-1.13795E-05-3.10205E-06
 -1      4824-1.80388E+00 2.40757E+01 1.38480E-05-3.51165E+00-1.57295E-12-5.71502E-13
 -1      4825-1.82224E+00 2.40940E+01 7.12450E-06-3.53819E+00 1.13795E-05 3.10205E-06
 -1      4826-1.87700E+00 2.41489E+01 3.65465E-05-3.61779E+00-7.31972E-07 7.69569E-05
 -1      4827 3.04963E+00 2.26820E+01 1.42325E-04-5.64206E+00-2.17609E-05-5.49175E-05
 -1      4828 3.07205E+00 2.26595E+01 1.25669E-04-5.55998E+00-2.09833E-05 2.51529E-05
 -1      4829 3.07957E+00 2.26520E+01 1.34862E-04-5.53263E+00 2.19693E-12-5.11148E-13
 -1      4830 3.07205E+00 2.26595E+01 1.25669E-04-5.55998E+00 2.09833E-05-2.51529E-05
 -1      4831 3.04963E+00 2.26820E+01 1.42325E-04-5.64206E+00 2.17609E-05 5.49175E-05
 -1      4832 7.60876E+00 2.06390E+01 2.07794E-04-6.46060E+00-5.19971E-05-9.44972E-06
 -1      4833 7.60260E+00 2.06450E+01 2.13788E-04-6.38177E+00-2.23191E-05 4.79971E-05
 -1      4834 7.60057E+00 2.06470E+01 2.27819E-04-6.35549E+00 1.42295E-12 7.51699E-13
 -1      4835 7.60260E+00 2.06450E+01 2.13788E-04-6.38177E+00 2.23191E-05-4.79971E-05
 -1      4836 7.60876E+00 2.06390E+01 2.07794E-04-6.46060E+00 5.19971E-05 9.44971E-06
 -1      4837 1.16410E+01 1.84243E+01 2.49394E-04-6.14668E+00-4.50462E-05 2.06774E-05
 -1      4838 1.16087E+01 1.84566E+01 2.79517E-04-6.07771E+00-1.36904E-05 5.99632E-05
 -1      4839 1.15979E+01 1.84673E+01 2.99690E-04-6.05472E+00 1.08963E-12-4.75290E-13
 -1      4840 1.16087E+01 1.84566E+01 2.79517E-04-6.07771E+00 1.36905E-05-5.99632E-05
 -1      4841 1.16410E+01 1.84243E+01 2.49394E-04-6.14668E+00 4.50462E-05-2.06774E-05
 -1      4842 1.48609E+01 1.64421E+01 2.77176E-04-4.79137E+00-3.75328E-05 4.19597E-05
 -1      4843 1.48065E+01 1.64964E+01 3.22839E-04-4.73982E+00-6.00468E-06 6.56720E-05
 -1      4844 1.47883E+01 1.65144E+01 3.45986E-04-4.72262E+00 1.71170E-12 1.60159E-12
 -1      4845 1.48065E+01 1.64964E+01 3.22839E-04-4.73982E+00 6.00469E-06-6.56720E-05
 -1      4846 1.48609E+01 1.64421E+01 2.77176E-04-4.79137E+00 3.75328E-05-4.19597E-05
 -1      4847 1.69347E+01 1.50720E+01 2.94102E-04-2.61714E+00-2.96798E-05 5.48141E-05
 -1      4848 1.68654E+01 1.51412E+01 3.49496E-04-2.58970E+00 3.10077E-06 6.72953E-05
 -1      4849 1.68423E+01 1.51642E+01 3.73674E-04-2.58056E+00 9.61734E-13 4.35968E-13
 -1      4850 1.68654E+01 1.51412E+01 3.49496E-04-2.58970E+00-3.10077E-06-6.72953E-05
 -1      4851 1.69347E+01 1.50720E+01 2.94102E-04-2.61714E+00 2.96798E-05-5.48141E-05
 -1      4852 1.75948E+01 1.45932E+01 3.03338E-04 1.20161E-03-2.71576E-05 6.42280E-05
 -1      4853 1.75203E+01 1.46676E+01 3.64693E-04 4.87489E-04 1.42969E-05 6.56295E-05
 -1      4854 1.74954E+01 1.46924E+01 3.88536E-04 2.43207E-04 6.00771E-13-1.63732E-12
 -1      4855 1.75203E+01 1.46676E+01 3.64693E-04 4.87488E-04-1.42969E-05-6.56295E-05
 -1      4856 1.75948E+01 1.45932E+01 3.03338E-04 1.20161E-03 2.71576E-05-6.42279E-05
 -1      4857 1.67303E+01 1.51157E+01 3.04223E-04 2.58236E+00-3.20096E-05 7.46747E-05
 -1      4858 1.66614E+01 1.51844E+01 3.69940E-04 2.55337E+00 2.88029E-05 5.91626E-05
 -1      4859 1.66385E+01 1.52074E+01 3.92240E-04 2.54369E+00 1.46192E-12 6.72692E-13
 -1      4860 1.66614E+01 1.51844E+01 3.69940E-04 2.55337E+00-2.88029E-05-5.91626E-05
 -1      4861 1.67303E+01 1.51157E+01 3.04223E-04 2.58236E+00 3.20096E-05-7.46747E-05
 -1      4862 1.44342E+01 1.65463E+01 2.97460E-04 4.61985E+00-4.70758E-05 9.29089E-05
 -1      4863 1.43814E+01 1.65989E+01 3.67066E-04 4.56672E+00 4.79409E-05 4.49062E-05
 -1      4864 1.43639E+01 1.66165E+01 3.86297E-04 4.54897E+00 1.46393E-12-9.68026E-13
 -1      4865 1.43814E+01 1.65989E+01 3.67066E-04 4.56672E+00-4.79409E-05-4.49062E-05
 -1      4866 1.44342E+01 1.65463E+01 2.97460E-04 4.61985E+00 4.70758E-05-9.29089E-05
 -1      4867 1.10040E+01 1.85938E+01 2.81807E-04 5.67165E+00-7.67507E-05 1.30307E-04
 -1      4868 1.09754E+01 1.86222E+01 3.59616E-04 5.60226E+00 7.32033E-05 1.76835E-05
 -1      4869 1.09660E+01 1.86317E+01 3.74085E-04 5.57907E+00 1.04665E-12-1.43207E-12
 -1      4870 1.09754E+01 1.86222E+01 3.59616E-04 5.60226E+00-7.32033E-05-1.76835E-05
 -1      4871 1.10040E+01 1.85938E+01 2.81807E-04 5.67165E+00 7.67507E-05-1.30307E-04
 -1      4872 6.90297E+00 2.08112E+01 2.59628E-04 5.43842E+00-1.23700E-04 2.05313E-04
 -1      4873 6.90311E+00 2.08109E+01 3.44141E-04 5.36330E+00 1.07058E-04-3.37337E-05
 -1      4874 6.90336E+00 2.08108E+01 3.50007E-04 5.33816E+00 1.63959E-13-1.91303E-12
 -1      4875 6.90311E+00 2.08109E+01 3.44141E-04 5.36330E+00-1.07058E-04 3.37337E-05
 -1      4876 6.90297E+00 2.08112E+01 2.59628E-04 5.43842E+00 1.23700E-04-2.05313E-04
 -1      4877 2.69555E+00 2.26625E+01 2.13550E-04 3.81833E+00-1.98754E-04 3.59085E-04
 -1      4878 2.72452E+00 2.26332E+01 3.41204E-04 3.74908E+00 1.48737E-04-1.21233E-04
 -1      4879 2.73460E+00 2.26236E+01 3.40764E-04 3.72587E+00 2.56318E-13-1.26445E-12
 -1      4880 2.72452E+00 2.26332E+01 3.41204E-04 3.74908E+00-1.48737E-04 1.21233E-04
 -1      4881 2.69555E+00 2.26625E+01 2.13550E-04 3.81833E+00 1.98754E-04-3.59085E-04
 -1      4882-1.02917E+00 2.36017E+01 1.81495E-04 9.34991E-01-2.72566E-04 6.35041E-04
 -1      4883-9.75954E-01 2.35479E+01 2.78684E-04 8.82597E-01 2.02550E-04-2.89604E-04
 -1      4884-9.57411E-01 2.35301E+01 2.55473E-04 8.64994E-01-3.76503E-13-1.48656E-12
 -1      4885-9.75954E-01 2.35479E+01 2.78684E-04 8.82597E-01-2.02550E-04 2.89604E-04
 -1      4886-1.02917E+00 2.36017E+01 1.81495E-04 9.34991E-01 2.72566E-04-6.35041E-04
 -1      4887-3.73565E+00 2.31564E+01-5.38907E-05-2.85681E+00-4.25733E-04 1.23282E-03
 -1      4888-3.66729E+00 2.30871E+01 3.64871E-04-2.88376E+00 2.27350E-04-4.83569E-04
 -1      4889-3.64304E+00 2.30643E+01 4.23401E-04-2.89287E+00 1.60084E-13-1.87283E-12
 -1      4890-3.66729E+00 2.30871E+01 3.64871E-04-2.88376E+00-2.27350E-04 4.83569E-04
 -1      4891-3.73565E+00 2.31564E+01-5.38907E-05-2.85681E+00 4.25733E-04-1.23282E-03
 -1      4892-5.02417E+00 2.10200E+01 1.45709E-04-6.98104E+00-2.05102E-04 2.06514E-03
 -1      4893-4.95456E+00 2.09472E+01-2.64665E-04-6.97874E+00 2.92952E-04-8.84855E-04
 -1      4894-4.92863E+00 2.09237E+01-2.53703E-04-6.97804E+00-4.44728E-13-2.00091E-12
 -1      4895-4.95456E+00 2.09472E+01-2.64665E-04-6.97874E+00-2.92952E-04 8.84855E-04
 -1      4896-5.02417E+00 2.10200E+01 1.45709E-04-6.98104E+00 2.05102E-04-2.06514E-03
 -1      4897-4.73953E+00 1.71686E+01-1.70749E-03-1.06843E+01-7.61027E-04 4.82763E-03
 -1      4898-4.68609E+00 1.71080E+01 1.05501E-03-1.06572E+01 4.73620E-05 4.29600E-04
 -1      4899-4.66368E+00 1.70894E+01 2.68179E-03-1.06482E+01-7.72632E-13-2.37457E-12
 -1      4900-4.68609E+00 1.71080E+01 1.05501E-03-1.06572E+01-4.73620E-05-4.29600E-04
 -1      4901-4.73953E+00 1.71686E+01-1.70749E-03-1.06843E+01 7.61027E-04-4.82763E-03
 -1      4902-3.11536E+00 1.20068E+01-1.29098E-04-1.32194E+01 3.05045E-03 1.39806E-04
 -1      4903-3.09697E+00 1.19614E+01-1.25658E-02-1.31837E+01 6.01615E-04-1.40488E-03
 -1      4904-3.08450E+00 1.19495E+01-1.28543E-02-1.31718E+01-1.01488E-12-3.32753E-12
 -1      4905-3.09697E+00 1.19614E+01-1.25658E-02-1.31837E+01-6.01615E-04 1.40488E-03
 -1      4906-3.11536E+00 1.20068E+01-1.29098E-04-1.32194E+01-3.05045E-03-1.39806E-04
 -1      4907-8.18450E-01 6.31241E+00-4.15745E-02-1.43580E+01-4.79069E-02-4.54511E-02
 -1      4908-7.55633E-01 6.31989E+00-1.49969E-02-1.42987E+01-3.49941E-02-4.34844E-03
 -1      4909-7.53945E-01 6.31955E+00 3.38455E-03-1.42761E+01-3.16637E-12-6.40524E-12
 -1      4910-7.55633E-01 6.31989E+00-1.49969E-02-1.42987E+01 3.49941E-02 4.34844E-03
 -1      4911-8.18450E-01 6.31241E+00-4.15745E-02-1.43580E+01 4.79069E-02 4.54511E-02
 -1      4912-3.94194E+00-1.42653E+01-3.45245E-02 1.39383E+01 2.85061E-02-4.67370E-02
 -1      4913-3.98260E+00-1.41791E+01-8.15121E-02 1.36941E+01 1.96222E-02-3.92799E-02
 -1      4914-3.99053E+00-1.41497E+01-9.92619E-02 1.36126E+01-1.86501E-12-2.14320E-12
 -1      4915-3.98260E+00-1.41791E+01-8.15121E-02 1.36941E+01-1.96222E-02 3.92799E-02
 -1      4916-3.94194E+00-1.42653E+01-3.45245E-02 1.39383E+01-2.85061E-02 4.67370E-02
 -1      4917-1.13541E+01 1.61381E+00-3.51214E-03 1.64279E+01-1.23627E-03 1.77877E-03
 -1      4918-1.12752E+01 1.53253E+00-3.89722E-04 1.62545E+01-3.97715E-04 1.29999E-03
 -1      4919-1.12498E+01 1.50541E+00-2.32374E-04 1.61971E+01-3.35341E-12-1.30429E-12
 -1      4920-1.12752E+01 1.53253E+00-3.89722E-04 1.62545E+01 3.97715E-04-1.29999E-03
 -1      4921-1.13541E+01 1.61381E+00-3.51214E-03 1.64279E+01 1.23627E-03-1.77877E-03
 -1      4922-1.47174E+01 1.39795E+01 1.97105E-03 1.13189E+01 7.63094E-04-1.18303E-04
 -1      4923-1.45814E+01 1.38423E+01 9.99202E-04 1.12508E+01 1.76265E-05 1.43538E-04
 -1      4924-1.45360E+01 1.37964E+01 1.04053E-03 1.12282E+01-2.99920E-12-4.42990E-12
 -1      4925-1.45814E+01 1.38423E+01 9.99202E-04 1.12508E+01-1.76265E-05-1.43538E-04
 -1      4926-1.47174E+01 1.39795E+01 1.97105E-03 1.13189E+01-7.63094E-04 1.18303E-04
 -1      4927-1.33694E+01 2.00895E+01 1.56258E-03 4.42008E+00 9.42061E-05 6.14335E-05
 -1      4928-1.32482E+01 1.99683E+01 1.98867E-03 4.42951E+00-9.32490E-06 4.98631E-05
 -1      4929-1.32078E+01 1.99279E+01 2.04950E-03 4.43260E+00 3.93695E-12-4.06978E-12
 -1      4930-1.32482E+01 1.99683E+01 1.98867E-03 4.42951E+00 9.32490E-06-4.98631E-05
 -1      4931-1.33694E+01 2.00895E+01 1.56258E-03 4.42008E+00-9.42061E-05-6.14335E-05
 -1      4932-9.40005E+00 2.16221E+01 1.22462E-03-1.29539E+00 1.34595E-04-4.81094E-05
 -1      4933-9.31487E+00 2.15368E+01 1.12279E-03-1.24709E+00 2.44108E-05-2.53110E-05
 -1      4934-9.28644E+00 2.15084E+01 1.09954E-03-1.23100E+00-2.43272E-12-7.55753E-13
 -1      4935-9.31487E+00 2.15368E+01 1.12279E-03-1.24709E+00-2.44108E-05 2.53110E-05
 -1      4936-9.40005E+00 2.16221E+01 1.22462E-03-1.29539E+00-1.34595E-04 4.81094E-05
 -1      4937-4.48925E+00 2.05943E+01 6.76936E-04-5.21829E+00 3.15925E-05-6.38652E-06
 -1      4938-4.43798E+00 2.05430E+01 7.04820E-04-5.15418E+00-2.54328E-06 2.94229E-06
 -1      4939-4.42089E+00 2.05259E+01 6.89779E-04-5.13283E+00 5.10160E-12 4.58324E-12
 -1      4940-4.43798E+00 2.05430E+01 7.04820E-04-5.15418E+00 2.54328E-06-2.94230E-06
 -1      4941-4.48925E+00 2.05943E+01 6.76936E-04-5.21829E+00-3.15925E-05 6.38652E-06
 -1      4942 5.78402E-01 1.82547E+01 4.02237E-04-7.49446E+00 4.18862E-06-6.71862E-06
 -1      4943 6.00722E-01 1.82324E+01 4.04645E-04-7.42560E+00-4.92655E-06 9.65083E-06
 -1      4944 6.08145E-01 1.82250E+01 3.97024E-04-7.40265E+00-2.91219E-13-3.09721E-12
 -1      4945 6.00722E-01 1.82324E+01 4.04645E-04-7.42560E+00 4.92655E-06-9.65083E-06
 -1      4946 5.78402E-01 1.82547E+01 4.02237E-04-7.49446E+00-4.18862E-06 6.71862E-06
 -1      4947 5.44089E+00 1.53255E+01 2.82053E-04-8.29245E+00-2.93545E-06-1.12074E-06
 -1      4948 5.43750E+00 1.53289E+01 2.98209E-04-8.22563E+00-2.62270E-06 1.37151E-05
 -1      4949 5.43635E+00 1.53300E+01 2.97556E-04-8.20336E+00 7.43613E-13 5.16577E-13
 -1      4950 5.43750E+00 1.53289E+01 2.98209E-04-8.22563E+00 2.62270E-06-1.37151E-05
 -1      4951 5.44089E+00 1.53255E+01 2.82053E-04-8.29245E+00 2.93545E-06 1.12074E-06
 -1      4952 9.79128E+00 1.23365E+01 2.51521E-04-7.72057E+00-2.58952E-06-4.79003E-07
 -1      4953 9.76491E+00 1.23629E+01 2.67279E-04-7.66219E+00-5.31225E-09 1.39347E-05
 -1      4954 9.75609E+00 1.23717E+01 2.71046E-04-7.64273E+00 1.67513E-12 2.61905E-12
 -1      4955 9.76491E+00 1.23629E+01 2.67279E-04-7.66219E+00 5.31472E-09-1.39347E-05
 -1      4956 9.79128E+00 1.23365E+01 2.51521E-04-7.72057E+00 2.58952E-06 4.79008E-07
 -1      4957 1.32700E+01 9.76492E+00 2.47789E-04-5.93307E+00-2.51869E-06-1.28462E-06
 -1      4958 1.32247E+01 9.81020E+00 2.65365E-04-5.88960E+00 1.35224E-06 1.28821E-05
 -1      4959 1.32096E+01 9.82529E+00 2.71560E-04-5.87512E+00 1.53773E-12-1.89693E-12
 -1      4960 1.32247E+01 9.81020E+00 2.65365E-04-5.88960E+00-1.35223E-06-1.28821E-05
 -1      4961 1.32700E+01 9.76492E+00 2.47789E-04-5.93307E+00 2.51869E-06 1.28462E-06
 -1      4962 1.55105E+01 8.02915E+00 2.52792E-04-3.21677E+00-4.20980E-06-1.72006E-06
 -1      4963 1.54526E+01 8.08701E+00 2.71204E-04-3.19374E+00 2.61370E-06 1.16846E-05
 -1      4964 1.54333E+01 8.10630E+00 2.78810E-04-3.18607E+00 4.29429E-13 1.44306E-12
 -1      4965 1.54526E+01 8.08701E+00 2.71204E-04-3.19374E+00-2.61369E-06-1.16846E-05
 -1      4966 1.55105E+01 8.02915E+00 2.52792E-04-3.21677E+00 4.20980E-06 1.72006E-06
 -1      4967 1.62346E+01 7.42457E+00 2.56930E-04-6.74237E-03-8.02303E-06-7.39910E-07
 -1      4968 1.61724E+01 7.48677E+00 2.76232E-04-7.35841E-03 4.11915E-06 1.01036E-05
 -1      4969 1.61516E+01 7.50750E+00 2.84504E-04-7.57162E-03 6.86324E-13-8.48348E-13
 -1      4970 1.61724E+01 7.48677E+00 2.76232E-04-7.35841E-03-4.11915E-06-1.01036E-05
 -1      4971 1.62346E+01 7.42457E+00 2.56930E-04-6.74237E-03 8.02303E-06 7.39908E-07
 -1      4972 1.53364E+01 8.06011E+00 2.57336E-04 3.15990E+00-1.37923E-05 2.97793E-06
 -1      4973 1.52790E+01 8.11748E+00 2.77325E-04 3.13565E+00 6.23276E-06 7.62175E-06
 -1      4974 1.52599E+01 8.13661E+00 2.85815E-04 3.12755E+00 1.55348E-12-1.07783E-13
 -1      4975 1.52790E+01 8.11748E+00 2.77325E-04 3.13565E+00-6.23276E-06-7.62175E-06
 -1      4976 1.53364E+01 8.06011E+00 2.57336E-04 3.15990E+00 1.37923E-05-2.97793E-06
 -1      4977 1.29273E+01 9.82490E+00 2.53107E-04 5.72665E+00-2.11938E-05 1.09382E-05
 -1      4978 1.28834E+01 9.86880E+00 2.73480E-04 5.68227E+00 9.18495E-06 3.20472E-06
 -1      4979 1.28687E+01 9.88344E+00 2.81896E-04 5.66746E+00 6.31851E-13-1.13371E-12
 -1      4980 1.28834E+01 9.86880E+00 2.73480E-04 5.68227E+00-9.18495E-06-3.20472E-06
 -1      4981 1.29273E+01 9.82490E+00 2.53107E-04 5.72665E+00 2.11938E-05-1.09382E-05
 -1      4982 9.33520E+00 1.23953E+01 2.44358E-04 7.21078E+00-3.03869E-05 2.61420E-05
 -1      4983 9.31150E+00 1.24190E+01 2.65836E-04 7.15288E+00 1.29041E-05-4.45421E-06
 -1      4984 9.30363E+00 1.24269E+01 2.74161E-04 7.13356E+00 7.77356E-13-1.34012E-12
 -1      4985 9.31150E+00 1.24190E+01 2.65836E-04 7.15288E+00-1.29041E-05 4.45421E-06
 -1      4986 9.33520E+00 1.23953E+01 2.44358E-04 7.21078E+00 3.03869E-05-2.61420E-05
 -1      4987 5.06371E+00 1.52796E+01 2.31248E-04 7.28638E+00-3.87262E-05 5.15547E-05
 -1      4988 5.06396E+00 1.52792E+01 2.51316E-04 7.22374E+00 1.79050E-05-1.88292E-05
 -1      4989 5.06411E+00 1.52792E+01 2.59546E-04 7.20285E+00 4.44347E-13-1.44157E-12
 -1      4990 5.06396E+00 1.52792E+01 2.51316E-04 7.22374E+00-1.79050E-05 1.88292E-05
 -1      4991 5.06371E+00 1.52796E+01 2.31248E-04 7.28638E+00 3.87262E-05-5.15547E-05
 -1      4992 7.21149E-01 1.78904E+01 2.13642E-04 5.84379E+00-5.03862E-05 1.00935E-04
 -1      4993 7.45432E-01 1.78660E+01 2.41530E-04 5.78608E+00 2.15854E-05-4.04092E-05
 -1      4994 7.53637E-01 1.78580E+01 2.51679E-04 5.76684E+00-1.83121E-14-1.16634E-12
 -1      4995 7.45432E-01 1.78660E+01 2.41530E-04 5.78608E+00-2.15854E-05 4.04092E-05
 -1      4996 7.21149E-01 1.78904E+01 2.13642E-04 5.84379E+00 5.03862E-05-1.00935E-04
 -1      4997-3.06598E+00 1.96342E+01 1.88001E-04 3.02006E+00-3.32004E-05 1.63003E-04
 -1      4998-3.02149E+00 1.95896E+01 1.86575E-04 2.97634E+00 3.27083E-05-8.99268E-05
 -1      4999-3.00647E+00 1.95748E+01 1.95814E-04 2.96176E+00-4.33922E-13-1.61866E-12
 -1      5000-3.02149E+00 1.95896E+01 1.86575E-04 2.97634E+00-3.27083E-05 8.99268E-05
 -1      5001-3.06598E+00 1.96342E+01 1.88001E-04 3.02006E+00 3.32004E-05-1.63003E-04
 -1      5002-5.74650E+00 2.00072E+01 1.40795E-04-7.98186E-01-6.38199E-05 3.56455E-04
 -1      5003-5.68921E+00 1.99497E+01 2.23184E-04-8.21089E-01 2.26953E-05-1.20671E-04
 -1      5004-5.66980E+00 1.99307E+01 2.56882E-04-8.28736E-01-5.74812E-13-1.57131E-12
 -1      5005-5.68921E+00 1.99497E+01 2.23184E-04-8.21089E-01-2.26953E-05 1.20671E-04
 -1      5006-5.74650E+00 2.00072E+01 1.40795E-04-7.98186E-01 6.38199E-05-3.56455E-04
 -1      5007-6.94549E+00 1.86974E+01 6.07711E-05-4.99913E+00 2.54217E-04 3.63842E-04
 -1      5008-6.88582E+00 1.86369E+01-2.57638E-04-4.99858E+00 1.44400E-04-3.31790E-04
 -1      5009-6.86529E+00 1.86170E+01-2.62736E-04-4.99844E+00-7.62754E-13-1.64231E-12
 -1      5010-6.88582E+00 1.86369E+01-2.57638E-04-4.99858E+00-1.44400E-04 3.31790E-04
 -1      5011-6.94549E+00 1.86974E+01 6.07711E-05-4.99913E+00-2.54217E-04-3.63842E-04
 -1      5012-6.57869E+00 1.56898E+01 5.94801E-05-8.81922E+00-1.87033E-04 1.76562E-03
 -1      5013-6.52785E+00 1.56378E+01 7.75264E-04-8.79951E+00 1.79392E-04 2.23779E-04
 -1      5014-6.50974E+00 1.56209E+01 1.09631E-03-8.79316E+00-1.12628E-12-1.94503E-12
 -1      5015-6.52785E+00 1.56378E+01 7.75264E-04-8.79951E+00-1.79392E-04-2.23779E-04
 -1      5016-6.57869E+00 1.56898E+01 5.94801E-05-8.81922E+00 1.87033E-04-1.76562E-03
 -1      5017-4.95077E+00 1.13265E+01-1.19376E-04-1.15473E+01 3.23938E-03-2.70481E-03
 -1      5018-4.91626E+00 1.12861E+01-5.69248E-03-1.15215E+01 2.08140E-03-2.78568E-03
 -1      5019-4.90209E+00 1.12737E+01-6.65045E-03-1.15134E+01-1.50460E-12-2.86273E-12
 -1      5020-4.91626E+00 1.12861E+01-5.69248E-03-1.15215E+01-2.08140E-03 2.78568E-03
 -1      5021-4.95077E+00 1.13265E+01-1.19376E-04-1.15473E+01-3.23938E-03 2.70481E-03
 -1      5022-2.64156E+00 6.13393E+00 2.26286E-02-1.29627E+01-4.24581E-02 1.71994E-02
 -1      5023-2.62380E+00 6.11359E+00 4.53515E-02-1.29147E+01-2.99617E-02 1.95763E-02
 -1      5024-2.62594E+00 6.10554E+00 5.60892E-02-1.28961E+01-3.82053E-12-4.68501E-12
 -1      5025-2.62380E+00 6.11359E+00 4.53515E-02-1.29147E+01 2.99617E-02-1.95763E-02
 -1      5026-2.64156E+00 6.13393E+00 2.26286E-02-1.29627E+01 4.24581E-02-1.71994E-02
 -1      5027-3.36008E+00-1.06202E+01-2.43812E-02 1.13818E+01 1.66818E-02-2.99473E-02
 -1      5028-3.40700E+00-1.05492E+01-5.68125E-02 1.12161E+01 1.20695E-02-2.56968E-02
 -1      5029-3.41955E+00-1.05249E+01-7.05446E-02 1.11606E+01 3.48282E-13 6.22524E-12
 -1      5030-3.40700E+00-1.05492E+01-5.68125E-02 1.12161E+01-1.20695E-02 2.56968E-02
 -1      5031-3.36008E+00-1.06202E+01-2.43812E-02 1.13818E+01-1.66818E-02 2.99473E-02
 -1      5032-1.02383E+01 1.73535E+00-2.22929E-03 1.39403E+01-3.80949E-04 1.08823E-03
 -1      5033-1.01916E+01 1.68743E+00 1.08435E-04 1.38094E+01-9.78518E-05 1.05194E-03
 -1      5034-1.01765E+01 1.67131E+00 6.86975E-04 1.37662E+01 3.21922E-12-3.76197E-12
 -1      5035-1.01916E+01 1.68743E+00 1.08435E-04 1.38094E+01 9.78518E-05-1.05194E-03
 -1      5036-1.02383E+01 1.73535E+00-2.22929E-03 1.39403E+01 3.80949E-04-1.08823E-03
 -1      5037-1.42643E+01 1.21857E+01 1.00458E-03 9.83906E+00 5.64562E-04-2.12943E-04
 -1      5038-1.41644E+01 1.20848E+01 2.94372E-04 9.77765E+00 1.17473E-04-1.99753E-05
 -1      5039-1.41310E+01 1.20514E+01 2.21532E-04 9.75720E+00 1.50207E-12 6.81087E-12
 -1      5040-1.41644E+01 1.20848E+01 2.94372E-04 9.77765E+00-1.17473E-04 1.99753E-05
 -1      5041-1.42643E+01 1.21857E+01 1.00458E-03 9.83906E+00-5.64562E-04 2.12943E-04
 -1      5042-1.40965E+01 1.75706E+01 9.32467E-04 3.46621E+00 9.81945E-05 1.85927E-05
 -1      5043-1.39981E+01 1.74722E+01 1.15595E-03 3.46498E+00 1.81571E-05 1.42627E-05
 -1      5044-1.39652E+01 1.74394E+01 1.22872E-03 3.46454E+00-5.68438E-13 1.28358E-12
 -1      5045-1.39981E+01 1.74722E+01 1.15595E-03 3.46498E+00-1.81571E-05-1.42627E-05
 -1      5046-1.40965E+01 1.75706E+01 9.32467E-04 3.46621E+00-9.81945E-05-1.85927E-05
 -1      5047-1.10257E+01 1.86467E+01 7.54885E-04-2.30577E+00 1.14139E-04-3.58361E-05
 -1      5048-1.09514E+01 1.85724E+01 7.26553E-04-2.27134E+00 2.47580E-05-1.92022E-05
 -1      5049-1.09265E+01 1.85476E+01 7.23151E-04-2.25989E+00 1.45919E-12 1.08627E-11
 -1      5050-1.09514E+01 1.85724E+01 7.26553E-04-2.27134E+00-2.47580E-05 1.92022E-05
 -1      5051-1.10257E+01 1.86467E+01 7.54885E-04-2.30577E+00-1.14139E-04 3.58361E-05
 -1      5052-6.52690E+00 1.70383E+01 4.43358E-04-6.47926E+00 4.01531E-05-1.38398E-05
 -1      5053-6.47999E+00 1.69914E+01 4.67659E-04-6.42780E+00 3.01845E-06-2.67993E-06
 -1      5054-6.46432E+00 1.69758E+01 4.70307E-04-6.41065E+00-1.40276E-12-4.63577E-12
 -1      5055-6.47999E+00 1.69914E+01 4.67659E-04-6.42780E+00-3.01845E-06 2.67993E-06
 -1      5056-6.52690E+00 1.70383E+01 4.43358E-04-6.47926E+00-4.01531E-05 1.38398E-05
 -1      5057-1.51661E+00 1.39971E+01 3.01975E-04-8.91902E+00 2.29724E-05-2.04507E-05
 -1      5058-1.49508E+00 1.39756E+01 3.00284E-04-8.86134E+00 5.15963E-07-1.58488E-06
 -1      5059-1.48789E+00 1.39684E+01 2.97230E-04-8.84212E+00 9.95718E-13 5.48884E-12
 -1      5060-1.49508E+00 1.39756E+01 3.00284E-04-8.86134E+00-5.15963E-07 1.58487E-06
 -1      5061-1.51661E+00 1.39971E+01 3.01975E-04-8.91902E+00-2.29724E-05 2.04507E-05
 -1      5062 3.46416E+00 1.03578E+01 2.49628E-04-9.69697E+00 1.00933E-05-1.97403E-05
 -1      5063 3.46277E+00 1.03592E+01 2.48569E-04-9.64021E+00 2.21323E-07 1.20138E-06
 -1      5064 3.46230E+00 1.03596E+01 2.46834E-04-9.62129E+00 1.02040E-12 3.33694E-13
 -1      5065 3.46277E+00 1.03592E+01 2.48569E-04-9.64021E+00-2.21324E-07-1.20138E-06
 -1      5066 3.46416E+00 1.03578E+01 2.49629E-04-9.69697E+00-1.00933E-05 1.97403E-05
 -1      5067 7.98305E+00 6.74812E+00 2.33047E-04-8.92781E+00 6.20009E-06-2.03805E-05
 -1      5068 7.96140E+00 6.76978E+00 2.30934E-04-8.87811E+00 9.86798E-07 8.70876E-07
 -1      5069 7.95418E+00 6.77700E+00 2.30663E-04-8.86154E+00 1.16762E-12 9.26724E-13
 -1      5070 7.96140E+00 6.76978E+00 2.30934E-04-8.87811E+00-9.86794E-07-8.70877E-07
 -1      5071 7.98305E+00 6.74812E+00 2.33047E-04-8.92781E+00-6.20009E-06 2.03805E-05
 -1      5072 1.16121E+01 3.70511E+00 2.29908E-04-6.80894E+00 5.12108E-06-2.02076E-05
 -1      5073 1.15741E+01 3.74314E+00 2.29180E-04-6.77201E+00 3.45832E-07-1.86010E-07
 -1      5074 1.15614E+01 3.75582E+00 2.30604E-04-6.75969E+00 1.59944E-12-2.83229E-12
 -1      5075 1.15741E+01 3.74314E+00 2.29180E-04-6.77201E+00-3.45830E-07 1.86010E-07
 -1      5076 1.16121E+01 3.70511E+00 2.29908E-04-6.80894E+00-5.12108E-06 2.02076E-05
 -1      5077 1.39542E+01 1.67719E+00 2.31439E-04-3.67654E+00 6.30533E-06-2.05584E-05
 -1      5078 1.39053E+01 1.72600E+00 2.31494E-04-3.65703E+00-2.10363E-06-1.21844E-06
 -1      5079 1.38891E+01 1.74226E+00 2.34380E-04-3.65052E+00 1.85522E-13 5.27265E-12
 -1      5080 1.39053E+01 1.72600E+00 2.31494E-04-3.65703E+00 2.10363E-06 1.21844E-06
 -1      5081 1.39542E+01 1.67719E+00 2.31439E-04-3.67654E+00-6.30533E-06 2.05584E-05
 -1      5082 1.47218E+01 9.70606E-01 2.33381E-04-1.16507E-02 9.42289E-06-2.17517E-05
 -1      5083 1.46693E+01 1.02309E+00 2.33271E-04-1.21893E-02-6.71288E-06-1.21133E-06
 -1      5084 1.46518E+01 1.04057E+00 2.37649E-04-1.23621E-02 1.09972E-12-4.92574E-12
 -1      5085 1.46693E+01 1.02309E+00 2.33271E-04-1.21893E-02 6.71288E-06 1.21133E-06
 -1      5086 1.47218E+01 9.70606E-01 2.33381E-04-1.16507E-02-9.42289E-06 2.17517E-05
 -1      5087 1.38128E+01 1.69173E+00 2.33992E-04 3.60799E+00 1.57932E-05-2.48774E-05
 -1      5088 1.37645E+01 1.74012E+00 2.32146E-04 3.58748E+00-1.37805E-05 8.45837E-07
 -1      5089 1.37483E+01 1.75623E+00 2.38444E-04 3.58066E+00 1.55825E-12 2.05027E-12
 -1      5090 1.37645E+01 1.74012E+00 2.32146E-04 3.58748E+00 1.37805E-05-8.45839E-07
 -1      5091 1.38128E+01 1.69173E+00 2.33992E-04 3.60799E+00-1.57932E-05 2.48774E-05
 -1      5092 1.13516E+01 3.71633E+00 2.32490E-04 6.59116E+00 2.77617E-05-3.24397E-05
 -1      5093 1.13146E+01 3.75332E+00 2.26654E-04 6.55369E+00-2.39833E-05 6.37724E-06
 -1      5094 1.13023E+01 3.76563E+00 2.35936E-04 6.54122E+00 9.30328E-13-1.71120E-12
 -1      5095 1.13146E+01 3.75332E+00 2.26654E-04 6.55369E+00 2.39833E-05-6.37724E-06
 -1      5096 1.13516E+01 3.71633E+00 2.32490E-04 6.59116E+00-2.77617E-05 3.24397E-05
 -1      5097 7.68654E+00 6.69792E+00 2.30235E-04 8.42785E+00 4.81884E-05-4.87798E-05
 -1      5098 7.66664E+00 6.71785E+00 2.16723E-04 8.37900E+00-3.85177E-05 1.80607E-05
 -1      5099 7.65995E+00 6.72446E+00 2.30620E-04 8.36277E+00 9.58156E-13-1.18565E-12
 -1      5100 7.66664E+00 6.71785E+00 2.16723E-04 8.37900E+00 3.85177E-05-1.80607E-05
 -1      5101 7.68654E+00 6.69792E+00 2.30235E-04 8.42785E+00-4.81884E-05 4.87798E-05
 -1      5102 3.34642E+00 1.01146E+01 2.26162E-04 8.77463E+00 8.28537E-05-8.46712E-05
 -1      5103 3.34675E+00 1.01144E+01 1.98848E-04 8.72182E+00-5.77716E-05 3.91474E-05
 -1      5104 3.34674E+00 1.01142E+01 2.20280E-04 8.70429E+00 5.88927E-13-1.51034E-12
 -1      5105 3.34675E+00 1.01144E+01 1.98848E-04 8.72182E+00 5.77716E-05-3.91474E-05
 -1      5106 3.34642E+00 1.01146E+01 2.26162E-04 8.77463E+00-8.28537E-05 8.46712E-05
 -1      5107-1.03447E+00 1.33461E+01 2.33135E-04 7.51636E+00 1.31489E-04-1.48198E-04
 -1      5108-1.01386E+00 1.33257E+01 1.80809E-04 7.46770E+00-8.34158E-05 7.80647E-05
 -1      5109-1.00724E+00 1.33188E+01 2.09999E-04 7.45158E+00 2.92199E-13-1.05847E-12
 -1      5110-1.01386E+00 1.33257E+01 1.80809E-04 7.46770E+00 8.34158E-05-7.80647E-05
 -1      5111-1.03447E+00 1.33461E+01 2.33135E-04 7.51636E+00-1.31489E-04 1.48198E-04
 -1      5112-4.81039E+00 1.57693E+01 2.20712E-04 4.79700E+00 2.22422E-04-2.96635E-04
 -1      5113-4.77263E+00 1.57318E+01 1.22801E-04 4.76005E+00-1.00126E-04 1.25571E-04
 -1      5114-4.76050E+00 1.57193E+01 1.60052E-04 4.74785E+00-8.05828E-13-1.34896E-12
 -1      5115-4.77263E+00 1.57318E+01 1.22801E-04 4.76005E+00 1.00126E-04-1.25571E-04
 -1      5116-4.81039E+00 1.57693E+01 2.20712E-04 4.79700E+00-2.22422E-04 2.96635E-04
 -1      5117-7.42790E+00 1.68628E+01 3.19774E-04 1.01802E+00 2.86776E-04-4.60035E-04
 -1      5118-7.37893E+00 1.68144E+01 1.37424E-04 9.98359E-01-1.12367E-04 2.04097E-04
 -1      5119-7.36340E+00 1.67983E+01 1.26889E-04 9.91859E-01-3.95706E-13-1.46043E-12
 -1      5120-7.37893E+00 1.68144E+01 1.37424E-04 9.98359E-01 1.12367E-04-2.04097E-04
 -1      5121-7.42790E+00 1.68628E+01 3.19774E-04 1.01802E+00-2.86776E-04 4.60035E-04
 -1      5122-8.53740E+00 1.63129E+01 1.08491E-04-3.19880E+00 6.32806E-04-1.16397E-03
 -1      5123-8.48478E+00 1.62618E+01-2.48829E-04-3.19919E+00 9.14998E-05 1.00619E-05
 -1      5124-8.46842E+00 1.62446E+01-3.86698E-04-3.19941E+00-1.29432E-12-1.47796E-12
 -1      5125-8.48478E+00 1.62618E+01-2.48829E-04-3.19919E+00-9.14998E-05-1.00619E-05
 -1      5126-8.53740E+00 1.63129E+01 1.08491E-04-3.19880E+00-6.32806E-04 1.16397E-03
 -1      5127-8.10566E+00 1.41042E+01 1.36026E-03-7.10229E+00 2.78486E-04-7.43588E-04
 -1      5128-8.05552E+00 1.40590E+01 5.89248E-04-7.08711E+00 4.45072E-04-4.25856E-04
 -1      5129-8.04025E+00 1.40433E+01-4.16709E-04-7.08243E+00-1.09399E-12-1.78188E-12
 -1      5130-8.05552E+00 1.40590E+01 5.89248E-04-7.08711E+00-4.45072E-04 4.25856E-04
 -1      5131-8.10566E+00 1.41042E+01 1.36026E-03-7.10229E+00-2.78486E-04 7.43588E-04
 -1      5132-6.48003E+00 1.05134E+01-1.71308E-04-1.00065E+01 2.62578E-03-6.01248E-03
 -1      5133-6.43118E+00 1.04778E+01-2.43273E-03-9.98562E+00 2.88976E-03-6.21379E-03
 -1      5134-6.41373E+00 1.04655E+01-4.94958E-03-9.97951E+00-2.51993E-12-2.23698E-12
 -1      5135-6.43118E+00 1.04778E+01-2.43273E-03-9.98562E+00-2.88976E-03 6.21379E-03
 -1      5136-6.48003E+00 1.05134E+01-1.71308E-04-1.00065E+01-2.62578E-03 6.01248E-03
 -1      5137-4.16046E+00 5.85982E+00 8.07173E-02-1.16368E+01-3.58960E-02 7.31249E-02
 -1      5138-4.18400E+00 5.81949E+00 1.08240E-01-1.15977E+01-2.42632E-02 4.43711E-02
 -1      5139-4.19158E+00 5.80601E+00 1.16348E-01-1.15825E+01-3.97974E-12-3.25496E-12
 -1      5140-4.18400E+00 5.81949E+00 1.08240E-01-1.15977E+01 2.42632E-02-4.43711E-02
 -1      5141-4.16046E+00 5.85982E+00 8.07173E-02-1.16368E+01 3.58960E-02-7.31249E-02
 -1      5142-2.94497E+00-7.76342E+00-1.79992E-02 9.22045E+00 1.01631E-02-1.97493E-02
 -1      5143-2.99187E+00-7.70495E+00-4.21557E-02 9.10706E+00 7.45448E-03-1.73702E-02
 -1      5144-3.00499E+00-7.68503E+00-5.20731E-02 9.06902E+00-1.94887E-12 2.85113E-12
 -1      5145-2.99187E+00-7.70495E+00-4.21557E-02 9.10706E+00-7.45448E-03 1.73702E-02
 -1      5146-2.94497E+00-7.76342E+00-1.79992E-02 9.22045E+00-1.01631E-02 1.97493E-02
 -1      5147-9.33522E+00 1.85681E+00-2.01953E-03 1.16221E+01-2.15513E-04 4.36149E-04
 -1      5148-9.30580E+00 1.82738E+00-1.19819E-05 1.15237E+01-3.54930E-05 6.37289E-04
 -1      5149-9.29654E+00 1.81741E+00 4.35479E-04 1.14911E+01-1.44990E-12 5.90727E-12
 -1      5150-9.30580E+00 1.82738E+00-1.19819E-05 1.15237E+01 3.54930E-05-6.37289E-04
 -1      5151-9.33522E+00 1.85681E+00-2.01953E-03 1.16221E+01 2.15513E-04-4.36149E-04
 -1      5152-1.37085E+01 1.05377E+01 6.38312E-04 8.25549E+00 4.01671E-04-1.53200E-04
 -1      5153-1.36332E+01 1.04617E+01-6.94850E-05 8.20278E+00 1.17619E-04-3.22794E-05
 -1      5154-1.36080E+01 1.04365E+01-1.62761E-04 8.18526E+00-7.26152E-13-7.48218E-13
 -1      5155-1.36332E+01 1.04617E+01-6.94850E-05 8.20278E+00-1.17619E-04 3.22794E-05
 -1      5156-1.37085E+01 1.05377E+01 6.38312E-04 8.25549E+00-4.01671E-04 1.53200E-04
 -1      5157-1.44119E+01 1.50732E+01 5.51501E-04 2.41951E+00 8.19806E-05 1.82850E-05
 -1      5158-1.43315E+01 1.49928E+01 7.57011E-04 2.41293E+00 1.68564E-05 1.38975E-05
 -1      5159-1.43046E+01 1.49660E+01 8.12765E-04 2.41072E+00-9.43981E-13-1.75794E-12
 -1      5160-1.43315E+01 1.49928E+01 7.57011E-04 2.41293E+00-1.68564E-05-1.38975E-05
 -1      5161-1.44119E+01 1.50732E+01 5.51501E-04 2.41951E+00-8.19805E-05-1.82850E-05
 -1      5162-1.21418E+01 1.56338E+01 6.54947E-04-3.24524E+00 9.12848E-05-1.31983E-05
 -1      5163-1.20774E+01 1.55693E+01 6.24985E-04-3.22070E+00 1.94639E-05-1.23708E-05
 -1      5164-1.20559E+01 1.55479E+01 6.23751E-04-3.21253E+00 3.93324E-13 6.18642E-12
 -1      5165-1.20774E+01 1.55693E+01 6.24985E-04-3.22070E+00-1.94639E-05 1.23708E-05
 -1      5166-1.21418E+01 1.56338E+01 6.54947E-04-3.24524E+00-9.12848E-05 1.31983E-05
 -1      5167-8.12190E+00 1.35030E+01 4.69791E-04-7.51951E+00 4.53989E-05-3.47790E-06
 -1      5168-8.07954E+00 1.34607E+01 4.95151E-04-7.47817E+00 3.62894E-06-3.81104E-06
 -1      5169-8.06540E+00 1.34465E+01 4.97493E-04-7.46439E+00 1.37372E-12-1.27253E-11
 -1      5170-8.07954E+00 1.34607E+01 4.95151E-04-7.47817E+00-3.62894E-06 3.81105E-06
 -1      5171-8.12190E+00 1.35030E+01 4.69791E-04-7.51951E+00-4.53989E-05 3.47791E-06
 -1      5172-3.30118E+00 9.88083E+00 3.59324E-04-1.00452E+01 3.05211E-05-1.14358E-05
 -1      5173-3.28081E+00 9.86046E+00 3.58123E-04-9.99694E+00 4.19081E-07-3.84434E-06
 -1      5174-3.27400E+00 9.85366E+00 3.54642E-04-9.98083E+00-4.34671E-13 3.83366E-12
 -1      5175-3.28081E+00 9.86046E+00 3.58123E-04-9.99694E+00-4.19080E-07 3.84434E-06
 -1      5176-3.30118E+00 9.88083E+00 3.59324E-04-1.00452E+01-3.05211E-05 1.14358E-05
 -1      5177 1.66214E+00 5.66498E+00 2.83476E-04-1.07936E+01 1.98316E-05-1.50378E-05
 -1      5178 1.66220E+00 5.66493E+00 2.83501E-04-1.07453E+01-1.37615E-06-2.67354E-06
 -1      5179 1.66222E+00 5.66491E+00 2.81120E-04-1.07292E+01 1.00903E-12-1.93731E-12
 -1      5180 1.66220E+00 5.66493E+00 2.83501E-04-1.07453E+01 1.37615E-06 2.67354E-06
 -1      5181 1.66214E+00 5.66498E+00 2.83476E-04-1.07936E+01-1.98316E-05 1.50378E-05
 -1      5182 6.23614E+00 1.55378E+00 2.45600E-04-9.86697E+00 1.68440E-05-1.80189E-05
 -1      5183 6.21830E+00 1.57163E+00 2.42765E-04-9.82446E+00-2.57172E-06-3.06847E-06
 -1      5184 6.21235E+00 1.57757E+00 2.41868E-04-9.81029E+00 1.27738E-12-6.58955E-13
 -1      5185 6.21830E+00 1.57163E+00 2.42765E-04-9.82446E+00 2.57173E-06 3.06847E-06
 -1      5186 6.23614E+00 1.55378E+00 2.45600E-04-9.86697E+00-1.68440E-05 1.80189E-05
 -1      5187 9.93290E+00-1.86924E+00 2.28332E-04-7.48923E+00 1.84686E-05-2.03920E-05
 -1      5188 9.90075E+00-1.83706E+00 2.25001E-04-7.45763E+00-5.73561E-06-3.55421E-06
 -1      5189 9.89002E+00-1.82635E+00 2.26204E-04-7.44710E+00 1.42582E-12-1.26782E-13
 -1      5190 9.90075E+00-1.83706E+00 2.25001E-04-7.45763E+00 5.73561E-06 3.55420E-06
 -1      5191 9.93290E+00-1.86924E+00 2.28332E-04-7.48923E+00-1.84686E-05 2.03920E-05
 -1      5192 1.23268E+01-4.13234E+00 2.22495E-04-4.03290E+00 2.46193E-05-2.38792E-05
 -1      5193 1.22853E+01-4.09083E+00 2.17619E-04-4.01623E+00-1.19121E-05-3.09223E-06
 -1      5194 1.22714E+01-4.07702E+00 2.21131E-04-4.01066E+00 1.13262E-12-8.60137E-13
 -1      5195 1.22853E+01-4.09083E+00 2.17619E-04-4.01623E+00 1.19121E-05 3.09222E-06
 -1      5196 1.23268E+01-4.13234E+00 2.22495E-04-4.03290E+00-2.46193E-05 2.38792E-05
 -1      5197 1.31215E+01-4.92191E+00 2.21552E-04-1.33609E-02 3.64180E-05-3.04908E-05
 -1      5198 1.30768E+01-4.87723E+00 2.13781E-04-1.38347E-02-2.19943E-05-3.77546E-08
 -1      5199 1.30619E+01-4.86238E+00 2.20199E-04-1.39703E-02 2.45989E-14 1.70937E-13
 -1      5200 1.30768E+01-4.87723E+00 2.13781E-04-1.38347E-02 2.19943E-05 3.77541E-08
 -1      5201 1.31215E+01-4.92191E+00 2.21552E-04-1.33609E-02-3.64180E-05 3.04908E-05
 -1      5202 1.22169E+01-4.13434E+00 2.22519E-04 3.96239E+00 5.64615E-05-4.38363E-05
 -1      5203 1.21758E+01-4.09315E+00 2.09192E-04 3.94489E+00-3.70794E-05 7.91725E-06
 -1      5204 1.21620E+01-4.07948E+00 2.19706E-04 3.93910E+00 1.48144E-12 5.46784E-13
 -1      5205 1.21758E+01-4.09315E+00 2.09192E-04 3.94489E+00 3.70794E-05-7.91725E-06
 -1      5206 1.22169E+01-4.13434E+00 2.22519E-04 3.96239E+00-5.64615E-05 4.38363E-05
 -1      5207 9.74596E+00-1.90381E+00 2.24102E-04 7.27941E+00 8.86886E-05-7.06674E-05
 -1      5208 9.71455E+00-1.87233E+00 2.01075E-04 7.24747E+00-5.86308E-05 2.43866E-05
 -1      5209 9.70399E+00-1.86190E+00 2.17838E-04 7.23689E+00 4.13734E-13-1.54144E-12
 -1      5210 9.71455E+00-1.87233E+00 2.01075E-04 7.24747E+00 5.86308E-05-2.43866E-05
 -1      5211 9.74596E+00-1.90381E+00 2.24102E-04 7.27941E+00-8.86886E-05 7.06674E-05
 -1      5212 6.06972E+00 1.40768E+00 2.28594E-04 9.40975E+00 1.37757E-04-1.22065E-04
 -1      5213 6.05287E+00 1.42463E+00 1.88340E-04 9.36814E+00-8.83743E-05 5.54765E-05
 -1      5214 6.04709E+00 1.43020E+00 2.14147E-04 9.35438E+00 6.51746E-13-9.86262E-13
 -1      5215 6.05287E+00 1.42463E+00 1.88340E-04 9.36814E+00 8.83743E-05-5.54765E-05
 -1      5216 6.06972E+00 1.40768E+00 2.28594E-04 9.40975E+00-1.37757E-04 1.22065E-04
 -1      5217 1.73158E+00 5.25880E+00 2.35068E-04 9.99859E+00 2.10468E-04-2.20351E-04
 -1      5218 1.73198E+00 5.25857E+00 1.67062E-04 9.95362E+00-1.26448E-04 1.09281E-04
 -1      5219 1.73179E+00 5.25843E+00 2.06149E-04 9.93879E+00 9.41319E-14-1.10977E-12
 -1      5220 1.73198E+00 5.25857E+00 1.67062E-04 9.95362E+00 1.26448E-04-1.09281E-04
 -1      5221 1.73158E+00 5.25880E+00 2.35068E-04 9.99859E+00-2.10468E-04 2.20351E-04
 -1      5222-2.62068E+00 9.00861E+00 2.64941E-04 8.92653E+00 3.08082E-04-3.89863E-04
 -1      5223-2.60295E+00 8.99120E+00 1.44208E-04 8.88508E+00-1.71255E-04 1.99307E-04
 -1      5224-2.59764E+00 8.98534E+00 1.92960E-04 8.87146E+00 1.50681E-13-1.05834E-12
 -1      5225-2.60295E+00 8.99120E+00 1.44208E-04 8.88508E+00 1.71255E-04-1.99307E-04
 -1      5226-2.62068E+00 9.00861E+00 2.64941E-04 8.92653E+00-3.08082E-04 3.89863E-04
 -1      5227-6.33366E+00 1.20165E+01 2.77118E-04 6.33931E+00 4.50525E-04-7.22176E-04
 -1      5228-6.30117E+00 1.19846E+01 8.61052E-05 6.30777E+00-1.99917E-04 3.16141E-04
 -1      5229-6.29139E+00 1.19739E+01 1.37198E-04 6.29744E+00-6.86027E-13-1.26719E-12
 -1      5230-6.30117E+00 1.19846E+01 8.61052E-05 6.30777E+00 1.99917E-04-3.16141E-04
 -1      5231-6.33366E+00 1.20165E+01 2.77118E-04 6.33931E+00-4.50525E-04 7.22176E-04
 -1      5232-8.85830E+00 1.37513E+01 4.78704E-04 2.64113E+00 5.78500E-04-1.17146E-03
 -1      5233-8.81571E+00 1.37102E+01 9.86528E-05 2.62416E+00-1.87766E-04 4.46896E-04
 -1      5234-8.80327E+00 1.36963E+01 2.09823E-05 2.61858E+00-1.22575E-13-1.29949E-12
 -1      5235-8.81571E+00 1.37102E+01 9.86528E-05 2.62416E+00 1.87766E-04-4.46896E-04
 -1      5236-8.85830E+00 1.37513E+01 4.78704E-04 2.64113E+00-5.78500E-04 1.17146E-03
 -1      5237-9.86561E+00 1.38986E+01 2.66755E-04-1.55317E+00 9.03122E-04-2.42765E-03
 -1      5238-9.81823E+00 1.38550E+01-2.18591E-04-1.55392E+00 1.12193E-04 1.30081E-04
 -1      5239-9.80506E+00 1.38399E+01-5.85991E-04-1.55431E+00-9.79159E-13-1.41640E-12
 -1      5240-9.81823E+00 1.38550E+01-2.18591E-04-1.55392E+00-1.12193E-04-1.30081E-04
 -1      5241-9.86561E+00 1.38986E+01 2.66755E-04-1.55317E+00-9.03122E-04 2.42765E-03
 -1      5242-9.35498E+00 1.24368E+01 2.17937E-03-5.51826E+00 6.27371E-04-2.65247E-03
 -1      5243-9.30493E+00 1.23975E+01 4.57805E-04-5.50569E+00 7.89475E-04-1.35159E-03
 -1      5244-9.29144E+00 1.23830E+01-1.74336E-03-5.50201E+00-1.59125E-12-1.39850E-12
 -1      5245-9.30493E+00 1.23975E+01 4.57805E-04-5.50569E+00-7.89475E-04 1.35159E-03
 -1      5246-9.35498E+00 1.24368E+01 2.17937E-03-5.51826E+00-6.27371E-04 2.65247E-03
 -1      5247-7.70117E+00 9.59302E+00 2.77694E-04-8.58843E+00 1.50880E-03-8.40424E-03
 -1      5248-7.64215E+00 9.56139E+00-1.07669E-03-8.56930E+00 3.10743E-03-9.95930E-03
 -1      5249-7.62129E+00 9.54961E+00-5.50928E-03-8.56402E+00-2.37249E-12-1.59399E-12
 -1      5250-7.64215E+00 9.56139E+00-1.07669E-03-8.56930E+00-3.10743E-03 9.95930E-03
 -1      5251-7.70117E+00 9.59302E+00 2.77694E-04-8.58843E+00-1.50880E-03 8.40424E-03
 -1      5252-5.35927E+00 5.52968E+00 1.28440E-01-1.03937E+01-2.90029E-02 1.17996E-01
 -1      5253-5.41514E+00 5.47560E+00 1.65037E-01-1.03612E+01-1.85302E-02 6.64683E-02
 -1      5254-5.42790E+00 5.45847E+00 1.73742E-01-1.03487E+01-4.16363E-12-2.17460E-12
 -1      5255-5.41514E+00 5.47560E+00 1.65037E-01-1.03612E+01 1.85302E-02-6.64683E-02
 -1      5256-5.35927E+00 5.52968E+00 1.28440E-01-1.03937E+01 2.90029E-02-1.17996E-01
 -1      5257-2.63416E+00-5.55404E+00-1.37024E-02 7.34882E+00 5.69585E-03-1.33033E-02
 -1      5258-2.67728E+00-5.50613E+00-3.19997E-02 7.27249E+00 4.32302E-03-1.20208E-02
 -1      5259-2.68984E+00-5.48984E+00-3.96699E-02 7.24684E+00-2.42727E-12 2.65201E-13
 -1      5260-2.67728E+00-5.50613E+00-3.19997E-02 7.27249E+00-4.32302E-03 1.20208E-02
 -1      5261-2.63416E+00-5.55404E+00-1.37024E-02 7.34882E+00-5.69585E-03 1.33033E-02
 -1      5262-8.58129E+00 1.92139E+00-1.83942E-03 9.48803E+00-1.01376E-04-4.80621E-05
 -1      5263-8.56113E+00 1.90195E+00-3.17091E-04 9.41428E+00-1.00378E-05 2.73039E-04
 -1      5264-8.55485E+00 1.89531E+00 6.08954E-05 9.38984E+00-2.02166E-12 3.92212E-12
 -1      5265-8.56113E+00 1.90195E+00-3.17091E-04 9.41428E+00 1.00378E-05-2.73039E-04
 -1      5266-8.58129E+00 1.92139E+00-1.83942E-03 9.48803E+00 1.01376E-04 4.80621E-05
 -1      5267-1.31127E+01 8.99734E+00 3.91162E-04 6.65604E+00 2.54387E-04-1.07693E-04
 -1      5268-1.30540E+01 8.93811E+00-1.81296E-04 6.61195E+00 9.50965E-05-2.36503E-05
 -1      5269-1.30344E+01 8.91841E+00-2.87139E-04 6.59729E+00-1.16290E-12 2.52123E-12
 -1      5270-1.30540E+01 8.93811E+00-1.81296E-04 6.61195E+00-9.50965E-05 2.36503E-05
 -1      5271-1.31127E+01 8.99734E+00 3.91162E-04 6.65604E+00-2.54387E-04 1.07693E-04
 -1      5272-1.44647E+01 1.26236E+01 3.39573E-04 1.32069E+00 6.66936E-05 1.49037E-05
 -1      5273-1.43981E+01 1.25571E+01 4.98304E-04 1.31165E+00 1.73293E-05 1.41634E-05
 -1      5274-1.43759E+01 1.25349E+01 5.55493E-04 1.30863E+00 6.13282E-12-7.32973E-13
 -1      5275-1.43981E+01 1.25571E+01 4.98304E-04 1.31165E+00-1.73293E-05-1.41634E-05
 -1      5276-1.44647E+01 1.26236E+01 3.39573E-04 1.32069E+00-6.66936E-05-1.49037E-05
 -1      5277-1.28975E+01 1.26225E+01 5.20769E-04-4.14677E+00 7.46702E-05-1.45327E-06
 -1      5278-1.28417E+01 1.25667E+01 5.06950E-04-4.12931E+00 1.67372E-05-9.51288E-06
 -1      5279-1.28231E+01 1.25481E+01 5.10764E-04-4.12349E+00-8.83399E-13 6.08686E-12
 -1      5280-1.28417E+01 1.25667E+01 5.06950E-04-4.12931E+00-1.67372E-05 9.51287E-06
 -1      5281-1.28975E+01 1.26225E+01 5.20769E-04-4.14677E+00-7.46702E-05 1.45327E-06
 -1      5282-9.38097E+00 1.00028E+01 4.20458E-04-8.41678E+00 4.84250E-05 2.05977E-06
 -1      5283-9.34302E+00 9.96479E+00 4.47581E-04-8.38354E+00 4.78899E-06-5.43431E-06
 -1      5284-9.33033E+00 9.95212E+00 4.55563E-04-8.37245E+00 1.52153E-12 5.76147E-14
 -1      5285-9.34302E+00 9.96479E+00 4.47581E-04-8.38354E+00-4.78899E-06 5.43431E-06
 -1      5286-9.38097E+00 1.00028E+01 4.20458E-04-8.41678E+00-4.84250E-05-2.05977E-06
 -1      5287-4.83490E+00 5.88576E+00 3.39769E-04-1.09651E+01 3.82784E-05-7.84688E-06
 -1      5288-4.81590E+00 5.86674E+00 3.44545E-04-1.09246E+01 2.01600E-07-7.53981E-06
 -1      5289-4.80955E+00 5.86039E+00 3.45284E-04-1.09111E+01-9.00479E-13-8.62436E-13
 -1      5290-4.81590E+00 5.86674E+00 3.44545E-04-1.09246E+01-2.01596E-07 7.53981E-06
 -1      5291-4.83490E+00 5.88576E+00 3.39769E-04-1.09651E+01-3.82784E-05 7.84688E-06
 -1      5292 1.39554E-02 1.19484E+00 2.74305E-04-1.16697E+01 3.01922E-05-1.44261E-05
 -1      5293 1.50056E-02 1.19379E+00 2.76922E-04-1.16285E+01-3.56186E-06-7.41380E-06
 -1      5294 1.53601E-02 1.19343E+00 2.77568E-04-1.16148E+01 1.58154E-12 4.82178E-13
 -1      5295 1.50056E-02 1.19379E+00 2.76922E-04-1.16285E+01 3.56187E-06 7.41380E-06
 -1      5296 1.39554E-02 1.19484E+00 2.74305E-04-1.16697E+01-3.01922E-05 1.44261E-05
 -1      5297 4.55854E+00-3.32511E+00 2.38300E-04-1.06106E+01 2.86930E-05-1.95464E-05
 -1      5298 4.54375E+00-3.31032E+00 2.36721E-04-1.05741E+01-7.21070E-06-7.50237E-06
 -1      5299 4.53882E+00-3.30541E+00 2.38257E-04-1.05619E+01 9.15021E-13-7.88924E-13
 -1      5300 4.54375E+00-3.31032E+00 2.36721E-04-1.05741E+01 7.21070E-06 7.50237E-06
 -1      5301 4.55854E+00-3.32511E+00 2.38300E-04-1.06106E+01-2.86930E-05 1.95464E-05
 -1      5302 8.26032E+00-7.05634E+00 2.20348E-04-8.02556E+00 3.30385E-05-2.39560E-05
 -1      5303 8.23294E+00-7.02894E+00 2.16711E-04-7.99839E+00-1.32619E-05-6.85958E-06
 -1      5304 8.22380E+00-7.01984E+00 2.20572E-04-7.98932E+00 1.38628E-12-2.94459E-12
 -1      5305 8.23294E+00-7.02894E+00 2.16711E-04-7.99839E+00 1.32619E-05 6.85958E-06
 -1      5306 8.26032E+00-7.05634E+00 2.20348E-04-8.02556E+00-3.30385E-05 2.39560E-05
 -1      5307 1.06680E+01-9.50973E+00 2.13693E-04-4.31271E+00 4.45340E-05-3.04017E-05
 -1      5308 1.06325E+01-9.47416E+00 2.06991E-04-4.29839E+00-2.32534E-05-4.34220E-06
 -1      5309 1.06206E+01-9.46235E+00 2.13995E-04-4.29360E+00-2.32629E-13 1.28683E-12
 -1      5310 1.06325E+01-9.47416E+00 2.06991E-04-4.29839E+00 2.32534E-05 4.34220E-06
 -1      5311 1.06680E+01-9.50973E+00 2.13693E-04-4.31271E+00-4.45340E-05 3.04017E-05
 -1      5312 1.14766E+01-1.03666E+01 2.13052E-04-1.23585E-02 6.51954E-05-4.25996E-05
 -1      5313 1.14383E+01-1.03283E+01 2.01257E-04-1.27908E-02-3.86902E-05 2.31175E-06
 -1      5314 1.14255E+01-1.03155E+01 2.12594E-04-1.28922E-02 1.85333E-13-5.02506E-13
 -1      5315 1.14383E+01-1.03283E+01 2.01257E-04-1.27908E-02 3.86902E-05-2.31175E-06
 -1      5316 1.14766E+01-1.03666E+01 2.13052E-04-1.23585E-02-6.51954E-05 4.25996E-05
 -1      5317 1.05863E+01-9.52583E+00 2.15906E-04 4.24800E+00 9.83790E-05-6.65606E-05
 -1      5318 1.05510E+01-9.49048E+00 1.95115E-04 4.23294E+00-6.11985E-05 1.65941E-05
 -1      5319 1.05391E+01-9.47878E+00 2.12607E-04 4.22799E+00 8.41623E-13 3.01120E-13
 -1      5320 1.05510E+01-9.49048E+00 1.95115E-04 4.23294E+00 6.11985E-05-1.65941E-05
 -1      5321 1.05863E+01-9.52583E+00 2.15906E-04 4.24800E+00-9.83790E-05 6.65606E-05
 -1      5322 8.13502E+00-7.12864E+00 2.21275E-04 7.83774E+00 1.48708E-04-1.12576E-04
 -1      5323 8.10811E+00-7.10164E+00 1.85348E-04 7.81027E+00-9.25418E-05 4.39134E-05
 -1      5324 8.09900E+00-7.09273E+00 2.11888E-04 7.80123E+00 7.92557E-13-1.04058E-12
 -1      5325 8.10811E+00-7.10164E+00 1.85348E-04 7.81027E+00 9.25418E-05-4.39134E-05
 -1      5326 8.13502E+00-7.12864E+00 2.21275E-04 7.83774E+00-1.48708E-04 1.12576E-04
 -1      5327 4.49076E+00-3.54704E+00 2.32037E-04 1.02176E+01 2.21468E-04-1.96929E-04
 -1      5328 4.47639E+00-3.53252E+00 1.70266E-04 1.01819E+01-1.34169E-04 9.27969E-05
 -1      5329 4.47131E+00-3.52777E+00 2.09161E-04 1.01701E+01 6.37626E-13-7.57392E-13
 -1      5330 4.47639E+00-3.53252E+00 1.70266E-04 1.01819E+01 1.34169E-04-9.27969E-05
 -1      5331 4.49076E+00-3.54704E+00 2.32037E-04 1.02176E+01-2.21468E-04 1.96929E-04
 -1      5332 2.03794E-01 6.65845E-01 2.47801E-04 1.10256E+01 3.22889E-04-3.50153E-04
 -1      5333 2.04271E-01 6.65644E-01 1.45355E-04 1.09870E+01-1.84955E-04 1.73869E-04
 -1      5334 2.03905E-01 6.65486E-01 2.00329E-04 1.09744E+01 4.79707E-13-1.03388E-12
 -1      5335 2.04271E-01 6.65644E-01 1.45355E-04 1.09870E+01 1.84955E-04-1.73869E-04
 -1      5336 2.03794E-01 6.65845E-01 2.47801E-04 1.10256E+01-3.22889E-04 3.50153E-04
 -1      5337-4.07311E+00 4.85716E+00 2.93335E-04 1.01388E+01 4.54347E-04-6.07336E-04
 -1      5338-4.05769E+00 4.84224E+00 1.17541E-04 1.01032E+01-2.38537E-04 3.01442E-04
 -1      5339-4.05347E+00 4.83718E+00 1.79316E-04 1.00916E+01 1.16901E-13-1.05056E-12
 -1      5340-4.05769E+00 4.84224E+00 1.17541E-04 1.01032E+01 2.38537E-04-3.01442E-04
 -1      5341-4.07311E+00 4.85716E+00 2.93335E-04 1.01388E+01-4.54347E-04 6.07336E-04
 -1      5342-7.68624E+00 8.37659E+00 3.30109E-04 7.70094E+00 6.25035E-04-1.08143E-03
 -1      5343-7.65794E+00 8.34930E+00 5.85366E-05 7.67379E+00-2.64956E-04 4.56653E-04
 -1      5344-7.65006E+00 8.34010E+00 1.03484E-04 7.66497E+00-1.95905E-13-1.12949E-12
 -1      5345-7.65794E+00 8.34930E+00 5.85366E-05 7.67379E+00 2.64956E-04-4.56653E-04
 -1      5346-7.68624E+00 8.37659E+00 3.30109E-04 7.70094E+00-6.25035E-04 1.08143E-03
 -1      5347-1.00933E+01 1.06877E+01 5.90732E-04 4.11090E+00 7.87020E-04-1.73754E-03
 -1      5348-1.00558E+01 1.06524E+01 7.80592E-05 4.09621E+00-2.10523E-04 5.84544E-04
 -1      5349-1.00458E+01 1.06404E+01-8.74883E-05 4.09138E+00-7.02720E-13-1.13030E-12
 -1      5350-1.00558E+01 1.06524E+01 7.80592E-05 4.09621E+00 2.10523E-04-5.84544E-04
 -1      5351-1.00933E+01 1.06877E+01 5.90732E-04 4.11090E+00-7.87020E-04 1.73754E-03
 -1      5352-1.09790E+01 1.14735E+01 4.87301E-04-3.36289E-02 1.05324E-03-3.36144E-03
 -1      5353-1.09358E+01 1.14361E+01-1.61408E-04-3.43681E-02 1.81149E-04 5.50994E-05
 -1      5354-1.09250E+01 1.14227E+01-8.16421E-04-3.48229E-02-1.04938E-12-1.19440E-12
 -1      5355-1.09358E+01 1.14361E+01-1.61408E-04-3.43681E-02-1.81149E-04-5.50994E-05
 -1      5356-1.09790E+01 1.14735E+01 4.87301E-04-3.36289E-02-1.05324E-03 3.36144E-03
 -1      5357-1.03577E+01 1.07035E+01 2.55696E-03-4.04152E+00 8.41787E-04-3.98657E-03
 -1      5358-1.03080E+01 1.06695E+01 3.16515E-04-4.03031E+00 1.13659E-03-2.40361E-03
 -1      5359-1.02956E+01 1.06562E+01-2.85015E-03-4.02721E+00-1.50709E-12-1.09453E-12
 -1      5360-1.03080E+01 1.06695E+01 3.16515E-04-4.03031E+00-1.13659E-03 2.40361E-03
 -1      5361-1.03577E+01 1.07035E+01 2.55696E-03-4.04152E+00-8.41787E-04 3.98657E-03
 -1      5362-8.61833E+00 8.57667E+00 1.46638E-03-7.27210E+00 1.88120E-04-9.12488E-03
 -1      5363-8.55456E+00 8.54819E+00-2.26681E-04-7.25261E+00 2.86943E-03-1.27726E-02
 -1      5364-8.53121E+00 8.53716E+00-6.41071E-03-7.24731E+00-2.28535E-12-1.06136E-12
 -1      5365-8.55456E+00 8.54819E+00-2.26681E-04-7.25261E+00-2.86943E-03 1.27726E-02
 -1      5366-8.61833E+00 8.57667E+00 1.46638E-03-7.27210E+00-1.88120E-04 9.12488E-03
 -1      5367-6.22514E+00 5.16503E+00 1.62831E-01-9.23872E+00-2.19437E-02 1.49027E-01
 -1      5368-6.30135E+00 5.10203E+00 2.09179E-01-9.21038E+00-1.29044E-02 8.31886E-02
 -1      5369-6.31773E+00 5.08262E+00 2.20136E-01-9.19973E+00-3.96863E-12-1.17772E-12
 -1      5370-6.30135E+00 5.10203E+00 2.09179E-01-9.21038E+00 1.29044E-02-8.31886E-02
 -1      5371-6.22514E+00 5.16503E+00 1.62831E-01-9.23872E+00 2.19437E-02-1.49027E-01
 -1      5372-2.38643E+00-3.86834E+00-1.06603E-02 5.70247E+00 2.46834E-03-8.95703E-03
 -1      5373-2.42402E+00-3.82993E+00-2.49250E-02 5.65386E+00 2.01033E-03-8.39126E-03
 -1      5374-2.43517E+00-3.81687E+00-3.08978E-02 5.63748E+00-5.05312E-12-2.97295E-12
 -1      5375-2.42402E+00-3.82993E+00-2.49250E-02 5.65386E+00-2.01033E-03 8.39126E-03
 -1      5376-2.38643E+00-3.86834E+00-1.06603E-02 5.70247E+00-2.46834E-03 8.95703E-03
 -1      5377-7.92083E+00 1.90815E+00-1.75164E-03 7.53905E+00-7.90205E-05-3.94321E-04
 -1      5378-7.90500E+00 1.89352E+00-6.17584E-04 7.48421E+00-2.60934E-05-1.20073E-05
 -1      5379-7.90010E+00 1.88848E+00-3.58959E-04 7.46598E+00-6.41759E-12-8.44162E-13
 -1      5380-7.90500E+00 1.89352E+00-6.17584E-04 7.48421E+00 2.60934E-05 1.20073E-05
 -1      5381-7.92083E+00 1.90815E+00-1.75164E-03 7.53905E+00 7.90205E-05 3.94321E-04
 -1      5382-1.24957E+01 7.53210E+00 1.97164E-04 5.09177E+00 1.37499E-04-6.87496E-05
 -1      5383-1.24483E+01 7.48418E+00-2.86164E-04 5.05532E+00 7.20840E-05-7.62077E-06
 -1      5384-1.24325E+01 7.46822E+00-3.83079E-04 5.04318E+00 4.09461E-12 7.82791E-12
 -1      5385-1.24483E+01 7.48418E+00-2.86164E-04 5.05532E+00-7.20840E-05 7.62079E-06
 -1      5386-1.24957E+01 7.53210E+00 1.97164E-04 5.09177E+00-1.37499E-04 6.87496E-05
 -1      5387-1.43422E+01 1.02279E+01 1.94972E-04 1.99419E-01 5.32989E-05 8.21645E-06
 -1      5388-1.42863E+01 1.01720E+01 3.26815E-04 1.89441E-01 2.01364E-05 1.28189E-05
 -1      5389-1.42677E+01 1.01533E+01 3.77911E-04 1.86114E-01 2.73448E-13 3.72121E-12
 -1      5390-1.42863E+01 1.01720E+01 3.26815E-04 1.89441E-01-2.01364E-05-1.28189E-05
 -1      5391-1.43422E+01 1.02279E+01 1.94972E-04 1.99419E-01-5.32989E-05-8.21643E-06
 -1      5392-1.33948E+01 9.63345E+00 4.27322E-04-5.02816E+00 6.18892E-05 5.83627E-06
 -1      5393-1.33464E+01 9.58498E+00 4.21193E-04-5.01587E+00 1.60311E-05-7.64122E-06
 -1      5394-1.33302E+01 9.56883E+00 4.29064E-04-5.01177E+00 3.69856E-12-1.79105E-12
 -1      5395-1.33464E+01 9.58498E+00 4.21193E-04-5.01587E+00-1.60311E-05 7.64122E-06
 -1      5396-1.33948E+01 9.63345E+00 4.27322E-04-5.02816E+00-6.18892E-05-5.83628E-06
 -1      5397-1.03845E+01 6.54534E+00 3.90713E-04-9.22305E+00 5.22467E-05 4.22314E-06
 -1      5398-1.03506E+01 6.51139E+00 4.18748E-04-9.19630E+00 6.45990E-06-8.41088E-06
 -1      5399-1.03393E+01 6.50007E+00 4.29113E-04-9.18738E+00 2.12544E-12-6.11130E-12
 -1      5400-1.03506E+01 6.51139E+00 4.18748E-04-9.19630E+00-6.45989E-06 8.41088E-06
 -1      5401-1.03845E+01 6.54534E+00 3.90713E-04-9.22305E+00-5.22467E-05-4.22314E-06
 -1      5402-6.16670E+00 1.99607E+00 3.39112E-04-1.17437E+01 4.72083E-05-7.85955E-06
 -1      5403-6.14917E+00 1.97849E+00 3.46116E-04-1.17098E+01 7.56175E-07-1.27034E-05
 -1      5404-6.14330E+00 1.97263E+00 3.48682E-04-1.16984E+01 5.88908E-13 6.45524E-12
 -1      5405-6.14917E+00 1.97849E+00 3.46116E-04-1.17098E+01-7.56173E-07 1.27034E-05
 -1      5406-6.16670E+00 1.99607E+00 3.39112E-04-1.17437E+01-4.72083E-05 7.85955E-06
 -1      5407-1.50086E+00-3.09213E+00 2.81970E-04-1.23890E+01 4.25192E-05-1.82207E-05
 -1      5408-1.49917E+00-3.09384E+00 2.85259E-04-1.23538E+01-4.70598E-06-1.42037E-05
 -1      5409-1.49860E+00-3.09442E+00 2.86849E-04-1.23421E+01 1.25470E-12-2.54140E-12
 -1      5410-1.49917E+00-3.09384E+00 2.85259E-04-1.23538E+01 4.70598E-06 1.42037E-05
 -1      5411-1.50086E+00-3.09213E+00 2.81970E-04-1.23890E+01-4.25192E-05 1.82207E-05
 -1      5412 2.95175E+00-7.94795E+00 2.44633E-04-1.12121E+01 4.28311E-05-2.65997E-05
 -1      5413 2.93940E+00-7.93560E+00 2.42838E-04-1.11806E+01-1.08469E-05-1.47051E-05
 -1      5414 2.93528E+00-7.93152E+00 2.45200E-04-1.11701E+01 5.53080E-13-2.47497E-12
 -1      5415 2.93940E+00-7.93560E+00 2.42838E-04-1.11806E+01 1.08469E-05 1.47051E-05
 -1      5416 2.95175E+00-7.94795E+00 2.44633E-04-1.12121E+01-4.28311E-05 2.65997E-05
 -1      5417 6.61123E+00-1.19304E+01 2.23056E-04-8.45610E+00 4.97547E-05-3.42867E-05
 -1      5418 6.58774E+00-1.19069E+01 2.18098E-04-8.43264E+00-1.99728E-05-1.35169E-05
 -1      5419 6.57990E+00-1.18992E+01 2.23209E-04-8.42479E+00 2.54487E-12-9.09027E-13
 -1      5420 6.58774E+00-1.19069E+01 2.18098E-04-8.43264E+00 1.99728E-05 1.35169E-05
 -1      5421 6.61123E+00-1.19304E+01 2.23056E-04-8.45610E+00-4.97547E-05 3.42867E-05
 -1      5422 9.00369E+00-1.45382E+01 2.13512E-04-4.53600E+00 6.55108E-05-4.47672E-05
 -1      5423 8.97302E+00-1.45075E+01 2.04072E-04-4.52364E+00-3.39228E-05-9.28739E-06
 -1      5424 8.96277E+00-1.44973E+01 2.13240E-04-4.51948E+00 1.27532E-12 2.64926E-13
 -1      5425 8.97302E+00-1.45075E+01 2.04072E-04-4.52364E+00 3.39228E-05 9.28739E-06
 -1      5426 9.00369E+00-1.45382E+01 2.13512E-04-4.53600E+00-6.55108E-05 4.47672E-05
 -1      5427 9.81536E+00-1.54491E+01 2.11396E-04-9.42188E-03 9.27858E-05-6.31170E-05
 -1      5428 9.78225E+00-1.54160E+01 1.94752E-04-9.83165E-03-5.44606E-05 7.23651E-07
 -1      5429 9.77117E+00-1.54050E+01 2.09588E-04-9.90456E-03-9.92164E-13-4.48683E-12
 -1      5430 9.78225E+00-1.54160E+01 1.94752E-04-9.83165E-03 5.44606E-05-7.23652E-07
 -1      5431 9.81536E+00-1.54491E+01 2.11396E-04-9.42188E-03-9.27858E-05 6.31170E-05
 -1      5432 8.94559E+00-1.45642E+01 2.14156E-04 4.48242E+00 1.35326E-04-9.71491E-05
 -1      5433 8.91509E+00-1.45337E+01 1.85336E-04 4.46934E+00-8.33075E-05 2.08402E-05
 -1      5434 8.90482E+00-1.45236E+01 2.08070E-04 4.46509E+00 2.71116E-13 4.81538E-13
 -1      5435 8.91509E+00-1.45337E+01 1.85336E-04 4.46934E+00 8.33075E-05-2.08402E-05
 -1      5436 8.94559E+00-1.45642E+01 2.14156E-04 4.48242E+00-1.35326E-04 9.71491E-05
 -1      5437 6.53440E+00-1.20292E+01 2.20812E-04 8.29919E+00 1.97879E-04-1.59632E-04
 -1      5438 6.51117E+00-1.20059E+01 1.72078E-04 8.27539E+00-1.21984E-04 5.75451E-05
 -1      5439 6.50323E+00-1.19982E+01 2.05884E-04 8.26762E+00 8.05571E-13-3.19855E-13
 -1      5440 6.51117E+00-1.20059E+01 1.72078E-04 8.27539E+00 1.21984E-04-5.75451E-05
 -1      5441 6.53440E+00-1.20292E+01 2.20812E-04 8.29919E+00-1.97879E-04 1.59632E-04
 -1      5442 2.95222E+00-8.22196E+00 2.34543E-04 1.08952E+01 2.85576E-04-2.70227E-04
 -1      5443 2.93986E+00-8.20941E+00 1.53080E-04 1.08642E+01-1.70986E-04 1.20426E-04
 -1      5444 2.93536E+00-8.20534E+00 2.01001E-04 1.08541E+01 1.13461E-13-7.54612E-13
 -1      5445 2.93986E+00-8.20941E+00 1.53080E-04 1.08642E+01 1.70986E-04-1.20426E-04
 -1      5446 2.95222E+00-8.22196E+00 2.34543E-04 1.08952E+01-2.85576E-04 2.70227E-04
 -1      5447-1.24927E+00-3.70171E+00 2.56664E-04 1.19042E+01 4.03084E-04-4.64020E-04
 -1      5448-1.24874E+00-3.70190E+00 1.24471E-04 1.18708E+01-2.27265E-04 2.20190E-04
 -1      5449-1.24925E+00-3.70206E+00 1.88003E-04 1.18599E+01 1.99647E-13-9.88567E-13
 -1      5450-1.24874E+00-3.70190E+00 1.24471E-04 1.18708E+01 2.27265E-04-2.20190E-04
 -1      5451-1.24927E+00-3.70171E+00 2.56664E-04 1.19042E+01-4.03084E-04 4.64020E-04
 -1      5452-5.41820E+00 8.72780E-01 3.13922E-04 1.12001E+01 5.50775E-04-7.81959E-04
 -1      5453-5.40465E+00 8.59876E-01 9.58490E-05 1.11693E+01-2.79449E-04 3.67855E-04
 -1      5454-5.40131E+00 8.55490E-01 1.58764E-04 1.11593E+01 1.81856E-13-7.95776E-13
 -1      5455-5.40465E+00 8.59876E-01 9.58490E-05 1.11693E+01 2.79449E-04-3.67855E-04
 -1      5456-5.41820E+00 8.72780E-01 3.13922E-04 1.12001E+01-5.50775E-04 7.81959E-04
 -1      5457-8.90498E+00 4.84653E+00 3.80283E-04 8.92229E+00 7.25948E-04-1.34372E-03
 -1      5458-8.88010E+00 4.82296E+00 4.64523E-05 8.89876E+00-2.92708E-04 5.30081E-04
 -1      5459-8.87371E+00 4.81497E+00 6.41978E-05 8.89115E+00-2.66717E-13-1.06335E-12
 -1      5460-8.88010E+00 4.82296E+00 4.64523E-05 8.89876E+00 2.92708E-04-5.30081E-04
 -1      5461-8.90498E+00 4.84653E+00 3.80283E-04 8.92229E+00-7.25948E-04 1.34372E-03
 -1      5462-1.11744E+01 7.67967E+00 6.82455E-04 5.45952E+00 8.93320E-04-2.12031E-03
 -1      5463-1.11411E+01 7.64924E+00 9.40701E-05 5.44676E+00-1.89261E-04 6.09362E-04
 -1      5464-1.11329E+01 7.63868E+00-1.71659E-04 5.44254E+00-3.27816E-13-9.74916E-13
 -1      5465-1.11411E+01 7.64924E+00 9.40701E-05 5.44676E+00 1.89261E-04-6.09362E-04
 -1      5466-1.11744E+01 7.67967E+00 6.82455E-04 5.45952E+00-8.93320E-04 2.12031E-03
 -1      5467-1.19174E+01 9.05058E+00 7.25158E-04 1.38716E+00 1.07548E-03-3.91082E-03
 -1      5468-1.18778E+01 9.01835E+00-7.79576E-05 1.38664E+00 2.71287E-04-1.63108E-04
 -1      5469-1.18687E+01 9.00649E+00-1.02458E-03 1.38620E+00-8.43970E-13-1.13837E-12
 -1      5470-1.18778E+01 9.01835E+00-7.79576E-05 1.38664E+00-2.71287E-04 1.63108E-04
 -1      5471-1.19174E+01 9.05058E+00 7.25158E-04 1.38716E+00-1.07548E-03 3.91082E-03
 -1      5472-1.11458E+01 8.91686E+00 2.60341E-03-2.64224E+00 9.00423E-04-4.76332E-03
 -1      5473-1.10974E+01 8.88769E+00 1.54577E-04-2.63163E+00 1.40074E-03-3.41051E-03
 -1      5474-1.10856E+01 8.87570E+00-3.66955E-03-2.62878E+00-1.45530E-12-6.37676E-13
 -1      5475-1.10974E+01 8.88769E+00 1.54577E-04-2.63163E+00-1.40074E-03 3.41051E-03
 -1      5476-1.11458E+01 8.91686E+00 2.60341E-03-2.64224E+00-9.00423E-04 4.76332E-03
 -1      5477-9.24174E+00 7.46555E+00 3.34209E-03-6.02538E+00-1.07753E-03-7.97124E-03
 -1      5478-9.17910E+00 7.43975E+00 9.95771E-04-6.00425E+00 2.29673E-03-1.38941E-02
 -1      5479-9.15493E+00 7.42965E+00-6.33740E-03-5.99835E+00-2.32971E-12-7.06963E-13
 -1      5480-9.17910E+00 7.43975E+00 9.95771E-04-6.00425E+00-2.29673E-03 1.38941E-02
 -1      5481-9.24174E+00 7.46555E+00 3.34209E-03-6.02538E+00 1.07753E-03 7.97124E-03
 -1      5482-6.74081E+00 4.77086E+00 1.81520E-01-8.16992E+00-1.45421E-02 1.64232E-01
 -1      5483-6.82375E+00 4.70274E+00 2.35282E-01-8.14282E+00-7.24665E-03 9.24216E-02
 -1      5484-6.84130E+00 4.68209E+00 2.48774E-01-8.13322E+00-3.85549E-12-2.91197E-13
 -1      5485-6.82375E+00 4.70274E+00 2.35282E-01-8.14282E+00 7.24665E-03-9.24216E-02
 -1      5486-6.74081E+00 4.77086E+00 1.81520E-01-8.16992E+00 1.45421E-02-1.64232E-01
 -1      5487-2.16782E+00-2.59863E+00-8.31394E-03 4.24605E+00-1.59625E-04-5.88050E-03
 -1      5488-2.19854E+00-2.56935E+00-1.95867E-02 4.21910E+00 1.06948E-04-5.78119E-03
 -1      5489-2.20776E+00-2.55937E+00-2.43368E-02 4.20996E+00 1.71892E-12-1.18918E-11
 -1      5490-2.19854E+00-2.56935E+00-1.95867E-02 4.21910E+00-1.06948E-04 5.78119E-03
 -1      5491-2.16782E+00-2.59863E+00-8.31394E-03 4.24605E+00 1.59625E-04 5.88050E-03
 -1      5492-7.29979E+00 1.81236E+00-1.61903E-03 5.77258E+00-1.06901E-04-6.05944E-04
 -1      5493-7.28518E+00 1.79921E+00-8.42208E-04 5.73224E+00-8.32135E-05-2.10510E-04
 -1      5494-7.28061E+00 1.79467E+00-7.01945E-04 5.71878E+00 7.15033E-13 5.67530E-12
 -1      5495-7.28518E+00 1.79921E+00-8.42208E-04 5.73224E+00 8.32135E-05 2.10510E-04
 -1      5496-7.29979E+00 1.81236E+00-1.61903E-03 5.77258E+00 1.06901E-04 6.05944E-04
 -1      5497-1.18528E+01 6.11452E+00 2.11335E-07 3.59077E+00 2.94244E-05-4.25762E-05
 -1      5498-1.18128E+01 6.07415E+00-4.09995E-04 3.56066E+00 4.07035E-05 3.43215E-06
 -1      5499-1.17995E+01 6.06067E+00-5.05270E-04 3.55061E+00-4.30219E-12-3.89517E-12
 -1      5500-1.18128E+01 6.07415E+00-4.09995E-04 3.56066E+00-4.07035E-05-3.43216E-06
 -1      5501-1.18528E+01 6.11452E+00 2.11331E-07 3.59077E+00-2.94244E-05 4.25762E-05
 -1      5502-1.40946E+01 7.88093E+00 1.11093E-04-9.25132E-01 4.14542E-05 6.33519E-06
 -1      5503-1.40468E+01 7.83313E+00 2.14910E-04-9.35345E-01 2.21345E-05 1.11287E-05
 -1      5504-1.40309E+01 7.81720E+00 2.60330E-04-9.38750E-01 1.95825E-12 8.24544E-12
 -1      5505-1.40468E+01 7.83313E+00 2.14910E-04-9.35345E-01-2.21345E-05-1.11287E-05
 -1      5506-1.40946E+01 7.88093E+00 1.11093E-04-9.25132E-01-4.14542E-05-6.33518E-06
 -1      5507-1.37039E+01 6.67501E+00 3.52447E-04-5.90007E+00 4.98149E-05 1.50925E-05
 -1      5508-1.36616E+01 6.63267E+00 3.49866E-04-5.89164E+00 1.33130E-05-6.32210E-06
 -1      5509-1.36475E+01 6.61855E+00 3.60728E-04-5.88882E+00 1.78814E-12-5.90249E-12
 -1      5510-1.36616E+01 6.63267E+00 3.49866E-04-5.89164E+00-1.33130E-05 6.32210E-06
 -1      5511-1.37039E+01 6.67501E+00 3.52447E-04-5.90007E+00-4.98149E-05-1.50925E-05
 -1      5512-1.11939E+01 3.13341E+00 3.49343E-04-9.97377E+00 5.31764E-05 1.05777E-05
 -1      5513-1.11636E+01 3.10310E+00 3.71078E-04-9.95228E+00 4.15848E-06-9.41417E-06
 -1      5514-1.11535E+01 3.09300E+00 3.82361E-04-9.94510E+00-6.04987E-13 4.12775E-12
 -1      5515-1.11636E+01 3.10310E+00 3.71078E-04-9.95228E+00-4.15847E-06 9.41417E-06
 -1      5516-1.11939E+01 3.13341E+00 3.49343E-04-9.97377E+00-5.31764E-05-1.05777E-05
 -1      5517-7.33727E+00-1.80113E+00 3.10492E-04-1.24281E+01 5.22333E-05-2.37100E-06
 -1      5518-7.32122E+00-1.81725E+00 3.09617E-04-1.23996E+01-3.45885E-06-1.33627E-05
 -1      5519-7.31584E+00-1.82263E+00 3.11020E-04-1.23901E+01-1.81977E-12 2.86998E-12
 -1      5520-7.32122E+00-1.81725E+00 3.09617E-04-1.23996E+01 3.45885E-06 1.33627E-05
 -1      5521-7.33727E+00-1.80113E+00 3.10492E-04-1.24281E+01-5.22333E-05 2.37100E-06
 -1      5522-2.90204E+00-7.22613E+00 2.58382E-04-1.29984E+01 5.06636E-05-1.50353E-05
 -1      5523-2.89999E+00-7.22823E+00 2.49076E-04-1.29683E+01-1.05040E-05-1.41532E-05
 -1      5524-2.89929E+00-7.22895E+00 2.47137E-04-1.29582E+01 2.17012E-12 3.97522E-12
 -1      5525-2.89999E+00-7.22823E+00 2.49076E-04-1.29683E+01 1.05040E-05 1.41532E-05
 -1      5526-2.90204E+00-7.22613E+00 2.58382E-04-1.29984E+01-5.06636E-05 1.50353E-05
 -1      5527 1.41303E+00-1.23600E+01 2.21741E-04-1.17113E+01 5.30552E-05-2.55866E-05
 -1      5528 1.40262E+00-1.23496E+01 2.04041E-04-1.16841E+01-1.81926E-05-1.32049E-05
 -1      5529 1.39914E+00-1.23462E+01 2.01317E-04-1.16751E+01 7.57226E-13-3.41549E-12
 -1      5530 1.40262E+00-1.23496E+01 2.04041E-04-1.16841E+01 1.81926E-05 1.32049E-05
 -1      5531 1.41303E+00-1.23600E+01 2.21741E-04-1.17113E+01-5.30552E-05 2.55866E-05
 -1      5532 4.99486E+00-1.65481E+01 2.00396E-04-8.80944E+00 6.26019E-05-3.57196E-05
 -1      5533 4.97456E+00-1.65279E+01 1.76809E-04-8.78910E+00-2.86957E-05-1.01144E-05
 -1      5534 4.96779E+00-1.65212E+01 1.76074E-04-8.78229E+00 1.20813E-12-5.73884E-13
 -1      5535 4.97456E+00-1.65279E+01 1.76809E-04-8.78910E+00 2.86957E-05 1.01144E-05
 -1      5536 4.99486E+00-1.65481E+01 2.00396E-04-8.80944E+00-6.26019E-05 3.57196E-05
 -1      5537 7.34994E+00-1.92811E+01 1.91742E-04-4.71788E+00 8.20080E-05-4.94453E-05
 -1      5538 7.32329E+00-1.92545E+01 1.61629E-04-4.70716E+00-4.41054E-05-3.47935E-06
 -1      5539 7.31437E+00-1.92457E+01 1.64854E-04-4.70354E+00 8.83085E-13-2.83416E-14
 -1      5540 7.32329E+00-1.92545E+01 1.61629E-04-4.70716E+00 4.41054E-05 3.47935E-06
 -1      5541 7.34994E+00-1.92811E+01 1.91742E-04-4.71788E+00-8.20080E-05 4.94453E-05
 -1      5542 8.15616E+00-2.02350E+01 1.91751E-04-5.46615E-03 1.14135E-04-7.27009E-05
 -1      5543 8.12735E+00-2.02062E+01 1.52725E-04-5.86578E-03-6.63134E-05 9.66195E-06
 -1      5544 8.11769E+00-2.01967E+01 1.61981E-04-5.91814E-03 1.58781E-12-2.07363E-12
 -1      5545 8.12735E+00-2.02062E+01 1.52725E-04-5.86578E-03 6.63134E-05-9.66195E-06
 -1      5546 8.15616E+00-2.02350E+01 1.91751E-04-5.46615E-03-1.14135E-04 7.27009E-05
 -1      5547 7.31077E+00-1.93120E+01 1.98307E-04 4.67819E+00 1.62502E-04-1.14285E-04
 -1      5548 7.28423E+00-1.92854E+01 1.45539E-04 4.66676E+00-9.69301E-05 3.39734E-05
 -1      5549 7.27526E+00-1.92767E+01 1.63287E-04 4.66308E+00 3.44280E-13-5.52781E-14
 -1      5550 7.28423E+00-1.92854E+01 1.45539E-04 4.66676E+00 9.69301E-05-3.39734E-05
 -1      5551 7.31077E+00-1.93120E+01 1.98307E-04 4.67819E+00-1.62502E-04 1.14285E-04
 -1      5552 4.95365E+00-1.66605E+01 2.11069E-04 8.68761E+00 2.31171E-04-1.87968E-04
 -1      5553 4.93345E+00-1.66402E+01 1.36768E-04 8.66685E+00-1.36992E-04 7.61639E-05
 -1      5554 4.92647E+00-1.66336E+01 1.65984E-04 8.66011E+00 6.85542E-13-4.09299E-13
 -1      5555 4.93345E+00-1.66402E+01 1.36768E-04 8.66685E+00 1.36992E-04-7.61639E-05
 -1      5556 4.95365E+00-1.66605E+01 2.11069E-04 8.68761E+00-2.31171E-04 1.87968E-04
 -1      5557 1.45446E+00-1.26608E+01 2.33559E-04 1.14742E+01 3.24110E-04-3.14421E-04
 -1      5558 1.44376E+00-1.26499E+01 1.25044E-04 1.14472E+01-1.85893E-04 1.45452E-04
 -1      5559 1.43974E+00-1.26464E+01 1.67760E-04 1.14384E+01 1.43416E-12-1.10952E-12
 -1      5560 1.44376E+00-1.26499E+01 1.25044E-04 1.14472E+01 1.85893E-04-1.45452E-04
 -1      5561 1.45446E+00-1.26608E+01 2.33559E-04 1.14742E+01-3.24110E-04 3.14421E-04
 -1      5562-2.63768E+00-7.87444E+00 2.68054E-04 1.26696E+01 4.43486E-04-5.28748E-04
 -1      5563-2.63712E+00-7.87462E+00 1.06933E-04 1.26405E+01-2.38910E-04 2.50717E-04
 -1      5564-2.63773E+00-7.87477E+00 1.61268E-04 1.26310E+01 5.54599E-13-7.68653E-13
 -1      5565-2.63712E+00-7.87462E+00 1.06933E-04 1.26405E+01 2.38910E-04-2.50717E-04
 -1      5566-2.63768E+00-7.87444E+00 2.68054E-04 1.26696E+01-4.43486E-04 5.28748E-04
 -1      5567-6.67585E+00-2.96169E+00 3.37769E-04 1.21449E+01 5.87751E-04-8.72265E-04
 -1      5568-6.66388E+00-2.97291E+00 9.14289E-05 1.21181E+01-2.80990E-04 3.97200E-04
 -1      5569-6.66120E+00-2.97674E+00 1.34374E-04 1.21094E+01 9.98036E-14-9.14185E-13
 -1      5570-6.66388E+00-2.97291E+00 9.14289E-05 1.21181E+01 2.80990E-04-3.97200E-04
 -1      5571-6.67585E+00-2.96169E+00 3.37769E-04 1.21449E+01-5.87751E-04 8.72265E-04
 -1      5572-1.00174E+01 1.42096E+00 4.18465E-04 1.00339E+01 7.44721E-04-1.45585E-03
 -1      5573-9.99540E+00 1.40051E+00 5.15881E-05 1.00133E+01-2.75499E-04 5.38290E-04
 -1      5574-9.99012E+00 1.39351E+00 1.95481E-05 1.00067E+01-2.62808E-14-8.31189E-13
 -1      5575-9.99540E+00 1.40051E+00 5.15881E-05 1.00133E+01 2.75499E-04-5.38290E-04
 -1      5576-1.00174E+01 1.42096E+00 4.18465E-04 1.00339E+01-7.44721E-04 1.45585E-03
 -1      5577-1.21337E+01 4.73106E+00 7.04039E-04 6.71286E+00 8.95046E-04-2.26076E-03
 -1      5578-1.21039E+01 4.70472E+00 1.02078E-04 6.70175E+00-1.27753E-04 5.39823E-04
 -1      5579-1.20971E+01 4.69543E+00-2.62594E-04 6.69805E+00-6.89529E-13-8.71267E-13
 -1      5580-1.21039E+01 4.70472E+00 1.02078E-04 6.70175E+00 1.27753E-04-5.39823E-04
 -1      5581-1.21337E+01 4.73106E+00 7.04039E-04 6.71286E+00-8.95046E-04 2.26076E-03
 -1      5582-1.27152E+01 6.63954E+00 7.19302E-04 2.73335E+00 9.83010E-04-4.03008E-03
 -1      5583-1.26792E+01 6.61174E+00-1.71474E-04 2.73311E+00 3.58616E-04-4.49555E-04
 -1      5584-1.26713E+01 6.60125E+00-1.34549E-03 2.73274E+00-9.65052E-13-5.67406E-13
 -1      5585-1.26792E+01 6.61174E+00-1.71474E-04 2.73311E+00-3.58616E-04 4.49555E-04
 -1      5586-1.27152E+01 6.63954E+00 7.19302E-04 2.73335E+00-9.83010E-04 4.03008E-03
 -1      5587-1.17538E+01 7.08932E+00 2.44304E-03-1.29086E+00 7.89079E-04-4.95635E-03
 -1      5588-1.17083E+01 7.06434E+00 4.63856E-05-1.28039E+00 1.48073E-03-4.14550E-03
 -1      5589-1.16969E+01 7.05377E+00-4.03397E-03-1.27755E+00-1.43512E-12-7.81356E-13
 -1      5590-1.17083E+01 7.06434E+00 4.63856E-05-1.28039E+00-1.48073E-03 4.14550E-03
 -1      5591-1.17538E+01 7.08932E+00 2.44304E-03-1.29086E+00-7.89079E-04 4.95635E-03
 -1      5592-9.59235E+00 6.25653E+00 5.49980E-03-4.80426E+00-2.04967E-03-5.14865E-03
 -1      5593-9.53672E+00 6.23346E+00 2.87383E-03-4.78108E+00 1.49301E-03-1.29403E-02
 -1      5594-9.51388E+00 6.22458E+00-4.66279E-03-4.77429E+00-2.19214E-12-1.28197E-13
 -1      5595-9.53672E+00 6.23346E+00 2.87383E-03-4.78108E+00-1.49301E-03 1.29403E-02
 -1      5596-9.59235E+00 6.25653E+00 5.49980E-03-4.80426E+00 2.04967E-03 5.14865E-03
 -1      5597-6.87968E+00 4.33311E+00 1.82111E-01-7.17563E+00-6.30715E-03 1.61755E-01
 -1      5598-6.95498E+00 4.26332E+00 2.38254E-01-7.14606E+00-1.16643E-03 9.21898E-02
 -1      5599-6.97067E+00 4.24235E+00 2.53232E-01-7.13647E+00-3.61662E-12 5.28802E-13
 -1      5600-6.95498E+00 4.26332E+00 2.38254E-01-7.14606E+00 1.16643E-03-9.21898E-02
 -1      5601-6.87968E+00 4.33311E+00 1.82111E-01-7.17563E+00 6.30715E-03-1.61755E-01
 -1      5602-1.94323E+00-1.65160E+00-6.53156E-03 2.96777E+00-2.71277E-03-3.46840E-03
 -1      5603-1.96582E+00-1.63148E+00-1.55091E-02 2.95817E+00-1.73614E-03-3.71889E-03
 -1      5604-1.97259E+00-1.62453E+00-1.92674E-02 2.95482E+00-4.81114E-13 6.62659E-12
 -1      5605-1.96582E+00-1.63148E+00-1.55091E-02 2.95817E+00 1.73614E-03 3.71889E-03
 -1      5606-1.94323E+00-1.65160E+00-6.53156E-03 2.96777E+00 2.71277E-03 3.46840E-03
 -1      5607-6.66307E+00 1.63329E+00-1.53665E-03 4.18501E+00-2.42194E-04-7.18022E-04
 -1      5608-6.64763E+00 1.61946E+00-1.21174E-03 4.15571E+00-2.58146E-04-3.14852E-04
 -1      5609-6.64270E+00 1.61473E+00-1.23353E-03 4.14585E+00-4.79123E-12-2.49862E-13
 -1      5610-6.64763E+00 1.61946E+00-1.21174E-03 4.15571E+00 2.58146E-04 3.14852E-04
 -1      5611-6.66307E+00 1.63329E+00-1.53665E-03 4.18501E+00 2.42194E-04 7.18022E-04
 -1      5612-1.11664E+01 4.72005E+00-2.55006E-04 2.16539E+00-1.47553E-04-4.23541E-05
 -1      5613-1.11312E+01 4.68468E+00-6.51756E-04 2.14025E+00-5.11836E-05 1.26930E-05
 -1      5614-1.11195E+01 4.67285E+00-7.68730E-04 2.13184E+00 3.12724E-12-1.62062E-12
 -1      5615-1.11312E+01 4.68468E+00-6.51756E-04 2.14025E+00 5.11836E-05-1.26930E-05
 -1      5616-1.11664E+01 4.72005E+00-2.55006E-04 2.16539E+00 1.47553E-04 4.23541E-05
 -1      5617-1.37492E+01 5.57187E+00 6.58004E-05-2.04339E+00 1.65049E-06-6.24298E-06
 -1      5618-1.37077E+01 5.53032E+00 1.14444E-04-2.05361E+00-1.00899E-07 1.72082E-05
 -1      5619-1.36938E+01 5.51646E+00 1.35541E-04-2.05702E+00-4.79176E-12 4.69484E-13
 -1      5620-1.37077E+01 5.53032E+00 1.14444E-04-2.05361E+00 1.00900E-07-1.72082E-05
 -1      5621-1.37492E+01 5.57187E+00 6.58004E-05-2.04339E+00-1.65050E-06 6.24297E-06
 -1      5622-1.38734E+01 3.74804E+00 3.27791E-04-6.77071E+00 1.31167E-05 2.00633E-05
 -1      5623-1.38363E+01 3.71082E+00 2.95797E-04-6.76529E+00-9.94090E-06 7.90176E-06
 -1      5624-1.38239E+01 3.69842E+00 2.88556E-04-6.76347E+00 1.77541E-12-7.22289E-12
 -1      5625-1.38363E+01 3.71082E+00 2.95797E-04-6.76529E+00 9.94090E-06-7.90177E-06
 -1      5626-1.38734E+01 3.74804E+00 3.27791E-04-6.77071E+00-1.31167E-05-2.00633E-05
 -1      5627-1.18556E+01-2.33498E-01 3.47591E-04-1.06943E+01 2.53806E-05 2.46320E-05
 -1      5628-1.18287E+01-2.60541E-01 3.15024E-04-1.06771E+01-2.36092E-05 1.42682E-05
 -1      5629-1.18196E+01-2.69545E-01 2.97226E-04-1.06714E+01-1.38089E-12 2.80248E-12
 -1      5630-1.18287E+01-2.60541E-01 3.15024E-04-1.06771E+01 2.36092E-05-1.42682E-05
 -1      5631-1.18556E+01-2.33498E-01 3.47591E-04-1.06943E+01-2.53806E-05-2.46320E-05
 -1      5632-8.37998E+00-5.51639E+00 3.03040E-04-1.30524E+01 2.25939E-05 2.65301E-05
 -1      5633-8.36535E+00-5.53108E+00 2.28508E-04-1.30285E+01-3.82178E-05 2.65153E-05
 -1      5634-8.36044E+00-5.53597E+00 1.89857E-04-1.30205E+01 1.33197E-12 5.14996E-12
 -1      5635-8.36535E+00-5.53108E+00 2.28508E-04-1.30285E+01 3.82178E-05-2.65153E-05
 -1      5636-8.37998E+00-5.51639E+00 3.03040E-04-1.30524E+01-2.25939E-05-2.65301E-05
 -1      5637-4.20755E+00-1.12304E+01 2.39363E-04-1.35329E+01 2.21998E-05 2.78869E-05
 -1      5638-4.20529E+00-1.12327E+01 1.36375E-04-1.35071E+01-4.73466E-05 4.26313E-05
 -1      5639-4.20450E+00-1.12335E+01 8.41652E-05-1.34985E+01 1.06303E-12 5.69160E-12
 -1      5640-4.20529E+00-1.12327E+01 1.36375E-04-1.35071E+01 4.73466E-05-4.26314E-05
 -1      5641-4.20755E+00-1.12304E+01 2.39363E-04-1.35329E+01-2.21998E-05-2.78869E-05
 -1      5642-6.24239E-02-1.65963E+01 1.90573E-04-1.21384E+01 2.88190E-05 2.95863E-05
 -1      5643-7.12370E-02-1.65875E+01 6.43513E-05-1.21149E+01-5.19314E-05 5.89079E-05
 -1      5644-7.41515E-02-1.65846E+01 3.83887E-06-1.21070E+01 7.89846E-13 2.75946E-13
 -1      5645-7.12370E-02-1.65875E+01 6.43513E-05-1.21149E+01 5.19314E-05-5.89079E-05
 -1      5646-6.24239E-02-1.65963E+01 1.90573E-04-1.21384E+01-2.88190E-05-2.95863E-05
 -1      5647 3.41591E+00-2.09534E+01 1.60151E-04-9.10734E+00 4.60505E-05 2.82108E-05
 -1      5648 3.39832E+00-2.09358E+01 1.77557E-05-9.08966E+00-5.47336E-05 7.39493E-05
 -1      5649 3.39247E+00-2.09300E+01-4.57110E-05-9.08374E+00 2.92736E-12-2.70723E-12
 -1      5650 3.39832E+00-2.09358E+01 1.77557E-05-9.08966E+00 5.47336E-05-7.39493E-05
 -1      5651 3.41591E+00-2.09534E+01 1.60151E-04-9.10734E+00-4.60505E-05-2.82108E-05
 -1      5652 5.71709E+00-2.37881E+01 1.45360E-04-4.86998E+00 7.52584E-05 1.91742E-05
 -1      5653 5.69386E+00-2.37648E+01-9.62116E-06-4.86067E+00-5.92246E-05 8.85138E-05
 -1      5654 5.68611E+00-2.37571E+01-7.18046E-05-4.85751E+00 8.16516E-13 3.90967E-12
 -1      5655 5.69386E+00-2.37648E+01-9.62116E-06-4.86067E+00 5.92246E-05-8.85138E-05
 -1      5656 5.71709E+00-2.37881E+01 1.45360E-04-4.86998E+00-7.52584E-05-1.91742E-05
 -1      5657 6.51114E+00-2.47754E+01 1.40960E-04-1.44799E-03 1.17674E-04-3.57489E-06
 -1      5658 6.48599E+00-2.47502E+01-2.55507E-05-1.84365E-03-6.85140E-05 1.05366E-04
 -1      5659 6.47757E+00-2.47419E+01-8.25899E-05-1.88752E-03 2.05939E-13-3.02505E-12
 -1      5660 6.48599E+00-2.47502E+01-2.55507E-05-1.84365E-03 6.85140E-05-1.05366E-04
 -1      5661 6.51114E+00-2.47754E+01 1.40960E-04-1.44799E-03-1.17674E-04 3.57489E-06
 -1      5662 5.69236E+00-2.38183E+01 1.43038E-04 4.84447E+00 1.74918E-04-4.83643E-05
 -1      5663 5.66919E+00-2.37950E+01-3.69204E-05 4.83444E+00-8.50646E-05 1.29105E-04
 -1      5664 5.66135E+00-2.37874E+01-8.50651E-05 4.83123E+00 1.03378E-12 3.81472E-13
 -1      5665 5.66919E+00-2.37950E+01-3.69204E-05 4.83444E+00 8.50646E-05-1.29105E-04
 -1      5666 5.69236E+00-2.38183E+01 1.43038E-04 4.84447E+00-1.74918E-04 4.83643E-05
 -1      5667 3.39877E+00-2.10661E+01 1.49161E-04 9.02065E+00 2.48934E-04-1.27717E-04
 -1      5668 3.38116E+00-2.10483E+01-4.95028E-05 9.00246E+00-1.10309E-04 1.66123E-04
 -1      5669 3.37505E+00-2.10425E+01-8.51873E-05 8.99658E+00 1.09662E-12-1.29683E-12
 -1      5670 3.38116E+00-2.10483E+01-4.95028E-05 9.00246E+00 1.10309E-04-1.66123E-04
 -1      5671 3.39877E+00-2.10661E+01 1.49161E-04 9.02065E+00-2.48934E-04 1.27717E-04
 -1      5672-3.10687E-03-1.68992E+01 1.59714E-04 1.19782E+01 3.41542E-04-2.60126E-04
 -1      5673-1.23977E-02-1.68896E+01-6.77075E-05 1.19545E+01-1.43378E-04 2.24559E-04
 -1      5674-1.59374E-02-1.68865E+01-8.94069E-05 1.19469E+01-3.87560E-13-5.99058E-13
 -1      5675-1.23977E-02-1.68896E+01-6.77075E-05 1.19545E+01 1.43378E-04-2.24559E-04
 -1      5676-3.10687E-03-1.68992E+01 1.59714E-04 1.19782E+01-3.41542E-04 2.60126E-04
 -1      5677-3.96965E+00-1.18780E+01 1.73880E-04 1.33483E+01 4.52208E-04-4.75893E-04
 -1      5678-3.96908E+00-1.18782E+01-9.80423E-05 1.33228E+01-1.78956E-04 3.10839E-04
 -1      5679-3.96965E+00-1.18783E+01-1.10246E-04 1.33145E+01 4.93545E-13-7.47986E-13
 -1      5680-3.96908E+00-1.18782E+01-9.80423E-05 1.33228E+01 1.78956E-04-3.10839E-04
 -1      5681-3.96965E+00-1.18780E+01 1.73880E-04 1.33483E+01-4.52208E-04 4.75893E-04
 -1      5682-7.86170E+00-6.66171E+00 2.09347E-04 1.29996E+01 5.78555E-04-8.11272E-04
 -1      5683-7.85114E+00-6.67152E+00-1.33557E-04 1.29761E+01-1.99754E-04 4.24287E-04
 -1      5684-7.84885E+00-6.67487E+00-1.63861E-04 1.29685E+01 3.39113E-13-9.35227E-13
 -1      5685-7.85114E+00-6.67152E+00-1.33557E-04 1.29761E+01 1.99754E-04-4.24287E-04
 -1      5686-7.86170E+00-6.66171E+00 2.09347E-04 1.29996E+01-5.78555E-04 8.11272E-04
 -1      5687-1.10454E+01-1.90599E+00 2.42160E-04 1.10594E+01 7.02023E-04-1.35723E-03
 -1      5688-1.10260E+01-1.92382E+00-2.04137E-04 1.10415E+01-1.71031E-04 5.09246E-04
 -1      5689-1.10214E+01-1.92995E+00-3.26211E-04 1.10357E+01-1.27970E-13-6.62718E-13
 -1      5690-1.10260E+01-1.92382E+00-2.04137E-04 1.10415E+01 1.71031E-04-5.09246E-04
 -1      5691-1.10454E+01-1.90599E+00 2.42160E-04 1.10594E+01-7.02023E-04 1.35723E-03
 -1      5692-1.29978E+01 1.84447E+00 4.88622E-04 7.89132E+00 8.19234E-04-2.11225E-03
 -1      5693-1.29715E+01 1.82159E+00-1.43644E-04 7.88165E+00 6.67600E-06 4.04083E-04
 -1      5694-1.29655E+01 1.81344E+00-6.07507E-04 7.87840E+00-3.13490E-13-1.15482E-12
 -1      5695-1.29715E+01 1.82159E+00-1.43644E-04 7.88165E+00-6.67600E-06-4.04083E-04
 -1      5696-1.29978E+01 1.84447E+00 4.88622E-04 7.89132E+00-8.19234E-04 2.11225E-03
 -1      5697-1.34033E+01 4.24969E+00 4.42615E-04 4.02383E+00 7.60945E-04-3.69757E-03
 -1      5698-1.33712E+01 4.22567E+00-4.93697E-04 4.02390E+00 4.21652E-04-7.40123E-04
 -1      5699-1.33640E+01 4.21650E+00-1.78441E-03 4.02364E+00-3.29869E-13-9.78441E-13
 -1      5700-1.33712E+01 4.22567E+00-4.93697E-04 4.02390E+00-4.21652E-04 7.40123E-04
 -1      5701-1.34033E+01 4.24969E+00 4.42615E-04 4.02383E+00-7.60945E-04 3.69757E-03
 -1      5702-1.22182E+01 5.23659E+00 3.12347E-03 3.84963E-02 4.46668E-04-4.39540E-03
 -1      5703-1.21777E+01 5.21505E+00 9.76196E-04 4.91209E-02 1.24154E-03-4.30901E-03
 -1      5704-1.21670E+01 5.20593E+00-2.87771E-03 5.21355E-02-1.31842E-12-5.84126E-14
 -1      5705-1.21777E+01 5.21505E+00 9.76196E-04 4.91209E-02-1.24154E-03 4.30901E-03
 -1      5706-1.22182E+01 5.23659E+00 3.12347E-03 3.84963E-02-4.46668E-04 4.39540E-03
 -1      5707-9.71157E+00 4.95353E+00 7.47494E-03-3.55424E+00-2.48129E-03-1.16582E-03
 -1      5708-9.66820E+00 4.93387E+00 5.25222E-03-3.52985E+00 6.24649E-04-9.84018E-03
 -1      5709-9.64919E+00 4.92659E+00-1.34409E-03-3.52230E+00-2.07662E-12 2.32656E-13
 -1      5710-9.66820E+00 4.93387E+00 5.25222E-03-3.52985E+00-6.24649E-04 9.84018E-03
 -1      5711-9.71157E+00 4.95353E+00 7.47494E-03-3.55424E+00 2.48129E-03 1.16582E-03
 -1      5712-6.60313E+00 3.81197E+00 1.61634E-01-6.22498E+00 3.55066E-03 1.38721E-01
 -1      5713-6.65645E+00 3.74455E+00 2.12358E-01-6.18831E+00 5.90405E-03 8.00727E-02
 -1      5714-6.66686E+00 3.72465E+00 2.26940E-01-6.17745E+00-3.31443E-12 1.42548E-12
 -1      5715-6.65645E+00 3.74455E+00 2.12358E-01-6.18831E+00-5.90405E-03-8.00727E-02
 -1      5716-6.60313E+00 3.81197E+00 1.61634E-01-6.22498E+00-3.55066E-03-1.38721E-01
 -1      5717-1.66538E+00-9.49736E-01-4.94717E-03 1.87723E+00-5.49343E-03-1.41095E-03
 -1      5718-1.67825E+00-9.38656E-01-1.19009E-02 1.88124E+00-3.85721E-03-1.81398E-03
 -1      5719-1.68213E+00-9.34601E-01-1.48717E-02 1.88245E+00 2.64834E-12-4.34853E-12
 -1      5720-1.67825E+00-9.38656E-01-1.19009E-02 1.88124E+00 3.85721E-03 1.81398E-03
 -1      5721-1.66538E+00-9.49736E-01-4.94717E-03 1.87723E+00 5.49343E-03 1.41095E-03
 -1      5722-5.95083E+00 1.36737E+00-1.57099E-03 2.77055E+00-8.81415E-04-5.64832E-04
 -1      5723-5.93299E+00 1.35198E+00-1.95696E-03 2.74931E+00-8.84394E-04-3.10089E-04
 -1      5724-5.92722E+00 1.34679E+00-2.32194E-03 2.74207E+00-1.22106E-13-4.66969E-12
 -1      5725-5.93299E+00 1.35198E+00-1.95696E-03 2.74931E+00 8.84394E-04 3.10089E-04
 -1      5726-5.95083E+00 1.36737E+00-1.57099E-03 2.77055E+00 8.81415E-04 5.64832E-04
 -1      5727-1.04120E+01 3.32483E+00-6.43844E-04 8.16157E-01-5.62290E-04 4.28650E-07
 -1      5728-1.03799E+01 3.29301E+00-1.21008E-03 7.94716E-01-3.87397E-04-1.45243E-07
 -1      5729-1.03692E+01 3.28239E+00-1.42472E-03 7.87495E-01-1.36126E-12 1.27885E-13
 -1      5730-1.03799E+01 3.29301E+00-1.21008E-03 7.94716E-01 3.87397E-04 1.45247E-07
 -1      5731-1.04120E+01 3.32483E+00-6.43844E-04 8.16157E-01 5.62290E-04-4.28645E-07
 -1      5732-1.33200E+01 3.28625E+00-1.03274E-04-3.15355E+00-1.70719E-04 5.18347E-05
 -1      5733-1.32833E+01 3.24973E+00-2.04056E-04-3.16381E+00-1.65447E-04 1.35219E-05
 -1      5734-1.32711E+01 3.23754E+00-2.42462E-04-3.16725E+00-5.60198E-13 4.45772E-12
 -1      5735-1.32833E+01 3.24973E+00-2.04056E-04-3.16381E+00 1.65447E-04-1.35219E-05
 -1      5736-1.33200E+01 3.28625E+00-1.03274E-04-3.15355E+00 1.70719E-04-5.18347E-05
 -1      5737-1.39376E+01 8.48160E-01 1.56558E-04-7.64756E+00-1.43421E-04 1.30354E-04
 -1      5738-1.39048E+01 8.15414E-01-4.91619E-06-7.64461E+00-1.62298E-04 5.55892E-05
 -1      5739-1.38938E+01 8.04514E-01-5.60946E-05-7.64363E+00 8.05741E-13-3.13373E-12
 -1      5740-1.39048E+01 8.15414E-01-4.91619E-06-7.64461E+00 1.62298E-04-5.55892E-05
 -1      5741-1.39376E+01 8.48160E-01 1.56558E-04-7.64756E+00 1.43421E-04-1.30354E-04
 -1      5742-1.24056E+01-3.55874E+00 1.97010E-04-1.14030E+01-1.52003E-04 2.17837E-04
 -1      5743-1.23815E+01-3.58270E+00-3.73034E-05-1.13895E+01-2.00915E-04 1.41981E-04
 -1      5744-1.23734E+01-3.59065E+00-1.27161E-04-1.13849E+01 3.68480E-12 1.02768E-11
 -1      5745-1.23815E+01-3.58270E+00-3.73034E-05-1.13895E+01 2.00915E-04-1.41980E-04
 -1      5746-1.24056E+01-3.55874E+00 1.97010E-04-1.14030E+01 1.52003E-04-2.17837E-04
 -1      5747-9.32229E+00-9.15924E+00 1.39052E-04-1.36410E+01-1.84120E-04 3.19660E-04
 -1      5748-9.30881E+00-9.17236E+00-2.17788E-04-1.36211E+01-2.40977E-04 2.52379E-04
 -1      5749-9.30424E+00-9.17671E+00-3.63285E-04-1.36145E+01-1.86159E-13 1.45349E-12
 -1      5750-9.30881E+00-9.17236E+00-2.17787E-04-1.36211E+01 2.40977E-04-2.52379E-04
 -1      5751-9.32229E+00-9.15924E+00 1.39052E-04-1.36410E+01 1.84120E-04-3.19660E-04
 -1      5752-5.43388E+00-1.51234E+01 5.42192E-05-1.40174E+01-1.89556E-04 4.19541E-04
 -1      5753-5.43122E+00-1.51255E+01-4.06303E-04-1.39955E+01-2.51772E-04 3.64879E-04
 -1      5754-5.43025E+00-1.51262E+01-5.98454E-04-1.39882E+01 1.26021E-12-2.25527E-12
 -1      5755-5.43122E+00-1.51255E+01-4.06303E-04-1.39955E+01 2.51772E-04-3.64879E-04
 -1      5756-5.43388E+00-1.51234E+01 5.42192E-05-1.40174E+01 1.89556E-04-4.19541E-04
 -1      5757-1.48139E+00-2.06835E+01-1.83178E-05-1.25147E+01-1.60122E-04 5.05651E-04
 -1      5758-1.48847E+00-2.06758E+01-5.59292E-04-1.24945E+01-2.30683E-04 4.63551E-04
 -1      5759-1.49074E+00-2.06733E+01-7.85404E-04-1.24878E+01 4.55737E-13 9.48352E-13
 -1      5760-1.48847E+00-2.06758E+01-5.59292E-04-1.24945E+01 2.30683E-04-4.63551E-04
 -1      5761-1.48139E+00-2.06835E+01-1.83178E-05-1.25147E+01 1.60122E-04-5.05651E-04
 -1      5762 1.87470E+00-2.51795E+01-6.82775E-05-9.36537E+00-9.63740E-05 5.67590E-04
 -1      5763 1.85989E+00-2.51640E+01-6.64094E-04-9.35009E+00-1.84528E-04 5.40066E-04
 -1      5764 1.85504E+00-2.51589E+01-9.11217E-04-9.34498E+00 3.60696E-13-5.30386E-13
 -1      5765 1.85989E+00-2.51640E+01-6.64094E-04-9.35009E+00 1.84528E-04-5.40066E-04
 -1      5766 1.87470E+00-2.51795E+01-6.82775E-05-9.36537E+00 9.63740E-05-5.67590E-04
 -1      5767 4.10966E+00-2.80964E+01-9.59894E-05-5.00064E+00-5.42158E-06 5.98422E-04
 -1      5768 4.08989E+00-2.80759E+01-7.26036E-04-4.99260E+00-1.23680E-04 5.92464E-04
 -1      5769 4.08337E+00-2.80691E+01-9.83506E-04-4.98987E+00 7.76242E-13 7.31934E-13
 -1      5770 4.08989E+00-2.80759E+01-7.26036E-04-4.99260E+00 1.23680E-04-5.92464E-04
 -1      5771 4.10966E+00-2.80964E+01-9.59894E-05-5.00064E+00 5.42158E-06-5.98422E-04
 -1      5772 4.88625E+00-2.91090E+01-1.05492E-04 1.85987E-03 1.05009E-04 5.92785E-04
 -1      5773 4.86479E+00-2.90867E+01-7.53941E-04 1.47483E-03-5.80659E-05 6.22894E-04
 -1      5774 4.85767E+00-2.90794E+01-1.01317E-03 1.42023E-03 9.19608E-13 1.55977E-12
 -1      5775 4.86479E+00-2.90867E+01-7.53941E-04 1.47483E-03 5.80659E-05-6.22894E-04
 -1      5776 4.88625E+00-2.91090E+01-1.05492E-04 1.85987E-03-1.05009E-04-5.92785E-04
 -1      5777 4.09528E+00-2.81203E+01-9.99808E-05 4.98762E+00 2.28022E-04 5.45448E-04
 -1      5778 4.07554E+00-2.80998E+01-7.55436E-04 4.97885E+00 4.02270E-06 6.36274E-04
 -1      5779 4.06894E+00-2.80930E+01-1.00959E-03 4.97604E+00 2.93644E-13-9.39235E-13
 -1      5780 4.07554E+00-2.80998E+01-7.55436E-04 4.97885E+00-4.02270E-06-6.36274E-04
 -1      5781 4.09528E+00-2.81203E+01-9.99808E-05 4.98762E+00-2.28022E-04-5.45448E-04
 -1      5782 1.87165E+00-2.52793E+01-8.04189E-05 9.31058E+00 3.57695E-04 4.49481E-04
 -1      5783 1.85675E+00-2.52636E+01-7.35081E-04 9.29472E+00 5.63488E-05 6.39530E-04
 -1      5784 1.85165E+00-2.52584E+01-9.79030E-04 9.28959E+00 2.30174E-13-5.06335E-13
 -1      5785 1.85675E+00-2.52636E+01-7.35081E-04 9.29472E+00-5.63488E-05-6.39530E-04
 -1      5786 1.87165E+00-2.52793E+01-8.04189E-05 9.31058E+00-3.57695E-04-4.49481E-04
 -1      5787-1.42306E+00-2.09643E+01-4.36186E-05 1.24235E+01 4.89203E-04 2.95174E-04
 -1      5788-1.43072E+00-2.09557E+01-6.93565E-04 1.24029E+01 9.62119E-05 6.41033E-04
 -1      5789-1.43358E+00-2.09529E+01-9.25382E-04 1.23963E+01 7.53725E-13-1.04065E-12
 -1      5790-1.43072E+00-2.09557E+01-6.93565E-04 1.24029E+01-9.62119E-05-6.41033E-04
 -1      5791-1.42306E+00-2.09643E+01-4.36186E-05 1.24235E+01-4.89203E-04-2.95174E-04
 -1      5792-5.25275E+00-1.57327E+01 1.64823E-05 1.39584E+01 6.15281E-04 6.56723E-05
 -1      5793-5.25185E+00-1.57326E+01-6.27593E-04 1.39362E+01 1.24854E-04 6.47209E-04
 -1      5794-5.25210E+00-1.57326E+01-8.51926E-04 1.39290E+01 9.68862E-13-9.10571E-13
 -1      5795-5.25185E+00-1.57326E+01-6.27593E-04 1.39362E+01-1.24854E-04-6.47209E-04
 -1      5796-5.25275E+00-1.57327E+01 1.64823E-05 1.39584E+01-6.15281E-04-6.56723E-05
 -1      5797-8.98790E+00-1.02399E+01 1.26889E-04 1.37818E+01 7.31828E-04-2.59626E-04
 -1      5798-8.97836E+00-1.02482E+01-5.17323E-04 1.37613E+01 1.57199E-04 6.54406E-04
 -1      5799-8.97608E+00-1.02510E+01-7.57987E-04 1.37547E+01 1.25997E-13-6.19968E-13
 -1      5800-8.97836E+00-1.02482E+01-5.17323E-04 1.37613E+01-1.57199E-04-6.54406E-04
 -1      5801-8.98790E+00-1.02399E+01 1.26889E-04 1.37818E+01-7.31828E-04 2.59626E-04
 -1      5802-1.20044E+01-5.14002E+00 2.80896E-04 1.20146E+01 8.05893E-04-7.43581E-04
 -1      5803-1.19872E+01-5.15517E+00-3.72646E-04 1.19990E+01 2.10479E-04 6.09879E-04
 -1      5804-1.19829E+01-5.16043E+00-6.91317E-04 1.19939E+01-1.32624E-15-8.98856E-13
 -1      5805-1.19872E+01-5.15517E+00-3.72646E-04 1.19990E+01-2.10479E-04-6.09879E-04
 -1      5806-1.20044E+01-5.14002E+00 2.80896E-04 1.20146E+01-8.05893E-04 7.43581E-04
 -1      5807-1.37848E+01-9.79585E-01 7.28269E-04 9.00862E+00 8.41216E-04-1.40777E-03
 -1      5808-1.37617E+01-9.99153E-01 1.22078E-05 9.00014E+00 3.56752E-04 3.36622E-04
 -1      5809-1.37559E+01-1.00616E+00-5.66917E-04 8.99733E+00-7.17544E-13-6.79255E-13
 -1      5810-1.37617E+01-9.99153E-01 1.22078E-05 9.00014E+00-3.56752E-04-3.36622E-04
 -1      5811-1.37848E+01-9.79585E-01 7.28269E-04 9.00862E+00-8.41216E-04 1.40777E-03
 -1      5812-1.40038E+01 1.88735E+00 8.39599E-04 5.27399E+00 4.65383E-04-2.64352E-03
 -1      5813-1.39760E+01 1.86666E+00-6.56553E-05 5.27441E+00 4.56974E-04-7.90986E-04
 -1      5814-1.39689E+01 1.85891E+00-1.26389E-03 5.27444E+00-8.76579E-13-3.00759E-13
 -1      5815-1.39760E+01 1.86666E+00-6.56553E-05 5.27441E+00-4.56974E-04 7.90986E-04
 -1      5816-1.40038E+01 1.88735E+00 8.39599E-04 5.27399E+00-4.65383E-04 2.64352E-03
 -1      5817-1.25772E+01 3.37486E+00 4.76430E-03 1.37062E+00-9.46038E-06-2.65392E-03
 -1      5818-1.25449E+01 3.35575E+00 3.23599E-03 1.38167E+00 5.67327E-04-3.32453E-03
 -1      5819-1.25354E+01 3.34813E+00 4.23315E-04 1.38523E+00-1.16026E-12-8.60065E-15
 -1      5820-1.25449E+01 3.35575E+00 3.23599E-03 1.38167E+00-5.67327E-04 3.32453E-03
 -1      5821-1.25772E+01 3.37486E+00 4.76430E-03 1.37062E+00 9.46038E-06 2.65392E-03
 -1      5822-9.67636E+00 3.57655E+00 4.44484E-03-2.22169E+00-1.41765E-03 2.80676E-03
 -1      5823-9.64939E+00 3.56075E+00 3.46098E-03-2.19872E+00 3.30419E-04-4.65863E-03
 -1      5824-9.63658E+00 3.55564E+00-7.79938E-04-2.19093E+00-1.74024E-12 7.46201E-13
 -1      5825-9.64939E+00 3.56075E+00 3.46098E-03-2.19872E+00-3.30419E-04 4.65863E-03
 -1      5826-9.67636E+00 3.57655E+00 4.44484E-03-2.22169E+00 1.41765E-03-2.80676E-03
 -1      5827-5.86922E+00 3.12631E+00 1.14041E-01-5.24288E+00 1.49129E-02 9.07227E-02
 -1      5828-5.88705E+00 3.06821E+00 1.50364E-01-5.19336E+00 1.33023E-02 5.22205E-02
 -1      5829-5.88925E+00 3.05031E+00 1.60831E-01-5.17980E+00-2.79787E-12 2.27673E-12
 -1      5830-5.88705E+00 3.06821E+00 1.50364E-01-5.19336E+00-1.33023E-02-5.22205E-02
 -1      5831-5.86922E+00 3.12631E+00 1.14041E-01-5.24288E+00-1.49129E-02-9.07227E-02
 -1      5832-1.26840E+00-4.36253E-01-2.48368E-03 1.00283E+00-9.81535E-03 1.38697E-03
 -1      5833-1.27038E+00-4.31700E-01-7.97055E-03 1.01645E+00-7.12920E-03 6.08640E-04
 -1      5834-1.27068E+00-4.29647E-01-1.01382E-02 1.02069E+00-4.43682E-12 8.08059E-12
 -1      5835-1.27038E+00-4.31700E-01-7.97055E-03 1.01645E+00 7.12920E-03-6.08640E-04
 -1      5836-1.26840E+00-4.36253E-01-2.48368E-03 1.00283E+00 9.81535E-03-1.38697E-03
 -1      5837-5.09938E+00 1.00777E+00-1.04763E-03 1.52089E+00-2.97727E-03-6.41076E-04
 -1      5838-5.07820E+00 9.91709E-01-3.02617E-03 1.50519E+00-2.68468E-03-3.52015E-04
 -1      5839-5.07118E+00 9.86611E-01-3.90168E-03 1.49984E+00-1.14221E-12-4.32297E-12
 -1      5840-5.07820E+00 9.91709E-01-3.02617E-03 1.50519E+00 2.68468E-03 3.52015E-04
 -1      5841-5.09938E+00 1.00777E+00-1.04763E-03 1.52089E+00 2.97727E-03 6.41076E-04
 -1      5842-9.56445E+00 1.90997E+00-3.46721E-04-4.65308E-01-1.93199E-03-2.40315E-04
 -1      5843-9.53422E+00 1.88192E+00-1.41612E-03-4.84105E-01-1.43885E-03-1.42694E-04
 -1      5844-9.52420E+00 1.87272E+00-1.87363E-03-4.90402E-01-2.90405E-12 3.24013E-12
 -1      5845-9.53422E+00 1.88192E+00-1.41612E-03-4.84105E-01 1.43885E-03 1.42694E-04
 -1      5846-9.56445E+00 1.90997E+00-3.46721E-04-4.65308E-01 1.93199E-03 2.40315E-04
 -1      5847-1.28167E+01 1.01271E+00-6.05343E-05-4.25966E+00-9.34949E-04-2.05065E-04
 -1      5848-1.27840E+01 9.80997E-01-4.96964E-04-4.27004E+00-7.38536E-04-1.21782E-04
 -1      5849-1.27732E+01 9.70550E-01-6.94313E-04-4.27349E+00-2.65895E-12-5.75330E-13
 -1      5850-1.27840E+01 9.80997E-01-4.96964E-04-4.27004E+00 7.38536E-04 1.21782E-04
 -1      5851-1.28167E+01 1.01271E+00-6.05343E-05-4.25966E+00 9.34949E-04 2.05065E-04
 -1      5852-1.39252E+01-2.02703E+00-1.94794E-04-8.53932E+00-8.05299E-04 8.87600E-05
 -1      5853-1.38960E+01-2.05530E+00-5.99741E-04-8.53855E+00-6.40880E-04 9.46064E-05
 -1      5854-1.38863E+01-2.06459E+00-7.92670E-04-8.53829E+00 4.61591E-12 4.39476E-12
 -1      5855-1.38960E+01-2.05530E+00-5.99741E-04-8.53855E+00 6.40880E-04-9.46064E-05
 -1      5856-1.39252E+01-2.02703E+00-1.94794E-04-8.53932E+00 8.05299E-04-8.87600E-05
 -1      5857-1.28760E+01-6.84338E+00-4.15342E-04-1.21163E+01-8.64997E-04 4.99774E-04
 -1      5858-1.28540E+01-6.86389E+00-9.94636E-04-1.21061E+01-7.24435E-04 4.37848E-04
 -1      5859-1.28466E+01-6.87059E+00-1.27556E-03-1.21028E+01-3.84483E-12 2.87270E-12
 -1      5860-1.28540E+01-6.86389E+00-9.94636E-04-1.21061E+01 7.24435E-04-4.37848E-04
 -1      5861-1.28760E+01-6.84338E+00-4.15342E-04-1.21163E+01 8.64997E-04-4.99774E-04
 -1      5862-1.01896E+01-1.27361E+01-6.36943E-04-1.42161E+01-9.67010E-04 9.83323E-04
 -1      5863-1.01765E+01-1.27470E+01-1.47985E-03-1.42000E+01-8.22835E-04 8.51814E-04
 -1      5864-1.01720E+01-1.27506E+01-1.88353E-03-1.41947E+01 1.27430E-12-9.68024E-13
 -1      5865-1.01765E+01-1.27470E+01-1.47985E-03-1.42000E+01 8.22835E-04-8.51814E-04
 -1      5866-1.01896E+01-1.27361E+01-6.36943E-04-1.42161E+01 9.67010E-04-9.83323E-04
 -1      5867-6.59631E+00-1.89199E+01-8.11086E-04-1.44754E+01-9.72105E-04 1.45282E-03
 -1      5868-6.59232E+00-1.89212E+01-1.89808E-03-1.44572E+01-8.33165E-04 1.25753E-03
 -1      5869-6.59083E+00-1.89215E+01-2.41315E-03-1.44512E+01-2.06533E-13 3.68220E-12
 -1      5870-6.59232E+00-1.89212E+01-1.89808E-03-1.44572E+01 8.33165E-04-1.25753E-03
 -1      5871-6.59631E+00-1.89199E+01-8.11086E-04-1.44754E+01 9.72105E-04-1.45282E-03
 -1      5872-2.84955E+00-2.46453E+01-9.29804E-04-1.28611E+01-8.53684E-04 1.85393E-03
 -1      5873-2.85379E+00-2.46379E+01-2.20792E-03-1.28442E+01-7.34955E-04 1.60437E-03
 -1      5874-2.85498E+00-2.46353E+01-2.80871E-03-1.28386E+01 3.89605E-12-2.31744E-12
 -1      5875-2.85379E+00-2.46379E+01-2.20792E-03-1.28442E+01 7.34955E-04-1.60437E-03
 -1      5876-2.84955E+00-2.46453E+01-9.29804E-04-1.28611E+01 8.53684E-04-1.85393E-03
 -1      5877 3.72866E-01-2.92571E+01-1.00203E-03-9.59876E+00-6.25491E-04 2.15359E-03
 -1      5878 3.62090E-01-2.92428E+01-2.41093E-03-9.58588E+00-5.44452E-04 1.86421E-03
 -1      5879 3.58756E-01-2.92379E+01-3.06947E-03-9.58164E+00 1.33509E-12-2.73072E-12
 -1      5880 3.62090E-01-2.92428E+01-2.41093E-03-9.58588E+00 5.44452E-04-1.86421E-03
 -1      5881 3.72866E-01-2.92571E+01-1.00203E-03-9.59876E+00 6.25491E-04-2.15359E-03
 -1      5882 2.53382E+00-3.22412E+01-1.03898E-03-5.11819E+00-3.20463E-04 2.33821E-03
 -1      5883 2.51884E+00-3.22224E+01-2.52505E-03-5.11139E+00-2.91531E-04 2.02748E-03
 -1      5884 2.51413E+00-3.22161E+01-3.21663E-03-5.10915E+00 1.28947E-12 4.75869E-12
 -1      5885 2.51884E+00-3.22224E+01-2.52505E-03-5.11139E+00 2.91531E-04-2.02748E-03
 -1      5886 2.53382E+00-3.22412E+01-1.03898E-03-5.11819E+00 3.20463E-04-2.33821E-03
 -1      5887 3.28941E+00-3.32724E+01-1.04985E-03 3.61009E-03 2.60093E-05 2.40539E-03
 -1      5888 3.27298E+00-3.32521E+01-2.56851E-03 3.26827E-03-7.11437E-06 2.09522E-03
 -1      5889 3.26779E+00-3.32454E+01-3.27243E-03 3.17583E-03 3.12017E-12 7.25162E-13
 -1      5890 3.27298E+00-3.32521E+01-2.56851E-03 3.26827E-03 7.11437E-06-2.09522E-03
 -1      5891 3.28941E+00-3.32724E+01-1.04985E-03 3.61009E-03-2.60093E-05-2.40539E-03
 -1      5892 2.52666E+00-3.22537E+01-1.04134E-03 5.11390E+00 3.81478E-04 2.35901E-03
 -1      5893 2.51168E+00-3.22349E+01-2.55588E-03 5.10645E+00 2.81217E-04 2.07455E-03
 -1      5894 2.50693E+00-3.22286E+01-3.25485E-03 5.10403E+00-4.81396E-13-9.21416E-13
 -1      5895 2.51168E+00-3.22349E+01-2.55588E-03 5.10645E+00-2.81217E-04-2.07455E-03
 -1      5896 2.52666E+00-3.22537E+01-1.04134E-03 5.11390E+00-3.81478E-04-2.35901E-03
 -1      5897 3.76544E-01-2.93322E+01-1.01827E-03 9.56967E+00 7.17355E-04 2.20566E-03
 -1      5898 3.65637E-01-2.93175E+01-2.49825E-03 9.55622E+00 5.50001E-04 1.97618E-03
 -1      5899 3.62179E-01-2.93126E+01-3.17779E-03 9.55184E+00 1.16431E-12-8.80270E-13
 -1      5900 3.65637E-01-2.93175E+01-2.49825E-03 9.55622E+00-5.50001E-04-1.97618E-03
 -1      5901 3.76544E-01-2.93322E+01-1.01827E-03 9.56967E+00-7.17355E-04-2.20566E-03
 -1      5902-2.80541E+00-2.48830E+01-9.88804E-04 1.28269E+01 1.01064E-03 1.95337E-03
 -1      5903-2.81025E+00-2.48746E+01-2.40779E-03 1.28095E+01 7.81788E-04 1.81277E-03
 -1      5904-2.81178E+00-2.48717E+01-3.05664E-03 1.28038E+01 8.61892E-13-7.51714E-13
 -1      5905-2.81025E+00-2.48746E+01-2.40779E-03 1.28095E+01-7.81788E-04-1.81277E-03
 -1      5906-2.80541E+00-2.48830E+01-9.88804E-04 1.28269E+01-1.01064E-03-1.95337E-03
 -1      5907-6.49196E+00-1.94590E+01-9.59018E-04 1.45191E+01 1.23538E-03 1.60574E-03
 -1      5908-6.48965E+00-1.94578E+01-2.29677E-03 1.45004E+01 9.61576E-04 1.59586E-03
 -1      5909-6.48891E+00-1.94573E+01-2.90944E-03 1.44942E+01 5.86466E-13-6.52342E-13
 -1      5910-6.48965E+00-1.94578E+01-2.29677E-03 1.45004E+01-9.61576E-04-1.59586E-03
 -1      5911-6.49196E+00-1.94590E+01-9.59018E-04 1.45191E+01-1.23538E-03-1.60574E-03
 -1      5912-1.00647E+01-1.37105E+01-9.62417E-04 1.45115E+01 1.38073E-03 1.16109E-03
 -1      5913-1.00552E+01-1.37166E+01-2.19615E-03 1.44943E+01 1.08932E-03 1.32068E-03
 -1      5914-1.00522E+01-1.37185E+01-2.77716E-03 1.44887E+01 7.42339E-13-7.71575E-13
 -1      5915-1.00552E+01-1.37166E+01-2.19615E-03 1.44943E+01-1.08932E-03-1.32068E-03
 -1      5916-1.00647E+01-1.37105E+01-9.62417E-04 1.45115E+01-1.38073E-03-1.16109E-03
 -1      5917-1.29103E+01-8.28873E+00-1.01075E-03 1.29193E+01 1.36171E-03 6.01114E-04
 -1      5918-1.28947E+01-8.30089E+00-2.14614E-03 1.29064E+01 1.12969E-03 9.63900E-04
 -1      5919-1.28898E+01-8.30498E+00-2.72466E-03 1.29021E+01 4.87219E-14-9.48994E-13
 -1      5920-1.28947E+01-8.30089E+00-2.14614E-03 1.29064E+01-1.12969E-03-9.63900E-04
 -1      5921-1.29103E+01-8.28873E+00-1.01075E-03 1.29193E+01-1.36171E-03-6.01114E-04
 -1      5922-1.45186E+01-3.74171E+00-1.18683E-03 1.00835E+01 1.19825E-03-7.82746E-05
 -1      5923-1.44987E+01-3.75796E+00-2.16576E-03 1.00770E+01 1.07027E-03 3.86270E-04
 -1      5924-1.44924E+01-3.76354E+00-2.79511E-03 1.00749E+01-4.87268E-13-5.04023E-13
 -1      5925-1.44987E+01-3.75796E+00-2.16576E-03 1.00770E+01-1.07027E-03-3.86270E-04
 -1      5926-1.45186E+01-3.74171E+00-1.18683E-03 1.00835E+01-1.19825E-03 7.82746E-05
 -1      5927-1.45544E+01-4.36999E-01-1.67349E-03 6.50104E+00 2.65501E-04-5.75770E-04
 -1      5928-1.45329E+01-4.54600E-01-2.63169E-03 6.50299E+00 4.86679E-04-2.97915E-04
 -1      5929-1.45259E+01-4.60670E-01-3.41660E-03 6.50374E+00-6.66175E-13-1.41140E-13
 -1      5930-1.45329E+01-4.54600E-01-2.63169E-03 6.50299E+00-4.86679E-04 2.97915E-04
 -1      5931-1.45544E+01-4.36999E-01-1.67349E-03 6.50104E+00-2.65501E-04 5.75770E-04
 -1      5932-1.28981E+01 1.52507E+00-8.74701E-05 2.71207E+00 2.44016E-04 5.40575E-04
 -1      5933-1.28795E+01 1.50791E+00-2.79285E-04 2.72365E+00-2.29086E-04-6.29508E-04
 -1      5934-1.28730E+01 1.50211E+00-1.07900E-03 2.72800E+00-1.15706E-12 6.13760E-13
 -1      5935-1.28795E+01 1.50791E+00-2.79285E-04 2.72365E+00 2.29086E-04 6.29508E-04
 -1      5936-1.28981E+01 1.52507E+00-8.74701E-05 2.71207E+00-2.44016E-04-5.40575E-04
 -1      5937-9.58042E+00 2.17192E+00-5.95501E-03-8.04787E-01 2.67522E-03 4.40314E-03
 -1      5938-9.56914E+00 2.15914E+00-6.25537E-03-7.88572E-01 1.75630E-03 1.26198E-03
 -1      5939-9.56428E+00 2.15618E+00-6.77331E-03-7.82531E-01-1.54817E-12 1.48605E-12
 -1      5940-9.56914E+00 2.15914E+00-6.25537E-03-7.88572E-01-1.75630E-03-1.26198E-03
 -1      5941-9.58042E+00 2.17192E+00-5.95501E-03-8.04787E-01-2.67522E-03-4.40314E-03
 -1      5942-4.65202E+00 2.20161E+00 5.47347E-02-4.05108E+00 2.14166E-02 8.94043E-03
 -1      5943-4.62773E+00 2.15359E+00 6.17328E-02-3.98426E+00 1.59066E-02 3.96663E-03
 -1      5944-4.61962E+00 2.13765E+00 6.57893E-02-3.96720E+00-2.33275E-12 3.50798E-12
 -1      5945-4.62773E+00 2.15359E+00 6.17328E-02-3.98426E+00-1.59066E-02-3.96663E-03
 -1      5946-4.65202E+00 2.20161E+00 5.47347E-02-4.05108E+00-2.14166E-02-8.94043E-03
 -1      5947-6.63713E-01-9.11696E-02-2.50585E-03 3.79956E-01-1.46956E-02 5.31911E-03
 -1      5948-6.50738E-01-8.85226E-02-1.45890E-03 3.97180E-01-9.44586E-03 5.06565E-03
 -1      5949-6.47008E-01-8.76925E-02-7.04091E-04 4.01976E-01 2.47361E-12-5.02879E-12
 -1      5950-6.50738E-01-8.85226E-02-1.45890E-03 3.97180E-01 9.44586E-03-5.06565E-03
 -1      5951-6.63713E-01-9.11696E-02-2.50585E-03 3.79956E-01 1.46956E-02-5.31911E-03
 -1      5952-4.04582E+00 5.28165E-01-4.32169E-03 4.06513E-01-7.29120E-03-1.25360E-03
 -1      5953-4.01953E+00 5.16700E-01-5.92995E-03 3.95349E-01-5.92387E-03-2.39498E-03
 -1      5954-4.01143E+00 5.13434E-01-6.51552E-03 3.91984E-01 2.89293E-12-7.41880E-12
 -1      5955-4.01953E+00 5.16700E-01-5.92995E-03 3.95349E-01 5.92387E-03 2.39498E-03
 -1      5956-4.04582E+00 5.28165E-01-4.32169E-03 4.06513E-01 7.29120E-03 1.25360E-03
 -1      5957-8.59359E+00 4.41301E-01-1.91019E-03-1.70837E+00-4.74032E-03-1.31607E-03
 -1      5958-8.56562E+00 4.20363E-01-2.95666E-03-1.72341E+00-4.07658E-03-2.72353E-03
 -1      5959-8.55707E+00 4.14099E-01-3.31838E-03-1.72794E+00-4.64692E-12-1.36517E-12
 -1      5960-8.56562E+00 4.20363E-01-2.95666E-03-1.72341E+00 4.07658E-03 2.72353E-03
 -1      5961-8.59359E+00 4.41301E-01-1.91019E-03-1.70837E+00 4.74032E-03 1.31607E-03
 -1      5962-1.22304E+01-1.28049E+00-8.12661E-04-5.37804E+00-2.85809E-03-9.40496E-04
 -1      5963-1.22028E+01-1.30453E+00-1.70451E-03-5.38752E+00-3.04381E-03-2.22459E-03
 -1      5964-1.21942E+01-1.31174E+00-2.03345E-03-5.39033E+00-3.24734E-12 1.45612E-11
 -1      5965-1.22028E+01-1.30453E+00-1.70451E-03-5.38752E+00 3.04381E-03 2.22459E-03
 -1      5966-1.22304E+01-1.28049E+00-8.12661E-04-5.37804E+00 2.85809E-03 9.40496E-04
 -1      5967-1.38398E+01-4.90051E+00-2.59917E-04-9.45315E+00-2.48707E-03 9.17625E-05
 -1      5968-1.38152E+01-4.92169E+00-1.25204E-03-9.45410E+00-2.78515E-03-1.05639E-03
 -1      5969-1.38074E+01-4.92800E+00-1.60514E-03-9.45425E+00-1.69685E-12-9.71205E-12
 -1      5970-1.38152E+01-4.92169E+00-1.25204E-03-9.45410E+00 2.78515E-03 1.05639E-03
 -1      5971-1.38398E+01-4.90051E+00-2.59917E-04-9.45315E+00 2.48707E-03-9.17625E-05
 -1      5972-1.32760E+01-1.01036E+01-2.77010E-04-1.28371E+01-2.60153E-03 1.38749E-03
 -1      5973-1.32564E+01-1.01182E+01-1.60088E-03-1.28305E+01-2.79914E-03 3.01783E-04
 -1      5974-1.32501E+01-1.01224E+01-2.06462E-03-1.28283E+01 1.02671E-12 1.06409E-11
 -1      5975-1.32564E+01-1.01182E+01-1.60088E-03-1.28305E+01 2.79914E-03-3.01783E-04
 -1      5976-1.32760E+01-1.01036E+01-2.77010E-04-1.28371E+01 2.60153E-03-1.38749E-03
 -1      5977-1.09931E+01-1.62598E+01-5.12539E-04-1.47786E+01-2.77637E-03 2.77393E-03
 -1      5978-1.09796E+01-1.62662E+01-2.22195E-03-1.47672E+01-2.79697E-03 1.64591E-03
 -1      5979-1.09751E+01-1.62677E+01-2.81270E-03-1.47634E+01 2.99210E-12 7.11876E-12
 -1      5980-1.09796E+01-1.62662E+01-2.22195E-03-1.47672E+01 2.79697E-03-1.64591E-03
 -1      5981-1.09931E+01-1.62598E+01-5.12539E-04-1.47786E+01 2.77637E-03-2.77393E-03
 -1      5982-7.70630E+00-2.26318E+01-8.11698E-04-1.49070E+01-2.72393E-03 4.05901E-03
 -1      5983-7.69906E+00-2.26299E+01-2.87515E-03-1.48935E+01-2.61066E-03 2.83491E-03
 -1      5984-7.69655E+00-2.26288E+01-3.58409E-03-1.48892E+01 1.26348E-12 5.29161E-12
 -1      5985-7.69906E+00-2.26299E+01-2.87515E-03-1.48935E+01 2.61066E-03-2.83491E-03
 -1      5986-7.70630E+00-2.26318E+01-8.11698E-04-1.49070E+01 2.72393E-03-4.05901E-03
 -1      5987-4.17838E+00-2.84934E+01-1.07142E-03-1.31772E+01-2.37007E-03 5.13339E-03
 -1      5988-4.17696E+00-2.84841E+01-3.41173E-03-1.31644E+01-2.19265E-03 3.80013E-03
 -1      5989-4.17628E+00-2.84806E+01-4.21408E-03-1.31603E+01 6.81150E-13-3.22108E-12
 -1      5990-4.17696E+00-2.84841E+01-3.41173E-03-1.31644E+01 2.19265E-03-3.80013E-03
 -1      5991-4.17838E+00-2.84934E+01-1.07142E-03-1.31772E+01 2.37007E-03-5.13339E-03
 -1      5992-1.10124E+00-3.31980E+01-1.26268E-03-9.80711E+00-1.74549E-03 5.93162E-03
 -1      5993-1.10450E+00-3.31830E+01-3.79437E-03-9.79735E+00-1.56573E-03 4.50605E-03
 -1      5994-1.10531E+00-3.31776E+01-4.66347E-03-9.79421E+00 3.67659E-12-2.89363E-12
 -1      5995-1.10450E+00-3.31830E+01-3.79437E-03-9.79735E+00 1.56573E-03-4.50605E-03
 -1      5996-1.10124E+00-3.31980E+01-1.26268E-03-9.80711E+00 1.74549E-03-5.93162E-03
 -1      5997 9.77715E-01-3.62344E+01-1.38394E-03-5.22247E+00-9.28887E-04 6.42750E-03
 -1      5998 9.71415E-01-3.62157E+01-4.02655E-03-5.21730E+00-7.85942E-04 4.93936E-03
 -1      5999 9.69647E-01-3.62091E+01-4.93857E-03-5.21566E+00 1.81401E-12-7.58812E-13
 -1      6000 9.71415E-01-3.62157E+01-4.02655E-03-5.21730E+00 7.85942E-04-4.93936E-03
 -1      6001 9.77715E-01-3.62344E+01-1.38394E-03-5.22247E+00 9.28887E-04-6.42750E-03
 -1      6002 1.70878E+00-3.72781E+01-1.44608E-03 3.33417E-03-1.21511E-05 6.61905E-03
 -1      6003 1.70144E+00-3.72581E+01-4.12810E-03 3.09278E-03 7.95913E-05 5.09945E-03
 -1      6004 1.69936E+00-3.72511E+01-5.06383E-03 2.94122E-03-7.39267E-13 1.33375E-12
 -1      6005 1.70144E+00-3.72581E+01-4.12810E-03 3.09278E-03-7.95913E-05-5.09945E-03
 -1      6006 1.70878E+00-3.72781E+01-1.44608E-03 3.33417E-03 1.21511E-05-6.61905E-03
 -1      6007 9.75162E-01-3.62311E+01-1.46185E-03 5.22211E+00 9.15128E-04 6.52210E-03
 -1      6008 9.68896E-01-3.62122E+01-4.11959E-03 5.21647E+00 9.63303E-04 4.99483E-03
 -1      6009 9.67192E-01-3.62056E+01-5.06485E-03 5.21452E+00 4.02753E-12-3.80643E-13
 -1      6010 9.68896E-01-3.62122E+01-4.11959E-03 5.21647E+00-9.63303E-04-4.99483E-03
 -1      6011 9.75162E-01-3.62311E+01-1.46185E-03 5.22211E+00-9.15128E-04-6.52210E-03
 -1      6012-1.09686E+00-3.32379E+01-1.43979E-03 9.79612E+00 1.76938E-03 6.16889E-03
 -1      6013-1.10015E+00-3.32223E+01-4.01404E-03 9.78594E+00 1.80136E-03 4.64197E-03
 -1      6014-1.10082E+00-3.32168E+01-4.95943E-03 9.78247E+00 9.41081E-13-1.90137E-14
 -1      6015-1.10015E+00-3.32223E+01-4.01404E-03 9.78594E+00-1.80136E-03-4.64197E-03
 -1      6016-1.09686E+00-3.32379E+01-1.43979E-03 9.79612E+00-1.76938E-03-6.16889E-03
 -1      6017-4.15911E+00-2.86687E+01-1.39136E-03 1.31860E+01 2.47894E-03 5.60569E-03
 -1      6018-4.15802E+00-2.86580E+01-3.82760E-03 1.31729E+01 2.53613E-03 4.06410E-03
 -1      6019-4.15715E+00-2.86542E+01-4.76848E-03 1.31684E+01 1.80461E-12-1.11857E-12
 -1      6020-4.15802E+00-2.86580E+01-3.82760E-03 1.31729E+01-2.53613E-03-4.06410E-03
 -1      6021-4.15911E+00-2.86687E+01-1.39136E-03 1.31860E+01-2.47894E-03-5.60569E-03
 -1      6022-7.69470E+00-2.30697E+01-1.29954E-03 1.50279E+01 2.97142E-03 4.91138E-03
 -1      6023-7.68857E+00-2.30648E+01-3.53612E-03 1.50138E+01 3.10792E-03 3.29557E-03
 -1      6024-7.68584E+00-2.30630E+01-4.46678E-03 1.50090E+01 1.22125E-12-8.60474E-13
 -1      6025-7.68857E+00-2.30648E+01-3.53612E-03 1.50138E+01-3.10792E-03-3.29557E-03
 -1      6026-7.69470E+00-2.30697E+01-1.29954E-03 1.50279E+01-2.97142E-03-4.91138E-03
 -1      6027-1.10979E+01-1.70847E+01-1.20073E-03 1.51856E+01 3.20496E-03 4.16218E-03
 -1      6028-1.10870E+01-1.70856E+01-3.19637E-03 1.51728E+01 3.46150E-03 2.37769E-03
 -1      6029-1.10824E+01-1.70858E+01-4.10900E-03 1.51685E+01 5.08440E-15-6.85393E-13
 -1      6030-1.10870E+01-1.70856E+01-3.19637E-03 1.51728E+01-3.46150E-03-2.37769E-03
 -1      6031-1.10979E+01-1.70847E+01-1.20073E-03 1.51856E+01-3.20496E-03-4.16218E-03
 -1      6032-1.37671E+01-1.13599E+01-8.74160E-04 1.37686E+01 3.07936E-03 3.62099E-03
 -1      6033-1.37527E+01-1.13658E+01-2.49817E-03 1.37590E+01 3.45775E-03 1.44297E-03
 -1      6034-1.37465E+01-1.13678E+01-3.31173E-03 1.37559E+01-6.93482E-14-6.67949E-13
 -1      6035-1.37527E+01-1.13658E+01-2.49817E-03 1.37590E+01-3.45775E-03-1.44297E-03
 -1      6036-1.37671E+01-1.13599E+01-8.74160E-04 1.37686E+01-3.07936E-03-3.62099E-03
 -1      6037-1.51999E+01-6.44565E+00-6.11299E-04 1.11063E+01 2.65143E-03 3.32456E-03
 -1      6038-1.51848E+01-6.45529E+00-1.91074E-03 1.11017E+01 3.01066E-03 6.93990E-04
 -1      6039-1.51777E+01-6.45839E+00-2.50809E-03 1.11007E+01-5.33841E-13 1.22331E-13
 -1      6040-1.51848E+01-6.45529E+00-1.91074E-03 1.11017E+01-3.01066E-03-6.93990E-04
 -1      6041-1.51999E+01-6.44565E+00-6.11299E-04 1.11063E+01-2.65143E-03-3.32456E-03
 -1      6042-1.50465E+01-2.71750E+00 1.64300E-03 7.68821E+00 1.84679E-03 4.75484E-03
 -1      6043-1.50354E+01-2.72919E+00 1.59625E-03 7.68937E+00 1.49545E-03 1.38028E-03
 -1      6044-1.50294E+01-2.73245E+00 2.02932E-03 7.69091E+00-9.75208E-13 9.43264E-13
 -1      6045-1.50354E+01-2.72919E+00 1.59625E-03 7.68937E+00-1.49545E-03-1.38028E-03
 -1      6046-1.50465E+01-2.71750E+00 1.64300E-03 7.68821E+00-1.84679E-03-4.75484E-03
 -1      6047-1.31510E+01-3.12952E-01 3.29704E-03 4.03942E+00 2.64977E-03 5.15079E-03
 -1      6048-1.31491E+01-3.26872E-01 4.29590E-03 4.04632E+00 7.15502E-04 3.65884E-03
 -1      6049-1.31477E+01-3.29686E-01 6.42152E-03 4.05052E+00-1.38755E-12 1.47465E-12
 -1      6050-1.31491E+01-3.26872E-01 4.29590E-03 4.04632E+00-7.15502E-04-3.65884E-03
 -1      6051-1.31510E+01-3.12952E-01 3.29704E-03 4.03942E+00-2.64977E-03-5.15079E-03
 -1      6052-9.35900E+00 8.01176E-01 1.01383E-02 7.15789E-01 1.00689E-02-3.31347E-03
 -1      6053-9.34995E+00 7.89550E-01 1.55343E-02 7.16304E-01 3.04093E-03 2.67859E-03
 -1      6054-9.35221E+00 7.87768E-01 2.17619E-02 7.17592E-01-1.66776E-12 3.05913E-12
 -1      6055-9.34995E+00 7.89550E-01 1.55343E-02 7.16304E-01-3.04093E-03-2.67859E-03
 -1      6056-9.35900E+00 8.01176E-01 1.01383E-02 7.15789E-01-1.00689E-02 3.31347E-03
 -1      6057-3.32008E+00 1.05521E+00-4.72075E-02-2.25945E+00 1.98064E-05-1.04900E-01
 -1      6058-3.25531E+00 1.02573E+00-7.42226E-02-2.17244E+00 4.71089E-03-7.21292E-02
 -1      6059-3.23598E+00 1.01689E+00-8.45722E-02-2.15563E+00-1.79841E-12 5.66098E-12
 -1      6060-3.25531E+00 1.02573E+00-7.42226E-02-2.17244E+00-4.71089E-03 7.21292E-02
 -1      6061-3.32008E+00 1.05521E+00-4.72075E-02-2.25945E+00-1.98064E-05 1.04900E-01
 -1      6062-8.08543E+01 6.37770E+01 9.09941E+00 2.75532E+01 8.96228E+00 1.95941E+00
 -1      6063-1.35760E+02-1.57075E+02-4.13621E+01 8.64093E+01 1.91228E+01-9.51880E+00
 -1      6064 1.05732E+02 1.28570E+02 3.03915E+01-4.04750E+01 1.04712E+01 2.74051E+00
 -1      6065-5.64121E+01 5.92078E+01 2.33038E+00 1.65571E+01 7.10426E+00-2.25603E+00
 -1      6066-1.21786E+02-1.34588E+02-4.07844E+01 7.93998E+01 5.14513E+00 2.20336E+00
 -1      6067 1.08305E+02 1.35446E+02 5.96745E+01-4.64201E+01 3.55031E+00 8.64738E+00
 -1      6068-4.57488E+01 5.31260E+01 4.72734E+00 1.47221E+01 2.31107E+00 2.75954E-01
 -1      6069-1.23207E+02-1.36613E+02-4.12611E+01 7.94400E+01-1.07961E-10-9.72731E-12
 -1      6070 1.07331E+02 1.35054E+02 6.88616E+01-4.60164E+01 1.65762E-10 8.28711E-11
 -1      6071-4.57488E+01 5.31260E+01 4.72734E+00 1.47221E+01-2.31107E+00-2.75954E-01
 -1      6072-1.21786E+02-1.34588E+02-4.07844E+01 7.93998E+01-5.14513E+00-2.20336E+00
 -1      6073 1.08305E+02 1.35446E+02 5.96745E+01-4.64201E+01-3.55031E+00-8.64738E+00
 -1      6074-5.64121E+01 5.92078E+01 2.33038E+00 1.65571E+01-7.10426E+00 2.25603E+00
 -1      6075-1.35760E+02-1.57075E+02-4.13621E+01 8.64093E+01-1.91228E+01 9.51880E+00
 -1      6076 1.05732E+02 1.28570E+02 3.03915E+01-4.04750E+01-1.04712E+01-2.74051E+00
 -1      6077-8.08543E+01 6.37770E+01 9.09941E+00 2.75532E+01-8.96228E+00-1.95941E+00
 -1      6078 3.66856E+01 1.65123E+01-2.41365E+00 1.11816E+01 2.96252E+00-3.66318E+00
 -1      6079 2.83610E+01 1.65475E+00 3.13335E+00-2.24223E+01 2.50372E+00-2.24020E+00
 -1      6080 8.16717E+01 1.51952E+01 2.58780E+00 1.32331E+01-3.44849E+00-3.63333E+00
 -1      6081 4.43288E+01 1.06349E+01-2.86756E+00 1.19993E+01 1.19019E+00-3.47950E+00
 -1      6082 3.57647E+01-3.85008E+00-7.39192E-01-2.43455E+01 3.28442E+00-2.04838E+00
 -1      6083 8.95433E+01 1.37399E+01 6.79992E-01 1.27114E+01 2.86100E-02-5.71362E+00
 -1      6084 4.79864E+01 1.25625E+01-2.84268E+00 1.33939E+01 7.19288E-01-1.23721E+00
 -1      6085 3.93685E+01-3.17164E+00 6.73617E-03-2.46086E+01 7.81437E-11-1.96296E-11
 -1      6086 9.38832E+01 1.43000E+01 7.21948E-01 1.39580E+01-3.95872E-12-6.95776E-11
 -1      6087 4.79864E+01 1.25625E+01-2.84268E+00 1.33939E+01-7.19288E-01 1.23721E+00
 -1      6088 3.57647E+01-3.85008E+00-7.39192E-01-2.43455E+01-3.28442E+00 2.04838E+00
 -1      6089 8.95433E+01 1.37399E+01 6.79992E-01 1.27114E+01-2.86100E-02 5.71362E+00
 -1      6090 4.43288E+01 1.06349E+01-2.86756E+00 1.19993E+01-1.19019E+00 3.47950E+00
 -1      6091 2.83610E+01 1.65475E+00 3.13335E+00-2.24223E+01-2.50372E+00 2.24020E+00
 -1      6092 8.16717E+01 1.51952E+01 2.58780E+00 1.32331E+01 3.44849E+00 3.63333E+00
 -1      6093 3.66856E+01 1.65123E+01-2.41365E+00 1.11816E+01-2.96252E+00 3.66318E+00
 -1      6094 5.16334E+01 1.65262E+01 7.27264E-01 1.08655E+01 5.57490E-02-6.14263E-01
 -1      6095 4.40718E+01 1.03647E+01-2.27832E+00 7.56362E+00 1.16667E+00-1.72727E+00
 -1      6096 6.71072E+01 1.47356E+01 2.06647E-02 2.12450E+01-2.68715E-01-2.36088E+00
 -1      6097 5.19790E+01 1.75502E+01-1.56169E-01 1.21463E+01-2.09112E-01-8.35009E-01
 -1      6098 4.78293E+01 1.09593E+01-2.46153E+00 8.42702E+00 6.39271E-01-1.80314E+00
 -1      6099 6.90453E+01 1.65978E+01-2.06179E-02 2.15773E+01-2.23213E-01-1.71344E+00
 -1      6100 5.22570E+01 1.76125E+01-2.95187E-01 1.31590E+01 5.53993E-02-3.61265E-01
 -1      6101 4.90069E+01 1.08725E+01-3.01865E+00 8.93298E+00-5.77330E-12 1.73212E-11
 -1      6102 6.99327E+01 1.65420E+01-5.78200E-01 2.22430E+01-4.51267E-12 2.15546E-12
 -1      6103 5.22570E+01 1.76125E+01-2.95187E-01 1.31590E+01-5.53993E-02 3.61265E-01
 -1      6104 4.78293E+01 1.09593E+01-2.46153E+00 8.42702E+00-6.39271E-01 1.80314E+00
 -1      6105 6.90453E+01 1.65978E+01-2.06179E-02 2.15773E+01 2.23213E-01 1.71344E+00
 -1      6106 5.19790E+01 1.75502E+01-1.56169E-01 1.21463E+01 2.09112E-01 8.35009E-01
 -1      6107 4.40718E+01 1.03647E+01-2.27832E+00 7.56362E+00-1.16667E+00 1.72727E+00
 -1      6108 6.71072E+01 1.47356E+01 2.06647E-02 2.12450E+01 2.68715E-01 2.36088E+00
 -1      6109 5.16334E+01 1.65262E+01 7.27264E-01 1.08655E+01-5.57490E-02 6.14263E-01
 -1      6110 4.76122E+01 2.23223E+01-2.20705E-01 2.33448E+01 9.71384E-02-2.54268E-01
 -1      6111 5.03375E+01 1.86961E+01 2.86275E-01 1.69300E+01-1.74429E-01-4.04021E-01
 -1      6112 5.59874E+01 2.19374E+01-1.43082E-01 3.04043E+01-4.31975E-01-4.17840E-01
 -1      6113 4.73091E+01 2.23237E+01-2.97120E-01 2.37474E+01-9.92598E-02-1.19454E-01
 -1      6114 5.06506E+01 1.84822E+01-2.70593E-01 1.75535E+01-4.91346E-02-5.33504E-01
 -1      6115 5.62730E+01 2.21000E+01-6.33400E-01 3.05133E+01-1.98585E-01-3.94629E-01
 -1      6116 4.70981E+01 2.26568E+01-3.51124E-01 2.40062E+01 3.31703E-03-6.55360E-02
 -1      6117 5.08338E+01 1.86793E+01-4.59800E-01 1.78535E+01 7.32374E-12-3.30652E-12
 -1      6118 5.62502E+01 2.21448E+01-7.92909E-01 3.07209E+01 5.24147E-12-5.43990E-12
 -1      6119 4.70981E+01 2.26568E+01-3.51124E-01 2.40062E+01-3.31703E-03 6.55360E-02
 -1      6120 5.06506E+01 1.84822E+01-2.70593E-01 1.75535E+01 4.91346E-02 5.33504E-01
 -1      6121 5.62730E+01 2.21000E+01-6.33400E-01 3.05133E+01 1.98585E-01 3.94629E-01
 -1      6122 4.73091E+01 2.23237E+01-2.97120E-01 2.37474E+01 9.92598E-02 1.19454E-01
 -1      6123 5.03375E+01 1.86961E+01 2.86275E-01 1.69300E+01 1.74429E-01 4.04021E-01
 -1      6124 5.59874E+01 2.19374E+01-1.43082E-01 3.04043E+01 4.31975E-01 4.17840E-01
 -1      6125 4.76122E+01 2.23223E+01-2.20705E-01 2.33448E+01-9.71384E-02 2.54268E-01
 -1      6126 4.16573E+01 3.29253E+01 2.88331E-02 2.84712E+01 2.42261E-02-1.24180E-02
 -1      6127 4.41651E+01 2.75091E+01-1.63754E-01 2.58392E+01-1.41601E-02-5.43277E-02
 -1      6128 4.86044E+01 3.26858E+01-4.08310E-02 3.56301E+01-3.14904E-02-1.16353E-01
 -1      6129 4.15413E+01 3.30210E+01-2.95247E-03 2.85685E+01-1.08539E-02 2.64140E-02
 -1      6130 4.41381E+01 2.76427E+01-2.45364E-01 2.60411E+01-1.51684E-02-1.04327E-01
 -1      6131 4.86912E+01 3.28842E+01-5.41299E-02 3.56442E+01-8.13355E-03-3.57731E-02
 -1      6132 4.14338E+01 3.30932E+01-1.60779E-02 2.86652E+01 1.33015E-02 2.08254E-04
 -1      6133 4.41014E+01 2.77258E+01-3.21315E-01 2.61514E+01-5.02404E-13-6.95486E-12
 -1      6134 4.86428E+01 3.28826E+01-1.21753E-01 3.57164E+01 4.01096E-13-2.99590E-12
 -1      6135 4.14338E+01 3.30932E+01-1.60779E-02 2.86652E+01-1.33015E-02-2.08254E-04
 -1      6136 4.41381E+01 2.76427E+01-2.45364E-01 2.60411E+01 1.51684E-02 1.04327E-01
 -1      6137 4.86912E+01 3.28842E+01-5.41299E-02 3.56442E+01 8.13355E-03 3.57731E-02
 -1      6138 4.15413E+01 3.30210E+01-2.95247E-03 2.85685E+01 1.08539E-02-2.64140E-02
 -1      6139 4.41651E+01 2.75091E+01-1.63754E-01 2.58392E+01 1.41601E-02 5.43277E-02
 -1      6140 4.86044E+01 3.26858E+01-4.08310E-02 3.56301E+01 3.14904E-02 1.16353E-01
 -1      6141 4.16573E+01 3.29253E+01 2.88331E-02 2.84712E+01-2.42261E-02 1.24180E-02
 -1      6142 3.55425E+01 4.44552E+01-2.30340E-02 3.14922E+01 3.69508E-02-2.51165E-02
 -1      6143 3.86349E+01 3.86551E+01 1.96516E-02 3.00185E+01 2.07361E-02 1.17590E-03
 -1      6144 4.11406E+01 4.56661E+01-4.83983E-03 3.91619E+01 5.54159E-02 1.51320E-02
 -1      6145 3.56309E+01 4.44173E+01-3.08649E-02 3.16203E+01 4.40670E-02 2.07880E-03
 -1      6146 3.86353E+01 3.86532E+01-3.18295E-02 3.01217E+01 2.24038E-02-9.10284E-03
 -1      6147 4.12470E+01 4.57286E+01-2.31301E-02 3.92394E+01 5.26748E-02 2.42334E-02
 -1      6148 3.56503E+01 4.44438E+01-4.70613E-02 3.16796E+01 2.50630E-02-3.15138E-03
 -1      6149 3.86148E+01 3.86958E+01-5.32481E-02 3.01637E+01-2.97864E-12 2.07446E-12
 -1      6150 4.12420E+01 4.57443E+01-2.83644E-02 3.92758E+01 1.04769E-12 5.87070E-12
 -1      6151 3.56503E+01 4.44438E+01-4.70613E-02 3.16796E+01-2.50630E-02 3.15138E-03
 -1      6152 3.86353E+01 3.86532E+01-3.18295E-02 3.01217E+01-2.24038E-02 9.10284E-03
 -1      6153 4.12470E+01 4.57286E+01-2.31301E-02 3.92394E+01-5.26748E-02-2.42334E-02
 -1      6154 3.56309E+01 4.44173E+01-3.08649E-02 3.16203E+01-4.40670E-02-2.07880E-03
 -1      6155 3.86349E+01 3.86551E+01 1.96516E-02 3.00185E+01-2.07361E-02-1.17590E-03
 -1      6156 4.11406E+01 4.56661E+01-4.83983E-03 3.91619E+01-5.54159E-02-1.51320E-02
 -1      6157 3.55425E+01 4.44552E+01-2.30340E-02 3.14922E+01-3.69508E-02 2.51165E-02
 -1      6158 2.96045E+01 5.64751E+01-9.75888E-03 3.17200E+01 3.94473E-02-3.12367E-02
 -1      6159 3.26479E+01 5.04211E+01-2.29776E-02 3.16957E+01 5.79738E-02-2.47059E-02
 -1      6160 3.34548E+01 5.99263E+01 1.91675E-02 4.01594E+01 1.13729E-01 1.04729E-02
 -1      6161 2.97586E+01 5.64706E+01-2.76265E-02 3.19143E+01 6.41748E-02-2.89968E-02
 -1      6162 3.27353E+01 5.04343E+01-4.66260E-02 3.18091E+01 5.19071E-02-1.62620E-02
 -1      6163 3.35769E+01 6.00355E+01 5.79851E-02 4.02816E+01 8.55327E-02 1.64372E-02
 -1      6164 2.98214E+01 5.64961E+01-4.33203E-02 3.20014E+01 3.06366E-02-1.33488E-02
 -1      6165 3.27534E+01 5.04568E+01-5.69313E-02 3.18457E+01 5.35811E-12 6.62548E-12
 -1      6166 3.36005E+01 6.00693E+01 6.73640E-02 4.03254E+01 5.52754E-12 4.49801E-12
 -1      6167 2.98214E+01 5.64961E+01-4.33203E-02 3.20014E+01-3.06366E-02 1.33488E-02
 -1      6168 3.27353E+01 5.04343E+01-4.66260E-02 3.18091E+01-5.19071E-02 1.62620E-02
 -1      6169 3.35769E+01 6.00355E+01 5.79851E-02 4.02816E+01-8.55327E-02-1.64372E-02
 -1      6170 2.97586E+01 5.64706E+01-2.76265E-02 3.19143E+01-6.41748E-02 2.89968E-02
 -1      6171 3.26479E+01 5.04211E+01-2.29776E-02 3.16957E+01-5.79738E-02 2.47059E-02
 -1      6172 3.34548E+01 5.99263E+01 1.91675E-02 4.01594E+01-1.13729E-01-1.04729E-02
 -1      6173 2.96045E+01 5.64751E+01-9.75888E-03 3.17200E+01-3.94473E-02 3.12367E-02
 -1      6174 2.38320E+01 6.80873E+01-1.23856E-02 2.94807E+01 3.97517E-02-4.94863E-02
 -1      6175 2.68152E+01 6.22859E+01-1.88671E-02 3.07516E+01 7.04364E-02-5.93464E-02
 -1      6176 2.54005E+01 7.44364E+01 3.35250E-02 3.80248E+01 1.27223E-01-1.54001E-02
 -1      6177 2.39536E+01 6.81731E+01-3.77007E-02 2.97342E+01 6.90148E-02-6.14138E-02
 -1      6178 2.69163E+01 6.23402E+01-4.58513E-02 3.09034E+01 6.09817E-02-3.82322E-02
 -1      6179 2.55029E+01 7.46113E+01 8.79057E-02 3.81804E+01 9.26327E-02-6.58257E-03
 -1      6180 2.40143E+01 6.82371E+01-5.56897E-02 2.98429E+01 3.16296E-02-2.58004E-02
 -1      6181 2.69441E+01 6.23702E+01-5.46342E-02 3.09484E+01-4.37586E-12-8.65242E-12
 -1      6182 2.55308E+01 7.46710E+01 1.09970E-01 3.82294E+01-8.64834E-12-1.07100E-11
 -1      6183 2.40143E+01 6.82371E+01-5.56897E-02 2.98429E+01-3.16296E-02 2.58004E-02
 -1      6184 2.69163E+01 6.23402E+01-4.58513E-02 3.09034E+01-6.09817E-02 3.82322E-02
 -1      6185 2.55029E+01 7.46113E+01 8.79057E-02 3.81804E+01-9.26327E-02 6.58257E-03
 -1      6186 2.39536E+01 6.81731E+01-3.77007E-02 2.97342E+01-6.90148E-02 6.14138E-02
 -1      6187 2.68152E+01 6.22859E+01-1.88671E-02 3.07516E+01-7.04364E-02 5.93464E-02
 -1      6188 2.54005E+01 7.44364E+01 3.35250E-02 3.80248E+01-1.27223E-01 1.54001E-02
 -1      6189 2.38320E+01 6.80873E+01-1.23856E-02 2.94807E+01-3.97517E-02 4.94863E-02
 -1      6190 1.85571E+01 7.84321E+01-1.29369E-02 2.47801E+01 3.49163E-02-6.47051E-02
 -1      6191 2.12445E+01 7.33383E+01-2.64934E-02 2.73089E+01 6.88070E-02-9.10328E-02
 -1      6192 1.76642E+01 8.78173E+01 4.29333E-02 3.24913E+01 1.16723E-01-5.04972E-02
 -1      6193 1.86003E+01 7.86402E+01-4.38673E-02 2.50413E+01 6.16305E-02-8.82821E-02
 -1      6194 2.13159E+01 7.34687E+01-5.54182E-02 2.74794E+01 5.93501E-02-6.25245E-02
 -1      6195 1.77285E+01 8.80753E+01 1.13353E-01 3.26468E+01 8.37339E-02-3.26219E-02
 -1      6196 1.86328E+01 7.87576E+01-6.30828E-02 2.51531E+01 2.80349E-02-3.69141E-02
 -1      6197 2.13391E+01 7.35189E+01-6.41731E-02 2.75299E+01 2.12980E-12 2.32722E-12
 -1      6198 1.77490E+01 8.81622E+01 1.41421E-01 3.26953E+01 2.54867E-12 4.00406E-12
 -1      6199 1.86328E+01 7.87576E+01-6.30828E-02 2.51531E+01-2.80349E-02 3.69141E-02
 -1      6200 2.13159E+01 7.34687E+01-5.54182E-02 2.74794E+01-5.93501E-02 6.25245E-02
 -1      6201 1.77285E+01 8.80753E+01 1.13353E-01 3.26468E+01-8.37339E-02 3.26219E-02
 -1      6202 1.86003E+01 7.86402E+01-4.38673E-02 2.50413E+01-6.16305E-02 8.82821E-02
 -1      6203 2.12445E+01 7.33383E+01-2.64934E-02 2.73089E+01-6.88070E-02 9.10328E-02
 -1      6204 1.76642E+01 8.78173E+01 4.29333E-02 3.24913E+01-1.16723E-01 5.04972E-02
 -1      6205 1.85571E+01 7.84321E+01-1.29369E-02 2.47801E+01-3.49163E-02 6.47051E-02
 -1      6206 1.42593E+01 8.66192E+01-1.38418E-02 1.79031E+01 2.59375E-02-7.69726E-02
 -1      6207 1.63961E+01 8.26881E+01-2.97087E-02 2.15086E+01 5.68105E-02-1.17108E-01
 -1      6208 1.11689E+01 9.86598E+01 4.88818E-02 2.37602E+01 8.85454E-02-8.09781E-02
 -1      6209 1.42150E+01 8.69443E+01-4.86837E-02 1.81177E+01 4.61500E-02-1.09119E-01
 -1      6210 1.64174E+01 8.28999E+01-6.17611E-02 2.16655E+01 4.88337E-02-8.29292E-02
 -1      6211 1.11912E+01 9.89924E+01 1.28211E-01 2.38857E+01 6.32755E-02-5.46363E-02
 -1      6212 1.42139E+01 8.71130E+01-6.92927E-02 1.82094E+01 2.09727E-02-4.58469E-02
 -1      6213 1.64275E+01 8.29739E+01-7.12488E-02 2.17119E+01 1.08331E-12 1.51414E-12
 -1      6214 1.12007E+01 9.91032E+01 1.60555E-01 2.39244E+01 3.33792E-13 4.90464E-13
 -1      6215 1.42139E+01 8.71130E+01-6.92927E-02 1.82094E+01-2.09727E-02 4.58469E-02
 -1      6216 1.64174E+01 8.28999E+01-6.17611E-02 2.16655E+01-4.88337E-02 8.29292E-02
 -1      6217 1.11912E+01 9.89924E+01 1.28211E-01 2.38857E+01-6.32755E-02 5.46363E-02
 -1      6218 1.42150E+01 8.69443E+01-4.86837E-02 1.81177E+01-4.61500E-02 1.09119E-01
 -1      6219 1.63961E+01 8.26881E+01-2.97087E-02 2.15086E+01-5.68105E-02 1.17108E-01
 -1      6220 1.11689E+01 9.86598E+01 4.88818E-02 2.37602E+01-8.85454E-02 8.09781E-02
 -1      6221 1.42593E+01 8.66192E+01-1.38418E-02 1.79031E+01-2.59375E-02 7.69726E-02
 -1      6222 1.14380E+01 9.18775E+01-1.45100E-02 9.37983E+00 1.41234E-02-8.49504E-02
 -1      6223 1.27793E+01 8.94810E+01-3.24228E-02 1.37606E+01 3.76104E-02-1.35709E-01
 -1      6224 6.83131E+00 1.05736E+02 5.22809E-02 1.25504E+01 4.96681E-02-1.01791E-01
 -1      6225 1.13277E+01 9.22869E+01-5.17713E-02 9.50267E+00 2.53660E-02-1.22610E-01
 -1      6226 1.27534E+01 8.97611E+01-6.66833E-02 1.38715E+01 3.24082E-02-9.79178E-02
 -1      6227 6.82201E+00 1.06122E+02 1.37166E-01 1.26209E+01 3.54568E-02-6.95086E-02
 -1      6228 1.13003E+01 9.24928E+01-7.33665E-02 9.55488E+00 1.15514E-02-5.17285E-02
 -1      6229 1.27506E+01 8.98555E+01-7.67229E-02 1.39042E+01-1.25098E-12-7.91411E-13
 -1      6230 6.82278E+00 1.06249E+02 1.71782E-01 1.26426E+01 1.03169E-12-1.51291E-12
 -1      6231 1.13003E+01 9.24928E+01-7.33665E-02 9.55488E+00-1.15514E-02 5.17285E-02
 -1      6232 1.27534E+01 8.97611E+01-6.66833E-02 1.38715E+01-3.24082E-02 9.79178E-02
 -1      6233 6.82201E+00 1.06122E+02 1.37166E-01 1.26209E+01-3.54568E-02 6.95086E-02
 -1      6234 1.13277E+01 9.22869E+01-5.17713E-02 9.50267E+00-2.53660E-02 1.22610E-01
 -1      6235 1.27793E+01 8.94810E+01-3.24228E-02 1.37606E+01-3.76104E-02 1.35709E-01
 -1      6236 6.83131E+00 1.05736E+02 5.22809E-02 1.25504E+01-4.96681E-02 1.01791E-01
 -1      6237 1.14380E+01 9.18775E+01-1.45100E-02 9.37983E+00-1.41234E-02 8.49504E-02
 -1      6238 1.04545E+01 9.36751E+01-1.48386E-02-1.70736E-02 8.67941E-04-8.85181E-02
 -1      6239 1.08425E+01 9.30506E+01-3.38839E-02 4.72706E+00 1.42395E-02-1.46294E-01
 -1      6240 5.30750E+00 1.08204E+02 5.37737E-02-9.67802E-03 5.50274E-03-1.10440E-01
 -1      6241 1.03180E+01 9.41196E+01-5.33468E-02-1.24294E-02 1.98510E-03-1.28549E-01
 -1      6242 1.07881E+01 9.33712E+01-6.96228E-02 4.76843E+00 1.24583E-02-1.06443E-01
 -1      6243 5.28610E+00 1.08613E+02 1.41066E-01-8.49605E-03 4.00971E-03-7.56827E-02
 -1      6244 1.02803E+01 9.43411E+01-7.55252E-02-1.10709E-02 9.49517E-04-5.43162E-02
 -1      6245 1.07773E+01 9.34778E+01-8.00961E-02 4.78048E+00 8.73988E-12-1.03337E-12
 -1      6246 5.28353E+00 1.08747E+02 1.76741E-01-8.30029E-03-2.12160E-12 1.99420E-12
 -1      6247 1.02803E+01 9.43411E+01-7.55252E-02-1.10709E-02-9.49517E-04 5.43162E-02
 -1      6248 1.07881E+01 9.33712E+01-6.96228E-02 4.76843E+00-1.24583E-02 1.06443E-01
 -1      6249 5.28610E+00 1.08613E+02 1.41066E-01-8.49605E-03-4.00971E-03 7.56827E-02
 -1      6250 1.03180E+01 9.41196E+01-5.33468E-02-1.24294E-02-1.98510E-03 1.28549E-01
 -1      6251 1.08425E+01 9.30506E+01-3.38839E-02 4.72706E+00-1.42395E-02 1.46294E-01
 -1      6252 5.30750E+00 1.08204E+02 5.37737E-02-9.67802E-03-5.50274E-03 1.10440E-01
 -1      6253 1.04545E+01 9.36751E+01-1.48386E-02-1.70736E-02-8.67941E-04 8.85181E-02
 -1      6254 1.14174E+01 9.18137E+01-1.48552E-02-9.37027E+00-1.25637E-02-8.78352E-02
 -1      6255 1.08293E+01 9.30239E+01-3.44452E-02-4.73224E+00-1.07002E-02-1.48850E-01
 -1      6256 6.82507E+00 1.05744E+02 5.37648E-02-1.25532E+01-3.93340E-02-1.06464E-01
 -1      6257 1.13018E+01 9.22380E+01-5.35842E-02-9.48781E+00-2.17178E-02-1.27163E-01
 -1      6258 1.07739E+01 9.33498E+01-7.07913E-02-4.77043E+00-8.80290E-03-1.08390E-01
 -1      6259 6.81491E+00 1.06142E+02 1.41088E-01-1.26238E+01-2.79000E-02-7.28755E-02
 -1      6260 1.12734E+01 9.24510E+01-7.58739E-02-9.53918E+00-9.80527E-03-5.36426E-02
 -1      6261 1.07630E+01 9.34582E+01-8.14584E-02-4.78216E+00-6.72304E-12 4.02864E-13
 -1      6262 6.81587E+00 1.06274E+02 1.76789E-01-1.26459E+01-4.93841E-12 1.25149E-12
 -1      6263 1.12734E+01 9.24510E+01-7.58739E-02-9.53918E+00 9.80527E-03 5.36426E-02
 -1      6264 1.07739E+01 9.33498E+01-7.07913E-02-4.77043E+00 8.80290E-03 1.08390E-01
 -1      6265 6.81491E+00 1.06142E+02 1.41088E-01-1.26238E+01 2.79000E-02 7.28755E-02
 -1      6266 1.13018E+01 9.22380E+01-5.35842E-02-9.48781E+00 2.17178E-02 1.27163E-01
 -1      6267 1.08293E+01 9.30239E+01-3.44452E-02-4.73224E+00 1.07002E-02 1.48850E-01
 -1      6268 6.82507E+00 1.05744E+02 5.37648E-02-1.25532E+01 3.93340E-02 1.06464E-01
 -1      6269 1.14174E+01 9.18137E+01-1.48552E-02-9.37027E+00 1.25637E-02 8.78352E-02
 -1      6270 1.41241E+01 8.64689E+01-1.45686E-02-1.77461E+01-2.50846E-02-8.33407E-02
 -1      6271 1.26942E+01 8.93890E+01-3.41840E-02-1.36761E+01-3.49628E-02-1.43943E-01
 -1      6272 1.11111E+01 9.86052E+01 5.25369E-02-2.36896E+01-8.10617E-02-9.06373E-02
 -1      6273 1.40740E+01 8.68218E+01-5.26469E-02-1.79682E+01-4.38024E-02-1.19164E-01
 -1      6274 1.26671E+01 8.96845E+01-7.03390E-02-1.37896E+01-2.94767E-02-1.04110E-01
 -1      6275 1.11342E+01 9.89628E+01 1.37913E-01-2.38229E+01-5.76011E-02-6.16340E-02
 -1      6276 1.40732E+01 8.70037E+01-7.46051E-02-1.80650E+01-1.98275E-02-4.99960E-02
 -1      6277 1.26646E+01 8.97837E+01-8.09812E-02-1.38239E+01 2.60019E-12 1.07344E-12
 -1      6278 1.11453E+01 9.90820E+01 1.72830E-01-2.38645E+01 2.60254E-12-7.32814E-13
 -1      6279 1.40732E+01 8.70037E+01-7.46051E-02-1.80650E+01 1.98275E-02 4.99960E-02
 -1      6280 1.26671E+01 8.96845E+01-7.03390E-02-1.37896E+01 2.94767E-02 1.04110E-01
 -1      6281 1.11342E+01 9.89628E+01 1.37913E-01-2.38229E+01 5.76011E-02 6.16340E-02
 -1      6282 1.40740E+01 8.68218E+01-5.26469E-02-1.79682E+01 4.38024E-02 1.19164E-01
 -1      6283 1.26942E+01 8.93890E+01-3.41840E-02-1.36761E+01 3.49628E-02 1.43943E-01
 -1      6284 1.11111E+01 9.86052E+01 5.25369E-02-2.36896E+01 8.10617E-02 9.06373E-02
 -1      6285 1.41241E+01 8.64689E+01-1.45686E-02-1.77461E+01 2.50846E-02 8.33407E-02
 -1      6286 1.80653E+01 7.81713E+01-1.40336E-02-2.43341E+01-3.58097E-02-7.56774E-02
 -1      6287 1.60761E+01 8.25047E+01-3.32245E-02-2.12189E+01-5.66816E-02-1.32553E-01
 -1      6288 1.74146E+01 8.75685E+01 5.03063E-02-3.22194E+01-1.16594E-01-6.46268E-02
 -1      6289 1.81141E+01 7.84135E+01-5.07070E-02-2.46258E+01-6.26942E-02-1.05620E-01
 -1      6290 1.61024E+01 8.27391E+01-6.84753E-02-2.13904E+01-4.79758E-02-9.43748E-02
 -1      6291 1.74877E+01 8.78617E+01 1.32090E-01-3.23971E+01-8.29256E-02-4.31213E-02
 -1      6292 1.81550E+01 7.85468E+01-7.19421E-02-2.47530E+01-2.83964E-02-4.38467E-02
 -1      6293 1.61155E+01 8.28199E+01-7.88794E-02-2.14423E+01 5.54740E-12-2.87814E-12
 -1      6294 1.75139E+01 8.79608E+01 1.65550E-01-3.24527E+01 4.36922E-12-4.03814E-12
 -1      6295 1.81550E+01 7.85468E+01-7.19421E-02-2.47530E+01 2.83964E-02 4.38467E-02
 -1      6296 1.61024E+01 8.27391E+01-6.84753E-02-2.13904E+01 4.79758E-02 9.43748E-02
 -1      6297 1.74877E+01 8.78617E+01 1.32090E-01-3.23971E+01 8.29256E-02 4.31213E-02
 -1      6298 1.81141E+01 7.84135E+01-5.07070E-02-2.46258E+01 6.26942E-02 1.05620E-01
 -1      6299 1.60761E+01 8.25047E+01-3.32245E-02-2.12189E+01 5.66816E-02 1.32553E-01
 -1      6300 1.74146E+01 8.75685E+01 5.03063E-02-3.22194E+01 1.16594E-01 6.46268E-02
 -1      6301 1.80653E+01 7.81713E+01-1.40336E-02-2.43341E+01 3.58097E-02 7.56774E-02
 -1      6302 2.24858E+01 6.77330E+01-1.32892E-02-2.85683E+01-4.40675E-02-6.56990E-02
 -1      6303 2.03329E+01 7.30527E+01-3.16988E-02-2.66623E+01-7.44087E-02-1.16028E-01
 -1      6304 2.46123E+01 7.38262E+01 4.72331E-02-3.73160E+01-1.43626E-01-3.08306E-02
 -1      6305 2.26511E+01 6.78426E+01-4.79515E-02-2.88837E+01-7.72070E-02-8.79621E-02
 -1      6306 2.04290E+01 7.32050E+01-6.54299E-02-2.68654E+01-6.30594E-02-8.02855E-02
 -1      6307 2.47440E+01 7.40406E+01 1.24139E-01-3.75140E+01-1.02236E-01-1.89853E-02
 -1      6308 2.27408E+01 6.79174E+01-6.81799E-02-2.90218E+01-3.49636E-02-3.58343E-02
 -1      6309 2.04626E+01 7.32610E+01-7.54323E-02-2.69271E+01-1.14894E-12-6.13644E-12
 -1      6310 2.47878E+01 7.41151E+01 1.55595E-01-3.75762E+01 1.48581E-11-1.81566E-11
 -1      6311 2.27408E+01 6.79174E+01-6.81799E-02-2.90218E+01 3.49636E-02 3.58343E-02
 -1      6312 2.04290E+01 7.32050E+01-6.54299E-02-2.68654E+01 6.30594E-02 8.02855E-02
 -1      6313 2.47440E+01 7.40406E+01 1.24139E-01-3.75140E+01 1.02236E-01 1.89853E-02
 -1      6314 2.26511E+01 6.78426E+01-4.79515E-02-2.88837E+01 7.72070E-02 8.79621E-02
 -1      6315 2.03329E+01 7.30527E+01-3.16988E-02-2.66623E+01 7.44087E-02 1.16028E-01
 -1      6316 2.46123E+01 7.38262E+01 4.72331E-02-3.73160E+01 1.43626E-01 3.08306E-02
 -1      6317 2.24858E+01 6.77330E+01-1.32892E-02-2.85683E+01 4.40675E-02 6.56990E-02
 -1      6318 2.64874E+01 5.61325E+01-1.26063E-02-3.02126E+01-4.95296E-02-5.44976E-02
 -1      6319 2.46258E+01 6.19411E+01-2.97290E-02-2.96009E+01-8.71060E-02-9.61911E-02
 -1      6320 3.13735E+01 5.88041E+01 4.37470E-02-3.86444E+01-1.60630E-01 7.82874E-03
 -1      6321 2.67688E+01 5.61070E+01-4.46875E-02-3.05028E+01-8.67024E-02-6.79824E-02
 -1      6322 2.47973E+01 6.20027E+01-6.15680E-02-2.98044E+01-7.38793E-02-6.32868E-02
 -1      6323 3.15636E+01 5.89362E+01 1.14788E-01-3.88372E+01-1.14567E-01 8.85199E-03
 -1      6324 2.69074E+01 5.61215E+01-6.37310E-02-3.06309E+01-3.92274E-02-2.67780E-02
 -1      6325 2.48530E+01 6.20310E+01-7.10017E-02-2.98665E+01 1.99301E-12-1.08036E-11
 -1      6326 3.16248E+01 5.89847E+01 1.43911E-01-3.88980E+01-2.30342E-11 3.20981E-11
 -1      6327 2.69074E+01 5.61215E+01-6.37310E-02-3.06309E+01 3.92274E-02 2.67780E-02
 -1      6328 2.47973E+01 6.20027E+01-6.15680E-02-2.98044E+01 7.38793E-02 6.32868E-02
 -1      6329 3.15636E+01 5.89362E+01 1.14788E-01-3.88372E+01 1.14567E-01-8.85199E-03
 -1      6330 2.67688E+01 5.61070E+01-4.46875E-02-3.05028E+01 8.67024E-02 6.79824E-02
 -1      6331 2.46258E+01 6.19411E+01-2.97290E-02-2.96009E+01 8.71060E-02 9.61911E-02
 -1      6332 3.13735E+01 5.88041E+01 4.37470E-02-3.86444E+01 1.60630E-01-7.82874E-03
 -1      6333 2.64874E+01 5.61325E+01-1.26063E-02-3.02126E+01 4.95296E-02 5.44976E-02
 -1      6334 2.91451E+01 4.43815E+01-1.15125E-02-2.93971E+01-5.22908E-02-4.35010E-02
 -1      6335 2.80314E+01 5.01782E+01-2.75559E-02-2.99822E+01-9.47568E-02-7.50523E-02
 -1      6336 3.63471E+01 4.39545E+01 3.99452E-02-3.64079E+01-1.67859E-01 4.76865E-02
 -1      6337 2.95276E+01 4.42360E+01-4.08305E-02-2.96177E+01-9.13659E-02-4.78981E-02
 -1      6338 2.82737E+01 5.01524E+01-5.69992E-02-3.01551E+01-8.02851E-02-4.50764E-02
 -1      6339 3.65889E+01 4.40108E+01 1.05822E-01-3.65722E+01-1.19941E-01 3.83009E-02
 -1      6340 2.97087E+01 4.41964E+01-5.87775E-02-2.97164E+01-4.12302E-02-1.76432E-02
 -1      6341 2.83502E+01 5.01539E+01-6.58606E-02-3.02085E+01-5.27784E-13 2.41261E-11
 -1      6342 3.66650E+01 4.40349E+01 1.32665E-01-3.66247E+01 3.31449E-11-2.85912E-11
 -1      6343 2.97087E+01 4.41964E+01-5.87775E-02-2.97164E+01 4.12302E-02 1.76432E-02
 -1      6344 2.82737E+01 5.01524E+01-5.69992E-02-3.01551E+01 8.02851E-02 4.50764E-02
 -1      6345 3.65889E+01 4.40108E+01 1.05822E-01-3.65722E+01 1.19941E-01-3.83009E-02
 -1      6346 2.95276E+01 4.42360E+01-4.08305E-02-2.96177E+01 9.13659E-02 4.78981E-02
 -1      6347 2.80314E+01 5.01782E+01-2.75559E-02-2.99822E+01 9.47568E-02 7.50523E-02
 -1      6348 3.63471E+01 4.39545E+01 3.99452E-02-3.64079E+01 1.67859E-01-4.76865E-02
 -1      6349 2.91451E+01 4.43815E+01-1.15125E-02-2.93971E+01 5.22908E-02 4.35010E-02
 -1      6350 2.96231E+01 3.33736E+01-1.38304E-02-2.66237E+01-5.33796E-02-3.47648E-02
 -1      6351 2.96628E+01 3.87258E+01-2.56431E-02-2.81280E+01-9.73367E-02-5.59381E-02
 -1      6352 3.83357E+01 3.05540E+01 3.94734E-02-3.13057E+01-1.66486E-01 8.78377E-02
 -1      6353 3.00869E+01 3.31345E+01-3.87826E-02-2.67376E+01-9.25623E-02-2.98126E-02
 -1      6354 2.99646E+01 3.86253E+01-5.32298E-02-2.82433E+01-8.27524E-02-2.74601E-02
 -1      6355 3.86204E+01 3.05471E+01 1.00432E-01-3.14229E+01-1.20063E-01 6.95868E-02
 -1      6356 3.03028E+01 3.30509E+01-5.53039E-02-2.67911E+01-4.15787E-02-9.40488E-03
 -1      6357 3.00586E+01 3.86036E+01-6.10370E-02-2.82799E+01 1.41740E-11-3.40563E-11
 -1      6358 3.87068E+01 3.05502E+01 1.26012E-01-3.14610E+01-1.52263E-11-2.91877E-12
 -1      6359 3.03028E+01 3.30509E+01-5.53039E-02-2.67911E+01 4.15787E-02 9.40488E-03
 -1      6360 2.99646E+01 3.86253E+01-5.32298E-02-2.82433E+01 8.27524E-02 2.74601E-02
 -1      6361 3.86204E+01 3.05471E+01 1.00432E-01-3.14229E+01 1.20063E-01-6.95868E-02
 -1      6362 3.00869E+01 3.31345E+01-3.87826E-02-2.67376E+01 9.25623E-02 2.98126E-02
 -1      6363 2.96628E+01 3.87258E+01-2.56431E-02-2.81280E+01 9.73367E-02 5.59381E-02
 -1      6364 3.83357E+01 3.05540E+01 3.94734E-02-3.13057E+01 1.66486E-01-8.78377E-02
 -1      6365 2.96231E+01 3.33736E+01-1.38304E-02-2.66237E+01 5.33796E-02 3.47648E-02
 -1      6366 2.72322E+01 2.38227E+01-6.21297E-03-2.27188E+01-5.57648E-02-2.66403E-02
 -1      6367 2.87653E+01 2.83896E+01-2.14300E-02-2.47036E+01-1.00862E-01-3.67346E-02
 -1      6368 3.64139E+01 1.95164E+01 4.18578E-02-2.44667E+01-1.68678E-01 1.26172E-01
 -1      6369 2.77620E+01 2.35219E+01-2.45483E-02-2.26920E+01-9.64718E-02-1.08066E-02
 -1      6370 2.91142E+01 2.82360E+01-4.19463E-02-2.47348E+01-8.44673E-02-9.67885E-03
 -1      6371 3.67385E+01 1.94647E+01 1.18594E-01-2.45191E+01-1.20923E-01 1.07223E-01
 -1      6372 2.80011E+01 2.34099E+01-3.68120E-02-2.26816E+01-4.28005E-02-2.68271E-04
 -1      6373 2.92206E+01 2.81971E+01-4.78233E-02-2.47461E+01-8.94644E-12 2.33547E-12
 -1      6374 3.68299E+01 1.94507E+01 1.48124E-01-2.45371E+01 7.99706E-12-5.66952E-12
 -1      6375 2.80011E+01 2.34099E+01-3.68120E-02-2.26816E+01 4.28005E-02 2.68271E-04
 -1      6376 2.91142E+01 2.82360E+01-4.19463E-02-2.47348E+01 8.44673E-02 9.67885E-03
 -1      6377 3.67385E+01 1.94647E+01 1.18594E-01-2.45191E+01 1.20923E-01-1.07223E-01
 -1      6378 2.77620E+01 2.35219E+01-2.45483E-02-2.26920E+01 9.64718E-02 1.08066E-02
 -1      6379 2.87653E+01 2.83896E+01-2.14300E-02-2.47036E+01 1.00862E-01 3.67346E-02
 -1      6380 3.64139E+01 1.95164E+01 4.18578E-02-2.44667E+01 1.68678E-01-1.26172E-01
 -1      6381 2.72322E+01 2.38227E+01-6.21297E-03-2.27188E+01 5.57648E-02 2.66403E-02
 -1      6382 2.16358E+01 1.58059E+01-4.92720E-02-1.89737E+01-6.11345E-02-2.30392E-02
 -1      6383 2.48161E+01 1.95614E+01-2.54414E-02-2.07540E+01-9.83372E-02-1.57317E-02
 -1      6384 2.98813E+01 1.13249E+01 8.93642E-02-1.72915E+01-1.68189E-01 2.30064E-01
 -1      6385 2.22080E+01 1.54594E+01-4.22638E-02-1.87309E+01-9.92195E-02 2.58195E-02
 -1      6386 2.51864E+01 1.93656E+01-4.11171E-02-2.06711E+01-8.41866E-02 1.91273E-02
 -1      6387 3.01995E+01 1.12321E+01 1.74303E-01-1.72421E+01-1.25315E-01 1.96006E-01
 -1      6388 2.24532E+01 1.53247E+01-3.42433E-02-1.86307E+01-4.33143E-02 1.91528E-02
 -1      6389 2.52947E+01 1.93143E+01-4.05921E-02-2.06486E+01 2.81065E-12-6.24167E-12
 -1      6390 3.02615E+01 1.12014E+01 2.15857E-01-1.72281E+01 4.16496E-12-1.71842E-11
 -1      6391 2.24532E+01 1.53247E+01-3.42433E-02-1.86307E+01 4.33143E-02-1.91528E-02
 -1      6392 2.51864E+01 1.93656E+01-4.11171E-02-2.06711E+01 8.41866E-02-1.91273E-02
 -1      6393 3.01995E+01 1.12321E+01 1.74303E-01-1.72421E+01 1.25315E-01-1.96006E-01
 -1      6394 2.22080E+01 1.54594E+01-4.22638E-02-1.87309E+01 9.92195E-02-2.58195E-02
 -1      6395 2.48161E+01 1.95614E+01-2.54414E-02-2.07540E+01 9.83372E-02 1.57317E-02
 -1      6396 2.98813E+01 1.13249E+01 8.93642E-02-1.72915E+01 1.68189E-01-2.30064E-01
 -1      6397 2.16358E+01 1.58059E+01-4.92720E-02-1.89737E+01 6.11345E-02 2.30392E-02
 -1      6398 1.27663E+01 9.85670E+00 7.19208E-02-1.67550E+01-3.51354E-02 9.65131E-02
 -1      6399 1.77773E+01 1.25255E+01 3.78889E-02-1.74503E+01-1.01704E-01 9.13376E-02
 -1      6400 1.84403E+01 5.84685E+00 1.74083E-01-1.14503E+01-2.30742E-01 4.55663E-01
 -1      6401 1.31639E+01 9.59210E+00 1.54015E-01-1.62068E+01-7.84244E-02 2.25992E-01
 -1      6402 1.80485E+01 1.23700E+01 9.85279E-02-1.71980E+01-7.16923E-02 1.10108E-01
 -1      6403 1.85854E+01 5.81650E+00 4.74972E-01-1.12247E+01-1.37685E-01 4.25803E-01
 -1      6404 1.32054E+01 9.52000E+00 2.31313E-01-1.59794E+01-3.35656E-02 1.09795E-01
 -1      6405 1.81070E+01 1.23312E+01 1.26806E-01-1.71322E+01-3.80698E-12-1.39471E-11
 -1      6406 1.85340E+01 5.78437E+00 5.51432E-01-1.11529E+01-8.02016E-12-4.67450E-11
 -1      6407 1.32054E+01 9.52000E+00 2.31313E-01-1.59794E+01 3.35656E-02-1.09795E-01
 -1      6408 1.80485E+01 1.23700E+01 9.85279E-02-1.71980E+01 7.16923E-02-1.10108E-01
 -1      6409 1.85854E+01 5.81650E+00 4.74972E-01-1.12247E+01 1.37685E-01-4.25803E-01
 -1      6410 1.31639E+01 9.59210E+00 1.54015E-01-1.62068E+01 7.84244E-02-2.25992E-01
 -1      6411 1.77773E+01 1.25255E+01 3.78889E-02-1.74503E+01 1.01704E-01-9.13376E-02
 -1      6412 1.84403E+01 5.84685E+00 1.74083E-01-1.14503E+01 2.30742E-01-4.55663E-01
 -1      6413 1.27663E+01 9.85670E+00 7.19208E-02-1.67550E+01 3.51354E-02-9.65131E-02
 -1      6414 3.91510E+00 3.52900E-01-4.45855E-01-1.88926E+01 3.21493E-01 1.84217E-01
 -1      6415 8.22023E+00 5.15752E+00-1.37916E-01-1.70241E+01 1.47288E-01 3.52918E-01
 -1      6416 9.62758E-01 1.46676E+00 5.71194E-01-9.31671E+00 2.92013E-01 1.40773E+00
 -1      6417 2.70185E+00 9.77057E-02-6.54231E-01-1.83307E+01 4.31356E-01 4.21407E-01
 -1      6418 7.91948E+00 4.98752E+00-1.96587E-01-1.67418E+01 9.23702E-02 3.14505E-01
 -1      6419 6.58566E-02 1.51911E+00 3.98650E-02-9.29758E+00 1.75508E-01 6.43610E-01
 -1      6420 2.22220E+00 1.70248E-02-7.38515E-01-1.83130E+01 1.69714E-01 1.88382E-01
 -1      6421 7.79449E+00 4.94738E+00-2.10924E-01-1.66952E+01 1.00767E-11 4.33436E-11
 -1      6422-1.37746E-01 1.53856E+00-2.11097E-01-9.30613E+00 4.32458E-11 1.11025E-10
 -1      6423 2.22220E+00 1.70248E-02-7.38515E-01-1.83130E+01-1.69714E-01-1.88382E-01
 -1      6424 7.91948E+00 4.98752E+00-1.96587E-01-1.67418E+01-9.23702E-02-3.14505E-01
 -1      6425 6.58566E-02 1.51911E+00 3.98650E-02-9.29758E+00-1.75508E-01-6.43610E-01
 -1      6426 2.70185E+00 9.77057E-02-6.54231E-01-1.83307E+01-4.31356E-01-4.21407E-01
 -1      6427 8.22023E+00 5.15752E+00-1.37916E-01-1.70241E+01-1.47288E-01-3.52918E-01
 -1      6428 9.62758E-01 1.46676E+00 5.71194E-01-9.31671E+00-2.92013E-01-1.40773E+00
 -1      6429 3.91510E+00 3.52900E-01-4.45855E-01-1.88926E+01-3.21493E-01-1.84217E-01
 -1      6430 3.30229E+00 4.70952E-01 5.02787E-01-1.62818E+01 4.70387E-01 1.05874E-01
 -1      6431 2.48615E+00 3.74477E-01 4.59085E-01-1.62845E+01 2.81343E-01 1.09409E-01
 -1      6432 2.25238E+00 3.28904E-01 3.99235E-01-1.62708E+01 8.00849E-11-3.05206E-11
 -1      6433 2.48615E+00 3.74477E-01 4.59085E-01-1.62845E+01-2.81343E-01-1.09409E-01
 -1      6434 3.30229E+00 4.70952E-01 5.02787E-01-1.62818E+01-4.70387E-01-1.05874E-01
 -1      6435-4.13910E+01-3.46860E+01-1.03294E-01 6.01466E+01 2.24626E-01 8.30249E-02
 -1      6436-4.24966E+00-1.17574E+02 4.15509E+00 3.51519E+01-5.17489E+00 1.23619E+00
 -1      6437-4.17674E+01-3.43247E+00-3.54760E+00 6.31433E+01 4.46710E+00-1.28441E+00
 -1      6438-3.27325E+01-3.99688E+01-2.87864E+00 5.50153E+01 2.75118E+00 1.71479E-01
 -1      6439-2.72979E+00-1.19811E+02 2.67924E+00 3.39902E+01-1.72900E+00 2.96108E-01
 -1      6440-2.87864E+01-3.13028E+00 6.97176E-02 5.83200E+01 4.01179E+00 1.19150E-01
 -1      6441-3.07054E+01-3.93666E+01-4.68473E+00 5.12252E+01 1.28428E+00-2.53821E-02
 -1      6442-2.17742E+00-1.20173E+02 9.08480E-01 3.30832E+01 4.13722E-11-6.33004E-11
 -1      6443-2.71624E+01-4.03289E+00 4.09399E-01 5.66331E+01 1.95810E-12-3.98842E-11
 -1      6444-3.07054E+01-3.93666E+01-4.68473E+00 5.12252E+01-1.28428E+00 2.53821E-02
 -1      6445-2.72979E+00-1.19811E+02 2.67924E+00 3.39902E+01 1.72900E+00-2.96108E-01
 -1      6446-2.87864E+01-3.13028E+00 6.97176E-02 5.83200E+01-4.01179E+00-1.19150E-01
 -1      6447-3.27325E+01-3.99688E+01-2.87864E+00 5.50153E+01-2.75118E+00-1.71479E-01
 -1      6448-4.24966E+00-1.17574E+02 4.15509E+00 3.51519E+01 5.17489E+00-1.23619E+00
 -1      6449-4.17674E+01-3.43247E+00-3.54760E+00 6.31433E+01-4.46710E+00 1.28441E+00
 -1      6450-4.13910E+01-3.46860E+01-1.03294E-01 6.01466E+01-2.24626E-01-8.30249E-02
 -1      6451-3.71733E+00 2.22585E+01 1.31743E+00 3.67218E+00 9.24110E-01-2.33339E-01
 -1      6452-2.48500E+01-4.73037E+00-1.76808E+00 3.07354E+01 2.09632E+00-5.79487E-01
 -1      6453 1.61669E+01 1.07122E+01-2.41753E+00 2.65020E+00 1.79599E+00-2.29316E+00
 -1      6454-1.30212E+00 2.03585E+01 5.88197E-01 5.56870E+00 8.84469E-01-7.24744E-01
 -1      6455-1.94066E+01-5.20947E+00-2.38828E+00 2.92527E+01 1.25225E+00-6.84093E-01
 -1      6456 1.96006E+01 8.77701E+00-4.34320E+00 4.42710E+00 8.38363E-01-1.70032E+00
 -1      6457 1.30724E+00 1.86425E+01 7.29465E-02 6.04678E+00 2.48365E-01-4.60833E-01
 -1      6458-1.80090E+01-5.46965E+00-2.76296E+00 2.85238E+01-5.85818E-11 2.58659E-11
 -1      6459 2.12379E+01 8.71005E+00-4.55548E+00 4.49273E+00-1.34138E-11 5.76765E-11
 -1      6460 1.30724E+00 1.86425E+01 7.29465E-02 6.04678E+00-2.48365E-01 4.60833E-01
 -1      6461-1.94066E+01-5.20947E+00-2.38828E+00 2.92527E+01-1.25225E+00 6.84093E-01
 -1      6462 1.96006E+01 8.77701E+00-4.34320E+00 4.42710E+00-8.38363E-01 1.70032E+00
 -1      6463-1.30212E+00 2.03585E+01 5.88197E-01 5.56870E+00-8.84469E-01 7.24744E-01
 -1      6464-2.48500E+01-4.73037E+00-1.76808E+00 3.07354E+01-2.09632E+00 5.79487E-01
 -1      6465 1.61669E+01 1.07122E+01-2.41753E+00 2.65020E+00-1.79599E+00 2.29316E+00
 -1      6466-3.71733E+00 2.22585E+01 1.31743E+00 3.67218E+00-9.24110E-01 2.33339E-01
 -1      6467 2.25428E+01 1.96297E+01 4.17176E-02 4.85701E+00-2.63432E-01 6.09791E-02
 -1      6468 8.70720E+00 2.08538E+01 2.39632E-01 7.80844E+00 1.70250E-01-6.69694E-01
 -1      6469 3.53155E+01 1.74621E+01-8.44663E-01 1.00489E+01-2.49860E-02-6.31237E-01
 -1      6470 2.27978E+01 1.92240E+01-1.59333E-01 6.57211E+00 3.78079E-02-2.52638E-01
 -1      6471 1.00599E+01 1.93385E+01-3.29846E-01 8.60300E+00 3.38644E-01-4.46029E-01
 -1      6472 3.57428E+01 1.73932E+01-1.07000E+00 1.14848E+01 1.07052E-02-4.68111E-01
 -1      6473 2.32968E+01 1.91227E+01-3.32139E-01 7.10923E+00 4.59018E-02-1.44328E-01
 -1      6474 1.07420E+01 1.90264E+01-5.18781E-01 8.78359E+00 2.29595E-11 1.78017E-11
 -1      6475 3.60727E+01 1.73006E+01-1.24782E+00 1.17039E+01 1.66075E-11-7.87408E-12
 -1      6476 2.32968E+01 1.91227E+01-3.32139E-01 7.10923E+00-4.59018E-02 1.44328E-01
 -1      6477 1.00599E+01 1.93385E+01-3.29846E-01 8.60300E+00-3.38644E-01 4.46029E-01
 -1      6478 3.57428E+01 1.73932E+01-1.07000E+00 1.14848E+01-1.07052E-02 4.68111E-01
 -1      6479 2.27978E+01 1.92240E+01-1.59333E-01 6.57211E+00-3.78079E-02 2.52638E-01
 -1      6480 8.70720E+00 2.08538E+01 2.39632E-01 7.80844E+00-1.70250E-01 6.69694E-01
 -1      6481 3.53155E+01 1.74621E+01-8.44663E-01 1.00489E+01 2.49860E-02 6.31237E-01
 -1      6482 2.25428E+01 1.96297E+01 4.17176E-02 4.85701E+00 2.63432E-01-6.09791E-02
 -1      6483 2.83880E+01 2.51228E+01-6.99096E-02 1.25125E+01 6.23432E-03 2.69733E-02
 -1      6484 2.46617E+01 2.27430E+01-4.22698E-02 1.03714E+01 6.76878E-02-1.40270E-01
 -1      6485 3.80871E+01 2.35189E+01-7.05024E-02 1.78154E+01-1.83964E-02-7.14686E-02
 -1      6486 2.81634E+01 2.53120E+01-1.48746E-02 1.31196E+01 3.68328E-03-2.88152E-02
 -1      6487 2.48843E+01 2.27785E+01-1.54582E-01 1.10707E+01 3.55362E-02-1.21501E-01
 -1      6488 3.77445E+01 2.35406E+01-2.83460E-01 1.83202E+01-6.00659E-02-7.98873E-02
 -1      6489 2.81902E+01 2.52350E+01-8.63247E-02 1.34190E+01-2.18674E-02-2.60297E-02
 -1      6490 2.50191E+01 2.27134E+01-2.01400E-01 1.12565E+01 1.15573E-11-2.20503E-12
 -1      6491 3.77794E+01 2.35970E+01-2.92642E-01 1.84231E+01 9.31164E-12-5.86491E-12
 -1      6492 2.81902E+01 2.52350E+01-8.63247E-02 1.34190E+01 2.18674E-02 2.60297E-02
 -1      6493 2.48843E+01 2.27785E+01-1.54582E-01 1.10707E+01-3.55362E-02 1.21501E-01
 -1      6494 3.77445E+01 2.35406E+01-2.83460E-01 1.83202E+01 6.00659E-02 7.98873E-02
 -1      6495 2.81634E+01 2.53120E+01-1.48746E-02 1.31196E+01-3.68328E-03 2.88152E-02
 -1      6496 2.46617E+01 2.27430E+01-4.22698E-02 1.03714E+01-6.76878E-02 1.40270E-01
 -1      6497 3.80871E+01 2.35189E+01-7.05024E-02 1.78154E+01 1.83964E-02 7.14686E-02
 -1      6498 2.83880E+01 2.51228E+01-6.99096E-02 1.25125E+01-6.23432E-03-2.69733E-02
 -1      6499 2.84640E+01 3.26079E+01 3.02821E-02 1.75737E+01-3.86156E-02 4.31967E-02
 -1      6500 2.80551E+01 2.91312E+01 4.01027E-03 1.55240E+01-9.27106E-03-2.37626E-02
 -1      6501 3.48345E+01 3.27101E+01-5.24115E-02 2.31516E+01 1.34609E-03 2.03710E-02
 -1      6502 2.83525E+01 3.26384E+01 2.65040E-02 1.78625E+01-1.27217E-03 1.18708E-02
 -1      6503 2.79727E+01 2.91059E+01-3.87969E-02 1.58469E+01-4.48068E-03-3.76929E-03
 -1      6504 3.47053E+01 3.27394E+01-8.34247E-02 2.33491E+01-4.28581E-03 6.99464E-03
 -1      6505 2.83409E+01 3.26388E+01 7.12647E-03 1.79875E+01-4.79980E-03 2.04294E-03
 -1      6506 2.79766E+01 2.90961E+01-4.33834E-02 1.59479E+01 2.25944E-12-9.24377E-12
 -1      6507 3.47101E+01 3.27592E+01-9.48218E-02 2.33912E+01-4.99921E-12-2.64255E-12
 -1      6508 2.83409E+01 3.26388E+01 7.12647E-03 1.79875E+01 4.79980E-03-2.04294E-03
 -1      6509 2.79727E+01 2.91059E+01-3.87969E-02 1.58469E+01 4.48068E-03 3.76929E-03
 -1      6510 3.47053E+01 3.27394E+01-8.34247E-02 2.33491E+01 4.28581E-03-6.99464E-03
 -1      6511 2.83525E+01 3.26384E+01 2.65040E-02 1.78625E+01 1.27217E-03-1.18708E-02
 -1      6512 2.80551E+01 2.91312E+01 4.01027E-03 1.55240E+01 9.27106E-03 2.37626E-02
 -1      6513 3.48345E+01 3.27101E+01-5.24115E-02 2.31516E+01-1.34609E-03-2.03710E-02
 -1      6514 2.84640E+01 3.26079E+01 3.02821E-02 1.75737E+01 3.86156E-02-4.31967E-02
 -1      6515 2.61351E+01 4.11347E+01-1.19488E-02 1.97376E+01 6.26366E-03 5.12257E-03
 -1      6516 2.71815E+01 3.69135E+01 7.87058E-04 1.88296E+01 6.89142E-03 8.46533E-03
 -1      6517 3.09298E+01 4.27418E+01-5.70406E-03 2.56961E+01 3.51255E-02 4.76852E-03
 -1      6518 2.61662E+01 4.11181E+01-5.72861E-03 1.99256E+01 1.79244E-02-2.03112E-03
 -1      6519 2.71615E+01 3.69369E+01-3.77516E-03 1.90011E+01 7.72513E-03 7.86887E-03
 -1      6520 3.09385E+01 4.27279E+01-2.90079E-02 2.58229E+01 2.36816E-02 4.56094E-04
 -1      6521 2.61891E+01 4.10972E+01-1.90526E-02 2.00203E+01 3.73469E-03-6.85032E-04
 -1      6522 2.71666E+01 3.69280E+01-4.37178E-03 1.90547E+01-4.18066E-12 1.88149E-12
 -1      6523 3.09629E+01 4.27369E+01-2.84579E-02 2.58588E+01-1.93806E-12 1.01320E-11
 -1      6524 2.61891E+01 4.10972E+01-1.90526E-02 2.00203E+01-3.73469E-03 6.85032E-04
 -1      6525 2.71615E+01 3.69369E+01-3.77516E-03 1.90011E+01-7.72513E-03-7.86887E-03
 -1      6526 3.09385E+01 4.27279E+01-2.90079E-02 2.58229E+01-2.36816E-02-4.56094E-04
 -1      6527 2.61662E+01 4.11181E+01-5.72861E-03 1.99256E+01-1.79244E-02 2.03112E-03
 -1      6528 2.71815E+01 3.69135E+01 7.87058E-04 1.88296E+01-6.89142E-03-8.46533E-03
 -1      6529 3.09298E+01 4.27418E+01-5.70406E-03 2.56961E+01-3.51255E-02-4.76852E-03
 -1      6530 2.61351E+01 4.11347E+01-1.19488E-02 1.97376E+01-6.26366E-03-5.12257E-03
 -1      6531 2.35243E+01 4.95395E+01-2.68851E-04 1.96482E+01 7.15183E-03-3.78225E-03
 -1      6532 2.48303E+01 4.53366E+01-5.96750E-03 1.98242E+01 1.83094E-02-1.01191E-02
 -1      6533 2.66330E+01 5.29678E+01-1.32480E-02 2.58252E+01 4.69400E-02-2.05637E-02
 -1      6534 2.35729E+01 4.95157E+01-1.37825E-02 1.98620E+01 2.13025E-02-1.49347E-02
 -1      6535 2.48609E+01 4.53247E+01-2.00414E-02 1.99721E+01 1.58946E-02-5.62040E-03
 -1      6536 2.66961E+01 5.29734E+01-3.29381E-02 2.59729E+01 3.69529E-02-1.64488E-02
 -1      6537 2.36054E+01 4.95079E+01-2.84780E-02 1.99631E+01 8.51092E-03-6.48339E-03
 -1      6538 2.48759E+01 4.53187E+01-2.43726E-02 2.00197E+01 5.65078E-12 2.22728E-12
 -1      6539 2.67258E+01 5.29833E+01-3.85199E-02 2.60177E+01 9.30481E-12-5.62706E-12
 -1      6540 2.36054E+01 4.95079E+01-2.84780E-02 1.99631E+01-8.51092E-03 6.48339E-03
 -1      6541 2.48609E+01 4.53247E+01-2.00414E-02 1.99721E+01-1.58946E-02 5.62040E-03
 -1      6542 2.66961E+01 5.29734E+01-3.29381E-02 2.59729E+01-3.69529E-02 1.64488E-02
 -1      6543 2.35729E+01 4.95157E+01-1.37825E-02 1.98620E+01-2.13025E-02 1.49347E-02
 -1      6544 2.48303E+01 4.53366E+01-5.96750E-03 1.98242E+01-1.83094E-02 1.01191E-02
 -1      6545 2.66330E+01 5.29678E+01-1.32480E-02 2.58252E+01-4.69400E-02 2.05637E-02
 -1      6546 2.35243E+01 4.95395E+01-2.68851E-04 1.96482E+01-7.15183E-03 3.78225E-03
 -1      6547 2.10436E+01 5.71728E+01-5.08436E-03 1.77950E+01 1.12878E-02-1.44410E-02
 -1      6548 2.22911E+01 5.33562E+01-1.02196E-02 1.88692E+01 2.23917E-02-2.11892E-02
 -1      6549 2.24825E+01 6.26562E+01-1.39935E-02 2.38151E+01 4.97471E-02-4.41454E-02
 -1      6550 2.10510E+01 5.72096E+01-2.37147E-02 1.80349E+01 2.28106E-02-2.70251E-02
 -1      6551 2.23199E+01 5.33728E+01-2.95520E-02 1.90305E+01 1.98723E-02-1.79166E-02
 -1      6552 2.25307E+01 6.27170E+01-3.59787E-02 2.39864E+01 4.02580E-02-3.38001E-02
 -1      6553 2.10637E+01 5.72335E+01-4.11265E-02 1.81479E+01 9.94259E-03-1.19524E-02
 -1      6554 2.23333E+01 5.33775E+01-3.75739E-02 1.90826E+01-3.22452E-12-5.20927E-12
 -1      6555 2.25521E+01 6.27433E+01-4.25997E-02 2.40395E+01-9.73816E-12-1.18851E-12
 -1      6556 2.10637E+01 5.72335E+01-4.11265E-02 1.81479E+01-9.94259E-03 1.19524E-02
 -1      6557 2.23199E+01 5.33728E+01-2.95520E-02 1.90305E+01-1.98723E-02 1.79166E-02
 -1      6558 2.25307E+01 6.27170E+01-3.59787E-02 2.39864E+01-4.02580E-02 3.38001E-02
 -1      6559 2.10510E+01 5.72096E+01-2.37147E-02 1.80349E+01-2.28106E-02 2.70251E-02
 -1      6560 2.22911E+01 5.33562E+01-1.02196E-02 1.88692E+01-2.23917E-02 2.11892E-02
 -1      6561 2.24825E+01 6.26562E+01-1.39935E-02 2.38151E+01-4.97471E-02 4.41454E-02
 -1      6562 2.10436E+01 5.71728E+01-5.08436E-03 1.77950E+01-1.12878E-02 1.44410E-02
 -1      6563 1.89437E+01 6.35968E+01-5.01652E-03 1.45702E+01 1.01555E-02-2.02374E-02
 -1      6564 1.99644E+01 6.04342E+01-1.31461E-02 1.63403E+01 2.23533E-02-3.34187E-02
 -1      6565 1.87306E+01 7.11186E+01-1.65231E-02 1.98560E+01 4.42498E-02-6.40666E-02
 -1      6566 1.88714E+01 6.37219E+01-2.91776E-02 1.48064E+01 2.01688E-02-3.67043E-02
 -1      6567 1.99537E+01 6.05035E+01-3.82864E-02 1.65094E+01 1.93932E-02-2.83111E-02
 -1      6568 1.87308E+01 7.12542E+01-4.13167E-02 2.00270E+01 3.63108E-02-4.92184E-02
 -1      6569 1.88491E+01 6.37897E+01-4.92296E-02 1.49169E+01 9.18376E-03-1.65655E-02
 -1      6570 1.99543E+01 6.05275E+01-4.89283E-02 1.65635E+01-7.02025E-14 4.64488E-12
 -1      6571 1.87365E+01 7.13030E+01-4.96996E-02 2.00801E+01 6.54331E-12 2.89538E-12
 -1      6572 1.88491E+01 6.37897E+01-4.92296E-02 1.49169E+01-9.18376E-03 1.65655E-02
 -1      6573 1.99537E+01 6.05035E+01-3.82864E-02 1.65094E+01-1.93932E-02 2.83111E-02
 -1      6574 1.87308E+01 7.12542E+01-4.13167E-02 2.00270E+01-3.63108E-02 4.92184E-02
 -1      6575 1.88714E+01 6.37219E+01-2.91776E-02 1.48064E+01-2.01688E-02 3.67043E-02
 -1      6576 1.99644E+01 6.04342E+01-1.31461E-02 1.63403E+01-2.23533E-02 3.34187E-02
 -1      6577 1.87306E+01 7.11186E+01-1.65231E-02 1.98560E+01-4.42498E-02 6.40666E-02
 -1      6578 1.89437E+01 6.35968E+01-5.01652E-03 1.45702E+01-1.01555E-02 2.02374E-02
 -1      6579 1.73437E+01 6.84526E+01-5.86651E-03 1.03013E+01 7.78575E-03-2.47379E-02
 -1      6580 1.80601E+01 6.61326E+01-1.52974E-02 1.25782E+01 1.85329E-02-4.23805E-02
 -1      6581 1.57175E+01 7.77164E+01-1.80944E-02 1.42495E+01 3.30919E-02-7.92277E-02
 -1      6582 1.71893E+01 6.86668E+01-3.30232E-02 1.04912E+01 1.50844E-02-4.41105E-02
 -1      6583 1.79950E+01 6.62662E+01-4.42504E-02 1.27291E+01 1.60682E-02-3.63396E-02
 -1      6584 1.56632E+01 7.79238E+01-4.51089E-02 1.43881E+01 2.73269E-02-6.12596E-02
 -1      6585 1.71299E+01 6.87774E+01-5.50872E-02 1.05799E+01 6.95972E-03-2.00485E-02
 -1      6586 1.79786E+01 6.63116E+01-5.66607E-02 1.27774E+01 1.96756E-12-1.36115E-12
 -1      6587 1.56518E+01 7.79950E+01-5.44045E-02 1.44311E+01-2.38640E-12-8.11477E-13
 -1      6588 1.71299E+01 6.87774E+01-5.50872E-02 1.05799E+01-6.95972E-03 2.00485E-02
 -1      6589 1.79950E+01 6.62662E+01-4.42504E-02 1.27291E+01-1.60682E-02 3.63396E-02
 -1      6590 1.56632E+01 7.79238E+01-4.51089E-02 1.43881E+01-2.73269E-02 6.12596E-02
 -1      6591 1.71893E+01 6.86668E+01-3.30232E-02 1.04912E+01-1.50844E-02 4.41105E-02
 -1      6592 1.80601E+01 6.61326E+01-1.52974E-02 1.25782E+01-1.85329E-02 4.23805E-02
 -1      6593 1.57175E+01 7.77164E+01-1.80944E-02 1.42495E+01-3.30919E-02 7.92277E-02
 -1      6594 1.73437E+01 6.84526E+01-5.86651E-03 1.03013E+01-7.78575E-03 2.47379E-02
 -1      6595 1.63367E+01 7.14693E+01-6.24327E-03 5.32426E+00 4.23150E-03-2.74234E-02
 -1      6596 1.67077E+01 7.01210E+01-1.66276E-02 7.91254E+00 1.22883E-02-4.89282E-02
 -1      6597 1.37557E+01 8.19082E+01-1.91515E-02 7.43597E+00 1.81467E-02-8.90621E-02
 -1      6598 1.61210E+01 7.17488E+01-3.53728E-02 5.43134E+00 8.20898E-03-4.88968E-02
 -1      6599 1.65934E+01 7.03102E+01-4.82391E-02 8.01773E+00 1.06250E-02-4.19767E-02
 -1      6600 1.36597E+01 8.21679E+01-4.77784E-02 7.51447E+00 1.50547E-02-6.91704E-02
 -1      6601 1.60338E+01 7.18906E+01-5.87895E-02 5.48129E+00 3.81224E-03-2.23073E-02
 -1      6602 1.65616E+01 7.03738E+01-6.18185E-02 8.05128E+00-7.11439E-13 1.34143E-12
 -1      6603 1.36355E+01 8.22553E+01-5.77365E-02 7.53878E+00 5.30013E-12 2.02023E-12
 -1      6604 1.60338E+01 7.18906E+01-5.87895E-02 5.48129E+00-3.81224E-03 2.23073E-02
 -1      6605 1.65934E+01 7.03102E+01-4.82391E-02 8.01773E+00-1.06250E-02 4.19767E-02
 -1      6606 1.36597E+01 8.21679E+01-4.77784E-02 7.51447E+00-1.50547E-02 6.91704E-02
 -1      6607 1.61210E+01 7.17488E+01-3.53728E-02 5.43134E+00-8.20898E-03 4.88968E-02
 -1      6608 1.67077E+01 7.01210E+01-1.66276E-02 7.91254E+00-1.22883E-02 4.89282E-02
 -1      6609 1.37557E+01 8.19082E+01-1.91515E-02 7.43597E+00-1.81467E-02 8.90621E-02
 -1      6610 1.63367E+01 7.14693E+01-6.24327E-03 5.32426E+00-4.23150E-03 2.74234E-02
 -1      6611 1.59733E+01 7.24714E+01-6.47260E-03 6.06924E-03 1.92140E-04-2.86445E-02
 -1      6612 1.59929E+01 7.21615E+01-1.74279E-02 2.70198E+00 4.55831E-03-5.26057E-02
 -1      6613 1.30633E+01 8.33303E+01-1.96786E-02-2.39175E-03 1.33632E-03-9.33779E-02
 -1      6614 1.57330E+01 7.27773E+01-3.65375E-02 8.23671E-03 4.50172E-04-5.10422E-02
 -1      6615 1.58490E+01 7.23838E+01-5.05575E-02 2.74053E+00 3.96013E-03-4.51740E-02
 -1      6616 1.29508E+01 8.36116E+01-4.91526E-02-5.57343E-04 1.15656E-03-7.26435E-02
 -1      6617 1.56349E+01 7.29319E+01-6.06412E-02 9.09577E-03 2.10896E-04-2.33178E-02
 -1      6618 1.58080E+01 7.24583E+01-6.48027E-02 2.75281E+00 4.05726E-12-3.68691E-12
 -1      6619 1.29216E+01 8.37058E+01-5.94447E-02-1.17297E-04 1.17672E-13-7.26041E-12
 -1      6620 1.56349E+01 7.29319E+01-6.06412E-02 9.09577E-03-2.10896E-04 2.33178E-02
 -1      6621 1.58490E+01 7.23838E+01-5.05575E-02 2.74053E+00-3.96013E-03 4.51740E-02
 -1      6622 1.29508E+01 8.36116E+01-4.91526E-02-5.57343E-04-1.15656E-03 7.26435E-02
 -1      6623 1.57330E+01 7.27773E+01-3.65375E-02 8.23671E-03-4.50172E-04 5.10422E-02
 -1      6624 1.59929E+01 7.21615E+01-1.74279E-02 2.70198E+00-4.55831E-03 5.26057E-02
 -1      6625 1.30633E+01 8.33303E+01-1.96786E-02-2.39175E-03-1.33632E-03 9.33779E-02
 -1      6626 1.59733E+01 7.24714E+01-6.47260E-03 6.06924E-03-1.92140E-04 2.86445E-02
 -1      6627 1.62332E+01 7.14084E+01-6.52269E-03-5.26117E+00-3.93825E-03-2.84792E-02
 -1      6628 1.59387E+01 7.21340E+01-1.77119E-02-2.66263E+00-3.74042E-03-5.35446E-02
 -1      6629 1.36889E+01 8.18543E+01-1.97310E-02-7.39580E+00-1.57181E-02-9.23927E-02
 -1      6630 1.60116E+01 7.16960E+01-3.67166E-02-5.36734E+00-7.44525E-03-5.06633E-02
 -1      6631 1.57931E+01 7.23594E+01-5.14204E-02-2.69981E+00-3.18430E-03-4.59919E-02
 -1      6632 1.35901E+01 8.21224E+01-4.93537E-02-7.47328E+00-1.29759E-02-7.17851E-02
 -1      6633 1.59222E+01 7.18419E+01-6.09128E-02-5.41719E+00-3.46664E-03-2.31468E-02
 -1      6634 1.57516E+01 7.24348E+01-6.59200E-02-2.71170E+00-5.59543E-12-2.53223E-12
 -1      6635 1.35652E+01 8.22125E+01-5.97236E-02-7.49756E+00-6.54119E-12 5.20441E-12
 -1      6636 1.59222E+01 7.18419E+01-6.09128E-02-5.41719E+00 3.46664E-03 2.31468E-02
 -1      6637 1.57931E+01 7.23594E+01-5.14204E-02-2.69981E+00 3.18430E-03 4.59919E-02
 -1      6638 1.35901E+01 8.21224E+01-4.93537E-02-7.47328E+00 1.29759E-02 7.17851E-02
 -1      6639 1.60116E+01 7.16960E+01-3.67166E-02-5.36734E+00 7.44525E-03 5.06633E-02
 -1      6640 1.59387E+01 7.21340E+01-1.77119E-02-2.66263E+00 3.74042E-03 5.35446E-02
 -1      6641 1.36889E+01 8.18543E+01-1.97310E-02-7.39580E+00 1.57181E-02 9.23927E-02
 -1      6642 1.62332E+01 7.14084E+01-6.52269E-03-5.26117E+00 3.93825E-03 2.84792E-02
 -1      6643 1.70012E+01 6.83714E+01-6.43618E-03-1.00912E+01-7.80228E-03-2.71085E-02
 -1      6644 1.64787E+01 7.00577E+01-1.75787E-02-7.77943E+00-1.18473E-02-5.19368E-02
 -1      6645 1.54714E+01 7.76162E+01-1.93653E-02-1.40700E+01-3.16223E-02-8.66228E-02
 -1      6646 1.68390E+01 6.85983E+01-3.60572E-02-1.02906E+01-1.48255E-02-4.80248E-02
 -1      6647 1.63609E+01 7.02546E+01-5.10519E-02-7.88822E+00-1.01575E-02-4.46220E-02
 -1      6648 1.54152E+01 7.78386E+01-4.84986E-02-1.42157E+01-2.61601E-02-6.69900E-02
 -1      6649 1.67774E+01 6.87153E+01-5.98292E-02-1.03842E+01-6.90516E-03-2.19208E-02
 -1      6650 1.63284E+01 7.03209E+01-6.54515E-02-7.92295E+00 2.61931E-12 6.46250E-12
 -1      6651 1.54034E+01 7.79143E+01-5.87158E-02-1.42613E+01 9.18258E-12 1.20987E-12
 -1      6652 1.67774E+01 6.87153E+01-5.98292E-02-1.03842E+01 6.90516E-03 2.19208E-02
 -1      6653 1.63609E+01 7.02546E+01-5.10519E-02-7.88822E+00 1.01575E-02 4.46220E-02
 -1      6654 1.54152E+01 7.78386E+01-4.84986E-02-1.42157E+01 2.61601E-02 6.69900E-02
 -1      6655 1.68390E+01 6.85983E+01-3.60572E-02-1.02906E+01 1.48255E-02 4.80248E-02
 -1      6656 1.64787E+01 7.00577E+01-1.75787E-02-7.77943E+00 1.18473E-02 5.19368E-02
 -1      6657 1.54714E+01 7.76162E+01-1.93653E-02-1.40700E+01 3.16223E-02 8.66228E-02
 -1      6658 1.70012E+01 6.83714E+01-6.43618E-03-1.00912E+01 7.80228E-03 2.71085E-02
 -1      6659 1.80601E+01 6.35915E+01-6.24623E-03-1.41484E+01-1.11231E-02-2.47478E-02
 -1      6660 1.74429E+01 6.60976E+01-1.70816E-02-1.22760E+01-1.91279E-02-4.81345E-02
 -1      6661 1.80400E+01 7.10048E+01-1.86413E-02-1.94401E+01-4.52503E-02-7.68477E-02
 -1      6662 1.79887E+01 6.37250E+01-3.46874E-02-1.44108E+01-2.11680E-02-4.35087E-02
 -1      6663 1.73783E+01 6.62390E+01-4.96266E-02-1.24403E+01-1.64227E-02-4.13621E-02
 -1      6664 1.80483E+01 7.11563E+01-4.67396E-02-1.96318E+01-3.74402E-02-5.88941E-02
 -1      6665 1.79695E+01 6.37976E+01-5.76145E-02-1.45338E+01-9.85314E-03-1.98236E-02
 -1      6666 1.73627E+01 6.62874E+01-6.36288E-02-1.24927E+01 5.32434E-12-2.81784E-12
 -1      6667 1.80565E+01 7.12096E+01-5.66094E-02-1.96918E+01-1.48457E-12-5.31613E-12
 -1      6668 1.79695E+01 6.37976E+01-5.76145E-02-1.45338E+01 9.85314E-03 1.98236E-02
 -1      6669 1.73783E+01 6.62390E+01-4.96266E-02-1.24403E+01 1.64227E-02 4.13621E-02
 -1      6670 1.80483E+01 7.11563E+01-4.67396E-02-1.96318E+01 3.74402E-02 5.88941E-02
 -1      6671 1.79887E+01 6.37250E+01-3.46874E-02-1.44108E+01 2.11680E-02 4.35087E-02
 -1      6672 1.74429E+01 6.60976E+01-1.70816E-02-1.22760E+01 1.91279E-02 4.81345E-02
 -1      6673 1.80400E+01 7.10048E+01-1.86413E-02-1.94401E+01 4.52503E-02 7.68477E-02
 -1      6674 1.80601E+01 6.35915E+01-6.24623E-03-1.41484E+01 1.11231E-02 2.47478E-02
 -1      6675 1.91052E+01 5.74176E+01-6.04448E-03-1.71937E+01-1.36938E-02-2.16522E-02
 -1      6676 1.85622E+01 6.05520E+01-1.62866E-02-1.58567E+01-2.50851E-02-4.26089E-02
 -1      6677 2.08540E+01 6.26120E+01-1.76142E-02-2.30966E+01-5.57783E-02-6.40718E-02
 -1      6678 1.91420E+01 5.74395E+01-3.27628E-02-1.74791E+01-2.60844E-02-3.76077E-02
 -1      6679 1.85680E+01 6.06194E+01-4.73739E-02-1.60513E+01-2.15671E-02-3.66123E-02
 -1      6680 2.09385E+01 6.26783E+01-4.42610E-02-2.33048E+01-4.60976E-02-4.83494E-02
 -1      6681 1.91731E+01 5.74587E+01-5.45602E-02-1.76126E+01-1.21208E-02-1.70993E-02
 -1      6682 1.85748E+01 6.06438E+01-6.07310E-02-1.61133E+01 3.47116E-13-6.64944E-12
 -1      6683 2.09702E+01 6.27048E+01-5.36488E-02-2.33700E+01 1.00563E-11-1.82671E-11
 -1      6684 1.91731E+01 5.74587E+01-5.45602E-02-1.76126E+01 1.21208E-02 1.70993E-02
 -1      6685 1.85680E+01 6.06194E+01-4.73739E-02-1.60513E+01 2.15671E-02 3.66123E-02
 -1      6686 2.09385E+01 6.26783E+01-4.42610E-02-2.33048E+01 4.60976E-02 4.83494E-02
 -1      6687 1.91420E+01 5.74395E+01-3.27628E-02-1.74791E+01 2.60844E-02 3.76077E-02
 -1      6688 1.85622E+01 6.05520E+01-1.62866E-02-1.58567E+01 2.50851E-02 4.26089E-02
 -1      6689 2.08540E+01 6.26120E+01-1.76142E-02-2.30966E+01 5.57783E-02 6.40718E-02
 -1      6690 1.91052E+01 5.74176E+01-6.04449E-03-1.71937E+01 1.36938E-02 2.16522E-02
 -1      6691 1.97774E+01 5.02741E+01-5.95591E-03-1.91231E+01-1.54521E-02-1.82575E-02
 -1      6692 1.94948E+01 5.38178E+01-1.52859E-02-1.83457E+01-2.94267E-02-3.60092E-02
 -1      6693 2.32721E+01 5.31527E+01-1.63868E-02-2.48673E+01-6.27629E-02-4.96323E-02
 -1      6694 1.99239E+01 5.01825E+01-3.04468E-02-1.93883E+01-2.94303E-02-3.09934E-02
 -1      6695 1.95776E+01 5.38038E+01-4.44648E-02-1.85409E+01-2.53389E-02-3.09038E-02
 -1      6696 2.34333E+01 5.31318E+01-4.12768E-02-2.50603E+01-5.17447E-02-3.64804E-02
 -1      6697 2.00058E+01 5.01473E+01-5.10523E-02-1.95120E+01-1.36255E-02-1.40833E-02
 -1      6698 1.96087E+01 5.38019E+01-5.70103E-02-1.86030E+01-7.43108E-12-1.58483E-11
 -1      6699 2.34888E+01 5.31307E+01-5.00534E-02-2.51209E+01-2.43038E-11 1.43571E-11
 -1      6700 2.00058E+01 5.01473E+01-5.10523E-02-1.95120E+01 1.36255E-02 1.40833E-02
 -1      6701 1.95776E+01 5.38038E+01-4.44648E-02-1.85409E+01 2.53389E-02 3.09038E-02
 -1      6702 2.34333E+01 5.31318E+01-4.12768E-02-2.50603E+01 5.17447E-02 3.64804E-02
 -1      6703 1.99239E+01 5.01825E+01-3.04468E-02-1.93883E+01 2.94303E-02 3.09934E-02
 -1      6704 1.94948E+01 5.38178E+01-1.52859E-02-1.83457E+01 2.94267E-02 3.60092E-02
 -1      6705 2.32721E+01 5.31527E+01-1.63868E-02-2.48673E+01 6.27629E-02 4.96323E-02
 -1      6706 1.97774E+01 5.02741E+01-5.95591E-03-1.91231E+01 1.54521E-02 1.82575E-02
 -1      6707 1.97079E+01 4.26061E+01-6.14222E-03-1.99964E+01-1.63198E-02-1.47448E-02
 -1      6708 1.98666E+01 4.63401E+01-1.41069E-02-1.97207E+01-3.20164E-02-2.90948E-02
 -1      6709 2.46369E+01 4.33653E+01-1.52504E-02-2.48502E+01-6.65710E-02-3.47894E-02
 -1      6710 1.99511E+01 4.24145E+01-2.78663E-02-2.02006E+01-3.12087E-02-2.43462E-02
 -1      6711 2.00222E+01 4.62484E+01-4.15438E-02-1.98864E+01-2.77189E-02-2.48415E-02
 -1      6712 2.48651E+01 4.32666E+01-3.85041E-02-2.49986E+01-5.44509E-02-2.45814E-02
 -1      6713 2.00778E+01 4.23308E+01-4.76754E-02-2.02952E+01-1.43531E-02-1.11972E-02
 -1      6714 2.00763E+01 4.62213E+01-5.31753E-02-1.99387E+01 1.01746E-12 1.90639E-11
 -1      6715 2.49418E+01 4.32407E+01-4.68168E-02-2.50454E+01 3.28437E-11-1.09210E-13
 -1      6716 2.00778E+01 4.23308E+01-4.76754E-02-2.02952E+01 1.43531E-02 1.11972E-02
 -1      6717 2.00222E+01 4.62484E+01-4.15438E-02-1.98864E+01 2.77189E-02 2.48415E-02
 -1      6718 2.48651E+01 4.32666E+01-3.85041E-02-2.49986E+01 5.44509E-02 2.45814E-02
 -1      6719 1.99511E+01 4.24145E+01-2.78663E-02-2.02006E+01 3.12087E-02 2.43462E-02
 -1      6720 1.98666E+01 4.63401E+01-1.41069E-02-1.97207E+01 3.20164E-02 2.90948E-02
 -1      6721 2.46369E+01 4.33653E+01-1.52504E-02-2.48502E+01 6.65710E-02 3.47894E-02
 -1      6722 1.97079E+01 4.26061E+01-6.14222E-03-1.99964E+01 1.63198E-02 1.47448E-02
 -1      6723 1.85743E+01 3.48094E+01-8.64344E-03-2.00528E+01-1.75133E-02-1.28412E-02
 -1      6724 1.93261E+01 3.85484E+01-1.33842E-02-2.01347E+01-3.35646E-02-2.31930E-02
 -1      6725 2.43674E+01 3.39116E+01-1.31859E-02-2.34217E+01-6.80240E-02-2.20662E-02
 -1      6726 1.88926E+01 3.45418E+01-2.64621E-02-2.01608E+01-3.28010E-02-1.91012E-02
 -1      6727 1.95425E+01 3.83930E+01-3.85630E-02-2.02431E+01-2.91376E-02-1.93347E-02
 -1      6728 2.46488E+01 3.37523E+01-3.40771E-02-2.34999E+01-5.53029E-02-1.43231E-02
 -1      6729 1.90538E+01 3.44209E+01-4.65654E-02-2.02087E+01-1.48928E-02-9.15792E-03
 -1      6730 1.96155E+01 3.83450E+01-4.93588E-02-2.02767E+01 1.53435E-11-1.18942E-11
 -1      6731 2.47433E+01 3.37073E+01-4.13190E-02-2.35247E+01-1.02304E-11-2.15073E-11
 -1      6732 1.90538E+01 3.44209E+01-4.65654E-02-2.02087E+01 1.48928E-02 9.15792E-03
 -1      6733 1.95425E+01 3.83930E+01-3.85630E-02-2.02431E+01 2.91376E-02 1.93347E-02
 -1      6734 2.46488E+01 3.37523E+01-3.40771E-02-2.34999E+01 5.53029E-02 1.43231E-02
 -1      6735 1.88926E+01 3.45418E+01-2.64621E-02-2.01608E+01 3.28010E-02 1.91012E-02
 -1      6736 1.93261E+01 3.85484E+01-1.33842E-02-2.01347E+01 3.35646E-02 2.31930E-02
 -1      6737 2.43674E+01 3.39116E+01-1.31859E-02-2.34217E+01 6.80240E-02 2.20662E-02
 -1      6738 1.85743E+01 3.48094E+01-8.64344E-03-2.00528E+01 1.75133E-02 1.28412E-02
 -1      6739 1.62125E+01 2.71363E+01-7.30445E-03-1.97351E+01-1.71122E-02-9.63220E-03
 -1      6740 1.76230E+01 3.07740E+01-1.04753E-02-1.99267E+01-3.40659E-02-1.84000E-02
 -1      6741 2.20187E+01 2.52396E+01-1.71394E-02-2.12262E+01-7.30194E-02-5.61476E-03
 -1      6742 1.65780E+01 2.68285E+01-1.86998E-02-1.97105E+01-3.34684E-02-1.26934E-02
 -1      6743 1.78811E+01 3.05741E+01-3.64235E-02-1.99520E+01-3.02908E-02-1.39476E-02
 -1      6744 2.23320E+01 2.50412E+01-3.53240E-02-2.12083E+01-5.66768E-02-3.25187E-03
 -1      6745 1.67601E+01 2.66858E+01-4.02708E-02-1.96954E+01-1.49806E-02-7.40712E-03
 -1      6746 1.79664E+01 3.05119E+01-4.62325E-02-1.99584E+01-8.85376E-12-7.06501E-12
 -1      6747 2.24385E+01 2.49839E+01-4.16140E-02-2.12023E+01-2.56043E-12 2.32900E-12
 -1      6748 1.67601E+01 2.66858E+01-4.02708E-02-1.96954E+01 1.49806E-02 7.40712E-03
 -1      6749 1.78811E+01 3.05741E+01-3.64235E-02-1.99520E+01 3.02908E-02 1.39476E-02
 -1      6750 2.23320E+01 2.50412E+01-3.53240E-02-2.12083E+01 5.66768E-02 3.25187E-03
 -1      6751 1.65780E+01 2.68285E+01-1.86998E-02-1.97105E+01 3.34684E-02 1.26934E-02
 -1      6752 1.76230E+01 3.07740E+01-1.04753E-02-1.99267E+01 3.40659E-02 1.84000E-02
 -1      6753 2.20187E+01 2.52396E+01-1.71394E-02-2.12262E+01 7.30194E-02 5.61476E-03
 -1      6754 1.62125E+01 2.71363E+01-7.30445E-03-1.97351E+01 1.71122E-02 9.63220E-03
 -1      6755 1.27154E+01 1.95459E+01-3.71211E-02-1.96478E+01-2.58665E-02-1.08691E-02
 -1      6756 1.47294E+01 2.31314E+01-1.48886E-02-1.96173E+01-3.53161E-02-1.30420E-02
 -1      6757 1.75769E+01 1.75081E+01 7.86250E-03-1.91580E+01-7.38293E-02 1.55536E-02
 -1      6758 1.30809E+01 1.92436E+01-2.75743E-02-1.94403E+01-4.11490E-02-1.41496E-03
 -1      6759 1.50024E+01 2.29240E+01-3.10498E-02-1.95303E+01-3.10865E-02-6.57047E-03
 -1      6760 1.78929E+01 1.73055E+01 1.03903E-02-1.89989E+01-5.96206E-02 1.94618E-02
 -1      6761 1.32483E+01 1.91043E+01-5.02082E-02-1.93345E+01-1.75775E-02-3.91472E-03
 -1      6762 1.50881E+01 2.28587E+01-3.84539E-02-1.94999E+01-7.03932E-13-1.41688E-12
 -1      6763 1.79993E+01 1.72487E+01 1.44274E-02-1.89483E+01 2.27435E-12-1.01193E-11
 -1      6764 1.32483E+01 1.91043E+01-5.02082E-02-1.93345E+01 1.75775E-02 3.91472E-03
 -1      6765 1.50024E+01 2.29240E+01-3.10498E-02-1.95303E+01 3.10865E-02 6.57047E-03
 -1      6766 1.78929E+01 1.73055E+01 1.03903E-02-1.89989E+01 5.96206E-02-1.94618E-02
 -1      6767 1.30809E+01 1.92436E+01-2.75743E-02-1.94403E+01 4.11490E-02 1.41496E-03
 -1      6768 1.47294E+01 2.31314E+01-1.48886E-02-1.96173E+01 3.53161E-02 1.30420E-02
 -1      6769 1.75769E+01 1.75081E+01 7.86250E-03-1.91580E+01 7.38293E-02-1.55536E-02
 -1      6770 1.27154E+01 1.95459E+01-3.71211E-02-1.96478E+01 2.58665E-02 1.08691E-02
 -1      6771 9.39261E+00 1.15164E+01 2.29548E-02-2.02357E+01 1.27320E-02-3.26258E-03
 -1      6772 1.12051E+01 1.54528E+01 3.00585E-02-1.97185E+01-1.49568E-02 6.64849E-03
 -1      6773 1.12692E+01 1.00830E+01-8.30518E-02-1.83544E+01-5.55128E-02 1.65486E-01
 -1      6774 9.62502E+00 1.13736E+01 7.52625E-02-1.97931E+01 1.34830E-02 5.84047E-02
 -1      6775 1.14116E+01 1.52872E+01 8.55151E-03-1.94991E+01-1.19849E-02 1.71350E-02
 -1      6776 1.13428E+01 9.92949E+00-3.55795E-02-1.80521E+01-2.43318E-02 1.32522E-01
 -1      6777 9.69352E+00 1.13002E+01 9.55843E-02-1.96069E+01 7.50555E-03 2.37681E-02
 -1      6778 1.14665E+01 1.52349E+01 6.38070E-03-1.94310E+01 9.61505E-13-9.37710E-13
 -1      6779 1.13605E+01 9.89969E+00-4.25523E-03-1.79586E+01-7.12886E-12 4.45582E-12
 -1      6780 9.69352E+00 1.13002E+01 9.55843E-02-1.96069E+01-7.50555E-03-2.37681E-02
 -1      6781 1.14116E+01 1.52872E+01 8.55151E-03-1.94991E+01 1.19849E-02-1.71350E-02
 -1      6782 1.13428E+01 9.92949E+00-3.55795E-02-1.80521E+01 2.43318E-02-1.32522E-01
 -1      6783 9.62502E+00 1.13736E+01 7.52625E-02-1.97931E+01-1.34830E-02-5.84047E-02
 -1      6784 1.12051E+01 1.54528E+01 3.00585E-02-1.97185E+01 1.49568E-02-6.64849E-03
 -1      6785 1.12692E+01 1.00830E+01-8.30518E-02-1.83544E+01 5.55128E-02-1.65486E-01
 -1      6786 9.39261E+00 1.15164E+01 2.29548E-02-2.02357E+01-1.27320E-02 3.26258E-03
 -1      6787 7.91005E+00 2.34257E+00-2.78810E-01-2.04440E+01 1.93309E-01-1.64480E-01
 -1      6788 8.29438E+00 7.16514E+00-3.18782E-02-2.01011E+01 1.39079E-01 6.68506E-02
 -1      6789 5.99004E+00 1.98392E+00-4.64306E-02-1.86996E+01 4.61416E-01 2.57201E-01
 -1      6790 7.92764E+00 2.63459E+00-5.42799E-02-2.01457E+01 2.70049E-01 7.70386E-02
 -1      6791 8.30377E+00 7.16459E+00 8.47080E-02-1.98744E+01 1.06340E-01 6.42185E-02
 -1      6792 5.51373E+00 1.98856E+00 1.71718E-02-1.85741E+01 2.72015E-01 2.64461E-01
 -1      6793 7.74480E+00 2.68649E+00 1.92551E-01-2.00620E+01 1.07971E-01 7.05989E-02
 -1      6794 8.28072E+00 7.14582E+00 1.03347E-01-1.98133E+01 1.96044E-11 8.43049E-12
 -1      6795 5.32707E+00 1.96234E+00 3.86413E-02-1.85589E+01 6.29153E-11 3.52788E-11
 -1      6796 7.74480E+00 2.68649E+00 1.92551E-01-2.00620E+01-1.07971E-01-7.05989E-02
 -1      6797 8.30377E+00 7.16459E+00 8.47080E-02-1.98744E+01-1.06340E-01-6.42185E-02
 -1      6798 5.51373E+00 1.98856E+00 1.71718E-02-1.85741E+01-2.72015E-01-2.64461E-01
 -1      6799 7.92764E+00 2.63459E+00-5.42799E-02-2.01457E+01-2.70049E-01-7.70386E-02
 -1      6800 8.29438E+00 7.16514E+00-3.18782E-02-2.01011E+01-1.39079E-01-6.68506E-02
 -1      6801 5.99004E+00 1.98392E+00-4.64306E-02-1.86996E+01-4.61416E-01-2.57201E-01
 -1      6802 7.91005E+00 2.34257E+00-2.78810E-01-2.04440E+01-1.93309E-01 1.64480E-01
 -1      6803 7.92823E+00 1.65524E+00 8.27431E-01-1.85558E+01 2.12655E-01 4.62425E-01
 -1      6804 7.40222E+00 1.60543E+00 1.17371E+00-1.85052E+01 1.53360E-01 2.80390E-01
 -1      6805 7.25596E+00 1.58453E+00 1.28581E+00-1.84823E+01 3.68677E-11-2.64889E-11
 -1      6806 7.40222E+00 1.60543E+00 1.17371E+00-1.85052E+01-1.53360E-01-2.80390E-01
 -1      6807 7.92823E+00 1.65524E+00 8.27431E-01-1.85558E+01-2.12655E-01-4.62425E-01
 -1      6808-1.91002E+01-4.20575E+01 8.06518E-01 4.60502E+01 3.55976E-01-2.25430E-01
 -1      6809-1.02324E+01-8.56087E+01-1.05907E+00 2.76273E+01-1.37707E+00-5.21982E-01
 -1      6810-2.61052E+01-3.87236E+01-5.71634E-01 4.82300E+01 2.00225E+00-1.59456E-01
 -1      6811-1.79855E+01-4.33692E+01-5.91734E-01 4.22135E+01 5.85562E-01-4.17063E-01
 -1      6812-9.89695E+00-8.60070E+01-3.14816E-01 2.59004E+01-6.92664E-01-6.57895E-02
 -1      6813-2.39761E+01-4.04331E+01-2.26213E+00 4.44636E+01 1.12672E+00-5.36945E-02
 -1      6814-1.63723E+01-4.38185E+01-7.56583E-01 4.06233E+01 1.35302E-01-1.17304E-01
 -1      6815-9.25096E+00-8.57618E+01 3.80026E-01 2.52247E+01 1.29182E-11-2.60275E-11
 -1      6816-2.28166E+01-4.02790E+01-2.19750E+00 4.34797E+01-3.14154E-11-4.21158E-11
 -1      6817-1.63723E+01-4.38185E+01-7.56583E-01 4.06233E+01-1.35302E-01 1.17304E-01
 -1      6818-9.89695E+00-8.60070E+01-3.14816E-01 2.59004E+01 6.92664E-01 6.57895E-02
 -1      6819-2.39761E+01-4.04331E+01-2.26213E+00 4.44636E+01-1.12672E+00 5.36945E-02
 -1      6820-1.79855E+01-4.33692E+01-5.91734E-01 4.22135E+01-5.85562E-01 4.17063E-01
 -1      6821-1.02324E+01-8.56087E+01-1.05907E+00 2.76273E+01 1.37707E+00 5.21982E-01
 -1      6822-2.61052E+01-3.87236E+01-5.71634E-01 4.82300E+01-2.00225E+00 1.59456E-01
 -1      6823-1.91002E+01-4.20575E+01 8.06518E-01 4.60502E+01-3.55976E-01 2.25430E-01
 -1      6824-1.97730E+01 1.33513E+01-6.50619E-01 2.13337E+01 9.25489E-02-1.81024E-01
 -1      6825-2.00588E+01-1.20604E+01 5.91351E-02 3.04493E+01 2.48022E-01-2.80506E-01
 -1      6826-1.05849E+01 1.53796E+01 2.72862E-02 1.42235E+01 2.56221E-01-5.41859E-01
 -1      6827-1.70136E+01 1.13369E+01-4.26369E-01 2.10942E+01 1.80370E-01-2.24352E-01
 -1      6828-1.83375E+01-1.36321E+01-4.17904E-01 2.91270E+01 1.81300E-01-1.75812E-01
 -1      6829-7.69029E+00 1.43017E+01-2.03173E-01 1.45188E+01 4.98539E-01-5.35686E-01
 -1      6830-1.59995E+01 1.04835E+01-6.37894E-01 2.09452E+01 1.40558E-01-7.04510E-02
 -1      6831-1.77175E+01-1.40603E+01-5.87513E-01 2.87707E+01-2.38705E-11 1.77670E-12
 -1      6832-6.81105E+00 1.36840E+01-5.94070E-01 1.45426E+01-1.11796E-11 3.98506E-11
 -1      6833-1.59995E+01 1.04835E+01-6.37894E-01 2.09452E+01-1.40558E-01 7.04510E-02
 -1      6834-1.83375E+01-1.36321E+01-4.17904E-01 2.91270E+01-1.81300E-01 1.75812E-01
 -1      6835-7.69029E+00 1.43017E+01-2.03173E-01 1.45188E+01-4.98539E-01 5.35686E-01
 -1      6836-1.70136E+01 1.13369E+01-4.26369E-01 2.10942E+01-1.80370E-01 2.24352E-01
 -1      6837-2.00588E+01-1.20604E+01 5.91351E-02 3.04493E+01-2.48022E-01 2.80506E-01
 -1      6838-1.05849E+01 1.53796E+01 2.72862E-02 1.42235E+01-2.56221E-01 5.41859E-01
 -1      6839-1.97730E+01 1.33513E+01-6.50619E-01 2.13337E+01-9.25489E-02 1.81024E-01
 -1      6840-4.13728E-01 2.42205E+01-2.26275E-01 8.95343E+00 6.47096E-02-7.26696E-02
 -1      6841-7.37411E+00 1.69184E+01-1.07319E-01 1.41859E+01 1.31820E-01-8.81313E-02
 -1      6842 1.18385E+01 2.31600E+01 4.19042E-01 7.70345E+00 7.79184E-02-1.10551E-01
 -1      6843 5.17722E-01 2.34477E+01-2.78920E-01 9.52138E+00 6.47307E-02-5.41985E-02
 -1      6844-6.13966E+00 1.61502E+01-2.13738E-01 1.44051E+01 1.03037E-01-1.26800E-01
 -1      6845 1.24694E+01 2.25645E+01 2.75548E-01 8.31673E+00 2.82107E-02-1.58651E-01
 -1      6846 9.11495E-01 2.30272E+01-3.27259E-01 9.84115E+00 1.74472E-02-2.67430E-02
 -1      6847-5.76869E+00 1.58723E+01-2.99357E-01 1.44546E+01-2.90958E-13 1.46691E-11
 -1      6848 1.26969E+01 2.24240E+01 2.52959E-01 8.54686E+00 1.15904E-11 1.77053E-12
 -1      6849 9.11495E-01 2.30272E+01-3.27259E-01 9.84115E+00-1.74472E-02 2.67430E-02
 -1      6850-6.13966E+00 1.61502E+01-2.13738E-01 1.44051E+01-1.03037E-01 1.26800E-01
 -1      6851 1.24694E+01 2.25645E+01 2.75548E-01 8.31673E+00-2.82107E-02 1.58651E-01
 -1      6852 5.17722E-01 2.34477E+01-2.78920E-01 9.52138E+00-6.47307E-02 5.41985E-02
 -1      6853-7.37411E+00 1.69184E+01-1.07319E-01 1.41859E+01-1.31820E-01 8.81313E-02
 -1      6854 1.18385E+01 2.31600E+01 4.19042E-01 7.70345E+00-7.79184E-02 1.10551E-01
 -1      6855-4.13728E-01 2.42205E+01-2.26275E-01 8.95343E+00-6.47096E-02 7.26696E-02
 -1      6856 1.19974E+01 2.77002E+01-3.24466E-02 8.58811E+00 1.30842E-03-4.58437E-03
 -1      6857 7.10196E+00 2.51041E+01 1.09397E-02 8.94100E+00 5.78318E-03-2.24626E-02
 -1      6858 2.02212E+01 2.65371E+01 6.09546E-02 1.07550E+01-4.50895E-02-1.06787E-03
 -1      6859 1.22245E+01 2.74376E+01-4.45419E-02 9.02778E+00-2.28746E-02 2.67624E-04
 -1      6860 7.46463E+00 2.47114E+01-3.76851E-02 9.32132E+00 1.03107E-02-3.17235E-02
 -1      6861 2.03412E+01 2.65172E+01 5.70063E-02 1.11385E+01-9.58363E-03-2.97921E-02
 -1      6862 1.22912E+01 2.73473E+01-5.08723E-02 9.25786E+00-3.59345E-03 3.61151E-03
 -1      6863 7.58815E+00 2.45908E+01-5.87541E-02 9.45423E+00 6.79901E-12-1.88408E-12
 -1      6864 2.03559E+01 2.64822E+01 1.73916E-02 1.12772E+01 8.69439E-12-8.08908E-12
 -1      6865 1.22912E+01 2.73473E+01-5.08723E-02 9.25786E+00 3.59345E-03-3.61151E-03
 -1      6866 7.46463E+00 2.47114E+01-3.76851E-02 9.32132E+00-1.03107E-02 3.17235E-02
 -1      6867 2.03412E+01 2.65172E+01 5.70063E-02 1.11385E+01 9.58363E-03 2.97921E-02
 -1      6868 1.22245E+01 2.74376E+01-4.45419E-02 9.02778E+00 2.28746E-02-2.67624E-04
 -1      6869 7.10196E+00 2.51041E+01 1.09397E-02 8.94100E+00-5.78318E-03 2.24626E-02
 -1      6870 2.02212E+01 2.65371E+01 6.09546E-02 1.07550E+01 4.50895E-02 1.06787E-03
 -1      6871 1.19974E+01 2.77002E+01-3.24466E-02 8.58811E+00-1.30842E-03 4.58437E-03
 -1      6872 1.66771E+01 3.23866E+01 3.58721E-03 1.04023E+01 9.57539E-03-5.22205E-03
 -1      6873 1.45584E+01 2.97290E+01-2.18056E-02 9.71589E+00-8.42827E-03 1.80728E-02
 -1      6874 2.25277E+01 3.25486E+01 1.73126E-02 1.41571E+01-7.91219E-05 1.74500E-02
 -1      6875 1.67638E+01 3.22993E+01 2.01852E-04 1.06578E+01-2.34402E-03 8.95291E-03
 -1      6876 1.46663E+01 2.96321E+01-1.25433E-02 9.97993E+00-5.25128E-03 4.16565E-03
 -1      6877 2.25554E+01 3.25228E+01 2.88031E-02 1.43427E+01-2.74489E-03 6.66743E-03
 -1      6878 1.67806E+01 3.22665E+01 6.95791E-03 1.07939E+01 4.20848E-04 4.77945E-03
 -1      6879 1.46884E+01 2.95970E+01-1.78586E-02 1.00701E+01-2.73620E-13-1.55648E-13
 -1      6880 2.25470E+01 3.25161E+01 2.86323E-02 1.44153E+01-4.87847E-12-1.78978E-13
 -1      6881 1.67806E+01 3.22665E+01 6.95791E-03 1.07939E+01-4.20848E-04-4.77945E-03
 -1      6882 1.46663E+01 2.96321E+01-1.25433E-02 9.97993E+00 5.25128E-03-4.16565E-03
 -1      6883 2.25554E+01 3.25228E+01 2.88031E-02 1.43427E+01 2.74489E-03-6.66743E-03
 -1      6884 1.67638E+01 3.22993E+01 2.01852E-04 1.06578E+01 2.34402E-03-8.95291E-03
 -1      6885 1.45584E+01 2.97290E+01-2.18056E-02 9.71589E+00 8.42827E-03-1.80728E-02
 -1      6886 2.25277E+01 3.25486E+01 1.73126E-02 1.41571E+01 7.91219E-05-1.74500E-02
 -1      6887 1.66771E+01 3.23866E+01 3.58721E-03 1.04023E+01-9.57539E-03 5.22205E-03
 -1      6888 1.79480E+01 3.78804E+01-2.03259E-03 1.13387E+01 3.10451E-03-2.72396E-03
 -1      6889 1.73761E+01 3.50685E+01 5.20896E-03 1.10329E+01 8.06948E-04 5.09133E-03
 -1      6890 2.20854E+01 3.94794E+01 2.91958E-03 1.56497E+01 5.08395E-03 2.35608E-03
 -1      6891 1.80062E+01 3.78171E+01-8.89038E-03 1.15410E+01-6.16166E-04 1.56695E-03
 -1      6892 1.74230E+01 3.50084E+01 6.34433E-03 1.12068E+01 1.34100E-04 1.92293E-03
 -1      6893 2.21307E+01 3.94587E+01 1.83202E-03 1.57922E+01 7.37705E-03-9.26403E-04
 -1      6894 1.80285E+01 3.77964E+01-6.36279E-03 1.16410E+01 1.92466E-03 1.21732E-03
 -1      6895 1.74353E+01 3.49951E+01 5.76618E-03 1.12660E+01-3.70047E-12 6.03441E-13
 -1      6896 2.21368E+01 3.94496E+01-3.74943E-03 1.58419E+01-5.94584E-13 2.81017E-12
 -1      6897 1.80285E+01 3.77964E+01-6.36279E-03 1.16410E+01-1.92466E-03-1.21732E-03
 -1      6898 1.74230E+01 3.50084E+01 6.34433E-03 1.12068E+01-1.34100E-04-1.92293E-03
 -1      6899 2.21307E+01 3.94587E+01 1.83202E-03 1.57922E+01-7.37705E-03 9.26403E-04
 -1      6900 1.80062E+01 3.78171E+01-8.89038E-03 1.15410E+01 6.16166E-04-1.56695E-03
 -1      6901 1.73761E+01 3.50685E+01 5.20896E-03 1.10329E+01-8.06948E-04-5.09133E-03
 -1      6902 2.20854E+01 3.94794E+01 2.91958E-03 1.56497E+01-5.08395E-03-2.35608E-03
 -1      6903 1.79480E+01 3.78804E+01-2.03259E-03 1.13387E+01-3.10451E-03 2.72396E-03
 -1      6904 1.81590E+01 4.32274E+01 1.72340E-03 1.09254E+01 3.43762E-03-3.47344E-03
 -1      6905 1.80715E+01 4.05157E+01-4.75695E-03 1.12646E+01 3.00253E-03 4.38775E-04
 -1      6906 2.08625E+01 4.63593E+01-5.99392E-03 1.54239E+01 1.27726E-02-7.37042E-03
 -1      6907 1.81913E+01 4.31972E+01-4.74090E-03 1.11264E+01 3.70188E-03-2.62498E-03
 -1      6908 1.81067E+01 4.04852E+01-6.75917E-03 1.14145E+01 2.93153E-03-1.47458E-03
 -1      6909 2.09020E+01 4.63465E+01-1.32951E-02 1.55735E+01 1.14408E-02-7.46866E-03
 -1      6910 1.82055E+01 4.31870E+01-6.70804E-03 1.12247E+01 2.72788E-03-1.34337E-03
 -1      6911 1.81157E+01 4.04775E+01-9.01252E-03 1.14643E+01 1.12507E-12-1.26085E-12
 -1      6912 2.09114E+01 4.63432E+01-1.82898E-02 1.56233E+01 3.86395E-12-5.87148E-12
 -1      6913 1.82055E+01 4.31870E+01-6.70804E-03 1.12247E+01-2.72788E-03 1.34337E-03
 -1      6914 1.81067E+01 4.04852E+01-6.75917E-03 1.14145E+01-2.93153E-03 1.47458E-03
 -1      6915 2.09020E+01 4.63465E+01-1.32951E-02 1.55735E+01-1.14408E-02 7.46866E-03
 -1      6916 1.81913E+01 4.31972E+01-4.74090E-03 1.11264E+01-3.70188E-03 2.62498E-03
 -1      6917 1.80715E+01 4.05157E+01-4.75695E-03 1.12646E+01-3.00253E-03-4.38775E-04
 -1      6918 2.08625E+01 4.63593E+01-5.99392E-03 1.54239E+01-1.27726E-02 7.37042E-03
 -1      6919 1.81590E+01 4.32274E+01 1.72340E-03 1.09254E+01-3.43762E-03 3.47344E-03
 -1      6920 1.81643E+01 4.78441E+01-8.09579E-04 9.50218E+00 2.63131E-03-3.98018E-03
 -1      6921 1.81578E+01 4.55352E+01-2.62244E-03 1.03442E+01 4.61210E-03-4.51331E-03
 -1      6922 1.95985E+01 5.25239E+01-7.20153E-03 1.38005E+01 1.37325E-02-1.56325E-02
 -1      6923 1.81439E+01 4.78680E+01-8.33299E-03 9.71103E+00 4.37351E-03-6.09671E-03
 -1      6924 1.81644E+01 4.55343E+01-8.66063E-03 1.04962E+01 4.25843E-03-4.82986E-03
 -1      6925 1.96021E+01 5.25533E+01-2.04870E-02 1.39625E+01 1.24623E-02-1.43124E-02
 -1      6926 1.81359E+01 4.78830E+01-1.29822E-02 9.81285E+00 2.64104E-03-3.06114E-03
 -1      6927 1.81668E+01 4.55364E+01-1.17183E-02 1.05460E+01 1.30471E-12-9.18891E-13
 -1      6928 1.96033E+01 5.25640E+01-2.72130E-02 1.40152E+01-4.70616E-12 2.56445E-12
 -1      6929 1.81359E+01 4.78830E+01-1.29822E-02 9.81285E+00-2.64104E-03 3.06114E-03
 -1      6930 1.81644E+01 4.55343E+01-8.66063E-03 1.04962E+01-4.25843E-03 4.82986E-03
 -1      6931 1.96021E+01 5.25533E+01-2.04870E-02 1.39625E+01-1.24623E-02 1.43124E-02
 -1      6932 1.81439E+01 4.78680E+01-8.33299E-03 9.71103E+00-4.37351E-03 6.09671E-03
 -1      6933 1.81578E+01 4.55352E+01-2.62244E-03 1.03442E+01-4.61210E-03 4.51331E-03
 -1      6934 1.95985E+01 5.25239E+01-7.20153E-03 1.38005E+01-1.37325E-02 1.56325E-02
 -1      6935 1.81643E+01 4.78441E+01-8.09579E-04 9.50218E+00-2.63131E-03 3.98018E-03
 -1      6936 1.82661E+01 5.14772E+01-5.89583E-04 7.45210E+00 2.28841E-03-4.73864E-03
 -1      6937 1.81743E+01 4.96977E+01-4.66951E-03 8.60592E+00 4.52261E-03-7.42117E-03
 -1      6938 1.85456E+01 5.76075E+01-9.04918E-03 1.11593E+01 1.26761E-02-2.19985E-02
 -1      6939 1.81771E+01 5.15711E+01-8.80514E-03 7.64874E+00 4.29510E-03-8.60405E-03
 -1      6940 1.81378E+01 4.97438E+01-1.28573E-02 8.75576E+00 4.40291E-03-7.33041E-03
 -1      6941 1.84965E+01 5.76944E+01-2.55527E-02 1.13156E+01 1.12604E-02-1.97269E-02
 -1      6942 1.81367E+01 5.16198E+01-1.52717E-02 7.74470E+00 2.30296E-03-4.28485E-03
 -1      6943 1.81266E+01 4.97604E+01-1.67709E-02 8.80475E+00-1.85716E-13 2.26296E-12
 -1      6944 1.84822E+01 5.77243E+01-3.32338E-02 1.13660E+01 3.45582E-12 9.55765E-13
 -1      6945 1.81367E+01 5.16198E+01-1.52717E-02 7.74470E+00-2.30296E-03 4.28485E-03
 -1      6946 1.81378E+01 4.97438E+01-1.28573E-02 8.75576E+00-4.40291E-03 7.33041E-03
 -1      6947 1.84965E+01 5.76944E+01-2.55527E-02 1.13156E+01-1.12604E-02 1.97269E-02
 -1      6948 1.81771E+01 5.15711E+01-8.80514E-03 7.64874E+00-4.29510E-03 8.60405E-03
 -1      6949 1.81743E+01 4.96977E+01-4.66951E-03 8.60592E+00-4.52261E-03 7.42117E-03
 -1      6950 1.85456E+01 5.76075E+01-9.04918E-03 1.11593E+01-1.26761E-02 2.19985E-02
 -1      6951 1.82661E+01 5.14772E+01-5.89583E-04 7.45210E+00-2.28841E-03 4.73864E-03
 -1      6952 1.84458E+01 5.40483E+01-1.01623E-03 5.07545E+00 1.65042E-03-5.42363E-03
 -1      6953 1.82729E+01 5.28437E+01-5.06441E-03 6.37565E+00 3.79825E-03-9.57997E-03
 -1      6954 1.77838E+01 6.13757E+01-9.88224E-03 7.80677E+00 9.52658E-03-2.67685E-02
 -1      6955 1.82894E+01 5.42102E+01-9.89482E-03 5.23027E+00 3.27264E-03-1.04413E-02
 -1      6956 1.81866E+01 5.29409E+01-1.47597E-02 6.50546E+00 3.71735E-03-9.26693E-03
 -1      6957 1.76813E+01 6.15198E+01-2.86825E-02 7.93118E+00 8.44879E-03-2.38857E-02
 -1      6958 1.82168E+01 5.42923E+01-1.74359E-02 5.30590E+00 1.68405E-03-5.15134E-03
 -1      6959 1.81598E+01 5.29741E+01-1.92454E-02 6.54788E+00 1.55079E-12 6.03621E-13
 -1      6960 1.76507E+01 6.15684E+01-3.71819E-02 7.97126E+00 1.92224E-13-2.89838E-13
 -1      6961 1.82168E+01 5.42923E+01-1.74359E-02 5.30590E+00-1.68405E-03 5.15134E-03
 -1      6962 1.81866E+01 5.29409E+01-1.47597E-02 6.50546E+00-3.71735E-03 9.26693E-03
 -1      6963 1.76813E+01 6.15198E+01-2.86825E-02 7.93118E+00-8.44879E-03 2.38857E-02
 -1      6964 1.82894E+01 5.42102E+01-9.89482E-03 5.23027E+00-3.27264E-03 1.04413E-02
 -1      6965 1.82729E+01 5.28437E+01-5.06441E-03 6.37565E+00-3.79825E-03 9.57997E-03
 -1      6966 1.77838E+01 6.13757E+01-9.88224E-03 7.80677E+00-9.52658E-03 2.67685E-02
 -1      6967 1.84458E+01 5.40483E+01-1.01623E-03 5.07545E+00-1.65042E-03 5.42363E-03
 -1      6968 1.86023E+01 5.55618E+01-1.07888E-03 2.56222E+00 8.88123E-04-5.90294E-03
 -1      6969 1.84038E+01 5.49234E+01-5.64302E-03 3.89569E+00 2.49774E-03-1.10326E-02
 -1      6970 1.73201E+01 6.36805E+01-1.05206E-02 4.00970E+00 5.20870E-03-2.98352E-02
 -1      6971 1.83968E+01 5.57735E+01-1.04059E-02 2.64814E+00 1.79034E-03-1.16070E-02
 -1      6972 1.82749E+01 5.50645E+01-1.62741E-02 3.98455E+00 2.47373E-03-1.06381E-02
 -1      6973 1.71781E+01 6.38666E+01-3.06596E-02 4.07930E+00 4.61509E-03-2.65693E-02
 -1      6974 1.83003E+01 5.58799E+01-1.85935E-02 2.69011E+00 9.09749E-04-5.69980E-03
 -1      6975 1.82343E+01 5.51120E+01-2.11566E-02 4.01362E+00 2.40464E-12 1.31912E-12
 -1      6976 1.71352E+01 6.39289E+01-3.96741E-02 4.10170E+00 2.84010E-12 2.65481E-12
 -1      6977 1.83003E+01 5.58799E+01-1.85935E-02 2.69011E+00-9.09749E-04 5.69980E-03
 -1      6978 1.82749E+01 5.50645E+01-1.62741E-02 3.98455E+00-2.47373E-03 1.06381E-02
 -1      6979 1.71781E+01 6.38666E+01-3.06596E-02 4.07930E+00-4.61509E-03 2.65693E-02
 -1      6980 1.83968E+01 5.57735E+01-1.04059E-02 2.64814E+00-1.79034E-03 1.16070E-02
 -1      6981 1.84038E+01 5.49234E+01-5.64302E-03 3.89569E+00-2.49774E-03 1.10326E-02
 -1      6982 1.73201E+01 6.36805E+01-1.05206E-02 4.00970E+00-5.20870E-03 2.98352E-02
 -1      6983 1.86023E+01 5.55618E+01-1.07888E-03 2.56222E+00-8.88123E-04 5.90294E-03
 -1      6984 1.86236E+01 5.60480E+01-1.15795E-03 2.23888E-02 2.36880E-05-6.11975E-03
 -1      6985 1.84705E+01 5.59456E+01-5.89456E-03 1.31974E+00 9.12692E-04-1.18414E-02
 -1      6986 1.71337E+01 6.44406E+01-1.08142E-02 1.54009E-02 2.68134E-04-3.11962E-02
 -1      6987 1.83987E+01 5.62793E+01-1.07027E-02 2.27750E-02 5.40123E-05-1.21271E-02
 -1      6988 1.83165E+01 5.61124E+01-1.70626E-02 1.35158E+00 9.00399E-04-1.14149E-02
 -1      6989 1.69762E+01 6.46435E+01-3.16258E-02 1.61731E-02 2.61494E-04-2.77687E-02
 -1      6990 1.82928E+01 5.63953E+01-1.92056E-02 2.29022E-02 4.81503E-05-5.94285E-03
 -1      6991 1.82678E+01 5.61683E+01-2.21768E-02 1.36197E+00 1.53089E-12-8.17742E-13
 -1      6992 1.69284E+01 6.47113E+01-4.09056E-02 1.63784E-02 1.09774E-13-6.74428E-12
 -1      6993 1.82928E+01 5.63953E+01-1.92056E-02 2.29022E-02-4.81503E-05 5.94285E-03
 -1      6994 1.83165E+01 5.61124E+01-1.70626E-02 1.35158E+00-9.00399E-04 1.14149E-02
 -1      6995 1.69762E+01 6.46435E+01-3.16258E-02 1.61731E-02-2.61494E-04 2.77687E-02
 -1      6996 1.83987E+01 5.62793E+01-1.07027E-02 2.27750E-02-5.40123E-05 1.21271E-02
 -1      6997 1.84705E+01 5.59456E+01-5.89456E-03 1.31974E+00-9.12692E-04 1.18414E-02
 -1      6998 1.71337E+01 6.44406E+01-1.08142E-02 1.54009E-02-2.68134E-04 3.11962E-02
 -1      6999 1.86236E+01 5.60480E+01-1.15795E-03 2.23888E-02-2.36880E-05 6.11975E-03
 -1      7000 1.84257E+01 5.55406E+01-1.18565E-03-2.48168E+00-8.53938E-04-6.06635E-03
 -1      7001 1.83807E+01 5.59364E+01-6.00213E-03-1.25808E+00-7.95988E-04-1.20551E-02
 -1      7002 1.71763E+01 6.36440E+01-1.08500E-02-3.93751E+00-4.77703E-03-3.09406E-02
 -1      7003 1.82163E+01 5.57563E+01-1.07120E-02-2.56927E+00-1.73178E-03-1.20516E-02
 -1      7004 1.82254E+01 5.61047E+01-1.73699E-02-1.29031E+00-8.07461E-04-1.16153E-02
 -1      7005 1.70312E+01 6.38345E+01-3.17593E-02-4.00771E+00-4.16986E-03-2.75523E-02
 -1      7006 1.81181E+01 5.58647E+01-1.92876E-02-2.61221E+00-8.19804E-04-5.90497E-03
 -1      7007 1.81763E+01 5.61611E+01-2.25697E-02-1.30091E+00-4.81256E-13-1.40650E-12
 -1      7008 1.69875E+01 6.38984E+01-4.10720E-02-4.03040E+00-2.74555E-12 4.02141E-12
 -1      7009 1.81181E+01 5.58647E+01-1.92876E-02-2.61221E+00 8.19804E-04 5.90497E-03
 -1      7010 1.82254E+01 5.61047E+01-1.73699E-02-1.29031E+00 8.07461E-04 1.16153E-02
 -1      7011 1.70312E+01 6.38345E+01-3.17593E-02-4.00771E+00 4.16986E-03 2.75523E-02
 -1      7012 1.82163E+01 5.57563E+01-1.07120E-02-2.56927E+00 1.73178E-03 1.20516E-02
 -1      7013 1.83807E+01 5.59364E+01-6.00213E-03-1.25808E+00 7.95988E-04 1.20551E-02
 -1      7014 1.71763E+01 6.36440E+01-1.08500E-02-3.93751E+00 4.77703E-03 3.09406E-02
 -1      7015 1.84257E+01 5.55406E+01-1.18565E-03-2.48168E+00 8.53938E-04 6.06635E-03
 -1      7016 1.79566E+01 5.40730E+01-1.20724E-03-4.90959E+00-1.67630E-03-5.76465E-03
 -1      7017 1.80678E+01 5.49282E+01-5.95120E-03-3.77707E+00-2.46006E-03-1.17315E-02
 -1      7018 1.73627E+01 6.13544E+01-1.06484E-02-7.62441E+00-9.51046E-03-2.92338E-02
 -1      7019 1.77960E+01 5.42398E+01-1.04796E-02-5.07306E+00-3.41293E-03-1.14478E-02
 -1      7020 1.79363E+01 5.50726E+01-1.72407E-02-3.86978E+00-2.48621E-03-1.12820E-02
 -1      7021 1.72567E+01 6.15050E+01-3.11822E-02-7.75578E+00-8.30685E-03-2.60715E-02
 -1      7022 1.77217E+01 5.43241E+01-1.89446E-02-5.15315E+00-1.62521E-03-5.62009E-03
 -1      7023 1.78950E+01 5.51211E+01-2.24004E-02-3.90021E+00 1.46423E-12 2.57928E-12
 -1      7024 1.72256E+01 6.15559E+01-4.03267E-02-7.79820E+00 5.64689E-12 2.60973E-12
 -1      7025 1.77217E+01 5.43241E+01-1.89446E-02-5.15315E+00 1.62521E-03 5.62009E-03
 -1      7026 1.79363E+01 5.50726E+01-1.72407E-02-3.86978E+00 2.48621E-03 1.12820E-02
 -1      7027 1.72567E+01 6.15050E+01-3.11822E-02-7.75578E+00 8.30685E-03 2.60715E-02
 -1      7028 1.77960E+01 5.42398E+01-1.04796E-02-5.07306E+00 3.41293E-03 1.14478E-02
 -1      7029 1.80678E+01 5.49282E+01-5.95120E-03-3.77707E+00 2.46006E-03 1.17315E-02
 -1      7030 1.73627E+01 6.13544E+01-1.06484E-02-7.62441E+00 9.51046E-03 2.92338E-02
 -1      7031 1.79566E+01 5.40730E+01-1.20724E-03-4.90959E+00 1.67630E-03 5.76465E-03
 -1      7032 1.71894E+01 5.16830E+01-1.25865E-03-7.22903E+00-2.38291E-03-5.25765E-03
 -1      7033 1.74896E+01 5.29595E+01-5.77859E-03-6.19214E+00-3.94698E-03-1.09549E-02
 -1      7034 1.75652E+01 5.77123E+01-1.02535E-02-1.08520E+01-1.36033E-02-2.63067E-02
 -1      7035 1.71035E+01 5.17749E+01-1.00240E-02-7.44405E+00-4.86822E-03-1.04035E-02
 -1      7036 1.74036E+01 5.30580E+01-1.67573E-02-6.33187E+00-4.00535E-03-1.04855E-02
 -1      7037 1.75188E+01 5.78014E+01-3.00052E-02-1.10247E+01-1.18435E-02-2.35477E-02
 -1      7038 1.70657E+01 5.18222E+01-1.82613E-02-7.54935E+00-2.30722E-03-5.13830E-03
 -1      7039 1.73773E+01 5.30913E+01-2.17677E-02-6.37769E+00 2.91209E-12-2.51828E-12
 -1      7040 1.75070E+01 5.78324E+01-3.88139E-02-1.10805E+01 1.84689E-12-5.76208E-12
 -1      7041 1.70657E+01 5.18222E+01-1.82613E-02-7.54935E+00 2.30722E-03 5.13830E-03
 -1      7042 1.74036E+01 5.30580E+01-1.67573E-02-6.33187E+00 4.00535E-03 1.04855E-02
 -1      7043 1.75188E+01 5.78014E+01-3.00052E-02-1.10247E+01 1.18435E-02 2.35477E-02
 -1      7044 1.71035E+01 5.17749E+01-1.00240E-02-7.44405E+00 4.86822E-03 1.04035E-02
 -1      7045 1.74896E+01 5.29595E+01-5.77859E-03-6.19214E+00 3.94698E-03 1.09549E-02
 -1      7046 1.75652E+01 5.77123E+01-1.02535E-02-1.08520E+01 1.36033E-02 2.63067E-02
 -1      7047 1.71894E+01 5.16830E+01-1.25865E-03-7.22903E+00 2.38291E-03 5.25765E-03
 -1      7048 1.61122E+01 4.84187E+01-1.36448E-03-9.41237E+00-2.93336E-03-4.59931E-03
 -1      7049 1.66205E+01 5.00793E+01-5.48995E-03-8.46674E+00-5.15169E-03-9.83654E-03
 -1      7050 1.76165E+01 5.29249E+01-9.69979E-03-1.34809E+01-1.68330E-02-2.24449E-02
 -1      7051 1.61155E+01 4.84212E+01-9.31101E-03-9.64658E+00-6.01762E-03-9.02356E-03
 -1      7052 1.65951E+01 5.01168E+01-1.59805E-02-8.63251E+00-5.26957E-03-9.31876E-03
 -1      7053 1.76412E+01 5.29405E+01-2.83808E-02-1.36688E+01-1.45543E-02-2.02834E-02
 -1      7054 1.61213E+01 4.84242E+01-1.72979E-02-9.76118E+00-2.82060E-03-4.53081E-03
 -1      7055 1.65885E+01 5.01299E+01-2.07508E-02-8.68681E+00 5.89908E-13-5.61112E-12
 -1      7056 1.76524E+01 5.29476E+01-3.67250E-02-1.37294E+01 3.97935E-14-1.00798E-11
 -1      7057 1.61213E+01 4.84242E+01-1.72979E-02-9.76118E+00 2.82060E-03 4.53081E-03
 -1      7058 1.65951E+01 5.01168E+01-1.59805E-02-8.63251E+00 5.26957E-03 9.31876E-03
 -1      7059 1.76412E+01 5.29405E+01-2.83808E-02-1.36688E+01 1.45543E-02 2.02834E-02
 -1      7060 1.61155E+01 4.84212E+01-9.31101E-03-9.64658E+00 6.01762E-03 9.02356E-03
 -1      7061 1.66205E+01 5.00793E+01-5.48995E-03-8.46674E+00 5.15169E-03 9.83654E-03
 -1      7062 1.76165E+01 5.29249E+01-9.69979E-03-1.34809E+01 1.68330E-02 2.24449E-02
 -1      7063 1.61122E+01 4.84187E+01-1.36448E-03-9.41237E+00 2.93336E-03 4.59931E-03
 -1      7064 1.47198E+01 4.43405E+01-1.79155E-03-1.14428E+01-3.30553E-03-3.89444E-03
 -1      7065 1.54445E+01 4.63495E+01-5.17357E-03-1.05750E+01-5.98729E-03-8.53714E-03
 -1      7066 1.73251E+01 4.72450E+01-9.06760E-03-1.54488E+01-1.91263E-02-1.79812E-02
 -1      7067 1.48140E+01 4.42521E+01-8.46155E-03-1.16607E+01-6.82608E-03-7.44373E-03
 -1      7068 1.54853E+01 4.63200E+01-1.50506E-02-1.07417E+01-6.22748E-03-7.89121E-03
 -1      7069 1.74218E+01 4.71857E+01-2.63904E-02-1.56231E+01-1.62990E-02-1.66944E-02
 -1      7070 1.48640E+01 4.42100E+01-1.63685E-02-1.17672E+01-3.13184E-03-3.91093E-03
 -1      7071 1.55004E+01 4.63109E+01-1.95082E-02-1.07962E+01-4.42621E-12-4.48750E-12
 -1      7072 1.74564E+01 4.71684E+01-3.42156E-02-1.56794E+01-1.31915E-11-4.55844E-13
 -1      7073 1.48640E+01 4.42100E+01-1.63685E-02-1.17672E+01 3.13184E-03 3.91093E-03
 -1      7074 1.54853E+01 4.63200E+01-1.50506E-02-1.07417E+01 6.22748E-03 7.89121E-03
 -1      7075 1.74218E+01 4.71857E+01-2.63904E-02-1.56231E+01 1.62990E-02 1.66944E-02
 -1      7076 1.48140E+01 4.42521E+01-8.46155E-03-1.16607E+01 6.82608E-03 7.44373E-03
 -1      7077 1.54445E+01 4.63495E+01-5.17357E-03-1.05750E+01 5.98729E-03 8.53714E-03
 -1      7078 1.73251E+01 4.72450E+01-9.06760E-03-1.54488E+01 1.91263E-02 1.79812E-02
 -1      7079 1.47198E+01 4.43405E+01-1.79155E-03-1.14428E+01 3.30553E-03 3.89444E-03
 -1      7080 1.30191E+01 3.95152E+01-2.39747E-03-1.33269E+01-3.53678E-03-3.23135E-03
 -1      7081 1.39545E+01 4.18420E+01-4.63852E-03-1.25111E+01-6.46373E-03-7.31887E-03
 -1      7082 1.65000E+01 4.09374E+01-8.47023E-03-1.67906E+01-2.06345E-02-1.32489E-02
 -1      7083 1.31935E+01 3.93471E+01-6.90544E-03-1.34946E+01-7.36492E-03-5.79271E-03
 -1      7084 1.40584E+01 4.17489E+01-1.39833E-02-1.26531E+01-6.89729E-03-6.36112E-03
 -1      7085 1.66598E+01 4.08119E+01-2.47211E-02-1.69241E+01-1.71582E-02-1.33594E-02
 -1      7086 1.32822E+01 3.92652E+01-1.52239E-02-1.35762E+01-3.27324E-03-3.44768E-03
 -1      7087 1.40938E+01 4.17187E+01-1.80995E-02-1.26992E+01 9.99044E-13 3.72386E-12
 -1      7088 1.67155E+01 4.07731E+01-3.20535E-02-1.69673E+01 1.78183E-11 9.26925E-12
 -1      7089 1.32822E+01 3.92652E+01-1.52239E-02-1.35762E+01 3.27324E-03 3.44768E-03
 -1      7090 1.40584E+01 4.17489E+01-1.39833E-02-1.26531E+01 6.89729E-03 6.36112E-03
 -1      7091 1.66598E+01 4.08119E+01-2.47211E-02-1.69241E+01 1.71582E-02 1.33594E-02
 -1      7092 1.31935E+01 3.93471E+01-6.90544E-03-1.34946E+01 7.36492E-03 5.79271E-03
 -1      7093 1.39545E+01 4.18420E+01-4.63852E-03-1.25111E+01 6.46373E-03 7.31887E-03
 -1      7094 1.65000E+01 4.09374E+01-8.47023E-03-1.67906E+01 2.06345E-02 1.32489E-02
 -1      7095 1.30191E+01 3.95152E+01-2.39747E-03-1.33269E+01 3.53678E-03 3.23135E-03
 -1      7096 1.10478E+01 3.39898E+01-4.99479E-03-1.51149E+01-3.77486E-03-2.95568E-03
 -1      7097 1.21660E+01 3.66203E+01-4.84446E-03-1.43044E+01-6.56316E-03-6.51288E-03
 -1      7098 1.49968E+01 3.42325E+01-7.97124E-03-1.76535E+01-2.20556E-02-8.47179E-03
 -1      7099 1.12810E+01 3.37643E+01-5.93393E-03-1.52021E+01-7.89215E-03-4.26536E-03
 -1      7100 1.23211E+01 3.64757E+01-1.35867E-02-1.43978E+01-7.42058E-03-4.79906E-03
 -1      7101 1.52040E+01 3.40576E+01-2.22945E-02-1.77219E+01-1.74647E-02-1.11561E-02
 -1      7102 1.13977E+01 3.36527E+01-1.60094E-02-1.52440E+01-3.32075E-03-3.47554E-03
 -1      7103 1.23726E+01 3.64285E+01-1.73217E-02-1.44277E+01 5.96422E-12-2.55511E-12
 -1      7104 1.52767E+01 3.40030E+01-2.93374E-02-1.77439E+01-1.74289E-12-1.42758E-11
 -1      7105 1.13977E+01 3.36527E+01-1.60094E-02-1.52440E+01 3.32075E-03 3.47554E-03
 -1      7106 1.23211E+01 3.64757E+01-1.35867E-02-1.43978E+01 7.42058E-03 4.79906E-03
 -1      7107 1.52040E+01 3.40576E+01-2.22945E-02-1.77219E+01 1.74647E-02 1.11561E-02
 -1      7108 1.12810E+01 3.37643E+01-5.93393E-03-1.52021E+01 7.89215E-03 4.26536E-03
 -1      7109 1.21660E+01 3.66203E+01-4.84446E-03-1.43044E+01 6.56316E-03 6.51288E-03
 -1      7110 1.49968E+01 3.42325E+01-7.97124E-03-1.76535E+01 2.20556E-02 8.47179E-03
 -1      7111 1.10478E+01 3.39898E+01-4.99479E-03-1.51149E+01 3.77486E-03 2.95568E-03
 -1      7112 8.96795E+00 2.77404E+01-8.81396E-03-1.68937E+01-4.15668E-03-3.63187E-03
 -1      7113 1.01735E+01 3.07073E+01-2.84862E-03-1.60231E+01-6.82710E-03-7.24462E-03
 -1      7114 1.27982E+01 2.72464E+01-7.26512E-03-1.83096E+01-2.41939E-02-2.68077E-03
 -1      7115 9.23098E+00 2.74928E+01-1.19317E-03-1.68724E+01-8.76920E-03-2.48447E-03
 -1      7116 1.03608E+01 3.05321E+01-1.28883E-02-1.60464E+01-8.02344E-03-3.71903E-03
 -1      7117 1.30280E+01 2.70461E+01-2.31818E-02-1.82902E+01-1.82133E-02-1.00680E-02
 -1      7118 9.35963E+00 2.73681E+01-1.44249E-02-1.68605E+01-3.62049E-03-4.11071E-03
 -1      7119 1.04214E+01 3.04747E+01-1.65327E-02-1.60530E+01-2.58716E-12-6.67972E-12
 -1      7120 1.31120E+01 2.69841E+01-2.97879E-02-1.82834E+01-4.91479E-12-1.87994E-12
 -1      7121 9.35963E+00 2.73681E+01-1.44249E-02-1.68605E+01 3.62049E-03 4.11071E-03
 -1      7122 1.03608E+01 3.05321E+01-1.28883E-02-1.60464E+01 8.02344E-03 3.71903E-03
 -1      7123 1.30280E+01 2.70461E+01-2.31818E-02-1.82902E+01 1.82133E-02 1.00680E-02
 -1      7124 9.23098E+00 2.74928E+01-1.19317E-03-1.68724E+01 8.76920E-03 2.48447E-03
 -1      7125 1.01735E+01 3.07073E+01-2.84862E-03-1.60231E+01 6.82710E-03 7.24462E-03
 -1      7126 1.27982E+01 2.72464E+01-7.26512E-03-1.83096E+01 2.41939E-02 2.68077E-03
 -1      7127 8.96795E+00 2.77404E+01-8.81396E-03-1.68937E+01 4.15668E-03 3.63187E-03
 -1      7128 7.16722E+00 2.06187E+01-1.93316E-02-1.87305E+01-5.09383E-03-5.58337E-03
 -1      7129 8.23120E+00 2.40227E+01-7.85539E-03-1.77353E+01-6.20043E-03-8.64936E-03
 -1      7130 1.01790E+01 1.99106E+01-8.96190E-03-1.90624E+01-2.71415E-02 1.22397E-02
 -1      7131 7.40324E+00 2.04062E+01 2.48232E-03-1.85736E+01-1.00161E-02 3.70811E-03
 -1      7132 8.42191E+00 2.38510E+01-1.37797E-02-1.76689E+01-8.31759E-03-1.36690E-03
 -1      7133 1.03846E+01 1.97274E+01-9.38129E-03-1.89236E+01-1.92394E-02-5.66128E-03
 -1      7134 7.51014E+00 2.02934E+01-1.63574E-02-1.84949E+01-3.75262E-03-4.59285E-03
 -1      7135 8.47987E+00 2.37942E+01-1.62035E-02-1.76460E+01-1.35342E-12-1.65672E-12
 -1      7136 1.04684E+01 1.96741E+01-1.22658E-02-1.88776E+01 8.70732E-13-2.08919E-12
 -1      7137 7.51014E+00 2.02934E+01-1.63574E-02-1.84949E+01 3.75262E-03 4.59285E-03
 -1      7138 8.42191E+00 2.38510E+01-1.37797E-02-1.76689E+01 8.31759E-03 1.36690E-03
 -1      7139 1.03846E+01 1.97274E+01-9.38129E-03-1.89236E+01 1.92394E-02 5.66128E-03
 -1      7140 7.40324E+00 2.04062E+01 2.48232E-03-1.85736E+01 1.00161E-02-3.70811E-03
 -1      7141 8.23120E+00 2.40227E+01-7.85539E-03-1.77353E+01 6.20043E-03 8.64936E-03
 -1      7142 1.01790E+01 1.99106E+01-8.96190E-03-1.90624E+01 2.71415E-02-1.22397E-02
 -1      7143 7.16722E+00 2.06187E+01-1.93316E-02-1.87305E+01 5.09383E-03 5.58337E-03
 -1      7144 6.50416E+00 1.23159E+01-8.87901E-02-2.02145E+01 9.20388E-03-4.34800E-02
 -1      7145 6.94412E+00 1.64305E+01 1.00523E-02-1.93091E+01 5.77670E-04-2.20801E-02
 -1      7146 8.11302E+00 1.18354E+01 1.26935E-02-1.99884E+01 1.05461E-04 3.00843E-02
 -1      7147 6.65318E+00 1.22732E+01-3.38086E-02-1.99287E+01 8.39896E-03-2.99261E-04
 -1      7148 7.09379E+00 1.63178E+01-1.85157E-02-1.91508E+01-6.16555E-04-1.01423E-02
 -1      7149 8.17038E+00 1.17335E+01-1.35360E-02-1.97448E+01 5.94643E-03 1.19838E-02
 -1      7150 6.69525E+00 1.22324E+01-3.45049E-02-1.97950E+01 3.97482E-03-4.83699E-03
 -1      7151 7.13352E+00 1.62779E+01-2.71753E-02-1.90995E+01 2.18602E-12-2.78547E-14
 -1      7152 8.21179E+00 1.17127E+01-5.00839E-03-1.96696E+01 2.87781E-12 4.23893E-12
 -1      7153 6.69525E+00 1.22324E+01-3.45049E-02-1.97950E+01-3.97482E-03 4.83699E-03
 -1      7154 7.09379E+00 1.63178E+01-1.85157E-02-1.91508E+01 6.16555E-04 1.01423E-02
 -1      7155 8.17038E+00 1.17335E+01-1.35360E-02-1.97448E+01-5.94643E-03-1.19838E-02
 -1      7156 6.65318E+00 1.22732E+01-3.38086E-02-1.99287E+01-8.39896E-03 2.99261E-04
 -1      7157 6.94412E+00 1.64305E+01 1.00523E-02-1.93091E+01-5.77670E-04 2.20801E-02
 -1      7158 8.11302E+00 1.18354E+01 1.26935E-02-1.99884E+01-1.05461E-04-3.00843E-02
 -1      7159 6.50416E+00 1.23159E+01-8.87901E-02-2.02145E+01-9.20388E-03 4.34800E-02
 -1      7160 7.32081E+00 4.00345E+00-2.83360E-01-1.97877E+01 5.23127E-02-3.14863E-01
 -1      7161 6.98008E+00 8.43602E+00 2.95349E-02-1.99290E+01 4.04007E-02-4.47084E-02
 -1      7162 7.91210E+00 3.46845E+00-1.61250E-01-1.98323E+01 2.12762E-01-4.64652E-02
 -1      7163 7.72722E+00 4.35197E+00-1.67965E-01-1.95979E+01 7.81464E-02-7.69741E-02
 -1      7164 7.11922E+00 8.50334E+00 1.07112E-01-1.97565E+01 3.87064E-02-2.46660E-02
 -1      7165 7.76676E+00 3.55937E+00 7.60356E-02-1.97012E+01 1.42061E-01 8.76666E-02
 -1      7166 7.72476E+00 4.47281E+00 9.06625E-02-1.95159E+01 3.43146E-02 1.48401E-02
 -1      7167 7.14613E+00 8.50856E+00 1.17812E-01-1.97057E+01 1.34180E-11-3.25957E-12
 -1      7168 7.66414E+00 3.57019E+00 1.92787E-01-1.96663E+01 3.50009E-11-6.07530E-12
 -1      7169 7.72476E+00 4.47281E+00 9.06625E-02-1.95159E+01-3.43146E-02-1.48401E-02
 -1      7170 7.11922E+00 8.50334E+00 1.07112E-01-1.97565E+01-3.87064E-02 2.46660E-02
 -1      7171 7.76676E+00 3.55937E+00 7.60356E-02-1.97012E+01-1.42061E-01-8.76666E-02
 -1      7172 7.72722E+00 4.35197E+00-1.67965E-01-1.95979E+01-7.81464E-02 7.69741E-02
 -1      7173 6.98008E+00 8.43602E+00 2.95349E-02-1.99290E+01-4.04007E-02 4.47084E-02
 -1      7174 7.91210E+00 3.46845E+00-1.61250E-01-1.98323E+01-2.12762E-01 4.64652E-02
 -1      7175 7.32081E+00 4.00345E+00-2.83360E-01-1.97877E+01-5.23127E-02 3.14863E-01
 -1      7176 7.95135E+00 3.11301E+00 7.97347E-01-1.87669E+01 4.85278E-02 5.22637E-01
 -1      7177 7.61843E+00 3.19934E+00 1.25640E+00-1.87026E+01 4.68912E-02 3.25137E-01
 -1      7178 7.52864E+00 3.21593E+00 1.39835E+00-1.86779E+01 1.38569E-11-1.96318E-11
 -1      7179 7.61843E+00 3.19934E+00 1.25640E+00-1.87026E+01-4.68912E-02-3.25137E-01
 -1      7180 7.95135E+00 3.11301E+00 7.97347E-01-1.87669E+01-4.85278E-02-5.22637E-01
 -1      7181-1.30983E+01-3.82220E+01-2.56097E-01 3.48917E+01 7.01124E-02-1.61895E-01
 -1      7182-4.12395E+00-6.29540E+01 5.26484E-01 1.87745E+01-8.88458E-01-1.96420E-01
 -1      7183-1.54913E+01-4.04735E+01-3.77375E-01 3.86697E+01 2.26628E-01-3.40620E-01
 -1      7184-1.21690E+01-3.85846E+01-5.61613E-01 3.28149E+01 1.79263E-01-2.58216E-01
 -1      7185-3.81504E+00-6.27475E+01 8.57176E-01 1.77979E+01-5.25081E-01-2.11738E-01
 -1      7186-1.38669E+01-4.08762E+01-4.22137E-01 3.66356E+01 2.75552E-01-2.84096E-01
 -1      7187-1.17436E+01-3.86458E+01-6.31727E-01 3.17301E+01 3.25528E-02-1.18544E-01
 -1      7188-3.71184E+00-6.25934E+01 8.90888E-01 1.74374E+01 7.82557E-12-8.16444E-12
 -1      7189-1.34592E+01-4.09751E+01-6.68398E-01 3.59444E+01-6.94554E-12-2.37432E-11
 -1      7190-1.17436E+01-3.86458E+01-6.31727E-01 3.17301E+01-3.25528E-02 1.18544E-01
 -1      7191-3.81504E+00-6.27475E+01 8.57176E-01 1.77979E+01 5.25081E-01 2.11738E-01
 -1      7192-1.38669E+01-4.08762E+01-4.22137E-01 3.66356E+01-2.75552E-01 2.84096E-01
 -1      7193-1.21690E+01-3.85846E+01-5.61613E-01 3.28149E+01-1.79263E-01 2.58216E-01
 -1      7194-4.12395E+00-6.29540E+01 5.26484E-01 1.87745E+01 8.88458E-01 1.96420E-01
 -1      7195-1.54913E+01-4.04735E+01-3.77375E-01 3.86697E+01-2.26628E-01 3.40620E-01
 -1      7196-1.30983E+01-3.82220E+01-2.56097E-01 3.48917E+01-7.01124E-02 1.61895E-01
 -1      7197-1.89550E+01 7.30929E+00 7.24713E-02 2.45358E+01 6.39436E-02-1.17222E-02
 -1      7198-1.60515E+01-1.43589E+01 2.38108E-02 2.89553E+01 7.34966E-02-1.20106E-01
 -1      7199-1.78571E+01 9.36034E+00-8.64070E-02 2.26016E+01 1.73904E-01-1.34984E-01
 -1      7200-1.78691E+01 6.09958E+00-3.96381E-02 2.40224E+01 3.47440E-02-2.80037E-02
 -1      7201-1.51981E+01-1.48938E+01-7.93111E-02 2.80708E+01-5.79496E-03-1.05406E-01
 -1      7202-1.66708E+01 8.13242E+00-3.24917E-01 2.22943E+01 1.21439E-01-9.77360E-02
 -1      7203-1.72425E+01 5.50214E+00-1.00788E-01 2.37767E+01 1.31210E-02-2.19895E-02
 -1      7204-1.49273E+01-1.51498E+01-1.23853E-01 2.77691E+01-7.41226E-12-1.49719E-12
 -1      7205-1.62086E+01 7.81610E+00-3.59326E-01 2.21811E+01-1.58199E-11 1.68430E-11
 -1      7206-1.72425E+01 5.50214E+00-1.00788E-01 2.37767E+01-1.31210E-02 2.19895E-02
 -1      7207-1.51981E+01-1.48938E+01-7.93111E-02 2.80708E+01 5.79496E-03 1.05406E-01
 -1      7208-1.66708E+01 8.13242E+00-3.24917E-01 2.22943E+01-1.21439E-01 9.77360E-02
 -1      7209-1.78691E+01 6.09958E+00-3.96381E-02 2.40224E+01-3.47440E-02 2.80037E-02
 -1      7210-1.60515E+01-1.43589E+01 2.38108E-02 2.89553E+01-7.34966E-02 1.20106E-01
 -1      7211-1.78571E+01 9.36034E+00-8.64070E-02 2.26016E+01-1.73904E-01 1.34984E-01
 -1      7212-1.89550E+01 7.30929E+00 7.24713E-02 2.45358E+01-6.39436E-02 1.17222E-02
 -1      7213-8.61126E+00 2.31353E+01 1.68706E-01 1.15320E+01 1.63788E-03 1.87501E-02
 -1      7214-1.34469E+01 1.44450E+01-9.34414E-02 1.75679E+01-4.14675E-02-6.29507E-03
 -1      7215-4.12166E+00 2.28619E+01-1.83430E-01 1.05935E+01 1.24009E-02-3.00827E-02
 -1      7216-8.05106E+00 2.24050E+01 1.21436E-01 1.18017E+01-3.03469E-03 4.06467E-03
 -1      7217-1.28021E+01 1.37185E+01-1.42443E-01 1.74861E+01 7.92552E-03-1.48947E-02
 -1      7218-3.58753E+00 2.23512E+01-2.07712E-01 1.09408E+01 1.43824E-02-2.42590E-02
 -1      7219-7.73284E+00 2.20786E+01 1.08264E-01 1.19229E+01-7.34559E-04 9.00626E-04
 -1      7220-1.25626E+01 1.35105E+01-1.60462E-01 1.74572E+01-3.31162E-12 7.53640E-12
 -1      7221-3.39695E+00 2.21772E+01-2.30074E-01 1.10411E+01 5.37922E-12 4.77387E-12
 -1      7222-7.73284E+00 2.20786E+01 1.08264E-01 1.19229E+01 7.34559E-04-9.00626E-04
 -1      7223-1.28021E+01 1.37185E+01-1.42443E-01 1.74861E+01-7.92552E-03 1.48947E-02
 -1      7224-3.58753E+00 2.23512E+01-2.07712E-01 1.09408E+01-1.43824E-02 2.42590E-02
 -1      7225-8.05106E+00 2.24050E+01 1.21436E-01 1.18017E+01 3.03469E-03-4.06467E-03
 -1      7226-1.34469E+01 1.44450E+01-9.34414E-02 1.75679E+01 4.14675E-02 6.29507E-03
 -1      7227-4.12166E+00 2.28619E+01-1.83430E-01 1.05935E+01-1.24009E-02 3.00827E-02
 -1      7228-8.61126E+00 2.31353E+01 1.68706E-01 1.15320E+01-1.63788E-03-1.87501E-02
 -1      7229 1.53621E+00 2.78778E+01 1.80686E-02 6.86631E+00-2.71813E-03 8.31334E-03
 -1      7230-3.38865E+00 2.50211E+01-3.56684E-03 9.38300E+00-8.83647E-04 6.89519E-03
 -1      7231 6.86441E+00 2.75616E+01-4.20859E-02 8.00220E+00-5.55297E-03 1.87698E-03
 -1      7232 1.76855E+00 2.76201E+01 2.25206E-02 7.16377E+00-4.52630E-03 9.06232E-03
 -1      7233-3.06070E+00 2.46756E+01-8.36154E-03 9.58061E+00-2.43908E-03 3.17956E-03
 -1      7234 6.99940E+00 2.73669E+01-5.62551E-02 8.28778E+00-7.54410E-03 5.06444E-03
 -1      7235 1.90300E+00 2.74783E+01 2.67120E-02 7.31324E+00-2.29815E-03 2.26298E-03
 -1      7236-2.94904E+00 2.45554E+01-1.18641E-02 9.64443E+00 1.68376E-12 2.69705E-12
 -1      7237 7.05990E+00 2.73063E+01-5.32035E-02 8.37973E+00 3.12278E-12-4.23782E-12
 -1      7238 1.90300E+00 2.74783E+01 2.67120E-02 7.31324E+00 2.29815E-03-2.26298E-03
 -1      7239-3.06070E+00 2.46756E+01-8.36154E-03 9.58061E+00 2.43908E-03-3.17956E-03
 -1      7240 6.99940E+00 2.73669E+01-5.62551E-02 8.28778E+00 7.54410E-03-5.06444E-03
 -1      7241 1.76855E+00 2.76201E+01 2.25206E-02 7.16377E+00 4.52630E-03-9.06232E-03
 -1      7242-3.38865E+00 2.50211E+01-3.56684E-03 9.38300E+00 8.83647E-04-6.89519E-03
 -1      7243 6.86441E+00 2.75616E+01-4.20859E-02 8.00220E+00 5.55297E-03-1.87698E-03
 -1      7244 1.53621E+00 2.78778E+01 1.80686E-02 6.86631E+00 2.71813E-03-8.31334E-03
 -1      7245 7.74213E+00 3.12525E+01 2.76860E-03 5.88478E+00-4.89137E-03 4.70552E-03
 -1      7246 4.69301E+00 2.94545E+01 7.15138E-03 6.62005E+00-3.14075E-03 2.36061E-03
 -1      7247 1.22465E+01 3.17223E+01-1.32320E-02 8.30454E+00-9.84866E-04 2.94607E-03
 -1      7248 7.84528E+00 3.11350E+01 4.65276E-03 6.11120E+00-1.64608E-03 3.17661E-03
 -1      7249 4.82699E+00 2.92958E+01 7.85728E-03 6.81025E+00-1.93232E-03 4.07103E-03
 -1      7250 1.22998E+01 3.16517E+01-1.23563E-02 8.49263E+00-1.13028E-03 6.59417E-03
 -1      7251 7.90624E+00 3.10740E+01 6.30625E-03 6.22230E+00-7.55173E-04 1.14365E-03
 -1      7252 4.87474E+00 2.92466E+01 1.03097E-02 6.87380E+00 8.56539E-13-2.13823E-12
 -1      7253 1.23219E+01 3.16259E+01-1.12898E-02 8.55238E+00-1.19027E-12 1.44633E-12
 -1      7254 7.90624E+00 3.10740E+01 6.30625E-03 6.22230E+00 7.55173E-04-1.14365E-03
 -1      7255 4.82699E+00 2.92958E+01 7.85728E-03 6.81025E+00 1.93232E-03-4.07103E-03
 -1      7256 1.22998E+01 3.16517E+01-1.23563E-02 8.49263E+00 1.13028E-03-6.59417E-03
 -1      7257 7.84528E+00 3.11350E+01 4.65276E-03 6.11120E+00 1.64608E-03-3.17661E-03
 -1      7258 4.69301E+00 2.94545E+01 7.15138E-03 6.62005E+00 3.14075E-03-2.36061E-03
 -1      7259 1.22465E+01 3.17223E+01-1.32320E-02 8.30454E+00 9.84866E-04-2.94607E-03
 -1      7260 7.74213E+00 3.12525E+01 2.76860E-03 5.88478E+00 4.89137E-03-4.70552E-03
 -1      7261 1.12230E+01 3.45421E+01-7.65098E-04 5.43625E+00-1.32742E-03 2.19828E-03
 -1      7262 9.49571E+00 3.28534E+01 2.59551E-03 5.83083E+00-2.72963E-04 1.10191E-03
 -1      7263 1.46241E+01 3.61675E+01-3.09262E-03 8.50935E+00 1.00248E-03-1.10289E-04
 -1      7264 1.12826E+01 3.44810E+01 1.50221E-03 5.62073E+00 6.36978E-04 9.39589E-04
 -1      7265 9.56160E+00 3.27844E+01 2.29421E-03 5.98261E+00-3.00799E-04 1.78890E-03
 -1      7266 1.46602E+01 3.61215E+01-6.36294E-03 8.65574E+00 1.11808E-03 1.56159E-03
 -1      7267 1.13159E+01 3.44467E+01 1.04597E-03 5.71323E+00-1.73940E-04 1.46864E-04
 -1      7268 9.58478E+00 3.27599E+01 2.76349E-03 6.03308E+00 8.92551E-13 1.25674E-12
 -1      7269 1.46760E+01 3.61071E+01-5.52964E-03 8.70312E+00 1.62427E-13 1.89649E-12
 -1      7270 1.13159E+01 3.44467E+01 1.04597E-03 5.71323E+00 1.73940E-04-1.46864E-04
 -1      7271 9.56160E+00 3.27844E+01 2.29421E-03 5.98261E+00 3.00799E-04-1.78890E-03
 -1      7272 1.46602E+01 3.61215E+01-6.36294E-03 8.65574E+00-1.11808E-03-1.56159E-03
 -1      7273 1.12826E+01 3.44810E+01 1.50221E-03 5.62073E+00-6.36978E-04-9.39589E-04
 -1      7274 9.49571E+00 3.28534E+01 2.59551E-03 5.83083E+00 2.72963E-04-1.10191E-03
 -1      7275 1.46241E+01 3.61675E+01-3.09262E-03 8.50935E+00-1.00248E-03 1.10289E-04
 -1      7276 1.12230E+01 3.45421E+01-7.65098E-04 5.43625E+00 1.32742E-03-2.19828E-03
 -1      7277 1.34745E+01 3.74878E+01-5.15437E-04 4.62848E+00-7.40697E-04 8.79145E-04
 -1      7278 1.23529E+01 3.60003E+01 7.90916E-04 5.15849E+00 9.75818E-05-3.31115E-04
 -1      7279 1.58312E+01 4.03355E+01-2.61894E-03 7.89976E+00 2.37446E-03-2.11770E-03
 -1      7280 1.34979E+01 3.74628E+01-2.59350E-04 4.80562E+00 6.00571E-04-3.58705E-04
 -1      7281 1.23854E+01 3.59656E+01 7.11404E-07 5.29409E+00 3.24089E-04 3.15079E-04
 -1      7282 1.58499E+01 4.03166E+01-6.25677E-03 8.04087E+00 2.51545E-03-1.25883E-03
 -1      7283 1.35115E+01 3.74492E+01-1.56001E-03 4.89420E+00 1.83087E-05-2.70205E-04
 -1      7284 1.23972E+01 3.59538E+01 7.40178E-05 5.33913E+00 3.94029E-14 1.03769E-12
 -1      7285 1.58581E+01 4.03106E+01-7.34985E-03 8.08698E+00 2.32155E-13-2.35699E-12
 -1      7286 1.35115E+01 3.74492E+01-1.56001E-03 4.89420E+00-1.83087E-05 2.70205E-04
 -1      7287 1.23854E+01 3.59656E+01 7.11404E-07 5.29409E+00-3.24089E-04-3.15079E-04
 -1      7288 1.58499E+01 4.03166E+01-6.25677E-03 8.04087E+00-2.51545E-03 1.25883E-03
 -1      7289 1.34979E+01 3.74628E+01-2.59350E-04 4.80562E+00-6.00571E-04 3.58705E-04
 -1      7290 1.23529E+01 3.60003E+01 7.90916E-04 5.15849E+00-9.75818E-05 3.31115E-04
 -1      7291 1.58312E+01 4.03355E+01-2.61894E-03 7.89976E+00-2.37446E-03 2.11770E-03
 -1      7292 1.34745E+01 3.74878E+01-5.15437E-04 4.62848E+00 7.40697E-04-8.79145E-04
 -1      7293 1.53088E+01 3.97816E+01-4.41583E-04 3.50797E+00-1.13238E-04 2.09642E-04
 -1      7294 1.43794E+01 3.86408E+01-5.28616E-05 4.18219E+00 2.83459E-04-6.79222E-04
 -1      7295 1.67228E+01 4.38267E+01-2.15783E-03 6.63034E+00 2.58452E-03-3.69100E-03
 -1      7296 1.52853E+01 3.98037E+01-1.04995E-03 3.68310E+00 6.84574E-04-8.58742E-04
 -1      7297 1.43803E+01 3.86396E+01-1.60613E-03 4.31405E+00 5.78622E-04-5.03718E-04
 -1      7298 1.67071E+01 4.38452E+01-7.07950E-03 6.77299E+00 2.74192E-03-3.32295E-03
 -1      7299 1.52747E+01 3.98143E+01-2.63278E-03 3.77061E+00 1.59640E-04-4.67993E-04
 -1      7300 1.43812E+01 3.86388E+01-2.16584E-03 4.35798E+00 8.76921E-13-3.25844E-13
 -1      7301 1.67035E+01 4.38520E+01-8.88485E-03 6.81982E+00 1.71591E-12 1.52147E-12
 -1      7302 1.52747E+01 3.98143E+01-2.63278E-03 3.77061E+00-1.59640E-04 4.67993E-04
 -1      7303 1.43803E+01 3.86396E+01-1.60613E-03 4.31405E+00-5.78622E-04 5.03718E-04
 -1      7304 1.67071E+01 4.38452E+01-7.07950E-03 6.77299E+00-2.74192E-03 3.32295E-03
 -1      7305 1.52853E+01 3.98037E+01-1.04995E-03 3.68310E+00-6.84574E-04 8.58742E-04
 -1      7306 1.43794E+01 3.86408E+01-5.28616E-05 4.18219E+00-2.83459E-04 6.79222E-04
 -1      7307 1.67228E+01 4.38267E+01-2.15783E-03 6.63034E+00-2.58452E-03 3.69100E-03
 -1      7308 1.53088E+01 3.97816E+01-4.41583E-04 3.50797E+00 1.13238E-04-2.09642E-04
 -1      7309 1.69688E+01 4.13408E+01-1.46043E-04 2.34935E+00 3.04695E-05-1.31542E-04
 -1      7310 1.61003E+01 4.05960E+01-5.71158E-04 3.03416E+00 3.63897E-04-8.71042E-04
 -1      7311 1.75611E+01 4.64643E+01-2.62396E-03 5.01806E+00 2.44259E-03-4.89965E-03
 -1      7312 1.68897E+01 4.14181E+01-1.37807E-03 2.50942E+00 5.63203E-04-1.13220E-03
 -1      7313 1.60627E+01 4.06334E+01-2.48700E-03 3.15963E+00 5.90290E-04-9.50368E-04
 -1      7314 1.75009E+01 4.65296E+01-8.19348E-03 5.15030E+00 2.53008E-03-4.73541E-03
 -1      7315 1.68512E+01 4.14567E+01-3.10515E-03 2.58925E+00 1.98872E-04-6.07119E-04
 -1      7316 1.60507E+01 4.06457E+01-3.33427E-03 3.20137E+00 1.67661E-12-3.35598E-13
 -1      7317 1.74822E+01 4.65517E+01-1.06518E-02 5.19379E+00 2.67654E-13-1.25793E-13
 -1      7318 1.68512E+01 4.14567E+01-3.10515E-03 2.58925E+00-1.98872E-04 6.07119E-04
 -1      7319 1.60627E+01 4.06334E+01-2.48700E-03 3.15963E+00-5.90290E-04 9.50368E-04
 -1      7320 1.75009E+01 4.65296E+01-8.19348E-03 5.15030E+00-2.53008E-03 4.73541E-03
 -1      7321 1.68897E+01 4.14181E+01-1.37807E-03 2.50942E+00-5.63203E-04 1.13220E-03
 -1      7322 1.61003E+01 4.05960E+01-5.71158E-04 3.03416E+00-3.63897E-04 8.71042E-04
 -1      7323 1.75611E+01 4.64643E+01-2.62396E-03 5.01806E+00-2.44259E-03 4.89965E-03
 -1      7324 1.69688E+01 4.13408E+01-1.46043E-04 2.34935E+00-3.04695E-05 1.31542E-04
 -1      7325 1.83680E+01 4.22632E+01-9.07477E-05 1.36126E+00 7.56000E-05-3.33818E-04
 -1      7326 1.75986E+01 4.18691E+01-7.39868E-04 1.94411E+00 3.17737E-04-1.02588E-03
 -1      7327 1.83111E+01 4.82514E+01-2.81722E-03 3.31029E+00 1.83213E-03-5.84662E-03
 -1      7328 1.82361E+01 4.23931E+01-1.66707E-03 1.48512E+00 4.10709E-04-1.33768E-03
 -1      7329 1.75204E+01 4.19470E+01-2.96518E-03 2.05029E+00 4.95350E-04-1.26039E-03
 -1      7330 1.82070E+01 4.83616E+01-8.96187E-03 3.41356E+00 1.89902E-03-5.76887E-03
 -1      7331 1.81713E+01 4.24581E+01-3.48712E-03 1.54683E+00 1.72524E-04-7.23381E-04
 -1      7332 1.74949E+01 4.19729E+01-4.00818E-03 2.08562E+00 1.13285E-12-7.36677E-13
 -1      7333 1.81738E+01 4.83986E+01-1.17715E-02 3.44754E+00 2.01788E-12 1.05853E-12
 -1      7334 1.81713E+01 4.24581E+01-3.48712E-03 1.54683E+00-1.72524E-04 7.23381E-04
 -1      7335 1.75204E+01 4.19470E+01-2.96518E-03 2.05029E+00-4.95350E-04 1.26039E-03
 -1      7336 1.82070E+01 4.83616E+01-8.96187E-03 3.41356E+00-1.89902E-03 5.76887E-03
 -1      7337 1.82361E+01 4.23931E+01-1.66707E-03 1.48512E+00-4.10709E-04 1.33768E-03
 -1      7338 1.75986E+01 4.18691E+01-7.39868E-04 1.94411E+00-3.17737E-04 1.02588E-03
 -1      7339 1.83111E+01 4.82514E+01-2.81722E-03 3.31029E+00-1.83213E-03 5.84662E-03
 -1      7340 1.83680E+01 4.22632E+01-9.07477E-05 1.36126E+00-7.56000E-05 3.33818E-04
 -1      7341 1.93022E+01 4.27151E+01-2.62009E-05 6.09787E-01 4.65524E-05-4.30982E-04
 -1      7342 1.87378E+01 4.25841E+01-8.67254E-04 1.04534E+00 2.20232E-04-1.14391E-03
 -1      7343 1.88272E+01 4.92632E+01-3.00403E-03 1.63683E+00 9.95676E-04-6.45522E-03
 -1      7344 1.91321E+01 4.28830E+01-1.79723E-03 6.77588E-01 2.16102E-04-1.45701E-03
 -1      7345 1.86258E+01 4.26960E+01-3.28768E-03 1.11700E+00 3.24938E-04-1.46129E-03
 -1      7346 1.86911E+01 4.94061E+01-9.50287E-03 1.69376E+00 1.03619E-03-6.41577E-03
 -1      7347 1.90483E+01 4.29670E+01-3.68932E-03 7.11354E-01 9.69287E-05-7.99216E-04
 -1      7348 1.85890E+01 4.27332E+01-4.44757E-03 1.14083E+00 2.12046E-12-4.81115E-13
 -1      7349 1.86473E+01 4.94539E+01-1.25454E-02 1.71250E+00 2.00660E-12 3.31873E-13
 -1      7350 1.90483E+01 4.29670E+01-3.68932E-03 7.11354E-01-9.69287E-05 7.99216E-04
 -1      7351 1.86258E+01 4.26960E+01-3.28768E-03 1.11700E+00-3.24938E-04 1.46129E-03
 -1      7352 1.86911E+01 4.94061E+01-9.50287E-03 1.69376E+00-1.03619E-03 6.41577E-03
 -1      7353 1.91321E+01 4.28830E+01-1.79723E-03 6.77588E-01-2.16102E-04 1.45701E-03
 -1      7354 1.87378E+01 4.25841E+01-8.67254E-04 1.04534E+00-2.20232E-04 1.14391E-03
 -1      7355 1.88272E+01 4.92632E+01-3.00403E-03 1.63683E+00-9.95676E-04 6.45522E-03
 -1      7356 1.93022E+01 4.27151E+01-2.62009E-05 6.09787E-01-4.65524E-05 4.30982E-04
 -1      7357 1.95770E+01 4.28451E+01-1.60520E-05 2.64984E-02-8.07943E-06-4.76113E-04
 -1      7358 1.93261E+01 4.28915E+01-9.18128E-04 3.38773E-01 7.34222E-05-1.21112E-03
 -1      7359 1.89639E+01 4.95827E+01-3.07914E-03 2.44810E-02 1.67370E-05-6.72559E-03
 -1      7360 1.93923E+01 4.30275E+01-1.86637E-03 2.58883E-02 4.61195E-07-1.50844E-03
 -1      7361 1.91944E+01 4.30229E+01-3.45570E-03 3.63883E-01 1.13477E-04-1.57073E-03
 -1      7362 1.88154E+01 4.97383E+01-9.75884E-03 2.43683E-02 4.75341E-05-6.70515E-03
 -1      7363 1.93013E+01 4.31187E+01-3.79896E-03 2.55977E-02-3.80377E-06-8.35980E-04
 -1      7364 1.91510E+01 4.30668E+01-4.67923E-03 3.72246E-01 2.80542E-12-2.45143E-13
 -1      7365 1.87675E+01 4.97903E+01-1.29101E-02 2.43120E-02 1.22322E-12-1.29904E-12
 -1      7366 1.93013E+01 4.31187E+01-3.79896E-03 2.55977E-02 3.80377E-06 8.35980E-04
 -1      7367 1.91944E+01 4.30229E+01-3.45570E-03 3.63883E-01-1.13477E-04 1.57073E-03
 -1      7368 1.88154E+01 4.97383E+01-9.75884E-03 2.43683E-02-4.75341E-05 6.70515E-03
 -1      7369 1.93923E+01 4.30275E+01-1.86637E-03 2.58883E-02-4.61194E-07 1.50844E-03
 -1      7370 1.93261E+01 4.28915E+01-9.18128E-04 3.38773E-01-7.34222E-05 1.21112E-03
 -1      7371 1.89639E+01 4.95827E+01-3.07914E-03 2.44810E-02-1.67370E-05 6.72559E-03
 -1      7372 1.95770E+01 4.28451E+01-1.60520E-05 2.64984E-02 8.07943E-06 4.76113E-04
 -1      7373 1.90812E+01 4.27322E+01-2.56690E-05-5.43418E-01-7.06035E-05-4.82432E-04
 -1      7374 1.92152E+01 4.29005E+01-9.38861E-04-2.81628E-01-8.75978E-05-1.22621E-03
 -1      7375 1.86264E+01 4.92633E+01-3.08439E-03-1.56467E+00-9.91947E-04-6.66797E-03
 -1      7376 1.89094E+01 4.29016E+01-1.86165E-03-6.14050E-01-2.18658E-04-1.48911E-03
 -1      7377 1.90829E+01 4.30325E+01-3.51899E-03-3.08268E-01-1.15187E-04-1.59729E-03
 -1      7378 1.84885E+01 4.94083E+01-9.77695E-03-1.62333E+00-9.57041E-04-6.66260E-03
 -1      7379 1.88249E+01 4.29864E+01-3.81162E-03-6.49185E-01-1.10664E-04-8.34856E-04
 -1      7380 1.90393E+01 4.30766E+01-4.76498E-03-3.17092E-01 1.15814E-12 3.58957E-13
 -1      7381 1.84441E+01 4.94568E+01-1.29496E-02-1.64268E+00-6.50693E-13 1.20256E-12
 -1      7382 1.88249E+01 4.29864E+01-3.81162E-03-6.49185E-01 1.10664E-04 8.34856E-04
 -1      7383 1.90829E+01 4.30325E+01-3.51899E-03-3.08268E-01 1.15187E-04 1.59729E-03
 -1      7384 1.84885E+01 4.94083E+01-9.77695E-03-1.62333E+00 9.57041E-04 6.66260E-03
 -1      7385 1.89094E+01 4.29016E+01-1.86165E-03-6.14050E-01 2.18658E-04 1.48911E-03
 -1      7386 1.92152E+01 4.29005E+01-9.38861E-04-2.81628E-01 8.75978E-05 1.22621E-03
 -1      7387 1.86264E+01 4.92633E+01-3.08439E-03-1.56467E+00 9.91947E-04 6.66797E-03
 -1      7388 1.90812E+01 4.27322E+01-2.56690E-05-5.43418E-01 7.06035E-05 4.82432E-04
 -1      7389 1.78124E+01 4.23665E+01-6.99227E-05-1.28529E+00-1.30903E-04-4.63686E-04
 -1      7390 1.83494E+01 4.26446E+01-9.29001E-04-9.78960E-01-2.43651E-04-1.19197E-03
 -1      7391 1.77864E+01 4.83177E+01-3.02311E-03-3.19454E+00-1.95745E-03-6.30926E-03
 -1      7392 1.76798E+01 4.24968E+01-1.79179E-03-1.41627E+00-4.27345E-04-1.40499E-03
 -1      7393 1.82366E+01 4.27572E+01-3.49228E-03-1.05433E+00-3.42081E-04-1.54895E-03
 -1      7394 1.76811E+01 4.84299E+01-9.58285E-03-3.30368E+00-1.88885E-03-6.33185E-03
 -1      7395 1.76148E+01 4.25621E+01-3.74973E-03-1.48143E+00-2.08080E-04-8.03971E-04
 -1      7396 1.81995E+01 4.27947E+01-4.72635E-03-1.07933E+00 1.36394E-12-3.74924E-14
 -1      7397 1.76475E+01 4.84676E+01-1.27028E-02-3.33967E+00 3.27119E-12 3.55355E-13
 -1      7398 1.76148E+01 4.25621E+01-3.74973E-03-1.48143E+00 2.08080E-04 8.03971E-04
 -1      7399 1.82366E+01 4.27572E+01-3.49228E-03-1.05433E+00 3.42081E-04 1.54895E-03
 -1      7400 1.76811E+01 4.84299E+01-9.58285E-03-3.30368E+00 1.88885E-03 6.33185E-03
 -1      7401 1.76798E+01 4.24968E+01-1.79179E-03-1.41627E+00 4.27345E-04 1.40499E-03
 -1      7402 1.83494E+01 4.26446E+01-9.29001E-04-9.78960E-01 2.43651E-04 1.19197E-03
 -1      7403 1.77864E+01 4.83177E+01-3.02311E-03-3.19454E+00 1.95745E-03 6.30926E-03
 -1      7404 1.78124E+01 4.23665E+01-6.99227E-05-1.28529E+00 1.30903E-04 4.63686E-04
 -1      7405 1.58729E+01 4.16554E+01-1.74239E-04-2.36507E+00-1.81533E-04-4.28843E-04
 -1      7406 1.67769E+01 4.20747E+01-8.98966E-04-1.92214E+00-3.73591E-04-1.12093E-03
 -1      7407 1.64774E+01 4.67228E+01-2.91039E-03-4.92474E+00-2.82314E-03-5.67923E-03
 -1      7408 1.58002E+01 4.17260E+01-1.64678E-03-2.53704E+00-6.14608E-04-1.26057E-03
 -1      7409 1.67010E+01 4.21503E+01-3.39300E-03-2.03540E+00-5.53374E-04-1.43331E-03
 -1      7410 1.64219E+01 4.67850E+01-9.20108E-03-5.06813E+00-2.66972E-03-5.77516E-03
 -1      7411 1.57648E+01 4.17615E+01-3.63636E-03-2.62260E+00-2.82700E-04-7.57160E-04
 -1      7412 1.66762E+01 4.21755E+01-4.58569E-03-2.07295E+00 2.53657E-12-2.00704E-12
 -1      7413 1.64047E+01 4.68061E+01-1.22118E-02-5.11545E+00 2.48846E-12-4.41761E-12
 -1      7414 1.57648E+01 4.17615E+01-3.63636E-03-2.62260E+00 2.82700E-04 7.57160E-04
 -1      7415 1.67010E+01 4.21503E+01-3.39300E-03-2.03540E+00 5.53374E-04 1.43331E-03
 -1      7416 1.64219E+01 4.67850E+01-9.20108E-03-5.06813E+00 2.66972E-03 5.77516E-03
 -1      7417 1.58002E+01 4.17260E+01-1.64678E-03-2.53704E+00 6.14608E-04 1.26057E-03
 -1      7418 1.67769E+01 4.20747E+01-8.98966E-04-1.92214E+00 3.73591E-04 1.12093E-03
 -1      7419 1.64774E+01 4.67228E+01-2.91039E-03-4.92474E+00 2.82314E-03 5.67923E-03
 -1      7420 1.58729E+01 4.16554E+01-1.74239E-04-2.36507E+00 1.81533E-04 4.28843E-04
 -1      7421 1.34460E+01 4.04454E+01-3.83971E-04-3.89358E+00-2.18559E-04-3.87141E-04
 -1      7422 1.46357E+01 4.10723E+01-8.37439E-04-3.24433E+00-4.56030E-04-1.03699E-03
 -1      7423 1.47783E+01 4.44328E+01-2.76146E-03-6.79212E+00-3.57454E-03-4.79559E-03
 -1      7424 1.34449E+01 4.04448E+01-1.37870E-03-4.08068E+00-7.74468E-04-1.05481E-03
 -1      7425 1.46090E+01 4.10989E+01-3.24028E-03-3.37858E+00-7.41963E-04-1.25572E-03
 -1      7426 1.47822E+01 4.44351E+01-8.69686E-03-6.94812E+00-3.23896E-03-5.08295E-03
 -1      7427 1.34449E+01 4.04447E+01-3.48652E-03-4.17377E+00-3.21640E-04-7.17814E-04
 -1      7428 1.46004E+01 4.11078E+01-4.36262E-03-3.42306E+00 5.02845E-13-3.99657E-12
 -1      7429 1.47847E+01 4.44365E+01-1.15589E-02-6.99965E+00-2.02993E-12-5.41909E-12
 -1      7430 1.34449E+01 4.04447E+01-3.48652E-03-4.17377E+00 3.21640E-04 7.17814E-04
 -1      7431 1.46090E+01 4.10989E+01-3.24028E-03-3.37858E+00 7.41963E-04 1.25572E-03
 -1      7432 1.47822E+01 4.44351E+01-8.69686E-03-6.94812E+00 3.23896E-03 5.08295E-03
 -1      7433 1.34449E+01 4.04448E+01-1.37870E-03-4.08068E+00 7.74468E-04 1.05481E-03
 -1      7434 1.46357E+01 4.10723E+01-8.37439E-04-3.24433E+00 4.56030E-04 1.03699E-03
 -1      7435 1.47783E+01 4.44328E+01-2.76146E-03-6.79212E+00 3.57454E-03 4.79559E-03
 -1      7436 1.34460E+01 4.04454E+01-3.83971E-04-3.89358E+00 2.18559E-04 3.87141E-04
 -1      7437 1.07649E+01 3.85523E+01-8.52683E-04-5.90844E+00-2.42177E-04-3.58237E-04
 -1      7438 1.21282E+01 3.94746E+01-7.90997E-04-5.01670E+00-4.73480E-04-9.76919E-04
 -1      7439 1.27958E+01 4.13935E+01-2.62306E-03-8.80515E+00-4.21378E-03-3.64179E-03
 -1      7440 1.08365E+01 3.84794E+01-9.52256E-04-6.08210E+00-9.14749E-04-7.81841E-04
 -1      7441 1.21553E+01 3.94474E+01-3.05041E-03-5.15159E+00-9.07452E-04-1.01350E-03
 -1      7442 1.28598E+01 4.13349E+01-8.03246E-03-8.94999E+00-3.54682E-03-4.40050E-03
 -1      7443 1.08725E+01 3.84430E+01-3.40398E-03-6.16853E+00-3.19811E-04-7.32686E-04
 -1      7444 1.21645E+01 3.94384E+01-4.07580E-03-5.19621E+00-1.61486E-12-2.34794E-12
 -1      7445 1.28826E+01 4.13162E+01-1.07353E-02-8.99793E+00-3.55439E-12-4.60064E-14
 -1      7446 1.08725E+01 3.84430E+01-3.40398E-03-6.16853E+00 3.19811E-04 7.32686E-04
 -1      7447 1.21553E+01 3.94474E+01-3.05041E-03-5.15159E+00 9.07452E-04 1.01350E-03
 -1      7448 1.28598E+01 4.13349E+01-8.03246E-03-8.94999E+00 3.54682E-03 4.40050E-03
 -1      7449 1.08365E+01 3.84794E+01-9.52256E-04-6.08210E+00 9.14749E-04 7.81841E-04
 -1      7450 1.21282E+01 3.94746E+01-7.90997E-04-5.01670E+00 4.73480E-04 9.76919E-04
 -1      7451 1.27958E+01 4.13935E+01-2.62306E-03-8.80515E+00 4.21378E-03 3.64179E-03
 -1      7452 1.07649E+01 3.85523E+01-8.52683E-04-5.90844E+00 2.42177E-04 3.58237E-04
 -1      7453 8.08737E+00 3.57856E+01-1.74646E-03-8.37304E+00-2.50346E-04-4.01086E-04
 -1      7454 9.49333E+00 3.71011E+01-5.99372E-04-7.23883E+00-3.93130E-04-1.06067E-03
 -1      7455 1.06537E+01 3.75503E+01-2.51921E-03-1.09500E+01-4.86814E-03-2.12418E-03
 -1      7456 8.22253E+00 3.56502E+01-1.22101E-04-8.50563E+00-1.03103E-03-4.22297E-04
 -1      7457 9.57130E+00 3.70231E+01-2.90862E-03-7.35340E+00-1.06538E-03-7.11645E-04
 -1      7458 1.07701E+01 3.74383E+01-7.68040E-03-1.10608E+01-3.60696E-03-3.97991E-03
 -1      7459 8.28978E+00 3.55820E+01-3.36134E-03-8.57169E+00-2.66202E-04-8.87026E-04
 -1      7460 9.59702E+00 3.69972E+01-3.81260E-03-7.39118E+00 6.01352E-14 1.63641E-13
 -1      7461 1.08111E+01 3.74022E+01-1.02711E-02-1.10977E+01 4.86941E-12 2.02788E-12
 -1      7462 8.28978E+00 3.55820E+01-3.36134E-03-8.57169E+00 2.66202E-04 8.87026E-04
 -1      7463 9.57130E+00 3.70231E+01-2.90862E-03-7.35340E+00 1.06538E-03 7.11645E-04
 -1      7464 1.07701E+01 3.74383E+01-7.68040E-03-1.10608E+01 3.60696E-03 3.97991E-03
 -1      7465 8.22253E+00 3.56502E+01-1.22101E-04-8.50563E+00 1.03103E-03 4.22297E-04
 -1      7466 9.49333E+00 3.71011E+01-5.99372E-04-7.23883E+00 3.93130E-04 1.06067E-03
 -1      7467 1.06537E+01 3.75503E+01-2.51921E-03-1.09500E+01 4.86814E-03 2.12418E-03
 -1      7468 8.08737E+00 3.57856E+01-1.74646E-03-8.37304E+00 2.50346E-04 4.01086E-04
 -1      7469 5.69028E+00 3.19622E+01-3.69113E-03-1.11833E+01-3.21860E-04-5.76036E-04
 -1      7470 6.99162E+00 3.37718E+01-8.02534E-04-9.84092E+00-2.51946E-04-1.37392E-03
 -1      7471 8.50530E+00 3.28421E+01-3.13747E-03-1.32013E+01-5.66865E-03 1.84618E-04
 -1      7472 5.86998E+00 3.17841E+01 1.32132E-03-1.12506E+01-1.26112E-03 1.85890E-04
 -1      7473 7.11007E+00 3.36540E+01-2.74891E-03-9.91582E+00-1.24695E-03-2.68651E-04
 -1      7474 8.65864E+00 3.26923E+01-6.91219E-03-1.32577E+01-3.52436E-03-4.13980E-03
 -1      7475 5.95835E+00 3.16933E+01-3.74706E-03-1.12842E+01-2.37325E-04-1.31686E-03
 -1      7476 7.14850E+00 3.36147E+01-3.46983E-03-9.94030E+00 2.25010E-12-2.00815E-12
 -1      7477 8.71393E+00 3.26440E+01-9.39630E-03-1.32767E+01 1.33075E-12-6.26619E-12
 -1      7478 5.95835E+00 3.16933E+01-3.74706E-03-1.12842E+01 2.37325E-04 1.31686E-03
 -1      7479 7.11007E+00 3.36540E+01-2.74891E-03-9.91582E+00 1.24695E-03 2.68651E-04
 -1      7480 8.65864E+00 3.26923E+01-6.91219E-03-1.32577E+01 3.52436E-03 4.13980E-03
 -1      7481 5.86998E+00 3.17841E+01 1.32132E-03-1.12506E+01 1.26112E-03-1.85890E-04
 -1      7482 6.99162E+00 3.37718E+01-8.02534E-04-9.84092E+00 2.51946E-04 1.37392E-03
 -1      7483 8.50530E+00 3.28421E+01-3.13747E-03-1.32013E+01 5.66865E-03-1.84618E-04
 -1      7484 5.69028E+00 3.19622E+01-3.69113E-03-1.11833E+01 3.21860E-04 5.76036E-04
 -1      7485 3.90625E+00 2.68978E+01-8.22754E-03-1.41546E+01-4.45307E-04-1.59821E-03
 -1      7486 4.91971E+00 2.93131E+01 3.37106E-04-1.26809E+01 7.08226E-06-2.74709E-03
 -1      7487 6.58831E+00 2.71717E+01-2.57922E-03-1.55148E+01-7.00534E-03 3.45218E-03
 -1      7488 4.10140E+00 2.67086E+01 3.48059E-03-1.41373E+01-1.64878E-03 1.10196E-03
 -1      7489 5.06027E+00 2.91735E+01-3.65090E-03-1.27000E+01-1.50884E-03-3.67693E-05
 -1      7490 6.75258E+00 2.70060E+01-9.26372E-03-1.54998E+01-3.74386E-03-5.72363E-03
 -1      7491 4.19601E+00 2.66102E+01-4.37606E-03-1.41288E+01-2.93395E-04-2.21439E-03
 -1      7492 5.10482E+00 2.91270E+01-4.48596E-03-1.27059E+01-5.20618E-13-3.52496E-12
 -1      7493 6.81613E+00 2.69538E+01-1.19432E-02-1.54948E+01-2.32938E-12-3.32968E-12
 -1      7494 4.19601E+00 2.66102E+01-4.37606E-03-1.41288E+01 2.93395E-04 2.21439E-03
 -1      7495 5.06027E+00 2.91735E+01-3.65090E-03-1.27000E+01 1.50884E-03 3.67693E-05
 -1      7496 6.75258E+00 2.70060E+01-9.26372E-03-1.54998E+01 3.74386E-03 5.72363E-03
 -1      7497 4.10140E+00 2.67086E+01 3.48059E-03-1.41373E+01 1.64878E-03-1.10196E-03
 -1      7498 4.91971E+00 2.93131E+01 3.37106E-04-1.26809E+01-7.08226E-06 2.74709E-03
 -1      7499 6.58831E+00 2.71717E+01-2.57922E-03-1.55148E+01 7.00534E-03-3.45218E-03
 -1      7500 3.90625E+00 2.68978E+01-8.22754E-03-1.41546E+01 4.45307E-04 1.59821E-03
 -1      7501 3.17315E+00 2.04469E+01-1.65068E-02-1.69368E+01-7.14755E-04-5.08330E-03
 -1      7502 3.64158E+00 2.35755E+01-2.71547E-03-1.54952E+01-2.30182E-04-5.21066E-03
 -1      7503 5.30609E+00 2.03947E+01-1.41347E-02-1.77455E+01-8.09165E-03 1.32660E-02
 -1      7504 3.33800E+00 2.02980E+01 8.37723E-03-1.68249E+01-2.21971E-03 4.82485E-03
 -1      7505 3.78012E+00 2.34464E+01-2.68324E-03-1.54478E+01-1.80252E-03 5.05938E-04
 -1      7506 5.43748E+00 2.02554E+01-8.15355E-03-1.76450E+01-4.08326E-03-4.92657E-03
 -1      7507 3.40909E+00 2.02142E+01-4.11161E-03-1.67691E+01-4.44213E-04-3.12004E-03
 -1      7508 3.82072E+00 2.34024E+01-2.97455E-03-1.54317E+01-8.99299E-13-2.27633E-12
 -1      7509 5.49900E+00 2.02144E+01-7.51393E-03-1.76113E+01-6.76151E-14-8.46663E-13
 -1      7510 3.40909E+00 2.02142E+01-4.11161E-03-1.67691E+01 4.44213E-04 3.12004E-03
 -1      7511 3.78012E+00 2.34464E+01-2.68324E-03-1.54478E+01 1.80252E-03-5.05938E-04
 -1      7512 5.43748E+00 2.02554E+01-8.15355E-03-1.76450E+01 4.08326E-03 4.92657E-03
 -1      7513 3.33800E+00 2.02980E+01 8.37723E-03-1.68249E+01 2.21971E-03-4.82485E-03
 -1      7514 3.64158E+00 2.35755E+01-2.71547E-03-1.54952E+01 2.30182E-04 5.21066E-03
 -1      7515 5.30609E+00 2.03947E+01-1.41347E-02-1.77455E+01 8.09165E-03-1.32660E-02
 -1      7516 3.17315E+00 2.04469E+01-1.65068E-02-1.69368E+01 7.14755E-04 5.08330E-03
 -1      7517 3.88015E+00 1.27418E+01-6.75385E-02-1.87808E+01 3.27347E-03-3.88677E-02
 -1      7518 3.57012E+00 1.65771E+01 8.72642E-03-1.77709E+01 1.80339E-03-2.14538E-02
 -1      7519 5.32598E+00 1.25551E+01-1.52171E-03-1.93307E+01 1.70939E-03-3.70220E-03
 -1      7520 3.98403E+00 1.27234E+01-2.85426E-02-1.86047E+01-6.86196E-04-4.51752E-03
 -1      7521 3.67564E+00 1.64968E+01-1.87803E-02-1.76645E+01-3.45890E-05-1.30100E-02
 -1      7522 5.34277E+00 1.24824E+01-4.85385E-02-1.91645E+01 1.45099E-03-1.86187E-02
 -1      7523 4.01168E+00 1.26987E+01-2.93346E-02-1.85170E+01-1.50662E-04-6.41037E-03
 -1      7524 3.70339E+00 1.64679E+01-2.81080E-02-1.76294E+01 1.72112E-12-1.87021E-12
 -1      7525 5.37992E+00 1.24727E+01-4.78185E-02-1.91099E+01 4.65900E-12-1.99742E-13
 -1      7526 4.01168E+00 1.26987E+01-2.93346E-02-1.85170E+01 1.50662E-04 6.41037E-03
 -1      7527 3.67564E+00 1.64968E+01-1.87803E-02-1.76645E+01 3.45890E-05 1.30100E-02
 -1      7528 5.34277E+00 1.24824E+01-4.85385E-02-1.91645E+01-1.45099E-03 1.86187E-02
 -1      7529 3.98403E+00 1.27234E+01-2.85426E-02-1.86047E+01 6.86196E-04 4.51752E-03
 -1      7530 3.57012E+00 1.65771E+01 8.72642E-03-1.77709E+01-1.80339E-03 2.14538E-02
 -1      7531 5.32598E+00 1.25551E+01-1.52171E-03-1.93307E+01-1.70939E-03 3.70220E-03
 -1      7532 3.88015E+00 1.27418E+01-6.75385E-02-1.87808E+01-3.27347E-03 3.88677E-02
 -1      7533 5.40282E+00 5.23788E+00-2.60314E-01-1.86519E+01-5.03277E-04-3.07880E-01
 -1      7534 4.76285E+00 9.11248E+00 5.47107E-04-1.86892E+01-4.96234E-03-5.71612E-02
 -1      7535 6.80908E+00 4.90581E+00-1.85727E-01-1.91040E+01 4.49931E-02-1.63778E-01
 -1      7536 5.88501E+00 5.51483E+00-2.08629E-01-1.85204E+01-6.99330E-03-1.22763E-01
 -1      7537 4.91929E+00 9.18189E+00 4.38281E-02-1.85700E+01 2.34076E-03-4.58211E-02
 -1      7538 6.85337E+00 5.04568E+00-3.46222E-03-1.89866E+01 3.03051E-02 8.88523E-03
 -1      7539 5.94950E+00 5.62868E+00-2.11235E-02-1.84480E+01-3.15414E-03-9.20329E-03
 -1      7540 4.95937E+00 9.19206E+00 3.98156E-02-1.85315E+01 5.74837E-12-6.58800E-12
 -1      7541 6.80423E+00 5.07402E+00 9.96011E-02-1.89485E+01 1.36412E-11-1.38045E-11
 -1      7542 5.94950E+00 5.62868E+00-2.11235E-02-1.84480E+01 3.15414E-03 9.20329E-03
 -1      7543 4.91929E+00 9.18189E+00 4.38281E-02-1.85700E+01-2.34076E-03 4.58211E-02
 -1      7544 6.85337E+00 5.04568E+00-3.46222E-03-1.89866E+01-3.03051E-02-8.88523E-03
 -1      7545 5.88501E+00 5.51483E+00-2.08629E-01-1.85204E+01 6.99330E-03 1.22763E-01
 -1      7546 4.76285E+00 9.11248E+00 5.47107E-04-1.86892E+01 4.96234E-03 5.71612E-02
 -1      7547 6.80908E+00 4.90581E+00-1.85727E-01-1.91040E+01-4.49931E-02 1.63778E-01
 -1      7548 5.40282E+00 5.23788E+00-2.60314E-01-1.86519E+01 5.03277E-04 3.07880E-01
 -1      7549 6.48103E+00 3.77364E+00 6.73109E-01-1.82069E+01-1.89407E-02 4.57253E-01
 -1      7550 6.24586E+00 3.85373E+00 1.04810E+00-1.81270E+01-6.62080E-03 2.90176E-01
 -1      7551 6.18670E+00 3.88101E+00 1.17322E+00-1.81015E+01 3.35681E-12-1.36211E-11
 -1      7552 6.24586E+00 3.85373E+00 1.04810E+00-1.81270E+01 6.62080E-03-2.90176E-01
 -1      7553 6.48103E+00 3.77364E+00 6.73109E-01-1.82069E+01 1.89407E-02-4.57253E-01
 -1      7554-8.21939E+00-3.11778E+01 2.34313E-02 2.70021E+01 7.41417E-02-1.24319E-01
 -1      7555-3.28428E+00-4.67010E+01-2.06427E-02 1.44382E+01-2.41111E-01-2.18155E-01
 -1      7556-1.02569E+01-3.45908E+01-1.27582E-01 2.98181E+01 1.84242E-01-2.77397E-01
 -1      7557-8.09630E+00-3.11259E+01-1.77375E-01 2.57576E+01 9.42816E-02-1.97966E-01
 -1      7558-3.22596E+00-4.63068E+01 1.71345E-01 1.38139E+01-1.70865E-01-1.44782E-01
 -1      7559-9.88894E+00-3.46932E+01-4.00569E-01 2.85382E+01 1.14535E-01-1.87782E-01
 -1      7560-7.90461E+00-3.10891E+01-2.48694E-01 2.51314E+01 2.84025E-02-8.09270E-02
 -1      7561-3.15536E+00-4.61715E+01 2.79412E-01 1.36079E+01 2.89758E-12-5.87545E-12
 -1      7562-9.69316E+00-3.46733E+01-4.36728E-01 2.81388E+01-1.60552E-12-1.39588E-11
 -1      7563-7.90461E+00-3.10891E+01-2.48694E-01 2.51314E+01-2.84025E-02 8.09270E-02
 -1      7564-3.22596E+00-4.63068E+01 1.71345E-01 1.38139E+01 1.70865E-01 1.44782E-01
 -1      7565-9.88894E+00-3.46932E+01-4.00569E-01 2.85382E+01-1.14535E-01 1.87782E-01
 -1      7566-8.09630E+00-3.11259E+01-1.77375E-01 2.57576E+01-9.42816E-02 1.97966E-01
 -1      7567-3.28428E+00-4.67010E+01-2.06427E-02 1.44382E+01 2.41111E-01 2.18155E-01
 -1      7568-1.02569E+01-3.45908E+01-1.27582E-01 2.98181E+01-1.84242E-01 2.77397E-01
 -1      7569-8.21939E+00-3.11778E+01 2.34313E-02 2.70021E+01-7.41417E-02 1.24319E-01
 -1      7570-1.68509E+01 3.71678E+00-3.38218E-02 2.40400E+01-2.00263E-03-7.41860E-03
 -1      7571-1.28428E+01-1.31277E+01 6.72666E-03 2.51022E+01-2.86951E-03-7.44213E-02
 -1      7572-1.73480E+01 4.90135E+00-2.54601E-02 2.39481E+01 1.61065E-03-1.69696E-02
 -1      7573-1.62287E+01 3.08655E+00-1.58640E-02 2.35445E+01-1.54933E-03-9.89009E-03
 -1      7574-1.25017E+01-1.34147E+01-4.58985E-02 2.44869E+01-1.02266E-02-5.55333E-02
 -1      7575-1.66343E+01 4.26361E+00-4.46144E-02 2.35901E+01 1.39392E-02-2.70060E-02
 -1      7576-1.59339E+01 2.77085E+00-4.03030E-02 2.32997E+01 2.00193E-03-3.61464E-03
 -1      7577-1.23772E+01-1.35022E+01-6.60018E-02 2.42871E+01-6.85770E-12-2.48343E-12
 -1      7578-1.64180E+01 4.02162E+00-8.44870E-02 2.34677E+01-8.16632E-12 6.46305E-12
 -1      7579-1.59339E+01 2.77085E+00-4.03030E-02 2.32997E+01-2.00193E-03 3.61464E-03
 -1      7580-1.25017E+01-1.34147E+01-4.58985E-02 2.44869E+01 1.02266E-02 5.55333E-02
 -1      7581-1.66343E+01 4.26361E+00-4.46144E-02 2.35901E+01-1.39392E-02 2.70060E-02
 -1      7582-1.62287E+01 3.08655E+00-1.58640E-02 2.35445E+01 1.54933E-03 9.89009E-03
 -1      7583-1.28428E+01-1.31277E+01 6.72666E-03 2.51022E+01 2.86951E-03 7.44213E-02
 -1      7584-1.73480E+01 4.90135E+00-2.54601E-02 2.39481E+01-1.61065E-03 1.69696E-02
 -1      7585-1.68509E+01 3.71678E+00-3.38218E-02 2.40400E+01 2.00263E-03 7.41860E-03
 -1      7586-1.32438E+01 2.07653E+01-9.82589E-03 1.31812E+01-2.00413E-03-8.28060E-04
 -1      7587-1.47721E+01 1.20955E+01-1.54424E-02 1.81266E+01-7.90953E-03 1.56379E-03
 -1      7588-1.06429E+01 2.14704E+01 2.23844E-02 1.24964E+01-1.83172E-03 8.57678E-03
 -1      7589-1.27425E+01 2.02687E+01-4.25771E-03 1.31986E+01-3.59498E-03 5.65614E-03
 -1      7590-1.43447E+01 1.16791E+01-1.21901E-02 1.79703E+01-4.53808E-03-3.30654E-03
 -1      7591-1.02252E+01 2.10189E+01 6.79708E-03 1.25932E+01-2.68666E-03 9.49928E-04
 -1      7592-1.24984E+01 2.00104E+01-5.43146E-04 1.32126E+01-2.47390E-03 1.93089E-03
 -1      7593-1.42067E+01 1.15348E+01-1.67399E-02 1.79155E+01-3.77333E-12 8.70133E-12
 -1      7594-1.00836E+01 2.08740E+01 3.95130E-03 1.26270E+01-7.50887E-13 5.08072E-12
 -1      7595-1.24984E+01 2.00104E+01-5.43146E-04 1.32126E+01 2.47390E-03-1.93089E-03
 -1      7596-1.43447E+01 1.16791E+01-1.21901E-02 1.79703E+01 4.53808E-03 3.30654E-03
 -1      7597-1.02252E+01 2.10189E+01 6.79708E-03 1.25932E+01 2.68666E-03-9.49928E-04
 -1      7598-1.27425E+01 2.02687E+01-4.25771E-03 1.31986E+01 3.59498E-03-5.65614E-03
 -1      7599-1.47721E+01 1.20955E+01-1.54424E-02 1.81266E+01 7.90953E-03-1.56379E-03
 -1      7600-1.06429E+01 2.14704E+01 2.23844E-02 1.24964E+01 1.83172E-03-8.57678E-03
 -1      7601-1.32438E+01 2.07653E+01-9.82589E-03 1.31812E+01 2.00413E-03 8.28060E-04
 -1      7602-5.58485E+00 2.69177E+01-1.70803E-02 6.32379E+00-9.03659E-04 4.63142E-04
 -1      7603-8.99236E+00 2.35159E+01 8.70759E-03 9.69378E+00-1.74164E-03 1.07382E-03
 -1      7604-1.83865E+00 2.72833E+01 2.61675E-02 6.73939E+00-4.26145E-03 5.72973E-03
 -1      7605-5.30024E+00 2.66404E+01-1.06323E-02 6.48787E+00-1.46654E-03 1.55678E-03
 -1      7606-8.71273E+00 2.32236E+01 8.68015E-03 9.76486E+00-2.06500E-03 2.45289E-03
 -1      7607-1.63598E+00 2.70794E+01 3.28970E-02 6.91442E+00-2.61406E-03 3.15908E-03
 -1      7608-5.16657E+00 2.65026E+01-9.88898E-03 6.57080E+00-2.63407E-04 1.24316E-03
 -1      7609-8.61974E+00 2.31278E+01 9.84698E-03 9.78982E+00-1.58247E-12 1.19047E-12
 -1      7610-1.57144E+00 2.70071E+01 3.20275E-02 6.97198E+00 6.68755E-13 1.35031E-12
 -1      7611-5.16657E+00 2.65026E+01-9.88898E-03 6.57080E+00 2.63407E-04-1.24316E-03
 -1      7612-8.71273E+00 2.32236E+01 8.68015E-03 9.76486E+00 2.06500E-03-2.45289E-03
 -1      7613-1.63598E+00 2.70794E+01 3.28970E-02 6.91442E+00 2.61406E-03-3.15908E-03
 -1      7614-5.30024E+00 2.66404E+01-1.06323E-02 6.48787E+00 1.46654E-03-1.55678E-03
 -1      7615-8.99236E+00 2.35159E+01 8.70759E-03 9.69378E+00 1.74164E-03-1.07382E-03
 -1      7616-1.83865E+00 2.72833E+01 2.61675E-02 6.73939E+00 4.26145E-03-5.72973E-03
 -1      7617-5.58485E+00 2.69177E+01-1.70803E-02 6.32379E+00 9.03659E-04-4.63142E-04
 -1      7618 9.77587E-01 2.95512E+01-3.23147E-03 3.07567E+00 1.07452E-03-1.21466E-04
 -1      7619-2.06159E+00 2.80113E+01 4.34587E-04 4.81216E+00-1.20146E-03 2.31066E-03
 -1      7620 4.44841E+00 3.03480E+01 1.22209E-02 4.60188E+00-1.10865E-03 2.94857E-03
 -1      7621 1.12312E+00 2.94090E+01-2.02136E-03 3.24525E+00-2.41606E-04 7.34568E-04
 -1      7622-1.90771E+00 2.78600E+01 2.11398E-03 4.93663E+00-9.74853E-04 1.43928E-03
 -1      7623 4.54677E+00 3.02474E+01 1.34753E-02 4.74872E+00-9.78729E-04 1.38362E-03
 -1      7624 1.19170E+00 2.93379E+01-1.76789E-03 3.33091E+00-1.75522E-04 3.94409E-04
 -1      7625-1.85832E+00 2.78080E+01 1.98708E-03 4.97846E+00 1.04487E-12 1.32486E-12
 -1      7626 4.57785E+00 3.02144E+01 1.40589E-02 4.79831E+00 1.22170E-12-4.83332E-13
 -1      7627 1.19170E+00 2.93379E+01-1.76789E-03 3.33091E+00 1.75522E-04-3.94409E-04
 -1      7628-1.90771E+00 2.78600E+01 2.11398E-03 4.93663E+00 9.74853E-04-1.43928E-03
 -1      7629 4.54677E+00 3.02474E+01 1.34753E-02 4.74872E+00 9.78729E-04-1.38362E-03
 -1      7630 1.12312E+00 2.94090E+01-2.02136E-03 3.24525E+00 2.41606E-04-7.34568E-04
 -1      7631-2.06159E+00 2.80113E+01 4.34587E-04 4.81216E+00 1.20146E-03-2.31066E-03
 -1      7632 4.44841E+00 3.03480E+01 1.22209E-02 4.60188E+00 1.10865E-03-2.94857E-03
 -1      7633 9.77587E-01 2.95512E+01-3.23147E-03 3.07567E+00-1.07452E-03 1.21466E-04
 -1      7634 5.73647E+00 3.11843E+01-5.53206E-04 1.32699E+00 4.74590E-04-1.89025E-04
 -1      7635 3.45565E+00 3.02654E+01-6.71927E-05 2.32769E+00-3.50235E-04 6.82749E-04
 -1      7636 8.52488E+00 3.28283E+01 3.31853E-03 3.48867E+00-1.24586E-04 1.02694E-03
 -1      7637 5.81247E+00 3.11089E+01-8.82033E-04 1.48524E+00-4.26191E-04 1.03221E-04
 -1      7638 3.53594E+00 3.01842E+01 8.04794E-04 2.45020E+00-2.58871E-04 4.46510E-04
 -1      7639 8.57856E+00 3.27767E+01 4.43270E-03 3.61683E+00 3.07232E-06 1.99123E-04
 -1      7640 5.84848E+00 3.10725E+01-8.00022E-04 1.56434E+00-3.38849E-05 1.75098E-04
 -1      7641 3.56232E+00 3.01576E+01 1.16834E-03 2.49116E+00 1.59218E-12-1.46201E-12
 -1      7642 8.59518E+00 3.27592E+01 4.08419E-03 3.65977E+00-3.65507E-13-6.64520E-13
 -1      7643 5.84848E+00 3.10725E+01-8.00022E-04 1.56434E+00 3.38849E-05-1.75098E-04
 -1      7644 3.53594E+00 3.01842E+01 8.04794E-04 2.45020E+00 2.58871E-04-4.46510E-04
 -1      7645 8.57856E+00 3.27767E+01 4.43270E-03 3.61683E+00-3.07232E-06-1.99123E-04
 -1      7646 5.81247E+00 3.11089E+01-8.82033E-04 1.48524E+00 4.26191E-04-1.03221E-04
 -1      7647 3.45565E+00 3.02654E+01-6.71927E-05 2.32769E+00 3.50235E-04-6.82749E-04
 -1      7648 8.52488E+00 3.28283E+01 3.31853E-03 3.48867E+00 1.24586E-04-1.02694E-03
 -1      7649 5.73647E+00 3.11843E+01-5.53206E-04 1.32699E+00-4.74590E-04 1.89025E-04
 -1      7650 9.41148E+00 3.22396E+01 1.29036E-04 6.59090E-02 2.10111E-04-2.57712E-04
 -1      7651 7.60696E+00 3.16726E+01-8.72534E-05 8.08119E-01-1.64959E-04 4.05606E-04
 -1      7652 1.14602E+01 3.48496E+01 9.44180E-04 2.45177E+00 1.52853E-05 1.39659E-04
 -1      7653 9.43977E+00 3.22109E+01-4.13588E-04 2.18997E-01-2.96725E-04 5.50685E-05
 -1      7654 7.64548E+00 3.16341E+01 2.35101E-04 9.24527E-01-1.29021E-04 9.20841E-05
 -1      7655 1.14815E+01 3.48294E+01 7.59205E-04 2.57526E+00 1.55806E-04-3.03146E-04
 -1      7656 9.45315E+00 3.21972E+01-2.88001E-04 2.95387E-01-5.11844E-06 6.97494E-05
 -1      7657 7.65788E+00 3.16213E+01 1.68814E-04 9.63395E-01 7.06213E-13-2.12451E-12
 -1      7658 1.14878E+01 3.48228E+01 3.75332E-04 2.61650E+00 5.83123E-13-1.12643E-12
 -1      7659 9.45315E+00 3.21972E+01-2.88001E-04 2.95387E-01 5.11844E-06-6.97494E-05
 -1      7660 7.64548E+00 3.16341E+01 2.35101E-04 9.24527E-01 1.29021E-04-9.20841E-05
 -1      7661 1.14815E+01 3.48294E+01 7.59205E-04 2.57526E+00-1.55806E-04 3.03146E-04
 -1      7662 9.43977E+00 3.22109E+01-4.13588E-04 2.18997E-01 2.96725E-04-5.50685E-05
 -1      7663 7.60696E+00 3.16726E+01-8.72534E-05 8.08119E-01 1.64959E-04-4.05606E-04
 -1      7664 1.14602E+01 3.48496E+01 9.44180E-04 2.45177E+00-1.52853E-05-1.39659E-04
 -1      7665 9.41148E+00 3.22396E+01 1.29036E-04 6.59090E-02-2.10111E-04 2.57712E-04
 -1      7666 1.25599E+01 3.27101E+01 3.43257E-04-8.76378E-01 2.80651E-05-3.11714E-05
 -1      7667 1.09835E+01 3.24723E+01-1.04010E-04-3.05322E-01-1.11149E-04 2.69110E-04
 -1      7668 1.39212E+01 3.62591E+01-2.80104E-05 1.41925E+00 1.94752E-04-1.65235E-04
 -1      7669 1.25422E+01 3.27268E+01-9.27713E-05-7.28734E-01-2.25620E-04 1.70592E-04
 -1      7670 1.09874E+01 3.24677E+01-6.88192E-05-1.92590E-01-1.17435E-04 3.27842E-05
 -1      7671 1.39070E+01 3.62739E+01-7.00705E-04 1.54001E+00 2.88441E-04-5.00234E-04
 -1      7672 1.25331E+01 3.27355E+01-3.59941E-05-6.55096E-01 6.40763E-06 7.90186E-05
 -1      7673 1.09886E+01 3.24665E+01-1.42484E-04-1.55052E-01 4.36474E-13-2.40745E-12
 -1      7674 1.39019E+01 3.62789E+01-1.27498E-03 1.58021E+00 1.88481E-12-1.51117E-12
 -1      7675 1.25331E+01 3.27355E+01-3.59941E-05-6.55096E-01-6.40763E-06-7.90186E-05
 -1      7676 1.09874E+01 3.24677E+01-6.88192E-05-1.92590E-01 1.17435E-04-3.27842E-05
 -1      7677 1.39070E+01 3.62739E+01-7.00705E-04 1.54001E+00-2.88441E-04 5.00234E-04
 -1      7678 1.25422E+01 3.27268E+01-9.27713E-05-7.28734E-01 2.25620E-04-1.70592E-04
 -1      7679 1.09835E+01 3.24723E+01-1.04010E-04-3.05322E-01 1.11149E-04-2.69110E-04
 -1      7680 1.39212E+01 3.62591E+01-2.80104E-05 1.41925E+00-1.94752E-04 1.65235E-04
 -1      7681 1.25599E+01 3.27101E+01 3.43257E-04-8.76378E-01-2.80651E-05 3.11714E-05
 -1      7682 1.53310E+01 3.26800E+01 3.52004E-04-1.37822E+00-3.93623E-05 6.11509E-05
 -1      7683 1.39150E+01 3.27223E+01-7.71596E-05-1.03863E+00-1.22955E-04 3.01319E-04
 -1      7684 1.61033E+01 3.70563E+01-2.84800E-04 5.79626E-01 1.83775E-04-3.61678E-04
 -1      7685 1.52662E+01 3.27435E+01 5.92530E-05-1.24645E+00-1.53701E-04 2.09133E-04
 -1      7686 1.38841E+01 3.27524E+01-1.69933E-04-9.33814E-01-1.06043E-04 8.52484E-05
 -1      7687 1.60504E+01 3.71093E+01-1.28869E-03 6.88807E-01 2.77177E-04-6.41112E-04
 -1      7688 1.52338E+01 3.27755E+01 4.16994E-05-1.18069E+00 1.59601E-06 7.11326E-05
 -1      7689 1.38737E+01 3.27626E+01-2.92032E-04-8.98917E-01 1.13362E-12-2.46657E-13
 -1      7690 1.60327E+01 3.71271E+01-1.90366E-03 7.25104E-01 6.37038E-13-3.42062E-13
 -1      7691 1.52338E+01 3.27755E+01 4.16994E-05-1.18069E+00-1.59601E-06-7.11326E-05
 -1      7692 1.38841E+01 3.27524E+01-1.69933E-04-9.33814E-01 1.06043E-04-8.52484E-05
 -1      7693 1.60504E+01 3.71093E+01-1.28869E-03 6.88807E-01-2.77177E-04 6.41112E-04
 -1      7694 1.52662E+01 3.27435E+01 5.92530E-05-1.24645E+00 1.53701E-04-2.09133E-04
 -1      7695 1.39150E+01 3.27223E+01-7.71596E-05-1.03863E+00 1.22955E-04-3.01319E-04
 -1      7696 1.61033E+01 3.70563E+01-2.84800E-04 5.79626E-01-1.83775E-04 3.61678E-04
 -1      7697 1.53310E+01 3.26800E+01 3.52004E-04-1.37822E+00 3.93623E-05-6.11509E-05
 -1      7698 1.75807E+01 3.23676E+01 3.54198E-04-1.33987E+00-4.60332E-05 1.47577E-04
 -1      7699 1.63991E+01 3.25784E+01-6.73097E-05-1.28682E+00-1.01446E-04 3.26102E-04
 -1      7700 1.78969E+01 3.73920E+01-3.49091E-04 8.31804E-02 1.53069E-04-4.80545E-04
 -1      7701 1.74734E+01 3.24736E+01 1.54043E-04-1.23952E+00-9.81868E-05 2.43711E-04
 -1      7702 1.63346E+01 3.26420E+01-2.24468E-04-1.19970E+00-8.42373E-05 1.25600E-04
 -1      7703 1.78082E+01 3.74807E+01-1.55984E-03 1.67054E-01 2.19963E-04-7.51850E-04
 -1      7704 1.74197E+01 3.25266E+01 6.55732E-05-1.18941E+00-3.06936E-07 7.56627E-05
 -1      7705 1.63131E+01 3.26633E+01-3.52113E-04-1.17071E+00 6.84900E-13-1.73131E-14
 -1      7706 1.77788E+01 3.75102E+01-2.23301E-03 1.94925E-01 8.73459E-13 6.79616E-13
 -1      7707 1.74197E+01 3.25266E+01 6.55732E-05-1.18941E+00 3.06937E-07-7.56627E-05
 -1      7708 1.63346E+01 3.26420E+01-2.24468E-04-1.19970E+00 8.42373E-05-1.25600E-04
 -1      7709 1.78082E+01 3.74807E+01-1.55984E-03 1.67054E-01-2.19963E-04 7.51850E-04
 -1      7710 1.74734E+01 3.24736E+01 1.54043E-04-1.23952E+00 9.81868E-05-2.43711E-04
 -1      7711 1.63991E+01 3.25784E+01-6.73097E-05-1.28682E+00 1.01446E-04-3.26102E-04
 -1      7712 1.78969E+01 3.73920E+01-3.49091E-04 8.31804E-02-1.53069E-04 4.80545E-04
 -1      7713 1.75807E+01 3.23676E+01 3.54198E-04-1.33987E+00 4.60332E-05-1.47577E-04
 -1      7714 1.90481E+01 3.20384E+01 3.55626E-04-8.06909E-01-3.03697E-05 1.89008E-04
 -1      7715 1.82363E+01 3.22796E+01-7.62038E-05-1.02578E+00-6.86941E-05 3.63528E-04
 -1      7716 1.90756E+01 3.74755E+01-3.73118E-04-5.90424E-02 7.44814E-05-5.49315E-04
 -1      7717 1.89109E+01 3.21742E+01 2.19648E-04-7.52648E-01-5.33698E-05 2.59673E-04
 -1      7718 1.81445E+01 3.23703E+01-2.66266E-04-9.67747E-01-5.69141E-05 1.59127E-04
 -1      7719 1.89614E+01 3.75895E+01-1.69696E-03-1.33822E-02 1.22741E-04-8.23331E-04
 -1      7720 1.88423E+01 3.22422E+01 8.10573E-05-7.25556E-01 2.85157E-06 7.86147E-05
 -1      7721 1.81140E+01 3.24005E+01-4.01952E-04-9.48433E-01 6.92963E-13 4.11221E-13
 -1      7722 1.89236E+01 3.76275E+01-2.39941E-03 1.78309E-03 1.97581E-12-1.06011E-12
 -1      7723 1.88423E+01 3.22422E+01 8.10573E-05-7.25556E-01-2.85157E-06-7.86147E-05
 -1      7724 1.81445E+01 3.23703E+01-2.66266E-04-9.67747E-01 5.69141E-05-1.59127E-04
 -1      7725 1.89614E+01 3.75895E+01-1.69696E-03-1.33822E-02-1.22741E-04 8.23331E-04
 -1      7726 1.89109E+01 3.21742E+01 2.19648E-04-7.52648E-01 5.33698E-05-2.59673E-04
 -1      7727 1.82363E+01 3.22796E+01-7.62038E-05-1.02578E+00 6.86941E-05-3.63528E-04
 -1      7728 1.90756E+01 3.74755E+01-3.73118E-04-5.90424E-02-7.44814E-05 5.49315E-04
 -1      7729 1.90481E+01 3.20384E+01 3.55626E-04-8.06909E-01 3.03697E-05-1.89008E-04
 -1      7730 1.94983E+01 3.19087E+01 3.43718E-04 2.12817E-02-3.22361E-06 2.11247E-04
 -1      7731 1.91830E+01 3.20625E+01-7.78970E-05-3.76850E-01-1.75270E-05 3.83996E-04
 -1      7732 1.94298E+01 3.74840E+01-3.72485E-04 2.34066E-02-2.23649E-05-5.75880E-04
 -1      7733 1.93500E+01 3.20556E+01 2.59984E-04 2.03305E-02-1.45642E-05 2.68403E-04
 -1      7734 1.90758E+01 3.21686E+01-2.83795E-04-3.56832E-01-2.88240E-05 1.77989E-04
 -1      7735 1.93059E+01 3.76075E+01-1.75211E-03 2.28283E-02 1.05673E-05-8.56018E-04
 -1      7736 1.92758E+01 3.21291E+01 8.30030E-05 1.98391E-02 1.24743E-05 8.00298E-05
 -1      7737 1.90401E+01 3.22040E+01-4.21340E-04-3.50175E-01 1.59942E-12-1.73280E-13
 -1      7738 1.92649E+01 3.76488E+01-2.47134E-03 2.26224E-02 2.20800E-12 3.94416E-13
 -1      7739 1.92758E+01 3.21291E+01 8.30030E-05 1.98391E-02-1.24743E-05-8.00298E-05
 -1      7740 1.90758E+01 3.21686E+01-2.83795E-04-3.56832E-01 2.88241E-05-1.77989E-04
 -1      7741 1.93059E+01 3.76075E+01-1.75211E-03 2.28283E-02-1.05673E-05 8.56018E-04
 -1      7742 1.93500E+01 3.20556E+01 2.59984E-04 2.03305E-02 1.45642E-05-2.68403E-04
 -1      7743 1.91830E+01 3.20625E+01-7.78970E-05-3.76850E-01 1.75270E-05-3.83996E-04
 -1      7744 1.94298E+01 3.74840E+01-3.72485E-04 2.34066E-02 2.23649E-05 5.75880E-04
 -1      7745 1.94983E+01 3.19087E+01 3.43718E-04 2.12817E-02 3.22361E-06-2.11247E-04
 -1      7746 1.88125E+01 3.20793E+01 3.15370E-04 8.41146E-01 2.65313E-05 2.15889E-04
 -1      7747 1.90653E+01 3.20829E+01-7.99670E-05 4.12420E-01 4.37439E-05 3.88667E-04
 -1      7748 1.88466E+01 3.75052E+01-3.68844E-04 1.07513E-01-1.34043E-04-5.61646E-04
 -1      7749 1.86749E+01 3.22154E+01 2.95739E-04 7.84066E-01 1.85040E-05 2.69436E-04
 -1      7750 1.89580E+01 3.21891E+01-2.92762E-04 3.90651E-01-2.85903E-06 1.87202E-04
 -1      7751 1.87316E+01 3.76199E+01-1.75476E-03 5.97572E-02-1.00216E-04-8.52612E-04
 -1      7752 1.86061E+01 3.22835E+01 8.00493E-05 7.55521E-01 2.77902E-05 7.56732E-05
 -1      7753 1.89223E+01 3.22245E+01-4.29211E-04 3.83399E-01 1.07834E-12 3.84858E-13
 -1      7754 1.86936E+01 3.76582E+01-2.47501E-03 4.38607E-02 5.84137E-13 5.33033E-13
 -1      7755 1.86061E+01 3.22835E+01 8.00493E-05 7.55521E-01-2.77902E-05-7.56732E-05
 -1      7756 1.89580E+01 3.21891E+01-2.92762E-04 3.90651E-01 2.85903E-06-1.87202E-04
 -1      7757 1.87316E+01 3.76199E+01-1.75476E-03 5.97572E-02 1.00216E-04 8.52612E-04
 -1      7758 1.86749E+01 3.22154E+01 2.95739E-04 7.84066E-01-1.85040E-05-2.69436E-04
 -1      7759 1.90653E+01 3.20829E+01-7.99670E-05 4.12420E-01-4.37439E-05-3.88667E-04
 -1      7760 1.88466E+01 3.75052E+01-3.68844E-04 1.07513E-01 1.34043E-04 5.61646E-04
 -1      7761 1.88125E+01 3.20793E+01 3.15370E-04 8.41146E-01-2.65312E-05-2.15889E-04
 -1      7762 1.70282E+01 3.25059E+01 2.54147E-04 1.31654E+00 5.58651E-05 2.07769E-04
 -1      7763 1.78437E+01 3.23681E+01-7.65606E-05 1.02737E+00 1.12379E-04 3.71290E-04
 -1      7764 1.73430E+01 3.75128E+01-3.60336E-04-6.09214E-02-2.58516E-04-5.03162E-04
 -1      7765 1.69223E+01 3.26105E+01 3.39676E-04 1.21122E+00 4.41027E-05 2.66521E-04
 -1      7766 1.77523E+01 3.24584E+01-2.91814E-04 9.66429E-01 1.74593E-05 1.89433E-04
 -1      7767 1.72544E+01 3.76010E+01-1.71545E-03-1.49280E-01-1.93759E-04-8.22594E-04
 -1      7768 1.68693E+01 3.26627E+01 6.69844E-05 1.15855E+00 4.89638E-05 6.19223E-05
 -1      7769 1.77219E+01 3.24885E+01-4.22613E-04 9.46139E-01 1.24434E-12-2.06123E-13
 -1      7770 1.72253E+01 3.76305E+01-2.42448E-03-1.78694E-01 2.36242E-12-5.83784E-13
 -1      7771 1.68693E+01 3.26627E+01 6.69844E-05 1.15855E+00-4.89638E-05-6.19223E-05
 -1      7772 1.77523E+01 3.24584E+01-2.91814E-04 9.66429E-01-1.74593E-05-1.89433E-04
 -1      7773 1.72544E+01 3.76010E+01-1.71545E-03-1.49280E-01 1.93759E-04 8.22594E-04
 -1      7774 1.69223E+01 3.26105E+01 3.39676E-04 1.21122E+00-4.41027E-05-2.66521E-04
 -1      7775 1.78437E+01 3.23681E+01-7.65606E-05 1.02737E+00-1.12379E-04-3.71290E-04
 -1      7776 1.73430E+01 3.75128E+01-3.60336E-04-6.09214E-02 2.58516E-04 5.03162E-04
 -1      7777 1.70282E+01 3.25059E+01 2.54147E-04 1.31654E+00-5.58651E-05-2.07769E-04
 -1      7778 1.43375E+01 3.30053E+01 1.34885E-04 1.15003E+00 8.26445E-05 1.87896E-04
 -1      7779 1.56313E+01 3.28061E+01-7.11160E-05 1.15638E+00 1.87434E-04 3.28415E-04
 -1      7780 1.50628E+01 3.73720E+01-3.54405E-04-7.07972E-01-4.03448E-04-3.84559E-04
 -1      7781 1.42796E+01 3.30619E+01 4.15077E-04 1.01202E+00 5.83494E-05 2.66309E-04
 -1      7782 1.55699E+01 3.28665E+01-2.85958E-04 1.06505E+00 2.80721E-05 1.90711E-04
 -1      7783 1.50145E+01 3.74199E+01-1.63647E-03-8.23871E-01-2.53352E-04-7.83286E-04
 -1      7784 1.42507E+01 3.30901E+01 3.75301E-05 9.42998E-01 7.73574E-05 3.18509E-05
 -1      7785 1.55494E+01 3.28866E+01-4.05270E-04 1.03466E+00 1.49783E-12-1.87482E-12
 -1      7786 1.49988E+01 3.74360E+01-2.32588E-03-8.62483E-01 1.65096E-12-3.05955E-12
 -1      7787 1.42507E+01 3.30901E+01 3.75301E-05 9.42998E-01-7.73574E-05-3.18509E-05
 -1      7788 1.55699E+01 3.28665E+01-2.85958E-04 1.06505E+00-2.80721E-05-1.90711E-04
 -1      7789 1.50145E+01 3.74199E+01-1.63647E-03-8.23871E-01 2.53352E-04 7.83286E-04
 -1      7790 1.42796E+01 3.30619E+01 4.15077E-04 1.01202E+00-5.83494E-05-2.66309E-04
 -1      7791 1.56313E+01 3.28061E+01-7.11160E-05 1.15638E+00-1.87434E-04-3.28415E-04
 -1      7792 1.50628E+01 3.73720E+01-3.54405E-04-7.07972E-01 4.03448E-04 3.84559E-04
 -1      7793 1.43375E+01 3.30053E+01 1.34885E-04 1.15003E+00-8.26445E-05-1.87896E-04
 -1      7794 1.10561E+01 3.32869E+01-9.04006E-05 1.39780E-01 1.06501E-04 1.54393E-04
 -1      7795 1.26787E+01 3.31633E+01-5.37783E-05 5.53956E-01 2.73064E-04 2.48556E-04
 -1      7796 1.22504E+01 3.68663E+01-3.43540E-04-1.98616E+00-5.83775E-04-1.68183E-04
 -1      7797 1.10557E+01 3.32864E+01 5.65307E-04-1.00990E-02 5.91064E-05 2.81318E-04
 -1      7798 1.26568E+01 3.31843E+01-2.79695E-04 4.45880E-01 2.38416E-05 1.99934E-04
 -1      7799 1.22502E+01 3.68660E+01-1.53651E-03-2.11213E+00-2.61681E-04-7.68442E-04
 -1      7800 1.10553E+01 3.32859E+01-1.67721E-05-8.50860E-02 1.16294E-04-2.86881E-05
 -1      7801 1.26494E+01 3.31912E+01-3.79874E-04 4.09941E-01 6.31189E-13-2.66070E-12
 -1      7802 1.22507E+01 3.68662E+01-2.20390E-03-2.15416E+00-5.29983E-13-3.33533E-12
 -1      7803 1.10553E+01 3.32859E+01-1.67721E-05-8.50860E-02-1.16294E-04 2.86881E-05
 -1      7804 1.26568E+01 3.31843E+01-2.79695E-04 4.45880E-01-2.38416E-05-1.99934E-04
 -1      7805 1.22502E+01 3.68660E+01-1.53651E-03-2.11213E+00 2.61681E-04 7.68442E-04
 -1      7806 1.10557E+01 3.32864E+01 5.65307E-04-1.00990E-02-5.91064E-05-2.81318E-04
 -1      7807 1.26787E+01 3.31633E+01-5.37783E-05 5.53956E-01-2.73064E-04-2.48556E-04
 -1      7808 1.22504E+01 3.68663E+01-3.43540E-04-1.98616E+00 5.83775E-04 1.68183E-04
 -1      7809 1.10561E+01 3.32869E+01-9.04006E-05 1.39780E-01-1.06501E-04-1.54393E-04
 -1      7810 7.57695E+00 3.29999E+01-5.18260E-04-1.78508E+00 1.24059E-04 1.02369E-04
 -1      7811 9.33529E+00 3.31241E+01-4.73198E-05-9.13708E-01 3.76431E-04 1.13222E-04
 -1      7812 9.21282E+00 3.57340E+01-3.92101E-04-3.94815E+00-8.39393E-04 2.44944E-04
 -1      7813 7.63479E+00 3.29416E+01 8.65544E-04-1.92376E+00 3.55748E-05 3.43659E-04
 -1      7814 9.35674E+00 3.31018E+01-2.69903E-04-1.02209E+00-2.07460E-06 2.39008E-04
 -1      7815 9.26121E+00 3.56849E+01-1.37272E-03-4.06485E+00-1.99804E-04-8.35143E-04
 -1      7816 7.66330E+00 3.29119E+01-1.22310E-04-1.99319E+00 1.66926E-04-1.45120E-04
 -1      7817 9.36367E+00 3.30943E+01-3.33340E-04-1.05808E+00-5.25528E-13-1.80373E-12
 -1      7818 9.27829E+00 3.56689E+01-2.02249E-03-4.10392E+00-1.23061E-12-7.87754E-13
 -1      7819 7.66330E+00 3.29119E+01-1.22310E-04-1.99319E+00-1.66926E-04 1.45120E-04
 -1      7820 9.35674E+00 3.31018E+01-2.69903E-04-1.02209E+00 2.07460E-06-2.39008E-04
 -1      7821 9.26121E+00 3.56849E+01-1.37272E-03-4.06485E+00 1.99804E-04 8.35143E-04
 -1      7822 7.63479E+00 3.29416E+01 8.65544E-04-1.92376E+00-3.55748E-05-3.43659E-04
 -1      7823 9.33529E+00 3.31241E+01-4.73198E-05-9.13708E-01-3.76431E-04-1.13222E-04
 -1      7824 9.21282E+00 3.57340E+01-3.92101E-04-3.94815E+00 8.39393E-04-2.44944E-04
 -1      7825 7.57695E+00 3.29999E+01-5.18260E-04-1.78508E+00-1.24059E-04-1.02369E-04
 -1      7826 4.32304E+00 3.17822E+01-1.38841E-03-4.55089E+00 1.42164E-04 8.46775E-08
 -1      7827 6.00367E+00 3.23374E+01 4.06861E-05-3.24442E+00 5.20688E-04-1.45712E-04
 -1      7828 6.28414E+00 3.37054E+01-3.19986E-04-6.53932E+00-1.17672E-03 9.87710E-04
 -1      7829 4.43114E+00 3.16744E+01 1.42032E-03-4.65610E+00 2.89963E-06 4.85708E-04
 -1      7830 6.06577E+00 3.22747E+01-3.17635E-04-3.33614E+00-5.30580E-05 3.23872E-04
 -1      7831 6.37432E+00 3.36139E+01-1.32363E-03-6.62817E+00-5.84192E-05-1.13618E-03
 -1      7832 4.48445E+00 3.16195E+01-3.43013E-04-4.70889E+00 2.32736E-04-3.75896E-04
 -1      7833 6.08596E+00 3.22536E+01-3.42303E-04-3.36651E+00 3.66630E-14-7.02180E-13
 -1      7834 6.40623E+00 3.35840E+01-2.00131E-03-6.65809E+00 1.24447E-12-1.26266E-13
 -1      7835 4.48445E+00 3.16195E+01-3.43013E-04-4.70889E+00-2.32736E-04 3.75896E-04
 -1      7836 6.06577E+00 3.22747E+01-3.17635E-04-3.33614E+00 5.30580E-05-3.23872E-04
 -1      7837 6.37432E+00 3.36139E+01-1.32363E-03-6.62817E+00 5.84192E-05 1.13618E-03
 -1      7838 4.43114E+00 3.16744E+01 1.42032E-03-4.65610E+00-2.89963E-06-4.85708E-04
 -1      7839 6.00367E+00 3.23374E+01 4.06861E-05-3.24442E+00-5.20688E-04 1.45712E-04
 -1      7840 6.28414E+00 3.37054E+01-3.19986E-04-6.53932E+00 1.17672E-03-9.87710E-04
 -1      7841 4.32304E+00 3.17822E+01-1.38841E-03-4.55089E+00-1.42164E-04-8.46793E-08
 -1      7842 1.71501E+00 2.93026E+01-2.99308E-03-7.93773E+00 1.29426E-04-2.21423E-04
 -1      7843 3.09963E+00 3.04630E+01-5.74376E-05-6.29206E+00 6.78518E-04-5.94258E-04
 -1      7844 3.80733E+00 3.05288E+01-1.01403E-03-9.59988E+00-1.76513E-03 2.64635E-03
 -1      7845 1.85684E+00 2.91626E+01 2.57836E-03-7.99059E+00-1.03534E-04 9.16045E-04
 -1      7846 3.19336E+00 3.03692E+01-2.51645E-04-6.35172E+00-1.46627E-04 5.56114E-04
 -1      7847 3.92535E+00 3.04086E+01-9.07248E-04-9.64469E+00 1.10097E-04-1.72205E-03
 -1      7848 1.92614E+00 2.90905E+01-6.36908E-04-8.01728E+00 2.85152E-04-7.71828E-04
 -1      7849 3.22347E+00 3.03377E+01-1.38579E-04-6.37136E+00 6.69340E-13-1.52370E-12
 -1      7850 3.96842E+00 3.03694E+01-1.49437E-03-9.66004E+00 1.03385E-12-3.28929E-12
 -1      7851 1.92614E+00 2.90905E+01-6.36908E-04-8.01728E+00-2.85152E-04 7.71828E-04
 -1      7852 3.19336E+00 3.03692E+01-2.51645E-04-6.35172E+00 1.46627E-04-5.56114E-04
 -1      7853 3.92535E+00 3.04086E+01-9.07248E-04-9.64469E+00-1.10097E-04 1.72205E-03
 -1      7854 1.85684E+00 2.91626E+01 2.57836E-03-7.99059E+00 1.03534E-04-9.16045E-04
 -1      7855 3.09963E+00 3.04630E+01-5.74376E-05-6.29206E+00-6.78518E-04 5.94258E-04
 -1      7856 3.80733E+00 3.05288E+01-1.01403E-03-9.59988E+00 1.76513E-03-2.64635E-03
 -1      7857 1.71501E+00 2.93026E+01-2.99308E-03-7.93773E+00-1.29426E-04 2.21423E-04
 -1      7858 1.55740E-01 2.52989E+01-7.12484E-03-1.15657E+01 1.40866E-04-8.93117E-04
 -1      7859 1.02789E+00 2.72122E+01 7.09868E-04-9.76003E+00 9.78417E-04-1.68253E-03
 -1      7860 2.14588E+00 2.59904E+01 4.60226E-04-1.28503E+01-2.34402E-03 5.18843E-03
 -1      7861 3.05878E-01 2.51538E+01 3.93203E-03-1.15537E+01-2.89948E-04 1.90095E-03
 -1      7862 1.13730E+00 2.71029E+01-9.73765E-04-9.77599E+00-2.32150E-04 6.88905E-04
 -1      7863 2.26830E+00 2.58611E+01-2.15069E-03-1.28395E+01 5.99794E-05-3.34437E-03
 -1      7864 3.77896E-01 2.50773E+01-1.40548E-03-1.15481E+01 2.53857E-04-1.38449E-03
 -1      7865 1.17159E+00 2.70662E+01-1.08136E-03-9.78107E+00-3.89035E-13-2.72805E-12
 -1      7866 2.31675E+00 2.58200E+01-3.05654E-03-1.28362E+01-1.40716E-12-2.77347E-12
 -1      7867 3.77896E-01 2.50773E+01-1.40548E-03-1.15481E+01-2.53857E-04 1.38449E-03
 -1      7868 1.13730E+00 2.71029E+01-9.73765E-04-9.77599E+00 2.32150E-04-6.88905E-04
 -1      7869 2.26830E+00 2.58611E+01-2.15069E-03-1.28395E+01-5.99795E-05 3.34437E-03
 -1      7870 3.05878E-01 2.51538E+01 3.93203E-03-1.15537E+01 2.89948E-04-1.90095E-03
 -1      7871 1.02789E+00 2.72122E+01 7.09868E-04-9.76003E+00-9.78417E-04 1.68253E-03
 -1      7872 2.14588E+00 2.59904E+01 4.60226E-04-1.28503E+01 2.34402E-03-5.18843E-03
 -1      7873 1.55740E-01 2.52989E+01-7.12484E-03-1.15657E+01-1.40866E-04 8.93117E-04
 -1      7874 1.57598E-03 1.96721E+01-1.59384E-02-1.48435E+01 2.85026E-04-4.14912E-03
 -1      7875 1.54866E-01 2.24154E+01-1.19586E-03-1.31729E+01 5.87971E-04-3.59500E-03
 -1      7876 1.68495E+00 1.99712E+01-7.77205E-03-1.58282E+01-3.38296E-03 1.22236E-02
 -1      7877 1.23885E-01 1.95614E+01 4.78448E-03-1.47671E+01-6.54831E-04 5.21053E-03
 -1      7878 2.60133E-01 2.23165E+01-2.05559E-04-1.31403E+01-4.89212E-04 1.00239E-03
 -1      7879 1.77465E+00 1.98671E+01-6.14439E-05-1.57579E+01-4.71756E-04-2.74051E-03
 -1      7880 1.75275E-01 1.94981E+01-2.50136E-03-1.47289E+01 1.31468E-04-1.60220E-03
 -1      7881 2.90630E-01 2.22825E+01 1.37670E-04-1.31294E+01-4.55361E-13-2.23752E-12
 -1      7882 1.81952E+00 1.98367E+01 2.44585E-03-1.57343E+01 6.57583E-14-1.59842E-12
 -1      7883 1.75275E-01 1.94981E+01-2.50136E-03-1.47289E+01-1.31468E-04 1.60220E-03
 -1      7884 2.60133E-01 2.23165E+01-2.05559E-04-1.31403E+01 4.89212E-04-1.00239E-03
 -1      7885 1.77465E+00 1.98671E+01-6.14439E-05-1.57579E+01 4.71756E-04 2.74051E-03
 -1      7886 1.23885E-01 1.95614E+01 4.78448E-03-1.47671E+01 6.54831E-04-5.21053E-03
 -1      7887 1.54866E-01 2.24154E+01-1.19586E-03-1.31729E+01-5.87971E-04 3.59500E-03
 -1      7888 1.68495E+00 1.99712E+01-7.77205E-03-1.58282E+01 3.38296E-03-1.22236E-02
 -1      7889 1.57598E-03 1.96721E+01-1.59384E-02-1.48435E+01-2.85026E-04 4.14912E-03
 -1      7890 1.32120E+00 1.27788E+01-5.22321E-02-1.69422E+01 9.53295E-04-2.98906E-02
 -1      7891 6.97243E-01 1.62101E+01 8.85596E-03-1.58469E+01 6.04978E-04-1.47822E-02
 -1      7892 2.69435E+00 1.27741E+01-2.04309E-03-1.77643E+01 1.87566E-04-4.28419E-03
 -1      7893 1.40120E+00 1.27571E+01-2.27150E-02-1.68335E+01-3.05300E-03 3.83788E-04
 -1      7894 7.77137E-01 1.61482E+01-1.13037E-02-1.57771E+01-6.05520E-04-9.54837E-03
 -1      7895 2.69599E+00 1.27165E+01-4.50492E-02-1.76575E+01-2.23011E-03-1.56746E-02
 -1      7896 1.41884E+00 1.27349E+01-2.05266E-02-1.67776E+01-1.44937E-03-2.53484E-03
 -1      7897 7.97828E-01 1.61252E+01-1.94549E-02-1.57538E+01 8.28367E-13-2.78007E-12
 -1      7898 2.72156E+00 1.27081E+01-4.70564E-02-1.76212E+01 2.82608E-12-2.83818E-12
 -1      7899 1.41884E+00 1.27349E+01-2.05266E-02-1.67776E+01 1.44937E-03 2.53484E-03
 -1      7900 7.77137E-01 1.61482E+01-1.13037E-02-1.57771E+01 6.05520E-04 9.54837E-03
 -1      7901 2.69599E+00 1.27165E+01-4.50492E-02-1.76575E+01 2.23011E-03 1.56746E-02
 -1      7902 1.40120E+00 1.27571E+01-2.27150E-02-1.68335E+01 3.05300E-03-3.83788E-04
 -1      7903 6.97243E-01 1.62101E+01 8.85596E-03-1.58469E+01-6.04978E-04 1.47822E-02
 -1      7904 2.69435E+00 1.27741E+01-2.04309E-03-1.77643E+01-1.87566E-04 4.28419E-03
 -1      7905 1.32120E+00 1.27788E+01-5.22321E-02-1.69422E+01-9.53295E-04 2.98906E-02
 -1      7906 3.19133E+00 5.94207E+00-1.94234E-01-1.72801E+01-1.89665E-02-2.42852E-01
 -1      7907 2.36952E+00 9.41610E+00-7.54409E-03-1.70995E+01-1.80982E-02-4.28155E-02
 -1      7908 4.71277E+00 5.78811E+00-1.77889E-01-1.79009E+01-2.32230E-02-1.71451E-01
 -1      7909 3.60136E+00 6.11631E+00-1.87881E-01-1.71857E+01-3.55191E-02-1.14280E-01
 -1      7910 2.49912E+00 9.45590E+00 1.45240E-02-1.70175E+01-1.01429E-02-3.87763E-02
 -1      7911 4.82195E+00 5.89890E+00-6.53463E-02-1.78017E+01-1.91129E-02-2.24958E-02
 -1      7912 3.68193E+00 6.19514E+00-6.49051E-02-1.71252E+01-1.56133E-02-1.58217E-02
 -1      7913 2.53718E+00 9.46224E+00 7.53507E-03-1.69896E+01 1.65183E-12-6.35029E-12
 -1      7914 4.80442E+00 5.92582E+00 5.95357E-03-1.77670E+01 3.89790E-12-1.25313E-11
 -1      7915 3.68193E+00 6.19514E+00-6.49051E-02-1.71252E+01 1.56133E-02 1.58217E-02
 -1      7916 2.49912E+00 9.45590E+00 1.45240E-02-1.70175E+01 1.01429E-02 3.87763E-02
 -1      7917 4.82195E+00 5.89890E+00-6.53463E-02-1.78017E+01 1.91129E-02 2.24958E-02
 -1      7918 3.60136E+00 6.11631E+00-1.87881E-01-1.71857E+01 3.55191E-02 1.14280E-01
 -1      7919 2.36952E+00 9.41610E+00-7.54409E-03-1.70995E+01 1.80982E-02 4.28155E-02
 -1      7920 4.71277E+00 5.78811E+00-1.77889E-01-1.79009E+01 2.32230E-02 1.71451E-01
 -1      7921 3.19133E+00 5.94207E+00-1.94234E-01-1.72801E+01 1.89665E-02 2.42852E-01
 -1      7922 4.46571E+00 3.90305E+00 4.85479E-01-1.72208E+01-3.96762E-02 3.48305E-01
 -1      7923 4.29380E+00 3.95346E+00 7.56995E-01-1.71357E+01-2.46134E-02 2.25458E-01
 -1      7924 4.24997E+00 3.97226E+00 8.48738E-01-1.71093E+01 2.69204E-14-9.33357E-12
 -1      7925 4.29380E+00 3.95346E+00 7.56995E-01-1.71357E+01 2.46134E-02-2.25458E-01
 -1      7926 4.46571E+00 3.90305E+00 4.85479E-01-1.72208E+01 3.96762E-02-3.48305E-01
 -1      7927-6.11401E+00-2.45719E+01-4.65446E-02 2.14754E+01 4.29977E-02-7.12022E-02
 -1      7928-2.31038E+00-3.46652E+01 4.47310E-02 1.12703E+01-1.14948E-01-1.29866E-01
 -1      7929-7.18276E+00-2.77943E+01-9.81484E-02 2.36389E+01 8.26608E-02-1.68083E-01
 -1      7930-6.10874E+00-2.44482E+01-1.44213E-01 2.07283E+01 6.49845E-02-1.15832E-01
 -1      7931-2.29027E+00-3.43239E+01 1.09719E-01 1.08968E+01-7.94285E-02-9.90092E-02
 -1      7932-7.00781E+00-2.77093E+01-1.89026E-01 2.28774E+01 6.25364E-02-1.36771E-01
 -1      7933-6.06649E+00-2.43717E+01-2.01315E-01 2.03409E+01 2.22258E-02-5.17755E-02
 -1      7934-2.27963E+00-3.42050E+01 1.31406E-01 1.07737E+01 7.93199E-13-4.80539E-12
 -1      7935-6.95122E+00-2.76795E+01-2.47332E-01 2.26220E+01-3.35870E-12-1.06713E-11
 -1      7936-6.06649E+00-2.43717E+01-2.01315E-01 2.03409E+01-2.22258E-02 5.17755E-02
 -1      7937-2.29027E+00-3.43239E+01 1.09719E-01 1.08968E+01 7.94285E-02 9.90092E-02
 -1      7938-7.00781E+00-2.77093E+01-1.89026E-01 2.28774E+01-6.25364E-02 1.36771E-01
 -1      7939-6.10874E+00-2.44482E+01-1.44213E-01 2.07283E+01-6.49845E-02 1.15832E-01
 -1      7940-2.31038E+00-3.46652E+01 4.47310E-02 1.12703E+01 1.14948E-01 1.29866E-01
 -1      7941-7.18276E+00-2.77943E+01-9.81484E-02 2.36389E+01-8.26608E-02 1.68083E-01
 -1      7942-6.11401E+00-2.45719E+01-4.65446E-02 2.14754E+01-4.29977E-02 7.12022E-02
 -1      7943-1.46908E+01 2.24349E+00-7.99875E-03 2.18481E+01 4.13048E-03-4.66069E-04
 -1      7944-1.05376E+01-1.08154E+01 7.38760E-03 2.14708E+01 6.62552E-03-3.64845E-02
 -1      7945-1.54295E+01 2.72752E+00 8.85180E-03 2.26287E+01-1.72266E-03-1.31716E-03
 -1      7946-1.43605E+01 1.90020E+00-1.18346E-02 2.14436E+01-1.47393E-03 6.31727E-05
 -1      7947-1.03916E+01-1.09137E+01-2.29246E-02 2.10590E+01-2.31388E-03-3.21326E-02
 -1      7948-1.50862E+01 2.35309E+00-6.89407E-03 2.22943E+01-8.67163E-04-3.66477E-03
 -1      7949-1.41944E+01 1.72766E+00-1.53240E-02 2.12461E+01-9.97066E-04-7.99921E-04
 -1      7950-1.03377E+01-1.09531E+01-3.32248E-02 2.09193E+01-2.94770E-12-2.09876E-12
 -1      7951-1.49623E+01 2.23466E+00-8.82062E-03 2.21856E+01-5.01240E-12 5.54446E-12
 -1      7952-1.41944E+01 1.72766E+00-1.53240E-02 2.12461E+01 9.97066E-04 7.99921E-04
 -1      7953-1.03916E+01-1.09137E+01-2.29246E-02 2.10590E+01 2.31388E-03 3.21326E-02
 -1      7954-1.50862E+01 2.35309E+00-6.89407E-03 2.22943E+01 8.67163E-04 3.66477E-03
 -1      7955-1.43605E+01 1.90020E+00-1.18346E-02 2.14436E+01 1.47393E-03-6.31727E-05
 -1      7956-1.05376E+01-1.08154E+01 7.38760E-03 2.14708E+01-6.62552E-03 3.64845E-02
 -1      7957-1.54295E+01 2.72752E+00 8.85180E-03 2.26287E+01 1.72266E-03 1.31716E-03
 -1      7958-1.46908E+01 2.24349E+00-7.99875E-03 2.18481E+01-4.13048E-03 4.66069E-04
 -1      7959-1.47523E+01 1.83835E+01 1.23604E-02 1.33250E+01 8.15424E-04 1.47309E-03
 -1      7960-1.46126E+01 1.02804E+01-3.43112E-03 1.72825E+01-8.39846E-03 2.12004E-03
 -1      7961-1.37172E+01 1.92826E+01-5.06074E-03 1.32394E+01-2.01960E-03 1.57498E-03
 -1      7962-1.43987E+01 1.80186E+01 1.22000E-02 1.32612E+01-2.08185E-03 1.80365E-03
 -1      7963-1.43533E+01 1.00121E+01-3.55146E-03 1.71151E+01-2.96833E-03-8.42853E-05
 -1      7964-1.34021E+01 1.89592E+01-1.57555E-03 1.32285E+01-2.50400E-03 2.89731E-03
 -1      7965-1.42221E+01 1.78386E+01 1.35110E-02 1.32302E+01-1.16836E-03 1.21191E-03
 -1      7966-1.42645E+01 9.92511E+00-3.68918E-03 1.70595E+01-1.14721E-12 3.20666E-12
 -1      7967-1.32966E+01 1.88506E+01-6.73154E-04 1.32237E+01 4.22436E-14 3.44318E-12
 -1      7968-1.42221E+01 1.78386E+01 1.35110E-02 1.32302E+01 1.16836E-03-1.21191E-03
 -1      7969-1.43533E+01 1.00121E+01-3.55146E-03 1.71151E+01 2.96833E-03 8.42853E-05
 -1      7970-1.34021E+01 1.89592E+01-1.57555E-03 1.32285E+01 2.50400E-03-2.89731E-03
 -1      7971-1.43987E+01 1.80186E+01 1.22000E-02 1.32612E+01 2.08185E-03-1.80365E-03
 -1      7972-1.46126E+01 1.02804E+01-3.43112E-03 1.72825E+01 8.39846E-03-2.12004E-03
 -1      7973-1.37172E+01 1.92826E+01-5.06074E-03 1.32394E+01 2.01960E-03-1.57498E-03
 -1      7974-1.47523E+01 1.83835E+01 1.23604E-02 1.33250E+01-8.15424E-04-1.47309E-03
 -1      7975-9.66092E+00 2.50187E+01 8.87478E-03 5.83063E+00 1.05461E-03 7.01854E-04
 -1      7976-1.19876E+01 2.14690E+01-2.66300E-03 9.49161E+00-1.30706E-03 1.88699E-03
 -1      7977-7.45223E+00 2.58002E+01-2.86339E-03 6.16283E+00-8.97005E-04 1.81571E-03
 -1      7978-9.42575E+00 2.47781E+01 8.33494E-03 5.91670E+00-3.48687E-04 1.25157E-03
 -1      7979-1.17674E+01 2.12476E+01-2.39511E-03 9.50132E+00-1.30256E-03 1.14049E-03
 -1      7980-7.26365E+00 2.56056E+01-2.45037E-03 6.25742E+00-1.00800E-03 1.75212E-03
 -1      7981-9.30729E+00 2.46579E+01 8.87240E-03 5.96030E+00-2.53513E-04 4.56259E-04
 -1      7982-1.16943E+01 2.11726E+01-2.36245E-03 9.50471E+00-1.00074E-12-4.72248E-13
 -1      7983-7.19975E+00 2.55417E+01-1.31652E-03 6.28890E+00-8.22914E-13 5.13662E-13
 -1      7984-9.30729E+00 2.46579E+01 8.87240E-03 5.96030E+00 2.53513E-04-4.56259E-04
 -1      7985-1.17674E+01 2.12476E+01-2.39511E-03 9.50132E+00 1.30256E-03-1.14049E-03
 -1      7986-7.26365E+00 2.56056E+01-2.45037E-03 6.25742E+00 1.00800E-03-1.75212E-03
 -1      7987-9.42575E+00 2.47781E+01 8.33494E-03 5.91670E+00 3.48687E-04-1.25157E-03
 -1      7988-1.19876E+01 2.14690E+01-2.66300E-03 9.49161E+00 1.30706E-03-1.88699E-03
 -1      7989-7.45223E+00 2.58002E+01-2.86339E-03 6.16283E+00 8.97005E-04-1.81571E-03
 -1      7990-9.66092E+00 2.50187E+01 8.87478E-03 5.83063E+00-1.05461E-03-7.01854E-04
 -1      7991-3.76153E+00 2.72351E+01 4.19297E-03 1.18374E+00 6.38597E-05 4.05002E-04
 -1      7992-6.56189E+00 2.59555E+01-1.67715E-03 3.56408E+00-8.18425E-04 8.52399E-04
 -1      7993-1.30830E+00 2.82967E+01-3.83364E-03 2.22910E+00-1.88674E-05 1.89552E-04
 -1      7994-3.62512E+00 2.70962E+01 3.63160E-03 1.30932E+00-2.16734E-04 3.19277E-04
 -1      7995-6.42233E+00 2.58137E+01-8.89699E-04 3.64289E+00-3.80027E-04 6.12404E-04
 -1      7996-1.20481E+00 2.81928E+01-3.02111E-03 2.34031E+00-1.97796E-04 6.14838E-04
 -1      7997-3.55589E+00 2.70272E+01 3.93154E-03 1.37207E+00-6.33270E-05 1.52573E-04
 -1      7998-6.37555E+00 2.57669E+01-4.50022E-04 3.66922E+00-1.37519E-12 1.43024E-12
 -1      7999-1.17000E+00 2.81578E+01-2.74143E-03 2.37716E+00-2.15212E-13 3.83739E-13
 -1      8000-3.55589E+00 2.70272E+01 3.93154E-03 1.37207E+00 6.33270E-05-1.52573E-04
 -1      8001-6.42233E+00 2.58137E+01-8.89699E-04 3.64289E+00 3.80027E-04-6.12404E-04
 -1      8002-1.20481E+00 2.81928E+01-3.02111E-03 2.34031E+00 1.97796E-04-6.14838E-04
 -1      8003-3.62512E+00 2.70962E+01 3.63160E-03 1.30932E+00 2.16734E-04-3.19277E-04
 -1      8004-6.56189E+00 2.59555E+01-1.67715E-03 3.56408E+00 8.18425E-04-8.52399E-04
 -1      8005-1.30830E+00 2.82967E+01-3.83364E-03 2.22910E+00 1.88674E-05-1.89552E-04
 -1      8006-3.76153E+00 2.72351E+01 4.19297E-03 1.18374E+00-6.38597E-05-4.05002E-04
 -1      8007 1.44533E+00 2.77155E+01 9.28005E-04-1.57669E+00-1.44226E-04 1.62485E-04
 -1      8008-1.08570E+00 2.73889E+01 1.25282E-04-1.01517E-01-1.90419E-05 1.07590E-04
 -1      8009 3.63616E+00 2.94009E+01-1.20225E-03-3.11776E-02-1.79573E-04-1.13685E-04
 -1      8010 1.51946E+00 2.76406E+01 8.31677E-04-1.44601E+00-9.56911E-05 1.00838E-04
 -1      8011-1.00578E+00 2.73085E+01 1.88702E-04-6.07914E-03-7.37122E-05 1.12566E-04
 -1      8012 3.69115E+00 2.93450E+01-1.36971E-03 7.72737E-02-1.02742E-04 2.01471E-04
 -1      8013 1.55724E+00 2.76030E+01 1.01107E-03-1.38060E+00-3.23828E-05 2.44039E-05
 -1      8014-9.79078E-01 2.72816E+01 2.67207E-04 2.57766E-02 3.29831E-15 7.86343E-13
 -1      8015 3.70984E+00 2.93264E+01-1.23551E-03 1.13316E-01-7.65331E-13-1.22458E-12
 -1      8016 1.55724E+00 2.76030E+01 1.01107E-03-1.38060E+00 3.23828E-05-2.44039E-05
 -1      8017-1.00578E+00 2.73085E+01 1.88702E-04-6.07914E-03 7.37122E-05-1.12566E-04
 -1      8018 3.69115E+00 2.93450E+01-1.36971E-03 7.72737E-02 1.02742E-04-2.01471E-04
 -1      8019 1.51946E+00 2.76406E+01 8.31677E-04-1.44601E+00 9.56911E-05-1.00838E-04
 -1      8020-1.08570E+00 2.73889E+01 1.25282E-04-1.01517E-01 1.90419E-05-1.07590E-04
 -1      8021 3.63616E+00 2.94009E+01-1.20225E-03-3.11776E-02 1.79573E-04 1.13685E-04
 -1      8022 1.44533E+00 2.77155E+01 9.28005E-04-1.57669E+00 1.44226E-04-1.62485E-04
 -1      8023 5.96051E+00 2.73340E+01 3.86522E-04-3.25724E+00-1.51110E-04 2.08394E-04
 -1      8024 3.73024E+00 2.74896E+01 1.15306E-04-2.32382E+00-5.04036E-05 1.16482E-05
 -1      8025 7.70284E+00 2.97681E+01-4.57648E-04-1.50501E+00-1.39762E-04-9.34193E-05
 -1      8026 5.98900E+00 2.73050E+01 4.04983E-04-3.12750E+00-7.13850E-05 9.89161E-05
 -1      8027 3.76933E+00 2.74501E+01 1.30287E-04-2.22631E+00-5.69705E-05 4.27315E-05
 -1      8028 7.72360E+00 2.97468E+01-5.91772E-04-1.39895E+00-4.41188E-05 1.08824E-04
 -1      8029 6.00365E+00 2.72903E+01 4.79908E-04-3.06257E+00-3.60747E-05 3.27253E-05
 -1      8030 3.78248E+00 2.74370E+01 1.83339E-04-2.19380E+00 2.44606E-13 7.83302E-13
 -1      8031 7.73072E+00 2.97396E+01-5.90338E-04-1.36367E+00 1.04714E-12-5.58540E-13
 -1      8032 6.00365E+00 2.72903E+01 4.79908E-04-3.06257E+00 3.60747E-05-3.27253E-05
 -1      8033 3.76933E+00 2.74501E+01 1.30287E-04-2.22631E+00 5.69705E-05-4.27315E-05
 -1      8034 7.72360E+00 2.97468E+01-5.91772E-04-1.39895E+00 4.41188E-05-1.08824E-04
 -1      8035 5.98900E+00 2.73050E+01 4.04983E-04-3.12750E+00 7.13850E-05-9.89161E-05
 -1      8036 3.73024E+00 2.74896E+01 1.15306E-04-2.32382E+00 5.04036E-05-1.16482E-05
 -1      8037 7.70284E+00 2.97681E+01-4.57648E-04-1.50501E+00 1.39762E-04 9.34193E-05
 -1      8038 5.96051E+00 2.73340E+01 3.86522E-04-3.25724E+00 1.51110E-04-2.08394E-04
 -1      8039 9.98861E+00 2.63849E+01 2.16291E-04-4.11197E+00-1.06912E-04 1.72306E-04
 -1      8040 7.97287E+00 2.68565E+01 1.14804E-04-3.59997E+00-8.60407E-05 7.18877E-05
 -1      8041 1.12640E+01 2.95571E+01-6.13351E-05-2.40728E+00-1.46097E-04 5.11680E-05
 -1      8042 9.97568E+00 2.63975E+01 3.19419E-04-3.98780E+00-6.50225E-05 1.26583E-04
 -1      8043 7.97901E+00 2.68500E+01 1.20538E-04-3.50471E+00-7.32811E-05 8.13407E-05
 -1      8044 1.12523E+01 2.95681E+01-2.16754E-04-2.30537E+00-4.07470E-05 1.17321E-04
 -1      8045 9.96937E+00 2.64036E+01 3.63661E-04-3.92561E+00-4.34581E-05 5.20321E-05
 -1      8046 7.98112E+00 2.68478E+01 1.47023E-04-3.47293E+00 3.77972E-14-6.21281E-13
 -1      8047 1.12485E+01 2.95718E+01-2.23789E-04-2.27143E+00 4.85566E-13-2.34153E-12
 -1      8048 9.96937E+00 2.64036E+01 3.63661E-04-3.92561E+00 4.34581E-05-5.20321E-05
 -1      8049 7.97901E+00 2.68500E+01 1.20538E-04-3.50471E+00 7.32811E-05-8.13407E-05
 -1      8050 1.12523E+01 2.95681E+01-2.16754E-04-2.30537E+00 4.07470E-05-1.17321E-04
 -1      8051 9.97568E+00 2.63975E+01 3.19419E-04-3.98780E+00 6.50225E-05-1.26583E-04
 -1      8052 7.97287E+00 2.68565E+01 1.14804E-04-3.59997E+00 8.60407E-05-7.18877E-05
 -1      8053 1.12640E+01 2.95571E+01-6.13351E-05-2.40728E+00 1.46097E-04-5.11680E-05
 -1      8054 9.98861E+00 2.63849E+01 2.16291E-04-4.11197E+00 1.06912E-04-1.72306E-04
 -1      8055 1.35291E+01 2.51207E+01 2.31733E-04-4.13721E+00-7.11817E-05 1.60560E-04
 -1      8056 1.17334E+01 2.57757E+01 7.51648E-05-4.05043E+00-9.36611E-05 1.37463E-04
 -1      8057 1.43923E+01 2.89378E+01 8.63810E-05-2.68059E+00-1.16685E-04 1.29134E-04
 -1      8058 1.34762E+01 2.51733E+01 3.46563E-04-4.02782E+00-6.16283E-05 1.55866E-04
 -1      8059 1.17088E+01 2.57999E+01 1.18578E-04-3.96273E+00-7.18305E-05 1.24884E-04
 -1      8060 1.43481E+01 2.89814E+01-3.46825E-05-2.59017E+00-3.37315E-05 1.18039E-04
 -1      8061 1.34498E+01 2.51994E+01 3.83943E-04-3.97304E+00-3.99124E-05 7.07494E-05
 -1      8062 1.17006E+01 2.58080E+01 1.49570E-04-3.93348E+00 8.41274E-15-1.22490E-12
 -1      8063 1.43334E+01 2.89959E+01-6.99087E-05-2.56004E+00 1.03494E-12-1.16360E-13
 -1      8064 1.34498E+01 2.51994E+01 3.83943E-04-3.97304E+00 3.99124E-05-7.07494E-05
 -1      8065 1.17088E+01 2.57999E+01 1.18578E-04-3.96273E+00 7.18305E-05-1.24884E-04
 -1      8066 1.43481E+01 2.89814E+01-3.46825E-05-2.59017E+00 3.37315E-05-1.18039E-04
 -1      8067 1.34762E+01 2.51733E+01 3.46563E-04-4.02782E+00 6.16283E-05-1.55866E-04
 -1      8068 1.17334E+01 2.57757E+01 7.51648E-05-4.05043E+00 9.36611E-05-1.37463E-04
 -1      8069 1.43923E+01 2.89378E+01 8.63810E-05-2.68059E+00 1.16685E-04-1.29134E-04
 -1      8070 1.35291E+01 2.51207E+01 2.31733E-04-4.13721E+00 7.11817E-05-1.60560E-04
 -1      8071 1.63680E+01 2.38611E+01 2.64034E-04-3.33718E+00-4.29053E-05 1.48566E-04
 -1      8072 1.49018E+01 2.45361E+01 4.65942E-05-3.67783E+00-8.26649E-05 1.96148E-04
 -1      8073 1.69119E+01 2.81767E+01 1.47154E-04-2.28002E+00-8.55086E-05 1.85803E-04
 -1      8074 1.62802E+01 2.39485E+01 3.91485E-04-3.25477E+00-4.75130E-05 1.82950E-04
 -1      8075 1.48490E+01 2.45885E+01 1.08838E-04-3.60581E+00-6.10500E-05 1.60680E-04
 -1      8076 1.68387E+01 2.82492E+01 4.14937E-05-2.21150E+00-2.29123E-05 1.24356E-04
 -1      8077 1.62363E+01 2.39921E+01 4.30691E-04-3.21351E+00-2.85003E-05 8.45982E-05
 -1      8078 1.48314E+01 2.46060E+01 1.40760E-04-3.58178E+00 5.80259E-13-1.58167E-12
 -1      8079 1.68144E+01 2.82733E+01-6.17962E-06-2.18866E+00 1.27219E-12 3.46133E-13
 -1      8080 1.62363E+01 2.39921E+01 4.30691E-04-3.21351E+00 2.85003E-05-8.45982E-05
 -1      8081 1.48490E+01 2.45885E+01 1.08838E-04-3.60581E+00 6.10500E-05-1.60680E-04
 -1      8082 1.68387E+01 2.82492E+01 4.14937E-05-2.21150E+00 2.29123E-05-1.24356E-04
 -1      8083 1.62802E+01 2.39485E+01 3.91485E-04-3.25477E+00 4.75130E-05-1.82950E-04
 -1      8084 1.49018E+01 2.45361E+01 4.65942E-05-3.67783E+00 8.26649E-05-1.96148E-04
 -1      8085 1.69119E+01 2.81767E+01 1.47154E-04-2.28002E+00 8.55086E-05-1.85803E-04
 -1      8086 1.63680E+01 2.38611E+01 2.64034E-04-3.33718E+00 4.29053E-05-1.48566E-04
 -1      8087 1.82033E+01 2.29392E+01 2.85566E-04-1.85432E+00-2.12709E-05 1.42919E-04
 -1      8088 1.72221E+01 2.34628E+01 3.29482E-05-2.55720E+00-5.31901E-05 2.34135E-04
 -1      8089 1.85460E+01 2.75684E+01 1.74668E-04-1.29910E+00-5.58001E-05 2.17114E-04
 -1      8090 1.80915E+01 2.30506E+01 4.24385E-04-1.81018E+00-2.82962E-05 2.02408E-04
 -1      8091 1.71471E+01 2.35373E+01 1.08608E-04-2.50968E+00-4.20203E-05 1.84974E-04
 -1      8092 1.84526E+01 2.76611E+01 8.13456E-05-1.26220E+00-7.36179E-06 1.28419E-04
 -1      8093 1.80355E+01 2.31063E+01 4.63679E-04-1.78807E+00-1.33299E-05 9.25531E-05
 -1      8094 1.71221E+01 2.35621E+01 1.42655E-04-2.49382E+00 1.63020E-12-7.99127E-13
 -1      8095 1.84215E+01 2.76921E+01 2.29901E-05-1.24990E+00 7.04821E-13-1.52441E-13
 -1      8096 1.80355E+01 2.31063E+01 4.63679E-04-1.78807E+00 1.33299E-05-9.25531E-05
 -1      8097 1.71471E+01 2.35373E+01 1.08608E-04-2.50968E+00 4.20203E-05-1.84974E-04
 -1      8098 1.84526E+01 2.76611E+01 8.13456E-05-1.26220E+00 7.36180E-06-1.28419E-04
 -1      8099 1.80915E+01 2.30506E+01 4.24385E-04-1.81018E+00 2.82962E-05-2.02408E-04
 -1      8100 1.72221E+01 2.34628E+01 3.29482E-05-2.55720E+00 5.31901E-05-2.34135E-04
 -1      8101 1.85460E+01 2.75684E+01 1.74668E-04-1.29910E+00 5.58001E-05-2.17114E-04
 -1      8102 1.82033E+01 2.29392E+01 2.85566E-04-1.85432E+00 2.12709E-05-1.42919E-04
 -1      8103 1.87782E+01 2.26117E+01 2.89268E-04 1.17995E-02-1.67111E-06 1.38267E-04
 -1      8104 1.84179E+01 2.28477E+01 2.62317E-05-9.08615E-01-1.46241E-05 2.55562E-04
 -1      8105 1.90523E+01 2.73462E+01 1.87472E-04 1.58998E-02-3.17360E-05 2.35835E-04
 -1      8106 1.86577E+01 2.27317E+01 4.50537E-04 1.07636E-02-5.18786E-06 2.13608E-04
 -1      8107 1.83306E+01 2.29345E+01 1.07492E-04-8.92425E-01-1.88554E-05 1.99589E-04
 -1      8108 1.89515E+01 2.74463E+01 1.02228E-04 1.51587E-02 1.42653E-05 1.28633E-04
 -1      8109 1.85974E+01 2.27917E+01 4.81193E-04 1.02542E-02 4.56153E-06 9.42773E-05
 -1      8110 1.83015E+01 2.29634E+01 1.43246E-04-8.87013E-01 8.40125E-13-7.87529E-13
 -1      8111 1.89179E+01 2.74797E+01 3.78006E-05 1.49013E-02 1.11978E-12-9.84061E-13
 -1      8112 1.85974E+01 2.27917E+01 4.81193E-04 1.02542E-02-4.56152E-06-9.42773E-05
 -1      8113 1.83306E+01 2.29345E+01 1.07492E-04-8.92425E-01 1.88554E-05-1.99589E-04
 -1      8114 1.89515E+01 2.74463E+01 1.02228E-04 1.51587E-02-1.42653E-05-1.28633E-04
 -1      8115 1.86577E+01 2.27317E+01 4.50537E-04 1.07636E-02 5.18787E-06-2.13608E-04
 -1      8116 1.84179E+01 2.28477E+01 2.62317E-05-9.08615E-01 1.46241E-05-2.55562E-04
 -1      8117 1.90523E+01 2.73462E+01 1.87472E-04 1.58998E-02 3.17360E-05-2.35835E-04
 -1      8118 1.87782E+01 2.26117E+01 2.89268E-04 1.17995E-02 1.67111E-06-1.38267E-04
 -1      8119 1.79757E+01 2.29880E+01 2.70374E-04 1.85246E+00 1.64905E-05 1.32091E-04
 -1      8120 1.83047E+01 2.28717E+01 2.35058E-05 9.16721E-01 3.05406E-05 2.59922E-04
 -1      8121 1.83145E+01 2.76133E+01 1.90078E-04 1.31353E+00-1.89545E-05 2.48711E-04
 -1      8122 1.78643E+01 2.30991E+01 4.73746E-04 1.80578E+00 1.73194E-05 2.17459E-04
 -1      8123 1.82175E+01 2.29584E+01 1.06099E-04 8.98808E-01 4.92939E-06 2.05650E-04
 -1      8124 1.82210E+01 2.77060E+01 1.13929E-04 1.27463E+00 4.23310E-05 1.21115E-04
 -1      8125 1.78084E+01 2.31546E+01 4.80963E-04 1.78242E+00 2.45111E-05 8.89415E-05
 -1      8126 1.81885E+01 2.29873E+01 1.43829E-04 8.92850E-01 1.15517E-12-1.00583E-12
 -1      8127 1.81900E+01 2.77370E+01 4.54332E-05 1.26164E+00 1.11334E-12-1.38170E-13
 -1      8128 1.78084E+01 2.31546E+01 4.80963E-04 1.78242E+00-2.45111E-05-8.89415E-05
 -1      8129 1.82175E+01 2.29584E+01 1.06099E-04 8.98808E-01-4.92939E-06-2.05650E-04
 -1      8130 1.82210E+01 2.77060E+01 1.13929E-04 1.27463E+00-4.23310E-05-1.21115E-04
 -1      8131 1.78643E+01 2.30991E+01 4.73746E-04 1.80578E+00-1.73194E-05-2.17459E-04
 -1      8132 1.83047E+01 2.28717E+01 2.35058E-05 9.16721E-01-3.05406E-05-2.59922E-04
 -1      8133 1.83145E+01 2.76133E+01 1.90078E-04 1.31353E+00 1.89545E-05-2.48711E-04
 -1      8134 1.79757E+01 2.29880E+01 2.70374E-04 1.85246E+00-1.64905E-05-1.32091E-04
 -1      8135 1.58648E+01 2.39965E+01 2.20227E-04 3.22868E+00 3.36579E-05 1.22146E-04
 -1      8136 1.68590E+01 2.35532E+01 2.37551E-05 2.49895E+00 8.01936E-05 2.46807E-04
 -1      8137 1.63853E+01 2.83125E+01 1.85103E-04 2.21132E+00-2.54629E-05 2.67280E-04
 -1      8138 1.57793E+01 2.40817E+01 5.04079E-04 3.14287E+00 3.58946E-05 2.16949E-04
 -1      8139 1.67850E+01 2.36268E+01 1.02553E-04 2.44921E+00 2.54492E-05 2.05405E-04
 -1      8140 1.63134E+01 2.83836E+01 1.20067E-04 2.13966E+00 7.90224E-05 1.00384E-04
 -1      8141 1.57364E+01 2.41242E+01 4.62543E-04 3.09994E+00 4.70996E-05 7.42040E-05
 -1      8142 1.67603E+01 2.36513E+01 1.43072E-04 2.43265E+00 1.18014E-12-6.61251E-13
 -1      8143 1.62896E+01 2.84074E+01 4.79919E-05 2.11574E+00 1.62448E-12-8.33660E-13
 -1      8144 1.57364E+01 2.41242E+01 4.62543E-04 3.09994E+00-4.70996E-05-7.42040E-05
 -1      8145 1.67850E+01 2.36268E+01 1.02553E-04 2.44921E+00-2.54492E-05-2.05405E-04
 -1      8146 1.63134E+01 2.83836E+01 1.20067E-04 2.13966E+00-7.90224E-05-1.00384E-04
 -1      8147 1.57793E+01 2.40817E+01 5.04079E-04 3.14287E+00-3.58946E-05-2.16949E-04
 -1      8148 1.68590E+01 2.35532E+01 2.37551E-05 2.49895E+00-8.01936E-05-2.46807E-04
 -1      8149 1.63853E+01 2.83125E+01 1.85103E-04 2.21132E+00 2.54629E-05-2.67280E-04
 -1      8150 1.58648E+01 2.39965E+01 2.20227E-04 3.22868E+00-3.36579E-05-1.22146E-04
 -1      8151 1.27007E+01 2.53897E+01 1.21373E-04 3.75479E+00 4.94861E-05 1.06508E-04
 -1      8152 1.42419E+01 2.47337E+01 2.54197E-05 3.42981E+00 1.34667E-04 2.13294E-04
 -1      8153 1.34858E+01 2.92309E+01 1.67394E-04 2.37214E+00-6.35393E-05 3.12807E-04
 -1      8154 1.26544E+01 2.54358E+01 5.58608E-04 3.64256E+00 4.67100E-05 2.17969E-04
 -1      8155 1.41923E+01 2.47829E+01 9.65862E-05 3.35546E+00 3.86007E-05 2.03298E-04
 -1      8156 1.34466E+01 2.92693E+01 1.25754E-04 2.27833E+00 1.28654E-04 5.69482E-05
 -1      8157 1.26310E+01 2.54587E+01 4.23677E-04 3.58640E+00 7.32761E-05 4.51747E-05
 -1      8158 1.41757E+01 2.47993E+01 1.42091E-04 3.33070E+00 1.18210E-12-1.16782E-12
 -1      8159 1.34337E+01 2.92822E+01 4.86869E-05 2.24697E+00 1.16406E-12-2.12928E-12
 -1      8160 1.26310E+01 2.54587E+01 4.23677E-04 3.58640E+00-7.32761E-05-4.51747E-05
 -1      8161 1.41923E+01 2.47829E+01 9.65862E-05 3.35546E+00-3.86007E-05-2.03298E-04
 -1      8162 1.34466E+01 2.92693E+01 1.25754E-04 2.27833E+00-1.28654E-04-5.69483E-05
 -1      8163 1.26544E+01 2.54358E+01 5.58608E-04 3.64256E+00-4.67100E-05-2.17969E-04
 -1      8164 1.42419E+01 2.47337E+01 2.54197E-05 3.42981E+00-1.34667E-04-2.13294E-04
 -1      8165 1.34858E+01 2.92309E+01 1.67394E-04 2.37214E+00 6.35393E-05-3.12807E-04
 -1      8166 1.27007E+01 2.53897E+01 1.21373E-04 3.75479E+00-4.94861E-05-1.06508E-04
 -1      8167 8.88916E+00 2.67827E+01-6.29736E-05 3.16894E+00 6.41917E-05 8.18310E-05
 -1      8168 1.07810E+01 2.61001E+01 3.38398E-05 3.38887E+00 1.97575E-04 1.50816E-04
 -1      8169 9.97272E+00 3.00349E+01 1.44411E-04 1.56722E+00-1.47429E-04 4.23411E-04
 -1      8170 8.88944E+00 2.67823E+01 6.65297E-04 3.04727E+00 4.77877E-05 2.30403E-04
 -1      8171 1.07635E+01 2.61171E+01 8.39700E-05 3.30102E+00 4.02933E-05 2.06482E-04
 -1      8172 9.97240E+00 3.00344E+01 1.24295E-04 1.46543E+00 1.98749E-04-3.10584E-05
 -1      8173 8.88935E+00 2.67819E+01 3.56958E-04 2.98635E+00 1.04977E-04-8.27264E-06
 -1      8174 1.07576E+01 2.61227E+01 1.38313E-04 3.27180E+00 4.74193E-13-1.76164E-12
 -1      8175 9.97265E+00 3.00344E+01 3.58398E-05 1.43134E+00 8.22721E-14-2.36304E-12
 -1      8176 8.88935E+00 2.67819E+01 3.56958E-04 2.98635E+00-1.04977E-04 8.27263E-06
 -1      8177 1.07635E+01 2.61171E+01 8.39700E-05 3.30102E+00-4.02933E-05-2.06482E-04
 -1      8178 9.97240E+00 3.00344E+01 1.24295E-04 1.46543E+00-1.98749E-04 3.10583E-05
 -1      8179 8.88944E+00 2.67823E+01 6.65297E-04 3.04727E+00-4.77877E-05-2.30403E-04
 -1      8180 1.07810E+01 2.61001E+01 3.38398E-05 3.38887E+00-1.97575E-04-1.50816E-04
 -1      8181 9.97272E+00 3.00349E+01 1.44411E-04 1.56722E+00 1.47429E-04-4.23411E-04
 -1      8182 8.88916E+00 2.67827E+01-6.29736E-05 3.16894E+00-6.41917E-05-8.18310E-05
 -1      8183 4.92919E+00 2.77117E+01-3.94984E-04 1.38036E+00 7.67424E-05 4.09048E-05
 -1      8184 6.92470E+00 2.72318E+01 3.79177E-05 2.20190E+00 2.71077E-04 4.40149E-05
 -1      8185 6.28694E+00 3.03222E+01 5.52421E-05-2.82954E-01-3.03699E-04 6.88419E-04
 -1      8186 4.97661E+00 2.76645E+01 8.83358E-04 1.26806E+00 3.39201E-05 2.76496E-04
 -1      8187 6.94247E+00 2.72137E+01 7.39086E-05 2.11397E+00 2.58250E-05 2.30826E-04
 -1      8188 6.32584E+00 3.02824E+01 1.43004E-04-3.77034E-01 2.96884E-04-1.93747E-04
 -1      8189 4.99994E+00 2.76405E+01 2.56873E-04 1.21179E+00 1.41732E-04-1.03027E-04
 -1      8190 6.94817E+00 2.72076E+01 1.48280E-04 2.08475E+00-1.00821E-13-1.67925E-12
 -1      8191 6.33954E+00 3.02693E+01 4.24820E-05-4.08636E-01-4.68568E-13-1.05259E-12
 -1      8192 4.99994E+00 2.76405E+01 2.56873E-04 1.21179E+00-1.41732E-04 1.03027E-04
 -1      8193 6.94247E+00 2.72137E+01 7.39086E-05 2.11397E+00-2.58250E-05-2.30826E-04
 -1      8194 6.32584E+00 3.02824E+01 1.43004E-04-3.77034E-01-2.96884E-04 1.93747E-04
 -1      8195 4.97661E+00 2.76645E+01 8.83358E-04 1.26806E+00-3.39201E-05-2.76496E-04
 -1      8196 6.92470E+00 2.72318E+01 3.79177E-05 2.20190E+00-2.71077E-04-4.40149E-05
 -1      8197 6.28694E+00 3.03222E+01 5.52421E-05-2.82954E-01 3.03699E-04-6.88419E-04
 -1      8198 4.92919E+00 2.77117E+01-3.94984E-04 1.38036E+00-7.67424E-05-4.09048E-05
 -1      8199 1.34933E+00 2.77009E+01-1.03839E-03-1.50795E+00 8.90824E-05-3.47293E-05
 -1      8200 3.18231E+00 2.76638E+01 9.57643E-05-1.24407E-01 3.74696E-04-1.51617E-04
 -1      8201 2.89923E+00 2.96792E+01 3.89307E-05-3.09051E+00-5.24271E-04 1.22134E-03
 -1      8202 1.43700E+00 2.76140E+01 1.27522E-03-1.59287E+00 1.17468E-05 3.88329E-04
 -1      8203 3.23286E+00 2.76130E+01 2.17153E-05-1.98615E-01-3.50274E-06 2.89609E-04
 -1      8204 2.97143E+00 2.96055E+01 6.65066E-05-3.16182E+00 4.29605E-04-5.37087E-04
 -1      8205 1.48023E+00 2.75697E+01 8.16701E-05-1.63551E+00 1.84202E-04-2.73704E-04
 -1      8206 3.24926E+00 2.75960E+01 1.17572E-04-2.23231E-01-1.44244E-13-1.19227E-12
 -1      8207 2.99702E+00 2.95813E+01-8.90345E-05-3.18591E+00 3.05134E-13-1.15053E-12
 -1      8208 1.48023E+00 2.75697E+01 8.16701E-05-1.63551E+00-1.84202E-04 2.73704E-04
 -1      8209 3.23286E+00 2.76130E+01 2.17153E-05-1.98615E-01 3.50274E-06-2.89609E-04
 -1      8210 2.97143E+00 2.96055E+01 6.65066E-05-3.16182E+00-4.29605E-04 5.37087E-04
 -1      8211 1.43700E+00 2.76140E+01 1.27522E-03-1.59287E+00-1.17468E-05-3.88329E-04
 -1      8212 3.18231E+00 2.76638E+01 9.57643E-05-1.24407E-01-3.74696E-04 1.51617E-04
 -1      8213 2.89923E+00 2.96792E+01 3.89307E-05-3.09051E+00 5.24271E-04-1.22134E-03
 -1      8214 1.34933E+00 2.77009E+01-1.03839E-03-1.50795E+00-8.90824E-05 3.47293E-05
 -1      8215-1.35017E+00 2.63280E+01-2.21167E-03-5.19342E+00 9.84356E-05-2.12539E-04
 -1      8216 6.29007E-02 2.69523E+01 3.82637E-05-3.38836E+00 4.66701E-04-4.76256E-04
 -1      8217 2.64726E-01 2.77339E+01-5.67226E-04-6.59639E+00-8.94509E-04 2.45333E-03
 -1      8218-1.23630E+00 2.62160E+01 2.03875E-03-5.23633E+00-3.69868E-05 6.98774E-04
 -1      8219 1.38489E-01 2.68770E+01 6.25670E-05-3.43662E+00-5.75229E-05 4.50732E-04
 -1      8220 3.58226E-01 2.76382E+01 2.41699E-04-6.63239E+00 5.62868E-04-1.02081E-03
 -1      8221-1.18059E+00 2.61584E+01-1.20556E-04-5.25800E+00 2.18158E-04-5.42102E-04
 -1      8222 1.62789E-01 2.68517E+01 2.46104E-04-3.45257E+00 2.39737E-13-1.60663E-12
 -1      8223 3.92396E-01 2.76069E+01 1.99797E-04-6.64473E+00 3.81463E-13-2.27457E-12
 -1      8224-1.18059E+00 2.61584E+01-1.20556E-04-5.25800E+00-2.18158E-04 5.42102E-04
 -1      8225 1.38489E-01 2.68770E+01 6.25670E-05-3.43662E+00 5.75229E-05-4.50732E-04
 -1      8226 3.58226E-01 2.76382E+01 2.41699E-04-6.63239E+00-5.62868E-04 1.02081E-03
 -1      8227-1.23630E+00 2.62160E+01 2.03875E-03-5.23633E+00 3.69868E-05-6.98774E-04
 -1      8228 6.29007E-02 2.69523E+01 3.82637E-05-3.38836E+00-4.66701E-04 4.76256E-04
 -1      8229 2.64726E-01 2.77339E+01-5.67226E-04-6.59639E+00 8.94509E-04-2.45333E-03
 -1      8230-1.35017E+00 2.63280E+01-2.21167E-03-5.19342E+00-9.84356E-05 2.12539E-04
 -1      8231-2.75231E+00 2.32963E+01-4.90600E-03-9.16953E+00 1.28068E-04-6.79923E-04
 -1      8232-1.98061E+00 2.47441E+01 6.25248E-04-7.18934E+00 6.95313E-04-1.19533E-03
 -1      8233-1.21006E+00 2.42141E+01 2.41021E-04-1.03610E+01-1.06920E-03 4.49393E-03
 -1      8234-2.63326E+00 2.31812E+01 3.05089E-03-9.16245E+00-1.22580E-04 1.51883E-03
 -1      8235-1.89329E+00 2.46572E+01-3.06734E-04-7.20325E+00-6.97427E-05 5.58218E-04
 -1      8236-1.11515E+00 2.41128E+01-8.62889E-04-1.03542E+01 5.63727E-04-2.08534E-03
 -1      8237-2.57601E+00 2.31208E+01-3.48053E-04-9.15918E+00 2.07525E-04-8.74934E-04
 -1      8238-1.86581E+00 2.46279E+01-2.81769E-04-7.20777E+00 5.25620E-14-2.09078E-12
 -1      8239-1.07757E+00 2.40805E+01-1.13197E-03-1.03521E+01-6.69595E-13-2.30138E-12
 -1      8240-2.57601E+00 2.31208E+01-3.48053E-04-9.15918E+00-2.07525E-04 8.74934E-04
 -1      8241-1.89329E+00 2.46572E+01-3.06734E-04-7.20325E+00 6.97427E-05-5.58218E-04
 -1      8242-1.11515E+00 2.41128E+01-8.62889E-04-1.03542E+01-5.63727E-04 2.08534E-03
 -1      8243-2.63326E+00 2.31812E+01 3.05089E-03-9.16245E+00 1.22580E-04-1.51883E-03
 -1      8244-1.98061E+00 2.47441E+01 6.25248E-04-7.18934E+00-6.95313E-04 1.19533E-03
 -1      8245-1.21006E+00 2.42141E+01 2.41021E-04-1.03610E+01 1.06920E-03-4.49393E-03
 -1      8246-2.75231E+00 2.32963E+01-4.90600E-03-9.16953E+00-1.28068E-04 6.79923E-04
 -1      8247-2.60810E+00 1.85530E+01-1.09705E-02-1.27246E+01 3.96703E-04-2.71320E-03
 -1      8248-2.62222E+00 2.08688E+01-7.10944E-04-1.09290E+01 3.20367E-04-2.23714E-03
 -1      8249-1.22777E+00 1.90491E+01-5.05148E-03-1.37416E+01-1.87842E-03 9.67676E-03
 -1      8250-2.51082E+00 1.84639E+01 3.49434E-03-1.26725E+01-1.72869E-04 4.43460E-03
 -1      8251-2.53899E+00 2.07900E+01 1.76823E-04-1.09071E+01-2.12679E-04 8.28063E-04
 -1      8252-1.16034E+00 1.89679E+01 1.13760E-03-1.36936E+01 5.32281E-05-7.93667E-04
 -1      8253-2.46949E+00 1.84139E+01-2.48992E-04-1.26465E+01 1.94012E-04-5.47814E-04
 -1      8254-2.51446E+00 2.07629E+01 4.78237E-04-1.08997E+01-4.95783E-13-2.33424E-12
 -1      8255-1.12699E+00 1.89441E+01 3.94999E-03-1.36774E+01-2.31251E-13-2.13219E-12
 -1      8256-2.46949E+00 1.84139E+01-2.48992E-04-1.26465E+01-1.94012E-04 5.47814E-04
 -1      8257-2.53899E+00 2.07900E+01 1.76823E-04-1.09071E+01 2.12679E-04-8.28063E-04
 -1      8258-1.16034E+00 1.89679E+01 1.13760E-03-1.36936E+01-5.32281E-05 7.93667E-04
 -1      8259-2.51082E+00 1.84639E+01 3.49434E-03-1.26725E+01 1.72869E-04-4.43460E-03
 -1      8260-2.62222E+00 2.08688E+01-7.10944E-04-1.09290E+01-3.20367E-04 2.23714E-03
 -1      8261-1.22777E+00 1.90491E+01-5.05148E-03-1.37416E+01 1.87842E-03-9.67676E-03
 -1      8262-2.60810E+00 1.85530E+01-1.09705E-02-1.27246E+01-3.96703E-04 2.71320E-03
 -1      8263-1.05211E+00 1.25189E+01-3.45037E-02-1.50541E+01 6.64229E-04-1.92132E-02
 -1      8264-1.79608E+00 1.55105E+01 6.36192E-03-1.38668E+01 5.08598E-04-8.46840E-03
 -1      8265 2.08748E-01 1.26516E+01-6.35729E-04-1.59401E+01 8.71001E-04-8.65389E-04
 -1      8266-9.85273E-01 1.24867E+01-1.45664E-02-1.49852E+01-1.97680E-03 3.64770E-03
 -1      8267-1.73219E+00 1.54574E+01-6.32646E-03-1.38204E+01-4.08114E-04-5.71753E-03
 -1      8268 2.09927E-01 1.25996E+01-3.08922E-02-1.58719E+01-2.21682E-03-7.58515E-03
 -1      8269-9.69344E-01 1.24635E+01-1.01518E-02-1.49493E+01-9.61369E-04 3.27676E-04
 -1      8270-1.71491E+00 1.54380E+01-1.19445E-02-1.38048E+01-3.94925E-13-3.05437E-12
 -1      8271 2.27048E-01 1.25900E+01-3.22224E-02-1.58485E+01 7.19969E-13-3.70227E-12
 -1      8272-9.69344E-01 1.24635E+01-1.01518E-02-1.49493E+01 9.61369E-04-3.27676E-04
 -1      8273-1.73219E+00 1.54574E+01-6.32646E-03-1.38204E+01 4.08114E-04 5.71753E-03
 -1      8274 2.09927E-01 1.25996E+01-3.08922E-02-1.58719E+01 2.21682E-03 7.58515E-03
 -1      8275-9.85273E-01 1.24867E+01-1.45664E-02-1.49852E+01 1.97680E-03-3.64770E-03
 -1      8276-1.79608E+00 1.55105E+01 6.36192E-03-1.38668E+01-5.08598E-04 8.46840E-03
 -1      8277 2.08748E-01 1.26516E+01-6.35729E-04-1.59401E+01-8.71001E-04 8.65389E-04
 -1      8278-1.05211E+00 1.25189E+01-3.45037E-02-1.50541E+01-6.64229E-04 1.92132E-02
 -1      8279 1.01421E+00 6.24560E+00-1.25148E-01-1.58301E+01-2.33704E-02-1.61002E-01
 -1      8280 7.49075E-02 9.39435E+00-6.59446E-03-1.54368E+01-1.85231E-02-2.37163E-02
 -1      8281 2.41841E+00 6.21234E+00-1.33905E-01-1.65130E+01-4.51448E-02-1.33777E-01
 -1      8282 1.30822E+00 6.33486E+00-1.30263E-01-1.57597E+01-4.10717E-02-8.03182E-02
 -1      8283 1.68859E-01 9.40488E+00 4.94550E-03-1.53796E+01-1.20972E-02-2.46388E-02
 -1      8284 2.53086E+00 6.27932E+00-7.08938E-02-1.64318E+01-3.45424E-02-2.59289E-02
 -1      8285 1.37491E+00 6.37695E+00-5.63455E-02-1.57100E+01-1.81458E-02-1.23524E-02
 -1      8286 1.98399E-01 9.40461E+00-1.16637E-03-1.53594E+01-6.13629E-13-5.32057E-12
 -1      8287 2.52794E+00 6.29512E+00-2.66175E-02-1.64020E+01-3.70691E-13-9.92116E-12
 -1      8288 1.37491E+00 6.37695E+00-5.63455E-02-1.57100E+01 1.81458E-02 1.23524E-02
 -1      8289 1.68859E-01 9.40488E+00 4.94550E-03-1.53796E+01 1.20972E-02 2.46388E-02
 -1      8290 2.53086E+00 6.27932E+00-7.08938E-02-1.64318E+01 3.45424E-02 2.59289E-02
 -1      8291 1.30822E+00 6.33486E+00-1.30263E-01-1.57597E+01 4.10717E-02 8.03182E-02
 -1      8292 7.49075E-02 9.39435E+00-6.59446E-03-1.54368E+01 1.85231E-02 2.37163E-02
 -1      8293 2.41841E+00 6.21234E+00-1.33905E-01-1.65130E+01 4.51448E-02 1.33777E-01
 -1      8294 1.01421E+00 6.24560E+00-1.25148E-01-1.58301E+01 2.33704E-02 1.61002E-01
 -1      8295 2.37648E+00 3.75847E+00 3.04763E-01-1.60159E+01-4.19860E-02 2.38263E-01
 -1      8296 2.24686E+00 3.77377E+00 4.75402E-01-1.59323E+01-2.85160E-02 1.57179E-01
 -1      8297 2.21264E+00 3.78184E+00 5.34640E-01-1.59067E+01-1.68592E-12-6.43252E-12
 -1      8298 2.24686E+00 3.77377E+00 4.75402E-01-1.59323E+01 2.85160E-02-1.57179E-01
 -1      8299 2.37648E+00 3.75847E+00 3.04763E-01-1.60159E+01 4.19860E-02-2.38263E-01
 -1      8300-4.72587E+00-1.89173E+01-1.80959E-02 1.73494E+01 2.65133E-02-4.27399E-02
 -1      8301-1.83120E+00-2.55942E+01 2.71713E-03 9.04281E+00-4.77779E-02-9.27107E-02
 -1      8302-5.45696E+00-2.16557E+01-5.81651E-02 1.90378E+01 6.14971E-02-1.03263E-01
 -1      8303-4.79690E+00-1.87953E+01-8.41789E-02 1.68729E+01 3.90455E-02-7.10101E-02
 -1      8304-1.84600E+00-2.53369E+01 3.45120E-02 8.80453E+00-3.63036E-02-6.75593E-02
 -1      8305-5.44176E+00-2.15535E+01-1.46517E-01 1.85625E+01 4.26437E-02-8.20111E-02
 -1      8306-4.80155E+00-1.87266E+01-1.29165E-01 1.66266E+01 1.56957E-02-3.14809E-02
 -1      8307-1.84331E+00-2.52510E+01 4.92601E-02 8.72691E+00-8.14240E-14-9.73042E-13
 -1      8308-5.42269E+00-2.15139E+01-1.75401E-01 1.84050E+01-2.34903E-12-4.74159E-12
 -1      8309-4.80155E+00-1.87266E+01-1.29165E-01 1.66266E+01-1.56957E-02 3.14809E-02
 -1      8310-1.84600E+00-2.53369E+01 3.45120E-02 8.80453E+00 3.63036E-02 6.75593E-02
 -1      8311-5.44176E+00-2.15535E+01-1.46517E-01 1.85625E+01-4.26437E-02 8.20111E-02
 -1      8312-4.79690E+00-1.87953E+01-8.41789E-02 1.68729E+01-3.90455E-02 7.10101E-02
 -1      8313-1.83120E+00-2.55942E+01 2.71713E-03 9.04281E+00 4.77779E-02 9.27107E-02
 -1      8314-5.45696E+00-2.16557E+01-5.81651E-02 1.90378E+01-6.14971E-02 1.03263E-01
 -1      8315-4.72587E+00-1.89173E+01-1.80959E-02 1.73494E+01-2.65133E-02 4.27399E-02
 -1      8316-1.28592E+01 1.74163E+00-3.89553E-03 1.92265E+01 2.20276E-03-4.50672E-04
 -1      8317-8.91909E+00-8.38045E+00 1.92965E-03 1.81834E+01 1.43284E-03-1.77825E-02
 -1      8318-1.36004E+01 1.84973E+00-6.73536E-04 2.03021E+01-3.60207E-03 1.92134E-03
 -1      8319-1.26753E+01 1.55191E+00-2.80851E-03 1.89179E+01 5.57754E-04 5.97499E-04
 -1      8320-8.86587E+00-8.41615E+00-1.57579E-02 1.79003E+01-2.88451E-04-1.58162E-02
 -1      8321-1.34057E+01 1.64941E+00 1.80639E-03 2.00402E+01-2.19329E-03 4.33715E-05
 -1      8322-1.25854E+01 1.45631E+00-4.35332E-03 1.87652E+01-2.80048E-04 3.89350E-04
 -1      8323-8.84406E+00-8.42675E+00-2.25830E-02 1.78051E+01 9.72434E-13-5.74760E-12
 -1      8324-1.33432E+01 1.58003E+00-8.36139E-04 1.99534E+01-7.65001E-13-3.58309E-12
 -1      8325-1.25854E+01 1.45631E+00-4.35332E-03 1.87652E+01 2.80048E-04-3.89350E-04
 -1      8326-8.86587E+00-8.41615E+00-1.57579E-02 1.79003E+01 2.88451E-04 1.58162E-02
 -1      8327-1.34057E+01 1.64941E+00 1.80639E-03 2.00402E+01 2.19329E-03-4.33715E-05
 -1      8328-1.26753E+01 1.55191E+00-2.80851E-03 1.89179E+01-5.57754E-04-5.97499E-04
 -1      8329-8.91909E+00-8.38045E+00 1.92965E-03 1.81834E+01-1.43284E-03 1.77825E-02
 -1      8330-1.36004E+01 1.84973E+00-6.73536E-04 2.03021E+01 3.60207E-03-1.92134E-03
 -1      8331-1.28592E+01 1.74163E+00-3.89553E-03 1.92265E+01-2.20276E-03 4.50672E-04
 -1      8332-1.50749E+01 1.61169E+01 2.77403E-03 1.26071E+01 3.92796E-04-2.01420E-05
 -1      8333-1.39358E+01 8.95469E+00-2.11060E-03 1.57115E+01-2.55942E-03 1.03337E-03
 -1      8334-1.47208E+01 1.70423E+01 2.55645E-03 1.29172E+01 6.85841E-05 1.01820E-03
 -1      8335-1.48217E+01 1.58628E+01 3.22588E-03 1.25157E+01-6.42843E-04 8.61760E-04
 -1      8336-1.37670E+01 8.78792E+00 3.59806E-04 1.55660E+01-1.22203E-03 6.96816E-05
 -1      8337-1.44946E+01 1.68103E+01 1.35722E-03 1.28603E+01-1.02504E-03 1.09991E-03
 -1      8338-1.46954E+01 1.57349E+01 4.06587E-03 1.24711E+01-5.02776E-04 3.58203E-04
 -1      8339-1.37112E+01 8.73124E+00 2.47267E-04 1.55173E+01 1.28083E-12-2.00598E-12
 -1      8340-1.44190E+01 1.67337E+01 1.93718E-03 1.28418E+01-6.88083E-13 4.49588E-12
 -1      8341-1.46954E+01 1.57349E+01 4.06587E-03 1.24711E+01 5.02776E-04-3.58203E-04
 -1      8342-1.37670E+01 8.78792E+00 3.59806E-04 1.55660E+01 1.22203E-03-6.96816E-05
 -1      8343-1.44946E+01 1.68103E+01 1.35722E-03 1.28603E+01 1.02504E-03-1.09991E-03
 -1      8344-1.48217E+01 1.58628E+01 3.22588E-03 1.25157E+01 6.42843E-04-8.61760E-04
 -1      8345-1.39358E+01 8.95469E+00-2.11060E-03 1.57115E+01 2.55942E-03-1.03337E-03
 -1      8346-1.47208E+01 1.70423E+01 2.55645E-03 1.29172E+01-6.85841E-05-1.01820E-03
 -1      8347-1.50749E+01 1.61169E+01 2.77403E-03 1.26071E+01-3.92796E-04 2.01420E-05
 -1      8348-1.21086E+01 2.26874E+01 1.04672E-03 5.21424E+00 2.13003E-04 1.33680E-05
 -1      8349-1.34369E+01 1.92712E+01-9.74526E-04 8.81221E+00-3.73166E-04 3.53109E-05
 -1      8350-1.07488E+01 2.37076E+01 1.32057E-03 5.56529E+00-2.91842E-04 8.48352E-04
 -1      8351-1.19095E+01 2.24889E+01 1.84770E-03 5.25262E+00-6.44482E-06 1.88677E-04
 -1      8352-1.32684E+01 1.91015E+01-8.02703E-04 8.79414E+00-3.52604E-04 3.22720E-04
 -1      8353-1.05853E+01 2.35443E+01 2.75650E-03 5.61261E+00-3.63991E-04 6.24893E-04
 -1      8354-1.18106E+01 2.23896E+01 1.95969E-03 5.27209E+00 8.00333E-06 1.20735E-04
 -1      8355-1.32123E+01 1.90452E+01-5.24582E-04 8.78828E+00-8.27796E-13 8.23496E-13
 -1      8356-1.05311E+01 2.34892E+01 2.81644E-03 5.62827E+00-1.58121E-12-3.56656E-12
 -1      8357-1.18106E+01 2.23896E+01 1.95969E-03 5.27209E+00-8.00333E-06-1.20735E-04
 -1      8358-1.32684E+01 1.91015E+01-8.02703E-04 8.79414E+00 3.52604E-04-3.22720E-04
 -1      8359-1.05853E+01 2.35443E+01 2.75650E-03 5.61261E+00 3.63991E-04-6.24893E-04
 -1      8360-1.19095E+01 2.24889E+01 1.84770E-03 5.25262E+00 6.44482E-06-1.88677E-04
 -1      8361-1.34369E+01 1.92712E+01-9.74526E-04 8.81221E+00 3.73166E-04-3.53109E-05
 -1      8362-1.07488E+01 2.37076E+01 1.32057E-03 5.56529E+00 2.91842E-04-8.48352E-04
 -1      8363-1.21086E+01 2.26874E+01 1.04672E-03 5.21424E+00-2.13003E-04-1.33680E-05
 -1      8364-7.13726E+00 2.45713E+01-1.81115E-04-2.03951E-01 1.18076E-04-4.73979E-05
 -1      8365-9.48237E+00 2.34954E+01-1.61775E-04 2.52189E+00-1.62101E-04 8.73017E-05
 -1      8366-5.36541E+00 2.58202E+01 2.10015E-03 5.59860E-01 1.15840E-05 1.05070E-04
 -1      8367-7.00844E+00 2.44434E+01 1.94753E-04-1.13969E-01 4.61444E-06-2.53095E-05
 -1      8368-9.36060E+00 2.33739E+01 7.16638E-05 2.57013E+00-9.17119E-05 1.13642E-04
 -1      8369-5.26563E+00 2.57202E+01 2.06839E-03 6.40758E-01-7.80554E-05 1.14965E-04
 -1      8370-6.94440E+00 2.43793E+01 2.35857E-04-6.88630E-02 6.19556E-06-1.28991E-05
 -1      8371-9.32023E+00 2.33333E+01 1.14915E-04 2.58627E+00 1.14386E-12-2.62106E-12
 -1      8372-5.23241E+00 2.56868E+01 2.12335E-03 6.67704E-01 2.47799E-12 2.05059E-12
 -1      8373-6.94440E+00 2.43793E+01 2.35857E-04-6.88630E-02-6.19557E-06 1.28991E-05
 -1      8374-9.36060E+00 2.33739E+01 7.16638E-05 2.57013E+00 9.17119E-05-1.13642E-04
 -1      8375-5.26563E+00 2.57202E+01 2.06839E-03 6.40758E-01 7.80554E-05-1.14965E-04
 -1      8376-7.00844E+00 2.44434E+01 1.94753E-04-1.13969E-01-4.61443E-06 2.53095E-05
 -1      8377-9.48237E+00 2.34954E+01-1.61775E-04 2.52189E+00 1.62101E-04-8.73017E-05
 -1      8378-5.36541E+00 2.58202E+01 2.10015E-03 5.59860E-01-1.15840E-05-1.05070E-04
 -1      8379-7.13726E+00 2.45713E+01-1.81115E-04-2.03951E-01-1.18076E-04 4.73979E-05
 -1      8380-1.92319E+00 2.41947E+01-7.24714E-05-3.68412E+00 9.25975E-05 3.58958E-05
 -1      8381-4.44615E+00 2.42980E+01-2.89590E-05-1.87708E+00-5.91805E-06-5.25058E-05
 -1      8382-1.91305E-01 2.59107E+01 1.30343E-03-2.55520E+00-4.73033E-05 3.16299E-05
 -1      8383-1.84961E+00 2.41215E+01 3.60443E-05-3.57799E+00-8.07059E-06-3.69127E-05
 -1      8384-4.37087E+00 2.42228E+01-4.10453E-05-1.80386E+00 2.42275E-06-1.00839E-05
 -1      8385-1.35562E-01 2.58552E+01 1.42298E-03-2.46634E+00-4.39300E-05 2.08126E-05
 -1      8386-1.81307E+00 2.40849E+01-8.42435E-06-3.52492E+00 6.59876E-06-1.02814E-05
 -1      8387-4.34584E+00 2.41978E+01-1.56052E-05-1.77943E+00 4.46554E-13-1.39598E-12
 -1      8388-1.17073E-01 2.58365E+01 1.38767E-03-2.43673E+00 3.03855E-13-7.21165E-13
 -1      8389-1.81307E+00 2.40849E+01-8.42435E-06-3.52492E+00-6.59875E-06 1.02814E-05
 -1      8390-4.37087E+00 2.42228E+01-4.10453E-05-1.80386E+00-2.42275E-06 1.00839E-05
 -1      8391-1.35562E-01 2.58552E+01 1.42298E-03-2.46634E+00 4.39300E-05-2.08126E-05
 -1      8392-1.84961E+00 2.41215E+01 3.60443E-05-3.57799E+00 8.07059E-06 3.69127E-05
 -1      8393-4.44615E+00 2.42980E+01-2.89590E-05-1.87708E+00 5.91804E-06 5.25058E-05
 -1      8394-1.91305E-01 2.59107E+01 1.30343E-03-2.55520E+00 4.73033E-05-3.16299E-05
 -1      8395-1.92319E+00 2.41947E+01-7.24714E-05-3.68412E+00-9.25975E-05-3.58958E-05
 -1      8396 3.03063E+00 2.27009E+01 1.42868E-04-5.71046E+00 5.96225E-05 2.05142E-05
 -1      8397 5.91084E-01 2.34071E+01-6.10590E-05-4.62073E+00-3.44806E-05 3.14143E-05
 -1      8398 4.51449E+00 2.50002E+01 7.03136E-04-4.40805E+00-5.82089E-05 5.73105E-05
 -1      8399 3.06084E+00 2.26708E+01 1.34350E-04-5.60102E+00-3.56497E-05 2.26280E-06
 -1      8400 6.29821E-01 2.33684E+01-2.55613E-05-4.54010E+00-1.82443E-05 8.88178E-06
 -1      8401 4.53675E+00 2.49780E+01 7.40442E-04-4.31832E+00-4.63535E-05 3.77161E-05
 -1      8402 3.07581E+00 2.26558E+01 1.28604E-04-5.54631E+00-9.10266E-06 8.53991E-06
 -1      8403 6.42684E-01 2.33555E+01-1.87392E-05-4.51322E+00 6.74129E-13-3.56336E-13
 -1      8404 4.54409E+00 2.49705E+01 7.35922E-04-4.28840E+00 1.41831E-12 1.59397E-12
 -1      8405 3.07581E+00 2.26558E+01 1.28604E-04-5.54631E+00 9.10266E-06-8.53991E-06
 -1      8406 6.29821E-01 2.33684E+01-2.55613E-05-4.54010E+00 1.82443E-05-8.88178E-06
 -1      8407 4.53675E+00 2.49780E+01 7.40442E-04-4.31832E+00 4.63535E-05-3.77161E-05
 -1      8408 3.06084E+00 2.26708E+01 1.34350E-04-5.60102E+00 3.56497E-05-2.26280E-06
 -1      8409 5.91084E-01 2.34071E+01-6.10590E-05-4.62073E+00 3.44806E-05-3.14143E-05
 -1      8410 4.51449E+00 2.50002E+01 7.03136E-04-4.40805E+00 5.82089E-05-5.73105E-05
 -1      8411 3.03063E+00 2.27009E+01 1.42868E-04-5.71046E+00-5.96225E-05-2.05142E-05
 -1      8412 7.61370E+00 2.06340E+01 2.22896E-04-6.52632E+00 2.56811E-05 2.05040E-05
 -1      8413 5.32728E+00 2.16593E+01-4.47984E-05-6.04596E+00-2.19239E-05 5.03084E-05
 -1      8414 8.79465E+00 2.35169E+01 3.97840E-04-5.24642E+00-6.57778E-05 8.62483E-05
 -1      8415 7.60567E+00 2.06420E+01 1.93710E-04-6.42118E+00-4.29027E-05 2.80203E-05
 -1      8416 5.33556E+00 2.16510E+01 1.54460E-06-5.96556E+00-2.36376E-05 2.33059E-05
 -1      8417 8.78693E+00 2.35245E+01 4.62832E-04-5.16037E+00-4.68859E-05 6.44658E-05
 -1      8418 7.60159E+00 2.06460E+01 2.21013E-04-6.36863E+00-9.16892E-06 2.21632E-05
 -1      8419 5.33830E+00 2.16482E+01 1.91990E-05-5.93876E+00 1.61650E-12 6.37019E-13
 -1      8420 8.78428E+00 2.35271E+01 4.62328E-04-5.13169E+00 1.17437E-12-1.18841E-13
 -1      8421 7.60159E+00 2.06460E+01 2.21013E-04-6.36863E+00 9.16892E-06-2.21632E-05
 -1      8422 5.33556E+00 2.16510E+01 1.54460E-06-5.96556E+00 2.36376E-05-2.33059E-05
 -1      8423 8.78693E+00 2.35245E+01 4.62832E-04-5.16037E+00 4.68859E-05-6.44658E-05
 -1      8424 7.60567E+00 2.06420E+01 1.93710E-04-6.42118E+00 4.29027E-05-2.80203E-05
 -1      8425 5.32728E+00 2.16593E+01-4.47984E-05-6.04596E+00 2.19239E-05-5.03084E-05
 -1      8426 8.79465E+00 2.35169E+01 3.97840E-04-5.24642E+00 6.57778E-05-8.62483E-05
 -1      8427 7.61370E+00 2.06340E+01 2.22896E-04-6.52632E+00-2.56811E-05-2.05040E-05
 -1      8428 1.16679E+01 1.83975E+01 2.58361E-04-6.20418E+00 8.17249E-06 2.12490E-05
 -1      8429 9.62191E+00 1.95325E+01-3.65427E-05-6.30195E+00-2.21053E-05 7.01480E-05
 -1      8430 1.25681E+01 2.17900E+01 2.80480E-04-5.10674E+00-5.68215E-05 1.05705E-04
 -1      8431 1.16249E+01 1.84404E+01 2.50305E-04-6.11219E+00-3.41543E-05 4.77754E-05
 -1      8432 9.60276E+00 1.95516E+01 1.82902E-05-6.22802E+00-2.86295E-05 4.17635E-05
 -1      8433 1.25322E+01 2.18258E+01 3.44750E-04-5.03118E+00-3.87992E-05 8.51533E-05
 -1      8434 1.16033E+01 1.84619E+01 2.93501E-04-6.06621E+00-5.91605E-06 2.89884E-05
 -1      8435 9.59636E+00 1.95580E+01 3.63200E-05-6.20338E+00 1.86314E-12 3.25477E-13
 -1      8436 1.25202E+01 2.18377E+01 3.55989E-04-5.00599E+00 7.34454E-13-2.48345E-13
 -1      8437 1.16033E+01 1.84619E+01 2.93501E-04-6.06621E+00 5.91605E-06-2.89884E-05
 -1      8438 9.60276E+00 1.95516E+01 1.82902E-05-6.22802E+00 2.86295E-05-4.17635E-05
 -1      8439 1.25322E+01 2.18258E+01 3.44750E-04-5.03118E+00 3.87992E-05-8.51533E-05
 -1      8440 1.16249E+01 1.84404E+01 2.50305E-04-6.11219E+00 3.41543E-05-4.77754E-05
 -1      8441 9.62191E+00 1.95325E+01-3.65427E-05-6.30195E+00 2.21053E-05-7.01480E-05
 -1      8442 1.25681E+01 2.17900E+01 2.80480E-04-5.10674E+00 5.68215E-05-1.05705E-04
 -1      8443 1.16679E+01 1.83975E+01 2.58361E-04-6.20418E+00-8.17249E-06-2.12490E-05
 -1      8444 1.49061E+01 1.63969E+01 2.71892E-04-4.83435E+00 4.84997E-07 2.54836E-05
 -1      8445 1.32490E+01 1.74339E+01-3.46500E-05-5.46933E+00-1.70374E-05 8.05892E-05
 -1      8446 1.55862E+01 2.01802E+01 2.42992E-04-4.03771E+00-4.40717E-05 1.20873E-04
 -1      8447 1.48337E+01 1.64692E+01 2.92542E-04-4.76559E+00-2.40651E-05 5.91753E-05
 -1      8448 1.32056E+01 1.74771E+01 2.20331E-05-5.40902E+00-2.66217E-05 5.62774E-05
 -1      8449 1.55261E+01 2.02401E+01 3.11195E-04-3.98098E+00-2.56149E-05 1.00845E-04
 -1      8450 1.47974E+01 1.65054E+01 3.38085E-04-4.73122E+00-1.96922E-06 3.22014E-05
 -1      8451 1.31912E+01 1.74915E+01 4.30771E-05-5.38891E+00 1.62621E-12 6.70931E-13
 -1      8452 1.55060E+01 2.02601E+01 3.27722E-04-3.96208E+00 8.21012E-13 3.72738E-13
 -1      8453 1.47974E+01 1.65054E+01 3.38085E-04-4.73122E+00 1.96922E-06-3.22014E-05
 -1      8454 1.32056E+01 1.74771E+01 2.20331E-05-5.40902E+00 2.66217E-05-5.62774E-05
 -1      8455 1.55261E+01 2.02401E+01 3.11195E-04-3.98098E+00 2.56149E-05-1.00845E-04
 -1      8456 1.48337E+01 1.64692E+01 2.92542E-04-4.76559E+00 2.40651E-05-5.91753E-05
 -1      8457 1.32490E+01 1.74339E+01-3.46500E-05-5.46933E+00 1.70374E-05-8.05892E-05
 -1      8458 1.55862E+01 2.01802E+01 2.42992E-04-4.03771E+00 4.40717E-05-1.20873E-04
 -1      8459 1.49061E+01 1.63969E+01 2.71892E-04-4.83435E+00-4.84997E-07-2.54836E-05
 -1      8460 1.69924E+01 1.50143E+01 2.74581E-04-2.64001E+00-1.02957E-06 2.88599E-05
 -1      8461 1.58971E+01 1.57570E+01-3.35357E-05-3.70518E+00-8.88316E-06 8.83904E-05
 -1      8462 1.75330E+01 1.90420E+01 2.37527E-04-2.22149E+00-3.25488E-05 1.30941E-04
 -1      8463 1.69000E+01 1.51066E+01 3.23932E-04-2.60342E+00-1.45844E-05 6.53421E-05
 -1      8464 1.58352E+01 1.58187E+01 2.40214E-05-3.66564E+00-2.01593E-05 6.74760E-05
 -1      8465 1.74563E+01 1.91183E+01 3.07121E-04-2.19119E+00-8.80435E-06 1.09950E-04
 -1      8466 1.68538E+01 1.51527E+01 3.63196E-04-2.58513E+00 2.40971E-06 3.29187E-05
 -1      8467 1.58146E+01 1.58393E+01 4.69922E-05-3.65246E+00 1.18832E-12 7.84906E-13
 -1      8468 1.74308E+01 1.91438E+01 3.27357E-04-2.18110E+00 8.91501E-13 7.34024E-14
 -1      8469 1.68538E+01 1.51527E+01 3.63196E-04-2.58513E+00-2.40971E-06-3.29187E-05
 -1      8470 1.58352E+01 1.58187E+01 2.40214E-05-3.66564E+00 2.01593E-05-6.74760E-05
 -1      8471 1.74563E+01 1.91183E+01 3.07121E-04-2.19119E+00 8.80435E-06-1.09950E-04
 -1      8472 1.69000E+01 1.51066E+01 3.23932E-04-2.60342E+00 1.45844E-05-6.53421E-05
 -1      8473 1.58971E+01 1.57570E+01-3.35357E-05-3.70518E+00 8.88316E-06-8.83904E-05
 -1      8474 1.75330E+01 1.90420E+01 2.37527E-04-2.22149E+00 3.25488E-05-1.30941E-04
 -1      8475 1.69924E+01 1.50143E+01 2.74581E-04-2.64001E+00 1.02957E-06-2.88599E-05
 -1      8476 1.76569E+01 1.45311E+01 2.68662E-04 1.78742E-03 5.96662E-07 3.07697E-05
 -1      8477 1.72650E+01 1.48319E+01-3.43577E-05-1.30874E+00 3.97492E-06 9.21777E-05
 -1      8478 1.81477E+01 1.86416E+01 2.38440E-04 6.14496E-03-2.45215E-05 1.38853E-04
 -1      8479 1.75575E+01 1.46304E+01 3.47946E-04 8.44561E-04-6.89311E-06 6.86559E-05
 -1      8480 1.71930E+01 1.49038E+01 2.30702E-05-1.29536E+00-1.15908E-05 7.48176E-05
 -1      8481 1.80652E+01 1.87238E+01 3.09898E-04 5.41448E-03 1.19981E-05 1.12317E-04
 -1      8482 1.75078E+01 1.46800E+01 3.74573E-04 3.65360E-04 7.98153E-06 3.16476E-05
 -1      8483 1.71690E+01 1.49277E+01 4.80940E-05-1.29090E+00 5.77353E-13-3.82688E-13
 -1      8484 1.80377E+01 1.87512E+01 3.31350E-04 5.15641E-03 9.35968E-13-1.59593E-12
 -1      8485 1.75078E+01 1.46800E+01 3.74573E-04 3.65360E-04-7.98153E-06-3.16476E-05
 -1      8486 1.71930E+01 1.49038E+01 2.30702E-05-1.29536E+00 1.15908E-05-7.48176E-05
 -1      8487 1.80652E+01 1.87238E+01 3.09898E-04 5.41448E-03-1.19981E-05-1.12317E-04
 -1      8488 1.75575E+01 1.46304E+01 3.47946E-04 8.44561E-04 6.89311E-06-6.86559E-05
 -1      8489 1.72650E+01 1.48319E+01-3.43577E-05-1.30874E+00-3.97492E-06-9.21777E-05
 -1      8490 1.81477E+01 1.86416E+01 2.38440E-04 6.14496E-03 2.45215E-05-1.38853E-04
 -1      8491 1.76569E+01 1.45311E+01 2.68662E-04 1.78742E-03-5.96662E-07-3.07697E-05
 -1      8492 1.67876E+01 1.50584E+01 2.50109E-04 2.60651E+00 3.54551E-06 3.07498E-05
 -1      8493 1.71632E+01 1.48535E+01-3.44106E-05 1.29147E+00 2.07650E-05 9.06908E-05
 -1      8494 1.73171E+01 1.90881E+01 2.37148E-04 2.20229E+00-2.45509E-05 1.47939E-04
 -1      8495 1.66959E+01 1.51501E+01 3.67724E-04 2.56787E+00-1.49349E-06 7.07273E-05
 -1      8496 1.70915E+01 1.49251E+01 2.16219E-05 1.27661E+00-3.08466E-06 7.88282E-05
 -1      8497 1.72408E+01 1.91641E+01 3.11262E-04 2.17029E+00 3.69122E-05 1.06213E-04
 -1      8498 1.66500E+01 1.51959E+01 3.73153E-04 2.54853E+00 1.51646E-05 2.74330E-05
 -1      8499 1.70676E+01 1.49490E+01 4.85542E-05 1.27167E+00 1.25653E-12-3.68278E-13
 -1      8500 1.72154E+01 1.91895E+01 3.31998E-04 2.15960E+00 1.50644E-12-2.62186E-13
 -1      8501 1.66500E+01 1.51959E+01 3.73153E-04 2.54853E+00-1.51646E-05-2.74330E-05
 -1      8502 1.70915E+01 1.49251E+01 2.16219E-05 1.27661E+00 3.08466E-06-7.88282E-05
 -1      8503 1.72408E+01 1.91641E+01 3.11262E-04 2.17029E+00-3.69122E-05-1.06213E-04
 -1      8504 1.66959E+01 1.51501E+01 3.67724E-04 2.56787E+00 1.49349E-06-7.07273E-05
 -1      8505 1.71632E+01 1.48535E+01-3.44106E-05 1.29147E+00-2.07650E-05-9.06908E-05
 -1      8506 1.73171E+01 1.90881E+01 2.37148E-04 2.20229E+00 2.45509E-05-1.47939E-04
 -1      8507 1.67876E+01 1.50584E+01 2.50109E-04 2.60651E+00-3.54551E-06-3.07498E-05
 -1      8508 1.44781E+01 1.65024E+01 2.12694E-04 4.66412E+00 7.14459E-06 2.86080E-05
 -1      8509 1.55831E+01 1.58300E+01-3.32797E-05 3.60128E+00 4.14194E-05 8.19551E-05
 -1      8510 1.51220E+01 2.02993E+01 2.30319E-04 3.89648E+00-3.73653E-05 1.65368E-04
 -1      8511 1.44079E+01 1.65726E+01 3.89707E-04 4.59328E+00 1.24169E-06 7.35526E-05
 -1      8512 1.55222E+01 1.58908E+01 1.90726E-05 3.56019E+00 3.38160E-06 8.09018E-05
 -1      8513 1.50634E+01 2.03575E+01 3.08256E-04 3.83773E+00 6.73493E-05 8.82713E-05
 -1      8514 1.43727E+01 1.66077E+01 3.59335E-04 4.55784E+00 2.45022E-05 1.84875E-05
 -1      8515 1.55019E+01 1.59110E+01 4.82475E-05 3.54650E+00 1.28724E-12-3.31525E-13
 -1      8516 1.50440E+01 2.03770E+01 3.25896E-04 3.81810E+00 1.05179E-12-6.90945E-13
 -1      8517 1.43727E+01 1.66077E+01 3.59335E-04 4.55784E+00-2.45022E-05-1.84875E-05
 -1      8518 1.55222E+01 1.58908E+01 1.90726E-05 3.56019E+00-3.38160E-06-8.09018E-05
 -1      8519 1.50634E+01 2.03575E+01 3.08256E-04 3.83773E+00-6.73493E-05-8.82713E-05
 -1      8520 1.44079E+01 1.65726E+01 3.89707E-04 4.59328E+00-1.24168E-06-7.35526E-05
 -1      8521 1.55831E+01 1.58300E+01-3.32797E-05 3.60128E+00-4.14194E-05-8.19551E-05
 -1      8522 1.51220E+01 2.02993E+01 2.30319E-04 3.89648E+00 3.73653E-05-1.65368E-04
 -1      8523 1.44781E+01 1.65024E+01 2.12694E-04 4.66412E+00-7.14459E-06-2.86080E-05
 -1      8524 1.10277E+01 1.85700E+01 1.45433E-04 5.72946E+00 1.10177E-05 2.35766E-05
 -1      8525 1.27198E+01 1.75692E+01-3.07184E-05 5.14632E+00 6.61201E-05 6.30248E-05
 -1      8526 1.18375E+01 2.20070E+01 2.13684E-04 4.67687E+00-7.06078E-05 2.05710E-04
 -1      8527 1.09898E+01 1.86080E+01 4.24234E-04 5.63695E+00 3.67008E-07 8.01321E-05
 -1      8528 1.26791E+01 1.76098E+01 1.56737E-05 5.08500E+00 5.92566E-06 8.36949E-05
 -1      8529 1.18057E+01 2.20384E+01 3.02495E-04 4.60009E+00 1.05539E-04 5.22347E-05
 -1      8530 1.09707E+01 1.86269E+01 3.32026E-04 5.59066E+00 3.64001E-05 1.53915E-06
 -1      8531 1.26656E+01 1.76233E+01 4.83809E-05 5.06458E+00 1.09800E-12-1.32907E-12
 -1      8532 1.17952E+01 2.20490E+01 3.14408E-04 4.57441E+00 9.01081E-13-1.59887E-12
 -1      8533 1.09707E+01 1.86269E+01 3.32026E-04 5.59066E+00-3.64001E-05-1.53916E-06
 -1      8534 1.26791E+01 1.76098E+01 1.56737E-05 5.08500E+00-5.92566E-06-8.36949E-05
 -1      8535 1.18057E+01 2.20384E+01 3.02495E-04 4.60009E+00-1.05539E-04-5.22347E-05
 -1      8536 1.09898E+01 1.86080E+01 4.24234E-04 5.63695E+00-3.67007E-07-8.01321E-05
 -1      8537 1.27198E+01 1.75692E+01-3.07184E-05 5.14632E+00-6.61201E-05-6.30248E-05
 -1      8538 1.18375E+01 2.20070E+01 2.13684E-04 4.67687E+00 7.06078E-05-2.05710E-04
 -1      8539 1.10277E+01 1.85700E+01 1.45433E-04 5.72946E+00-1.10177E-05-2.35766E-05
 -1      8540 6.90265E+00 2.08115E+01 2.65282E-05 5.50102E+00 1.54314E-05 1.41055E-05
 -1      8541 8.95398E+00 1.97020E+01-2.40511E-05 5.55590E+00 9.68484E-05 2.76875E-05
 -1      8542 7.89627E+00 2.37972E+01 1.91304E-04 4.26426E+00-1.30857E-04 2.93926E-04
 -1      8543 6.90312E+00 2.08111E+01 4.86614E-04 5.40086E+00-4.39180E-06 9.57405E-05
 -1      8544 8.93986E+00 1.97160E+01 8.67146E-06 5.48356E+00 3.06890E-06 9.11014E-05
 -1      8545 7.89628E+00 2.37967E+01 2.89911E-04 4.18106E+00 1.55394E-04-1.66436E-05
 -1      8546 6.90321E+00 2.08108E+01 2.86523E-04 5.35073E+00 5.14129E-05-2.92690E-05
 -1      8547 8.93508E+00 1.97207E+01 4.69456E-05 5.45948E+00 7.16217E-13-1.64026E-12
 -1      8548 7.89654E+00 2.37967E+01 2.90630E-04 4.15321E+00 2.30281E-13-1.96982E-12
 -1      8549 6.90321E+00 2.08108E+01 2.86523E-04 5.35073E+00-5.14129E-05 2.92690E-05
 -1      8550 8.93986E+00 1.97160E+01 8.67146E-06 5.48356E+00-3.06890E-06-9.11014E-05
 -1      8551 7.89628E+00 2.37967E+01 2.89911E-04 4.18106E+00-1.55394E-04 1.66436E-05
 -1      8552 6.90312E+00 2.08111E+01 4.86614E-04 5.40086E+00 4.39179E-06-9.57406E-05
 -1      8553 8.95398E+00 1.97020E+01-2.40511E-05 5.55590E+00-9.68484E-05-2.76875E-05
 -1      8554 7.89627E+00 2.37972E+01 1.91304E-04 4.26426E+00 1.30857E-04-2.93926E-04
 -1      8555 6.90265E+00 2.08115E+01 2.65282E-05 5.50102E+00-1.54314E-05-1.41055E-05
 -1      8556 2.67106E+00 2.26868E+01-1.79460E-04 3.87603E+00 2.01903E-05-4.50227E-06
 -1      8557 4.79955E+00 2.17366E+01-1.82748E-05 4.62958E+00 1.32742E-04-3.31880E-05
 -1      8558 3.82782E+00 2.51721E+01 1.30475E-04 2.56294E+00-2.33647E-04 4.88083E-04
 -1      8559 2.71018E+00 2.26480E+01 6.05997E-04 3.78371E+00-1.48742E-05 1.31240E-04
 -1      8560 4.81435E+00 2.17218E+01 3.71306E-06 4.55728E+00-7.44151E-06 1.11909E-04
 -1      8561 3.85981E+00 2.51396E+01 2.91295E-04 2.48620E+00 2.18721E-04-1.35682E-04
 -1      8562 2.72951E+00 2.26283E+01 2.18554E-04 3.73748E+00 6.89502E-05-8.32115E-05
 -1      8563 4.81913E+00 2.17168E+01 5.43433E-05 4.53323E+00 1.51437E-13-1.62147E-12
 -1      8564 3.87101E+00 2.51289E+01 2.82041E-04 2.46044E+00 1.36044E-14-1.27659E-12
 -1      8565 2.72951E+00 2.26283E+01 2.18554E-04 3.73748E+00-6.89502E-05 8.32115E-05
 -1      8566 4.81435E+00 2.17218E+01 3.71306E-06 4.55728E+00 7.44151E-06-1.11909E-04
 -1      8567 3.85981E+00 2.51396E+01 2.91295E-04 2.48620E+00-2.18721E-04 1.35682E-04
 -1      8568 2.71018E+00 2.26480E+01 6.05997E-04 3.78371E+00 1.48742E-05-1.31240E-04
 -1      8569 4.79955E+00 2.17366E+01-1.82748E-05 4.62958E+00-1.32742E-04 3.31880E-05
 -1      8570 3.82782E+00 2.51721E+01 1.30475E-04 2.56294E+00 2.33647E-04-4.88083E-04
 -1      8571 2.67106E+00 2.26868E+01-1.79460E-04 3.87603E+00-2.01903E-05 4.50227E-06
 -1      8572-1.07417E+00 2.36463E+01-5.64792E-04 9.78596E-01 2.85362E-05-4.22118E-05
 -1      8573 8.33154E-01 2.31323E+01 1.90629E-05 2.37838E+00 1.85515E-04-1.47334E-04
 -1      8574 1.88615E-01 2.56233E+01 1.06504E-04-3.13991E-01-3.56684E-04 8.54496E-04
 -1      8575-1.00232E+00 2.35751E+01 8.08936E-04 9.08794E-01-2.78993E-05 2.06652E-04
 -1      8576 8.74725E-01 2.30907E+01-2.17057E-05 2.31744E+00-2.18088E-05 1.50653E-04
 -1      8577 2.47560E-01 2.55635E+01 2.30130E-04-3.72063E-01 2.99019E-04-3.69202E-04
 -1      8578-9.66753E-01 2.35389E+01 1.03379E-04 8.73796E-01 8.80094E-05-1.76282E-04
 -1      8579 8.88300E-01 2.30768E+01 4.00486E-05 2.29718E+00-6.16470E-15-1.34122E-12
 -1      8580 2.68272E-01 2.55438E+01 1.86338E-04-3.91629E-01-1.41622E-13-1.43392E-12
 -1      8581-9.66753E-01 2.35389E+01 1.03379E-04 8.73796E-01-8.80094E-05 1.76282E-04
 -1      8582 8.74725E-01 2.30907E+01-2.17057E-05 2.31744E+00 2.18088E-05-1.50653E-04
 -1      8583 2.47560E-01 2.55635E+01 2.30130E-04-3.72063E-01-2.99019E-04 3.69202E-04
 -1      8584-1.00232E+00 2.35751E+01 8.08936E-04 9.08794E-01 2.78993E-05-2.06652E-04
 -1      8585 8.33154E-01 2.31323E+01 1.90629E-05 2.37838E+00-1.85515E-04 1.47334E-04
 -1      8586 1.88615E-01 2.56233E+01 1.06504E-04-3.13991E-01 3.56684E-04-8.54496E-04
 -1      8587-1.07417E+00 2.36463E+01-5.64792E-04 9.78596E-01-2.85362E-05 4.22118E-05
 -1      8588-3.79379E+00 2.32137E+01-1.26052E-03-2.83445E+00 4.27632E-05-1.35290E-04
 -1      8589-2.38349E+00 2.33803E+01-1.29017E-06-9.58546E-01 2.13765E-04-3.22911E-04
 -1      8590-2.50585E+00 2.47059E+01-2.20016E-04-4.03893E+00-5.75099E-04 1.66713E-03
 -1      8591-3.70104E+00 2.31222E+01 1.16295E-03-2.87029E+00-4.84589E-05 3.91652E-04
 -1      8592-2.32171E+00 2.33188E+01 9.93488E-06-9.98348E-01-4.99567E-05 2.47274E-04
 -1      8593-2.43001E+00 2.46287E+01 3.71601E-04-4.06856E+00 3.59301E-04-6.61762E-04
 -1      8594-3.65535E+00 2.30755E+01-4.92357E-05-2.88832E+00 1.04208E-04-3.16253E-04
 -1      8595-2.30165E+00 2.32982E+01 1.21584E-04-1.01155E+00-1.26574E-13-1.64310E-12
 -1      8596-2.40272E+00 2.46033E+01 4.23681E-04-4.07863E+00 2.42327E-13-1.90293E-12
 -1      8597-3.65535E+00 2.30755E+01-4.92357E-05-2.88832E+00-1.04208E-04 3.16253E-04
 -1      8598-2.32171E+00 2.33188E+01 9.93488E-06-9.98348E-01 4.99567E-05-2.47274E-04
 -1      8599-2.43001E+00 2.46287E+01 3.71601E-04-4.06856E+00-3.59301E-04 6.61762E-04
 -1      8600-3.70104E+00 2.31222E+01 1.16295E-03-2.87029E+00 4.84589E-05-3.91652E-04
 -1      8601-2.38349E+00 2.33803E+01-1.29017E-06-9.58546E-01-2.13765E-04 3.22911E-04
 -1      8602-2.50585E+00 2.47059E+01-2.20016E-04-4.03893E+00 5.75099E-04-1.66713E-03
 -1      8603-3.79379E+00 2.32137E+01-1.26052E-03-2.83445E+00-4.27632E-05 1.35290E-04
 -1      8604-5.08543E+00 2.10787E+01-2.81929E-03-6.98313E+00 9.83528E-05-4.12644E-04
 -1      8605-4.38372E+00 2.20918E+01 3.62204E-04-4.91688E+00 3.46683E-04-7.31245E-04
 -1      8606-3.84902E+00 2.21211E+01 2.17687E-04-8.07261E+00-4.73414E-04 2.91638E-03
 -1      8607-4.98869E+00 2.09843E+01 1.55477E-03-6.97989E+00-6.64897E-05 8.74099E-04
 -1      8608-4.31258E+00 2.20210E+01-1.31817E-04-4.92934E+00-2.81271E-05 2.93948E-04
 -1      8609-3.77212E+00 2.20399E+01-3.40604E-04-8.06896E+00 3.98749E-04-1.25687E-03
 -1      8610-4.94160E+00 2.09355E+01-2.42548E-04-6.97838E+00 1.04469E-04-4.64063E-04
 -1      8611-4.28981E+00 2.19972E+01-1.19553E-04-4.93345E+00-2.13346E-13-1.96526E-12
 -1      8612-3.74268E+00 2.20138E+01-3.83615E-04-8.06784E+00-3.74747E-13-2.09942E-12
 -1      8613-4.94160E+00 2.09355E+01-2.42548E-04-6.97838E+00-1.04469E-04 4.64063E-04
 -1      8614-4.31258E+00 2.20210E+01-1.31817E-04-4.92934E+00 2.81271E-05-2.93948E-04
 -1      8615-3.77212E+00 2.20399E+01-3.40604E-04-8.06896E+00-3.98749E-04 1.25687E-03
 -1      8616-4.98869E+00 2.09843E+01 1.55477E-03-6.97989E+00 6.64897E-05-8.74099E-04
 -1      8617-4.38372E+00 2.20918E+01 3.62204E-04-4.91688E+00-3.46683E-04 7.31245E-04
 -1      8618-3.84902E+00 2.21211E+01 2.17687E-04-8.07261E+00 4.73414E-04-2.91638E-03
 -1      8619-5.08543E+00 2.10787E+01-2.81929E-03-6.98313E+00-9.83528E-05 4.12644E-04
 -1      8620-4.79284E+00 1.72157E+01-5.79455E-03-1.07070E+01 3.32865E-04-1.40599E-03
 -1      8621-4.89124E+00 1.90998E+01-2.76225E-04-8.83559E+00-5.27376E-05-1.09103E-03
 -1      8622-3.64029E+00 1.78326E+01-2.67651E-03-1.16869E+01-1.03886E-03 6.53490E-03
 -1      8623-4.71185E+00 1.71393E+01 1.92439E-03-1.06708E+01 1.33666E-04 2.69341E-03
 -1      8624-4.82332E+00 1.90344E+01 3.12719E-04-8.82073E+00-1.61172E-04 5.06368E-04
 -1      8625-3.58356E+00 1.77662E+01 1.22653E-03-1.16539E+01 8.16334E-05 1.97669E-04
 -1      8626-4.67549E+00 1.70981E+01 2.79168E-04-1.06527E+01 2.08278E-04-1.12881E-04
 -1      8627-4.80244E+00 1.90122E+01 5.03890E-04-8.81574E+00-6.83641E-13-2.19166E-12
 -1      8628-3.55803E+00 1.77461E+01 3.33589E-03-1.16429E+01-8.05361E-13-2.27966E-12
 -1      8629-4.67549E+00 1.70981E+01 2.79168E-04-1.06527E+01-2.08278E-04 1.12881E-04
 -1      8630-4.82332E+00 1.90344E+01 3.12719E-04-8.82073E+00 1.61172E-04-5.06368E-04
 -1      8631-3.58356E+00 1.77662E+01 1.22653E-03-1.16539E+01-8.16334E-05-1.97669E-04
 -1      8632-4.71185E+00 1.71393E+01 1.92439E-03-1.06708E+01-1.33666E-04-2.69341E-03
 -1      8633-4.89124E+00 1.90998E+01-2.76225E-04-8.83559E+00 5.27376E-05 1.09103E-03
 -1      8634-3.64029E+00 1.78326E+01-2.67651E-03-1.16869E+01 1.03886E-03-6.53490E-03
 -1      8635-4.79284E+00 1.72157E+01-5.79455E-03-1.07070E+01-3.32865E-04 1.40599E-03
 -1      8636-3.16549E+00 1.20253E+01-1.78445E-02-1.32479E+01 4.99223E-04-9.87466E-03
 -1      8637-3.94437E+00 1.45874E+01 3.45361E-03-1.19667E+01 5.11099E-04-4.18742E-03
 -1      8638-2.05096E+00 1.22607E+01 2.54386E-05-1.41142E+01 2.19489E-03 3.15123E-04
 -1      8639-3.10657E+00 1.19837E+01-7.19724E-03-1.32015E+01-3.27380E-04 3.00884E-03
 -1      8640-3.89100E+00 1.45391E+01-3.02816E-03-1.19346E+01-1.78928E-04-2.86129E-03
 -1      8641-2.03947E+00 1.22130E+01-1.78508E-02-1.40697E+01-4.68936E-04-2.69457E-03
 -1      8642-3.08723E+00 1.19590E+01-4.23965E-03-1.31776E+01-1.10540E-04 7.75588E-04
 -1      8643-3.87539E+00 1.45221E+01-6.01479E-03-1.19237E+01-8.52834E-13-2.79600E-12
 -1      8644-2.02625E+00 1.22017E+01-1.83478E-02-1.40546E+01-5.58215E-13-3.55749E-12
 -1      8645-3.08723E+00 1.19590E+01-4.23965E-03-1.31776E+01 1.10540E-04-7.75588E-04
 -1      8646-3.89100E+00 1.45391E+01-3.02816E-03-1.19346E+01 1.78928E-04 2.86129E-03
 -1      8647-2.03947E+00 1.22130E+01-1.78508E-02-1.40697E+01 4.68936E-04 2.69457E-03
 -1      8648-3.10657E+00 1.19837E+01-7.19724E-03-1.32015E+01 3.27380E-04-3.00884E-03
 -1      8649-3.94437E+00 1.45874E+01 3.45361E-03-1.19667E+01-5.11099E-04 4.18742E-03
 -1      8650-2.05096E+00 1.22607E+01 2.54386E-05-1.41142E+01-2.19489E-03-3.15123E-04
 -1      8651-3.16549E+00 1.20253E+01-1.78445E-02-1.32479E+01-4.99223E-04 9.87466E-03
 -1      8652-9.73897E-01 6.27894E+00-5.77337E-02-1.43815E+01-2.29538E-02-7.89448E-02
 -1      8653-2.00050E+00 9.13376E+00-4.24056E-03-1.38132E+01-1.47284E-02-8.33355E-03
 -1      8654 2.27003E-01 6.31988E+00-7.42479E-02-1.50769E+01-4.83373E-02-7.65737E-02
 -1      8655-7.98160E-01 6.30508E+00-5.46550E-02-1.43281E+01-3.84461E-02-3.45633E-02
 -1      8656-1.93824E+00 9.12160E+00 2.35976E-03-1.37724E+01-1.04455E-02-1.08379E-02
 -1      8657 3.09552E-01 6.34581E+00-3.87871E-02-1.50108E+01-3.59954E-02-1.34540E-02
 -1      8658-7.57743E-01 6.31690E+00-1.25163E-02-1.42874E+01-1.69358E-02-2.94466E-03
 -1      8659-1.91816E+00 9.11592E+00-7.28299E-04-1.37574E+01-1.87235E-12-4.13356E-12
 -1      8660 3.11041E-01 6.35061E+00-1.31861E-02-1.49859E+01-2.43480E-12-7.50885E-12
 -1      8661-7.57743E-01 6.31690E+00-1.25163E-02-1.42874E+01 1.69358E-02 2.94466E-03
 -1      8662-1.93824E+00 9.12160E+00 2.35976E-03-1.37724E+01 1.04455E-02 1.08379E-02
 -1      8663 3.09552E-01 6.34581E+00-3.87871E-02-1.50108E+01 3.59954E-02 1.34540E-02
 -1      8664-7.98160E-01 6.30508E+00-5.46550E-02-1.43281E+01 3.84461E-02 3.45633E-02
 -1      8665-2.00050E+00 9.13376E+00-4.24056E-03-1.38132E+01 1.47284E-02 8.33355E-03
 -1      8666 2.27003E-01 6.31988E+00-7.42479E-02-1.50769E+01 4.83373E-02 7.65737E-02
 -1      8667-9.73897E-01 6.27894E+00-5.77337E-02-1.43815E+01 2.29538E-02 7.89448E-02
 -1      8668 4.13209E-01 3.47307E+00 1.48502E-01-1.47162E+01-3.78398E-02 1.42849E-01
 -1      8669 3.13392E-01 3.45919E+00 2.33453E-01-1.46388E+01-2.69100E-02 9.63317E-02
 -1      8670 2.85383E-01 3.45683E+00 2.63288E-01-1.46152E+01-2.32902E-12-4.32724E-12
 -1      8671 3.13392E-01 3.45919E+00 2.33453E-01-1.46388E+01 2.69100E-02-9.63317E-02
 -1      8672 4.13209E-01 3.47307E+00 1.48502E-01-1.47162E+01 3.78398E-02-1.42849E-01
 -1      8673-3.87518E+00-1.43276E+01-1.61446E-02 1.41316E+01 1.59996E-02-2.58282E-02
 -1      8674-1.50405E+00-1.86838E+01 4.67297E-03 7.32477E+00-2.86233E-02-6.39211E-02
 -1      8675-4.36818E+00-1.65522E+01-4.20176E-02 1.55006E+01 3.53587E-02-6.15301E-02
 -1      8676-3.96218E+00-1.42222E+01-5.91687E-02 1.38163E+01 2.40772E-02-4.39512E-02
 -1      8677-1.52725E+00-1.84899E+01 1.92040E-02 7.16778E+00-2.12618E-02-4.74571E-02
 -1      8678-4.39300E+00-1.64585E+01-9.60001E-02 1.51937E+01 2.58871E-02-5.12540E-02
 -1      8679-3.98634E+00-1.41644E+01-9.10653E-02 1.36534E+01 9.72358E-03-1.99229E-02
 -1      8680-1.53158E+00-1.84249E+01 2.49483E-02 7.11664E+00-1.12002E-12 7.37563E-13
 -1      8681-4.39666E+00-1.64258E+01-1.19909E-01 1.50909E+01-2.83085E-12-9.28286E-13
 -1      8682-3.98634E+00-1.41644E+01-9.10653E-02 1.36534E+01-9.72358E-03 1.99229E-02
 -1      8683-1.52725E+00-1.84899E+01 1.92040E-02 7.16778E+00 2.12618E-02 4.74571E-02
 -1      8684-4.39300E+00-1.64585E+01-9.60001E-02 1.51937E+01-2.58871E-02 5.12540E-02
 -1      8685-3.96218E+00-1.42222E+01-5.91687E-02 1.38163E+01-2.40772E-02 4.39512E-02
 -1      8686-1.50405E+00-1.86838E+01 4.67297E-03 7.32477E+00 2.86233E-02 6.39211E-02
 -1      8687-4.36818E+00-1.65522E+01-4.20176E-02 1.55006E+01-3.53587E-02 6.15301E-02
 -1      8688-3.87518E+00-1.43276E+01-1.61446E-02 1.41316E+01-1.59996E-02 2.58282E-02
 -1      8689-1.14212E+01 1.68185E+00-2.35321E-03 1.65744E+01 1.71151E-03-2.05440E-04
 -1      8690-7.73813E+00-6.18430E+00 2.77511E-03 1.52935E+01 9.86222E-04-8.24346E-03
 -1      8691-1.20423E+01 1.63243E+00 1.31461E-03 1.77255E+01-1.16034E-03 1.91930E-03
 -1      8692-1.13149E+01 1.57285E+00-2.49033E-03 1.63412E+01 7.09542E-04 9.82430E-04
 -1      8693-7.72528E+00-6.18927E+00-7.97586E-03 1.50952E+01-2.33928E-04-7.91693E-03
 -1      8694-1.19354E+01 1.51925E+00 2.78851E-03 1.75239E+01-6.70931E-04 1.20735E-03
 -1      8695-1.12633E+01 1.51803E+00-2.47484E-03 1.62258E+01-1.46723E-05 5.27295E-04
 -1      8696-7.71866E+00-6.19088E+00-1.17186E-02 1.50284E+01-3.99777E-12-2.55291E-12
 -1      8697-1.18995E+01 1.48161E+00 3.09202E-03 1.74576E+01 3.13772E-13-5.84047E-12
 -1      8698-1.12633E+01 1.51803E+00-2.47484E-03 1.62258E+01 1.46723E-05-5.27295E-04
 -1      8699-7.72528E+00-6.18927E+00-7.97586E-03 1.50952E+01 2.33928E-04 7.91693E-03
 -1      8700-1.19354E+01 1.51925E+00 2.78851E-03 1.75239E+01 6.70931E-04-1.20735E-03
 -1      8701-1.13149E+01 1.57285E+00-2.49033E-03 1.63412E+01-7.09542E-04-9.82430E-04
 -1      8702-7.73813E+00-6.18430E+00 2.77511E-03 1.52935E+01-9.86222E-04 8.24346E-03
 -1      8703-1.20423E+01 1.63243E+00 1.31461E-03 1.77255E+01 1.16034E-03-1.91930E-03
 -1      8704-1.14212E+01 1.68185E+00-2.35321E-03 1.65744E+01-1.71151E-03 2.05440E-04
 -1      8705-1.48324E+01 1.40936E+01 1.04769E-03 1.13765E+01 4.92882E-04-7.46633E-05
 -1      8706-1.31215E+01 7.92609E+00-5.78042E-04 1.38398E+01-1.53685E-03 7.10223E-04
 -1      8707-1.48127E+01 1.49663E+01 1.49800E-03 1.19316E+01 5.95774E-04-2.31297E-05
 -1      8708-1.46494E+01 1.39109E+01 1.48588E-03 1.12848E+01-8.60114E-05 2.53627E-04
 -1      8709-1.30105E+01 7.81582E+00 8.49588E-04 1.37202E+01-5.57964E-04 1.68870E-04
 -1      8710-1.46501E+01 1.48022E+01 1.36339E-03 1.18644E+01-1.71512E-04 3.37788E-04
 -1      8711-1.45584E+01 1.38197E+01 1.78304E-03 1.12395E+01-1.38958E-04 1.80248E-04
 -1      8712-1.29734E+01 7.77914E+00 1.06165E-03 1.36803E+01-2.85882E-12-3.80139E-12
 -1      8713-1.45958E+01 1.47474E+01 1.53488E-03 1.18419E+01-1.59027E-12-2.65028E-15
 -1      8714-1.45584E+01 1.38197E+01 1.78304E-03 1.12395E+01 1.38958E-04-1.80248E-04
 -1      8715-1.30105E+01 7.81582E+00 8.49588E-04 1.37202E+01 5.57964E-04-1.68870E-04
 -1      8716-1.46501E+01 1.48022E+01 1.36339E-03 1.18644E+01 1.71512E-04-3.37788E-04
 -1      8717-1.46494E+01 1.39109E+01 1.48588E-03 1.12848E+01 8.60114E-05-2.53627E-04
 -1      8718-1.31215E+01 7.92609E+00-5.78042E-04 1.38398E+01 1.53685E-03-7.10223E-04
 -1      8719-1.48127E+01 1.49663E+01 1.49800E-03 1.19316E+01-5.95774E-04 2.31297E-05
 -1      8720-1.48324E+01 1.40936E+01 1.04769E-03 1.13765E+01-4.92882E-04 7.46633E-05
 -1      8721-1.34707E+01 2.01908E+01 1.61724E-03 4.41257E+00 3.73913E-04-9.01397E-05
 -1      8722-1.40500E+01 1.70617E+01-5.15680E-04 7.80976E+00-7.02662E-05 2.30610E-05
 -1      8723-1.26741E+01 2.13231E+01 6.30935E-04 4.83031E+00-1.41205E-05 2.12332E-04
 -1      8724-1.33088E+01 2.00289E+01 1.79990E-03 4.42480E+00 8.80229E-05 2.78431E-05
 -1      8725-1.39212E+01 1.69328E+01-8.88162E-04 7.78110E+00-7.95975E-05 4.70377E-06
 -1      8726-1.25394E+01 2.11880E+01 1.00628E-03 4.84966E+00-8.47785E-05 1.94676E-04
 -1      8727-1.32280E+01 1.99480E+01 1.84670E-03 4.43106E+00 1.35025E-05 1.29025E-05
 -1      8728-1.38783E+01 1.68898E+01-9.34929E-04 7.77159E+00 3.47809E-13-4.09127E-12
 -1      8729-1.24944E+01 2.11431E+01 1.21852E-03 4.85606E+00 2.81950E-12-1.95200E-12
 -1      8730-1.32280E+01 1.99480E+01 1.84670E-03 4.43106E+00-1.35025E-05-1.29025E-05
 -1      8731-1.39212E+01 1.69328E+01-8.88162E-04 7.78110E+00 7.95975E-05-4.70377E-06
 -1      8732-1.25394E+01 2.11880E+01 1.00628E-03 4.84966E+00 8.47785E-05-1.94676E-04
 -1      8733-1.33088E+01 2.00289E+01 1.79990E-03 4.42480E+00-8.80229E-05-2.78431E-05
 -1      8734-1.40500E+01 1.70617E+01-5.15680E-04 7.80976E+00 7.02662E-05-2.30610E-05
 -1      8735-1.26741E+01 2.13231E+01 6.30935E-04 4.83031E+00 1.41205E-05-2.12332E-04
 -1      8736-1.34707E+01 2.01908E+01 1.61724E-03 4.41257E+00-3.73913E-04 9.01397E-05
 -1      8737-9.47111E+00 2.16933E+01 1.19224E-03-1.33558E+00 1.73002E-04 1.28153E-05
 -1      8738-1.13628E+01 2.08381E+01-6.17982E-04 1.53700E+00-1.50674E-04 8.63091E-05
 -1      8739-8.22710E+00 2.30555E+01 3.15851E-04-7.19811E-01 1.19978E-04-7.77934E-05
 -1      8740-9.35746E+00 2.15795E+01 1.17760E-03-1.27124E+00 2.94478E-05-2.14807E-05
 -1      8741-1.12600E+01 2.07354E+01-5.09588E-04 1.56586E+00-3.79783E-05 2.87867E-05
 -1      8742-8.13655E+00 2.29650E+01 3.49849E-04-6.61808E-01 1.39407E-05-8.40674E-06
 -1      8743-9.30064E+00 2.15226E+01 1.15745E-03-1.23905E+00 1.09312E-05-7.21524E-06
 -1      8744-1.12257E+01 2.07011E+01-4.82919E-04 1.57550E+00 1.08502E-12-1.59031E-12
 -1      8745-8.10626E+00 2.29348E+01 3.72968E-04-6.42532E-01-2.12314E-13-3.99073E-13
 -1      8746-9.30064E+00 2.15226E+01 1.15745E-03-1.23905E+00-1.09312E-05 7.21524E-06
 -1      8747-1.12600E+01 2.07354E+01-5.09588E-04 1.56586E+00 3.79783E-05-2.87867E-05
 -1      8748-8.13655E+00 2.29650E+01 3.49849E-04-6.61808E-01-1.39407E-05 8.40675E-06
 -1      8749-9.35746E+00 2.15795E+01 1.17760E-03-1.27124E+00-2.94478E-05 2.14807E-05
 -1      8750-1.13628E+01 2.08381E+01-6.17982E-04 1.53700E+00 1.50674E-04-8.63091E-05
 -1      8751-8.22710E+00 2.30555E+01 3.15851E-04-7.19811E-01-1.19978E-04 7.77934E-05
 -1      8752-9.47111E+00 2.16933E+01 1.19224E-03-1.33558E+00-1.73002E-04-1.28153E-05
 -1      8753-4.53188E+00 2.06371E+01 7.42643E-04-5.27166E+00 8.46741E-05 3.15777E-05
 -1      8754-6.92945E+00 2.10904E+01-3.28430E-04-3.25777E+00-2.91306E-05 2.53814E-05
 -1      8755-3.18296E+00 2.23713E+01 1.40449E-04-4.41653E+00 1.42428E-05-2.74100E-05
 -1      8756-4.46362E+00 2.05686E+01 6.90612E-04-5.18623E+00 8.89471E-06 2.48309E-06
 -1      8757-6.86137E+00 2.10223E+01-3.62949E-04-3.20178E+00-7.52447E-06-1.53580E-06
 -1      8758-3.12993E+00 2.23182E+01 1.54368E-04-4.34469E+00-9.49427E-06 3.13927E-06
 -1      8759-4.42944E+00 2.05344E+01 6.77246E-04-5.14351E+00 4.53019E-06-1.59991E-06
 -1      8760-6.83868E+00 2.09996E+01-3.65586E-04-3.18310E+00 1.56474E-12 1.45433E-12
 -1      8761-3.11219E+00 2.23005E+01 1.64747E-04-4.32076E+00 1.72547E-12 1.64652E-12
 -1      8762-4.42944E+00 2.05344E+01 6.77246E-04-5.14351E+00-4.53019E-06 1.59991E-06
 -1      8763-6.86137E+00 2.10223E+01-3.62949E-04-3.20178E+00 7.52447E-06 1.53580E-06
 -1      8764-3.12993E+00 2.23182E+01 1.54368E-04-4.34469E+00 9.49427E-06-3.13927E-06
 -1      8765-4.46362E+00 2.05686E+01 6.90612E-04-5.18623E+00-8.89471E-06-2.48310E-06
 -1      8766-6.92945E+00 2.10904E+01-3.28430E-04-3.25777E+00 2.91306E-05-2.53814E-05
 -1      8767-3.18296E+00 2.23713E+01 1.40449E-04-4.41653E+00-1.42428E-05 2.74100E-05
 -1      8768-4.53188E+00 2.06371E+01 7.42643E-04-5.27166E+00-8.46741E-05-3.15777E-05
 -1      8769 5.59916E-01 1.82733E+01 4.42976E-04-7.55181E+00 2.77526E-05 3.51217E-05
 -1      8770-1.95102E+00 1.94164E+01-1.60483E-04-6.35107E+00-1.42974E-05 2.43672E-05
 -1      8771 1.81383E+00 2.04685E+01 1.22069E-04-6.56710E+00-9.71220E-06-2.46283E-05
 -1      8772 5.89558E-01 1.82436E+01 3.94122E-04-7.46003E+00-7.92300E-06 4.13967E-06
 -1      8773-1.91425E+00 1.93796E+01-1.45889E-04-6.28472E+00-4.95814E-06 4.49737E-06
 -1      8774 1.83621E+00 2.04461E+01 1.24290E-04-6.49164E+00-1.18527E-05 1.62110E-05
 -1      8775 6.04434E-01 1.82287E+01 4.01486E-04-7.41413E+00-2.42727E-07 3.70220E-06
 -1      8776-1.90199E+00 1.93674E+01-1.36343E-04-6.26261E+00 2.22386E-12 1.54389E-12
 -1      8777 1.84369E+00 2.04386E+01 1.25182E-04-6.46649E+00 4.54335E-13-1.83078E-12
 -1      8778 6.04434E-01 1.82287E+01 4.01486E-04-7.41413E+00 2.42728E-07-3.70220E-06
 -1      8779-1.91425E+00 1.93796E+01-1.45889E-04-6.28472E+00 4.95814E-06-4.49737E-06
 -1      8780 1.83621E+00 2.04461E+01 1.24290E-04-6.49164E+00 1.18527E-05-1.62110E-05
 -1      8781 5.89558E-01 1.82436E+01 3.94122E-04-7.46003E+00 7.92300E-06-4.13967E-06
 -1      8782-1.95102E+00 1.94164E+01-1.60483E-04-6.35107E+00 1.42974E-05-2.43672E-05
 -1      8783 1.81383E+00 2.04685E+01 1.22069E-04-6.56710E+00 9.71220E-06 2.46283E-05
 -1      8784 5.59916E-01 1.82733E+01 4.42976E-04-7.55181E+00-2.77526E-05-3.51217E-05
 -1      8785 5.44380E+00 1.53226E+01 3.08916E-04-8.34811E+00 1.00066E-05 2.73040E-05
 -1      8786 3.00857E+00 1.67882E+01-7.93125E-05-7.88958E+00-2.41872E-06 1.71052E-05
 -1      8787 6.52453E+00 1.79826E+01 1.51655E-04-7.37560E+00-2.48109E-05-5.80933E-06
 -1      8788 5.43919E+00 1.53272E+01 2.81317E-04-8.25904E+00-4.48739E-06 6.30683E-06
 -1      8789 3.01804E+00 1.67787E+01-7.14915E-05-7.82180E+00-5.25292E-06 5.43660E-06
 -1      8790 6.51976E+00 1.79874E+01 1.61081E-04-7.30277E+00-1.18758E-05 2.83314E-05
 -1      8791 5.43692E+00 1.53295E+01 2.97105E-04-8.21450E+00-5.96921E-09 5.96557E-06
 -1      8792 3.02120E+00 1.67755E+01-6.43543E-05-7.79920E+00-1.67388E-13-2.64846E-12
 -1      8793 6.51817E+00 1.79889E+01 1.69165E-04-7.27850E+00 8.24178E-13-5.71394E-13
 -1      8794 5.43692E+00 1.53295E+01 2.97105E-04-8.21450E+00 5.97131E-09-5.96557E-06
 -1      8795 3.01804E+00 1.67787E+01-7.14915E-05-7.82180E+00 5.25292E-06-5.43659E-06
 -1      8796 6.51976E+00 1.79874E+01 1.61081E-04-7.30277E+00 1.18758E-05-2.83314E-05
 -1      8797 5.43919E+00 1.53272E+01 2.81317E-04-8.25904E+00 4.48740E-06-6.30684E-06
 -1      8798 3.00857E+00 1.67882E+01-7.93125E-05-7.88958E+00 2.41872E-06-1.71052E-05
 -1      8799 6.52453E+00 1.79826E+01 1.51655E-04-7.37560E+00 2.48109E-05 5.80932E-06
 -1      8800 5.44380E+00 1.53226E+01 3.08916E-04-8.34811E+00-1.00066E-05-2.73040E-05
 -1      8801 9.81331E+00 1.23145E+01 2.62862E-04-7.76920E+00 4.56886E-06 1.97402E-05
 -1      8802 7.61385E+00 1.38312E+01-5.93115E-05-8.00526E+00-3.26919E-06 1.81772E-05
 -1      8803 1.07157E+01 1.53811E+01 1.75134E-04-6.93287E+00-2.22847E-05 7.59956E-06
 -1      8804 9.77809E+00 1.23497E+01 2.53081E-04-7.69138E+00-1.71004E-06 5.93363E-06
 -1      8805 7.59896E+00 1.38461E+01-4.64226E-05-7.94266E+00-7.15888E-06 9.77695E-06
 -1      8806 1.06864E+01 1.54104E+01 1.93887E-04-6.86918E+00-6.79769E-06 3.44274E-05
 -1      8807 9.76050E+00 1.23673E+01 2.70297E-04-7.65246E+00 4.84293E-07 6.81894E-06
 -1      8808 7.59401E+00 1.38510E+01-3.85344E-05-7.92179E+00 1.01901E-12 1.98601E-12
 -1      8809 1.06766E+01 1.54201E+01 2.05770E-04-6.84796E+00 2.36516E-12 1.06562E-12
 -1      8810 9.76050E+00 1.23673E+01 2.70297E-04-7.65246E+00-4.84291E-07-6.81894E-06
 -1      8811 7.59896E+00 1.38461E+01-4.64226E-05-7.94266E+00 7.15889E-06-9.77695E-06
 -1      8812 1.06864E+01 1.54104E+01 1.93887E-04-6.86918E+00 6.79770E-06-3.44274E-05
 -1      8813 9.77809E+00 1.23497E+01 2.53081E-04-7.69138E+00 1.71005E-06-5.93362E-06
 -1      8814 7.61385E+00 1.38312E+01-5.93115E-05-8.00526E+00 3.26919E-06-1.81772E-05
 -1      8815 1.07157E+01 1.53811E+01 1.75134E-04-6.93287E+00 2.22847E-05-7.59956E-06
 -1      8816 9.81331E+00 1.23145E+01 2.62862E-04-7.76920E+00-4.56886E-06-1.97402E-05
 -1      8817 1.33077E+01 9.72718E+00 2.49621E-04-5.96926E+00 2.68615E-06 1.24604E-05
 -1      8818 1.15292E+01 1.10509E+01-5.53418E-05-6.82723E+00-3.30030E-06 2.04473E-05
 -1      8819 1.40648E+01 1.31044E+01 1.93105E-04-5.36166E+00-1.92404E-05 1.75868E-05
 -1      8820 1.32473E+01 9.78756E+00 2.53797E-04-5.91134E+00-4.28149E-07 4.91980E-06
 -1      8821 1.14933E+01 1.10868E+01-4.13517E-05-6.77629E+00-6.91675E-06 1.37364E-05
 -1      8822 1.40150E+01 1.31542E+01 2.19469E-04-5.31415E+00-2.60796E-06 3.71536E-05
 -1      8823 1.32171E+01 9.81774E+00 2.68962E-04-5.88236E+00 8.12771E-07 6.59135E-06
 -1      8824 1.14814E+01 1.10987E+01-3.33037E-05-6.75930E+00 1.36762E-12 3.52284E-13
 -1      8825 1.39984E+01 1.31707E+01 2.34144E-04-5.29831E+00 1.58274E-12-3.28274E-13
 -1      8826 1.32171E+01 9.81774E+00 2.68962E-04-5.88236E+00-8.12767E-07-6.59135E-06
 -1      8827 1.14933E+01 1.10868E+01-4.13517E-05-6.77629E+00 6.91675E-06-1.37364E-05
 -1      8828 1.40150E+01 1.31542E+01 2.19469E-04-5.31415E+00 2.60796E-06-3.71536E-05
 -1      8829 1.32473E+01 9.78756E+00 2.53797E-04-5.91134E+00 4.28151E-07-4.91980E-06
 -1      8830 1.15292E+01 1.10509E+01-5.53418E-05-6.82723E+00 3.30031E-06-2.04473E-05
 -1      8831 1.40648E+01 1.31044E+01 1.93105E-04-5.36166E+00 1.92404E-05-1.75868E-05
 -1      8832 1.33077E+01 9.72718E+00 2.49621E-04-5.96926E+00-2.68615E-06-1.24604E-05
 -1      8833 1.55587E+01 7.98092E+00 2.47564E-04-3.23594E+00 1.50305E-06 7.37565E-06
 -1      8834 1.43899E+01 8.89660E+00-5.74032E-05-4.57585E+00-1.75306E-06 2.31092E-05
 -1      8835 1.62218E+01 1.15516E+01 2.04231E-04-2.91666E+00-1.66023E-05 2.40998E-05
 -1      8836 1.54815E+01 8.05808E+00 2.62734E-04-3.20525E+00-5.86639E-07 4.39038E-06
 -1      8837 1.43383E+01 8.94818E+00-4.19953E-05-4.54260E+00-5.39942E-06 1.71204E-05
 -1      8838 1.61582E+01 1.16151E+01 2.36482E-04-2.89142E+00 2.59066E-06 3.75414E-05
 -1      8839 1.54429E+01 8.09665E+00 2.74743E-04-3.18990E+00 1.31458E-06 6.03212E-06
 -1      8840 1.43211E+01 8.96538E+00-3.33843E-05-4.53151E+00 1.33231E-12-2.05521E-13
 -1      8841 1.61370E+01 1.16363E+01 2.52073E-04-2.88301E+00 3.52177E-13 4.09035E-13
 -1      8842 1.54429E+01 8.09665E+00 2.74743E-04-3.18990E+00-1.31458E-06-6.03212E-06
 -1      8843 1.43383E+01 8.94818E+00-4.19953E-05-4.54260E+00 5.39942E-06-1.71204E-05
 -1      8844 1.61582E+01 1.16151E+01 2.36482E-04-2.89142E+00-2.59066E-06-3.75414E-05
 -1      8845 1.54815E+01 8.05808E+00 2.62734E-04-3.20525E+00 5.86640E-07-4.39038E-06
 -1      8846 1.43899E+01 8.89660E+00-5.74032E-05-4.57585E+00 1.75306E-06-2.31092E-05
 -1      8847 1.62218E+01 1.15516E+01 2.04231E-04-2.91666E+00 1.66023E-05-2.40998E-05
 -1      8848 1.55587E+01 7.98092E+00 2.47564E-04-3.23594E+00-1.50305E-06-7.37565E-06
 -1      8849 1.62864E+01 7.37274E+00 2.45953E-04-6.21696E-03 1.53277E-07 4.06886E-06
 -1      8850 1.58732E+01 7.72582E+00-5.98443E-05-1.61247E+00 1.64905E-06 2.46278E-05
 -1      8851 1.69139E+01 1.10100E+01 2.09661E-04-2.79035E-03-1.72171E-05 2.96969E-05
 -1      8852 1.62035E+01 7.45567E+00 2.71158E-04-7.05037E-03-1.72458E-06 4.52688E-06
 -1      8853 1.58131E+01 7.78587E+00-4.39728E-05-1.60126E+00-3.16145E-06 1.94873E-05
 -1      8854 1.68455E+01 1.10783E+01 2.46017E-04-3.45391E-03 9.06272E-06 3.59698E-05
 -1      8855 1.61620E+01 7.49713E+00 2.78941E-04-7.46502E-03 2.00365E-06 5.08263E-06
 -1      8856 1.57931E+01 7.80589E+00-3.47838E-05-1.59752E+00 1.55392E-13 5.04957E-13
 -1      8857 1.68227E+01 1.11011E+01 2.61623E-04-3.68299E-03 8.55004E-13-7.55788E-13
 -1      8858 1.61620E+01 7.49713E+00 2.78941E-04-7.46502E-03-2.00365E-06-5.08263E-06
 -1      8859 1.58131E+01 7.78587E+00-4.39728E-05-1.60126E+00 3.16145E-06-1.94873E-05
 -1      8860 1.68455E+01 1.10783E+01 2.46017E-04-3.45391E-03-9.06271E-06-3.59698E-05
 -1      8861 1.62035E+01 7.45567E+00 2.71158E-04-7.05037E-03 1.72458E-06-4.52688E-06
 -1      8862 1.58732E+01 7.72582E+00-5.98443E-05-1.61247E+00-1.64905E-06-2.46278E-05
 -1      8863 1.69139E+01 1.10100E+01 2.09661E-04-2.79035E-03 1.72171E-05-2.96969E-05
 -1      8864 1.62864E+01 7.37274E+00 2.45953E-04-6.21696E-03-1.53277E-07-4.06887E-06
 -1      8865 1.53842E+01 8.01229E+00 2.40157E-04 3.18012E+00-1.23997E-06 2.23860E-06
 -1      8866 1.57866E+01 7.74100E+00-6.12047E-05 1.57643E+00 6.43721E-06 2.42032E-05
 -1      8867 1.60327E+01 1.15889E+01 2.09794E-04 2.87079E+00-2.22145E-05 3.70131E-05
 -1      8868 1.53077E+01 8.08879E+00 2.76763E-04 3.14777E+00-3.44120E-06 5.52346E-06
 -1      8869 1.57268E+01 7.80082E+00-4.55324E-05 1.56399E+00-8.20260E-07 2.09687E-05
 -1      8870 1.59695E+01 1.16520E+01 2.49313E-04 2.84417E+00 1.75108E-05 3.14488E-05
 -1      8871 1.52695E+01 8.12704E+00 2.78464E-04 3.13160E+00 2.95882E-06 3.54217E-06
 -1      8872 1.57069E+01 7.82075E+00-3.56906E-05 1.55984E+00 1.62053E-12-5.43253E-13
 -1      8873 1.59485E+01 1.16730E+01 2.64090E-04 2.83528E+00 1.44678E-12 6.31311E-14
 -1      8874 1.52695E+01 8.12704E+00 2.78464E-04 3.13160E+00-2.95882E-06-3.54217E-06
 -1      8875 1.57268E+01 7.80082E+00-4.55324E-05 1.56399E+00 8.20263E-07-2.09687E-05
 -1      8876 1.59695E+01 1.16520E+01 2.49313E-04 2.84417E+00-1.75108E-05-3.14488E-05
 -1      8877 1.53077E+01 8.08879E+00 2.76763E-04 3.14777E+00 3.44120E-06-5.52346E-06
 -1      8878 1.57866E+01 7.74100E+00-6.12047E-05 1.57643E+00-6.43721E-06-2.42032E-05
 -1      8879 1.60327E+01 1.15889E+01 2.09794E-04 2.87079E+00 2.22145E-05-3.70131E-05
 -1      8880 1.53842E+01 8.01229E+00 2.40157E-04 3.18012E+00 1.23997E-06-2.23860E-06
 -1      8881 1.29639E+01 9.78832E+00 2.27418E-04 5.76363E+00-2.46644E-06 1.36722E-06
 -1      8882 1.41330E+01 8.94120E+00-6.11219E-05 4.44376E+00 1.21704E-05 2.12286E-05
 -1      8883 1.36802E+01 1.31864E+01 2.04594E-04 5.17263E+00-3.29825E-05 5.01458E-05
 -1      8884 1.29053E+01 9.84686E+00 2.79989E-04 5.70446E+00-5.49659E-06 7.64378E-06
 -1      8885 1.40823E+01 8.99187E+00-4.65857E-05 4.40942E+00 1.20541E-06 2.19882E-05
 -1      8886 1.36319E+01 1.32347E+01 2.46725E-04 5.12387E+00 2.86628E-05 2.20085E-05
 -1      8887 1.28760E+01 9.87612E+00 2.72186E-04 5.67486E+00 4.21924E-06 9.76719E-07
 -1      8888 1.40654E+01 9.00875E+00-3.58963E-05 4.39797E+00 1.03880E-12-9.07833E-13
 -1      8889 1.36158E+01 1.32508E+01 2.59860E-04 5.10759E+00 1.25568E-12-1.01801E-12
 -1      8890 1.28760E+01 9.87612E+00 2.72186E-04 5.67486E+00-4.21924E-06-9.76721E-07
 -1      8891 1.40823E+01 8.99187E+00-4.65857E-05 4.40942E+00-1.20540E-06-2.19882E-05
 -1      8892 1.36319E+01 1.32347E+01 2.46725E-04 5.12387E+00-2.86628E-05-2.20085E-05
 -1      8893 1.29053E+01 9.84686E+00 2.79989E-04 5.70446E+00 5.49659E-06-7.64378E-06
 -1      8894 1.41330E+01 8.94120E+00-6.11219E-05 4.44376E+00-1.21704E-05-2.12286E-05
 -1      8895 1.36802E+01 1.31864E+01 2.04594E-04 5.17263E+00 3.29825E-05-5.01458E-05
 -1      8896 1.29639E+01 9.78832E+00 2.27418E-04 5.76363E+00 2.46644E-06-1.36722E-06
 -1      8897 9.35492E+00 1.23756E+01 2.05314E-04 7.25902E+00-3.36208E-06 9.64115E-07
 -1      8898 1.11322E+01 1.11091E+01-5.95823E-05 6.46973E+00 1.82887E-05 1.50192E-05
 -1      8899 1.01694E+01 1.54951E+01 1.92667E-04 6.44039E+00-5.18409E-05 7.64075E-05
 -1      8900 9.32336E+00 1.24072E+01 2.83150E-04 7.18183E+00-7.82359E-06 1.12641E-05
 -1      8901 1.10984E+01 1.11429E+01-4.68583E-05 6.41856E+00 2.54351E-06 2.33300E-05
 -1      8902 1.01432E+01 1.55211E+01 2.39768E-04 6.37675E+00 4.32206E-05 4.46669E-06
 -1      8903 9.30756E+00 1.24229E+01 2.59822E-04 7.14322E+00 5.79290E-06-3.37608E-06
 -1      8904 1.10871E+01 1.11542E+01-3.48235E-05 6.40151E+00 7.55495E-13-1.17161E-12
 -1      8905 1.01346E+01 1.55299E+01 2.50481E-04 6.35549E+00 8.55859E-13-1.27406E-12
 -1      8906 9.30756E+00 1.24229E+01 2.59822E-04 7.14322E+00-5.79290E-06 3.37608E-06
 -1      8907 1.10984E+01 1.11429E+01-4.68583E-05 6.41856E+00-2.54350E-06-2.33300E-05
 -1      8908 1.01432E+01 1.55211E+01 2.39768E-04 6.37675E+00-4.32206E-05-4.46669E-06
 -1      8909 9.32336E+00 1.24072E+01 2.83150E-04 7.18183E+00 7.82359E-06-1.12641E-05
 -1      8910 1.11322E+01 1.11091E+01-5.95823E-05 6.46973E+00-1.82887E-05-1.50192E-05
 -1      8911 1.01694E+01 1.54951E+01 1.92667E-04 6.44039E+00 5.18409E-05-7.64075E-05
 -1      8912 9.35492E+00 1.23756E+01 2.05314E-04 7.25902E+00 3.36208E-06-9.64116E-07
 -1      8913 5.06344E+00 1.52798E+01 1.69242E-04 7.33856E+00-3.18451E-06 7.97086E-07
 -1      8914 7.20000E+00 1.38369E+01-5.62208E-05 7.25000E+00 2.49806E-05 3.64094E-06
 -1      8915 5.98340E+00 1.80456E+01 1.74365E-04 6.36150E+00-7.89217E-05 1.26271E-04
 -1      8916 5.06386E+00 1.52794E+01 2.89394E-04 7.25506E+00-1.00712E-05 1.73936E-05
 -1      8917 7.18830E+00 1.38486E+01-4.78473E-05 7.18970E+00 3.32218E-06 2.57282E-05
 -1      8918 5.98360E+00 1.80453E+01 2.24444E-04 6.29262E+00 6.25931E-05-2.86499E-05
 -1      8919 5.06403E+00 1.52792E+01 2.40231E-04 7.21330E+00 7.77453E-06-1.07160E-05
 -1      8920 7.18438E+00 1.38524E+01-3.36948E-05 7.16961E+00 6.39161E-13-1.37066E-12
 -1      8921 5.98380E+00 1.80452E+01 2.30991E-04 6.26961E+00 2.81844E-13-1.71621E-12
 -1      8922 5.06403E+00 1.52792E+01 2.40231E-04 7.21330E+00-7.77453E-06 1.07159E-05
 -1      8923 7.18830E+00 1.38486E+01-4.78473E-05 7.18970E+00-3.32218E-06-2.57282E-05
 -1      8924 5.98360E+00 1.80453E+01 2.24444E-04 6.29262E+00-6.25931E-05 2.86499E-05
 -1      8925 5.06386E+00 1.52794E+01 2.89394E-04 7.25506E+00 1.00712E-05-1.73936E-05
 -1      8926 7.20000E+00 1.38369E+01-5.62208E-05 7.25000E+00-2.49806E-05-3.64095E-06
 -1      8927 5.98340E+00 1.80456E+01 1.74365E-04 6.36150E+00 7.89217E-05-1.26271E-04
 -1      8928 5.06344E+00 1.52798E+01 1.69242E-04 7.33856E+00 3.18451E-06-7.97087E-07
 -1      8929 7.00845E-01 1.79106E+01 1.14518E-04 5.89185E+00-1.85950E-06 5.64945E-07
 -1      8930 2.89247E+00 1.65849E+01-5.25999E-05 6.56684E+00 2.90853E-05-1.31444E-05
 -1      8931 1.70873E+00 2.02763E+01 1.38334E-04 4.83023E+00-1.21064E-04 2.28188E-04
 -1      8932 7.33323E-01 1.78783E+01 3.05697E-04 5.81493E+00-1.23974E-05 2.69939E-05
 -1      8933 2.90481E+00 1.65726E+01-4.60238E-05 6.50664E+00 2.63644E-06 3.21584E-05
 -1      8934 1.73536E+00 2.02495E+01 2.13776E-04 4.76674E+00 8.53741E-05-8.30481E-05
 -1      8935 7.49520E-01 1.78620E+01 2.12579E-04 5.77646E+00 1.02679E-05-2.34017E-05
 -1      8936 2.90887E+00 1.65685E+01-2.74457E-05 6.48658E+00 1.58534E-13-1.32987E-12
 -1      8937 1.74450E+00 2.02406E+01 2.18325E-04 4.74552E+00 1.29412E-13-1.12658E-12
 -1      8938 7.49520E-01 1.78620E+01 2.12579E-04 5.77646E+00-1.02679E-05 2.34017E-05
 -1      8939 2.90481E+00 1.65726E+01-4.60238E-05 6.50664E+00-2.63644E-06-3.21584E-05
 -1      8940 1.73536E+00 2.02495E+01 2.13776E-04 4.76674E+00-8.53741E-05 8.30481E-05
 -1      8941 7.33323E-01 1.78783E+01 3.05697E-04 5.81493E+00 1.23974E-05-2.69939E-05
 -1      8942 2.89247E+00 1.65849E+01-5.25999E-05 6.56684E+00-2.90853E-05 1.31444E-05
 -1      8943 1.70873E+00 2.02763E+01 1.38334E-04 4.83023E+00 1.21064E-04-2.28188E-04
 -1      8944 7.00845E-01 1.79106E+01 1.14518E-04 5.89185E+00 1.85950E-06-5.64946E-07
 -1      8945-3.10315E+00 1.96713E+01 1.59021E-05 3.05646E+00 6.64116E-06 5.78239E-07
 -1      8946-1.17308E+00 1.87630E+01-3.95938E-05 4.43403E+00 3.75361E-05-4.81854E-05
 -1      8947-2.04694E+00 2.16175E+01 1.04711E-04 1.97691E+00-1.49844E-04 3.95098E-04
 -1      8948-3.04368E+00 1.96120E+01 3.29650E-04 2.99820E+00-1.17017E-05 4.46428E-05
 -1      8949-1.13859E+00 1.87285E+01-5.33561E-05 4.38329E+00 4.62795E-06 3.99870E-05
 -1      8950-1.99808E+00 2.15683E+01 1.51362E-04 1.92884E+00 1.16850E-04-1.92981E-04
 -1      8951-3.01399E+00 1.95822E+01 1.61717E-04 2.96905E+00 1.41599E-05-4.51448E-05
 -1      8952-1.12716E+00 1.87170E+01-3.01795E-05 4.36638E+00-1.89517E-13-1.30941E-12
 -1      8953-1.98129E+00 2.15520E+01 1.44922E-04 1.91275E+00-4.56086E-13-1.55791E-12
 -1      8954-3.01399E+00 1.95822E+01 1.61717E-04 2.96905E+00-1.41599E-05 4.51448E-05
 -1      8955-1.13859E+00 1.87285E+01-5.33561E-05 4.38329E+00-4.62795E-06-3.99870E-05
 -1      8956-1.99808E+00 2.15683E+01 1.51362E-04 1.92884E+00-1.16850E-04 1.92981E-04
 -1      8957-3.04368E+00 1.96120E+01 3.29650E-04 2.99820E+00 1.17017E-05-4.46428E-05
 -1      8958-1.17308E+00 1.87630E+01-3.95938E-05 4.43403E+00-3.75361E-05 4.81854E-05
 -1      8959-2.04694E+00 2.16175E+01 1.04711E-04 1.97691E+00 1.49844E-04-3.95098E-04
 -1      8960-3.10315E+00 1.96713E+01 1.59021E-05 3.05646E+00-6.64116E-06-5.78240E-07
 -1      8961-5.79437E+00 2.00549E+01-1.24851E-04-7.79132E-01 2.02041E-05 3.81790E-06
 -1      8962-4.40817E+00 1.98226E+01-4.39169E-05 1.11318E+00 1.16639E-05-7.50517E-05
 -1      8963-4.74028E+00 2.15812E+01-2.19689E-05-1.82774E+00-2.35117E-04 7.94767E-04
 -1      8964-5.71777E+00 1.99786E+01 3.87368E-04-8.09639E-01-3.43568E-06 7.71846E-05
 -1      8965-4.35708E+00 1.97716E+01-2.19235E-05 1.07985E+00-4.97940E-06 7.27288E-05
 -1      8966-4.67746E+00 2.15177E+01 2.23799E-04-1.85268E+00 1.26985E-04-3.02883E-04
 -1      8967-5.67957E+00 1.99401E+01 8.53784E-05-8.24914E-01 2.38231E-05-8.39487E-05
 -1      8968-4.34017E+00 1.97546E+01 2.14800E-05 1.06874E+00-5.28226E-13-1.49787E-12
 -1      8969-4.65562E+00 2.14968E+01 2.69631E-04-1.86106E+00-2.00466E-13-1.68691E-12
 -1      8970-5.67957E+00 1.99401E+01 8.53784E-05-8.24914E-01-2.38231E-05 8.39487E-05
 -1      8971-4.35708E+00 1.97716E+01-2.19235E-05 1.07985E+00 4.97940E-06-7.27288E-05
 -1      8972-4.67746E+00 2.15177E+01 2.23799E-04-1.85268E+00-1.26985E-04 3.02883E-04
 -1      8973-5.71777E+00 1.99786E+01 3.87368E-04-8.09639E-01 3.43568E-06-7.71846E-05
 -1      8974-4.40817E+00 1.98226E+01-4.39169E-05 1.11318E+00-1.16639E-05 7.50517E-05
 -1      8975-4.74028E+00 2.15812E+01-2.19689E-05-1.82774E+00 2.35117E-04-7.94767E-04
 -1      8976-5.79437E+00 2.00549E+01-1.24851E-04-7.79132E-01-2.02041E-05-3.81790E-06
 -1      8977-6.99564E+00 1.87470E+01-5.35984E-04-4.99957E+00 8.04133E-05-4.70153E-06
 -1      8978-6.34991E+00 1.93557E+01 7.31627E-05-2.89755E+00 6.86035E-05-2.26454E-04
 -1      8979-5.98405E+00 1.98581E+01 1.13614E-04-5.98982E+00 6.80569E-06 1.19481E-03
 -1      8980-6.91548E+00 1.86673E+01 3.61681E-04-4.99885E+00 4.03422E-05 1.77419E-04
 -1      8981-6.29105E+00 1.92969E+01-8.24924E-05-2.90876E+00 2.56605E-05 6.02479E-05
 -1      8982-5.91938E+00 1.97915E+01-2.45859E-04-5.98839E+00 2.06389E-04-6.18114E-04
 -1      8983-6.87551E+00 1.86270E+01-1.47610E-04-4.99851E+00 4.53989E-05-1.37543E-04
 -1      8984-6.27162E+00 1.92773E+01-5.66719E-05-2.91248E+00-6.75086E-13-1.58647E-12
 -1      8985-5.89614E+00 1.97698E+01-2.40843E-04-5.98797E+00-6.87222E-13-1.83678E-12
 -1      8986-6.87551E+00 1.86270E+01-1.47610E-04-4.99851E+00-4.53989E-05 1.37543E-04
 -1      8987-6.29105E+00 1.92969E+01-8.24924E-05-2.90876E+00-2.56605E-05-6.02479E-05
 -1      8988-5.91938E+00 1.97915E+01-2.45859E-04-5.98839E+00-2.06389E-04 6.18114E-04
 -1      8989-6.91548E+00 1.86673E+01 3.61681E-04-4.99885E+00-4.03422E-05-1.77419E-04
 -1      8990-6.34991E+00 1.93557E+01 7.31627E-05-2.89755E+00-6.86035E-05 2.26454E-04
 -1      8991-5.98405E+00 1.98581E+01 1.13614E-04-5.98982E+00-6.80569E-06-1.19481E-03
 -1      8992-6.99564E+00 1.87470E+01-5.35984E-04-4.99957E+00-8.04133E-05 4.70152E-06
 -1      8993-6.62235E+00 1.57325E+01-7.07334E-04-8.83570E+00 2.09963E-04 2.04075E-05
 -1      8994-6.76755E+00 1.71971E+01-1.15354E-04-6.91311E+00-3.32313E-04-2.50748E-05
 -1      8995-5.65860E+00 1.64291E+01-6.78521E-04-9.75106E+00-3.90471E-04 3.32284E-03
 -1      8996-6.55310E+00 1.56640E+01 7.37960E-04-8.80937E+00 4.31982E-04 5.57635E-04
 -1      8997-6.71100E+00 1.71412E+01 3.04165E-04-6.90272E+00-1.55724E-04 2.75895E-04
 -1      8998-5.60652E+00 1.63727E+01 1.01578E-03-9.72767E+00 1.62962E-04 3.42814E-04
 -1      8999-6.51920E+00 1.56289E+01-1.19331E-04-8.79635E+00 2.57632E-04-1.45561E-04
 -1      9000-6.69259E+00 1.71224E+01 4.66333E-04-6.89920E+00-9.03973E-13-1.95154E-12
 -1      9001-5.58628E+00 1.63549E+01 1.97000E-03-9.72002E+00-8.54487E-13-2.14414E-12
 -1      9002-6.51920E+00 1.56289E+01-1.19331E-04-8.79635E+00-2.57632E-04 1.45561E-04
 -1      9003-6.71100E+00 1.71412E+01 3.04165E-04-6.90272E+00 1.55724E-04-2.75895E-04
 -1      9004-5.60652E+00 1.63727E+01 1.01578E-03-9.72767E+00-1.62962E-04-3.42814E-04
 -1      9005-6.55310E+00 1.56640E+01 7.37960E-04-8.80937E+00-4.31982E-04-5.57635E-04
 -1      9006-6.76755E+00 1.71971E+01-1.15354E-04-6.91311E+00 3.32313E-04 2.50748E-05
 -1      9007-5.65860E+00 1.64291E+01-6.78521E-04-9.75106E+00 3.90471E-04-3.32284E-03
 -1      9008-6.62235E+00 1.57325E+01-7.07334E-04-8.83570E+00-2.09963E-04-2.04075E-05
 -1      9009-4.98569E+00 1.13557E+01-3.39642E-03-1.15687E+01 7.31401E-05-1.97601E-03
 -1      9010-5.76748E+00 1.35051E+01 8.75240E-04-1.01971E+01 3.89789E-04-1.58502E-03
 -1      9011-4.03320E+00 1.16666E+01 7.78982E-06-1.23827E+01 2.86500E-03-1.38536E-03
 -1      9012-4.93315E+00 1.13067E+01-1.60332E-03-1.15344E+01 8.25605E-04-3.36610E-04
 -1      9013-5.72199E+00 1.34599E+01-1.28815E-03-1.01732E+01-1.76481E-04-8.74652E-04
 -1      9014-4.00665E+00 1.16238E+01-8.93690E-03-1.23519E+01 1.23450E-03-2.13681E-03
 -1      9015-4.90805E+00 1.12811E+01-3.23096E-03-1.15173E+01 5.58427E-04-6.66492E-04
 -1      9016-5.70741E+00 1.34447E+01-1.94532E-03-1.01650E+01-1.28881E-12-2.38774E-12
 -1      9017-3.99330E+00 1.16116E+01-9.54061E-03-1.23418E+01-1.21602E-12-3.09258E-12
 -1      9018-4.90805E+00 1.12811E+01-3.23096E-03-1.15173E+01-5.58427E-04 6.66492E-04
 -1      9019-5.72199E+00 1.34599E+01-1.28815E-03-1.01732E+01 1.76480E-04 8.74652E-04
 -1      9020-4.00665E+00 1.16238E+01-8.93690E-03-1.23519E+01-1.23450E-03 2.13681E-03
 -1      9021-4.93315E+00 1.13067E+01-1.60332E-03-1.15344E+01-8.25605E-04 3.36610E-04
 -1      9022-5.76748E+00 1.35051E+01 8.75240E-04-1.01971E+01-3.89789E-04 1.58502E-03
 -1      9023-4.03320E+00 1.16666E+01 7.78982E-06-1.23827E+01-2.86500E-03 1.38536E-03
 -1      9024-4.98569E+00 1.13557E+01-3.39642E-03-1.15687E+01-7.31401E-05 1.97601E-03
 -1      9025-2.71101E+00 6.13742E+00 1.47857E-03-1.29798E+01-2.08425E-02-5.38843E-03
 -1      9026-3.80194E+00 8.70558E+00-2.73528E-03-1.22754E+01-1.01401E-02 1.40553E-03
 -1      9027-1.73098E+00 6.22179E+00-9.75193E-03-1.36602E+01-4.47722E-02-1.39991E-02
 -1      9028-2.63646E+00 6.12010E+00 2.48964E-02-1.29385E+01-3.31453E-02 1.39464E-02
 -1      9029-3.76273E+00 8.67800E+00 1.31243E-03-1.22451E+01-7.91154E-03-2.56674E-04
 -1      9030-1.69080E+00 6.21539E+00 1.49062E-02-1.36066E+01-3.23064E-02 7.66929E-03
 -1      9031-2.62554E+00 6.10904E+00 4.92106E-02-1.29054E+01-1.45020E-02 9.34237E-03
 -1      9032-3.75081E+00 8.66840E+00 1.39860E-03-1.22337E+01-2.53106E-12-3.10787E-12
 -1      9033-1.69104E+00 6.21120E+00 2.94683E-02-1.35860E+01-3.50888E-12-5.54562E-12
 -1      9034-2.62554E+00 6.10904E+00 4.92106E-02-1.29054E+01 1.45020E-02-9.34237E-03
 -1      9035-3.76273E+00 8.67800E+00 1.31243E-03-1.22451E+01 7.91154E-03 2.56674E-04
 -1      9036-1.69080E+00 6.21539E+00 1.49062E-02-1.36066E+01 3.23064E-02-7.66929E-03
 -1      9037-2.63646E+00 6.12010E+00 2.48964E-02-1.29385E+01 3.31453E-02-1.39464E-02
 -1      9038-3.80194E+00 8.70558E+00-2.73528E-03-1.22754E+01 1.01401E-02-1.40553E-03
 -1      9039-1.73098E+00 6.22179E+00-9.75193E-03-1.36602E+01 4.47722E-02 1.39991E-02
 -1      9040-2.71101E+00 6.13742E+00 1.47857E-03-1.29798E+01 2.08425E-02 5.38843E-03
 -1      9041-1.32853E+00 3.12871E+00 2.25801E-02-1.33940E+01-3.13664E-02 6.67283E-02
 -1      9042-1.40737E+00 3.09208E+00 3.93361E-02-1.33258E+01-2.31549E-02 4.67809E-02
 -1      9043-1.43100E+00 3.08126E+00 4.48721E-02-1.33049E+01-2.72986E-12-2.82067E-12
 -1      9044-1.40737E+00 3.09208E+00 3.93361E-02-1.33258E+01 2.31549E-02-4.67809E-02
 -1      9045-1.32853E+00 3.12871E+00 2.25801E-02-1.33940E+01 3.13664E-02-6.67283E-02
 -1      9046-3.29680E+00-1.06732E+01-1.08618E-02 1.15136E+01 9.55609E-03-1.63508E-02
 -1      9047-1.28605E+00-1.33916E+01 1.06690E-03 5.94291E+00-1.66257E-02-4.72741E-02
 -1      9048-3.65149E+00-1.24415E+01-2.87549E-02 1.26614E+01 2.21666E-02-3.84993E-02
 -1      9049-3.38339E+00-1.05846E+01-4.12318E-02 1.12990E+01 1.45918E-02-2.85256E-02
 -1      9050-1.31224E+00-1.32427E+01 1.01224E-02 5.83654E+00-1.27272E-02-3.50461E-02
 -1      9051-3.69521E+00-1.23633E+01-6.85949E-02 1.24563E+01 1.60868E-02-3.25731E-02
 -1      9052-3.41329E+00-1.05372E+01-6.45842E-02 1.11883E+01 6.13514E-03-1.30321E-02
 -1      9053-1.31809E+00-1.31931E+01 1.37997E-02 5.80188E+00 1.49362E-12 2.33762E-12
 -1      9054-3.70528E+00-1.23361E+01-8.44181E-02 1.23877E+01-9.85635E-14 1.97673E-12
 -1      9055-3.41329E+00-1.05372E+01-6.45842E-02 1.11883E+01-6.13514E-03 1.30321E-02
 -1      9056-1.31224E+00-1.32427E+01 1.01224E-02 5.83654E+00 1.27272E-02 3.50461E-02
 -1      9057-3.69521E+00-1.23633E+01-6.85949E-02 1.24563E+01-1.60868E-02 3.25731E-02
 -1      9058-3.38339E+00-1.05846E+01-4.12318E-02 1.12990E+01-1.45918E-02 2.85256E-02
 -1      9059-1.28605E+00-1.33916E+01 1.06690E-03 5.94291E+00 1.66257E-02 4.72741E-02
 -1      9060-3.65149E+00-1.24415E+01-2.87549E-02 1.26614E+01-2.21666E-02 3.84993E-02
 -1      9061-3.29680E+00-1.06732E+01-1.08618E-02 1.15136E+01-9.55609E-03 1.63508E-02
 -1      9062-1.02787E+01 1.77571E+00-1.40279E-03 1.40502E+01 1.19249E-03-4.02663E-04
 -1      9063-6.85875E+00-4.34950E+00 2.72770E-03 1.27476E+01 4.59757E-05-3.61851E-03
 -1      9064-1.07931E+01 1.68244E+00-3.14806E-04 1.51821E+01-6.42715E-04 1.38580E-03
 -1      9065-1.02151E+01 1.71116E+00-1.40813E-03 1.38748E+01 7.19828E-04 6.29991E-04
 -1      9066-6.86392E+00-4.34220E+00-3.57893E-03 1.26063E+01-3.94867E-04-3.74557E-03
 -1      9067-1.07304E+01 1.61726E+00 2.21981E-03 1.50301E+01-3.03667E-04 1.16880E-03
 -1      9068-1.01847E+01 1.67868E+00-1.16368E-03 1.37878E+01 4.66454E-05 4.47532E-04
 -1      9069-6.86412E+00-4.33934E+00-5.81551E-03 1.25588E+01 8.63024E-13 1.17119E-12
 -1      9070-1.07103E+01 1.59521E+00 2.50238E-03 1.49798E+01 2.75762E-12-2.64088E-12
 -1      9071-1.01847E+01 1.67868E+00-1.16368E-03 1.37878E+01-4.66454E-05-4.47532E-04
 -1      9072-6.86392E+00-4.34220E+00-3.57893E-03 1.26063E+01 3.94867E-04 3.74557E-03
 -1      9073-1.07304E+01 1.61726E+00 2.21981E-03 1.50301E+01 3.03667E-04-1.16880E-03
 -1      9074-1.02151E+01 1.71116E+00-1.40813E-03 1.38748E+01-7.19828E-04-6.29991E-04
 -1      9075-6.85875E+00-4.34950E+00 2.72770E-03 1.27476E+01-4.59757E-05 3.61851E-03
 -1      9076-1.07931E+01 1.68244E+00-3.14806E-04 1.51821E+01 6.42715E-04-1.38580E-03
 -1      9077-1.02787E+01 1.77571E+00-1.40279E-03 1.40502E+01-1.19249E-03 4.02663E-04
 -1      9078-1.43485E+01 1.22692E+01 5.32565E-04 9.89087E+00 3.86433E-04-1.75375E-04
 -1      9079-1.23222E+01 7.06217E+00-5.92591E-04 1.18804E+01-8.08120E-04 4.57635E-04
 -1      9080-1.44884E+01 1.30821E+01 1.32512E-03 1.05773E+01 6.50629E-04-1.63787E-04
 -1      9081-1.42143E+01 1.21353E+01 6.56899E-04 9.80835E+00 5.47477E-05 1.00701E-04
 -1      9082-1.22462E+01 6.98739E+00 6.76317E-04 1.17849E+01-3.07071E-04 1.31788E-04
 -1      9083-1.43704E+01 1.29629E+01 4.62276E-04 1.05126E+01 9.09490E-05 5.32247E-05
 -1      9084-1.41474E+01 1.20683E+01 8.06856E-04 9.76743E+00-5.73390E-05 6.64901E-05
 -1      9085-1.22210E+01 6.96227E+00 8.50135E-04 1.17530E+01 2.10810E-12 2.61483E-12
 -1      9086-1.43310E+01 1.29234E+01 4.90687E-04 1.04912E+01-1.59094E-12 2.36115E-12
 -1      9087-1.41474E+01 1.20683E+01 8.06856E-04 9.76743E+00 5.73390E-05-6.64900E-05
 -1      9088-1.22462E+01 6.98739E+00 6.76317E-04 1.17849E+01 3.07071E-04-1.31788E-04
 -1      9089-1.43704E+01 1.29629E+01 4.62276E-04 1.05126E+01-9.09490E-05-5.32247E-05
 -1      9090-1.42143E+01 1.21353E+01 6.56899E-04 9.80835E+00-5.47477E-05-1.00701E-04
 -1      9091-1.23222E+01 7.06217E+00-5.92591E-04 1.18804E+01 8.08120E-04-4.57635E-04
 -1      9092-1.44884E+01 1.30821E+01 1.32512E-03 1.05773E+01-6.50629E-04 1.63787E-04
 -1      9093-1.43485E+01 1.22692E+01 5.32565E-04 9.89087E+00-3.86433E-04 1.75375E-04
 -1      9094-1.41787E+01 1.76528E+01 9.28836E-04 3.46746E+00 2.19118E-04-9.02848E-05
 -1      9095-1.41968E+01 1.49133E+01-3.21651E-04 6.61012E+00-2.20075E-05-7.73976E-05
 -1      9096-1.37317E+01 1.88275E+01 3.85748E-04 3.94363E+00 7.17162E-05 5.19791E-05
 -1      9097-1.40473E+01 1.75214E+01 1.06993E-03 3.46560E+00 9.03636E-05-2.00301E-05
 -1      9098-1.40973E+01 1.48137E+01-5.99288E-04 6.57925E+00 4.07506E-06-3.92537E-05
 -1      9099-1.36218E+01 1.87178E+01 7.49477E-04 3.94776E+00-1.36596E-05 4.29306E-05
 -1      9100-1.39817E+01 1.74558E+01 1.06476E-03 3.46476E+00 1.96563E-05-4.55135E-06
 -1      9101-1.40641E+01 1.47806E+01-6.65708E-04 6.56898E+00 3.62320E-13 4.58393E-12
 -1      9102-1.35852E+01 1.86812E+01 8.07191E-04 3.94910E+00 9.61975E-13-2.14021E-12
 -1      9103-1.39817E+01 1.74558E+01 1.06476E-03 3.46476E+00-1.96563E-05 4.55135E-06
 -1      9104-1.40973E+01 1.48137E+01-5.99288E-04 6.57925E+00-4.07506E-06 3.92537E-05
 -1      9105-1.36218E+01 1.87178E+01 7.49477E-04 3.94776E+00 1.36596E-05-4.29306E-05
 -1      9106-1.40473E+01 1.75214E+01 1.06993E-03 3.46560E+00-9.03636E-05 2.00301E-05
 -1      9107-1.41968E+01 1.49133E+01-3.21651E-04 6.61012E+00 2.20075E-05 7.73976E-05
 -1      9108-1.37317E+01 1.88275E+01 3.85748E-04 3.94363E+00-7.17162E-05-5.19791E-05
 -1      9109-1.41787E+01 1.76528E+01 9.28836E-04 3.46746E+00-2.19118E-04 9.02848E-05
 -1      9110-1.10878E+01 1.87088E+01 6.80779E-04-2.33436E+00 1.03157E-04-1.34946E-05
 -1      9111-1.25486E+01 1.81026E+01-4.50871E-04 5.55369E-01-9.41048E-05 1.80917E-05
 -1      9112-1.02122E+01 2.01332E+01 5.29915E-04-1.79947E+00 1.09783E-04-3.56409E-05
 -1      9113-1.09885E+01 1.86096E+01 7.76440E-04-2.28856E+00 3.24284E-05-6.56073E-06
 -1      9114-1.24623E+01 1.80165E+01-3.74270E-04 5.72079E-01-2.32516E-05 1.18128E-05
 -1      9115-1.01325E+01 2.00534E+01 4.80907E-04-1.75811E+00 1.88724E-05-1.93284E-05
 -1      9116-1.09389E+01 1.85600E+01 7.58848E-04-2.26562E+00 9.82582E-06-8.24837E-06
 -1      9117-1.24336E+01 1.79877E+01-3.63693E-04 5.77663E-01 7.68070E-13 5.02068E-12
 -1      9118-1.01059E+01 2.00268E+01 4.75278E-04-1.74435E+00 8.32655E-14 3.77587E-12
 -1      9119-1.09389E+01 1.85600E+01 7.58848E-04-2.26562E+00-9.82582E-06 8.24838E-06
 -1      9120-1.24623E+01 1.80165E+01-3.74270E-04 5.72079E-01 2.32516E-05-1.18128E-05
 -1      9121-1.01325E+01 2.00534E+01 4.80907E-04-1.75811E+00-1.88724E-05 1.93284E-05
 -1      9122-1.09885E+01 1.86096E+01 7.76440E-04-2.28856E+00-3.24284E-05 6.56073E-06
 -1      9123-1.25486E+01 1.81026E+01-4.50871E-04 5.55369E-01 9.41048E-05-1.80917E-05
 -1      9124-1.02122E+01 2.01332E+01 5.29915E-04-1.79947E+00-1.09783E-04 3.56409E-05
 -1      9125-1.10878E+01 1.87088E+01 6.80779E-04-2.33436E+00-1.03157E-04 1.34946E-05
 -1      9126-6.56607E+00 1.70775E+01 4.24397E-04-6.52212E+00 5.65793E-05 1.84606E-05
 -1      9127-8.76316E+00 1.78295E+01-2.36764E-04-4.39787E+00-2.74921E-05-6.77500E-06
 -1      9128-5.50779E+00 1.88161E+01 4.23202E-04-5.84781E+00 2.95286E-05-9.04536E-06
 -1      9129-6.50344E+00 1.70149E+01 4.73436E-04-6.45353E+00 1.66359E-05-4.48896E-06
 -1      9130-8.70265E+00 1.77689E+01-2.69081E-04-4.35501E+00-2.95892E-06-1.92378E-06
 -1      9131-5.45870E+00 1.87670E+01 4.52598E-04-5.79003E+00-1.93605E-06 7.64335E-07
 -1      9132-6.47216E+00 1.69836E+01 4.55668E-04-6.41923E+00 6.36099E-06-4.91039E-06
 -1      9133-8.68250E+00 1.77488E+01-2.72432E-04-4.34071E+00 1.11928E-12 2.90970E-12
 -1      9134-5.44233E+00 1.87506E+01 4.43364E-04-5.77078E+00 1.32332E-12 6.48054E-13
 -1      9135-6.47216E+00 1.69836E+01 4.55668E-04-6.41923E+00-6.36099E-06 4.91039E-06
 -1      9136-8.70265E+00 1.77689E+01-2.69081E-04-4.35501E+00 2.95892E-06 1.92378E-06
 -1      9137-5.45870E+00 1.87670E+01 4.52598E-04-5.79003E+00 1.93605E-06-7.64337E-07
 -1      9138-6.50344E+00 1.70149E+01 4.73436E-04-6.45353E+00-1.66359E-05 4.48897E-06
 -1      9139-8.76316E+00 1.78295E+01-2.36764E-04-4.39787E+00 2.74921E-05 6.77500E-06
 -1      9140-5.50779E+00 1.88161E+01 4.23202E-04-5.84781E+00-2.95286E-05 9.04537E-06
 -1      9141-6.56607E+00 1.70775E+01 4.24397E-04-6.52212E+00-5.65793E-05-1.84606E-05
 -1      9142-1.53459E+00 1.40151E+01 2.98863E-04-8.96708E+00 3.42239E-05 2.11106E-05
 -1      9143-4.01591E+00 1.55099E+01-1.40180E-04-7.69682E+00-1.68075E-05 6.62842E-06
 -1      9144-4.68955E-01 1.61262E+01 3.62494E-04-8.20601E+00 1.17848E-05-1.53345E-05
 -1      9145-1.50584E+00 1.39863E+01 3.07742E-04-8.89018E+00 5.66392E-06-5.97854E-06
 -1      9146-3.98170E+00 1.54757E+01-1.37914E-04-7.64233E+00-1.15113E-06 2.30727E-06
 -1      9147-4.47035E-01 1.61043E+01 3.57939E-04-8.14274E+00-2.89816E-06 3.47007E-06
 -1      9148-1.49148E+00 1.39720E+01 2.98027E-04-8.85173E+00 1.63743E-06-2.91983E-06
 -1      9149-3.97031E+00 1.54643E+01-1.34994E-04-7.62417E+00-7.44538E-13 1.28275E-12
 -1      9150-4.39729E-01 1.60969E+01 3.51310E-04-8.12165E+00 6.45518E-13 1.52462E-12
 -1      9151-1.49148E+00 1.39720E+01 2.98027E-04-8.85173E+00-1.63743E-06 2.91983E-06
 -1      9152-3.98170E+00 1.54757E+01-1.37914E-04-7.64233E+00 1.15113E-06-2.30727E-06
 -1      9153-4.47035E-01 1.61043E+01 3.57939E-04-8.14274E+00 2.89816E-06-3.47007E-06
 -1      9154-1.50584E+00 1.39863E+01 3.07742E-04-8.89018E+00-5.66392E-06 5.97854E-06
 -1      9155-4.01591E+00 1.55099E+01-1.40180E-04-7.69682E+00 1.68075E-05-6.62842E-06
 -1      9156-4.68955E-01 1.61262E+01 3.62494E-04-8.20601E+00-1.17848E-05 1.53345E-05
 -1      9157-1.53459E+00 1.40151E+01 2.98863E-04-8.96708E+00-3.42239E-05-2.11106E-05
 -1      9158 3.46531E+00 1.03566E+01 2.59614E-04-9.74427E+00 2.37423E-05 1.47608E-05
 -1      9159 9.74530E-01 1.21745E+01-9.83461E-05-9.30528E+00-6.14696E-06 8.05520E-06
 -1      9160 4.45250E+00 1.28421E+01 2.82274E-04-8.99411E+00 1.99267E-06-1.19189E-05
 -1      9161 3.46346E+00 1.03585E+01 2.47040E-04-9.66859E+00 3.66822E-06-7.33028E-06
 -1      9162 9.84614E-01 1.21645E+01-9.79029E-05-9.24810E+00 2.01663E-07 1.04416E-06
 -1      9163 4.45011E+00 1.28445E+01 2.87480E-04-8.93232E+00-1.60529E-06 6.92899E-06
 -1      9164 3.46253E+00 1.03594E+01 2.45563E-04-9.63075E+00 1.03737E-06-8.38250E-07
 -1      9165 9.87973E-01 1.21611E+01-9.48111E-05-9.22904E+00 1.63354E-12 2.95799E-12
 -1      9166 4.44930E+00 1.28453E+01 2.85064E-04-8.91172E+00 1.02730E-12 2.72958E-13
 -1      9167 3.46253E+00 1.03594E+01 2.45563E-04-9.63075E+00-1.03737E-06 8.38254E-07
 -1      9168 9.84614E-01 1.21645E+01-9.79029E-05-9.24810E+00-2.01662E-07-1.04417E-06
 -1      9169 4.45011E+00 1.28445E+01 2.87480E-04-8.93232E+00 1.60529E-06-6.92899E-06
 -1      9170 3.46346E+00 1.03585E+01 2.47040E-04-9.66859E+00-3.66822E-06 7.33028E-06
 -1      9171 9.74530E-01 1.21745E+01-9.83461E-05-9.30528E+00 6.14696E-06-8.05520E-06
 -1      9172 4.45250E+00 1.28421E+01 2.82274E-04-8.99411E+00-1.99267E-06 1.19189E-05
 -1      9173 3.46531E+00 1.03566E+01 2.59614E-04-9.74427E+00-2.37423E-05-1.47608E-05
 -1      9174 8.00109E+00 6.73009E+00 2.46414E-04-8.96923E+00 1.56254E-05 6.63344E-06
 -1      9175 5.72263E+00 8.55229E+00-8.25164E-05-9.31137E+00-3.31186E-06 9.87070E-06
 -1      9176 8.88697E+00 9.54285E+00 2.36429E-04-8.32370E+00 1.77888E-07-1.08539E-05
 -1      9177 7.97222E+00 6.75895E+00 2.25684E-04-8.90296E+00 2.73907E-06-8.71607E-06
 -1      9178 5.71113E+00 8.56380E+00-7.75483E-05-9.25814E+00-4.92742E-07 1.43969E-06
 -1      9179 8.86296E+00 9.56687E+00 2.42028E-04-8.26965E+00 9.99377E-08 7.08304E-06
 -1      9180 7.95779E+00 6.77339E+00 2.31304E-04-8.86983E+00 6.08741E-07-1.11178E-07
 -1      9181 5.70729E+00 8.56763E+00-7.45949E-05-9.24040E+00 2.17120E-12-3.39906E-13
 -1      9182 8.85494E+00 9.57487E+00 2.43225E-04-8.25164E+00 7.03263E-13 1.48704E-12
 -1      9183 7.95779E+00 6.77339E+00 2.31304E-04-8.86983E+00-6.08737E-07 1.11179E-07
 -1      9184 5.71113E+00 8.56380E+00-7.75483E-05-9.25814E+00 4.92745E-07-1.43970E-06
 -1      9185 8.86296E+00 9.56687E+00 2.42028E-04-8.26965E+00-9.99357E-08-7.08305E-06
 -1      9186 7.97222E+00 6.75895E+00 2.25684E-04-8.90296E+00-2.73906E-06 8.71607E-06
 -1      9187 5.72263E+00 8.55229E+00-8.25164E-05-9.31137E+00 3.31186E-06-9.87070E-06
 -1      9188 8.88697E+00 9.54285E+00 2.36429E-04-8.32370E+00-1.77888E-07 1.08539E-05
 -1      9189 8.00109E+00 6.73009E+00 2.46414E-04-8.96923E+00-1.56254E-05-6.63344E-06
 -1      9190 1.16438E+01 3.67342E+00 2.43712E-04-6.83972E+00 9.40589E-06 8.40767E-07
 -1      9191 9.79687E+00 5.22627E+00-7.62984E-05-7.86872E+00-2.11918E-06 1.01213E-05
 -1      9192 1.24407E+01 6.73566E+00 2.12754E-04-6.37064E+00-5.35357E-08-1.03462E-05
 -1      9193 1.15931E+01 3.72412E+00 2.20810E-04-6.79047E+00 2.52951E-06-9.96913E-06
 -1      9194 9.76703E+00 5.25610E+00-7.10899E-05-7.82539E+00-5.44670E-07 2.03232E-06
 -1      9195 1.23990E+01 6.77732E+00 2.21034E-04-6.33044E+00 5.88131E-07 6.14010E-06
 -1      9196 1.15678E+01 3.74948E+00 2.31721E-04-6.76585E+00 3.01975E-08-6.94687E-08
 -1      9197 9.75708E+00 5.26605E+00-6.86877E-05-7.81095E+00 7.38472E-13-3.66398E-13
 -1      9198 1.23851E+01 6.79120E+00 2.24417E-04-6.31704E+00 1.61188E-12-3.01393E-12
 -1      9199 1.15678E+01 3.74948E+00 2.31721E-04-6.76585E+00-3.01947E-08 6.94627E-08
 -1      9200 9.76703E+00 5.25610E+00-7.10899E-05-7.82539E+00 5.44672E-07-2.03232E-06
 -1      9201 1.23990E+01 6.77732E+00 2.21034E-04-6.33044E+00-5.88129E-07-6.14011E-06
 -1      9202 1.15931E+01 3.72412E+00 2.20810E-04-6.79047E+00-2.52951E-06 9.96913E-06
 -1      9203 9.79687E+00 5.22627E+00-7.62984E-05-7.86872E+00 2.11918E-06-1.01213E-05
 -1      9204 1.24407E+01 6.73566E+00 2.12754E-04-6.37064E+00 5.35371E-08 1.03462E-05
 -1      9205 1.16438E+01 3.67342E+00 2.43712E-04-6.83972E+00-9.40589E-06-8.40766E-07
 -1      9206 1.39948E+01 1.63652E+00 2.45815E-04-3.69281E+00 4.37917E-06-2.59705E-06
 -1      9207 1.27833E+01 2.69032E+00-7.45764E-05-5.24357E+00-2.48905E-06 1.05214E-05
 -1      9208 1.47318E+01 4.85390E+00 2.03128E-04-3.44646E+00 2.48312E-07-1.02795E-05
 -1      9209 1.39297E+01 1.70159E+00 2.20376E-04-3.66678E+00 2.08788E-06-1.11241E-05
 -1      9210 1.27399E+01 2.73375E+00-6.92491E-05-5.21533E+00 1.98482E-07 2.93662E-06
 -1      9211 1.46785E+01 4.90724E+00 2.12488E-04-3.42519E+00 1.45432E-07 5.08927E-06
 -1      9212 1.38972E+01 1.73413E+00 2.36302E-04-3.65377E+00-1.42435E-06-9.56032E-08
 -1      9213 1.27254E+01 2.74823E+00-6.73743E-05-5.20592E+00 1.11622E-12 1.21585E-12
 -1      9214 1.46607E+01 4.92501E+00 2.17445E-04-3.41810E+00 3.73166E-13 3.86537E-12
 -1      9215 1.38972E+01 1.73413E+00 2.36302E-04-3.65377E+00 1.42435E-06 9.56060E-08
 -1      9216 1.27399E+01 2.73375E+00-6.92491E-05-5.21533E+00-1.98480E-07-2.93662E-06
 -1      9217 1.46785E+01 4.90724E+00 2.12488E-04-3.42519E+00-1.45431E-07-5.08927E-06
 -1      9218 1.39297E+01 1.70159E+00 2.20376E-04-3.66678E+00-2.08788E-06 1.11241E-05
 -1      9219 1.27833E+01 2.69032E+00-7.45764E-05-5.24357E+00 2.48905E-06-1.05214E-05
 -1      9220 1.47318E+01 4.85390E+00 2.03128E-04-3.44646E+00-2.48311E-07 1.02795E-05
 -1      9221 1.39948E+01 1.63652E+00 2.45815E-04-3.69281E+00-4.37917E-06 2.59705E-06
 -1      9222 1.47655E+01 9.26877E-01 2.51142E-04-1.12081E-02 2.18142E-07-3.96612E-06
 -1      9223 1.43390E+01 1.32253E+00-7.45064E-05-1.84470E+00-3.68891E-06 1.10288E-05
 -1      9224 1.54777E+01 4.19834E+00 1.99258E-04-9.21110E-03 5.76149E-07-1.01889E-05
 -1      9225 1.46955E+01 9.96842E-01 2.18001E-04-1.19200E-02 1.44970E-06-1.22276E-05
 -1      9226 1.42883E+01 1.37319E+00-6.92465E-05-1.83519E+00 2.04023E-06 3.46084E-06
 -1      9227 1.54204E+01 4.25569E+00 2.08992E-04-9.78855E-03-1.22127E-06 4.33424E-06
 -1      9228 1.46606E+01 1.03183E+00 2.40782E-04-1.22757E-02-3.92828E-06 5.07952E-07
 -1      9229 1.42714E+01 1.39009E+00-6.78262E-05-1.83203E+00 4.95138E-13 3.89181E-13
 -1      9230 1.54012E+01 4.27480E+00 2.15090E-04-9.98134E-03 7.20382E-13-2.75468E-12
 -1      9231 1.46606E+01 1.03183E+00 2.40782E-04-1.22757E-02 3.92828E-06-5.07956E-07
 -1      9232 1.42883E+01 1.37319E+00-6.92465E-05-1.83519E+00-2.04023E-06-3.46084E-06
 -1      9233 1.54204E+01 4.25569E+00 2.08992E-04-9.78855E-03 1.22127E-06-4.33424E-06
 -1      9234 1.46955E+01 9.96842E-01 2.18001E-04-1.19200E-02-1.44969E-06 1.22276E-05
 -1      9235 1.43390E+01 1.32253E+00-7.45064E-05-1.84470E+00 3.68891E-06-1.10288E-05
 -1      9236 1.54777E+01 4.19834E+00 1.99258E-04-9.21110E-03-5.76149E-07 1.01889E-05
 -1      9237 1.47655E+01 9.26877E-01 2.51142E-04-1.12081E-02-2.18142E-07 3.96611E-06
 -1      9238 1.38531E+01 1.65142E+00 2.60174E-04 3.62507E+00-3.39285E-06-3.61161E-06
 -1      9239 1.42687E+01 1.32954E+00-7.48218E-05 1.79818E+00-6.15251E-06 1.21153E-05
 -1      9240 1.45742E+01 4.87662E+00 1.96639E-04 3.38372E+00 1.58918E-06-9.91654E-06
 -1      9241 1.37886E+01 1.71592E+00 2.09519E-04 3.59773E+00 1.05292E-06-1.35543E-05
 -1      9242 1.42183E+01 1.37999E+00-6.92557E-05 1.78767E+00 5.03299E-06 3.19617E-06
 -1      9243 1.45213E+01 4.92951E+00 2.05743E-04 3.36134E+00-3.49616E-06 4.09708E-06
 -1      9244 1.37564E+01 1.74818E+00 2.43787E-04 3.58407E+00-7.63308E-06 2.51627E-06
 -1      9245 1.42015E+01 1.39681E+00-6.83524E-05 1.78416E+00 1.20034E-12-1.19097E-12
 -1      9246 1.45037E+01 4.94713E+00 2.12985E-04 3.35388E+00 1.39077E-12 1.08234E-12
 -1      9247 1.37564E+01 1.74818E+00 2.43787E-04 3.58407E+00 7.63308E-06-2.51627E-06
 -1      9248 1.42183E+01 1.37999E+00-6.92557E-05 1.78767E+00-5.03299E-06-3.19617E-06
 -1      9249 1.45213E+01 4.92951E+00 2.05743E-04 3.36134E+00 3.49616E-06-4.09708E-06
 -1      9250 1.37886E+01 1.71592E+00 2.09519E-04 3.59773E+00-1.05292E-06 1.35543E-05
 -1      9251 1.42687E+01 1.32954E+00-7.48218E-05 1.79818E+00 6.15251E-06-1.21153E-05
 -1      9252 1.45742E+01 4.87662E+00 1.96639E-04 3.38372E+00-1.58917E-06 9.91654E-06
 -1      9253 1.38531E+01 1.65142E+00 2.60174E-04 3.62507E+00 3.39285E-06 3.61162E-06
 -1      9254 1.13824E+01 3.68551E+00 2.75487E-04 6.62238E+00-6.60009E-06-1.44234E-06
 -1      9255 1.25836E+01 2.70248E+00-7.50117E-05 5.10030E+00-1.07032E-05 1.45079E-05
 -1      9256 1.21391E+01 6.77120E+00 1.92780E-04 6.15850E+00 4.57223E-06-9.91717E-06
 -1      9257 1.13331E+01 3.73481E+00 1.91122E-04 6.57242E+00 1.50944E-06-1.58535E-05
 -1      9258 1.25409E+01 2.74518E+00-6.85070E-05 5.07132E+00 9.44549E-06 1.55190E-06
 -1      9259 1.20987E+01 6.81165E+00 1.99975E-04 6.11756E+00-6.93157E-06 4.55117E-06
 -1      9260 1.13085E+01 3.75948E+00 2.45339E-04 6.54745E+00-1.27261E-05 7.03372E-06
 -1      9261 1.25267E+01 2.75942E+00-6.83452E-05 5.06164E+00 1.16051E-12 5.31706E-15
 -1      9262 1.20852E+01 6.82512E+00 2.08759E-04 6.10393E+00 7.52737E-13-1.57915E-12
 -1      9263 1.13085E+01 3.75948E+00 2.45339E-04 6.54745E+00 1.27261E-05-7.03372E-06
 -1      9264 1.25409E+01 2.74518E+00-6.85070E-05 5.07132E+00-9.44549E-06-1.55190E-06
 -1      9265 1.20987E+01 6.81165E+00 1.99975E-04 6.11756E+00 6.93157E-06-4.55117E-06
 -1      9266 1.13331E+01 3.73481E+00 1.91122E-04 6.57242E+00-1.50944E-06 1.58535E-05
 -1      9267 1.25836E+01 2.70248E+00-7.50117E-05 5.10030E+00 1.07032E-05-1.45079E-05
 -1      9268 1.21391E+01 6.77120E+00 1.92780E-04 6.15850E+00-4.57223E-06 9.91717E-06
 -1      9269 1.13824E+01 3.68551E+00 2.75487E-04 6.62238E+00 6.60009E-06 1.44234E-06
 -1      9270 7.70317E+00 6.68132E+00 3.03078E-04 8.46853E+00-9.48365E-06 3.21534E-06
 -1      9271 9.52018E+00 5.20595E+00-7.48255E-05 7.51085E+00-1.88601E-05 2.00675E-05
 -1      9272 8.51071E+00 9.54701E+00 1.87178E-04 7.81878E+00 1.08775E-05-1.07588E-05
 -1      9273 7.67656E+00 6.70785E+00 1.58331E-04 8.40343E+00 3.41848E-06-2.08821E-05
 -1      9274 9.49170E+00 5.23442E+00-6.62622E-05 7.46770E+00 1.56679E-05-2.28436E-06
 -1      9275 8.48891E+00 9.56881E+00 1.90968E-04 7.76540E+00-1.21842E-05 6.41655E-06
 -1      9276 7.66331E+00 6.72116E+00 2.46601E-04 8.37089E+00-1.93477E-05 1.57278E-05
 -1      9277 9.48222E+00 5.24392E+00-6.73322E-05 7.45330E+00 1.02336E-12-1.57454E-12
 -1      9278 8.48163E+00 9.57607E+00 2.02130E-04 7.74763E+00 8.94705E-13-1.25669E-12
 -1      9279 7.66331E+00 6.72116E+00 2.46601E-04 8.37089E+00 1.93477E-05-1.57278E-05
 -1      9280 9.49170E+00 5.23442E+00-6.62622E-05 7.46770E+00-1.56679E-05 2.28435E-06
 -1      9281 8.48891E+00 9.56881E+00 1.90968E-04 7.76540E+00 1.21842E-05-6.41655E-06
 -1      9282 7.67656E+00 6.70785E+00 1.58331E-04 8.40343E+00-3.41848E-06 2.08821E-05
 -1      9283 9.52018E+00 5.20595E+00-7.48255E-05 7.51085E+00 1.88601E-05-2.00675E-05
 -1      9284 8.51071E+00 9.54701E+00 1.87178E-04 7.81878E+00-1.08775E-05 1.07588E-05
 -1      9285 7.70317E+00 6.68132E+00 3.03078E-04 8.46853E+00 9.48365E-06-3.21534E-06
 -1      9286 3.34626E+00 1.01149E+01 3.53481E-04 8.81860E+00-1.10264E-05 1.25301E-05
 -1      9287 5.51704E+00 8.40569E+00-7.54391E-05 8.60304E+00-3.20330E-05 3.12112E-05
 -1      9288 4.20511E+00 1.26973E+01 1.78071E-04 8.02992E+00 2.46188E-05-1.65513E-05
 -1      9289 3.34654E+00 1.01145E+01 1.03959E-04 8.74822E+00 7.58531E-06-3.15160E-05
 -1      9290 5.50718E+00 8.41552E+00-6.29761E-05 8.55224E+00 2.45860E-05-1.01901E-05
 -1      9291 4.20540E+00 1.26970E+01 1.74245E-04 7.97219E+00-1.92906E-05 9.46387E-06
 -1      9292 3.34676E+00 1.01143E+01 2.48911E-04 8.71305E+00-2.72633E-05 3.13181E-05
 -1      9293 5.50394E+00 8.41882E+00-6.58223E-05 8.53528E+00 6.01303E-13-1.42805E-12
 -1      9294 4.20547E+00 1.26969E+01 1.89322E-04 7.95298E+00 4.84806E-13-1.54825E-12
 -1      9295 3.34676E+00 1.01143E+01 2.48911E-04 8.71305E+00 2.72633E-05-3.13181E-05
 -1      9296 5.50718E+00 8.41552E+00-6.29761E-05 8.55224E+00-2.45860E-05 1.01901E-05
 -1      9297 4.20540E+00 1.26970E+01 1.74245E-04 7.97219E+00 1.92906E-05-9.46387E-06
 -1      9298 3.34654E+00 1.01145E+01 1.03959E-04 8.74822E+00-7.58531E-06 3.15160E-05
 -1      9299 5.51704E+00 8.40569E+00-7.54391E-05 8.60304E+00 3.20330E-05-3.12112E-05
 -1      9300 4.20511E+00 1.26973E+01 1.78071E-04 8.02992E+00-2.46188E-05 1.65513E-05
 -1      9301 3.34626E+00 1.01149E+01 3.53481E-04 8.81860E+00 1.10264E-05-1.25301E-05
 -1      9302-1.05142E+00 1.33632E+01 4.49744E-04 7.55686E+00-1.09137E-05 3.14703E-05
 -1      9303 1.15584E+00 1.17305E+01-7.60422E-05 8.14759E+00-5.46030E-05 5.64035E-05
 -1      9304-1.56415E-01 1.56182E+01 1.71310E-04 6.67953E+00 4.40935E-05-2.36323E-05
 -1      9305-1.02425E+00 1.33358E+01 1.92931E-05 7.49203E+00 1.47721E-05-5.55668E-05
 -1      9306 1.16615E+00 1.17202E+01-5.53666E-05 8.09691E+00 3.56146E-05-2.32836E-05
 -1      9307-1.33967E-01 1.55958E+01 1.58501E-04 6.62635E+00-3.01260E-05 1.81559E-05
 -1      9308-1.01052E+00 1.33223E+01 2.53474E-04 7.45964E+00-3.50616E-05 5.63204E-05
 -1      9309 1.16968E+00 1.17167E+01-6.08882E-05 8.07998E+00 3.99546E-13-1.34818E-12
 -1      9310-1.26550E-01 1.55883E+01 1.78594E-04 6.60866E+00 1.80605E-13-1.16987E-12
 -1      9311-1.01052E+00 1.33223E+01 2.53474E-04 7.45964E+00 3.50616E-05-5.63204E-05
 -1      9312 1.16615E+00 1.17202E+01-5.53666E-05 8.09691E+00-3.56146E-05 2.32836E-05
 -1      9313-1.33967E-01 1.55958E+01 1.58501E-04 6.62635E+00 3.01260E-05-1.81559E-05
 -1      9314-1.02425E+00 1.33358E+01 1.92931E-05 7.49203E+00-1.47721E-05 5.55668E-05
 -1      9315 1.15584E+00 1.17305E+01-7.60422E-05 8.14759E+00 5.46030E-05-5.64035E-05
 -1      9316-1.56415E-01 1.56182E+01 1.71310E-04 6.67953E+00-4.40935E-05 2.36323E-05
 -1      9317-1.05142E+00 1.33632E+01 4.49744E-04 7.55686E+00 1.09137E-05-3.14703E-05
 -1      9318-4.84136E+00 1.58006E+01 6.22211E-04 4.82777E+00-3.59708E-07 7.37603E-05
 -1      9319-2.92348E+00 1.45588E+01-8.54403E-05 6.15893E+00-8.28050E-05 9.45292E-05
 -1      9320-3.93778E+00 1.77015E+01 1.49240E-04 3.90814E+00 9.73539E-05-6.90283E-05
 -1      9321-4.79164E+00 1.57505E+01-1.16338E-04 4.77853E+00 2.98779E-05-1.04632E-04
 -1      9322-2.89462E+00 1.45299E+01-5.14585E-05 6.11620E+00 5.15396E-05-4.88915E-05
 -1      9323-3.89666E+00 1.76604E+01 9.96614E-05 3.86779E+00-3.39023E-05 1.60460E-05
 -1      9324-4.76652E+00 1.57256E+01 2.46480E-04 4.75395E+00-3.89607E-05 9.29784E-05
 -1      9325-2.88483E+00 1.45202E+01-5.69846E-05 6.10190E+00-2.04925E-13-1.20792E-12
 -1      9326-3.88308E+00 1.76468E+01 1.23814E-04 3.85440E+00-5.94216E-13-1.42033E-12
 -1      9327-4.76652E+00 1.57256E+01 2.46480E-04 4.75395E+00 3.89607E-05-9.29784E-05
 -1      9328-2.89462E+00 1.45299E+01-5.14585E-05 6.11620E+00-5.15396E-05 4.88915E-05
 -1      9329-3.89666E+00 1.76604E+01 9.96614E-05 3.86779E+00 3.39023E-05-1.60460E-05
 -1      9330-4.79164E+00 1.57505E+01-1.16338E-04 4.77853E+00-2.98779E-05 1.04632E-04
 -1      9331-2.92348E+00 1.45588E+01-8.54403E-05 6.15893E+00 8.28050E-05-9.45292E-05
 -1      9332-3.93778E+00 1.77015E+01 1.49240E-04 3.90814E+00-9.73539E-05 6.90283E-05
 -1      9333-4.84136E+00 1.58006E+01 6.22211E-04 4.82777E+00 3.59709E-07-7.37603E-05
 -1      9334-7.46767E+00 1.69031E+01 9.95135E-04 1.03444E+00 1.31524E-05 1.80229E-04
 -1      9335-6.12144E+00 1.63183E+01-8.82671E-05 2.90951E+00-1.48634E-04 2.04486E-04
 -1      9336-6.58674E+00 1.84346E+01 1.88824E-04 1.09759E-01 1.21000E-04-4.95588E-05
 -1      9337-7.40364E+00 1.68384E+01-2.86521E-04 1.00819E+00 6.78695E-05-2.35915E-04
 -1      9338-6.07876E+00 1.62755E+01-1.39581E-05 2.88127E+00 5.22535E-05-6.68742E-05
 -1      9339-6.53361E+00 1.83817E+01 1.35027E-04 8.84691E-02-4.13855E-05 4.29167E-05
 -1      9340-7.37113E+00 1.68064E+01 1.97555E-04 9.95108E-01-2.60112E-05 1.19006E-04
 -1      9341-6.06423E+00 1.62612E+01-1.29911E-05 2.87182E+00-5.16532E-13-1.46914E-12
 -1      9342-6.51613E+00 1.83641E+01 1.46189E-04 8.13950E-02-5.31496E-13-1.47014E-12
 -1      9343-7.37113E+00 1.68064E+01 1.97555E-04 9.95108E-01 2.60112E-05-1.19006E-04
 -1      9344-6.07876E+00 1.62755E+01-1.39581E-05 2.88127E+00-5.22535E-05 6.68742E-05
 -1      9345-6.53361E+00 1.83817E+01 1.35027E-04 8.84691E-02 4.13855E-05-4.29167E-05
 -1      9346-7.40364E+00 1.68384E+01-2.86521E-04 1.00819E+00-6.78695E-05 2.35915E-04
 -1      9347-6.12144E+00 1.63183E+01-8.82671E-05 2.90951E+00 1.48634E-04-2.04486E-04
 -1      9348-6.58674E+00 1.84346E+01 1.88824E-04 1.09759E-01-1.21000E-04 4.95588E-05
 -1      9349-7.46767E+00 1.69031E+01 9.95135E-04 1.03444E+00-1.31524E-05-1.80229E-04
 -1      9350-8.57872E+00 1.63559E+01 1.64284E-03-3.19832E+00 6.82681E-05 4.75737E-04
 -1      9351-7.98606E+00 1.65910E+01-1.64575E-04-1.08990E+00-1.52472E-04 2.56896E-04
 -1      9352-7.74102E+00 1.75049E+01 1.05381E-04-4.09883E+00 4.25722E-04-4.17001E-04
 -1      9353-8.51131E+00 1.62871E+01-5.25485E-04-3.19900E+00 1.82371E-04-5.30307E-04
 -1      9354-7.93676E+00 1.65413E+01-4.52224E-05-1.09988E+00 6.87227E-05-1.13640E-04
 -1      9355-7.68486E+00 1.74491E+01-2.27013E-04-4.09874E+00 1.07020E-04-1.69205E-04
 -1      9356-8.47653E+00 1.62533E+01-1.40356E-04-3.19930E+00 2.86912E-05 7.33998E-05
 -1      9357-7.91983E+00 1.65248E+01 2.45333E-05-1.10320E+00-9.08843E-13-1.48799E-12
 -1      9358-7.66641E+00 1.74306E+01-2.96697E-04-4.09878E+00-8.99961E-13-1.59930E-12
 -1      9359-8.47653E+00 1.62533E+01-1.40356E-04-3.19930E+00-2.86912E-05-7.33998E-05
 -1      9360-7.93676E+00 1.65413E+01-4.52224E-05-1.09988E+00-6.87227E-05 1.13640E-04
 -1      9361-7.68486E+00 1.74491E+01-2.27013E-04-4.09874E+00-1.07020E-04 1.69205E-04
 -1      9362-8.51131E+00 1.62871E+01-5.25485E-04-3.19900E+00-1.82371E-04 5.30307E-04
 -1      9363-7.98606E+00 1.65910E+01-1.64575E-04-1.08990E+00 1.52472E-04-2.56896E-04
 -1      9364-7.74102E+00 1.75049E+01 1.05381E-04-4.09883E+00-4.25722E-04 4.17001E-04
 -1      9365-8.57872E+00 1.63559E+01 1.64284E-03-3.19832E+00-6.82681E-05-4.75737E-04
 -1      9366-8.14087E+00 1.41441E+01 3.90216E-03-7.11504E+00 6.28159E-05 1.49115E-03
 -1      9367-8.32302E+00 1.52105E+01-1.46053E-04-5.15455E+00-5.20129E-04 9.29746E-04
 -1      9368-7.34189E+00 1.48971E+01 8.62061E-04-7.96037E+00 1.31122E-04 5.40781E-04
 -1      9369-8.08093E+00 1.40812E+01 3.11417E-05-7.09471E+00 7.38528E-04-1.61438E-03
 -1      9370-8.27542E+00 1.51617E+01 2.90325E-04-5.14677E+00-1.85915E-04 2.19207E-04
 -1      9371-7.29144E+00 1.48484E+01 8.03797E-04-7.94296E+00 3.69504E-04-8.09473E-05
 -1      9372-8.04835E+00 1.40507E+01-1.08032E-03-7.08478E+00 3.47245E-04-5.06089E-04
 -1      9373-8.25888E+00 1.51456E+01 5.57093E-04-5.14407E+00-1.20522E-12-1.55208E-12
 -1      9374-7.27477E+00 1.48321E+01 4.45603E-04-7.93746E+00-1.18630E-12-1.83900E-12
 -1      9375-8.04835E+00 1.40507E+01-1.08032E-03-7.08478E+00-3.47245E-04 5.06089E-04
 -1      9376-8.27542E+00 1.51617E+01 2.90325E-04-5.14677E+00 1.85915E-04-2.19207E-04
 -1      9377-7.29144E+00 1.48484E+01 8.03797E-04-7.94296E+00-3.69504E-04 8.09473E-05
 -1      9378-8.08093E+00 1.40812E+01 3.11417E-05-7.09471E+00-7.38528E-04 1.61438E-03
 -1      9379-8.32302E+00 1.52105E+01-1.46053E-04-5.15455E+00 5.20129E-04-9.29746E-04
 -1      9380-7.34189E+00 1.48971E+01 8.62061E-04-7.96037E+00-1.31122E-04-5.40781E-04
 -1      9381-8.14087E+00 1.41441E+01 3.90216E-03-7.11504E+00-6.28159E-05-1.49115E-03
 -1      9382-6.49992E+00 1.05517E+01 8.64148E-03-1.00247E+01-6.07137E-04 4.84109E-03
 -1      9383-7.28258E+00 1.23044E+01-1.14648E-03-8.56662E+00 1.93898E-04-7.93876E-05
 -1      9384-5.71564E+00 1.09193E+01-2.78859E-04-1.07765E+01 2.66265E-03-4.45587E-03
 -1      9385-6.45413E+00 1.04972E+01 2.81501E-03-9.99604E+00 1.34290E-03-4.49959E-03
 -1      9386-7.24372E+00 1.22614E+01-5.73010E-04-8.54729E+00-3.59737E-04 6.08672E-04
 -1      9387-5.67387E+00 1.08814E+01-4.15467E-03-1.07531E+01 2.36498E-03-4.54979E-03
 -1      9388-6.42324E+00 1.04710E+01-5.17866E-03-9.98251E+00 9.42644E-04-3.01002E-03
 -1      9389-7.23017E+00 1.22477E+01 6.54336E-04-8.54051E+00-1.79546E-12-1.84269E-12
 -1      9390-5.65803E+00 1.08690E+01-5.87898E-03-1.07459E+01-1.96726E-12-2.53991E-12
 -1      9391-6.42324E+00 1.04710E+01-5.17866E-03-9.98251E+00-9.42644E-04 3.01002E-03
 -1      9392-7.24372E+00 1.22614E+01-5.73010E-04-8.54729E+00 3.59737E-04-6.08672E-04
 -1      9393-5.67387E+00 1.08814E+01-4.15467E-03-1.07531E+01-2.36498E-03 4.54979E-03
 -1      9394-6.45413E+00 1.04972E+01 2.81501E-03-9.99604E+00-1.34290E-03 4.49959E-03
 -1      9395-7.28258E+00 1.23044E+01-1.14648E-03-8.56662E+00-1.93898E-04 7.93876E-05
 -1      9396-5.71564E+00 1.09193E+01-2.78859E-04-1.07765E+01-2.66265E-03 4.45587E-03
 -1      9397-6.49992E+00 1.05517E+01 8.64148E-03-1.00247E+01 6.07137E-04-4.84109E-03
 -1      9398-4.16788E+00 5.88740E+00 5.00663E-02-1.16500E+01-1.81880E-02 5.53432E-02
 -1      9399-5.30644E+00 8.16035E+00-3.01992E-03-1.08406E+01-5.91306E-03 5.74913E-03
 -1      9400-3.40135E+00 5.99635E+00 5.16446E-02-1.22997E+01-3.88318E-02 4.52745E-02
 -1      9401-4.17027E+00 5.84176E+00 9.89045E-02-1.16171E+01-2.71705E-02 5.90404E-02
 -1      9402-5.28114E+00 8.12323E+00-6.83686E-04-1.08168E+01-5.44099E-03 6.42319E-03
 -1      9403-3.40432E+00 5.96604E+00 7.67720E-02-1.22562E+01-2.69737E-02 3.20270E-02
 -1      9404-4.18624E+00 5.81444E+00 1.15901E-01-1.15901E+01-1.17413E-02 2.21275E-02
 -1      9405-5.27510E+00 8.11108E+00 1.96225E-03-1.08077E+01-2.98833E-12-2.28813E-12
 -1      9406-3.40920E+00 5.95529E+00 8.62011E-02-1.22392E+01-3.92582E-12-3.97465E-12
 -1      9407-4.18624E+00 5.81444E+00 1.15901E-01-1.15901E+01 1.17413E-02-2.21275E-02
 -1      9408-5.28114E+00 8.12323E+00-6.83686E-04-1.08168E+01 5.44099E-03-6.42319E-03
 -1      9409-3.40432E+00 5.96604E+00 7.67720E-02-1.22562E+01 2.69737E-02-3.20270E-02
 -1      9410-4.17027E+00 5.84176E+00 9.89045E-02-1.16171E+01 2.71705E-02-5.90404E-02
 -1      9411-5.30644E+00 8.16035E+00-3.01992E-03-1.08406E+01 5.91306E-03-5.74913E-03
 -1      9412-3.40135E+00 5.99635E+00 5.16446E-02-1.22997E+01 3.88318E-02-4.52745E-02
 -1      9413-4.16788E+00 5.88740E+00 5.00663E-02-1.16500E+01 1.81880E-02-5.53432E-02
 -1      9414-2.80080E+00 2.77532E+00-7.29614E-02-1.20925E+01-2.41154E-02 9.86484E-03
 -1      9415-2.86491E+00 2.72162E+00-1.07208E-01-1.20346E+01-1.84754E-02 9.12725E-03
 -1      9416-2.88532E+00 2.70426E+00-1.20530E-01-1.20169E+01-2.81796E-12-1.73506E-12
 -1      9417-2.86491E+00 2.72162E+00-1.07208E-01-1.20346E+01 1.84754E-02-9.12725E-03
 -1      9418-2.80080E+00 2.77532E+00-7.29614E-02-1.20925E+01 2.41154E-02-9.86484E-03
 -1      9419-2.88865E+00-7.80799E+00-8.24708E-03 9.31093E+00 5.76097E-03-1.06157E-02
 -1      9420-1.13011E+00-9.34995E+00 6.37824E-04 4.78517E+00-9.51681E-03-3.58913E-02
 -1      9421-3.15291E+00-9.19166E+00-2.10692E-02 1.03021E+01 1.32959E-02-2.48976E-02
 -1      9422-2.96827E+00-7.73412E+00-3.04093E-02 9.16378E+00 8.90107E-03-1.91047E-02
 -1      9423-1.15577E+00-9.23217E+00 6.31518E-03 4.71283E+00-7.25342E-03-2.67479E-02
 -1      9424-3.19978E+00-9.12705E+00-4.93291E-02 1.01625E+01 9.82368E-03-2.15767E-02
 -1      9425-2.99843E+00-7.69512E+00-4.77479E-02 9.08805E+00 3.76643E-03-8.84160E-03
 -1      9426-1.16218E+00-9.19292E+00 8.54970E-03 4.68917E+00-4.66354E-12-2.94180E-12
 -1      9427-3.21257E+00-9.10489E+00-6.11877E-02 1.01156E+01-3.97681E-13 3.11164E-12
 -1      9428-2.99843E+00-7.69512E+00-4.77479E-02 9.08805E+00-3.76643E-03 8.84160E-03
 -1      9429-1.15577E+00-9.23217E+00 6.31518E-03 4.71283E+00 7.25342E-03 2.67479E-02
 -1      9430-3.19978E+00-9.12705E+00-4.93291E-02 1.01625E+01-9.82368E-03 2.15767E-02
 -1      9431-2.96827E+00-7.73412E+00-3.04093E-02 9.16378E+00-8.90107E-03 1.91047E-02
 -1      9432-1.13011E+00-9.34995E+00 6.37824E-04 4.78517E+00 9.51681E-03 3.58913E-02
 -1      9433-3.15291E+00-9.19166E+00-2.10692E-02 1.03021E+01-1.32959E-02 2.48976E-02
 -1      9434-2.88865E+00-7.80799E+00-8.24708E-03 9.31093E+00-5.76097E-03 1.06157E-02
 -1      9435-9.36060E+00 1.88184E+00-1.04051E-03 1.17046E+01 7.60605E-04-5.48787E-04
 -1      9436-6.18130E+00-2.88501E+00 2.79744E-03 1.04902E+01-1.02442E-04-1.35628E-03
 -1      9437-9.78532E+00 1.80042E+00-6.71300E-04 1.27803E+01-2.62445E-04 7.32886E-04
 -1      9438-9.32063E+00 1.84193E+00-1.29235E-03 1.15729E+01 5.27933E-04 2.29086E-04
 -1      9439-6.19356E+00-2.87296E+00-1.07093E-03 1.03887E+01-3.67469E-04-1.66431E-03
 -1      9440-9.74731E+00 1.76142E+00 1.36926E-03 1.26657E+01-8.27483E-05 8.34754E-04
 -1      9441-9.30168E+00 1.82184E+00-1.05236E-03 1.15074E+01 6.94222E-05 2.61948E-04
 -1      9442-6.19667E+00-2.86870E+00-2.30035E-03 1.03547E+01-6.04711E-13 4.09048E-12
 -1      9443-9.73515E+00 1.74826E+00 1.85407E-03 1.26279E+01-7.33668E-13 1.50227E-12
 -1      9444-9.30168E+00 1.82184E+00-1.05236E-03 1.15074E+01-6.94222E-05-2.61948E-04
 -1      9445-6.19356E+00-2.87296E+00-1.07093E-03 1.03887E+01 3.67469E-04 1.66431E-03
 -1      9446-9.74731E+00 1.76142E+00 1.36926E-03 1.26657E+01 8.27483E-05-8.34754E-04
 -1      9447-9.32063E+00 1.84193E+00-1.29235E-03 1.15729E+01-5.27933E-04-2.29086E-04
 -1      9448-6.18130E+00-2.88501E+00 2.79744E-03 1.04902E+01 1.02442E-04 1.35628E-03
 -1      9449-9.78532E+00 1.80042E+00-6.71300E-04 1.27803E+01 2.62445E-04-7.32886E-04
 -1      9450-9.36060E+00 1.88184E+00-1.04051E-03 1.17046E+01-7.60605E-04 5.48787E-04
 -1      9451-1.37721E+01 1.06006E+01 1.45094E-04 8.29978E+00 2.54388E-04-1.74794E-04
 -1      9452-1.15788E+01 6.27852E+00-4.21712E-04 9.94329E+00-5.06143E-04 2.96908E-04
 -1      9453-1.39849E+01 1.13619E+01 9.06393E-04 9.04608E+00 4.98209E-04-1.92072E-04
 -1      9454-1.36709E+01 1.04997E+01 2.30017E-04 8.22913E+00 8.21496E-05 3.66045E-05
 -1      9455-1.15248E+01 6.22543E+00 5.85674E-04 9.86805E+00-1.96668E-04 9.25773E-05
 -1      9456-1.38972E+01 1.12735E+01 2.31814E-04 8.98907E+00 1.33583E-04-3.20475E-05
 -1      9457-1.36204E+01 1.04493E+01 3.13989E-04 8.19402E+00-1.61040E-05 4.28089E-05
 -1      9458-1.15068E+01 6.20768E+00 7.72256E-04 9.84292E+00-1.61336E-12 3.69793E-12
 -1      9459-1.38679E+01 1.12441E+01 1.42056E-04 8.97009E+00-4.59735E-13 3.29322E-12
 -1      9460-1.36204E+01 1.04493E+01 3.13989E-04 8.19402E+00 1.61040E-05-4.28090E-05
 -1      9461-1.15248E+01 6.22543E+00 5.85674E-04 9.86805E+00 1.96668E-04-9.25773E-05
 -1      9462-1.38972E+01 1.12735E+01 2.31814E-04 8.98907E+00-1.33583E-04 3.20475E-05
 -1      9463-1.36709E+01 1.04997E+01 2.30017E-04 8.22913E+00-8.21496E-05-3.66045E-05
 -1      9464-1.15788E+01 6.27852E+00-4.21712E-04 9.94329E+00 5.06143E-04-2.96908E-04
 -1      9465-1.39849E+01 1.13619E+01 9.06393E-04 9.04608E+00-4.98209E-04 1.92072E-04
 -1      9466-1.37721E+01 1.06006E+01 1.45094E-04 8.29978E+00-2.54388E-04 1.74794E-04
 -1      9467-1.44792E+01 1.51404E+01 5.57106E-04 2.42515E+00 1.48096E-04-8.78969E-05
 -1      9468-1.40804E+01 1.28420E+01-8.90796E-05 5.30875E+00-1.31125E-05-4.89626E-05
 -1      9469-1.42531E+01 1.63207E+01 3.73248E-04 2.94284E+00 8.03249E-05 2.29133E-05
 -1      9470-1.43717E+01 1.50330E+01 6.82058E-04 2.41622E+00 6.96159E-05-3.38717E-06
 -1      9471-1.40022E+01 1.27637E+01-3.61598E-04 5.27942E+00 7.32516E-06-4.43923E-05
 -1      9472-1.41637E+01 1.62313E+01 5.92764E-04 2.93895E+00 1.13873E-05 1.66712E-05
 -1      9473-1.43181E+01 1.49793E+01 6.88037E-04 2.41182E+00 1.40706E-05-5.42154E-07
 -1      9474-1.39761E+01 1.27375E+01-4.35406E-04 5.26965E+00-8.30403E-13-3.07508E-12
 -1      9475-1.41338E+01 1.62015E+01 6.63691E-04 2.93763E+00-1.14516E-12-1.05765E-12
 -1      9476-1.43181E+01 1.49793E+01 6.88037E-04 2.41182E+00-1.40706E-05 5.42156E-07
 -1      9477-1.40022E+01 1.27637E+01-3.61598E-04 5.27942E+00-7.32516E-06 4.43923E-05
 -1      9478-1.41637E+01 1.62313E+01 5.92764E-04 2.93895E+00-1.13873E-05-1.66712E-05
 -1      9479-1.43717E+01 1.50330E+01 6.82058E-04 2.41622E+00-6.96159E-05 3.38718E-06
 -1      9480-1.40804E+01 1.28420E+01-8.90796E-05 5.30875E+00 1.31125E-05 4.89626E-05
 -1      9481-1.42531E+01 1.63207E+01 3.73248E-04 2.94284E+00-8.03249E-05-2.29133E-05
 -1      9482-1.44792E+01 1.51404E+01 5.57106E-04 2.42515E+00-1.48096E-04 8.78969E-05
 -1      9483-1.21956E+01 1.56875E+01 5.67984E-04-3.26564E+00 7.73648E-05-1.78327E-05
 -1      9484-1.32716E+01 1.53545E+01-3.40955E-04-4.34855E-01-7.44503E-05 1.72237E-05
 -1      9485-1.15831E+01 1.71394E+01 4.41114E-04-2.77494E+00 9.32584E-05-1.89408E-05
 -1      9486-1.21096E+01 1.56016E+01 6.61510E-04-3.23297E+00 3.11041E-05-1.12667E-06
 -1      9487-1.31992E+01 1.52822E+01-2.90076E-04-4.25739E-01-1.92220E-05 7.76945E-06
 -1      9488-1.15138E+01 1.70700E+01 4.19147E-04-2.74545E+00 1.89652E-05-1.39797E-05
 -1      9489-1.20666E+01 1.55586E+01 6.54106E-04-3.21661E+00 7.62068E-06-3.70610E-06
 -1      9490-1.31751E+01 1.52581E+01-2.83714E-04-4.22695E-01-5.39246E-13 1.60024E-12
 -1      9491-1.14906E+01 1.70469E+01 4.18299E-04-2.73564E+00 8.72155E-13 8.66275E-12
 -1      9492-1.20666E+01 1.55586E+01 6.54106E-04-3.21661E+00-7.62068E-06 3.70609E-06
 -1      9493-1.31992E+01 1.52822E+01-2.90076E-04-4.25739E-01 1.92220E-05-7.76945E-06
 -1      9494-1.15138E+01 1.70700E+01 4.19147E-04-2.74545E+00-1.89652E-05 1.39797E-05
 -1      9495-1.21096E+01 1.56016E+01 6.61510E-04-3.23297E+00-3.11041E-05 1.12667E-06
 -1      9496-1.32716E+01 1.53545E+01-3.40955E-04-4.34855E-01 7.44503E-05-1.72237E-05
 -1      9497-1.15831E+01 1.71394E+01 4.41114E-04-2.77494E+00-9.32584E-05 1.89408E-05
 -1      9498-1.21956E+01 1.56875E+01 5.67984E-04-3.26564E+00-7.73648E-05 1.78327E-05
 -1      9499-8.15725E+00 1.35384E+01 4.51833E-04-7.55394E+00 5.01263E-05 1.02649E-05
 -1      9500-1.01222E+01 1.45593E+01-2.24104E-04-5.38999E+00-3.00197E-05 2.86386E-06
 -1      9501-7.32410E+00 1.52705E+01 3.46659E-04-6.99874E+00 3.78088E-05-4.56909E-06
 -1      9502-8.10071E+00 1.34819E+01 4.99035E-04-7.49884E+00 2.05752E-05-1.45417E-07
 -1      9503-1.00689E+01 1.45060E+01-2.56067E-04-5.35707E+00-5.16793E-06 5.36088E-07
 -1      9504-7.27948E+00 1.52258E+01 3.71156E-04-6.95235E+00 1.14845E-06-1.92193E-06
 -1      9505-8.07248E+00 1.34536E+01 4.86678E-04-7.47128E+00 4.58691E-06-3.89253E-06
 -1      9506-1.00511E+01 1.44882E+01-2.63302E-04-5.34609E+00-2.44561E-13-6.60736E-13
 -1      9507-7.26457E+00 1.52109E+01 3.75066E-04-6.93688E+00 1.96743E-12-9.10286E-12
 -1      9508-8.07248E+00 1.34536E+01 4.86678E-04-7.47128E+00-4.58691E-06 3.89253E-06
 -1      9509-1.00689E+01 1.45060E+01-2.56067E-04-5.35707E+00 5.16793E-06-5.36089E-07
 -1      9510-7.27948E+00 1.52258E+01 3.71156E-04-6.95235E+00-1.14845E-06 1.92194E-06
 -1      9511-8.10071E+00 1.34819E+01 4.99035E-04-7.49884E+00-2.05752E-05 1.45427E-07
 -1      9512-1.01222E+01 1.45593E+01-2.24104E-04-5.38999E+00 3.00197E-05-2.86386E-06
 -1      9513-7.32410E+00 1.52705E+01 3.46659E-04-6.99874E+00-3.78088E-05 4.56910E-06
 -1      9514-8.15725E+00 1.35384E+01 4.51833E-04-7.55394E+00-5.01263E-05-1.02649E-05
 -1      9515-3.31817E+00 9.89784E+00 3.56414E-04-1.00855E+01 3.32154E-05 1.70314E-05
 -1      9516-5.70610E+00 1.16849E+01-1.68649E-04-8.78247E+00-2.00692E-05 9.09692E-06
 -1      9517-2.40881E+00 1.19391E+01 2.86244E-04-9.48158E+00 2.46865E-05-1.40722E-05
 -1      9518-3.29099E+00 9.87065E+00 3.64103E-04-1.00211E+01 1.13508E-05-4.05550E-06
 -1      9519-5.67475E+00 1.16535E+01-1.67200E-04-8.73769E+00-1.85540E-06 3.54006E-06
 -1      9520-2.38786E+00 1.19181E+01 2.85748E-04-9.42859E+00-1.40967E-07-2.44040E-06
 -1      9521-3.27740E+00 9.85706E+00 3.55775E-04-9.98889E+00 1.09822E-06-3.23797E-06
 -1      9522-5.66431E+00 1.16431E+01-1.65264E-04-8.72276E+00 1.57703E-12-3.09161E-12
 -1      9523-2.38086E+00 1.19111E+01 2.82852E-04-9.41092E+00-2.71795E-13 4.95900E-12
 -1      9524-3.27740E+00 9.85706E+00 3.55775E-04-9.98889E+00-1.09822E-06 3.23798E-06
 -1      9525-5.67475E+00 1.16535E+01-1.67200E-04-8.73769E+00 1.85540E-06-3.54006E-06
 -1      9526-2.38786E+00 1.19181E+01 2.85748E-04-9.42859E+00 1.40968E-07 2.44039E-06
 -1      9527-3.29099E+00 9.87065E+00 3.64103E-04-1.00211E+01-1.13508E-05 4.05550E-06
 -1      9528-5.70610E+00 1.16849E+01-1.68649E-04-8.78247E+00 2.00692E-05-9.09691E-06
 -1      9529-2.40881E+00 1.19391E+01 2.86244E-04-9.48158E+00-2.46865E-05 1.40722E-05
 -1      9530-3.31817E+00 9.89784E+00 3.56414E-04-1.00855E+01-3.32154E-05-1.70314E-05
 -1      9531 1.66211E+00 5.66504E+00 2.96285E-04-1.08339E+01 2.26295E-05 1.29844E-05
 -1      9532-8.18092E-01 7.76962E+00-1.21146E-04-1.04181E+01-9.65526E-06 7.76224E-06
 -1      9533 2.56309E+00 8.01163E+00 2.34356E-04-1.02448E+01 1.38357E-05-1.63356E-05
 -1      9534 1.66217E+00 5.66495E+00 2.80656E-04-1.07695E+01 8.09818E-06-7.34953E-06
 -1      9535-8.07875E-01 7.75939E+00-1.21725E-04-1.03698E+01 1.14553E-06 1.41193E-06
 -1      9536 2.56242E+00 8.01231E+00 2.34408E-04-1.01923E+01-9.06986E-07-8.51327E-07
 -1      9537 1.66221E+00 5.66492E+00 2.80914E-04-1.07373E+01-3.19964E-07-2.29909E-06
 -1      9538-8.04471E-01 7.75598E+00-1.19930E-04-1.03537E+01 2.80775E-14-1.00744E-12
 -1      9539 2.56220E+00 8.01253E+00 2.32793E-04-1.01748E+01 7.62182E-13-2.60775E-13
 -1      9540 1.66221E+00 5.66492E+00 2.80914E-04-1.07373E+01 3.19967E-07 2.29909E-06
 -1      9541-8.07875E-01 7.75939E+00-1.21725E-04-1.03698E+01-1.14553E-06-1.41193E-06
 -1      9542 2.56242E+00 8.01231E+00 2.34408E-04-1.01923E+01 9.06987E-07 8.51329E-07
 -1      9543 1.66217E+00 5.66495E+00 2.80656E-04-1.07695E+01-8.09817E-06 7.34953E-06
 -1      9544-8.18092E-01 7.76962E+00-1.21146E-04-1.04181E+01 9.65526E-06-7.76224E-06
 -1      9545 2.56309E+00 8.01163E+00 2.34356E-04-1.02448E+01-1.38357E-05 1.63356E-05
 -1      9546 1.66211E+00 5.66504E+00 2.96285E-04-1.08339E+01-2.26295E-05-1.29844E-05
 -1      9547 6.25103E+00 1.53892E+00 2.63801E-04-9.90239E+00 1.46866E-05 7.09513E-06
 -1      9548 3.94892E+00 3.60816E+00-9.68537E-05-1.03298E+01-6.36780E-06 7.24814E-06
 -1      9549 7.10942E+00 4.15131E+00 2.08353E-04-9.39702E+00 1.07867E-05-1.85511E-05
 -1      9550 6.22722E+00 1.56270E+00 2.34527E-04-9.84571E+00 6.69325E-06-1.02270E-05
 -1      9551 3.94003E+00 3.61704E+00-9.37988E-05-1.02844E+01 1.97424E-06 4.36526E-07
 -1      9552 7.08968E+00 4.17107E+00 2.06279E-04-9.35092E+00-1.02950E-06-1.33016E-06
 -1      9553 6.21533E+00 1.57460E+00 2.44121E-04-9.81738E+00-1.57034E-06-1.69276E-06
 -1      9554 3.93707E+00 3.62000E+00-9.19523E-05-1.02692E+01 1.22172E-12-1.65166E-12
 -1      9555 7.08310E+00 4.17764E+00 2.05854E-04-9.33555E+00 1.06016E-12-6.47549E-13
 -1      9556 6.21533E+00 1.57460E+00 2.44121E-04-9.81738E+00 1.57035E-06 1.69276E-06
 -1      9557 3.94003E+00 3.61704E+00-9.37988E-05-1.02844E+01-1.97424E-06-4.36523E-07
 -1      9558 7.08968E+00 4.17107E+00 2.06279E-04-9.35092E+00 1.02950E-06 1.33016E-06
 -1      9559 6.22722E+00 1.56270E+00 2.34527E-04-9.84571E+00-6.69325E-06 1.02270E-05
 -1      9560 3.94892E+00 3.60816E+00-9.68537E-05-1.03298E+01 6.36780E-06-7.24814E-06
 -1      9561 7.10942E+00 4.15131E+00 2.08353E-04-9.39702E+00-1.07867E-05 1.85511E-05
 -1      9562 6.25103E+00 1.53892E+00 2.63801E-04-9.90239E+00-1.46866E-05-7.09513E-06
 -1      9563 9.95972E+00-1.89603E+00 2.51446E-04-7.51555E+00 8.56444E-06 2.14649E-06
 -1      9564 8.08436E+00-1.58510E-01-8.45116E-05-8.67857E+00-6.28902E-06 6.87742E-06
 -1      9565 1.07723E+01 9.18385E-01 1.96115E-04-7.14882E+00 1.13119E-05-1.97365E-05
 -1      9566 9.91682E+00-1.85315E+00 2.10556E-04-7.47343E+00 6.44816E-06-1.26188E-05
 -1      9567 8.05936E+00-1.33514E-01-8.13234E-05-8.64150E+00 2.89818E-06-1.81425E-08
 -1      9568 1.07372E+01 9.53493E-01 1.94211E-04-7.11456E+00-2.90992E-06-2.04845E-06
 -1      9569 9.89538E+00-1.83171E+00 2.30122E-04-7.45237E+00-3.52429E-06-1.10890E-06
 -1      9570 8.05103E+00-1.25175E-01-8.04119E-05-8.62915E+00 1.28861E-12 1.07076E-13
 -1      9571 1.07255E+01 9.65182E-01 1.95658E-04-7.10313E+00 2.08241E-12-1.54854E-12
 -1      9572 9.89538E+00-1.83171E+00 2.30122E-04-7.45237E+00 3.52429E-06 1.10890E-06
 -1      9573 8.05936E+00-1.33514E-01-8.13234E-05-8.64150E+00-2.89818E-06 1.81411E-08
 -1      9574 1.07372E+01 9.53493E-01 1.94211E-04-7.11456E+00 2.90993E-06 2.04845E-06
 -1      9575 9.91682E+00-1.85315E+00 2.10556E-04-7.47343E+00-6.44816E-06 1.26188E-05
 -1      9576 8.08436E+00-1.58510E-01-8.45116E-05-8.67857E+00 6.28902E-06-6.87743E-06
 -1      9577 1.07723E+01 9.18385E-01 1.96115E-04-7.14882E+00-1.13119E-05 1.97365E-05
 -1      9578 9.95972E+00-1.89603E+00 2.51446E-04-7.51555E+00-8.56444E-06-2.14649E-06
 -1      9579 1.23614E+01-4.16692E+00 2.53072E-04-4.04679E+00 3.43578E-06-8.33415E-07
 -1      9580 1.11304E+01-3.00193E+00-7.96344E-05-5.76187E+00-8.87323E-06 7.41938E-06
 -1      9581 1.31402E+01-1.22707E+00 1.91852E-04-3.85458E+00 1.52512E-05-2.15706E-05
 -1      9582 1.23060E+01-4.11160E+00 1.95271E-04-4.02456E+00 6.56072E-06-1.49732E-05
 -1      9583 1.10936E+01-2.96509E+00-7.58233E-05-5.73772E+00 4.77548E-06-2.35664E-07
 -1      9584 1.30950E+01-1.18190E+00 1.89431E-04-3.83649E+00-7.14688E-06-2.23412E-06
 -1      9585 1.22784E+01-4.08392E+00 2.27603E-04-4.01345E+00-6.92626E-06 1.61289E-07
 -1      9586 1.10813E+01-2.95280E+00-7.58921E-05-5.72967E+00 5.26888E-13-8.69420E-13
 -1      9587 1.30799E+01-1.16687E+00 1.92721E-04-3.83046E+00 2.99334E-13 2.29723E-12
 -1      9588 1.22784E+01-4.08392E+00 2.27603E-04-4.01345E+00 6.92627E-06-1.61289E-07
 -1      9589 1.10936E+01-2.96509E+00-7.58233E-05-5.73772E+00-4.77548E-06 2.35662E-07
 -1      9590 1.30950E+01-1.18190E+00 1.89431E-04-3.83649E+00 7.14688E-06 2.23411E-06
 -1      9591 1.23060E+01-4.11160E+00 1.95271E-04-4.02456E+00-6.56072E-06 1.49732E-05
 -1      9592 1.11304E+01-3.00193E+00-7.96344E-05-5.76187E+00 8.87323E-06-7.41937E-06
 -1      9593 1.31402E+01-1.22707E+00 1.91852E-04-3.85458E+00-1.52512E-05 2.15706E-05
 -1      9594 1.23614E+01-4.16692E+00 2.53072E-04-4.04679E+00-3.43578E-06 8.33415E-07
 -1      9595 1.31587E+01-4.95912E+00 2.66326E-04-1.29774E-02-1.09751E-06-1.69094E-06
 -1      9596 1.27254E+01-4.52874E+00-7.82889E-05-2.02364E+00-1.39272E-05 9.28673E-06
 -1      9597 1.39213E+01-1.97513E+00 1.90805E-04-1.25146E-02 2.30728E-05-2.53795E-05
 -1      9598 1.30991E+01-4.89959E+00 1.78996E-04-1.35978E-02 7.32517E-06-1.78324E-05
 -1      9599 1.26823E+01-4.48565E+00-7.35540E-05-2.01553E+00 8.27088E-06-1.05360E-06
 -1      9600 1.38727E+01-1.92654E+00 1.86802E-04-1.30205E-02-1.43614E-05-6.43054E-07
 -1      9601 1.30694E+01-4.86980E+00 2.30598E-04-1.39025E-02-1.21906E-05 3.20687E-06
 -1      9602 1.26680E+01-4.47127E+00-7.48216E-05-2.01283E+00 1.06102E-12-4.34188E-14
 -1      9603 1.38565E+01-1.91037E+00 1.92301E-04-1.31747E-02 5.19317E-13-2.97164E-12
 -1      9604 1.30694E+01-4.86980E+00 2.30598E-04-1.39025E-02 1.21906E-05-3.20687E-06
 -1      9605 1.26823E+01-4.48565E+00-7.35540E-05-2.01553E+00-8.27088E-06 1.05360E-06
 -1      9606 1.38727E+01-1.92654E+00 1.86802E-04-1.30205E-02 1.43614E-05 6.43056E-07
 -1      9607 1.30991E+01-4.89959E+00 1.78996E-04-1.35978E-02-7.32517E-06 1.78324E-05
 -1      9608 1.27254E+01-4.52874E+00-7.82889E-05-2.02364E+00 1.39272E-05-9.28673E-06
 -1      9609 1.39213E+01-1.97513E+00 1.90805E-04-1.25146E-02-2.30728E-05 2.53795E-05
 -1      9610 1.31587E+01-4.95912E+00 2.66326E-04-1.29774E-02 1.09751E-06 1.69094E-06
 -1      9611 1.22512E+01-4.16864E+00 2.92805E-04 3.97696E+00-5.32767E-06-2.34669E-07
 -1      9612 1.26709E+01-4.52997E+00-7.86020E-05 1.97466E+00-2.23363E-05 1.36484E-05
 -1      9613 1.30146E+01-1.22081E+00 1.90766E-04 3.78504E+00 3.67211E-05-3.35826E-05
 -1      9614 1.21963E+01-4.11377E+00 1.53851E-04 3.95364E+00 9.32634E-06-2.22749E-05
 -1      9615 1.26279E+01-4.48704E+00-7.19437E-05 1.96570E+00 1.39071E-05-3.40880E-06
 -1      9616 1.29698E+01-1.17602E+00 1.83110E-04 3.76603E+00-2.52823E-05 4.35643E-06
 -1      9617 1.21689E+01-4.08631E+00 2.36604E-04 3.94199E+00-1.97179E-05 9.61114E-06
 -1      9618 1.26136E+01-4.47271E+00-7.48560E-05 1.96270E+00 6.45865E-13-2.37113E-13
 -1      9619 1.29549E+01-1.16113E+00 1.91640E-04 3.75972E+00 1.50786E-12 1.28801E-12
 -1      9620 1.21689E+01-4.08631E+00 2.36604E-04 3.94199E+00 1.97179E-05-9.61114E-06
 -1      9621 1.26279E+01-4.48704E+00-7.19437E-05 1.96570E+00-1.39071E-05 3.40880E-06
 -1      9622 1.29698E+01-1.17602E+00 1.83110E-04 3.76603E+00 2.52823E-05-4.35643E-06
 -1      9623 1.21963E+01-4.11377E+00 1.53851E-04 3.95364E+00-9.32634E-06 2.22749E-05
 -1      9624 1.26709E+01-4.52997E+00-7.86020E-05 1.97466E+00 2.23363E-05-1.36484E-05
 -1      9625 1.30146E+01-1.22081E+00 1.90766E-04 3.78504E+00-3.67211E-05 3.35826E-05
 -1      9626 1.22512E+01-4.16864E+00 2.92805E-04 3.97696E+00 5.32767E-06 2.34669E-07
 -1      9627 9.77222E+00-1.93001E+00 3.38806E-04 7.30600E+00-9.36250E-06 4.26688E-06
 -1      9628 1.09831E+01-3.02079E+00-7.98726E-05 5.62181E+00-3.56415E-05 2.26983E-05
 -1      9629 1.05486E+01 9.06666E-01 1.90621E-04 6.93501E+00 5.93061E-05-5.08628E-05
 -1      9630 9.73021E+00-1.88811E+00 1.11809E-04 7.26344E+00 1.33383E-05-3.02779E-05
 -1      9631 1.09467E+01-2.98447E+00-6.96146E-05 5.59713E+00 2.24150E-05-8.73213E-06
 -1      9632 1.05144E+01 9.40903E-01 1.76121E-04 6.90030E+00-4.10182E-05 1.52703E-05
 -1      9633 9.70929E+00-1.86710E+00 2.45572E-04 7.24218E+00-2.98599E-05 2.18181E-05
 -1      9634 1.09346E+01-2.97234E+00-7.49894E-05 5.58887E+00 6.07067E-13-5.31076E-13
 -1      9635 1.05029E+01 9.52270E-01 1.89320E-04 6.88878E+00 6.29016E-13-1.54354E-12
 -1      9636 9.70929E+00-1.86710E+00 2.45572E-04 7.24218E+00 2.98599E-05-2.18181E-05
 -1      9637 1.09467E+01-2.98447E+00-6.96146E-05 5.59713E+00-2.24150E-05 8.73213E-06
 -1      9638 1.05144E+01 9.40903E-01 1.76121E-04 6.90030E+00 4.10182E-05-1.52703E-05
 -1      9639 9.73021E+00-1.88811E+00 1.11809E-04 7.26344E+00-1.33383E-05 3.02779E-05
 -1      9640 1.09831E+01-3.02079E+00-7.98726E-05 5.62181E+00 3.56415E-05-2.26983E-05
 -1      9641 1.05486E+01 9.06666E-01 1.90621E-04 6.93501E+00-5.93061E-05 5.08628E-05
 -1      9642 9.77222E+00-1.93001E+00 3.38806E-04 7.30600E+00 9.36251E-06-4.26688E-06
 -1      9643 6.08391E+00 1.39359E+00 4.17563E-04 9.44438E+00-1.32184E-05 1.36649E-05
 -1      9644 7.90907E+00-2.49337E-01-8.19005E-05 8.34616E+00-5.61491E-05 4.08382E-05
 -1      9645 6.87803E+00 4.05308E+00 1.91941E-04 8.91844E+00 9.45772E-05-8.48756E-05
 -1      9646 6.06123E+00 1.41608E+00 4.29477E-05 9.38895E+00 2.01093E-05-4.56647E-05
 -1      9647 7.88483E+00-2.25137E-01-6.53855E-05 8.30944E+00 3.46139E-05-1.91765E-05
 -1      9648 6.85966E+00 4.07152E+00 1.64945E-04 8.87321E+00-6.30513E-05 3.65395E-05
 -1      9649 6.05001E+00 1.42744E+00 2.59410E-04 9.36126E+00-4.26514E-05 4.34766E-05
 -1      9650 7.87681E+00-2.17037E-01-7.46590E-05 8.29716E+00 6.08670E-13-1.00874E-12
 -1      9651 6.85342E+00 4.07761E+00 1.85056E-04 8.85821E+00 8.35113E-13-1.11870E-12
 -1      9652 6.05001E+00 1.42744E+00 2.59410E-04 9.36126E+00 4.26514E-05-4.34766E-05
 -1      9653 7.88483E+00-2.25137E-01-6.53855E-05 8.30944E+00-3.46139E-05 1.91765E-05
 -1      9654 6.85966E+00 4.07152E+00 1.64945E-04 8.87321E+00 6.30513E-05-3.65395E-05
 -1      9655 6.06123E+00 1.41608E+00 4.29477E-05 9.38895E+00-2.01093E-05 4.56646E-05
 -1      9656 7.90907E+00-2.49337E-01-8.19005E-05 8.34616E+00 5.61491E-05-4.08382E-05
 -1      9657 6.87803E+00 4.05308E+00 1.91941E-04 8.91844E+00-9.45772E-05 8.48756E-05
 -1      9658 6.08391E+00 1.39359E+00 4.17563E-04 9.44438E+00 1.32184E-05-1.36649E-05
 -1      9659 1.73154E+00 5.25902E+00 5.52601E-04 1.00360E+01-1.55422E-05 3.26589E-05
 -1      9660 3.90123E+00 3.33266E+00-8.72063E-05 9.70622E+00-8.62748E-05 7.44521E-05
 -1      9661 2.53903E+00 7.68684E+00 1.92949E-04 9.38622E+00 1.48702E-04-1.52399E-04
 -1      9662 1.73166E+00 5.25857E+00-6.71582E-05 9.97610E+00 3.06531E-05-7.48998E-05
 -1      9663 3.89280E+00 3.34102E+00-5.92375E-05 9.66303E+00 5.15504E-05-3.86350E-05
 -1      9664 2.53940E+00 7.68659E+00 1.45157E-04 9.33732E+00-9.17293E-05 7.37286E-05
 -1      9665 1.73192E+00 5.25854E+00 2.80813E-04 9.94620E+00-5.72332E-05 7.99840E-05
 -1      9666 3.89011E+00 3.34384E+00-7.39499E-05 9.64856E+00 6.57488E-13-1.00310E-12
 -1      9667 2.53930E+00 7.68646E+00 1.75829E-04 9.32114E+00 2.10305E-13-1.21080E-12
 -1      9668 1.73192E+00 5.25854E+00 2.80813E-04 9.94620E+00 5.72332E-05-7.99840E-05
 -1      9669 3.89280E+00 3.34102E+00-5.92375E-05 9.66303E+00-5.15504E-05 3.86350E-05
 -1      9670 2.53940E+00 7.68659E+00 1.45157E-04 9.33732E+00 9.17293E-05-7.37286E-05
 -1      9671 1.73166E+00 5.25857E+00-6.71582E-05 9.97610E+00-3.06531E-05 7.48998E-05
 -1      9672 3.90123E+00 3.33266E+00-8.72063E-05 9.70622E+00 8.62748E-05-7.44521E-05
 -1      9673 2.53903E+00 7.68684E+00 1.92949E-04 9.38622E+00-1.48702E-04 1.52399E-04
 -1      9674 1.73154E+00 5.25902E+00 5.52601E-04 1.00360E+01 1.55422E-05-3.26589E-05
 -1      9675-2.63489E+00 9.02315E+00 7.90040E-04 8.96101E+00-1.57747E-05 7.17103E-05
 -1      9676-4.44802E-01 7.13400E+00-9.43279E-05 9.46485E+00-1.30451E-04 1.39339E-04
 -1      9677-1.82741E+00 1.11773E+01 2.11295E-04 8.22108E+00 2.22620E-04-2.68861E-04
 -1      9678-2.61200E+00 8.99971E+00-2.36497E-04 8.90580E+00 4.65335E-05-1.33729E-04
 -1      9679-4.36130E-01 7.12521E+00-4.75892E-05 9.42178E+00 7.22217E-05-7.06429E-05
 -1      9680-1.80824E+00 1.11584E+01 1.24276E-04 8.17603E+00-1.26808E-04 1.38306E-04
 -1      9681-2.60024E+00 8.98833E+00 3.10578E-04 8.87827E+00-7.05387E-05 1.36139E-04
 -1      9682-4.33023E-01 7.12232E+00-7.01926E-05 9.40733E+00 1.02343E-13-1.06587E-12
 -1      9683-1.80227E+00 1.11520E+01 1.63730E-04 8.16116E+00 2.09363E-13-1.05081E-12
 -1      9684-2.60024E+00 8.98833E+00 3.10578E-04 8.87827E+00 7.05387E-05-1.36139E-04
 -1      9685-4.36130E-01 7.12521E+00-4.75892E-05 9.42178E+00-7.22217E-05 7.06429E-05
 -1      9686-1.80824E+00 1.11584E+01 1.24276E-04 8.17603E+00 1.26808E-04-1.38306E-04
 -1      9687-2.61200E+00 8.99971E+00-2.36497E-04 8.90580E+00-4.65335E-05 1.33729E-04
 -1      9688-4.44802E-01 7.13400E+00-9.43279E-05 9.46485E+00 1.30451E-04-1.39339E-04
 -1      9689-1.82741E+00 1.11773E+01 2.11295E-04 8.22108E+00-2.22620E-04 2.68861E-04
 -1      9690-2.63489E+00 9.02315E+00 7.90040E-04 8.96101E+00 1.57747E-05-7.17103E-05
 -1      9691-6.35964E+00 1.20431E+01 1.20727E-03 6.36558E+00-3.87031E-06 1.59588E-04
 -1      9692-4.47843E+00 1.05139E+01-1.23723E-04 7.63517E+00-1.86581E-04 2.42557E-04
 -1      9693-5.57176E+00 1.38927E+01 2.09050E-04 5.56789E+00 3.38185E-04-5.11429E-04
 -1      9694-6.31770E+00 1.20003E+01-4.90183E-04 6.32354E+00 7.54762E-05-2.49644E-04
 -1      9695-4.45408E+00 1.04893E+01-3.81602E-05 7.59884E+00 9.65547E-05-1.24529E-04
 -1      9696-5.53664E+00 1.38581E+01 6.45721E-05 5.53364E+00-1.50430E-04 2.19443E-04
 -1      9697-6.29619E+00 1.19794E+01 3.32029E-04 6.30260E+00-7.56174E-05 2.14095E-04
 -1      9698-4.44558E+00 1.04812E+01-6.20235E-05 7.58662E+00-2.84695E-13-1.11553E-12
 -1      9699-5.52569E+00 1.38465E+01 1.09534E-04 5.52237E+00-6.24801E-13-1.32517E-12
 -1      9700-6.29619E+00 1.19794E+01 3.32029E-04 6.30260E+00 7.56174E-05-2.14095E-04
 -1      9701-4.45408E+00 1.04893E+01-3.81602E-05 7.59884E+00-9.65547E-05 1.24529E-04
 -1      9702-5.53664E+00 1.38581E+01 6.45721E-05 5.53364E+00 1.50430E-04-2.19443E-04
 -1      9703-6.31770E+00 1.20003E+01-4.90183E-04 6.32354E+00-7.54762E-05 2.49644E-04
 -1      9704-4.47843E+00 1.05139E+01-1.23723E-04 7.63517E+00 1.86581E-04-2.42557E-04
 -1      9705-5.57176E+00 1.38927E+01 2.09050E-04 5.56789E+00-3.38185E-04 5.11429E-04
 -1      9706-6.35964E+00 1.20431E+01 1.20727E-03 6.36558E+00 3.87031E-06-1.59588E-04
 -1      9707-8.89154E+00 1.37860E+01 2.02013E-03 2.65537E+00 6.56324E-06 3.73990E-04
 -1      9708-7.59831E+00 1.28864E+01-1.40767E-04 4.49191E+00-2.76975E-04 4.69358E-04
 -1      9709-8.14282E+00 1.53069E+01 3.76550E-04 1.82946E+00 4.40924E-04-8.12957E-04
 -1      9710-8.83747E+00 1.37303E+01-8.07980E-04 2.63264E+00 1.42528E-04-5.39872E-04
 -1      9711-7.56233E+00 1.28499E+01 3.59697E-06 4.46780E+00 9.91399E-05-1.73264E-04
 -1      9712-8.09705E+00 1.52621E+01 9.22487E-05 1.81114E+00-1.46368E-04 3.27465E-04
 -1      9713-8.80940E+00 1.37033E+01 2.66214E-04 2.62137E+00-5.24746E-05 2.68026E-04
 -1      9714-7.54967E+00 1.28378E+01-1.14923E-05 4.45969E+00-3.47414E-13-1.26363E-12
 -1      9715-8.08306E+00 1.52471E+01 4.73331E-05 1.80510E+00-2.11451E-13-1.44574E-12
 -1      9716-8.80940E+00 1.37033E+01 2.66214E-04 2.62137E+00 5.24746E-05-2.68026E-04
 -1      9717-7.56233E+00 1.28499E+01 3.59697E-06 4.46780E+00-9.91399E-05 1.73264E-04
 -1      9718-8.09705E+00 1.52621E+01 9.22487E-05 1.81114E+00 1.46368E-04-3.27465E-04
 -1      9719-8.83747E+00 1.37303E+01-8.07980E-04 2.63264E+00-1.42528E-04 5.39872E-04
 -1      9720-7.59831E+00 1.28864E+01-1.40767E-04 4.49191E+00 2.76975E-04-4.69358E-04
 -1      9721-8.14282E+00 1.53069E+01 3.76550E-04 1.82946E+00-4.40924E-04 8.12957E-04
 -1      9722-8.89154E+00 1.37860E+01 2.02013E-03 2.65537E+00-6.56324E-06-3.73990E-04
 -1      9723-9.89970E+00 1.39365E+01 3.58488E-03-1.55230E+00 4.98499E-05 9.81766E-04
 -1      9724-9.36453E+00 1.38279E+01-3.47446E-04 5.44055E-01-3.22290E-04 6.76461E-04
 -1      9725-9.20130E+00 1.51056E+01 1.89768E-04-2.37594E+00 7.50672E-04-1.81067E-03
 -1      9726-9.84241E+00 1.38763E+01-1.07837E-03-1.55354E+00 3.32968E-04-1.21335E-03
 -1      9727-9.32290E+00 1.37853E+01-2.32737E-05 5.35319E-01 8.52839E-05-2.20262E-04
 -1      9728-9.15129E+00 1.50583E+01-2.27053E-04-2.37651E+00 9.22598E-05 6.28343E-05
 -1      9729-9.81158E+00 1.38475E+01-2.22924E-04-1.55411E+00 4.25988E-05 1.56422E-04
 -1      9730-9.30795E+00 1.37712E+01 1.15632E-04 5.32418E-01-5.65632E-13-1.40804E-12
 -1      9731-9.13652E+00 1.50422E+01-4.78763E-04-2.37680E+00-1.19875E-12-1.41397E-12
 -1      9732-9.81158E+00 1.38475E+01-2.22924E-04-1.55411E+00-4.25988E-05-1.56422E-04
 -1      9733-9.32290E+00 1.37853E+01-2.32737E-05 5.35319E-01-8.52839E-05 2.20262E-04
 -1      9734-9.15129E+00 1.50583E+01-2.27053E-04-2.37651E+00-9.22598E-05-6.28343E-05
 -1      9735-9.84241E+00 1.38763E+01-1.07837E-03-1.55354E+00-3.32968E-04 1.21335E-03
 -1      9736-9.36453E+00 1.38279E+01-3.47446E-04 5.44055E-01 3.22290E-04-6.76461E-04
 -1      9737-9.20130E+00 1.51056E+01 1.89768E-04-2.37594E+00-7.50672E-04 1.81067E-03
 -1      9738-9.89970E+00 1.39365E+01 3.58488E-03-1.55230E+00-4.98499E-05-9.81766E-04
 -1      9739-9.38260E+00 1.24747E+01 7.74726E-03-5.52894E+00-9.65569E-05 2.89325E-03
 -1      9740-9.60826E+00 1.31688E+01-3.08908E-04-3.53926E+00-6.28253E-04 1.72161E-03
 -1      9741-8.73014E+00 1.32709E+01 1.96808E-03-6.31008E+00 5.40118E-04-1.66507E-03
 -1      9742-9.33055E+00 1.24165E+01-2.54484E-04-5.51198E+00 1.02899E-03-3.61690E-03
 -1      9743-9.56801E+00 1.31256E+01 2.81881E-04-3.53282E+00-2.45266E-04 3.26067E-04
 -1      9744-8.68008E+00 1.32286E+01 7.00057E-04-6.29623E+00 6.78175E-04-8.66119E-04
 -1      9745-9.29888E+00 1.23895E+01-2.35398E-03-5.50386E+00 4.61150E-04-1.07718E-03
 -1      9746-9.55310E+00 1.31116E+01 7.61361E-04-3.53051E+00-1.22750E-12-1.47342E-12
 -1      9747-8.66572E+00 1.32135E+01-9.16170E-04-6.29207E+00-1.30548E-12-1.63066E-12
 -1      9748-9.29888E+00 1.23895E+01-2.35398E-03-5.50386E+00-4.61150E-04 1.07718E-03
 -1      9749-9.56801E+00 1.31256E+01 2.81881E-04-3.53282E+00 2.45266E-04-3.26067E-04
 -1      9750-8.68008E+00 1.32286E+01 7.00057E-04-6.29623E+00-6.78175E-04 8.66119E-04
 -1      9751-9.33055E+00 1.24165E+01-2.54484E-04-5.51198E+00-1.02899E-03 3.61690E-03
 -1      9752-9.60826E+00 1.31688E+01-3.08908E-04-3.53926E+00 6.28253E-04-1.72161E-03
 -1      9753-8.73014E+00 1.32709E+01 1.96808E-03-6.31008E+00-5.40118E-04 1.66507E-03
 -1      9754-9.38260E+00 1.24747E+01 7.74726E-03-5.52894E+00 9.65569E-05-2.89325E-03
 -1      9755-7.70696E+00 9.63808E+00 1.81634E-02-8.60576E+00-1.37481E-03 1.08246E-02
 -1      9756-8.50677E+00 1.10094E+01-2.47141E-03-7.06330E+00 1.32042E-05 7.57886E-04
 -1      9757-7.09092E+00 1.00521E+01-2.72062E-04-9.29711E+00 1.78984E-03-7.30481E-03
 -1      9758-7.66897E+00 9.58006E+00 6.63747E-03-8.57885E+00 1.35904E-03-7.95651E-03
 -1      9759-8.47383E+00 1.09685E+01-3.57043E-04-7.04615E+00-6.14983E-04 1.80466E-03
 -1      9760-7.03689E+00 1.00185E+01-2.04361E-03-9.27703E+00 2.86187E-03-8.14095E-03
 -1      9761-7.63388E+00 9.55341E+00-7.97422E-03-8.56663E+00 1.07543E-03-5.36200E-03
 -1      9762-8.46157E+00 1.09559E+01 2.29559E-03-7.04000E+00-2.03575E-12-1.43473E-12
 -1      9763-7.01771E+00 1.00065E+01-5.50694E-03-9.27132E+00-2.48519E-12-1.90341E-12
 -1      9764-7.63388E+00 9.55341E+00-7.97422E-03-8.56663E+00-1.07543E-03 5.36200E-03
 -1      9765-8.47383E+00 1.09685E+01-3.57043E-04-7.04615E+00 6.14983E-04-1.80466E-03
 -1      9766-7.03689E+00 1.00185E+01-2.04361E-03-9.27703E+00-2.86187E-03 8.14095E-03
 -1      9767-7.66897E+00 9.58006E+00 6.63747E-03-8.57885E+00-1.35904E-03 7.95651E-03
 -1      9768-8.50677E+00 1.10094E+01-2.47141E-03-7.06330E+00-1.32042E-05-7.57886E-04
 -1      9769-7.09092E+00 1.00521E+01-2.72062E-04-9.29711E+00-1.78984E-03 7.30481E-03
 -1      9770-7.70696E+00 9.63808E+00 1.81634E-02-8.60576E+00 1.37481E-03-1.08246E-02
 -1      9771-5.32767E+00 5.57170E+00 8.67989E-02-1.04055E+01-1.53574E-02 1.01169E-01
 -1      9772-6.50362E+00 7.52979E+00-5.02486E-03-9.51056E+00-2.41259E-03 5.84055E-03
 -1      9773-4.75985E+00 5.69481E+00 1.04722E-01-1.10152E+01-3.21141E-02 9.56704E-02
 -1      9774-5.38112E+00 5.50889E+00 1.60910E-01-1.03774E+01-2.11953E-02 9.64664E-02
 -1      9775-6.48434E+00 7.48747E+00-4.25096E-03-9.49011E+00-3.32089E-03 9.48086E-03
 -1      9776-4.79963E+00 5.64761E+00 1.36778E-01-1.09795E+01-2.12572E-02 5.54742E-02
 -1      9777-5.41799E+00 5.47069E+00 1.77589E-01-1.03549E+01-8.97142E-03 3.35817E-02
 -1      9778-6.48178E+00 7.47383E+00 3.39030E-05-9.48235E+00-2.99530E-12-1.47505E-12
 -1      9779-4.80981E+00 5.63231E+00 1.45187E-01-1.09656E+01-4.06179E-12-2.71559E-12
 -1      9780-5.41799E+00 5.47069E+00 1.77589E-01-1.03549E+01 8.97142E-03-3.35817E-02
 -1      9781-6.48434E+00 7.48747E+00-4.25096E-03-9.49011E+00 3.32089E-03-9.48086E-03
 -1      9782-4.79963E+00 5.64761E+00 1.36778E-01-1.09795E+01 2.12572E-02-5.54742E-02
 -1      9783-5.38112E+00 5.50889E+00 1.60910E-01-1.03774E+01 2.11953E-02-9.64664E-02
 -1      9784-6.50362E+00 7.52979E+00-5.02486E-03-9.51056E+00 2.41259E-03-5.84055E-03
 -1      9785-4.75985E+00 5.69481E+00 1.04722E-01-1.10152E+01 3.21141E-02-9.56704E-02
 -1      9786-5.32767E+00 5.57170E+00 8.67989E-02-1.04055E+01 1.53574E-02-1.01169E-01
 -1      9787-3.97568E+00 2.44427E+00-1.40083E-01-1.08362E+01-1.66202E-02-2.94711E-02
 -1      9788-4.02920E+00 2.37821E+00-2.09601E-01-1.07894E+01-1.33304E-02-1.73318E-02
 -1      9789-4.04705E+00 2.35608E+00-2.36423E-01-1.07751E+01-2.89507E-12-9.02118E-13
 -1      9790-4.02920E+00 2.37821E+00-2.09601E-01-1.07894E+01 1.33304E-02 1.73318E-02
 -1      9791-3.97568E+00 2.44427E+00-1.40083E-01-1.08362E+01 1.66202E-02 2.94711E-02
 -1      9792-2.58548E+00-5.59088E+00-6.24696E-03 7.40991E+00 3.19401E-03-6.98923E-03
 -1      9793-1.01390E+00-6.29491E+00 3.78864E-05 3.78621E+00-4.22339E-03-2.81401E-02
 -1      9794-2.78972E+00-6.65880E+00-1.57314E-02 8.28536E+00 7.89128E-03-1.65585E-02
 -1      9795-2.65560E+00-5.53002E+00-2.30653E-02 7.31067E+00 5.08270E-03-1.30802E-02
 -1      9796-1.03767E+00-6.20004E+00 4.03173E-03 3.73833E+00-3.22802E-03-2.10205E-02
 -1      9797-2.83471E+00-6.60564E+00-3.69783E-02 8.19044E+00 5.90554E-03-1.47169E-02
 -1      9798-2.68358E+00-5.49810E+00-3.63596E-02 7.25967E+00 2.20042E-03-6.13632E-03
 -1      9799-1.04386E+00-6.16846E+00 5.56257E-03 3.72257E+00-3.57699E-12 5.13385E-13
 -1      9800-2.84753E+00-6.58750E+00-4.57864E-02 8.15857E+00-3.43986E-12 2.73995E-12
 -1      9801-2.68358E+00-5.49810E+00-3.63596E-02 7.25967E+00-2.20042E-03 6.13632E-03
 -1      9802-1.03767E+00-6.20004E+00 4.03173E-03 3.73833E+00 3.22802E-03 2.10205E-02
 -1      9803-2.83471E+00-6.60564E+00-3.69783E-02 8.19044E+00-5.90554E-03 1.47169E-02
 -1      9804-2.65560E+00-5.53002E+00-2.30653E-02 7.31067E+00-5.08270E-03 1.30802E-02
 -1      9805-1.01390E+00-6.29491E+00 3.78864E-05 3.78621E+00 4.22339E-03 2.81401E-02
 -1      9806-2.78972E+00-6.65880E+00-1.57314E-02 8.28536E+00-7.89128E-03 1.65585E-02
 -1      9807-2.58548E+00-5.59088E+00-6.24696E-03 7.40991E+00-3.19401E-03 6.98923E-03
 -1      9808-8.59852E+00 1.93813E+00-8.62679E-04 9.54974E+00 4.28129E-04-6.58212E-04
 -1      9809-5.63873E+00-1.75966E+00 2.68195E-03 8.47520E+00-1.09107E-04-2.14957E-04
 -1      9810-8.95749E+00 1.89154E+00-1.10749E-03 1.05547E+01-1.45249E-04 1.79686E-04
 -1      9811-8.57130E+00 1.91155E+00-1.28174E-03 9.45116E+00 3.42303E-04-1.13300E-04
 -1      9812-5.65253E+00-1.74713E+00 2.96098E-04 8.40269E+00-2.36881E-04-5.69308E-04
 -1      9813-8.93271E+00 1.86694E+00 6.03786E-04 1.04687E+01-2.93331E-05 4.49195E-04
 -1      9814-8.55842E+00 1.89818E+00-1.16303E-03 9.40206E+00 5.40934E-05 9.61628E-05
 -1      9815-5.65649E+00-1.74275E+00-3.96234E-04 8.37841E+00-2.48178E-12 2.37657E-15
 -1      9816-8.92495E+00 1.85857E+00 9.98712E-04 1.04402E+01-1.34895E-12 4.24175E-12
 -1      9817-8.55842E+00 1.89818E+00-1.16303E-03 9.40206E+00-5.40934E-05-9.61628E-05
 -1      9818-5.65253E+00-1.74713E+00 2.96098E-04 8.40269E+00 2.36881E-04 5.69308E-04
 -1      9819-8.93271E+00 1.86694E+00 6.03786E-04 1.04687E+01 2.93331E-05-4.49195E-04
 -1      9820-8.57130E+00 1.91155E+00-1.28174E-03 9.45116E+00-3.42303E-04 1.13300E-04
 -1      9821-5.63873E+00-1.75966E+00 2.68195E-03 8.47520E+00 1.09107E-04 2.14957E-04
 -1      9822-8.95749E+00 1.89154E+00-1.10749E-03 1.05547E+01 1.45249E-04-1.79686E-04
 -1      9823-8.59852E+00 1.93813E+00-8.62679E-04 9.54974E+00-4.28129E-04 6.58212E-04
 -1      9824-1.31622E+01 9.04628E+00 1.10468E-05 6.69299E+00 1.55927E-04-1.72072E-04
 -1      9825-1.08927E+01 5.52556E+00-3.42999E-04 8.08466E+00-2.81403E-04 1.95501E-04
 -1      9826-1.34096E+01 9.76779E+00 6.41354E-04 7.45496E+00 3.44739E-04-1.42218E-04
 -1      9827-1.30834E+01 8.96770E+00 2.61587E-05 6.63400E+00 7.66880E-05 1.98771E-05
 -1      9828-1.08523E+01 5.48592E+00 4.88026E-04 8.02590E+00-1.20687E-04 5.80160E-05
 -1      9829-1.33426E+01 9.70015E+00 1.85013E-06 7.40659E+00 1.17783E-04-3.47755E-05
 -1      9830-1.30441E+01 8.92841E+00 9.87606E-05 6.60462E+00-1.53243E-07 3.19970E-05
 -1      9831-1.08388E+01 5.47266E+00 6.61797E-04 8.00628E+00-3.17673E-12 3.84728E-12
 -1      9832-1.33202E+01 9.67768E+00-9.23839E-05 7.39050E+00-8.66014E-13 2.32978E-12
 -1      9833-1.30441E+01 8.92841E+00 9.87606E-05 6.60462E+00 1.53240E-07-3.19970E-05
 -1      9834-1.08523E+01 5.48592E+00 4.88026E-04 8.02590E+00 1.20687E-04-5.80160E-05
 -1      9835-1.33426E+01 9.70015E+00 1.85013E-06 7.40659E+00-1.17783E-04 3.47755E-05
 -1      9836-1.30834E+01 8.96770E+00 2.61587E-05 6.63400E+00-7.66880E-05-1.98771E-05
 -1      9837-1.08927E+01 5.52556E+00-3.42999E-04 8.08466E+00 2.81403E-04-1.95501E-04
 -1      9838-1.34096E+01 9.76779E+00 6.41354E-04 7.45496E+00-3.44739E-04 1.42218E-04
 -1      9839-1.31622E+01 9.04628E+00 1.10468E-05 6.69299E+00-1.55927E-04 1.72072E-04
 -1      9840-1.45203E+01 1.26792E+01 3.43550E-04 1.32831E+00 8.49322E-05-8.63237E-05
 -1      9841-1.38099E+01 1.08453E+01 2.37820E-06 3.96992E+00-1.73026E-05-3.06313E-05
 -1      9842-1.44375E+01 1.38478E+01 2.69976E-04 1.86994E+00 6.94937E-05 1.61221E-05
 -1      9843-1.44314E+01 1.25903E+01 4.39815E-04 1.31617E+00 5.49756E-05 1.44108E-06
 -1      9844-1.37470E+01 1.07823E+01-2.05925E-04 3.94358E+00 2.80476E-06-3.35578E-05
 -1      9845-1.43640E+01 1.37743E+01 4.53648E-04 1.86214E+00 1.42390E-05 1.39570E-05
 -1      9846-1.43870E+01 1.25459E+01 4.57351E-04 1.31014E+00 1.04565E-05 3.43821E-06
 -1      9847-1.37260E+01 1.07613E+01-2.74085E-04 3.93480E+00 2.31954E-12 3.96727E-13
 -1      9848-1.43395E+01 1.37498E+01 5.09981E-04 1.85953E+00 3.83221E-12-1.28623E-12
 -1      9849-1.43870E+01 1.25459E+01 4.57351E-04 1.31014E+00-1.04565E-05-3.43822E-06
 -1      9850-1.37470E+01 1.07823E+01-2.05925E-04 3.94358E+00-2.80476E-06 3.35578E-05
 -1      9851-1.43640E+01 1.37743E+01 4.53648E-04 1.86214E+00-1.42390E-05-1.39570E-05
 -1      9852-1.44314E+01 1.25903E+01 4.39815E-04 1.31617E+00-5.49756E-05-1.44109E-06
 -1      9853-1.38099E+01 1.08453E+01 2.37820E-06 3.96992E+00 1.73026E-05 3.06313E-05
 -1      9854-1.44375E+01 1.38478E+01 2.69976E-04 1.86994E+00-6.94937E-05-1.61221E-05
 -1      9855-1.45203E+01 1.26792E+01 3.43550E-04 1.32831E+00-8.49322E-05 8.63237E-05
 -1      9856-1.29440E+01 1.26689E+01 4.37121E-04-4.16128E+00 4.70222E-05-2.57794E-05
 -1      9857-1.36810E+01 1.26284E+01-2.60325E-04-1.43171E+00-5.34571E-05 6.07896E-06
 -1      9858-1.25192E+01 1.41275E+01 3.90611E-04-3.69570E+00 7.70230E-05-5.28860E-06
 -1      9859-1.28696E+01 1.25946E+01 5.32696E-04-4.13804E+00 3.01053E-05 2.65531E-06
 -1      9860-1.36198E+01 1.25673E+01-2.16046E-04-1.42736E+00-1.41672E-05 5.57717E-06
 -1      9861-1.24591E+01 1.40674E+01 3.72277E-04-3.67469E+00 1.54456E-05-1.02377E-05
 -1      9862-1.28324E+01 1.25574E+01 5.34268E-04-4.12640E+00 6.13551E-06-2.63113E-06
 -1      9863-1.35994E+01 1.25470E+01-2.11475E-04-1.42591E+00 2.40532E-12 1.92709E-12
 -1      9864-1.24391E+01 1.40474E+01 3.75042E-04-3.66770E+00-5.54618E-13 6.70626E-12
 -1      9865-1.28324E+01 1.25574E+01 5.34268E-04-4.12640E+00-6.13551E-06 2.63113E-06
 -1      9866-1.36198E+01 1.25673E+01-2.16046E-04-1.42736E+00 1.41672E-05-5.57718E-06
 -1      9867-1.24591E+01 1.40674E+01 3.72277E-04-3.67469E+00-1.54456E-05 1.02377E-05
 -1      9868-1.28696E+01 1.25946E+01 5.32696E-04-4.13804E+00-3.01053E-05-2.65531E-06
 -1      9869-1.36810E+01 1.26284E+01-2.60325E-04-1.43171E+00 5.34571E-05-6.07896E-06
 -1      9870-1.25192E+01 1.41275E+01 3.90611E-04-3.69570E+00-7.70230E-05 5.28860E-06
 -1      9871-1.29440E+01 1.26689E+01 4.37121E-04-4.16128E+00-4.70221E-05 2.57794E-05
 -1      9872-9.41268E+00 1.00345E+01 3.89511E-04-8.44448E+00 3.45598E-05 4.35655E-06
 -1      9873-1.11327E+01 1.13067E+01-1.99051E-04-6.29049E+00-2.85837E-05-3.77274E-06
 -1      9874-8.75124E+00 1.17527E+01 3.31761E-04-7.96771E+00 4.29971E-05 1.22862E-06
 -1      9875-9.36199E+00 9.98379E+00 4.52025E-04-8.40016E+00 2.37331E-05 1.36657E-06
 -1      9876-1.10859E+01 1.12599E+01-2.23265E-04-6.26511E+00-4.12861E-06 2.30961E-07
 -1      9877-8.71108E+00 1.17125E+01 3.60112E-04-7.93042E+00 2.49023E-06-3.87377E-06
 -1      9878-9.33668E+00 9.95845E+00 4.45755E-04-8.37800E+00 4.01453E-06-4.06636E-06
 -1      9879-1.10703E+01 1.12443E+01-2.30478E-04-6.25665E+00-4.20667E-13 2.64719E-12
 -1      9880-8.69767E+00 1.16991E+01 3.65423E-04-7.91799E+00-7.75421E-14-7.07546E-12
 -1      9881-9.33668E+00 9.95845E+00 4.45755E-04-8.37800E+00-4.01453E-06 4.06635E-06
 -1      9882-1.10859E+01 1.12599E+01-2.23265E-04-6.26511E+00 4.12861E-06-2.30963E-07
 -1      9883-8.71108E+00 1.17125E+01 3.60112E-04-7.93042E+00-2.49023E-06 3.87378E-06
 -1      9884-9.36199E+00 9.98379E+00 4.52025E-04-8.40016E+00-2.37331E-05-1.36656E-06
 -1      9885-1.11327E+01 1.13067E+01-1.99051E-04-6.29049E+00 2.85837E-05 3.77274E-06
 -1      9886-8.75124E+00 1.17527E+01 3.31761E-04-7.96771E+00-4.29971E-05-1.22861E-06
 -1      9887-9.41268E+00 1.00345E+01 3.89511E-04-8.44448E+00-3.45598E-05-4.35655E-06
 -1      9888-4.85077E+00 5.90162E+00 3.26687E-04-1.09988E+01 2.73250E-05 1.30311E-05
 -1      9889-7.10318E+00 7.93826E+00-1.64586E-04-9.69284E+00-2.10992E-05 1.10773E-06
 -1      9890-4.06798E+00 7.88333E+00 2.96105E-04-1.05048E+01 3.24815E-05-8.72966E-06
 -1      9891-4.82540E+00 5.87625E+00 3.49882E-04-1.09448E+01 1.65482E-05-4.49180E-06
 -1      9892-7.07470E+00 7.90979E+00-1.63678E-04-9.65599E+00-4.31815E-07 1.95812E-06
 -1      9893-4.04829E+00 7.86363E+00 2.98502E-04-1.04604E+01-4.30402E-07-5.51296E-06
 -1      9894-4.81273E+00 5.86357E+00 3.45364E-04-1.09178E+01 4.45515E-07-4.88525E-06
 -1      9895-7.06522E+00 7.90030E+00-1.62591E-04-9.64371E+00 7.02880E-13 1.35619E-12
 -1      9896-4.04172E+00 7.85706E+00 2.97220E-04-1.04456E+01-1.76278E-13 1.83746E-12
 -1      9897-4.81273E+00 5.86357E+00 3.45364E-04-1.09178E+01-4.45516E-07 4.88525E-06
 -1      9898-7.07470E+00 7.90979E+00-1.63678E-04-9.65599E+00 4.31817E-07-1.95812E-06
 -1      9899-4.04829E+00 7.86363E+00 2.98502E-04-1.04604E+01 4.30405E-07 5.51296E-06
 -1      9900-4.82540E+00 5.87625E+00 3.49882E-04-1.09448E+01-1.65482E-05 4.49180E-06
 -1      9901-7.10318E+00 7.93826E+00-1.64586E-04-9.69284E+00 2.10992E-05-1.10773E-06
 -1      9902-4.06798E+00 7.88333E+00 2.96105E-04-1.05048E+01-3.24815E-05 8.72966E-06
 -1      9903-4.85077E+00 5.90162E+00 3.26687E-04-1.09988E+01-2.73250E-05-1.30311E-05
 -1      9904 1.30813E-02 1.19573E+00 2.81721E-04-1.17041E+01 2.14883E-05 1.09765E-05
 -1      9905-2.40857E+00 3.53689E+00-1.24141E-04-1.13172E+01-1.32075E-05 1.80724E-06
 -1      9906 8.38017E-01 3.43009E+00 2.51463E-04-1.12313E+01 2.39057E-05-1.42913E-05
 -1      9907 1.44793E-02 1.19432E+00 2.73161E-04-1.16491E+01 1.27913E-05-9.69328E-06
 -1      9908-2.39854E+00 3.52686E+00-1.23793E-04-1.12764E+01 3.22113E-06-3.88935E-09
 -1      9909 8.38570E-01 3.42954E+00 2.52712E-04-1.11866E+01-2.86994E-06-5.07065E-06
 -1      9910 1.51828E-02 1.19361E+00 2.77298E-04-1.16217E+01-1.91027E-06-4.46832E-06
 -1      9911-2.39520E+00 3.52351E+00-1.22181E-04-1.12627E+01 4.33416E-13-5.48165E-13
 -1      9912 8.38756E-01 3.42935E+00 2.51677E-04-1.11717E+01 1.60008E-12-8.74151E-13
 -1      9913 1.51828E-02 1.19361E+00 2.77298E-04-1.16217E+01 1.91028E-06 4.46832E-06
 -1      9914-2.39854E+00 3.52686E+00-1.23793E-04-1.12764E+01-3.22113E-06 3.89134E-09
 -1      9915 8.38570E-01 3.42954E+00 2.52712E-04-1.11866E+01 2.86994E-06 5.07065E-06
 -1      9916 1.44793E-02 1.19432E+00 2.73161E-04-1.16491E+01-1.27913E-05 9.69328E-06
 -1      9917-2.40857E+00 3.53689E+00-1.24141E-04-1.13172E+01 1.32075E-05-1.80724E-06
 -1      9918 8.38017E-01 3.43009E+00 2.51463E-04-1.12313E+01-2.39057E-05 1.42913E-05
 -1      9919 1.30813E-02 1.19573E+00 2.81721E-04-1.17041E+01-2.14882E-05-1.09765E-05
 -1      9920 4.57087E+00-3.33742E+00 2.58466E-04-1.06410E+01 1.53850E-05 5.79605E-06
 -1      9921 2.28671E+00-1.06677E+00-1.01217E-04-1.11401E+01-1.06863E-05 2.74304E-06
 -1      9922 5.39724E+00-8.85396E-01 2.21912E-04-1.02385E+01 2.20359E-05-1.84996E-05
 -1      9923 4.55114E+00-3.31772E+00 2.24510E-04-1.05923E+01 1.07454E-05-1.36638E-05
 -1      9924 2.27984E+00-1.05992E+00-9.64997E-05-1.11013E+01 5.03102E-06-1.30348E-06
 -1      9925 5.38092E+00-8.69072E-01 2.19417E-04-1.01990E+01-5.15968E-06-5.37299E-06
 -1      9926 4.54128E+00-3.30786E+00 2.41215E-04-1.05680E+01-4.37893E-06-3.56604E-06
 -1      9927 2.27755E+00-1.05762E+00-9.44392E-05-1.10883E+01 1.04400E-12-6.47122E-13
 -1      9928 5.37548E+00-8.63648E-01 2.19608E-04-1.01858E+01 1.52458E-12-4.63297E-14
 -1      9929 4.54128E+00-3.30786E+00 2.41215E-04-1.05680E+01 4.37893E-06 3.56604E-06
 -1      9930 2.27984E+00-1.05992E+00-9.64997E-05-1.11013E+01-5.03102E-06 1.30348E-06
 -1      9931 5.38092E+00-8.69072E-01 2.19417E-04-1.01990E+01 5.15969E-06 5.37299E-06
 -1      9932 4.55114E+00-3.31772E+00 2.24510E-04-1.05923E+01-1.07454E-05 1.36638E-05
 -1      9933 2.28671E+00-1.06677E+00-1.01217E-04-1.11401E+01 1.06863E-05-2.74304E-06
 -1      9934 5.39724E+00-8.85396E-01 2.21912E-04-1.02385E+01-2.20359E-05 1.84996E-05
 -1      9935 4.57087E+00-3.33742E+00 2.58466E-04-1.06410E+01-1.53850E-05-5.79605E-06
 -1      9936 8.28316E+00-7.07915E+00 2.52991E-04-8.04820E+00 9.22022E-06 1.33516E-06
 -1      9937 6.40983E+00-5.19188E+00-8.82400E-05-9.31864E+00-1.17155E-05 3.35917E-06
 -1      9938 9.09645E+00-4.46246E+00 2.03529E-04-7.75721E+00 2.52346E-05-2.17758E-05
 -1      9939 8.24662E+00-7.04265E+00 1.93790E-04-8.01197E+00 1.02082E-05-1.68352E-05
 -1      9940 6.38873E+00-5.17080E+00-8.19859E-05-9.28680E+00 6.96671E-06-2.47209E-06
 -1      9941 9.06668E+00-4.43267E+00 1.99789E-04-7.72783E+00-9.69562E-06-5.25502E-06
 -1      9942 8.22837E+00-7.02439E+00 2.26627E-04-7.99386E+00-7.82073E-06-2.02013E-06
 -1      9943 6.38170E+00-5.16377E+00-8.07352E-05-9.27619E+00 1.00162E-12-8.95033E-13
 -1      9944 9.05675E+00-4.42276E+00 2.02219E-04-7.71802E+00 1.80058E-12-1.63445E-12
 -1      9945 8.22837E+00-7.02439E+00 2.26627E-04-7.99386E+00 7.82073E-06 2.02013E-06
 -1      9946 6.38873E+00-5.17080E+00-8.19859E-05-9.28680E+00-6.96671E-06 2.47209E-06
 -1      9947 9.06668E+00-4.43267E+00 1.99789E-04-7.72783E+00 9.69562E-06 5.25502E-06
 -1      9948 8.24662E+00-7.04265E+00 1.93790E-04-8.01197E+00-1.02082E-05 1.68352E-05
 -1      9949 6.40983E+00-5.19188E+00-8.82400E-05-9.31864E+00 1.17155E-05-3.35917E-06
 -1      9950 9.09645E+00-4.46246E+00 2.03529E-04-7.75721E+00-2.52346E-05 2.17758E-05
 -1      9951 8.28316E+00-7.07915E+00 2.52991E-04-8.04820E+00-9.22022E-06-1.33516E-06
 -1      9952 1.06977E+01-9.53934E+00 2.62558E-04-4.32466E+00 3.30463E-06-1.01750E-06
 -1      9953 9.46516E+00-8.28444E+00-8.24204E-05-6.16990E+00-1.64959E-05 4.83988E-06
 -1      9954 1.14972E+01-6.82067E+00 1.94622E-04-4.17271E+00 3.43146E-05-2.65793E-05
 -1      9955 1.06503E+01-9.49196E+00 1.69789E-04-4.30555E+00 1.09043E-05-2.01381E-05
 -1      9956 9.43367E+00-8.25298E+00-7.44055E-05-6.14913E+00 1.00435E-05-3.73819E-06
 -1      9957 1.14587E+01-6.78213E+00 1.88638E-04-4.15722E+00-1.76933E-05-3.72207E-06
 -1      9958 1.06266E+01-9.46825E+00 2.24606E-04-4.29600E+00-1.31365E-05 9.33584E-07
 -1      9959 9.42318E+00-8.24247E+00-7.44459E-05-6.14222E+00 1.11903E-12-6.07800E-13
 -1      9960 1.14458E+01-6.76932E+00 1.93841E-04-4.15204E+00 4.98194E-13-1.70437E-13
 -1      9961 1.06266E+01-9.46825E+00 2.24606E-04-4.29600E+00 1.31365E-05-9.33584E-07
 -1      9962 9.43367E+00-8.25298E+00-7.44055E-05-6.14913E+00-1.00435E-05 3.73819E-06
 -1      9963 1.14587E+01-6.78213E+00 1.88638E-04-4.15722E+00 1.76933E-05 3.72207E-06
 -1      9964 1.06503E+01-9.49196E+00 1.69789E-04-4.30555E+00-1.09043E-05 2.01381E-05
 -1      9965 9.46516E+00-8.28444E+00-8.24204E-05-6.16990E+00 1.64959E-05-4.83988E-06
 -1      9966 1.14972E+01-6.82067E+00 1.94622E-04-4.17271E+00-3.43146E-05 2.65793E-05
 -1      9967 1.06977E+01-9.53934E+00 2.62558E-04-4.32466E+00-3.30463E-06 1.01750E-06
 -1      9968 1.15085E+01-1.03985E+01 2.87715E-04-1.20227E-02-2.20087E-06-8.12863E-07
 -1      9969 1.10739E+01-9.93997E+00-8.07006E-05-2.16296E+00-2.54061E-05 8.49023E-06
 -1      9970 1.22988E+01-7.64388E+00 1.91425E-04-1.28643E-02 5.08730E-05-3.58662E-05
 -1      9971 1.14574E+01-1.03475E+01 1.42656E-04-1.25746E-02 1.31247E-05-2.47313E-05
 -1      9972 1.10369E+01-9.90304E+00-7.05313E-05-2.15598E+00 1.52298E-05-6.01804E-06
 -1      9973 1.22573E+01-7.60237E+00 1.81491E-04-1.33174E-02-3.03492E-05 1.14382E-06
 -1      9974 1.14319E+01-1.03219E+01 2.30004E-04-1.28415E-02-2.09584E-05 6.78058E-06
 -1      9975 1.10246E+01-9.89071E+00-7.24798E-05-2.15367E+00 1.76978E-13 2.62867E-13
 -1      9976 1.22435E+01-7.58858E+00 1.90358E-04-1.34358E-02 1.01722E-13 1.84348E-13
 -1      9977 1.14319E+01-1.03219E+01 2.30004E-04-1.28415E-02 2.09584E-05-6.78058E-06
 -1      9978 1.10369E+01-9.90304E+00-7.05313E-05-2.15598E+00-1.52298E-05 6.01804E-06
 -1      9979 1.22573E+01-7.60237E+00 1.81491E-04-1.33174E-02 3.03492E-05-1.14382E-06
 -1      9980 1.14574E+01-1.03475E+01 1.42656E-04-1.25746E-02-1.31247E-05 2.47312E-05
 -1      9981 1.10739E+01-9.93997E+00-8.07006E-05-2.16296E+00 2.54061E-05-8.49024E-06
 -1      9982 1.22988E+01-7.64388E+00 1.91425E-04-1.28643E-02-5.08730E-05 3.58662E-05
 -1      9983 1.15085E+01-1.03985E+01 2.87715E-04-1.20227E-02 2.20087E-06 8.12862E-07
 -1      9984 1.06158E+01-9.55524E+00 3.33038E-04 4.26052E+00-7.40675E-06 2.40742E-06
 -1      9985 1.10333E+01-9.94822E+00-8.14549E-05 2.11809E+00-3.96598E-05 1.65363E-05
 -1      9986 1.14014E+01-6.82973E+00 1.91784E-04 4.10510E+00 7.78705E-05-5.44849E-05
 -1      9987 1.05686E+01-9.50820E+00 1.02921E-04 4.24047E+00 1.73990E-05-3.24183E-05
 -1      9988 1.09965E+01-9.91140E+00-6.77545E-05 2.11039E+00 2.34043E-05-1.06477E-05
 -1      9989 1.13632E+01-6.79147E+00 1.74573E-04 4.08881E+00-4.90404E-05 1.22338E-05
 -1      9990 1.05451E+01-9.48461E+00 2.40724E-04 4.23046E+00-3.18071E-05 1.78161E-05
 -1      9991 1.09842E+01-9.89909E+00-7.24944E-05 2.10779E+00 2.35353E-13-4.33262E-13
 -1      9992 1.13504E+01-6.77877E+00 1.88621E-04 4.08344E+00 1.16041E-12 6.14052E-13
 -1      9993 1.05451E+01-9.48461E+00 2.40724E-04 4.23046E+00 3.18071E-05-1.78161E-05
 -1      9994 1.09965E+01-9.91140E+00-6.77545E-05 2.11039E+00-2.34043E-05 1.06477E-05
 -1      9995 1.13632E+01-6.79147E+00 1.74573E-04 4.08881E+00 4.90404E-05-1.22338E-05
 -1      9996 1.05686E+01-9.50820E+00 1.02921E-04 4.24047E+00-1.73990E-05 3.24183E-05
 -1      9997 1.10333E+01-9.94822E+00-8.14549E-05 2.11809E+00 3.96598E-05-1.65363E-05
 -1      9998 1.14014E+01-6.82973E+00 1.91784E-04 4.10510E+00-7.78705E-05 5.44849E-05
 -1      9999 1.06158E+01-9.55524E+00 3.33038E-04 4.26052E+00 7.40675E-06-2.40742E-06
 -1     10000 8.15759E+00-7.15110E+00 4.08680E-04 7.86057E+00-1.23772E-05 9.94289E-06
 -1     10001 9.36242E+00-8.32908E+00-8.41552E-05 6.04393E+00-6.11279E-05 3.25908E-05
 -1     10002 8.94035E+00-4.51593E+00 1.94483E-04 7.55839E+00 1.19559E-04-9.09892E-05
 -1     10003 8.12150E+00-7.11521E+00 3.99145E-05 7.82400E+00 2.44597E-05-4.61949E-05
 -1     10004 9.33123E+00-8.29793E+00-6.44107E-05 6.02273E+00 3.55698E-05-1.97644E-05
 -1     10005 8.91119E+00-4.48669E+00 1.64816E-04 7.52868E+00-7.54013E-05 3.40475E-05
 -1     10006 8.10358E+00-7.09716E+00 2.57100E-04 7.80575E+00-4.59477E-05 3.75157E-05
 -1     10007 9.32088E+00-8.28751E+00-7.32984E-05 6.01562E+00 9.51711E-13-3.97335E-13
 -1     10008 8.90135E+00-4.47702E+00 1.86585E-04 7.51887E+00 4.22266E-13-1.37906E-12
 -1     10009 8.10358E+00-7.09716E+00 2.57100E-04 7.80575E+00 4.59477E-05-3.75157E-05
 -1     10010 9.33123E+00-8.29793E+00-6.44107E-05 6.02273E+00-3.55698E-05 1.97644E-05
 -1     10011 8.91119E+00-4.48669E+00 1.64816E-04 7.52868E+00 7.54013E-05-3.40475E-05
 -1     10012 8.12150E+00-7.11521E+00 3.99145E-05 7.82400E+00-2.44597E-05 4.61949E-05
 -1     10013 9.36242E+00-8.32908E+00-8.41552E-05 6.04393E+00 6.11279E-05-3.25908E-05
 -1     10014 8.94035E+00-4.51593E+00 1.94483E-04 7.55839E+00-1.19559E-04 9.09892E-05
 -1     10015 8.15759E+00-7.15110E+00 4.08680E-04 7.86057E+00 1.23772E-05-9.94289E-06
 -1     10016 4.50299E+00-3.55911E+00 5.33569E-04 1.02473E+01-1.70581E-05 2.47970E-05
 -1     10017 6.31421E+00-5.33919E+00-8.87282E-05 9.02942E+00-9.23683E-05 6.31603E-05
 -1     10018 5.28017E+00-1.06948E+00 2.01861E-04 9.81343E+00 1.80902E-04-1.58996E-04
 -1     10019 4.48346E+00-3.53989E+00-5.99660E-05 1.01997E+01 3.50565E-05-7.15651E-05
 -1     10020 6.29339E+00-5.31845E+00-5.88866E-05 8.99792E+00 5.26712E-05-3.65337E-05
 -1     10021 5.26456E+00-1.05374E+00 1.50547E-04 9.77475E+00-1.11029E-04 7.39445E-05
 -1     10022 4.47389E+00-3.53010E+00 2.81288E-04 1.01760E+01-6.30161E-05 7.08004E-05
 -1     10023 6.28655E+00-5.31148E+00-7.40284E-05 8.98735E+00 6.65408E-13-9.16842E-13
 -1     10024 5.25914E+00-1.04858E+00 1.83101E-04 9.76200E+00 6.17032E-13-8.42289E-13
 -1     10025 4.47389E+00-3.53010E+00 2.81288E-04 1.01760E+01 6.30161E-05-7.08004E-05
 -1     10026 6.29339E+00-5.31845E+00-5.88866E-05 8.99792E+00-5.26712E-05 3.65337E-05
 -1     10027 5.26456E+00-1.05374E+00 1.50547E-04 9.77475E+00 1.11029E-04-7.39445E-05
 -1     10028 4.48346E+00-3.53989E+00-5.99660E-05 1.01997E+01-3.50565E-05 7.15651E-05
 -1     10029 6.31421E+00-5.33919E+00-8.87282E-05 9.02942E+00 9.23683E-05-6.31603E-05
 -1     10030 5.28017E+00-1.06948E+00 2.01861E-04 9.81343E+00-1.80902E-04 1.58996E-04
 -1     10031 4.50299E+00-3.55911E+00 5.33569E-04 1.02473E+01 1.70581E-05-2.47970E-05
 -1     10032 2.03869E-01 6.66063E-01 7.40709E-04 1.10578E+01-1.98318E-05 5.41582E-05
 -1     10033 2.34787E+00-1.44118E+00-9.83836E-05 1.06238E+01-1.36097E-04 1.17616E-04
 -1     10034 9.67713E-01 2.96242E+00 2.12667E-04 1.05118E+01 2.68287E-04-2.85178E-04
 -1     10035 2.03855E-01 6.65568E-01-2.15557E-04 1.10063E+01 5.04702E-05-1.18033E-04
 -1     10036 2.34059E+00-1.43401E+00-5.07341E-05 1.05868E+01 7.54246E-05-6.61450E-05
 -1     10037 9.68151E-01 2.96220E+00 1.27036E-04 1.04700E+01-1.55499E-04 1.41174E-04
 -1     10038 2.04149E-01 6.65626E-01 3.15692E-04 1.09807E+01-8.12473E-05 1.24275E-04
 -1     10039 2.33835E+00-1.43157E+00-7.41624E-05 1.05744E+01 6.40367E-13-9.18671E-13
 -1     10040 9.67874E-01 2.96205E+00 1.74390E-04 1.04563E+01 5.60115E-13-1.12584E-12
 -1     10041 2.04149E-01 6.65626E-01 3.15692E-04 1.09807E+01 8.12473E-05-1.24275E-04
 -1     10042 2.34059E+00-1.43401E+00-5.07341E-05 1.05868E+01-7.54246E-05 6.61450E-05
 -1     10043 9.68151E-01 2.96220E+00 1.27036E-04 1.04700E+01 1.55499E-04-1.41174E-04
 -1     10044 2.03855E-01 6.65568E-01-2.15557E-04 1.10063E+01-5.04702E-05 1.18033E-04
 -1     10045 2.34787E+00-1.44118E+00-9.83836E-05 1.06238E+01 1.36097E-04-1.17616E-04
 -1     10046 9.67713E-01 2.96242E+00 2.12667E-04 1.05118E+01-2.68287E-04 2.85178E-04
 -1     10047 2.03869E-01 6.66063E-01 7.40709E-04 1.10578E+01 1.98318E-05-5.41582E-05
 -1     10048-4.08511E+00 4.86967E+00 1.09245E-03 1.01684E+01-1.99150E-05 1.13579E-04
 -1     10049-1.93497E+00 2.76190E+00-1.11815E-04 1.05846E+01-1.95864E-04 2.16840E-04
 -1     10050-3.34678E+00 6.93288E+00 2.51500E-04 9.53242E+00 3.83497E-04-4.98381E-04
 -1     10051-4.06568E+00 4.84942E+00-4.49069E-04 1.01210E+01 7.33352E-05-2.08289E-04
 -1     10052-1.92764E+00 2.75439E+00-3.56087E-05 1.05477E+01 1.01921E-04-1.12959E-04
 -1     10053-3.33020E+00 6.91671E+00 1.02429E-04 9.49389E+00-2.04546E-04 2.50150E-04
 -1     10054-4.05549E+00 4.83980E+00 3.57629E-04 1.00974E+01-9.59364E-05 2.02463E-04
 -1     10055-1.92486E+00 2.75192E+00-6.95733E-05 1.05353E+01 3.95022E-13-1.09107E-12
 -1     10056-3.32544E+00 6.91125E+00 1.57993E-04 9.48128E+00 4.78749E-14-1.02007E-12
 -1     10057-4.05549E+00 4.83980E+00 3.57629E-04 1.00974E+01 9.59364E-05-2.02463E-04
 -1     10058-1.92764E+00 2.75439E+00-3.56087E-05 1.05477E+01-1.01921E-04 1.12959E-04
 -1     10059-3.33020E+00 6.91671E+00 1.02429E-04 9.49389E+00 2.04546E-04-2.50150E-04
 -1     10060-4.06568E+00 4.84942E+00-4.49069E-04 1.01210E+01-7.33352E-05 2.08289E-04
 -1     10061-1.93497E+00 2.76190E+00-1.11815E-04 1.05846E+01 1.95864E-04-2.16840E-04
 -1     10062-3.34678E+00 6.93288E+00 2.51500E-04 9.53242E+00-3.83497E-04 4.98381E-04
 -1     10063-4.08511E+00 4.86967E+00 1.09245E-03 1.01684E+01 1.99150E-05-1.13579E-04
 -1     10064-7.70817E+00 8.39955E+00 1.70423E-03 7.72357E+00-7.54688E-06 2.46226E-04
 -1     10065-5.88097E+00 6.61838E+00-1.55036E-04 8.92206E+00-2.70428E-04 3.73001E-04
 -1     10066-7.00978E+00 1.01964E+01 2.73563E-04 7.01993E+00 5.38810E-04-9.03737E-04
 -1     10067-7.67251E+00 8.36253E+00-7.78629E-04 7.68737E+00 1.15053E-04-3.85136E-04
 -1     10068-5.86030E+00 6.59737E+00-2.19461E-05 8.89090E+00 1.28261E-04-1.85524E-04
 -1     10069-6.97938E+00 1.01669E+01 4.17907E-05 6.99059E+00-2.32873E-04 3.85272E-04
 -1     10070-7.65387E+00 8.34483E+00 3.84409E-04 7.66938E+00-9.72959E-05 3.02418E-04
 -1     10071-5.85282E+00 6.59040E+00-5.48389E-05 8.88038E+00 1.73006E-14-1.02691E-12
 -1     10072-6.97055E+00 1.01569E+01 9.01870E-05 6.98101E+00-5.16086E-13-1.26714E-12
 -1     10073-7.65387E+00 8.34483E+00 3.84409E-04 7.66938E+00 9.72959E-05-3.02418E-04
 -1     10074-5.86030E+00 6.59737E+00-2.19461E-05 8.89090E+00-1.28261E-04 1.85524E-04
 -1     10075-6.97938E+00 1.01669E+01 4.17907E-05 6.99059E+00 2.32873E-04-3.85272E-04
 -1     10076-7.67251E+00 8.36253E+00-7.78629E-04 7.68737E+00-1.15053E-04 3.85136E-04
 -1     10077-5.88097E+00 6.61838E+00-1.55036E-04 8.92206E+00 2.70428E-04-3.73001E-04
 -1     10078-7.00978E+00 1.01964E+01 2.73563E-04 7.01993E+00-5.38810E-04 9.03737E-04
 -1     10079-7.70817E+00 8.39955E+00 1.70423E-03 7.72357E+00 7.54688E-06-2.46226E-04
 -1     10080-1.01213E+01 1.07178E+01 2.85707E-03 4.12329E+00-3.70667E-06 5.62355E-04
 -1     10081-8.89189E+00 9.53473E+00-1.92471E-04 5.90730E+00-3.70913E-04 6.88119E-04
 -1     10082-9.47564E+00 1.22194E+01 5.29334E-04 3.37593E+00 6.90575E-04-1.45109E-03
 -1     10083-1.00752E+01 1.06694E+01-1.16570E-03 4.10356E+00 2.08699E-04-8.17418E-04
 -1     10084-8.86134E+00 9.50347E+00 2.37824E-05 5.88658E+00 1.25274E-04-2.43848E-04
 -1     10085-9.43559E+00 1.21812E+01 7.98769E-05 3.36009E+00-1.95219E-04 5.18186E-04
 -1     10086-1.00507E+01 1.06465E+01 2.65203E-04 4.09379E+00-6.03653E-05 3.50540E-04
 -1     10087-8.85019E+00 9.49312E+00 1.51377E-05 5.87959E+00-5.56694E-13-1.14287E-12
 -1     10088-9.42436E+00 1.21683E+01-4.30946E-05 3.35488E+00-3.91474E-13-1.19662E-12
 -1     10089-1.00507E+01 1.06465E+01 2.65203E-04 4.09379E+00 6.03653E-05-3.50540E-04
 -1     10090-8.86134E+00 9.50347E+00 2.37824E-05 5.88658E+00-1.25274E-04 2.43848E-04
 -1     10091-9.43559E+00 1.21812E+01 7.98769E-05 3.36009E+00 1.95219E-04-5.18186E-04
 -1     10092-1.00752E+01 1.06694E+01-1.16570E-03 4.10356E+00-2.08699E-04 8.17418E-04
 -1     10093-8.89189E+00 9.53473E+00-1.92471E-04 5.90730E+00 3.70913E-04-6.88119E-04
 -1     10094-9.47564E+00 1.22194E+01 5.29334E-04 3.37593E+00-6.90575E-04 1.45109E-03
 -1     10095-1.01213E+01 1.07178E+01 2.85707E-03 4.12329E+00 3.70667E-06-5.62355E-04
 -1     10096-1.10071E+01 1.15074E+01 5.16758E-03-3.27460E-02 2.20187E-05 1.45693E-03
 -1     10097-1.05378E+01 1.10835E+01-4.75522E-04 2.03840E+00-4.39549E-04 1.00383E-03
 -1     10098-1.04223E+01 1.26859E+01 3.23755E-04-7.93419E-01 9.60059E-04-2.90903E-03
 -1     10099-1.09581E+01 1.14542E+01-1.31205E-03-3.39965E-02 4.71302E-04-1.82494E-03
 -1     10100-1.05024E+01 1.10466E+01-9.56302E-06 2.03088E+00 7.19168E-05-2.57950E-04
 -1     10101-1.03770E+01 1.26454E+01-2.38721E-04-7.94163E-01 1.38241E-04 8.60187E-05
 -1     10102-1.09304E+01 1.14294E+01-3.82184E-04-3.45931E-02 7.58378E-05 1.21052E-04
 -1     10103-1.04892E+01 1.10346E+01 2.12525E-04 2.02841E+00-8.74703E-13-1.15072E-12
 -1     10104-1.03650E+01 1.26311E+01-7.49811E-04-7.94585E-01-9.81944E-13-1.28707E-12
 -1     10105-1.09304E+01 1.14294E+01-3.82184E-04-3.45931E-02-7.58378E-05-1.21052E-04
 -1     10106-1.05024E+01 1.10466E+01-9.56302E-06 2.03088E+00-7.19168E-05 2.57950E-04
 -1     10107-1.03770E+01 1.26454E+01-2.38721E-04-7.94163E-01-1.38241E-04-8.60187E-05
 -1     10108-1.09581E+01 1.14542E+01-1.31205E-03-3.39965E-02-4.71302E-04 1.82494E-03
 -1     10109-1.05378E+01 1.10835E+01-4.75522E-04 2.03840E+00 4.39549E-04-1.00383E-03
 -1     10110-1.04223E+01 1.26859E+01 3.23755E-04-7.93419E-01-9.60059E-04 2.90903E-03
 -1     10111-1.10071E+01 1.15074E+01 5.16758E-03-3.27460E-02-2.20187E-05-1.45693E-03
 -1     10112-1.03786E+01 1.07397E+01 1.06227E-02-4.05123E+00-2.69030E-04 4.09270E-03
 -1     10113-1.06636E+01 1.10895E+01-5.52380E-04-2.04054E+00-6.66111E-04 2.29859E-03
 -1     10114-9.85624E+00 1.15709E+01 2.66185E-03-4.77984E+00 8.30710E-04-3.28026E-03
 -1     10115-1.03335E+01 1.06859E+01-2.22973E-04-4.03593E+00 1.25418E-03-5.29554E-03
 -1     10116-1.06296E+01 1.10510E+01 2.59561E-04-2.03462E+00-3.20847E-04 5.47675E-04
 -1     10117-9.80639E+00 1.15343E+01 6.61774E-04-4.76797E+00 1.02876E-03-1.85201E-03
 -1     10118-1.03028E+01 1.06619E+01-3.72470E-03-4.02877E+00 5.70746E-04-1.74524E-03
 -1     10119-1.06162E+01 1.10388E+01 1.00746E-03-2.03245E+00-1.16416E-12-1.15063E-12
 -1     10120-9.79344E+00 1.15203E+01-2.03322E-03-4.76460E+00-1.61981E-12-1.23235E-12
 -1     10121-1.03028E+01 1.06619E+01-3.72470E-03-4.02877E+00-5.70746E-04 1.74524E-03
 -1     10122-1.06296E+01 1.10510E+01 2.59561E-04-2.03462E+00 3.20847E-04-5.47675E-04
 -1     10123-9.80639E+00 1.15343E+01 6.61774E-04-4.76797E+00-1.02876E-03 1.85201E-03
 -1     10124-1.03335E+01 1.06859E+01-2.22973E-04-4.03593E+00-1.25418E-03 5.29554E-03
 -1     10125-1.06636E+01 1.10895E+01-5.52380E-04-2.04054E+00 6.66111E-04-2.29859E-03
 -1     10126-9.85624E+00 1.15709E+01 2.66185E-03-4.77984E+00-8.30710E-04 3.28026E-03
 -1     10127-1.03786E+01 1.07397E+01 1.06227E-02-4.05123E+00 2.69030E-04-4.09270E-03
 -1     10128-8.61186E+00 8.62600E+00 2.50959E-02-7.28997E+00-2.05302E-03 1.59626E-02
 -1     10129-9.45887E+00 9.63358E+00-3.13881E-03-5.66340E+00-8.65606E-05 1.15804E-03
 -1     10130-8.16014E+00 9.08330E+00 3.89341E-04-7.92986E+00 5.38013E-04-8.87069E-03
 -1     10131-8.58265E+00 8.56640E+00 1.02201E-02-7.26233E+00 1.06462E-03-9.77733E-03
 -1     10132-9.43127E+00 9.59476E+00-3.16311E-04-5.64695E+00-8.39006E-04 2.76488E-03
 -1     10133-8.09866E+00 9.05332E+00-1.09416E-03-7.91048E+00 2.82868E-03-1.14266E-02
 -1     10134-8.54587E+00 8.53975E+00-9.94194E-03-7.24994E+00 1.02340E-03-7.08290E-03
 -1     10135-9.42053E+00 9.58322E+00 3.30462E-03-5.64098E+00-1.97585E-12-9.78480E-13
 -1     10136-8.07652E+00 9.04194E+00-6.38988E-03-7.90517E+00-2.34635E-12-1.35681E-12
 -1     10137-8.54587E+00 8.53975E+00-9.94194E-03-7.24994E+00-1.02340E-03 7.08290E-03
 -1     10138-9.43127E+00 9.59476E+00-3.16311E-04-5.64695E+00 8.39006E-04-2.76488E-03
 -1     10139-8.09866E+00 9.05332E+00-1.09416E-03-7.91048E+00-2.82868E-03 1.14266E-02
 -1     10140-8.58265E+00 8.56640E+00 1.02201E-02-7.26233E+00-1.06462E-03 9.77733E-03
 -1     10141-9.45887E+00 9.63358E+00-3.13881E-03-5.66340E+00 8.65606E-05-1.15804E-03
 -1     10142-8.16014E+00 9.08330E+00 3.89341E-04-7.92986E+00-5.38013E-04 8.87069E-03
 -1     10143-8.61186E+00 8.62600E+00 2.50959E-02-7.28997E+00 2.05302E-03-1.59626E-02
 -1     10144-6.17491E+00 5.21457E+00 1.11175E-01-9.25148E+00-1.24305E-02 1.31180E-01
 -1     10145-7.38715E+00 6.82923E+00-8.24372E-03-8.27665E+00 2.48774E-04 3.07980E-03
 -1     10146-5.79199E+00 5.34780E+00 1.45893E-01-9.81618E+00-2.51039E-02 1.33633E-01
 -1     10147-6.25457E+00 5.14238E+00 2.06310E-01-9.22450E+00-1.53651E-02 1.23270E-01
 -1     10148-7.36803E+00 6.78490E+00-9.09668E-03-8.25696E+00-1.63103E-03 9.62205E-03
 -1     10149-5.85810E+00 5.28923E+00 1.87348E-01-9.78582E+00-1.55568E-02 7.48888E-02
 -1     10150-6.30444E+00 5.09756E+00 2.26541E-01-9.20504E+00-6.26520E-03 4.23138E-02
 -1     10151-7.36681E+00 6.77055E+00-4.12913E-03-8.24967E+00-2.87110E-12-7.78973E-13
 -1     10152-5.87268E+00 5.27097E+00 1.97179E-01-9.77421E+00-4.05599E-12-1.67532E-12
 -1     10153-6.30444E+00 5.09756E+00 2.26541E-01-9.20504E+00 6.26520E-03-4.23138E-02
 -1     10154-7.36803E+00 6.78490E+00-9.09668E-03-8.25696E+00 1.63103E-03-9.62205E-03
 -1     10155-5.85810E+00 5.28923E+00 1.87348E-01-9.78582E+00 1.55568E-02-7.48888E-02
 -1     10156-6.25457E+00 5.14238E+00 2.06310E-01-9.22450E+00 1.53651E-02-1.23270E-01
 -1     10157-7.38715E+00 6.82923E+00-8.24372E-03-8.27665E+00-2.48774E-04-3.07980E-03
 -1     10158-5.79199E+00 5.34780E+00 1.45893E-01-9.81618E+00 2.51039E-02-1.33633E-01
 -1     10159-6.17491E+00 5.21457E+00 1.11175E-01-9.25148E+00 1.24305E-02-1.31180E-01
 -1     10160-4.83090E+00 2.15548E+00-1.81243E-01-9.63898E+00-8.96646E-03-5.34285E-02
 -1     10161-4.87605E+00 2.08101E+00-2.71980E-01-9.60337E+00-7.81673E-03-3.37300E-02
 -1     10162-4.89151E+00 2.05568E+00-3.07255E-01-9.59244E+00-2.77504E-12-2.20560E-13
 -1     10163-4.87605E+00 2.08101E+00-2.71980E-01-9.60337E+00 7.81673E-03 3.37300E-02
 -1     10164-4.83090E+00 2.15548E+00-1.81243E-01-9.63898E+00 8.96646E-03 5.34285E-02
 -1     10165-2.34560E+00-3.89788E+00-4.84688E-03 5.74156E+00 1.33334E-03-4.55955E-03
 -1     10166-9.21655E-01-4.03146E+00-1.02822E-04 2.90618E+00-7.85803E-05-2.24548E-02
 -1     10167-2.51034E+00-4.71129E+00-1.21210E-02 6.52627E+00 4.06642E-03-1.11421E-02
 -1     10168-2.40512E+00-3.84908E+00-1.79210E-02 5.67817E+00 2.27934E-03-8.99953E-03
 -1     10169-9.42779E-01-3.95447E+00 2.85600E-03 2.87709E+00-3.14147E-05-1.68031E-02
 -1     10170-2.55068E+00-4.66813E+00-2.84051E-02 6.46377E+00 3.16544E-03-1.02149E-02
 -1     10171-2.42962E+00-3.82350E+00-2.83217E-02 5.64566E+00 1.02733E-03-4.29672E-03
 -1     10172-9.48402E-01-3.92888E+00 3.96568E-03 2.86736E+00-7.50646E-12-1.15269E-12
 -1     10173-2.56253E+00-4.65346E+00-3.52330E-02 6.44273E+00-4.71898E-12-3.88562E-12
 -1     10174-2.42962E+00-3.82350E+00-2.83217E-02 5.64566E+00-1.02733E-03 4.29672E-03
 -1     10175-9.42779E-01-3.95447E+00 2.85600E-03 2.87709E+00 3.14147E-05 1.68031E-02
 -1     10176-2.55068E+00-4.66813E+00-2.84051E-02 6.46377E+00-3.16544E-03 1.02149E-02
 -1     10177-2.40512E+00-3.84908E+00-1.79210E-02 5.67817E+00-2.27934E-03 8.99953E-03
 -1     10178-9.21655E-01-4.03146E+00-1.02822E-04 2.90618E+00 7.85803E-05 2.24548E-02
 -1     10179-2.51034E+00-4.71129E+00-1.21210E-02 6.52627E+00-4.06642E-03 1.11421E-02
 -1     10180-2.34560E+00-3.89788E+00-4.84688E-03 5.74156E+00-1.33334E-03 4.55955E-03
 -1     10181-7.93402E+00 1.92093E+00-7.40350E-04 7.58482E+00 1.42159E-04-7.04894E-04
 -1     10182-5.17875E+00-9.27313E-01 2.45583E-03 6.67069E+00-2.58522E-05 3.60613E-04
 -1     10183-8.25067E+00 1.91594E+00-1.38620E-03 8.51341E+00-8.64627E-05-2.30202E-04
 -1     10184-7.91299E+00 1.90074E+00-1.34285E-03 7.51163E+00 1.41259E-04-3.61172E-04
 -1     10185-5.19096E+00-9.16807E-01 9.69469E-04 6.61986E+00-7.13938E-05 7.03564E-06
 -1     10186-8.23268E+00 1.89881E+00-8.95674E-05 8.44911E+00-1.98113E-05 1.26601E-04
 -1     10187-7.90292E+00 1.89061E+00-1.36796E-03 7.47510E+00 2.40348E-05-3.45909E-05
 -1     10188-5.19461E+00-9.13158E-01 6.18830E-04 6.60288E+00-5.57128E-12-1.79122E-12
 -1     10189-8.22709E+00 1.89294E+00 2.19047E-04 8.42777E+00-3.31970E-12 2.48475E-12
 -1     10190-7.90292E+00 1.89061E+00-1.36796E-03 7.47510E+00-2.40348E-05 3.45909E-05
 -1     10191-5.19096E+00-9.16807E-01 9.69469E-04 6.61986E+00 7.13938E-05-7.03565E-06
 -1     10192-8.23268E+00 1.89881E+00-8.95674E-05 8.44911E+00 1.98113E-05-1.26601E-04
 -1     10193-7.91299E+00 1.90074E+00-1.34285E-03 7.51163E+00-1.41259E-04 3.61172E-04
 -1     10194-5.17875E+00-9.27313E-01 2.45583E-03 6.67069E+00 2.58522E-05-3.60613E-04
 -1     10195-8.25067E+00 1.91594E+00-1.38620E-03 8.51341E+00 8.64627E-05 2.30202E-04
 -1     10196-7.93402E+00 1.92093E+00-7.40350E-04 7.58482E+00-1.42159E-04 7.04894E-04
 -1     10197-1.25358E+01 7.57164E+00-1.16303E-04 5.12225E+00 6.73583E-05-1.67296E-04
 -1     10198-1.02446E+01 4.77493E+00-2.12767E-04 6.33317E+00-1.09229E-04 1.33195E-04
 -1     10199-1.28036E+01 8.26490E+00 4.01939E-04 5.87334E+00 2.10867E-04-9.89526E-05
 -1     10200-1.24721E+01 7.50810E+00-1.45088E-04 5.07355E+00 6.61307E-05 8.02447E-06
 -1     10201-1.02124E+01 4.74335E+00 4.75371E-04 6.28756E+00-5.54533E-05 3.98357E-05
 -1     10202-1.27505E+01 8.21132E+00-1.24322E-04 5.83308E+00 9.17812E-05-2.11353E-05
 -1     10203-1.24403E+01 7.47632E+00-7.39857E-05 5.04925E+00 1.27716E-05 2.80917E-05
 -1     10204-1.02017E+01 4.73282E+00 6.35539E-04 6.27234E+00-2.02669E-12 4.36215E-12
 -1     10205-1.27328E+01 8.19349E+00-2.26106E-04 5.81968E+00 2.36480E-12 3.27377E-12
 -1     10206-1.24403E+01 7.47632E+00-7.39857E-05 5.04925E+00-1.27716E-05-2.80917E-05
 -1     10207-1.02124E+01 4.74335E+00 4.75371E-04 6.28756E+00 5.54533E-05-3.98357E-05
 -1     10208-1.27505E+01 8.21132E+00-1.24322E-04 5.83308E+00-9.17812E-05 2.11353E-05
 -1     10209-1.24721E+01 7.50810E+00-1.45088E-04 5.07355E+00-6.61307E-05-8.02447E-06
 -1     10210-1.02446E+01 4.77493E+00-2.12767E-04 6.33317E+00 1.09229E-04-1.33195E-04
 -1     10211-1.28036E+01 8.26490E+00 4.01939E-04 5.87334E+00-2.10867E-04 9.89526E-05
 -1     10212-1.25358E+01 7.57164E+00-1.16303E-04 5.12225E+00-6.73583E-05 1.67296E-04
 -1     10213-1.43890E+01 1.02745E+01 1.93998E-04 2.07775E-01 3.32492E-05-8.83056E-05
 -1     10214-1.34396E+01 8.91162E+00 6.58573E-05 2.63475E+00-1.40618E-05-1.50936E-05
 -1     10215-1.44029E+01 1.14254E+01 1.98891E-04 7.59855E-01 5.77798E-05 9.41468E-06
 -1     10216-1.43143E+01 1.01999E+01 2.74396E-04 1.94430E-01 4.43138E-05 4.23897E-06
 -1     10217-1.33877E+01 8.85964E+00-9.69289E-05 2.61170E+00-1.08296E-06-2.53870E-05
 -1     10218-1.43417E+01 1.13642E+01 3.43868E-04 7.50356E-01 1.75178E-05 1.24724E-05
 -1     10219-1.42770E+01 1.01626E+01 3.04134E-04 1.87778E-01 1.05993E-05 5.43881E-06
 -1     10220-1.33704E+01 8.84231E+00-1.54130E-04 2.60402E+00 3.33083E-12 3.64051E-12
 -1     10221-1.43212E+01 1.13438E+01 3.97779E-04 7.47187E-01 3.03373E-12 1.64674E-12
 -1     10222-1.42770E+01 1.01626E+01 3.04134E-04 1.87778E-01-1.05993E-05-5.43881E-06
 -1     10223-1.33877E+01 8.85964E+00-9.69289E-05 2.61170E+00 1.08297E-06 2.53870E-05
 -1     10224-1.43417E+01 1.13642E+01 3.43868E-04 7.50356E-01-1.75178E-05-1.24724E-05
 -1     10225-1.43143E+01 1.01999E+01 2.74396E-04 1.94430E-01-4.43138E-05-4.23897E-06
 -1     10226-1.34396E+01 8.91162E+00 6.58573E-05 2.63475E+00 1.40618E-05 1.50936E-05
 -1     10227-1.44029E+01 1.14254E+01 1.98891E-04 7.59855E-01-5.77798E-05-9.41467E-06
 -1     10228-1.43890E+01 1.02745E+01 1.93998E-04 2.07775E-01-3.32492E-05 8.83056E-05
 -1     10229-1.34352E+01 9.67380E+00 3.39323E-04-5.03840E+00 2.24961E-05-3.12526E-05
 -1     10230-1.38721E+01 9.93834E+00-1.93264E-04-2.42974E+00-3.43498E-05-3.73018E-06
 -1     10231-1.31458E+01 1.11276E+01 3.46665E-04-4.58732E+00 6.41807E-05 2.97413E-06
 -1     10232-1.33706E+01 9.60922E+00 4.37045E-04-5.02202E+00 3.07422E-05 3.90299E-06
 -1     10233-1.38198E+01 9.88621E+00-1.57479E-04-2.42845E+00-8.81382E-06 9.71393E-07
 -1     10234-1.30937E+01 1.10754E+01 3.39125E-04-4.57244E+00 1.45569E-05-8.30539E-06
 -1     10235-1.33383E+01 9.57692E+00 4.48547E-04-5.01382E+00 6.39692E-06-1.81508E-06
 -1     10236-1.38025E+01 9.86882E+00-1.55457E-04-2.42802E+00 2.06988E-12 1.98967E-12
 -1     10237-1.30764E+01 1.10581E+01 3.45480E-04-4.56748E+00 1.38325E-12 2.72544E-12
 -1     10238-1.33383E+01 9.57692E+00 4.48547E-04-5.01382E+00-6.39692E-06 1.81508E-06
 -1     10239-1.38198E+01 9.88621E+00-1.57479E-04-2.42845E+00 8.81382E-06-9.71392E-07
 -1     10240-1.30937E+01 1.10754E+01 3.39125E-04-4.57244E+00-1.45569E-05 8.30539E-06
 -1     10241-1.33706E+01 9.60922E+00 4.37045E-04-5.02202E+00-3.07422E-05-3.90298E-06
 -1     10242-1.38721E+01 9.93834E+00-1.93264E-04-2.42974E+00 3.43498E-05 3.73018E-06
 -1     10243-1.31458E+01 1.11276E+01 3.46665E-04-4.58732E+00-6.41807E-05-2.97414E-06
 -1     10244-1.34352E+01 9.67380E+00 3.39323E-04-5.03840E+00-2.24961E-05 3.12526E-05
 -1     10245-1.04129E+01 6.57362E+00 3.49904E-04-9.24535E+00 2.40227E-05-8.35431E-07
 -1     10246-1.18860E+01 8.08597E+00-1.74288E-04-7.13456E+00-2.42927E-05-1.03414E-05
 -1     10247-9.88261E+00 8.27388E+00 3.17309E-04-8.81963E+00 4.70302E-05 4.81164E-06
 -1     10248-1.03676E+01 6.52837E+00 4.20768E-04-9.20967E+00 2.76448E-05 1.17829E-06
 -1     10249-1.18448E+01 8.04484E+00-1.96019E-04-7.11498E+00-2.07636E-06-2.59112E-06
 -1     10250-9.84668E+00 8.23791E+00 3.45725E-04-8.78964E+00 4.13462E-06-6.24241E-06
 -1     10251-1.03450E+01 6.50573E+00 4.21804E-04-9.19184E+00 3.80881E-06-4.76635E-06
 -1     10252-1.18312E+01 8.03113E+00-2.04900E-04-7.10846E+00 2.82331E-12-3.37965E-12
 -1     10253-9.83467E+00 8.22592E+00 3.55202E-04-8.77964E+00 1.39546E-12-1.49049E-12
 -1     10254-1.03450E+01 6.50573E+00 4.21804E-04-9.19184E+00-3.80881E-06 4.76634E-06
 -1     10255-1.18448E+01 8.04484E+00-1.96019E-04-7.11498E+00 2.07636E-06 2.59112E-06
 -1     10256-9.84668E+00 8.23791E+00 3.45725E-04-8.78964E+00-4.13462E-06 6.24241E-06
 -1     10257-1.03676E+01 6.52837E+00 4.20768E-04-9.20967E+00-2.76448E-05-1.17829E-06
 -1     10258-1.18860E+01 8.08597E+00-1.74288E-04-7.13456E+00 2.42927E-05 1.03414E-05
 -1     10259-9.88261E+00 8.27388E+00 3.17309E-04-8.81963E+00-4.70302E-05-4.81164E-06
 -1     10260-1.04129E+01 6.57362E+00 3.49904E-04-9.24535E+00-2.40227E-05 8.35437E-07
 -1     10261-6.18135E+00 2.01071E+00 3.19147E-04-1.17721E+01 2.51251E-05 8.48195E-06
 -1     10262-8.27185E+00 4.26574E+00-1.59253E-04-1.04866E+01-1.91514E-05-7.79314E-06
 -1     10263-5.50075E+00 3.94092E+00 2.90886E-04-1.13541E+01 4.07649E-05-6.47411E-06
 -1     10264-6.15793E+00 1.98728E+00 3.48604E-04-1.17268E+01 2.27250E-05-7.28544E-06
 -1     10265-8.24613E+00 4.24002E+00-1.59521E-04-1.04562E+01 2.29767E-06-1.78184E-06
 -1     10266-5.48248E+00 3.92263E+00 2.96953E-04-1.13169E+01-4.03562E-07-9.55862E-06
 -1     10267-6.14623E+00 1.97556E+00 3.49185E-04-1.17041E+01 1.28892E-07-6.92263E-06
 -1     10268-8.23757E+00 4.23144E+00-1.60555E-04-1.04461E+01 1.13367E-12-1.07585E-13
 -1     10269-5.47638E+00 3.91652E+00 2.98620E-04-1.13045E+01 1.77245E-14 1.46190E-12
 -1     10270-6.14623E+00 1.97556E+00 3.49185E-04-1.17041E+01-1.28890E-07 6.92264E-06
 -1     10271-8.24613E+00 4.24002E+00-1.59521E-04-1.04562E+01-2.29767E-06 1.78184E-06
 -1     10272-5.48248E+00 3.92263E+00 2.96953E-04-1.13169E+01 4.03564E-07 9.55862E-06
 -1     10273-6.15793E+00 1.98728E+00 3.48604E-04-1.17268E+01-2.27250E-05 7.28544E-06
 -1     10274-8.27185E+00 4.26574E+00-1.59253E-04-1.04866E+01 1.91514E-05 7.79314E-06
 -1     10275-5.50075E+00 3.94092E+00 2.90886E-04-1.13541E+01-4.07649E-05 6.47411E-06
 -1     10276-6.18135E+00 2.01071E+00 3.19147E-04-1.17721E+01-2.51251E-05-8.48194E-06
 -1     10277-1.50227E+00-3.09070E+00 2.86926E-04-1.24184E+01 2.26660E-05 6.40361E-06
 -1     10278-3.83176E+00-5.51358E-01-1.25859E-04-1.20671E+01-1.36131E-05-7.08444E-06
 -1     10279-7.43469E-01-9.48519E-01 2.50585E-04-1.20291E+01 3.51160E-05-1.51786E-05
 -1     10280-1.50002E+00-3.09299E+00 2.78003E-04-1.23714E+01 1.89534E-05-1.49226E-05
 -1     10281-3.82214E+00-5.60994E-01-1.24904E-04-1.20325E+01 6.56464E-06-3.87626E-06
 -1     10282-7.42099E-01-9.49897E-01 2.53335E-04-1.19909E+01-4.71060E-06-1.03178E-05
 -1     10283-1.49888E+00-3.09413E+00 2.87712E-04-1.23479E+01-3.09522E-06-7.26705E-06
 -1     10284-3.81895E+00-5.64200E-01-1.24767E-04-1.20210E+01 2.01305E-12 1.66370E-13
 -1     10285-7.41637E-01-9.50371E-01 2.54367E-04-1.19782E+01 1.99908E-12-1.48852E-12
 -1     10286-1.49888E+00-3.09413E+00 2.87712E-04-1.23479E+01 3.09523E-06 7.26705E-06
 -1     10287-3.82214E+00-5.60994E-01-1.24904E-04-1.20325E+01-6.56464E-06 3.87626E-06
 -1     10288-7.42099E-01-9.49897E-01 2.53335E-04-1.19909E+01 4.71061E-06 1.03178E-05
 -1     10289-1.50002E+00-3.09299E+00 2.78003E-04-1.23714E+01-1.89534E-05 1.49226E-05
 -1     10290-3.83176E+00-5.51358E-01-1.25859E-04-1.20671E+01 1.36131E-05 7.08444E-06
 -1     10291-7.43469E-01-9.48519E-01 2.50585E-04-1.20291E+01-3.51160E-05 1.51786E-05
 -1     10292-1.50227E+00-3.09070E+00 2.86926E-04-1.24184E+01-2.26660E-05-6.40361E-06
 -1     10293 2.96206E+00-7.95822E+00 2.67558E-04-1.12383E+01 1.71986E-05 9.53425E-07
 -1     10294 7.26372E-01-5.52193E+00-1.02804E-04-1.18010E+01-1.22067E-05-6.78667E-06
 -1     10295 3.75507E+00-5.63633E+00 2.21313E-04-1.09111E+01 3.49236E-05-2.19916E-05
 -1     10296 2.94557E+00-7.94178E+00 2.24399E-04-1.11964E+01 1.63323E-05-2.09069E-05
 -1     10297 7.21037E-01-5.51663E+00-9.66522E-05-1.17677E+01 9.37812E-06-6.11737E-06
 -1     10298 3.74150E+00-5.62277E+00 2.19319E-04-1.08772E+01-9.44193E-06-1.06116E-05
 -1     10299 2.93734E+00-7.93356E+00 2.49872E-04-1.11754E+01-6.73461E-06-6.40109E-06
 -1     10300 7.19257E-01-5.51485E+00-9.57335E-05-1.17566E+01 6.53077E-13-1.06241E-12
 -1     10301 3.73698E+00-5.61827E+00 2.21125E-04-1.08658E+01 1.10802E-12-1.32634E-12
 -1     10302 2.93734E+00-7.93356E+00 2.49872E-04-1.11754E+01 6.73461E-06 6.40108E-06
 -1     10303 7.21037E-01-5.51663E+00-9.66522E-05-1.17677E+01-9.37812E-06 6.11737E-06
 -1     10304 3.74150E+00-5.62277E+00 2.19319E-04-1.08772E+01 9.44193E-06 1.06116E-05
 -1     10305 2.94557E+00-7.94178E+00 2.24399E-04-1.11964E+01-1.63323E-05 2.09069E-05
 -1     10306 7.26372E-01-5.52193E+00-1.02804E-04-1.18010E+01 1.22067E-05 6.78668E-06
 -1     10307 3.75507E+00-5.63633E+00 2.21313E-04-1.09111E+01-3.49236E-05 2.19916E-05
 -1     10308 2.96206E+00-7.95822E+00 2.67558E-04-1.12383E+01-1.71986E-05-9.53421E-07
 -1     10309 6.63082E+00-1.19500E+01 2.64179E-04-8.47567E+00 1.03030E-05-3.63927E-06
 -1     10310 4.78232E+00-9.94062E+00-8.75875E-05-9.83481E+00-1.50988E-05-6.61687E-06
 -1     10311 7.43566E+00-9.49314E+00 2.02655E-04-8.24069E+00 4.08510E-05-2.79561E-05
 -1     10312 6.59947E+00-1.19187E+01 1.84940E-04-8.44437E+00 1.53050E-05-2.57065E-05
 -1     10313 4.76439E+00-9.92273E+00-7.88907E-05-9.80734E+00 1.21394E-05-8.55041E-06
 -1     10314 7.41023E+00-9.46770E+00 1.97978E-04-8.21538E+00-1.69111E-05-9.63931E-06
 -1     10315 6.58382E+00-1.19030E+01 2.32203E-04-8.42871E+00-1.16784E-05-4.18792E-06
 -1     10316 4.75842E+00-9.91675E+00-7.87952E-05-9.79819E+00 8.56929E-13-1.34800E-12
 -1     10317 7.40174E+00-9.45925E+00 2.02306E-04-8.20692E+00 1.58465E-12-2.33416E-12
 -1     10318 6.58382E+00-1.19030E+01 2.32203E-04-8.42871E+00 1.16784E-05 4.18792E-06
 -1     10319 4.76439E+00-9.92273E+00-7.88907E-05-9.80734E+00-1.21394E-05 8.55041E-06
 -1     10320 7.41023E+00-9.46770E+00 1.97978E-04-8.21538E+00 1.69111E-05 9.63931E-06
 -1     10321 6.59947E+00-1.19187E+01 1.84940E-04-8.44437E+00-1.53050E-05 2.57065E-05
 -1     10322 4.78232E+00-9.94062E+00-8.75875E-05-9.83481E+00 1.50988E-05 6.61687E-06
 -1     10323 7.43566E+00-9.49314E+00 2.02655E-04-8.24069E+00-4.08510E-05 2.79561E-05
 -1     10324 6.63082E+00-1.19500E+01 2.64179E-04-8.47567E+00-1.03030E-05 3.63927E-06
 -1     10325 9.02928E+00-1.45637E+01 2.77949E-04-4.54633E+00 3.18483E-06-5.71899E-06
 -1     10326 7.80875E+00-1.32359E+01-7.97088E-05-6.49680E+00-2.29048E-05-4.95708E-06
 -1     10327 9.83573E+00-1.20237E+01 1.93557E-04-4.42429E+00 5.47880E-05-3.63042E-05
 -1     10328 8.98833E+00-1.45228E+01 1.51087E-04-4.52982E+00 1.59449E-05-3.06142E-05
 -1     10329 7.78164E+00-1.32089E+01-6.83360E-05-6.47886E+00 1.60214E-05-1.12847E-05
 -1     10330 9.80262E+00-1.19906E+01 1.85046E-04-4.41095E+00-2.87509E-05-6.21106E-06
 -1     10331 8.96790E+00-1.45024E+01 2.28492E-04-4.52156E+00-1.88559E-05 2.48515E-07
 -1     10332 7.77262E+00-1.31998E+01-6.98873E-05-6.47289E+00 2.66148E-12-4.23718E-13
 -1     10333 9.79156E+00-1.19796E+01 1.92976E-04-4.40647E+00 7.05920E-13 8.05734E-13
 -1     10334 8.96790E+00-1.45024E+01 2.28492E-04-4.52156E+00 1.88559E-05-2.48514E-07
 -1     10335 7.78164E+00-1.32089E+01-6.83360E-05-6.47886E+00-1.60214E-05 1.12847E-05
 -1     10336 9.80262E+00-1.19906E+01 1.85046E-04-4.41095E+00 2.87509E-05 6.21105E-06
 -1     10337 8.98833E+00-1.45228E+01 1.51087E-04-4.52982E+00-1.59449E-05 3.06142E-05
 -1     10338 7.80875E+00-1.32359E+01-7.97088E-05-6.49680E+00 2.29048E-05 4.95709E-06
 -1     10339 9.83573E+00-1.20237E+01 1.93557E-04-4.42429E+00-5.47879E-05 3.63042E-05
 -1     10340 9.02928E+00-1.45637E+01 2.77949E-04-4.54633E+00-3.18483E-06 5.71899E-06
 -1     10341 9.84300E+00-1.54767E+01 3.11341E-04-9.11651E-03-3.63141E-06-4.67224E-06
 -1     10342 9.41131E+00-1.49956E+01-7.67040E-05-2.27306E+00-3.62501E-05 1.84783E-07
 -1     10343 1.06458E+01-1.29076E+01 1.90816E-04-1.08923E-02 7.91168E-05-5.14938E-05
 -1     10344 9.79877E+00-1.54326E+01 1.12786E-04-9.62675E-03 1.85782E-05-3.72486E-05
 -1     10345 9.37938E+00-1.49637E+01-6.20629E-05-2.26704E+00 2.22500E-05-1.52782E-05
 -1     10346 1.06101E+01-1.28719E+01 1.76090E-04-1.13134E-02-4.65915E-05 2.14249E-06
 -1     10347 9.77672E+00-1.54105E+01 2.34039E-04-9.86811E-03-2.89499E-05 8.67469E-06
 -1     10348 9.36876E+00-1.49531E+01-6.61742E-05-2.26505E+00-6.35408E-13-2.10599E-12
 -1     10349 1.05982E+01-1.28600E+01 1.89044E-04-1.14005E-02-1.89801E-13-2.47883E-12
 -1     10350 9.77672E+00-1.54105E+01 2.34039E-04-9.86811E-03 2.89499E-05-8.67469E-06
 -1     10351 9.37938E+00-1.49637E+01-6.20629E-05-2.26704E+00-2.22500E-05 1.52782E-05
 -1     10352 1.06101E+01-1.28719E+01 1.76090E-04-1.13134E-02 4.65915E-05-2.14249E-06
 -1     10353 9.79877E+00-1.54326E+01 1.12786E-04-9.62675E-03-1.85782E-05 3.72486E-05
 -1     10354 9.41131E+00-1.49956E+01-7.67040E-05-2.27306E+00 3.62501E-05-1.84785E-07
 -1     10355 1.06458E+01-1.29076E+01 1.90816E-04-1.08923E-02-7.91168E-05 5.14938E-05
 -1     10356 9.84300E+00-1.54767E+01 3.11341E-04-9.11651E-03 3.63141E-06 4.67224E-06
 -1     10357 8.97111E+00-1.45896E+01 3.70517E-04 4.49326E+00-1.00756E-05 2.08348E-07
 -1     10358 9.38249E+00-1.50088E+01-7.69592E-05 2.23686E+00-5.63654E-05 1.17744E-05
 -1     10359 9.76580E+00-1.20448E+01 1.92645E-04 4.36514E+00 1.17384E-04-8.04660E-05
 -1     10360 8.93028E+00-1.45490E+01 5.92413E-05 4.47588E+00 2.37318E-05-4.79715E-05
 -1     10361 9.35062E+00-1.49770E+01-5.72605E-05 2.23019E+00 3.19604E-05-2.21796E-05
 -1     10362 9.73290E+00-1.20118E+01 1.67257E-04 4.35107E+00-7.21216E-05 1.93157E-05
 -1     10363 8.90998E+00-1.45286E+01 2.46602E-04 4.46722E+00-4.23934E-05 2.38386E-05
 -1     10364 9.34003E+00-1.49663E+01-6.51126E-05 2.22792E+00 2.98809E-13-1.63383E-12
 -1     10365 9.72185E+00-1.20009E+01 1.87283E-04 4.34647E+00 6.25848E-13 3.04214E-13
 -1     10366 8.90998E+00-1.45286E+01 2.46602E-04 4.46722E+00 4.23934E-05-2.38386E-05
 -1     10367 9.35062E+00-1.49770E+01-5.72605E-05 2.23019E+00-3.19604E-05 2.21796E-05
 -1     10368 9.73290E+00-1.20118E+01 1.67257E-04 4.35107E+00 7.21216E-05-1.93157E-05
 -1     10369 8.93028E+00-1.45490E+01 5.92413E-05 4.47588E+00-2.37318E-05 4.79715E-05
 -1     10370 9.38249E+00-1.50088E+01-7.69592E-05 2.23686E+00 5.63654E-05-1.17744E-05
 -1     10371 9.76580E+00-1.20448E+01 1.92645E-04 4.36514E+00-1.17384E-04 8.04660E-05
 -1     10372 8.97111E+00-1.45896E+01 3.70517E-04 4.49326E+00 1.00756E-05-2.08348E-07
 -1     10373 6.55395E+00-1.20486E+01 4.67805E-04 8.31895E+00-1.60693E-05 1.06843E-05
 -1     10374 7.74187E+00-1.32986E+01-7.98537E-05 6.39196E+00-8.51083E-05 3.43969E-05
 -1     10375 7.33462E+00-9.57873E+00 1.98428E-04 8.06833E+00 1.74255E-04-1.34793E-04
 -1     10376 6.52269E+00-1.20177E+01-2.19521E-05 8.28729E+00 3.21592E-05-6.65567E-05
 -1     10377 7.71487E+00-1.32717E+01-5.18832E-05 6.37363E+00 4.62617E-05-3.46244E-05
 -1     10378 7.30955E+00-9.55356E+00 1.55439E-04 8.04270E+00-1.07007E-04 5.12426E-05
 -1     10379 6.50723E+00-1.20020E+01 2.66292E-04 8.27150E+00-5.91634E-05 4.97529E-05
 -1     10380 7.70595E+00-1.32627E+01-6.51534E-05 6.36746E+00 5.16512E-13-1.75798E-14
 -1     10381 7.30102E+00-9.54527E+00 1.85599E-04 8.03429E+00 6.82909E-13-5.80401E-13
 -1     10382 6.50723E+00-1.20020E+01 2.66292E-04 8.27150E+00 5.91634E-05-4.97529E-05
 -1     10383 7.71487E+00-1.32717E+01-5.18832E-05 6.37363E+00-4.62617E-05 3.46244E-05
 -1     10384 7.30955E+00-9.55356E+00 1.55439E-04 8.04270E+00 1.07007E-04-5.12426E-05
 -1     10385 6.52269E+00-1.20177E+01-2.19521E-05 8.28729E+00-3.21592E-05 6.65567E-05
 -1     10386 7.74187E+00-1.32986E+01-7.98537E-05 6.39196E+00 8.51083E-05-3.43969E-05
 -1     10387 7.33462E+00-9.57873E+00 1.98428E-04 8.06833E+00-1.74255E-04 1.34793E-04
 -1     10388 6.55395E+00-1.20486E+01 4.67805E-04 8.31895E+00 1.60693E-05-1.06843E-05
 -1     10389 2.96286E+00-8.23236E+00 6.25696E-04 1.09209E+01-2.13635E-05 3.06272E-05
 -1     10390 4.74468E+00-1.01270E+01-8.54011E-05 9.59904E+00-1.24857E-04 7.58803E-05
 -1     10391 3.72145E+00-5.88435E+00 2.11569E-04 1.05562E+01 2.54944E-04-2.32358E-04
 -1     10392 2.94589E+00-8.21583E+00-1.46011E-04 1.08797E+01 4.47204E-05-9.98175E-05
 -1     10393 4.72665E+00-1.01090E+01-4.39853E-05 9.57182E+00 6.59829E-05-5.63699E-05
 -1     10394 3.70809E+00-5.87082E+00 1.39194E-04 1.05229E+01-1.52228E-04 1.07034E-04
 -1     10395 2.93766E+00-8.20733E+00 2.94983E-04 1.08592E+01-7.83375E-05 9.17494E-05
 -1     10396 4.72077E+00-1.01030E+01-6.50280E-05 9.56265E+00 1.22342E-13-7.26913E-13
 -1     10397 3.70330E+00-5.86641E+00 1.82687E-04 1.05120E+01 4.42068E-13-7.86693E-13
 -1     10398 2.93766E+00-8.20733E+00 2.94983E-04 1.08592E+01 7.83375E-05-9.17494E-05
 -1     10399 4.72665E+00-1.01090E+01-4.39853E-05 9.57182E+00-6.59829E-05 5.63699E-05
 -1     10400 3.70809E+00-5.87082E+00 1.39194E-04 1.05229E+01 1.52228E-04-1.07034E-04
 -1     10401 2.94589E+00-8.21583E+00-1.46011E-04 1.08797E+01-4.47204E-05 9.98175E-05
 -1     10402 4.74468E+00-1.01270E+01-8.54011E-05 9.59904E+00 1.24857E-04-7.58803E-05
 -1     10403 3.72145E+00-5.88435E+00 2.11569E-04 1.05562E+01-2.54944E-04 2.32358E-04
 -1     10404 2.96286E+00-8.23236E+00 6.25696E-04 1.09209E+01 2.13635E-05-3.06272E-05
 -1     10405-1.24909E+00-3.70150E+00 8.83899E-04 1.19320E+01-2.42041E-05 6.91571E-05
 -1     10406 8.52085E-01-5.96238E+00-9.72693E-05 1.14020E+01-1.78113E-04 1.47411E-04
 -1     10407-5.22709E-01-1.51785E+00 2.32668E-04 1.14648E+01 3.64751E-04-4.06308E-04
 -1     10408-1.24923E+00-3.70203E+00-3.32181E-04 1.18875E+01 6.31906E-05-1.59756E-04
 -1     10409 8.45724E-01-5.95617E+00-3.31288E-05 1.13700E+01 9.11621E-05-9.30523E-05
 -1     10410-5.22206E-01-1.51805E+00 1.14572E-04 1.14287E+01-2.05761E-04 1.97248E-04
 -1     10411-1.24892E+00-3.70190E+00 3.34413E-04 1.18654E+01-9.72124E-05 1.56160E-04
 -1     10412 8.43854E-01-5.95406E+00-6.38342E-05 1.13592E+01 2.59807E-13-7.95170E-13
 -1     10413-5.22644E-01-1.51821E+00 1.74044E-04 1.14170E+01 1.44426E-13-9.76213E-13
 -1     10414-1.24892E+00-3.70190E+00 3.34413E-04 1.18654E+01 9.72124E-05-1.56160E-04
 -1     10415 8.45724E-01-5.95617E+00-3.31288E-05 1.13700E+01-9.11621E-05 9.30523E-05
 -1     10416-5.22206E-01-1.51805E+00 1.14572E-04 1.14287E+01 2.05761E-04-1.97248E-04
 -1     10417-1.24923E+00-3.70203E+00-3.32181E-04 1.18875E+01-6.31906E-05 1.59756E-04
 -1     10418 8.52085E-01-5.96238E+00-9.72693E-05 1.14020E+01 1.78113E-04-1.47411E-04
 -1     10419-5.22709E-01-1.51785E+00 2.32668E-04 1.14648E+01-3.64751E-04 4.06308E-04
 -1     10420-1.24909E+00-3.70150E+00 8.83899E-04 1.19320E+01 2.42041E-05-6.91571E-05
 -1     10421-5.42836E+00 8.83631E-01 1.31659E-03 1.12258E+01-2.42680E-05 1.45861E-04
 -1     10422-3.33402E+00-1.41400E+00-1.15694E-04 1.15546E+01-2.46947E-04 2.72350E-04
 -1     10423-4.74556E+00 2.86499E+00 2.89404E-04 1.06693E+01 5.05125E-04-6.93577E-04
 -1     10424-5.41177E+00 8.65983E-01-5.99587E-04 1.11847E+01 9.12410E-05-2.74880E-04
 -1     10425-3.32781E+00-1.42046E+00-1.53386E-05 1.15227E+01 1.18780E-04-1.48430E-04
 -1     10426-4.73108E+00 2.85107E+00 9.13453E-05 1.06361E+01-2.58409E-04 3.35102E-04
 -1     10427-5.40287E+00 8.57791E-01 3.79001E-04 1.11643E+01-1.09877E-04 2.45092E-04
 -1     10428-3.32530E+00-1.42258E+00-5.62722E-05 1.15119E+01 3.22754E-14-8.86783E-13
 -1     10429-4.72730E+00 2.84635E+00 1.53858E-04 1.06253E+01 2.58483E-13-9.47092E-13
 -1     10430-5.40287E+00 8.57791E-01 3.79001E-04 1.11643E+01 1.09877E-04-2.45092E-04
 -1     10431-3.32781E+00-1.42046E+00-1.53386E-05 1.15227E+01-1.18780E-04 1.48430E-04
 -1     10432-4.73108E+00 2.85107E+00 9.13453E-05 1.06361E+01 2.58409E-04-3.35102E-04
 -1     10433-5.41177E+00 8.65983E-01-5.99587E-04 1.11847E+01-9.12410E-05 2.74880E-04
 -1     10434-3.33402E+00-1.41400E+00-1.15694E-04 1.15546E+01 2.46947E-04-2.72350E-04
 -1     10435-4.74556E+00 2.86499E+00 2.89404E-04 1.06693E+01-5.05125E-04 6.93577E-04
 -1     10436-5.42836E+00 8.83631E-01 1.31659E-03 1.12258E+01 2.42680E-05-1.45861E-04
 -1     10437-8.92359E+00 4.86648E+00 2.06818E-03 8.94193E+00-1.41707E-05 3.16820E-04
 -1     10438-7.16277E+00 2.86123E+00-1.69665E-04 1.00633E+01-3.30325E-04 4.65652E-04
 -1     10439-8.29548E+00 6.61151E+00 3.39095E-04 8.31148E+00 6.76400E-04-1.21422E-03
 -1     10440-8.89304E+00 4.83425E+00-9.50390E-04 8.91053E+00 1.43595E-04-5.00567E-04
 -1     10441-7.14510E+00 2.84311E+00-1.92962E-06 1.00363E+01 1.40978E-04-2.27708E-04
 -1     10442-8.26888E+00 6.58608E+00 3.57170E-05 8.28615E+00-2.78909E-04 4.92892E-04
 -1     10443-8.87676E+00 4.81911E+00 3.99508E-04 8.89495E+00-1.04629E-04 3.47493E-04
 -1     10444-7.13848E+00 2.83711E+00-3.60071E-05 1.00272E+01 5.24705E-14-9.47738E-13
 -1     10445-8.26175E+00 6.57748E+00 6.71842E-05 8.27792E+00-2.79529E-13-1.12726E-12
 -1     10446-8.87676E+00 4.81911E+00 3.99508E-04 8.89495E+00 1.04629E-04-3.47493E-04
 -1     10447-7.14510E+00 2.84311E+00-1.92962E-06 1.00363E+01-1.40978E-04 2.27708E-04
 -1     10448-8.26888E+00 6.58608E+00 3.57170E-05 8.28615E+00 2.78909E-04-4.92892E-04
 -1     10449-8.89304E+00 4.83425E+00-9.50390E-04 8.91053E+00-1.43595E-04 5.00567E-04
 -1     10450-7.16277E+00 2.86123E+00-1.69665E-04 1.00633E+01 3.30325E-04-4.65652E-04
 -1     10451-8.29548E+00 6.61151E+00 3.39095E-04 8.31148E+00-6.76400E-04 1.21422E-03
 -1     10452-8.92359E+00 4.86648E+00 2.06818E-03 8.94193E+00 1.41707E-05-3.16820E-04
 -1     10453-1.11980E+01 7.70604E+00 3.46034E-03 5.47031E+00-2.31518E-05 7.18110E-04
 -1     10454-1.00414E+01 6.26570E+00-2.33880E-04 7.19201E+00-4.27784E-04 8.33498E-04
 -1     10455-1.06338E+01 9.18370E+00 6.43496E-04 4.78513E+00 8.48498E-04-1.92441E-03
 -1     10456-1.11585E+01 7.66373E+00-1.31524E-03 5.45314E+00 2.57644E-04-1.04300E-03
 -1     10457-1.00153E+01 6.23866E+00 3.80183E-05 7.17409E+00 1.27462E-04-2.76794E-04
 -1     10458-1.05983E+01 9.15084E+00 8.94586E-05 4.77141E+00-1.95323E-04 6.00205E-04
 -1     10459-1.11369E+01 7.64408E+00 2.24813E-04 5.44465E+00-5.39639E-05 3.63694E-04
 -1     10460-1.00054E+01 6.22975E+00 5.14755E-05 7.16804E+00-3.48281E-13-9.67712E-13
 -1     10461-1.05892E+01 9.13953E+00-1.27925E-04 4.76688E+00-5.10520E-13-1.06729E-12
 -1     10462-1.11369E+01 7.64408E+00 2.24813E-04 5.44465E+00 5.39639E-05-3.63694E-04
 -1     10463-1.00153E+01 6.23866E+00 3.80183E-05 7.17409E+00-1.27462E-04 2.76794E-04
 -1     10464-1.05983E+01 9.15084E+00 8.94586E-05 4.77141E+00 1.95323E-04-6.00205E-04
 -1     10465-1.11585E+01 7.66373E+00-1.31524E-03 5.45314E+00-2.57644E-04 1.04300E-03
 -1     10466-1.00414E+01 6.26570E+00-2.33880E-04 7.19201E+00 4.27784E-04-8.33498E-04
 -1     10467-1.06338E+01 9.18370E+00 6.43496E-04 4.78513E+00-8.48498E-04 1.92441E-03
 -1     10468-1.11980E+01 7.70604E+00 3.46034E-03 5.47031E+00 2.31518E-05-7.18110E-04
 -1     10469-1.19404E+01 9.08098E+00 6.26999E-03 1.38784E+00-2.01892E-05 1.84049E-03
 -1     10470-1.15466E+01 8.36811E+00-5.63685E-04 3.42278E+00-5.04568E-04 1.21297E-03
 -1     10471-1.14482E+01 1.02617E+01 4.69500E-04 6.76700E-01 1.04019E-03-3.65355E-03
 -1     10472-1.18983E+01 9.03378E+00-1.26430E-03 1.38690E+00 5.79384E-04-2.30469E-03
 -1     10473-1.15164E+01 8.33589E+00-1.88571E-05 3.41640E+00 3.25945E-05-2.33129E-04
 -1     10474-1.14069E+01 1.02269E+01-2.49124E-04 6.76066E-01 2.17394E-04-6.08463E-05
 -1     10475-1.18733E+01 9.01240E+00-5.85472E-04 1.38642E+00 1.17736E-04-6.26030E-06
 -1     10476-1.15046E+01 8.32549E+00 2.86518E-04 3.41433E+00-5.78438E-13-1.02065E-12
 -1     10477-1.13969E+01 1.02143E+01-1.04938E-03 6.75616E-01-1.00032E-12-1.16150E-12
 -1     10478-1.18733E+01 9.01240E+00-5.85472E-04 1.38642E+00-1.17736E-04 6.26030E-06
 -1     10479-1.15164E+01 8.33589E+00-1.88571E-05 3.41640E+00-3.25945E-05 2.33129E-04
 -1     10480-1.14069E+01 1.02269E+01-2.49124E-04 6.76066E-01-2.17394E-04 6.08463E-05
 -1     10481-1.18983E+01 9.03378E+00-1.26430E-03 1.38690E+00-5.79384E-04 2.30469E-03
 -1     10482-1.15466E+01 8.36811E+00-5.63685E-04 3.42278E+00 5.04568E-04-1.21297E-03
 -1     10483-1.14482E+01 1.02617E+01 4.69500E-04 6.76700E-01-1.04019E-03 3.65355E-03
 -1     10484-1.19404E+01 9.08098E+00 6.26999E-03 1.38784E+00 2.01892E-05-1.84049E-03
 -1     10485-1.11609E+01 8.95108E+00 1.23827E-02-2.65163E+00-4.59582E-04 4.95815E-03
 -1     10486-1.15249E+01 8.98495E+00-7.82897E-04-6.30127E-01-6.37592E-04 2.61625E-03
 -1     10487-1.07517E+01 9.81150E+00 2.99877E-03-3.34198E+00 9.93640E-04-4.32141E-03
 -1     10488-1.11221E+01 8.90174E+00 4.22080E-05-2.63695E+00 1.35376E-03-6.49254E-03
 -1     10489-1.14962E+01 8.95061E+00 2.28946E-04-6.24277E-01-3.89687E-04 8.18168E-04
 -1     10490-1.07027E+01 9.77987E+00 6.32665E-04-3.33108E+00 1.34561E-03-2.87555E-03
 -1     10491-1.10928E+01 8.88036E+00-4.93058E-03-2.63021E+00 6.39702E-04-2.38248E-03
 -1     10492-1.14844E+01 8.93997E+00 1.23337E-03-6.22096E-01-1.07860E-12-8.17453E-13
 -1     10493-1.06906E+01 9.76721E+00-2.87327E-03-3.32812E+00-1.46213E-12-8.81433E-13
 -1     10494-1.10928E+01 8.88036E+00-4.93058E-03-2.63021E+00-6.39702E-04 2.38248E-03
 -1     10495-1.14962E+01 8.95061E+00 2.28946E-04-6.24277E-01 3.89687E-04-8.18168E-04
 -1     10496-1.07027E+01 9.77987E+00 6.32665E-04-3.33108E+00-1.34561E-03 2.87555E-03
 -1     10497-1.11221E+01 8.90174E+00 4.22080E-05-2.63695E+00-1.35376E-03 6.49254E-03
 -1     10498-1.15249E+01 8.98495E+00-7.82897E-04-6.30127E-01 6.37592E-04-2.61625E-03
 -1     10499-1.07517E+01 9.81150E+00 2.99877E-03-3.34198E+00-9.93640E-04 4.32141E-03
 -1     10500-1.11609E+01 8.95108E+00 1.23827E-02-2.65163E+00 4.59582E-04-4.95815E-03
 -1     10501-9.22578E+00 7.51607E+00 2.93013E-02-6.04455E+00-2.46799E-03 1.99783E-02
 -1     10502-1.01617E+01 8.18431E+00-3.31430E-03-4.33572E+00-8.05276E-05 1.22687E-03
 -1     10503-8.93052E+00 8.01921E+00 1.78717E-03-6.64828E+00-8.30748E-04-8.67975E-03
 -1     10504-9.20583E+00 7.45741E+00 1.35671E-02-6.01478E+00 6.43340E-04-9.58049E-03
 -1     10505-1.01387E+01 8.14812E+00-3.54362E-04-4.31912E+00-9.58749E-04 3.43202E-03
 -1     10506-8.86724E+00 7.99217E+00-1.81802E-04-6.62791E+00 2.38492E-03-1.34064E-02
 -1     10507-9.17032E+00 7.43145E+00-1.00428E-02-6.00129E+00 8.49554E-04-7.78684E-03
 -1     10508-1.01297E+01 8.13758E+00 3.77833E-03-4.31308E+00-1.89687E-12-6.21286E-13
 -1     10509-8.84345E+00 7.98163E+00-6.92639E-03-6.62229E+00-2.26036E-12-8.85241E-13
 -1     10510-9.17032E+00 7.43145E+00-1.00428E-02-6.00129E+00-8.49554E-04 7.78684E-03
 -1     10511-1.01387E+01 8.14812E+00-3.54362E-04-4.31912E+00 9.58749E-04-3.43202E-03
 -1     10512-8.86724E+00 7.99217E+00-1.81802E-04-6.62791E+00-2.38492E-03 1.34064E-02
 -1     10513-9.20583E+00 7.45741E+00 1.35671E-02-6.01478E+00-6.43340E-04 9.58049E-03
 -1     10514-1.01617E+01 8.18431E+00-3.31430E-03-4.33572E+00 8.05276E-05-1.22687E-03
 -1     10515-8.93052E+00 8.01921E+00 1.78717E-03-6.64828E+00 8.30748E-04 8.67975E-03
 -1     10516-9.22578E+00 7.51607E+00 2.93013E-02-6.04455E+00 2.46799E-03-1.99783E-02
 -1     10517-6.68929E+00 4.82315E+00 1.22883E-01-8.18660E+00-9.33405E-03 1.44915E-01
 -1     10518-7.95126E+00 6.05970E+00-1.18585E-02-7.12040E+00 2.03069E-03-1.13462E-03
 -1     10519-6.48266E+00 4.96857E+00 1.72496E-01-8.70411E+00-1.77861E-02 1.56779E-01
 -1     10520-6.77246E+00 4.74680E+00 2.31436E-01-8.15637E+00-9.54062E-03 1.37230E-01
 -1     10521-7.92877E+00 6.01579E+00-1.43724E-02-7.09903E+00-3.89809E-04 7.70131E-03
 -1     10522-6.56230E+00 4.90298E+00 2.22524E-01-8.67643E+00-9.87512E-03 8.78776E-02
 -1     10523-6.82639E+00 4.69871E+00 2.56349E-01-8.13801E+00-3.56400E-03 4.72110E-02
 -1     10524-7.92721E+00 6.00141E+00-9.58381E-03-7.09140E+00-2.85019E-12-2.56100E-13
 -1     10525-6.57929E+00 4.88293E+00 2.34743E-01-8.66632E+00-3.90653E-12-7.24512E-13
 -1     10526-6.82639E+00 4.69871E+00 2.56349E-01-8.13801E+00 3.56400E-03-4.72110E-02
 -1     10527-7.92877E+00 6.01579E+00-1.43724E-02-7.09903E+00 3.89809E-04-7.70131E-03
 -1     10528-6.56230E+00 4.90298E+00 2.22524E-01-8.67643E+00 9.87512E-03-8.78776E-02
 -1     10529-6.77246E+00 4.74680E+00 2.31436E-01-8.15637E+00 9.54062E-03-1.37230E-01
 -1     10530-7.95126E+00 6.05970E+00-1.18585E-02-7.12040E+00-2.03069E-03 1.13462E-03
 -1     10531-6.48266E+00 4.96857E+00 1.72496E-01-8.70411E+00 1.77861E-02-1.56779E-01
 -1     10532-6.68929E+00 4.82315E+00 1.22883E-01-8.18660E+00 9.33405E-03-1.44915E-01
 -1     10533-5.34064E+00 1.92084E+00-1.98694E-01-8.50699E+00-9.09829E-04-6.40046E-02
 -1     10534-5.37765E+00 1.84147E+00-2.98091E-01-8.48239E+00-1.76694E-03-4.12142E-02
 -1     10535-5.39047E+00 1.81443E+00-3.37122E-01-8.47483E+00-2.71495E-12 4.21601E-13
 -1     10536-5.37765E+00 1.84147E+00-2.98091E-01-8.48239E+00 1.76694E-03 4.12142E-02
 -1     10537-5.34064E+00 1.92084E+00-1.98694E-01-8.50699E+00 9.09829E-04 6.40046E-02
 -1     10538-2.13515E+00-2.62088E+00-3.70293E-03 4.26796E+00-1.69700E-04-2.84391E-03
 -1     10539-8.40748E-01-2.40802E+00-4.80894E-05 2.12297E+00 3.52564E-03-1.80208E-02
 -1     10540-2.27714E+00-3.23367E+00-9.50291E-03 4.97489E+00 1.14549E-03-7.41919E-03
 -1     10541-2.18309E+00-2.58394E+00-1.40335E-02 4.23256E+00-1.65834E-05-6.07863E-03
 -1     10542-8.58619E-01-2.34623E+00 2.39978E-03 2.10916E+00 2.75821E-03-1.34830E-02
 -1     10543-2.31129E+00-3.19982E+00-2.22698E-02 4.93709E+00 1.05234E-03-7.08739E-03
 -1     10544-2.20317E+00-2.56444E+00-2.22873E-02 4.21452E+00 6.12286E-05-2.96951E-03
 -1     10545-8.63393E-01-2.32580E+00 3.30317E-03 2.10431E+00-3.88594E-12-3.70781E-12
 -1     10546-2.32147E+00-3.18830E+00-2.76334E-02 4.92431E+00-6.14008E-13-6.15809E-12
 -1     10547-2.20317E+00-2.56444E+00-2.22873E-02 4.21452E+00-6.12286E-05 2.96951E-03
 -1     10548-8.58619E-01-2.34623E+00 2.39978E-03 2.10916E+00-2.75821E-03 1.34830E-02
 -1     10549-2.31129E+00-3.19982E+00-2.22698E-02 4.93709E+00-1.05234E-03 7.08739E-03
 -1     10550-2.18309E+00-2.58394E+00-1.40335E-02 4.23256E+00 1.65833E-05 6.07863E-03
 -1     10551-8.40748E-01-2.40802E+00-4.80894E-05 2.12297E+00-3.52564E-03 1.80208E-02
 -1     10552-2.27714E+00-3.23367E+00-9.50291E-03 4.97489E+00-1.14549E-03 7.41919E-03
 -1     10553-2.13515E+00-2.62088E+00-3.70293E-03 4.26796E+00 1.69700E-04 2.84391E-03
 -1     10554-7.31162E+00 1.82397E+00-5.85105E-04 5.80613E+00-1.27212E-04-7.07252E-04
 -1     10555-4.75501E+00-3.40345E-01 2.06310E-03 5.05773E+00 7.62789E-05 6.31513E-04
 -1     10556-7.61015E+00 1.86036E+00-1.62421E-03 6.65568E+00-8.72435E-05-5.07430E-04
 -1     10557-7.29255E+00 1.80572E+00-1.35007E-03 5.75242E+00-8.49403E-05-5.12962E-04
 -1     10558-4.76359E+00-3.33624E-01 1.13070E-03 5.02349E+00 8.76933E-05 3.07250E-04
 -1     10559-7.59494E+00 1.84643E+00-6.86238E-04 6.60809E+00-5.51576E-05-1.14882E-04
 -1     10560-7.28322E+00 1.79661E+00-1.53111E-03 5.72552E+00-3.04452E-05-1.22946E-04
 -1     10561-4.76617E+00-3.31259E-01 9.77942E-04 5.01208E+00-1.77866E-12-4.97265E-12
 -1     10562-7.59020E+00 1.84163E+00-4.91565E-04 6.59224E+00-2.95215E-12 9.25505E-13
 -1     10563-7.28322E+00 1.79661E+00-1.53111E-03 5.72552E+00 3.04452E-05 1.22946E-04
 -1     10564-4.76359E+00-3.33624E-01 1.13070E-03 5.02349E+00-8.76933E-05-3.07250E-04
 -1     10565-7.59494E+00 1.84643E+00-6.86238E-04 6.60809E+00 5.51576E-05 1.14882E-04
 -1     10566-7.29255E+00 1.80572E+00-1.35007E-03 5.75242E+00 8.49403E-05 5.12962E-04
 -1     10567-4.75501E+00-3.40345E-01 2.06310E-03 5.05773E+00-7.62789E-05-6.31513E-04
 -1     10568-7.61015E+00 1.86036E+00-1.62421E-03 6.65568E+00 8.72435E-05 5.07430E-04
 -1     10569-7.31162E+00 1.82397E+00-5.85105E-04 5.80613E+00 1.27212E-04 7.07252E-04
 -1     10570-1.18866E+01 6.14783E+00-2.37615E-04 3.61587E+00-1.53549E-05-1.73627E-04
 -1     10571-9.60460E+00 4.00905E+00-5.51364E-05 4.70270E+00 3.41383E-05 1.01094E-04
 -1     10572-1.21738E+01 6.82352E+00 2.33339E-04 4.34084E+00 9.36405E-05-6.43615E-05
 -1     10573-1.18329E+01 6.09429E+00-3.19142E-04 3.57571E+00 4.18948E-05-4.66564E-06
 -1     10574-9.57716E+00 3.98196E+00 5.07676E-04 4.66740E+00-3.97238E-06 3.37409E-05
 -1     10575-1.21301E+01 6.77937E+00-2.14794E-04 4.30757E+00 6.10201E-05-6.48269E-06
 -1     10576-1.18061E+01 6.06750E+00-2.54654E-04 3.55563E+00 1.90441E-05 2.38259E-05
 -1     10577-9.56798E+00 3.97294E+00 6.46216E-04 4.65564E+00-2.29256E-13 2.47090E-12
 -1     10578-1.21155E+01 6.76465E+00-3.11107E-04 4.29648E+00-6.64779E-15 2.33972E-12
 -1     10579-1.18061E+01 6.06750E+00-2.54654E-04 3.55563E+00-1.90441E-05-2.38259E-05
 -1     10580-9.57716E+00 3.98196E+00 5.07676E-04 4.66740E+00 3.97237E-06-3.37409E-05
 -1     10581-1.21301E+01 6.77937E+00-2.14794E-04 4.30757E+00-6.10201E-05 6.48269E-06
 -1     10582-1.18329E+01 6.09429E+00-3.19142E-04 3.57571E+00-4.18948E-05 4.66564E-06
 -1     10583-9.60460E+00 4.00905E+00-5.51364E-05 4.70270E+00-3.41384E-05-1.01094E-04
 -1     10584-1.21738E+01 6.82352E+00 2.33339E-04 4.34084E+00-9.36405E-05 6.43615E-05
 -1     10585-1.18866E+01 6.14783E+00-2.37615E-04 3.61587E+00 1.53549E-05 1.73627E-04
 -1     10586-1.41345E+01 7.92074E+00 1.04372E-04-9.16628E-01-1.61566E-05-9.56560E-05
 -1     10587-1.29932E+01 7.02552E+00 8.63221E-05 1.32739E+00-8.45243E-06-3.20373E-06
 -1     10588-1.42180E+01 9.05425E+00 1.33424E-04-3.63038E-01 4.61214E-05 4.73959E-06
 -1     10589-1.40707E+01 7.85703E+00 1.69252E-04-9.30238E-01 3.43342E-05 4.57540E-06
 -1     10590-1.29492E+01 6.98140E+00-4.61746E-05 1.30737E+00-6.71688E-06-1.96239E-05
 -1     10591-1.41662E+01 9.00239E+00 2.49437E-04-3.73128E-01 1.98975E-05 1.05706E-05
 -1     10592-1.40389E+01 7.82515E+00 2.08171E-04-9.37047E-01 1.15092E-05 7.26093E-06
 -1     10593-1.29345E+01 6.96670E+00-9.76531E-05 1.30070E+00-9.19573E-14 1.92773E-12
 -1     10594-1.41489E+01 8.98510E+00 2.97124E-04-3.76491E-01 8.73079E-13 6.03898E-12
 -1     10595-1.40389E+01 7.82515E+00 2.08171E-04-9.37047E-01-1.15092E-05-7.26093E-06
 -1     10596-1.29492E+01 6.98140E+00-4.61746E-05 1.30737E+00 6.71688E-06 1.96239E-05
 -1     10597-1.41662E+01 9.00239E+00 2.49437E-04-3.73128E-01-1.98975E-05-1.05706E-05
 -1     10598-1.40707E+01 7.85703E+00 1.69252E-04-9.30238E-01-3.43342E-05-4.57540E-06
 -1     10599-1.29932E+01 7.02552E+00 8.63220E-05 1.32739E+00 8.45242E-06 3.20374E-06
 -1     10600-1.42180E+01 9.05425E+00 1.33424E-04-3.63038E-01-4.61214E-05-4.73959E-06
 -1     10601-1.41345E+01 7.92074E+00 1.04372E-04-9.16628E-01 1.61566E-05 9.56560E-05
 -1     10602-1.37392E+01 6.71023E+00 2.64561E-04-5.90711E+00-3.75065E-06-3.80497E-05
 -1     10603-1.39055E+01 7.28659E+00-1.53756E-04-3.42504E+00-1.82555E-05-1.07527E-05
 -1     10604-1.35491E+01 8.15399E+00 3.08894E-04-5.46405E+00 5.24136E-05 1.07396E-05
 -1     10605-1.36827E+01 6.65384E+00 3.61348E-04-5.89585E+00 2.96135E-05 5.00001E-06
 -1     10606-1.38604E+01 7.24157E+00-1.30810E-04-3.42580E+00-6.80819E-06-3.74460E-06
 -1     10607-1.35038E+01 8.10858E+00 3.05020E-04-5.45368E+00 1.25342E-05-6.80885E-06
 -1     10608-1.36546E+01 6.62562E+00 3.78790E-04-5.89023E+00 6.17356E-06-1.07230E-06
 -1     10609-1.38454E+01 7.22656E+00-1.33649E-04-3.42606E+00 2.66977E-12 9.24931E-13
 -1     10610-1.34886E+01 8.09345E+00 3.14644E-04-5.45022E+00 2.77853E-12-4.17755E-12
 -1     10611-1.36546E+01 6.62562E+00 3.78790E-04-5.89023E+00-6.17355E-06 1.07229E-06
 -1     10612-1.38604E+01 7.24157E+00-1.30810E-04-3.42580E+00 6.80819E-06 3.74460E-06
 -1     10613-1.35038E+01 8.10858E+00 3.05020E-04-5.45368E+00-1.25342E-05 6.80886E-06
 -1     10614-1.36827E+01 6.65384E+00 3.61348E-04-5.89585E+00-2.96135E-05-5.00001E-06
 -1     10615-1.39055E+01 7.28659E+00-1.53756E-04-3.42504E+00 1.82555E-05 1.07527E-05
 -1     10616-1.35491E+01 8.15399E+00 3.08894E-04-5.46405E+00-5.24136E-05-1.07396E-05
 -1     10617-1.37392E+01 6.71023E+00 2.64561E-04-5.90711E+00 3.75065E-06 3.80497E-05
 -1     10618-1.12191E+01 3.15863E+00 3.03991E-04-9.99171E+00 9.77161E-06-4.84352E-06
 -1     10619-1.24477E+01 4.90260E+00-1.62514E-04-7.94566E+00-2.27112E-05-1.44401E-05
 -1     10620-1.07891E+01 4.83924E+00 2.99703E-04-9.59823E+00 4.95008E-05 9.07730E-06
 -1     10621-1.11787E+01 3.11826E+00 3.77083E-04-9.96303E+00 2.82560E-05 2.16144E-06
 -1     10622-1.24114E+01 4.86634E+00-1.88295E-04-7.93063E+00-3.31306E-06-4.19305E-06
 -1     10623-1.07570E+01 4.80711E+00 3.24351E-04-9.57410E+00 3.25204E-06-7.88160E-06
 -1     10624-1.11586E+01 3.09805E+00 3.78840E-04-9.94869E+00 2.12999E-06-4.57853E-06
 -1     10625-1.23994E+01 4.85426E+00-2.00453E-04-7.92562E+00-3.74860E-14-7.31898E-13
 -1     10626-1.07463E+01 4.79640E+00 3.35088E-04-9.56606E+00 7.66612E-14-1.38103E-12
 -1     10627-1.11586E+01 3.09805E+00 3.78840E-04-9.94869E+00-2.12999E-06 4.57854E-06
 -1     10628-1.24114E+01 4.86634E+00-1.88295E-04-7.93063E+00 3.31307E-06 4.19305E-06
 -1     10629-1.07570E+01 4.80711E+00 3.24351E-04-9.57410E+00-3.25204E-06 7.88160E-06
 -1     10630-1.11787E+01 3.11826E+00 3.77083E-04-9.96303E+00-2.82560E-05-2.16144E-06
 -1     10631-1.24477E+01 4.90260E+00-1.62514E-04-7.94566E+00 2.27112E-05 1.44401E-05
 -1     10632-1.07891E+01 4.83924E+00 2.99703E-04-9.59823E+00-4.95008E-05-9.07730E-06
 -1     10633-1.12191E+01 3.15863E+00 3.03991E-04-9.99171E+00-9.77162E-06 4.84352E-06
 -1     10634-7.35069E+00-1.78771E+00 2.90899E-04-1.24519E+01 1.86450E-05 6.53528E-06
 -1     10635-9.26286E+00 6.62191E-01-1.59478E-04-1.12050E+01-2.08963E-05-1.22261E-05
 -1     10636-6.75196E+00 9.74620E-02 2.79843E-04-1.20857E+01 4.74183E-05-3.18347E-06
 -1     10637-7.32924E+00-1.80918E+00 3.17797E-04-1.24138E+01 2.46194E-05-6.65046E-06
 -1     10638-9.23970E+00 6.39021E-01-1.69939E-04-1.11799E+01 9.92171E-07-2.22122E-06
 -1     10639-6.73516E+00 8.06175E-02 2.82275E-04-1.20545E+01-3.01945E-06-1.16049E-05
 -1     10640-7.31853E+00-1.81993E+00 3.14573E-04-1.23948E+01-2.25828E-06-6.85573E-06
 -1     10641-9.23199E+00 6.31298E-01-1.75759E-04-1.11716E+01-1.05147E-12 2.54967E-12
 -1     10642-6.72954E+00 7.49966E-02 2.84006E-04-1.20441E+01-5.23973E-13 4.59597E-12
 -1     10643-7.31853E+00-1.81993E+00 3.14573E-04-1.23948E+01 2.25828E-06 6.85573E-06
 -1     10644-9.23970E+00 6.39021E-01-1.69939E-04-1.11799E+01-9.92170E-07 2.22122E-06
 -1     10645-6.73516E+00 8.06175E-02 2.82275E-04-1.20545E+01 3.01945E-06 1.16049E-05
 -1     10646-7.32924E+00-1.80918E+00 3.17797E-04-1.24138E+01-2.46194E-05 6.65046E-06
 -1     10647-9.26286E+00 6.62191E-01-1.59478E-04-1.12050E+01 2.08963E-05 1.22261E-05
 -1     10648-6.75196E+00 9.74620E-02 2.79843E-04-1.20857E+01-4.74183E-05 3.18347E-06
 -1     10649-7.35069E+00-1.78771E+00 2.90899E-04-1.24519E+01-1.86450E-05-6.53527E-06
 -1     10650-2.90376E+00-7.22436E+00 2.69027E-04-1.30236E+01 2.00893E-05 5.57991E-06
 -1     10651-5.11768E+00-4.51671E+00-1.33917E-04-1.27148E+01-1.80438E-05-9.91220E-06
 -1     10652-2.20147E+00-5.15905E+00 2.42032E-04-1.26935E+01 4.49295E-05-1.45580E-05
 -1     10653-2.90102E+00-7.22718E+00 2.48902E-04-1.29833E+01 2.08541E-05-1.48932E-05
 -1     10654-5.10862E+00-4.52582E+00-1.44872E-04-1.26855E+01 5.46839E-06-2.52455E-06
 -1     10655-2.19959E+00-5.16095E+00 2.38024E-04-1.26609E+01-8.98164E-06-1.24182E-05
 -1     10656-2.89963E+00-7.22859E+00 2.52578E-04-1.29632E+01-6.31045E-06-6.83124E-06
 -1     10657-5.10560E+00-4.52884E+00-1.50312E-04-1.26757E+01 9.39107E-13 4.10295E-12
 -1     10658-2.19896E+00-5.16160E+00 2.37426E-04-1.26500E+01 1.21770E-12-4.16986E-14
 -1     10659-2.89963E+00-7.22859E+00 2.52578E-04-1.29632E+01 6.31046E-06 6.83124E-06
 -1     10660-5.10862E+00-4.52582E+00-1.44872E-04-1.26855E+01-5.46839E-06 2.52455E-06
 -1     10661-2.19959E+00-5.16095E+00 2.38024E-04-1.26609E+01 8.98164E-06 1.24182E-05
 -1     10662-2.90102E+00-7.22718E+00 2.48902E-04-1.29833E+01-2.08541E-05 1.48932E-05
 -1     10663-5.11768E+00-4.51671E+00-1.33917E-04-1.27148E+01 1.80438E-05 9.91220E-06
 -1     10664-2.20147E+00-5.15905E+00 2.42032E-04-1.26935E+01-4.49295E-05 1.45580E-05
 -1     10665-2.90376E+00-7.22436E+00 2.69027E-04-1.30236E+01-2.00893E-05-5.57991E-06
 -1     10666 1.42173E+00-1.23686E+01 2.56309E-04-1.17340E+01 1.62733E-05 6.26716E-07
 -1     10667-7.43211E-01-9.79510E+00-1.14406E-04-1.23558E+01-1.74849E-05-8.45472E-06
 -1     10668 2.18234E+00-1.01538E+01 2.12954E-04-1.14615E+01 4.67256E-05-2.38390E-05
 -1     10669 1.40781E+00-1.23548E+01 1.91970E-04-1.16977E+01 1.82098E-05-2.13750E-05
 -1     10670-7.47393E-01-9.79098E+00-1.22235E-04-1.23271E+01 9.37961E-06-3.83469E-06
 -1     10671 2.17096E+00-1.01425E+01 2.01985E-04-1.14322E+01-1.56346E-05-1.18748E-05
 -1     10672 1.40088E+00-1.23479E+01 2.11858E-04-1.16796E+01-1.06639E-05-5.12525E-06
 -1     10673-7.48787E-01-9.78959E+00-1.27884E-04-1.23176E+01 1.53186E-12 4.61413E-13
 -1     10674 2.16716E+00-1.01387E+01 2.01290E-04-1.14225E+01 2.41471E-13-2.56243E-12
 -1     10675 1.40088E+00-1.23479E+01 2.11858E-04-1.16796E+01 1.06639E-05 5.12525E-06
 -1     10676-7.47393E-01-9.79098E+00-1.22235E-04-1.23271E+01-9.37961E-06 3.83469E-06
 -1     10677 2.17096E+00-1.01425E+01 2.01985E-04-1.14322E+01 1.56346E-05 1.18748E-05
 -1     10678 1.40781E+00-1.23548E+01 1.91970E-04-1.16977E+01-1.82098E-05 2.13750E-05
 -1     10679-7.43211E-01-9.79510E+00-1.14406E-04-1.23558E+01 1.74849E-05 8.45472E-06
 -1     10680 2.18234E+00-1.01538E+01 2.12954E-04-1.14615E+01-4.67256E-05 2.38390E-05
 -1     10681 1.42173E+00-1.23686E+01 2.56309E-04-1.17340E+01-1.62733E-05-6.26716E-07
 -1     10682 5.01181E+00-1.65650E+01 2.58934E-04-8.82642E+00 9.79462E-06-3.60140E-06
 -1     10683 3.20520E+00-1.44557E+01-1.01328E-04-1.02613E+01-2.11697E-05-7.18200E-06
 -1     10684 5.80296E+00-1.42391E+01 1.94259E-04-8.63267E+00 5.53629E-05-3.25032E-05
 -1     10685 4.98469E+00-1.65380E+01 1.47923E-04-8.79927E+00 1.74946E-05-2.66755E-05
 -1     10686 3.18984E+00-1.44404E+01-1.07696E-04-1.02375E+01 1.35315E-05-5.99518E-06
 -1     10687 5.78107E+00-1.42172E+01 1.78625E-04-8.61076E+00-2.51506E-05-9.45704E-06
 -1     10688 4.97118E+00-1.65245E+01 1.92473E-04-8.78569E+00-1.62347E-05-1.66331E-06
 -1     10689 3.18472E+00-1.44353E+01-1.15094E-04-1.02296E+01 1.06925E-13-9.34575E-13
 -1     10690 5.77376E+00-1.42100E+01 1.80250E-04-8.60344E+00 1.70328E-12 5.74749E-14
 -1     10691 4.97118E+00-1.65245E+01 1.92473E-04-8.78569E+00 1.62348E-05 1.66331E-06
 -1     10692 3.18984E+00-1.44404E+01-1.07696E-04-1.02375E+01-1.35315E-05 5.99518E-06
 -1     10693 5.78107E+00-1.42172E+01 1.78625E-04-8.61076E+00 2.51506E-05 9.45704E-06
 -1     10694 4.98469E+00-1.65380E+01 1.47923E-04-8.79927E+00-1.74946E-05 2.66755E-05
 -1     10695 3.20520E+00-1.44557E+01-1.01328E-04-1.02613E+01 2.11697E-05 7.18200E-06
 -1     10696 5.80296E+00-1.42391E+01 1.94259E-04-8.63267E+00-5.53629E-05 3.25032E-05
 -1     10697 5.01181E+00-1.65650E+01 2.58934E-04-8.82642E+00-9.79462E-06 3.60141E-06
 -1     10698 7.37220E+00-1.93033E+01 2.79701E-04-4.72684E+00 2.58434E-06-5.15241E-06
 -1     10699 6.17404E+00-1.79165E+01-9.50709E-05-6.76445E+00-3.01678E-05-4.28708E-06
 -1     10700 8.17671E+00-1.69095E+01 1.85762E-04-4.62689E+00 7.33969E-05-4.43859E-05
 -1     10701 7.33658E+00-1.92679E+01 1.09417E-04-4.71252E+00 1.89298E-05-3.23504E-05
 -1     10702 6.15054E+00-1.78931E+01-9.92391E-05-6.74888E+00 1.90148E-05-9.10123E-06
 -1     10703 8.14805E+00-1.68808E+01 1.64557E-04-4.61535E+00-3.94762E-05-3.83788E-06
 -1     10704 7.31884E+00-1.92501E+01 1.89142E-04-4.70535E+00-2.39882E-05 4.43333E-06
 -1     10705 6.14272E+00-1.78852E+01-1.09174E-04-6.74371E+00 1.82264E-12-3.84482E-14
 -1     10706 8.13847E+00-1.68713E+01 1.70188E-04-4.61146E+00 1.37735E-12 6.89092E-13
 -1     10707 7.31884E+00-1.92501E+01 1.89142E-04-4.70535E+00 2.39882E-05-4.43333E-06
 -1     10708 6.15054E+00-1.78931E+01-9.92391E-05-6.74888E+00-1.90148E-05 9.10124E-06
 -1     10709 8.14805E+00-1.68808E+01 1.64557E-04-4.61535E+00 3.94762E-05 3.83788E-06
 -1     10710 7.33658E+00-1.92679E+01 1.09417E-04-4.71252E+00-1.89298E-05 3.23504E-05
 -1     10711 6.17404E+00-1.79165E+01-9.50709E-05-6.76445E+00 3.01678E-05 4.28708E-06
 -1     10712 8.17671E+00-1.69095E+01 1.85762E-04-4.62689E+00-7.33969E-05 4.43859E-05
 -1     10713 7.37220E+00-1.93033E+01 2.79701E-04-4.72684E+00-2.58434E-06 5.15241E-06
 -1     10714 8.18025E+00-2.02590E+01 3.22322E-04-5.17912E-03-4.43646E-06-3.22082E-06
 -1     10715 7.75510E+00-1.97602E+01-9.36815E-05-2.36198E+00-4.53761E-05 2.69552E-06
 -1     10716 8.98565E+00-1.78419E+01 1.84794E-04-7.44216E-03 1.03621E-04-6.50651E-05
 -1     10717 8.14171E+00-2.02207E+01 6.66072E-05-5.66596E-03 2.27462E-05-4.03399E-05
 -1     10718 7.72733E+00-1.97326E+01-9.43686E-05-2.35677E+00 2.70030E-05-1.40942E-05
 -1     10719 8.95470E+00-1.78109E+01 1.55524E-04-7.84679E-03-6.04599E-05 7.80316E-06
 -1     10720 8.12254E+00-2.02014E+01 1.97303E-04-5.89196E-03-3.46022E-05 1.50298E-05
 -1     10721 7.71810E+00-1.97233E+01-1.07707E-04-2.35506E+00 1.33839E-12-1.11521E-12
 -1     10722 8.94433E+00-1.78007E+01 1.67047E-04-7.90942E-03 3.18295E-13-3.52283E-12
 -1     10723 8.12254E+00-2.02014E+01 1.97303E-04-5.89196E-03 3.46022E-05-1.50298E-05
 -1     10724 7.72733E+00-1.97326E+01-9.43686E-05-2.35677E+00-2.70030E-05 1.40942E-05
 -1     10725 8.95470E+00-1.78109E+01 1.55524E-04-7.84679E-03 6.04599E-05-7.80316E-06
 -1     10726 8.14171E+00-2.02207E+01 6.66072E-05-5.66596E-03-2.27462E-05 4.03399E-05
 -1     10727 7.75510E+00-1.97602E+01-9.36815E-05-2.36198E+00 4.53761E-05-2.69552E-06
 -1     10728 8.98565E+00-1.78419E+01 1.84794E-04-7.44216E-03-1.03621E-04 6.50651E-05
 -1     10729 8.18025E+00-2.02590E+01 3.22322E-04-5.17912E-03 4.43646E-06 3.22082E-06
 -1     10730 7.33303E+00-1.93341E+01 3.94250E-04 4.68765E+00-1.10079E-05 3.08398E-06
 -1     10731 7.73569E+00-1.97758E+01-9.59325E-05 2.33680E+00-6.79824E-05 1.72305E-05
 -1     10732 8.12808E+00-1.69379E+01 1.89782E-04 4.58026E+00 1.49647E-04-1.02882E-04
 -1     10733 7.29743E+00-1.92988E+01 8.76210E-06 4.67248E+00 2.93168E-05-5.33451E-05
 -1     10734 7.70793E+00-1.97481E+01-9.06711E-05 2.33098E+00 3.85666E-05-2.27138E-05
 -1     10735 8.09957E+00-1.69094E+01 1.47596E-04 4.56800E+00-8.98035E-05 2.99567E-05
 -1     10736 7.27977E+00-1.92810E+01 2.14816E-04 4.66492E+00-4.83685E-05 3.29932E-05
 -1     10737 7.69872E+00-1.97389E+01-1.08556E-04 2.32898E+00 7.24713E-13-5.99440E-13
 -1     10738 8.08995E+00-1.68999E+01 1.67406E-04 4.56403E+00 2.57290E-13 2.05716E-13
 -1     10739 7.27977E+00-1.92810E+01 2.14816E-04 4.66492E+00 4.83685E-05-3.29932E-05
 -1     10740 7.70793E+00-1.97481E+01-9.06711E-05 2.33098E+00-3.85666E-05 2.27138E-05
 -1     10741 8.09957E+00-1.69094E+01 1.47596E-04 4.56800E+00 8.98035E-05-2.99567E-05
 -1     10742 7.29743E+00-1.92988E+01 8.76210E-06 4.67248E+00-2.93168E-05 5.33451E-05
 -1     10743 7.73569E+00-1.97758E+01-9.59325E-05 2.33680E+00 6.79824E-05-1.72305E-05
 -1     10744 8.12808E+00-1.69379E+01 1.89782E-04 4.58026E+00-1.49647E-04 1.02882E-04
 -1     10745 7.33303E+00-1.93341E+01 3.94250E-04 4.68765E+00 1.10079E-05-3.08398E-06
 -1     10746 4.97073E+00-1.66774E+01 5.09327E-04 8.70482E+00-1.70144E-05 1.58616E-05
 -1     10747 6.13424E+00-1.79883E+01-1.01621E-04 6.68417E+00-9.96158E-05 4.44562E-05
 -1     10748 5.74396E+00-1.43447E+01 2.00249E-04 8.49331E+00 2.15832E-04-1.71186E-04
 -1     10749 4.94344E+00-1.66505E+01-7.61833E-05 8.67723E+00 3.92296E-05-7.55544E-05
 -1     10750 6.11071E+00-1.79649E+01-8.64902E-05 6.66820E+00 5.46015E-05-3.76904E-05
 -1     10751 5.72225E+00-1.43229E+01 1.37409E-04 8.47103E+00-1.28825E-04 6.92102E-05
 -1     10752 4.93000E+00-1.66368E+01 2.41900E-04 8.66348E+00-6.49607E-05 6.23139E-05
 -1     10753 6.10296E+00-1.79571E+01-1.10541E-04 6.66280E+00 6.35302E-13-6.23120E-13
 -1     10754 5.71479E+00-1.43157E+01 1.68623E-04 8.46377E+00 7.76017E-13-4.08270E-13
 -1     10755 4.93000E+00-1.66368E+01 2.41900E-04 8.66348E+00 6.49607E-05-6.23139E-05
 -1     10756 6.11071E+00-1.79649E+01-8.64902E-05 6.66820E+00-5.46015E-05 3.76904E-05
 -1     10757 5.72225E+00-1.43229E+01 1.37409E-04 8.47103E+00 1.28825E-04-6.92102E-05
 -1     10758 4.94344E+00-1.66505E+01-7.61833E-05 8.67723E+00-3.92296E-05 7.55544E-05
 -1     10759 6.13424E+00-1.79883E+01-1.01621E-04 6.68417E+00 9.96158E-05-4.44562E-05
 -1     10760 5.74396E+00-1.43447E+01 2.00249E-04 8.49331E+00-2.15832E-04 1.71186E-04
 -1     10761 4.97073E+00-1.66774E+01 5.09327E-04 8.70482E+00 1.70144E-05-1.58616E-05
 -1     10762 1.46381E+00-1.26699E+01 6.91738E-04 1.14966E+01-2.23222E-05 3.96428E-05
 -1     10763 3.20553E+00-1.46622E+01-1.11373E-04 1.00829E+01-1.42113E-04 9.26848E-05
 -1     10764 2.20331E+00-1.04413E+01 2.19225E-04 1.11846E+01 3.06718E-04-2.89998E-04
 -1     10765 1.44895E+00-1.26556E+01-2.02571E-04 1.14607E+01 5.32057E-05-1.14455E-04
 -1     10766 3.18979E+00-1.46466E+01-8.03611E-05 1.00592E+01 7.55382E-05-6.27371E-05
 -1     10767 2.19178E+00-1.04296E+01 1.22906E-04 1.11556E+01-1.77476E-04 1.35053E-04
 -1     10768 1.44181E+00-1.26481E+01 2.80044E-04 1.14428E+01-8.30324E-05 1.07873E-04
 -1     10769 3.18471E+00-1.46414E+01-1.12666E-04 1.00512E+01 9.93620E-13-9.73919E-13
 -1     10770 2.18752E+00-1.04258E+01 1.68062E-04 1.11462E+01 6.68165E-13-9.09018E-13
 -1     10771 1.44181E+00-1.26481E+01 2.80044E-04 1.14428E+01 8.30324E-05-1.07873E-04
 -1     10772 3.18979E+00-1.46466E+01-8.03611E-05 1.00592E+01-7.55382E-05 6.27371E-05
 -1     10773 2.19178E+00-1.04296E+01 1.22906E-04 1.11556E+01 1.77476E-04-1.35053E-04
 -1     10774 1.44895E+00-1.26556E+01-2.02571E-04 1.14607E+01-5.32057E-05 1.14455E-04
 -1     10775 3.20553E+00-1.46622E+01-1.11373E-04 1.00829E+01 1.42113E-04-9.26848E-05
 -1     10776 2.20331E+00-1.04413E+01 2.19225E-04 1.11846E+01-3.06718E-04 2.89998E-04
 -1     10777 1.46381E+00-1.26699E+01 6.91738E-04 1.14966E+01 2.23222E-05-3.96428E-05
 -1     10778-2.63740E+00-7.87423E+00 9.83121E-04 1.26938E+01-2.56256E-05 8.51438E-05
 -1     10779-5.90948E-01-1.02683E+01-1.29224E-04 1.20743E+01-1.97240E-04 1.73655E-04
 -1     10780-1.94346E+00-5.78801E+00 2.47316E-04 1.22868E+01 4.25420E-04-4.94967E-04
 -1     10781-2.63765E+00-7.87478E+00-3.87797E-04 1.26550E+01 7.31787E-05-1.83271E-04
 -1     10782-5.96557E-01-1.02629E+01-7.22730E-05 1.20465E+01 1.00575E-04-1.02902E-04
 -1     10783-1.94291E+00-5.78819E+00 9.91936E-05 1.22555E+01-2.31960E-04 2.37113E-04
 -1     10784-2.63734E+00-7.87461E+00 3.28841E-04 1.26357E+01-9.93708E-05 1.74585E-04
 -1     10785-5.98130E-01-1.02611E+01-1.13952E-04 1.20371E+01 1.12748E-12-1.00326E-12
 -1     10786-1.94347E+00-5.78834E+00 1.58022E-04 1.22453E+01 3.93236E-13-8.45731E-13
 -1     10787-2.63734E+00-7.87461E+00 3.28841E-04 1.26357E+01 9.93708E-05-1.74585E-04
 -1     10788-5.96557E-01-1.02629E+01-7.22730E-05 1.20465E+01-1.00575E-04 1.02902E-04
 -1     10789-1.94291E+00-5.78819E+00 9.91936E-05 1.22555E+01 2.31960E-04-2.37113E-04
 -1     10790-2.63765E+00-7.87478E+00-3.87797E-04 1.26550E+01-7.31787E-05 1.83271E-04
 -1     10791-5.90948E-01-1.02683E+01-1.29224E-04 1.20743E+01 1.97240E-04-1.73655E-04
 -1     10792-1.94346E+00-5.78801E+00 2.47316E-04 1.22868E+01-4.25420E-04 4.94967E-04
 -1     10793-2.63740E+00-7.87423E+00 9.83121E-04 1.26938E+01 2.56256E-05-8.51438E-05
 -1     10794-6.68451E+00-2.95220E+00 1.45936E-03 1.21673E+01-2.77621E-05 1.74991E-04
 -1     10795-4.65705E+00-5.41767E+00-1.56396E-04 1.24098E+01-2.65099E-04 3.10166E-04
 -1     10796-6.04697E+00-1.04444E+00 3.08450E-04 1.16724E+01 5.72330E-04-8.25444E-04
 -1     10797-6.67023E+00-2.96767E+00-6.46914E-04 1.21315E+01 1.03201E-04-3.13452E-04
 -1     10798-4.65177E+00-5.42329E+00-5.82444E-05 1.23820E+01 1.25825E-04-1.60294E-04
 -1     10799-6.03422E+00-1.05650E+00 7.39363E-05 1.16435E+01-2.78588E-04 3.84265E-04
 -1     10800-6.66243E+00-2.97471E+00 3.76608E-04 1.21137E+01-1.07817E-04 2.61155E-04
 -1     10801-4.64950E+00-5.42513E+00-1.07235E-04 1.23726E+01 3.45311E-13-8.69429E-13
 -1     10802-6.03120E+00-1.06061E+00 1.26375E-04 1.16342E+01 1.31301E-14-7.65330E-13
 -1     10803-6.66243E+00-2.97471E+00 3.76608E-04 1.21137E+01 1.07817E-04-2.61155E-04
 -1     10804-4.65177E+00-5.42329E+00-5.82444E-05 1.23820E+01-1.25825E-04 1.60294E-04
 -1     10805-6.03422E+00-1.05650E+00 7.39363E-05 1.16435E+01 2.78588E-04-3.84265E-04
 -1     10806-6.67023E+00-2.96767E+00-6.46914E-04 1.21315E+01-1.03201E-04 3.13452E-04
 -1     10807-4.65705E+00-5.41767E+00-1.56396E-04 1.24098E+01 2.65099E-04-3.10166E-04
 -1     10808-6.04697E+00-1.04444E+00 3.08450E-04 1.16724E+01-5.72330E-04 8.25444E-04
 -1     10809-6.68451E+00-2.95220E+00 1.45936E-03 1.21673E+01 2.77621E-05-1.74991E-04
 -1     10810-1.00333E+01 1.43845E+00 2.26360E-03 1.00510E+01-2.34311E-05 3.74255E-04
 -1     10811-8.34778E+00-7.68789E-01-2.19822E-04 1.10915E+01-3.44432E-04 5.17914E-04
 -1     10812-9.46111E+00 3.13367E+00 3.67895E-04 9.47796E+00 7.35415E-04-1.40234E-03
 -1     10813-1.00069E+01 1.41021E+00-9.77972E-04 1.00236E+01 1.61349E-04-5.66643E-04
 -1     10814-8.33259E+00-7.84543E-01-4.93159E-05 1.10680E+01 1.40260E-04-2.35174E-04
 -1     10815-9.43768E+00 3.11166E+00 1.51900E-05 9.45593E+00-2.83302E-04 5.34305E-04
 -1     10816-9.99262E+00 1.39716E+00 3.73831E-04 1.00100E+01-9.56909E-05 3.48570E-04
 -1     10817-8.32671E+00-7.89751E-01-8.35459E-05 1.10601E+01-2.12771E-14-8.02670E-13
 -1     10818-9.43184E+00 3.10417E+00 6.97692E-06 9.44880E+00-1.12541E-13-9.18907E-13
 -1     10819-9.99262E+00 1.39716E+00 3.73831E-04 1.00100E+01 9.56909E-05-3.48570E-04
 -1     10820-8.33259E+00-7.84543E-01-4.93159E-05 1.10680E+01-1.40260E-04 2.35174E-04
 -1     10821-9.43768E+00 3.11166E+00 1.51900E-05 9.45593E+00 2.83302E-04-5.34305E-04
 -1     10822-1.00069E+01 1.41021E+00-9.77972E-04 1.00236E+01-1.61349E-04 5.66643E-04
 -1     10823-8.34778E+00-7.68789E-01-2.19822E-04 1.10915E+01 3.44432E-04-5.17914E-04
 -1     10824-9.46111E+00 3.13367E+00 3.67895E-04 9.47796E+00-7.35415E-04 1.40234E-03
 -1     10825-1.00333E+01 1.43845E+00 2.26360E-03 1.00510E+01 2.34311E-05-3.74255E-04
 -1     10826-1.21536E+01 4.75433E+00 3.72247E-03 6.72228E+00-4.60388E-05 8.28510E-04
 -1     10827-1.10770E+01 3.07871E+00-2.94868E-04 8.37423E+00-4.24911E-04 8.93865E-04
 -1     10828-1.16540E+01 6.20530E+00 6.65065E-04 6.08610E+00 9.05138E-04-2.18400E-03
 -1     10829-1.21195E+01 4.71717E+00-1.28542E-03 6.70730E+00 2.87405E-04-1.16905E-03
 -1     10830-1.10545E+01 3.05515E+00-5.28401E-06 8.35866E+00 1.15488E-04-2.63320E-04
 -1     10831-1.16224E+01 6.17691E+00 6.48635E-05 6.07416E+00-1.52148E-04 5.78814E-04
 -1     10832-1.21004E+01 4.70016E+00 1.23465E-04 6.69990E+00-3.46088E-05 3.18287E-04
 -1     10833-1.10458E+01 3.04742E+00 3.18539E-05 8.35341E+00-3.16620E-13-8.95495E-13
 -1     10834-1.16149E+01 6.16698E+00-2.53875E-04 6.07020E+00-4.42649E-13-9.29366E-13
 -1     10835-1.21004E+01 4.70016E+00 1.23465E-04 6.69990E+00 3.46088E-05-3.18287E-04
 -1     10836-1.10545E+01 3.05515E+00-5.28401E-06 8.35866E+00-1.15488E-04 2.63320E-04
 -1     10837-1.16224E+01 6.17691E+00 6.48635E-05 6.07416E+00 1.52148E-04-5.78814E-04
 -1     10838-1.21195E+01 4.71717E+00-1.28542E-03 6.70730E+00-2.87405E-04 1.16905E-03
 -1     10839-1.10770E+01 3.07871E+00-2.94868E-04 8.37423E+00 4.24911E-04-8.93865E-04
 -1     10840-1.16540E+01 6.20530E+00 6.65065E-04 6.08610E+00-9.05138E-04 2.18400E-03
 -1     10841-1.21536E+01 4.75433E+00 3.72247E-03 6.72228E+00 4.60388E-05-8.28510E-04
 -1     10842-1.27342E+01 6.66681E+00 6.55390E-03 2.73370E+00-6.33972E-05 2.05801E-03
 -1     10843-1.24241E+01 5.68854E+00-6.20384E-04 4.72204E+00-4.97286E-04 1.29325E-03
 -1     10844-1.23163E+01 7.84465E+00 5.79054E-04 2.06022E+00 9.96664E-04-3.99284E-03
 -1     10845-1.26978E+01 6.62501E+00-1.18663E-03 2.73323E+00 6.43015E-04-2.58218E-03
 -1     10846-1.23983E+01 5.66029E+00-5.74805E-05 4.71669E+00-1.59410E-05-1.51253E-04
 -1     10847-1.22785E+01 7.81465E+00-2.58982E-04 2.05983E+00 3.04745E-04-3.14487E-04
 -1     10848-1.26753E+01 6.60639E+00-9.72494E-04 2.73292E+00 1.59517E-04-1.85299E-04
 -1     10849-1.23879E+01 5.65126E+00 3.08332E-04 4.71498E+00-8.75202E-13-7.67632E-13
 -1     10850-1.22700E+01 7.80349E+00-1.31983E-03 2.05942E+00-9.19503E-13-8.91485E-13
 -1     10851-1.26753E+01 6.60639E+00-9.72494E-04 2.73292E+00-1.59517E-04 1.85299E-04
 -1     10852-1.23983E+01 5.66029E+00-5.74805E-05 4.71669E+00 1.59410E-05 1.51253E-04
 -1     10853-1.22785E+01 7.81465E+00-2.58982E-04 2.05983E+00-3.04745E-04 3.14487E-04
 -1     10854-1.26978E+01 6.62501E+00-1.18663E-03 2.73323E+00-6.43015E-04 2.58218E-03
 -1     10855-1.24241E+01 5.68854E+00-6.20384E-04 4.72204E+00 4.97286E-04-1.29325E-03
 -1     10856-1.23163E+01 7.84465E+00 5.79054E-04 2.06022E+00-9.96664E-04 3.99284E-03
 -1     10857-1.27342E+01 6.66681E+00 6.55390E-03 2.73370E+00 6.33972E-05-2.05801E-03
 -1     10858-1.17644E+01 7.12105E+00 1.28907E-02-1.30026E+00-6.45167E-04 5.35528E-03
 -1     10859-1.22264E+01 6.86638E+00-8.01682E-04 7.18883E-01-5.12642E-04 2.65627E-03
 -1     10860-1.14498E+01 8.00473E+00 3.01644E-03-1.96679E+00 1.02332E-03-4.78315E-03
 -1     10861-1.17313E+01 7.07654E+00 4.98709E-04-1.28563E+00 1.24815E-03-7.00741E-03
 -1     10862-1.22022E+01 6.83595E+00 3.27547E-04 7.24849E-01-4.09631E-04 1.07048E-03
 -1     10863-1.14029E+01 7.97759E+00 5.65446E-04-1.95625E+00 1.53972E-03-3.73732E-03
 -1     10864-1.17041E+01 7.05752E+00-5.61534E-03-1.27898E+00 6.20921E-04-2.83354E-03
 -1     10865-1.21919E+01 6.82666E+00 1.50137E-03 7.27076E-01-1.26424E-12-7.27652E-13
 -1     10866-1.13913E+01 7.96627E+00-3.40122E-03-1.95342E+00-1.41320E-12-6.94566E-13
 -1     10867-1.17041E+01 7.05752E+00-5.61534E-03-1.27898E+00-6.20921E-04 2.83354E-03
 -1     10868-1.22022E+01 6.83595E+00 3.27547E-04 7.24849E-01 4.09631E-04-1.07048E-03
 -1     10869-1.14029E+01 7.97759E+00 5.65446E-04-1.95625E+00-1.53972E-03 3.73732E-03
 -1     10870-1.17313E+01 7.07654E+00 4.98709E-04-1.28563E+00-1.24815E-03 7.00741E-03
 -1     10871-1.22264E+01 6.86638E+00-8.01682E-04 7.18883E-01 5.12642E-04-2.65627E-03
 -1     10872-1.14498E+01 8.00473E+00 3.01644E-03-1.96679E+00-1.02332E-03 4.78315E-03
 -1     10873-1.17644E+01 7.12105E+00 1.28907E-02-1.30026E+00 6.45167E-04-5.35528E-03
 -1     10874-9.57067E+00 6.30453E+00 3.04001E-02-4.82481E+00-2.43356E-03 2.23392E-02
 -1     10875-1.06452E+01 6.66783E+00-3.40958E-03-3.04462E+00 8.92442E-06 1.01826E-03
 -1     10876-9.41772E+00 6.85911E+00 3.73133E-03-5.41452E+00-2.10183E-03-6.73941E-03
 -1     10877-9.55961E+00 6.25007E+00 1.62636E-02-4.79263E+00 2.71904E-04-7.40107E-03
 -1     10878-1.06259E+01 6.63503E+00-6.57349E-04-3.02751E+00-9.42187E-04 3.68967E-03
 -1     10879-9.35852E+00 6.83478E+00 1.30082E-03-5.39232E+00 1.63128E-03-1.35111E-02
 -1     10880-9.52845E+00 6.22592E+00-7.93698E-03-4.77768E+00 6.16241E-04-7.29032E-03
 -1     10881-1.06185E+01 6.62553E+00 3.51717E-03-3.02135E+00-1.76590E-12-3.21040E-13
 -1     10882-9.33499E+00 6.82533E+00-6.12180E-03-5.38595E+00-2.26991E-12-3.80471E-13
 -1     10883-9.52845E+00 6.22592E+00-7.93698E-03-4.77768E+00-6.16241E-04 7.29032E-03
 -1     10884-1.06259E+01 6.63503E+00-6.57349E-04-3.02751E+00 9.42187E-04-3.68967E-03
 -1     10885-9.35852E+00 6.83478E+00 1.30082E-03-5.39232E+00-1.63128E-03 1.35111E-02
 -1     10886-9.55961E+00 6.25007E+00 1.62636E-02-4.79263E+00-2.71904E-04 7.40107E-03
 -1     10887-1.06452E+01 6.66783E+00-3.40958E-03-3.04462E+00-8.92442E-06-1.01826E-03
 -1     10888-9.41772E+00 6.85911E+00 3.73133E-03-5.41452E+00 2.10183E-03 6.73941E-03
 -1     10889-9.57067E+00 6.30453E+00 3.04001E-02-4.82481E+00 2.43356E-03-2.23392E-02
 -1     10890-6.84114E+00 4.38482E+00 1.21294E-01-7.20017E+00-5.86121E-03 1.41776E-01
 -1     10891-8.19118E+00 5.21003E+00-1.46288E-02-6.01036E+00 2.90031E-03-5.49030E-03
 -1     10892-6.80983E+00 4.55259E+00 1.82192E-01-7.67197E+00-9.81112E-03 1.63191E-01
 -1     10893-6.90771E+00 4.30803E+00 2.32778E-01-7.16091E+00-3.31889E-03 1.36230E-01
 -1     10894-8.16429E+00 5.16879E+00-1.86571E-02-5.98493E+00 3.90529E-04 4.57752E-03
 -1     10895-6.88902E+00 4.48361E+00 2.37112E-01-7.64369E+00-3.93533E-03 9.23991E-02
 -1     10896-6.95633E+00 4.25950E+00 2.60903E-01-7.14128E+00-6.69631E-04 4.72315E-02
 -1     10897-8.16140E+00 5.15504E+00-1.47691E-02-5.97615E+00-2.58968E-12 4.04474E-13
 -1     10898-6.90564E+00 4.46282E+00 2.51366E-01-7.63411E+00-3.73692E-12 1.07868E-13
 -1     10899-6.95633E+00 4.25950E+00 2.60903E-01-7.14128E+00 6.69631E-04-4.72315E-02
 -1     10900-8.16429E+00 5.16879E+00-1.86571E-02-5.98493E+00-3.90529E-04-4.57752E-03
 -1     10901-6.88902E+00 4.48361E+00 2.37112E-01-7.64369E+00 3.93533E-03-9.23991E-02
 -1     10902-6.90771E+00 4.30803E+00 2.32778E-01-7.16091E+00 3.31889E-03-1.36230E-01
 -1     10903-8.19118E+00 5.21003E+00-1.46288E-02-6.01036E+00-2.90031E-03 5.49030E-03
 -1     10904-6.80983E+00 4.55259E+00 1.82192E-01-7.67197E+00 9.81112E-03-1.63191E-01
 -1     10905-6.84114E+00 4.38482E+00 1.21294E-01-7.20017E+00 5.86121E-03-1.41776E-01
 -1     10906-5.46742E+00 1.74452E+00-1.94240E-01-7.44080E+00 8.21790E-03-6.27866E-02
 -1     10907-5.49443E+00 1.66395E+00-2.90861E-01-7.42670E+00 5.35074E-03-4.07389E-02
 -1     10908-5.50369E+00 1.63691E+00-3.29160E-01-7.42233E+00-2.61504E-12 1.10351E-12
 -1     10909-5.49443E+00 1.66395E+00-2.90861E-01-7.42670E+00-5.35074E-03 4.07389E-02
 -1     10910-5.46742E+00 1.74452E+00-1.94240E-01-7.44080E+00-8.21790E-03 6.27866E-02
 -1     10911-1.91937E+00-1.66619E+00-2.83685E-03 2.97597E+00-1.62050E-03-1.51922E-03
 -1     10912-7.57437E-01-1.30068E+00 2.64663E-04 1.42884E+00 7.08912E-03-1.41616E-02
 -1     10913-2.05569E+00-2.12559E+00-7.58739E-03 3.60758E+00-1.43218E-03-4.67912E-03
 -1     10914-1.95444E+00-1.64148E+00-1.10673E-02 2.96295E+00-2.23005E-03-3.78041E-03
 -1     10915-7.71323E-01-1.25338E+00 2.43576E-03 1.42792E+00 5.45420E-03-1.05193E-02
 -1     10916-2.08234E+00-2.10088E+00-1.77126E-02 3.58928E+00-8.21954E-04-4.74969E-03
 -1     10917-1.96922E+00-1.62806E+00-1.76400E-02 2.95647E+00-8.72743E-04-1.91912E-03
 -1     10918-7.75002E-01-1.23782E+00 3.20161E-03 1.42714E+00-3.41288E-12-1.52337E-11
 -1     10919-2.09033E+00-2.09240E+00-2.19661E-02 3.58302E+00-2.76987E-13-1.25873E-12
 -1     10920-1.96922E+00-1.62806E+00-1.76400E-02 2.95647E+00 8.72743E-04 1.91912E-03
 -1     10921-7.71323E-01-1.25338E+00 2.43576E-03 1.42792E+00-5.45420E-03 1.05193E-02
 -1     10922-2.08234E+00-2.10088E+00-1.77126E-02 3.58928E+00 8.21954E-04 4.74969E-03
 -1     10923-1.95444E+00-1.64148E+00-1.10673E-02 2.96295E+00 2.23005E-03 3.78041E-03
 -1     10924-7.57437E-01-1.30068E+00 2.64663E-04 1.42884E+00-7.08912E-03 1.41616E-02
 -1     10925-2.05569E+00-2.12559E+00-7.58739E-03 3.60758E+00 1.43218E-03 4.67912E-03
 -1     10926-1.91937E+00-1.66619E+00-2.83685E-03 2.97597E+00 1.62050E-03 1.51922E-03
 -1     10927-6.67534E+00 1.64560E+00-4.66000E-04 4.20928E+00-4.21747E-04-6.33741E-04
 -1     10928-4.31901E+00 4.37022E-02 1.53092E-03 3.62860E+00 1.95299E-05 7.51326E-04
 -1     10929-6.98150E+00 1.72180E+00-1.90675E-03 4.97852E+00-1.69471E-04-6.69183E-04
 -1     10930-6.65541E+00 1.62631E+00-1.48615E-03 4.17037E+00-4.26754E-04-5.60197E-04
 -1     10931-4.32244E+00 4.54564E-02 8.64581E-04 3.60709E+00 1.14779E-04 4.52678E-04
 -1     10932-6.96646E+00 1.70833E+00-1.35185E-03 4.94370E+00-1.73048E-04-2.66898E-04
 -1     10933-6.64544E+00 1.61681E+00-1.87963E-03 4.15078E+00-1.44829E-04-1.66680E-04
 -1     10934-4.32340E+00 4.61557E-02 7.82343E-04 3.59996E+00-1.88629E-12 2.40567E-12
 -1     10935-6.96171E+00 1.70370E+00-1.29525E-03 4.93204E+00-2.96904E-12 5.59449E-12
 -1     10936-6.64544E+00 1.61681E+00-1.87963E-03 4.15078E+00 1.44829E-04 1.66680E-04
 -1     10937-4.32244E+00 4.54564E-02 8.64581E-04 3.60709E+00-1.14779E-04-4.52678E-04
 -1     10938-6.96646E+00 1.70833E+00-1.35185E-03 4.94370E+00 1.73048E-04 2.66898E-04
 -1     10939-6.65541E+00 1.62631E+00-1.48615E-03 4.17037E+00 4.26754E-04 5.60197E-04
 -1     10940-4.31901E+00 4.37022E-02 1.53092E-03 3.62860E+00-1.95299E-05-7.51326E-04
 -1     10941-6.98150E+00 1.72180E+00-1.90675E-03 4.97852E+00 1.69471E-04 6.69183E-04
 -1     10942-6.67534E+00 1.64560E+00-4.66000E-04 4.20928E+00 4.21747E-04 6.33741E-04
 -1     10943-1.11960E+01 4.74931E+00-4.02241E-04 2.18625E+00-1.29465E-04-1.67046E-04
 -1     10944-8.93606E+00 3.21427E+00 1.18939E-04 3.19812E+00 9.37775E-05 8.20010E-05
 -1     10945-1.15092E+01 5.41767E+00 7.16516E-05 2.87775E+00-5.57692E-05-5.30185E-05
 -1     10946-1.11489E+01 4.70232E+00-5.74154E-04 2.15282E+00-4.99489E-05-1.94531E-05
 -1     10947-8.91086E+00 3.18928E+00 4.77801E-04 3.17071E+00-2.85939E-05 4.66055E-05
 -1     10948-1.14716E+01 5.37979E+00-3.34355E-04 2.85012E+00-5.50113E-06 2.97554E-06
 -1     10949-1.11253E+01 4.67884E+00-5.59335E-04 2.13605E+00-6.81088E-06 1.88773E-05
 -1     10950-8.90242E+00 3.18101E+00 5.54620E-04 3.16159E+00-9.59858E-13-2.22147E-13
 -1     10951-1.14591E+01 5.36714E+00-4.41946E-04 2.84090E+00 2.55725E-13-3.12952E-12
 -1     10952-1.11253E+01 4.67884E+00-5.59335E-04 2.13605E+00 6.81088E-06-1.88773E-05
 -1     10953-8.91086E+00 3.18928E+00 4.77801E-04 3.17071E+00 2.85939E-05-4.66055E-05
 -1     10954-1.14716E+01 5.37979E+00-3.34355E-04 2.85012E+00 5.50112E-06-2.97554E-06
 -1     10955-1.11489E+01 4.70232E+00-5.74154E-04 2.15282E+00 4.99489E-05 1.94531E-05
 -1     10956-8.93606E+00 3.21427E+00 1.18939E-04 3.19812E+00-9.37775E-05-8.20010E-05
 -1     10957-1.15092E+01 5.41767E+00 7.16516E-05 2.87775E+00 5.57692E-05 5.30185E-05
 -1     10958-1.11960E+01 4.74931E+00-4.02241E-04 2.18625E+00 1.29465E-04 1.67046E-04
 -1     10959-1.37839E+01 5.60646E+00 5.24771E-05-2.03494E+00-6.56393E-05-8.53226E-05
 -1     10960-1.24761E+01 5.16956E+00 7.98635E-05 5.93132E-02-4.54389E-05 1.43167E-06
 -1     10961-1.39217E+01 6.72631E+00 7.02075E-05-1.48441E+00 1.67628E-05-3.31417E-06
 -1     10962-1.37284E+01 5.55109E+00 8.35293E-05-2.04850E+00-2.68883E-07 1.12574E-05
 -1     10963-1.24376E+01 5.13107E+00-6.91657E-05 4.17792E-02-5.04920E-05-8.97495E-06
 -1     10964-1.38770E+01 6.68163E+00 1.45815E-04-1.49462E+00 7.32658E-06 1.22671E-05
 -1     10965-1.37008E+01 5.52339E+00 1.10131E-04-2.05531E+00 4.25838E-07 1.14404E-05
 -1     10966-1.24248E+01 5.11826E+00-1.37021E-04 3.59359E-02-7.32626E-13-5.91823E-13
 -1     10967-1.38621E+01 6.66674E+00 1.78340E-04-1.49802E+00-1.51815E-12 3.58923E-12
 -1     10968-1.37008E+01 5.52339E+00 1.10131E-04-2.05531E+00-4.25843E-07-1.14404E-05
 -1     10969-1.24376E+01 5.13107E+00-6.91657E-05 4.17792E-02 5.04920E-05 8.97495E-06
 -1     10970-1.38770E+01 6.68163E+00 1.45815E-04-1.49462E+00-7.32658E-06-1.22671E-05
 -1     10971-1.37284E+01 5.55109E+00 8.35293E-05-2.04850E+00 2.68882E-07-1.12574E-05
 -1     10972-1.24761E+01 5.16956E+00 7.98635E-05 5.93132E-02 4.54389E-05-1.43168E-06
 -1     10973-1.39217E+01 6.72631E+00 7.02075E-05-1.48441E+00-1.67628E-05 3.31417E-06
 -1     10974-1.37839E+01 5.60646E+00 5.24771E-05-2.03494E+00 6.56393E-05 8.53226E-05
 -1     10975-1.39045E+01 3.77898E+00 2.43415E-04-6.77529E+00-2.80906E-05-2.62076E-05
 -1     10976-1.38196E+01 4.66844E+00-1.39477E-04-4.41688E+00-2.77092E-05-2.40980E-05
 -1     10977-1.37885E+01 5.21139E+00 2.79187E-04-6.33536E+00 2.67109E-05 1.61635E-05
 -1     10978-1.38549E+01 3.72943E+00 3.14805E-04-6.76800E+00 7.66495E-06 1.89318E-05
 -1     10979-1.37802E+01 4.62910E+00-1.59139E-04-4.41914E+00-3.01575E-05-1.41750E-06
 -1     10980-1.37489E+01 5.17161E+00 2.63836E-04-6.32843E+00-1.62384E-06 2.96895E-07
 -1     10981-1.38301E+01 3.70463E+00 3.13820E-04-6.76438E+00-5.03296E-06 5.80214E-06
 -1     10982-1.37670E+01 4.61600E+00-1.85711E-04-4.41990E+00-2.68836E-12-3.95841E-12
 -1     10983-1.37356E+01 5.15836E+00 2.65688E-04-6.32612E+00 2.28756E-12-7.56443E-12
 -1     10984-1.38301E+01 3.70463E+00 3.13820E-04-6.76438E+00 5.03297E-06-5.80215E-06
 -1     10985-1.37802E+01 4.62910E+00-1.59139E-04-4.41914E+00 3.01575E-05 1.41749E-06
 -1     10986-1.37489E+01 5.17161E+00 2.63836E-04-6.32843E+00 1.62384E-06-2.96897E-07
 -1     10987-1.38549E+01 3.72943E+00 3.14805E-04-6.76800E+00-7.66495E-06-1.89318E-05
 -1     10988-1.38196E+01 4.66844E+00-1.39477E-04-4.41688E+00 2.77092E-05 2.40980E-05
 -1     10989-1.37885E+01 5.21139E+00 2.79187E-04-6.33536E+00-2.67109E-05-1.61635E-05
 -1     10990-1.39045E+01 3.77898E+00 2.43415E-04-6.77529E+00 2.80906E-05 2.62076E-05
 -1     10991-1.18782E+01-2.11000E-01 3.05990E-04-1.07087E+01-4.24719E-06 7.53020E-06
 -1     10992-1.28654E+01 1.75675E+00-1.70683E-04-8.74063E+00-4.49606E-05-1.52941E-05
 -1     10993-1.15247E+01 1.44988E+00 2.91330E-04-1.03339E+01 3.38417E-05 1.92500E-05
 -1     10994-1.18421E+01-2.47015E-01 3.41545E-04-1.06857E+01 2.57392E-06 2.65574E-05
 -1     10995-1.28334E+01 1.72469E+00-2.35888E-04-8.72923E+00-3.03843E-05 1.05849E-05
 -1     10996-1.14961E+01 1.42121E+00 2.87711E-04-1.03146E+01-1.32976E-05 3.78424E-06
 -1     10997-1.18241E+01-2.65040E-01 3.07874E-04-1.06743E+01-1.34308E-05 8.12891E-06
 -1     10998-1.28227E+01 1.71401E+00-2.74242E-04-8.72545E+00-5.28649E-13 1.77455E-12
 -1     10999-1.14865E+01 1.41166E+00 2.84320E-04-1.03081E+01-3.83067E-13 4.76873E-12
 -1     11000-1.18241E+01-2.65040E-01 3.07874E-04-1.06743E+01 1.34308E-05-8.12892E-06
 -1     11001-1.28334E+01 1.72469E+00-2.35888E-04-8.72923E+00 3.03843E-05-1.05849E-05
 -1     11002-1.14961E+01 1.42121E+00 2.87711E-04-1.03146E+01 1.32976E-05-3.78424E-06
 -1     11003-1.18421E+01-2.47015E-01 3.41545E-04-1.06857E+01-2.57391E-06-2.65574E-05
 -1     11004-1.28654E+01 1.75675E+00-1.70683E-04-8.74063E+00 4.49606E-05 1.52941E-05
 -1     11005-1.15247E+01 1.44988E+00 2.91330E-04-1.03339E+01-3.38417E-05-1.92500E-05
 -1     11006-1.18782E+01-2.11000E-01 3.05990E-04-1.07087E+01 4.24719E-06-7.53020E-06
 -1     11007-8.39218E+00-5.50416E+00 2.94383E-04-1.30724E+01 7.51713E-06 2.14905E-05
 -1     11008-1.01161E+01-2.87814E+00-1.72270E-04-1.18777E+01-4.87448E-05 1.70595E-06
 -1     11009-7.85860E+00-3.65874E+00 2.74239E-04-1.27401E+01 3.24995E-05 1.54256E-05
 -1     11010-8.37266E+00-5.52374E+00 2.66719E-04-1.30404E+01-6.23985E-06 3.27431E-05
 -1     11011-1.00953E+01-2.89895E+00-2.44031E-04-1.18571E+01-3.08126E-05 2.86114E-05
 -1     11012-7.84325E+00-3.67414E+00 2.38216E-04-1.27139E+01-2.41579E-05 9.22705E-06
 -1     11013-8.36289E+00-5.53353E+00 2.10329E-04-1.30245E+01-2.11857E-05 1.43905E-05
 -1     11014-1.00884E+01-2.90588E+00-2.86225E-04-1.18503E+01 1.50953E-12 4.22032E-12
 -1     11015-7.83810E+00-3.67928E+00 2.19260E-04-1.27052E+01-3.69589E-13 5.15220E-12
 -1     11016-8.36289E+00-5.53353E+00 2.10329E-04-1.30245E+01 2.11857E-05-1.43905E-05
 -1     11017-1.00953E+01-2.89895E+00-2.44031E-04-1.18571E+01 3.08126E-05-2.86114E-05
 -1     11018-7.84325E+00-3.67414E+00 2.38216E-04-1.27139E+01 2.41579E-05-9.22705E-06
 -1     11019-8.37266E+00-5.52374E+00 2.66719E-04-1.30404E+01 6.23985E-06-3.27431E-05
 -1     11020-1.01161E+01-2.87814E+00-1.72270E-04-1.18777E+01 4.87448E-05-1.70595E-06
 -1     11021-7.85860E+00-3.65874E+00 2.74239E-04-1.27401E+01-3.24995E-05-1.54256E-05
 -1     11022-8.39218E+00-5.50416E+00 2.94383E-04-1.30724E+01-7.51713E-06-2.14905E-05
 -1     11023-4.20939E+00-1.12285E+01 2.66299E-04-1.35545E+01 9.81197E-06 2.41333E-05
 -1     11024-6.29194E+00-8.37624E+00-1.49247E-04-1.32946E+01-5.01892E-05 2.16785E-05
 -1     11025-3.55479E+00-9.22820E+00 2.32608E-04-1.32655E+01 3.21332E-05 1.13026E-05
 -1     11026-4.20642E+00-1.12316E+01 1.75079E-04-1.35200E+01-1.18679E-05 4.02610E-05
 -1     11027-6.28348E+00-8.38471E+00-2.41148E-04-1.32697E+01-2.93436E-05 4.65622E-05
 -1     11028-3.55262E+00-9.23040E+00 1.78032E-04-1.32376E+01-3.19394E-05 1.80891E-05
 -1     11029-4.20489E+00-1.12331E+01 1.10900E-04-1.35028E+01-2.61768E-05 2.34031E-05
 -1     11030-6.28066E+00-8.38752E+00-2.92809E-04-1.32615E+01 1.90499E-12 2.88229E-12
 -1     11031-3.55187E+00-9.23114E+00 1.50492E-04-1.32282E+01 1.69483E-12 5.19549E-12
 -1     11032-4.20489E+00-1.12331E+01 1.10900E-04-1.35028E+01 2.61768E-05-2.34031E-05
 -1     11033-6.28348E+00-8.38471E+00-2.41148E-04-1.32697E+01 2.93436E-05-4.65622E-05
 -1     11034-3.55262E+00-9.23040E+00 1.78032E-04-1.32376E+01 3.19395E-05-1.80891E-05
 -1     11035-4.20642E+00-1.12316E+01 1.75079E-04-1.35200E+01 1.18679E-05-4.02611E-05
 -1     11036-6.29194E+00-8.37624E+00-1.49247E-04-1.32946E+01 5.01892E-05-2.16785E-05
 -1     11037-3.55479E+00-9.22820E+00 2.32608E-04-1.32655E+01-3.21332E-05-1.13026E-05
 -1     11038-4.20939E+00-1.12285E+01 2.66299E-04-1.35545E+01-9.81197E-06-2.41333E-05
 -1     11039-5.49940E-02-1.66036E+01 2.45902E-04-1.21580E+01 7.08749E-06 2.31418E-05
 -1     11040-2.13350E+00-1.39153E+01-1.29534E-04-1.28367E+01-4.85134E-05 3.86571E-05
 -1     11041 6.75298E-01-1.44780E+01 1.96783E-04-1.19247E+01 3.74963E-05 8.04126E-06
 -1     11042-6.68419E-02-1.65919E+01 9.72081E-05-1.21266E+01-1.13729E-05 4.78634E-05
 -1     11043-2.13677E+00-1.39121E+01-2.35874E-04-1.28121E+01-2.33788E-05 6.15712E-05
 -1     11044 6.65695E-01-1.44684E+01 1.26424E-04-1.18994E+01-3.75689E-05 2.76859E-05
 -1     11045-7.26875E-02-1.65860E+01 3.89231E-05-1.21109E+01-2.86129E-05 3.32145E-05
 -1     11046-2.13785E+00-1.39110E+01-2.96321E-04-1.28038E+01 1.31600E-12 3.01422E-12
 -1     11047 6.62505E-01-1.44653E+01 9.42933E-05-1.18910E+01 6.70643E-13-1.75617E-12
 -1     11048-7.26875E-02-1.65860E+01 3.89231E-05-1.21109E+01 2.86129E-05-3.32145E-05
 -1     11049-2.13677E+00-1.39121E+01-2.35874E-04-1.28121E+01 2.33788E-05-6.15712E-05
 -1     11050 6.65695E-01-1.44684E+01 1.26424E-04-1.18994E+01 3.75689E-05-2.76859E-05
 -1     11051-6.68419E-02-1.65919E+01 9.72081E-05-1.21266E+01 1.13729E-05-4.78634E-05
 -1     11052-2.13350E+00-1.39153E+01-1.29534E-04-1.28367E+01 4.85134E-05-3.86571E-05
 -1     11053 6.75298E-01-1.44780E+01 1.96783E-04-1.19247E+01-3.74963E-05-8.04126E-06
 -1     11054-5.49940E-02-1.66036E+01 2.45902E-04-1.21580E+01-7.08749E-06-2.31418E-05
 -1     11055 3.43069E+00-2.09680E+01 2.42472E-04-9.12212E+00 2.76447E-06 2.23050E-05
 -1     11056 1.67821E+00-1.87765E+01-1.15886E-04-1.06237E+01-4.71051E-05 5.22438E-05
 -1     11057 4.20536E+00-1.87506E+01 1.71627E-04-8.95833E+00 5.19392E-05 3.18583E-06
 -1     11058 3.40710E+00-2.09446E+01 3.75966E-05-9.09850E+00-4.62515E-06 5.32343E-05
 -1     11059 1.66499E+00-1.87633E+01-2.33440E-04-1.06031E+01-1.26792E-05 7.22220E-05
 -1     11060 4.18643E+00-1.87317E+01 9.02850E-05-8.93932E+00-4.35196E-05 3.75158E-05
 -1     11061 3.39541E+00-2.09329E+01-2.35532E-06-9.08670E+00-2.98674E-05 4.30369E-05
 -1     11062 1.66062E+00-1.87589E+01-3.01978E-04-1.05963E+01 1.43859E-12 2.21708E-13
 -1     11063 4.18012E+00-1.87254E+01 5.76880E-05-8.93296E+00 1.60046E-12-1.54866E-12
 -1     11064 3.39541E+00-2.09329E+01-2.35532E-06-9.08670E+00 2.98674E-05-4.30369E-05
 -1     11065 1.66499E+00-1.87633E+01-2.33440E-04-1.06031E+01 1.26792E-05-7.22220E-05
 -1     11066 4.18643E+00-1.87317E+01 9.02850E-05-8.93932E+00 4.35196E-05-3.75158E-05
 -1     11067 3.40710E+00-2.09446E+01 3.75966E-05-9.09850E+00 4.62515E-06-5.32343E-05
 -1     11068 1.67821E+00-1.87765E+01-1.15886E-04-1.06237E+01 4.71051E-05-5.22438E-05
 -1     11069 4.20536E+00-1.87506E+01 1.71627E-04-8.95833E+00-5.19392E-05-3.18584E-06
 -1     11070 3.43069E+00-2.09680E+01 2.42472E-04-9.12212E+00-2.76447E-06-2.23050E-05
 -1     11071 5.73660E+00-2.38074E+01 2.58869E-04-4.87778E+00-1.26568E-06 2.30727E-05
 -1     11072 4.56823E+00-2.23724E+01-1.08887E-04-6.98932E+00-4.80097E-05 6.37121E-05
 -1     11073 6.53348E+00-2.15345E+01 1.57755E-04-4.79390E+00 7.74798E-05-7.62203E-06
 -1     11074 5.70544E+00-2.37765E+01-1.10981E-05-4.86532E+00 7.17906E-06 5.40839E-05
 -1     11075 4.54779E+00-2.23521E+01-2.32439E-04-6.97579E+00 2.67935E-06 7.76442E-05
 -1     11076 6.50855E+00-2.15095E+01 6.68410E-05-4.78389E+00-5.26007E-05 4.85992E-05
 -1     11077 5.69000E+00-2.37610E+01-1.91383E-05-4.85909E+00-3.15531E-05 5.33647E-05
 -1     11078 4.54102E+00-2.23452E+01-3.07689E-04-6.97130E+00 1.42562E-12 2.46897E-13
 -1     11079 6.50022E+00-2.15013E+01 3.69219E-05-4.78050E+00 8.83744E-13 1.49212E-12
 -1     11080 5.69000E+00-2.37610E+01-1.91383E-05-4.85909E+00 3.15531E-05-5.33647E-05
 -1     11081 4.54779E+00-2.23521E+01-2.32439E-04-6.97579E+00-2.67935E-06-7.76442E-05
 -1     11082 6.50855E+00-2.15095E+01 6.68410E-05-4.78389E+00 5.26007E-05-4.85992E-05
 -1     11083 5.70544E+00-2.37765E+01-1.10981E-05-4.86532E+00-7.17905E-06-5.40839E-05
 -1     11084 4.56823E+00-2.23724E+01-1.08887E-04-6.98932E+00 4.80097E-05-6.37121E-05
 -1     11085 6.53348E+00-2.15345E+01 1.57755E-04-4.79390E+00-7.74798E-05 7.62203E-06
 -1     11086 5.73660E+00-2.38074E+01 2.58869E-04-4.87778E+00 1.26568E-06-2.30727E-05
 -1     11087 6.53229E+00-2.47963E+01 2.97460E-04-1.16726E-03-4.43200E-06 2.59734E-05
 -1     11088 6.11613E+00-2.42837E+01-1.06303E-04-2.43591E+00-5.32372E-05 7.56695E-05
 -1     11089 7.33361E+00-2.25051E+01 1.52332E-04-3.45773E-03 1.16101E-04-3.03859E-05
 -1     11090 6.49852E+00-2.47628E+01-5.99890E-05-1.64578E-03 2.26668E-05 4.83352E-05
 -1     11091 6.09189E+00-2.42595E+01-2.30584E-04-2.43139E+00 2.23940E-05 7.68332E-05
 -1     11092 7.30664E+00-2.24781E+01 5.10360E-05-3.85550E-03-6.73840E-05 6.37795E-05
 -1     11093 6.48180E+00-2.47460E+01-1.84150E-05-1.86560E-03-3.49717E-05 6.58730E-05
 -1     11094 6.08387E+00-2.42514E+01-3.11456E-04-2.42992E+00 1.17154E-12 1.04094E-13
 -1     11095 7.29760E+00-2.24691E+01 2.67811E-05-3.90343E-03 1.31572E-12-2.41838E-12
 -1     11096 6.48180E+00-2.47460E+01-1.84150E-05-1.86560E-03 3.49717E-05-6.58730E-05
 -1     11097 6.09189E+00-2.42595E+01-2.30584E-04-2.43139E+00-2.23940E-05-7.68332E-05
 -1     11098 7.30664E+00-2.24781E+01 5.10360E-05-3.85550E-03 6.73840E-05-6.37795E-05
 -1     11099 6.49852E+00-2.47628E+01-5.99890E-05-1.64578E-03-2.26668E-05-4.83352E-05
 -1     11100 6.11613E+00-2.42837E+01-1.06303E-04-2.43591E+00 5.32372E-05-7.56695E-05
 -1     11101 7.33361E+00-2.25051E+01 1.52332E-04-3.45773E-03-1.16101E-04 3.03859E-05
 -1     11102 6.53229E+00-2.47963E+01 2.97460E-04-1.16726E-03 4.43200E-06-2.59734E-05
 -1     11103 5.71191E+00-2.38376E+01 3.63490E-04 4.85278E+00-6.86930E-06 3.17972E-05
 -1     11104 6.10385E+00-2.42988E+01-1.06239E-04 2.42200E+00-6.47173E-05 9.17717E-05
 -1     11105 6.50152E+00-2.15650E+01 1.53002E-04 4.76130E+00 1.70309E-04-7.36307E-05
 -1     11106 5.68070E+00-2.38067E+01-1.21227E-04 4.83946E+00 4.07572E-05 3.35789E-05
 -1     11107 6.07960E+00-2.42746E+01-2.25446E-04 2.41688E+00 4.61225E-05 6.83110E-05
 -1     11108 6.47668E+00-2.15401E+01 3.77294E-05 4.75057E+00-8.99853E-05 8.77043E-05
 -1     11109 5.66530E+00-2.37912E+01-5.21410E-06 4.83283E+00-4.08985E-05 8.32405E-05
 -1     11110 6.07159E+00-2.42665E+01-3.11344E-04 2.41512E+00 2.21265E-13-1.11627E-12
 -1     11111 6.46828E+00-2.15319E+01 2.22379E-05 4.74712E+00 4.00037E-13 8.50270E-14
 -1     11112 5.66530E+00-2.37912E+01-5.21410E-06 4.83283E+00 4.08985E-05-8.32405E-05
 -1     11113 6.07960E+00-2.42746E+01-2.25446E-04 2.41688E+00-4.61225E-05-6.83110E-05
 -1     11114 6.47668E+00-2.15401E+01 3.77294E-05 4.75057E+00 8.99853E-05-8.77043E-05
 -1     11115 5.68070E+00-2.38067E+01-1.21227E-04 4.83946E+00-4.07572E-05-3.35789E-05
 -1     11116 6.10385E+00-2.42988E+01-1.06239E-04 2.42200E+00 6.47173E-05-9.17717E-05
 -1     11117 6.50152E+00-2.15650E+01 1.53002E-04 4.76130E+00-1.70309E-04 7.36307E-05
 -1     11118 5.71191E+00-2.38376E+01 3.63490E-04 4.85278E+00 6.86930E-06-3.17972E-05
 -1     11119 3.41379E+00-2.10808E+01 4.67639E-04 9.03575E+00-8.80137E-06 4.25989E-05
 -1     11120 4.54743E+00-2.24439E+01-1.07508E-04 6.93380E+00-8.45271E-05 1.17258E-04
 -1     11121 4.17617E+00-1.88632E+01 1.58543E-04 8.85407E+00 2.43038E-04-1.50533E-04
 -1     11122 3.38986E+00-2.10573E+01-2.08037E-04 9.01155E+00 6.08400E-05 6.24198E-06
 -1     11123 4.52687E+00-2.24235E+01-2.14906E-04 6.91982E+00 7.33885E-05 4.99181E-05
 -1     11124 4.15728E+00-1.88442E+01 2.24631E-05 8.83459E+00-1.21718E-04 1.26935E-04
 -1     11125 3.37815E+00-2.10454E+01 1.73150E-05 8.99952E+00-4.93818E-05 1.09064E-04
 -1     11126 4.52014E+00-2.24166E+01-3.05788E-04 6.91508E+00 9.48049E-13-2.80704E-13
 -1     11127 4.15074E+00-1.88379E+01 1.89497E-05 8.82829E+00 1.44360E-12-8.53729E-13
 -1     11128 3.37815E+00-2.10454E+01 1.73150E-05 8.99952E+00 4.93818E-05-1.09064E-04
 -1     11129 4.52687E+00-2.24235E+01-2.14906E-04 6.91982E+00-7.33885E-05-4.99181E-05
 -1     11130 4.15728E+00-1.88442E+01 2.24631E-05 8.83459E+00 1.21718E-04-1.26935E-04
 -1     11131 3.38986E+00-2.10573E+01-2.08037E-04 9.01155E+00-6.08400E-05-6.24198E-06
 -1     11132 4.54743E+00-2.24439E+01-1.07508E-04 6.93380E+00 8.45271E-05-1.17258E-04
 -1     11133 4.17617E+00-1.88632E+01 1.58543E-04 8.85407E+00-2.43038E-04 1.50533E-04
 -1     11134 3.41379E+00-2.10808E+01 4.67639E-04 9.03575E+00 8.80137E-06-4.25989E-05
 -1     11135 5.14247E-03-1.69070E+01 6.29476E-04 1.19978E+01-1.03663E-05 6.27814E-05
 -1     11136 1.69915E+00-1.89838E+01-1.09427E-04 1.05013E+01-1.14607E-04 1.60106E-04
 -1     11137 7.25662E-01-1.47799E+01 1.71317E-04 1.17261E+01 3.37278E-04-2.80326E-04
 -1     11138-7.91405E-03-1.68946E+01-3.35441E-04 1.19664E+01 8.29276E-05-4.03078E-05
 -1     11139 1.68538E+00-1.89701E+01-1.96563E-04 1.04805E+01 1.03293E-04 1.88691E-05
 -1     11140 7.15674E-01-1.47697E+01 2.71060E-06 1.17008E+01-1.61851E-04 1.90325E-04
 -1     11141-1.41090E-02-1.68880E+01 4.61466E-05 1.19507E+01-5.93712E-05 1.47407E-04
 -1     11142 1.68099E+00-1.89655E+01-2.92681E-04 1.04735E+01 6.04202E-13-8.93979E-13
 -1     11143 7.11896E-01-1.47664E+01 1.28464E-05 1.16926E+01 3.65083E-13-7.81745E-13
 -1     11144-1.41090E-02-1.68880E+01 4.61466E-05 1.19507E+01 5.93712E-05-1.47407E-04
 -1     11145 1.68538E+00-1.89701E+01-1.96563E-04 1.04805E+01-1.03293E-04-1.88691E-05
 -1     11146 7.15674E-01-1.47697E+01 2.71060E-06 1.17008E+01 1.61851E-04-1.90325E-04
 -1     11147-7.91405E-03-1.68946E+01-3.35441E-04 1.19664E+01-8.29276E-05 4.03078E-05
 -1     11148 1.69915E+00-1.89838E+01-1.09427E-04 1.05013E+01 1.14607E-04-1.60106E-04
 -1     11149 7.25662E-01-1.47799E+01 1.71317E-04 1.17261E+01-3.37278E-04 2.80326E-04
 -1     11150 5.14247E-03-1.69070E+01 6.29476E-04 1.19978E+01 1.03663E-05-6.27814E-05
 -1     11151-3.96933E+00-1.18778E+01 8.83697E-04 1.33695E+01-1.06766E-05 1.02879E-04
 -1     11152-1.98583E+00-1.43889E+01-1.13881E-04 1.26654E+01-1.56730E-04 2.31475E-04
 -1     11153-3.30365E+00-9.87623E+00 1.94187E-04 1.30089E+01 4.53423E-04-4.96523E-04
 -1     11154-3.96960E+00-1.18784E+01-5.20491E-04 1.33355E+01 1.08998E-04-1.18230E-04
 -1     11155-1.99075E+00-1.43841E+01-1.68834E-04 1.26411E+01 1.33505E-04-2.81370E-05
 -1     11156-3.30308E+00-9.87641E+00-2.42262E-05 1.29815E+01-2.05544E-04 2.85285E-04
 -1     11157-3.96928E+00-1.18782E+01 7.46337E-05 1.33187E+01-6.79694E-05 2.01595E-04
 -1     11158-1.99207E+00-1.43825E+01-2.68983E-04 1.26328E+01 4.19260E-14-6.49859E-13
 -1     11159-3.30366E+00-9.87654E+00-3.80178E-06 1.29727E+01 6.06950E-13-7.88690E-13
 -1     11160-3.96928E+00-1.18782E+01 7.46337E-05 1.33187E+01 6.79694E-05-2.01595E-04
 -1     11161-1.99075E+00-1.43841E+01-1.68834E-04 1.26411E+01-1.33505E-04 2.81370E-05
 -1     11162-3.30308E+00-9.87641E+00-2.42262E-05 1.29815E+01 2.05544E-04-2.85285E-04
 -1     11163-3.96960E+00-1.18784E+01-5.20491E-04 1.33355E+01-1.08998E-04 1.18230E-04
 -1     11164-1.98583E+00-1.43889E+01-1.13881E-04 1.26654E+01 1.56730E-04-2.31475E-04
 -1     11165-3.30365E+00-9.87623E+00 1.94187E-04 1.30089E+01-4.53423E-04 4.96523E-04
 -1     11166-3.96933E+00-1.18778E+01 8.83697E-04 1.33695E+01 1.06766E-05-1.02879E-04
 -1     11167-7.86918E+00-6.65335E+00 1.29896E-03 1.30192E+01-1.15698E-05 1.85037E-04
 -1     11168-5.91593E+00-9.26905E+00-1.19859E-04 1.31761E+01-2.10310E-04 3.51197E-04
 -1     11169-7.26872E+00-4.81172E+00 2.51813E-04 1.25722E+01 5.91297E-04-8.35277E-04
 -1     11170-7.85677E+00-6.66696E+00-7.72088E-04 1.29879E+01 1.44341E-04-2.58204E-04
 -1     11171-5.91134E+00-9.27393E+00-1.25610E-04 1.31518E+01 1.58904E-04-9.08373E-05
 -1     11172-7.25745E+00-4.82224E+00-4.56916E-05 1.25470E+01-2.35902E-04 4.15219E-04
 -1     11173-7.84989E+00-6.67309E+00 8.54947E-05 1.29723E+01-6.91652E-05 2.67568E-04
 -1     11174-5.90930E+00-9.27552E+00-2.24098E-04 1.31435E+01 3.32756E-13-9.00993E-13
 -1     11175-7.25496E+00-4.82583E+00-4.03181E-05 1.25389E+01 3.05722E-13-9.65332E-13
 -1     11176-7.84989E+00-6.67309E+00 8.54947E-05 1.29723E+01 6.91652E-05-2.67568E-04
 -1     11177-5.91134E+00-9.27393E+00-1.25610E-04 1.31518E+01-1.58904E-04 9.08373E-05
 -1     11178-7.25745E+00-4.82224E+00-4.56916E-05 1.25470E+01 2.35902E-04-4.15219E-04
 -1     11179-7.85677E+00-6.66696E+00-7.72088E-04 1.29879E+01-1.44341E-04 2.58204E-04
 -1     11180-5.91593E+00-9.26905E+00-1.19859E-04 1.31761E+01 2.10310E-04-3.51197E-04
 -1     11181-7.26872E+00-4.81172E+00 2.51813E-04 1.25722E+01-5.91297E-04 8.35277E-04
 -1     11182-7.86918E+00-6.65335E+00 1.29896E-03 1.30192E+01 1.15698E-05-1.85037E-04
 -1     11183-1.10591E+01-1.89060E+00 1.99853E-03 1.10745E+01-1.02451E-05 3.73309E-04
 -1     11184-9.45428E+00-4.28191E+00-1.52126E-04 1.20310E+01-2.75728E-04 5.34670E-04
 -1     11185-1.05313E+01-2.42505E-01 3.38110E-04 1.05466E+01 7.27388E-04-1.40639E-03
 -1     11186-1.10361E+01-1.91538E+00-1.08528E-03 1.10505E+01 2.10290E-04-5.22445E-04
 -1     11187-9.44105E+00-4.29566E+00-7.88401E-05 1.20105E+01 1.65317E-04-1.63395E-04
 -1     11188-1.05106E+01-2.61652E-01-7.00181E-05 1.05274E+01-2.20295E-04 5.25608E-04
 -1     11189-1.10236E+01-1.92677E+00 1.44527E-05 1.10386E+01-4.97248E-05 3.20647E-04
 -1     11190-9.43587E+00-4.30019E+00-1.49191E-04 1.20035E+01 1.23783E-13-8.38562E-13
 -1     11191-1.05057E+01-2.68210E-01-1.47933E-04 1.05212E+01-5.08505E-14-7.70223E-13
 -1     11192-1.10236E+01-1.92677E+00 1.44527E-05 1.10386E+01 4.97248E-05-3.20647E-04
 -1     11193-9.44105E+00-4.29566E+00-7.88401E-05 1.20105E+01-1.65317E-04 1.63395E-04
 -1     11194-1.05106E+01-2.61652E-01-7.00181E-05 1.05274E+01 2.20295E-04-5.25608E-04
 -1     11195-1.10361E+01-1.91538E+00-1.08528E-03 1.10505E+01-2.10290E-04 5.22445E-04
 -1     11196-9.45428E+00-4.28191E+00-1.52126E-04 1.20310E+01 2.75728E-04-5.34670E-04
 -1     11197-1.05313E+01-2.42505E-01 3.38110E-04 1.05466E+01-7.27388E-04 1.40639E-03
 -1     11198-1.10591E+01-1.89060E+00 1.99853E-03 1.10745E+01 1.02451E-05-3.73309E-04
 -1     11199-1.30150E+01 1.86505E+00 3.35079E-03 7.89956E+00-4.70615E-05 8.03914E-04
 -1     11200-1.20219E+01-2.79281E-02-1.80314E-04 9.47561E+00-3.35824E-04 8.60141E-04
 -1     11201-1.25655E+01 3.28786E+00 6.53738E-04 7.30212E+00 8.77639E-04-2.17420E-03
 -1     11202-1.29853E+01 1.83241E+00-1.27959E-03 7.88649E+00 3.41616E-04-1.14184E-03
 -1     11203-1.20024E+01-4.85341E-02 2.21318E-05 9.46200E+00 1.28150E-04-1.77643E-04
 -1     11204-1.25375E+01 3.26325E+00 3.77977E-05 7.29174E+00-4.99533E-05 4.79367E-04
 -1     11205-1.29685E+01 1.81756E+00-2.72211E-04 7.88003E+00 1.79321E-05 2.32562E-04
 -1     11206-1.19948E+01-5.52565E-02 4.54290E-05 9.45744E+00-2.03900E-13-8.73899E-13
 -1     11207-1.25311E+01 3.25454E+00-3.76269E-04 7.28826E+00-5.81762E-13-9.54715E-13
 -1     11208-1.29685E+01 1.81756E+00-2.72211E-04 7.88003E+00-1.79321E-05-2.32562E-04
 -1     11209-1.20024E+01-4.85341E-02 2.21318E-05 9.46200E+00-1.28150E-04 1.77643E-04
 -1     11210-1.25375E+01 3.26325E+00 3.77977E-05 7.29174E+00 4.99533E-05-4.79367E-04
 -1     11211-1.29853E+01 1.83241E+00-1.27959E-03 7.88649E+00-3.41616E-04 1.14184E-03
 -1     11212-1.20219E+01-2.79281E-02-1.80314E-04 9.47561E+00 3.35824E-04-8.60141E-04
 -1     11213-1.25655E+01 3.28786E+00 6.53738E-04 7.30212E+00-8.77639E-04 2.17420E-03
 -1     11214-1.30150E+01 1.86505E+00 3.35079E-03 7.89956E+00 4.70615E-05-8.03914E-04
 -1     11215-1.34194E+01 4.27396E+00 5.86047E-03 4.02381E+00-1.24048E-04 1.95907E-03
 -1     11216-1.31983E+01 3.05022E+00-4.93580E-04 5.95638E+00-4.08830E-04 1.22485E-03
 -1     11217-1.30590E+01 5.44517E+00 7.99832E-04 3.37869E+00 8.31093E-04-3.88941E-03
 -1     11218-1.33878E+01 4.23720E+00-1.14936E-03 4.02387E+00 6.49702E-04-2.59154E-03
 -1     11219-1.31760E+01 3.02546E+00-2.69892E-05 5.95191E+00-3.45036E-05-9.82391E-06
 -1     11220-1.30250E+01 5.41930E+00-1.04961E-04 3.37859E+00 3.81467E-04-6.00932E-04
 -1     11221-1.33678E+01 4.22091E+00-1.54177E-03 4.02377E+00 1.97296E-04-3.72584E-04
 -1     11222-1.31670E+01 3.01760E+00 3.37366E-04 5.95050E+00-2.93173E-13-9.86427E-13
 -1     11223-1.30174E+01 5.40949E+00-1.33417E-03 3.37827E+00-5.95779E-13-7.63728E-13
 -1     11224-1.33678E+01 4.22091E+00-1.54177E-03 4.02377E+00-1.97296E-04 3.72584E-04
 -1     11225-1.31760E+01 3.02546E+00-2.69892E-05 5.95191E+00 3.45036E-05 9.82391E-06
 -1     11226-1.30250E+01 5.41930E+00-1.04961E-04 3.37859E+00-3.81467E-04 6.00932E-04
 -1     11227-1.33878E+01 4.23720E+00-1.14936E-03 4.02387E+00-6.49702E-04 2.59154E-03
 -1     11228-1.31983E+01 3.05022E+00-4.93580E-04 5.95638E+00 4.08830E-04-1.22485E-03
 -1     11229-1.30590E+01 5.44517E+00 7.99832E-04 3.37869E+00-8.31093E-04 3.88941E-03
 -1     11230-1.34194E+01 4.27396E+00 5.86047E-03 4.02381E+00 1.24048E-04-1.95907E-03
 -1     11231-1.22259E+01 5.26505E+00 1.28760E-02 2.90294E-02-8.49860E-04 5.21651E-03
 -1     11232-1.28027E+01 4.74560E+00-5.24427E-04 2.02990E+00-2.73134E-04 2.35952E-03
 -1     11233-1.19864E+01 6.16332E+00 2.78274E-03-6.26639E-01 8.47332E-04-4.58359E-03
 -1     11234-1.21980E+01 5.22581E+00 1.98559E-03 4.37978E-02 8.24892E-04-6.52226E-03
 -1     11235-1.27820E+01 4.71897E+00 5.34177E-04 2.03593E+00-3.19327E-04 1.22414E-03
 -1     11236-1.19434E+01 6.13999E+00 4.87091E-04-6.16068E-01 1.48772E-03-4.17730E-03
 -1     11237-1.21739E+01 5.20897E+00-4.52861E-03 5.06232E-02 4.50363E-04-2.89570E-03
 -1     11238-1.27733E+01 4.71087E+00 1.71354E-03 2.03816E+00-9.26584E-13-5.96702E-13
 -1     11239-1.19323E+01 6.13012E+00-3.48818E-03-6.13158E-01-1.42195E-12-4.13654E-13
 -1     11240-1.21739E+01 5.20897E+00-4.52861E-03 5.06232E-02-4.50363E-04 2.89570E-03
 -1     11241-1.27820E+01 4.71897E+00 5.34177E-04 2.03593E+00 3.19327E-04-1.22414E-03
 -1     11242-1.19434E+01 6.13999E+00 4.87091E-04-6.16068E-01-1.48772E-03 4.17730E-03
 -1     11243-1.21980E+01 5.22581E+00 1.98559E-03 4.37978E-02-8.24892E-04 6.52226E-03
 -1     11244-1.28027E+01 4.74560E+00-5.24427E-04 2.02990E+00 2.73134E-04-2.35952E-03
 -1     11245-1.19864E+01 6.16332E+00 2.78274E-03-6.26639E-01-8.47332E-04 4.58359E-03
 -1     11246-1.22259E+01 5.26505E+00 1.28760E-02 2.90294E-02 8.49860E-04-5.21651E-03
 -1     11247-9.68930E+00 4.99486E+00 2.80325E-02-3.57527E+00-1.75274E-03 2.22662E-02
 -1     11248-1.09497E+01 5.09258E+00-4.37779E-03-1.75398E+00 3.18637E-06 4.76702E-04
 -1     11249-9.65316E+00 5.60407E+00 5.83981E-03-4.17980E+00-3.05806E-03-3.38738E-03
 -1     11250-9.68527E+00 4.94841E+00 1.75405E-02-3.54200E+00 2.60380E-04-3.60657E-03
 -1     11251-1.09330E+01 5.06401E+00-2.12064E-03-1.73643E+00-8.11456E-04 3.36808E-03
 -1     11252-9.60362E+00 5.58278E+00 3.48911E-03-4.15599E+00 6.95905E-04-1.15079E-02
 -1     11253-9.66127E+00 4.92768E+00-3.82951E-03-3.52607E+00 4.36368E-04-5.55237E-03
 -1     11254-1.09270E+01 5.05563E+00 1.58623E-03-1.73025E+00-1.57858E-12 1.49618E-13
 -1     11255-9.58267E+00 5.57475E+00-3.56154E-03-4.14879E+00-2.12975E-12 5.33803E-14
 -1     11256-9.66127E+00 4.92768E+00-3.82951E-03-3.52607E+00-4.36368E-04 5.55237E-03
 -1     11257-1.09330E+01 5.06401E+00-2.12064E-03-1.73643E+00 8.11456E-04-3.36808E-03
 -1     11258-9.60362E+00 5.58278E+00 3.48911E-03-4.15599E+00-6.95905E-04 1.15079E-02
 -1     11259-9.68527E+00 4.94841E+00 1.75405E-02-3.54200E+00-2.60380E-04 3.60657E-03
 -1     11260-1.09497E+01 5.09258E+00-4.37779E-03-1.75398E+00-3.18637E-06-4.76702E-04
 -1     11261-9.65316E+00 5.60407E+00 5.83981E-03-4.17980E+00 3.05806E-03 3.38738E-03
 -1     11262-9.68930E+00 4.99486E+00 2.80325E-02-3.57527E+00 1.75274E-03-2.22662E-02
 -1     11263-6.58850E+00 3.85997E+00 1.05657E-01-6.26305E+00-1.71550E-03 1.20372E-01
 -1     11264-8.10933E+00 4.26141E+00-1.44791E-02-4.89533E+00 2.83187E-03-8.81563E-03
 -1     11265-6.74074E+00 4.07266E+00 1.72345E-01-6.69798E+00-4.25009E-04 1.50505E-01
 -1     11266-6.62178E+00 3.78648E+00 2.05814E-01-6.20676E+00 3.82660E-03 1.17476E-01
 -1     11267-8.07992E+00 4.22544E+00-1.95661E-02-4.86365E+00 6.69698E-04 1.09954E-03
 -1     11268-6.80502E+00 4.00422E+00 2.25835E-01-6.66491E+00 2.70880E-03 8.62492E-02
 -1     11269-6.65558E+00 3.74087E+00 2.33824E-01-6.18293E+00 2.59149E-03 4.10711E-02
 -1     11270-8.07543E+00 4.21318E+00-1.70758E-02-4.85298E+00-2.37470E-12 9.21368E-13
 -1     11271-6.81813E+00 3.98366E+00 2.40592E-01-6.65472E+00-3.44928E-12 9.87325E-13
 -1     11272-6.65558E+00 3.74087E+00 2.33824E-01-6.18293E+00-2.59149E-03-4.10711E-02
 -1     11273-8.07992E+00 4.22544E+00-1.95661E-02-4.86365E+00-6.69698E-04-1.09954E-03
 -1     11274-6.80502E+00 4.00422E+00 2.25835E-01-6.66491E+00-2.70880E-03-8.62492E-02
 -1     11275-6.62178E+00 3.78648E+00 2.05814E-01-6.20676E+00-3.82660E-03-1.17476E-01
 -1     11276-8.10933E+00 4.26141E+00-1.44791E-02-4.89533E+00-2.83187E-03 8.81563E-03
 -1     11277-6.74074E+00 4.07266E+00 1.72345E-01-6.69798E+00 4.25009E-04-1.50505E-01
 -1     11278-6.58850E+00 3.85997E+00 1.05657E-01-6.26305E+00 1.71550E-03-1.20372E-01
 -1     11279-5.15218E+00 1.61843E+00-1.69489E-01-6.43377E+00 1.98329E-02-5.09296E-02
 -1     11280-5.16433E+00 1.54219E+00-2.52106E-01-6.42901E+00 1.45841E-02-3.31035E-02
 -1     11281-5.16849E+00 1.51720E+00-2.85478E-01-6.42752E+00-2.44642E-12 1.91792E-12
 -1     11282-5.16433E+00 1.54219E+00-2.52106E-01-6.42901E+00-1.45841E-02 3.31035E-02
 -1     11283-5.15218E+00 1.61843E+00-1.69489E-01-6.43377E+00-1.98329E-02 5.09296E-02
 -1     11284-1.65119E+00-9.56616E-01-2.04866E-03 1.87456E+00-3.16114E-03-3.65647E-04
 -1     11285-6.54106E-01-6.01470E-01 4.00104E-04 8.29999E-01 1.02540E-02-9.95186E-03
 -1     11286-1.80439E+00-1.30135E+00-5.97181E-03 2.42301E+00-4.11386E-03-2.43832E-03
 -1     11287-1.67174E+00-9.44132E-01-8.44109E-03 1.87920E+00-4.71090E-03-1.70822E-03
 -1     11288-6.63311E-01-5.68909E-01 1.83929E-03 8.39805E-01 7.74785E-03-7.34618E-03
 -1     11289-1.82210E+00-1.28572E+00-1.38952E-02 2.42021E+00-2.80375E-03-2.76582E-03
 -1     11290-1.68020E+00-9.36650E-01-1.35864E-02 1.88181E+00-1.95741E-03-9.50103E-04
 -1     11291-6.65603E-01-5.58289E-01 2.28970E-03 8.42363E-01-1.09103E-12 9.35805E-13
 -1     11292-1.82743E+00-1.28021E+00-1.72462E-02 2.41912E+00 1.51091E-12 1.85254E-12
 -1     11293-1.68020E+00-9.36650E-01-1.35864E-02 1.88181E+00 1.95741E-03 9.50103E-04
 -1     11294-6.63311E-01-5.68909E-01 1.83929E-03 8.39805E-01-7.74785E-03 7.34618E-03
 -1     11295-1.82210E+00-1.28572E+00-1.38952E-02 2.42021E+00 2.80375E-03 2.76582E-03
 -1     11296-1.67174E+00-9.44132E-01-8.44109E-03 1.87920E+00 4.71090E-03 1.70822E-03
 -1     11297-6.54106E-01-6.01470E-01 4.00104E-04 8.29999E-01-1.02540E-02 9.95186E-03
 -1     11298-1.80439E+00-1.30135E+00-5.97181E-03 2.42301E+00 4.11386E-03 2.43832E-03
 -1     11299-1.65119E+00-9.56616E-01-2.04866E-03 1.87456E+00 3.16114E-03 3.65647E-04
 -1     11300-5.96477E+00 1.38157E+00-3.58818E-04 2.78802E+00-9.70691E-04-5.13225E-04
 -1     11301-3.81529E+00 2.56934E-01 6.22744E-04 2.38409E+00-5.94003E-04 7.74536E-04
 -1     11302-6.30716E+00 1.49832E+00-2.19544E-03 3.47726E+00-5.53604E-04-6.58841E-04
 -1     11303-5.94194E+00 1.35966E+00-1.81958E-03 2.75994E+00-1.24103E-03-4.70278E-04
 -1     11304-3.81232E+00 2.53245E-01-3.28362E-04 2.37214E+00-3.89827E-04 5.62674E-04
 -1     11305-6.29051E+00 1.48376E+00-2.21057E-03 3.45200E+00-5.79535E-04-3.24128E-04
 -1     11306-5.93033E+00 1.34918E+00-2.67219E-03 2.74569E+00-4.93502E-04-1.39896E-04
 -1     11307-3.81115E+00 2.52299E-01-5.35649E-04 2.36819E+00 2.80268E-12-5.69682E-12
 -1     11308-6.28516E+00 1.47884E+00-2.39094E-03 3.44347E+00-4.18669E-12-4.77968E-12
 -1     11309-5.93033E+00 1.34918E+00-2.67219E-03 2.74569E+00 4.93502E-04 1.39896E-04
 -1     11310-3.81232E+00 2.53245E-01-3.28362E-04 2.37214E+00 3.89827E-04-5.62674E-04
 -1     11311-6.29051E+00 1.48376E+00-2.21057E-03 3.45200E+00 5.79535E-04 3.24128E-04
 -1     11312-5.94194E+00 1.35966E+00-1.81958E-03 2.75994E+00 1.24103E-03 4.70278E-04
 -1     11313-3.81529E+00 2.56934E-01 6.22744E-04 2.38409E+00 5.94003E-04-7.74536E-04
 -1     11314-6.30716E+00 1.49832E+00-2.19544E-03 3.47726E+00 5.53604E-04 6.58841E-04
 -1     11315-5.96477E+00 1.38157E+00-3.58818E-04 2.78802E+00 9.70691E-04 5.13225E-04
 -1     11316-1.04389E+01 3.35147E+00-5.99372E-04 8.33868E-01-3.98963E-04-2.19420E-04
 -1     11317-8.19774E+00 2.37677E+00 1.50092E-04 1.81724E+00-2.01454E-04 1.33357E-04
 -1     11318-1.07887E+01 4.02316E+00-9.78462E-05 1.49046E+00-3.46438E-04-5.04305E-05
 -1     11319-1.03960E+01 3.30888E+00-1.04489E-03 8.05437E-01-4.08371E-04-5.02198E-05
 -1     11320-8.17307E+00 2.35271E+00 4.57374E-05 1.79557E+00-3.85535E-04 5.16748E-05
 -1     11321-1.07551E+01 3.98958E+00-5.72182E-04 1.46718E+00-2.17744E-04-1.37941E-05
 -1     11322-1.03745E+01 3.28776E+00-1.22019E-03 7.91104E-01-1.53034E-04 1.81318E-05
 -1     11323-8.16478E+00 2.34483E+00-6.27357E-05 1.78836E+00-7.42004E-13-7.29785E-13
 -1     11324-1.07439E+01 3.97836E+00-7.38208E-04 1.45938E+00 6.30039E-13 4.54550E-13
 -1     11325-1.03745E+01 3.28776E+00-1.22019E-03 7.91104E-01 1.53034E-04-1.81318E-05
 -1     11326-8.17307E+00 2.35271E+00 4.57374E-05 1.79557E+00 3.85535E-04-5.16748E-05
 -1     11327-1.07551E+01 3.98958E+00-5.72182E-04 1.46718E+00 2.17744E-04 1.37941E-05
 -1     11328-1.03960E+01 3.30888E+00-1.04489E-03 8.05437E-01 4.08371E-04 5.02198E-05
 -1     11329-8.19774E+00 2.37677E+00 1.50092E-04 1.81724E+00 2.01454E-04-1.33357E-04
 -1     11330-1.07887E+01 4.02316E+00-9.78462E-05 1.49046E+00 3.46438E-04 5.04305E-05
 -1     11331-1.04389E+01 3.35147E+00-5.99372E-04 8.33868E-01 3.98963E-04 2.19420E-04
 -1     11332-1.33507E+01 3.31675E+00-9.26659E-05-3.14511E+00-2.20739E-04-1.22773E-04
 -1     11333-1.18842E+01 3.32577E+00-1.29933E-05-1.16790E+00-2.63252E-04 6.68301E-05
 -1     11334-1.35344E+01 4.42899E+00-6.62202E-06-2.59862E+00-9.95103E-05 8.58501E-06
 -1     11335-1.33017E+01 3.26799E+00-1.64243E-04-3.15867E+00-1.88412E-04 1.25342E-05
 -1     11336-1.18497E+01 3.29155E+00-3.38710E-04-1.18361E+00-2.82006E-04-4.54601E-06
 -1     11337-1.34953E+01 4.38995E+00-3.36531E-05-2.60885E+00-9.41444E-05 3.63965E-06
 -1     11338-1.32772E+01 3.24365E+00-2.15139E-04-3.16553E+00-7.46006E-05 2.17740E-05
 -1     11339-1.18382E+01 3.28021E+00-4.83658E-04-1.18886E+00-1.02804E-12 3.01846E-12
 -1     11340-1.34823E+01 4.37695E+00-4.20848E-05-2.61226E+00-3.43928E-12 2.75592E-12
 -1     11341-1.32772E+01 3.24365E+00-2.15139E-04-3.16553E+00 7.46006E-05-2.17740E-05
 -1     11342-1.18497E+01 3.29155E+00-3.38710E-04-1.18361E+00 2.82006E-04 4.54601E-06
 -1     11343-1.34953E+01 4.38995E+00-3.36531E-05-2.60885E+00 9.41444E-05-3.63966E-06
 -1     11344-1.33017E+01 3.26799E+00-1.64243E-04-3.15867E+00 1.88412E-04-1.25342E-05
 -1     11345-1.18842E+01 3.32577E+00-1.29933E-05-1.16790E+00 2.63252E-04-6.68301E-05
 -1     11346-1.35344E+01 4.42899E+00-6.62202E-06-2.59862E+00 9.95103E-05-8.58502E-06
 -1     11347-1.33507E+01 3.31675E+00-9.26659E-05-3.14511E+00 2.20739E-04 1.22773E-04
 -1     11348-1.39651E+01 8.75463E-01 1.01634E-04-7.65013E+00-1.53819E-04-1.44599E-05
 -1     11349-1.36392E+01 2.07573E+00-1.86368E-04-5.40828E+00-1.71420E-04 4.85735E-05
 -1     11350-1.39054E+01 2.29793E+00 1.92490E-04-7.20911E+00-7.20392E-05 6.21999E-05
 -1     11351-1.39212E+01 8.31797E-01 8.63121E-05-7.64609E+00-1.53749E-04 7.94847E-05
 -1     11352-1.36044E+01 2.04116E+00-3.73563E-04-5.41179E+00-1.90278E-04 1.71701E-05
 -1     11353-1.38704E+01 2.26296E+00 9.74057E-05-7.20492E+00-9.38536E-05 2.24868E-05
 -1     11354-1.38993E+01 8.09983E-01-4.95631E-07-7.64412E+00-7.29980E-05 3.73786E-05
 -1     11355-1.35927E+01 2.02965E+00-4.66154E-04-5.41298E+00-2.10625E-12 4.90439E-13
 -1     11356-1.38588E+01 2.25133E+00 6.90877E-05-7.20352E+00 2.63419E-12-3.74701E-12
 -1     11357-1.38993E+01 8.09983E-01-4.95631E-07-7.64412E+00 7.29981E-05-3.73786E-05
 -1     11358-1.36044E+01 2.04116E+00-3.73563E-04-5.41179E+00 1.90278E-04-1.71701E-05
 -1     11359-1.38704E+01 2.26296E+00 9.74057E-05-7.20492E+00 9.38536E-05-2.24868E-05
 -1     11360-1.39212E+01 8.31797E-01 8.63121E-05-7.64609E+00 1.53749E-04-7.94846E-05
 -1     11361-1.36392E+01 2.07573E+00-1.86368E-04-5.40828E+00 1.71420E-04-4.85735E-05
 -1     11362-1.39054E+01 2.29793E+00 1.92490E-04-7.20911E+00 7.20392E-05-6.21999E-05
 -1     11363-1.39651E+01 8.75463E-01 1.01634E-04-7.65013E+00 1.53819E-04 1.44599E-05
 -1     11364-1.24258E+01-3.53871E+00 2.11898E-04-1.14143E+01-1.31346E-04 8.43079E-05
 -1     11365-1.31750E+01-1.35448E+00-2.97885E-04-9.53291E+00-2.13982E-04 1.19419E-04
 -1     11366-1.21306E+01-1.89633E+00 1.85302E-04-1.10485E+01-6.78807E-05 1.11672E-04
 -1     11367-1.23936E+01-3.57070E+00 1.03412E-04-1.13962E+01-1.84642E-04 1.76048E-04
 -1     11368-1.31464E+01-1.38275E+00-5.51474E-04-9.52458E+00-1.96710E-04 9.68623E-05
 -1     11369-1.21051E+01-1.92182E+00 5.56533E-05-1.10331E+01-1.19527E-04 7.30226E-05
 -1     11370-1.23774E+01-3.58666E+00-7.05903E-05-1.13872E+01-9.69019E-05 7.71697E-05
 -1     11371-1.31369E+01-1.39216E+00-6.61056E-04-9.52183E+00 3.32704E-12 1.81883E-12
 -1     11372-1.20965E+01-1.93028E+00 3.41041E-06-1.10280E+01 1.46742E-12 4.94237E-12
 -1     11373-1.23774E+01-3.58666E+00-7.05903E-05-1.13872E+01 9.69019E-05-7.71697E-05
 -1     11374-1.31464E+01-1.38275E+00-5.51474E-04-9.52458E+00 1.96710E-04-9.68623E-05
 -1     11375-1.21051E+01-1.92182E+00 5.56534E-05-1.10331E+01 1.19527E-04-7.30226E-05
 -1     11376-1.23936E+01-3.57070E+00 1.03412E-04-1.13962E+01 1.84642E-04-1.76048E-04
 -1     11377-1.31750E+01-1.35448E+00-2.97885E-04-9.53291E+00 2.13982E-04-1.19419E-04
 -1     11378-1.21306E+01-1.89633E+00 1.85302E-04-1.10485E+01 6.78807E-05-1.11672E-04
 -1     11379-1.24258E+01-3.53871E+00 2.11898E-04-1.14143E+01 1.31346E-04-8.43079E-05
 -1     11380-9.33337E+00-9.14818E+00 2.30336E-04-1.36577E+01-1.24582E-04 1.65882E-04
 -1     11381-1.08638E+01-6.36113E+00-3.75180E-04-1.25271E+01-2.52699E-04 2.29835E-04
 -1     11382-8.85119E+00-7.33793E+00 1.47360E-04-1.33465E+01-8.18068E-05 1.63499E-04
 -1     11383-9.31554E+00-9.16579E+00-2.16691E-05-1.36311E+01-2.19241E-04 2.86486E-04
 -1     11384-1.08449E+01-6.37961E+00-7.03910E-04-1.25103E+01-2.19955E-04 2.05438E-04
 -1     11385-8.83712E+00-7.35183E+00-6.23061E-05-1.33246E+01-1.45266E-04 1.36646E-04
 -1     11386-9.30651E+00-9.17453E+00-2.82772E-04-1.36178E+01-1.18540E-04 1.30569E-04
 -1     11387-1.08386E+01-6.38575E+00-8.43696E-04-1.25048E+01 2.54058E-12 3.67578E-12
 -1     11388-8.83238E+00-7.35643E+00-1.52396E-04-1.33173E+01 8.45584E-13 2.36926E-12
 -1     11389-9.30651E+00-9.17453E+00-2.82772E-04-1.36178E+01 1.18540E-04-1.30569E-04
 -1     11390-1.08449E+01-6.37961E+00-7.03910E-04-1.25103E+01 2.19955E-04-2.05438E-04
 -1     11391-8.83712E+00-7.35183E+00-6.23061E-05-1.33246E+01 1.45266E-04-1.36646E-04
 -1     11392-9.31554E+00-9.16579E+00-2.16691E-05-1.36311E+01 2.19241E-04-2.86486E-04
 -1     11393-1.08638E+01-6.36113E+00-3.75180E-04-1.25271E+01 2.52699E-04-2.29835E-04
 -1     11394-8.85119E+00-7.33793E+00 1.47360E-04-1.33465E+01 8.18068E-05-1.63499E-04
 -1     11395-9.33337E+00-9.14818E+00 2.30336E-04-1.36577E+01 1.24582E-04-1.65882E-04
 -1     11396-5.43578E+00-1.51214E+01 2.19022E-04-1.40359E+01-1.17520E-04 2.29941E-04
 -1     11397-7.37680E+00-1.21439E+01-4.22464E-04-1.38324E+01-2.73182E-04 3.55123E-04
 -1     11398-4.82081E+00-1.31769E+01 9.20305E-05-1.37750E+01-8.31474E-05 2.13891E-04
 -1     11399-5.43254E+00-1.51244E+01-1.70897E-04-1.40065E+01-2.27404E-04 3.95241E-04
 -1     11400-7.36871E+00-1.21515E+01-8.42686E-04-1.38115E+01-2.30521E-04 3.20789E-04
 -1     11401-4.81834E+00-1.31791E+01-1.82043E-04-1.37511E+01-1.54076E-04 2.02751E-04
 -1     11402-5.43072E+00-1.51259E+01-4.96048E-04-1.39918E+01-1.25377E-04 1.86613E-04
 -1     11403-7.36596E+00-1.21540E+01-1.02130E-03-1.38045E+01 1.00062E-12 2.30760E-12
 -1     11404-4.81746E+00-1.31799E+01-3.01985E-04-1.37431E+01 1.18458E-12 3.80248E-12
 -1     11405-5.43072E+00-1.51259E+01-4.96048E-04-1.39918E+01 1.25377E-04-1.86613E-04
 -1     11406-7.36871E+00-1.21515E+01-8.42686E-04-1.38115E+01 2.30521E-04-3.20789E-04
 -1     11407-4.81834E+00-1.31791E+01-1.82043E-04-1.37511E+01 1.54076E-04-2.02751E-04
 -1     11408-5.43254E+00-1.51244E+01-1.70897E-04-1.40065E+01 2.27404E-04-3.95241E-04
 -1     11409-7.37680E+00-1.21439E+01-4.22464E-04-1.38324E+01 2.73182E-04-3.55123E-04
 -1     11410-4.82081E+00-1.31769E+01 9.20305E-05-1.37750E+01 8.31474E-05-2.13891E-04
 -1     11411-5.43578E+00-1.51214E+01 2.19022E-04-1.40359E+01 1.17520E-04-2.29941E-04
 -1     11412-1.47505E+00-2.06898E+01 2.03291E-04-1.25317E+01-1.02236E-04 2.79110E-04
 -1     11413-3.45596E+00-1.79059E+01-4.54480E-04-1.32684E+01-2.59647E-04 4.70058E-04
 -1     11414-7.72045E-01-1.86398E+01 4.78079E-05-1.23264E+01-6.45110E-05 2.57371E-04
 -1     11415-1.48493E+00-2.06797E+01-3.00283E-04-1.25046E+01-2.01191E-04 4.88933E-04
 -1     11416-3.45817E+00-1.79031E+01-9.51221E-04-1.32472E+01-2.12666E-04 4.24168E-04
 -1     11417-7.79977E-01-1.86316E+01-2.77002E-04-1.23045E+01-1.44744E-04 2.61424E-04
 -1     11418-1.48959E+00-2.06745E+01-6.62511E-04-1.24912E+01-1.15600E-04 2.36831E-04
 -1     11419-3.45883E+00-1.79021E+01-1.16488E-03-1.32402E+01 1.36520E-12 4.83876E-13
 -1     11420-7.82564E-01-1.86288E+01-4.17911E-04-1.22972E+01 4.96928E-13 5.27494E-13
 -1     11421-1.48959E+00-2.06745E+01-6.62511E-04-1.24912E+01 1.15600E-04-2.36831E-04
 -1     11422-3.45817E+00-1.79031E+01-9.51221E-04-1.32472E+01 2.12666E-04-4.24168E-04
 -1     11423-7.79977E-01-1.86316E+01-2.77002E-04-1.23045E+01 1.44744E-04-2.61424E-04
 -1     11424-1.48493E+00-2.06797E+01-3.00283E-04-1.25046E+01 2.01191E-04-4.88933E-04
 -1     11425-3.45596E+00-1.79059E+01-4.54480E-04-1.32684E+01 2.59647E-04-4.70058E-04
 -1     11426-7.72045E-01-1.86398E+01 4.78079E-05-1.23264E+01 6.45110E-05-2.57371E-04
 -1     11427-1.47505E+00-2.06898E+01 2.03291E-04-1.25317E+01 1.02236E-04-2.79110E-04
 -1     11428 1.88757E+00-2.51923E+01 1.97948E-04-9.37823E+00-7.67282E-05 3.14904E-04
 -1     11429 1.98725E-01-2.29341E+01-4.76101E-04-1.09418E+01-2.17513E-04 5.62850E-04
 -1     11430 2.64514E+00-2.30663E+01 1.87526E-05-9.23623E+00-2.40230E-05 2.87532E-04
 -1     11431 1.86729E+00-2.51718E+01-3.97240E-04-9.35773E+00-1.44989E-04 5.58620E-04
 -1     11432 1.87770E-01-2.29225E+01-1.03010E-03-1.09240E+01-1.66643E-04 5.05445E-04
 -1     11433 2.62896E+00-2.30498E+01-3.40903E-04-9.21975E+00-1.22029E-04 3.08058E-04
 -1     11434 1.85749E+00-2.51614E+01-7.71589E-04-9.34754E+00-9.28818E-05 2.76711E-04
 -1     11435 1.84214E-01-2.29186E+01-1.27173E-03-1.09182E+01-9.07649E-13-8.37421E-13
 -1     11436 2.62362E+00-2.30443E+01-4.93697E-04-9.21424E+00 2.09383E-12-1.59649E-12
 -1     11437 1.85749E+00-2.51614E+01-7.71589E-04-9.34754E+00 9.28818E-05-2.76711E-04
 -1     11438 1.87770E-01-2.29225E+01-1.03010E-03-1.09240E+01 1.66643E-04-5.05445E-04
 -1     11439 2.62896E+00-2.30498E+01-3.40903E-04-9.21975E+00 1.22029E-04-3.08058E-04
 -1     11440 1.86729E+00-2.51718E+01-3.97240E-04-9.35773E+00 1.44989E-04-5.58620E-04
 -1     11441 1.98725E-01-2.29341E+01-4.76101E-04-1.09418E+01 2.17513E-04-5.62850E-04
 -1     11442 2.64514E+00-2.30663E+01 1.87526E-05-9.23623E+00 2.40230E-05-2.87532E-04
 -1     11443 1.88757E+00-2.51923E+01 1.97948E-04-9.37823E+00 7.67282E-05-3.14904E-04
 -1     11444 4.12674E+00-2.81134E+01 2.09189E-04-5.00744E+00-4.24830E-05 3.38221E-04
 -1     11445 2.99473E+00-2.66409E+01-4.90677E-04-7.18421E+00-1.55623E-04 6.29153E-04
 -1     11446 4.91320E+00-2.59421E+01 4.90097E-06-4.93525E+00 3.58962E-05 2.98510E-04
 -1     11447 4.09976E+00-2.80862E+01-4.66388E-04-4.99662E+00-6.75880E-05 5.99689E-04
 -1     11448 2.97741E+00-2.66229E+01-1.08072E-03-7.17250E+00-9.81701E-05 5.59654E-04
 -1     11449 4.89171E+00-2.59202E+01-3.77809E-04-4.92657E+00-9.27675E-05 3.42057E-04
 -1     11450 4.08666E+00-2.80725E+01-8.29912E-04-4.99124E+00-6.23881E-05 3.05193E-04
 -1     11451 2.97176E+00-2.66169E+01-1.34222E-03-7.16864E+00 1.13049E-12 7.99174E-13
 -1     11452 4.88459E+00-2.59130E+01-5.35104E-04-4.92363E+00 6.52607E-13 2.18961E-12
 -1     11453 4.08666E+00-2.80725E+01-8.29912E-04-4.99124E+00 6.23881E-05-3.05193E-04
 -1     11454 2.97741E+00-2.66229E+01-1.08072E-03-7.17250E+00 9.81701E-05-5.59654E-04
 -1     11455 4.89171E+00-2.59202E+01-3.77809E-04-4.92657E+00 9.27675E-05-3.42057E-04
 -1     11456 4.09976E+00-2.80862E+01-4.66388E-04-4.99662E+00 6.75880E-05-5.99689E-04
 -1     11457 2.99473E+00-2.66409E+01-4.90677E-04-7.18421E+00 1.55623E-04-6.29153E-04
 -1     11458 4.91320E+00-2.59421E+01 4.90098E-06-4.93525E+00-3.58962E-05-2.98510E-04
 -1     11459 4.12674E+00-2.81134E+01 2.09189E-04-5.00744E+00 4.24830E-05-3.38221E-04
 -1     11460 4.90480E+00-2.91274E+01 2.41250E-04 2.14208E-03-2.76856E-06 3.49917E-04
 -1     11461 4.50087E+00-2.86060E+01-4.99442E-04-2.49976E+00-8.40974E-05 6.69761E-04
 -1     11462 5.69852E+00-2.69420E+01 3.90231E-06 2.11515E-04 1.12202E-04 2.84497E-04
 -1     11463 4.87549E+00-2.90979E+01-5.17580E-04 1.66738E-03 2.17171E-05 6.10265E-04
 -1     11464 4.48020E+00-2.85847E+01-1.10604E-03-2.49588E+00-1.48592E-05 5.84954E-04
 -1     11465 5.67523E+00-2.69183E+01-3.93576E-04-1.78673E-04-6.34872E-05 3.65896E-04
 -1     11466 4.86127E+00-2.90830E+01-8.46954E-04 1.44758E-03-2.89681E-05 3.23480E-04
 -1     11467 4.47345E+00-2.85775E+01-1.38011E-03-2.49462E+00-5.04905E-14 2.50452E-13
 -1     11468 5.66747E+00-2.69104E+01-5.49218E-04-2.27743E-04 2.04531E-13-7.71312E-13
 -1     11469 4.86127E+00-2.90830E+01-8.46954E-04 1.44758E-03 2.89681E-05-3.23480E-04
 -1     11470 4.48020E+00-2.85847E+01-1.10604E-03-2.49588E+00 1.48592E-05-5.84954E-04
 -1     11471 5.67523E+00-2.69183E+01-3.93576E-04-1.78673E-04 6.34872E-05-3.65896E-04
 -1     11472 4.87549E+00-2.90979E+01-5.17580E-04 1.66738E-03-2.17171E-05-6.10265E-04
 -1     11473 4.50087E+00-2.86060E+01-4.99442E-04-2.49976E+00 8.40974E-05-6.69761E-04
 -1     11474 5.69852E+00-2.69420E+01 3.90231E-06 2.11515E-04-1.12202E-04-2.84497E-04
 -1     11475 4.90480E+00-2.91274E+01 2.41250E-04 2.14208E-03 2.76856E-06-3.49917E-04
 -1     11476 4.11244E+00-2.81373E+01 2.99887E-04 4.99495E+00 3.85776E-05 3.51684E-04
 -1     11477 4.49374E+00-2.86180E+01-5.03387E-04 2.49540E+00-1.21457E-05 6.88358E-04
 -1     11478 4.89367E+00-2.59691E+01 1.45703E-05 4.91600E+00 2.02324E-04 2.38581E-04
 -1     11479 4.08537E+00-2.81101E+01-5.61240E-04 4.98324E+00 1.14734E-04 5.89845E-04
 -1     11480 4.47304E+00-2.85967E+01-1.10880E-03 2.49090E+00 7.57839E-05 5.80916E-04
 -1     11481 4.87223E+00-2.59472E+01-3.92890E-04 4.90660E+00-3.96178E-05 3.84341E-04
 -1     11482 4.07228E+00-2.80964E+01-8.30024E-04 4.97745E+00 3.51491E-06 3.34234E-04
 -1     11483 4.46630E+00-2.85895E+01-1.38938E-03 2.48936E+00 3.70308E-13 2.09580E-13
 -1     11484 4.86502E+00-2.59400E+01-5.41630E-04 4.90359E+00 9.75698E-13-3.78062E-13
 -1     11485 4.07228E+00-2.80964E+01-8.30024E-04 4.97745E+00-3.51491E-06-3.34234E-04
 -1     11486 4.47304E+00-2.85967E+01-1.10880E-03 2.49090E+00-7.57839E-05-5.80916E-04
 -1     11487 4.87223E+00-2.59472E+01-3.92890E-04 4.90660E+00 3.96178E-05-3.84341E-04
 -1     11488 4.08537E+00-2.81101E+01-5.61240E-04 4.98324E+00-1.14734E-04-5.89845E-04
 -1     11489 4.49374E+00-2.86180E+01-5.03387E-04 2.49540E+00 1.21457E-05-6.88358E-04
 -1     11490 4.89367E+00-2.59691E+01 1.45703E-05 4.91600E+00-2.02324E-04-2.38581E-04
 -1     11491 4.11244E+00-2.81373E+01 2.99887E-04 4.99495E+00-3.85776E-05-3.51684E-04
 -1     11492 1.88482E+00-2.52922E+01 3.95485E-04 9.32386E+00 7.78745E-05 3.46850E-04
 -1     11493 2.98608E+00-2.67029E+01-5.04042E-04 7.15083E+00 5.20759E-05 6.90955E-04
 -1     11494 2.63511E+00-2.31725E+01 3.75384E-05 9.16552E+00 3.04172E-04 1.50790E-04
 -1     11495 1.86412E+00-2.52715E+01-6.06549E-04 9.30265E+00 2.04785E-04 5.38135E-04
 -1     11496 2.96859E+00-2.66848E+01-1.09171E-03 7.13861E+00 1.66738E-04 5.47794E-04
 -1     11497 2.61887E+00-2.31558E+01-3.78357E-04 9.14850E+00-2.50798E-05 4.04029E-04
 -1     11498 1.85425E+00-2.52609E+01-7.82958E-04 9.29216E+00 3.23626E-05 3.41114E-04
 -1     11499 2.96296E+00-2.66787E+01-1.37388E-03 7.13449E+00 6.27228E-13-4.65568E-13
 -1     11500 2.61327E+00-2.31503E+01-5.15826E-04 9.14300E+00 4.19359E-13-8.55589E-13
 -1     11501 1.85425E+00-2.52609E+01-7.82958E-04 9.29216E+00-3.23626E-05-3.41114E-04
 -1     11502 2.96859E+00-2.66848E+01-1.09171E-03 7.13861E+00-1.66738E-04-5.47794E-04
 -1     11503 2.61887E+00-2.31558E+01-3.78357E-04 9.14850E+00 2.50798E-05-4.04029E-04
 -1     11504 1.86412E+00-2.52715E+01-6.06549E-04 9.30265E+00-2.04785E-04-5.38135E-04
 -1     11505 2.98608E+00-2.67029E+01-5.04042E-04 7.15083E+00-5.20759E-05-6.90955E-04
 -1     11506 2.63511E+00-2.31725E+01 3.75384E-05 9.16552E+00-3.04172E-04-1.50790E-04
 -1     11507 1.88482E+00-2.52922E+01 3.95485E-04 9.32386E+00-7.78745E-05-3.46850E-04
 -1     11508-1.41583E+00-2.09712E+01 5.47101E-04 1.24408E+01 1.11905E-04 3.41662E-04
 -1     11509 2.26171E-01-2.31242E+01-5.03882E-04 1.08697E+01 1.01881E-04 6.86246E-04
 -1     11510-7.13124E-01-1.89316E+01 7.68191E-05 1.22007E+01 4.16115E-04 6.98799E-06
 -1     11511-1.42701E+00-2.09601E+01-6.60918E-04 1.24132E+01 2.87253E-04 4.53547E-04
 -1     11512 2.14612E-01-2.31120E+01-1.05767E-03 1.08516E+01 2.51374E-04 4.86396E-04
 -1     11513-7.21583E-01-1.89225E+01-3.49685E-04 1.21786E+01-2.08820E-05 4.33289E-04
 -1     11514-1.43209E+00-2.09543E+01-7.06780E-04 1.23996E+01 5.64099E-05 3.48110E-04
 -1     11515 2.11008E-01-2.31079E+01-1.33711E-03 1.08455E+01 6.23275E-13-8.01653E-13
 -1     11516-7.24774E-01-1.89196E+01-4.73998E-04 1.21715E+01 2.43093E-13-8.47409E-13
 -1     11517-1.43209E+00-2.09543E+01-7.06780E-04 1.23996E+01-5.64099E-05-3.48110E-04
 -1     11518 2.14612E-01-2.31120E+01-1.05767E-03 1.08516E+01-2.51374E-04-4.86396E-04
 -1     11519-7.21583E-01-1.89225E+01-3.49685E-04 1.21786E+01 2.08820E-05-4.33289E-04
 -1     11520-1.42701E+00-2.09601E+01-6.60918E-04 1.24132E+01-2.87253E-04-4.53547E-04
 -1     11521 2.26171E-01-2.31242E+01-5.03882E-04 1.08697E+01-1.01881E-04-6.86246E-04
 -1     11522-7.13124E-01-1.89316E+01 7.68191E-05 1.22007E+01-4.16115E-04-6.98799E-06
 -1     11523-1.41583E+00-2.09712E+01 5.47101E-04 1.24408E+01-1.11905E-04-3.41662E-04
 -1     11524-5.25248E+00-1.57325E+01 7.87804E-04 1.39770E+01 1.37656E-04 3.47705E-04
 -1     11525-3.33703E+00-1.83499E+01-5.09395E-04 1.31942E+01 1.31753E-04 6.85915E-04
 -1     11526-4.61117E+00-1.38052E+01 1.37573E-04 1.36532E+01 5.33093E-04-2.17506E-04
 -1     11527-5.25247E+00-1.57328E+01-7.27016E-04 1.39473E+01 3.59963E-04 3.30498E-04
 -1     11528-3.34088E+00-1.83455E+01-1.01193E-03 1.31729E+01 3.22502E-04 3.98664E-04
 -1     11529-4.61041E+00-1.38052E+01-3.05931E-04 1.36294E+01-2.41523E-05 4.78125E-04
 -1     11530-5.25190E+00-1.57325E+01-6.01835E-04 1.39326E+01 7.62932E-05 3.58320E-04
 -1     11531-3.34182E+00-1.83440E+01-1.28334E-03 1.31658E+01 6.69828E-13-9.02818E-13
 -1     11532-4.61082E+00-1.38053E+01-4.21374E-04 1.36217E+01 5.77285E-13-8.95297E-13
 -1     11533-5.25190E+00-1.57325E+01-6.01835E-04 1.39326E+01-7.62932E-05-3.58320E-04
 -1     11534-3.34088E+00-1.83455E+01-1.01193E-03 1.31729E+01-3.22502E-04-3.98664E-04
 -1     11535-4.61041E+00-1.38052E+01-3.05931E-04 1.36294E+01 2.41523E-05-4.78125E-04
 -1     11536-5.25247E+00-1.57328E+01-7.27016E-04 1.39473E+01-3.59963E-04-3.30498E-04
 -1     11537-3.33703E+00-1.83499E+01-5.09395E-04 1.31942E+01-1.31753E-04-6.85915E-04
 -1     11538-4.61117E+00-1.38052E+01 1.37573E-04 1.36532E+01-5.33093E-04 2.17506E-04
 -1     11539-5.25248E+00-1.57325E+01 7.87804E-04 1.39770E+01-1.37656E-04-3.47705E-04
 -1     11540-8.99449E+00-1.02326E+01 1.18675E-03 1.37990E+01 1.50672E-04 3.87471E-04
 -1     11541-7.12056E+00-1.29866E+01-5.26143E-04 1.38735E+01 1.40383E-04 7.07451E-04
 -1     11542-8.42470E+00-8.45067E+00 2.35824E-04 1.33906E+01 6.53179E-04-5.48795E-04
 -1     11543-8.98338E+00-1.02443E+01-7.92373E-04 1.37716E+01 4.26638E-04 1.47966E-04
 -1     11544-7.11613E+00-1.29907E+01-9.57756E-04 1.38523E+01 3.71686E-04 2.90410E-04
 -1     11545-8.41462E+00-8.45965E+00-2.37994E-04 1.33686E+01-1.83181E-05 5.37530E-04
 -1     11546-8.97713E+00-1.02495E+01-4.68863E-04 1.37580E+01 9.62569E-05 3.66682E-04
 -1     11547-7.11419E+00-1.29920E+01-1.21148E-03 1.38452E+01 5.43497E-13-7.22572E-13
 -1     11548-8.41233E+00-8.46272E+00-3.69838E-04 1.33615E+01 3.53563E-13-8.16085E-13
 -1     11549-8.97713E+00-1.02495E+01-4.68863E-04 1.37580E+01-9.62569E-05-3.66682E-04
 -1     11550-7.11613E+00-1.29907E+01-9.57756E-04 1.38523E+01-3.71686E-04-2.90410E-04
 -1     11551-8.41462E+00-8.45965E+00-2.37994E-04 1.33686E+01 1.83181E-05-5.37530E-04
 -1     11552-8.98338E+00-1.02443E+01-7.92373E-04 1.37716E+01-4.26638E-04-1.47966E-04
 -1     11553-7.12056E+00-1.29866E+01-5.26143E-04 1.38735E+01-1.40383E-04-7.07451E-04
 -1     11554-8.42470E+00-8.45067E+00 2.35824E-04 1.33906E+01-6.53179E-04 5.48795E-04
 -1     11555-8.99449E+00-1.02326E+01 1.18675E-03 1.37990E+01-1.50672E-04-3.87471E-04
 -1     11556-1.20165E+01-5.12645E+00 1.83986E-03 1.20279E+01 1.40281E-04 5.09381E-04
 -1     11557-1.04974E+01-7.68909E+00-5.91047E-04 1.29013E+01 1.23621E-04 7.68624E-04
 -1     11558-1.15248E+01-3.52275E+00 3.67714E-04 1.15369E+01 7.42363E-04-1.06978E-03
 -1     11559-1.19962E+01-5.14792E+00-8.31868E-04 1.20068E+01 4.96619E-04-1.48337E-04
 -1     11560-1.04854E+01-7.70098E+00-9.21460E-04 1.28835E+01 3.82735E-04 1.78020E-04
 -1     11561-1.15065E+01-3.53919E+00-1.61128E-04 1.15202E+01 1.98289E-05 5.54579E-04
 -1     11562-1.19850E+01-5.15772E+00-3.61436E-04 1.19965E+01 1.24910E-04 3.48027E-04
 -1     11563-1.04808E+01-7.70483E+00-1.13172E-03 1.28775E+01 1.54820E-13-8.52793E-13
 -1     11564-1.15020E+01-3.54486E+00-3.77947E-04 1.15147E+01-1.58426E-13-6.75871E-13
 -1     11565-1.19850E+01-5.15772E+00-3.61436E-04 1.19965E+01-1.24910E-04-3.48027E-04
 -1     11566-1.04854E+01-7.70098E+00-9.21460E-04 1.28835E+01-3.82735E-04-1.78020E-04
 -1     11567-1.15065E+01-3.53919E+00-1.61128E-04 1.15202E+01-1.98289E-05-5.54579E-04
 -1     11568-1.19962E+01-5.14792E+00-8.31868E-04 1.20068E+01-4.96619E-04 1.48337E-04
 -1     11569-1.04974E+01-7.68909E+00-5.91047E-04 1.29013E+01-1.23621E-04-7.68624E-04
 -1     11570-1.15248E+01-3.52275E+00 3.67714E-04 1.15369E+01-7.42363E-04 1.06978E-03
 -1     11571-1.20165E+01-5.12645E+00 1.83986E-03 1.20279E+01-1.40281E-04-5.09381E-04
 -1     11572-1.38001E+01-9.61430E-01 3.14345E-03 9.01576E+00 6.42554E-05 8.17978E-04
 -1     11573-1.28964E+01-3.05790E+00-6.68134E-04 1.05138E+01 1.06118E-04 9.27420E-04
 -1     11574-1.33912E+01 4.32265E-01 5.95550E-04 8.44975E+00 8.39803E-04-1.76381E-03
 -1     11575-1.37737E+01-9.89778E-01-6.04213E-04 9.00438E+00 5.74799E-04-7.63699E-04
 -1     11576-1.28790E+01-3.07583E+00-8.46168E-04 1.05021E+01 3.38240E-04 1.26974E-04
 -1     11577-1.33664E+01 4.11108E-01-5.31456E-05 8.44067E+00 1.93974E-04 3.73482E-04
 -1     11578-1.37588E+01-1.00265E+00-2.86032E-04 8.99874E+00 1.72281E-04 1.75702E-04
 -1     11579-1.28724E+01-3.08161E+00-9.50045E-04 1.04982E+01-3.21037E-13-7.84190E-13
 -1     11580-1.33605E+01 4.03554E-01-5.73926E-04 8.43763E+00-5.56591E-13-9.21725E-13
 -1     11581-1.37588E+01-1.00265E+00-2.86032E-04 8.99874E+00-1.72281E-04-1.75702E-04
 -1     11582-1.28790E+01-3.07583E+00-8.46168E-04 1.05021E+01-3.38240E-04-1.26974E-04
 -1     11583-1.33664E+01 4.11108E-01-5.31456E-05 8.44067E+00-1.93974E-04-3.73482E-04
 -1     11584-1.37737E+01-9.89778E-01-6.04213E-04 9.00438E+00-5.74799E-04 7.63699E-04
 -1     11585-1.28964E+01-3.05790E+00-6.68134E-04 1.05138E+01-1.06118E-04-9.27420E-04
 -1     11586-1.33912E+01 4.32265E-01 5.95550E-04 8.44975E+00-8.39803E-04 1.76381E-03
 -1     11587-1.38001E+01-9.61430E-01 3.14345E-03 9.01576E+00-6.42554E-05-8.17978E-04
 -1     11588-1.40183E+01 1.90848E+00 5.10495E-03 5.27349E+00-1.89595E-04 1.68213E-03
 -1     11589-1.38955E+01 4.56799E-01-1.12322E-03 7.14205E+00 5.02323E-05 1.14690E-03
 -1     11590-1.37038E+01 3.06905E+00 7.14279E-04 4.64850E+00 5.90909E-04-3.19213E-03
 -1     11591-1.39901E+01 1.87675E+00-2.19227E-04 5.27420E+00 5.78663E-04-2.03810E-03
 -1     11592-1.38758E+01 4.35338E-01-1.01463E-03 7.13849E+00 1.76440E-04 2.82597E-04
 -1     11593-1.36739E+01 3.04665E+00-2.36596E-04 4.64867E+00 4.49179E-04-7.70033E-04
 -1     11594-1.39727E+01 1.86257E+00-1.18892E-03 5.27443E+00 2.22725E-04-4.39022E-04
 -1     11595-1.38681E+01 4.28549E-01-8.23635E-04 7.13737E+00-7.57594E-13-5.36144E-13
 -1     11596-1.36668E+01 3.03817E+00-1.50015E-03 4.64852E+00-5.56191E-13-6.36706E-13
 -1     11597-1.39727E+01 1.86257E+00-1.18892E-03 5.27443E+00-2.22725E-04 4.39022E-04
 -1     11598-1.38758E+01 4.35338E-01-1.01463E-03 7.13849E+00-1.76440E-04-2.82597E-04
 -1     11599-1.36739E+01 3.04665E+00-2.36596E-04 4.64867E+00-4.49179E-04 7.70033E-04
 -1     11600-1.39901E+01 1.87675E+00-2.19227E-04 5.27420E+00-5.78663E-04 2.03810E-03
 -1     11601-1.38955E+01 4.56799E-01-1.12322E-03 7.14205E+00-5.02323E-05-1.14690E-03
 -1     11602-1.37038E+01 3.06905E+00 7.14279E-04 4.64850E+00-5.90909E-04 3.19213E-03
 -1     11603-1.40183E+01 1.90848E+00 5.10495E-03 5.27349E+00 1.89595E-04-1.68213E-03
 -1     11604-1.25846E+01 3.39865E+00 1.19994E-02 1.36116E+00-8.27822E-04 4.59081E-03
 -1     11605-1.32901E+01 2.63404E+00-9.83019E-04 3.31966E+00 3.56441E-04 1.77225E-03
 -1     11606-1.23991E+01 4.29876E+00 1.47370E-03 7.04285E-01 4.36430E-04-3.48484E-03
 -1     11607-1.25608E+01 3.36552E+00 4.47203E-03 1.37613E+00 6.11087E-05-4.38294E-03
 -1     11608-1.32719E+01 2.61124E+00-3.06644E-04 3.32562E+00 7.93497E-05 1.19874E-03
 -1     11609-1.23626E+01 4.27831E+00-3.69287E-04 7.15197E-01 1.03150E-03-3.79481E-03
 -1     11610-1.25413E+01 3.35081E+00-8.23124E-04 1.38344E+00 5.38880E-05-2.21601E-03
 -1     11611-1.32648E+01 2.60418E+00 5.48475E-04 3.32771E+00-9.58181E-13-7.81177E-14
 -1     11612-1.23525E+01 4.26986E+00-3.73948E-03 7.18479E-01-1.14273E-12-4.11715E-14
 -1     11613-1.25413E+01 3.35081E+00-8.23124E-04 1.38344E+00-5.38880E-05 2.21601E-03
 -1     11614-1.32719E+01 2.61124E+00-3.06644E-04 3.32562E+00-7.93497E-05-1.19874E-03
 -1     11615-1.23626E+01 4.27831E+00-3.69287E-04 7.15197E-01-1.03150E-03 3.79481E-03
 -1     11616-1.25608E+01 3.36552E+00 4.47203E-03 1.37613E+00-6.11087E-05 4.38294E-03
 -1     11617-1.32901E+01 2.63404E+00-9.83019E-04 3.31966E+00-3.56441E-04-1.77225E-03
 -1     11618-1.23991E+01 4.29876E+00 1.47370E-03 7.04285E-01-4.36430E-04 3.48484E-03
 -1     11619-1.25846E+01 3.39865E+00 1.19994E-02 1.36116E+00 8.27822E-04-4.59081E-03
 -1     11620-9.66198E+00 3.60655E+00 1.69425E-02-2.24103E+00 2.63350E-04 1.81280E-02
 -1     11621-1.11226E+01 3.47289E+00-6.23295E-03-4.32654E-01-1.33251E-04-2.80626E-04
 -1     11622-9.69516E+00 4.27132E+00 7.34083E-03-2.89015E+00-2.94420E-03 5.80109E-04
 -1     11623-9.65940E+00 3.57216E+00 1.22817E-02-2.21016E+00 1.40560E-03 9.01698E-04
 -1     11624-1.11063E+01 3.44935E+00-4.73518E-03-4.14886E-01-5.16611E-04 2.25165E-03
 -1     11625-9.66003E+00 4.25365E+00 5.78990E-03-2.86645E+00-9.95119E-06-7.39338E-03
 -1     11626-9.64463E+00 3.55653E+00-2.42160E-03-2.19481E+00 6.71236E-04-2.66974E-03
 -1     11627-1.11011E+01 3.44214E+00-2.25317E-03-4.08933E-01-1.43968E-12 4.02811E-13
 -1     11628-9.64409E+00 4.24749E+00 4.09445E-04-2.85875E+00-1.94008E-12 4.80210E-13
 -1     11629-9.64463E+00 3.55653E+00-2.42160E-03-2.19481E+00-6.71236E-04 2.66974E-03
 -1     11630-1.11063E+01 3.44935E+00-4.73518E-03-4.14886E-01 5.16611E-04-2.25165E-03
 -1     11631-9.66003E+00 4.25365E+00 5.78990E-03-2.86645E+00 9.95119E-06 7.39338E-03
 -1     11632-9.65940E+00 3.57216E+00 1.22817E-02-2.21016E+00-1.40560E-03-9.01698E-04
 -1     11633-1.11226E+01 3.47289E+00-6.23295E-03-4.32654E-01 1.33251E-04 2.80626E-04
 -1     11634-9.69516E+00 4.27132E+00 7.34083E-03-2.89015E+00 2.94420E-03-5.80109E-04
 -1     11635-9.66198E+00 3.60655E+00 1.69425E-02-2.24103E+00-2.63350E-04-1.81280E-02
 -1     11636-5.88450E+00 3.16556E+00 7.10948E-02-5.30193E+00 3.01228E-03 7.73490E-02
 -1     11637-7.73129E+00 3.20465E+00-6.26738E-03-3.69663E+00 1.60923E-03-9.33404E-03
 -1     11638-6.23392E+00 3.46929E+00 1.39237E-01-5.72789E+00 1.04040E-02 1.14990E-01
 -1     11639-5.87277E+00 3.10290E+00 1.44831E-01-5.21834E+00 1.11870E-02 7.62825E-02
 -1     11640-7.70420E+00 3.17754E+00-1.09316E-02-3.65741E+00 3.68183E-05-1.73300E-03
 -1     11641-6.26983E+00 3.40585E+00 1.82444E-01-5.68490E+00 1.01329E-02 6.62638E-02
 -1     11642-5.88359E+00 3.06400E+00 1.66232E-01-5.18668E+00 6.05746E-03 2.68745E-02
 -1     11643-7.69878E+00 3.16779E+00-9.90920E-03-3.64434E+00-2.05889E-12 1.48163E-12
 -1     11644-6.27609E+00 3.38717E+00 1.95037E-01-5.67279E+00-3.07733E-12 1.85773E-12
 -1     11645-5.88359E+00 3.06400E+00 1.66232E-01-5.18668E+00-6.05746E-03-2.68745E-02
 -1     11646-7.70420E+00 3.17754E+00-1.09316E-02-3.65741E+00-3.68183E-05 1.73300E-03
 -1     11647-6.26983E+00 3.40585E+00 1.82444E-01-5.68490E+00-1.01329E-02-6.62638E-02
 -1     11648-5.87277E+00 3.10290E+00 1.44831E-01-5.21834E+00-1.11870E-02-7.62825E-02
 -1     11649-7.73129E+00 3.20465E+00-6.26738E-03-3.69663E+00-1.60923E-03 9.33404E-03
 -1     11650-6.23392E+00 3.46929E+00 1.39237E-01-5.72789E+00-1.04040E-02-1.14990E-01
 -1     11651-5.88450E+00 3.16556E+00 7.10948E-02-5.30193E+00-3.01228E-03-7.73490E-02
 -1     11652-4.29675E+00 1.51114E+00-1.24807E-01-5.46354E+00 3.51705E-02-2.96538E-02
 -1     11653-4.28636E+00 1.44669E+00-1.81960E-01-5.46641E+00 2.68528E-02-1.92587E-02
 -1     11654-4.28235E+00 1.42709E+00-2.04753E-01-5.46705E+00-2.12087E-12 2.85202E-12
 -1     11655-4.28636E+00 1.44669E+00-1.81960E-01-5.46641E+00-2.68528E-02 1.92587E-02
 -1     11656-4.29675E+00 1.51114E+00-1.24807E-01-5.46354E+00-3.51705E-02 2.96538E-02
 -1     11657-1.26561E+00-4.36455E-01-3.98544E-04 9.92095E-01-5.60605E-03 8.73955E-04
 -1     11658-4.98306E-01-2.13771E-01-8.30618E-04 3.53074E-01 1.18400E-02-4.69675E-03
 -1     11659-1.46755E+00-6.95158E-01-4.44247E-03 1.44025E+00-7.52817E-03-2.39448E-05
 -1     11660-1.26936E+00-4.33890E-01-5.32909E-03 1.00961E+00-8.56305E-03 9.23565E-04
 -1     11661-5.01725E-01-1.96463E-01-1.45331E-03 3.70332E-01 8.70566E-03-3.18475E-03
 -1     11662-1.47503E+00-6.87444E-01-1.05437E-02 1.44900E+00-5.38041E-03-6.18808E-04
 -1     11663-1.27054E+00-4.30673E-01-9.20166E-03 1.01851E+00-3.57813E-03 3.17945E-04
 -1     11664-5.02447E-01-1.90663E-01-1.89415E-03 3.75055E-01 9.72311E-13 3.64495E-12
 -1     11665-1.47712E+00-6.84435E-01-1.30557E-02 1.45170E+00-1.63224E-12 1.00187E-12
 -1     11666-1.27054E+00-4.30673E-01-9.20166E-03 1.01851E+00 3.57813E-03-3.17945E-04
 -1     11667-5.01725E-01-1.96463E-01-1.45331E-03 3.70332E-01-8.70566E-03 3.18475E-03
 -1     11668-1.47503E+00-6.87444E-01-1.05437E-02 1.44900E+00 5.38041E-03 6.18808E-04
 -1     11669-1.26936E+00-4.33890E-01-5.32909E-03 1.00961E+00 8.56305E-03-9.23565E-04
 -1     11670-4.98306E-01-2.13771E-01-8.30618E-04 3.53074E-01-1.18400E-02 4.69675E-03
 -1     11671-1.46755E+00-6.95158E-01-4.44247E-03 1.44025E+00 7.52817E-03 2.39448E-05
 -1     11672-1.26561E+00-4.36455E-01-3.98544E-04 9.92095E-01 5.60605E-03-8.73955E-04
 -1     11673-5.11665E+00 1.02350E+00 2.13317E-04 1.53406E+00-2.11578E-03-8.61207E-05
 -1     11674-3.17563E+00 3.16219E-01-1.09303E-03 1.32709E+00-3.35972E-03 1.03564E-03
 -1     11675-5.52583E+00 1.18374E+00-2.62575E-03 2.14540E+00-1.95298E-03-6.97250E-04
 -1     11676-5.08888E+00 9.99688E-01-2.25579E-03 1.51303E+00-3.38654E-03-3.75546E-04
 -1     11677-3.16439E+00 3.09597E-01-2.91406E-03 1.32174E+00-2.51412E-03 7.19330E-04
 -1     11678-5.50627E+00 1.16818E+00-3.64184E-03 2.12694E+00-1.80323E-03-3.78838E-04
 -1     11679-5.07485E+00 9.89056E-01-3.84524E-03 1.50253E+00-1.42115E-03-2.03508E-04
 -1     11680-3.16064E+00 3.07859E-01-3.64762E-03 1.31998E+00-3.64807E-12 2.31417E-12
 -1     11681-5.49988E+00 1.16311E+00-4.20970E-03 2.12068E+00 1.70807E-12-4.83410E-12
 -1     11682-5.07485E+00 9.89056E-01-3.84524E-03 1.50253E+00 1.42115E-03 2.03508E-04
 -1     11683-3.16439E+00 3.09597E-01-2.91406E-03 1.32174E+00 2.51412E-03-7.19330E-04
 -1     11684-5.50627E+00 1.16818E+00-3.64184E-03 2.12694E+00 1.80323E-03 3.78838E-04
 -1     11685-5.08888E+00 9.99688E-01-2.25579E-03 1.51303E+00 3.38654E-03 3.75546E-04
 -1     11686-3.17563E+00 3.16219E-01-1.09303E-03 1.32709E+00 3.35972E-03-1.03564E-03
 -1     11687-5.52583E+00 1.18374E+00-2.62575E-03 2.14540E+00 1.95298E-03 6.97250E-04
 -1     11688-5.11665E+00 1.02350E+00 2.13317E-04 1.53406E+00 2.11578E-03 8.61207E-05
 -1     11689-9.58988E+00 1.93461E+00-1.70847E-05-4.49666E-01-1.06592E-03 4.17599E-05
 -1     11690-7.34581E+00 1.47800E+00-7.26534E-04 5.50623E-01-1.74769E-03-1.32691E-04
 -1     11691-9.98861E+00 2.61779E+00-4.68489E-04 1.75772E-01-1.20523E-03-2.79470E-04
 -1     11692-9.54936E+00 1.89591E+00-9.92129E-04-4.74724E-01-1.59087E-03-1.60146E-04
 -1     11693-7.32044E+00 1.45563E+00-1.84323E-03 5.32928E-01-1.68443E-03-7.14509E-05
 -1     11694-9.95745E+00 2.58784E+00-1.24292E-03 1.55661E-01-8.95465E-04-1.57522E-04
 -1     11695-9.52923E+00 1.87735E+00-1.66723E-03-4.87242E-01-6.87821E-04-1.05867E-04
 -1     11696-7.31197E+00 1.44852E+00-2.33336E-03 5.27100E-01-2.64398E-12-1.55593E-12
 -1     11697-9.94714E+00 2.57795E+00-1.56671E-03 1.48946E-01-2.81566E-12 4.70370E-13
 -1     11698-9.52923E+00 1.87735E+00-1.66723E-03-4.87242E-01 6.87821E-04 1.05867E-04
 -1     11699-7.32044E+00 1.45563E+00-1.84323E-03 5.32928E-01 1.68443E-03 7.14509E-05
 -1     11700-9.95745E+00 2.58784E+00-1.24292E-03 1.55661E-01 8.95465E-04 1.57522E-04
 -1     11701-9.54936E+00 1.89591E+00-9.92129E-04-4.74724E-01 1.59087E-03 1.60146E-04
 -1     11702-7.34581E+00 1.47800E+00-7.26534E-04 5.50623E-01 1.74769E-03 1.32691E-04
 -1     11703-9.98861E+00 2.61779E+00-4.68489E-04 1.75772E-01 1.20523E-03 2.79470E-04
 -1     11704-9.58988E+00 1.93461E+00-1.70847E-05-4.49666E-01 1.06592E-03-4.17599E-05
 -1     11705-1.28444E+01 1.03985E+00 7.11431E-05-4.25103E+00-5.00896E-04 9.20078E-05
 -1     11706-1.12081E+01 1.47495E+00-4.79320E-04-2.36097E+00-1.23260E-03-2.10126E-04
 -1     11707-1.30687E+01 2.14991E+00-5.56985E-05-3.70653E+00-6.01629E-04-1.98950E-04
 -1     11708-1.28004E+01 9.96839E-01-3.14423E-04-4.26486E+00-8.24264E-04-1.02834E-04
 -1     11709-1.11766E+01 1.44502E+00-1.17847E-03-2.37540E+00-1.06948E-03-1.59391E-04
 -1     11710-1.30340E+01 2.11581E+00-3.02214E-04-3.71684E+00-4.83254E-04-1.17797E-04
 -1     11711-1.27786E+01 9.75799E-01-6.11503E-04-4.27176E+00-3.82251E-04-8.56026E-05
 -1     11712-1.11661E+01 1.43526E+00-1.49963E-03-2.38018E+00-1.74973E-12-8.70371E-13
 -1     11713-1.30225E+01 2.10454E+00-4.16771E-04-3.72026E+00-1.19840E-13 2.19914E-12
 -1     11714-1.27786E+01 9.75799E-01-6.11503E-04-4.27176E+00 3.82251E-04 8.56026E-05
 -1     11715-1.11766E+01 1.44502E+00-1.17847E-03-2.37540E+00 1.06948E-03 1.59391E-04
 -1     11716-1.30340E+01 2.11581E+00-3.02214E-04-3.71684E+00 4.83254E-04 1.17797E-04
 -1     11717-1.28004E+01 9.96839E-01-3.14423E-04-4.26486E+00 8.24264E-04 1.02834E-04
 -1     11718-1.12081E+01 1.47495E+00-4.79320E-04-2.36097E+00 1.23260E-03 2.10126E-04
 -1     11719-1.30687E+01 2.14991E+00-5.56985E-05-3.70653E+00 6.01629E-04 1.98950E-04
 -1     11720-1.28444E+01 1.03985E+00 7.11431E-05-4.25103E+00 5.00896E-04-9.20078E-05
 -1     11721-1.39499E+01-2.00296E+00-1.17239E-04-8.54010E+00-3.57968E-04 2.18833E-04
 -1     11722-1.33800E+01-5.01928E-01-2.23579E-04-6.40560E+00-8.28818E-04-1.12476E-04
 -1     11723-1.39315E+01-5.88646E-01 1.81179E-04-8.09363E+00-5.22888E-04 1.18830E-05
 -1     11724-1.39106E+01-2.04118E+00-4.11130E-04-8.53894E+00-6.79469E-04 1.36861E-04
 -1     11725-1.33490E+01-5.31828E-01-6.63464E-04-6.41021E+00-7.23130E-04-4.96716E-05
 -1     11726-1.39005E+01-6.19147E-01-9.04105E-05-8.09176E+00-4.30792E-04 2.42232E-05
 -1     11727-1.38912E+01-2.05992E+00-7.08857E-04-8.53842E+00-3.35115E-04 2.97473E-05
 -1     11728-1.33387E+01-5.41662E-01-8.85001E-04-6.41176E+00 2.36377E-13 3.57924E-12
 -1     11729-1.38902E+01-6.29204E-01-2.10956E-04-8.09112E+00 1.04891E-12-4.11607E-13
 -1     11730-1.38912E+01-2.05992E+00-7.08857E-04-8.53842E+00 3.35115E-04-2.97473E-05
 -1     11731-1.33490E+01-5.31828E-01-6.63464E-04-6.41021E+00 7.23130E-04 4.96716E-05
 -1     11732-1.39005E+01-6.19147E-01-9.04105E-05-8.09176E+00 4.30792E-04-2.42232E-05
 -1     11733-1.39106E+01-2.04118E+00-4.11130E-04-8.53894E+00 6.79469E-04-1.36861E-04
 -1     11734-1.33800E+01-5.01928E-01-2.23579E-04-6.40560E+00 8.28818E-04 1.12476E-04
 -1     11735-1.39315E+01-5.88646E-01 1.81179E-04-8.09363E+00 5.22888E-04-1.18830E-05
 -1     11736-1.39499E+01-2.00296E+00-1.17239E-04-8.54010E+00 3.57968E-04-2.18833E-04
 -1     11737-1.28943E+01-6.82576E+00-2.53226E-04-1.21250E+01-3.70326E-04 4.00982E-04
 -1     11738-1.34016E+01-4.43552E+00-1.63836E-04-1.03333E+01-8.57426E-04 2.47753E-04
 -1     11739-1.26407E+01-5.20043E+00 1.09648E-04-1.17599E+01-5.53760E-04 2.86965E-04
 -1     11740-1.28650E+01-6.85364E+00-7.22454E-04-1.21112E+01-7.69508E-04 5.08244E-04
 -1     11741-1.33760E+01-4.45980E+00-6.83942E-04-1.03278E+01-7.16284E-04 2.52710E-04
 -1     11742-1.26176E+01-5.22265E+00-2.76744E-04-1.17481E+01-4.87627E-04 2.52121E-04
 -1     11743-1.28503E+01-6.86723E+00-1.17093E-03-1.21044E+01-3.81090E-04 2.10193E-04
 -1     11744-1.33675E+01-4.46778E+00-9.42878E-04-1.03259E+01-8.17318E-13 2.25533E-12
 -1     11745-1.26099E+01-5.22995E+00-4.56891E-04-1.17442E+01-1.53322E-13 6.85192E-12
 -1     11746-1.28503E+01-6.86723E+00-1.17093E-03-1.21044E+01 3.81090E-04-2.10193E-04
 -1     11747-1.33760E+01-4.45980E+00-6.83942E-04-1.03278E+01 7.16284E-04-2.52710E-04
 -1     11748-1.26176E+01-5.22265E+00-2.76744E-04-1.17481E+01 4.87627E-04-2.52121E-04
 -1     11749-1.28650E+01-6.85364E+00-7.22454E-04-1.21112E+01 7.69508E-04-5.08244E-04
 -1     11750-1.34016E+01-4.43552E+00-1.63836E-04-1.03333E+01 8.57426E-04-2.47753E-04
 -1     11751-1.26407E+01-5.20043E+00 1.09648E-04-1.17599E+01 5.53760E-04-2.86965E-04
 -1     11752-1.28943E+01-6.82576E+00-2.53226E-04-1.21250E+01 3.70326E-04-4.00982E-04
 -1     11753-1.02001E+01-1.27265E+01-3.67137E-04-1.42298E+01-4.20120E-04 6.17120E-04
 -1     11754-1.15301E+01-9.79160E+00-2.07179E-04-1.31686E+01-9.54528E-04 7.23046E-04
 -1     11755-9.75565E+00-1.09472E+01-3.54774E-05-1.39289E+01-6.07635E-04 5.92421E-04
 -1     11756-1.01830E+01-1.27416E+01-1.09260E-03-1.42080E+01-8.79259E-04 9.53035E-04
 -1     11757-1.15126E+01-9.80724E+00-9.33590E-04-1.31555E+01-7.93607E-04 6.49590E-04
 -1     11758-9.74238E+00-1.09592E+01-6.02132E-04-1.39109E+01-5.47937E-04 5.19713E-04
 -1     11759-1.01743E+01-1.27488E+01-1.73597E-03-1.41974E+01-4.29085E-04 4.24643E-04
 -1     11760-1.15067E+01-9.81235E+00-1.28510E-03-1.31511E+01-4.13170E-13 5.36957E-12
 -1     11761-9.73789E+00-1.09632E+01-8.66685E-04-1.39050E+01 1.24108E-12-3.74631E-15
 -1     11762-1.01743E+01-1.27488E+01-1.73597E-03-1.41974E+01 4.29085E-04-4.24643E-04
 -1     11763-1.15126E+01-9.80724E+00-9.33590E-04-1.31555E+01 7.93607E-04-6.49590E-04
 -1     11764-9.74238E+00-1.09592E+01-6.02132E-04-1.39109E+01 5.47937E-04-5.19713E-04
 -1     11765-1.01830E+01-1.27416E+01-1.09260E-03-1.42080E+01 8.79259E-04-9.53035E-04
 -1     11766-1.15301E+01-9.79160E+00-2.07179E-04-1.31686E+01 9.54528E-04-7.23046E-04
 -1     11767-9.75565E+00-1.09472E+01-3.54774E-05-1.39289E+01 6.07635E-04-5.92421E-04
 -1     11768-1.02001E+01-1.27265E+01-3.67137E-04-1.42298E+01 4.20120E-04-6.17120E-04
 -1     11769-6.59890E+00-1.89184E+01-4.42544E-04-1.44910E+01-4.34311E-04 8.30892E-04
 -1     11770-8.38981E+00-1.58291E+01-2.94211E-04-1.43458E+01-1.00304E-03 1.22397E-03
 -1     11771-6.01470E+00-1.70214E+01-1.87509E-04-1.42468E+01-6.01019E-04 8.82300E-04
 -1     11772-6.59431E+00-1.89206E+01-1.40751E-03-1.44663E+01-8.96735E-04 1.39047E-03
 -1     11773-8.38132E+00-1.58351E+01-1.26306E-03-1.43287E+01-8.34700E-04 1.06738E-03
 -1     11774-6.01139E+00-1.70231E+01-9.15527E-04-1.42267E+01-5.51199E-04 7.80257E-04
 -1     11775-6.59158E+00-1.89213E+01-2.22411E-03-1.44542E+01-4.32036E-04 6.33861E-04
 -1     11776-8.37835E+00-1.58370E+01-1.72212E-03-1.43230E+01 1.50030E-12 1.09856E-12
 -1     11777-6.01018E+00-1.70236E+01-1.25480E-03-1.42200E+01 4.58805E-13-3.69341E-13
 -1     11778-6.59158E+00-1.89213E+01-2.22411E-03-1.44542E+01 4.32036E-04-6.33861E-04
 -1     11779-8.38132E+00-1.58351E+01-1.26306E-03-1.43287E+01 8.34700E-04-1.06738E-03
 -1     11780-6.01139E+00-1.70231E+01-9.15527E-04-1.42267E+01 5.51199E-04-7.80257E-04
 -1     11781-6.59431E+00-1.89206E+01-1.40751E-03-1.44663E+01 8.96735E-04-1.39047E-03
 -1     11782-8.38981E+00-1.58291E+01-2.94211E-04-1.43458E+01 1.00304E-03-1.22397E-03
 -1     11783-6.01470E+00-1.70214E+01-1.87509E-04-1.42468E+01 6.01019E-04-8.82300E-04
 -1     11784-6.59890E+00-1.89184E+01-4.42544E-04-1.44910E+01 4.34311E-04-8.30892E-04
 -1     11785-2.84499E+00-2.46511E+01-4.87977E-04-1.28756E+01-3.90188E-04 1.01709E-03
 -1     11786-4.72058E+00-2.17823E+01-3.85228E-04-1.36673E+01-9.36173E-04 1.67253E-03
 -1     11787-2.16501E+00-2.26643E+01-3.04726E-04-1.26882E+01-5.18062E-04 1.12616E-03
 -1     11788-2.85166E+00-2.46416E+01-1.63806E-03-1.28526E+01-7.93915E-04 1.76609E-03
 -1     11789-4.72074E+00-2.17792E+01-1.56511E-03-1.36497E+01-7.81248E-04 1.44329E-03
 -1     11790-2.17069E+00-2.26567E+01-1.15868E-03-1.26696E+01-4.86575E-04 1.00221E-03
 -1     11791-2.85439E+00-2.46366E+01-2.58519E-03-1.28414E+01-3.79567E-04 8.12355E-04
 -1     11792-4.72059E+00-2.17780E+01-2.11845E-03-1.36440E+01 2.05310E-12-1.91844E-12
 -1     11793-2.17244E+00-2.26542E+01-1.55454E-03-1.26635E+01 2.04039E-12-4.24530E-13
 -1     11794-2.85439E+00-2.46366E+01-2.58519E-03-1.28414E+01 3.79567E-04-8.12355E-04
 -1     11795-4.72074E+00-2.17792E+01-1.56511E-03-1.36497E+01 7.81248E-04-1.44329E-03
 -1     11796-2.17069E+00-2.26567E+01-1.15868E-03-1.26696E+01 4.86575E-04-1.00221E-03
 -1     11797-2.85166E+00-2.46416E+01-1.63806E-03-1.28526E+01 7.93915E-04-1.76609E-03
 -1     11798-4.72058E+00-2.17823E+01-3.85228E-04-1.36673E+01 9.36173E-04-1.67253E-03
 -1     11799-2.16501E+00-2.26643E+01-3.04726E-04-1.26882E+01 5.18062E-04-1.12616E-03
 -1     11800-2.84499E+00-2.46511E+01-4.87977E-04-1.28756E+01 3.90188E-04-1.01709E-03
 -1     11801 3.83116E-01-2.92687E+01-5.11109E-04-9.60982E+00-2.91461E-04 1.15884E-03
 -1     11802-1.23687E+00-2.69499E+01-4.60026E-04-1.12289E+01-7.56587E-04 2.02806E-03
 -1     11803 1.12429E+00-2.72183E+01-3.82460E-04-9.48226E+00-3.66256E-04 1.30537E-03
 -1     11804 3.67484E-01-2.92499E+01-1.78854E-03-9.59233E+00-5.87271E-04 2.04788E-03
 -1     11805-1.24440E+00-2.69390E+01-1.79880E-03-1.12140E+01-6.30907E-04 1.74236E-03
 -1     11806 1.11147E+00-2.72034E+01-1.32250E-03-9.46817E+00-3.65419E-04 1.16906E-03
 -1     11807 3.60428E-01-2.92404E+01-2.82110E-03-9.58377E+00-2.80241E-04 9.46095E-04
 -1     11808-1.24666E+00-2.69353E+01-2.42358E-03-1.12091E+01 2.29795E-12-2.50799E-13
 -1     11809 1.10737E+00-2.71984E+01-1.75544E-03-9.46350E+00 1.01919E-12-2.06230E-12
 -1     11810 3.60428E-01-2.92404E+01-2.82110E-03-9.58377E+00 2.80241E-04-9.46095E-04
 -1     11811-1.24440E+00-2.69390E+01-1.79880E-03-1.12140E+01 6.30907E-04-1.74236E-03
 -1     11812 1.11147E+00-2.72034E+01-1.32250E-03-9.46817E+00 3.65419E-04-1.16906E-03
 -1     11813 3.67484E-01-2.92499E+01-1.78854E-03-9.59233E+00 5.87271E-04-2.04788E-03
 -1     11814-1.23687E+00-2.69499E+01-4.60026E-04-1.12289E+01 7.56587E-04-2.02806E-03
 -1     11815 1.12429E+00-2.72183E+01-3.82460E-04-9.48226E+00 3.66256E-04-1.30537E-03
 -1     11816 3.83116E-01-2.92687E+01-5.11109E-04-9.60982E+00 2.91461E-04-1.15884E-03
 -1     11817 2.54773E+00-3.22565E+01-5.18217E-04-5.12403E+00-1.52953E-04 1.24834E-03
 -1     11818 1.45427E+00-3.07473E+01-5.12346E-04-7.35777E+00-4.89974E-04 2.27291E-03
 -1     11819 3.32227E+00-3.01689E+01-4.27001E-04-5.05951E+00-1.64724E-04 1.41114E-03
 -1     11820 2.52634E+00-3.22318E+01-1.87476E-03-5.11479E+00-3.09111E-04 2.22345E-03
 -1     11821 1.44136E+00-3.07308E+01-1.95523E-03-7.34794E+00-4.04206E-04 1.94808E-03
 -1     11822 3.30487E+00-3.01492E+01-1.41889E-03-5.05209E+00-2.07072E-04 1.27571E-03
 -1     11823 2.51649E+00-3.22193E+01-2.95217E-03-5.11027E+00-1.49108E-04 1.03035E-03
 -1     11824 1.43736E+00-3.07252E+01-2.62741E-03-7.34471E+00 1.42188E-12 1.24932E-12
 -1     11825 3.29924E+00-3.01427E+01-1.87188E-03-5.04961E+00 1.43540E-12 2.53106E-12
 -1     11826 2.51649E+00-3.22193E+01-2.95217E-03-5.11027E+00 1.49108E-04-1.03035E-03
 -1     11827 1.44136E+00-3.07308E+01-1.95523E-03-7.34794E+00 4.04206E-04-1.94808E-03
 -1     11828 3.30487E+00-3.01492E+01-1.41889E-03-5.05209E+00 2.07072E-04-1.27571E-03
 -1     11829 2.52634E+00-3.22318E+01-1.87476E-03-5.11479E+00 3.09111E-04-2.22345E-03
 -1     11830 1.45427E+00-3.07473E+01-5.12346E-04-7.35777E+00 4.89974E-04-2.27291E-03
 -1     11831 3.32227E+00-3.01689E+01-4.27001E-04-5.05951E+00 1.64724E-04-1.41114E-03
 -1     11832 2.54773E+00-3.22565E+01-5.18217E-04-5.12403E+00 1.52953E-04-1.24834E-03
 -1     11833 3.30459E+00-3.32890E+01-5.12790E-04 3.90028E-03 7.85804E-06 1.28347E-03
 -1     11834 2.91230E+00-3.27548E+01-5.42207E-04-2.55692E+00-1.70101E-04 2.40409E-03
 -1     11835 4.08835E+00-3.11908E+01-4.48230E-04 2.74008E-03 6.58934E-05 1.44018E-03
 -1     11836 3.28120E+00-3.32623E+01-1.91243E-03 3.43923E-03 6.33887E-06 2.29191E-03
 -1     11837 2.89657E+00-3.27354E+01-2.04061E-03-2.55369E+00-1.29401E-04 2.05608E-03
 -1     11838 4.06938E+00-3.11695E+01-1.46426E-03 2.37615E-03-3.13128E-05 1.32389E-03
 -1     11839 3.27040E+00-3.32488E+01-2.99900E-03 3.22230E-03-1.75104E-06 1.06565E-03
 -1     11840 2.89165E+00-3.27288E+01-2.73879E-03-2.55264E+00 1.53438E-12 1.62038E-12
 -1     11841 4.06321E+00-3.11625E+01-1.92300E-03 2.30339E-03 1.76026E-12 1.10804E-12
 -1     11842 3.27040E+00-3.32488E+01-2.99900E-03 3.22230E-03 1.75105E-06-1.06565E-03
 -1     11843 2.89657E+00-3.27354E+01-2.04061E-03-2.55369E+00 1.29401E-04-2.05608E-03
 -1     11844 4.06938E+00-3.11695E+01-1.46426E-03 2.37615E-03 3.13128E-05-1.32389E-03
 -1     11845 3.28120E+00-3.32623E+01-1.91243E-03 3.43923E-03-6.33887E-06-2.29191E-03
 -1     11846 2.91230E+00-3.27548E+01-5.42207E-04-2.55692E+00 1.70101E-04-2.40409E-03
 -1     11847 4.08835E+00-3.11908E+01-4.48230E-04 2.74008E-03-6.58934E-05-1.44018E-03
 -1     11848 3.30459E+00-3.32890E+01-5.12790E-04 3.90028E-03-7.85804E-06-1.28347E-03
 -1     11849 2.54062E+00-3.22691E+01-4.96450E-04 5.12030E+00 1.74597E-04 1.26572E-03
 -1     11850 2.90863E+00-3.27612E+01-5.52001E-04 2.55890E+00 1.70133E-04 2.42662E-03
 -1     11851 3.31144E+00-3.01871E+01-4.55289E-04 5.05086E+00 3.06599E-04 1.39191E-03
 -1     11852 2.51916E+00-3.22443E+01-1.91460E-03 5.11018E+00 3.28402E-04 2.25889E-03
 -1     11853 2.89289E+00-3.27417E+01-2.06468E-03 2.55502E+00 1.65342E-04 2.06870E-03
 -1     11854 3.29405E+00-3.01674E+01-1.47375E-03 5.04275E+00 1.44284E-04 1.31942E-03
 -1     11855 2.50932E+00-3.22318E+01-2.97765E-03 5.10524E+00 1.47850E-04 1.05552E-03
 -1     11856 2.88798E+00-3.27351E+01-2.77086E-03 2.55373E+00 1.36135E-12-2.78641E-13
 -1     11857 3.28837E+00-3.01609E+01-1.92624E-03 5.04014E+00-1.40946E-13-1.02666E-12
 -1     11858 2.50932E+00-3.22318E+01-2.97765E-03 5.10524E+00-1.47850E-04-1.05552E-03
 -1     11859 2.89289E+00-3.27417E+01-2.06468E-03 2.55502E+00-1.65342E-04-2.06870E-03
 -1     11860 3.29405E+00-3.01674E+01-1.47375E-03 5.04275E+00-1.44284E-04-1.31942E-03
 -1     11861 2.51916E+00-3.22443E+01-1.91460E-03 5.11018E+00-3.28402E-04-2.25889E-03
 -1     11862 2.90863E+00-3.27612E+01-5.52001E-04 2.55890E+00-1.70133E-04-2.42662E-03
 -1     11863 3.31144E+00-3.01871E+01-4.55289E-04 5.05086E+00-3.06599E-04-1.39191E-03
 -1     11864 2.54062E+00-3.22691E+01-4.96450E-04 5.12030E+00-1.74597E-04-1.26572E-03
 -1     11865 3.87014E-01-2.93440E+01-4.69048E-04 9.58126E+00 3.32615E-04 1.19833E-03
 -1     11866 1.45214E+00-3.07911E+01-5.43689E-04 7.34184E+00 5.00979E-04 2.35064E-03
 -1     11867 1.12447E+00-2.73058E+01-4.56536E-04 9.44030E+00 5.40666E-04 1.26638E-03
 -1     11868 3.71076E-01-2.93249E+01-1.89199E-03 9.56295E+00 6.31078E-04 2.13344E-03
 -1     11869 1.43913E+00-3.07744E+01-2.03586E-03 7.33140E+00 4.54369E-04 1.99254E-03
 -1     11870 1.11153E+00-2.72906E+01-1.46086E-03 9.42564E+00 3.04977E-04 1.27103E-03
 -1     11871 3.63923E-01-2.93151E+01-2.90034E-03 9.55404E+00 2.87663E-04 1.00517E-03
 -1     11872 1.43513E+00-3.07687E+01-2.73508E-03 7.32796E+00 3.91848E-13-5.04622E-13
 -1     11873 1.10725E+00-2.72855E+01-1.89727E-03 9.42089E+00 6.51439E-13-7.02259E-13
 -1     11874 3.63923E-01-2.93151E+01-2.90034E-03 9.55404E+00-2.87663E-04-1.00517E-03
 -1     11875 1.43913E+00-3.07744E+01-2.03586E-03 7.33140E+00-4.54369E-04-1.99254E-03
 -1     11876 1.11153E+00-2.72906E+01-1.46086E-03 9.42564E+00-3.04977E-04-1.27103E-03
 -1     11877 3.71076E-01-2.93249E+01-1.89199E-03 9.56295E+00-6.31078E-04-2.13344E-03
 -1     11878 1.45214E+00-3.07911E+01-5.43689E-04 7.34184E+00-5.00979E-04-2.35064E-03
 -1     11879 1.12447E+00-2.73058E+01-4.56536E-04 9.44030E+00-5.40666E-04-1.26638E-03
 -1     11880 3.87014E-01-2.93440E+01-4.69048E-04 9.58126E+00-3.32615E-04-1.19833E-03
 -1     11881-2.80016E+00-2.48896E+01-4.31823E-04 1.28419E+01 4.69434E-04 1.08572E-03
 -1     11882-1.21402E+00-2.71057E+01-5.18193E-04 1.11983E+01 7.96978E-04 2.19127E-03
 -1     11883-2.11400E+00-2.29237E+01-4.60211E-04 1.26254E+01 7.54779E-04 1.06292E-03
 -1     11884-2.80786E+00-2.48789E+01-1.85734E-03 1.28182E+01 8.94138E-04 1.92560E-03
 -1     11885-1.22200E+00-2.70942E+01-1.95932E-03 1.11829E+01 7.15242E-04 1.83761E-03
 -1     11886-2.12029E+00-2.29152E+01-1.43876E-03 1.26064E+01 4.40712E-04 1.18919E-03
 -1     11887-2.81100E+00-2.48731E+01-2.78076E-03 1.28066E+01 4.08003E-04 9.20741E-04
 -1     11888-1.22433E+00-2.70902E+01-2.63871E-03 1.11778E+01 1.24464E-12-9.38409E-13
 -1     11889-2.12249E+00-2.29124E+01-1.85268E-03 1.26002E+01 9.00136E-13-9.56006E-13
 -1     11890-2.81100E+00-2.48731E+01-2.78076E-03 1.28066E+01-4.08003E-04-9.20741E-04
 -1     11891-1.22200E+00-2.70942E+01-1.95932E-03 1.11829E+01-7.15242E-04-1.83761E-03
 -1     11892-2.12029E+00-2.29152E+01-1.43876E-03 1.26064E+01-4.40712E-04-1.18919E-03
 -1     11893-2.80786E+00-2.48789E+01-1.85734E-03 1.28182E+01-8.94138E-04-1.92560E-03
 -1     11894-1.21402E+00-2.71057E+01-5.18193E-04 1.11983E+01-7.96978E-04-2.19127E-03
 -1     11895-2.11400E+00-2.29237E+01-4.60211E-04 1.26254E+01-7.54779E-04-1.06292E-03
 -1     11896-2.80016E+00-2.48896E+01-4.31823E-04 1.28419E+01-4.69434E-04-1.08572E-03
 -1     11897-6.49283E+00-1.94593E+01-3.80029E-04 1.45353E+01 5.69910E-04 9.32231E-04
 -1     11898-4.64850E+00-2.21688E+01-4.72162E-04 1.36729E+01 1.03636E-03 1.96844E-03
 -1     11899-5.87230E+00-1.75959E+01-4.77393E-04 1.42390E+01 9.34405E-04 7.76804E-04
 -1     11900-6.49085E+00-1.94585E+01-1.82230E-03 1.45097E+01 1.10060E-03 1.64296E-03
 -1     11901-4.64994E+00-2.21640E+01-1.83540E-03 1.36548E+01 9.28016E-04 1.61849E-03
 -1     11902-5.87074E+00-1.75953E+01-1.42502E-03 1.42185E+01 5.45141E-04 1.08384E-03
 -1     11903-6.48927E+00-1.94576E+01-2.63673E-03 1.44973E+01 5.00833E-04 8.07863E-04
 -1     11904-4.65010E+00-2.21623E+01-2.48303E-03 1.36489E+01 9.37677E-13-6.90088E-13
 -1     11905-5.87051E+00-1.75950E+01-1.81701E-03 1.42118E+01 7.96189E-13-7.08151E-13
 -1     11906-6.48927E+00-1.94576E+01-2.63673E-03 1.44973E+01-5.00833E-04-8.07863E-04
 -1     11907-4.64994E+00-2.21640E+01-1.83540E-03 1.36548E+01-9.28016E-04-1.61849E-03
 -1     11908-5.87074E+00-1.75953E+01-1.42502E-03 1.42185E+01-5.45141E-04-1.08384E-03
 -1     11909-6.49085E+00-1.94585E+01-1.82230E-03 1.45097E+01-1.10060E-03-1.64296E-03
 -1     11910-4.64850E+00-2.21688E+01-4.72162E-04 1.36729E+01-1.03636E-03-1.96844E-03
 -1     11911-5.87230E+00-1.75959E+01-4.77393E-04 1.42390E+01-9.34405E-04-7.76804E-04
 -1     11912-6.49283E+00-1.94593E+01-3.80029E-04 1.45353E+01-5.69910E-04-9.32231E-04
 -1     11913-1.00716E+01-1.37045E+01-3.21126E-04 1.45265E+01 6.20376E-04 7.43498E-04
 -1     11914-8.27840E+00-1.65820E+01-4.00940E-04 1.45148E+01 1.20526E-03 1.70939E-03
 -1     11915-9.52639E+00-1.19755E+01-5.18612E-04 1.41468E+01 1.07541E-03 3.96845E-04
 -1     11916-1.00600E+01-1.37136E+01-1.81451E-03 1.45029E+01 1.24076E-03 1.27517E-03
 -1     11917-8.27284E+00-1.65845E+01-1.65529E-03 1.44968E+01 1.07546E-03 1.35444E-03
 -1     11918-9.51696E+00-1.19827E+01-1.43652E-03 1.41280E+01 6.27780E-04 9.51693E-04
 -1     11919-1.00537E+01-1.37175E+01-2.51200E-03 1.44915E+01 5.62091E-04 6.63827E-04
 -1     11920-8.27068E+00-1.65852E+01-2.25655E-03 1.44909E+01 7.50689E-13-6.22772E-13
 -1     11921-9.51434E+00-1.19850E+01-1.82377E-03 1.41218E+01 3.67150E-13-7.37985E-13
 -1     11922-1.00537E+01-1.37175E+01-2.51200E-03 1.44915E+01-5.62091E-04-6.63827E-04
 -1     11923-8.27284E+00-1.65845E+01-1.65529E-03 1.44968E+01-1.07546E-03-1.35444E-03
 -1     11924-9.51696E+00-1.19827E+01-1.43652E-03 1.41280E+01-6.27780E-04-9.51693E-04
 -1     11925-1.00600E+01-1.37136E+01-1.81451E-03 1.45029E+01-1.24076E-03-1.27517E-03
 -1     11926-8.27840E+00-1.65820E+01-4.00940E-04 1.45148E+01-1.20526E-03-1.70939E-03
 -1     11927-9.52639E+00-1.19755E+01-5.18612E-04 1.41468E+01-1.07541E-03-3.96845E-04
 -1     11928-1.00716E+01-1.37045E+01-3.21126E-04 1.45265E+01-6.20376E-04-7.43498E-04
 -1     11929-1.29222E+01-8.27730E+00-2.25794E-04 1.29307E+01 5.74895E-04 5.41199E-04
 -1     11930-1.14876E+01-1.09961E+01-2.83300E-04 1.37140E+01 1.28695E-03 1.44480E-03
 -1     11931-1.24577E+01-6.71475E+00-5.98215E-04 1.24671E+01 1.12987E-03-1.11165E-04
 -1     11932-1.29026E+01-8.29491E+00-1.84304E-03 1.29129E+01 1.27959E-03 8.00907E-04
 -1     11933-1.14757E+01-1.10053E+01-1.40039E-03 1.36989E+01 1.13921E-03 1.08215E-03
 -1     11934-1.24415E+01-6.72854E+00-1.51208E-03 1.24528E+01 6.85654E-04 7.58710E-04
 -1     11935-1.28922E+01-8.30293E+00-2.48456E-03 1.29043E+01 5.80176E-04 4.75849E-04
 -1     11936-1.14714E+01-1.10082E+01-1.93325E-03 1.36940E+01 2.02913E-13-9.25879E-13
 -1     11937-1.24369E+01-6.73320E+00-1.94704E-03 1.24481E+01 6.33412E-14-9.84085E-13
 -1     11938-1.28922E+01-8.30293E+00-2.48456E-03 1.29043E+01-5.80176E-04-4.75849E-04
 -1     11939-1.14757E+01-1.10053E+01-1.40039E-03 1.36989E+01-1.13921E-03-1.08215E-03
 -1     11940-1.24415E+01-6.72854E+00-1.51208E-03 1.24528E+01-6.85654E-04-7.58710E-04
 -1     11941-1.29026E+01-8.29491E+00-1.84304E-03 1.29129E+01-1.27959E-03-8.00907E-04
 -1     11942-1.14876E+01-1.09961E+01-2.83300E-04 1.37140E+01-1.28695E-03-1.44480E-03
 -1     11943-1.24577E+01-6.71475E+00-5.98215E-04 1.24671E+01-1.12987E-03 1.11165E-04
 -1     11944-1.29222E+01-8.27730E+00-2.25794E-04 1.29307E+01-5.74895E-04-5.41199E-04
 -1     11945-1.45334E+01-3.72626E+00-5.97370E-05 1.00893E+01 3.94649E-04 3.95996E-04
 -1     11946-1.37136E+01-6.01083E+00-8.51141E-05 1.14979E+01 1.30709E-03 1.21444E-03
 -1     11947-1.41519E+01-2.36205E+00-6.99130E-04 9.54624E+00 1.10976E-03-7.80913E-04
 -1     11948-1.45087E+01-3.74992E+00-1.88935E-03 1.00803E+01 1.13101E-03 1.04056E-04
 -1     11949-1.36971E+01-6.02528E+00-9.76956E-04 1.14880E+01 1.11008E-03 8.48611E-04
 -1     11950-1.41305E+01-2.38022E+00-1.61865E-03 9.53870E+00 7.58192E-04 3.40174E-04
 -1     11951-1.44956E+01-3.76079E+00-2.64078E-03 1.00760E+01 5.21919E-04 1.65684E-04
 -1     11952-1.36914E+01-6.02987E+00-1.39056E-03 1.14848E+01-2.53157E-13-7.47070E-13
 -1     11953-1.41245E+01-2.38651E+00-2.23022E-03 9.53618E+00-5.34663E-13-6.45517E-13
 -1     11954-1.44956E+01-3.76079E+00-2.64078E-03 1.00760E+01-5.21919E-04-1.65684E-04
 -1     11955-1.36971E+01-6.02528E+00-9.76956E-04 1.14880E+01-1.11008E-03-8.48611E-04
 -1     11956-1.41305E+01-2.38022E+00-1.61865E-03 9.53870E+00-7.58192E-04-3.40174E-04
 -1     11957-1.45087E+01-3.74992E+00-1.88935E-03 1.00803E+01-1.13101E-03-1.04056E-04
 -1     11958-1.37136E+01-6.01083E+00-8.51141E-05 1.14979E+01-1.30709E-03-1.21444E-03
 -1     11959-1.41519E+01-2.36205E+00-6.99130E-04 9.54624E+00-1.10976E-03 7.80913E-04
 -1     11960-1.45334E+01-3.72626E+00-5.97370E-05 1.00893E+01-3.94649E-04-3.95996E-04
 -1     11961-1.45686E+01-4.19842E-01 2.74104E-05 6.49989E+00-3.73524E-05 7.30118E-04
 -1     11962-1.45314E+01-2.08417E+00 1.43964E-04 8.28571E+00 1.18717E-03 9.67844E-04
 -1     11963-1.42802E+01 7.25930E-01-5.57549E-04 5.88762E+00 4.82413E-04-1.64877E-03
 -1     11964-1.45436E+01-4.45727E-01-2.05263E-03 6.50204E+00 5.27121E-04-4.92751E-04
 -1     11965-1.45129E+01-2.10156E+00-4.74184E-04 8.28269E+00 9.80316E-04 7.53319E-04
 -1     11966-1.42557E+01 7.06326E-01-1.64869E-03 5.88875E+00 5.43171E-04-5.63222E-04
 -1     11967-1.45296E+01-4.57785E-01-3.42720E-03 6.50337E+00 2.57861E-04-2.03847E-04
 -1     11968-1.45065E+01-2.10711E+00-6.82500E-04 8.28175E+00-5.50838E-13-2.59288E-13
 -1     11969-1.42488E+01 6.99280E-01-2.68872E-03 5.88908E+00-8.57672E-13-1.85274E-13
 -1     11970-1.45296E+01-4.57785E-01-3.42720E-03 6.50337E+00-2.57861E-04 2.03847E-04
 -1     11971-1.45129E+01-2.10156E+00-4.74184E-04 8.28269E+00-9.80316E-04-7.53319E-04
 -1     11972-1.42557E+01 7.06326E-01-1.64869E-03 5.88875E+00-5.43171E-04 5.63222E-04
 -1     11973-1.45436E+01-4.45727E-01-2.05263E-03 6.50204E+00-5.27121E-04 4.92751E-04
 -1     11974-1.45314E+01-2.08417E+00 1.43964E-04 8.28571E+00-1.18717E-03-9.67844E-04
 -1     11975-1.42802E+01 7.25930E-01-5.57549E-04 5.88762E+00-4.82413E-04 1.64877E-03
 -1     11976-1.45686E+01-4.19842E-01 2.74104E-05 6.49989E+00 3.73524E-05-7.30118E-04
 -1     11977-1.29078E+01 1.54291E+00 2.12898E-03 2.70380E+00 7.39068E-05 2.76011E-03
 -1     11978-1.37119E+01 5.45104E-01 9.67537E-04 4.59516E+00 1.27850E-03 4.28137E-04
 -1     11979-1.27358E+01 2.44211E+00 5.66561E-04 2.04529E+00-1.50777E-04-1.32276E-03
 -1     11980-1.28884E+01 1.51680E+00 6.33533E-04 2.71785E+00-4.47143E-04-9.54783E-05
 -1     11981-1.36936E+01 5.26695E-01 9.87691E-04 4.60037E+00 9.12455E-04 6.55003E-04
 -1     11982-1.27101E+01 2.42407E+00-1.90312E-04 2.05686E+00 8.12896E-05-2.11251E-03
 -1     11983-1.28766E+01 1.50470E+00-1.39967E-03 2.72581E+00-3.24116E-04-4.30973E-04
 -1     11984-1.36875E+01 5.20681E-01 1.15600E-03 4.60203E+00-8.64718E-13 2.12974E-13
 -1     11985-1.27021E+01 2.41737E+00-2.01112E-03 2.06083E+00-1.27204E-12 2.85914E-13
 -1     11986-1.28766E+01 1.50470E+00-1.39967E-03 2.72581E+00 3.24116E-04 4.30973E-04
 -1     11987-1.36936E+01 5.26695E-01 9.87691E-04 4.60037E+00-9.12455E-04-6.55003E-04
 -1     11988-1.27101E+01 2.42407E+00-1.90312E-04 2.05686E+00-8.12896E-05 2.11251E-03
 -1     11989-1.28884E+01 1.51680E+00 6.33533E-04 2.71785E+00 4.47143E-04 9.54783E-05
 -1     11990-1.37119E+01 5.45104E-01 9.67537E-04 4.59516E+00-1.27850E-03-4.28137E-04
 -1     11991-1.27358E+01 2.44211E+00 5.66561E-04 2.04529E+00 1.50777E-04 1.32276E-03
 -1     11992-1.29078E+01 1.54291E+00 2.12898E-03 2.70380E+00-7.39068E-05-2.76011E-03
 -1     11993-9.58677E+00 2.18705E+00-4.44752E-03-8.19293E-01 4.96673E-03 6.63279E-03
 -1     11994-1.12056E+01 1.84290E+00-1.68188E-03 9.47522E-01-1.46252E-03-1.82759E-03
 -1     11995-9.62679E+00 2.91318E+00 1.11192E-02-1.52236E+00-4.50031E-04 3.62016E-03
 -1     11996-9.57373E+00 2.16663E+00-3.88673E-03-7.96627E-01 5.53260E-03 3.72405E-03
 -1     11997-1.11874E+01 1.82513E+00-1.24483E-03 9.65081E-01-5.85957E-04-6.20165E-05
 -1     11998-9.60728E+00 2.90051E+00 1.09885E-02-1.50275E+00 4.79741E-04-1.73546E-03
 -1     11999-9.56706E+00 2.15726E+00-7.42179E-03-7.85525E-01 1.85492E-03 6.73950E-04
 -1     12000-1.11819E+01 1.81895E+00-5.86055E-04 9.70510E-01-1.29016E-12 1.06329E-12
 -1     12001-9.59837E+00 2.89665E+00 8.70154E-03-1.49579E+00-1.63628E-12 1.13950E-12
 -1     12002-9.56706E+00 2.15726E+00-7.42179E-03-7.85525E-01-1.85492E-03-6.73950E-04
 -1     12003-1.11874E+01 1.82513E+00-1.24483E-03 9.65081E-01 5.85957E-04 6.20165E-05
 -1     12004-9.60728E+00 2.90051E+00 1.09885E-02-1.50275E+00-4.79741E-04 1.73546E-03
 -1     12005-9.57373E+00 2.16663E+00-3.88673E-03-7.96627E-01-5.53260E-03-3.72405E-03
 -1     12006-1.12056E+01 1.84290E+00-1.68188E-03 9.47522E-01 1.46252E-03 1.82759E-03
 -1     12007-9.62679E+00 2.91318E+00 1.11192E-02-1.52236E+00 4.50031E-04-3.62016E-03
 -1     12008-9.58677E+00 2.18705E+00-4.44752E-03-8.19293E-01-4.96673E-03-6.63279E-03
 -1     12009-4.69230E+00 2.22448E+00 4.21505E-02-4.14079E+00 2.65224E-03 8.91081E-03
 -1     12010-7.16539E+00 2.06241E+00 8.42622E-03-2.31638E+00-2.32903E-03-5.43379E-03
 -1     12011-5.26263E+00 2.63598E+00 7.65226E-02-4.63695E+00 2.04685E-02 4.98634E-02
 -1     12012-4.63992E+00 2.17746E+00 5.84935E-02-4.01789E+00 1.27207E-02 6.64921E-03
 -1     12013-7.14990E+00 2.04798E+00 9.28267E-03-2.27108E+00-3.12718E-03-2.28026E-03
 -1     12014-5.25868E+00 2.58440E+00 9.87104E-02-4.57887E+00 1.56418E-02 2.81721E-02
 -1     12015-4.62202E+00 2.14740E+00 6.77814E-02-3.97598E+00 6.53134E-03 1.74440E-03
 -1     12016-7.14522E+00 2.04166E+00 1.00670E-02-2.25573E+00-1.81383E-12 2.38847E-12
 -1     12017-5.25574E+00 2.56786E+00 1.05977E-01-4.56388E+00-2.55655E-12 2.90178E-12
 -1     12018-4.62202E+00 2.14740E+00 6.77814E-02-3.97598E+00-6.53134E-03-1.74440E-03
 -1     12019-7.14990E+00 2.04798E+00 9.28267E-03-2.27108E+00 3.12718E-03 2.28026E-03
 -1     12020-5.25868E+00 2.58440E+00 9.87104E-02-4.57887E+00-1.56418E-02-2.81721E-02
 -1     12021-4.63992E+00 2.17746E+00 5.84935E-02-4.01789E+00-1.27207E-02-6.64921E-03
 -1     12022-7.16539E+00 2.06241E+00 8.42622E-03-2.31638E+00 2.32903E-03 5.43379E-03
 -1     12023-5.26263E+00 2.63598E+00 7.65226E-02-4.63695E+00-2.04685E-02-4.98634E-02
 -1     12024-4.69230E+00 2.22448E+00 4.21505E-02-4.14079E+00-2.65224E-03-8.91081E-03
 -1     12025-2.75568E+00 1.30330E+00-7.45682E-02-4.45685E+00 5.29607E-02-2.34191E-03
 -1     12026-2.70810E+00 1.26423E+00-8.41422E-02-4.46394E+00 4.02740E-02-2.00178E-03
 -1     12027-2.69270E+00 1.25331E+00-8.99903E-02-4.46693E+00-1.68097E-12 4.14420E-12
 -1     12028-2.70810E+00 1.26423E+00-8.41422E-02-4.46394E+00-4.02740E-02 2.00178E-03
 -1     12029-2.75568E+00 1.30330E+00-7.45682E-02-4.45685E+00-5.29607E-02 2.34191E-03
 -1     12030-6.72256E-01-9.21886E-02-1.91533E-03 3.63540E-01-8.81015E-03 3.16745E-03
 -1     12031-2.38802E-01-4.40593E-02-3.74964E-03 4.23635E-02 8.05130E-03 3.34407E-03
 -1     12032-9.69200E-01-2.65696E-01-3.42229E-03 6.91254E-01-1.18999E-02 3.78817E-03
 -1     12033-6.57242E-01-8.99205E-02-2.01670E-03 3.88456E-01-1.17603E-02 5.46437E-03
 -1     12034-2.36823E-01-3.71665E-02-8.25518E-03 6.06884E-02 5.79807E-03 3.70567E-03
 -1     12035-9.63742E-01-2.62232E-01-5.35858E-03 7.06654E-01-8.07748E-03 3.00041E-03
 -1     12036-6.48870E-01-8.80855E-02-1.03598E-03 3.99488E-01-4.69533E-03 2.56739E-03
 -1     12037-2.35803E-01-3.45019E-02-9.93428E-03 6.51493E-02 4.12733E-13 2.08230E-12
 -1     12038-9.62004E-01-2.60778E-01-5.93122E-03 7.11265E-01-1.10405E-14-1.58636E-12
 -1     12039-6.48870E-01-8.80855E-02-1.03598E-03 3.99488E-01 4.69533E-03-2.56739E-03
 -1     12040-2.36823E-01-3.71665E-02-8.25518E-03 6.06884E-02-5.79807E-03-3.70567E-03
 -1     12041-9.63742E-01-2.62232E-01-5.35858E-03 7.06654E-01 8.07748E-03-3.00041E-03
 -1     12042-6.57242E-01-8.99205E-02-2.01670E-03 3.88456E-01 1.17603E-02-5.46437E-03
 -1     12043-2.38802E-01-4.40593E-02-3.74964E-03 4.23635E-02-8.05130E-03-3.34407E-03
 -1     12044-9.69200E-01-2.65696E-01-3.42229E-03 6.91254E-01 1.18999E-02-3.78817E-03
 -1     12045-6.72256E-01-9.21886E-02-1.91533E-03 3.63540E-01 8.81015E-03-3.16745E-03
 -1     12046-4.06720E+00 5.42584E-01-2.71906E-03 4.18816E-01-4.42546E-03-5.42324E-04
 -1     12047-2.30962E+00 2.30216E-01-2.14190E-04 4.59698E-01-9.22703E-03 9.68860E-04
 -1     12048-4.57275E+00 7.65915E-01-3.20687E-03 9.60411E-01-5.24075E-03-1.75441E-03
 -1     12049-4.03268E+00 5.22604E-01-5.11480E-03 4.01043E-01-7.04630E-03-2.21230E-03
 -1     12050-2.28918E+00 2.25107E-01-1.71194E-03 4.58997E-01-6.27431E-03 5.19441E-04
 -1     12051-4.54938E+00 7.52059E-01-4.67398E-03 9.47280E-01-4.27540E-03-1.71885E-03
 -1     12052-4.01547E+00 5.15199E-01-6.07241E-03 3.93719E-01-2.98928E-03-1.20471E-03
 -1     12053-2.28255E+00 2.23966E-01-1.78737E-03 4.58904E-01 2.66575E-12-7.12220E-12
 -1     12054-4.54183E+00 7.47795E-01-5.30283E-03 9.42905E-01 1.55420E-12-4.73825E-12
 -1     12055-4.01547E+00 5.15199E-01-6.07241E-03 3.93719E-01 2.98928E-03 1.20471E-03
 -1     12056-2.28918E+00 2.25107E-01-1.71194E-03 4.58997E-01 6.27431E-03-5.19441E-04
 -1     12057-4.54938E+00 7.52059E-01-4.67398E-03 9.47280E-01 4.27540E-03 1.71885E-03
 -1     12058-4.03268E+00 5.22604E-01-5.11480E-03 4.01043E-01 7.04630E-03 2.21229E-03
 -1     12059-2.30962E+00 2.30216E-01-2.14190E-04 4.59698E-01 9.22703E-03-9.68860E-04
 -1     12060-4.57275E+00 7.65915E-01-3.20687E-03 9.60411E-01 5.24075E-03 1.75441E-03
 -1     12061-4.06720E+00 5.42584E-01-2.71906E-03 4.18816E-01 4.42546E-03 5.42324E-04
 -1     12062-8.61942E+00 4.62998E-01-1.31156E-03-1.69305E+00-2.67404E-03-4.85022E-04
 -1     12063-6.33172E+00 5.00943E-01-6.42036E-04-6.18436E-01-5.41533E-03-6.99638E-04
 -1     12064-9.07847E+00 1.17333E+00-1.54064E-03-1.08834E+00-3.51663E-03-1.75655E-03
 -1     12065-8.57977E+00 4.30890E-01-2.59602E-03-1.71579E+00-4.47421E-03-2.44992E-03
 -1     12066-6.30547E+00 4.84449E-01-2.15981E-03-6.32486E-01-4.70614E-03-2.20300E-03
 -1     12067-9.04949E+00 1.14893E+00-2.44101E-03-1.10512E+00-2.78797E-03-1.86865E-03
 -1     12068-8.56140E+00 4.17300E-01-3.15131E-03-1.72563E+00-2.01515E-03-1.42130E-03
 -1     12069-6.29711E+00 4.79828E-01-2.60985E-03-6.36451E-01-6.17879E-15-2.94649E-12
 -1     12070-9.04013E+00 1.14113E+00-2.78325E-03-1.11059E+00-3.63950E-12-2.44743E-13
 -1     12071-8.56140E+00 4.17300E-01-3.15131E-03-1.72563E+00 2.01515E-03 1.42130E-03
 -1     12072-6.30547E+00 4.84449E-01-2.15981E-03-6.32486E-01 4.70614E-03 2.20300E-03
 -1     12073-9.04949E+00 1.14893E+00-2.44101E-03-1.10512E+00 2.78797E-03 1.86865E-03
 -1     12074-8.57977E+00 4.30890E-01-2.59602E-03-1.71579E+00 4.47421E-03 2.44992E-03
 -1     12075-6.33172E+00 5.00943E-01-6.42036E-04-6.18436E-01 5.41533E-03 6.99638E-04
 -1     12076-9.07847E+00 1.17333E+00-1.54064E-03-1.08834E+00 3.51663E-03 1.75655E-03
 -1     12077-8.61942E+00 4.62998E-01-1.31156E-03-1.69305E+00 2.67404E-03 4.85022E-04
 -1     12078-1.22567E+01-1.25646E+00-5.77849E-04-5.36860E+00-1.58079E-03-2.79831E-04
 -1     12079-1.04387E+01-3.98484E-01-4.96226E-04-3.53261E+00-3.47590E-03-9.35891E-04
 -1     12080-1.25211E+01-1.36525E-01-4.96631E-04-4.81933E+00-2.23752E-03-1.46563E-03
 -1     12081-1.22167E+01-1.29239E+00-1.30061E-03-5.38272E+00-3.14838E-03-1.86400E-03
 -1     12082-1.04108E+01-4.21248E-01-1.61156E-03-3.54511E+00-3.48494E-03-2.38882E-03
 -1     12083-1.24911E+01-1.64238E-01-1.03268E-03-4.82909E+00-2.01030E-03-1.57306E-03
 -1     12084-1.21985E+01-1.30803E+00-1.80672E-03-5.38889E+00-1.53611E-03-1.13602E-03
 -1     12085-1.04021E+01-4.27893E-01-2.01301E-03-3.54867E+00-2.28503E-12 6.27312E-12
 -1     12086-1.24813E+01-1.73137E-01-1.24892E-03-4.83224E+00-3.48131E-12 7.51924E-12
 -1     12087-1.21985E+01-1.30803E+00-1.80672E-03-5.38889E+00 1.53611E-03 1.13602E-03
 -1     12088-1.04108E+01-4.21248E-01-1.61156E-03-3.54511E+00 3.48494E-03 2.38882E-03
 -1     12089-1.24911E+01-1.64238E-01-1.03268E-03-4.82909E+00 2.01030E-03 1.57306E-03
 -1     12090-1.22167E+01-1.29239E+00-1.30061E-03-5.38272E+00 3.14838E-03 1.86400E-03
 -1     12091-1.04387E+01-3.98484E-01-4.96226E-04-3.53261E+00 3.47590E-03 9.35891E-04
 -1     12092-1.25211E+01-1.36525E-01-4.96631E-04-4.81933E+00 2.23752E-03 1.46563E-03
 -1     12093-1.22567E+01-1.25646E+00-5.77849E-04-5.36860E+00 1.58079E-03 2.79831E-04
 -1     12094-1.38630E+01-4.87951E+00-7.38419E-05-9.45212E+00-1.33922E-03 3.02717E-04
 -1     12095-1.30589E+01-3.07448E+00-8.19894E-04-7.41961E+00-2.48189E-03-4.66055E-04
 -1     12096-1.38798E+01-3.46546E+00 5.28520E-05-8.99515E+00-1.95145E-03-6.30817E-04
 -1     12097-1.38276E+01-4.91098E+00-7.50554E-04-9.45361E+00-2.80240E-03-6.64392E-04
 -1     12098-1.30324E+01-3.09723E+00-1.90349E-03-7.42477E+00-2.85660E-03-1.64510E-03
 -1     12099-1.38531E+01-3.49004E+00-5.14753E-04-8.99512E+00-1.81852E-03-8.17661E-04
 -1     12100-1.38113E+01-4.92476E+00-1.40440E-03-9.45417E+00-1.40741E-03-5.52082E-04
 -1     12101-1.30242E+01-3.10393E+00-2.33252E-03-7.42617E+00-2.49472E-12 3.59446E-12
 -1     12102-1.38443E+01-3.49790E+00-7.37796E-04-8.99506E+00 7.07308E-14-1.90823E-12
 -1     12103-1.38113E+01-4.92476E+00-1.40440E-03-9.45417E+00 1.40741E-03 5.52082E-04
 -1     12104-1.30324E+01-3.09723E+00-1.90349E-03-7.42477E+00 2.85660E-03 1.64510E-03
 -1     12105-1.38531E+01-3.49004E+00-5.14753E-04-8.99512E+00 1.81852E-03 8.17661E-04
 -1     12106-1.38276E+01-4.91098E+00-7.50554E-04-9.45361E+00 2.80240E-03 6.64392E-04
 -1     12107-1.30589E+01-3.07448E+00-8.19894E-04-7.41961E+00 2.48189E-03 4.66055E-04
 -1     12108-1.38798E+01-3.46546E+00 5.28520E-05-8.99515E+00 1.95145E-03 6.30817E-04
 -1     12109-1.38630E+01-4.87951E+00-7.38419E-05-9.45212E+00 1.33922E-03-3.02717E-04
 -1     12110-1.32939E+01-1.00888E+01 8.53537E-05-1.28432E+01-1.39917E-03 1.02286E-03
 -1     12111-1.35732E+01-7.49326E+00-1.16845E-03-1.11560E+01-2.48908E-03 5.85367E-04
 -1     12112-1.30736E+01-8.47396E+00 1.85844E-04-1.24745E+01-1.94699E-03 3.49835E-04
 -1     12113-1.32662E+01-1.01108E+01-9.09711E-04-1.28338E+01-2.84359E-03 7.45222E-04
 -1     12114-1.35507E+01-7.51114E+00-2.44024E-03-1.11530E+01-2.74849E-03-4.15451E-04
 -1     12115-1.30531E+01-8.49141E+00-5.90580E-04-1.24661E+01-1.82599E-03 7.63885E-05
 -1     12116-1.32533E+01-1.01203E+01-1.82794E-03-1.28294E+01-1.41355E-03 1.32243E-04
 -1     12117-1.35437E+01-7.51636E+00-2.92083E-03-1.11519E+01-6.83025E-13-1.94076E-13
 -1     12118-1.30462E+01-8.49692E+00-8.96824E-04-1.24632E+01-5.89572E-13 6.21296E-12
 -1     12119-1.32533E+01-1.01203E+01-1.82794E-03-1.28294E+01 1.41355E-03-1.32243E-04
 -1     12120-1.35507E+01-7.51114E+00-2.44024E-03-1.11530E+01 2.74849E-03 4.15451E-04
 -1     12121-1.30531E+01-8.49141E+00-5.90580E-04-1.24661E+01 1.82599E-03-7.63885E-05
 -1     12122-1.32662E+01-1.01108E+01-9.09711E-04-1.28338E+01 2.84359E-03-7.45222E-04
 -1     12123-1.35732E+01-7.49326E+00-1.16845E-03-1.11560E+01 2.48908E-03-5.85367E-04
 -1     12124-1.30736E+01-8.47396E+00 1.85844E-04-1.24745E+01 1.94699E-03-3.49835E-04
 -1     12125-1.32939E+01-1.00888E+01 8.53537E-05-1.28432E+01 1.39917E-03-1.02286E-03
 -1     12126-1.10047E+01-1.62524E+01 8.55076E-05-1.47894E+01-1.49637E-03 1.79248E-03
 -1     12127-1.21420E+01-1.31790E+01-1.54804E-03-1.38205E+01-2.72513E-03 1.92746E-03
 -1     12128-1.05899E+01-1.44971E+01 1.03669E-04-1.44946E+01-1.98943E-03 1.35107E-03
 -1     12129-1.09863E+01-1.62629E+01-1.34146E-03-1.47729E+01-2.89556E-03 2.15771E-03
 -1     12130-1.21252E+01-1.31894E+01-3.14462E-03-1.38113E+01-2.76472E-03 9.35109E-04
 -1     12131-1.05768E+01-1.45057E+01-9.46331E-04-1.44808E+01-1.83060E-03 9.70148E-04
 -1     12132-1.09773E+01-1.62669E+01-2.53173E-03-1.47653E+01-1.40880E-03 8.05655E-04
 -1     12133-1.21199E+01-1.31923E+01-3.71744E-03-1.38083E+01 2.36063E-12 7.59433E-12
 -1     12134-1.05723E+01-1.45083E+01-1.35714E-03-1.44762E+01 1.46673E-12 2.67543E-12
 -1     12135-1.09773E+01-1.62669E+01-2.53173E-03-1.47653E+01 1.40880E-03-8.05655E-04
 -1     12136-1.21252E+01-1.31894E+01-3.14462E-03-1.38113E+01 2.76472E-03-9.35109E-04
 -1     12137-1.05768E+01-1.45057E+01-9.46331E-04-1.44808E+01 1.83060E-03-9.70148E-04
 -1     12138-1.09863E+01-1.62629E+01-1.34146E-03-1.47729E+01 2.89556E-03-2.15771E-03
 -1     12139-1.21420E+01-1.31790E+01-1.54804E-03-1.38205E+01 2.72513E-03-1.92746E-03
 -1     12140-1.05899E+01-1.44971E+01 1.03669E-04-1.44946E+01 1.98943E-03-1.35107E-03
 -1     12141-1.10047E+01-1.62524E+01 8.55076E-05-1.47894E+01 1.49637E-03-1.79248E-03
 -1     12142-7.71151E+00-2.26318E+01 5.85010E-06-1.49195E+01-1.47063E-03 2.50155E-03
 -1     12143-9.35130E+00-1.94477E+01-1.86457E-03-1.48550E+01-2.82317E-03 3.31665E-03
 -1     12144-7.15080E+00-2.07738E+01-5.13417E-05-1.46885E+01-1.89624E-03 2.25038E-03
 -1     12145-7.70266E+00-2.26308E+01-1.83176E-03-1.49003E+01-2.74915E-03 3.42350E-03
 -1     12146-9.34084E+00-1.94498E+01-3.79992E-03-1.48424E+01-2.67567E-03 2.20895E-03
 -1     12147-7.14546E+00-2.07735E+01-1.35329E-03-1.46725E+01-1.71372E-03 1.76367E-03
 -1     12148-7.69781E+00-2.26293E+01-3.25478E-03-1.48914E+01-1.31283E-03 1.40163E-03
 -1     12149-9.33744E+00-1.94500E+01-4.47120E-03-1.48384E+01 2.05179E-12 5.37339E-12
 -1     12150-7.14348E+00-2.07731E+01-1.86004E-03-1.46673E+01 4.78861E-13 4.13176E-12
 -1     12151-7.69781E+00-2.26293E+01-3.25478E-03-1.48914E+01 1.31283E-03-1.40163E-03
 -1     12152-9.34084E+00-1.94498E+01-3.79992E-03-1.48424E+01 2.67567E-03-2.20895E-03
 -1     12153-7.14546E+00-2.07735E+01-1.35329E-03-1.46725E+01 1.71372E-03-1.76367E-03
 -1     12154-7.70266E+00-2.26308E+01-1.83176E-03-1.49003E+01 2.74915E-03-3.42350E-03
 -1     12155-9.35130E+00-1.94477E+01-1.86457E-03-1.48550E+01 2.82317E-03-3.31665E-03
 -1     12156-7.15080E+00-2.07738E+01-5.13417E-05-1.46885E+01 1.89624E-03-2.25038E-03
 -1     12157-7.71151E+00-2.26318E+01 5.85009E-06-1.49195E+01 1.47063E-03-2.50155E-03
 -1     12158-4.17787E+00-2.84999E+01-8.70837E-05-1.31889E+01-1.27920E-03 3.09217E-03
 -1     12159-5.93963E+00-2.55681E+01-2.11121E-03-1.40528E+01-2.61316E-03 4.55706E-03
 -1     12160-3.51439E+00-2.65663E+01-2.00973E-04-1.30167E+01-1.61964E-03 2.98816E-03
 -1     12161-4.17763E+00-2.84887E+01-2.24501E-03-1.31708E+01-2.34044E-03 4.46138E-03
 -1     12162-5.93531E+00-2.55624E+01-4.34122E-03-1.40396E+01-2.37778E-03 3.28860E-03
 -1     12163-3.51610E+00-2.65579E+01-1.70019E-03-1.30018E+01-1.44293E-03 2.40779E-03
 -1     12164-4.17661E+00-2.84823E+01-3.84362E-03-1.31624E+01-1.10120E-03 1.88518E-03
 -1     12165-5.93377E+00-2.55601E+01-5.10257E-03-1.40354E+01 9.62890E-13 1.04948E-12
 -1     12166-3.51640E+00-2.65549E+01-2.28155E-03-1.29969E+01 2.28177E-12-2.00721E-12
 -1     12167-4.17661E+00-2.84823E+01-3.84362E-03-1.31624E+01 1.10120E-03-1.88518E-03
 -1     12168-5.93531E+00-2.55624E+01-4.34122E-03-1.40396E+01 2.37778E-03-3.28860E-03
 -1     12169-3.51610E+00-2.65579E+01-1.70019E-03-1.30018E+01 1.44293E-03-2.40779E-03
 -1     12170-4.17763E+00-2.84887E+01-2.24501E-03-1.31708E+01 2.34044E-03-4.46138E-03
 -1     12171-5.93963E+00-2.55681E+01-2.11121E-03-1.40528E+01 2.61316E-03-4.55706E-03
 -1     12172-3.51439E+00-2.65663E+01-2.00973E-04-1.30167E+01 1.61964E-03-2.98816E-03
 -1     12173-4.17787E+00-2.84999E+01-8.70837E-05-1.31889E+01 1.27920E-03-3.09217E-03
 -1     12174-1.09619E+00-3.32096E+01-1.68816E-04-9.81610E+00-9.38406E-04 3.52969E-03
 -1     12175-2.63380E+00-3.08542E+01-2.28507E-03-1.15006E+01-2.09398E-03 5.53980E-03
 -1     12176-3.65352E-01-3.12237E+01-3.14586E-04-9.70115E+00-1.17433E-03 3.53038E-03
 -1     12177-1.10282E+00-3.31905E+01-2.54144E-03-9.80225E+00-1.69356E-03 5.22641E-03
 -1     12178-2.63479E+00-3.08419E+01-4.73853E-03-1.14892E+01-1.86515E-03 4.12054E-03
 -1     12179-3.72705E-01-3.12090E+01-1.94945E-03-9.68976E+00-1.03432E-03 2.87827E-03
 -1     12180-1.10489E+00-3.31803E+01-4.26259E-03-9.79579E+00-7.85162E-04 2.23815E-03
 -1     12181-2.63485E+00-3.08376E+01-5.57113E-03-1.14857E+01 1.94074E-12-1.58349E-12
 -1     12182-3.74838E-01-3.12039E+01-2.58278E-03-9.68605E+00 2.83439E-12-2.65078E-12
 -1     12183-1.10489E+00-3.31803E+01-4.26259E-03-9.79579E+00 7.85162E-04-2.23815E-03
 -1     12184-2.63479E+00-3.08419E+01-4.73853E-03-1.14892E+01 1.86515E-03-4.12054E-03
 -1     12185-3.72705E-01-3.12090E+01-1.94945E-03-9.68976E+00 1.03432E-03-2.87827E-03
 -1     12186-1.10282E+00-3.31905E+01-2.54144E-03-9.80225E+00 1.69356E-03-5.22641E-03
 -1     12187-2.63380E+00-3.08542E+01-2.28507E-03-1.15006E+01 2.09398E-03-5.53980E-03
 -1     12188-3.65352E-01-3.12237E+01-3.14586E-04-9.70115E+00 1.17433E-03-3.53038E-03
 -1     12189-1.09619E+00-3.32096E+01-1.68816E-04-9.81610E+00 9.38406E-04-3.52969E-03
 -1     12190 9.85680E-01-3.62492E+01-2.32062E-04-5.22718E+00-4.90722E-04 3.80070E-03
 -1     12191-5.33911E-02-3.47270E+01-2.39504E-03-7.52018E+00-1.33345E-03 6.21555E-03
 -1     12192 1.75413E+00-3.42334E+01-3.86932E-04-5.16939E+00-6.06879E-04 3.86475E-03
 -1     12193 9.74626E-01-3.62250E+01-2.71855E-03-5.21990E+00-8.73241E-04 5.70027E-03
 -1     12194-5.82704E-02-3.47100E+01-4.99702E-03-7.51270E+00-1.18015E-03 4.68474E-03
 -1     12195 1.74313E+00-3.42147E+01-2.10096E-03-5.16337E+00-5.26127E-04 3.16750E-03
 -1     12196 9.70556E-01-3.62124E+01-4.51946E-03-5.21649E+00-3.92945E-04 2.45305E-03
 -1     12197-5.95269E-02-3.47042E+01-5.87893E-03-7.51032E+00 2.30035E-12-1.25155E-12
 -1     12198 1.73982E+00-3.42083E+01-2.76661E-03-5.16142E+00 9.14667E-13 2.15589E-12
 -1     12199 9.70556E-01-3.62124E+01-4.51946E-03-5.21649E+00 3.92945E-04-2.45305E-03
 -1     12200-5.82704E-02-3.47100E+01-4.99702E-03-7.51270E+00 1.18015E-03-4.68474E-03
 -1     12201 1.74313E+00-3.42147E+01-2.10096E-03-5.16337E+00 5.26127E-04-3.16750E-03
 -1     12202 9.74626E-01-3.62250E+01-2.71855E-03-5.21990E+00 8.73241E-04-5.70027E-03
 -1     12203-5.33911E-02-3.47270E+01-2.39504E-03-7.52018E+00 1.33345E-03-6.21555E-03
 -1     12204 1.75413E+00-3.42334E+01-3.86932E-04-5.16939E+00 6.06879E-04-3.86475E-03
 -1     12205 9.85680E-01-3.62492E+01-2.32062E-04-5.22718E+00 4.90722E-04-3.80070E-03
 -1     12206 1.71772E+00-3.72940E+01-2.79764E-04 3.67647E-03 1.40968E-05 3.90413E-03
 -1     12207 1.35284E+00-3.67683E+01-2.44911E-03-2.61127E+00-4.21245E-04 6.57307E-03
 -1     12208 2.49730E+00-3.52708E+01-4.22639E-04 3.44761E-03 2.63797E-05 3.99145E-03
 -1     12209 1.70518E+00-3.72681E+01-2.78925E-03 3.21500E-03 4.23501E-05 5.88176E-03
 -1     12210 1.34592E+00-3.67489E+01-5.12948E-03-2.60885E+00-3.85465E-04 4.97965E-03
 -1     12211 2.48506E+00-3.52506E+01-2.16690E-03 3.15927E-03 3.65880E-05 3.27719E-03
 -1     12212 1.70043E+00-3.72546E+01-4.63871E-03 3.01808E-03 4.11219E-05 2.52884E-03
 -1     12213 1.34403E+00-3.67423E+01-6.03853E-03-2.60806E+00 7.69762E-13 9.49734E-14
 -1     12214 2.48134E+00-3.52437E+01-2.84942E-03 3.03800E-03 1.50758E-12 1.63363E-12
 -1     12215 1.70043E+00-3.72546E+01-4.63871E-03 3.01808E-03-4.11219E-05-2.52884E-03
 -1     12216 1.34592E+00-3.67489E+01-5.12948E-03-2.60885E+00 3.85465E-04-4.97965E-03
 -1     12217 2.48506E+00-3.52506E+01-2.16690E-03 3.15927E-03-3.65880E-05-3.27719E-03
 -1     12218 1.70518E+00-3.72681E+01-2.78925E-03 3.21500E-03-4.23501E-05-5.88176E-03
 -1     12219 1.35284E+00-3.67683E+01-2.44911E-03-2.61127E+00 4.21245E-04-6.57307E-03
 -1     12220 2.49730E+00-3.52708E+01-4.22639E-04 3.44761E-03-2.63797E-05-3.99145E-03
 -1     12221 1.71772E+00-3.72940E+01-2.79764E-04 3.67647E-03-1.40968E-05-3.90413E-03
 -1     12222 9.83033E-01-3.62460E+01-3.18688E-04 5.22748E+00 5.27150E-04 3.84791E-03
 -1     12223 1.35144E+00-3.67666E+01-2.45432E-03 2.61497E+00 5.54481E-04 6.62152E-03
 -1     12224 1.74931E+00-3.42381E+01-4.27441E-04 5.16703E+00 6.68993E-04 3.91984E-03
 -1     12225 9.72105E-01-3.62216E+01-2.76722E-03 5.21930E+00 9.75086E-04 5.78296E-03
 -1     12226 1.34455E+00-3.67471E+01-5.15057E-03 2.61191E+00 4.50796E-04 5.01496E-03
 -1     12227 1.73833E+00-3.42193E+01-2.15941E-03 5.16046E+00 6.09271E-04 3.21545E-03
 -1     12228 9.68062E-01-3.62089E+01-4.64570E-03 5.21550E+00 4.81998E-04 2.46931E-03
 -1     12229 1.34267E+00-3.67404E+01-6.06573E-03 2.61100E+00 1.97444E-12 5.79518E-13
 -1     12230 1.73502E+00-3.42128E+01-2.84756E-03 5.15826E+00 1.66077E-12-6.39615E-13
 -1     12231 9.68062E-01-3.62089E+01-4.64570E-03 5.21550E+00-4.81998E-04-2.46931E-03
 -1     12232 1.34455E+00-3.67471E+01-5.15057E-03 2.61191E+00-4.50796E-04-5.01496E-03
 -1     12233 1.73833E+00-3.42193E+01-2.15941E-03 5.16046E+00-6.09271E-04-3.21545E-03
 -1     12234 9.72105E-01-3.62216E+01-2.76722E-03 5.21930E+00-9.75086E-04-5.78296E-03
 -1     12235 1.35144E+00-3.67666E+01-2.45432E-03 2.61497E+00-5.54481E-04-6.62152E-03
 -1     12236 1.74931E+00-3.42381E+01-4.27441E-04 5.16703E+00-6.68993E-04-3.91984E-03
 -1     12237 9.83033E-01-3.62460E+01-3.18688E-04 5.22748E+00-5.27150E-04-3.84791E-03
 -1     12238-1.09190E+00-3.32497E+01-3.55372E-04 9.80572E+00 1.00277E-03 3.64846E-03
 -1     12239-5.29049E-02-3.47450E+01-2.41565E-03 7.51504E+00 1.51448E-03 6.38269E-03
 -1     12240-3.61248E-01-3.12813E+01-4.03980E-04 9.68112E+00 1.26724E-03 3.66798E-03
 -1     12241-1.09842E+00-3.32300E+01-2.65825E-03 9.79105E+00 1.85203E-03 5.42794E-03
 -1     12242-5.77263E-02-3.47277E+01-5.07182E-03 7.50694E+00 1.26193E-03 4.81025E-03
 -1     12243-3.68692E-01-3.12661E+01-2.08508E-03 9.66925E+00 1.15058E-03 2.99592E-03
 -1     12244-1.10048E+00-3.32196E+01-4.55868E-03 9.78422E+00 8.96173E-04 2.28247E-03
 -1     12245-5.89887E-02-3.47218E+01-5.97290E-03 7.50446E+00 2.53120E-12-1.20114E-13
 -1     12246-3.70841E-01-3.12609E+01-2.77170E-03 9.66529E+00 1.03918E-12-4.61037E-13
 -1     12247-1.10048E+00-3.32196E+01-4.55868E-03 9.78422E+00-8.96173E-04-2.28247E-03
 -1     12248-5.77263E-02-3.47277E+01-5.07182E-03 7.50694E+00-1.26193E-03-4.81025E-03
 -1     12249-3.68692E-01-3.12661E+01-2.08508E-03 9.66925E+00-1.15058E-03-2.99592E-03
 -1     12250-1.09842E+00-3.32300E+01-2.65825E-03 9.79105E+00-1.85203E-03-5.42794E-03
 -1     12251-5.29049E-02-3.47450E+01-2.41565E-03 7.51504E+00-1.51448E-03-6.38269E-03
 -1     12252-3.61248E-01-3.12813E+01-4.03980E-04 9.68112E+00-1.26724E-03-3.66798E-03
 -1     12253-1.09190E+00-3.32497E+01-3.55372E-04 9.80572E+00-1.00277E-03-3.64846E-03
 -1     12254-4.15848E+00-2.86758E+01-4.01313E-04 1.31984E+01 1.40037E-03 3.32983E-03
 -1     12255-2.62277E+00-3.09610E+01-2.34036E-03 1.14999E+01 2.39147E-03 5.88623E-03
 -1     12256-3.48257E+00-2.67728E+01-3.47463E-04 1.30041E+01 1.77346E-03 3.25967E-03
 -1     12257-4.15847E+00-2.86633E+01-2.46748E-03 1.31795E+01 2.60824E-03 4.85326E-03
 -1     12258-2.62381E+00-3.09479E+01-4.90746E-03 1.14879E+01 1.98668E-03 4.39581E-03
 -1     12259-3.48477E+00-2.67632E+01-1.94112E-03 1.29888E+01 1.62515E-03 2.63619E-03
 -1     12260-4.15760E+00-2.86561E+01-4.39968E-03 1.31707E+01 1.25292E-03 1.98076E-03
 -1     12261-2.62396E+00-3.09433E+01-5.77539E-03 1.14843E+01 1.21140E-12-7.16435E-13
 -1     12262-3.48517E+00-2.67599E+01-2.62318E-03 1.29836E+01 1.44441E-12-1.08657E-12
 -1     12263-4.15760E+00-2.86561E+01-4.39968E-03 1.31707E+01-1.25292E-03-1.98076E-03
 -1     12264-2.62381E+00-3.09479E+01-4.90746E-03 1.14879E+01-1.98668E-03-4.39581E-03
 -1     12265-3.48477E+00-2.67632E+01-1.94112E-03 1.29888E+01-1.62515E-03-2.63619E-03
 -1     12266-4.15847E+00-2.86633E+01-2.46748E-03 1.31795E+01-2.60824E-03-4.85326E-03
 -1     12267-2.62277E+00-3.09610E+01-2.34036E-03 1.14999E+01-2.39147E-03-5.88623E-03
 -1     12268-3.48257E+00-2.67728E+01-3.47463E-04 1.30041E+01-1.77346E-03-3.25967E-03
 -1     12269-4.15848E+00-2.86758E+01-4.01313E-04 1.31984E+01-1.40037E-03-3.32983E-03
 -1     12270-7.69910E+00-2.30714E+01-4.54285E-04 1.50411E+01 1.68364E-03 2.93329E-03
 -1     12271-5.92516E+00-2.58733E+01-2.22953E-03 1.41174E+01 3.13033E-03 5.17084E-03
 -1     12272-7.09271E+00-2.12621E+01-2.44634E-04 1.47710E+01 2.13713E-03 2.73559E-03
 -1     12273-7.69150E+00-2.30671E+01-2.16149E-03 1.50209E+01 3.18082E-03 4.11319E-03
 -1     12274-5.92133E+00-2.58657E+01-4.65954E-03 1.41035E+01 2.57256E-03 3.81374E-03
 -1     12275-7.08878E+00-2.12590E+01-1.71212E-03 1.47545E+01 1.99824E-03 2.15957E-03
 -1     12276-7.68725E+00-2.30639E+01-4.14878E-03 1.50114E+01 1.52215E-03 1.58214E-03
 -1     12277-5.92005E+00-2.58628E+01-5.47481E-03 1.40992E+01 1.64992E-12-1.03677E-12
 -1     12278-7.08712E+00-2.12579E+01-2.38880E-03 1.47489E+01 9.00950E-13-6.60448E-13
 -1     12279-7.68725E+00-2.30639E+01-4.14878E-03 1.50114E+01-1.52215E-03-1.58214E-03
 -1     12280-5.92133E+00-2.58657E+01-4.65954E-03 1.41035E+01-2.57256E-03-3.81374E-03
 -1     12281-7.08878E+00-2.12590E+01-1.71212E-03 1.47545E+01-1.99824E-03-2.15957E-03
 -1     12282-7.69150E+00-2.30671E+01-2.16149E-03 1.50209E+01-3.18082E-03-4.11319E-03
 -1     12283-5.92516E+00-2.58733E+01-2.22953E-03 1.41174E+01-3.13033E-03-5.17084E-03
 -1     12284-7.09271E+00-2.12621E+01-2.44634E-04 1.47710E+01-2.13713E-03-2.73559E-03
 -1     12285-7.69910E+00-2.30714E+01-4.54285E-04 1.50411E+01-1.68364E-03-2.93329E-03
 -1     12286-1.11072E+01-1.70808E+01-5.65977E-04 1.51974E+01 1.82783E-03 2.49849E-03
 -1     12287-9.39817E+00-2.00776E+01-2.11499E-03 1.51175E+01 3.69049E-03 4.26506E-03
 -1     12288-1.05795E+01-1.53960E+01-4.98975E-05 1.48462E+01 2.31646E-03 2.11823E-03
 -1     12289-1.10923E+01-1.70849E+01-1.76917E-03 1.51792E+01 3.51254E-03 3.28623E-03
 -1     12290-9.38913E+00-2.00760E+01-4.37512E-03 1.51036E+01 2.98145E-03 3.11323E-03
 -1     12291-1.05696E+01-1.53994E+01-1.34950E-03 1.48311E+01 2.24302E-03 1.57930E-03
 -1     12292-1.10848E+01-1.70857E+01-3.85832E-03 1.51706E+01 1.67622E-03 1.11472E-03
 -1     12293-9.38639E+00-2.00749E+01-5.12472E-03 1.50994E+01 7.51477E-13-7.09359E-13
 -1     12294-1.05659E+01-1.54006E+01-2.02024E-03 1.48260E+01 3.70155E-13-7.51136E-13
 -1     12295-1.10848E+01-1.70857E+01-3.85832E-03 1.51706E+01-1.67622E-03-1.11472E-03
 -1     12296-9.38913E+00-2.00760E+01-4.37512E-03 1.51036E+01-2.98145E-03-3.11323E-03
 -1     12297-1.05696E+01-1.53994E+01-1.34950E-03 1.48311E+01-2.24302E-03-1.57930E-03
 -1     12298-1.10923E+01-1.70849E+01-1.76917E-03 1.51792E+01-3.51254E-03-3.28623E-03
 -1     12299-9.39817E+00-2.00776E+01-2.11499E-03 1.51175E+01-3.69049E-03-4.26506E-03
 -1     12300-1.05795E+01-1.53960E+01-4.98975E-05 1.48462E+01-2.31646E-03-2.11823E-03
 -1     12301-1.11072E+01-1.70808E+01-5.65977E-04 1.51974E+01-1.82783E-03-2.49849E-03
 -1     12302-1.37805E+01-1.13515E+01-6.47580E-04 1.37770E+01 1.83418E-03 2.14716E-03
 -1     12303-1.24373E+01-1.42196E+01-1.95971E-03 1.44869E+01 4.04002E-03 3.20927E-03
 -1     12304-1.33363E+01-9.82278E+00 2.98164E-04 1.33421E+01 2.21505E-03 1.55094E-03
 -1     12305-1.37596E+01-1.13625E+01-1.01805E-03 1.37638E+01 3.49560E-03 2.54938E-03
 -1     12306-1.24236E+01-1.42237E+01-3.98026E-03 1.44754E+01 3.18897E-03 2.34366E-03
 -1     12307-1.33214E+01-9.83163E+00-7.69383E-04 1.33307E+01 2.27495E-03 9.55097E-04
 -1     12308-1.37497E+01-1.13668E+01-3.16845E-03 1.37575E+01 1.66109E-03 6.41415E-04
 -1     12309-1.24196E+01-1.42243E+01-4.64609E-03 1.44717E+01 2.00375E-13-6.78007E-13
 -1     12310-1.33159E+01-9.83477E+00-1.40618E-03 1.33270E+01-3.57885E-14-7.36901E-13
 -1     12311-1.37497E+01-1.13668E+01-3.16845E-03 1.37575E+01-1.66109E-03-6.41415E-04
 -1     12312-1.24236E+01-1.42237E+01-3.98026E-03 1.44754E+01-3.18897E-03-2.34366E-03
 -1     12313-1.33214E+01-9.83163E+00-7.69383E-04 1.33307E+01-2.27495E-03-9.55097E-04
 -1     12314-1.37596E+01-1.13625E+01-1.01805E-03 1.37638E+01-3.49560E-03-2.54938E-03
 -1     12315-1.24373E+01-1.42196E+01-1.95971E-03 1.44869E+01-4.04002E-03-3.20927E-03
 -1     12316-1.33363E+01-9.82278E+00 2.98164E-04 1.33421E+01-2.21505E-03-1.55094E-03
 -1     12317-1.37805E+01-1.13515E+01-6.47580E-04 1.37770E+01-1.83418E-03-2.14716E-03
 -1     12318-1.52161E+01-6.43445E+00-1.15512E-03 1.11100E+01 1.73646E-03 1.83849E-03
 -1     12319-1.44907E+01-8.89904E+00-2.00458E-03 1.24461E+01 4.12613E-03 1.90614E-03
 -1     12320-1.48547E+01-5.09160E+00 1.07547E-03 1.05940E+01 1.73624E-03 9.46147E-04
 -1     12321-1.51920E+01-6.44999E+00-3.29405E-04 1.11040E+01 3.04211E-03 2.22884E-03
 -1     12322-1.44734E+01-8.90772E+00-3.83935E-03 1.24387E+01 3.21937E-03 1.48510E-03
 -1     12323-1.48372E+01-5.10418E+00 3.43436E-04 1.05884E+01 1.99962E-03 2.67573E-04
 -1     12324-1.51813E+01-6.45686E+00-2.37031E-03 1.11012E+01 1.42555E-03 3.32931E-04
 -1     12325-1.44686E+01-8.90981E+00-4.48638E-03 1.24362E+01-3.33292E-13-3.05881E-13
 -1     12326-1.48305E+01-5.10854E+00-1.89676E-04 1.05868E+01-5.55272E-13-2.04321E-13
 -1     12327-1.51813E+01-6.45686E+00-2.37031E-03 1.11012E+01-1.42555E-03-3.32931E-04
 -1     12328-1.44734E+01-8.90772E+00-3.83935E-03 1.24387E+01-3.21937E-03-1.48510E-03
 -1     12329-1.48372E+01-5.10418E+00 3.43436E-04 1.05884E+01-1.99962E-03-2.67573E-04
 -1     12330-1.51920E+01-6.44999E+00-3.29405E-04 1.11040E+01-3.04211E-03-2.22884E-03
 -1     12331-1.44907E+01-8.89904E+00-2.00458E-03 1.24461E+01-4.12613E-03-1.90614E-03
 -1     12332-1.48547E+01-5.09160E+00 1.07547E-03 1.05940E+01-1.73624E-03-9.46147E-04
 -1     12333-1.52161E+01-6.43445E+00-1.15512E-03 1.11100E+01-1.73646E-03-1.83849E-03
 -1     12334-1.50650E+01-2.70689E+00-1.15006E-03 7.68698E+00 2.03421E-03 1.95367E-03
 -1     12335-1.51319E+01-4.57827E+00-1.83983E-03 9.40731E+00 3.83225E-03 3.65076E-04
 -1     12336-1.47980E+01-1.57124E+00 2.69211E-03 7.09275E+00 6.86969E-04 1.49943E-03
 -1     12337-1.50406E+01-2.72289E+00 2.50795E-03 7.68878E+00 1.98602E-03 3.46671E-03
 -1     12338-1.51126E+01-4.58962E+00-3.21716E-03 9.40536E+00 3.01007E-03 3.97227E-04
 -1     12339-1.47813E+01-1.58513E+00 2.59351E-03 7.09437E+00 9.47132E-04 3.17633E-04
 -1     12340-1.50323E+01-2.73063E+00 2.13708E-03 7.69013E+00 7.88663E-04 7.51529E-04
 -1     12341-1.51075E+01-4.59281E+00-3.85318E-03 9.40424E+00-7.79265E-13 5.33585E-13
 -1     12342-1.47746E+01-1.58964E+00 2.52894E-03 7.09556E+00-7.92483E-13 3.54545E-13
 -1     12343-1.50323E+01-2.73063E+00 2.13708E-03 7.69013E+00-7.88663E-04-7.51529E-04
 -1     12344-1.51126E+01-4.58962E+00-3.21716E-03 9.40536E+00-3.01007E-03-3.97227E-04
 -1     12345-1.47813E+01-1.58513E+00 2.59351E-03 7.09437E+00-9.47132E-04-3.17633E-04
 -1     12346-1.50406E+01-2.72289E+00 2.50795E-03 7.68878E+00-1.98602E-03-3.46671E-03
 -1     12347-1.51319E+01-4.57827E+00-1.83983E-03 9.40731E+00-3.83225E-03-3.65076E-04
 -1     12348-1.47980E+01-1.57124E+00 2.69211E-03 7.09275E+00-6.86969E-04-1.49943E-03
 -1     12349-1.50650E+01-2.70689E+00-1.15006E-03 7.68698E+00-2.03421E-03-1.95367E-03
 -1     12350-1.31783E+01-3.05809E-01-4.77159E-03 4.03260E+00 3.44046E-03-1.63440E-04
 -1     12351-1.41182E+01-1.52145E+00-3.45837E-03 5.87918E+00 2.47795E-03-2.16868E-03
 -1     12352-1.30114E+01 6.10692E-01 6.53650E-03 3.38083E+00-1.94417E-05 1.71775E-03
 -1     12353-1.31503E+01-3.20039E-01 3.36015E-03 4.04279E+00 1.89555E-03 6.38762E-03
 -1     12354-1.40975E+01-1.53404E+00-5.30801E-03 5.88500E+00 2.64293E-03-1.80531E-03
 -1     12355-1.30011E+01 5.96909E-01 7.96538E-03 3.38943E+00-2.71587E-04 1.01871E-03
 -1     12356-1.31473E+01-3.27101E-01 8.11213E-03 4.04838E+00 4.29223E-04 2.70787E-03
 -1     12357-1.40921E+01-1.53813E+00-6.71832E-03 5.88585E+00-1.16325E-12 1.19670E-12
 -1     12358-1.29970E+01 5.93342E-01 9.02523E-03 3.39364E+00-1.25398E-12 1.05510E-12
 -1     12359-1.31473E+01-3.27101E-01 8.11213E-03 4.04838E+00-4.29223E-04-2.70787E-03
 -1     12360-1.40975E+01-1.53404E+00-5.30801E-03 5.88500E+00-2.64293E-03 1.80531E-03
 -1     12361-1.30011E+01 5.96909E-01 7.96538E-03 3.38943E+00 2.71587E-04-1.01871E-03
 -1     12362-1.31503E+01-3.20039E-01 3.36015E-03 4.04279E+00-1.89555E-03-6.38762E-03
 -1     12363-1.41182E+01-1.52145E+00-3.45837E-03 5.87918E+00-2.47795E-03 2.16868E-03
 -1     12364-1.30114E+01 6.10692E-01 6.53650E-03 3.38083E+00 1.94417E-05-1.71775E-03
 -1     12365-1.31783E+01-3.05809E-01-4.77159E-03 4.03260E+00-3.44046E-03 1.63440E-04
 -1     12366-9.41687E+00 7.97258E-01-4.86998E-03 7.04262E-01 1.11179E-02-1.63938E-02
 -1     12367-1.13081E+01 2.41980E-01-2.51832E-03 2.41280E+00-2.76571E-03-1.99663E-03
 -1     12368-9.47958E+00 1.51781E+00 9.54305E-03-7.95538E-02 7.65579E-03 1.37446E-03
 -1     12369-9.35734E+00 7.92437E-01 5.76837E-03 7.16173E-01 1.01573E-02-2.91437E-03
 -1     12370-1.12908E+01 2.30469E-01-2.52259E-03 2.43000E+00-9.45100E-04-3.83957E-03
 -1     12371-9.46821E+00 1.50589E+00 1.13176E-02-7.08414E-02 3.52712E-03 2.35447E-03
 -1     12372-9.34998E+00 7.89672E-01 2.07768E-02 7.16974E-01 3.50855E-03 1.15971E-03
 -1     12373-1.12848E+01 2.25567E-01-4.22999E-03 2.43425E+00-1.53282E-12 2.26007E-12
 -1     12374-9.46650E+00 1.50424E+00 1.41520E-02-6.72594E-02-1.57602E-12 2.24874E-12
 -1     12375-9.34998E+00 7.89672E-01 2.07768E-02 7.16974E-01-3.50855E-03-1.15971E-03
 -1     12376-1.12908E+01 2.30469E-01-2.52259E-03 2.43000E+00 9.45100E-04 3.83957E-03
 -1     12377-9.46821E+00 1.50589E+00 1.13176E-02-7.08414E-02-3.52712E-03-2.35447E-03
 -1     12378-9.35734E+00 7.92437E-01 5.76837E-03 7.16173E-01-1.01573E-02 2.91437E-03
 -1     12379-1.13081E+01 2.41980E-01-2.51832E-03 2.41280E+00 2.76571E-03 1.99663E-03
 -1     12380-9.47958E+00 1.51781E+00 9.54305E-03-7.95538E-02-7.65579E-03-1.37446E-03
 -1     12381-9.41687E+00 7.97258E-01-4.86998E-03 7.04262E-01-1.11179E-02 1.63938E-02
 -1     12382-3.35289E+00 1.06051E+00-2.58451E-02-2.38976E+00-2.00867E-02-8.77107E-02
 -1     12383-6.66053E+00 8.40752E-01-2.88180E-04-7.13290E-01-1.21120E-02 1.07413E-02
 -1     12384-4.00900E+00 1.46511E+00-5.48407E-02-3.08335E+00 1.53918E-02-5.19872E-02
 -1     12385-3.29117E+00 1.03702E+00-6.79151E-02-2.21686E+00-1.00106E-02-9.67049E-02
 -1     12386-6.67230E+00 8.35003E-01 6.03892E-03-6.64824E-01-7.81037E-03 1.74448E-03
 -1     12387-3.96963E+00 1.41293E+00-6.87999E-02-3.00550E+00 1.02617E-02-3.58996E-02
 -1     12388-3.24887E+00 1.01815E+00-8.65746E-02-2.16449E+00 4.69601E-04-3.69553E-02
 -1     12389-6.67330E+00 8.31554E-01 5.26613E-03-6.49378E-01-1.57966E-12 4.20924E-12
 -1     12390-3.95703E+00 1.39624E+00-7.29131E-02-2.98739E+00-2.04986E-12 4.61888E-12
 -1     12391-3.24887E+00 1.01815E+00-8.65746E-02-2.16449E+00-4.69601E-04 3.69553E-02
 -1     12392-6.67230E+00 8.35003E-01 6.03892E-03-6.64824E-01 7.81037E-03-1.74448E-03
 -1     12393-3.96963E+00 1.41293E+00-6.87999E-02-3.00550E+00-1.02617E-02 3.58996E-02
 -1     12394-3.29117E+00 1.03702E+00-6.79151E-02-2.21686E+00 1.00106E-02 9.67049E-02
 -1     12395-6.66053E+00 8.40752E-01-2.88180E-04-7.13290E-01 1.21120E-02-1.07413E-02
 -1     12396-4.00900E+00 1.46511E+00-5.48407E-02-3.08335E+00-1.53918E-02 5.19872E-02
 -1     12397-3.35289E+00 1.06051E+00-2.58451E-02-2.38976E+00 2.00867E-02 8.77107E-02
 -1     12398-1.37715E-01 8.35002E-01 6.29379E-02-3.05333E+00 5.62885E-02 2.59902E-02
 -1     12399-5.02261E-02 8.06655E-01 1.02467E-01-3.07029E+00 4.64373E-02 9.45372E-03
 -1     12400-2.20144E-02 8.01174E-01 1.18758E-01-3.07767E+00-1.07792E-12 6.22645E-12
 -1     12401-5.02261E-02 8.06655E-01 1.02467E-01-3.07029E+00-4.64373E-02-9.45372E-03
 -1     12402-1.37715E-01 8.35002E-01 6.29379E-02-3.05333E+00-5.62885E-02-2.59902E-02
 -1     12403-1.53861E-01-2.60516E-02 7.15570E-03 2.14447E-01-7.32782E-03 1.58467E-02
 -1     12404-1.36054E-01-2.44453E-02 2.06993E-02 2.25171E-01-4.58454E-03 1.17281E-02
 -1     12405-1.31478E-01-2.38958E-02 2.60285E-02 2.28080E-01-2.78048E-13-9.50826E-14
 -1     12406-1.36054E-01-2.44453E-02 2.06993E-02 2.25171E-01 4.58454E-03-1.17281E-02
 -1     12407-1.53861E-01-2.60516E-02 7.15570E-03 2.14447E-01 7.32782E-03-1.58467E-02
 -1     12408-3.35240E+00 2.08543E-01 3.18950E-04-1.11823E-01-8.36512E-03-1.38377E-02
 -1     12409-3.32754E+00 2.03512E-01 4.52455E-03-1.14699E-01-5.96880E-03-1.02247E-02
 -1     12410-3.32013E+00 2.01924E-01 6.04972E-03-1.15591E-01-2.35362E-12-7.25848E-12
 -1     12411-3.32754E+00 2.03512E-01 4.52455E-03-1.14699E-01 5.96880E-03 1.02247E-02
 -1     12412-3.35240E+00 2.08543E-01 3.18950E-04-1.11823E-01 8.36512E-03 1.38377E-02
 -1     12413-8.01643E+00-3.51649E-01-1.22846E-04-2.33689E+00-9.90885E-03-1.68114E-02
 -1     12414-7.99635E+00-3.61518E-01 1.80738E-03-2.34271E+00-7.09467E-03-1.24572E-02
 -1     12415-7.99026E+00-3.64487E-01 2.52934E-03-2.34449E+00-3.40098E-12-3.01515E-12
 -1     12416-7.99635E+00-3.61518E-01 1.80738E-03-2.34271E+00 7.09467E-03 1.24572E-02
 -1     12417-8.01643E+00-3.51649E-01-1.22846E-04-2.33689E+00 9.90885E-03 1.68114E-02
 -1     12418-1.18908E+01-2.47663E+00 2.74188E-04-5.96914E+00-1.01601E-02-1.43348E-02
 -1     12419-1.18736E+01-2.48815E+00 8.19819E-04-5.97264E+00-7.43986E-03-1.06563E-02
 -1     12420-1.18681E+01-2.49157E+00 1.05540E-03-5.97364E+00-2.82777E-12 1.43955E-12
 -1     12421-1.18736E+01-2.48815E+00 8.19819E-04-5.97264E+00 7.43986E-03 1.06563E-02
 -1     12422-1.18908E+01-2.47663E+00 2.74188E-04-5.96914E+00 1.01601E-02 1.43348E-02
 -1     12423-1.37732E+01-6.38427E+00 7.80786E-04-9.94563E+00-9.67386E-03-9.72117E-03
 -1     12424-1.37578E+01-6.39383E+00 1.24751E-03-9.94454E+00-7.13999E-03-7.32417E-03
 -1     12425-1.37528E+01-6.39656E+00 1.45658E-03-9.94403E+00-1.68615E-13-1.12549E-12
 -1     12426-1.37578E+01-6.39383E+00 1.24751E-03-9.94454E+00 7.13999E-03 7.32417E-03
 -1     12427-1.37732E+01-6.38427E+00 7.80786E-04-9.94563E+00 9.67386E-03 9.72117E-03
 -1     12428-1.34622E+01-1.17774E+01 1.26723E-03-1.32254E+01-8.70381E-03-5.34805E-03
 -1     12429-1.34491E+01-1.17823E+01 2.11482E-03-1.32196E+01-6.44346E-03-4.11738E-03
 -1     12430-1.34447E+01-1.17835E+01 2.47082E-03-1.32176E+01 2.60635E-12 3.91307E-12
 -1     12431-1.34491E+01-1.17823E+01 2.11482E-03-1.32196E+01 6.44346E-03 4.11738E-03
 -1     12432-1.34622E+01-1.17774E+01 1.26723E-03-1.32254E+01 8.70381E-03 5.34805E-03
 -1     12433-1.13873E+01-1.80590E+01 1.63781E-03-1.50766E+01-7.55227E-03-1.81417E-03
 -1     12434-1.13772E+01-1.80579E+01 3.02242E-03-1.50676E+01-5.57078E-03-1.50742E-03
 -1     12435-1.13738E+01-1.80570E+01 3.58426E-03-1.50644E+01 2.54818E-12 6.09906E-12
 -1     12436-1.13772E+01-1.80579E+01 3.02242E-03-1.50676E+01 5.57078E-03 1.50742E-03
 -1     12437-1.13873E+01-1.80590E+01 1.63781E-03-1.50766E+01 7.55227E-03 1.81417E-03
 -1     12438-8.25941E+00-2.45171E+01 1.88637E-03-1.51301E+01-6.30713E-03 8.34978E-04
 -1     12439-8.25287E+00-2.45095E+01 3.75614E-03-1.51196E+01-4.60026E-03 4.60178E-04
 -1     12440-8.25058E+00-2.45065E+01 4.50484E-03-1.51160E+01 1.71779E-12 4.97426E-12
 -1     12441-8.25287E+00-2.45095E+01 3.75614E-03-1.51196E+01 4.60026E-03-4.60178E-04
 -1     12442-8.25941E+00-2.45171E+01 1.88637E-03-1.51301E+01 6.30713E-03-8.34978E-04
 -1     12443-4.84629E+00-3.04388E+01 2.04060E-03-1.33366E+01-4.95206E-03 2.75920E-03
 -1     12444-4.84337E+00-3.04254E+01 4.28465E-03-1.33267E+01-3.52670E-03 1.88621E-03
 -1     12445-4.84228E+00-3.04204E+01 5.17600E-03-1.33234E+01 4.92331E-12 1.51847E-12
 -1     12446-4.84337E+00-3.04254E+01 4.28465E-03-1.33267E+01 3.52670E-03-1.88621E-03
 -1     12447-4.84629E+00-3.04388E+01 2.04060E-03-1.33366E+01 4.95206E-03-2.75920E-03
 -1     12448-1.84627E+00-3.51833E+01 2.12485E-03-9.91050E+00-3.45941E-03 4.08839E-03
 -1     12449-1.84644E+00-3.51653E+01 4.62765E-03-9.90278E+00-2.33336E-03 2.85555E-03
 -1     12450-1.84636E+00-3.51588E+01 5.61313E-03-9.90030E+00 2.24508E-12-1.49380E-12
 -1     12451-1.84644E+00-3.51653E+01 4.62765E-03-9.90278E+00 2.33336E-03-2.85555E-03
 -1     12452-1.84627E+00-3.51833E+01 2.12485E-03-9.91050E+00 3.45941E-03-4.08839E-03
 -1     12453 1.88671E-01-3.82415E+01 2.15468E-03-5.27417E+00-1.84008E-03 4.89486E-03
 -1     12454 1.86415E-01-3.82205E+01 4.81971E-03-5.26998E+00-1.02763E-03 3.41199E-03
 -1     12455 1.85856E-01-3.82130E+01 5.85575E-03-5.26876E+00 2.31867E-12-2.42851E-14
 -1     12456 1.86415E-01-3.82205E+01 4.81971E-03-5.26998E+00 1.02763E-03-3.41199E-03
 -1     12457 1.88671E-01-3.82415E+01 2.15468E-03-5.27417E+00 1.84008E-03-4.89486E-03
 -1     12458 9.06227E-01-3.92892E+01 2.13530E-03 1.82456E-03-1.53582E-04 5.21389E-03
 -1     12459 9.03213E-01-3.92672E+01 4.88836E-03 1.84330E-03 3.50008E-04 3.56975E-03
 -1     12460 9.02498E-01-3.92593E+01 5.93862E-03 1.57569E-03 2.22807E-12-3.25568E-14
 -1     12461 9.03213E-01-3.92672E+01 4.88836E-03 1.84330E-03-3.50008E-04-3.56975E-03
 -1     12462 9.06227E-01-3.92892E+01 2.13530E-03 1.82456E-03 1.53582E-04-5.21389E-03
 -1     12463 1.87692E-01-3.82279E+01 2.06380E-03 5.27254E+00 1.50346E-03 5.07633E-03
 -1     12464 1.85338E-01-3.82067E+01 4.85086E-03 5.26838E+00 1.73127E-03 3.33490E-03
 -1     12465 1.85010E-01-3.81991E+01 5.88678E-03 5.26661E+00 4.34113E-12-5.23588E-13
 -1     12466 1.85338E-01-3.82067E+01 4.85086E-03 5.26838E+00-1.73127E-03-3.33490E-03
 -1     12467 1.87692E-01-3.82279E+01 2.06380E-03 5.27254E+00-1.50346E-03-5.07633E-03
 -1     12468-1.84321E+00-3.52001E+01 1.93125E-03 9.90363E+00 3.01482E-03 4.53316E-03
 -1     12469-1.84364E+00-3.51814E+01 4.71608E-03 9.89594E+00 3.02889E-03 2.72168E-03
 -1     12470-1.84305E+00-3.51747E+01 5.71889E-03 9.89287E+00 2.84687E-12-4.87740E-13
 -1     12471-1.84364E+00-3.51814E+01 4.71608E-03 9.89594E+00-3.02889E-03-2.72168E-03
 -1     12472-1.84321E+00-3.52001E+01 1.93125E-03 9.90363E+00-3.01482E-03-4.53316E-03
 -1     12473-4.84230E+00-3.05733E+01 1.71556E-03 1.33587E+01 4.26504E-03 3.66922E-03
 -1     12474-4.83994E+00-3.05585E+01 4.47856E-03 1.33486E+01 4.14358E-03 1.76386E-03
 -1     12475-4.83799E+00-3.05531E+01 5.44571E-03 1.33446E+01 2.09034E-12-1.06837E-12
 -1     12476-4.83994E+00-3.05585E+01 4.47856E-03 1.33486E+01-4.14358E-03-1.76386E-03
 -1     12477-4.84230E+00-3.05733E+01 1.71556E-03 1.33587E+01-4.26504E-03-3.66922E-03
 -1     12478-8.29834E+00-2.48899E+01 1.39121E-03 1.52754E+01 5.14947E-03 2.61845E-03
 -1     12479-8.29292E+00-2.48796E+01 4.13501E-03 1.52644E+01 4.96142E-03 5.33494E-04
 -1     12480-8.28933E+00-2.48758E+01 5.09577E-03 1.52601E+01 1.66180E-12-1.22469E-12
 -1     12481-8.29292E+00-2.48796E+01 4.13501E-03 1.52644E+01-4.96142E-03-5.33494E-04
 -1     12482-8.29834E+00-2.48899E+01 1.39121E-03 1.52754E+01-5.14947E-03-2.61845E-03
 -1     12483-1.16121E+01-1.87900E+01 8.61616E-04 1.55173E+01 5.61928E-03 1.53775E-03
 -1     12484-1.16041E+01-1.87845E+01 3.60185E-03 1.55070E+01 5.35997E-03-8.43359E-04
 -1     12485-1.15988E+01-1.87824E+01 4.64960E-03 1.55030E+01 7.67547E-13-7.54284E-13
 -1     12486-1.16041E+01-1.87845E+01 3.60185E-03 1.55070E+01-5.35997E-03 8.43359E-04
 -1     12487-1.16121E+01-1.87900E+01 8.61616E-04 1.55173E+01-5.61928E-03-1.53775E-03
 -1     12488-1.41892E+01-1.29175E+01 8.36456E-05 1.41912E+01 5.62859E-03 7.31646E-04
 -1     12489-1.41803E+01-1.29166E+01 2.91966E-03 1.41831E+01 5.15127E-03-2.05783E-03
 -1     12490-1.41736E+01-1.29158E+01 4.28636E-03 1.41802E+01 2.80203E-13-6.87605E-13
 -1     12491-1.41803E+01-1.29166E+01 2.91966E-03 1.41831E+01-5.15127E-03 2.05783E-03
 -1     12492-1.41892E+01-1.29175E+01 8.36456E-05 1.41912E+01-5.62859E-03-7.31646E-04
 -1     12493-1.55298E+01-7.82423E+00-1.46985E-03 1.16245E+01 5.47105E-03 9.98077E-05
 -1     12494-1.55230E+01-7.82731E+00 1.46227E-03 1.16200E+01 4.24705E-03-2.67056E-03
 -1     12495-1.55159E+01-7.82751E+00 3.62807E-03 1.16189E+01-7.04069E-13 4.80785E-13
 -1     12496-1.55230E+01-7.82731E+00 1.46227E-03 1.16200E+01-4.24705E-03 2.67056E-03
 -1     12497-1.55298E+01-7.82423E+00-1.46985E-03 1.16245E+01-5.47105E-03-9.98077E-05
 -1     12498-1.52892E+01-3.89082E+00-3.79370E-03 8.30050E+00 5.23650E-03 8.77874E-04
 -1     12499-1.52899E+01-3.89757E+00 7.44887E-05 8.29984E+00 2.32502E-03-9.36607E-04
 -1     12500-1.52852E+01-3.89818E+00 4.13173E-03 8.30120E+00-1.29400E-12 1.78474E-12
 -1     12501-1.52899E+01-3.89757E+00 7.44887E-05 8.29984E+00-2.32502E-03 9.36607E-04
 -1     12502-1.52892E+01-3.89082E+00-3.79370E-03 8.30050E+00-5.23650E-03-8.77874E-04
 -1     12503-1.32847E+01-1.27368E+00-1.12831E-02 4.77474E+00 7.98475E-03-4.79859E-03
 -1     12504-1.32985E+01-1.28465E+00-8.10694E-03 4.77654E+00 1.61024E-03 1.57161E-03
 -1     12505-1.33015E+01-1.28571E+00-8.81615E-04 4.78001E+00-1.69945E-12 2.88881E-12
 -1     12506-1.32985E+01-1.28465E+00-8.10694E-03 4.77654E+00-1.61024E-03-1.57161E-03
 -1     12507-1.32847E+01-1.27368E+00-1.12831E-02 4.77474E+00-7.98475E-03 4.79859E-03
 -1     12508-9.40002E+00 4.30540E-02-4.75629E-02 1.57405E+00 1.66375E-02-2.62899E-02
 -1     12509-9.40405E+00 2.44342E-02-4.84430E-02 1.57174E+00 6.02222E-03-4.04448E-03
 -1     12510-9.41522E+00 2.08570E-02-3.99256E-02 1.57263E+00-1.82051E-12 4.90470E-12
 -1     12511-9.40405E+00 2.44342E-02-4.84430E-02 1.57174E+00-6.02222E-03 4.04448E-03
 -1     12512-9.40002E+00 4.30540E-02-4.75629E-02 1.57405E+00-1.66375E-02 2.62899E-02
 -1     12513-3.41527E+00 3.14506E-01-2.66865E-01-7.75261E-01 3.08308E-03-2.28461E-01
 -1     12514-3.35528E+00 2.88618E-01-3.92955E-01-7.15563E-01 6.12872E-03-1.40370E-01
 -1     12515-3.34118E+00 2.76877E-01-4.35974E-01-7.05134E-01-1.65468E-12 8.10942E-12
 -1     12516-3.35528E+00 2.88618E-01-3.92955E-01-7.15563E-01-6.12872E-03 1.40370E-01
 -1     12517-3.41527E+00 3.14506E-01-2.66865E-01-7.75261E-01-3.08308E-03 2.28461E-01
 -3
    1PSTEP                         3           1           1          
  100CL  101 1.000000000       12517                     0    1           1
 -4  ERROR       1    1
 -5  STR(%)      1    1    0    0
 -1         1 6.88905E+01
 -1         2 6.26137E+01
 -1         3 6.45782E+01
 -1         4 4.50507E+01
 -1         5 6.88905E+01
 -1         6 6.26137E+01
 -1         7 6.45782E+01
 -1         8 4.50507E+01
 -1         9 6.88905E+01
 -1        10 2.95367E+01
 -1        11 2.39865E+01
 -1        12 1.54208E+01
 -1        13 1.20774E+01
 -1        14 8.53932E+00
 -1        15 5.31186E+00
 -1        16 7.88714E+00
 -1        17 1.32255E+01
 -1        18 1.93923E+01
 -1        19 2.63406E+01
 -1        20 3.39288E+01
 -1        21 4.19209E+01
 -1        22 5.00445E+01
 -1        23 5.87816E+01
 -1        24 6.16872E+01
 -1        25 6.26137E+01
 -1        26 6.88905E+01
 -1        27 4.92136E+01
 -1        28 2.67616E+01
 -1        29 1.97036E+01
 -1        30 1.37491E+01
 -1        31 1.03083E+01
 -1        32 6.92559E+00
 -1        33 6.59950E+00
 -1        34 1.05563E+01
 -1        35 1.63089E+01
 -1        36 2.28664E+01
 -1        37 3.01347E+01
 -1        38 3.79248E+01
 -1        39 4.59827E+01
 -1        40 5.44130E+01
 -1        41 6.02344E+01
 -1        42 6.21505E+01
 -1        43 6.26137E+01
 -1        44 6.26137E+01
 -1        45 5.25333E+01
 -1        46 2.32479E+01
 -1        47 9.84452E+00
 -1        48 5.57641E+00
 -1        49 3.34092E+00
 -1        50 2.73926E+00
 -1        51 2.29794E+00
 -1        52 1.96367E+00
 -1        53 1.69814E+00
 -1        54 1.47435E+00
 -1        55 1.27383E+00
 -1        56 1.45800E+00
 -1        57 1.64852E+00
 -1        58 1.85348E+00
 -1        59 2.08276E+00
 -1        60 2.35139E+00
 -1        61 2.68532E+00
 -1        62 3.14117E+00
 -1        63 4.42394E+00
 -1        64 9.68418E+00
 -1        65 3.00111E+01
 -1        66 6.45782E+01
 -1        67 6.26137E+01
 -1        68 5.75735E+01
 -1        69 3.78906E+01
 -1        70 1.65462E+01
 -1        71 7.71047E+00
 -1        72 4.45867E+00
 -1        73 3.04009E+00
 -1        74 2.51860E+00
 -1        75 2.13081E+00
 -1        76 1.83090E+00
 -1        77 1.58625E+00
 -1        78 1.37409E+00
 -1        79 1.36592E+00
 -1        80 1.55326E+00
 -1        81 1.75100E+00
 -1        82 1.96812E+00
 -1        83 2.21708E+00
 -1        84 2.51836E+00
 -1        85 2.91325E+00
 -1        86 3.78256E+00
 -1        87 7.05406E+00
 -1        88 1.98477E+01
 -1        89 4.72947E+01
 -1        90 6.45782E+01
 -1        91 6.45782E+01
 -1        92 2.94340E+01
 -1        93 1.00648E+01
 -1        94 3.01587E+00
 -1        95 1.75721E+00
 -1        96 1.93522E+00
 -1        97 2.01727E+00
 -1        98 2.01727E+00
 -1        99 2.95523E+00
 -1       100 2.95523E+00
 -1       101 2.45049E+00
 -1       102 2.11387E+00
 -1       103 1.99458E+00
 -1       104 1.76282E+00
 -1       105 1.99570E+00
 -1       106 1.35068E+01
 -1       107 4.50507E+01
 -1       108 6.45782E+01
 -1       109 4.70061E+01
 -1       110 1.97494E+01
 -1       111 6.54034E+00
 -1       112 2.38654E+00
 -1       113 1.84622E+00
 -1       114 1.97625E+00
 -1       115 2.01727E+00
 -1       116 2.48625E+00
 -1       117 2.95523E+00
 -1       118 2.70286E+00
 -1       119 2.28218E+00
 -1       120 2.05422E+00
 -1       121 1.87870E+00
 -1       122 1.87926E+00
 -1       123 7.75125E+00
 -1       124 2.92788E+01
 -1       125 4.50507E+01
 -1       126 6.88905E+01
 -1       127 3.43757E+01
 -1       128 3.13450E+01
 -1       129 7.23952E+00
 -1       130 5.04688E+00
 -1       131 3.66321E+00
 -1       132 3.59770E+00
 -1       133 3.50625E+00
 -1       134 3.40859E+00
 -1       135 3.29091E+00
 -1       136 3.15845E+00
 -1       137 3.02068E+00
 -1       138 3.19061E+00
 -1       139 3.36242E+00
 -1       140 3.54213E+00
 -1       141 3.97191E+00
 -1       142 4.79002E+00
 -1       143 5.77262E+00
 -1       144 6.98235E+00
 -1       145 8.40972E+00
 -1       146 1.02109E+01
 -1       147 3.65319E+01
 -1       148 4.50507E+01
 -1       149 6.88905E+01
 -1       150 5.16331E+01
 -1       151 3.28604E+01
 -1       152 1.92923E+01
 -1       153 6.14320E+00
 -1       154 4.35505E+00
 -1       155 3.63045E+00
 -1       156 3.55197E+00
 -1       157 3.45742E+00
 -1       158 3.34975E+00
 -1       159 3.22468E+00
 -1       160 3.08957E+00
 -1       161 3.10565E+00
 -1       162 3.27652E+00
 -1       163 3.45228E+00
 -1       164 3.75702E+00
 -1       165 4.38097E+00
 -1       166 5.28132E+00
 -1       167 6.37749E+00
 -1       168 7.69603E+00
 -1       169 9.31030E+00
 -1       170 2.33714E+01
 -1       171 4.07913E+01
 -1       172 4.50507E+01
 -1       173 6.88905E+01
 -1       174 2.95367E+01
 -1       175 2.39865E+01
 -1       176 1.54208E+01
 -1       177 1.20774E+01
 -1       178 8.53932E+00
 -1       179 5.31186E+00
 -1       180 7.88714E+00
 -1       181 1.32255E+01
 -1       182 1.93923E+01
 -1       183 2.63406E+01
 -1       184 3.39288E+01
 -1       185 4.19209E+01
 -1       186 5.00445E+01
 -1       187 5.87816E+01
 -1       188 6.16872E+01
 -1       189 6.26137E+01
 -1       190 6.88905E+01
 -1       191 4.92136E+01
 -1       192 2.67616E+01
 -1       193 1.97036E+01
 -1       194 1.37491E+01
 -1       195 1.03083E+01
 -1       196 6.92559E+00
 -1       197 6.59950E+00
 -1       198 1.05563E+01
 -1       199 1.63089E+01
 -1       200 2.28664E+01
 -1       201 3.01347E+01
 -1       202 3.79248E+01
 -1       203 4.59827E+01
 -1       204 5.44130E+01
 -1       205 6.02344E+01
 -1       206 6.21505E+01
 -1       207 6.26137E+01
 -1       208 6.26137E+01
 -1       209 5.25333E+01
 -1       210 2.32479E+01
 -1       211 9.84452E+00
 -1       212 5.57641E+00
 -1       213 3.34092E+00
 -1       214 2.73926E+00
 -1       215 2.29794E+00
 -1       216 1.96367E+00
 -1       217 1.69814E+00
 -1       218 1.47435E+00
 -1       219 1.27383E+00
 -1       220 1.45800E+00
 -1       221 1.64852E+00
 -1       222 1.85348E+00
 -1       223 2.08276E+00
 -1       224 2.35139E+00
 -1       225 2.68532E+00
 -1       226 3.14117E+00
 -1       227 4.42394E+00
 -1       228 9.68418E+00
 -1       229 3.00111E+01
 -1       230 6.45782E+01
 -1       231 6.26137E+01
 -1       232 5.75735E+01
 -1       233 3.78906E+01
 -1       234 1.65462E+01
 -1       235 7.71047E+00
 -1       236 4.45867E+00
 -1       237 3.04009E+00
 -1       238 2.51860E+00
 -1       239 2.13081E+00
 -1       240 1.83090E+00
 -1       241 1.58625E+00
 -1       242 1.37409E+00
 -1       243 1.36592E+00
 -1       244 1.55326E+00
 -1       245 1.75100E+00
 -1       246 1.96812E+00
 -1       247 2.21708E+00
 -1       248 2.51836E+00
 -1       249 2.91325E+00
 -1       250 3.78256E+00
 -1       251 7.05406E+00
 -1       252 1.98477E+01
 -1       253 4.72947E+01
 -1       254 6.45782E+01
 -1       255 6.45782E+01
 -1       256 2.94340E+01
 -1       257 1.00648E+01
 -1       258 3.01587E+00
 -1       259 1.75721E+00
 -1       260 1.93522E+00
 -1       261 2.01727E+00
 -1       262 2.01727E+00
 -1       263 2.95523E+00
 -1       264 2.95523E+00
 -1       265 2.45049E+00
 -1       266 2.11387E+00
 -1       267 1.99458E+00
 -1       268 1.76282E+00
 -1       269 1.99570E+00
 -1       270 1.35068E+01
 -1       271 4.50507E+01
 -1       272 6.45782E+01
 -1       273 4.70061E+01
 -1       274 1.97494E+01
 -1       275 6.54034E+00
 -1       276 2.38654E+00
 -1       277 1.84622E+00
 -1       278 1.97625E+00
 -1       279 2.01727E+00
 -1       280 2.48625E+00
 -1       281 2.95523E+00
 -1       282 2.70286E+00
 -1       283 2.28218E+00
 -1       284 2.05422E+00
 -1       285 1.87870E+00
 -1       286 1.87926E+00
 -1       287 7.75125E+00
 -1       288 2.92788E+01
 -1       289 4.50507E+01
 -1       290 4.50507E+01
 -1       291 3.65319E+01
 -1       292 1.02109E+01
 -1       293 8.40972E+00
 -1       294 6.98235E+00
 -1       295 5.77262E+00
 -1       296 4.79002E+00
 -1       297 3.97191E+00
 -1       298 3.54213E+00
 -1       299 3.36242E+00
 -1       300 3.19061E+00
 -1       301 3.02068E+00
 -1       302 3.15845E+00
 -1       303 3.29091E+00
 -1       304 3.40859E+00
 -1       305 3.50625E+00
 -1       306 3.59770E+00
 -1       307 3.66321E+00
 -1       308 5.04688E+00
 -1       309 7.23952E+00
 -1       310 3.13450E+01
 -1       311 3.43757E+01
 -1       312 6.88905E+01
 -1       313 4.50507E+01
 -1       314 4.07913E+01
 -1       315 2.33714E+01
 -1       316 9.31030E+00
 -1       317 7.69603E+00
 -1       318 6.37749E+00
 -1       319 5.28132E+00
 -1       320 4.38097E+00
 -1       321 3.75702E+00
 -1       322 3.45228E+00
 -1       323 3.27652E+00
 -1       324 3.10565E+00
 -1       325 3.08957E+00
 -1       326 3.22468E+00
 -1       327 3.34975E+00
 -1       328 3.45742E+00
 -1       329 3.55197E+00
 -1       330 3.63045E+00
 -1       331 4.35505E+00
 -1       332 6.14320E+00
 -1       333 1.92923E+01
 -1       334 3.28604E+01
 -1       335 5.16331E+01
 -1       336 6.88905E+01
 -1       337 7.77530E+01
 -1       338 7.80202E+01
 -1       339 7.80202E+01
 -1       340 7.80202E+01
 -1       341 7.77530E+01
 -1       342 7.33218E+01
 -1       343 7.78866E+01
 -1       344 7.80202E+01
 -1       345 7.80202E+01
 -1       346 7.78866E+01
 -1       347 7.33218E+01
 -1       348 6.26137E+01
 -1       349 6.07019E+01
 -1       350 6.05338E+01
 -1       351 6.07019E+01
 -1       352 6.26137E+01
 -1       353 6.26137E+01
 -1       354 6.16578E+01
 -1       355 6.06178E+01
 -1       356 6.06178E+01
 -1       357 6.16578E+01
 -1       358 6.26137E+01
 -1       359 6.62005E+01
 -1       360 6.64728E+01
 -1       361 6.64728E+01
 -1       362 6.64728E+01
 -1       363 6.62005E+01
 -1       364 6.53893E+01
 -1       365 6.63366E+01
 -1       366 6.64728E+01
 -1       367 6.64728E+01
 -1       368 6.63366E+01
 -1       369 6.53893E+01
 -1       370 4.50507E+01
 -1       371 4.13443E+01
 -1       372 4.11350E+01
 -1       373 4.13443E+01
 -1       374 4.50507E+01
 -1       375 4.50507E+01
 -1       376 4.31975E+01
 -1       377 4.12397E+01
 -1       378 4.12397E+01
 -1       379 4.31975E+01
 -1       380 4.50507E+01
 -1       381 6.88905E+01
 -1       382 5.29927E+01
 -1       383 3.13450E+01
 -1       384 1.65353E+01
 -1       385 9.13083E+00
 -1       386 5.43008E+00
 -1       387 3.87073E+00
 -1       388 3.50625E+00
 -1       389 3.40859E+00
 -1       390 3.29091E+00
 -1       391 3.15845E+00
 -1       392 3.02068E+00
 -1       393 3.19061E+00
 -1       394 3.36242E+00
 -1       395 3.54213E+00
 -1       396 3.97191E+00
 -1       397 4.79002E+00
 -1       398 5.77262E+00
 -1       399 6.98235E+00
 -1       400 8.40972E+00
 -1       401 1.02109E+01
 -1       402 3.65319E+01
 -1       403 4.50507E+01
 -1       404 5.29927E+01
 -1       405 5.29927E+01
 -1       406 2.41102E+01
 -1       407 1.65353E+01
 -1       408 9.13083E+00
 -1       409 5.43008E+00
 -1       410 3.87073E+00
 -1       411 3.46873E+00
 -1       412 3.31358E+00
 -1       413 3.18377E+00
 -1       414 3.05647E+00
 -1       415 2.93023E+00
 -1       416 3.07662E+00
 -1       417 3.21104E+00
 -1       418 3.33382E+00
 -1       419 3.44291E+00
 -1       420 3.53017E+00
 -1       421 3.57153E+00
 -1       422 3.57153E+00
 -1       423 3.51258E+00
 -1       424 3.21103E+00
 -1       425 5.50736E+00
 -1       426 1.35068E+01
 -1       427 5.27074E+01
 -1       428 5.27074E+01
 -1       429 3.51725E+01
 -1       430 8.05613E+00
 -1       431 8.05613E+00
 -1       432 5.19569E+00
 -1       433 3.62177E+00
 -1       434 3.36005E+00
 -1       435 3.21197E+00
 -1       436 3.10785E+00
 -1       437 3.03013E+00
 -1       438 2.99117E+00
 -1       439 3.00990E+00
 -1       440 3.07572E+00
 -1       441 3.10590E+00
 -1       442 3.10590E+00
 -1       443 3.09566E+00
 -1       444 3.03545E+00
 -1       445 2.92005E+00
 -1       446 2.73542E+00
 -1       447 2.48449E+00
 -1       448 2.29382E+00
 -1       449 2.26211E+00
 -1       450 1.63157E+01
 -1       451 3.51725E+01
 -1       452 3.51725E+01
 -1       453 2.53298E+00
 -1       454 2.99403E+00
 -1       455 3.06758E+00
 -1       456 3.06758E+00
 -1       457 3.04869E+00
 -1       458 3.03691E+00
 -1       459 3.09649E+00
 -1       460 3.20811E+00
 -1       461 3.20811E+00
 -1       462 3.20602E+00
 -1       463 3.08408E+00
 -1       464 2.95842E+00
 -1       465 2.86648E+00
 -1       466 2.74051E+00
 -1       467 2.60092E+00
 -1       468 2.46730E+00
 -1       469 2.35526E+00
 -1       470 2.37028E+00
 -1       471 2.40126E+00
 -1       472 2.40126E+00
 -1       473 1.40896E+01
 -1       474 2.18054E+01
 -1       475 2.18054E+01
 -1       476 2.50808E+00
 -1       477 2.04035E+00
 -1       478 2.28830E+00
 -1       479 2.47688E+00
 -1       480 2.65550E+00
 -1       481 2.91569E+00
 -1       482 3.45174E+00
 -1       483 4.02212E+00
 -1       484 4.06930E+00
 -1       485 4.06930E+00
 -1       486 3.48236E+00
 -1       487 3.00513E+00
 -1       488 2.55456E+00
 -1       489 2.37084E+00
 -1       490 2.24502E+00
 -1       491 2.17526E+00
 -1       492 2.22540E+00
 -1       493 2.41607E+00
 -1       494 2.48195E+00
 -1       495 2.48195E+00
 -1       496 8.99463E+00
 -1       497 9.75582E+00
 -1       498 9.75582E+00
 -1       499 2.84353E+00
 -1       500 1.87005E+00
 -1       501 1.68403E+00
 -1       502 2.01650E+00
 -1       503 2.42335E+00
 -1       504 2.91569E+00
 -1       505 3.45174E+00
 -1       506 4.02212E+00
 -1       507 4.06930E+00
 -1       508 4.06930E+00
 -1       509 3.48236E+00
 -1       510 3.00513E+00
 -1       511 2.61386E+00
 -1       512 2.28509E+00
 -1       513 2.00359E+00
 -1       514 2.07274E+00
 -1       515 2.21288E+00
 -1       516 2.43466E+00
 -1       517 2.55774E+00
 -1       518 2.55774E+00
 -1       519 5.32208E+00
 -1       520 6.25373E+00
 -1       521 6.25373E+00
 -1       522 3.10756E+00
 -1       523 2.05328E+00
 -1       524 1.85222E+00
 -1       525 2.16200E+00
 -1       526 2.42335E+00
 -1       527 2.83957E+00
 -1       528 3.28403E+00
 -1       529 3.80035E+00
 -1       530 3.94265E+00
 -1       531 3.94265E+00
 -1       532 3.37077E+00
 -1       533 2.96888E+00
 -1       534 2.61386E+00
 -1       535 2.31887E+00
 -1       536 2.09730E+00
 -1       537 2.03516E+00
 -1       538 2.20655E+00
 -1       539 2.43466E+00
 -1       540 2.63995E+00
 -1       541 2.63995E+00
 -1       542 7.88714E+00
 -1       543 3.52397E+00
 -1       544 3.52397E+00
 -1       545 3.34179E+00
 -1       546 2.25209E+00
 -1       547 2.07564E+00
 -1       548 2.28669E+00
 -1       549 2.39761E+00
 -1       550 2.51450E+00
 -1       551 2.51450E+00
 -1       552 2.36901E+00
 -1       553 1.65937E+00
 -1       554 2.33990E+00
 -1       555 2.54495E+00
 -1       556 2.54495E+00
 -1       557 2.48580E+00
 -1       558 2.31887E+00
 -1       559 2.18711E+00
 -1       560 2.07330E+00
 -1       561 2.20639E+00
 -1       562 2.43303E+00
 -1       563 2.72030E+00
 -1       564 2.95523E+00
 -1       565 1.32255E+01
 -1       566 3.17666E+00
 -1       567 3.56660E+00
 -1       568 3.56660E+00
 -1       569 2.46302E+00
 -1       570 2.28676E+00
 -1       571 2.39430E+00
 -1       572 2.39430E+00
 -1       573 2.35615E+00
 -1       574 2.25563E+00
 -1       575 1.94867E+00
 -1       576 1.55163E+00
 -1       577 1.81912E+00
 -1       578 2.14231E+00
 -1       579 2.28340E+00
 -1       580 2.28457E+00
 -1       581 2.28457E+00
 -1       582 2.24301E+00
 -1       583 2.17545E+00
 -1       584 2.23263E+00
 -1       585 2.41455E+00
 -1       586 2.80641E+00
 -1       587 2.95523E+00
 -1       588 1.93923E+01
 -1       589 5.14773E+00
 -1       590 3.56660E+00
 -1       591 3.56660E+00
 -1       592 2.70160E+00
 -1       593 2.48945E+00
 -1       594 2.49103E+00
 -1       595 2.49103E+00
 -1       596 2.33315E+00
 -1       597 2.12788E+00
 -1       598 1.86597E+00
 -1       599 1.69106E+00
 -1       600 1.70467E+00
 -1       601 1.92613E+00
 -1       602 2.11583E+00
 -1       603 2.22282E+00
 -1       604 2.28086E+00
 -1       605 2.32709E+00
 -1       606 2.32709E+00
 -1       607 2.32179E+00
 -1       608 2.38315E+00
 -1       609 2.84692E+00
 -1       610 2.84692E+00
 -1       611 2.63406E+01
 -1       612 8.50669E+00
 -1       613 2.54442E+00
 -1       614 2.70160E+00
 -1       615 2.70160E+00
 -1       616 2.48945E+00
 -1       617 2.98928E+00
 -1       618 3.52623E+00
 -1       619 4.55918E+00
 -1       620 5.36735E+00
 -1       621 5.69113E+00
 -1       622 5.69773E+00
 -1       623 5.69773E+00
 -1       624 5.43520E+00
 -1       625 4.81388E+00
 -1       626 3.82671E+00
 -1       627 3.32967E+00
 -1       628 2.86285E+00
 -1       629 2.32709E+00
 -1       630 2.32179E+00
 -1       631 2.34944E+00
 -1       632 2.84692E+00
 -1       633 2.84692E+00
 -1       634 3.39288E+01
 -1       635 1.21524E+01
 -1       636 3.35959E+00
 -1       637 1.60100E+00
 -1       638 1.64048E+00
 -1       639 2.37409E+00
 -1       640 2.98928E+00
 -1       641 3.52623E+00
 -1       642 4.55918E+00
 -1       643 5.36735E+00
 -1       644 5.69113E+00
 -1       645 5.69773E+00
 -1       646 5.69773E+00
 -1       647 5.43520E+00
 -1       648 4.81388E+00
 -1       649 3.82671E+00
 -1       650 3.32967E+00
 -1       651 2.86285E+00
 -1       652 2.55146E+00
 -1       653 2.13809E+00
 -1       654 1.51658E+00
 -1       655 9.87450E-01
 -1       656 1.93522E+00
 -1       657 4.19209E+01
 -1       658 1.62355E+01
 -1       659 5.66884E+00
 -1       660 2.36753E+00
 -1       661 2.03672E+00
 -1       662 2.36904E+00
 -1       663 2.58454E+00
 -1       664 2.88549E+00
 -1       665 3.03028E+00
 -1       666 3.06083E+00
 -1       667 3.06083E+00
 -1       668 3.01077E+00
 -1       669 3.07072E+00
 -1       670 3.09291E+00
 -1       671 3.09291E+00
 -1       672 3.06483E+00
 -1       673 2.97766E+00
 -1       674 2.81565E+00
 -1       675 2.70218E+00
 -1       676 2.54160E+00
 -1       677 2.13590E+00
 -1       678 1.60051E+00
 -1       679 1.75721E+00
 -1       680 5.00445E+01
 -1       681 2.09177E+01
 -1       682 9.03938E+00
 -1       683 3.12514E+00
 -1       684 2.52586E+00
 -1       685 2.56414E+00
 -1       686 2.56414E+00
 -1       687 2.59769E+00
 -1       688 2.59769E+00
 -1       689 2.55971E+00
 -1       690 2.46765E+00
 -1       691 2.34082E+00
 -1       692 2.45849E+00
 -1       693 2.56693E+00
 -1       694 2.65406E+00
 -1       695 2.71555E+00
 -1       696 2.74020E+00
 -1       697 2.77121E+00
 -1       698 2.84184E+00
 -1       699 2.84184E+00
 -1       700 2.74017E+00
 -1       701 2.67988E+00
 -1       702 3.01587E+00
 -1       703 5.87816E+01
 -1       704 2.66389E+01
 -1       705 1.30251E+01
 -1       706 4.49250E+00
 -1       707 3.10280E+00
 -1       708 2.91918E+00
 -1       709 2.68839E+00
 -1       710 2.50420E+00
 -1       711 2.38622E+00
 -1       712 2.24002E+00
 -1       713 2.08080E+00
 -1       714 1.91359E+00
 -1       715 2.06217E+00
 -1       716 2.21445E+00
 -1       717 2.36221E+00
 -1       718 2.50696E+00
 -1       719 2.64683E+00
 -1       720 2.78733E+00
 -1       721 3.04814E+00
 -1       722 3.28767E+00
 -1       723 3.45779E+00
 -1       724 6.63415E+00
 -1       725 1.00648E+01
 -1       726 6.16872E+01
 -1       727 3.43580E+01
 -1       728 1.76854E+01
 -1       729 7.15192E+00
 -1       730 3.85699E+00
 -1       731 3.17548E+00
 -1       732 2.72756E+00
 -1       733 2.44741E+00
 -1       734 2.21791E+00
 -1       735 2.00562E+00
 -1       736 1.80770E+00
 -1       737 1.61793E+00
 -1       738 1.78615E+00
 -1       739 1.96272E+00
 -1       740 2.14483E+00
 -1       741 2.33853E+00
 -1       742 2.55044E+00
 -1       743 2.78733E+00
 -1       744 3.11013E+00
 -1       745 3.62927E+00
 -1       746 6.02012E+00
 -1       747 1.64022E+01
 -1       748 2.94340E+01
 -1       749 6.26137E+01
 -1       750 5.25333E+01
 -1       751 2.32479E+01
 -1       752 9.84452E+00
 -1       753 5.57641E+00
 -1       754 3.34092E+00
 -1       755 2.73926E+00
 -1       756 2.36270E+00
 -1       757 2.06558E+00
 -1       758 1.81729E+00
 -1       759 1.60070E+00
 -1       760 1.40180E+00
 -1       761 1.57992E+00
 -1       762 1.76676E+00
 -1       763 1.96466E+00
 -1       764 2.18210E+00
 -1       765 2.43077E+00
 -1       766 2.72962E+00
 -1       767 3.14117E+00
 -1       768 4.42394E+00
 -1       769 9.68418E+00
 -1       770 3.00111E+01
 -1       771 6.45782E+01
 -1       772 6.88905E+01
 -1       773 6.88905E+01
 -1       774 6.09416E+01
 -1       775 4.36842E+01
 -1       776 4.21689E+01
 -1       777 3.13450E+01
 -1       778 2.39401E+01
 -1       779 1.18874E+01
 -1       780 1.28330E+01
 -1       781 7.08886E+00
 -1       782 7.28046E+00
 -1       783 4.54664E+00
 -1       784 4.65040E+00
 -1       785 3.73421E+00
 -1       786 3.68849E+00
 -1       787 3.50625E+00
 -1       788 3.45742E+00
 -1       789 3.40859E+00
 -1       790 3.34975E+00
 -1       791 3.29091E+00
 -1       792 3.22468E+00
 -1       793 3.15845E+00
 -1       794 3.08957E+00
 -1       795 3.02068E+00
 -1       796 3.10565E+00
 -1       797 3.19061E+00
 -1       798 3.27652E+00
 -1       799 3.36242E+00
 -1       800 3.45228E+00
 -1       801 3.54213E+00
 -1       802 3.75702E+00
 -1       803 3.97191E+00
 -1       804 4.38097E+00
 -1       805 4.79002E+00
 -1       806 5.28132E+00
 -1       807 5.77262E+00
 -1       808 6.37749E+00
 -1       809 6.98235E+00
 -1       810 7.69603E+00
 -1       811 8.40972E+00
 -1       812 9.31030E+00
 -1       813 1.02109E+01
 -1       814 2.33714E+01
 -1       815 3.65319E+01
 -1       816 4.07913E+01
 -1       817 4.50507E+01
 -1       818 4.50507E+01
 -1       819 4.12647E+01
 -1       820 6.09416E+01
 -1       821 5.29927E+01
 -1       822 5.29927E+01
 -1       823 3.85514E+01
 -1       824 2.77276E+01
 -1       825 2.03227E+01
 -1       826 1.65353E+01
 -1       827 1.28330E+01
 -1       828 9.13083E+00
 -1       829 7.28046E+00
 -1       830 5.43008E+00
 -1       831 4.65040E+00
 -1       832 3.87073E+00
 -1       833 3.66973E+00
 -1       834 3.48749E+00
 -1       835 3.39116E+00
 -1       836 3.36108E+00
 -1       837 3.24868E+00
 -1       838 3.23734E+00
 -1       839 3.12012E+00
 -1       840 3.10746E+00
 -1       841 2.99335E+00
 -1       842 2.97546E+00
 -1       843 3.00343E+00
 -1       844 3.13362E+00
 -1       845 3.14383E+00
 -1       846 3.28673E+00
 -1       847 3.27243E+00
 -1       848 3.43798E+00
 -1       849 3.38837E+00
 -1       850 3.70741E+00
 -1       851 3.48654E+00
 -1       852 4.16009E+00
 -1       853 3.55085E+00
 -1       854 4.67208E+00
 -1       855 3.57153E+00
 -1       856 5.27694E+00
 -1       857 3.54205E+00
 -1       858 5.96115E+00
 -1       859 3.36181E+00
 -1       860 6.71096E+00
 -1       861 4.35920E+00
 -1       862 2.10196E+01
 -1       863 9.50707E+00
 -1       864 2.92788E+01
 -1       865 1.35068E+01
 -1       866 3.83470E+01
 -1       867 5.28501E+01
 -1       868 5.27074E+01
 -1       869 5.28501E+01
 -1       870 4.39400E+01
 -1       871 2.96413E+01
 -1       872 2.16143E+01
 -1       873 1.22957E+01
 -1       874 8.05613E+00
 -1       875 8.59348E+00
 -1       876 6.62591E+00
 -1       877 5.31288E+00
 -1       878 4.40873E+00
 -1       879 3.74625E+00
 -1       880 3.49091E+00
 -1       881 3.41439E+00
 -1       882 3.28601E+00
 -1       883 3.26278E+00
 -1       884 3.15991E+00
 -1       885 3.14581E+00
 -1       886 3.06899E+00
 -1       887 3.04330E+00
 -1       888 3.01065E+00
 -1       889 2.96070E+00
 -1       890 3.00054E+00
 -1       891 3.04326E+00
 -1       892 3.04281E+00
 -1       893 3.14338E+00
 -1       894 3.09081E+00
 -1       895 3.21986E+00
 -1       896 3.10590E+00
 -1       897 3.27441E+00
 -1       898 3.10078E+00
 -1       899 3.31292E+00
 -1       900 3.06556E+00
 -1       901 3.30349E+00
 -1       902 2.97775E+00
 -1       903 3.24579E+00
 -1       904 2.82773E+00
 -1       905 3.12400E+00
 -1       906 2.60995E+00
 -1       907 2.84776E+00
 -1       908 2.38915E+00
 -1       909 3.90059E+00
 -1       910 2.27797E+00
 -1       911 7.88445E+00
 -1       912 2.12891E+00
 -1       913 1.58682E+01
 -1       914 3.45116E+01
 -1       915 2.57441E+01
 -1       916 4.39400E+01
 -1       917 3.51725E+01
 -1       918 3.51725E+01
 -1       919 1.88527E+01
 -1       920 5.29456E+00
 -1       921 2.76351E+00
 -1       922 5.52508E+00
 -1       923 3.03081E+00
 -1       924 4.13164E+00
 -1       925 3.06758E+00
 -1       926 3.34468E+00
 -1       927 3.05813E+00
 -1       928 3.20437E+00
 -1       929 3.04280E+00
 -1       930 3.12444E+00
 -1       931 3.06670E+00
 -1       932 3.10217E+00
 -1       933 3.15230E+00
 -1       934 3.11912E+00
 -1       935 3.20811E+00
 -1       936 3.09964E+00
 -1       937 3.20706E+00
 -1       938 3.10796E+00
 -1       939 3.14505E+00
 -1       940 3.07990E+00
 -1       941 3.02125E+00
 -1       942 3.03216E+00
 -1       943 2.91245E+00
 -1       944 2.98619E+00
 -1       945 2.80350E+00
 -1       946 2.91809E+00
 -1       947 2.67072E+00
 -1       948 2.81819E+00
 -1       949 2.53411E+00
 -1       950 2.69367E+00
 -1       951 2.41128E+00
 -1       952 2.54534E+00
 -1       953 2.36277E+00
 -1       954 2.42739E+00
 -1       955 2.38577E+00
 -1       956 2.34754E+00
 -1       957 2.40126E+00
 -1       958 2.33169E+00
 -1       959 2.08204E+00
 -1       960 1.30835E+01
 -1       961 1.52027E+01
 -1       962 1.79475E+01
 -1       963 2.84889E+01
 -1       964 2.18054E+01
 -1       965 2.84889E+01
 -1       966 1.21568E+01
 -1       967 2.52053E+00
 -1       968 2.27422E+00
 -1       969 2.51719E+00
 -1       970 2.16432E+00
 -1       971 2.67794E+00
 -1       972 2.38259E+00
 -1       973 2.77223E+00
 -1       974 2.56619E+00
 -1       975 2.85209E+00
 -1       976 2.78559E+00
 -1       977 2.97630E+00
 -1       978 3.18371E+00
 -1       979 3.27411E+00
 -1       980 3.73693E+00
 -1       981 3.61512E+00
 -1       982 4.04571E+00
 -1       983 3.63870E+00
 -1       984 4.06930E+00
 -1       985 3.63766E+00
 -1       986 3.77583E+00
 -1       987 3.28322E+00
 -1       988 3.24374E+00
 -1       989 2.98178E+00
 -1       990 2.77985E+00
 -1       991 2.71052E+00
 -1       992 2.46270E+00
 -1       993 2.55567E+00
 -1       994 2.30793E+00
 -1       995 2.42297E+00
 -1       996 2.21014E+00
 -1       997 2.32128E+00
 -1       998 2.20033E+00
 -1       999 2.29033E+00
 -1      1000 2.32073E+00
 -1      1001 2.39317E+00
 -1      1002 2.44901E+00
 -1      1003 2.44161E+00
 -1      1004 2.48195E+00
 -1      1005 2.44161E+00
 -1      1006 2.23827E+00
 -1      1007 8.76698E+00
 -1      1008 1.15421E+01
 -1      1009 9.37523E+00
 -1      1010 1.57806E+01
 -1      1011 9.75582E+00
 -1      1012 1.57806E+01
 -1      1013 6.29967E+00
 -1      1014 2.67581E+00
 -1      1015 2.35679E+00
 -1      1016 1.95520E+00
 -1      1017 1.77704E+00
 -1      1018 1.98616E+00
 -1      1019 1.85026E+00
 -1      1020 2.24669E+00
 -1      1021 2.21992E+00
 -1      1022 2.53943E+00
 -1      1023 2.66952E+00
 -1      1024 2.91569E+00
 -1      1025 3.18371E+00
 -1      1026 3.45174E+00
 -1      1027 3.73693E+00
 -1      1028 4.02212E+00
 -1      1029 4.04571E+00
 -1      1030 4.06930E+00
 -1      1031 4.06930E+00
 -1      1032 4.06930E+00
 -1      1033 3.77583E+00
 -1      1034 3.48236E+00
 -1      1035 3.24374E+00
 -1      1036 3.00513E+00
 -1      1037 2.80950E+00
 -1      1038 2.58421E+00
 -1      1039 2.44948E+00
 -1      1040 2.32797E+00
 -1      1041 2.14434E+00
 -1      1042 2.12430E+00
 -1      1043 2.03816E+00
 -1      1044 2.12400E+00
 -1      1045 2.14281E+00
 -1      1046 2.21914E+00
 -1      1047 2.32377E+00
 -1      1048 2.42536E+00
 -1      1049 2.49620E+00
 -1      1050 2.51984E+00
 -1      1051 2.55774E+00
 -1      1052 2.51984E+00
 -1      1053 2.33580E+00
 -1      1054 5.31697E+00
 -1      1055 7.15836E+00
 -1      1056 5.78791E+00
 -1      1057 8.00478E+00
 -1      1058 6.25373E+00
 -1      1059 8.00478E+00
 -1      1060 4.68065E+00
 -1      1061 2.97554E+00
 -1      1062 2.58042E+00
 -1      1063 1.96166E+00
 -1      1064 1.95275E+00
 -1      1065 1.76812E+00
 -1      1066 2.00711E+00
 -1      1067 2.08925E+00
 -1      1068 2.29267E+00
 -1      1069 2.42335E+00
 -1      1070 2.63146E+00
 -1      1071 2.87763E+00
 -1      1072 3.06180E+00
 -1      1073 3.36789E+00
 -1      1074 3.54219E+00
 -1      1075 3.91124E+00
 -1      1076 3.87150E+00
 -1      1077 4.00598E+00
 -1      1078 3.94265E+00
 -1      1079 4.00598E+00
 -1      1080 3.65671E+00
 -1      1081 3.42656E+00
 -1      1082 3.16983E+00
 -1      1083 2.98701E+00
 -1      1084 2.79137E+00
 -1      1085 2.61386E+00
 -1      1086 2.46637E+00
 -1      1087 2.30198E+00
 -1      1088 2.20809E+00
 -1      1089 2.05044E+00
 -1      1090 2.06623E+00
 -1      1091 2.05395E+00
 -1      1092 2.12086E+00
 -1      1093 2.20972E+00
 -1      1094 2.32061E+00
 -1      1095 2.43466E+00
 -1      1096 2.53730E+00
 -1      1097 2.59884E+00
 -1      1098 2.63995E+00
 -1      1099 2.59884E+00
 -1      1100 2.54522E+00
 -1      1101 7.88714E+00
 -1      1102 6.60461E+00
 -1      1103 5.70555E+00
 -1      1104 4.88885E+00
 -1      1105 3.52397E+00
 -1      1106 4.88885E+00
 -1      1107 3.43288E+00
 -1      1108 3.22467E+00
 -1      1109 2.79694E+00
 -1      1110 2.15268E+00
 -1      1111 2.16386E+00
 -1      1112 1.96393E+00
 -1      1113 2.18117E+00
 -1      1114 2.22434E+00
 -1      1115 2.34215E+00
 -1      1116 2.41048E+00
 -1      1117 2.45605E+00
 -1      1118 2.67703E+00
 -1      1119 2.51450E+00
 -1      1120 2.89927E+00
 -1      1121 2.44176E+00
 -1      1122 3.08468E+00
 -1      1123 2.01419E+00
 -1      1124 2.80101E+00
 -1      1125 1.99964E+00
 -1      1126 3.14128E+00
 -1      1127 2.44243E+00
 -1      1128 2.95786E+00
 -1      1129 2.54495E+00
 -1      1130 2.75692E+00
 -1      1131 2.51537E+00
 -1      1132 2.54983E+00
 -1      1133 2.40233E+00
 -1      1134 2.31887E+00
 -1      1135 2.25299E+00
 -1      1136 2.14221E+00
 -1      1137 2.13020E+00
 -1      1138 2.05423E+00
 -1      1139 2.13985E+00
 -1      1140 2.20647E+00
 -1      1141 2.31971E+00
 -1      1142 2.43385E+00
 -1      1143 2.57666E+00
 -1      1144 2.68012E+00
 -1      1145 2.83776E+00
 -1      1146 2.79759E+00
 -1      1147 2.95523E+00
 -1      1148 1.32255E+01
 -1      1149 1.05563E+01
 -1      1150 8.20110E+00
 -1      1151 3.35031E+00
 -1      1152 3.37163E+00
 -1      1153 3.54528E+00
 -1      1154 3.56660E+00
 -1      1155 3.45420E+00
 -1      1156 3.01481E+00
 -1      1157 2.35755E+00
 -1      1158 2.37489E+00
 -1      1159 2.18120E+00
 -1      1160 2.34053E+00
 -1      1161 2.34050E+00
 -1      1162 2.39430E+00
 -1      1163 2.39595E+00
 -1      1164 2.37522E+00
 -1      1165 2.43532E+00
 -1      1166 2.30589E+00
 -1      1167 2.38506E+00
 -1      1168 2.10215E+00
 -1      1169 2.15884E+00
 -1      1170 1.75015E+00
 -1      1171 1.60550E+00
 -1      1172 1.68537E+00
 -1      1173 2.07951E+00
 -1      1174 1.98071E+00
 -1      1175 2.34363E+00
 -1      1176 2.21286E+00
 -1      1177 2.41418E+00
 -1      1178 2.28398E+00
 -1      1179 2.38518E+00
 -1      1180 2.28457E+00
 -1      1181 2.30172E+00
 -1      1182 2.26379E+00
 -1      1183 2.21506E+00
 -1      1184 2.20923E+00
 -1      1185 2.12437E+00
 -1      1186 2.20404E+00
 -1      1187 2.21951E+00
 -1      1188 2.32359E+00
 -1      1189 2.42379E+00
 -1      1190 2.61048E+00
 -1      1191 2.76335E+00
 -1      1192 2.88082E+00
 -1      1193 2.95523E+00
 -1      1194 2.95523E+00
 -1      1195 1.93923E+01
 -1      1196 1.63089E+01
 -1      1197 1.22700E+01
 -1      1198 4.16219E+00
 -1      1199 4.35717E+00
 -1      1200 3.56660E+00
 -1      1201 3.56660E+00
 -1      1202 3.56660E+00
 -1      1203 3.13410E+00
 -1      1204 2.58231E+00
 -1      1205 2.59552E+00
 -1      1206 2.38811E+00
 -1      1207 2.49024E+00
 -1      1208 2.44266E+00
 -1      1209 2.49103E+00
 -1      1210 2.44266E+00
 -1      1211 2.41209E+00
 -1      1212 2.34465E+00
 -1      1213 2.23052E+00
 -1      1214 2.19175E+00
 -1      1215 1.99692E+00
 -1      1216 1.90732E+00
 -1      1217 1.77851E+00
 -1      1218 1.62134E+00
 -1      1219 1.69786E+00
 -1      1220 1.76189E+00
 -1      1221 1.81540E+00
 -1      1222 2.03422E+00
 -1      1223 2.02098E+00
 -1      1224 2.19962E+00
 -1      1225 2.16933E+00
 -1      1226 2.25369E+00
 -1      1227 2.25184E+00
 -1      1228 2.28271E+00
 -1      1229 2.30398E+00
 -1      1230 2.28505E+00
 -1      1231 2.32709E+00
 -1      1232 2.25127E+00
 -1      1233 2.32444E+00
 -1      1234 2.27721E+00
 -1      1235 2.35247E+00
 -1      1236 2.39885E+00
 -1      1237 2.61503E+00
 -1      1238 2.82667E+00
 -1      1239 2.84692E+00
 -1      1240 2.90108E+00
 -1      1241 2.43210E+00
 -1      1242 2.63406E+01
 -1      1243 2.28664E+01
 -1      1244 1.74236E+01
 -1      1245 6.82721E+00
 -1      1246 5.52556E+00
 -1      1247 3.05551E+00
 -1      1248 2.62301E+00
 -1      1249 3.13410E+00
 -1      1250 2.70160E+00
 -1      1251 2.70160E+00
 -1      1252 2.59552E+00
 -1      1253 2.48945E+00
 -1      1254 2.73936E+00
 -1      1255 2.74015E+00
 -1      1256 3.25776E+00
 -1      1257 3.00863E+00
 -1      1258 4.04271E+00
 -1      1259 3.44617E+00
 -1      1260 4.96327E+00
 -1      1261 3.74762E+00
 -1      1262 5.52924E+00
 -1      1263 3.77855E+00
 -1      1264 5.69443E+00
 -1      1265 3.69439E+00
 -1      1266 5.69773E+00
 -1      1267 3.70120E+00
 -1      1268 5.56646E+00
 -1      1269 3.68066E+00
 -1      1270 5.12454E+00
 -1      1271 3.46486E+00
 -1      1272 4.32029E+00
 -1      1273 3.02477E+00
 -1      1274 3.57819E+00
 -1      1275 2.80526E+00
 -1      1276 3.09626E+00
 -1      1277 2.59497E+00
 -1      1278 2.59497E+00
 -1      1279 2.32709E+00
 -1      1280 2.32444E+00
 -1      1281 2.32179E+00
 -1      1282 2.33562E+00
 -1      1283 2.36629E+00
 -1      1284 2.59818E+00
 -1      1285 2.84692E+00
 -1      1286 2.84692E+00
 -1      1287 2.84692E+00
 -1      1288 2.43210E+00
 -1      1289 3.39288E+01
 -1      1290 3.01347E+01
 -1      1291 2.30406E+01
 -1      1292 1.03296E+01
 -1      1293 7.75601E+00
 -1      1294 2.95201E+00
 -1      1295 2.48030E+00
 -1      1296 2.15130E+00
 -1      1297 1.62074E+00
 -1      1298 2.17104E+00
 -1      1299 2.00729E+00
 -1      1300 2.43177E+00
 -1      1301 2.68169E+00
 -1      1302 2.98928E+00
 -1      1303 3.25776E+00
 -1      1304 3.52623E+00
 -1      1305 4.04271E+00
 -1      1306 4.55918E+00
 -1      1307 4.96327E+00
 -1      1308 5.36735E+00
 -1      1309 5.52924E+00
 -1      1310 5.69113E+00
 -1      1311 5.69443E+00
 -1      1312 5.69773E+00
 -1      1313 5.69773E+00
 -1      1314 5.69773E+00
 -1      1315 5.56646E+00
 -1      1316 5.43520E+00
 -1      1317 5.12454E+00
 -1      1318 4.81388E+00
 -1      1319 4.32029E+00
 -1      1320 3.82671E+00
 -1      1321 3.57819E+00
 -1      1322 3.32967E+00
 -1      1323 3.09626E+00
 -1      1324 2.86285E+00
 -1      1325 2.70715E+00
 -1      1326 2.43928E+00
 -1      1327 2.34477E+00
 -1      1328 2.22994E+00
 -1      1329 1.82734E+00
 -1      1330 1.93301E+00
 -1      1331 1.25202E+00
 -1      1332 1.91718E+00
 -1      1333 1.46134E+00
 -1      1334 2.39107E+00
 -1      1335 1.93522E+00
 -1      1336 4.19209E+01
 -1      1337 3.79248E+01
 -1      1338 2.90782E+01
 -1      1339 1.41940E+01
 -1      1340 1.09522E+01
 -1      1341 4.51422E+00
 -1      1342 4.01819E+00
 -1      1343 1.98427E+00
 -1      1344 2.20213E+00
 -1      1345 1.83860E+00
 -1      1346 2.20288E+00
 -1      1347 2.37157E+00
 -1      1348 2.47679E+00
 -1      1349 2.78691E+00
 -1      1350 2.73501E+00
 -1      1351 3.20586E+00
 -1      1352 2.95788E+00
 -1      1353 3.79473E+00
 -1      1354 3.04555E+00
 -1      1355 4.21409E+00
 -1      1356 3.06083E+00
 -1      1357 4.37598E+00
 -1      1358 3.03580E+00
 -1      1359 4.35425E+00
 -1      1360 3.04074E+00
 -1      1361 4.38423E+00
 -1      1362 3.08182E+00
 -1      1363 4.26405E+00
 -1      1364 3.09291E+00
 -1      1365 3.95339E+00
 -1      1366 3.07887E+00
 -1      1367 3.44577E+00
 -1      1368 3.02124E+00
 -1      1369 3.15366E+00
 -1      1370 2.89665E+00
 -1      1371 2.83925E+00
 -1      1372 2.75892E+00
 -1      1373 2.62682E+00
 -1      1374 2.62189E+00
 -1      1375 2.33985E+00
 -1      1376 2.33875E+00
 -1      1377 1.82624E+00
 -1      1378 1.86820E+00
 -1      1379 1.29398E+00
 -1      1380 1.67886E+00
 -1      1381 1.84622E+00
 -1      1382 1.75721E+00
 -1      1383 5.00445E+01
 -1      1384 4.59827E+01
 -1      1385 3.54811E+01
 -1      1386 1.85766E+01
 -1      1387 1.49785E+01
 -1      1388 7.35411E+00
 -1      1389 6.08226E+00
 -1      1390 2.74634E+00
 -1      1391 2.82550E+00
 -1      1392 2.28129E+00
 -1      1393 2.54500E+00
 -1      1394 2.46659E+00
 -1      1395 2.56414E+00
 -1      1396 2.57434E+00
 -1      1397 2.58091E+00
 -1      1398 2.74159E+00
 -1      1399 2.59769E+00
 -1      1400 2.81398E+00
 -1      1401 2.57870E+00
 -1      1402 2.81027E+00
 -1      1403 2.51368E+00
 -1      1404 2.76424E+00
 -1      1405 2.40423E+00
 -1      1406 2.67579E+00
 -1      1407 2.39966E+00
 -1      1408 2.76461E+00
 -1      1409 2.51271E+00
 -1      1410 2.82992E+00
 -1      1411 2.61049E+00
 -1      1412 2.87348E+00
 -1      1413 2.68480E+00
 -1      1414 2.89019E+00
 -1      1415 2.72787E+00
 -1      1416 2.85893E+00
 -1      1417 2.75571E+00
 -1      1418 2.79343E+00
 -1      1419 2.80653E+00
 -1      1420 2.77201E+00
 -1      1421 2.84184E+00
 -1      1422 2.69172E+00
 -1      1423 2.79100E+00
 -1      1424 2.43803E+00
 -1      1425 2.71002E+00
 -1      1426 2.14019E+00
 -1      1427 2.84787E+00
 -1      1428 2.38654E+00
 -1      1429 3.01587E+00
 -1      1430 5.87816E+01
 -1      1431 5.44130E+01
 -1      1432 4.27102E+01
 -1      1433 2.37783E+01
 -1      1434 1.98320E+01
 -1      1435 1.10322E+01
 -1      1436 8.75879E+00
 -1      1437 3.80882E+00
 -1      1438 3.79765E+00
 -1      1439 2.81433E+00
 -1      1440 3.01099E+00
 -1      1441 2.74166E+00
 -1      1442 2.80378E+00
 -1      1443 2.62626E+00
 -1      1444 2.59629E+00
 -1      1445 2.55094E+00
 -1      1446 2.44521E+00
 -1      1447 2.49195E+00
 -1      1448 2.31312E+00
 -1      1449 2.39986E+00
 -1      1450 2.16041E+00
 -1      1451 2.27423E+00
 -1      1452 1.99720E+00
 -1      1453 2.12721E+00
 -1      1454 1.98788E+00
 -1      1455 2.26033E+00
 -1      1456 2.13831E+00
 -1      1457 2.39069E+00
 -1      1458 2.28833E+00
 -1      1459 2.50814E+00
 -1      1460 2.43459E+00
 -1      1461 2.61125E+00
 -1      1462 2.57689E+00
 -1      1463 2.69351E+00
 -1      1464 2.71708E+00
 -1      1465 2.77927E+00
 -1      1466 2.91773E+00
 -1      1467 2.94499E+00
 -1      1468 3.16790E+00
 -1      1469 3.06475E+00
 -1      1470 3.37273E+00
 -1      1471 3.09898E+00
 -1      1472 5.04597E+00
 -1      1473 4.65701E+00
 -1      1474 8.34948E+00
 -1      1475 6.54034E+00
 -1      1476 1.00648E+01
 -1      1477 6.16872E+01
 -1      1478 6.02344E+01
 -1      1479 4.80226E+01
 -1      1480 3.04984E+01
 -1      1481 2.60217E+01
 -1      1482 1.53552E+01
 -1      1483 1.24186E+01
 -1      1484 5.82221E+00
 -1      1485 5.50446E+00
 -1      1486 3.47990E+00
 -1      1487 3.51623E+00
 -1      1488 3.04733E+00
 -1      1489 2.95152E+00
 -1      1490 2.70797E+00
 -1      1491 2.58749E+00
 -1      1492 2.47580E+00
 -1      1493 2.33266E+00
 -1      1494 2.30206E+00
 -1      1495 2.11177E+00
 -1      1496 2.12282E+00
 -1      1497 1.90666E+00
 -1      1498 1.94425E+00
 -1      1499 1.71281E+00
 -1      1500 1.76576E+00
 -1      1501 1.70204E+00
 -1      1502 1.92416E+00
 -1      1503 1.87443E+00
 -1      1504 2.08858E+00
 -1      1505 2.05377E+00
 -1      1506 2.25352E+00
 -1      1507 2.24168E+00
 -1      1508 2.42274E+00
 -1      1509 2.44449E+00
 -1      1510 2.59864E+00
 -1      1511 2.66889E+00
 -1      1512 2.78733E+00
 -1      1513 2.94873E+00
 -1      1514 3.07913E+00
 -1      1515 3.36970E+00
 -1      1516 3.45847E+00
 -1      1517 4.82470E+00
 -1      1518 4.73895E+00
 -1      1519 1.12112E+01
 -1      1520 1.15182E+01
 -1      1521 2.29181E+01
 -1      1522 1.97494E+01
 -1      1523 2.94340E+01
 -1      1524 6.26137E+01
 -1      1525 6.21505E+01
 -1      1526 5.75735E+01
 -1      1527 4.34456E+01
 -1      1528 3.78906E+01
 -1      1529 2.04666E+01
 -1      1530 1.65462E+01
 -1      1531 8.49822E+00
 -1      1532 7.71047E+00
 -1      1533 4.71670E+00
 -1      1534 4.45867E+00
 -1      1535 3.25820E+00
 -1      1536 3.04009E+00
 -1      1537 2.73341E+00
 -1      1538 2.55098E+00
 -1      1539 2.40506E+00
 -1      1540 2.21414E+00
 -1      1541 2.14175E+00
 -1      1542 1.94143E+00
 -1      1543 1.91145E+00
 -1      1544 1.70900E+00
 -1      1545 1.70420E+00
 -1      1546 1.50125E+00
 -1      1547 1.50986E+00
 -1      1548 1.49086E+00
 -1      1549 1.68303E+00
 -1      1550 1.67334E+00
 -1      1551 1.86474E+00
 -1      1552 1.86571E+00
 -1      1553 2.05474E+00
 -1      1554 2.07338E+00
 -1      1555 2.26032E+00
 -1      1556 2.30644E+00
 -1      1557 2.49061E+00
 -1      1558 2.58020E+00
 -1      1559 2.75847E+00
 -1      1560 2.93540E+00
 -1      1561 3.12565E+00
 -1      1562 3.78256E+00
 -1      1563 4.02661E+00
 -1      1564 7.05406E+00
 -1      1565 7.85215E+00
 -1      1566 1.98477E+01
 -1      1567 2.32067E+01
 -1      1568 4.72947E+01
 -1      1569 4.70061E+01
 -1      1570 6.45782E+01
 -1      1571 6.26137E+01
 -1      1572 5.25333E+01
 -1      1573 2.32479E+01
 -1      1574 9.84452E+00
 -1      1575 5.57641E+00
 -1      1576 3.34092E+00
 -1      1577 2.73926E+00
 -1      1578 2.33032E+00
 -1      1579 2.01462E+00
 -1      1580 1.75771E+00
 -1      1581 1.53753E+00
 -1      1582 1.33781E+00
 -1      1583 1.51896E+00
 -1      1584 1.70764E+00
 -1      1585 1.90907E+00
 -1      1586 2.13243E+00
 -1      1587 2.39108E+00
 -1      1588 2.70747E+00
 -1      1589 3.14117E+00
 -1      1590 4.42394E+00
 -1      1591 9.68418E+00
 -1      1592 3.00111E+01
 -1      1593 6.45782E+01
 -1      1594 7.77530E+01
 -1      1595 7.80202E+01
 -1      1596 7.80202E+01
 -1      1597 7.80202E+01
 -1      1598 7.77530E+01
 -1      1599 3.01010E+01
 -1      1600 3.01010E+01
 -1      1601 2.97032E+01
 -1      1602 3.01010E+01
 -1      1603 3.01010E+01
 -1      1604 2.48331E+01
 -1      1605 2.48331E+01
 -1      1606 2.41869E+01
 -1      1607 2.48331E+01
 -1      1608 2.48331E+01
 -1      1609 1.57361E+01
 -1      1610 1.62386E+01
 -1      1611 1.62386E+01
 -1      1612 1.62386E+01
 -1      1613 1.57361E+01
 -1      1614 1.21034E+01
 -1      1615 1.21034E+01
 -1      1616 1.19371E+01
 -1      1617 1.21034E+01
 -1      1618 1.21034E+01
 -1      1619 8.53932E+00
 -1      1620 8.30468E+00
 -1      1621 8.18083E+00
 -1      1622 8.30468E+00
 -1      1623 8.53932E+00
 -1      1624 5.31186E+00
 -1      1625 5.02610E+00
 -1      1626 4.77233E+00
 -1      1627 5.02610E+00
 -1      1628 5.31186E+00
 -1      1629 7.88714E+00
 -1      1630 7.75627E+00
 -1      1631 7.50254E+00
 -1      1632 7.75627E+00
 -1      1633 7.88714E+00
 -1      1634 1.32765E+01
 -1      1635 1.32765E+01
 -1      1636 1.31326E+01
 -1      1637 1.32765E+01
 -1      1638 1.32765E+01
 -1      1639 1.96280E+01
 -1      1640 1.96280E+01
 -1      1641 1.95913E+01
 -1      1642 1.96280E+01
 -1      1643 1.96280E+01
 -1      1644 2.67680E+01
 -1      1645 2.68407E+01
 -1      1646 2.68407E+01
 -1      1647 2.68407E+01
 -1      1648 2.67680E+01
 -1      1649 3.45309E+01
 -1      1650 3.47067E+01
 -1      1651 3.47067E+01
 -1      1652 3.47067E+01
 -1      1653 3.45309E+01
 -1      1654 4.26096E+01
 -1      1655 4.28539E+01
 -1      1656 4.28539E+01
 -1      1657 4.28539E+01
 -1      1658 4.26096E+01
 -1      1659 5.05652E+01
 -1      1660 5.07880E+01
 -1      1661 5.07880E+01
 -1      1662 5.07880E+01
 -1      1663 5.05652E+01
 -1      1664 5.87816E+01
 -1      1665 5.81678E+01
 -1      1666 5.81285E+01
 -1      1667 5.81678E+01
 -1      1668 5.87816E+01
 -1      1669 6.27473E+01
 -1      1670 6.30635E+01
 -1      1671 6.30635E+01
 -1      1672 6.30635E+01
 -1      1673 6.27473E+01
 -1      1674 6.27473E+01
 -1      1675 6.30635E+01
 -1      1676 6.30635E+01
 -1      1677 6.30635E+01
 -1      1678 6.27473E+01
 -1      1679 7.33218E+01
 -1      1680 7.77530E+01
 -1      1681 7.78866E+01
 -1      1682 7.80202E+01
 -1      1683 7.80202E+01
 -1      1684 7.80202E+01
 -1      1685 7.80202E+01
 -1      1686 7.80202E+01
 -1      1687 7.78866E+01
 -1      1688 7.77530E+01
 -1      1689 7.33218E+01
 -1      1690 2.98189E+01
 -1      1691 5.39270E+01
 -1      1692 3.01010E+01
 -1      1693 5.40606E+01
 -1      1694 2.99021E+01
 -1      1695 5.38617E+01
 -1      1696 2.99021E+01
 -1      1697 5.40606E+01
 -1      1698 3.01010E+01
 -1      1699 5.39270E+01
 -1      1700 2.98189E+01
 -1      1701 2.44098E+01
 -1      1702 2.74671E+01
 -1      1703 2.48331E+01
 -1      1704 2.74671E+01
 -1      1705 2.45100E+01
 -1      1706 2.69450E+01
 -1      1707 2.45100E+01
 -1      1708 2.74671E+01
 -1      1709 2.48331E+01
 -1      1710 2.74671E+01
 -1      1711 2.44098E+01
 -1      1712 1.55785E+01
 -1      1713 2.02846E+01
 -1      1714 1.59874E+01
 -1      1715 2.05359E+01
 -1      1716 1.62386E+01
 -1      1717 2.02127E+01
 -1      1718 1.62386E+01
 -1      1719 2.05359E+01
 -1      1720 1.59874E+01
 -1      1721 2.02846E+01
 -1      1722 1.55785E+01
 -1      1723 1.20904E+01
 -1      1724 1.39198E+01
 -1      1725 1.21034E+01
 -1      1726 1.41710E+01
 -1      1727 1.20202E+01
 -1      1728 1.40878E+01
 -1      1729 1.20202E+01
 -1      1730 1.41710E+01
 -1      1731 1.21034E+01
 -1      1732 1.39198E+01
 -1      1733 1.20904E+01
 -1      1734 8.53932E+00
 -1      1735 1.03213E+01
 -1      1736 8.42200E+00
 -1      1737 1.02040E+01
 -1      1738 8.24276E+00
 -1      1739 1.00590E+01
 -1      1740 8.24276E+00
 -1      1741 1.02040E+01
 -1      1742 8.42200E+00
 -1      1743 1.03213E+01
 -1      1744 8.53932E+00
 -1      1745 5.31186E+00
 -1      1746 6.92559E+00
 -1      1747 5.16898E+00
 -1      1748 6.66539E+00
 -1      1749 4.89921E+00
 -1      1750 6.47658E+00
 -1      1751 4.89921E+00
 -1      1752 6.66539E+00
 -1      1753 5.16898E+00
 -1      1754 6.92559E+00
 -1      1755 5.31186E+00
 -1      1756 7.88714E+00
 -1      1757 6.59950E+00
 -1      1758 7.82171E+00
 -1      1759 6.39118E+00
 -1      1760 7.62941E+00
 -1      1761 6.13744E+00
 -1      1762 7.62941E+00
 -1      1763 6.39118E+00
 -1      1764 7.82171E+00
 -1      1765 6.59950E+00
 -1      1766 7.88714E+00
 -1      1767 1.32510E+01
 -1      1768 1.05818E+01
 -1      1769 1.32765E+01
 -1      1770 1.05164E+01
 -1      1771 1.32046E+01
 -1      1772 1.03176E+01
 -1      1773 1.32046E+01
 -1      1774 1.05164E+01
 -1      1775 1.32765E+01
 -1      1776 1.05818E+01
 -1      1777 1.32510E+01
 -1      1778 1.95101E+01
 -1      1779 1.64522E+01
 -1      1780 1.96280E+01
 -1      1781 1.64522E+01
 -1      1782 1.96097E+01
 -1      1783 1.63620E+01
 -1      1784 1.96097E+01
 -1      1785 1.64522E+01
 -1      1786 1.96280E+01
 -1      1787 1.64522E+01
 -1      1788 1.95101E+01
 -1      1789 2.65543E+01
 -1      1790 2.31980E+01
 -1      1791 2.68043E+01
 -1      1792 2.32343E+01
 -1      1793 2.68407E+01
 -1      1794 2.32160E+01
 -1      1795 2.68407E+01
 -1      1796 2.32343E+01
 -1      1797 2.68043E+01
 -1      1798 2.31980E+01
 -1      1799 2.65543E+01
 -1      1800 3.42298E+01
 -1      1801 3.06494E+01
 -1      1802 3.46188E+01
 -1      1803 3.07737E+01
 -1      1804 3.47067E+01
 -1      1805 3.07737E+01
 -1      1806 3.47067E+01
 -1      1807 3.07737E+01
 -1      1808 3.46188E+01
 -1      1809 3.06494E+01
 -1      1810 3.42298E+01
 -1      1811 4.22652E+01
 -1      1812 3.85702E+01
 -1      1813 4.27317E+01
 -1      1814 3.87803E+01
 -1      1815 4.28539E+01
 -1      1816 3.87803E+01
 -1      1817 4.28539E+01
 -1      1818 3.87803E+01
 -1      1819 4.27317E+01
 -1      1820 3.85702E+01
 -1      1821 4.22652E+01
 -1      1822 5.03048E+01
 -1      1823 4.65874E+01
 -1      1824 5.06766E+01
 -1      1825 4.68210E+01
 -1      1826 5.07880E+01
 -1      1827 4.68210E+01
 -1      1828 5.07880E+01
 -1      1829 4.68210E+01
 -1      1830 5.06766E+01
 -1      1831 4.65874E+01
 -1      1832 5.03048E+01
 -1      1833 5.87816E+01
 -1      1834 5.46734E+01
 -1      1835 5.84747E+01
 -1      1836 5.44779E+01
 -1      1837 5.81481E+01
 -1      1838 5.44582E+01
 -1      1839 5.81481E+01
 -1      1840 5.44779E+01
 -1      1841 5.84747E+01
 -1      1842 5.46734E+01
 -1      1843 5.87816E+01
 -1      1844 6.22173E+01
 -1      1845 6.07645E+01
 -1      1846 6.29054E+01
 -1      1847 6.06156E+01
 -1      1848 6.30635E+01
 -1      1849 6.05960E+01
 -1      1850 6.30635E+01
 -1      1851 6.06156E+01
 -1      1852 6.29054E+01
 -1      1853 6.07645E+01
 -1      1854 6.22173E+01
 -1      1855 6.26805E+01
 -1      1856 6.27473E+01
 -1      1857 6.29054E+01
 -1      1858 6.30635E+01
 -1      1859 6.30635E+01
 -1      1860 6.30635E+01
 -1      1861 6.30635E+01
 -1      1862 6.30635E+01
 -1      1863 6.29054E+01
 -1      1864 6.27473E+01
 -1      1865 6.26805E+01
 -1      1866 6.26805E+01
 -1      1867 6.18827E+01
 -1      1868 6.17986E+01
 -1      1869 6.18827E+01
 -1      1870 6.26805E+01
 -1      1871 6.26137E+01
 -1      1872 6.07019E+01
 -1      1873 6.05338E+01
 -1      1874 6.07019E+01
 -1      1875 6.26137E+01
 -1      1876 5.29601E+01
 -1      1877 5.30893E+01
 -1      1878 5.30893E+01
 -1      1879 5.30893E+01
 -1      1880 5.29601E+01
 -1      1881 2.32613E+01
 -1      1882 2.32702E+01
 -1      1883 2.32702E+01
 -1      1884 2.32702E+01
 -1      1885 2.32613E+01
 -1      1886 9.87559E+00
 -1      1887 9.89706E+00
 -1      1888 9.89706E+00
 -1      1889 9.89706E+00
 -1      1890 9.87559E+00
 -1      1891 5.58064E+00
 -1      1892 5.58593E+00
 -1      1893 5.58593E+00
 -1      1894 5.58593E+00
 -1      1895 5.58064E+00
 -1      1896 3.34092E+00
 -1      1897 3.33914E+00
 -1      1898 3.33796E+00
 -1      1899 3.33914E+00
 -1      1900 3.34092E+00
 -1      1901 2.73926E+00
 -1      1902 2.73624E+00
 -1      1903 2.73350E+00
 -1      1904 2.73624E+00
 -1      1905 2.73926E+00
 -1      1906 2.29794E+00
 -1      1907 2.29439E+00
 -1      1908 2.29068E+00
 -1      1909 2.29439E+00
 -1      1910 2.29794E+00
 -1      1911 1.96367E+00
 -1      1912 1.95990E+00
 -1      1913 1.95559E+00
 -1      1914 1.95990E+00
 -1      1915 1.96367E+00
 -1      1916 1.69814E+00
 -1      1917 1.69432E+00
 -1      1918 1.68958E+00
 -1      1919 1.69432E+00
 -1      1920 1.69814E+00
 -1      1921 1.47435E+00
 -1      1922 1.47060E+00
 -1      1923 1.46551E+00
 -1      1924 1.47060E+00
 -1      1925 1.47435E+00
 -1      1926 1.27383E+00
 -1      1927 1.26983E+00
 -1      1928 1.26535E+00
 -1      1929 1.26983E+00
 -1      1930 1.27383E+00
 -1      1931 1.45800E+00
 -1      1932 1.45257E+00
 -1      1933 1.44960E+00
 -1      1934 1.45257E+00
 -1      1935 1.45800E+00
 -1      1936 1.64852E+00
 -1      1937 1.64252E+00
 -1      1938 1.64028E+00
 -1      1939 1.64252E+00
 -1      1940 1.64852E+00
 -1      1941 1.85348E+00
 -1      1942 1.84656E+00
 -1      1943 1.84546E+00
 -1      1944 1.84656E+00
 -1      1945 1.85348E+00
 -1      1946 2.08276E+00
 -1      1947 2.07498E+00
 -1      1948 2.07498E+00
 -1      1949 2.07498E+00
 -1      1950 2.08276E+00
 -1      1951 2.35139E+00
 -1      1952 2.34473E+00
 -1      1953 2.34473E+00
 -1      1954 2.34473E+00
 -1      1955 2.35139E+00
 -1      1956 2.68532E+00
 -1      1957 2.68029E+00
 -1      1958 2.68029E+00
 -1      1959 2.68029E+00
 -1      1960 2.68532E+00
 -1      1961 3.14117E+00
 -1      1962 3.13835E+00
 -1      1963 3.13835E+00
 -1      1964 3.13835E+00
 -1      1965 3.14117E+00
 -1      1966 4.42394E+00
 -1      1967 4.36605E+00
 -1      1968 4.36605E+00
 -1      1969 4.36605E+00
 -1      1970 4.42394E+00
 -1      1971 9.68418E+00
 -1      1972 9.25781E+00
 -1      1973 9.25781E+00
 -1      1974 9.25781E+00
 -1      1975 9.68418E+00
 -1      1976 3.00111E+01
 -1      1977 2.59051E+01
 -1      1978 2.59051E+01
 -1      1979 2.59051E+01
 -1      1980 3.00111E+01
 -1      1981 6.62005E+01
 -1      1982 6.64728E+01
 -1      1983 6.64728E+01
 -1      1984 6.64728E+01
 -1      1985 6.62005E+01
 -1      1986 6.26137E+01
 -1      1987 6.26137E+01
 -1      1988 6.16578E+01
 -1      1989 6.07019E+01
 -1      1990 6.06178E+01
 -1      1991 6.05338E+01
 -1      1992 6.06178E+01
 -1      1993 6.07019E+01
 -1      1994 6.16578E+01
 -1      1995 6.26137E+01
 -1      1996 6.26137E+01
 -1      1997 5.27467E+01
 -1      1998 5.77869E+01
 -1      1999 5.30247E+01
 -1      2000 5.68956E+01
 -1      2001 5.30893E+01
 -1      2002 5.68115E+01
 -1      2003 5.30893E+01
 -1      2004 5.68956E+01
 -1      2005 5.30247E+01
 -1      2006 5.77869E+01
 -1      2007 5.27467E+01
 -1      2008 2.32546E+01
 -1      2009 3.81107E+01
 -1      2010 2.32658E+01
 -1      2011 3.81797E+01
 -1      2012 2.32702E+01
 -1      2013 3.81797E+01
 -1      2014 2.32702E+01
 -1      2015 3.81797E+01
 -1      2016 2.32658E+01
 -1      2017 3.81107E+01
 -1      2018 2.32546E+01
 -1      2019 9.86005E+00
 -1      2020 1.65684E+01
 -1      2021 9.88632E+00
 -1      2022 1.65836E+01
 -1      2023 9.89706E+00
 -1      2024 1.65836E+01
 -1      2025 9.89706E+00
 -1      2026 1.65836E+01
 -1      2027 9.88632E+00
 -1      2028 1.65684E+01
 -1      2029 9.86005E+00
 -1      2030 5.57852E+00
 -1      2031 7.72811E+00
 -1      2032 5.58328E+00
 -1      2033 7.74150E+00
 -1      2034 5.58593E+00
 -1      2035 7.74150E+00
 -1      2036 5.58593E+00
 -1      2037 7.74150E+00
 -1      2038 5.58328E+00
 -1      2039 7.72811E+00
 -1      2040 5.57852E+00
 -1      2041 3.34092E+00
 -1      2042 4.46078E+00
 -1      2043 3.34003E+00
 -1      2044 4.46253E+00
 -1      2045 3.33855E+00
 -1      2046 4.46194E+00
 -1      2047 3.33855E+00
 -1      2048 4.46253E+00
 -1      2049 3.34003E+00
 -1      2050 4.46078E+00
 -1      2051 3.34092E+00
 -1      2052 2.73926E+00
 -1      2053 3.04009E+00
 -1      2054 2.73775E+00
 -1      2055 3.03769E+00
 -1      2056 2.73487E+00
 -1      2057 3.03573E+00
 -1      2058 2.73487E+00
 -1      2059 3.03769E+00
 -1      2060 2.73775E+00
 -1      2061 3.04009E+00
 -1      2062 2.73926E+00
 -1      2063 2.29794E+00
 -1      2064 2.51860E+00
 -1      2065 2.29617E+00
 -1      2066 2.51531E+00
 -1      2067 2.29254E+00
 -1      2068 2.51209E+00
 -1      2069 2.29254E+00
 -1      2070 2.51531E+00
 -1      2071 2.29617E+00
 -1      2072 2.51860E+00
 -1      2073 2.29794E+00
 -1      2074 1.96367E+00
 -1      2075 2.13081E+00
 -1      2076 1.96178E+00
 -1      2077 2.12714E+00
 -1      2078 1.95774E+00
 -1      2079 2.12314E+00
 -1      2080 1.95774E+00
 -1      2081 2.12714E+00
 -1      2082 1.96178E+00
 -1      2083 2.13081E+00
 -1      2084 1.96367E+00
 -1      2085 1.69814E+00
 -1      2086 1.83090E+00
 -1      2087 1.69623E+00
 -1      2088 1.82711E+00
 -1      2089 1.69195E+00
 -1      2090 1.82259E+00
 -1      2091 1.69195E+00
 -1      2092 1.82711E+00
 -1      2093 1.69623E+00
 -1      2094 1.83090E+00
 -1      2095 1.69814E+00
 -1      2096 1.47435E+00
 -1      2097 1.58625E+00
 -1      2098 1.47248E+00
 -1      2099 1.58246E+00
 -1      2100 1.46805E+00
 -1      2101 1.57755E+00
 -1      2102 1.46805E+00
 -1      2103 1.58246E+00
 -1      2104 1.47248E+00
 -1      2105 1.58625E+00
 -1      2106 1.47435E+00
 -1      2107 1.27383E+00
 -1      2108 1.37409E+00
 -1      2109 1.27183E+00
 -1      2110 1.37022E+00
 -1      2111 1.26759E+00
 -1      2112 1.36543E+00
 -1      2113 1.26759E+00
 -1      2114 1.37022E+00
 -1      2115 1.27183E+00
 -1      2116 1.37409E+00
 -1      2117 1.27383E+00
 -1      2118 1.45800E+00
 -1      2119 1.36592E+00
 -1      2120 1.45529E+00
 -1      2121 1.36120E+00
 -1      2122 1.45109E+00
 -1      2123 1.35748E+00
 -1      2124 1.45109E+00
 -1      2125 1.36120E+00
 -1      2126 1.45529E+00
 -1      2127 1.36592E+00
 -1      2128 1.45800E+00
 -1      2129 1.64852E+00
 -1      2130 1.55326E+00
 -1      2131 1.64552E+00
 -1      2132 1.54755E+00
 -1      2133 1.64140E+00
 -1      2134 1.54494E+00
 -1      2135 1.64140E+00
 -1      2136 1.54755E+00
 -1      2137 1.64552E+00
 -1      2138 1.55326E+00
 -1      2139 1.64852E+00
 -1      2140 1.85348E+00
 -1      2141 1.75100E+00
 -1      2142 1.85002E+00
 -1      2143 1.74454E+00
 -1      2144 1.84601E+00
 -1      2145 1.74287E+00
 -1      2146 1.84601E+00
 -1      2147 1.74454E+00
 -1      2148 1.85002E+00
 -1      2149 1.75100E+00
 -1      2150 1.85348E+00
 -1      2151 2.08276E+00
 -1      2152 1.96812E+00
 -1      2153 2.07887E+00
 -1      2154 1.96077E+00
 -1      2155 2.07498E+00
 -1      2156 1.96022E+00
 -1      2157 2.07498E+00
 -1      2158 1.96077E+00
 -1      2159 2.07887E+00
 -1      2160 1.96812E+00
 -1      2161 2.08276E+00
 -1      2162 2.35139E+00
 -1      2163 2.21708E+00
 -1      2164 2.34806E+00
 -1      2165 2.20985E+00
 -1      2166 2.34473E+00
 -1      2167 2.20985E+00
 -1      2168 2.34473E+00
 -1      2169 2.20985E+00
 -1      2170 2.34806E+00
 -1      2171 2.21708E+00
 -1      2172 2.35139E+00
 -1      2173 2.68532E+00
 -1      2174 2.51836E+00
 -1      2175 2.68280E+00
 -1      2176 2.51251E+00
 -1      2177 2.68029E+00
 -1      2178 2.51251E+00
 -1      2179 2.68029E+00
 -1      2180 2.51251E+00
 -1      2181 2.68280E+00
 -1      2182 2.51836E+00
 -1      2183 2.68532E+00
 -1      2184 3.14117E+00
 -1      2185 2.91325E+00
 -1      2186 3.13976E+00
 -1      2187 2.90932E+00
 -1      2188 3.13835E+00
 -1      2189 2.90932E+00
 -1      2190 3.13835E+00
 -1      2191 2.90932E+00
 -1      2192 3.13976E+00
 -1      2193 2.91325E+00
 -1      2194 3.14117E+00
 -1      2195 4.42394E+00
 -1      2196 3.78256E+00
 -1      2197 4.39500E+00
 -1      2198 3.75220E+00
 -1      2199 4.36605E+00
 -1      2200 3.75220E+00
 -1      2201 4.36605E+00
 -1      2202 3.75220E+00
 -1      2203 4.39500E+00
 -1      2204 3.78256E+00
 -1      2205 4.42394E+00
 -1      2206 9.68418E+00
 -1      2207 7.05406E+00
 -1      2208 9.47100E+00
 -1      2209 6.81193E+00
 -1      2210 9.25781E+00
 -1      2211 6.81193E+00
 -1      2212 9.25781E+00
 -1      2213 6.81193E+00
 -1      2214 9.47100E+00
 -1      2215 7.05406E+00
 -1      2216 9.68418E+00
 -1      2217 3.00111E+01
 -1      2218 1.98477E+01
 -1      2219 2.79581E+01
 -1      2220 1.75815E+01
 -1      2221 2.59051E+01
 -1      2222 1.75815E+01
 -1      2223 2.59051E+01
 -1      2224 1.75815E+01
 -1      2225 2.79581E+01
 -1      2226 1.98477E+01
 -1      2227 3.00111E+01
 -1      2228 6.53893E+01
 -1      2229 4.81058E+01
 -1      2230 6.63366E+01
 -1      2231 4.61890E+01
 -1      2232 6.64728E+01
 -1      2233 4.61890E+01
 -1      2234 6.64728E+01
 -1      2235 4.61890E+01
 -1      2236 6.63366E+01
 -1      2237 4.81058E+01
 -1      2238 6.53893E+01
 -1      2239 6.62005E+01
 -1      2240 6.64728E+01
 -1      2241 6.64728E+01
 -1      2242 6.64728E+01
 -1      2243 6.62005E+01
 -1      2244 6.62005E+01
 -1      2245 6.64728E+01
 -1      2246 6.64728E+01
 -1      2247 6.64728E+01
 -1      2248 6.62005E+01
 -1      2249 2.94340E+01
 -1      2250 2.60128E+01
 -1      2251 2.57869E+01
 -1      2252 2.60128E+01
 -1      2253 2.94340E+01
 -1      2254 1.00648E+01
 -1      2255 9.11791E+00
 -1      2256 8.98118E+00
 -1      2257 9.11791E+00
 -1      2258 1.00648E+01
 -1      2259 3.01587E+00
 -1      2260 2.95352E+00
 -1      2261 2.93717E+00
 -1      2262 2.95352E+00
 -1      2263 3.01587E+00
 -1      2264 1.75721E+00
 -1      2265 1.64612E+00
 -1      2266 1.64394E+00
 -1      2267 1.64612E+00
 -1      2268 1.75721E+00
 -1      2269 1.93522E+00
 -1      2270 1.30662E+00
 -1      2271 1.23733E+00
 -1      2272 1.30662E+00
 -1      2273 1.93522E+00
 -1      2274 2.01727E+00
 -1      2275 1.52463E+00
 -1      2276 1.47950E+00
 -1      2277 1.52463E+00
 -1      2278 2.01727E+00
 -1      2279 2.01727E+00
 -1      2280 1.71732E+00
 -1      2281 1.70729E+00
 -1      2282 1.71732E+00
 -1      2283 2.01727E+00
 -1      2284 3.13053E+00
 -1      2285 3.13053E+00
 -1      2286 3.12172E+00
 -1      2287 3.13053E+00
 -1      2288 3.13053E+00
 -1      2289 3.13053E+00
 -1      2290 3.13053E+00
 -1      2291 3.12172E+00
 -1      2292 3.13053E+00
 -1      2293 3.13053E+00
 -1      2294 2.69873E+00
 -1      2295 2.69873E+00
 -1      2296 2.69353E+00
 -1      2297 2.69873E+00
 -1      2298 2.69873E+00
 -1      2299 2.35598E+00
 -1      2300 2.35598E+00
 -1      2301 2.34912E+00
 -1      2302 2.35598E+00
 -1      2303 2.35598E+00
 -1      2304 2.08708E+00
 -1      2305 2.08708E+00
 -1      2306 2.07042E+00
 -1      2307 2.08708E+00
 -1      2308 2.08708E+00
 -1      2309 1.86550E+00
 -1      2310 1.86550E+00
 -1      2311 1.82719E+00
 -1      2312 1.86550E+00
 -1      2313 1.86550E+00
 -1      2314 2.34358E+00
 -1      2315 2.34358E+00
 -1      2316 2.29495E+00
 -1      2317 2.34358E+00
 -1      2318 2.34358E+00
 -1      2319 1.47611E+01
 -1      2320 1.48782E+01
 -1      2321 1.48782E+01
 -1      2322 1.48782E+01
 -1      2323 1.47611E+01
 -1      2324 4.50507E+01
 -1      2325 4.13443E+01
 -1      2326 4.11350E+01
 -1      2327 4.13443E+01
 -1      2328 4.50507E+01
 -1      2329 6.53893E+01
 -1      2330 6.62005E+01
 -1      2331 6.63366E+01
 -1      2332 6.64728E+01
 -1      2333 6.64728E+01
 -1      2334 6.64728E+01
 -1      2335 6.64728E+01
 -1      2336 6.64728E+01
 -1      2337 6.63366E+01
 -1      2338 6.62005E+01
 -1      2339 6.53893E+01
 -1      2340 2.94340E+01
 -1      2341 4.78172E+01
 -1      2342 2.77234E+01
 -1      2343 4.62428E+01
 -1      2344 2.58998E+01
 -1      2345 4.61298E+01
 -1      2346 2.58998E+01
 -1      2347 4.62428E+01
 -1      2348 2.77234E+01
 -1      2349 4.78172E+01
 -1      2350 2.94340E+01
 -1      2351 1.00648E+01
 -1      2352 1.97494E+01
 -1      2353 9.59136E+00
 -1      2354 1.75654E+01
 -1      2355 9.04954E+00
 -1      2356 1.73840E+01
 -1      2357 9.04954E+00
 -1      2358 1.75654E+01
 -1      2359 9.59136E+00
 -1      2360 1.97494E+01
 -1      2361 1.00648E+01
 -1      2362 3.01587E+00
 -1      2363 6.54034E+00
 -1      2364 2.98469E+00
 -1      2365 6.03571E+00
 -1      2366 2.94534E+00
 -1      2367 5.95917E+00
 -1      2368 2.94534E+00
 -1      2369 6.03571E+00
 -1      2370 2.98469E+00
 -1      2371 6.54034E+00
 -1      2372 3.01587E+00
 -1      2373 1.75721E+00
 -1      2374 2.38654E+00
 -1      2375 1.70167E+00
 -1      2376 2.29982E+00
 -1      2377 1.64503E+00
 -1      2378 2.29055E+00
 -1      2379 1.64503E+00
 -1      2380 2.29982E+00
 -1      2381 1.70167E+00
 -1      2382 2.38654E+00
 -1      2383 1.75721E+00
 -1      2384 1.93522E+00
 -1      2385 1.84622E+00
 -1      2386 1.62092E+00
 -1      2387 1.47637E+00
 -1      2388 1.27198E+00
 -1      2389 1.44063E+00
 -1      2390 1.27198E+00
 -1      2391 1.47637E+00
 -1      2392 1.62092E+00
 -1      2393 1.84622E+00
 -1      2394 1.93522E+00
 -1      2395 2.01727E+00
 -1      2396 1.97625E+00
 -1      2397 1.77095E+00
 -1      2398 1.41562E+00
 -1      2399 1.50207E+00
 -1      2400 1.35842E+00
 -1      2401 1.50207E+00
 -1      2402 1.41562E+00
 -1      2403 1.77095E+00
 -1      2404 1.97625E+00
 -1      2405 2.01727E+00
 -1      2406 2.01727E+00
 -1      2407 2.01727E+00
 -1      2408 1.86730E+00
 -1      2409 1.62097E+00
 -1      2410 1.71230E+00
 -1      2411 1.59340E+00
 -1      2412 1.71230E+00
 -1      2413 1.62097E+00
 -1      2414 1.86730E+00
 -1      2415 2.01727E+00
 -1      2416 2.01727E+00
 -1      2417 3.04288E+00
 -1      2418 2.57390E+00
 -1      2419 3.13053E+00
 -1      2420 2.42392E+00
 -1      2421 3.12613E+00
 -1      2422 2.41451E+00
 -1      2423 3.12613E+00
 -1      2424 2.42392E+00
 -1      2425 3.13053E+00
 -1      2426 2.57390E+00
 -1      2427 3.04288E+00
 -1      2428 3.04288E+00
 -1      2429 3.13053E+00
 -1      2430 3.13053E+00
 -1      2431 3.13053E+00
 -1      2432 3.12613E+00
 -1      2433 3.12172E+00
 -1      2434 3.12613E+00
 -1      2435 3.13053E+00
 -1      2436 3.13053E+00
 -1      2437 3.13053E+00
 -1      2438 3.04288E+00
 -1      2439 2.57461E+00
 -1      2440 2.91463E+00
 -1      2441 2.69873E+00
 -1      2442 2.91463E+00
 -1      2443 2.69613E+00
 -1      2444 2.90763E+00
 -1      2445 2.69613E+00
 -1      2446 2.91463E+00
 -1      2447 2.69873E+00
 -1      2448 2.91463E+00
 -1      2449 2.57461E+00
 -1      2450 2.23492E+00
 -1      2451 2.52735E+00
 -1      2452 2.35598E+00
 -1      2453 2.52735E+00
 -1      2454 2.35255E+00
 -1      2455 2.52133E+00
 -1      2456 2.35255E+00
 -1      2457 2.52735E+00
 -1      2458 2.35598E+00
 -1      2459 2.52735E+00
 -1      2460 2.23492E+00
 -1      2461 2.04083E+00
 -1      2462 2.22153E+00
 -1      2463 2.08708E+00
 -1      2464 2.22153E+00
 -1      2465 2.07875E+00
 -1      2466 2.20977E+00
 -1      2467 2.07875E+00
 -1      2468 2.22153E+00
 -1      2469 2.08708E+00
 -1      2470 2.22153E+00
 -1      2471 2.04083E+00
 -1      2472 1.81416E+00
 -1      2473 1.97629E+00
 -1      2474 1.86550E+00
 -1      2475 1.97629E+00
 -1      2476 1.84634E+00
 -1      2477 1.94880E+00
 -1      2478 1.84634E+00
 -1      2479 1.97629E+00
 -1      2480 1.86550E+00
 -1      2481 1.97629E+00
 -1      2482 1.81416E+00
 -1      2483 2.16964E+00
 -1      2484 2.10454E+00
 -1      2485 2.34358E+00
 -1      2486 2.10454E+00
 -1      2487 2.31927E+00
 -1      2488 2.06107E+00
 -1      2489 2.31927E+00
 -1      2490 2.10454E+00
 -1      2491 2.34358E+00
 -1      2492 2.10454E+00
 -1      2493 2.16964E+00
 -1      2494 1.41340E+01
 -1      2495 8.55236E+00
 -1      2496 1.48197E+01
 -1      2497 8.61089E+00
 -1      2498 1.48782E+01
 -1      2499 8.58658E+00
 -1      2500 1.48782E+01
 -1      2501 8.61089E+00
 -1      2502 1.48197E+01
 -1      2503 8.55236E+00
 -1      2504 1.41340E+01
 -1      2505 4.50507E+01
 -1      2506 2.99059E+01
 -1      2507 4.31975E+01
 -1      2508 2.81113E+01
 -1      2509 4.12397E+01
 -1      2510 2.80066E+01
 -1      2511 4.12397E+01
 -1      2512 2.81113E+01
 -1      2513 4.31975E+01
 -1      2514 2.99059E+01
 -1      2515 4.50507E+01
 -1      2516 4.50507E+01
 -1      2517 4.13443E+01
 -1      2518 4.11350E+01
 -1      2519 4.13443E+01
 -1      2520 4.50507E+01
 -1      2521 7.77530E+01
 -1      2522 7.80202E+01
 -1      2523 7.80202E+01
 -1      2524 7.80202E+01
 -1      2525 7.77530E+01
 -1      2526 3.43757E+01
 -1      2527 3.34728E+01
 -1      2528 2.99955E+01
 -1      2529 3.34728E+01
 -1      2530 3.43757E+01
 -1      2531 3.13450E+01
 -1      2532 2.68243E+01
 -1      2533 2.51408E+01
 -1      2534 2.68243E+01
 -1      2535 3.13450E+01
 -1      2536 8.58763E+00
 -1      2537 8.58763E+00
 -1      2538 8.06538E+00
 -1      2539 8.58763E+00
 -1      2540 8.58763E+00
 -1      2541 5.04688E+00
 -1      2542 4.69368E+00
 -1      2543 4.69368E+00
 -1      2544 4.69368E+00
 -1      2545 5.04688E+00
 -1      2546 3.67973E+00
 -1      2547 3.67973E+00
 -1      2548 3.67185E+00
 -1      2549 3.67973E+00
 -1      2550 3.67973E+00
 -1      2551 3.59770E+00
 -1      2552 3.59139E+00
 -1      2553 3.58730E+00
 -1      2554 3.59139E+00
 -1      2555 3.59770E+00
 -1      2556 3.50625E+00
 -1      2557 3.50126E+00
 -1      2558 3.49014E+00
 -1      2559 3.50126E+00
 -1      2560 3.50625E+00
 -1      2561 3.40859E+00
 -1      2562 3.39846E+00
 -1      2563 3.38316E+00
 -1      2564 3.39846E+00
 -1      2565 3.40859E+00
 -1      2566 3.29091E+00
 -1      2567 3.27698E+00
 -1      2568 3.25856E+00
 -1      2569 3.27698E+00
 -1      2570 3.29091E+00
 -1      2571 3.15845E+00
 -1      2572 3.14147E+00
 -1      2573 3.12095E+00
 -1      2574 3.14147E+00
 -1      2575 3.15845E+00
 -1      2576 3.02068E+00
 -1      2577 2.99990E+00
 -1      2578 2.97687E+00
 -1      2579 2.99990E+00
 -1      2580 3.02068E+00
 -1      2581 3.19061E+00
 -1      2582 3.17075E+00
 -1      2583 3.14813E+00
 -1      2584 3.17075E+00
 -1      2585 3.19061E+00
 -1      2586 3.36242E+00
 -1      2587 3.34401E+00
 -1      2588 3.32206E+00
 -1      2589 3.34401E+00
 -1      2590 3.36242E+00
 -1      2591 3.54213E+00
 -1      2592 3.52582E+00
 -1      2593 3.50479E+00
 -1      2594 3.52582E+00
 -1      2595 3.54213E+00
 -1      2596 3.97191E+00
 -1      2597 3.92286E+00
 -1      2598 3.85015E+00
 -1      2599 3.92286E+00
 -1      2600 3.97191E+00
 -1      2601 4.79002E+00
 -1      2602 4.75610E+00
 -1      2603 4.68901E+00
 -1      2604 4.75610E+00
 -1      2605 4.79002E+00
 -1      2606 5.77262E+00
 -1      2607 5.76066E+00
 -1      2608 5.70124E+00
 -1      2609 5.76066E+00
 -1      2610 5.77262E+00
 -1      2611 7.01542E+00
 -1      2612 7.01542E+00
 -1      2613 6.97283E+00
 -1      2614 7.01542E+00
 -1      2615 7.01542E+00
 -1      2616 8.58551E+00
 -1      2617 8.62151E+00
 -1      2618 8.62151E+00
 -1      2619 8.62151E+00
 -1      2620 8.58551E+00
 -1      2621 1.02109E+01
 -1      2622 1.05105E+01
 -1      2623 1.05105E+01
 -1      2624 1.05105E+01
 -1      2625 1.02109E+01
 -1      2626 3.83761E+01
 -1      2627 3.86958E+01
 -1      2628 3.86958E+01
 -1      2629 3.86958E+01
 -1      2630 3.83761E+01
 -1      2631 4.50507E+01
 -1      2632 4.13443E+01
 -1      2633 4.11350E+01
 -1      2634 4.13443E+01
 -1      2635 4.50507E+01
 -1      2636 7.77530E+01
 -1      2637 7.33218E+01
 -1      2638 7.80202E+01
 -1      2639 7.78866E+01
 -1      2640 7.80202E+01
 -1      2641 7.80202E+01
 -1      2642 7.80202E+01
 -1      2643 7.80202E+01
 -1      2644 7.77530E+01
 -1      2645 7.78866E+01
 -1      2646 7.33218E+01
 -1      2647 5.60644E+01
 -1      2648 3.43757E+01
 -1      2649 5.57465E+01
 -1      2650 3.39243E+01
 -1      2651 5.40079E+01
 -1      2652 3.17342E+01
 -1      2653 5.57465E+01
 -1      2654 3.17342E+01
 -1      2655 5.60644E+01
 -1      2656 3.39243E+01
 -1      2657 3.43757E+01
 -1      2658 3.28604E+01
 -1      2659 3.13450E+01
 -1      2660 3.01485E+01
 -1      2661 2.90846E+01
 -1      2662 2.75682E+01
 -1      2663 2.59825E+01
 -1      2664 3.01485E+01
 -1      2665 2.59825E+01
 -1      2666 3.28604E+01
 -1      2667 2.90846E+01
 -1      2668 3.13450E+01
 -1      2669 1.99663E+01
 -1      2670 7.91358E+00
 -1      2671 1.77059E+01
 -1      2672 8.58763E+00
 -1      2673 1.66031E+01
 -1      2674 8.32650E+00
 -1      2675 1.77059E+01
 -1      2676 8.32650E+00
 -1      2677 1.99663E+01
 -1      2678 8.58763E+00
 -1      2679 7.91358E+00
 -1      2680 6.81726E+00
 -1      2681 5.04688E+00
 -1      2682 6.64065E+00
 -1      2683 4.87028E+00
 -1      2684 6.37953E+00
 -1      2685 4.69368E+00
 -1      2686 6.64065E+00
 -1      2687 4.69368E+00
 -1      2688 6.81726E+00
 -1      2689 4.87028E+00
 -1      2690 5.04688E+00
 -1      2691 4.36331E+00
 -1      2692 3.67147E+00
 -1      2693 4.18671E+00
 -1      2694 3.67973E+00
 -1      2695 4.18276E+00
 -1      2696 3.67579E+00
 -1      2697 4.18671E+00
 -1      2698 3.67579E+00
 -1      2699 4.36331E+00
 -1      2700 3.67973E+00
 -1      2701 3.67147E+00
 -1      2702 3.63872E+00
 -1      2703 3.59770E+00
 -1      2704 3.63556E+00
 -1      2705 3.59455E+00
 -1      2706 3.62957E+00
 -1      2707 3.58934E+00
 -1      2708 3.63556E+00
 -1      2709 3.58934E+00
 -1      2710 3.63872E+00
 -1      2711 3.59455E+00
 -1      2712 3.59770E+00
 -1      2713 3.55197E+00
 -1      2714 3.50625E+00
 -1      2715 3.54633E+00
 -1      2716 3.50376E+00
 -1      2717 3.53872E+00
 -1      2718 3.49570E+00
 -1      2719 3.54633E+00
 -1      2720 3.49570E+00
 -1      2721 3.55197E+00
 -1      2722 3.50376E+00
 -1      2723 3.50625E+00
 -1      2724 3.45742E+00
 -1      2725 3.40859E+00
 -1      2726 3.44986E+00
 -1      2727 3.40352E+00
 -1      2728 3.43665E+00
 -1      2729 3.39081E+00
 -1      2730 3.44986E+00
 -1      2731 3.39081E+00
 -1      2732 3.45742E+00
 -1      2733 3.40352E+00
 -1      2734 3.40859E+00
 -1      2735 3.34975E+00
 -1      2736 3.29091E+00
 -1      2737 3.33772E+00
 -1      2738 3.28394E+00
 -1      2739 3.32086E+00
 -1      2740 3.26777E+00
 -1      2741 3.33772E+00
 -1      2742 3.26777E+00
 -1      2743 3.34975E+00
 -1      2744 3.28394E+00
 -1      2745 3.29091E+00
 -1      2746 3.22468E+00
 -1      2747 3.15845E+00
 -1      2748 3.20922E+00
 -1      2749 3.14996E+00
 -1      2750 3.18975E+00
 -1      2751 3.13121E+00
 -1      2752 3.20922E+00
 -1      2753 3.13121E+00
 -1      2754 3.22468E+00
 -1      2755 3.14996E+00
 -1      2756 3.15845E+00
 -1      2757 3.08957E+00
 -1      2758 3.02068E+00
 -1      2759 3.07069E+00
 -1      2760 3.01029E+00
 -1      2761 3.04891E+00
 -1      2762 2.98839E+00
 -1      2763 3.07069E+00
 -1      2764 2.98839E+00
 -1      2765 3.08957E+00
 -1      2766 3.01029E+00
 -1      2767 3.02068E+00
 -1      2768 3.10565E+00
 -1      2769 3.19061E+00
 -1      2770 3.08532E+00
 -1      2771 3.18068E+00
 -1      2772 3.06250E+00
 -1      2773 3.15944E+00
 -1      2774 3.08532E+00
 -1      2775 3.15944E+00
 -1      2776 3.10565E+00
 -1      2777 3.18068E+00
 -1      2778 3.19061E+00
 -1      2779 3.27652E+00
 -1      2780 3.36242E+00
 -1      2781 3.25738E+00
 -1      2782 3.35322E+00
 -1      2783 3.23510E+00
 -1      2784 3.33304E+00
 -1      2785 3.25738E+00
 -1      2786 3.33304E+00
 -1      2787 3.27652E+00
 -1      2788 3.35322E+00
 -1      2789 3.36242E+00
 -1      2790 3.45228E+00
 -1      2791 3.54213E+00
 -1      2792 3.43491E+00
 -1      2793 3.53397E+00
 -1      2794 3.41343E+00
 -1      2795 3.51531E+00
 -1      2796 3.43491E+00
 -1      2797 3.51531E+00
 -1      2798 3.45228E+00
 -1      2799 3.53397E+00
 -1      2800 3.54213E+00
 -1      2801 3.75702E+00
 -1      2802 3.97191E+00
 -1      2803 3.72434E+00
 -1      2804 3.94739E+00
 -1      2805 3.67747E+00
 -1      2806 3.88650E+00
 -1      2807 3.72434E+00
 -1      2808 3.88650E+00
 -1      2809 3.75702E+00
 -1      2810 3.94739E+00
 -1      2811 3.97191E+00
 -1      2812 4.38097E+00
 -1      2813 4.79002E+00
 -1      2814 4.33948E+00
 -1      2815 4.77306E+00
 -1      2816 4.26958E+00
 -1      2817 4.72256E+00
 -1      2818 4.33948E+00
 -1      2819 4.72256E+00
 -1      2820 4.38097E+00
 -1      2821 4.77306E+00
 -1      2822 4.79002E+00
 -1      2823 5.28132E+00
 -1      2824 5.77262E+00
 -1      2825 5.25838E+00
 -1      2826 5.76664E+00
 -1      2827 5.19513E+00
 -1      2828 5.73095E+00
 -1      2829 5.25838E+00
 -1      2830 5.73095E+00
 -1      2831 5.28132E+00
 -1      2832 5.76664E+00
 -1      2833 5.77262E+00
 -1      2834 6.39402E+00
 -1      2835 6.99888E+00
 -1      2836 6.38804E+00
 -1      2837 7.01542E+00
 -1      2838 6.33703E+00
 -1      2839 6.99412E+00
 -1      2840 6.38804E+00
 -1      2841 6.99412E+00
 -1      2842 6.39402E+00
 -1      2843 7.01542E+00
 -1      2844 6.99888E+00
 -1      2845 7.80047E+00
 -1      2846 8.49762E+00
 -1      2847 7.81847E+00
 -1      2848 8.60351E+00
 -1      2849 7.79717E+00
 -1      2850 8.62151E+00
 -1      2851 7.81847E+00
 -1      2852 8.62151E+00
 -1      2853 7.80047E+00
 -1      2854 8.60351E+00
 -1      2855 8.49762E+00
 -1      2856 9.39820E+00
 -1      2857 1.02109E+01
 -1      2858 9.56601E+00
 -1      2859 1.03607E+01
 -1      2860 9.56601E+00
 -1      2861 1.05105E+01
 -1      2862 9.56601E+00
 -1      2863 1.05105E+01
 -1      2864 9.39820E+00
 -1      2865 1.03607E+01
 -1      2866 1.02109E+01
 -1      2867 2.42935E+01
 -1      2868 3.74540E+01
 -1      2869 2.46032E+01
 -1      2870 3.85360E+01
 -1      2871 2.46032E+01
 -1      2872 3.86958E+01
 -1      2873 2.46032E+01
 -1      2874 3.86958E+01
 -1      2875 2.42935E+01
 -1      2876 3.85360E+01
 -1      2877 3.74540E+01
 -1      2878 4.17134E+01
 -1      2879 4.50507E+01
 -1      2880 4.00201E+01
 -1      2881 4.31975E+01
 -1      2882 3.99154E+01
 -1      2883 4.12397E+01
 -1      2884 4.00201E+01
 -1      2885 4.12397E+01
 -1      2886 4.17134E+01
 -1      2887 4.31975E+01
 -1      2888 4.50507E+01
 -1      2889 4.50507E+01
 -1      2890 4.13443E+01
 -1      2891 4.11350E+01
 -1      2892 4.13443E+01
 -1      2893 4.50507E+01
 -1      2894 6.88905E+01
 -1      2895 5.29927E+01
 -1      2896 3.13450E+01
 -1      2897 1.65353E+01
 -1      2898 9.13083E+00
 -1      2899 5.43008E+00
 -1      2900 3.87073E+00
 -1      2901 3.50625E+00
 -1      2902 3.40859E+00
 -1      2903 3.29091E+00
 -1      2904 3.15845E+00
 -1      2905 3.02068E+00
 -1      2906 3.19061E+00
 -1      2907 3.36242E+00
 -1      2908 3.54213E+00
 -1      2909 3.97191E+00
 -1      2910 4.79002E+00
 -1      2911 5.77262E+00
 -1      2912 6.98235E+00
 -1      2913 8.40972E+00
 -1      2914 1.02109E+01
 -1      2915 3.65319E+01
 -1      2916 4.50507E+01
 -1      2917 5.29927E+01
 -1      2918 5.29927E+01
 -1      2919 2.41102E+01
 -1      2920 1.65353E+01
 -1      2921 9.13083E+00
 -1      2922 5.43008E+00
 -1      2923 3.87073E+00
 -1      2924 3.46873E+00
 -1      2925 3.31358E+00
 -1      2926 3.18377E+00
 -1      2927 3.05647E+00
 -1      2928 2.93023E+00
 -1      2929 3.07662E+00
 -1      2930 3.21104E+00
 -1      2931 3.33382E+00
 -1      2932 3.44291E+00
 -1      2933 3.53017E+00
 -1      2934 3.57153E+00
 -1      2935 3.57153E+00
 -1      2936 3.51258E+00
 -1      2937 3.21103E+00
 -1      2938 5.50736E+00
 -1      2939 1.35068E+01
 -1      2940 5.27074E+01
 -1      2941 5.27074E+01
 -1      2942 3.51725E+01
 -1      2943 8.05613E+00
 -1      2944 8.05613E+00
 -1      2945 5.19569E+00
 -1      2946 3.62177E+00
 -1      2947 3.36005E+00
 -1      2948 3.21197E+00
 -1      2949 3.10785E+00
 -1      2950 3.03013E+00
 -1      2951 2.99117E+00
 -1      2952 3.00990E+00
 -1      2953 3.07572E+00
 -1      2954 3.10590E+00
 -1      2955 3.10590E+00
 -1      2956 3.09566E+00
 -1      2957 3.03545E+00
 -1      2958 2.92005E+00
 -1      2959 2.73542E+00
 -1      2960 2.48449E+00
 -1      2961 2.29382E+00
 -1      2962 2.26211E+00
 -1      2963 1.63157E+01
 -1      2964 3.51725E+01
 -1      2965 3.51725E+01
 -1      2966 2.53298E+00
 -1      2967 2.99403E+00
 -1      2968 3.06758E+00
 -1      2969 3.06758E+00
 -1      2970 3.04869E+00
 -1      2971 3.03691E+00
 -1      2972 3.09649E+00
 -1      2973 3.20811E+00
 -1      2974 3.20811E+00
 -1      2975 3.20602E+00
 -1      2976 3.08408E+00
 -1      2977 2.95842E+00
 -1      2978 2.86648E+00
 -1      2979 2.74051E+00
 -1      2980 2.60092E+00
 -1      2981 2.46730E+00
 -1      2982 2.35526E+00
 -1      2983 2.37028E+00
 -1      2984 2.40126E+00
 -1      2985 2.40126E+00
 -1      2986 1.40896E+01
 -1      2987 2.18054E+01
 -1      2988 2.18054E+01
 -1      2989 2.50808E+00
 -1      2990 2.04035E+00
 -1      2991 2.28830E+00
 -1      2992 2.47688E+00
 -1      2993 2.65550E+00
 -1      2994 2.91569E+00
 -1      2995 3.45174E+00
 -1      2996 4.02212E+00
 -1      2997 4.06930E+00
 -1      2998 4.06930E+00
 -1      2999 3.48236E+00
 -1      3000 3.00513E+00
 -1      3001 2.55456E+00
 -1      3002 2.37084E+00
 -1      3003 2.24502E+00
 -1      3004 2.17526E+00
 -1      3005 2.22540E+00
 -1      3006 2.41607E+00
 -1      3007 2.48195E+00
 -1      3008 2.48195E+00
 -1      3009 8.99463E+00
 -1      3010 9.75582E+00
 -1      3011 9.75582E+00
 -1      3012 2.84353E+00
 -1      3013 1.87005E+00
 -1      3014 1.68403E+00
 -1      3015 2.01650E+00
 -1      3016 2.42335E+00
 -1      3017 2.91569E+00
 -1      3018 3.45174E+00
 -1      3019 4.02212E+00
 -1      3020 4.06930E+00
 -1      3021 4.06930E+00
 -1      3022 3.48236E+00
 -1      3023 3.00513E+00
 -1      3024 2.61386E+00
 -1      3025 2.28509E+00
 -1      3026 2.00359E+00
 -1      3027 2.07274E+00
 -1      3028 2.21288E+00
 -1      3029 2.43466E+00
 -1      3030 2.55774E+00
 -1      3031 2.55774E+00
 -1      3032 5.32208E+00
 -1      3033 6.25373E+00
 -1      3034 6.25373E+00
 -1      3035 3.10756E+00
 -1      3036 2.05328E+00
 -1      3037 1.85222E+00
 -1      3038 2.16200E+00
 -1      3039 2.42335E+00
 -1      3040 2.83957E+00
 -1      3041 3.28403E+00
 -1      3042 3.80035E+00
 -1      3043 3.94265E+00
 -1      3044 3.94265E+00
 -1      3045 3.37077E+00
 -1      3046 2.96888E+00
 -1      3047 2.61386E+00
 -1      3048 2.31887E+00
 -1      3049 2.09730E+00
 -1      3050 2.03516E+00
 -1      3051 2.20655E+00
 -1      3052 2.43466E+00
 -1      3053 2.63995E+00
 -1      3054 2.63995E+00
 -1      3055 7.88714E+00
 -1      3056 3.52397E+00
 -1      3057 3.52397E+00
 -1      3058 3.34179E+00
 -1      3059 2.25209E+00
 -1      3060 2.07564E+00
 -1      3061 2.28669E+00
 -1      3062 2.39761E+00
 -1      3063 2.51450E+00
 -1      3064 2.51450E+00
 -1      3065 2.36901E+00
 -1      3066 1.65937E+00
 -1      3067 2.33990E+00
 -1      3068 2.54495E+00
 -1      3069 2.54495E+00
 -1      3070 2.48580E+00
 -1      3071 2.31887E+00
 -1      3072 2.18711E+00
 -1      3073 2.07330E+00
 -1      3074 2.20639E+00
 -1      3075 2.43303E+00
 -1      3076 2.72030E+00
 -1      3077 2.95523E+00
 -1      3078 1.32255E+01
 -1      3079 3.17666E+00
 -1      3080 3.56660E+00
 -1      3081 3.56660E+00
 -1      3082 2.46302E+00
 -1      3083 2.28676E+00
 -1      3084 2.39430E+00
 -1      3085 2.39430E+00
 -1      3086 2.35615E+00
 -1      3087 2.25563E+00
 -1      3088 1.94867E+00
 -1      3089 1.55163E+00
 -1      3090 1.81912E+00
 -1      3091 2.14231E+00
 -1      3092 2.28340E+00
 -1      3093 2.28457E+00
 -1      3094 2.28457E+00
 -1      3095 2.24301E+00
 -1      3096 2.17545E+00
 -1      3097 2.23263E+00
 -1      3098 2.41455E+00
 -1      3099 2.80641E+00
 -1      3100 2.95523E+00
 -1      3101 1.93923E+01
 -1      3102 5.14773E+00
 -1      3103 3.56660E+00
 -1      3104 3.56660E+00
 -1      3105 2.70160E+00
 -1      3106 2.48945E+00
 -1      3107 2.49103E+00
 -1      3108 2.49103E+00
 -1      3109 2.33315E+00
 -1      3110 2.12788E+00
 -1      3111 1.86597E+00
 -1      3112 1.69106E+00
 -1      3113 1.70467E+00
 -1      3114 1.92613E+00
 -1      3115 2.11583E+00
 -1      3116 2.22282E+00
 -1      3117 2.28086E+00
 -1      3118 2.32709E+00
 -1      3119 2.32709E+00
 -1      3120 2.32179E+00
 -1      3121 2.38315E+00
 -1      3122 2.84692E+00
 -1      3123 2.84692E+00
 -1      3124 2.63406E+01
 -1      3125 8.50669E+00
 -1      3126 2.54442E+00
 -1      3127 2.70160E+00
 -1      3128 2.70160E+00
 -1      3129 2.48945E+00
 -1      3130 2.98928E+00
 -1      3131 3.52623E+00
 -1      3132 4.55918E+00
 -1      3133 5.36735E+00
 -1      3134 5.69113E+00
 -1      3135 5.69773E+00
 -1      3136 5.69773E+00
 -1      3137 5.43520E+00
 -1      3138 4.81388E+00
 -1      3139 3.82671E+00
 -1      3140 3.32967E+00
 -1      3141 2.86285E+00
 -1      3142 2.32709E+00
 -1      3143 2.32179E+00
 -1      3144 2.34944E+00
 -1      3145 2.84692E+00
 -1      3146 2.84692E+00
 -1      3147 3.39288E+01
 -1      3148 1.21524E+01
 -1      3149 3.35959E+00
 -1      3150 1.60100E+00
 -1      3151 1.64048E+00
 -1      3152 2.37409E+00
 -1      3153 2.98928E+00
 -1      3154 3.52623E+00
 -1      3155 4.55918E+00
 -1      3156 5.36735E+00
 -1      3157 5.69113E+00
 -1      3158 5.69773E+00
 -1      3159 5.69773E+00
 -1      3160 5.43520E+00
 -1      3161 4.81388E+00
 -1      3162 3.82671E+00
 -1      3163 3.32967E+00
 -1      3164 2.86285E+00
 -1      3165 2.55146E+00
 -1      3166 2.13809E+00
 -1      3167 1.51658E+00
 -1      3168 9.87450E-01
 -1      3169 1.93522E+00
 -1      3170 4.19209E+01
 -1      3171 1.62355E+01
 -1      3172 5.66884E+00
 -1      3173 2.36753E+00
 -1      3174 2.03672E+00
 -1      3175 2.36904E+00
 -1      3176 2.58454E+00
 -1      3177 2.88549E+00
 -1      3178 3.03028E+00
 -1      3179 3.06083E+00
 -1      3180 3.06083E+00
 -1      3181 3.01077E+00
 -1      3182 3.07072E+00
 -1      3183 3.09291E+00
 -1      3184 3.09291E+00
 -1      3185 3.06483E+00
 -1      3186 2.97766E+00
 -1      3187 2.81565E+00
 -1      3188 2.70218E+00
 -1      3189 2.54160E+00
 -1      3190 2.13590E+00
 -1      3191 1.60051E+00
 -1      3192 1.75721E+00
 -1      3193 5.00445E+01
 -1      3194 2.09177E+01
 -1      3195 9.03938E+00
 -1      3196 3.12514E+00
 -1      3197 2.52586E+00
 -1      3198 2.56414E+00
 -1      3199 2.56414E+00
 -1      3200 2.59769E+00
 -1      3201 2.59769E+00
 -1      3202 2.55971E+00
 -1      3203 2.46765E+00
 -1      3204 2.34082E+00
 -1      3205 2.45849E+00
 -1      3206 2.56693E+00
 -1      3207 2.65406E+00
 -1      3208 2.71555E+00
 -1      3209 2.74020E+00
 -1      3210 2.77121E+00
 -1      3211 2.84184E+00
 -1      3212 2.84184E+00
 -1      3213 2.74017E+00
 -1      3214 2.67988E+00
 -1      3215 3.01587E+00
 -1      3216 5.87816E+01
 -1      3217 2.66389E+01
 -1      3218 1.30251E+01
 -1      3219 4.49250E+00
 -1      3220 3.10280E+00
 -1      3221 2.91918E+00
 -1      3222 2.68839E+00
 -1      3223 2.50420E+00
 -1      3224 2.38622E+00
 -1      3225 2.24002E+00
 -1      3226 2.08080E+00
 -1      3227 1.91359E+00
 -1      3228 2.06217E+00
 -1      3229 2.21445E+00
 -1      3230 2.36221E+00
 -1      3231 2.50696E+00
 -1      3232 2.64683E+00
 -1      3233 2.78733E+00
 -1      3234 3.04814E+00
 -1      3235 3.28767E+00
 -1      3236 3.45779E+00
 -1      3237 6.63415E+00
 -1      3238 1.00648E+01
 -1      3239 6.16872E+01
 -1      3240 3.43580E+01
 -1      3241 1.76854E+01
 -1      3242 7.15192E+00
 -1      3243 3.85699E+00
 -1      3244 3.17548E+00
 -1      3245 2.72756E+00
 -1      3246 2.44741E+00
 -1      3247 2.21791E+00
 -1      3248 2.00562E+00
 -1      3249 1.80770E+00
 -1      3250 1.61793E+00
 -1      3251 1.78615E+00
 -1      3252 1.96272E+00
 -1      3253 2.14483E+00
 -1      3254 2.33853E+00
 -1      3255 2.55044E+00
 -1      3256 2.78733E+00
 -1      3257 3.11013E+00
 -1      3258 3.62927E+00
 -1      3259 6.02012E+00
 -1      3260 1.64022E+01
 -1      3261 2.94340E+01
 -1      3262 6.26137E+01
 -1      3263 5.25333E+01
 -1      3264 2.32479E+01
 -1      3265 9.84452E+00
 -1      3266 5.57641E+00
 -1      3267 3.34092E+00
 -1      3268 2.73926E+00
 -1      3269 2.36270E+00
 -1      3270 2.06558E+00
 -1      3271 1.81729E+00
 -1      3272 1.60070E+00
 -1      3273 1.40180E+00
 -1      3274 1.57992E+00
 -1      3275 1.76676E+00
 -1      3276 1.96466E+00
 -1      3277 2.18210E+00
 -1      3278 2.43077E+00
 -1      3279 2.72962E+00
 -1      3280 3.14117E+00
 -1      3281 4.42394E+00
 -1      3282 9.68418E+00
 -1      3283 3.00111E+01
 -1      3284 6.45782E+01
 -1      3285 6.88905E+01
 -1      3286 6.88905E+01
 -1      3287 6.09416E+01
 -1      3288 4.36842E+01
 -1      3289 4.21689E+01
 -1      3290 3.13450E+01
 -1      3291 2.39401E+01
 -1      3292 1.18874E+01
 -1      3293 1.28330E+01
 -1      3294 7.08886E+00
 -1      3295 7.28046E+00
 -1      3296 4.54664E+00
 -1      3297 4.65040E+00
 -1      3298 3.73421E+00
 -1      3299 3.68849E+00
 -1      3300 3.50625E+00
 -1      3301 3.45742E+00
 -1      3302 3.40859E+00
 -1      3303 3.34975E+00
 -1      3304 3.29091E+00
 -1      3305 3.22468E+00
 -1      3306 3.15845E+00
 -1      3307 3.08957E+00
 -1      3308 3.02068E+00
 -1      3309 3.10565E+00
 -1      3310 3.19061E+00
 -1      3311 3.27652E+00
 -1      3312 3.36242E+00
 -1      3313 3.45228E+00
 -1      3314 3.54213E+00
 -1      3315 3.75702E+00
 -1      3316 3.97191E+00
 -1      3317 4.38097E+00
 -1      3318 4.79002E+00
 -1      3319 5.28132E+00
 -1      3320 5.77262E+00
 -1      3321 6.37749E+00
 -1      3322 6.98235E+00
 -1      3323 7.69603E+00
 -1      3324 8.40972E+00
 -1      3325 9.31030E+00
 -1      3326 1.02109E+01
 -1      3327 2.33714E+01
 -1      3328 3.65319E+01
 -1      3329 4.07913E+01
 -1      3330 4.50507E+01
 -1      3331 4.50507E+01
 -1      3332 4.12647E+01
 -1      3333 6.09416E+01
 -1      3334 5.29927E+01
 -1      3335 5.29927E+01
 -1      3336 3.85514E+01
 -1      3337 2.77276E+01
 -1      3338 2.03227E+01
 -1      3339 1.65353E+01
 -1      3340 1.28330E+01
 -1      3341 9.13083E+00
 -1      3342 7.28046E+00
 -1      3343 5.43008E+00
 -1      3344 4.65040E+00
 -1      3345 3.87073E+00
 -1      3346 3.66973E+00
 -1      3347 3.48749E+00
 -1      3348 3.39116E+00
 -1      3349 3.36108E+00
 -1      3350 3.24868E+00
 -1      3351 3.23734E+00
 -1      3352 3.12012E+00
 -1      3353 3.10746E+00
 -1      3354 2.99335E+00
 -1      3355 2.97546E+00
 -1      3356 3.00343E+00
 -1      3357 3.13362E+00
 -1      3358 3.14383E+00
 -1      3359 3.28673E+00
 -1      3360 3.27243E+00
 -1      3361 3.43798E+00
 -1      3362 3.38837E+00
 -1      3363 3.70741E+00
 -1      3364 3.48654E+00
 -1      3365 4.16009E+00
 -1      3366 3.55085E+00
 -1      3367 4.67208E+00
 -1      3368 3.57153E+00
 -1      3369 5.27694E+00
 -1      3370 3.54205E+00
 -1      3371 5.96115E+00
 -1      3372 3.36181E+00
 -1      3373 6.71096E+00
 -1      3374 4.35920E+00
 -1      3375 2.10196E+01
 -1      3376 9.50707E+00
 -1      3377 2.92788E+01
 -1      3378 1.35068E+01
 -1      3379 3.83470E+01
 -1      3380 5.28501E+01
 -1      3381 5.27074E+01
 -1      3382 5.28501E+01
 -1      3383 4.39400E+01
 -1      3384 2.96413E+01
 -1      3385 2.16143E+01
 -1      3386 1.22957E+01
 -1      3387 8.05613E+00
 -1      3388 8.59348E+00
 -1      3389 6.62591E+00
 -1      3390 5.31288E+00
 -1      3391 4.40873E+00
 -1      3392 3.74625E+00
 -1      3393 3.49091E+00
 -1      3394 3.41439E+00
 -1      3395 3.28601E+00
 -1      3396 3.26278E+00
 -1      3397 3.15991E+00
 -1      3398 3.14581E+00
 -1      3399 3.06899E+00
 -1      3400 3.04330E+00
 -1      3401 3.01065E+00
 -1      3402 2.96070E+00
 -1      3403 3.00054E+00
 -1      3404 3.04326E+00
 -1      3405 3.04281E+00
 -1      3406 3.14338E+00
 -1      3407 3.09081E+00
 -1      3408 3.21986E+00
 -1      3409 3.10590E+00
 -1      3410 3.27441E+00
 -1      3411 3.10078E+00
 -1      3412 3.31292E+00
 -1      3413 3.06556E+00
 -1      3414 3.30349E+00
 -1      3415 2.97775E+00
 -1      3416 3.24579E+00
 -1      3417 2.82773E+00
 -1      3418 3.12400E+00
 -1      3419 2.60995E+00
 -1      3420 2.84776E+00
 -1      3421 2.38915E+00
 -1      3422 3.90059E+00
 -1      3423 2.27797E+00
 -1      3424 7.88445E+00
 -1      3425 2.12891E+00
 -1      3426 1.58682E+01
 -1      3427 3.45116E+01
 -1      3428 2.57441E+01
 -1      3429 4.39400E+01
 -1      3430 3.51725E+01
 -1      3431 3.51725E+01
 -1      3432 1.88527E+01
 -1      3433 5.29456E+00
 -1      3434 2.76351E+00
 -1      3435 5.52508E+00
 -1      3436 3.03081E+00
 -1      3437 4.13164E+00
 -1      3438 3.06758E+00
 -1      3439 3.34468E+00
 -1      3440 3.05813E+00
 -1      3441 3.20437E+00
 -1      3442 3.04280E+00
 -1      3443 3.12444E+00
 -1      3444 3.06670E+00
 -1      3445 3.10217E+00
 -1      3446 3.15230E+00
 -1      3447 3.11912E+00
 -1      3448 3.20811E+00
 -1      3449 3.09964E+00
 -1      3450 3.20706E+00
 -1      3451 3.10796E+00
 -1      3452 3.14505E+00
 -1      3453 3.07990E+00
 -1      3454 3.02125E+00
 -1      3455 3.03216E+00
 -1      3456 2.91245E+00
 -1      3457 2.98619E+00
 -1      3458 2.80350E+00
 -1      3459 2.91809E+00
 -1      3460 2.67072E+00
 -1      3461 2.81819E+00
 -1      3462 2.53411E+00
 -1      3463 2.69367E+00
 -1      3464 2.41128E+00
 -1      3465 2.54534E+00
 -1      3466 2.36277E+00
 -1      3467 2.42739E+00
 -1      3468 2.38577E+00
 -1      3469 2.34754E+00
 -1      3470 2.40126E+00
 -1      3471 2.33169E+00
 -1      3472 2.08204E+00
 -1      3473 1.30835E+01
 -1      3474 1.52027E+01
 -1      3475 1.79475E+01
 -1      3476 2.84889E+01
 -1      3477 2.18054E+01
 -1      3478 2.84889E+01
 -1      3479 1.21568E+01
 -1      3480 2.52053E+00
 -1      3481 2.27422E+00
 -1      3482 2.51719E+00
 -1      3483 2.16432E+00
 -1      3484 2.67794E+00
 -1      3485 2.38259E+00
 -1      3486 2.77223E+00
 -1      3487 2.56619E+00
 -1      3488 2.85209E+00
 -1      3489 2.78559E+00
 -1      3490 2.97630E+00
 -1      3491 3.18371E+00
 -1      3492 3.27411E+00
 -1      3493 3.73693E+00
 -1      3494 3.61512E+00
 -1      3495 4.04571E+00
 -1      3496 3.63870E+00
 -1      3497 4.06930E+00
 -1      3498 3.63766E+00
 -1      3499 3.77583E+00
 -1      3500 3.28322E+00
 -1      3501 3.24374E+00
 -1      3502 2.98178E+00
 -1      3503 2.77985E+00
 -1      3504 2.71052E+00
 -1      3505 2.46270E+00
 -1      3506 2.55567E+00
 -1      3507 2.30793E+00
 -1      3508 2.42297E+00
 -1      3509 2.21014E+00
 -1      3510 2.32128E+00
 -1      3511 2.20033E+00
 -1      3512 2.29033E+00
 -1      3513 2.32073E+00
 -1      3514 2.39317E+00
 -1      3515 2.44901E+00
 -1      3516 2.44161E+00
 -1      3517 2.48195E+00
 -1      3518 2.44161E+00
 -1      3519 2.23827E+00
 -1      3520 8.76698E+00
 -1      3521 1.15421E+01
 -1      3522 9.37523E+00
 -1      3523 1.57806E+01
 -1      3524 9.75582E+00
 -1      3525 1.57806E+01
 -1      3526 6.29967E+00
 -1      3527 2.67581E+00
 -1      3528 2.35679E+00
 -1      3529 1.95520E+00
 -1      3530 1.77704E+00
 -1      3531 1.98616E+00
 -1      3532 1.85026E+00
 -1      3533 2.24669E+00
 -1      3534 2.21992E+00
 -1      3535 2.53943E+00
 -1      3536 2.66952E+00
 -1      3537 2.91569E+00
 -1      3538 3.18371E+00
 -1      3539 3.45174E+00
 -1      3540 3.73693E+00
 -1      3541 4.02212E+00
 -1      3542 4.04571E+00
 -1      3543 4.06930E+00
 -1      3544 4.06930E+00
 -1      3545 4.06930E+00
 -1      3546 3.77583E+00
 -1      3547 3.48236E+00
 -1      3548 3.24374E+00
 -1      3549 3.00513E+00
 -1      3550 2.80950E+00
 -1      3551 2.58421E+00
 -1      3552 2.44948E+00
 -1      3553 2.32797E+00
 -1      3554 2.14434E+00
 -1      3555 2.12430E+00
 -1      3556 2.03816E+00
 -1      3557 2.12400E+00
 -1      3558 2.14281E+00
 -1      3559 2.21914E+00
 -1      3560 2.32377E+00
 -1      3561 2.42536E+00
 -1      3562 2.49620E+00
 -1      3563 2.51984E+00
 -1      3564 2.55774E+00
 -1      3565 2.51984E+00
 -1      3566 2.33580E+00
 -1      3567 5.31697E+00
 -1      3568 7.15836E+00
 -1      3569 5.78791E+00
 -1      3570 8.00478E+00
 -1      3571 6.25373E+00
 -1      3572 8.00478E+00
 -1      3573 4.68065E+00
 -1      3574 2.97554E+00
 -1      3575 2.58042E+00
 -1      3576 1.96166E+00
 -1      3577 1.95275E+00
 -1      3578 1.76812E+00
 -1      3579 2.00711E+00
 -1      3580 2.08925E+00
 -1      3581 2.29267E+00
 -1      3582 2.42335E+00
 -1      3583 2.63146E+00
 -1      3584 2.87763E+00
 -1      3585 3.06180E+00
 -1      3586 3.36789E+00
 -1      3587 3.54219E+00
 -1      3588 3.91124E+00
 -1      3589 3.87150E+00
 -1      3590 4.00598E+00
 -1      3591 3.94265E+00
 -1      3592 4.00598E+00
 -1      3593 3.65671E+00
 -1      3594 3.42656E+00
 -1      3595 3.16983E+00
 -1      3596 2.98701E+00
 -1      3597 2.79137E+00
 -1      3598 2.61386E+00
 -1      3599 2.46637E+00
 -1      3600 2.30198E+00
 -1      3601 2.20809E+00
 -1      3602 2.05044E+00
 -1      3603 2.06623E+00
 -1      3604 2.05395E+00
 -1      3605 2.12086E+00
 -1      3606 2.20972E+00
 -1      3607 2.32061E+00
 -1      3608 2.43466E+00
 -1      3609 2.53730E+00
 -1      3610 2.59884E+00
 -1      3611 2.63995E+00
 -1      3612 2.59884E+00
 -1      3613 2.54522E+00
 -1      3614 7.88714E+00
 -1      3615 6.60461E+00
 -1      3616 5.70555E+00
 -1      3617 4.88885E+00
 -1      3618 3.52397E+00
 -1      3619 4.88885E+00
 -1      3620 3.43288E+00
 -1      3621 3.22467E+00
 -1      3622 2.79694E+00
 -1      3623 2.15268E+00
 -1      3624 2.16386E+00
 -1      3625 1.96393E+00
 -1      3626 2.18117E+00
 -1      3627 2.22434E+00
 -1      3628 2.34215E+00
 -1      3629 2.41048E+00
 -1      3630 2.45605E+00
 -1      3631 2.67703E+00
 -1      3632 2.51450E+00
 -1      3633 2.89927E+00
 -1      3634 2.44176E+00
 -1      3635 3.08468E+00
 -1      3636 2.01419E+00
 -1      3637 2.80101E+00
 -1      3638 1.99964E+00
 -1      3639 3.14128E+00
 -1      3640 2.44243E+00
 -1      3641 2.95786E+00
 -1      3642 2.54495E+00
 -1      3643 2.75692E+00
 -1      3644 2.51537E+00
 -1      3645 2.54983E+00
 -1      3646 2.40233E+00
 -1      3647 2.31887E+00
 -1      3648 2.25299E+00
 -1      3649 2.14221E+00
 -1      3650 2.13020E+00
 -1      3651 2.05423E+00
 -1      3652 2.13985E+00
 -1      3653 2.20647E+00
 -1      3654 2.31971E+00
 -1      3655 2.43385E+00
 -1      3656 2.57666E+00
 -1      3657 2.68012E+00
 -1      3658 2.83776E+00
 -1      3659 2.79759E+00
 -1      3660 2.95523E+00
 -1      3661 1.32255E+01
 -1      3662 1.05563E+01
 -1      3663 8.20110E+00
 -1      3664 3.35031E+00
 -1      3665 3.37163E+00
 -1      3666 3.54528E+00
 -1      3667 3.56660E+00
 -1      3668 3.45420E+00
 -1      3669 3.01481E+00
 -1      3670 2.35755E+00
 -1      3671 2.37489E+00
 -1      3672 2.18120E+00
 -1      3673 2.34053E+00
 -1      3674 2.34050E+00
 -1      3675 2.39430E+00
 -1      3676 2.39595E+00
 -1      3677 2.37522E+00
 -1      3678 2.43532E+00
 -1      3679 2.30589E+00
 -1      3680 2.38506E+00
 -1      3681 2.10215E+00
 -1      3682 2.15884E+00
 -1      3683 1.75015E+00
 -1      3684 1.60550E+00
 -1      3685 1.68537E+00
 -1      3686 2.07951E+00
 -1      3687 1.98071E+00
 -1      3688 2.34363E+00
 -1      3689 2.21286E+00
 -1      3690 2.41418E+00
 -1      3691 2.28398E+00
 -1      3692 2.38518E+00
 -1      3693 2.28457E+00
 -1      3694 2.30172E+00
 -1      3695 2.26379E+00
 -1      3696 2.21506E+00
 -1      3697 2.20923E+00
 -1      3698 2.12437E+00
 -1      3699 2.20404E+00
 -1      3700 2.21951E+00
 -1      3701 2.32359E+00
 -1      3702 2.42379E+00
 -1      3703 2.61048E+00
 -1      3704 2.76335E+00
 -1      3705 2.88082E+00
 -1      3706 2.95523E+00
 -1      3707 2.95523E+00
 -1      3708 1.93923E+01
 -1      3709 1.63089E+01
 -1      3710 1.22700E+01
 -1      3711 4.16219E+00
 -1      3712 4.35717E+00
 -1      3713 3.56660E+00
 -1      3714 3.56660E+00
 -1      3715 3.56660E+00
 -1      3716 3.13410E+00
 -1      3717 2.58231E+00
 -1      3718 2.59552E+00
 -1      3719 2.38811E+00
 -1      3720 2.49024E+00
 -1      3721 2.44266E+00
 -1      3722 2.49103E+00
 -1      3723 2.44266E+00
 -1      3724 2.41209E+00
 -1      3725 2.34465E+00
 -1      3726 2.23052E+00
 -1      3727 2.19175E+00
 -1      3728 1.99692E+00
 -1      3729 1.90732E+00
 -1      3730 1.77851E+00
 -1      3731 1.62134E+00
 -1      3732 1.69786E+00
 -1      3733 1.76189E+00
 -1      3734 1.81540E+00
 -1      3735 2.03422E+00
 -1      3736 2.02098E+00
 -1      3737 2.19962E+00
 -1      3738 2.16933E+00
 -1      3739 2.25369E+00
 -1      3740 2.25184E+00
 -1      3741 2.28271E+00
 -1      3742 2.30398E+00
 -1      3743 2.28505E+00
 -1      3744 2.32709E+00
 -1      3745 2.25127E+00
 -1      3746 2.32444E+00
 -1      3747 2.27721E+00
 -1      3748 2.35247E+00
 -1      3749 2.39885E+00
 -1      3750 2.61503E+00
 -1      3751 2.82667E+00
 -1      3752 2.84692E+00
 -1      3753 2.90108E+00
 -1      3754 2.43210E+00
 -1      3755 2.63406E+01
 -1      3756 2.28664E+01
 -1      3757 1.74236E+01
 -1      3758 6.82721E+00
 -1      3759 5.52556E+00
 -1      3760 3.05551E+00
 -1      3761 2.62301E+00
 -1      3762 3.13410E+00
 -1      3763 2.70160E+00
 -1      3764 2.70160E+00
 -1      3765 2.59552E+00
 -1      3766 2.48945E+00
 -1      3767 2.73936E+00
 -1      3768 2.74015E+00
 -1      3769 3.25776E+00
 -1      3770 3.00863E+00
 -1      3771 4.04271E+00
 -1      3772 3.44617E+00
 -1      3773 4.96327E+00
 -1      3774 3.74762E+00
 -1      3775 5.52924E+00
 -1      3776 3.77855E+00
 -1      3777 5.69443E+00
 -1      3778 3.69439E+00
 -1      3779 5.69773E+00
 -1      3780 3.70120E+00
 -1      3781 5.56646E+00
 -1      3782 3.68066E+00
 -1      3783 5.12454E+00
 -1      3784 3.46486E+00
 -1      3785 4.32029E+00
 -1      3786 3.02477E+00
 -1      3787 3.57819E+00
 -1      3788 2.80526E+00
 -1      3789 3.09626E+00
 -1      3790 2.59497E+00
 -1      3791 2.59497E+00
 -1      3792 2.32709E+00
 -1      3793 2.32444E+00
 -1      3794 2.32179E+00
 -1      3795 2.33562E+00
 -1      3796 2.36629E+00
 -1      3797 2.59818E+00
 -1      3798 2.84692E+00
 -1      3799 2.84692E+00
 -1      3800 2.84692E+00
 -1      3801 2.43210E+00
 -1      3802 3.39288E+01
 -1      3803 3.01347E+01
 -1      3804 2.30406E+01
 -1      3805 1.03296E+01
 -1      3806 7.75601E+00
 -1      3807 2.95201E+00
 -1      3808 2.48030E+00
 -1      3809 2.15130E+00
 -1      3810 1.62074E+00
 -1      3811 2.17104E+00
 -1      3812 2.00729E+00
 -1      3813 2.43177E+00
 -1      3814 2.68169E+00
 -1      3815 2.98928E+00
 -1      3816 3.25776E+00
 -1      3817 3.52623E+00
 -1      3818 4.04271E+00
 -1      3819 4.55918E+00
 -1      3820 4.96327E+00
 -1      3821 5.36735E+00
 -1      3822 5.52924E+00
 -1      3823 5.69113E+00
 -1      3824 5.69443E+00
 -1      3825 5.69773E+00
 -1      3826 5.69773E+00
 -1      3827 5.69773E+00
 -1      3828 5.56646E+00
 -1      3829 5.43520E+00
 -1      3830 5.12454E+00
 -1      3831 4.81388E+00
 -1      3832 4.32029E+00
 -1      3833 3.82671E+00
 -1      3834 3.57819E+00
 -1      3835 3.32967E+00
 -1      3836 3.09626E+00
 -1      3837 2.86285E+00
 -1      3838 2.70715E+00
 -1      3839 2.43928E+00
 -1      3840 2.34477E+00
 -1      3841 2.22994E+00
 -1      3842 1.82734E+00
 -1      3843 1.93301E+00
 -1      3844 1.25202E+00
 -1      3845 1.91718E+00
 -1      3846 1.46134E+00
 -1      3847 2.39107E+00
 -1      3848 1.93522E+00
 -1      3849 4.19209E+01
 -1      3850 3.79248E+01
 -1      3851 2.90782E+01
 -1      3852 1.41940E+01
 -1      3853 1.09522E+01
 -1      3854 4.51422E+00
 -1      3855 4.01819E+00
 -1      3856 1.98427E+00
 -1      3857 2.20213E+00
 -1      3858 1.83860E+00
 -1      3859 2.20288E+00
 -1      3860 2.37157E+00
 -1      3861 2.47679E+00
 -1      3862 2.78691E+00
 -1      3863 2.73501E+00
 -1      3864 3.20586E+00
 -1      3865 2.95788E+00
 -1      3866 3.79473E+00
 -1      3867 3.04555E+00
 -1      3868 4.21409E+00
 -1      3869 3.06083E+00
 -1      3870 4.37598E+00
 -1      3871 3.03580E+00
 -1      3872 4.35425E+00
 -1      3873 3.04074E+00
 -1      3874 4.38423E+00
 -1      3875 3.08182E+00
 -1      3876 4.26405E+00
 -1      3877 3.09291E+00
 -1      3878 3.95339E+00
 -1      3879 3.07887E+00
 -1      3880 3.44577E+00
 -1      3881 3.02124E+00
 -1      3882 3.15366E+00
 -1      3883 2.89665E+00
 -1      3884 2.83925E+00
 -1      3885 2.75892E+00
 -1      3886 2.62682E+00
 -1      3887 2.62189E+00
 -1      3888 2.33985E+00
 -1      3889 2.33875E+00
 -1      3890 1.82624E+00
 -1      3891 1.86820E+00
 -1      3892 1.29398E+00
 -1      3893 1.67886E+00
 -1      3894 1.84622E+00
 -1      3895 1.75721E+00
 -1      3896 5.00445E+01
 -1      3897 4.59827E+01
 -1      3898 3.54811E+01
 -1      3899 1.85766E+01
 -1      3900 1.49785E+01
 -1      3901 7.35411E+00
 -1      3902 6.08226E+00
 -1      3903 2.74634E+00
 -1      3904 2.82550E+00
 -1      3905 2.28129E+00
 -1      3906 2.54500E+00
 -1      3907 2.46659E+00
 -1      3908 2.56414E+00
 -1      3909 2.57434E+00
 -1      3910 2.58091E+00
 -1      3911 2.74159E+00
 -1      3912 2.59769E+00
 -1      3913 2.81398E+00
 -1      3914 2.57870E+00
 -1      3915 2.81027E+00
 -1      3916 2.51368E+00
 -1      3917 2.76424E+00
 -1      3918 2.40423E+00
 -1      3919 2.67579E+00
 -1      3920 2.39966E+00
 -1      3921 2.76461E+00
 -1      3922 2.51271E+00
 -1      3923 2.82992E+00
 -1      3924 2.61049E+00
 -1      3925 2.87348E+00
 -1      3926 2.68480E+00
 -1      3927 2.89019E+00
 -1      3928 2.72787E+00
 -1      3929 2.85893E+00
 -1      3930 2.75571E+00
 -1      3931 2.79343E+00
 -1      3932 2.80653E+00
 -1      3933 2.77201E+00
 -1      3934 2.84184E+00
 -1      3935 2.69172E+00
 -1      3936 2.79100E+00
 -1      3937 2.43803E+00
 -1      3938 2.71002E+00
 -1      3939 2.14019E+00
 -1      3940 2.84787E+00
 -1      3941 2.38654E+00
 -1      3942 3.01587E+00
 -1      3943 5.87816E+01
 -1      3944 5.44130E+01
 -1      3945 4.27102E+01
 -1      3946 2.37783E+01
 -1      3947 1.98320E+01
 -1      3948 1.10322E+01
 -1      3949 8.75879E+00
 -1      3950 3.80882E+00
 -1      3951 3.79765E+00
 -1      3952 2.81433E+00
 -1      3953 3.01099E+00
 -1      3954 2.74166E+00
 -1      3955 2.80378E+00
 -1      3956 2.62626E+00
 -1      3957 2.59629E+00
 -1      3958 2.55094E+00
 -1      3959 2.44521E+00
 -1      3960 2.49195E+00
 -1      3961 2.31312E+00
 -1      3962 2.39986E+00
 -1      3963 2.16041E+00
 -1      3964 2.27423E+00
 -1      3965 1.99720E+00
 -1      3966 2.12721E+00
 -1      3967 1.98788E+00
 -1      3968 2.26033E+00
 -1      3969 2.13831E+00
 -1      3970 2.39069E+00
 -1      3971 2.28833E+00
 -1      3972 2.50814E+00
 -1      3973 2.43459E+00
 -1      3974 2.61125E+00
 -1      3975 2.57689E+00
 -1      3976 2.69351E+00
 -1      3977 2.71708E+00
 -1      3978 2.77927E+00
 -1      3979 2.91773E+00
 -1      3980 2.94499E+00
 -1      3981 3.16790E+00
 -1      3982 3.06475E+00
 -1      3983 3.37273E+00
 -1      3984 3.09898E+00
 -1      3985 5.04597E+00
 -1      3986 4.65701E+00
 -1      3987 8.34948E+00
 -1      3988 6.54034E+00
 -1      3989 1.00648E+01
 -1      3990 6.16872E+01
 -1      3991 6.02344E+01
 -1      3992 4.80226E+01
 -1      3993 3.04984E+01
 -1      3994 2.60217E+01
 -1      3995 1.53552E+01
 -1      3996 1.24186E+01
 -1      3997 5.82221E+00
 -1      3998 5.50446E+00
 -1      3999 3.47990E+00
 -1      4000 3.51623E+00
 -1      4001 3.04733E+00
 -1      4002 2.95152E+00
 -1      4003 2.70797E+00
 -1      4004 2.58749E+00
 -1      4005 2.47580E+00
 -1      4006 2.33266E+00
 -1      4007 2.30206E+00
 -1      4008 2.11177E+00
 -1      4009 2.12282E+00
 -1      4010 1.90666E+00
 -1      4011 1.94425E+00
 -1      4012 1.71281E+00
 -1      4013 1.76576E+00
 -1      4014 1.70204E+00
 -1      4015 1.92416E+00
 -1      4016 1.87443E+00
 -1      4017 2.08858E+00
 -1      4018 2.05377E+00
 -1      4019 2.25352E+00
 -1      4020 2.24168E+00
 -1      4021 2.42274E+00
 -1      4022 2.44449E+00
 -1      4023 2.59864E+00
 -1      4024 2.66889E+00
 -1      4025 2.78733E+00
 -1      4026 2.94873E+00
 -1      4027 3.07913E+00
 -1      4028 3.36970E+00
 -1      4029 3.45847E+00
 -1      4030 4.82470E+00
 -1      4031 4.73895E+00
 -1      4032 1.12112E+01
 -1      4033 1.15182E+01
 -1      4034 2.29181E+01
 -1      4035 1.97494E+01
 -1      4036 2.94340E+01
 -1      4037 6.26137E+01
 -1      4038 6.21505E+01
 -1      4039 5.75735E+01
 -1      4040 4.34456E+01
 -1      4041 3.78906E+01
 -1      4042 2.04666E+01
 -1      4043 1.65462E+01
 -1      4044 8.49822E+00
 -1      4045 7.71047E+00
 -1      4046 4.71670E+00
 -1      4047 4.45867E+00
 -1      4048 3.25820E+00
 -1      4049 3.04009E+00
 -1      4050 2.73341E+00
 -1      4051 2.55098E+00
 -1      4052 2.40506E+00
 -1      4053 2.21414E+00
 -1      4054 2.14175E+00
 -1      4055 1.94143E+00
 -1      4056 1.91145E+00
 -1      4057 1.70900E+00
 -1      4058 1.70420E+00
 -1      4059 1.50125E+00
 -1      4060 1.50986E+00
 -1      4061 1.49086E+00
 -1      4062 1.68303E+00
 -1      4063 1.67334E+00
 -1      4064 1.86474E+00
 -1      4065 1.86571E+00
 -1      4066 2.05474E+00
 -1      4067 2.07338E+00
 -1      4068 2.26032E+00
 -1      4069 2.30644E+00
 -1      4070 2.49061E+00
 -1      4071 2.58020E+00
 -1      4072 2.75847E+00
 -1      4073 2.93540E+00
 -1      4074 3.12565E+00
 -1      4075 3.78256E+00
 -1      4076 4.02661E+00
 -1      4077 7.05406E+00
 -1      4078 7.85215E+00
 -1      4079 1.98477E+01
 -1      4080 2.32067E+01
 -1      4081 4.72947E+01
 -1      4082 4.70061E+01
 -1      4083 6.45782E+01
 -1      4084 6.26137E+01
 -1      4085 5.25333E+01
 -1      4086 2.32479E+01
 -1      4087 9.84452E+00
 -1      4088 5.57641E+00
 -1      4089 3.34092E+00
 -1      4090 2.73926E+00
 -1      4091 2.33032E+00
 -1      4092 2.01462E+00
 -1      4093 1.75771E+00
 -1      4094 1.53753E+00
 -1      4095 1.33781E+00
 -1      4096 1.51896E+00
 -1      4097 1.70764E+00
 -1      4098 1.90907E+00
 -1      4099 2.13243E+00
 -1      4100 2.39108E+00
 -1      4101 2.70747E+00
 -1      4102 3.14117E+00
 -1      4103 4.42394E+00
 -1      4104 9.68418E+00
 -1      4105 3.00111E+01
 -1      4106 6.45782E+01
 -1      4107 7.77530E+01
 -1      4108 7.80202E+01
 -1      4109 7.80202E+01
 -1      4110 7.80202E+01
 -1      4111 7.77530E+01
 -1      4112 6.68429E+01
 -1      4113 7.14175E+01
 -1      4114 7.14175E+01
 -1      4115 7.14175E+01
 -1      4116 6.68429E+01
 -1      4117 3.13450E+01
 -1      4118 2.68243E+01
 -1      4119 2.51408E+01
 -1      4120 2.68243E+01
 -1      4121 3.13450E+01
 -1      4122 1.65353E+01
 -1      4123 1.56905E+01
 -1      4124 1.44974E+01
 -1      4125 1.56905E+01
 -1      4126 1.65353E+01
 -1      4127 9.13083E+00
 -1      4128 8.74223E+00
 -1      4129 8.39063E+00
 -1      4130 8.74223E+00
 -1      4131 9.13083E+00
 -1      4132 5.43008E+00
 -1      4133 5.36503E+00
 -1      4134 5.23220E+00
 -1      4135 5.36503E+00
 -1      4136 5.43008E+00
 -1      4137 3.87073E+00
 -1      4138 3.83735E+00
 -1      4139 3.76997E+00
 -1      4140 3.83735E+00
 -1      4141 3.87073E+00
 -1      4142 3.50625E+00
 -1      4143 3.50126E+00
 -1      4144 3.49014E+00
 -1      4145 3.50126E+00
 -1      4146 3.50625E+00
 -1      4147 3.40859E+00
 -1      4148 3.39846E+00
 -1      4149 3.38316E+00
 -1      4150 3.39846E+00
 -1      4151 3.40859E+00
 -1      4152 3.29091E+00
 -1      4153 3.27698E+00
 -1      4154 3.25856E+00
 -1      4155 3.27698E+00
 -1      4156 3.29091E+00
 -1      4157 3.15845E+00
 -1      4158 3.14147E+00
 -1      4159 3.12095E+00
 -1      4160 3.14147E+00
 -1      4161 3.15845E+00
 -1      4162 3.02068E+00
 -1      4163 2.99990E+00
 -1      4164 2.97687E+00
 -1      4165 2.99990E+00
 -1      4166 3.02068E+00
 -1      4167 3.19061E+00
 -1      4168 3.17075E+00
 -1      4169 3.14813E+00
 -1      4170 3.17075E+00
 -1      4171 3.19061E+00
 -1      4172 3.36242E+00
 -1      4173 3.34401E+00
 -1      4174 3.32206E+00
 -1      4175 3.34401E+00
 -1      4176 3.36242E+00
 -1      4177 3.54213E+00
 -1      4178 3.52582E+00
 -1      4179 3.50479E+00
 -1      4180 3.52582E+00
 -1      4181 3.54213E+00
 -1      4182 3.97191E+00
 -1      4183 3.92286E+00
 -1      4184 3.85015E+00
 -1      4185 3.92286E+00
 -1      4186 3.97191E+00
 -1      4187 4.79002E+00
 -1      4188 4.75610E+00
 -1      4189 4.68901E+00
 -1      4190 4.75610E+00
 -1      4191 4.79002E+00
 -1      4192 5.77262E+00
 -1      4193 5.76066E+00
 -1      4194 5.70124E+00
 -1      4195 5.76066E+00
 -1      4196 5.77262E+00
 -1      4197 7.01542E+00
 -1      4198 7.01542E+00
 -1      4199 6.97283E+00
 -1      4200 7.01542E+00
 -1      4201 7.01542E+00
 -1      4202 8.58551E+00
 -1      4203 8.62151E+00
 -1      4204 8.62151E+00
 -1      4205 8.62151E+00
 -1      4206 8.58551E+00
 -1      4207 1.02109E+01
 -1      4208 1.05105E+01
 -1      4209 1.05105E+01
 -1      4210 1.05105E+01
 -1      4211 1.02109E+01
 -1      4212 3.83761E+01
 -1      4213 3.86958E+01
 -1      4214 3.86958E+01
 -1      4215 3.86958E+01
 -1      4216 3.83761E+01
 -1      4217 4.50507E+01
 -1      4218 4.13443E+01
 -1      4219 4.11350E+01
 -1      4220 4.13443E+01
 -1      4221 4.50507E+01
 -1      4222 6.68429E+01
 -1      4223 7.14175E+01
 -1      4224 7.14175E+01
 -1      4225 7.14175E+01
 -1      4226 6.68429E+01
 -1      4227 6.68429E+01
 -1      4228 7.14175E+01
 -1      4229 7.14175E+01
 -1      4230 7.14175E+01
 -1      4231 6.68429E+01
 -1      4232 2.41102E+01
 -1      4233 2.38611E+01
 -1      4234 2.38611E+01
 -1      4235 2.38611E+01
 -1      4236 2.41102E+01
 -1      4237 1.65353E+01
 -1      4238 1.56905E+01
 -1      4239 1.44974E+01
 -1      4240 1.56905E+01
 -1      4241 1.65353E+01
 -1      4242 9.13083E+00
 -1      4243 8.74223E+00
 -1      4244 8.39063E+00
 -1      4245 8.74223E+00
 -1      4246 9.13083E+00
 -1      4247 5.43008E+00
 -1      4248 5.36503E+00
 -1      4249 5.23220E+00
 -1      4250 5.36503E+00
 -1      4251 5.43008E+00
 -1      4252 3.87073E+00
 -1      4253 3.83735E+00
 -1      4254 3.76997E+00
 -1      4255 3.83735E+00
 -1      4256 3.87073E+00
 -1      4257 3.46873E+00
 -1      4258 3.46440E+00
 -1      4259 3.45122E+00
 -1      4260 3.46440E+00
 -1      4261 3.46873E+00
 -1      4262 3.31358E+00
 -1      4263 3.30696E+00
 -1      4264 3.29324E+00
 -1      4265 3.30696E+00
 -1      4266 3.31358E+00
 -1      4267 3.18377E+00
 -1      4268 3.17410E+00
 -1      4269 3.15860E+00
 -1      4270 3.17410E+00
 -1      4271 3.18377E+00
 -1      4272 3.05647E+00
 -1      4273 3.04368E+00
 -1      4274 3.02623E+00
 -1      4275 3.04368E+00
 -1      4276 3.05647E+00
 -1      4277 2.93023E+00
 -1      4278 2.91371E+00
 -1      4279 2.89398E+00
 -1      4280 2.91371E+00
 -1      4281 2.93023E+00
 -1      4282 3.07662E+00
 -1      4283 3.06211E+00
 -1      4284 3.04344E+00
 -1      4285 3.06211E+00
 -1      4286 3.07662E+00
 -1      4287 3.21104E+00
 -1      4288 3.19978E+00
 -1      4289 3.18292E+00
 -1      4290 3.19978E+00
 -1      4291 3.21104E+00
 -1      4292 3.33382E+00
 -1      4293 3.32738E+00
 -1      4294 3.31325E+00
 -1      4295 3.32738E+00
 -1      4296 3.33382E+00
 -1      4297 3.44347E+00
 -1      4298 3.44347E+00
 -1      4299 3.43326E+00
 -1      4300 3.44347E+00
 -1      4301 3.44347E+00
 -1      4302 3.54110E+00
 -1      4303 3.54110E+00
 -1      4304 3.53658E+00
 -1      4305 3.54110E+00
 -1      4306 3.54110E+00
 -1      4307 3.59887E+00
 -1      4308 3.60303E+00
 -1      4309 3.60303E+00
 -1      4310 3.60303E+00
 -1      4311 3.59887E+00
 -1      4312 3.59887E+00
 -1      4313 3.60303E+00
 -1      4314 3.60303E+00
 -1      4315 3.60303E+00
 -1      4316 3.59887E+00
 -1      4317 3.56082E+00
 -1      4318 3.58064E+00
 -1      4319 3.58064E+00
 -1      4320 3.58064E+00
 -1      4321 3.56082E+00
 -1      4322 3.29234E+00
 -1      4323 3.32580E+00
 -1      4324 3.32580E+00
 -1      4325 3.32580E+00
 -1      4326 3.29234E+00
 -1      4327 6.10031E+00
 -1      4328 6.10031E+00
 -1      4329 5.96553E+00
 -1      4330 6.10031E+00
 -1      4331 6.10031E+00
 -1      4332 1.47611E+01
 -1      4333 1.48782E+01
 -1      4334 1.48782E+01
 -1      4335 1.48782E+01
 -1      4336 1.47611E+01
 -1      4337 5.27074E+01
 -1      4338 5.06876E+01
 -1      4339 5.06876E+01
 -1      4340 5.06876E+01
 -1      4341 5.27074E+01
 -1      4342 5.27074E+01
 -1      4343 5.06876E+01
 -1      4344 5.06876E+01
 -1      4345 5.06876E+01
 -1      4346 5.27074E+01
 -1      4347 3.54922E+01
 -1      4348 3.54922E+01
 -1      4349 3.53821E+01
 -1      4350 3.54922E+01
 -1      4351 3.54922E+01
 -1      4352 8.05613E+00
 -1      4353 8.15268E+00
 -1      4354 8.15268E+00
 -1      4355 8.15268E+00
 -1      4356 8.05613E+00
 -1      4357 8.05613E+00
 -1      4358 7.68820E+00
 -1      4359 7.54457E+00
 -1      4360 7.68820E+00
 -1      4361 8.05613E+00
 -1      4362 5.19569E+00
 -1      4363 5.00474E+00
 -1      4364 4.93704E+00
 -1      4365 5.00474E+00
 -1      4366 5.19569E+00
 -1      4367 3.62177E+00
 -1      4368 3.60386E+00
 -1      4369 3.59311E+00
 -1      4370 3.60386E+00
 -1      4371 3.62177E+00
 -1      4372 3.36005E+00
 -1      4373 3.35176E+00
 -1      4374 3.34275E+00
 -1      4375 3.35176E+00
 -1      4376 3.36005E+00
 -1      4377 3.21197E+00
 -1      4378 3.20463E+00
 -1      4379 3.19370E+00
 -1      4380 3.20463E+00
 -1      4381 3.21197E+00
 -1      4382 3.10785E+00
 -1      4383 3.09740E+00
 -1      4384 3.08346E+00
 -1      4385 3.09740E+00
 -1      4386 3.10785E+00
 -1      4387 3.03013E+00
 -1      4388 3.01720E+00
 -1      4389 3.00117E+00
 -1      4390 3.01720E+00
 -1      4391 3.03013E+00
 -1      4392 2.99117E+00
 -1      4393 2.97196E+00
 -1      4394 2.95216E+00
 -1      4395 2.97196E+00
 -1      4396 2.99117E+00
 -1      4397 3.00990E+00
 -1      4398 2.99507E+00
 -1      4399 2.97749E+00
 -1      4400 2.99507E+00
 -1      4401 3.00990E+00
 -1      4402 3.07572E+00
 -1      4403 3.06675E+00
 -1      4404 3.05270E+00
 -1      4405 3.06675E+00
 -1      4406 3.07572E+00
 -1      4407 3.10590E+00
 -1      4408 3.10488E+00
 -1      4409 3.09578E+00
 -1      4410 3.10488E+00
 -1      4411 3.10590E+00
 -1      4412 3.10590E+00
 -1      4413 3.10488E+00
 -1      4414 3.10205E+00
 -1      4415 3.10488E+00
 -1      4416 3.10590E+00
 -1      4417 3.10474E+00
 -1      4418 3.10474E+00
 -1      4419 3.10205E+00
 -1      4420 3.10474E+00
 -1      4421 3.10474E+00
 -1      4422 3.05694E+00
 -1      4423 3.06217E+00
 -1      4424 3.06217E+00
 -1      4425 3.06217E+00
 -1      4426 3.05694E+00
 -1      4427 2.95107E+00
 -1      4428 2.96409E+00
 -1      4429 2.96409E+00
 -1      4430 2.96409E+00
 -1      4431 2.95107E+00
 -1      4432 2.77018E+00
 -1      4433 2.78354E+00
 -1      4434 2.78354E+00
 -1      4435 2.78354E+00
 -1      4436 2.77018E+00
 -1      4437 2.51289E+00
 -1      4438 2.51396E+00
 -1      4439 2.51396E+00
 -1      4440 2.51396E+00
 -1      4441 2.51289E+00
 -1      4442 2.29382E+00
 -1      4443 2.27843E+00
 -1      4444 2.21807E+00
 -1      4445 2.27843E+00
 -1      4446 2.29382E+00
 -1      4447 2.34358E+00
 -1      4448 2.34358E+00
 -1      4449 2.29495E+00
 -1      4450 2.34358E+00
 -1      4451 2.34358E+00
 -1      4452 1.65372E+01
 -1      4453 1.65372E+01
 -1      4454 1.62386E+01
 -1      4455 1.65372E+01
 -1      4456 1.65372E+01
 -1      4457 3.54922E+01
 -1      4458 3.54922E+01
 -1      4459 3.53821E+01
 -1      4460 3.54922E+01
 -1      4461 3.54922E+01
 -1      4462 3.54922E+01
 -1      4463 3.54922E+01
 -1      4464 3.53821E+01
 -1      4465 3.54922E+01
 -1      4466 3.54922E+01
 -1      4467 2.61877E+00
 -1      4468 2.65042E+00
 -1      4469 2.65042E+00
 -1      4470 2.65042E+00
 -1      4471 2.61877E+00
 -1      4472 3.02936E+00
 -1      4473 3.03143E+00
 -1      4474 3.03143E+00
 -1      4475 3.03143E+00
 -1      4476 3.02936E+00
 -1      4477 3.08253E+00
 -1      4478 3.08253E+00
 -1      4479 3.08099E+00
 -1      4480 3.08253E+00
 -1      4481 3.08253E+00
 -1      4482 3.08253E+00
 -1      4483 3.08253E+00
 -1      4484 3.08099E+00
 -1      4485 3.08253E+00
 -1      4486 3.08253E+00
 -1      4487 3.05717E+00
 -1      4488 3.05717E+00
 -1      4489 3.05383E+00
 -1      4490 3.05717E+00
 -1      4491 3.05717E+00
 -1      4492 3.03852E+00
 -1      4493 3.03852E+00
 -1      4494 3.03190E+00
 -1      4495 3.03852E+00
 -1      4496 3.03852E+00
 -1      4497 3.09649E+00
 -1      4498 3.07859E+00
 -1      4499 3.05994E+00
 -1      4500 3.07859E+00
 -1      4501 3.09649E+00
 -1      4502 3.20811E+00
 -1      4503 3.18347E+00
 -1      4504 3.16050E+00
 -1      4505 3.18347E+00
 -1      4506 3.20811E+00
 -1      4507 3.20811E+00
 -1      4508 3.18347E+00
 -1      4509 3.16050E+00
 -1      4510 3.18347E+00
 -1      4511 3.20811E+00
 -1      4512 3.20602E+00
 -1      4513 3.18141E+00
 -1      4514 3.15855E+00
 -1      4515 3.18141E+00
 -1      4516 3.20602E+00
 -1      4517 3.08408E+00
 -1      4518 3.06657E+00
 -1      4519 3.04824E+00
 -1      4520 3.06657E+00
 -1      4521 3.08408E+00
 -1      4522 2.95842E+00
 -1      4523 2.95567E+00
 -1      4524 2.94587E+00
 -1      4525 2.95567E+00
 -1      4526 2.95842E+00
 -1      4527 2.87445E+00
 -1      4528 2.87445E+00
 -1      4529 2.87179E+00
 -1      4530 2.87445E+00
 -1      4531 2.87445E+00
 -1      4532 2.75896E+00
 -1      4533 2.76374E+00
 -1      4534 2.76374E+00
 -1      4535 2.76374E+00
 -1      4536 2.75896E+00
 -1      4537 2.62484E+00
 -1      4538 2.63460E+00
 -1      4539 2.63460E+00
 -1      4540 2.63460E+00
 -1      4541 2.62484E+00
 -1      4542 2.48902E+00
 -1      4543 2.49565E+00
 -1      4544 2.49565E+00
 -1      4545 2.49565E+00
 -1      4546 2.48902E+00
 -1      4547 2.36958E+00
 -1      4548 2.36958E+00
 -1      4549 2.36507E+00
 -1      4550 2.36958E+00
 -1      4551 2.36958E+00
 -1      4552 2.37028E+00
 -1      4553 2.35701E+00
 -1      4554 2.30296E+00
 -1      4555 2.35701E+00
 -1      4556 2.37028E+00
 -1      4557 2.45363E+00
 -1      4558 2.45363E+00
 -1      4559 2.30296E+00
 -1      4560 2.45363E+00
 -1      4561 2.45363E+00
 -1      4562 2.45363E+00
 -1      4563 2.45363E+00
 -1      4564 2.29058E+00
 -1      4565 2.45363E+00
 -1      4566 2.45363E+00
 -1      4567 1.40896E+01
 -1      4568 1.32683E+01
 -1      4569 1.28980E+01
 -1      4570 1.32683E+01
 -1      4571 1.40896E+01
 -1      4572 2.18054E+01
 -1      4573 2.13296E+01
 -1      4574 2.11056E+01
 -1      4575 2.13296E+01
 -1      4576 2.18054E+01
 -1      4577 2.18054E+01
 -1      4578 2.13296E+01
 -1      4579 2.11056E+01
 -1      4580 2.13296E+01
 -1      4581 2.18054E+01
 -1      4582 2.52801E+00
 -1      4583 2.52801E+00
 -1      4584 2.51034E+00
 -1      4585 2.52801E+00
 -1      4586 2.52801E+00
 -1      4587 2.07461E+00
 -1      4588 2.08899E+00
 -1      4589 2.08899E+00
 -1      4590 2.08899E+00
 -1      4591 2.07461E+00
 -1      4592 2.31420E+00
 -1      4593 2.32512E+00
 -1      4594 2.32512E+00
 -1      4595 2.32512E+00
 -1      4596 2.31420E+00
 -1      4597 2.49985E+00
 -1      4598 2.50926E+00
 -1      4599 2.50926E+00
 -1      4600 2.50926E+00
 -1      4601 2.49985E+00
 -1      4602 2.67223E+00
 -1      4603 2.67700E+00
 -1      4604 2.67700E+00
 -1      4605 2.67700E+00
 -1      4606 2.67223E+00
 -1      4607 2.91812E+00
 -1      4608 2.91812E+00
 -1      4609 2.91610E+00
 -1      4610 2.91812E+00
 -1      4611 2.91812E+00
 -1      4612 3.45174E+00
 -1      4613 3.43737E+00
 -1      4614 3.42276E+00
 -1      4615 3.43737E+00
 -1      4616 3.45174E+00
 -1      4617 4.02212E+00
 -1      4618 3.89602E+00
 -1      4619 3.79346E+00
 -1      4620 3.89602E+00
 -1      4621 4.02212E+00
 -1      4622 4.06930E+00
 -1      4623 3.94356E+00
 -1      4624 3.84151E+00
 -1      4625 3.94356E+00
 -1      4626 4.06930E+00
 -1      4627 4.06930E+00
 -1      4628 3.94356E+00
 -1      4629 3.84151E+00
 -1      4630 3.94356E+00
 -1      4631 4.06930E+00
 -1      4632 3.48236E+00
 -1      4633 3.46730E+00
 -1      4634 3.45243E+00
 -1      4635 3.46730E+00
 -1      4636 3.48236E+00
 -1      4637 3.00528E+00
 -1      4638 3.00528E+00
 -1      4639 3.00218E+00
 -1      4640 3.00528E+00
 -1      4641 3.00528E+00
 -1      4642 2.57070E+00
 -1      4643 2.57642E+00
 -1      4644 2.57642E+00
 -1      4645 2.57642E+00
 -1      4646 2.57070E+00
 -1      4647 2.39316E+00
 -1      4648 2.40227E+00
 -1      4649 2.40227E+00
 -1      4650 2.40227E+00
 -1      4651 2.39316E+00
 -1      4652 2.26300E+00
 -1      4653 2.26843E+00
 -1      4654 2.26843E+00
 -1      4655 2.26843E+00
 -1      4656 2.26300E+00
 -1      4657 2.18506E+00
 -1      4658 2.18506E+00
 -1      4659 2.18199E+00
 -1      4660 2.18506E+00
 -1      4661 2.18506E+00
 -1      4662 2.22540E+00
 -1      4663 2.21950E+00
 -1      4664 2.19381E+00
 -1      4665 2.21950E+00
 -1      4666 2.22540E+00
 -1      4667 2.41607E+00
 -1      4668 2.40724E+00
 -1      4669 2.36131E+00
 -1      4670 2.40724E+00
 -1      4671 2.41607E+00
 -1      4672 2.54077E+00
 -1      4673 2.54077E+00
 -1      4674 2.42038E+00
 -1      4675 2.54077E+00
 -1      4676 2.54077E+00
 -1      4677 2.54077E+00
 -1      4678 2.54077E+00
 -1      4679 2.42038E+00
 -1      4680 2.54077E+00
 -1      4681 2.54077E+00
 -1      4682 8.99463E+00
 -1      4683 8.53904E+00
 -1      4684 8.18083E+00
 -1      4685 8.53904E+00
 -1      4686 8.99463E+00
 -1      4687 9.75582E+00
 -1      4688 9.69714E+00
 -1      4689 9.33965E+00
 -1      4690 9.69714E+00
 -1      4691 9.75582E+00
 -1      4692 9.75582E+00
 -1      4693 9.69714E+00
 -1      4694 9.33965E+00
 -1      4695 9.69714E+00
 -1      4696 9.75582E+00
 -1      4697 2.84353E+00
 -1      4698 2.83897E+00
 -1      4699 2.81303E+00
 -1      4700 2.83897E+00
 -1      4701 2.84353E+00
 -1      4702 1.87005E+00
 -1      4703 1.86735E+00
 -1      4704 1.85029E+00
 -1      4705 1.86735E+00
 -1      4706 1.87005E+00
 -1      4707 1.69918E+00
 -1      4708 1.70221E+00
 -1      4709 1.70221E+00
 -1      4710 1.70221E+00
 -1      4711 1.69918E+00
 -1      4712 2.01650E+00
 -1      4713 2.00872E+00
 -1      4714 1.99831E+00
 -1      4715 2.00872E+00
 -1      4716 2.01650E+00
 -1      4717 2.42372E+00
 -1      4718 2.42372E+00
 -1      4719 2.41902E+00
 -1      4720 2.42372E+00
 -1      4721 2.42372E+00
 -1      4722 2.91812E+00
 -1      4723 2.91812E+00
 -1      4724 2.91610E+00
 -1      4725 2.91812E+00
 -1      4726 2.91812E+00
 -1      4727 3.45174E+00
 -1      4728 3.43737E+00
 -1      4729 3.42276E+00
 -1      4730 3.43737E+00
 -1      4731 3.45174E+00
 -1      4732 4.17758E+00
 -1      4733 4.33302E+00
 -1      4734 4.33302E+00
 -1      4735 4.33302E+00
 -1      4736 4.17758E+00
 -1      4737 4.32281E+00
 -1      4738 4.47946E+00
 -1      4739 4.47946E+00
 -1      4740 4.47946E+00
 -1      4741 4.32281E+00
 -1      4742 4.32281E+00
 -1      4743 4.47946E+00
 -1      4744 4.47946E+00
 -1      4745 4.47946E+00
 -1      4746 4.32281E+00
 -1      4747 3.48236E+00
 -1      4748 3.46730E+00
 -1      4749 3.45243E+00
 -1      4750 3.46730E+00
 -1      4751 3.48236E+00
 -1      4752 3.00528E+00
 -1      4753 3.00528E+00
 -1      4754 3.00218E+00
 -1      4755 3.00528E+00
 -1      4756 3.00528E+00
 -1      4757 2.61468E+00
 -1      4758 2.61468E+00
 -1      4759 2.61120E+00
 -1      4760 2.61468E+00
 -1      4761 2.61468E+00
 -1      4762 2.28509E+00
 -1      4763 2.27787E+00
 -1      4764 2.26942E+00
 -1      4765 2.27787E+00
 -1      4766 2.28509E+00
 -1      4767 2.00425E+00
 -1      4768 2.00425E+00
 -1      4769 1.99687E+00
 -1      4770 2.00425E+00
 -1      4771 2.00425E+00
 -1      4772 2.07274E+00
 -1      4773 2.06827E+00
 -1      4774 2.05006E+00
 -1      4775 2.06827E+00
 -1      4776 2.07274E+00
 -1      4777 2.21288E+00
 -1      4778 2.20370E+00
 -1      4779 2.17686E+00
 -1      4780 2.20370E+00
 -1      4781 2.21288E+00
 -1      4782 2.43466E+00
 -1      4783 2.42625E+00
 -1      4784 2.38916E+00
 -1      4785 2.42625E+00
 -1      4786 2.43466E+00
 -1      4787 2.60015E+00
 -1      4788 2.60015E+00
 -1      4789 2.52470E+00
 -1      4790 2.60015E+00
 -1      4791 2.60015E+00
 -1      4792 2.60015E+00
 -1      4793 2.60015E+00
 -1      4794 2.52470E+00
 -1      4795 2.60015E+00
 -1      4796 2.60015E+00
 -1      4797 5.32208E+00
 -1      4798 5.02610E+00
 -1      4799 4.77233E+00
 -1      4800 5.02610E+00
 -1      4801 5.32208E+00
 -1      4802 6.25373E+00
 -1      4803 5.89501E+00
 -1      4804 5.57684E+00
 -1      4805 5.89501E+00
 -1      4806 6.25373E+00
 -1      4807 6.25373E+00
 -1      4808 5.89501E+00
 -1      4809 5.57684E+00
 -1      4810 5.89501E+00
 -1      4811 6.25373E+00
 -1      4812 3.10756E+00
 -1      4813 3.09550E+00
 -1      4814 3.06623E+00
 -1      4815 3.09550E+00
 -1      4816 3.10756E+00
 -1      4817 2.05328E+00
 -1      4818 2.04232E+00
 -1      4819 2.02040E+00
 -1      4820 2.04232E+00
 -1      4821 2.05328E+00
 -1      4822 1.85222E+00
 -1      4823 1.83036E+00
 -1      4824 1.80879E+00
 -1      4825 1.83036E+00
 -1      4826 1.85222E+00
 -1      4827 2.16200E+00
 -1      4828 2.14786E+00
 -1      4829 2.13160E+00
 -1      4830 2.14786E+00
 -1      4831 2.16200E+00
 -1      4832 2.42372E+00
 -1      4833 2.42372E+00
 -1      4834 2.41902E+00
 -1      4835 2.42372E+00
 -1      4836 2.42372E+00
 -1      4837 2.85109E+00
 -1      4838 2.85356E+00
 -1      4839 2.85356E+00
 -1      4840 2.85356E+00
 -1      4841 2.85109E+00
 -1      4842 3.31742E+00
 -1      4843 3.33118E+00
 -1      4844 3.33118E+00
 -1      4845 3.33118E+00
 -1      4846 3.31742E+00
 -1      4847 4.17758E+00
 -1      4848 4.33302E+00
 -1      4849 4.33302E+00
 -1      4850 4.33302E+00
 -1      4851 4.17758E+00
 -1      4852 4.32281E+00
 -1      4853 4.47946E+00
 -1      4854 4.47946E+00
 -1      4855 4.47946E+00
 -1      4856 4.32281E+00
 -1      4857 4.32281E+00
 -1      4858 4.47946E+00
 -1      4859 4.47946E+00
 -1      4860 4.47946E+00
 -1      4861 4.32281E+00
 -1      4862 3.40400E+00
 -1      4863 3.41773E+00
 -1      4864 3.41773E+00
 -1      4865 3.41773E+00
 -1      4866 3.40400E+00
 -1      4867 2.98107E+00
 -1      4868 2.98455E+00
 -1      4869 2.98455E+00
 -1      4870 2.98455E+00
 -1      4871 2.98107E+00
 -1      4872 2.61468E+00
 -1      4873 2.61468E+00
 -1      4874 2.61120E+00
 -1      4875 2.61468E+00
 -1      4876 2.61468E+00
 -1      4877 2.31887E+00
 -1      4878 2.30839E+00
 -1      4879 2.29563E+00
 -1      4880 2.30839E+00
 -1      4881 2.31887E+00
 -1      4882 2.09730E+00
 -1      4883 2.08233E+00
 -1      4884 2.06741E+00
 -1      4885 2.08233E+00
 -1      4886 2.09730E+00
 -1      4887 2.03516E+00
 -1      4888 2.02595E+00
 -1      4889 2.00602E+00
 -1      4890 2.02595E+00
 -1      4891 2.03516E+00
 -1      4892 2.20655E+00
 -1      4893 2.19509E+00
 -1      4894 2.16956E+00
 -1      4895 2.19509E+00
 -1      4896 2.20655E+00
 -1      4897 2.43466E+00
 -1      4898 2.42625E+00
 -1      4899 2.39233E+00
 -1      4900 2.42625E+00
 -1      4901 2.43466E+00
 -1      4902 2.65043E+00
 -1      4903 2.65043E+00
 -1      4904 2.62631E+00
 -1      4905 2.65043E+00
 -1      4906 2.65043E+00
 -1      4907 2.69873E+00
 -1      4908 2.69873E+00
 -1      4909 2.69353E+00
 -1      4910 2.69873E+00
 -1      4911 2.69873E+00
 -1      4912 7.88714E+00
 -1      4913 7.75627E+00
 -1      4914 7.50254E+00
 -1      4915 7.75627E+00
 -1      4916 7.88714E+00
 -1      4917 3.52397E+00
 -1      4918 3.44635E+00
 -1      4919 3.37105E+00
 -1      4920 3.44635E+00
 -1      4921 3.52397E+00
 -1      4922 3.52397E+00
 -1      4923 3.44635E+00
 -1      4924 3.37105E+00
 -1      4925 3.44635E+00
 -1      4926 3.52397E+00
 -1      4927 3.34179E+00
 -1      4928 3.32516E+00
 -1      4929 3.29567E+00
 -1      4930 3.32516E+00
 -1      4931 3.34179E+00
 -1      4932 2.25209E+00
 -1      4933 2.23653E+00
 -1      4934 2.21257E+00
 -1      4935 2.23653E+00
 -1      4936 2.25209E+00
 -1      4937 2.07564E+00
 -1      4938 2.05154E+00
 -1      4939 2.02783E+00
 -1      4940 2.05154E+00
 -1      4941 2.07564E+00
 -1      4942 2.28669E+00
 -1      4943 2.26848E+00
 -1      4944 2.24884E+00
 -1      4945 2.26848E+00
 -1      4946 2.28669E+00
 -1      4947 2.39761E+00
 -1      4948 2.38948E+00
 -1      4949 2.37692E+00
 -1      4950 2.38948E+00
 -1      4951 2.39761E+00
 -1      4952 2.51450E+00
 -1      4953 2.51236E+00
 -1      4954 2.50280E+00
 -1      4955 2.51236E+00
 -1      4956 2.51450E+00
 -1      4957 2.51450E+00
 -1      4958 2.51236E+00
 -1      4959 2.50280E+00
 -1      4960 2.51236E+00
 -1      4961 2.51450E+00
 -1      4962 2.37159E+00
 -1      4963 2.37159E+00
 -1      4964 2.36340E+00
 -1      4965 2.37159E+00
 -1      4966 2.37159E+00
 -1      4967 1.65937E+00
 -1      4968 1.64959E+00
 -1      4969 1.63241E+00
 -1      4970 1.64959E+00
 -1      4971 1.65937E+00
 -1      4972 2.34441E+00
 -1      4973 2.34441E+00
 -1      4974 2.33739E+00
 -1      4975 2.34441E+00
 -1      4976 2.34441E+00
 -1      4977 2.54517E+00
 -1      4978 2.54517E+00
 -1      4979 2.53726E+00
 -1      4980 2.54517E+00
 -1      4981 2.54517E+00
 -1      4982 2.54517E+00
 -1      4983 2.54517E+00
 -1      4984 2.53726E+00
 -1      4985 2.54517E+00
 -1      4986 2.54517E+00
 -1      4987 2.48580E+00
 -1      4988 2.48029E+00
 -1      4989 2.46994E+00
 -1      4990 2.48029E+00
 -1      4991 2.48580E+00
 -1      4992 2.31887E+00
 -1      4993 2.30839E+00
 -1      4994 2.29563E+00
 -1      4995 2.30839E+00
 -1      4996 2.31887E+00
 -1      4997 2.18711E+00
 -1      4998 2.17171E+00
 -1      4999 2.15403E+00
 -1      5000 2.17171E+00
 -1      5001 2.18711E+00
 -1      5002 2.07330E+00
 -1      5003 2.05471E+00
 -1      5004 2.03561E+00
 -1      5005 2.05471E+00
 -1      5006 2.07330E+00
 -1      5007 2.20639E+00
 -1      5008 2.18782E+00
 -1      5009 2.16719E+00
 -1      5010 2.18782E+00
 -1      5011 2.20639E+00
 -1      5012 2.43303E+00
 -1      5013 2.42118E+00
 -1      5014 2.39233E+00
 -1      5015 2.42118E+00
 -1      5016 2.43303E+00
 -1      5017 2.72137E+00
 -1      5018 2.72137E+00
 -1      5019 2.71277E+00
 -1      5020 2.72137E+00
 -1      5021 2.72137E+00
 -1      5022 3.13053E+00
 -1      5023 3.13053E+00
 -1      5024 3.12172E+00
 -1      5025 3.13053E+00
 -1      5026 3.13053E+00
 -1      5027 1.32765E+01
 -1      5028 1.32765E+01
 -1      5029 1.31326E+01
 -1      5030 1.32765E+01
 -1      5031 1.32765E+01
 -1      5032 3.17666E+00
 -1      5033 3.13084E+00
 -1      5034 3.09208E+00
 -1      5035 3.13084E+00
 -1      5036 3.17666E+00
 -1      5037 3.56660E+00
 -1      5038 3.54819E+00
 -1      5039 3.51897E+00
 -1      5040 3.54819E+00
 -1      5041 3.56660E+00
 -1      5042 3.56660E+00
 -1      5043 3.54819E+00
 -1      5044 3.51897E+00
 -1      5045 3.54819E+00
 -1      5046 3.56660E+00
 -1      5047 2.46302E+00
 -1      5048 2.44548E+00
 -1      5049 2.42054E+00
 -1      5050 2.44548E+00
 -1      5051 2.46302E+00
 -1      5052 2.28676E+00
 -1      5053 2.26125E+00
 -1      5054 2.23632E+00
 -1      5055 2.26125E+00
 -1      5056 2.28676E+00
 -1      5057 2.39430E+00
 -1      5058 2.37326E+00
 -1      5059 2.35147E+00
 -1      5060 2.37326E+00
 -1      5061 2.39430E+00
 -1      5062 2.39430E+00
 -1      5063 2.37326E+00
 -1      5064 2.35147E+00
 -1      5065 2.37326E+00
 -1      5066 2.39430E+00
 -1      5067 2.35615E+00
 -1      5068 2.34116E+00
 -1      5069 2.32340E+00
 -1      5070 2.34116E+00
 -1      5071 2.35615E+00
 -1      5072 2.25563E+00
 -1      5073 2.24133E+00
 -1      5074 2.22345E+00
 -1      5075 2.24133E+00
 -1      5076 2.25563E+00
 -1      5077 1.94867E+00
 -1      5078 1.93104E+00
 -1      5079 1.91040E+00
 -1      5080 1.93104E+00
 -1      5081 1.94867E+00
 -1      5082 1.55163E+00
 -1      5083 1.52585E+00
 -1      5084 1.50047E+00
 -1      5085 1.52585E+00
 -1      5086 1.55163E+00
 -1      5087 1.81912E+00
 -1      5088 1.80065E+00
 -1      5089 1.77930E+00
 -1      5090 1.80065E+00
 -1      5091 1.81912E+00
 -1      5092 2.14231E+00
 -1      5093 2.12848E+00
 -1      5094 2.11060E+00
 -1      5095 2.12848E+00
 -1      5096 2.14231E+00
 -1      5097 2.28340E+00
 -1      5098 2.27050E+00
 -1      5099 2.25379E+00
 -1      5100 2.27050E+00
 -1      5101 2.28340E+00
 -1      5102 2.28457E+00
 -1      5103 2.27079E+00
 -1      5104 2.25394E+00
 -1      5105 2.27079E+00
 -1      5106 2.28457E+00
 -1      5107 2.28457E+00
 -1      5108 2.27079E+00
 -1      5109 2.25394E+00
 -1      5110 2.27079E+00
 -1      5111 2.28457E+00
 -1      5112 2.24301E+00
 -1      5113 2.22777E+00
 -1      5114 2.20696E+00
 -1      5115 2.22777E+00
 -1      5116 2.24301E+00
 -1      5117 2.17545E+00
 -1      5118 2.16098E+00
 -1      5119 2.13922E+00
 -1      5120 2.16098E+00
 -1      5121 2.17545E+00
 -1      5122 2.23263E+00
 -1      5123 2.20629E+00
 -1      5124 2.19042E+00
 -1      5125 2.20629E+00
 -1      5126 2.23263E+00
 -1      5127 2.41455E+00
 -1      5128 2.39572E+00
 -1      5129 2.37450E+00
 -1      5130 2.39572E+00
 -1      5131 2.41455E+00
 -1      5132 2.80641E+00
 -1      5133 2.76156E+00
 -1      5134 2.76156E+00
 -1      5135 2.76156E+00
 -1      5136 2.80641E+00
 -1      5137 3.13053E+00
 -1      5138 3.13053E+00
 -1      5139 3.12172E+00
 -1      5140 3.13053E+00
 -1      5141 3.13053E+00
 -1      5142 1.96280E+01
 -1      5143 1.96280E+01
 -1      5144 1.95913E+01
 -1      5145 1.96280E+01
 -1      5146 1.96280E+01
 -1      5147 5.14773E+00
 -1      5148 5.00939E+00
 -1      5149 4.89555E+00
 -1      5150 5.00939E+00
 -1      5151 5.14773E+00
 -1      5152 3.56660E+00
 -1      5153 3.54819E+00
 -1      5154 3.51897E+00
 -1      5155 3.54819E+00
 -1      5156 3.56660E+00
 -1      5157 3.56660E+00
 -1      5158 3.54819E+00
 -1      5159 3.51897E+00
 -1      5160 3.54819E+00
 -1      5161 3.56660E+00
 -1      5162 2.70160E+00
 -1      5163 2.68329E+00
 -1      5164 2.65788E+00
 -1      5165 2.68329E+00
 -1      5166 2.70160E+00
 -1      5167 2.48945E+00
 -1      5168 2.46292E+00
 -1      5169 2.43710E+00
 -1      5170 2.46292E+00
 -1      5171 2.48945E+00
 -1      5172 2.49103E+00
 -1      5173 2.46808E+00
 -1      5174 2.44488E+00
 -1      5175 2.46808E+00
 -1      5176 2.49103E+00
 -1      5177 2.49103E+00
 -1      5178 2.46808E+00
 -1      5179 2.44488E+00
 -1      5180 2.46808E+00
 -1      5181 2.49103E+00
 -1      5182 2.33315E+00
 -1      5183 2.31148E+00
 -1      5184 2.29054E+00
 -1      5185 2.31148E+00
 -1      5186 2.33315E+00
 -1      5187 2.12788E+00
 -1      5188 2.10792E+00
 -1      5189 2.08651E+00
 -1      5190 2.10792E+00
 -1      5191 2.12788E+00
 -1      5192 1.86597E+00
 -1      5193 1.84281E+00
 -1      5194 1.81948E+00
 -1      5195 1.84281E+00
 -1      5196 1.86597E+00
 -1      5197 1.69106E+00
 -1      5198 1.66660E+00
 -1      5199 1.64252E+00
 -1      5200 1.66660E+00
 -1      5201 1.69106E+00
 -1      5202 1.70467E+00
 -1      5203 1.68146E+00
 -1      5204 1.65670E+00
 -1      5205 1.68146E+00
 -1      5206 1.70467E+00
 -1      5207 1.92613E+00
 -1      5208 1.90611E+00
 -1      5209 1.88369E+00
 -1      5210 1.90611E+00
 -1      5211 1.92613E+00
 -1      5212 2.11583E+00
 -1      5213 2.09825E+00
 -1      5214 2.07719E+00
 -1      5215 2.09825E+00
 -1      5216 2.11583E+00
 -1      5217 2.22282E+00
 -1      5218 2.20672E+00
 -1      5219 2.18619E+00
 -1      5220 2.20672E+00
 -1      5221 2.22282E+00
 -1      5222 2.28086E+00
 -1      5223 2.26671E+00
 -1      5224 2.24234E+00
 -1      5225 2.26671E+00
 -1      5226 2.28086E+00
 -1      5227 2.32709E+00
 -1      5228 2.31628E+00
 -1      5229 2.29049E+00
 -1      5230 2.31628E+00
 -1      5231 2.32709E+00
 -1      5232 2.32709E+00
 -1      5233 2.31628E+00
 -1      5234 2.29049E+00
 -1      5235 2.31628E+00
 -1      5236 2.32709E+00
 -1      5237 2.32179E+00
 -1      5238 2.29584E+00
 -1      5239 2.27704E+00
 -1      5240 2.29584E+00
 -1      5241 2.32179E+00
 -1      5242 2.38315E+00
 -1      5243 2.35428E+00
 -1      5244 2.33998E+00
 -1      5245 2.35428E+00
 -1      5246 2.38315E+00
 -1      5247 2.84692E+00
 -1      5248 2.76156E+00
 -1      5249 2.76156E+00
 -1      5250 2.76156E+00
 -1      5251 2.84692E+00
 -1      5252 2.84692E+00
 -1      5253 2.76156E+00
 -1      5254 2.76156E+00
 -1      5255 2.76156E+00
 -1      5256 2.84692E+00
 -1      5257 2.67680E+01
 -1      5258 2.68407E+01
 -1      5259 2.68407E+01
 -1      5260 2.68407E+01
 -1      5261 2.67680E+01
 -1      5262 8.50669E+00
 -1      5263 8.38137E+00
 -1      5264 8.28525E+00
 -1      5265 8.38137E+00
 -1      5266 8.50669E+00
 -1      5267 2.54442E+00
 -1      5268 2.50577E+00
 -1      5269 2.47116E+00
 -1      5270 2.50577E+00
 -1      5271 2.54442E+00
 -1      5272 2.70160E+00
 -1      5273 2.68329E+00
 -1      5274 2.65788E+00
 -1      5275 2.68329E+00
 -1      5276 2.70160E+00
 -1      5277 2.70160E+00
 -1      5278 2.68329E+00
 -1      5279 2.65788E+00
 -1      5280 2.68329E+00
 -1      5281 2.70160E+00
 -1      5282 2.48945E+00
 -1      5283 2.46292E+00
 -1      5284 2.43710E+00
 -1      5285 2.46292E+00
 -1      5286 2.48945E+00
 -1      5287 2.98928E+00
 -1      5288 2.98695E+00
 -1      5289 2.97561E+00
 -1      5290 2.98695E+00
 -1      5291 2.98928E+00
 -1      5292 3.52623E+00
 -1      5293 3.52583E+00
 -1      5294 3.51621E+00
 -1      5295 3.52583E+00
 -1      5296 3.52623E+00
 -1      5297 4.56190E+00
 -1      5298 4.56190E+00
 -1      5299 4.53051E+00
 -1      5300 4.56190E+00
 -1      5301 4.56190E+00
 -1      5302 5.37233E+00
 -1      5303 5.37233E+00
 -1      5304 5.34326E+00
 -1      5305 5.37233E+00
 -1      5306 5.37233E+00
 -1      5307 5.69689E+00
 -1      5308 5.69689E+00
 -1      5309 5.66911E+00
 -1      5310 5.69689E+00
 -1      5311 5.69689E+00
 -1      5312 5.70351E+00
 -1      5313 5.70351E+00
 -1      5314 5.67270E+00
 -1      5315 5.70351E+00
 -1      5316 5.70351E+00
 -1      5317 5.70351E+00
 -1      5318 5.70351E+00
 -1      5319 5.67270E+00
 -1      5320 5.70351E+00
 -1      5321 5.70351E+00
 -1      5322 5.44214E+00
 -1      5323 5.44214E+00
 -1      5324 5.41122E+00
 -1      5325 5.44214E+00
 -1      5326 5.44214E+00
 -1      5327 4.81986E+00
 -1      5328 4.81986E+00
 -1      5329 4.78654E+00
 -1      5330 4.81986E+00
 -1      5331 4.81986E+00
 -1      5332 3.83119E+00
 -1      5333 3.83119E+00
 -1      5334 3.79388E+00
 -1      5335 3.83119E+00
 -1      5336 3.83119E+00
 -1      5337 3.33045E+00
 -1      5338 3.33045E+00
 -1      5339 3.31857E+00
 -1      5340 3.33045E+00
 -1      5341 3.33045E+00
 -1      5342 2.86351E+00
 -1      5343 2.86351E+00
 -1      5344 2.84897E+00
 -1      5345 2.86351E+00
 -1      5346 2.86351E+00
 -1      5347 2.32709E+00
 -1      5348 2.31628E+00
 -1      5349 2.29049E+00
 -1      5350 2.31628E+00
 -1      5351 2.32709E+00
 -1      5352 2.32179E+00
 -1      5353 2.29584E+00
 -1      5354 2.27704E+00
 -1      5355 2.29584E+00
 -1      5356 2.32179E+00
 -1      5357 2.34944E+00
 -1      5358 2.30763E+00
 -1      5359 2.29943E+00
 -1      5360 2.30763E+00
 -1      5361 2.34944E+00
 -1      5362 2.84692E+00
 -1      5363 2.74165E+00
 -1      5364 2.74165E+00
 -1      5365 2.74165E+00
 -1      5366 2.84692E+00
 -1      5367 2.84692E+00
 -1      5368 2.74165E+00
 -1      5369 2.74165E+00
 -1      5370 2.74165E+00
 -1      5371 2.84692E+00
 -1      5372 3.45309E+01
 -1      5373 3.47067E+01
 -1      5374 3.47067E+01
 -1      5375 3.47067E+01
 -1      5376 3.45309E+01
 -1      5377 1.21524E+01
 -1      5378 1.20230E+01
 -1      5379 1.19348E+01
 -1      5380 1.20230E+01
 -1      5381 1.21524E+01
 -1      5382 3.35959E+00
 -1      5383 3.32722E+00
 -1      5384 3.29818E+00
 -1      5385 3.32722E+00
 -1      5386 3.35959E+00
 -1      5387 1.60100E+00
 -1      5388 1.57149E+00
 -1      5389 1.54364E+00
 -1      5390 1.57149E+00
 -1      5391 1.60100E+00
 -1      5392 1.64048E+00
 -1      5393 1.62354E+00
 -1      5394 1.60149E+00
 -1      5395 1.62354E+00
 -1      5396 1.64048E+00
 -1      5397 2.37409E+00
 -1      5398 2.36335E+00
 -1      5399 2.34633E+00
 -1      5400 2.36335E+00
 -1      5401 2.37409E+00
 -1      5402 2.98928E+00
 -1      5403 2.98695E+00
 -1      5404 2.97561E+00
 -1      5405 2.98695E+00
 -1      5406 2.98928E+00
 -1      5407 3.52623E+00
 -1      5408 3.52583E+00
 -1      5409 3.51621E+00
 -1      5410 3.52583E+00
 -1      5411 3.52623E+00
 -1      5412 4.56190E+00
 -1      5413 4.56190E+00
 -1      5414 4.53051E+00
 -1      5415 4.56190E+00
 -1      5416 4.56190E+00
 -1      5417 5.37233E+00
 -1      5418 5.37233E+00
 -1      5419 5.34326E+00
 -1      5420 5.37233E+00
 -1      5421 5.37233E+00
 -1      5422 5.69689E+00
 -1      5423 5.69689E+00
 -1      5424 5.66911E+00
 -1      5425 5.69689E+00
 -1      5426 5.69689E+00
 -1      5427 5.70351E+00
 -1      5428 5.70351E+00
 -1      5429 5.67270E+00
 -1      5430 5.70351E+00
 -1      5431 5.70351E+00
 -1      5432 5.70351E+00
 -1      5433 5.70351E+00
 -1      5434 5.67270E+00
 -1      5435 5.70351E+00
 -1      5436 5.70351E+00
 -1      5437 5.44214E+00
 -1      5438 5.44214E+00
 -1      5439 5.41122E+00
 -1      5440 5.44214E+00
 -1      5441 5.44214E+00
 -1      5442 4.81986E+00
 -1      5443 4.81986E+00
 -1      5444 4.78654E+00
 -1      5445 4.81986E+00
 -1      5446 4.81986E+00
 -1      5447 3.83119E+00
 -1      5448 3.83119E+00
 -1      5449 3.79388E+00
 -1      5450 3.83119E+00
 -1      5451 3.83119E+00
 -1      5452 3.33045E+00
 -1      5453 3.33045E+00
 -1      5454 3.31857E+00
 -1      5455 3.33045E+00
 -1      5456 3.33045E+00
 -1      5457 2.86351E+00
 -1      5458 2.86351E+00
 -1      5459 2.84897E+00
 -1      5460 2.86351E+00
 -1      5461 2.86351E+00
 -1      5462 2.55513E+00
 -1      5463 2.55513E+00
 -1      5464 2.54106E+00
 -1      5465 2.55513E+00
 -1      5466 2.55513E+00
 -1      5467 2.14654E+00
 -1      5468 2.14654E+00
 -1      5469 2.12695E+00
 -1      5470 2.14654E+00
 -1      5471 2.14654E+00
 -1      5472 1.53438E+00
 -1      5473 1.53438E+00
 -1      5474 1.49972E+00
 -1      5475 1.53438E+00
 -1      5476 1.53438E+00
 -1      5477 1.00964E+00
 -1      5478 1.00964E+00
 -1      5479 8.10768E-01
 -1      5480 1.00964E+00
 -1      5481 1.00964E+00
 -1      5482 1.93522E+00
 -1      5483 1.30662E+00
 -1      5484 1.23733E+00
 -1      5485 1.30662E+00
 -1      5486 1.93522E+00
 -1      5487 4.26096E+01
 -1      5488 4.28539E+01
 -1      5489 4.28539E+01
 -1      5490 4.28539E+01
 -1      5491 4.26096E+01
 -1      5492 1.62355E+01
 -1      5493 1.60871E+01
 -1      5494 1.59974E+01
 -1      5495 1.60871E+01
 -1      5496 1.62355E+01
 -1      5497 5.66884E+00
 -1      5498 5.57214E+00
 -1      5499 5.48259E+00
 -1      5500 5.57214E+00
 -1      5501 5.66884E+00
 -1      5502 2.36753E+00
 -1      5503 2.34633E+00
 -1      5504 2.32485E+00
 -1      5505 2.34633E+00
 -1      5506 2.36753E+00
 -1      5507 2.03824E+00
 -1      5508 2.03824E+00
 -1      5509 2.03195E+00
 -1      5510 2.03824E+00
 -1      5511 2.03824E+00
 -1      5512 2.36992E+00
 -1      5513 2.36992E+00
 -1      5514 2.36468E+00
 -1      5515 2.36992E+00
 -1      5516 2.36992E+00
 -1      5517 2.58454E+00
 -1      5518 2.58421E+00
 -1      5519 2.57701E+00
 -1      5520 2.58421E+00
 -1      5521 2.58454E+00
 -1      5522 2.88549E+00
 -1      5523 2.88458E+00
 -1      5524 2.87780E+00
 -1      5525 2.88458E+00
 -1      5526 2.88549E+00
 -1      5527 3.03028E+00
 -1      5528 3.02885E+00
 -1      5529 3.02223E+00
 -1      5530 3.02885E+00
 -1      5531 3.03028E+00
 -1      5532 3.06083E+00
 -1      5533 3.05900E+00
 -1      5534 3.05243E+00
 -1      5535 3.05900E+00
 -1      5536 3.06083E+00
 -1      5537 3.06083E+00
 -1      5538 3.05900E+00
 -1      5539 3.05243E+00
 -1      5540 3.05900E+00
 -1      5541 3.06083E+00
 -1      5542 3.01077E+00
 -1      5543 3.00858E+00
 -1      5544 3.00201E+00
 -1      5545 3.00858E+00
 -1      5546 3.01077E+00
 -1      5547 3.07072E+00
 -1      5548 3.06947E+00
 -1      5549 3.06236E+00
 -1      5550 3.06947E+00
 -1      5551 3.07072E+00
 -1      5552 3.09291E+00
 -1      5553 3.09203E+00
 -1      5554 3.08465E+00
 -1      5555 3.09203E+00
 -1      5556 3.09291E+00
 -1      5557 3.09291E+00
 -1      5558 3.09203E+00
 -1      5559 3.08465E+00
 -1      5560 3.09203E+00
 -1      5561 3.09291E+00
 -1      5562 3.06483E+00
 -1      5563 3.06445E+00
 -1      5564 3.05654E+00
 -1      5565 3.06445E+00
 -1      5566 3.06483E+00
 -1      5567 2.97799E+00
 -1      5568 2.97799E+00
 -1      5569 2.96910E+00
 -1      5570 2.97799E+00
 -1      5571 2.97799E+00
 -1      5572 2.81718E+00
 -1      5573 2.81718E+00
 -1      5574 2.80654E+00
 -1      5575 2.81718E+00
 -1      5576 2.81718E+00
 -1      5577 2.70593E+00
 -1      5578 2.70593E+00
 -1      5579 2.69561E+00
 -1      5580 2.70593E+00
 -1      5581 2.70593E+00
 -1      5582 2.54993E+00
 -1      5583 2.54993E+00
 -1      5584 2.53614E+00
 -1      5585 2.54993E+00
 -1      5586 2.54993E+00
 -1      5587 2.15911E+00
 -1      5588 2.15911E+00
 -1      5589 2.12555E+00
 -1      5590 2.15911E+00
 -1      5591 2.15911E+00
 -1      5592 1.75270E+00
 -1      5593 1.75270E+00
 -1      5594 1.58468E+00
 -1      5595 1.75270E+00
 -1      5596 1.75270E+00
 -1      5597 1.75721E+00
 -1      5598 1.75270E+00
 -1      5599 1.64394E+00
 -1      5600 1.75270E+00
 -1      5601 1.75721E+00
 -1      5602 5.05652E+01
 -1      5603 5.07880E+01
 -1      5604 5.07880E+01
 -1      5605 5.07880E+01
 -1      5606 5.05652E+01
 -1      5607 2.09177E+01
 -1      5608 2.07462E+01
 -1      5609 2.06494E+01
 -1      5610 2.07462E+01
 -1      5611 2.09177E+01
 -1      5612 9.03938E+00
 -1      5613 8.97048E+00
 -1      5614 8.89824E+00
 -1      5615 8.97048E+00
 -1      5616 9.03938E+00
 -1      5617 3.12514E+00
 -1      5618 3.11133E+00
 -1      5619 3.09550E+00
 -1      5620 3.11133E+00
 -1      5621 3.12514E+00
 -1      5622 2.52879E+00
 -1      5623 2.52879E+00
 -1      5624 2.52545E+00
 -1      5625 2.52879E+00
 -1      5626 2.52879E+00
 -1      5627 2.56508E+00
 -1      5628 2.56508E+00
 -1      5629 2.56169E+00
 -1      5630 2.56508E+00
 -1      5631 2.56508E+00
 -1      5632 2.56508E+00
 -1      5633 2.56508E+00
 -1      5634 2.56169E+00
 -1      5635 2.56508E+00
 -1      5636 2.56508E+00
 -1      5637 2.59769E+00
 -1      5638 2.59628E+00
 -1      5639 2.59120E+00
 -1      5640 2.59628E+00
 -1      5641 2.59769E+00
 -1      5642 2.59769E+00
 -1      5643 2.59628E+00
 -1      5644 2.59120E+00
 -1      5645 2.59628E+00
 -1      5646 2.59769E+00
 -1      5647 2.55971E+00
 -1      5648 2.55764E+00
 -1      5649 2.55248E+00
 -1      5650 2.55764E+00
 -1      5651 2.55971E+00
 -1      5652 2.46765E+00
 -1      5653 2.46515E+00
 -1      5654 2.45993E+00
 -1      5655 2.46515E+00
 -1      5656 2.46765E+00
 -1      5657 2.34082E+00
 -1      5658 2.33799E+00
 -1      5659 2.33273E+00
 -1      5660 2.33799E+00
 -1      5661 2.34082E+00
 -1      5662 2.45849E+00
 -1      5663 2.45656E+00
 -1      5664 2.45084E+00
 -1      5665 2.45656E+00
 -1      5666 2.45849E+00
 -1      5667 2.56693E+00
 -1      5668 2.56542E+00
 -1      5669 2.55955E+00
 -1      5670 2.56542E+00
 -1      5671 2.56693E+00
 -1      5672 2.65406E+00
 -1      5673 2.65316E+00
 -1      5674 2.64697E+00
 -1      5675 2.65316E+00
 -1      5676 2.65406E+00
 -1      5677 2.71555E+00
 -1      5678 2.71554E+00
 -1      5679 2.70876E+00
 -1      5680 2.71554E+00
 -1      5681 2.71555E+00
 -1      5682 2.74161E+00
 -1      5683 2.74161E+00
 -1      5684 2.73369E+00
 -1      5685 2.74161E+00
 -1      5686 2.74161E+00
 -1      5687 2.77398E+00
 -1      5688 2.77398E+00
 -1      5689 2.76646E+00
 -1      5690 2.77398E+00
 -1      5691 2.77398E+00
 -1      5692 2.84782E+00
 -1      5693 2.84782E+00
 -1      5694 2.83756E+00
 -1      5695 2.84782E+00
 -1      5696 2.84782E+00
 -1      5697 2.84782E+00
 -1      5698 2.84782E+00
 -1      5699 2.83756E+00
 -1      5700 2.84782E+00
 -1      5701 2.84782E+00
 -1      5702 2.76120E+00
 -1      5703 2.76120E+00
 -1      5704 2.73134E+00
 -1      5705 2.76120E+00
 -1      5706 2.76120E+00
 -1      5707 2.82217E+00
 -1      5708 2.82217E+00
 -1      5709 2.72027E+00
 -1      5710 2.82217E+00
 -1      5711 2.82217E+00
 -1      5712 3.01587E+00
 -1      5713 2.95352E+00
 -1      5714 2.93717E+00
 -1      5715 2.95352E+00
 -1      5716 3.01587E+00
 -1      5717 5.87816E+01
 -1      5718 5.81678E+01
 -1      5719 5.81285E+01
 -1      5720 5.81678E+01
 -1      5721 5.87816E+01
 -1      5722 2.66389E+01
 -1      5723 2.64836E+01
 -1      5724 2.63868E+01
 -1      5725 2.64836E+01
 -1      5726 2.66389E+01
 -1      5727 1.30251E+01
 -1      5728 1.29979E+01
 -1      5729 1.29477E+01
 -1      5730 1.29979E+01
 -1      5731 1.30251E+01
 -1      5732 4.49250E+00
 -1      5733 4.46488E+00
 -1      5734 4.42527E+00
 -1      5735 4.46488E+00
 -1      5736 4.49250E+00
 -1      5737 3.10941E+00
 -1      5738 3.10941E+00
 -1      5739 3.10794E+00
 -1      5740 3.10941E+00
 -1      5741 3.10941E+00
 -1      5742 2.92239E+00
 -1      5743 2.92239E+00
 -1      5744 2.92059E+00
 -1      5745 2.92239E+00
 -1      5746 2.92239E+00
 -1      5747 2.68893E+00
 -1      5748 2.68893E+00
 -1      5749 2.68638E+00
 -1      5750 2.68893E+00
 -1      5751 2.68893E+00
 -1      5752 2.50420E+00
 -1      5753 2.50356E+00
 -1      5754 2.49984E+00
 -1      5755 2.50356E+00
 -1      5756 2.50420E+00
 -1      5757 2.38622E+00
 -1      5758 2.38460E+00
 -1      5759 2.38063E+00
 -1      5760 2.38460E+00
 -1      5761 2.38622E+00
 -1      5762 2.24002E+00
 -1      5763 2.23784E+00
 -1      5764 2.23372E+00
 -1      5765 2.23784E+00
 -1      5766 2.24002E+00
 -1      5767 2.08080E+00
 -1      5768 2.07828E+00
 -1      5769 2.07407E+00
 -1      5770 2.07828E+00
 -1      5771 2.08080E+00
 -1      5772 1.91359E+00
 -1      5773 1.91081E+00
 -1      5774 1.90656E+00
 -1      5775 1.91081E+00
 -1      5776 1.91359E+00
 -1      5777 2.06217E+00
 -1      5778 2.06023E+00
 -1      5779 2.05564E+00
 -1      5780 2.06023E+00
 -1      5781 2.06217E+00
 -1      5782 2.21445E+00
 -1      5783 2.21287E+00
 -1      5784 2.20819E+00
 -1      5785 2.21287E+00
 -1      5786 2.21445E+00
 -1      5787 2.36221E+00
 -1      5788 2.36117E+00
 -1      5789 2.35630E+00
 -1      5790 2.36117E+00
 -1      5791 2.36221E+00
 -1      5792 2.50696E+00
 -1      5793 2.50669E+00
 -1      5794 2.50146E+00
 -1      5795 2.50669E+00
 -1      5796 2.50696E+00
 -1      5797 2.64775E+00
 -1      5798 2.64775E+00
 -1      5799 2.64181E+00
 -1      5800 2.64775E+00
 -1      5801 2.64775E+00
 -1      5802 2.78733E+00
 -1      5803 2.78683E+00
 -1      5804 2.78267E+00
 -1      5805 2.78683E+00
 -1      5806 2.78733E+00
 -1      5807 3.04861E+00
 -1      5808 3.04861E+00
 -1      5809 3.04321E+00
 -1      5810 3.04861E+00
 -1      5811 3.04861E+00
 -1      5812 3.29697E+00
 -1      5813 3.29697E+00
 -1      5814 3.28171E+00
 -1      5815 3.29697E+00
 -1      5816 3.29697E+00
 -1      5817 3.48763E+00
 -1      5818 3.48763E+00
 -1      5819 3.47061E+00
 -1      5820 3.48763E+00
 -1      5821 3.48763E+00
 -1      5822 7.17271E+00
 -1      5823 7.17271E+00
 -1      5824 7.02994E+00
 -1      5825 7.17271E+00
 -1      5826 7.17271E+00
 -1      5827 1.00648E+01
 -1      5828 9.11791E+00
 -1      5829 8.98118E+00
 -1      5830 9.11791E+00
 -1      5831 1.00648E+01
 -1      5832 6.27473E+01
 -1      5833 6.30635E+01
 -1      5834 6.30635E+01
 -1      5835 6.30635E+01
 -1      5836 6.27473E+01
 -1      5837 3.43580E+01
 -1      5838 3.43338E+01
 -1      5839 3.42819E+01
 -1      5840 3.43338E+01
 -1      5841 3.43580E+01
 -1      5842 1.77084E+01
 -1      5843 1.77084E+01
 -1      5844 1.76866E+01
 -1      5845 1.77084E+01
 -1      5846 1.77084E+01
 -1      5847 7.16256E+00
 -1      5848 7.16256E+00
 -1      5849 7.16154E+00
 -1      5850 7.16256E+00
 -1      5851 7.16256E+00
 -1      5852 3.87787E+00
 -1      5853 3.88282E+00
 -1      5854 3.88282E+00
 -1      5855 3.88282E+00
 -1      5856 3.87787E+00
 -1      5857 3.17701E+00
 -1      5858 3.17701E+00
 -1      5859 3.17642E+00
 -1      5860 3.17701E+00
 -1      5861 3.17701E+00
 -1      5862 2.72756E+00
 -1      5863 2.72685E+00
 -1      5864 2.72496E+00
 -1      5865 2.72685E+00
 -1      5866 2.72756E+00
 -1      5867 2.44741E+00
 -1      5868 2.44641E+00
 -1      5869 2.44332E+00
 -1      5870 2.44641E+00
 -1      5871 2.44741E+00
 -1      5872 2.21791E+00
 -1      5873 2.21610E+00
 -1      5874 2.21270E+00
 -1      5875 2.21610E+00
 -1      5876 2.21791E+00
 -1      5877 2.00562E+00
 -1      5878 2.00339E+00
 -1      5879 1.99981E+00
 -1      5880 2.00339E+00
 -1      5881 2.00562E+00
 -1      5882 1.80770E+00
 -1      5883 1.80525E+00
 -1      5884 1.80156E+00
 -1      5885 1.80525E+00
 -1      5886 1.80770E+00
 -1      5887 1.61793E+00
 -1      5888 1.61534E+00
 -1      5889 1.61159E+00
 -1      5890 1.61534E+00
 -1      5891 1.61793E+00
 -1      5892 1.78615E+00
 -1      5893 1.78387E+00
 -1      5894 1.78012E+00
 -1      5895 1.78387E+00
 -1      5896 1.78615E+00
 -1      5897 1.96272E+00
 -1      5898 1.96061E+00
 -1      5899 1.95688E+00
 -1      5900 1.96061E+00
 -1      5901 1.96272E+00
 -1      5902 2.14483E+00
 -1      5903 2.14297E+00
 -1      5904 2.13925E+00
 -1      5905 2.14297E+00
 -1      5906 2.14483E+00
 -1      5907 2.33853E+00
 -1      5908 2.33700E+00
 -1      5909 2.33328E+00
 -1      5910 2.33700E+00
 -1      5911 2.33853E+00
 -1      5912 2.55044E+00
 -1      5913 2.54936E+00
 -1      5914 2.54556E+00
 -1      5915 2.54936E+00
 -1      5916 2.55044E+00
 -1      5917 2.78733E+00
 -1      5918 2.78683E+00
 -1      5919 2.78267E+00
 -1      5920 2.78683E+00
 -1      5921 2.78733E+00
 -1      5922 3.11013E+00
 -1      5923 3.10942E+00
 -1      5924 3.10942E+00
 -1      5925 3.10942E+00
 -1      5926 3.11013E+00
 -1      5927 3.62927E+00
 -1      5928 3.63371E+00
 -1      5929 3.63371E+00
 -1      5930 3.63371E+00
 -1      5931 3.62927E+00
 -1      5932 6.05837E+00
 -1      5933 6.11255E+00
 -1      5934 6.11255E+00
 -1      5935 6.11255E+00
 -1      5936 6.05837E+00
 -1      5937 1.64022E+01
 -1      5938 1.55887E+01
 -1      5939 1.55887E+01
 -1      5940 1.55887E+01
 -1      5941 1.64022E+01
 -1      5942 2.94340E+01
 -1      5943 2.60128E+01
 -1      5944 2.57869E+01
 -1      5945 2.60128E+01
 -1      5946 2.94340E+01
 -1      5947 6.27473E+01
 -1      5948 6.30635E+01
 -1      5949 6.30635E+01
 -1      5950 6.30635E+01
 -1      5951 6.27473E+01
 -1      5952 5.29601E+01
 -1      5953 5.30893E+01
 -1      5954 5.30893E+01
 -1      5955 5.30893E+01
 -1      5956 5.29601E+01
 -1      5957 2.32613E+01
 -1      5958 2.32702E+01
 -1      5959 2.32702E+01
 -1      5960 2.32702E+01
 -1      5961 2.32613E+01
 -1      5962 9.87559E+00
 -1      5963 9.89706E+00
 -1      5964 9.89706E+00
 -1      5965 9.89706E+00
 -1      5966 9.87559E+00
 -1      5967 5.58064E+00
 -1      5968 5.58593E+00
 -1      5969 5.58593E+00
 -1      5970 5.58593E+00
 -1      5971 5.58064E+00
 -1      5972 3.34092E+00
 -1      5973 3.33914E+00
 -1      5974 3.33796E+00
 -1      5975 3.33914E+00
 -1      5976 3.34092E+00
 -1      5977 2.73926E+00
 -1      5978 2.73624E+00
 -1      5979 2.73350E+00
 -1      5980 2.73624E+00
 -1      5981 2.73926E+00
 -1      5982 2.36270E+00
 -1      5983 2.36087E+00
 -1      5984 2.35819E+00
 -1      5985 2.36087E+00
 -1      5986 2.36270E+00
 -1      5987 2.06558E+00
 -1      5988 2.06319E+00
 -1      5989 2.06006E+00
 -1      5990 2.06319E+00
 -1      5991 2.06558E+00
 -1      5992 1.81729E+00
 -1      5993 1.81463E+00
 -1      5994 1.81123E+00
 -1      5995 1.81463E+00
 -1      5996 1.81729E+00
 -1      5997 1.60070E+00
 -1      5998 1.59788E+00
 -1      5999 1.59431E+00
 -1      6000 1.59788E+00
 -1      6001 1.60070E+00
 -1      6002 1.40180E+00
 -1      6003 1.39888E+00
 -1      6004 1.39519E+00
 -1      6005 1.39888E+00
 -1      6006 1.40180E+00
 -1      6007 1.57992E+00
 -1      6008 1.57731E+00
 -1      6009 1.57389E+00
 -1      6010 1.57731E+00
 -1      6011 1.57992E+00
 -1      6012 1.76676E+00
 -1      6013 1.76429E+00
 -1      6014 1.76099E+00
 -1      6015 1.76429E+00
 -1      6016 1.76676E+00
 -1      6017 1.96466E+00
 -1      6018 1.96238E+00
 -1      6019 1.95926E+00
 -1      6020 1.96238E+00
 -1      6021 1.96466E+00
 -1      6022 2.18210E+00
 -1      6023 2.18009E+00
 -1      6024 2.17723E+00
 -1      6025 2.18009E+00
 -1      6026 2.18210E+00
 -1      6027 2.43077E+00
 -1      6028 2.42912E+00
 -1      6029 2.42668E+00
 -1      6030 2.42912E+00
 -1      6031 2.43077E+00
 -1      6032 2.72962E+00
 -1      6033 2.72827E+00
 -1      6034 2.72664E+00
 -1      6035 2.72827E+00
 -1      6036 2.72962E+00
 -1      6037 3.14117E+00
 -1      6038 3.13835E+00
 -1      6039 3.13835E+00
 -1      6040 3.13835E+00
 -1      6041 3.14117E+00
 -1      6042 4.42394E+00
 -1      6043 4.36605E+00
 -1      6044 4.36605E+00
 -1      6045 4.36605E+00
 -1      6046 4.42394E+00
 -1      6047 9.68418E+00
 -1      6048 9.25781E+00
 -1      6049 9.25781E+00
 -1      6050 9.25781E+00
 -1      6051 9.68418E+00
 -1      6052 3.00111E+01
 -1      6053 2.59051E+01
 -1      6054 2.59051E+01
 -1      6055 2.59051E+01
 -1      6056 3.00111E+01
 -1      6057 6.62005E+01
 -1      6058 6.64728E+01
 -1      6059 6.64728E+01
 -1      6060 6.64728E+01
 -1      6061 6.62005E+01
 -1      6062 7.33218E+01
 -1      6063 7.77530E+01
 -1      6064 7.77530E+01
 -1      6065 7.78866E+01
 -1      6066 7.80202E+01
 -1      6067 7.80202E+01
 -1      6068 7.80202E+01
 -1      6069 7.80202E+01
 -1      6070 7.80202E+01
 -1      6071 7.80202E+01
 -1      6072 7.80202E+01
 -1      6073 7.80202E+01
 -1      6074 7.78866E+01
 -1      6075 7.77530E+01
 -1      6076 7.77530E+01
 -1      6077 7.33218E+01
 -1      6078 5.99178E+01
 -1      6079 7.22980E+01
 -1      6080 5.06093E+01
 -1      6081 6.91302E+01
 -1      6082 7.47189E+01
 -1      6083 5.24451E+01
 -1      6084 7.14175E+01
 -1      6085 7.47189E+01
 -1      6086 5.07065E+01
 -1      6087 7.14175E+01
 -1      6088 7.47189E+01
 -1      6089 5.24451E+01
 -1      6090 6.91302E+01
 -1      6091 7.22980E+01
 -1      6092 5.06093E+01
 -1      6093 5.99178E+01
 -1      6094 3.13450E+01
 -1      6095 4.90939E+01
 -1      6096 3.13450E+01
 -1      6097 2.90846E+01
 -1      6098 4.91209E+01
 -1      6099 2.68243E+01
 -1      6100 2.59825E+01
 -1      6101 4.82792E+01
 -1      6102 2.51408E+01
 -1      6103 2.59825E+01
 -1      6104 4.91209E+01
 -1      6105 2.68243E+01
 -1      6106 2.90846E+01
 -1      6107 4.90939E+01
 -1      6108 3.13450E+01
 -1      6109 3.13450E+01
 -1      6110 1.65353E+01
 -1      6111 2.39401E+01
 -1      6112 1.25614E+01
 -1      6113 1.61129E+01
 -1      6114 2.12574E+01
 -1      6115 1.21391E+01
 -1      6116 1.50940E+01
 -1      6117 1.98191E+01
 -1      6118 1.12814E+01
 -1      6119 1.50940E+01
 -1      6120 2.12574E+01
 -1      6121 1.21391E+01
 -1      6122 1.61129E+01
 -1      6123 2.39401E+01
 -1      6124 1.25614E+01
 -1      6125 1.65353E+01
 -1      6126 9.13083E+00
 -1      6127 1.28330E+01
 -1      6128 7.08886E+00
 -1      6129 8.93653E+00
 -1      6130 1.22164E+01
 -1      6131 6.71795E+00
 -1      6132 8.56643E+00
 -1      6133 1.14440E+01
 -1      6134 6.54216E+00
 -1      6135 8.56643E+00
 -1      6136 1.22164E+01
 -1      6137 6.71795E+00
 -1      6138 8.93653E+00
 -1      6139 1.28330E+01
 -1      6140 7.08886E+00
 -1      6141 9.13083E+00
 -1      6142 5.43008E+00
 -1      6143 7.28046E+00
 -1      6144 4.55491E+00
 -1      6145 5.39755E+00
 -1      6146 7.05363E+00
 -1      6147 4.52238E+00
 -1      6148 5.29861E+00
 -1      6149 6.81142E+00
 -1      6150 4.45202E+00
 -1      6151 5.29861E+00
 -1      6152 7.05363E+00
 -1      6153 4.52238E+00
 -1      6154 5.39755E+00
 -1      6155 7.28046E+00
 -1      6156 4.55491E+00
 -1      6157 5.43008E+00
 -1      6158 3.87073E+00
 -1      6159 4.65040E+00
 -1      6160 3.73421E+00
 -1      6161 3.85404E+00
 -1      6162 4.60119E+00
 -1      6163 3.71437E+00
 -1      6164 3.80366E+00
 -1      6165 4.50109E+00
 -1      6166 3.67864E+00
 -1      6167 3.80366E+00
 -1      6168 4.60119E+00
 -1      6169 3.71437E+00
 -1      6170 3.85404E+00
 -1      6171 4.65040E+00
 -1      6172 3.73421E+00
 -1      6173 3.87073E+00
 -1      6174 3.50625E+00
 -1      6175 3.68849E+00
 -1      6176 3.50625E+00
 -1      6177 3.50376E+00
 -1      6178 3.66931E+00
 -1      6179 3.50126E+00
 -1      6180 3.49570E+00
 -1      6181 3.63006E+00
 -1      6182 3.49014E+00
 -1      6183 3.49570E+00
 -1      6184 3.66931E+00
 -1      6185 3.50126E+00
 -1      6186 3.50376E+00
 -1      6187 3.68849E+00
 -1      6188 3.50625E+00
 -1      6189 3.50625E+00
 -1      6190 3.40859E+00
 -1      6191 3.45742E+00
 -1      6192 3.40859E+00
 -1      6193 3.40352E+00
 -1      6194 3.44986E+00
 -1      6195 3.39846E+00
 -1      6196 3.39081E+00
 -1      6197 3.43665E+00
 -1      6198 3.38316E+00
 -1      6199 3.39081E+00
 -1      6200 3.44986E+00
 -1      6201 3.39846E+00
 -1      6202 3.40352E+00
 -1      6203 3.45742E+00
 -1      6204 3.40859E+00
 -1      6205 3.40859E+00
 -1      6206 3.29091E+00
 -1      6207 3.34975E+00
 -1      6208 3.29091E+00
 -1      6209 3.28394E+00
 -1      6210 3.33772E+00
 -1      6211 3.27698E+00
 -1      6212 3.26777E+00
 -1      6213 3.32086E+00
 -1      6214 3.25856E+00
 -1      6215 3.26777E+00
 -1      6216 3.33772E+00
 -1      6217 3.27698E+00
 -1      6218 3.28394E+00
 -1      6219 3.34975E+00
 -1      6220 3.29091E+00
 -1      6221 3.29091E+00
 -1      6222 3.15845E+00
 -1      6223 3.22468E+00
 -1      6224 3.15845E+00
 -1      6225 3.14996E+00
 -1      6226 3.20922E+00
 -1      6227 3.14147E+00
 -1      6228 3.13121E+00
 -1      6229 3.18975E+00
 -1      6230 3.12095E+00
 -1      6231 3.13121E+00
 -1      6232 3.20922E+00
 -1      6233 3.14147E+00
 -1      6234 3.14996E+00
 -1      6235 3.22468E+00
 -1      6236 3.15845E+00
 -1      6237 3.15845E+00
 -1      6238 3.02068E+00
 -1      6239 3.08957E+00
 -1      6240 3.02068E+00
 -1      6241 3.01029E+00
 -1      6242 3.07069E+00
 -1      6243 2.99990E+00
 -1      6244 2.98839E+00
 -1      6245 3.04891E+00
 -1      6246 2.97687E+00
 -1      6247 2.98839E+00
 -1      6248 3.07069E+00
 -1      6249 2.99990E+00
 -1      6250 3.01029E+00
 -1      6251 3.08957E+00
 -1      6252 3.02068E+00
 -1      6253 3.02068E+00
 -1      6254 3.19061E+00
 -1      6255 3.10565E+00
 -1      6256 3.19061E+00
 -1      6257 3.18068E+00
 -1      6258 3.08532E+00
 -1      6259 3.17075E+00
 -1      6260 3.15944E+00
 -1      6261 3.06250E+00
 -1      6262 3.14813E+00
 -1      6263 3.15944E+00
 -1      6264 3.08532E+00
 -1      6265 3.17075E+00
 -1      6266 3.18068E+00
 -1      6267 3.10565E+00
 -1      6268 3.19061E+00
 -1      6269 3.19061E+00
 -1      6270 3.36242E+00
 -1      6271 3.27652E+00
 -1      6272 3.36242E+00
 -1      6273 3.35322E+00
 -1      6274 3.25738E+00
 -1      6275 3.34401E+00
 -1      6276 3.33304E+00
 -1      6277 3.23510E+00
 -1      6278 3.32206E+00
 -1      6279 3.33304E+00
 -1      6280 3.25738E+00
 -1      6281 3.34401E+00
 -1      6282 3.35322E+00
 -1      6283 3.27652E+00
 -1      6284 3.36242E+00
 -1      6285 3.36242E+00
 -1      6286 3.54213E+00
 -1      6287 3.45228E+00
 -1      6288 3.54213E+00
 -1      6289 3.53397E+00
 -1      6290 3.43491E+00
 -1      6291 3.52582E+00
 -1      6292 3.51531E+00
 -1      6293 3.41343E+00
 -1      6294 3.50479E+00
 -1      6295 3.51531E+00
 -1      6296 3.43491E+00
 -1      6297 3.52582E+00
 -1      6298 3.53397E+00
 -1      6299 3.45228E+00
 -1      6300 3.54213E+00
 -1      6301 3.54213E+00
 -1      6302 3.97191E+00
 -1      6303 3.75702E+00
 -1      6304 3.97191E+00
 -1      6305 3.94739E+00
 -1      6306 3.72434E+00
 -1      6307 3.92286E+00
 -1      6308 3.88650E+00
 -1      6309 3.67747E+00
 -1      6310 3.85015E+00
 -1      6311 3.88650E+00
 -1      6312 3.72434E+00
 -1      6313 3.92286E+00
 -1      6314 3.94739E+00
 -1      6315 3.75702E+00
 -1      6316 3.97191E+00
 -1      6317 3.97191E+00
 -1      6318 4.79002E+00
 -1      6319 4.38097E+00
 -1      6320 4.79002E+00
 -1      6321 4.77306E+00
 -1      6322 4.33948E+00
 -1      6323 4.75610E+00
 -1      6324 4.72256E+00
 -1      6325 4.26958E+00
 -1      6326 4.68901E+00
 -1      6327 4.72256E+00
 -1      6328 4.33948E+00
 -1      6329 4.75610E+00
 -1      6330 4.77306E+00
 -1      6331 4.38097E+00
 -1      6332 4.79002E+00
 -1      6333 4.79002E+00
 -1      6334 5.77262E+00
 -1      6335 5.28132E+00
 -1      6336 5.77262E+00
 -1      6337 5.76664E+00
 -1      6338 5.25838E+00
 -1      6339 5.76066E+00
 -1      6340 5.73095E+00
 -1      6341 5.19513E+00
 -1      6342 5.70124E+00
 -1      6343 5.73095E+00
 -1      6344 5.25838E+00
 -1      6345 5.76066E+00
 -1      6346 5.76664E+00
 -1      6347 5.28132E+00
 -1      6348 5.77262E+00
 -1      6349 5.77262E+00
 -1      6350 6.99888E+00
 -1      6351 6.39402E+00
 -1      6352 7.01542E+00
 -1      6353 7.01542E+00
 -1      6354 6.38804E+00
 -1      6355 7.01542E+00
 -1      6356 6.99412E+00
 -1      6357 6.33703E+00
 -1      6358 6.97283E+00
 -1      6359 6.99412E+00
 -1      6360 6.38804E+00
 -1      6361 7.01542E+00
 -1      6362 7.01542E+00
 -1      6363 6.39402E+00
 -1      6364 7.01542E+00
 -1      6365 6.99888E+00
 -1      6366 8.49762E+00
 -1      6367 7.80047E+00
 -1      6368 8.58551E+00
 -1      6369 8.60351E+00
 -1      6370 7.81847E+00
 -1      6371 8.62151E+00
 -1      6372 8.62151E+00
 -1      6373 7.79717E+00
 -1      6374 8.62151E+00
 -1      6375 8.62151E+00
 -1      6376 7.81847E+00
 -1      6377 8.62151E+00
 -1      6378 8.60351E+00
 -1      6379 7.80047E+00
 -1      6380 8.58551E+00
 -1      6381 8.49762E+00
 -1      6382 1.02109E+01
 -1      6383 9.39820E+00
 -1      6384 1.02109E+01
 -1      6385 1.03607E+01
 -1      6386 9.56601E+00
 -1      6387 1.05105E+01
 -1      6388 1.05105E+01
 -1      6389 9.56601E+00
 -1      6390 1.05105E+01
 -1      6391 1.05105E+01
 -1      6392 9.56601E+00
 -1      6393 1.05105E+01
 -1      6394 1.03607E+01
 -1      6395 9.39820E+00
 -1      6396 1.02109E+01
 -1      6397 1.02109E+01
 -1      6398 3.74540E+01
 -1      6399 2.42935E+01
 -1      6400 3.83761E+01
 -1      6401 3.85360E+01
 -1      6402 2.46032E+01
 -1      6403 3.86958E+01
 -1      6404 3.86958E+01
 -1      6405 2.46032E+01
 -1      6406 3.86958E+01
 -1      6407 3.86958E+01
 -1      6408 2.46032E+01
 -1      6409 3.86958E+01
 -1      6410 3.85360E+01
 -1      6411 2.42935E+01
 -1      6412 3.83761E+01
 -1      6413 3.74540E+01
 -1      6414 4.50507E+01
 -1      6415 4.17134E+01
 -1      6416 4.50507E+01
 -1      6417 4.31975E+01
 -1      6418 4.00201E+01
 -1      6419 4.13443E+01
 -1      6420 4.12397E+01
 -1      6421 3.99154E+01
 -1      6422 4.11350E+01
 -1      6423 4.12397E+01
 -1      6424 4.00201E+01
 -1      6425 4.13443E+01
 -1      6426 4.31975E+01
 -1      6427 4.17134E+01
 -1      6428 4.50507E+01
 -1      6429 4.50507E+01
 -1      6430 4.50507E+01
 -1      6431 4.13443E+01
 -1      6432 4.11350E+01
 -1      6433 4.13443E+01
 -1      6434 4.50507E+01
 -1      6435 5.99178E+01
 -1      6436 4.84719E+01
 -1      6437 7.22980E+01
 -1      6438 6.91302E+01
 -1      6439 5.07593E+01
 -1      6440 7.47189E+01
 -1      6441 7.14175E+01
 -1      6442 5.05604E+01
 -1      6443 7.47189E+01
 -1      6444 7.14175E+01
 -1      6445 5.07593E+01
 -1      6446 7.47189E+01
 -1      6447 6.91302E+01
 -1      6448 4.84719E+01
 -1      6449 7.22980E+01
 -1      6450 5.99178E+01
 -1      6451 5.99178E+01
 -1      6452 6.68429E+01
 -1      6453 6.68429E+01
 -1      6454 6.91302E+01
 -1      6455 7.14175E+01
 -1      6456 7.14175E+01
 -1      6457 7.14175E+01
 -1      6458 7.14175E+01
 -1      6459 7.14175E+01
 -1      6460 7.14175E+01
 -1      6461 7.14175E+01
 -1      6462 7.14175E+01
 -1      6463 6.91302E+01
 -1      6464 6.68429E+01
 -1      6465 6.68429E+01
 -1      6466 5.99178E+01
 -1      6467 2.41102E+01
 -1      6468 4.54765E+01
 -1      6469 2.77276E+01
 -1      6470 2.39856E+01
 -1      6471 4.76393E+01
 -1      6472 2.53427E+01
 -1      6473 2.38611E+01
 -1      6474 4.76393E+01
 -1      6475 2.45010E+01
 -1      6476 2.38611E+01
 -1      6477 4.76393E+01
 -1      6478 2.53427E+01
 -1      6479 2.39856E+01
 -1      6480 4.54765E+01
 -1      6481 2.77276E+01
 -1      6482 2.41102E+01
 -1      6483 1.65353E+01
 -1      6484 2.03227E+01
 -1      6485 1.65353E+01
 -1      6486 1.61129E+01
 -1      6487 1.97758E+01
 -1      6488 1.56905E+01
 -1      6489 1.50940E+01
 -1      6490 1.91793E+01
 -1      6491 1.44974E+01
 -1      6492 1.50940E+01
 -1      6493 1.97758E+01
 -1      6494 1.56905E+01
 -1      6495 1.61129E+01
 -1      6496 2.03227E+01
 -1      6497 1.65353E+01
 -1      6498 1.65353E+01
 -1      6499 9.13083E+00
 -1      6500 1.28330E+01
 -1      6501 9.13083E+00
 -1      6502 8.93653E+00
 -1      6503 1.22164E+01
 -1      6504 8.74223E+00
 -1      6505 8.56643E+00
 -1      6506 1.14440E+01
 -1      6507 8.39063E+00
 -1      6508 8.56643E+00
 -1      6509 1.22164E+01
 -1      6510 8.74223E+00
 -1      6511 8.93653E+00
 -1      6512 1.28330E+01
 -1      6513 9.13083E+00
 -1      6514 9.13083E+00
 -1      6515 5.43008E+00
 -1      6516 7.28046E+00
 -1      6517 5.43008E+00
 -1      6518 5.39755E+00
 -1      6519 7.05363E+00
 -1      6520 5.36503E+00
 -1      6521 5.29861E+00
 -1      6522 6.81142E+00
 -1      6523 5.23220E+00
 -1      6524 5.29861E+00
 -1      6525 7.05363E+00
 -1      6526 5.36503E+00
 -1      6527 5.39755E+00
 -1      6528 7.28046E+00
 -1      6529 5.43008E+00
 -1      6530 5.43008E+00
 -1      6531 3.87073E+00
 -1      6532 4.65040E+00
 -1      6533 3.87073E+00
 -1      6534 3.85404E+00
 -1      6535 4.60119E+00
 -1      6536 3.83735E+00
 -1      6537 3.80366E+00
 -1      6538 4.50109E+00
 -1      6539 3.76997E+00
 -1      6540 3.80366E+00
 -1      6541 4.60119E+00
 -1      6542 3.83735E+00
 -1      6543 3.85404E+00
 -1      6544 4.65040E+00
 -1      6545 3.87073E+00
 -1      6546 3.87073E+00
 -1      6547 3.46873E+00
 -1      6548 3.66973E+00
 -1      6549 3.48749E+00
 -1      6550 3.46656E+00
 -1      6551 3.65087E+00
 -1      6552 3.48283E+00
 -1      6553 3.45781E+00
 -1      6554 3.61060E+00
 -1      6555 3.47068E+00
 -1      6556 3.45781E+00
 -1      6557 3.65087E+00
 -1      6558 3.48283E+00
 -1      6559 3.46656E+00
 -1      6560 3.66973E+00
 -1      6561 3.48749E+00
 -1      6562 3.46873E+00
 -1      6563 3.31358E+00
 -1      6564 3.39116E+00
 -1      6565 3.36108E+00
 -1      6566 3.31027E+00
 -1      6567 3.38568E+00
 -1      6568 3.35271E+00
 -1      6569 3.30010E+00
 -1      6570 3.37223E+00
 -1      6571 3.33820E+00
 -1      6572 3.30010E+00
 -1      6573 3.38568E+00
 -1      6574 3.35271E+00
 -1      6575 3.31027E+00
 -1      6576 3.39116E+00
 -1      6577 3.36108E+00
 -1      6578 3.31358E+00
 -1      6579 3.18377E+00
 -1      6580 3.24868E+00
 -1      6581 3.23734E+00
 -1      6582 3.17893E+00
 -1      6583 3.24053E+00
 -1      6584 3.22554E+00
 -1      6585 3.16635E+00
 -1      6586 3.22592E+00
 -1      6587 3.20858E+00
 -1      6588 3.16635E+00
 -1      6589 3.24053E+00
 -1      6590 3.22554E+00
 -1      6591 3.17893E+00
 -1      6592 3.24868E+00
 -1      6593 3.23734E+00
 -1      6594 3.18377E+00
 -1      6595 3.05647E+00
 -1      6596 3.12012E+00
 -1      6597 3.10746E+00
 -1      6598 3.05007E+00
 -1      6599 3.10889E+00
 -1      6600 3.09257E+00
 -1      6601 3.03495E+00
 -1      6602 3.09241E+00
 -1      6603 3.07359E+00
 -1      6604 3.03495E+00
 -1      6605 3.10889E+00
 -1      6606 3.09257E+00
 -1      6607 3.05007E+00
 -1      6608 3.12012E+00
 -1      6609 3.10746E+00
 -1      6610 3.05647E+00
 -1      6611 2.93023E+00
 -1      6612 2.99335E+00
 -1      6613 2.97546E+00
 -1      6614 2.92197E+00
 -1      6615 2.97870E+00
 -1      6616 2.95681E+00
 -1      6617 2.90385E+00
 -1      6618 2.96010E+00
 -1      6619 2.93542E+00
 -1      6620 2.90385E+00
 -1      6621 2.97870E+00
 -1      6622 2.95681E+00
 -1      6623 2.92197E+00
 -1      6624 2.99335E+00
 -1      6625 2.97546E+00
 -1      6626 2.93023E+00
 -1      6627 3.07662E+00
 -1      6628 3.00343E+00
 -1      6629 3.13362E+00
 -1      6630 3.06936E+00
 -1      6631 2.98791E+00
 -1      6632 3.11643E+00
 -1      6633 3.05277E+00
 -1      6634 2.96871E+00
 -1      6635 3.09578E+00
 -1      6636 3.05277E+00
 -1      6637 2.98791E+00
 -1      6638 3.11643E+00
 -1      6639 3.06936E+00
 -1      6640 3.00343E+00
 -1      6641 3.13362E+00
 -1      6642 3.07662E+00
 -1      6643 3.21104E+00
 -1      6644 3.14383E+00
 -1      6645 3.28673E+00
 -1      6646 3.20541E+00
 -1      6647 3.13094E+00
 -1      6648 3.27189E+00
 -1      6649 3.19135E+00
 -1      6650 3.11318E+00
 -1      6651 3.25249E+00
 -1      6652 3.19135E+00
 -1      6653 3.13094E+00
 -1      6654 3.27189E+00
 -1      6655 3.20541E+00
 -1      6656 3.14383E+00
 -1      6657 3.28673E+00
 -1      6658 3.21104E+00
 -1      6659 3.33382E+00
 -1      6660 3.27243E+00
 -1      6661 3.43798E+00
 -1      6662 3.33060E+00
 -1      6663 3.26358E+00
 -1      6664 3.42660E+00
 -1      6665 3.32032E+00
 -1      6666 3.24809E+00
 -1      6667 3.40902E+00
 -1      6668 3.32032E+00
 -1      6669 3.26358E+00
 -1      6670 3.42660E+00
 -1      6671 3.33060E+00
 -1      6672 3.27243E+00
 -1      6673 3.43798E+00
 -1      6674 3.33382E+00
 -1      6675 3.44319E+00
 -1      6676 3.38865E+00
 -1      6677 3.70769E+00
 -1      6678 3.44347E+00
 -1      6679 3.38543E+00
 -1      6680 3.68316E+00
 -1      6681 3.43836E+00
 -1      6682 3.37325E+00
 -1      6683 3.64170E+00
 -1      6684 3.43836E+00
 -1      6685 3.38543E+00
 -1      6686 3.68316E+00
 -1      6687 3.44347E+00
 -1      6688 3.38865E+00
 -1      6689 3.70769E+00
 -1      6690 3.44319E+00
 -1      6691 3.53564E+00
 -1      6692 3.49229E+00
 -1      6693 4.16556E+00
 -1      6694 3.54110E+00
 -1      6695 3.49229E+00
 -1      6696 4.14860E+00
 -1      6697 3.53884E+00
 -1      6698 3.48492E+00
 -1      6699 4.11280E+00
 -1      6700 3.53884E+00
 -1      6701 3.49229E+00
 -1      6702 4.14860E+00
 -1      6703 3.54110E+00
 -1      6704 3.49229E+00
 -1      6705 4.16556E+00
 -1      6706 3.53564E+00
 -1      6707 3.58520E+00
 -1      6708 3.56998E+00
 -1      6709 4.68574E+00
 -1      6710 3.60095E+00
 -1      6711 3.57207E+00
 -1      6712 4.68185E+00
 -1      6713 3.60303E+00
 -1      6714 3.56981E+00
 -1      6715 4.65214E+00
 -1      6716 3.60303E+00
 -1      6717 3.57207E+00
 -1      6718 4.68185E+00
 -1      6719 3.60095E+00
 -1      6720 3.56998E+00
 -1      6721 4.68574E+00
 -1      6722 3.58520E+00
 -1      6723 3.58520E+00
 -1      6724 3.59887E+00
 -1      6725 5.30714E+00
 -1      6726 3.60095E+00
 -1      6727 3.60303E+00
 -1      6728 5.30923E+00
 -1      6729 3.60303E+00
 -1      6730 3.60303E+00
 -1      6731 5.28793E+00
 -1      6732 3.60303E+00
 -1      6733 3.60303E+00
 -1      6734 5.30923E+00
 -1      6735 3.60095E+00
 -1      6736 3.59887E+00
 -1      6737 5.30714E+00
 -1      6738 3.58520E+00
 -1      6739 3.53670E+00
 -1      6740 3.57984E+00
 -1      6741 6.07317E+00
 -1      6742 3.57073E+00
 -1      6743 3.59184E+00
 -1      6744 6.10108E+00
 -1      6745 3.58064E+00
 -1      6746 3.59184E+00
 -1      6747 6.10108E+00
 -1      6748 3.58064E+00
 -1      6749 3.59184E+00
 -1      6750 6.10108E+00
 -1      6751 3.57073E+00
 -1      6752 3.57984E+00
 -1      6753 6.07317E+00
 -1      6754 3.53670E+00
 -1      6755 3.25169E+00
 -1      6756 3.42658E+00
 -1      6757 6.75161E+00
 -1      6758 3.30907E+00
 -1      6759 3.45322E+00
 -1      6760 6.91815E+00
 -1      6761 3.32580E+00
 -1      6762 3.45322E+00
 -1      6763 6.91815E+00
 -1      6764 3.32580E+00
 -1      6765 3.45322E+00
 -1      6766 6.91815E+00
 -1      6767 3.30907E+00
 -1      6768 3.42658E+00
 -1      6769 6.75161E+00
 -1      6770 3.25169E+00
 -1      6771 5.80383E+00
 -1      6772 4.69632E+00
 -1      6773 2.22382E+01
 -1      6774 6.10031E+00
 -1      6775 4.71306E+00
 -1      6776 2.23981E+01
 -1      6777 6.03292E+00
 -1      6778 4.64567E+00
 -1      6779 2.23307E+01
 -1      6780 6.03292E+00
 -1      6781 4.71306E+00
 -1      6782 2.23981E+01
 -1      6783 6.10031E+00
 -1      6784 4.69632E+00
 -1      6785 2.22382E+01
 -1      6786 5.80383E+00
 -1      6787 1.41340E+01
 -1      6788 1.04307E+01
 -1      6789 2.99059E+01
 -1      6790 1.48197E+01
 -1      6791 1.04893E+01
 -1      6792 2.81113E+01
 -1      6793 1.48782E+01
 -1      6794 1.04219E+01
 -1      6795 2.80066E+01
 -1      6796 1.48782E+01
 -1      6797 1.04893E+01
 -1      6798 2.81113E+01
 -1      6799 1.48197E+01
 -1      6800 1.04307E+01
 -1      6801 2.99059E+01
 -1      6802 1.41340E+01
 -1      6803 1.47611E+01
 -1      6804 1.48782E+01
 -1      6805 1.48782E+01
 -1      6806 1.48782E+01
 -1      6807 1.47611E+01
 -1      6808 5.27074E+01
 -1      6809 3.87703E+01
 -1      6810 5.97752E+01
 -1      6811 5.16975E+01
 -1      6812 3.77604E+01
 -1      6813 6.10526E+01
 -1      6814 5.06876E+01
 -1      6815 3.74372E+01
 -1      6816 6.10526E+01
 -1      6817 5.06876E+01
 -1      6818 3.77604E+01
 -1      6819 6.10526E+01
 -1      6820 5.16975E+01
 -1      6821 3.87703E+01
 -1      6822 5.97752E+01
 -1      6823 5.27074E+01
 -1      6824 5.27074E+01
 -1      6825 5.27074E+01
 -1      6826 5.97752E+01
 -1      6827 5.16975E+01
 -1      6828 5.06876E+01
 -1      6829 6.10526E+01
 -1      6830 5.06876E+01
 -1      6831 5.06876E+01
 -1      6832 6.10526E+01
 -1      6833 5.06876E+01
 -1      6834 5.06876E+01
 -1      6835 6.10526E+01
 -1      6836 5.16975E+01
 -1      6837 5.27074E+01
 -1      6838 5.97752E+01
 -1      6839 5.27074E+01
 -1      6840 3.53323E+01
 -1      6841 4.40998E+01
 -1      6842 2.98012E+01
 -1      6843 3.54922E+01
 -1      6844 4.30899E+01
 -1      6845 2.96766E+01
 -1      6846 3.54371E+01
 -1      6847 4.30349E+01
 -1      6848 2.96216E+01
 -1      6849 3.54371E+01
 -1      6850 4.30899E+01
 -1      6851 2.96766E+01
 -1      6852 3.54922E+01
 -1      6853 4.40998E+01
 -1      6854 2.98012E+01
 -1      6855 3.53323E+01
 -1      6856 8.05613E+00
 -1      6857 2.17741E+01
 -1      6858 1.22957E+01
 -1      6859 8.10440E+00
 -1      6860 2.18224E+01
 -1      6861 1.19216E+01
 -1      6862 8.15268E+00
 -1      6863 2.17674E+01
 -1      6864 1.13251E+01
 -1      6865 8.15268E+00
 -1      6866 2.18224E+01
 -1      6867 1.19216E+01
 -1      6868 8.10440E+00
 -1      6869 2.17741E+01
 -1      6870 1.22957E+01
 -1      6871 8.05613E+00
 -1      6872 8.05613E+00
 -1      6873 8.05613E+00
 -1      6874 8.59348E+00
 -1      6875 7.87217E+00
 -1      6876 7.92044E+00
 -1      6877 8.21522E+00
 -1      6878 7.61639E+00
 -1      6879 7.84862E+00
 -1      6880 7.96760E+00
 -1      6881 7.61639E+00
 -1      6882 7.92044E+00
 -1      6883 8.21522E+00
 -1      6884 7.87217E+00
 -1      6885 8.05613E+00
 -1      6886 8.59348E+00
 -1      6887 8.05613E+00
 -1      6888 5.19569E+00
 -1      6889 6.62591E+00
 -1      6890 5.31288E+00
 -1      6891 5.10021E+00
 -1      6892 6.34647E+00
 -1      6893 5.18488E+00
 -1      6894 4.97089E+00
 -1      6895 6.24080E+00
 -1      6896 5.08462E+00
 -1      6897 4.97089E+00
 -1      6898 6.34647E+00
 -1      6899 5.18488E+00
 -1      6900 5.10021E+00
 -1      6901 6.62591E+00
 -1      6902 5.31288E+00
 -1      6903 5.19569E+00
 -1      6904 3.62177E+00
 -1      6905 4.40873E+00
 -1      6906 3.74625E+00
 -1      6907 3.61282E+00
 -1      6908 4.30430E+00
 -1      6909 3.72060E+00
 -1      6910 3.59848E+00
 -1      6911 4.26507E+00
 -1      6912 3.68154E+00
 -1      6913 3.59848E+00
 -1      6914 4.30430E+00
 -1      6915 3.72060E+00
 -1      6916 3.61282E+00
 -1      6917 4.40873E+00
 -1      6918 3.74625E+00
 -1      6919 3.62177E+00
 -1      6920 3.36005E+00
 -1      6921 3.49091E+00
 -1      6922 3.41439E+00
 -1      6923 3.35590E+00
 -1      6924 3.47781E+00
 -1      6925 3.40808E+00
 -1      6926 3.34725E+00
 -1      6927 3.46793E+00
 -1      6928 3.39698E+00
 -1      6929 3.34725E+00
 -1      6930 3.47781E+00
 -1      6931 3.40808E+00
 -1      6932 3.35590E+00
 -1      6933 3.49091E+00
 -1      6934 3.41439E+00
 -1      6935 3.36005E+00
 -1      6936 3.21197E+00
 -1      6937 3.28601E+00
 -1      6938 3.26278E+00
 -1      6939 3.20830E+00
 -1      6940 3.27819E+00
 -1      6941 3.25580E+00
 -1      6942 3.19917E+00
 -1      6943 3.26823E+00
 -1      6944 3.24347E+00
 -1      6945 3.19917E+00
 -1      6946 3.27819E+00
 -1      6947 3.25580E+00
 -1      6948 3.20830E+00
 -1      6949 3.28601E+00
 -1      6950 3.26278E+00
 -1      6951 3.21197E+00
 -1      6952 3.10785E+00
 -1      6953 3.15991E+00
 -1      6954 3.14581E+00
 -1      6955 3.10262E+00
 -1      6956 3.15101E+00
 -1      6957 3.13575E+00
 -1      6958 3.09043E+00
 -1      6959 3.13858E+00
 -1      6960 3.12103E+00
 -1      6961 3.09043E+00
 -1      6962 3.15101E+00
 -1      6963 3.13575E+00
 -1      6964 3.10262E+00
 -1      6965 3.15991E+00
 -1      6966 3.14581E+00
 -1      6967 3.10785E+00
 -1      6968 3.03013E+00
 -1      6969 3.06899E+00
 -1      6970 3.04330E+00
 -1      6971 3.02366E+00
 -1      6972 3.05730E+00
 -1      6973 3.03044E+00
 -1      6974 3.00919E+00
 -1      6975 3.04232E+00
 -1      6976 3.01370E+00
 -1      6977 3.00919E+00
 -1      6978 3.05730E+00
 -1      6979 3.03044E+00
 -1      6980 3.02366E+00
 -1      6981 3.06899E+00
 -1      6982 3.04330E+00
 -1      6983 3.03013E+00
 -1      6984 2.99117E+00
 -1      6985 3.01065E+00
 -1      6986 2.96070E+00
 -1      6987 2.98157E+00
 -1      6988 2.99458E+00
 -1      6989 2.94284E+00
 -1      6990 2.96206E+00
 -1      6991 2.97667E+00
 -1      6992 2.92307E+00
 -1      6993 2.96206E+00
 -1      6994 2.99458E+00
 -1      6995 2.94284E+00
 -1      6996 2.98157E+00
 -1      6997 3.01065E+00
 -1      6998 2.96070E+00
 -1      6999 2.99117E+00
 -1      7000 3.00990E+00
 -1      7001 3.00054E+00
 -1      7002 3.04326E+00
 -1      7003 3.00249E+00
 -1      7004 2.98352E+00
 -1      7005 3.02859E+00
 -1      7006 2.98628E+00
 -1      7007 2.96482E+00
 -1      7008 3.01046E+00
 -1      7009 2.98628E+00
 -1      7010 2.98352E+00
 -1      7011 3.02859E+00
 -1      7012 3.00249E+00
 -1      7013 3.00054E+00
 -1      7014 3.04326E+00
 -1      7015 3.00990E+00
 -1      7016 3.07572E+00
 -1      7017 3.04281E+00
 -1      7018 3.14338E+00
 -1      7019 3.07124E+00
 -1      7020 3.03091E+00
 -1      7021 3.13326E+00
 -1      7022 3.05973E+00
 -1      7023 3.01510E+00
 -1      7024 3.11781E+00
 -1      7025 3.05973E+00
 -1      7026 3.03091E+00
 -1      7027 3.13326E+00
 -1      7028 3.07124E+00
 -1      7029 3.04281E+00
 -1      7030 3.14338E+00
 -1      7031 3.07572E+00
 -1      7032 3.10590E+00
 -1      7033 3.09081E+00
 -1      7034 3.21986E+00
 -1      7035 3.10539E+00
 -1      7036 3.08581E+00
 -1      7037 3.21613E+00
 -1      7038 3.10033E+00
 -1      7039 3.07424E+00
 -1      7040 3.20451E+00
 -1      7041 3.10033E+00
 -1      7042 3.08581E+00
 -1      7043 3.21613E+00
 -1      7044 3.10539E+00
 -1      7045 3.09081E+00
 -1      7046 3.21986E+00
 -1      7047 3.10590E+00
 -1      7048 3.10590E+00
 -1      7049 3.10590E+00
 -1      7050 3.27469E+00
 -1      7051 3.10539E+00
 -1      7052 3.10488E+00
 -1      7053 3.27418E+00
 -1      7054 3.10346E+00
 -1      7055 3.09891E+00
 -1      7056 3.26765E+00
 -1      7057 3.10346E+00
 -1      7058 3.10488E+00
 -1      7059 3.27418E+00
 -1      7060 3.10539E+00
 -1      7061 3.10590E+00
 -1      7062 3.27469E+00
 -1      7063 3.10590E+00
 -1      7064 3.10020E+00
 -1      7065 3.10532E+00
 -1      7066 3.32292E+00
 -1      7067 3.10474E+00
 -1      7068 3.10481E+00
 -1      7069 3.32292E+00
 -1      7070 3.10340E+00
 -1      7071 3.10205E+00
 -1      7072 3.31931E+00
 -1      7073 3.10340E+00
 -1      7074 3.10481E+00
 -1      7075 3.32292E+00
 -1      7076 3.10474E+00
 -1      7077 3.10532E+00
 -1      7078 3.32292E+00
 -1      7079 3.10020E+00
 -1      7080 3.04619E+00
 -1      7081 3.08084E+00
 -1      7082 3.32790E+00
 -1      7083 3.05956E+00
 -1      7084 3.08346E+00
 -1      7085 3.33260E+00
 -1      7086 3.06217E+00
 -1      7087 3.08211E+00
 -1      7088 3.33260E+00
 -1      7089 3.06217E+00
 -1      7090 3.08346E+00
 -1      7091 3.33260E+00
 -1      7092 3.05956E+00
 -1      7093 3.08084E+00
 -1      7094 3.32790E+00
 -1      7095 3.04619E+00
 -1      7096 2.93556E+00
 -1      7097 3.00400E+00
 -1      7098 3.27497E+00
 -1      7099 2.95758E+00
 -1      7100 3.01313E+00
 -1      7101 3.28356E+00
 -1      7102 2.96409E+00
 -1      7103 3.01313E+00
 -1      7104 3.28356E+00
 -1      7105 2.96409E+00
 -1      7106 3.01313E+00
 -1      7107 3.28356E+00
 -1      7108 2.95758E+00
 -1      7109 3.00400E+00
 -1      7110 3.27497E+00
 -1      7111 2.93556E+00
 -1      7112 2.75280E+00
 -1      7113 2.86062E+00
 -1      7114 3.16550E+00
 -1      7115 2.77686E+00
 -1      7116 2.87381E+00
 -1      7117 3.18209E+00
 -1      7118 2.78354E+00
 -1      7119 2.87381E+00
 -1      7120 3.18209E+00
 -1      7121 2.78354E+00
 -1      7122 2.87381E+00
 -1      7123 3.18209E+00
 -1      7124 2.77686E+00
 -1      7125 2.86062E+00
 -1      7126 3.16550E+00
 -1      7127 2.75280E+00
 -1      7128 2.49869E+00
 -1      7129 2.64154E+00
 -1      7130 2.90262E+00
 -1      7131 2.51343E+00
 -1      7132 2.64875E+00
 -1      7133 2.91988E+00
 -1      7134 2.51396E+00
 -1      7135 2.64875E+00
 -1      7136 2.91988E+00
 -1      7137 2.51396E+00
 -1      7138 2.64875E+00
 -1      7139 2.91988E+00
 -1      7140 2.51343E+00
 -1      7141 2.64154E+00
 -1      7142 2.90262E+00
 -1      7143 2.49869E+00
 -1      7144 2.29382E+00
 -1      7145 2.40335E+00
 -1      7146 4.19706E+00
 -1      7147 2.28612E+00
 -1      7148 2.39620E+00
 -1      7149 4.18937E+00
 -1      7150 2.24825E+00
 -1      7151 2.36602E+00
 -1      7152 4.09180E+00
 -1      7153 2.24825E+00
 -1      7154 2.39620E+00
 -1      7155 4.18937E+00
 -1      7156 2.28612E+00
 -1      7157 2.40335E+00
 -1      7158 4.19706E+00
 -1      7159 2.29382E+00
 -1      7160 2.30285E+00
 -1      7161 2.31870E+00
 -1      7162 8.55236E+00
 -1      7163 2.34358E+00
 -1      7164 2.31101E+00
 -1      7165 8.61089E+00
 -1      7166 2.31927E+00
 -1      7167 2.25651E+00
 -1      7168 8.58658E+00
 -1      7169 2.31927E+00
 -1      7170 2.31101E+00
 -1      7171 8.61089E+00
 -1      7172 2.34358E+00
 -1      7173 2.31870E+00
 -1      7174 8.55236E+00
 -1      7175 2.30285E+00
 -1      7176 2.34358E+00
 -1      7177 2.34358E+00
 -1      7178 2.29495E+00
 -1      7179 2.34358E+00
 -1      7180 2.34358E+00
 -1      7181 1.64264E+01
 -1      7182 1.61367E+01
 -1      7183 3.46223E+01
 -1      7184 1.65372E+01
 -1      7185 1.63879E+01
 -1      7186 3.36124E+01
 -1      7187 1.63879E+01
 -1      7188 1.62386E+01
 -1      7189 3.34631E+01
 -1      7190 1.63879E+01
 -1      7191 1.63879E+01
 -1      7192 3.36124E+01
 -1      7193 1.65372E+01
 -1      7194 1.61367E+01
 -1      7195 3.46223E+01
 -1      7196 1.64264E+01
 -1      7197 3.53323E+01
 -1      7198 2.60147E+01
 -1      7199 4.40998E+01
 -1      7200 3.54922E+01
 -1      7201 2.60147E+01
 -1      7202 4.30899E+01
 -1      7203 3.54371E+01
 -1      7204 2.58104E+01
 -1      7205 4.30349E+01
 -1      7206 3.54371E+01
 -1      7207 2.60147E+01
 -1      7208 4.30899E+01
 -1      7209 3.54922E+01
 -1      7210 2.60147E+01
 -1      7211 4.40998E+01
 -1      7212 3.53323E+01
 -1      7213 3.53323E+01
 -1      7214 3.54922E+01
 -1      7215 3.54922E+01
 -1      7216 3.54922E+01
 -1      7217 3.54922E+01
 -1      7218 3.54922E+01
 -1      7219 3.54371E+01
 -1      7220 3.53821E+01
 -1      7221 3.53821E+01
 -1      7222 3.54371E+01
 -1      7223 3.54922E+01
 -1      7224 3.54922E+01
 -1      7225 3.54922E+01
 -1      7226 3.54922E+01
 -1      7227 3.54922E+01
 -1      7228 3.53323E+01
 -1      7229 2.57588E+00
 -1      7230 1.90555E+01
 -1      7231 5.33745E+00
 -1      7232 2.63459E+00
 -1      7233 1.90713E+01
 -1      7234 5.40155E+00
 -1      7235 2.65042E+00
 -1      7236 1.90163E+01
 -1      7237 5.40155E+00
 -1      7238 2.65042E+00
 -1      7239 1.90713E+01
 -1      7240 5.40155E+00
 -1      7241 2.63459E+00
 -1      7242 1.90555E+01
 -1      7243 5.33745E+00
 -1      7244 2.57588E+00
 -1      7245 3.01169E+00
 -1      7246 2.82406E+00
 -1      7247 5.54274E+00
 -1      7248 3.03040E+00
 -1      7249 2.84093E+00
 -1      7250 5.35982E+00
 -1      7251 3.03143E+00
 -1      7252 2.84093E+00
 -1      7253 5.28800E+00
 -1      7254 3.03143E+00
 -1      7255 2.84093E+00
 -1      7256 5.35982E+00
 -1      7257 3.03040E+00
 -1      7258 2.82406E+00
 -1      7259 5.54274E+00
 -1      7260 3.01169E+00
 -1      7261 3.07505E+00
 -1      7262 3.05594E+00
 -1      7263 4.13911E+00
 -1      7264 3.08253E+00
 -1      7265 3.05698E+00
 -1      7266 4.04363E+00
 -1      7267 3.08176E+00
 -1      7268 3.05621E+00
 -1      7269 4.00901E+00
 -1      7270 3.08176E+00
 -1      7271 3.05698E+00
 -1      7272 4.04363E+00
 -1      7273 3.08253E+00
 -1      7274 3.05594E+00
 -1      7275 4.13911E+00
 -1      7276 3.07505E+00
 -1      7277 3.07505E+00
 -1      7278 3.08253E+00
 -1      7279 3.35215E+00
 -1      7280 3.08253E+00
 -1      7281 3.08253E+00
 -1      7282 3.34319E+00
 -1      7283 3.08176E+00
 -1      7284 3.08099E+00
 -1      7285 3.33705E+00
 -1      7286 3.08176E+00
 -1      7287 3.08253E+00
 -1      7288 3.34319E+00
 -1      7289 3.08253E+00
 -1      7290 3.08253E+00
 -1      7291 3.35215E+00
 -1      7292 3.07505E+00
 -1      7293 3.05293E+00
 -1      7294 3.06985E+00
 -1      7295 3.20861E+00
 -1      7296 3.05717E+00
 -1      7297 3.06985E+00
 -1      7298 3.20446E+00
 -1      7299 3.05550E+00
 -1      7300 3.06741E+00
 -1      7301 3.19829E+00
 -1      7302 3.05550E+00
 -1      7303 3.06985E+00
 -1      7304 3.20446E+00
 -1      7305 3.05717E+00
 -1      7306 3.06985E+00
 -1      7307 3.20861E+00
 -1      7308 3.05293E+00
 -1      7309 3.03771E+00
 -1      7310 3.04784E+00
 -1      7311 3.12524E+00
 -1      7312 3.03852E+00
 -1      7313 3.04784E+00
 -1      7314 3.12157E+00
 -1      7315 3.03521E+00
 -1      7316 3.04287E+00
 -1      7317 3.11280E+00
 -1      7318 3.03521E+00
 -1      7319 3.04784E+00
 -1      7320 3.12157E+00
 -1      7321 3.03852E+00
 -1      7322 3.04784E+00
 -1      7323 3.12524E+00
 -1      7324 3.03771E+00
 -1      7325 3.09649E+00
 -1      7326 3.06750E+00
 -1      7327 3.10217E+00
 -1      7328 3.08754E+00
 -1      7329 3.05856E+00
 -1      7330 3.08800E+00
 -1      7331 3.06927E+00
 -1      7332 3.04592E+00
 -1      7333 3.07170E+00
 -1      7334 3.06927E+00
 -1      7335 3.05856E+00
 -1      7336 3.08800E+00
 -1      7337 3.08754E+00
 -1      7338 3.06750E+00
 -1      7339 3.10217E+00
 -1      7340 3.09649E+00
 -1      7341 3.20811E+00
 -1      7342 3.15230E+00
 -1      7343 3.11912E+00
 -1      7344 3.19579E+00
 -1      7345 3.13103E+00
 -1      7346 3.10034E+00
 -1      7347 3.17199E+00
 -1      7348 3.11022E+00
 -1      7349 3.08084E+00
 -1      7350 3.17199E+00
 -1      7351 3.13103E+00
 -1      7352 3.10034E+00
 -1      7353 3.19579E+00
 -1      7354 3.15230E+00
 -1      7355 3.11912E+00
 -1      7356 3.20811E+00
 -1      7357 3.20811E+00
 -1      7358 3.20811E+00
 -1      7359 3.09964E+00
 -1      7360 3.19579E+00
 -1      7361 3.18347E+00
 -1      7362 3.07772E+00
 -1      7363 3.17199E+00
 -1      7364 3.16050E+00
 -1      7365 3.05633E+00
 -1      7366 3.17199E+00
 -1      7367 3.18347E+00
 -1      7368 3.07772E+00
 -1      7369 3.19579E+00
 -1      7370 3.20811E+00
 -1      7371 3.09964E+00
 -1      7372 3.20811E+00
 -1      7373 3.20602E+00
 -1      7374 3.20706E+00
 -1      7375 3.10796E+00
 -1      7376 3.19371E+00
 -1      7377 3.18244E+00
 -1      7378 3.08824E+00
 -1      7379 3.16998E+00
 -1      7380 3.15953E+00
 -1      7381 3.06802E+00
 -1      7382 3.16998E+00
 -1      7383 3.18244E+00
 -1      7384 3.08824E+00
 -1      7385 3.19371E+00
 -1      7386 3.20706E+00
 -1      7387 3.10796E+00
 -1      7388 3.20602E+00
 -1      7389 3.08408E+00
 -1      7390 3.14505E+00
 -1      7391 3.07990E+00
 -1      7392 3.07532E+00
 -1      7393 3.12399E+00
 -1      7394 3.06666E+00
 -1      7395 3.05741E+00
 -1      7396 3.10340E+00
 -1      7397 3.05047E+00
 -1      7398 3.05741E+00
 -1      7399 3.12399E+00
 -1      7400 3.06666E+00
 -1      7401 3.07532E+00
 -1      7402 3.14505E+00
 -1      7403 3.07990E+00
 -1      7404 3.08408E+00
 -1      7405 2.95842E+00
 -1      7406 3.02125E+00
 -1      7407 3.03216E+00
 -1      7408 2.95704E+00
 -1      7409 3.01112E+00
 -1      7410 3.03027E+00
 -1      7411 2.95077E+00
 -1      7412 2.99706E+00
 -1      7413 3.02082E+00
 -1      7414 2.95077E+00
 -1      7415 3.01112E+00
 -1      7416 3.03027E+00
 -1      7417 2.95704E+00
 -1      7418 3.02125E+00
 -1      7419 3.03216E+00
 -1      7420 2.95842E+00
 -1      7421 2.87047E+00
 -1      7422 2.91644E+00
 -1      7423 2.99017E+00
 -1      7424 2.87445E+00
 -1      7425 2.91506E+00
 -1      7426 2.98966E+00
 -1      7427 2.87312E+00
 -1      7428 2.90883E+00
 -1      7429 2.98692E+00
 -1      7430 2.87312E+00
 -1      7431 2.91506E+00
 -1      7432 2.98966E+00
 -1      7433 2.87445E+00
 -1      7434 2.91644E+00
 -1      7435 2.99017E+00
 -1      7436 2.87047E+00
 -1      7437 2.74973E+00
 -1      7438 2.81670E+00
 -1      7439 2.93185E+00
 -1      7440 2.76135E+00
 -1      7441 2.81910E+00
 -1      7442 2.93424E+00
 -1      7443 2.76374E+00
 -1      7444 2.81777E+00
 -1      7445 2.93290E+00
 -1      7446 2.76374E+00
 -1      7447 2.81910E+00
 -1      7448 2.93424E+00
 -1      7449 2.76135E+00
 -1      7450 2.81670E+00
 -1      7451 2.93185E+00
 -1      7452 2.74973E+00
 -1      7453 2.61288E+00
 -1      7454 2.69190E+00
 -1      7455 2.84089E+00
 -1      7456 2.62972E+00
 -1      7457 2.69917E+00
 -1      7458 2.84838E+00
 -1      7459 2.63460E+00
 -1      7460 2.69917E+00
 -1      7461 2.84838E+00
 -1      7462 2.63460E+00
 -1      7463 2.69917E+00
 -1      7464 2.84838E+00
 -1      7465 2.62972E+00
 -1      7466 2.69190E+00
 -1      7467 2.84089E+00
 -1      7468 2.61288E+00
 -1      7469 2.47816E+00
 -1      7470 2.55693E+00
 -1      7471 2.72005E+00
 -1      7472 2.49234E+00
 -1      7473 2.56512E+00
 -1      7474 2.72987E+00
 -1      7475 2.49565E+00
 -1      7476 2.56512E+00
 -1      7477 2.72987E+00
 -1      7478 2.49565E+00
 -1      7479 2.56512E+00
 -1      7480 2.72987E+00
 -1      7481 2.49234E+00
 -1      7482 2.55693E+00
 -1      7483 2.72005E+00
 -1      7484 2.47816E+00
 -1      7485 2.36242E+00
 -1      7486 2.42930E+00
 -1      7487 2.56988E+00
 -1      7488 2.36958E+00
 -1      7489 2.43261E+00
 -1      7490 2.57656E+00
 -1      7491 2.36733E+00
 -1      7492 2.43036E+00
 -1      7493 2.57430E+00
 -1      7494 2.36733E+00
 -1      7495 2.43261E+00
 -1      7496 2.57656E+00
 -1      7497 2.36958E+00
 -1      7498 2.42930E+00
 -1      7499 2.56988E+00
 -1      7500 2.36242E+00
 -1      7501 2.37028E+00
 -1      7502 2.36993E+00
 -1      7503 2.44159E+00
 -1      7504 2.36365E+00
 -1      7505 2.36330E+00
 -1      7506 2.43549E+00
 -1      7507 2.32999E+00
 -1      7508 2.33402E+00
 -1      7509 2.40846E+00
 -1      7510 2.32999E+00
 -1      7511 2.36330E+00
 -1      7512 2.43549E+00
 -1      7513 2.36365E+00
 -1      7514 2.36993E+00
 -1      7515 2.44159E+00
 -1      7516 2.37028E+00
 -1      7517 2.42745E+00
 -1      7518 2.41195E+00
 -1      7519 2.37372E+00
 -1      7520 2.45363E+00
 -1      7521 2.40532E+00
 -1      7522 2.36603E+00
 -1      7523 2.37830E+00
 -1      7524 2.30296E+00
 -1      7525 2.26052E+00
 -1      7526 2.37830E+00
 -1      7527 2.40532E+00
 -1      7528 2.36603E+00
 -1      7529 2.45363E+00
 -1      7530 2.41195E+00
 -1      7531 2.37372E+00
 -1      7532 2.42745E+00
 -1      7533 2.42745E+00
 -1      7534 2.45363E+00
 -1      7535 2.39861E+00
 -1      7536 2.45363E+00
 -1      7537 2.45363E+00
 -1      7538 2.39861E+00
 -1      7539 2.37210E+00
 -1      7540 2.29677E+00
 -1      7541 2.29276E+00
 -1      7542 2.37210E+00
 -1      7543 2.45363E+00
 -1      7544 2.39861E+00
 -1      7545 2.45363E+00
 -1      7546 2.45363E+00
 -1      7547 2.39861E+00
 -1      7548 2.42745E+00
 -1      7549 2.15957E+00
 -1      7550 2.15957E+00
 -1      7551 2.05888E+00
 -1      7552 2.15957E+00
 -1      7553 2.15957E+00
 -1      7554 1.40896E+01
 -1      7555 1.30965E+01
 -1      7556 1.53134E+01
 -1      7557 1.36790E+01
 -1      7558 1.26858E+01
 -1      7559 1.49027E+01
 -1      7560 1.30831E+01
 -1      7561 1.24175E+01
 -1      7562 1.45683E+01
 -1      7563 1.30831E+01
 -1      7564 1.26858E+01
 -1      7565 1.49027E+01
 -1      7566 1.36790E+01
 -1      7567 1.30965E+01
 -1      7568 1.53134E+01
 -1      7569 1.40896E+01
 -1      7570 2.18054E+01
 -1      7571 1.79475E+01
 -1      7572 2.86488E+01
 -1      7573 2.15675E+01
 -1      7574 1.72990E+01
 -1      7575 2.84109E+01
 -1      7576 2.12176E+01
 -1      7577 1.70018E+01
 -1      7578 2.82439E+01
 -1      7579 2.12176E+01
 -1      7580 1.72990E+01
 -1      7581 2.84109E+01
 -1      7582 2.15675E+01
 -1      7583 1.79475E+01
 -1      7584 2.86488E+01
 -1      7585 2.18054E+01
 -1      7586 2.18054E+01
 -1      7587 2.18054E+01
 -1      7588 2.86488E+01
 -1      7589 2.15675E+01
 -1      7590 2.13296E+01
 -1      7591 2.84109E+01
 -1      7592 2.12176E+01
 -1      7593 2.11056E+01
 -1      7594 2.82439E+01
 -1      7595 2.12176E+01
 -1      7596 2.13296E+01
 -1      7597 2.84109E+01
 -1      7598 2.15675E+01
 -1      7599 2.18054E+01
 -1      7600 2.86488E+01
 -1      7601 2.18054E+01
 -1      7602 2.51805E+00
 -1      7603 1.21667E+01
 -1      7604 2.57339E+00
 -1      7605 2.52801E+00
 -1      7606 1.19288E+01
 -1      7607 2.58921E+00
 -1      7608 2.51917E+00
 -1      7609 1.18080E+01
 -1      7610 2.58038E+00
 -1      7611 2.51917E+00
 -1      7612 1.19288E+01
 -1      7613 2.58921E+00
 -1      7614 2.52801E+00
 -1      7615 1.21667E+01
 -1      7616 2.57339E+00
 -1      7617 2.51805E+00
 -1      7618 2.05748E+00
 -1      7619 2.30131E+00
 -1      7620 2.55198E+00
 -1      7621 2.08180E+00
 -1      7622 2.30850E+00
 -1      7623 2.56021E+00
 -1      7624 2.08899E+00
 -1      7625 2.29966E+00
 -1      7626 2.56021E+00
 -1      7627 2.08899E+00
 -1      7628 2.30850E+00
 -1      7629 2.56021E+00
 -1      7630 2.08180E+00
 -1      7631 2.30131E+00
 -1      7632 2.55198E+00
 -1      7633 2.05748E+00
 -1      7634 2.30125E+00
 -1      7635 2.19441E+00
 -1      7636 2.69837E+00
 -1      7637 2.31966E+00
 -1      7638 2.20705E+00
 -1      7639 2.70382E+00
 -1      7640 2.32512E+00
 -1      7641 2.20705E+00
 -1      7642 2.70305E+00
 -1      7643 2.32512E+00
 -1      7644 2.20705E+00
 -1      7645 2.70382E+00
 -1      7646 2.31966E+00
 -1      7647 2.19441E+00
 -1      7648 2.69837E+00
 -1      7649 2.30125E+00
 -1      7650 2.48837E+00
 -1      7651 2.40703E+00
 -1      7652 2.79119E+00
 -1      7653 2.50456E+00
 -1      7654 2.41719E+00
 -1      7655 2.79590E+00
 -1      7656 2.50926E+00
 -1      7657 2.41719E+00
 -1      7658 2.79512E+00
 -1      7659 2.50926E+00
 -1      7660 2.41719E+00
 -1      7661 2.79590E+00
 -1      7662 2.50456E+00
 -1      7663 2.40703E+00
 -1      7664 2.79119E+00
 -1      7665 2.48837E+00
 -1      7666 2.66387E+00
 -1      7667 2.58604E+00
 -1      7668 2.86470E+00
 -1      7669 2.67461E+00
 -1      7670 2.59313E+00
 -1      7671 2.86708E+00
 -1      7672 2.67700E+00
 -1      7673 2.59313E+00
 -1      7674 2.86541E+00
 -1      7675 2.67700E+00
 -1      7676 2.59313E+00
 -1      7677 2.86708E+00
 -1      7678 2.67461E+00
 -1      7679 2.58604E+00
 -1      7680 2.86470E+00
 -1      7681 2.66387E+00
 -1      7682 2.91691E+00
 -1      7683 2.79518E+00
 -1      7684 2.97832E+00
 -1      7685 2.91812E+00
 -1      7686 2.79756E+00
 -1      7687 2.97832E+00
 -1      7688 2.91711E+00
 -1      7689 2.79655E+00
 -1      7690 2.97400E+00
 -1      7691 2.91711E+00
 -1      7692 2.79756E+00
 -1      7693 2.97832E+00
 -1      7694 2.91812E+00
 -1      7695 2.79518E+00
 -1      7696 2.97832E+00
 -1      7697 2.91691E+00
 -1      7698 3.45174E+00
 -1      7699 3.18493E+00
 -1      7700 3.27411E+00
 -1      7701 3.44456E+00
 -1      7702 3.17775E+00
 -1      7703 3.25798E+00
 -1      7704 3.43007E+00
 -1      7705 3.16943E+00
 -1      7706 3.24135E+00
 -1      7707 3.43007E+00
 -1      7708 3.17775E+00
 -1      7709 3.25798E+00
 -1      7710 3.44456E+00
 -1      7711 3.18493E+00
 -1      7712 3.27411E+00
 -1      7713 3.45174E+00
 -1      7714 4.02212E+00
 -1      7715 3.73693E+00
 -1      7716 3.61512E+00
 -1      7717 3.95907E+00
 -1      7718 3.66670E+00
 -1      7719 3.53975E+00
 -1      7720 3.84474E+00
 -1      7721 3.60811E+00
 -1      7722 3.47698E+00
 -1      7723 3.84474E+00
 -1      7724 3.66670E+00
 -1      7725 3.53975E+00
 -1      7726 3.95907E+00
 -1      7727 3.73693E+00
 -1      7728 3.61512E+00
 -1      7729 4.02212E+00
 -1      7730 4.06930E+00
 -1      7731 4.04571E+00
 -1      7732 3.63870E+00
 -1      7733 4.00643E+00
 -1      7734 3.91979E+00
 -1      7735 3.56351E+00
 -1      7736 3.89253E+00
 -1      7737 3.81749E+00
 -1      7738 3.50101E+00
 -1      7739 3.89253E+00
 -1      7740 3.91979E+00
 -1      7741 3.56351E+00
 -1      7742 4.00643E+00
 -1      7743 4.04571E+00
 -1      7744 3.63870E+00
 -1      7745 4.06930E+00
 -1      7746 4.06930E+00
 -1      7747 4.06930E+00
 -1      7748 3.63766E+00
 -1      7749 4.00643E+00
 -1      7750 3.94356E+00
 -1      7751 3.56248E+00
 -1      7752 3.89253E+00
 -1      7753 3.84151E+00
 -1      7754 3.50003E+00
 -1      7755 3.89253E+00
 -1      7756 3.94356E+00
 -1      7757 3.56248E+00
 -1      7758 4.00643E+00
 -1      7759 4.06930E+00
 -1      7760 3.63766E+00
 -1      7761 4.06930E+00
 -1      7762 3.48236E+00
 -1      7763 3.77583E+00
 -1      7764 3.28322E+00
 -1      7765 3.47483E+00
 -1      7766 3.70543E+00
 -1      7767 3.26694E+00
 -1      7768 3.45987E+00
 -1      7769 3.64697E+00
 -1      7770 3.25034E+00
 -1      7771 3.45987E+00
 -1      7772 3.70543E+00
 -1      7773 3.26694E+00
 -1      7774 3.47483E+00
 -1      7775 3.77583E+00
 -1      7776 3.28322E+00
 -1      7777 3.48236E+00
 -1      7778 3.00521E+00
 -1      7779 3.24382E+00
 -1      7780 2.98185E+00
 -1      7781 3.00528E+00
 -1      7782 3.23629E+00
 -1      7783 2.98047E+00
 -1      7784 3.00373E+00
 -1      7785 3.22731E+00
 -1      7786 2.97402E+00
 -1      7787 3.00373E+00
 -1      7788 3.23629E+00
 -1      7789 2.98047E+00
 -1      7790 3.00528E+00
 -1      7791 3.24382E+00
 -1      7792 2.98185E+00
 -1      7793 3.00521E+00
 -1      7794 2.56263E+00
 -1      7795 2.78799E+00
 -1      7796 2.72257E+00
 -1      7797 2.57356E+00
 -1      7798 2.79085E+00
 -1      7799 2.72544E+00
 -1      7800 2.57642E+00
 -1      7801 2.78930E+00
 -1      7802 2.72411E+00
 -1      7803 2.57642E+00
 -1      7804 2.79085E+00
 -1      7805 2.72544E+00
 -1      7806 2.57356E+00
 -1      7807 2.78799E+00
 -1      7808 2.72257E+00
 -1      7809 2.56263E+00
 -1      7810 2.38200E+00
 -1      7811 2.48193E+00
 -1      7812 2.57606E+00
 -1      7813 2.39772E+00
 -1      7814 2.48935E+00
 -1      7815 2.58301E+00
 -1      7816 2.40227E+00
 -1      7817 2.48935E+00
 -1      7818 2.58301E+00
 -1      7819 2.40227E+00
 -1      7820 2.48935E+00
 -1      7821 2.58301E+00
 -1      7822 2.39772E+00
 -1      7823 2.48193E+00
 -1      7824 2.57606E+00
 -1      7825 2.38200E+00
 -1      7826 2.25401E+00
 -1      7827 2.32808E+00
 -1      7828 2.44392E+00
 -1      7829 2.26572E+00
 -1      7830 2.33535E+00
 -1      7831 2.45151E+00
 -1      7832 2.26843E+00
 -1      7833 2.33535E+00
 -1      7834 2.45151E+00
 -1      7835 2.26843E+00
 -1      7836 2.33535E+00
 -1      7837 2.45151E+00
 -1      7838 2.26572E+00
 -1      7839 2.32808E+00
 -1      7840 2.44392E+00
 -1      7841 2.25401E+00
 -1      7842 2.18016E+00
 -1      7843 2.22403E+00
 -1      7844 2.33704E+00
 -1      7845 2.18506E+00
 -1      7846 2.22674E+00
 -1      7847 2.34035E+00
 -1      7848 2.18352E+00
 -1      7849 2.22521E+00
 -1      7850 2.33882E+00
 -1      7851 2.18352E+00
 -1      7852 2.22674E+00
 -1      7853 2.34035E+00
 -1      7854 2.18506E+00
 -1      7855 2.22403E+00
 -1      7856 2.33704E+00
 -1      7857 2.18016E+00
 -1      7858 2.22540E+00
 -1      7859 2.20523E+00
 -1      7860 2.29749E+00
 -1      7861 2.22245E+00
 -1      7862 2.20228E+00
 -1      7863 2.29454E+00
 -1      7864 2.20665E+00
 -1      7865 2.18790E+00
 -1      7866 2.27944E+00
 -1      7867 2.20665E+00
 -1      7868 2.20228E+00
 -1      7869 2.29454E+00
 -1      7870 2.22245E+00
 -1      7871 2.20523E+00
 -1      7872 2.29749E+00
 -1      7873 2.22540E+00
 -1      7874 2.41607E+00
 -1      7875 2.32073E+00
 -1      7876 2.39317E+00
 -1      7877 2.41165E+00
 -1      7878 2.31337E+00
 -1      7879 2.38213E+00
 -1      7880 2.38427E+00
 -1      7881 2.27756E+00
 -1      7882 2.33213E+00
 -1      7883 2.38427E+00
 -1      7884 2.31337E+00
 -1      7885 2.38213E+00
 -1      7886 2.41165E+00
 -1      7887 2.32073E+00
 -1      7888 2.39317E+00
 -1      7889 2.41607E+00
 -1      7890 2.51136E+00
 -1      7891 2.47842E+00
 -1      7892 2.49720E+00
 -1      7893 2.54077E+00
 -1      7894 2.47401E+00
 -1      7895 2.49720E+00
 -1      7896 2.48058E+00
 -1      7897 2.39084E+00
 -1      7898 2.36167E+00
 -1      7899 2.48058E+00
 -1      7900 2.47401E+00
 -1      7901 2.49720E+00
 -1      7902 2.54077E+00
 -1      7903 2.47842E+00
 -1      7904 2.49720E+00
 -1      7905 2.51136E+00
 -1      7906 2.51136E+00
 -1      7907 2.54077E+00
 -1      7908 2.49720E+00
 -1      7909 2.54077E+00
 -1      7910 2.54077E+00
 -1      7911 2.49720E+00
 -1      7912 2.48058E+00
 -1      7913 2.42038E+00
 -1      7914 2.35548E+00
 -1      7915 2.48058E+00
 -1      7916 2.54077E+00
 -1      7917 2.49720E+00
 -1      7918 2.54077E+00
 -1      7919 2.54077E+00
 -1      7920 2.49720E+00
 -1      7921 2.51136E+00
 -1      7922 2.31393E+00
 -1      7923 2.31393E+00
 -1      7924 2.24540E+00
 -1      7925 2.31393E+00
 -1      7926 2.31393E+00
 -1      7927 8.99463E+00
 -1      7928 8.76698E+00
 -1      7929 1.15421E+01
 -1      7930 8.76684E+00
 -1      7931 8.42186E+00
 -1      7932 1.09037E+01
 -1      7933 8.35994E+00
 -1      7934 8.18083E+00
 -1      7935 1.05394E+01
 -1      7936 8.35994E+00
 -1      7937 8.42186E+00
 -1      7938 1.09037E+01
 -1      7939 8.76684E+00
 -1      7940 8.76698E+00
 -1      7941 1.15421E+01
 -1      7942 8.99463E+00
 -1      7943 9.75582E+00
 -1      7944 9.37523E+00
 -1      7945 1.57806E+01
 -1      7946 9.72648E+00
 -1      7947 9.11809E+00
 -1      7948 1.55134E+01
 -1      7949 9.51839E+00
 -1      7950 8.76024E+00
 -1      7951 1.52226E+01
 -1      7952 9.51839E+00
 -1      7953 9.11809E+00
 -1      7954 1.55134E+01
 -1      7955 9.72648E+00
 -1      7956 9.37523E+00
 -1      7957 1.57806E+01
 -1      7958 9.75582E+00
 -1      7959 9.75582E+00
 -1      7960 9.75582E+00
 -1      7961 1.57806E+01
 -1      7962 9.72648E+00
 -1      7963 9.69714E+00
 -1      7964 1.55134E+01
 -1      7965 9.51839E+00
 -1      7966 9.33965E+00
 -1      7967 1.52226E+01
 -1      7968 9.51839E+00
 -1      7969 9.69714E+00
 -1      7970 1.55134E+01
 -1      7971 9.72648E+00
 -1      7972 9.75582E+00
 -1      7973 1.57806E+01
 -1      7974 9.75582E+00
 -1      7975 2.84353E+00
 -1      7976 6.29967E+00
 -1      7977 2.68577E+00
 -1      7978 2.84125E+00
 -1      7979 6.26806E+00
 -1      7980 2.68349E+00
 -1      7981 2.82600E+00
 -1      7982 6.07634E+00
 -1      7983 2.66168E+00
 -1      7984 2.82600E+00
 -1      7985 6.26806E+00
 -1      7986 2.68349E+00
 -1      7987 2.84125E+00
 -1      7988 6.29967E+00
 -1      7989 2.68577E+00
 -1      7990 2.84353E+00
 -1      7991 1.87005E+00
 -1      7992 2.35679E+00
 -1      7993 1.97233E+00
 -1      7994 1.86870E+00
 -1      7995 2.35316E+00
 -1      7996 1.97817E+00
 -1      7997 1.85882E+00
 -1      7998 2.33166E+00
 -1      7999 1.96964E+00
 -1      8000 1.85882E+00
 -1      8001 2.35316E+00
 -1      8002 1.97817E+00
 -1      8003 1.86870E+00
 -1      8004 2.35679E+00
 -1      8005 1.97233E+00
 -1      8006 1.87005E+00
 -1      8007 1.69160E+00
 -1      8008 1.78462E+00
 -1      8009 2.00669E+00
 -1      8010 1.70070E+00
 -1      8011 1.78478E+00
 -1      8012 2.01367E+00
 -1      8013 1.70221E+00
 -1      8014 1.77625E+00
 -1      8015 2.01367E+00
 -1      8016 1.70221E+00
 -1      8017 1.78478E+00
 -1      8018 2.01367E+00
 -1      8019 1.70070E+00
 -1      8020 1.78462E+00
 -1      8021 2.00669E+00
 -1      8022 1.69160E+00
 -1      8023 2.01650E+00
 -1      8024 1.85784E+00
 -1      8025 2.25817E+00
 -1      8026 2.01261E+00
 -1      8027 1.85547E+00
 -1      8028 2.25899E+00
 -1      8029 2.00351E+00
 -1      8030 1.85026E+00
 -1      8031 2.25378E+00
 -1      8032 2.00351E+00
 -1      8033 1.85547E+00
 -1      8034 2.25899E+00
 -1      8035 2.01261E+00
 -1      8036 1.85784E+00
 -1      8037 2.25817E+00
 -1      8038 2.01650E+00
 -1      8039 2.42353E+00
 -1      8040 2.22011E+00
 -1      8041 2.54797E+00
 -1      8042 2.42372E+00
 -1      8043 2.21622E+00
 -1      8044 2.55036E+00
 -1      8045 2.42137E+00
 -1      8046 2.20866E+00
 -1      8047 2.54801E+00
 -1      8048 2.42137E+00
 -1      8049 2.21622E+00
 -1      8050 2.55036E+00
 -1      8051 2.42372E+00
 -1      8052 2.22011E+00
 -1      8053 2.54797E+00
 -1      8054 2.42353E+00
 -1      8055 2.91691E+00
 -1      8056 2.67092E+00
 -1      8057 2.91812E+00
 -1      8058 2.91812E+00
 -1      8059 2.67092E+00
 -1      8060 2.91812E+00
 -1      8061 2.91711E+00
 -1      8062 2.66756E+00
 -1      8063 2.91610E+00
 -1      8064 2.91711E+00
 -1      8065 2.67092E+00
 -1      8066 2.91812E+00
 -1      8067 2.91812E+00
 -1      8068 2.67092E+00
 -1      8069 2.91812E+00
 -1      8070 2.91691E+00
 -1      8071 3.45174E+00
 -1      8072 3.18493E+00
 -1      8073 3.45174E+00
 -1      8074 3.44456E+00
 -1      8075 3.17775E+00
 -1      8076 3.43737E+00
 -1      8077 3.43007E+00
 -1      8078 3.16943E+00
 -1      8079 3.42276E+00
 -1      8080 3.43007E+00
 -1      8081 3.17775E+00
 -1      8082 3.43737E+00
 -1      8083 3.44456E+00
 -1      8084 3.18493E+00
 -1      8085 3.45174E+00
 -1      8086 3.45174E+00
 -1      8087 4.09985E+00
 -1      8088 3.81466E+00
 -1      8089 4.09985E+00
 -1      8090 4.25530E+00
 -1      8091 3.88520E+00
 -1      8092 4.11452E+00
 -1      8093 4.33302E+00
 -1      8094 3.87789E+00
 -1      8095 4.06324E+00
 -1      8096 4.33302E+00
 -1      8097 3.88520E+00
 -1      8098 4.11452E+00
 -1      8099 4.25530E+00
 -1      8100 3.81466E+00
 -1      8101 4.09985E+00
 -1      8102 4.09985E+00
 -1      8103 4.19606E+00
 -1      8104 4.25019E+00
 -1      8105 4.19606E+00
 -1      8106 4.40113E+00
 -1      8107 4.40624E+00
 -1      8108 4.21151E+00
 -1      8109 4.47946E+00
 -1      8110 4.40624E+00
 -1      8111 4.16048E+00
 -1      8112 4.47946E+00
 -1      8113 4.40624E+00
 -1      8114 4.21151E+00
 -1      8115 4.40113E+00
 -1      8116 4.25019E+00
 -1      8117 4.19606E+00
 -1      8118 4.19606E+00
 -1      8119 4.19606E+00
 -1      8120 4.32281E+00
 -1      8121 4.19606E+00
 -1      8122 4.40113E+00
 -1      8123 4.47946E+00
 -1      8124 4.21151E+00
 -1      8125 4.47946E+00
 -1      8126 4.47946E+00
 -1      8127 4.16048E+00
 -1      8128 4.47946E+00
 -1      8129 4.47946E+00
 -1      8130 4.21151E+00
 -1      8131 4.40113E+00
 -1      8132 4.32281E+00
 -1      8133 4.19606E+00
 -1      8134 4.19606E+00
 -1      8135 3.48236E+00
 -1      8136 3.90259E+00
 -1      8137 3.48236E+00
 -1      8138 3.47483E+00
 -1      8139 3.97338E+00
 -1      8140 3.46730E+00
 -1      8141 3.45987E+00
 -1      8142 3.96595E+00
 -1      8143 3.45243E+00
 -1      8144 3.45987E+00
 -1      8145 3.97338E+00
 -1      8146 3.46730E+00
 -1      8147 3.47483E+00
 -1      8148 3.90259E+00
 -1      8149 3.48236E+00
 -1      8150 3.48236E+00
 -1      8151 3.00521E+00
 -1      8152 3.24382E+00
 -1      8153 3.00528E+00
 -1      8154 3.00528E+00
 -1      8155 3.23629E+00
 -1      8156 3.00528E+00
 -1      8157 3.00373E+00
 -1      8158 3.22731E+00
 -1      8159 3.00218E+00
 -1      8160 3.00373E+00
 -1      8161 3.23629E+00
 -1      8162 3.00528E+00
 -1      8163 3.00528E+00
 -1      8164 3.24382E+00
 -1      8165 3.00528E+00
 -1      8166 3.00521E+00
 -1      8167 2.61427E+00
 -1      8168 2.80998E+00
 -1      8169 2.59269E+00
 -1      8170 2.61468E+00
 -1      8171 2.80998E+00
 -1      8172 2.59555E+00
 -1      8173 2.61294E+00
 -1      8174 2.80669E+00
 -1      8175 2.59381E+00
 -1      8176 2.61294E+00
 -1      8177 2.80998E+00
 -1      8178 2.59555E+00
 -1      8179 2.61468E+00
 -1      8180 2.80998E+00
 -1      8181 2.59269E+00
 -1      8182 2.61427E+00
 -1      8183 2.28509E+00
 -1      8184 2.44989E+00
 -1      8185 2.33913E+00
 -1      8186 2.28148E+00
 -1      8187 2.44627E+00
 -1      8188 2.34007E+00
 -1      8189 2.27364E+00
 -1      8190 2.44031E+00
 -1      8191 2.33585E+00
 -1      8192 2.27364E+00
 -1      8193 2.44627E+00
 -1      8194 2.34007E+00
 -1      8195 2.28148E+00
 -1      8196 2.44989E+00
 -1      8197 2.33913E+00
 -1      8198 2.28509E+00
 -1      8199 2.00392E+00
 -1      8200 2.14467E+00
 -1      8201 2.13362E+00
 -1      8202 2.00425E+00
 -1      8203 2.14106E+00
 -1      8204 2.13634E+00
 -1      8205 2.00056E+00
 -1      8206 2.13314E+00
 -1      8207 2.13265E+00
 -1      8208 2.00056E+00
 -1      8209 2.14106E+00
 -1      8210 2.13634E+00
 -1      8211 2.00425E+00
 -1      8212 2.14467E+00
 -1      8213 2.13362E+00
 -1      8214 2.00392E+00
 -1      8215 2.07274E+00
 -1      8216 2.03849E+00
 -1      8217 2.12890E+00
 -1      8218 2.07050E+00
 -1      8219 2.03626E+00
 -1      8220 2.12666E+00
 -1      8221 2.05917E+00
 -1      8222 2.02346E+00
 -1      8223 2.11603E+00
 -1      8224 2.05917E+00
 -1      8225 2.03626E+00
 -1      8226 2.12666E+00
 -1      8227 2.07050E+00
 -1      8228 2.03849E+00
 -1      8229 2.12890E+00
 -1      8230 2.07274E+00
 -1      8231 2.21288E+00
 -1      8232 2.14281E+00
 -1      8233 2.21914E+00
 -1      8234 2.20829E+00
 -1      8235 2.13598E+00
 -1      8236 2.21160E+00
 -1      8237 2.19028E+00
 -1      8238 2.11346E+00
 -1      8239 2.18533E+00
 -1      8240 2.19028E+00
 -1      8241 2.13598E+00
 -1      8242 2.21160E+00
 -1      8243 2.20829E+00
 -1      8244 2.14281E+00
 -1      8245 2.21914E+00
 -1      8246 2.21288E+00
 -1      8247 2.43466E+00
 -1      8248 2.32377E+00
 -1      8249 2.42536E+00
 -1      8250 2.43045E+00
 -1      8251 2.31497E+00
 -1      8252 2.41674E+00
 -1      8253 2.40770E+00
 -1      8254 2.28301E+00
 -1      8255 2.37523E+00
 -1      8256 2.40770E+00
 -1      8257 2.31497E+00
 -1      8258 2.41674E+00
 -1      8259 2.43045E+00
 -1      8260 2.32377E+00
 -1      8261 2.42536E+00
 -1      8262 2.43466E+00
 -1      8263 2.57895E+00
 -1      8264 2.51741E+00
 -1      8265 2.57046E+00
 -1      8266 2.60015E+00
 -1      8267 2.51320E+00
 -1      8268 2.57046E+00
 -1      8269 2.56243E+00
 -1      8270 2.45693E+00
 -1      8271 2.47254E+00
 -1      8272 2.56243E+00
 -1      8273 2.51320E+00
 -1      8274 2.57046E+00
 -1      8275 2.60015E+00
 -1      8276 2.51741E+00
 -1      8277 2.57046E+00
 -1      8278 2.57895E+00
 -1      8279 2.57895E+00
 -1      8280 2.60015E+00
 -1      8281 2.57046E+00
 -1      8282 2.60015E+00
 -1      8283 2.60015E+00
 -1      8284 2.57046E+00
 -1      8285 2.56243E+00
 -1      8286 2.52470E+00
 -1      8287 2.47254E+00
 -1      8288 2.56243E+00
 -1      8289 2.60015E+00
 -1      8290 2.57046E+00
 -1      8291 2.60015E+00
 -1      8292 2.60015E+00
 -1      8293 2.57046E+00
 -1      8294 2.57895E+00
 -1      8295 2.47807E+00
 -1      8296 2.47807E+00
 -1      8297 2.43691E+00
 -1      8298 2.47807E+00
 -1      8299 2.47807E+00
 -1      8300 5.32208E+00
 -1      8301 5.31697E+00
 -1      8302 7.15836E+00
 -1      8303 5.17409E+00
 -1      8304 5.02610E+00
 -1      8305 6.78257E+00
 -1      8306 4.89921E+00
 -1      8307 4.77233E+00
 -1      8308 6.47658E+00
 -1      8309 4.89921E+00
 -1      8310 5.02610E+00
 -1      8311 6.78257E+00
 -1      8312 5.17409E+00
 -1      8313 5.31697E+00
 -1      8314 7.15836E+00
 -1      8315 5.32208E+00
 -1      8316 6.25373E+00
 -1      8317 5.78791E+00
 -1      8318 8.00478E+00
 -1      8319 6.07437E+00
 -1      8320 5.46055E+00
 -1      8321 7.79607E+00
 -1      8322 5.73592E+00
 -1      8323 5.17458E+00
 -1      8324 7.45824E+00
 -1      8325 5.73592E+00
 -1      8326 5.46055E+00
 -1      8327 7.79607E+00
 -1      8328 6.07437E+00
 -1      8329 5.78791E+00
 -1      8330 8.00478E+00
 -1      8331 6.25373E+00
 -1      8332 6.25373E+00
 -1      8333 6.25373E+00
 -1      8334 8.00478E+00
 -1      8335 6.07437E+00
 -1      8336 5.89501E+00
 -1      8337 7.79607E+00
 -1      8338 5.73592E+00
 -1      8339 5.57684E+00
 -1      8340 7.45824E+00
 -1      8341 5.73592E+00
 -1      8342 5.89501E+00
 -1      8343 7.79607E+00
 -1      8344 6.07437E+00
 -1      8345 6.25373E+00
 -1      8346 8.00478E+00
 -1      8347 6.25373E+00
 -1      8348 3.10756E+00
 -1      8349 4.68065E+00
 -1      8350 2.97554E+00
 -1      8351 3.10153E+00
 -1      8352 4.49525E+00
 -1      8353 2.96723E+00
 -1      8354 3.08086E+00
 -1      8355 4.32153E+00
 -1      8356 2.93963E+00
 -1      8357 3.08086E+00
 -1      8358 4.49525E+00
 -1      8359 2.96723E+00
 -1      8360 3.10153E+00
 -1      8361 4.68065E+00
 -1      8362 2.97554E+00
 -1      8363 3.10756E+00
 -1      8364 2.05328E+00
 -1      8365 2.58042E+00
 -1      8366 1.96166E+00
 -1      8367 2.04780E+00
 -1      8368 2.56891E+00
 -1      8369 1.95483E+00
 -1      8370 2.03136E+00
 -1      8371 2.54331E+00
 -1      8372 1.93535E+00
 -1      8373 2.03136E+00
 -1      8374 2.56891E+00
 -1      8375 1.95483E+00
 -1      8376 2.04780E+00
 -1      8377 2.58042E+00
 -1      8378 1.96166E+00
 -1      8379 2.05328E+00
 -1      8380 1.85222E+00
 -1      8381 1.95275E+00
 -1      8382 1.77570E+00
 -1      8383 1.84129E+00
 -1      8384 1.93634E+00
 -1      8385 1.76629E+00
 -1      8386 1.81957E+00
 -1      8387 1.91459E+00
 -1      8388 1.75550E+00
 -1      8389 1.81957E+00
 -1      8390 1.93634E+00
 -1      8391 1.76629E+00
 -1      8392 1.84129E+00
 -1      8393 1.95275E+00
 -1      8394 1.77570E+00
 -1      8395 1.85222E+00
 -1      8396 2.16200E+00
 -1      8397 2.00711E+00
 -1      8398 2.08925E+00
 -1      8399 2.15493E+00
 -1      8400 1.98911E+00
 -1      8401 2.07829E+00
 -1      8402 2.13973E+00
 -1      8403 1.97019E+00
 -1      8404 2.06495E+00
 -1      8405 2.13973E+00
 -1      8406 1.98911E+00
 -1      8407 2.07829E+00
 -1      8408 2.15493E+00
 -1      8409 2.00711E+00
 -1      8410 2.08925E+00
 -1      8411 2.16200E+00
 -1      8412 2.42353E+00
 -1      8413 2.29286E+00
 -1      8414 2.42372E+00
 -1      8415 2.42372E+00
 -1      8416 2.28579E+00
 -1      8417 2.42372E+00
 -1      8418 2.42137E+00
 -1      8419 2.27531E+00
 -1      8420 2.41902E+00
 -1      8421 2.42137E+00
 -1      8422 2.28579E+00
 -1      8423 2.42372E+00
 -1      8424 2.42372E+00
 -1      8425 2.29286E+00
 -1      8426 2.42372E+00
 -1      8427 2.42353E+00
 -1      8428 2.84533E+00
 -1      8429 2.63740E+00
 -1      8430 2.88461E+00
 -1      8431 2.85233E+00
 -1      8432 2.63864E+00
 -1      8433 2.88584E+00
 -1      8434 2.85356E+00
 -1      8435 2.63629E+00
 -1      8436 2.88483E+00
 -1      8437 2.85356E+00
 -1      8438 2.63864E+00
 -1      8439 2.88584E+00
 -1      8440 2.85233E+00
 -1      8441 2.63740E+00
 -1      8442 2.88461E+00
 -1      8443 2.84533E+00
 -1      8444 3.30073E+00
 -1      8445 3.08426E+00
 -1      8446 3.38458E+00
 -1      8447 3.32430E+00
 -1      8448 3.09237E+00
 -1      8449 3.38427E+00
 -1      8450 3.33118E+00
 -1      8451 3.09237E+00
 -1      8452 3.37697E+00
 -1      8453 3.33118E+00
 -1      8454 3.09237E+00
 -1      8455 3.38427E+00
 -1      8456 3.32430E+00
 -1      8457 3.08426E+00
 -1      8458 3.38458E+00
 -1      8459 3.30073E+00
 -1      8460 3.98896E+00
 -1      8461 3.74750E+00
 -1      8462 4.17758E+00
 -1      8463 4.25530E+00
 -1      8464 3.83210E+00
 -1      8465 4.33302E+00
 -1      8466 4.33302E+00
 -1      8467 3.83210E+00
 -1      8468 4.33302E+00
 -1      8469 4.33302E+00
 -1      8470 3.83210E+00
 -1      8471 4.33302E+00
 -1      8472 4.25530E+00
 -1      8473 3.74750E+00
 -1      8474 4.17758E+00
 -1      8475 3.98896E+00
 -1      8476 4.13273E+00
 -1      8477 4.25019E+00
 -1      8478 4.32281E+00
 -1      8479 4.40113E+00
 -1      8480 4.40624E+00
 -1      8481 4.47946E+00
 -1      8482 4.47946E+00
 -1      8483 4.40624E+00
 -1      8484 4.47946E+00
 -1      8485 4.47946E+00
 -1      8486 4.40624E+00
 -1      8487 4.47946E+00
 -1      8488 4.40113E+00
 -1      8489 4.25019E+00
 -1      8490 4.32281E+00
 -1      8491 4.13273E+00
 -1      8492 4.13273E+00
 -1      8493 4.32281E+00
 -1      8494 4.32281E+00
 -1      8495 4.40113E+00
 -1      8496 4.47946E+00
 -1      8497 4.47946E+00
 -1      8498 4.47946E+00
 -1      8499 4.47946E+00
 -1      8500 4.47946E+00
 -1      8501 4.47946E+00
 -1      8502 4.47946E+00
 -1      8503 4.47946E+00
 -1      8504 4.40113E+00
 -1      8505 4.32281E+00
 -1      8506 4.32281E+00
 -1      8507 4.13273E+00
 -1      8508 3.38739E+00
 -1      8509 3.86341E+00
 -1      8510 3.44318E+00
 -1      8511 3.41087E+00
 -1      8512 3.94860E+00
 -1      8513 3.44252E+00
 -1      8514 3.41773E+00
 -1      8515 3.94860E+00
 -1      8516 3.43508E+00
 -1      8517 3.41773E+00
 -1      8518 3.94860E+00
 -1      8519 3.44252E+00
 -1      8520 3.41087E+00
 -1      8521 3.86341E+00
 -1      8522 3.44318E+00
 -1      8523 3.38739E+00
 -1      8524 2.97498E+00
 -1      8525 3.19253E+00
 -1      8526 2.99317E+00
 -1      8527 2.98281E+00
 -1      8528 3.20114E+00
 -1      8529 2.99491E+00
 -1      8530 2.98455E+00
 -1      8531 3.20114E+00
 -1      8532 2.99336E+00
 -1      8533 2.98455E+00
 -1      8534 3.20114E+00
 -1      8535 2.99491E+00
 -1      8536 2.98281E+00
 -1      8537 3.19253E+00
 -1      8538 2.99317E+00
 -1      8539 2.97498E+00
 -1      8540 2.61427E+00
 -1      8541 2.79787E+00
 -1      8542 2.61468E+00
 -1      8543 2.61468E+00
 -1      8544 2.79961E+00
 -1      8545 2.61468E+00
 -1      8546 2.61294E+00
 -1      8547 2.79788E+00
 -1      8548 2.61120E+00
 -1      8549 2.61294E+00
 -1      8550 2.79961E+00
 -1      8551 2.61468E+00
 -1      8552 2.61468E+00
 -1      8553 2.79787E+00
 -1      8554 2.61468E+00
 -1      8555 2.61427E+00
 -1      8556 2.31887E+00
 -1      8557 2.46678E+00
 -1      8558 2.30198E+00
 -1      8559 2.31363E+00
 -1      8560 2.46153E+00
 -1      8561 2.29313E+00
 -1      8562 2.30201E+00
 -1      8563 2.45341E+00
 -1      8564 2.28253E+00
 -1      8565 2.30201E+00
 -1      8566 2.46153E+00
 -1      8567 2.29313E+00
 -1      8568 2.31363E+00
 -1      8569 2.46678E+00
 -1      8570 2.30198E+00
 -1      8571 2.31887E+00
 -1      8572 2.09730E+00
 -1      8573 2.20809E+00
 -1      8574 2.05077E+00
 -1      8575 2.08982E+00
 -1      8576 2.19536E+00
 -1      8577 2.04329E+00
 -1      8578 2.07487E+00
 -1      8579 2.18152E+00
 -1      8580 2.03214E+00
 -1      8581 2.07487E+00
 -1      8582 2.19536E+00
 -1      8583 2.04329E+00
 -1      8584 2.08982E+00
 -1      8585 2.20809E+00
 -1      8586 2.05077E+00
 -1      8587 2.09730E+00
 -1      8588 2.03516E+00
 -1      8589 2.06623E+00
 -1      8590 2.05395E+00
 -1      8591 2.03056E+00
 -1      8592 2.05414E+00
 -1      8593 2.04711E+00
 -1      8594 2.01599E+00
 -1      8595 2.03671E+00
 -1      8596 2.02804E+00
 -1      8597 2.01599E+00
 -1      8598 2.05414E+00
 -1      8599 2.04711E+00
 -1      8600 2.03056E+00
 -1      8601 2.06623E+00
 -1      8602 2.05395E+00
 -1      8603 2.03516E+00
 -1      8604 2.20655E+00
 -1      8605 2.12086E+00
 -1      8606 2.20972E+00
 -1      8607 2.20082E+00
 -1      8608 2.11052E+00
 -1      8609 2.19939E+00
 -1      8610 2.18232E+00
 -1      8611 2.08779E+00
 -1      8612 2.17321E+00
 -1      8613 2.18232E+00
 -1      8614 2.11052E+00
 -1      8615 2.19939E+00
 -1      8616 2.20082E+00
 -1      8617 2.12086E+00
 -1      8618 2.20972E+00
 -1      8619 2.20655E+00
 -1      8620 2.43466E+00
 -1      8621 2.32061E+00
 -1      8622 2.43466E+00
 -1      8623 2.43045E+00
 -1      8624 2.31067E+00
 -1      8625 2.42625E+00
 -1      8626 2.40929E+00
 -1      8627 2.28094E+00
 -1      8628 2.39074E+00
 -1      8629 2.40929E+00
 -1      8630 2.31067E+00
 -1      8631 2.42625E+00
 -1      8632 2.43045E+00
 -1      8633 2.32061E+00
 -1      8634 2.43466E+00
 -1      8635 2.43466E+00
 -1      8636 2.64519E+00
 -1      8637 2.54254E+00
 -1      8638 2.62529E+00
 -1      8639 2.65043E+00
 -1      8640 2.53834E+00
 -1      8641 2.62529E+00
 -1      8642 2.63837E+00
 -1      8643 2.50932E+00
 -1      8644 2.57551E+00
 -1      8645 2.63837E+00
 -1      8646 2.53834E+00
 -1      8647 2.62529E+00
 -1      8648 2.65043E+00
 -1      8649 2.54254E+00
 -1      8650 2.62529E+00
 -1      8651 2.64519E+00
 -1      8652 2.66934E+00
 -1      8653 2.67458E+00
 -1      8654 2.64944E+00
 -1      8655 2.69873E+00
 -1      8656 2.67458E+00
 -1      8657 2.64944E+00
 -1      8658 2.69613E+00
 -1      8659 2.65992E+00
 -1      8660 2.60912E+00
 -1      8661 2.69613E+00
 -1      8662 2.67458E+00
 -1      8663 2.64944E+00
 -1      8664 2.69873E+00
 -1      8665 2.67458E+00
 -1      8666 2.64944E+00
 -1      8667 2.66934E+00
 -1      8668 2.69873E+00
 -1      8669 2.69873E+00
 -1      8670 2.69353E+00
 -1      8671 2.69873E+00
 -1      8672 2.69873E+00
 -1      8673 7.88714E+00
 -1      8674 7.88714E+00
 -1      8675 6.60461E+00
 -1      8676 7.82171E+00
 -1      8677 7.75627E+00
 -1      8678 6.39118E+00
 -1      8679 7.62941E+00
 -1      8680 7.50254E+00
 -1      8681 6.13744E+00
 -1      8682 7.62941E+00
 -1      8683 7.75627E+00
 -1      8684 6.39118E+00
 -1      8685 7.82171E+00
 -1      8686 7.88714E+00
 -1      8687 6.60461E+00
 -1      8688 7.88714E+00
 -1      8689 3.52397E+00
 -1      8690 5.70555E+00
 -1      8691 4.88885E+00
 -1      8692 3.48516E+00
 -1      8693 5.60131E+00
 -1      8694 4.67068E+00
 -1      8695 3.40870E+00
 -1      8696 5.43680E+00
 -1      8697 4.47394E+00
 -1      8698 3.40870E+00
 -1      8699 5.60131E+00
 -1      8700 4.67068E+00
 -1      8701 3.48516E+00
 -1      8702 5.70555E+00
 -1      8703 4.88885E+00
 -1      8704 3.52397E+00
 -1      8705 3.52397E+00
 -1      8706 3.52397E+00
 -1      8707 4.88885E+00
 -1      8708 3.48516E+00
 -1      8709 3.44635E+00
 -1      8710 4.67068E+00
 -1      8711 3.40870E+00
 -1      8712 3.37105E+00
 -1      8713 4.47394E+00
 -1      8714 3.40870E+00
 -1      8715 3.44635E+00
 -1      8716 4.67068E+00
 -1      8717 3.48516E+00
 -1      8718 3.52397E+00
 -1      8719 4.88885E+00
 -1      8720 3.52397E+00
 -1      8721 3.34179E+00
 -1      8722 3.43288E+00
 -1      8723 3.22467E+00
 -1      8724 3.33347E+00
 -1      8725 3.38576E+00
 -1      8726 3.21033E+00
 -1      8727 3.31041E+00
 -1      8728 3.33336E+00
 -1      8729 3.18095E+00
 -1      8730 3.31041E+00
 -1      8731 3.38576E+00
 -1      8732 3.21033E+00
 -1      8733 3.33347E+00
 -1      8734 3.43288E+00
 -1      8735 3.22467E+00
 -1      8736 3.34179E+00
 -1      8737 2.25209E+00
 -1      8738 2.79694E+00
 -1      8739 2.15268E+00
 -1      8740 2.24431E+00
 -1      8741 2.78084E+00
 -1      8742 2.13942E+00
 -1      8743 2.22455E+00
 -1      8744 2.75412E+00
 -1      8745 2.11648E+00
 -1      8746 2.22455E+00
 -1      8747 2.78084E+00
 -1      8748 2.13942E+00
 -1      8749 2.24431E+00
 -1      8750 2.79694E+00
 -1      8751 2.15268E+00
 -1      8752 2.25209E+00
 -1      8753 2.07564E+00
 -1      8754 2.16386E+00
 -1      8755 1.96393E+00
 -1      8756 2.06359E+00
 -1      8757 2.14403E+00
 -1      8758 1.94095E+00
 -1      8759 2.03969E+00
 -1      8760 2.12020E+00
 -1      8761 1.91831E+00
 -1      8762 2.03969E+00
 -1      8763 2.14403E+00
 -1      8764 1.94095E+00
 -1      8765 2.06359E+00
 -1      8766 2.16386E+00
 -1      8767 1.96393E+00
 -1      8768 2.07564E+00
 -1      8769 2.28669E+00
 -1      8770 2.18117E+00
 -1      8771 2.22434E+00
 -1      8772 2.27759E+00
 -1      8773 2.16001E+00
 -1      8774 2.20817E+00
 -1      8775 2.25866E+00
 -1      8776 2.13834E+00
 -1      8777 2.19022E+00
 -1      8778 2.25866E+00
 -1      8779 2.16001E+00
 -1      8780 2.20817E+00
 -1      8781 2.27759E+00
 -1      8782 2.18117E+00
 -1      8783 2.22434E+00
 -1      8784 2.28669E+00
 -1      8785 2.39761E+00
 -1      8786 2.34215E+00
 -1      8787 2.41066E+00
 -1      8788 2.39354E+00
 -1      8789 2.32898E+00
 -1      8790 2.40660E+00
 -1      8791 2.38320E+00
 -1      8792 2.31288E+00
 -1      8793 2.39797E+00
 -1      8794 2.38320E+00
 -1      8795 2.32898E+00
 -1      8796 2.40660E+00
 -1      8797 2.39354E+00
 -1      8798 2.34215E+00
 -1      8799 2.41066E+00
 -1      8800 2.39761E+00
 -1      8801 2.51450E+00
 -1      8802 2.45605E+00
 -1      8803 2.68280E+00
 -1      8804 2.51343E+00
 -1      8805 2.45092E+00
 -1      8806 2.68296E+00
 -1      8807 2.50758E+00
 -1      8808 2.43986E+00
 -1      8809 2.67818E+00
 -1      8810 2.50758E+00
 -1      8811 2.45092E+00
 -1      8812 2.68296E+00
 -1      8813 2.51343E+00
 -1      8814 2.45605E+00
 -1      8815 2.68280E+00
 -1      8816 2.51450E+00
 -1      8817 2.51450E+00
 -1      8818 2.51450E+00
 -1      8819 2.91596E+00
 -1      8820 2.51343E+00
 -1      8821 2.51236E+00
 -1      8822 2.92177E+00
 -1      8823 2.50758E+00
 -1      8824 2.50280E+00
 -1      8825 2.91699E+00
 -1      8826 2.50758E+00
 -1      8827 2.51236E+00
 -1      8828 2.92177E+00
 -1      8829 2.51343E+00
 -1      8830 2.51450E+00
 -1      8831 2.91596E+00
 -1      8832 2.51450E+00
 -1      8833 2.37030E+00
 -1      8834 2.44305E+00
 -1      8835 3.27458E+00
 -1      8836 2.37159E+00
 -1      8837 2.44198E+00
 -1      8838 3.35231E+00
 -1      8839 2.36749E+00
 -1      8840 2.43310E+00
 -1      8841 3.34821E+00
 -1      8842 2.36749E+00
 -1      8843 2.44198E+00
 -1      8844 3.35231E+00
 -1      8845 2.37159E+00
 -1      8846 2.44305E+00
 -1      8847 3.27458E+00
 -1      8848 2.37030E+00
 -1      8849 1.65937E+00
 -1      8850 2.01548E+00
 -1      8851 2.99109E+00
 -1      8852 1.65448E+00
 -1      8853 2.01059E+00
 -1      8854 3.06453E+00
 -1      8855 1.64100E+00
 -1      8856 1.99790E+00
 -1      8857 3.05593E+00
 -1      8858 1.64100E+00
 -1      8859 2.01059E+00
 -1      8860 3.06453E+00
 -1      8861 1.65448E+00
 -1      8862 2.01548E+00
 -1      8863 2.99109E+00
 -1      8864 1.65937E+00
 -1      8865 2.34216E+00
 -1      8866 2.00189E+00
 -1      8867 3.33361E+00
 -1      8868 2.34441E+00
 -1      8869 1.99700E+00
 -1      8870 3.41193E+00
 -1      8871 2.34090E+00
 -1      8872 1.98490E+00
 -1      8873 3.40842E+00
 -1      8874 2.34090E+00
 -1      8875 1.99700E+00
 -1      8876 3.41193E+00
 -1      8877 2.34441E+00
 -1      8878 2.00189E+00
 -1      8879 3.33361E+00
 -1      8880 2.34216E+00
 -1      8881 2.54506E+00
 -1      8882 2.44479E+00
 -1      8883 2.97459E+00
 -1      8884 2.54517E+00
 -1      8885 2.44479E+00
 -1      8886 2.98145E+00
 -1      8887 2.54121E+00
 -1      8888 2.43732E+00
 -1      8889 2.97750E+00
 -1      8890 2.54121E+00
 -1      8891 2.44479E+00
 -1      8892 2.98145E+00
 -1      8893 2.54517E+00
 -1      8894 2.44479E+00
 -1      8895 2.97459E+00
 -1      8896 2.54506E+00
 -1      8897 2.54506E+00
 -1      8898 2.54517E+00
 -1      8899 2.76312E+00
 -1      8900 2.54517E+00
 -1      8901 2.54517E+00
 -1      8902 2.76486E+00
 -1      8903 2.54121E+00
 -1      8904 2.53726E+00
 -1      8905 2.76090E+00
 -1      8906 2.54121E+00
 -1      8907 2.54517E+00
 -1      8908 2.76486E+00
 -1      8909 2.54517E+00
 -1      8910 2.54517E+00
 -1      8911 2.76312E+00
 -1      8912 2.54506E+00
 -1      8913 2.48580E+00
 -1      8914 2.51548E+00
 -1      8915 2.55024E+00
 -1      8916 2.48304E+00
 -1      8917 2.51273E+00
 -1      8918 2.54749E+00
 -1      8919 2.47511E+00
 -1      8920 2.50360E+00
 -1      8921 2.54057E+00
 -1      8922 2.47511E+00
 -1      8923 2.51273E+00
 -1      8924 2.54749E+00
 -1      8925 2.48304E+00
 -1      8926 2.51548E+00
 -1      8927 2.55024E+00
 -1      8928 2.48580E+00
 -1      8929 2.31887E+00
 -1      8930 2.40233E+00
 -1      8931 2.31887E+00
 -1      8932 2.31363E+00
 -1      8933 2.39434E+00
 -1      8934 2.30839E+00
 -1      8935 2.30201E+00
 -1      8936 2.38278E+00
 -1      8937 2.29563E+00
 -1      8938 2.30201E+00
 -1      8939 2.39434E+00
 -1      8940 2.30839E+00
 -1      8941 2.31363E+00
 -1      8942 2.40233E+00
 -1      8943 2.31887E+00
 -1      8944 2.31887E+00
 -1      8945 2.18711E+00
 -1      8946 2.25299E+00
 -1      8947 2.14221E+00
 -1      8948 2.17941E+00
 -1      8949 2.24005E+00
 -1      8950 2.12702E+00
 -1      8951 2.16287E+00
 -1      8952 2.22483E+00
 -1      8953 2.11072E+00
 -1      8954 2.16287E+00
 -1      8955 2.24005E+00
 -1      8956 2.12702E+00
 -1      8957 2.17941E+00
 -1      8958 2.25299E+00
 -1      8959 2.14221E+00
 -1      8960 2.18711E+00
 -1      8961 2.07330E+00
 -1      8962 2.13020E+00
 -1      8963 2.05423E+00
 -1      8964 2.06401E+00
 -1      8965 2.11321E+00
 -1      8966 2.04033E+00
 -1      8967 2.04516E+00
 -1      8968 2.09482E+00
 -1      8969 2.02081E+00
 -1      8970 2.04516E+00
 -1      8971 2.11321E+00
 -1      8972 2.04033E+00
 -1      8973 2.06401E+00
 -1      8974 2.13020E+00
 -1      8975 2.05423E+00
 -1      8976 2.07330E+00
 -1      8977 2.20639E+00
 -1      8978 2.13985E+00
 -1      8979 2.20647E+00
 -1      8980 2.19711E+00
 -1      8981 2.12127E+00
 -1      8982 2.19145E+00
 -1      8983 2.17751E+00
 -1      8984 2.10140E+00
 -1      8985 2.16837E+00
 -1      8986 2.17751E+00
 -1      8987 2.12127E+00
 -1      8988 2.19145E+00
 -1      8989 2.19711E+00
 -1      8990 2.13985E+00
 -1      8991 2.20647E+00
 -1      8992 2.20639E+00
 -1      8993 2.43303E+00
 -1      8994 2.31971E+00
 -1      8995 2.43385E+00
 -1      8996 2.42711E+00
 -1      8997 2.30450E+00
 -1      8998 2.42371E+00
 -1      8999 2.40675E+00
 -1      9000 2.27976E+00
 -1      9001 2.39233E+00
 -1      9002 2.40675E+00
 -1      9003 2.30450E+00
 -1      9004 2.42371E+00
 -1      9005 2.42711E+00
 -1      9006 2.31971E+00
 -1      9007 2.43385E+00
 -1      9008 2.43303E+00
 -1      9009 2.72084E+00
 -1      9010 2.57720E+00
 -1      9011 2.68590E+00
 -1      9012 2.72137E+00
 -1      9013 2.57128E+00
 -1      9014 2.68590E+00
 -1      9015 2.71707E+00
 -1      9016 2.55255E+00
 -1      9017 2.66954E+00
 -1      9018 2.71707E+00
 -1      9019 2.57128E+00
 -1      9020 2.68590E+00
 -1      9021 2.72137E+00
 -1      9022 2.57720E+00
 -1      9023 2.68590E+00
 -1      9024 2.72084E+00
 -1      9025 3.04288E+00
 -1      9026 2.92595E+00
 -1      9027 2.91463E+00
 -1      9028 3.13053E+00
 -1      9029 2.92595E+00
 -1      9030 2.91463E+00
 -1      9031 3.12613E+00
 -1      9032 2.91725E+00
 -1      9033 2.90763E+00
 -1      9034 3.12613E+00
 -1      9035 2.92595E+00
 -1      9036 2.91463E+00
 -1      9037 3.13053E+00
 -1      9038 2.92595E+00
 -1      9039 2.91463E+00
 -1      9040 3.04288E+00
 -1      9041 3.13053E+00
 -1      9042 3.13053E+00
 -1      9043 3.12172E+00
 -1      9044 3.13053E+00
 -1      9045 3.13053E+00
 -1      9046 1.32510E+01
 -1      9047 1.32765E+01
 -1      9048 1.05818E+01
 -1      9049 1.32765E+01
 -1      9050 1.32765E+01
 -1      9051 1.05164E+01
 -1      9052 1.32046E+01
 -1      9053 1.31326E+01
 -1      9054 1.03176E+01
 -1      9055 1.32046E+01
 -1      9056 1.32765E+01
 -1      9057 1.05164E+01
 -1      9058 1.32765E+01
 -1      9059 1.32765E+01
 -1      9060 1.05818E+01
 -1      9061 1.32510E+01
 -1      9062 3.17666E+00
 -1      9063 8.22658E+00
 -1      9064 3.35031E+00
 -1      9065 3.15375E+00
 -1      9066 8.20367E+00
 -1      9067 3.28860E+00
 -1      9068 3.11146E+00
 -1      9069 8.11235E+00
 -1      9070 3.23156E+00
 -1      9071 3.11146E+00
 -1      9072 8.20367E+00
 -1      9073 3.28860E+00
 -1      9074 3.15375E+00
 -1      9075 8.22658E+00
 -1      9076 3.35031E+00
 -1      9077 3.17666E+00
 -1      9078 3.56660E+00
 -1      9079 3.37163E+00
 -1      9080 3.54528E+00
 -1      9081 3.55740E+00
 -1      9082 3.33952E+00
 -1      9083 3.49727E+00
 -1      9084 3.53358E+00
 -1      9085 3.30552E+00
 -1      9086 3.44501E+00
 -1      9087 3.53358E+00
 -1      9088 3.33952E+00
 -1      9089 3.49727E+00
 -1      9090 3.55740E+00
 -1      9091 3.37163E+00
 -1      9092 3.54528E+00
 -1      9093 3.56660E+00
 -1      9094 3.56660E+00
 -1      9095 3.56660E+00
 -1      9096 3.45420E+00
 -1      9097 3.55740E+00
 -1      9098 3.54819E+00
 -1      9099 3.43667E+00
 -1      9100 3.53358E+00
 -1      9101 3.51897E+00
 -1      9102 3.40732E+00
 -1      9103 3.53358E+00
 -1      9104 3.54819E+00
 -1      9105 3.43667E+00
 -1      9106 3.55740E+00
 -1      9107 3.56660E+00
 -1      9108 3.45420E+00
 -1      9109 3.56660E+00
 -1      9110 2.46302E+00
 -1      9111 3.01481E+00
 -1      9112 2.35755E+00
 -1      9113 2.45425E+00
 -1      9114 2.99683E+00
 -1      9115 2.34100E+00
 -1      9116 2.43301E+00
 -1      9117 2.96975E+00
 -1      9118 2.31655E+00
 -1      9119 2.43301E+00
 -1      9120 2.99683E+00
 -1      9121 2.34100E+00
 -1      9122 2.45425E+00
 -1      9123 3.01481E+00
 -1      9124 2.35755E+00
 -1      9125 2.46302E+00
 -1      9126 2.28676E+00
 -1      9127 2.37489E+00
 -1      9128 2.18120E+00
 -1      9129 2.27401E+00
 -1      9130 2.35337E+00
 -1      9131 2.15639E+00
 -1      9132 2.24879E+00
 -1      9133 2.32843E+00
 -1      9134 2.13208E+00
 -1      9135 2.24879E+00
 -1      9136 2.35337E+00
 -1      9137 2.15639E+00
 -1      9138 2.27401E+00
 -1      9139 2.37489E+00
 -1      9140 2.18120E+00
 -1      9141 2.28676E+00
 -1      9142 2.39430E+00
 -1      9143 2.34053E+00
 -1      9144 2.34050E+00
 -1      9145 2.38378E+00
 -1      9146 2.31726E+00
 -1      9147 2.32087E+00
 -1      9148 2.36237E+00
 -1      9149 2.29390E+00
 -1      9150 2.30015E+00
 -1      9151 2.36237E+00
 -1      9152 2.31726E+00
 -1      9153 2.32087E+00
 -1      9154 2.38378E+00
 -1      9155 2.34053E+00
 -1      9156 2.34050E+00
 -1      9157 2.39430E+00
 -1      9158 2.39430E+00
 -1      9159 2.39430E+00
 -1      9160 2.39595E+00
 -1      9161 2.38378E+00
 -1      9162 2.37326E+00
 -1      9163 2.38137E+00
 -1      9164 2.36237E+00
 -1      9165 2.35147E+00
 -1      9166 2.36420E+00
 -1      9167 2.36237E+00
 -1      9168 2.37326E+00
 -1      9169 2.38137E+00
 -1      9170 2.38378E+00
 -1      9171 2.39430E+00
 -1      9172 2.39595E+00
 -1      9173 2.39430E+00
 -1      9174 2.35615E+00
 -1      9175 2.37522E+00
 -1      9176 2.43532E+00
 -1      9177 2.34865E+00
 -1      9178 2.35721E+00
 -1      9179 2.42676E+00
 -1      9180 2.33228E+00
 -1      9181 2.33743E+00
 -1      9182 2.41310E+00
 -1      9183 2.33228E+00
 -1      9184 2.35721E+00
 -1      9185 2.42676E+00
 -1      9186 2.34865E+00
 -1      9187 2.37522E+00
 -1      9188 2.43532E+00
 -1      9189 2.35615E+00
 -1      9190 2.25563E+00
 -1      9191 2.30589E+00
 -1      9192 2.38506E+00
 -1      9193 2.24848E+00
 -1      9194 2.29125E+00
 -1      9195 2.37684E+00
 -1      9196 2.23239E+00
 -1      9197 2.27343E+00
 -1      9198 2.36313E+00
 -1      9199 2.23239E+00
 -1      9200 2.29125E+00
 -1      9201 2.37684E+00
 -1      9202 2.24848E+00
 -1      9203 2.30589E+00
 -1      9204 2.38506E+00
 -1      9205 2.25563E+00
 -1      9206 1.94867E+00
 -1      9207 2.10215E+00
 -1      9208 2.16013E+00
 -1      9209 1.93986E+00
 -1      9210 2.08618E+00
 -1      9211 2.15131E+00
 -1      9212 1.92072E+00
 -1      9213 2.06693E+00
 -1      9214 2.13690E+00
 -1      9215 1.92072E+00
 -1      9216 2.08618E+00
 -1      9217 2.15131E+00
 -1      9218 1.93986E+00
 -1      9219 2.10215E+00
 -1      9220 2.16013E+00
 -1      9221 1.94867E+00
 -1      9222 1.55163E+00
 -1      9223 1.75015E+00
 -1      9224 1.60550E+00
 -1      9225 1.53874E+00
 -1      9226 1.72844E+00
 -1      9227 1.58772E+00
 -1      9228 1.51316E+00
 -1      9229 1.70544E+00
 -1      9230 1.56644E+00
 -1      9231 1.51316E+00
 -1      9232 1.72844E+00
 -1      9233 1.58772E+00
 -1      9234 1.53874E+00
 -1      9235 1.75015E+00
 -1      9236 1.60550E+00
 -1      9237 1.55163E+00
 -1      9238 1.81912E+00
 -1      9239 1.68537E+00
 -1      9240 2.08176E+00
 -1      9241 1.80988E+00
 -1      9242 1.66325E+00
 -1      9243 2.07253E+00
 -1      9244 1.78998E+00
 -1      9245 1.63989E+00
 -1      9246 2.05835E+00
 -1      9247 1.78998E+00
 -1      9248 1.66325E+00
 -1      9249 2.07253E+00
 -1      9250 1.80988E+00
 -1      9251 1.68537E+00
 -1      9252 2.08176E+00
 -1      9253 1.81912E+00
 -1      9254 2.14231E+00
 -1      9255 1.98071E+00
 -1      9256 2.34374E+00
 -1      9257 2.13539E+00
 -1      9258 1.96456E+00
 -1      9259 2.33682E+00
 -1      9260 2.11954E+00
 -1      9261 1.94495E+00
 -1      9262 2.32393E+00
 -1      9263 2.11954E+00
 -1      9264 1.96456E+00
 -1      9265 2.33682E+00
 -1      9266 2.13539E+00
 -1      9267 1.98071E+00
 -1      9268 2.34374E+00
 -1      9269 2.14231E+00
 -1      9270 2.28340E+00
 -1      9271 2.21286E+00
 -1      9272 2.41429E+00
 -1      9273 2.27695E+00
 -1      9274 2.19949E+00
 -1      9275 2.40784E+00
 -1      9276 2.26215E+00
 -1      9277 2.18220E+00
 -1      9278 2.39552E+00
 -1      9279 2.26215E+00
 -1      9280 2.19949E+00
 -1      9281 2.40784E+00
 -1      9282 2.27695E+00
 -1      9283 2.21286E+00
 -1      9284 2.41429E+00
 -1      9285 2.28340E+00
 -1      9286 2.28457E+00
 -1      9287 2.28398E+00
 -1      9288 2.38518E+00
 -1      9289 2.27768E+00
 -1      9290 2.27065E+00
 -1      9291 2.37554E+00
 -1      9292 2.26236E+00
 -1      9293 2.25387E+00
 -1      9294 2.36194E+00
 -1      9295 2.26236E+00
 -1      9296 2.27065E+00
 -1      9297 2.37554E+00
 -1      9298 2.27768E+00
 -1      9299 2.28398E+00
 -1      9300 2.38518E+00
 -1      9301 2.28457E+00
 -1      9302 2.28457E+00
 -1      9303 2.28457E+00
 -1      9304 2.30172E+00
 -1      9305 2.27768E+00
 -1      9306 2.27079E+00
 -1      9307 2.28959E+00
 -1      9308 2.26236E+00
 -1      9309 2.25394E+00
 -1      9310 2.27478E+00
 -1      9311 2.26236E+00
 -1      9312 2.27079E+00
 -1      9313 2.28959E+00
 -1      9314 2.27768E+00
 -1      9315 2.28457E+00
 -1      9316 2.30172E+00
 -1      9317 2.28457E+00
 -1      9318 2.24301E+00
 -1      9319 2.26379E+00
 -1      9320 2.21506E+00
 -1      9321 2.23539E+00
 -1      9322 2.24928E+00
 -1      9323 2.19974E+00
 -1      9324 2.21737E+00
 -1      9325 2.23045E+00
 -1      9326 2.18050E+00
 -1      9327 2.21737E+00
 -1      9328 2.24928E+00
 -1      9329 2.19974E+00
 -1      9330 2.23539E+00
 -1      9331 2.26379E+00
 -1      9332 2.21506E+00
 -1      9333 2.24301E+00
 -1      9334 2.17545E+00
 -1      9335 2.20923E+00
 -1      9336 2.12437E+00
 -1      9337 2.16822E+00
 -1      9338 2.19438E+00
 -1      9339 2.10785E+00
 -1      9340 2.15010E+00
 -1      9341 2.17309E+00
 -1      9342 2.08742E+00
 -1      9343 2.15010E+00
 -1      9344 2.19438E+00
 -1      9345 2.10785E+00
 -1      9346 2.16822E+00
 -1      9347 2.20923E+00
 -1      9348 2.12437E+00
 -1      9349 2.17545E+00
 -1      9350 2.23263E+00
 -1      9351 2.20404E+00
 -1      9352 2.21951E+00
 -1      9353 2.21946E+00
 -1      9354 2.18364E+00
 -1      9355 2.19705E+00
 -1      9356 2.19835E+00
 -1      9357 2.16482E+00
 -1      9358 2.17881E+00
 -1      9359 2.19835E+00
 -1      9360 2.18364E+00
 -1      9361 2.19705E+00
 -1      9362 2.21946E+00
 -1      9363 2.20404E+00
 -1      9364 2.21951E+00
 -1      9365 2.23263E+00
 -1      9366 2.41455E+00
 -1      9367 2.32359E+00
 -1      9368 2.42379E+00
 -1      9369 2.40514E+00
 -1      9370 2.30101E+00
 -1      9371 2.40845E+00
 -1      9372 2.38511E+00
 -1      9373 2.28246E+00
 -1      9374 2.38341E+00
 -1      9375 2.38511E+00
 -1      9376 2.30101E+00
 -1      9377 2.40845E+00
 -1      9378 2.40514E+00
 -1      9379 2.32359E+00
 -1      9380 2.42379E+00
 -1      9381 2.41455E+00
 -1      9382 2.80641E+00
 -1      9383 2.61048E+00
 -1      9384 2.76389E+00
 -1      9385 2.78398E+00
 -1      9386 2.57864E+00
 -1      9387 2.74147E+00
 -1      9388 2.76156E+00
 -1      9389 2.56803E+00
 -1      9390 2.73716E+00
 -1      9391 2.76156E+00
 -1      9392 2.57864E+00
 -1      9393 2.74147E+00
 -1      9394 2.78398E+00
 -1      9395 2.61048E+00
 -1      9396 2.76389E+00
 -1      9397 2.80641E+00
 -1      9398 3.04288E+00
 -1      9399 2.96847E+00
 -1      9400 3.13053E+00
 -1      9401 3.13053E+00
 -1      9402 2.94604E+00
 -1      9403 3.13053E+00
 -1      9404 3.12613E+00
 -1      9405 2.94164E+00
 -1      9406 3.12172E+00
 -1      9407 3.12613E+00
 -1      9408 2.94604E+00
 -1      9409 3.13053E+00
 -1      9410 3.13053E+00
 -1      9411 2.96847E+00
 -1      9412 3.13053E+00
 -1      9413 3.04288E+00
 -1      9414 3.13053E+00
 -1      9415 3.13053E+00
 -1      9416 3.12172E+00
 -1      9417 3.13053E+00
 -1      9418 3.13053E+00
 -1      9419 1.95101E+01
 -1      9420 1.96280E+01
 -1      9421 1.64522E+01
 -1      9422 1.96280E+01
 -1      9423 1.96280E+01
 -1      9424 1.64522E+01
 -1      9425 1.96097E+01
 -1      9426 1.95913E+01
 -1      9427 1.63620E+01
 -1      9428 1.96097E+01
 -1      9429 1.96280E+01
 -1      9430 1.64522E+01
 -1      9431 1.96280E+01
 -1      9432 1.96280E+01
 -1      9433 1.64522E+01
 -1      9434 1.95101E+01
 -1      9435 5.14773E+00
 -1      9436 1.23879E+01
 -1      9437 4.16219E+00
 -1      9438 5.07856E+00
 -1      9439 1.23187E+01
 -1      9440 4.07012E+00
 -1      9441 4.95247E+00
 -1      9442 1.22434E+01
 -1      9443 3.99381E+00
 -1      9444 4.95247E+00
 -1      9445 1.23187E+01
 -1      9446 4.07012E+00
 -1      9447 5.07856E+00
 -1      9448 1.23879E+01
 -1      9449 4.16219E+00
 -1      9450 5.14773E+00
 -1      9451 3.56660E+00
 -1      9452 4.35717E+00
 -1      9453 3.56660E+00
 -1      9454 3.55740E+00
 -1      9455 4.27879E+00
 -1      9456 3.54819E+00
 -1      9457 3.53358E+00
 -1      9458 4.20726E+00
 -1      9459 3.51897E+00
 -1      9460 3.53358E+00
 -1      9461 4.27879E+00
 -1      9462 3.54819E+00
 -1      9463 3.55740E+00
 -1      9464 4.35717E+00
 -1      9465 3.56660E+00
 -1      9466 3.56660E+00
 -1      9467 3.56660E+00
 -1      9468 3.56660E+00
 -1      9469 3.56660E+00
 -1      9470 3.55740E+00
 -1      9471 3.54819E+00
 -1      9472 3.54819E+00
 -1      9473 3.53358E+00
 -1      9474 3.51897E+00
 -1      9475 3.51897E+00
 -1      9476 3.53358E+00
 -1      9477 3.54819E+00
 -1      9478 3.54819E+00
 -1      9479 3.55740E+00
 -1      9480 3.56660E+00
 -1      9481 3.56660E+00
 -1      9482 3.56660E+00
 -1      9483 2.70160E+00
 -1      9484 3.13410E+00
 -1      9485 2.58231E+00
 -1      9486 2.69245E+00
 -1      9487 3.11574E+00
 -1      9488 2.56438E+00
 -1      9489 2.67059E+00
 -1      9490 3.08842E+00
 -1      9491 2.53921E+00
 -1      9492 2.67059E+00
 -1      9493 3.11574E+00
 -1      9494 2.56438E+00
 -1      9495 2.69245E+00
 -1      9496 3.13410E+00
 -1      9497 2.58231E+00
 -1      9498 2.70160E+00
 -1      9499 2.48945E+00
 -1      9500 2.59552E+00
 -1      9501 2.38811E+00
 -1      9502 2.47619E+00
 -1      9503 2.57311E+00
 -1      9504 2.36209E+00
 -1      9505 2.45001E+00
 -1      9506 2.54749E+00
 -1      9507 2.33671E+00
 -1      9508 2.45001E+00
 -1      9509 2.57311E+00
 -1      9510 2.36209E+00
 -1      9511 2.47619E+00
 -1      9512 2.59552E+00
 -1      9513 2.38811E+00
 -1      9514 2.48945E+00
 -1      9515 2.49103E+00
 -1      9516 2.49024E+00
 -1      9517 2.44266E+00
 -1      9518 2.47956E+00
 -1      9519 2.46550E+00
 -1      9520 2.42067E+00
 -1      9521 2.45648E+00
 -1      9522 2.44099E+00
 -1      9523 2.39817E+00
 -1      9524 2.45648E+00
 -1      9525 2.46550E+00
 -1      9526 2.42067E+00
 -1      9527 2.47956E+00
 -1      9528 2.49024E+00
 -1      9529 2.44266E+00
 -1      9530 2.49103E+00
 -1      9531 2.49103E+00
 -1      9532 2.49103E+00
 -1      9533 2.44266E+00
 -1      9534 2.47956E+00
 -1      9535 2.46808E+00
 -1      9536 2.42067E+00
 -1      9537 2.45648E+00
 -1      9538 2.44488E+00
 -1      9539 2.39817E+00
 -1      9540 2.45648E+00
 -1      9541 2.46808E+00
 -1      9542 2.42067E+00
 -1      9543 2.47956E+00
 -1      9544 2.49103E+00
 -1      9545 2.44266E+00
 -1      9546 2.49103E+00
 -1      9547 2.33315E+00
 -1      9548 2.41209E+00
 -1      9549 2.34465E+00
 -1      9550 2.32232E+00
 -1      9551 2.38978E+00
 -1      9552 2.32632E+00
 -1      9553 2.30101E+00
 -1      9554 2.36771E+00
 -1      9555 2.30697E+00
 -1      9556 2.30101E+00
 -1      9557 2.38978E+00
 -1      9558 2.32632E+00
 -1      9559 2.32232E+00
 -1      9560 2.41209E+00
 -1      9561 2.34465E+00
 -1      9562 2.33315E+00
 -1      9563 2.12788E+00
 -1      9564 2.23052E+00
 -1      9565 2.19175E+00
 -1      9566 2.11790E+00
 -1      9567 2.20970E+00
 -1      9568 2.17462E+00
 -1      9569 2.09721E+00
 -1      9570 2.18853E+00
 -1      9571 2.15498E+00
 -1      9572 2.09721E+00
 -1      9573 2.20970E+00
 -1      9574 2.17462E+00
 -1      9575 2.11790E+00
 -1      9576 2.23052E+00
 -1      9577 2.19175E+00
 -1      9578 2.12788E+00
 -1      9579 1.86597E+00
 -1      9580 1.99692E+00
 -1      9581 1.90732E+00
 -1      9582 1.85439E+00
 -1      9583 1.97536E+00
 -1      9584 1.88692E+00
 -1      9585 1.83114E+00
 -1      9586 1.95299E+00
 -1      9587 1.86494E+00
 -1      9588 1.83114E+00
 -1      9589 1.97536E+00
 -1      9590 1.88692E+00
 -1      9591 1.85439E+00
 -1      9592 1.99692E+00
 -1      9593 1.90732E+00
 -1      9594 1.86597E+00
 -1      9595 1.69106E+00
 -1      9596 1.77851E+00
 -1      9597 1.62134E+00
 -1      9598 1.67883E+00
 -1      9599 1.75470E+00
 -1      9600 1.59623E+00
 -1      9601 1.65456E+00
 -1      9602 1.73100E+00
 -1      9603 1.57150E+00
 -1      9604 1.65456E+00
 -1      9605 1.75470E+00
 -1      9606 1.59623E+00
 -1      9607 1.67883E+00
 -1      9608 1.77851E+00
 -1      9609 1.62134E+00
 -1      9610 1.69106E+00
 -1      9611 1.70467E+00
 -1      9612 1.69786E+00
 -1      9613 1.76189E+00
 -1      9614 1.69306E+00
 -1      9615 1.67403E+00
 -1      9616 1.74105E+00
 -1      9617 1.66908E+00
 -1      9618 1.64961E+00
 -1      9619 1.71800E+00
 -1      9620 1.66908E+00
 -1      9621 1.67403E+00
 -1      9622 1.74105E+00
 -1      9623 1.69306E+00
 -1      9624 1.69786E+00
 -1      9625 1.76189E+00
 -1      9626 1.70467E+00
 -1      9627 1.92613E+00
 -1      9628 1.81540E+00
 -1      9629 2.03422E+00
 -1      9630 1.91612E+00
 -1      9631 1.79378E+00
 -1      9632 2.01729E+00
 -1      9633 1.89490E+00
 -1      9634 1.77020E+00
 -1      9635 1.99714E+00
 -1      9636 1.89490E+00
 -1      9637 1.79378E+00
 -1      9638 2.01729E+00
 -1      9639 1.91612E+00
 -1      9640 1.81540E+00
 -1      9641 2.03422E+00
 -1      9642 1.92613E+00
 -1      9643 2.11583E+00
 -1      9644 2.02098E+00
 -1      9645 2.19962E+00
 -1      9646 2.10704E+00
 -1      9647 2.00218E+00
 -1      9648 2.18437E+00
 -1      9649 2.08772E+00
 -1      9650 1.98044E+00
 -1      9651 2.16549E+00
 -1      9652 2.08772E+00
 -1      9653 2.00218E+00
 -1      9654 2.18437E+00
 -1      9655 2.10704E+00
 -1      9656 2.02098E+00
 -1      9657 2.19962E+00
 -1      9658 2.11583E+00
 -1      9659 2.22282E+00
 -1      9660 2.16933E+00
 -1      9661 2.25369E+00
 -1      9662 2.21477E+00
 -1      9663 2.15248E+00
 -1      9664 2.23875E+00
 -1      9665 2.19646E+00
 -1      9666 2.13169E+00
 -1      9667 2.22007E+00
 -1      9668 2.19646E+00
 -1      9669 2.15248E+00
 -1      9670 2.23875E+00
 -1      9671 2.21477E+00
 -1      9672 2.16933E+00
 -1      9673 2.25369E+00
 -1      9674 2.22282E+00
 -1      9675 2.28086E+00
 -1      9676 2.25184E+00
 -1      9677 2.28271E+00
 -1      9678 2.27378E+00
 -1      9679 2.23671E+00
 -1      9680 2.26875E+00
 -1      9681 2.25453E+00
 -1      9682 2.21427E+00
 -1      9683 2.24814E+00
 -1      9684 2.25453E+00
 -1      9685 2.23671E+00
 -1      9686 2.26875E+00
 -1      9687 2.27378E+00
 -1      9688 2.25184E+00
 -1      9689 2.28271E+00
 -1      9690 2.28086E+00
 -1      9691 2.32709E+00
 -1      9692 2.30398E+00
 -1      9693 2.28505E+00
 -1      9694 2.32169E+00
 -1      9695 2.29149E+00
 -1      9696 2.27202E+00
 -1      9697 2.30338E+00
 -1      9698 2.26642E+00
 -1      9699 2.24873E+00
 -1      9700 2.30338E+00
 -1      9701 2.29149E+00
 -1      9702 2.27202E+00
 -1      9703 2.32169E+00
 -1      9704 2.30398E+00
 -1      9705 2.28505E+00
 -1      9706 2.32709E+00
 -1      9707 2.32709E+00
 -1      9708 2.32709E+00
 -1      9709 2.25127E+00
 -1      9710 2.32169E+00
 -1      9711 2.31628E+00
 -1      9712 2.23863E+00
 -1      9713 2.30338E+00
 -1      9714 2.29049E+00
 -1      9715 2.21486E+00
 -1      9716 2.30338E+00
 -1      9717 2.31628E+00
 -1      9718 2.23863E+00
 -1      9719 2.32169E+00
 -1      9720 2.32709E+00
 -1      9721 2.25127E+00
 -1      9722 2.32709E+00
 -1      9723 2.32179E+00
 -1      9724 2.32444E+00
 -1      9725 2.27721E+00
 -1      9726 2.30882E+00
 -1      9727 2.30606E+00
 -1      9728 2.25107E+00
 -1      9729 2.28644E+00
 -1      9730 2.28377E+00
 -1      9731 2.23373E+00
 -1      9732 2.28644E+00
 -1      9733 2.30606E+00
 -1      9734 2.25107E+00
 -1      9735 2.30882E+00
 -1      9736 2.32444E+00
 -1      9737 2.27721E+00
 -1      9738 2.32179E+00
 -1      9739 2.38315E+00
 -1      9740 2.35247E+00
 -1      9741 2.39885E+00
 -1      9742 2.36871E+00
 -1      9743 2.32506E+00
 -1      9744 2.37500E+00
 -1      9745 2.34713E+00
 -1      9746 2.30851E+00
 -1      9747 2.35724E+00
 -1      9748 2.34713E+00
 -1      9749 2.32506E+00
 -1      9750 2.37500E+00
 -1      9751 2.36871E+00
 -1      9752 2.35247E+00
 -1      9753 2.39885E+00
 -1      9754 2.38315E+00
 -1      9755 2.84692E+00
 -1      9756 2.61503E+00
 -1      9757 2.82667E+00
 -1      9758 2.80424E+00
 -1      9759 2.55792E+00
 -1      9760 2.76156E+00
 -1      9761 2.76156E+00
 -1      9762 2.55077E+00
 -1      9763 2.76156E+00
 -1      9764 2.76156E+00
 -1      9765 2.55792E+00
 -1      9766 2.76156E+00
 -1      9767 2.80424E+00
 -1      9768 2.61503E+00
 -1      9769 2.82667E+00
 -1      9770 2.84692E+00
 -1      9771 2.84692E+00
 -1      9772 2.84692E+00
 -1      9773 2.98872E+00
 -1      9774 2.80424E+00
 -1      9775 2.76156E+00
 -1      9776 2.94604E+00
 -1      9777 2.76156E+00
 -1      9778 2.76156E+00
 -1      9779 2.94164E+00
 -1      9780 2.76156E+00
 -1      9781 2.76156E+00
 -1      9782 2.94604E+00
 -1      9783 2.80424E+00
 -1      9784 2.84692E+00
 -1      9785 2.98872E+00
 -1      9786 2.84692E+00
 -1      9787 2.43210E+00
 -1      9788 2.23944E+00
 -1      9789 2.23442E+00
 -1      9790 2.23944E+00
 -1      9791 2.43210E+00
 -1      9792 2.65543E+01
 -1      9793 2.67680E+01
 -1      9794 2.31980E+01
 -1      9795 2.68043E+01
 -1      9796 2.68407E+01
 -1      9797 2.32343E+01
 -1      9798 2.68407E+01
 -1      9799 2.68407E+01
 -1      9800 2.32160E+01
 -1      9801 2.68407E+01
 -1      9802 2.68407E+01
 -1      9803 2.32343E+01
 -1      9804 2.68043E+01
 -1      9805 2.67680E+01
 -1      9806 2.31980E+01
 -1      9807 2.65543E+01
 -1      9808 8.50669E+00
 -1      9809 1.76373E+01
 -1      9810 6.82721E+00
 -1      9811 8.44403E+00
 -1      9812 1.76110E+01
 -1      9813 6.69538E+00
 -1      9814 8.33331E+00
 -1      9815 1.75630E+01
 -1      9816 6.59040E+00
 -1      9817 8.33331E+00
 -1      9818 1.76110E+01
 -1      9819 6.69538E+00
 -1      9820 8.44403E+00
 -1      9821 1.76373E+01
 -1      9822 6.82721E+00
 -1      9823 8.50669E+00
 -1      9824 2.54442E+00
 -1      9825 5.52556E+00
 -1      9826 3.05551E+00
 -1      9827 2.52509E+00
 -1      9828 5.44357E+00
 -1      9829 3.02698E+00
 -1      9830 2.48846E+00
 -1      9831 5.37821E+00
 -1      9832 2.99506E+00
 -1      9833 2.48846E+00
 -1      9834 5.44357E+00
 -1      9835 3.02698E+00
 -1      9836 2.52509E+00
 -1      9837 5.52556E+00
 -1      9838 3.05551E+00
 -1      9839 2.54442E+00
 -1      9840 2.70160E+00
 -1      9841 2.62301E+00
 -1      9842 3.13410E+00
 -1      9843 2.69245E+00
 -1      9844 2.59453E+00
 -1      9845 3.11574E+00
 -1      9846 2.67059E+00
 -1      9847 2.56452E+00
 -1      9848 3.08842E+00
 -1      9849 2.67059E+00
 -1      9850 2.59453E+00
 -1      9851 3.11574E+00
 -1      9852 2.69245E+00
 -1      9853 2.62301E+00
 -1      9854 3.13410E+00
 -1      9855 2.70160E+00
 -1      9856 2.70160E+00
 -1      9857 2.70160E+00
 -1      9858 2.70160E+00
 -1      9859 2.69245E+00
 -1      9860 2.68329E+00
 -1      9861 2.68329E+00
 -1      9862 2.67059E+00
 -1      9863 2.65788E+00
 -1      9864 2.65788E+00
 -1      9865 2.67059E+00
 -1      9866 2.68329E+00
 -1      9867 2.68329E+00
 -1      9868 2.69245E+00
 -1      9869 2.70160E+00
 -1      9870 2.70160E+00
 -1      9871 2.70160E+00
 -1      9872 2.48945E+00
 -1      9873 2.59552E+00
 -1      9874 2.48945E+00
 -1      9875 2.47619E+00
 -1      9876 2.57311E+00
 -1      9877 2.46292E+00
 -1      9878 2.45001E+00
 -1      9879 2.54749E+00
 -1      9880 2.43710E+00
 -1      9881 2.45001E+00
 -1      9882 2.57311E+00
 -1      9883 2.46292E+00
 -1      9884 2.47619E+00
 -1      9885 2.59552E+00
 -1      9886 2.48945E+00
 -1      9887 2.48945E+00
 -1      9888 2.98928E+00
 -1      9889 2.73936E+00
 -1      9890 2.74015E+00
 -1      9891 2.98811E+00
 -1      9892 2.72494E+00
 -1      9893 2.72752E+00
 -1      9894 2.98128E+00
 -1      9895 2.70636E+00
 -1      9896 2.71025E+00
 -1      9897 2.98128E+00
 -1      9898 2.72494E+00
 -1      9899 2.72752E+00
 -1      9900 2.98811E+00
 -1      9901 2.73936E+00
 -1      9902 2.74015E+00
 -1      9903 2.98928E+00
 -1      9904 3.52623E+00
 -1      9905 3.25776E+00
 -1      9906 3.00863E+00
 -1      9907 3.52603E+00
 -1      9908 3.25639E+00
 -1      9909 2.99696E+00
 -1      9910 3.52102E+00
 -1      9911 3.24591E+00
 -1      9912 2.98055E+00
 -1      9913 3.52102E+00
 -1      9914 3.25639E+00
 -1      9915 2.99696E+00
 -1      9916 3.52603E+00
 -1      9917 3.25776E+00
 -1      9918 3.00863E+00
 -1      9919 3.52623E+00
 -1      9920 4.56054E+00
 -1      9921 4.04407E+00
 -1      9922 3.44753E+00
 -1      9923 4.56190E+00
 -1      9924 4.04386E+00
 -1      9925 3.43669E+00
 -1      9926 4.54621E+00
 -1      9927 4.02336E+00
 -1      9928 3.41053E+00
 -1      9929 4.54621E+00
 -1      9930 4.04386E+00
 -1      9931 3.43669E+00
 -1      9932 4.56190E+00
 -1      9933 4.04407E+00
 -1      9934 3.44753E+00
 -1      9935 4.56054E+00
 -1      9936 5.36984E+00
 -1      9937 4.96711E+00
 -1      9938 3.75010E+00
 -1      9939 5.37233E+00
 -1      9940 4.96711E+00
 -1      9941 3.74012E+00
 -1      9942 5.35779E+00
 -1      9943 4.93689E+00
 -1      9944 3.71488E+00
 -1      9945 5.35779E+00
 -1      9946 4.96711E+00
 -1      9947 3.74012E+00
 -1      9948 5.37233E+00
 -1      9949 4.96711E+00
 -1      9950 3.75010E+00
 -1      9951 5.36984E+00
 -1      9952 5.69401E+00
 -1      9953 5.53461E+00
 -1      9954 3.78143E+00
 -1      9955 5.69689E+00
 -1      9956 5.53461E+00
 -1      9957 3.76985E+00
 -1      9958 5.68300E+00
 -1      9959 5.50618E+00
 -1      9960 3.74429E+00
 -1      9961 5.68300E+00
 -1      9962 5.53461E+00
 -1      9963 3.76985E+00
 -1      9964 5.69689E+00
 -1      9965 5.53461E+00
 -1      9966 3.78143E+00
 -1      9967 5.69401E+00
 -1      9968 5.70062E+00
 -1      9969 5.70020E+00
 -1      9970 3.69728E+00
 -1      9971 5.70351E+00
 -1      9972 5.70020E+00
 -1      9973 3.68506E+00
 -1      9974 5.68811E+00
 -1      9975 5.67090E+00
 -1      9976 3.65761E+00
 -1      9977 5.68811E+00
 -1      9978 5.70020E+00
 -1      9979 3.68506E+00
 -1      9980 5.70351E+00
 -1      9981 5.70020E+00
 -1      9982 3.69728E+00
 -1      9983 5.70062E+00
 -1      9984 5.70062E+00
 -1      9985 5.70351E+00
 -1      9986 3.70409E+00
 -1      9987 5.70351E+00
 -1      9988 5.70351E+00
 -1      9989 3.69249E+00
 -1      9990 5.68811E+00
 -1      9991 5.67270E+00
 -1      9992 3.66470E+00
 -1      9993 5.68811E+00
 -1      9994 5.70351E+00
 -1      9995 3.69249E+00
 -1      9996 5.70351E+00
 -1      9997 5.70351E+00
 -1      9998 3.70409E+00
 -1      9999 5.70062E+00
 -1     10000 5.43867E+00
 -1     10001 5.57283E+00
 -1     10002 3.68413E+00
 -1     10003 5.44214E+00
 -1     10004 5.57283E+00
 -1     10005 3.67412E+00
 -1     10006 5.42668E+00
 -1     10007 5.54196E+00
 -1     10008 3.64745E+00
 -1     10009 5.42668E+00
 -1     10010 5.57283E+00
 -1     10011 3.67412E+00
 -1     10012 5.44214E+00
 -1     10013 5.57283E+00
 -1     10014 3.68413E+00
 -1     10015 5.43867E+00
 -1     10016 4.81687E+00
 -1     10017 5.13100E+00
 -1     10018 3.46785E+00
 -1     10019 4.81986E+00
 -1     10020 5.13100E+00
 -1     10021 3.45906E+00
 -1     10022 4.80320E+00
 -1     10023 5.09888E+00
 -1     10024 3.43186E+00
 -1     10025 4.80320E+00
 -1     10026 5.13100E+00
 -1     10027 3.45906E+00
 -1     10028 4.81986E+00
 -1     10029 5.13100E+00
 -1     10030 3.46785E+00
 -1     10031 4.81687E+00
 -1     10032 3.82895E+00
 -1     10033 4.32553E+00
 -1     10034 3.02700E+00
 -1     10035 3.83119E+00
 -1     10036 4.32553E+00
 -1     10037 3.01895E+00
 -1     10038 3.81254E+00
 -1     10039 4.29021E+00
 -1     10040 2.99004E+00
 -1     10041 3.81254E+00
 -1     10042 4.32553E+00
 -1     10043 3.01895E+00
 -1     10044 3.83119E+00
 -1     10045 4.32553E+00
 -1     10046 3.02700E+00
 -1     10047 3.82895E+00
 -1     10048 3.33006E+00
 -1     10049 3.58082E+00
 -1     10050 2.80565E+00
 -1     10051 3.33045E+00
 -1     10052 3.58082E+00
 -1     10053 2.79858E+00
 -1     10054 3.32451E+00
 -1     10055 3.55623E+00
 -1     10056 2.78046E+00
 -1     10057 3.32451E+00
 -1     10058 3.58082E+00
 -1     10059 2.79858E+00
 -1     10060 3.33045E+00
 -1     10061 3.58082E+00
 -1     10062 2.80565E+00
 -1     10063 3.33006E+00
 -1     10064 2.86318E+00
 -1     10065 3.09698E+00
 -1     10066 2.59530E+00
 -1     10067 2.86351E+00
 -1     10068 3.09698E+00
 -1     10069 2.58989E+00
 -1     10070 2.85624E+00
 -1     10071 3.08377E+00
 -1     10072 2.56973E+00
 -1     10073 2.85624E+00
 -1     10074 3.09698E+00
 -1     10075 2.58989E+00
 -1     10076 2.86351E+00
 -1     10077 3.09698E+00
 -1     10078 2.59530E+00
 -1     10079 2.86318E+00
 -1     10080 2.32709E+00
 -1     10081 2.59530E+00
 -1     10082 2.32709E+00
 -1     10083 2.32169E+00
 -1     10084 2.58989E+00
 -1     10085 2.31628E+00
 -1     10086 2.30338E+00
 -1     10087 2.56973E+00
 -1     10088 2.29049E+00
 -1     10089 2.30338E+00
 -1     10090 2.58989E+00
 -1     10091 2.31628E+00
 -1     10092 2.32169E+00
 -1     10093 2.59530E+00
 -1     10094 2.32709E+00
 -1     10095 2.32709E+00
 -1     10096 2.32179E+00
 -1     10097 2.32444E+00
 -1     10098 2.32179E+00
 -1     10099 2.30882E+00
 -1     10100 2.30606E+00
 -1     10101 2.29584E+00
 -1     10102 2.28644E+00
 -1     10103 2.28377E+00
 -1     10104 2.27704E+00
 -1     10105 2.28644E+00
 -1     10106 2.30606E+00
 -1     10107 2.29584E+00
 -1     10108 2.30882E+00
 -1     10109 2.32444E+00
 -1     10110 2.32179E+00
 -1     10111 2.32179E+00
 -1     10112 2.34944E+00
 -1     10113 2.33562E+00
 -1     10114 2.36629E+00
 -1     10115 2.32853E+00
 -1     10116 2.30174E+00
 -1     10117 2.33095E+00
 -1     10118 2.30353E+00
 -1     10119 2.28823E+00
 -1     10120 2.31970E+00
 -1     10121 2.30353E+00
 -1     10122 2.30174E+00
 -1     10123 2.33095E+00
 -1     10124 2.32853E+00
 -1     10125 2.33562E+00
 -1     10126 2.36629E+00
 -1     10127 2.34944E+00
 -1     10128 2.84692E+00
 -1     10129 2.59818E+00
 -1     10130 2.84692E+00
 -1     10131 2.79428E+00
 -1     10132 2.52464E+00
 -1     10133 2.75160E+00
 -1     10134 2.74165E+00
 -1     10135 2.52054E+00
 -1     10136 2.75160E+00
 -1     10137 2.74165E+00
 -1     10138 2.52464E+00
 -1     10139 2.75160E+00
 -1     10140 2.79428E+00
 -1     10141 2.59818E+00
 -1     10142 2.84692E+00
 -1     10143 2.84692E+00
 -1     10144 2.84692E+00
 -1     10145 2.84692E+00
 -1     10146 2.84692E+00
 -1     10147 2.79428E+00
 -1     10148 2.74165E+00
 -1     10149 2.75160E+00
 -1     10150 2.74165E+00
 -1     10151 2.74165E+00
 -1     10152 2.75160E+00
 -1     10153 2.74165E+00
 -1     10154 2.74165E+00
 -1     10155 2.75160E+00
 -1     10156 2.79428E+00
 -1     10157 2.84692E+00
 -1     10158 2.84692E+00
 -1     10159 2.84692E+00
 -1     10160 2.43210E+00
 -1     10161 2.13314E+00
 -1     10162 2.11058E+00
 -1     10163 2.13314E+00
 -1     10164 2.43210E+00
 -1     10165 3.42298E+01
 -1     10166 3.45309E+01
 -1     10167 3.06494E+01
 -1     10168 3.46188E+01
 -1     10169 3.47067E+01
 -1     10170 3.07737E+01
 -1     10171 3.47067E+01
 -1     10172 3.47067E+01
 -1     10173 3.07737E+01
 -1     10174 3.47067E+01
 -1     10175 3.47067E+01
 -1     10176 3.07737E+01
 -1     10177 3.46188E+01
 -1     10178 3.45309E+01
 -1     10179 3.06494E+01
 -1     10180 3.42298E+01
 -1     10181 1.21524E+01
 -1     10182 2.33416E+01
 -1     10183 1.03296E+01
 -1     10184 1.20877E+01
 -1     10185 2.33649E+01
 -1     10186 1.02022E+01
 -1     10187 1.19789E+01
 -1     10188 2.33208E+01
 -1     10189 1.01100E+01
 -1     10190 1.19789E+01
 -1     10191 2.33649E+01
 -1     10192 1.02022E+01
 -1     10193 1.20877E+01
 -1     10194 2.33416E+01
 -1     10195 1.03296E+01
 -1     10196 1.21524E+01
 -1     10197 3.35959E+00
 -1     10198 7.75601E+00
 -1     10199 2.95201E+00
 -1     10200 3.34341E+00
 -1     10201 7.67510E+00
 -1     10202 2.91649E+00
 -1     10203 3.31270E+00
 -1     10204 7.61651E+00
 -1     10205 2.88467E+00
 -1     10206 3.31270E+00
 -1     10207 7.67510E+00
 -1     10208 2.91649E+00
 -1     10209 3.34341E+00
 -1     10210 7.75601E+00
 -1     10211 2.95201E+00
 -1     10212 3.35959E+00
 -1     10213 1.60100E+00
 -1     10214 2.48030E+00
 -1     10215 2.15130E+00
 -1     10216 1.58624E+00
 -1     10217 2.44935E+00
 -1     10218 2.12739E+00
 -1     10219 1.55756E+00
 -1     10220 2.42091E+00
 -1     10221 2.10076E+00
 -1     10222 1.55756E+00
 -1     10223 2.44935E+00
 -1     10224 2.12739E+00
 -1     10225 1.58624E+00
 -1     10226 2.48030E+00
 -1     10227 2.15130E+00
 -1     10228 1.60100E+00
 -1     10229 1.64048E+00
 -1     10230 1.62074E+00
 -1     10231 2.17104E+00
 -1     10232 1.63201E+00
 -1     10233 1.59751E+00
 -1     10234 2.15341E+00
 -1     10235 1.61251E+00
 -1     10236 1.57256E+00
 -1     10237 2.12968E+00
 -1     10238 1.61251E+00
 -1     10239 1.59751E+00
 -1     10240 2.15341E+00
 -1     10241 1.63201E+00
 -1     10242 1.62074E+00
 -1     10243 2.17104E+00
 -1     10244 1.64048E+00
 -1     10245 2.37409E+00
 -1     10246 2.00729E+00
 -1     10247 2.43177E+00
 -1     10248 2.36872E+00
 -1     10249 1.99344E+00
 -1     10250 2.41314E+00
 -1     10251 2.35484E+00
 -1     10252 1.97391E+00
 -1     10253 2.39171E+00
 -1     10254 2.35484E+00
 -1     10255 1.99344E+00
 -1     10256 2.41314E+00
 -1     10257 2.36872E+00
 -1     10258 2.00729E+00
 -1     10259 2.43177E+00
 -1     10260 2.37409E+00
 -1     10261 2.98928E+00
 -1     10262 2.68169E+00
 -1     10263 2.98928E+00
 -1     10264 2.98811E+00
 -1     10265 2.67515E+00
 -1     10266 2.98695E+00
 -1     10267 2.98128E+00
 -1     10268 2.66097E+00
 -1     10269 2.97561E+00
 -1     10270 2.98128E+00
 -1     10271 2.67515E+00
 -1     10272 2.98695E+00
 -1     10273 2.98811E+00
 -1     10274 2.68169E+00
 -1     10275 2.98928E+00
 -1     10276 2.98928E+00
 -1     10277 3.52623E+00
 -1     10278 3.25776E+00
 -1     10279 3.52623E+00
 -1     10280 3.52603E+00
 -1     10281 3.25639E+00
 -1     10282 3.52583E+00
 -1     10283 3.52102E+00
 -1     10284 3.24591E+00
 -1     10285 3.51621E+00
 -1     10286 3.52102E+00
 -1     10287 3.25639E+00
 -1     10288 3.52583E+00
 -1     10289 3.52603E+00
 -1     10290 3.25776E+00
 -1     10291 3.52623E+00
 -1     10292 3.52623E+00
 -1     10293 4.56054E+00
 -1     10294 4.04407E+00
 -1     10295 4.56190E+00
 -1     10296 4.56190E+00
 -1     10297 4.04386E+00
 -1     10298 4.56190E+00
 -1     10299 4.54621E+00
 -1     10300 4.02336E+00
 -1     10301 4.53051E+00
 -1     10302 4.54621E+00
 -1     10303 4.04386E+00
 -1     10304 4.56190E+00
 -1     10305 4.56190E+00
 -1     10306 4.04407E+00
 -1     10307 4.56190E+00
 -1     10308 4.56054E+00
 -1     10309 5.36984E+00
 -1     10310 4.96711E+00
 -1     10311 5.37233E+00
 -1     10312 5.37233E+00
 -1     10313 4.96711E+00
 -1     10314 5.37233E+00
 -1     10315 5.35779E+00
 -1     10316 4.93689E+00
 -1     10317 5.34326E+00
 -1     10318 5.35779E+00
 -1     10319 4.96711E+00
 -1     10320 5.37233E+00
 -1     10321 5.37233E+00
 -1     10322 4.96711E+00
 -1     10323 5.37233E+00
 -1     10324 5.36984E+00
 -1     10325 5.69401E+00
 -1     10326 5.53461E+00
 -1     10327 5.69689E+00
 -1     10328 5.69689E+00
 -1     10329 5.53461E+00
 -1     10330 5.69689E+00
 -1     10331 5.68300E+00
 -1     10332 5.50618E+00
 -1     10333 5.66911E+00
 -1     10334 5.68300E+00
 -1     10335 5.53461E+00
 -1     10336 5.69689E+00
 -1     10337 5.69689E+00
 -1     10338 5.53461E+00
 -1     10339 5.69689E+00
 -1     10340 5.69401E+00
 -1     10341 5.70062E+00
 -1     10342 5.70020E+00
 -1     10343 5.70351E+00
 -1     10344 5.70351E+00
 -1     10345 5.70020E+00
 -1     10346 5.70351E+00
 -1     10347 5.68811E+00
 -1     10348 5.67090E+00
 -1     10349 5.67270E+00
 -1     10350 5.68811E+00
 -1     10351 5.70020E+00
 -1     10352 5.70351E+00
 -1     10353 5.70351E+00
 -1     10354 5.70020E+00
 -1     10355 5.70351E+00
 -1     10356 5.70062E+00
 -1     10357 5.70062E+00
 -1     10358 5.70351E+00
 -1     10359 5.70351E+00
 -1     10360 5.70351E+00
 -1     10361 5.70351E+00
 -1     10362 5.70351E+00
 -1     10363 5.68811E+00
 -1     10364 5.67270E+00
 -1     10365 5.67270E+00
 -1     10366 5.68811E+00
 -1     10367 5.70351E+00
 -1     10368 5.70351E+00
 -1     10369 5.70351E+00
 -1     10370 5.70351E+00
 -1     10371 5.70351E+00
 -1     10372 5.70062E+00
 -1     10373 5.43867E+00
 -1     10374 5.57283E+00
 -1     10375 5.44214E+00
 -1     10376 5.44214E+00
 -1     10377 5.57283E+00
 -1     10378 5.44214E+00
 -1     10379 5.42668E+00
 -1     10380 5.54196E+00
 -1     10381 5.41122E+00
 -1     10382 5.42668E+00
 -1     10383 5.57283E+00
 -1     10384 5.44214E+00
 -1     10385 5.44214E+00
 -1     10386 5.57283E+00
 -1     10387 5.44214E+00
 -1     10388 5.43867E+00
 -1     10389 4.81687E+00
 -1     10390 5.13100E+00
 -1     10391 4.81986E+00
 -1     10392 4.81986E+00
 -1     10393 5.13100E+00
 -1     10394 4.81986E+00
 -1     10395 4.80320E+00
 -1     10396 5.09888E+00
 -1     10397 4.78654E+00
 -1     10398 4.80320E+00
 -1     10399 5.13100E+00
 -1     10400 4.81986E+00
 -1     10401 4.81986E+00
 -1     10402 5.13100E+00
 -1     10403 4.81986E+00
 -1     10404 4.81687E+00
 -1     10405 3.82895E+00
 -1     10406 4.32553E+00
 -1     10407 3.83119E+00
 -1     10408 3.83119E+00
 -1     10409 4.32553E+00
 -1     10410 3.83119E+00
 -1     10411 3.81254E+00
 -1     10412 4.29021E+00
 -1     10413 3.79388E+00
 -1     10414 3.81254E+00
 -1     10415 4.32553E+00
 -1     10416 3.83119E+00
 -1     10417 3.83119E+00
 -1     10418 4.32553E+00
 -1     10419 3.83119E+00
 -1     10420 3.82895E+00
 -1     10421 3.33006E+00
 -1     10422 3.58082E+00
 -1     10423 3.33045E+00
 -1     10424 3.33045E+00
 -1     10425 3.58082E+00
 -1     10426 3.33045E+00
 -1     10427 3.32451E+00
 -1     10428 3.55623E+00
 -1     10429 3.31857E+00
 -1     10430 3.32451E+00
 -1     10431 3.58082E+00
 -1     10432 3.33045E+00
 -1     10433 3.33045E+00
 -1     10434 3.58082E+00
 -1     10435 3.33045E+00
 -1     10436 3.33006E+00
 -1     10437 2.86318E+00
 -1     10438 3.09698E+00
 -1     10439 2.86351E+00
 -1     10440 2.86351E+00
 -1     10441 3.09698E+00
 -1     10442 2.86351E+00
 -1     10443 2.85624E+00
 -1     10444 3.08377E+00
 -1     10445 2.84897E+00
 -1     10446 2.85624E+00
 -1     10447 3.09698E+00
 -1     10448 2.86351E+00
 -1     10449 2.86351E+00
 -1     10450 3.09698E+00
 -1     10451 2.86351E+00
 -1     10452 2.86318E+00
 -1     10453 2.55329E+00
 -1     10454 2.70932E+00
 -1     10455 2.44111E+00
 -1     10456 2.55513E+00
 -1     10457 2.70932E+00
 -1     10458 2.43570E+00
 -1     10459 2.54810E+00
 -1     10460 2.69501E+00
 -1     10461 2.41578E+00
 -1     10462 2.54810E+00
 -1     10463 2.70932E+00
 -1     10464 2.43570E+00
 -1     10465 2.55513E+00
 -1     10466 2.70932E+00
 -1     10467 2.44111E+00
 -1     10468 2.55329E+00
 -1     10469 2.14231E+00
 -1     10470 2.35083E+00
 -1     10471 2.23417E+00
 -1     10472 2.14654E+00
 -1     10473 2.35083E+00
 -1     10474 2.22119E+00
 -1     10475 2.13675E+00
 -1     10476 2.33401E+00
 -1     10477 2.20200E+00
 -1     10478 2.13675E+00
 -1     10479 2.35083E+00
 -1     10480 2.22119E+00
 -1     10481 2.14654E+00
 -1     10482 2.35083E+00
 -1     10483 2.23417E+00
 -1     10484 2.14231E+00
 -1     10485 1.52548E+00
 -1     10486 1.84046E+00
 -1     10487 1.94191E+00
 -1     10488 1.53438E+00
 -1     10489 1.84046E+00
 -1     10490 1.92101E+00
 -1     10491 1.51705E+00
 -1     10492 1.81334E+00
 -1     10493 1.89958E+00
 -1     10494 1.51705E+00
 -1     10495 1.84046E+00
 -1     10496 1.92101E+00
 -1     10497 1.53438E+00
 -1     10498 1.84046E+00
 -1     10499 1.94191E+00
 -1     10500 1.52548E+00
 -1     10501 9.98546E-01
 -1     10502 1.27201E+00
 -1     10503 1.92828E+00
 -1     10504 1.00964E+00
 -1     10505 1.27201E+00
 -1     10506 1.87565E+00
 -1     10507 9.10205E-01
 -1     10508 1.15525E+00
 -1     10509 1.77621E+00
 -1     10510 9.10205E-01
 -1     10511 1.27201E+00
 -1     10512 1.87565E+00
 -1     10513 1.00964E+00
 -1     10514 1.27201E+00
 -1     10515 1.92828E+00
 -1     10516 9.98546E-01
 -1     10517 1.93522E+00
 -1     10518 1.47243E+00
 -1     10519 2.39107E+00
 -1     10520 1.62092E+00
 -1     10521 1.15813E+00
 -1     10522 2.02414E+00
 -1     10523 1.27198E+00
 -1     10524 1.02405E+00
 -1     10525 1.98949E+00
 -1     10526 1.27198E+00
 -1     10527 1.15813E+00
 -1     10528 2.02414E+00
 -1     10529 1.62092E+00
 -1     10530 1.47243E+00
 -1     10531 2.39107E+00
 -1     10532 1.93522E+00
 -1     10533 1.93522E+00
 -1     10534 1.30662E+00
 -1     10535 1.23733E+00
 -1     10536 1.30662E+00
 -1     10537 1.93522E+00
 -1     10538 4.22652E+01
 -1     10539 4.26096E+01
 -1     10540 3.85702E+01
 -1     10541 4.27317E+01
 -1     10542 4.28539E+01
 -1     10543 3.87803E+01
 -1     10544 4.28539E+01
 -1     10545 4.28539E+01
 -1     10546 3.87803E+01
 -1     10547 4.28539E+01
 -1     10548 4.28539E+01
 -1     10549 3.87803E+01
 -1     10550 4.27317E+01
 -1     10551 4.26096E+01
 -1     10552 3.85702E+01
 -1     10553 4.22652E+01
 -1     10554 1.62355E+01
 -1     10555 2.94225E+01
 -1     10556 1.41940E+01
 -1     10557 1.61613E+01
 -1     10558 2.94705E+01
 -1     10559 1.40551E+01
 -1     10560 1.60423E+01
 -1     10561 2.94257E+01
 -1     10562 1.39661E+01
 -1     10563 1.60423E+01
 -1     10564 2.94705E+01
 -1     10565 1.40551E+01
 -1     10566 1.61613E+01
 -1     10567 2.94225E+01
 -1     10568 1.41940E+01
 -1     10569 1.62355E+01
 -1     10570 5.66884E+00
 -1     10571 1.09522E+01
 -1     10572 4.51422E+00
 -1     10573 5.62049E+00
 -1     10574 1.08296E+01
 -1     10575 4.44968E+00
 -1     10576 5.52736E+00
 -1     10577 1.07400E+01
 -1     10578 4.39038E+00
 -1     10579 5.52736E+00
 -1     10580 1.08296E+01
 -1     10581 4.44968E+00
 -1     10582 5.62049E+00
 -1     10583 1.09522E+01
 -1     10584 4.51422E+00
 -1     10585 5.66884E+00
 -1     10586 2.36753E+00
 -1     10587 4.01819E+00
 -1     10588 1.98427E+00
 -1     10589 2.35693E+00
 -1     10590 3.95923E+00
 -1     10591 1.95891E+00
 -1     10592 2.33559E+00
 -1     10593 3.90372E+00
 -1     10594 1.93424E+00
 -1     10595 2.33559E+00
 -1     10596 3.95923E+00
 -1     10597 1.95891E+00
 -1     10598 2.35693E+00
 -1     10599 4.01819E+00
 -1     10600 1.98427E+00
 -1     10601 2.36753E+00
 -1     10602 2.03748E+00
 -1     10603 2.20289E+00
 -1     10604 1.83936E+00
 -1     10605 2.03824E+00
 -1     10606 2.19229E+00
 -1     10607 1.83089E+00
 -1     10608 2.03509E+00
 -1     10609 2.17840E+00
 -1     10610 1.81672E+00
 -1     10611 2.03509E+00
 -1     10612 2.19229E+00
 -1     10613 1.83089E+00
 -1     10614 2.03824E+00
 -1     10615 2.20289E+00
 -1     10616 1.83936E+00
 -1     10617 2.03748E+00
 -1     10618 2.36948E+00
 -1     10619 2.20408E+00
 -1     10620 2.37201E+00
 -1     10621 2.36992E+00
 -1     10622 2.20408E+00
 -1     10623 2.36663E+00
 -1     10624 2.36730E+00
 -1     10625 2.19832E+00
 -1     10626 2.35550E+00
 -1     10627 2.36730E+00
 -1     10628 2.20408E+00
 -1     10629 2.36663E+00
 -1     10630 2.36992E+00
 -1     10631 2.20408E+00
 -1     10632 2.37201E+00
 -1     10633 2.36948E+00
 -1     10634 2.58454E+00
 -1     10635 2.47723E+00
 -1     10636 2.78691E+00
 -1     10637 2.58437E+00
 -1     10638 2.47707E+00
 -1     10639 2.78558E+00
 -1     10640 2.58061E+00
 -1     10641 2.47085E+00
 -1     10642 2.77631E+00
 -1     10643 2.58061E+00
 -1     10644 2.47707E+00
 -1     10645 2.78558E+00
 -1     10646 2.58437E+00
 -1     10647 2.47723E+00
 -1     10648 2.78691E+00
 -1     10649 2.58454E+00
 -1     10650 2.88549E+00
 -1     10651 2.73501E+00
 -1     10652 3.20586E+00
 -1     10653 2.88504E+00
 -1     10654 2.73440E+00
 -1     10655 3.20521E+00
 -1     10656 2.88119E+00
 -1     10657 2.72741E+00
 -1     10658 3.19701E+00
 -1     10659 2.88119E+00
 -1     10660 2.73440E+00
 -1     10661 3.20521E+00
 -1     10662 2.88504E+00
 -1     10663 2.73501E+00
 -1     10664 3.20586E+00
 -1     10665 2.88549E+00
 -1     10666 3.03028E+00
 -1     10667 2.95788E+00
 -1     10668 3.79609E+00
 -1     10669 3.02956E+00
 -1     10670 2.95671E+00
 -1     10671 3.79537E+00
 -1     10672 3.02554E+00
 -1     10673 2.95001E+00
 -1     10674 3.77637E+00
 -1     10675 3.02554E+00
 -1     10676 2.95671E+00
 -1     10677 3.79537E+00
 -1     10678 3.02956E+00
 -1     10679 2.95788E+00
 -1     10680 3.79609E+00
 -1     10681 3.03028E+00
 -1     10682 3.06083E+00
 -1     10683 3.04555E+00
 -1     10684 4.21658E+00
 -1     10685 3.05991E+00
 -1     10686 3.04392E+00
 -1     10687 4.21566E+00
 -1     10688 3.05571E+00
 -1     10689 3.03733E+00
 -1     10690 4.19784E+00
 -1     10691 3.05571E+00
 -1     10692 3.04392E+00
 -1     10693 4.21566E+00
 -1     10694 3.05991E+00
 -1     10695 3.04555E+00
 -1     10696 4.21658E+00
 -1     10697 3.06083E+00
 -1     10698 3.06083E+00
 -1     10699 3.06083E+00
 -1     10700 4.37886E+00
 -1     10701 3.05991E+00
 -1     10702 3.05900E+00
 -1     10703 4.37794E+00
 -1     10704 3.05571E+00
 -1     10705 3.05243E+00
 -1     10706 4.36077E+00
 -1     10707 3.05571E+00
 -1     10708 3.05900E+00
 -1     10709 4.37794E+00
 -1     10710 3.05991E+00
 -1     10711 3.06083E+00
 -1     10712 4.37886E+00
 -1     10713 3.06083E+00
 -1     10714 3.01077E+00
 -1     10715 3.03580E+00
 -1     10716 4.35714E+00
 -1     10717 3.00967E+00
 -1     10718 3.03379E+00
 -1     10719 4.35605E+00
 -1     10720 3.00529E+00
 -1     10721 3.02722E+00
 -1     10722 4.33735E+00
 -1     10723 3.00529E+00
 -1     10724 3.03379E+00
 -1     10725 4.35605E+00
 -1     10726 3.00967E+00
 -1     10727 3.03580E+00
 -1     10728 4.35714E+00
 -1     10729 3.01077E+00
 -1     10730 3.07072E+00
 -1     10731 3.04074E+00
 -1     10732 4.38712E+00
 -1     10733 3.07010E+00
 -1     10734 3.03902E+00
 -1     10735 4.38649E+00
 -1     10736 3.06592E+00
 -1     10737 3.03219E+00
 -1     10738 4.36753E+00
 -1     10739 3.06592E+00
 -1     10740 3.03902E+00
 -1     10741 4.38649E+00
 -1     10742 3.07010E+00
 -1     10743 3.04074E+00
 -1     10744 4.38712E+00
 -1     10745 3.07072E+00
 -1     10746 3.09291E+00
 -1     10747 3.08182E+00
 -1     10748 4.26752E+00
 -1     10749 3.09247E+00
 -1     10750 3.08075E+00
 -1     10751 4.26709E+00
 -1     10752 3.08834E+00
 -1     10753 3.07351E+00
 -1     10754 4.24793E+00
 -1     10755 3.08834E+00
 -1     10756 3.08075E+00
 -1     10757 4.26709E+00
 -1     10758 3.09247E+00
 -1     10759 3.08182E+00
 -1     10760 4.26752E+00
 -1     10761 3.09291E+00
 -1     10762 3.09291E+00
 -1     10763 3.09291E+00
 -1     10764 3.95639E+00
 -1     10765 3.09247E+00
 -1     10766 3.09203E+00
 -1     10767 3.95595E+00
 -1     10768 3.08834E+00
 -1     10769 3.08465E+00
 -1     10770 3.93560E+00
 -1     10771 3.08834E+00
 -1     10772 3.09203E+00
 -1     10773 3.95595E+00
 -1     10774 3.09247E+00
 -1     10775 3.09291E+00
 -1     10776 3.95639E+00
 -1     10777 3.09291E+00
 -1     10778 3.06483E+00
 -1     10779 3.07887E+00
 -1     10780 3.44801E+00
 -1     10781 3.06464E+00
 -1     10782 3.07824E+00
 -1     10783 3.44782E+00
 -1     10784 3.06049E+00
 -1     10785 3.07059E+00
 -1     10786 3.42521E+00
 -1     10787 3.06049E+00
 -1     10788 3.07824E+00
 -1     10789 3.44782E+00
 -1     10790 3.06464E+00
 -1     10791 3.07887E+00
 -1     10792 3.44801E+00
 -1     10793 3.06483E+00
 -1     10794 2.97782E+00
 -1     10795 3.02141E+00
 -1     10796 3.15422E+00
 -1     10797 2.97799E+00
 -1     10798 3.02122E+00
 -1     10799 3.15422E+00
 -1     10800 2.97355E+00
 -1     10801 3.01282E+00
 -1     10802 3.14383E+00
 -1     10803 2.97355E+00
 -1     10804 3.02122E+00
 -1     10805 3.15422E+00
 -1     10806 2.97799E+00
 -1     10807 3.02141E+00
 -1     10808 3.15422E+00
 -1     10809 2.97782E+00
 -1     10810 2.81642E+00
 -1     10811 2.89758E+00
 -1     10812 2.84034E+00
 -1     10813 2.81718E+00
 -1     10814 2.89758E+00
 -1     10815 2.84034E+00
 -1     10816 2.81186E+00
 -1     10817 2.88782E+00
 -1     10818 2.82776E+00
 -1     10819 2.81186E+00
 -1     10820 2.89758E+00
 -1     10821 2.84034E+00
 -1     10822 2.81718E+00
 -1     10823 2.89758E+00
 -1     10824 2.84034E+00
 -1     10825 2.81642E+00
 -1     10826 2.70406E+00
 -1     10827 2.76155E+00
 -1     10828 2.63053E+00
 -1     10829 2.70593E+00
 -1     10830 2.76155E+00
 -1     10831 2.63053E+00
 -1     10832 2.70077E+00
 -1     10833 2.75108E+00
 -1     10834 2.61834E+00
 -1     10835 2.70077E+00
 -1     10836 2.76155E+00
 -1     10837 2.63053E+00
 -1     10838 2.70593E+00
 -1     10839 2.76155E+00
 -1     10840 2.63053E+00
 -1     10841 2.70406E+00
 -1     10842 2.54577E+00
 -1     10843 2.62793E+00
 -1     10844 2.34824E+00
 -1     10845 2.54993E+00
 -1     10846 2.62793E+00
 -1     10847 2.34824E+00
 -1     10848 2.54304E+00
 -1     10849 2.61588E+00
 -1     10850 2.33155E+00
 -1     10851 2.54304E+00
 -1     10852 2.62793E+00
 -1     10853 2.34824E+00
 -1     10854 2.54993E+00
 -1     10855 2.62793E+00
 -1     10856 2.34824E+00
 -1     10857 2.54577E+00
 -1     10858 2.14750E+00
 -1     10859 2.35452E+00
 -1     10860 1.84675E+00
 -1     10861 2.15911E+00
 -1     10862 2.35452E+00
 -1     10863 1.84675E+00
 -1     10864 2.14233E+00
 -1     10865 2.33085E+00
 -1     10866 1.81264E+00
 -1     10867 2.14233E+00
 -1     10868 2.35452E+00
 -1     10869 1.84675E+00
 -1     10870 2.15911E+00
 -1     10871 2.35452E+00
 -1     10872 1.84675E+00
 -1     10873 2.14750E+00
 -1     10874 1.67660E+00
 -1     10875 1.95591E+00
 -1     10876 1.38117E+00
 -1     10877 1.75270E+00
 -1     10878 1.95591E+00
 -1     10879 1.38117E+00
 -1     10880 1.66869E+00
 -1     10881 1.85511E+00
 -1     10882 1.19772E+00
 -1     10883 1.66869E+00
 -1     10884 1.95591E+00
 -1     10885 1.38117E+00
 -1     10886 1.75270E+00
 -1     10887 1.95591E+00
 -1     10888 1.38117E+00
 -1     10889 1.67660E+00
 -1     10890 1.75721E+00
 -1     10891 1.75496E+00
 -1     10892 1.84622E+00
 -1     10893 1.75496E+00
 -1     10894 1.75270E+00
 -1     10895 1.52966E+00
 -1     10896 1.69832E+00
 -1     10897 1.61431E+00
 -1     10898 1.44063E+00
 -1     10899 1.69832E+00
 -1     10900 1.75270E+00
 -1     10901 1.52966E+00
 -1     10902 1.75496E+00
 -1     10903 1.75496E+00
 -1     10904 1.84622E+00
 -1     10905 1.75721E+00
 -1     10906 1.75721E+00
 -1     10907 1.69941E+00
 -1     10908 1.64394E+00
 -1     10909 1.69941E+00
 -1     10910 1.75721E+00
 -1     10911 5.03048E+01
 -1     10912 5.05652E+01
 -1     10913 4.65874E+01
 -1     10914 5.06766E+01
 -1     10915 5.07880E+01
 -1     10916 4.68210E+01
 -1     10917 5.07880E+01
 -1     10918 5.07880E+01
 -1     10919 4.68210E+01
 -1     10920 5.07880E+01
 -1     10921 5.07880E+01
 -1     10922 4.68210E+01
 -1     10923 5.06766E+01
 -1     10924 5.05652E+01
 -1     10925 4.65874E+01
 -1     10926 5.03048E+01
 -1     10927 2.09177E+01
 -1     10928 3.57414E+01
 -1     10929 1.85766E+01
 -1     10930 2.08319E+01
 -1     10931 3.57671E+01
 -1     10932 1.84167E+01
 -1     10933 2.06978E+01
 -1     10934 3.57187E+01
 -1     10935 1.83234E+01
 -1     10936 2.06978E+01
 -1     10937 3.57671E+01
 -1     10938 1.84167E+01
 -1     10939 2.08319E+01
 -1     10940 3.57414E+01
 -1     10941 1.85766E+01
 -1     10942 2.09177E+01
 -1     10943 9.03938E+00
 -1     10944 1.49785E+01
 -1     10945 7.35411E+00
 -1     10946 9.00493E+00
 -1     10947 1.48583E+01
 -1     10948 7.27131E+00
 -1     10949 8.93436E+00
 -1     10950 1.47738E+01
 -1     10951 7.19041E+00
 -1     10952 8.93436E+00
 -1     10953 1.48583E+01
 -1     10954 7.27131E+00
 -1     10955 9.00493E+00
 -1     10956 1.49785E+01
 -1     10957 7.35411E+00
 -1     10958 9.03938E+00
 -1     10959 3.12514E+00
 -1     10960 6.08226E+00
 -1     10961 2.74634E+00
 -1     10962 3.11824E+00
 -1     10963 6.04091E+00
 -1     10964 2.72883E+00
 -1     10965 3.10342E+00
 -1     10966 5.99687E+00
 -1     10967 2.71017E+00
 -1     10968 3.10342E+00
 -1     10969 6.04091E+00
 -1     10970 2.72883E+00
 -1     10971 3.11824E+00
 -1     10972 6.08226E+00
 -1     10973 2.74634E+00
 -1     10974 3.12514E+00
 -1     10975 2.52733E+00
 -1     10976 2.82697E+00
 -1     10977 2.28352E+00
 -1     10978 2.52879E+00
 -1     10979 2.82006E+00
 -1     10980 2.28352E+00
 -1     10981 2.52712E+00
 -1     10982 2.81048E+00
 -1     10983 2.27870E+00
 -1     10984 2.52712E+00
 -1     10985 2.82006E+00
 -1     10986 2.28352E+00
 -1     10987 2.52879E+00
 -1     10988 2.82697E+00
 -1     10989 2.28352E+00
 -1     10990 2.52733E+00
 -1     10991 2.56461E+00
 -1     10992 2.54694E+00
 -1     10993 2.46750E+00
 -1     10994 2.56508E+00
 -1     10995 2.54694E+00
 -1     10996 2.46750E+00
 -1     10997 2.56339E+00
 -1     10998 2.54357E+00
 -1     10999 2.46319E+00
 -1     11000 2.56339E+00
 -1     11001 2.54694E+00
 -1     11002 2.46750E+00
 -1     11003 2.56508E+00
 -1     11004 2.54694E+00
 -1     11005 2.46750E+00
 -1     11006 2.56461E+00
 -1     11007 2.56461E+00
 -1     11008 2.56508E+00
 -1     11009 2.57481E+00
 -1     11010 2.56508E+00
 -1     11011 2.56508E+00
 -1     11012 2.57465E+00
 -1     11013 2.56339E+00
 -1     11014 2.56169E+00
 -1     11015 2.56935E+00
 -1     11016 2.56339E+00
 -1     11017 2.56508E+00
 -1     11018 2.57465E+00
 -1     11019 2.56508E+00
 -1     11020 2.56508E+00
 -1     11021 2.57481E+00
 -1     11022 2.56461E+00
 -1     11023 2.59769E+00
 -1     11024 2.58139E+00
 -1     11025 2.74159E+00
 -1     11026 2.59699E+00
 -1     11027 2.58068E+00
 -1     11028 2.74043E+00
 -1     11029 2.59374E+00
 -1     11030 2.57644E+00
 -1     11031 2.73450E+00
 -1     11032 2.59374E+00
 -1     11033 2.58068E+00
 -1     11034 2.74043E+00
 -1     11035 2.59699E+00
 -1     11036 2.58139E+00
 -1     11037 2.74159E+00
 -1     11038 2.59769E+00
 -1     11039 2.59769E+00
 -1     11040 2.59769E+00
 -1     11041 2.81398E+00
 -1     11042 2.59699E+00
 -1     11043 2.59628E+00
 -1     11044 2.81257E+00
 -1     11045 2.59374E+00
 -1     11046 2.59120E+00
 -1     11047 2.80671E+00
 -1     11048 2.59374E+00
 -1     11049 2.59628E+00
 -1     11050 2.81257E+00
 -1     11051 2.59699E+00
 -1     11052 2.59769E+00
 -1     11053 2.81398E+00
 -1     11054 2.59769E+00
 -1     11055 2.55971E+00
 -1     11056 2.57870E+00
 -1     11057 2.81027E+00
 -1     11058 2.55868E+00
 -1     11059 2.57696E+00
 -1     11060 2.80832E+00
 -1     11061 2.55506E+00
 -1     11062 2.57184E+00
 -1     11063 2.80246E+00
 -1     11064 2.55506E+00
 -1     11065 2.57696E+00
 -1     11066 2.80832E+00
 -1     11067 2.55868E+00
 -1     11068 2.57870E+00
 -1     11069 2.81027E+00
 -1     11070 2.55971E+00
 -1     11071 2.46765E+00
 -1     11072 2.51368E+00
 -1     11073 2.76424E+00
 -1     11074 2.46640E+00
 -1     11075 2.51140E+00
 -1     11076 2.76207E+00
 -1     11077 2.46254E+00
 -1     11078 2.50621E+00
 -1     11079 2.75618E+00
 -1     11080 2.46254E+00
 -1     11081 2.51140E+00
 -1     11082 2.76207E+00
 -1     11083 2.46640E+00
 -1     11084 2.51368E+00
 -1     11085 2.76424E+00
 -1     11086 2.46765E+00
 -1     11087 2.34082E+00
 -1     11088 2.40423E+00
 -1     11089 2.67579E+00
 -1     11090 2.33940E+00
 -1     11091 2.40157E+00
 -1     11092 2.67328E+00
 -1     11093 2.33536E+00
 -1     11094 2.39633E+00
 -1     11095 2.66737E+00
 -1     11096 2.33536E+00
 -1     11097 2.40157E+00
 -1     11098 2.67328E+00
 -1     11099 2.33940E+00
 -1     11100 2.40423E+00
 -1     11101 2.67579E+00
 -1     11102 2.34082E+00
 -1     11103 2.45849E+00
 -1     11104 2.39966E+00
 -1     11105 2.76461E+00
 -1     11106 2.45753E+00
 -1     11107 2.39727E+00
 -1     11108 2.76301E+00
 -1     11109 2.45370E+00
 -1     11110 2.39179E+00
 -1     11111 2.75660E+00
 -1     11112 2.45370E+00
 -1     11113 2.39727E+00
 -1     11114 2.76301E+00
 -1     11115 2.45753E+00
 -1     11116 2.39966E+00
 -1     11117 2.76461E+00
 -1     11118 2.45849E+00
 -1     11119 2.56693E+00
 -1     11120 2.51271E+00
 -1     11121 2.82992E+00
 -1     11122 2.56618E+00
 -1     11123 2.51099E+00
 -1     11124 2.82873E+00
 -1     11125 2.56249E+00
 -1     11126 2.50520E+00
 -1     11127 2.82210E+00
 -1     11128 2.56249E+00
 -1     11129 2.51099E+00
 -1     11130 2.82873E+00
 -1     11131 2.56618E+00
 -1     11132 2.51271E+00
 -1     11133 2.82992E+00
 -1     11134 2.56693E+00
 -1     11135 2.65406E+00
 -1     11136 2.61049E+00
 -1     11137 2.87348E+00
 -1     11138 2.65361E+00
 -1     11139 2.60929E+00
 -1     11140 2.87259E+00
 -1     11141 2.65006E+00
 -1     11142 2.60326E+00
 -1     11143 2.86581E+00
 -1     11144 2.65006E+00
 -1     11145 2.60929E+00
 -1     11146 2.87259E+00
 -1     11147 2.65361E+00
 -1     11148 2.61049E+00
 -1     11149 2.87348E+00
 -1     11150 2.65406E+00
 -1     11151 2.71555E+00
 -1     11152 2.68480E+00
 -1     11153 2.89019E+00
 -1     11154 2.71554E+00
 -1     11155 2.68435E+00
 -1     11156 2.89000E+00
 -1     11157 2.71215E+00
 -1     11158 2.67787E+00
 -1     11159 2.88265E+00
 -1     11160 2.71215E+00
 -1     11161 2.68435E+00
 -1     11162 2.89000E+00
 -1     11163 2.71554E+00
 -1     11164 2.68480E+00
 -1     11165 2.89019E+00
 -1     11166 2.71555E+00
 -1     11167 2.74090E+00
 -1     11168 2.72858E+00
 -1     11169 2.85980E+00
 -1     11170 2.74161E+00
 -1     11171 2.72857E+00
 -1     11172 2.85980E+00
 -1     11173 2.73765E+00
 -1     11174 2.72123E+00
 -1     11175 2.85140E+00
 -1     11176 2.73765E+00
 -1     11177 2.72857E+00
 -1     11178 2.85980E+00
 -1     11179 2.74161E+00
 -1     11180 2.72858E+00
 -1     11181 2.85980E+00
 -1     11182 2.74090E+00
 -1     11183 2.77260E+00
 -1     11184 2.75779E+00
 -1     11185 2.79558E+00
 -1     11186 2.77398E+00
 -1     11187 2.75779E+00
 -1     11188 2.79558E+00
 -1     11189 2.77022E+00
 -1     11190 2.75008E+00
 -1     11191 2.78650E+00
 -1     11192 2.77022E+00
 -1     11193 2.75779E+00
 -1     11194 2.79558E+00
 -1     11195 2.77398E+00
 -1     11196 2.75779E+00
 -1     11197 2.79558E+00
 -1     11198 2.77260E+00
 -1     11199 2.84483E+00
 -1     11200 2.81090E+00
 -1     11201 2.77688E+00
 -1     11202 2.84782E+00
 -1     11203 2.81090E+00
 -1     11204 2.77688E+00
 -1     11205 2.84269E+00
 -1     11206 2.80201E+00
 -1     11207 2.76659E+00
 -1     11208 2.84269E+00
 -1     11209 2.81090E+00
 -1     11210 2.77688E+00
 -1     11211 2.84782E+00
 -1     11212 2.81090E+00
 -1     11213 2.77688E+00
 -1     11214 2.84483E+00
 -1     11215 2.84483E+00
 -1     11216 2.84782E+00
 -1     11217 2.69888E+00
 -1     11218 2.84782E+00
 -1     11219 2.84782E+00
 -1     11220 2.69888E+00
 -1     11221 2.84269E+00
 -1     11222 2.83756E+00
 -1     11223 2.68685E+00
 -1     11224 2.84269E+00
 -1     11225 2.84782E+00
 -1     11226 2.69888E+00
 -1     11227 2.84782E+00
 -1     11228 2.84782E+00
 -1     11229 2.69888E+00
 -1     11230 2.84483E+00
 -1     11231 2.75068E+00
 -1     11232 2.80451E+00
 -1     11233 2.46016E+00
 -1     11234 2.76120E+00
 -1     11235 2.80451E+00
 -1     11236 2.46016E+00
 -1     11237 2.74627E+00
 -1     11238 2.78445E+00
 -1     11239 2.42845E+00
 -1     11240 2.74627E+00
 -1     11241 2.80451E+00
 -1     11242 2.46016E+00
 -1     11243 2.76120E+00
 -1     11244 2.80451E+00
 -1     11245 2.46016E+00
 -1     11246 2.75068E+00
 -1     11247 2.75103E+00
 -1     11248 2.79169E+00
 -1     11249 2.28744E+00
 -1     11250 2.82217E+00
 -1     11251 2.79169E+00
 -1     11252 2.28744E+00
 -1     11253 2.77122E+00
 -1     11254 2.72581E+00
 -1     11255 2.15247E+00
 -1     11256 2.77122E+00
 -1     11257 2.79169E+00
 -1     11258 2.28744E+00
 -1     11259 2.82217E+00
 -1     11260 2.79169E+00
 -1     11261 2.28744E+00
 -1     11262 2.75103E+00
 -1     11263 3.01587E+00
 -1     11264 2.91902E+00
 -1     11265 2.38654E+00
 -1     11266 2.98469E+00
 -1     11267 2.88785E+00
 -1     11268 2.35311E+00
 -1     11269 2.94534E+00
 -1     11270 2.82872E+00
 -1     11271 2.29055E+00
 -1     11272 2.94534E+00
 -1     11273 2.88785E+00
 -1     11274 2.35311E+00
 -1     11275 2.98469E+00
 -1     11276 2.91902E+00
 -1     11277 2.38654E+00
 -1     11278 3.01587E+00
 -1     11279 3.01587E+00
 -1     11280 2.95352E+00
 -1     11281 2.93717E+00
 -1     11282 2.95352E+00
 -1     11283 3.01587E+00
 -1     11284 5.87816E+01
 -1     11285 5.87816E+01
 -1     11286 5.46734E+01
 -1     11287 5.84747E+01
 -1     11288 5.81678E+01
 -1     11289 5.44779E+01
 -1     11290 5.81481E+01
 -1     11291 5.81285E+01
 -1     11292 5.44582E+01
 -1     11293 5.81481E+01
 -1     11294 5.81678E+01
 -1     11295 5.44779E+01
 -1     11296 5.84747E+01
 -1     11297 5.87816E+01
 -1     11298 5.46734E+01
 -1     11299 5.87816E+01
 -1     11300 2.66389E+01
 -1     11301 4.27102E+01
 -1     11302 2.37783E+01
 -1     11303 2.65612E+01
 -1     11304 4.23257E+01
 -1     11305 2.36149E+01
 -1     11306 2.64352E+01
 -1     11307 4.22576E+01
 -1     11308 2.35181E+01
 -1     11309 2.64352E+01
 -1     11310 4.23257E+01
 -1     11311 2.36149E+01
 -1     11312 2.65612E+01
 -1     11313 4.27102E+01
 -1     11314 2.37783E+01
 -1     11315 2.66389E+01
 -1     11316 1.30251E+01
 -1     11317 1.98320E+01
 -1     11318 1.10322E+01
 -1     11319 1.30115E+01
 -1     11320 1.97408E+01
 -1     11321 1.09842E+01
 -1     11322 1.29728E+01
 -1     11323 1.96673E+01
 -1     11324 1.09230E+01
 -1     11325 1.29728E+01
 -1     11326 1.97408E+01
 -1     11327 1.09842E+01
 -1     11328 1.30115E+01
 -1     11329 1.98320E+01
 -1     11330 1.10322E+01
 -1     11331 1.30251E+01
 -1     11332 4.49250E+00
 -1     11333 8.75879E+00
 -1     11334 3.80882E+00
 -1     11335 4.47869E+00
 -1     11336 8.73141E+00
 -1     11337 3.78811E+00
 -1     11338 4.44508E+00
 -1     11339 8.68649E+00
 -1     11340 3.76039E+00
 -1     11341 4.44508E+00
 -1     11342 8.73141E+00
 -1     11343 3.78811E+00
 -1     11344 4.47869E+00
 -1     11345 8.75879E+00
 -1     11346 3.80882E+00
 -1     11347 4.49250E+00
 -1     11348 3.10611E+00
 -1     11349 3.80096E+00
 -1     11350 2.81910E+00
 -1     11351 3.10941E+00
 -1     11352 3.78714E+00
 -1     11353 2.81910E+00
 -1     11354 3.10867E+00
 -1     11355 3.76661E+00
 -1     11356 2.81670E+00
 -1     11357 3.10867E+00
 -1     11358 3.78714E+00
 -1     11359 2.81910E+00
 -1     11360 3.10941E+00
 -1     11361 3.80096E+00
 -1     11362 2.81910E+00
 -1     11363 3.10611E+00
 -1     11364 2.92078E+00
 -1     11365 3.01590E+00
 -1     11366 2.74374E+00
 -1     11367 2.92239E+00
 -1     11368 3.01590E+00
 -1     11369 2.74374E+00
 -1     11370 2.92149E+00
 -1     11371 3.01427E+00
 -1     11372 2.74114E+00
 -1     11373 2.92149E+00
 -1     11374 3.01590E+00
 -1     11375 2.74374E+00
 -1     11376 2.92239E+00
 -1     11377 3.01590E+00
 -1     11378 2.74374E+00
 -1     11379 2.92078E+00
 -1     11380 2.68866E+00
 -1     11381 2.80566E+00
 -1     11382 2.62701E+00
 -1     11383 2.68893E+00
 -1     11384 2.80566E+00
 -1     11385 2.62701E+00
 -1     11386 2.68766E+00
 -1     11387 2.80349E+00
 -1     11388 2.62404E+00
 -1     11389 2.68766E+00
 -1     11390 2.80566E+00
 -1     11391 2.62701E+00
 -1     11392 2.68893E+00
 -1     11393 2.80566E+00
 -1     11394 2.62701E+00
 -1     11395 2.68866E+00
 -1     11396 2.50420E+00
 -1     11397 2.59656E+00
 -1     11398 2.55094E+00
 -1     11399 2.50388E+00
 -1     11400 2.59624E+00
 -1     11401 2.54992E+00
 -1     11402 2.50170E+00
 -1     11403 2.59311E+00
 -1     11404 2.54552E+00
 -1     11405 2.50170E+00
 -1     11406 2.59624E+00
 -1     11407 2.54992E+00
 -1     11408 2.50388E+00
 -1     11409 2.59656E+00
 -1     11410 2.55094E+00
 -1     11411 2.50420E+00
 -1     11412 2.38622E+00
 -1     11413 2.44521E+00
 -1     11414 2.49195E+00
 -1     11415 2.38541E+00
 -1     11416 2.44408E+00
 -1     11417 2.49044E+00
 -1     11418 2.38261E+00
 -1     11419 2.44024E+00
 -1     11420 2.48591E+00
 -1     11421 2.38261E+00
 -1     11422 2.44408E+00
 -1     11423 2.49044E+00
 -1     11424 2.38541E+00
 -1     11425 2.44521E+00
 -1     11426 2.49195E+00
 -1     11427 2.38622E+00
 -1     11428 2.24002E+00
 -1     11429 2.31312E+00
 -1     11430 2.39986E+00
 -1     11431 2.23893E+00
 -1     11432 2.31122E+00
 -1     11433 2.39774E+00
 -1     11434 2.23578E+00
 -1     11435 2.30717E+00
 -1     11436 2.39310E+00
 -1     11437 2.23578E+00
 -1     11438 2.31122E+00
 -1     11439 2.39774E+00
 -1     11440 2.23893E+00
 -1     11441 2.31312E+00
 -1     11442 2.39986E+00
 -1     11443 2.24002E+00
 -1     11444 2.08080E+00
 -1     11445 2.16041E+00
 -1     11446 2.27423E+00
 -1     11447 2.07954E+00
 -1     11448 2.15806E+00
 -1     11449 2.27171E+00
 -1     11450 2.07617E+00
 -1     11451 2.15389E+00
 -1     11452 2.26700E+00
 -1     11453 2.07617E+00
 -1     11454 2.15806E+00
 -1     11455 2.27171E+00
 -1     11456 2.07954E+00
 -1     11457 2.16041E+00
 -1     11458 2.27423E+00
 -1     11459 2.08080E+00
 -1     11460 1.91359E+00
 -1     11461 1.99720E+00
 -1     11462 2.12721E+00
 -1     11463 1.91220E+00
 -1     11464 1.99454E+00
 -1     11465 2.12440E+00
 -1     11466 1.90868E+00
 -1     11467 1.99031E+00
 -1     11468 2.11965E+00
 -1     11469 1.90868E+00
 -1     11470 1.99454E+00
 -1     11471 2.12440E+00
 -1     11472 1.91220E+00
 -1     11473 1.99720E+00
 -1     11474 2.12721E+00
 -1     11475 1.91359E+00
 -1     11476 2.06217E+00
 -1     11477 1.98788E+00
 -1     11478 2.26033E+00
 -1     11479 2.06120E+00
 -1     11480 1.98552E+00
 -1     11481 2.25839E+00
 -1     11482 2.05793E+00
 -1     11483 1.98110E+00
 -1     11484 2.25324E+00
 -1     11485 2.05793E+00
 -1     11486 1.98552E+00
 -1     11487 2.25839E+00
 -1     11488 2.06120E+00
 -1     11489 1.98788E+00
 -1     11490 2.26033E+00
 -1     11491 2.06217E+00
 -1     11492 2.21445E+00
 -1     11493 2.13831E+00
 -1     11494 2.39069E+00
 -1     11495 2.21366E+00
 -1     11496 2.13655E+00
 -1     11497 2.38915E+00
 -1     11498 2.21053E+00
 -1     11499 2.13192E+00
 -1     11500 2.38387E+00
 -1     11501 2.21053E+00
 -1     11502 2.13655E+00
 -1     11503 2.38915E+00
 -1     11504 2.21366E+00
 -1     11505 2.13831E+00
 -1     11506 2.39069E+00
 -1     11507 2.21445E+00
 -1     11508 2.36221E+00
 -1     11509 2.28833E+00
 -1     11510 2.50814E+00
 -1     11511 2.36169E+00
 -1     11512 2.28702E+00
 -1     11513 2.50716E+00
 -1     11514 2.35874E+00
 -1     11515 2.28225E+00
 -1     11516 2.50164E+00
 -1     11517 2.35874E+00
 -1     11518 2.28702E+00
 -1     11519 2.50716E+00
 -1     11520 2.36169E+00
 -1     11521 2.28833E+00
 -1     11522 2.50814E+00
 -1     11523 2.36221E+00
 -1     11524 2.50696E+00
 -1     11525 2.43459E+00
 -1     11526 2.61125E+00
 -1     11527 2.50682E+00
 -1     11528 2.43393E+00
 -1     11529 2.61112E+00
 -1     11530 2.50408E+00
 -1     11531 2.42888E+00
 -1     11532 2.60511E+00
 -1     11533 2.50408E+00
 -1     11534 2.43393E+00
 -1     11535 2.61112E+00
 -1     11536 2.50682E+00
 -1     11537 2.43459E+00
 -1     11538 2.61125E+00
 -1     11539 2.50696E+00
 -1     11540 2.64729E+00
 -1     11541 2.57735E+00
 -1     11542 2.69468E+00
 -1     11543 2.64775E+00
 -1     11544 2.57722E+00
 -1     11545 2.69468E+00
 -1     11546 2.64478E+00
 -1     11547 2.57164E+00
 -1     11548 2.68775E+00
 -1     11549 2.64478E+00
 -1     11550 2.57722E+00
 -1     11551 2.69468E+00
 -1     11552 2.64775E+00
 -1     11553 2.57735E+00
 -1     11554 2.69468E+00
 -1     11555 2.64729E+00
 -1     11556 2.78733E+00
 -1     11557 2.71754E+00
 -1     11558 2.78066E+00
 -1     11559 2.78708E+00
 -1     11560 2.71729E+00
 -1     11561 2.78041E+00
 -1     11562 2.78475E+00
 -1     11563 2.71224E+00
 -1     11564 2.77457E+00
 -1     11565 2.78475E+00
 -1     11566 2.71729E+00
 -1     11567 2.78041E+00
 -1     11568 2.78708E+00
 -1     11569 2.71754E+00
 -1     11570 2.78066E+00
 -1     11571 2.78733E+00
 -1     11572 3.04837E+00
 -1     11573 2.91797E+00
 -1     11574 2.94822E+00
 -1     11575 3.04861E+00
 -1     11576 2.91772E+00
 -1     11577 2.94822E+00
 -1     11578 3.04591E+00
 -1     11579 2.91294E+00
 -1     11580 2.94038E+00
 -1     11581 3.04591E+00
 -1     11582 2.91772E+00
 -1     11583 2.94822E+00
 -1     11584 3.04861E+00
 -1     11585 2.91797E+00
 -1     11586 2.94822E+00
 -1     11587 3.04837E+00
 -1     11588 3.29232E+00
 -1     11589 3.17279E+00
 -1     11590 3.07240E+00
 -1     11591 3.29697E+00
 -1     11592 3.17279E+00
 -1     11593 3.07240E+00
 -1     11594 3.28934E+00
 -1     11595 3.16246E+00
 -1     11596 3.05964E+00
 -1     11597 3.28934E+00
 -1     11598 3.17279E+00
 -1     11599 3.07240E+00
 -1     11600 3.29697E+00
 -1     11601 3.17279E+00
 -1     11602 3.07240E+00
 -1     11603 3.29232E+00
 -1     11604 3.47271E+00
 -1     11605 3.39230E+00
 -1     11606 3.12441E+00
 -1     11607 3.48763E+00
 -1     11608 3.39230E+00
 -1     11609 3.12441E+00
 -1     11610 3.47912E+00
 -1     11611 3.37616E+00
 -1     11612 3.10098E+00
 -1     11613 3.47912E+00
 -1     11614 3.39230E+00
 -1     11615 3.12441E+00
 -1     11616 3.48763E+00
 -1     11617 3.39230E+00
 -1     11618 3.12441E+00
 -1     11619 3.47271E+00
 -1     11620 6.90343E+00
 -1     11621 5.33017E+00
 -1     11622 4.99744E+00
 -1     11623 7.17271E+00
 -1     11624 5.33017E+00
 -1     11625 4.99744E+00
 -1     11626 7.10133E+00
 -1     11627 5.25028E+00
 -1     11628 4.87511E+00
 -1     11629 7.10133E+00
 -1     11630 5.33017E+00
 -1     11631 4.99744E+00
 -1     11632 7.17271E+00
 -1     11633 5.33017E+00
 -1     11634 4.99744E+00
 -1     11635 6.90343E+00
 -1     11636 1.00648E+01
 -1     11637 8.61877E+00
 -1     11638 6.54034E+00
 -1     11639 9.59136E+00
 -1     11640 8.14531E+00
 -1     11641 6.03571E+00
 -1     11642 9.04954E+00
 -1     11643 8.00556E+00
 -1     11644 5.95917E+00
 -1     11645 9.04954E+00
 -1     11646 8.14531E+00
 -1     11647 6.03571E+00
 -1     11648 9.59136E+00
 -1     11649 8.61877E+00
 -1     11650 6.54034E+00
 -1     11651 1.00648E+01
 -1     11652 1.00648E+01
 -1     11653 9.11791E+00
 -1     11654 8.98118E+00
 -1     11655 9.11791E+00
 -1     11656 1.00648E+01
 -1     11657 6.22173E+01
 -1     11658 6.27473E+01
 -1     11659 6.07645E+01
 -1     11660 6.29054E+01
 -1     11661 6.30635E+01
 -1     11662 6.06156E+01
 -1     11663 6.30635E+01
 -1     11664 6.30635E+01
 -1     11665 6.05960E+01
 -1     11666 6.30635E+01
 -1     11667 6.30635E+01
 -1     11668 6.06156E+01
 -1     11669 6.29054E+01
 -1     11670 6.27473E+01
 -1     11671 6.07645E+01
 -1     11672 6.22173E+01
 -1     11673 3.43580E+01
 -1     11674 4.85526E+01
 -1     11675 3.04984E+01
 -1     11676 3.43459E+01
 -1     11677 4.86986E+01
 -1     11678 3.04087E+01
 -1     11679 3.43079E+01
 -1     11680 4.86727E+01
 -1     11681 3.03344E+01
 -1     11682 3.43079E+01
 -1     11683 4.86986E+01
 -1     11684 3.04087E+01
 -1     11685 3.43459E+01
 -1     11686 4.85526E+01
 -1     11687 3.04984E+01
 -1     11688 3.43580E+01
 -1     11689 1.76969E+01
 -1     11690 2.60332E+01
 -1     11691 1.53667E+01
 -1     11692 1.77084E+01
 -1     11693 2.60211E+01
 -1     11694 1.53532E+01
 -1     11695 1.76975E+01
 -1     11696 2.59842E+01
 -1     11697 1.53171E+01
 -1     11698 1.76975E+01
 -1     11699 2.60211E+01
 -1     11700 1.53532E+01
 -1     11701 1.77084E+01
 -1     11702 2.60332E+01
 -1     11703 1.53667E+01
 -1     11704 1.76969E+01
 -1     11705 7.15724E+00
 -1     11706 1.24355E+01
 -1     11707 5.82753E+00
 -1     11708 7.16256E+00
 -1     11709 1.24355E+01
 -1     11710 5.81372E+00
 -1     11711 7.16205E+00
 -1     11712 1.24241E+01
 -1     11713 5.79341E+00
 -1     11714 7.16205E+00
 -1     11715 1.24355E+01
 -1     11716 5.81372E+00
 -1     11717 7.16256E+00
 -1     11718 1.24355E+01
 -1     11719 5.82753E+00
 -1     11720 7.15724E+00
 -1     11721 3.86743E+00
 -1     11722 5.52021E+00
 -1     11723 3.49364E+00
 -1     11724 3.88034E+00
 -1     11725 5.52269E+00
 -1     11726 3.49611E+00
 -1     11727 3.88282E+00
 -1     11728 5.52218E+00
 -1     11729 3.49538E+00
 -1     11730 3.88282E+00
 -1     11731 5.52269E+00
 -1     11732 3.49611E+00
 -1     11733 3.88034E+00
 -1     11734 5.52021E+00
 -1     11735 3.49364E+00
 -1     11736 3.86743E+00
 -1     11737 3.17624E+00
 -1     11738 3.52744E+00
 -1     11739 3.04970E+00
 -1     11740 3.17701E+00
 -1     11741 3.52991E+00
 -1     11742 3.04970E+00
 -1     11743 3.17672E+00
 -1     11744 3.52962E+00
 -1     11745 3.04851E+00
 -1     11746 3.17672E+00
 -1     11747 3.52991E+00
 -1     11748 3.04970E+00
 -1     11749 3.17701E+00
 -1     11750 3.52744E+00
 -1     11751 3.04970E+00
 -1     11752 3.17624E+00
 -1     11753 2.72756E+00
 -1     11754 2.95229E+00
 -1     11755 2.70825E+00
 -1     11756 2.72721E+00
 -1     11757 2.95193E+00
 -1     11758 2.70789E+00
 -1     11759 2.72590E+00
 -1     11760 2.95069E+00
 -1     11761 2.70567E+00
 -1     11762 2.72590E+00
 -1     11763 2.95193E+00
 -1     11764 2.70789E+00
 -1     11765 2.72721E+00
 -1     11766 2.95229E+00
 -1     11767 2.70825E+00
 -1     11768 2.72756E+00
 -1     11769 2.44741E+00
 -1     11770 2.58749E+00
 -1     11771 2.47580E+00
 -1     11772 2.44691E+00
 -1     11773 2.58663E+00
 -1     11774 2.47498E+00
 -1     11775 2.44487E+00
 -1     11776 2.58414E+00
 -1     11777 2.47158E+00
 -1     11778 2.44487E+00
 -1     11779 2.58663E+00
 -1     11780 2.47498E+00
 -1     11781 2.44691E+00
 -1     11782 2.58749E+00
 -1     11783 2.47580E+00
 -1     11784 2.44741E+00
 -1     11785 2.21791E+00
 -1     11786 2.33266E+00
 -1     11787 2.30206E+00
 -1     11788 2.21701E+00
 -1     11789 2.33126E+00
 -1     11790 2.30035E+00
 -1     11791 2.21440E+00
 -1     11792 2.32801E+00
 -1     11793 2.29667E+00
 -1     11794 2.21440E+00
 -1     11795 2.33126E+00
 -1     11796 2.30035E+00
 -1     11797 2.21701E+00
 -1     11798 2.33266E+00
 -1     11799 2.30206E+00
 -1     11800 2.21791E+00
 -1     11801 2.00562E+00
 -1     11802 2.11177E+00
 -1     11803 2.12282E+00
 -1     11804 2.00450E+00
 -1     11805 2.10975E+00
 -1     11806 2.12061E+00
 -1     11807 2.00160E+00
 -1     11808 2.10625E+00
 -1     11809 2.11676E+00
 -1     11810 2.00160E+00
 -1     11811 2.10975E+00
 -1     11812 2.12061E+00
 -1     11813 2.00450E+00
 -1     11814 2.11177E+00
 -1     11815 2.12282E+00
 -1     11816 2.00562E+00
 -1     11817 1.80770E+00
 -1     11818 1.90666E+00
 -1     11819 1.94425E+00
 -1     11820 1.80647E+00
 -1     11821 1.90432E+00
 -1     11822 1.94176E+00
 -1     11823 1.80340E+00
 -1     11824 1.90068E+00
 -1     11825 1.93782E+00
 -1     11826 1.80340E+00
 -1     11827 1.90432E+00
 -1     11828 1.94176E+00
 -1     11829 1.80647E+00
 -1     11830 1.90666E+00
 -1     11831 1.94425E+00
 -1     11832 1.80770E+00
 -1     11833 1.61793E+00
 -1     11834 1.71281E+00
 -1     11835 1.76576E+00
 -1     11836 1.61663E+00
 -1     11837 1.71029E+00
 -1     11838 1.76307E+00
 -1     11839 1.61346E+00
 -1     11840 1.70657E+00
 -1     11841 1.75907E+00
 -1     11842 1.61346E+00
 -1     11843 1.71029E+00
 -1     11844 1.76307E+00
 -1     11845 1.61663E+00
 -1     11846 1.71281E+00
 -1     11847 1.76576E+00
 -1     11848 1.61793E+00
 -1     11849 1.78615E+00
 -1     11850 1.70204E+00
 -1     11851 1.92416E+00
 -1     11852 1.78501E+00
 -1     11853 1.69961E+00
 -1     11854 1.92205E+00
 -1     11855 1.78200E+00
 -1     11856 1.69585E+00
 -1     11857 1.91788E+00
 -1     11858 1.78200E+00
 -1     11859 1.69961E+00
 -1     11860 1.92205E+00
 -1     11861 1.78501E+00
 -1     11862 1.70204E+00
 -1     11863 1.92416E+00
 -1     11864 1.78615E+00
 -1     11865 1.96272E+00
 -1     11866 1.87443E+00
 -1     11867 2.08858E+00
 -1     11868 1.96166E+00
 -1     11869 1.87224E+00
 -1     11870 2.08674E+00
 -1     11871 1.95875E+00
 -1     11872 1.86850E+00
 -1     11873 2.08254E+00
 -1     11874 1.95875E+00
 -1     11875 1.87224E+00
 -1     11876 2.08674E+00
 -1     11877 1.96166E+00
 -1     11878 1.87443E+00
 -1     11879 2.08858E+00
 -1     11880 1.96272E+00
 -1     11881 2.14483E+00
 -1     11882 2.05377E+00
 -1     11883 2.25352E+00
 -1     11884 2.14390E+00
 -1     11885 2.05179E+00
 -1     11886 2.25207E+00
 -1     11887 2.14111E+00
 -1     11888 2.04807E+00
 -1     11889 2.24778E+00
 -1     11890 2.14111E+00
 -1     11891 2.05179E+00
 -1     11892 2.25207E+00
 -1     11893 2.14390E+00
 -1     11894 2.05377E+00
 -1     11895 2.25352E+00
 -1     11896 2.14483E+00
 -1     11897 2.33853E+00
 -1     11898 2.24168E+00
 -1     11899 2.42274E+00
 -1     11900 2.33776E+00
 -1     11901 2.23998E+00
 -1     11902 2.42185E+00
 -1     11903 2.33514E+00
 -1     11904 2.23627E+00
 -1     11905 2.41737E+00
 -1     11906 2.33514E+00
 -1     11907 2.23998E+00
 -1     11908 2.42185E+00
 -1     11909 2.33776E+00
 -1     11910 2.24168E+00
 -1     11911 2.42274E+00
 -1     11912 2.33853E+00
 -1     11913 2.55044E+00
 -1     11914 2.44449E+00
 -1     11915 2.59910E+00
 -1     11916 2.54990E+00
 -1     11917 2.44318E+00
 -1     11918 2.59856E+00
 -1     11919 2.54746E+00
 -1     11920 2.43942E+00
 -1     11921 2.59369E+00
 -1     11922 2.54746E+00
 -1     11923 2.44318E+00
 -1     11924 2.59856E+00
 -1     11925 2.54990E+00
 -1     11926 2.44449E+00
 -1     11927 2.59910E+00
 -1     11928 2.55044E+00
 -1     11929 2.78733E+00
 -1     11930 2.66889E+00
 -1     11931 2.78733E+00
 -1     11932 2.78708E+00
 -1     11933 2.66809E+00
 -1     11934 2.78683E+00
 -1     11935 2.78475E+00
 -1     11936 2.66412E+00
 -1     11937 2.78267E+00
 -1     11938 2.78475E+00
 -1     11939 2.66809E+00
 -1     11940 2.78683E+00
 -1     11941 2.78708E+00
 -1     11942 2.66889E+00
 -1     11943 2.78733E+00
 -1     11944 2.78733E+00
 -1     11945 3.11013E+00
 -1     11946 2.94873E+00
 -1     11947 3.07937E+00
 -1     11948 3.10977E+00
 -1     11949 2.94812E+00
 -1     11950 3.07901E+00
 -1     11951 3.10942E+00
 -1     11952 2.94605E+00
 -1     11953 3.07631E+00
 -1     11954 3.10942E+00
 -1     11955 2.94812E+00
 -1     11956 3.07901E+00
 -1     11957 3.10977E+00
 -1     11958 2.94873E+00
 -1     11959 3.07937E+00
 -1     11960 3.11013E+00
 -1     11961 3.62927E+00
 -1     11962 3.36970E+00
 -1     11963 3.46312E+00
 -1     11964 3.63149E+00
 -1     11965 3.37156E+00
 -1     11966 3.46534E+00
 -1     11967 3.63371E+00
 -1     11968 3.37156E+00
 -1     11969 3.45771E+00
 -1     11970 3.63371E+00
 -1     11971 3.37156E+00
 -1     11972 3.46534E+00
 -1     11973 3.63149E+00
 -1     11974 3.36970E+00
 -1     11975 3.46312E+00
 -1     11976 3.62927E+00
 -1     11977 6.03925E+00
 -1     11978 4.84382E+00
 -1     11979 4.77300E+00
 -1     11980 6.08546E+00
 -1     11981 4.87313E+00
 -1     11982 4.80009E+00
 -1     11983 6.11255E+00
 -1     11984 4.87313E+00
 -1     11985 4.79158E+00
 -1     11986 6.11255E+00
 -1     11987 4.87313E+00
 -1     11988 4.80009E+00
 -1     11989 6.08546E+00
 -1     11990 4.84382E+00
 -1     11991 4.77300E+00
 -1     11992 6.03925E+00
 -1     11993 1.64022E+01
 -1     11994 1.12303E+01
 -1     11995 1.17875E+01
 -1     11996 1.59955E+01
 -1     11997 1.08506E+01
 -1     11998 1.13807E+01
 -1     11999 1.55887E+01
 -1     12000 1.08506E+01
 -1     12001 1.13093E+01
 -1     12002 1.55887E+01
 -1     12003 1.08506E+01
 -1     12004 1.13807E+01
 -1     12005 1.59955E+01
 -1     12006 1.12303E+01
 -1     12007 1.17875E+01
 -1     12008 1.64022E+01
 -1     12009 2.94340E+01
 -1     12010 2.29181E+01
 -1     12011 1.97494E+01
 -1     12012 2.77234E+01
 -1     12013 2.08007E+01
 -1     12014 1.75654E+01
 -1     12015 2.58998E+01
 -1     12016 2.06878E+01
 -1     12017 1.73840E+01
 -1     12018 2.58998E+01
 -1     12019 2.08007E+01
 -1     12020 1.75654E+01
 -1     12021 2.77234E+01
 -1     12022 2.29181E+01
 -1     12023 1.97494E+01
 -1     12024 2.94340E+01
 -1     12025 2.94340E+01
 -1     12026 2.60128E+01
 -1     12027 2.57869E+01
 -1     12028 2.60128E+01
 -1     12029 2.94340E+01
 -1     12030 6.26805E+01
 -1     12031 6.27473E+01
 -1     12032 6.27473E+01
 -1     12033 6.29054E+01
 -1     12034 6.30635E+01
 -1     12035 6.30635E+01
 -1     12036 6.30635E+01
 -1     12037 6.30635E+01
 -1     12038 6.30635E+01
 -1     12039 6.30635E+01
 -1     12040 6.30635E+01
 -1     12041 6.30635E+01
 -1     12042 6.29054E+01
 -1     12043 6.27473E+01
 -1     12044 6.27473E+01
 -1     12045 6.26805E+01
 -1     12046 5.27467E+01
 -1     12047 5.78537E+01
 -1     12048 4.36590E+01
 -1     12049 5.30247E+01
 -1     12050 5.80764E+01
 -1     12051 4.37115E+01
 -1     12052 5.30893E+01
 -1     12053 5.80764E+01
 -1     12054 4.36856E+01
 -1     12055 5.30893E+01
 -1     12056 5.80764E+01
 -1     12057 4.37115E+01
 -1     12058 5.30247E+01
 -1     12059 5.78537E+01
 -1     12060 4.36590E+01
 -1     12061 5.27467E+01
 -1     12062 2.32546E+01
 -1     12063 3.81107E+01
 -1     12064 2.04848E+01
 -1     12065 2.32658E+01
 -1     12066 3.81797E+01
 -1     12067 2.04893E+01
 -1     12068 2.32702E+01
 -1     12069 3.81797E+01
 -1     12070 2.04784E+01
 -1     12071 2.32702E+01
 -1     12072 3.81797E+01
 -1     12073 2.04893E+01
 -1     12074 2.32658E+01
 -1     12075 3.81107E+01
 -1     12076 2.04848E+01
 -1     12077 2.32546E+01
 -1     12078 9.86005E+00
 -1     12079 1.65684E+01
 -1     12080 8.51907E+00
 -1     12081 9.88632E+00
 -1     12082 1.65836E+01
 -1     12083 8.52981E+00
 -1     12084 9.89706E+00
 -1     12085 1.65836E+01
 -1     12086 8.52930E+00
 -1     12087 9.89706E+00
 -1     12088 1.65836E+01
 -1     12089 8.52981E+00
 -1     12090 9.88632E+00
 -1     12091 1.65684E+01
 -1     12092 8.51907E+00
 -1     12093 9.86005E+00
 -1     12094 5.57852E+00
 -1     12095 7.72811E+00
 -1     12096 4.72925E+00
 -1     12097 5.58328E+00
 -1     12098 7.74150E+00
 -1     12099 4.73437E+00
 -1     12100 5.58593E+00
 -1     12101 7.74150E+00
 -1     12102 4.73437E+00
 -1     12103 5.58593E+00
 -1     12104 7.74150E+00
 -1     12105 4.73437E+00
 -1     12106 5.58328E+00
 -1     12107 7.72811E+00
 -1     12108 4.72925E+00
 -1     12109 5.57852E+00
 -1     12110 3.34092E+00
 -1     12111 4.46078E+00
 -1     12112 3.25896E+00
 -1     12113 3.34003E+00
 -1     12114 4.46253E+00
 -1     12115 3.25807E+00
 -1     12116 3.33855E+00
 -1     12117 4.46194E+00
 -1     12118 3.25719E+00
 -1     12119 3.33855E+00
 -1     12120 4.46253E+00
 -1     12121 3.25807E+00
 -1     12122 3.34003E+00
 -1     12123 4.46078E+00
 -1     12124 3.25896E+00
 -1     12125 3.34092E+00
 -1     12126 2.73926E+00
 -1     12127 3.04009E+00
 -1     12128 2.73341E+00
 -1     12129 2.73775E+00
 -1     12130 3.03769E+00
 -1     12131 2.73155E+00
 -1     12132 2.73487E+00
 -1     12133 3.03573E+00
 -1     12134 2.72923E+00
 -1     12135 2.73487E+00
 -1     12136 3.03769E+00
 -1     12137 2.73155E+00
 -1     12138 2.73775E+00
 -1     12139 3.04009E+00
 -1     12140 2.73341E+00
 -1     12141 2.73926E+00
 -1     12142 2.36270E+00
 -1     12143 2.55098E+00
 -1     12144 2.40506E+00
 -1     12145 2.36179E+00
 -1     12146 2.54856E+00
 -1     12147 2.40364E+00
 -1     12148 2.35953E+00
 -1     12149 2.54585E+00
 -1     12150 2.40076E+00
 -1     12151 2.35953E+00
 -1     12152 2.54856E+00
 -1     12153 2.40364E+00
 -1     12154 2.36179E+00
 -1     12155 2.55098E+00
 -1     12156 2.40506E+00
 -1     12157 2.36270E+00
 -1     12158 2.06558E+00
 -1     12159 2.21414E+00
 -1     12160 2.14175E+00
 -1     12161 2.06439E+00
 -1     12162 2.21203E+00
 -1     12163 2.13965E+00
 -1     12164 2.06163E+00
 -1     12165 2.20913E+00
 -1     12166 2.13638E+00
 -1     12167 2.06163E+00
 -1     12168 2.21203E+00
 -1     12169 2.13965E+00
 -1     12170 2.06439E+00
 -1     12171 2.21414E+00
 -1     12172 2.14175E+00
 -1     12173 2.06558E+00
 -1     12174 1.81729E+00
 -1     12175 1.94143E+00
 -1     12176 1.91145E+00
 -1     12177 1.81596E+00
 -1     12178 1.93891E+00
 -1     12179 1.90901E+00
 -1     12180 1.81293E+00
 -1     12181 1.93564E+00
 -1     12182 1.90552E+00
 -1     12183 1.81293E+00
 -1     12184 1.93891E+00
 -1     12185 1.90901E+00
 -1     12186 1.81596E+00
 -1     12187 1.94143E+00
 -1     12188 1.91145E+00
 -1     12189 1.81729E+00
 -1     12190 1.60070E+00
 -1     12191 1.70900E+00
 -1     12192 1.70420E+00
 -1     12193 1.59929E+00
 -1     12194 1.70625E+00
 -1     12195 1.70156E+00
 -1     12196 1.59610E+00
 -1     12197 1.70277E+00
 -1     12198 1.69794E+00
 -1     12199 1.59610E+00
 -1     12200 1.70625E+00
 -1     12201 1.70156E+00
 -1     12202 1.59929E+00
 -1     12203 1.70900E+00
 -1     12204 1.70420E+00
 -1     12205 1.60070E+00
 -1     12206 1.40180E+00
 -1     12207 1.50125E+00
 -1     12208 1.50986E+00
 -1     12209 1.40034E+00
 -1     12210 1.49838E+00
 -1     12211 1.50711E+00
 -1     12212 1.39703E+00
 -1     12213 1.49475E+00
 -1     12214 1.50339E+00
 -1     12215 1.39703E+00
 -1     12216 1.49838E+00
 -1     12217 1.50711E+00
 -1     12218 1.40034E+00
 -1     12219 1.50125E+00
 -1     12220 1.50986E+00
 -1     12221 1.40180E+00
 -1     12222 1.57992E+00
 -1     12223 1.49086E+00
 -1     12224 1.68303E+00
 -1     12225 1.57861E+00
 -1     12226 1.48809E+00
 -1     12227 1.68059E+00
 -1     12228 1.57560E+00
 -1     12229 1.48454E+00
 -1     12230 1.67701E+00
 -1     12231 1.57560E+00
 -1     12232 1.48809E+00
 -1     12233 1.68059E+00
 -1     12234 1.57861E+00
 -1     12235 1.49086E+00
 -1     12236 1.68303E+00
 -1     12237 1.57992E+00
 -1     12238 1.76676E+00
 -1     12239 1.67334E+00
 -1     12240 1.86474E+00
 -1     12241 1.76553E+00
 -1     12242 1.67080E+00
 -1     12243 1.86245E+00
 -1     12244 1.76264E+00
 -1     12245 1.66744E+00
 -1     12246 1.85894E+00
 -1     12247 1.76264E+00
 -1     12248 1.67080E+00
 -1     12249 1.86245E+00
 -1     12250 1.76553E+00
 -1     12251 1.67334E+00
 -1     12252 1.86474E+00
 -1     12253 1.76676E+00
 -1     12254 1.96466E+00
 -1     12255 1.86571E+00
 -1     12256 2.05474E+00
 -1     12257 1.96352E+00
 -1     12258 1.86333E+00
 -1     12259 2.05267E+00
 -1     12260 1.96082E+00
 -1     12261 1.86013E+00
 -1     12262 2.04925E+00
 -1     12263 1.96082E+00
 -1     12264 1.86333E+00
 -1     12265 2.05267E+00
 -1     12266 1.96352E+00
 -1     12267 1.86571E+00
 -1     12268 2.05474E+00
 -1     12269 1.96466E+00
 -1     12270 2.18210E+00
 -1     12271 2.07338E+00
 -1     12272 2.26032E+00
 -1     12273 2.18110E+00
 -1     12274 2.07124E+00
 -1     12275 2.25855E+00
 -1     12276 2.17866E+00
 -1     12277 2.06824E+00
 -1     12278 2.25526E+00
 -1     12279 2.17866E+00
 -1     12280 2.07124E+00
 -1     12281 2.25855E+00
 -1     12282 2.18110E+00
 -1     12283 2.07338E+00
 -1     12284 2.26032E+00
 -1     12285 2.18210E+00
 -1     12286 2.43077E+00
 -1     12287 2.30644E+00
 -1     12288 2.49061E+00
 -1     12289 2.42995E+00
 -1     12290 2.30461E+00
 -1     12291 2.48924E+00
 -1     12292 2.42790E+00
 -1     12293 2.30195E+00
 -1     12294 2.48612E+00
 -1     12295 2.42790E+00
 -1     12296 2.30461E+00
 -1     12297 2.48924E+00
 -1     12298 2.42995E+00
 -1     12299 2.30644E+00
 -1     12300 2.49061E+00
 -1     12301 2.43077E+00
 -1     12302 2.72962E+00
 -1     12303 2.58020E+00
 -1     12304 2.75847E+00
 -1     12305 2.72895E+00
 -1     12306 2.57870E+00
 -1     12307 2.75755E+00
 -1     12308 2.72746E+00
 -1     12309 2.57666E+00
 -1     12310 2.75466E+00
 -1     12311 2.72746E+00
 -1     12312 2.57870E+00
 -1     12313 2.75755E+00
 -1     12314 2.72895E+00
 -1     12315 2.58020E+00
 -1     12316 2.75847E+00
 -1     12317 2.72962E+00
 -1     12318 3.14117E+00
 -1     12319 2.93540E+00
 -1     12320 3.12565E+00
 -1     12321 3.13976E+00
 -1     12322 2.93331E+00
 -1     12323 3.12388E+00
 -1     12324 3.13835E+00
 -1     12325 2.93250E+00
 -1     12326 3.12388E+00
 -1     12327 3.13835E+00
 -1     12328 2.93331E+00
 -1     12329 3.12388E+00
 -1     12330 3.13976E+00
 -1     12331 2.93540E+00
 -1     12332 3.12565E+00
 -1     12333 3.14117E+00
 -1     12334 4.42394E+00
 -1     12335 3.78256E+00
 -1     12336 4.02661E+00
 -1     12337 4.39500E+00
 -1     12338 3.75220E+00
 -1     12339 3.99988E+00
 -1     12340 4.36605E+00
 -1     12341 3.75220E+00
 -1     12342 3.99988E+00
 -1     12343 4.36605E+00
 -1     12344 3.75220E+00
 -1     12345 3.99988E+00
 -1     12346 4.39500E+00
 -1     12347 3.78256E+00
 -1     12348 4.02661E+00
 -1     12349 4.42394E+00
 -1     12350 9.68418E+00
 -1     12351 7.05406E+00
 -1     12352 7.87128E+00
 -1     12353 9.47100E+00
 -1     12354 6.81193E+00
 -1     12355 7.68518E+00
 -1     12356 9.25781E+00
 -1     12357 6.81193E+00
 -1     12358 7.68518E+00
 -1     12359 9.25781E+00
 -1     12360 6.81193E+00
 -1     12361 7.68518E+00
 -1     12362 9.47100E+00
 -1     12363 7.05406E+00
 -1     12364 7.87128E+00
 -1     12365 9.68418E+00
 -1     12366 3.00111E+01
 -1     12367 1.98477E+01
 -1     12368 2.32067E+01
 -1     12369 2.79581E+01
 -1     12370 1.75815E+01
 -1     12371 2.07469E+01
 -1     12372 2.59051E+01
 -1     12373 1.75815E+01
 -1     12374 2.07469E+01
 -1     12375 2.59051E+01
 -1     12376 1.75815E+01
 -1     12377 2.07469E+01
 -1     12378 2.79581E+01
 -1     12379 1.98477E+01
 -1     12380 2.32067E+01
 -1     12381 3.00111E+01
 -1     12382 6.53893E+01
 -1     12383 4.81058E+01
 -1     12384 4.78172E+01
 -1     12385 6.63366E+01
 -1     12386 4.61890E+01
 -1     12387 4.62428E+01
 -1     12388 6.64728E+01
 -1     12389 4.61890E+01
 -1     12390 4.61298E+01
 -1     12391 6.64728E+01
 -1     12392 4.61890E+01
 -1     12393 4.62428E+01
 -1     12394 6.63366E+01
 -1     12395 4.81058E+01
 -1     12396 4.78172E+01
 -1     12397 6.53893E+01
 -1     12398 6.62005E+01
 -1     12399 6.64728E+01
 -1     12400 6.64728E+01
 -1     12401 6.64728E+01
 -1     12402 6.62005E+01
 -1     12403 6.26805E+01
 -1     12404 6.18827E+01
 -1     12405 6.17986E+01
 -1     12406 6.18827E+01
 -1     12407 6.26805E+01
 -1     12408 5.29601E+01
 -1     12409 5.30893E+01
 -1     12410 5.30893E+01
 -1     12411 5.30893E+01
 -1     12412 5.29601E+01
 -1     12413 2.32613E+01
 -1     12414 2.32702E+01
 -1     12415 2.32702E+01
 -1     12416 2.32702E+01
 -1     12417 2.32613E+01
 -1     12418 9.87559E+00
 -1     12419 9.89706E+00
 -1     12420 9.89706E+00
 -1     12421 9.89706E+00
 -1     12422 9.87559E+00
 -1     12423 5.58064E+00
 -1     12424 5.58593E+00
 -1     12425 5.58593E+00
 -1     12426 5.58593E+00
 -1     12427 5.58064E+00
 -1     12428 3.34092E+00
 -1     12429 3.33914E+00
 -1     12430 3.33796E+00
 -1     12431 3.33914E+00
 -1     12432 3.34092E+00
 -1     12433 2.73926E+00
 -1     12434 2.73624E+00
 -1     12435 2.73350E+00
 -1     12436 2.73624E+00
 -1     12437 2.73926E+00
 -1     12438 2.33032E+00
 -1     12439 2.32763E+00
 -1     12440 2.32444E+00
 -1     12441 2.32763E+00
 -1     12442 2.33032E+00
 -1     12443 2.01462E+00
 -1     12444 2.01155E+00
 -1     12445 2.00782E+00
 -1     12446 2.01155E+00
 -1     12447 2.01462E+00
 -1     12448 1.75771E+00
 -1     12449 1.75447E+00
 -1     12450 1.75041E+00
 -1     12451 1.75447E+00
 -1     12452 1.75771E+00
 -1     12453 1.53753E+00
 -1     12454 1.53424E+00
 -1     12455 1.52991E+00
 -1     12456 1.53424E+00
 -1     12457 1.53753E+00
 -1     12458 1.33781E+00
 -1     12459 1.33436E+00
 -1     12460 1.33027E+00
 -1     12461 1.33436E+00
 -1     12462 1.33781E+00
 -1     12463 1.51896E+00
 -1     12464 1.51494E+00
 -1     12465 1.51175E+00
 -1     12466 1.51494E+00
 -1     12467 1.51896E+00
 -1     12468 1.70764E+00
 -1     12469 1.70340E+00
 -1     12470 1.70064E+00
 -1     12471 1.70340E+00
 -1     12472 1.70764E+00
 -1     12473 1.90907E+00
 -1     12474 1.90447E+00
 -1     12475 1.90236E+00
 -1     12476 1.90447E+00
 -1     12477 1.90907E+00
 -1     12478 2.13243E+00
 -1     12479 2.12754E+00
 -1     12480 2.12610E+00
 -1     12481 2.12754E+00
 -1     12482 2.13243E+00
 -1     12483 2.39108E+00
 -1     12484 2.38692E+00
 -1     12485 2.38570E+00
 -1     12486 2.38692E+00
 -1     12487 2.39108E+00
 -1     12488 2.70747E+00
 -1     12489 2.70428E+00
 -1     12490 2.70347E+00
 -1     12491 2.70428E+00
 -1     12492 2.70747E+00
 -1     12493 3.14117E+00
 -1     12494 3.13835E+00
 -1     12495 3.13835E+00
 -1     12496 3.13835E+00
 -1     12497 3.14117E+00
 -1     12498 4.42394E+00
 -1     12499 4.36605E+00
 -1     12500 4.36605E+00
 -1     12501 4.36605E+00
 -1     12502 4.42394E+00
 -1     12503 9.68418E+00
 -1     12504 9.25781E+00
 -1     12505 9.25781E+00
 -1     12506 9.25781E+00
 -1     12507 9.68418E+00
 -1     12508 3.00111E+01
 -1     12509 2.59051E+01
 -1     12510 2.59051E+01
 -1     12511 2.59051E+01
 -1     12512 3.00111E+01
 -1     12513 6.62005E+01
 -1     12514 6.64728E+01
 -1     12515 6.64728E+01
 -1     12516 6.64728E+01
 -1     12517 6.62005E+01
 -3
 9999
